# x y z rho theta phi s1 s2 stress_xx np intf bulk
-0.759224 -10.726165 -14.313852 17.902888 1.500132 2.497305 0.013746 -0.001243 -445089.000000 1 0 0
2.137476 -13.338365 -13.001652 18.748966 -1.411897 2.337076 0.013095 -0.000511 862604.000000 1 0 0
2.158176 -11.181765 -14.751852 18.636167 -1.380132 2.484172 0.007815 0.005844 856381.000000 1 0 0
-5.689624 -6.380265 -16.312152 18.416457 0.842556 2.658877 0.020110 -0.006332 154148.000000 1 0 0
4.490876 -14.029665 -11.503452 18.690342 -1.261004 2.233786 0.007143 -0.002691 659134.000000 1 0 0
14.036476 -10.623865 -7.942252 19.312393 -0.647887 1.994623 0.048843 -0.003687 -615582.000000 1 0 0
7.159776 10.787635 -10.861852 16.900156 0.984849 2.268823 0.030686 -0.013580 -982875.000000 1 0 0
5.690676 -4.190165 -12.587552 14.435641 -0.634689 2.630023 0.013559 0.002777 2497630.000000 1 0 0
13.699876 0.510435 -10.036352 16.990453 0.037241 2.202729 0.037025 -0.004981 1787140.000000 1 0 0
14.231176 4.936035 -10.442852 18.328774 0.333863 2.177000 0.036802 -0.003034 161324.000000 1 0 0
4.135076 4.328335 -13.483052 14.752153 0.808229 2.723763 0.002853 0.001725 1572300.000000 1 0 0
10.439576 -5.002565 -13.826552 18.032857 -0.446863 2.444547 0.047204 0.005068 889420.000000 1 0 0
2.639376 -7.588165 -12.109552 14.532302 -1.236058 2.555820 0.004874 0.003960 987250.000000 1 0 0
-5.635224 -2.056365 -15.092752 16.241168 0.349898 2.763282 0.010089 -0.006613 -24246.100000 1 0 0
10.671076 0.023635 -9.625152 14.370663 0.002215 2.304706 0.017308 0.000825 2743040.000000 1 0 0
-1.628724 -9.676965 -16.883552 19.528203 1.404050 2.615096 0.027205 -0.009351 878573.000000 1 0 0
8.522976 1.886835 -18.175652 20.163223 0.217868 2.693848 0.044042 -0.005041 -175824.000000 1 0 0
16.557776 -5.879265 -9.056852 19.767455 -0.341189 2.046731 0.092273 -0.003654 104939.000000 1 0 0
10.036276 7.557135 -9.959952 16.032397 0.645407 2.241119 0.029831 -0.003652 360986.000000 1 0 0
13.944476 -2.259365 -10.740652 17.745837 -0.160630 2.220875 0.054132 -0.004732 -1568050.000000 1 0 0
7.325976 -1.862865 -13.705252 15.651649 -0.249005 2.637561 0.025187 0.000792 1028780.000000 1 0 0
-2.793024 6.634235 -13.793952 15.559151 -1.172317 2.660628 0.008611 -0.002469 1148790.000000 1 0 0
11.236976 1.779935 -14.060552 18.086927 0.157095 2.461298 0.044777 -0.002481 1176940.000000 1 0 0
-2.395724 10.706335 -12.933752 16.960160 -1.350656 2.438113 0.010591 -0.002261 -388954.000000 1 0 0
2.889076 -1.092665 -15.264052 15.573437 -0.361578 2.941931 0.016365 -0.001225 -164975.000000 1 0 0
-9.017224 0.524735 -15.155652 17.643114 -0.058127 2.604134 0.007713 -0.005562 -1513840.000000 1 0 0
2.266376 -1.853765 -18.086152 18.321621 -0.685586 2.981096 0.034035 -0.010133 2329280.000000 1 0 0
1.032676 7.877335 -13.181252 15.390394 1.440445 2.599168 0.007334 -0.002390 -893734.000000 1 0 0
9.315876 -8.933065 -9.847152 16.234272 -0.764424 2.222530 0.027938 -0.001463 -27599.900000 1 0 0
3.902976 7.307535 -13.436452 15.785168 1.080240 2.589078 0.003831 -0.002431 4296.850000 1 0 0
-2.703924 9.104035 -15.516552 18.192252 -1.282091 2.592351 0.012245 -0.000224 -348395.000000 1 0 0
5.508776 -7.746565 -15.514152 18.194636 -0.952643 2.591885 0.028496 0.002026 221360.000000 1 0 0
4.189576 7.426135 -16.291652 18.387984 1.057142 2.659431 0.015521 0.001964 528018.000000 1 0 0
-0.212424 5.106535 -13.451752 14.389977 -1.529222 2.778492 0.009466 -0.003092 2192760.000000 1 0 0
8.758276 4.399235 -16.741352 19.399318 0.465482 2.611948 0.043335 -0.003817 -687156.000000 1 0 0
5.356876 0.340635 -14.452452 15.417053 0.063503 2.785979 0.010505 0.003363 270162.000000 1 0 0
6.230976 7.923535 -11.526852 15.312602 0.904410 2.423055 0.006643 -0.003767 67093.000000 1 0 0
2.756076 -8.397165 -15.086052 17.484201 -1.253659 2.611656 0.015222 0.000474 -478856.000000 1 0 0
4.019276 11.522535 -13.745452 18.380991 1.235174 2.415551 0.035170 -0.017900 -1256070.000000 1 0 0
0.584476 -4.587565 -13.706452 14.465621 -1.444075 2.816181 0.008414 0.001216 735963.000000 1 0 0
8.475276 -0.021465 -11.647552 14.404729 -0.002533 2.512552 0.011495 -0.000162 937803.000000 1 0 0
-1.045124 -5.085065 -16.304652 17.111161 1.368091 2.833344 0.017040 -0.009458 772440.000000 1 0 0
4.445976 0.848935 -11.734252 12.576965 0.188673 2.773445 0.005534 -0.000008 125943.000000 1 0 0
-2.967124 -7.300365 -15.630752 17.504844 1.184755 2.674628 0.003743 -0.002559 2115930.000000 1 0 0
11.451576 -3.706065 -11.417652 16.590246 -0.312992 2.329822 0.030558 -0.000783 2502960.000000 1 0 0
6.492376 -7.084165 -12.672352 15.903611 -0.828960 2.492814 0.019027 0.002546 -696727.000000 1 0 0
3.385476 -4.063065 -14.723252 15.644299 -0.876118 2.796741 0.021784 0.001924 2349190.000000 1 0 0
-0.663124 -1.541165 -18.373952 18.450394 1.164466 3.050533 0.032428 -0.015563 950277.000000 1 0 0
14.901176 2.905335 -8.494052 17.396406 0.192558 2.080897 0.024844 -0.002533 -637549.000000 1 0 0
6.942276 4.360835 -14.456952 16.619733 0.560866 2.625728 0.016793 0.002491 2229310.000000 1 0 0
10.106176 -9.668065 -14.113452 19.869469 -0.763246 2.360733 0.052457 -0.006712 -614372.000000 1 0 0
9.235376 -3.134165 -15.573952 18.375612 -0.327169 2.582117 0.064412 -0.007081 -9109.570000 1 0 0
-5.321124 -2.203765 -17.981452 18.881302 0.392648 2.831619 0.009261 -0.003604 -934523.000000 1 0 0
5.101276 -9.051365 -11.104552 15.207278 -1.057578 2.389430 0.000133 0.003847 1145240.000000 1 0 0
-2.402124 3.907235 -17.184852 17.786394 -1.019574 2.880776 0.014078 0.004470 1933580.000000 1 0 0
9.347776 9.454335 -14.583152 19.734074 0.791066 2.402356 0.071606 -0.003663 -715558.000000 1 0 0
9.813276 10.001635 -11.636852 18.213989 0.794904 2.263859 0.044407 -0.014313 416733.000000 1 0 0
12.044076 -5.907265 -9.690752 16.548904 -0.455995 2.196395 0.033282 0.000103 -1226240.000000 1 0 0
8.086276 7.050135 -13.778452 17.462474 0.717051 2.480028 0.025629 -0.000906 -63815.900000 1 0 0
3.922676 -4.233165 -17.678152 18.596347 -0.823449 2.826040 0.043784 -0.009227 603382.000000 1 0 0
9.356476 -7.455965 -12.486052 17.292673 -0.672834 2.377547 0.033054 0.000607 716384.000000 1 0 0
12.031676 -8.613565 -8.794352 17.213232 -0.621322 2.107035 0.043158 -0.002691 806689.000000 1 0 0
-2.973824 -2.486865 -13.828452 14.361553 0.696458 2.868272 0.006466 -0.003803 -1921950.000000 1 0 0
-0.337424 6.145335 -17.524552 18.573877 -1.515944 2.803851 0.022270 -0.001288 1987580.000000 1 0 0
1.041576 -8.539065 -17.478152 19.480408 -1.449418 2.684223 0.031081 -0.005991 2147220.000000 1 0 0
0.110476 8.606135 -15.983252 18.153295 1.557960 2.647628 0.018715 0.001502 -348198.000000 1 0 0
1.834076 3.384235 -14.936252 15.424283 1.074157 2.889368 0.012218 0.000414 1844950.000000 1 0 0
-1.990124 -0.541565 -15.818652 15.952543 0.265693 3.011940 0.016079 -0.004440 1187960.000000 1 0 0
14.224476 -4.341565 -8.585352 17.172454 -0.296237 2.094336 0.050779 0.001268 99098.200000 1 0 0
0.581276 0.598035 -14.648952 14.672672 0.799608 3.084723 0.007632 -0.000916 1772380.000000 1 0 0
8.801476 2.735835 -12.728452 15.715096 0.301370 2.514864 0.018175 0.002564 1815010.000000 1 0 0
5.852076 1.026735 -17.206152 18.203094 0.173680 2.809102 0.034832 0.000712 1350910.000000 1 0 0
15.333676 1.549235 -12.384052 19.770849 0.100693 2.247696 0.071765 -0.015618 -506304.000000 1 0 0
8.885676 -11.205365 -11.868852 18.584539 -0.900348 2.263527 0.044336 -0.007202 496522.000000 1 0 0
-4.617724 0.735035 -15.083952 15.792063 -0.157853 2.840997 0.013947 -0.004680 847945.000000 1 0 0
2.427476 5.192335 -17.245752 18.173303 1.133476 2.820721 0.021635 0.000258 45350.400000 1 0 0
6.039876 -11.727565 -12.357052 18.075193 -1.095209 2.323545 0.018794 -0.004083 705058.000000 1 0 0
12.762576 7.043235 -8.803852 17.029337 0.504275 2.114117 0.021116 -0.007669 794814.000000 1 0 0
-5.025724 3.581435 -15.752352 16.918072 -0.619146 2.768203 0.013412 0.000849 712050.000000 1 0 0
-0.728424 -4.382165 -19.146352 19.654942 1.406078 2.913609 0.038888 -0.016614 -1542950.000000 1 0 0
9.811276 4.368835 -10.382552 14.938047 0.418928 2.339273 0.008469 0.000363 741643.000000 1 0 0
13.339776 3.656135 -12.927752 18.932610 0.267509 2.322425 0.057008 -0.006846 -213000.000000 1 0 0
-6.378024 5.754835 -17.227352 19.250428 -0.734080 2.679020 0.019263 0.004133 -533080.000000 1 0 0
-10.141424 3.212135 -15.334252 18.662947 -0.306738 2.535081 0.008424 -0.009402 -779810.000000 1 0 0
10.693076 13.669835 -8.186852 19.189341 0.906980 2.011566 0.085220 -0.020503 409511.000000 1 0 0
7.523576 13.322135 -12.340752 19.656491 1.056705 2.249547 0.064043 -0.021121 91866.000000 1 0 0
5.371076 14.986335 -11.222552 19.477791 1.226659 2.184833 0.048609 -0.026426 -56299.000000 1 0 0
14.166076 9.472935 -9.794552 19.655723 0.589413 2.092439 0.074576 -0.017442 -1105320.000000 1 0 0
8.464776 -17.143365 -2.238352 19.249873 -1.112150 1.687339 0.025403 -0.001993 -2173070.000000 1 0 0
0.806776 -15.918865 0.097148 15.939592 -1.520159 1.564702 0.013032 -0.009908 2560090.000000 1 0 0
-9.108424 -11.674565 7.619348 16.652727 0.908249 1.095566 0.024742 -0.006928 525532.000000 1 0 0
2.116376 -15.742565 -2.493552 16.078719 -1.437161 1.726509 0.014920 -0.011188 2624140.000000 1 0 0
-1.379224 -11.033765 -9.447652 14.591242 1.446441 2.275080 -0.003441 0.003210 1128580.000000 1 0 0
-4.964624 -12.710265 -13.024452 18.863581 1.198420 2.332914 0.010760 0.002824 121695.000000 1 0 0
-8.283424 -17.824065 -1.481452 19.710584 1.135759 1.646027 0.050206 -0.028500 -1865260.000000 1 0 0
-11.364324 -7.082165 -8.827852 16.038575 0.557299 2.153656 0.016810 -0.005490 1983590.000000 1 0 0
-13.598024 -11.634665 -4.718552 18.507740 0.707744 1.828593 0.032399 -0.000192 -257236.000000 1 0 0
-5.706824 -13.305265 9.801248 17.483203 1.165615 0.975675 0.014785 -0.007454 -148633.000000 1 0 0
0.141776 -13.974065 -3.661052 14.446380 -1.560651 1.827014 0.011162 -0.007560 -495123.000000 1 0 0
-14.781224 -11.592365 2.051848 18.896497 0.665071 1.461998 0.016533 -0.001777 902964.000000 1 0 0
-3.905324 -16.487065 -7.412052 18.493604 1.338211 1.983175 0.027133 -0.017308 -330696.000000 1 0 0
0.501676 -15.294365 -9.352252 17.934154 -1.538007 2.119378 0.005112 0.005112 -434959.000000 1 0 0
4.630376 -14.057465 -2.575752 15.022889 -1.252600 1.743103 0.014520 -0.005037 172788.000000 1 0 0
-3.377124 -18.009865 -2.495752 18.492944 1.385434 1.706166 0.038905 -0.028267 361480.000000 1 0 0
-0.846324 -13.442165 0.719548 13.487988 1.507919 1.517424 0.012328 -0.005505 2782100.000000 1 0 0
-8.494924 -11.347565 -10.470752 17.622929 0.928184 2.207011 0.014128 -0.005154 1904980.000000 1 0 0
-3.619824 -14.089365 -0.405352 14.552582 1.319316 1.598654 0.012294 -0.008573 4850570.000000 1 0 0
-1.502824 -14.871565 -7.288552 16.629640 1.470085 2.024488 0.013842 -0.003058 553541.000000 1 0 0
-14.303624 -8.034565 -1.760952 16.499965 0.511793 1.677725 0.009659 -0.001027 23493.000000 1 0 0
-10.708624 -7.444465 -11.572152 17.435865 0.607486 2.296548 0.018744 -0.003566 -816550.000000 1 0 0
-9.500424 -14.723665 6.869148 18.820987 0.997769 1.197193 0.019170 0.001944 2354300.000000 1 0 0
-2.538924 -14.294065 -12.251752 18.996627 1.395009 2.271746 0.019898 -0.001533 235947.000000 1 0 0
2.488376 -17.538665 -4.726052 18.333913 -1.429858 1.831517 0.035772 -0.015994 396154.000000 1 0 0
-6.626724 -9.650065 -9.152052 14.859249 0.969051 2.234345 0.004967 -0.002823 423805.000000 1 0 0
-10.968624 -15.358265 0.507048 18.879728 0.950614 1.543936 0.026835 -0.011860 1636360.000000 1 0 0
-12.707924 -11.076965 4.220148 17.378151 0.716934 1.325502 0.025319 -0.001996 1402570.000000 1 0 0
-17.086224 -8.856365 -1.589352 19.310627 0.478207 1.653194 0.010612 -0.005480 -1321790.000000 1 0 0
-1.190424 -19.030965 -3.992452 19.481643 1.508326 1.777193 0.057496 -0.023975 -657352.000000 1 0 0
3.169176 -14.334265 -8.789352 17.110451 -1.353206 2.110269 0.013178 -0.002849 1112460.000000 1 0 0
-4.331124 -8.098265 -13.090752 15.990882 1.079681 2.529833 0.005443 0.000788 1386520.000000 1 0 0
5.670676 -16.545665 1.313048 17.539660 -1.240614 1.495865 0.021275 -0.004631 4289630.000000 1 0 0
-2.796524 -13.791165 -3.201052 14.431338 1.370732 1.794469 0.009855 -0.007282 -289491.000000 1 0 0
-0.359224 -13.939765 3.679748 14.421742 1.545032 1.312791 0.010802 -0.002924 -2336290.000000 1 0 0
1.256176 -16.088765 7.034648 17.604335 -1.492877 1.159719 0.028641 -0.009666 2100020.000000 1 0 0
-5.472624 -10.422165 -14.736952 18.861307 1.087275 2.467594 0.010473 0.000030 -887288.000000 1 0 0
-0.176824 -17.128865 -5.930852 18.127446 1.560474 1.904109 0.036062 -0.012148 262781.000000 1 0 0
-6.532324 -13.396365 -1.249652 14.956453 1.117102 1.654447 0.012011 -0.005400 3658480.000000 1 0 0
-1.599924 -17.677365 -0.221752 17.751005 1.480535 1.583289 0.027644 -0.020308 1912740.000000 1 0 0
-9.475524 -9.840665 -4.876152 14.505210 0.804299 1.913639 0.014728 -0.002322 1966240.000000 1 0 0
-0.700224 -16.682365 4.834448 17.382851 1.528847 1.288964 0.021074 -0.007265 1195180.000000 1 0 0
-6.786624 -9.872565 -6.234452 13.505340 0.968562 2.050627 0.011391 -0.003193 2663170.000000 1 0 0
-6.009024 -14.527765 -8.509952 17.876902 1.178601 2.066932 0.015545 -0.013051 -1149320.000000 1 0 0
-5.707224 -12.180265 -10.243052 16.907140 1.132613 2.221620 0.006852 -0.003818 1221010.000000 1 0 0
-10.622224 -12.304565 -8.694652 18.434504 0.858646 2.061958 0.032204 -0.016411 165007.000000 1 0 0
4.074076 -16.889665 6.627548 18.595249 -1.334101 1.206373 0.043119 -0.015730 1322730.000000 1 0 0
-6.718424 -14.468565 -4.052652 16.459058 1.136076 1.819581 0.025337 -0.015663 -122958.000000 1 0 0
-2.878024 -12.177965 -7.117152 14.395822 1.338724 2.087929 0.001909 -0.003581 3316580.000000 1 0 0
-7.154724 -12.809265 4.451148 15.332321 1.061406 1.276244 0.011712 -0.000809 1197870.000000 1 0 0
2.704076 -16.387565 2.398248 16.781416 -1.407262 1.427394 0.024656 -0.010743 2250190.000000 1 0 0
-6.217924 -11.969165 7.227548 15.302318 1.091674 1.078878 0.008068 -0.001302 823356.000000 1 0 0
-11.216024 -12.817765 -0.949752 17.058614 0.851945 1.626501 0.027940 -0.003002 1205550.000000 1 0 0
-14.272224 -8.696865 4.664148 17.351833 0.547271 1.298651 0.024045 -0.007207 1198170.000000 1 0 0
-7.919324 -15.704965 4.513748 18.158622 1.103750 1.319589 0.013372 0.007954 2063790.000000 1 0 0
-16.467424 -9.211665 1.291148 18.912903 0.510022 1.502475 -0.003789 0.000808 -635460.000000 1 0 0
-6.457924 -17.081965 2.427148 18.422523 1.209350 1.438663 0.017423 -0.006924 1583110.000000 1 0 0
-11.581724 -14.985965 -4.661552 19.505013 0.912838 1.812124 0.052154 -0.014999 140032.000000 1 0 0
-10.056524 -10.138765 -12.505552 18.982019 0.789470 2.290033 0.010281 -0.001832 95962.300000 1 0 0
-4.361724 -15.999465 -4.514652 17.186902 1.304647 1.836595 0.020368 -0.016347 44633.600000 1 0 0
-11.857124 -8.316865 0.088448 14.483420 0.611681 1.564689 0.004102 -0.001404 1764990.000000 1 0 0
-9.734324 -11.166965 3.525648 15.227881 0.853834 1.337150 0.009763 0.002247 2939430.000000 1 0 0
-14.088824 -12.829765 -0.501052 19.061713 0.738659 1.597085 0.015565 -0.000487 112411.000000 1 0 0
5.554476 -14.865565 -7.100952 17.385648 -1.213212 1.991538 0.011990 -0.012803 669357.000000 1 0 0
-7.446824 -10.581165 -1.222152 12.996534 0.957537 1.664972 0.009630 0.000500 1244360.000000 1 0 0
-11.685024 -8.241665 -5.993452 15.504396 0.614287 1.967700 0.017731 -0.005096 659589.000000 1 0 0
-14.366724 -6.689365 -9.067652 18.258496 0.435763 2.090504 0.031832 -0.010929 2161880.000000 1 0 0
-3.763124 -16.435565 1.405148 16.919319 1.345714 1.487651 0.023874 -0.015880 2242340.000000 1 0 0
-7.890224 -15.527165 0.264348 17.418908 1.100645 1.555620 0.028935 -0.011661 734490.000000 1 0 0
1.193276 -18.563765 3.677048 18.962014 -1.506605 1.375643 0.035657 -0.010544 1179900.000000 1 0 0
-14.216124 -8.849265 -4.511852 17.342563 0.556786 1.833985 0.017862 -0.005878 129996.000000 1 0 0
-3.252224 -14.445365 11.148048 18.534414 1.349349 0.925446 0.007277 -0.010342 699427.000000 1 0 0
-10.817324 -12.213365 -3.824752 16.757372 0.845941 1.801069 0.031355 -0.008250 1105330.000000 1 0 0
-9.968724 -10.679165 0.511548 14.617856 0.819792 1.535794 0.009007 0.001569 185222.000000 1 0 0
-0.117524 -13.094965 -11.146852 17.197216 1.561822 2.275985 0.009779 -0.000194 1527960.000000 1 0 0
-5.900524 -12.642665 -6.241752 15.284392 1.134129 1.991469 0.004008 -0.009962 948039.000000 1 0 0
1.723476 -15.688565 9.900348 18.631112 -1.461380 1.010558 0.024585 -0.016099 -505814.000000 1 0 0
-8.993524 -15.886765 -5.338152 19.020217 1.055675 1.855275 0.050640 -0.021506 -670603.000000 1 0 0
-3.139224 -15.540365 5.962348 16.938337 1.371474 1.211086 0.005681 -0.002473 -568234.000000 1 0 0
-17.452224 -5.456165 -6.545152 19.421351 0.303007 1.914534 0.022568 -0.007871 430990.000000 1 0 0
18.751176 5.665335 -3.159452 19.841491 0.293412 1.730712 0.014148 0.005916 -2046240.000000 1 0 0
12.888676 -12.401965 -5.833452 18.813715 -0.766156 1.886056 0.041783 -0.001486 144321.000000 1 0 0
11.077576 -13.436165 -1.550452 17.482766 -0.881318 1.659598 0.027239 -0.005362 2146590.000000 1 0 0
18.850676 -2.871965 4.647348 19.626360 -0.151191 1.331735 0.083623 -0.014712 -295284.000000 1 0 0
9.113776 -16.635865 4.833348 19.574835 -1.069614 1.321299 0.064371 -0.024595 -317901.000000 1 0 0
18.198876 -1.001365 6.726848 19.428132 -0.054968 1.217233 0.114632 -0.019547 -144569.000000 1 0 0
18.017376 -4.188465 -5.023852 19.167894 -0.228411 1.835991 0.090525 -0.003888 445150.000000 1 0 0
5.483176 -11.685565 14.630548 19.510781 -1.132069 0.722931 0.000272 -0.005621 -896874.000000 1 0 0
16.022976 -8.881565 -0.769352 18.336026 -0.506140 1.612767 0.033385 -0.009033 -595371.000000 1 0 0
13.993476 -12.633065 -1.391852 18.903675 -0.734350 1.644492 0.042617 0.001567 2094260.000000 1 0 0
11.292676 -1.986665 13.935248 18.046122 -0.174143 0.688497 0.045493 -0.006649 571937.000000 1 0 0
17.005576 -6.053565 -1.365052 18.102448 -0.341988 1.646275 0.046253 -0.007424 -2195170.000000 1 0 0
17.741776 3.757435 -1.138852 18.171018 0.208701 1.633512 0.017678 0.010839 -1339010.000000 1 0 0
9.646276 -11.053665 9.539048 17.499360 -0.853284 0.994278 0.022274 -0.011149 -1049740.000000 1 0 0
9.100776 -11.018365 4.242948 14.907417 -0.880423 1.282186 0.012785 -0.008232 -1849560.000000 1 0 0
14.045676 -10.146865 6.836848 18.627463 -0.625614 1.194982 0.069007 -0.017817 -759661.000000 1 0 0
16.288176 -0.523565 -4.742152 16.972531 -0.032133 1.853967 0.043334 0.002454 -1202060.000000 1 0 0
15.848976 -0.449965 -1.682452 15.944377 -0.028383 1.676513 0.035215 0.001062 1160100.000000 1 0 0
13.046076 -5.170465 -0.262452 14.035764 -0.377333 1.589496 0.019986 -0.008404 921009.000000 1 0 0
14.362376 -7.508665 1.111248 16.244776 -0.481722 1.502336 0.033515 -0.009207 1718430.000000 1 0 0
15.619076 2.448235 3.635948 16.222500 0.155481 1.344746 0.031335 -0.004424 1833620.000000 1 0 0
16.099176 -7.012265 5.086248 18.281828 -0.410787 1.288863 0.074274 -0.018673 -627716.000000 1 0 0
13.654376 -12.016065 3.350348 18.494665 -0.721664 1.388638 0.037324 -0.008434 1028430.000000 1 0 0
14.006576 -0.878965 9.164548 16.761435 -0.062672 0.992302 0.067791 -0.015080 2120810.000000 1 0 0
14.216876 -2.819965 -1.588252 14.580614 -0.195812 1.679942 0.012543 -0.003854 -43347.600000 1 0 0
15.097676 1.871335 9.203148 17.780316 0.123320 1.026749 0.077475 -0.010369 -872563.000000 1 0 0
14.403776 -10.079465 -2.990852 17.832823 -0.610578 1.739309 0.037430 -0.008374 -1215540.000000 1 0 0
7.400676 -12.519465 6.037548 15.746714 -1.036922 1.177304 -0.001556 -0.005076 75375.900000 1 0 0
12.446476 -4.650065 6.972348 15.005049 -0.357547 1.087538 0.029349 -0.008018 2925180.000000 1 0 0
14.937576 -8.843265 -5.641352 18.252653 -0.534527 1.885012 0.055619 -0.003604 66891.500000 1 0 0
14.394076 -4.487165 4.703048 15.793756 -0.302190 1.268431 0.034750 -0.012269 2211020.000000 1 0 0
17.133276 -4.216965 1.051048 17.675877 -0.241330 1.511299 0.033667 -0.013041 -50583.200000 1 0 0
10.212676 -14.336465 1.133648 17.638541 -0.951825 1.506481 0.033068 -0.006768 -316246.000000 1 0 0
16.389176 -2.538665 8.545548 18.656803 -0.153678 1.095008 0.109652 -0.018876 647605.000000 1 0 0
16.157676 -2.551965 3.284048 16.684363 -0.156647 1.372669 0.037925 -0.008496 2635020.000000 1 0 0
7.826776 -15.123165 2.688948 17.239460 -1.093219 1.414180 0.016288 -0.004361 1199440.000000 1 0 0
16.690776 -6.947765 7.974848 19.759849 -0.394448 1.155361 0.099274 -0.019091 572435.000000 1 0 0
10.279076 -8.449565 5.110348 14.253779 -0.688022 1.204108 0.014402 -0.009044 844774.000000 1 0 0
10.909776 -11.740265 2.150948 16.170455 -0.822048 1.437384 0.021818 -0.006977 137173.000000 1 0 0
12.323176 -7.352665 12.016148 18.716574 -0.537955 0.873685 0.056758 -0.022046 45924.200000 1 0 0
15.249876 -9.764765 4.353248 18.624181 -0.569539 1.334872 0.056640 -0.016468 557838.000000 1 0 0
7.368576 -10.166765 7.797748 14.780524 -0.943638 1.015060 0.000331 -0.004031 1121450.000000 1 0 0
15.208376 -3.357865 -4.335952 16.166955 -0.217304 1.842319 0.048886 0.000851 393445.000000 1 0 0
11.797976 -9.054965 9.781448 17.800600 -0.654608 0.989029 0.055489 -0.014161 -1319820.000000 1 0 0
17.086876 -6.690165 2.454948 18.513411 -0.373191 1.437801 0.061399 -0.015942 2048060.000000 1 0 0
17.645176 3.914035 1.948048 18.178746 0.218285 1.463429 0.035123 0.004915 -157154.000000 1 0 0
14.712876 -4.881265 8.771948 17.811304 -0.320341 1.055844 0.084024 -0.017859 -422905.000000 1 0 0
12.795976 -12.637865 6.172248 19.014449 -0.779182 1.240199 0.045214 -0.008495 205781.000000 1 0 0
18.277276 0.808335 -0.899852 18.317258 0.044197 1.619942 0.045396 0.002417 271591.000000 1 0 0
11.825576 -2.158265 11.004348 16.297179 -0.180521 0.829519 0.034522 -0.006690 121209.000000 1 0 0
5.716376 -12.443965 10.482348 17.245546 -1.140178 0.917472 -0.006856 -0.002332 -3175310.000000 1 0 0
10.756076 -5.016865 11.117648 16.262355 -0.436426 0.818053 0.030382 -0.007204 -119900.000000 1 0 0
17.896176 1.326935 5.003448 18.629771 0.074011 1.298885 0.064008 -0.004924 -1074400.000000 1 0 0
12.259676 -7.714265 7.181548 16.167380 -0.561642 1.110515 0.044194 -0.013866 -490207.000000 1 0 0
10.670276 -7.890765 14.325548 19.527936 -0.636753 0.747203 0.059384 -0.021002 -1136790.000000 1 0 0
14.209076 -0.288765 3.754648 14.699612 -0.020320 1.312509 0.017105 -0.002272 2046530.000000 1 0 0
11.680476 -7.669565 2.503248 14.195844 -0.581011 1.393533 0.021694 -0.006299 2164020.000000 1 0 0
9.251876 6.114735 3.482848 11.624002 0.584012 1.266496 0.004451 -0.000426 1756520.000000 1 0 0
-3.908124 14.719035 -9.900052 18.164098 -1.311269 2.147226 0.007404 -0.001292 853628.000000 1 0 0
8.827376 -6.296965 9.259248 14.258612 -0.619626 0.864028 0.008699 -0.006268 -303075.000000 1 0 0
5.819676 -10.491565 -8.470152 14.686219 -1.064351 2.185531 0.002894 -0.003763 256951.000000 1 0 0
5.355676 1.082435 0.541348 5.490718 0.199423 1.472043 0.002439 -0.000861 3881810.000000 1 0 0
-0.610124 9.989435 10.915348 14.808980 -1.509795 0.742062 0.011601 0.000285 637461.000000 1 0 0
-6.257624 -5.172965 1.137648 8.198272 0.690791 1.431580 0.008221 -0.003335 2760000.000000 1 0 0
-1.017424 3.977035 -10.830652 11.582529 -1.320343 2.779296 0.010999 -0.005448 401632.000000 1 0 0
10.964276 5.699635 1.170448 12.412539 0.479391 1.476360 0.005087 0.000930 1593000.000000 1 0 0
-10.106224 -1.742465 -13.578652 17.016220 0.170736 2.494737 0.011422 -0.002306 580552.000000 1 0 0
7.477176 10.852235 -6.046352 14.499570 0.967492 2.000941 0.006406 -0.005080 -390515.000000 1 0 0
-12.421024 -2.988265 -9.659452 16.016135 0.236094 2.218188 0.015536 -0.003543 -346378.000000 1 0 0
-3.912424 -8.651065 2.522248 9.823936 1.146075 1.311143 0.009286 -0.001415 -1359310.000000 1 0 0
7.983076 -6.648365 -5.861952 11.928652 -0.694428 2.084513 0.006166 -0.005992 1578950.000000 1 0 0
14.362876 3.103035 -4.279252 15.304673 0.212775 1.854178 0.019606 0.003739 1489960.000000 1 0 0
-2.551324 -4.829565 9.884648 11.293371 1.084788 0.504821 0.002263 -0.002490 2283460.000000 1 0 0
3.472376 -1.844865 -4.570652 6.029244 -0.488371 2.431161 0.002933 -0.002606 -1066040.000000 1 0 0
-4.043024 8.371935 -3.483652 9.928301 -1.120901 1.929308 0.005002 -0.004220 1008390.000000 1 0 0
5.848676 0.068435 11.705648 13.085637 0.011700 0.463391 0.004986 -0.005147 318919.000000 1 0 0
7.208476 4.725035 12.314448 15.031092 0.580220 0.610668 0.012194 0.001214 394966.000000 1 0 0
1.158376 -14.453665 12.450748 19.112075 -1.490823 0.861289 0.001509 -0.003784 48860.200000 1 0 0
2.938176 8.686635 -9.109052 12.925375 1.244635 2.352855 0.006286 -0.005524 1097240.000000 1 0 0
-4.419924 -8.866465 -4.428752 10.851902 1.108350 1.991177 0.008510 -0.003980 783104.000000 1 0 0
5.619576 -6.581465 -4.061052 9.559679 -0.864072 2.009549 0.004494 -0.006386 2697080.000000 1 0 0
-3.133324 3.448535 8.759448 9.921595 -0.833252 0.488864 0.004220 -0.004720 2021470.000000 1 0 0
-3.788724 3.123535 -11.151852 12.185020 -0.689460 2.726825 0.007477 -0.008023 1048790.000000 1 0 0
3.009176 -6.135165 8.589148 10.975830 -1.114794 0.672043 -0.002285 -0.002554 -73841.600000 1 0 0
-5.110824 -8.587065 10.544248 14.527194 1.033931 0.758559 0.006919 -0.007093 1446810.000000 1 0 0
-13.162824 -2.413165 6.543948 14.896529 0.181318 1.115984 0.024360 -0.007850 -561615.000000 1 0 0
3.925676 -5.930965 -8.387552 10.997195 -0.986105 2.438273 0.000762 -0.001252 4916260.000000 1 0 0
2.926476 -0.580165 12.444748 12.797367 -0.195709 0.235293 0.002625 -0.005110 1171230.000000 1 0 0
1.437476 -1.463265 -7.513252 7.788224 -0.794289 2.875075 0.004083 -0.003219 -148810.000000 1 0 0
3.607576 -3.478565 3.462848 6.091497 -0.767194 0.966148 0.000554 -0.002079 2015180.000000 1 0 0
1.481276 0.389435 -11.881252 11.979565 0.257087 3.013390 0.006799 -0.003483 625351.000000 1 0 0
4.044576 3.533435 -10.636252 11.915268 0.718050 2.674003 -0.000993 0.000039 1908070.000000 1 0 0
2.808776 3.300135 3.329848 5.465163 0.865659 0.915636 -0.001284 0.001033 172604.000000 1 0 0
-5.343724 0.924735 2.552648 5.993875 -0.171354 1.130866 0.001632 -0.003219 1644860.000000 1 0 0
-9.503024 -9.255165 5.707148 14.440813 0.772186 1.164500 0.013693 -0.002171 -1171100.000000 1 0 0
-3.075324 3.849935 -0.579252 4.961366 -0.896788 1.687816 0.003203 -0.005228 1556560.000000 1 0 0
-15.935524 -6.509465 5.057348 17.941317 0.387802 1.285040 0.046820 -0.011716 865828.000000 1 0 0
1.015576 6.696835 -8.075852 10.540321 1.420293 2.443682 0.006178 -0.005760 981246.000000 1 0 0
-1.654324 6.572835 -9.455152 11.633522 -1.324227 2.519654 0.006807 -0.004932 1139070.000000 1 0 0
2.058676 -0.277165 5.290748 5.683923 -0.133828 0.374128 -0.000745 0.000239 3235130.000000 1 0 0
-3.435424 -0.576365 -6.334352 7.228994 0.166223 2.638805 0.008444 -0.009016 65512.500000 1 0 0
1.936876 -1.051465 -2.430652 3.281026 -0.497350 2.405087 0.003950 -0.002507 89706.400000 1 0 0
2.419176 -8.640065 -7.686752 11.814791 -1.297792 2.279176 -0.002437 -0.001503 673469.000000 1 0 0
-2.492224 13.910235 -5.538352 15.178246 -1.393513 1.944308 0.001568 -0.000560 2750400.000000 1 0 0
6.885076 -5.136065 -8.203252 11.877574 -0.640917 2.333184 0.008354 -0.002453 3622430.000000 1 0 0
-14.198624 -5.070965 -2.166052 15.231789 0.343026 1.713486 -0.001608 -0.003592 -602585.000000 1 0 0
-2.730724 6.889835 -6.800152 10.058268 -1.193448 2.313220 0.007287 -0.005542 -2927890.000000 1 0 0
-5.758624 -1.154165 -8.110352 10.013574 0.197803 2.514839 0.006842 -0.011954 -1339970.000000 1 0 0
-5.776224 -10.593165 3.592548 12.589135 1.071585 1.281405 0.007382 -0.000949 -570902.000000 1 0 0
8.123376 -7.464165 6.712548 12.913609 -0.743132 1.024175 0.004894 -0.006111 1315280.000000 1 0 0
8.833176 -5.960865 13.161348 16.934521 -0.593631 0.680608 0.028598 -0.011536 1177710.000000 1 0 0
-4.882224 9.483335 -0.791952 10.695651 -1.095362 1.644908 0.001222 -0.001727 1557710.000000 1 0 0
2.790076 6.601535 12.079348 14.045478 1.170926 0.535494 0.008907 -0.003910 791036.000000 1 0 0
6.083376 -2.791765 10.946348 12.830587 -0.430245 0.548812 0.006705 -0.004393 202278.000000 1 0 0
-9.707024 -6.613765 -1.020552 11.790239 0.598091 1.657464 0.008781 -0.004579 14276.200000 1 0 0
0.898676 -13.257665 6.273048 14.694367 -1.503114 1.129733 0.009716 -0.004565 1288480.000000 1 0 0
-0.488024 -3.148265 8.664948 9.232067 1.417007 0.352331 0.000129 -0.002041 2399010.000000 1 0 0
4.203176 0.765735 3.402048 5.461407 0.180204 0.898320 -0.002003 0.001524 1408260.000000 1 0 0
-10.236924 5.590235 8.232348 14.276446 -0.499833 0.956188 -0.001303 -0.007962 1296980.000000 1 0 0
9.341176 7.981235 -0.036552 12.286538 0.707051 1.573771 0.000065 0.000862 559141.000000 1 0 0
4.350876 2.894135 8.225148 9.744701 0.586976 0.565980 -0.004442 -0.003269 3318730.000000 1 0 0
1.310476 2.628135 -9.819552 10.249295 1.108243 2.850989 0.008551 -0.004826 1565390.000000 1 0 0
-1.430324 -10.122265 3.133148 10.692179 1.430421 1.273400 0.008080 -0.001732 -2538300.000000 1 0 0
-9.911224 9.556035 9.073648 16.488822 -0.767155 0.988084 0.009321 -0.009652 -387892.000000 1 0 0
9.779176 -2.059265 -7.692052 12.611127 -0.207544 2.226783 0.013687 -0.001269 376266.000000 1 0 0
-5.213724 -1.802865 6.748648 8.716507 0.332921 0.685287 0.000363 -0.002659 1074460.000000 1 0 0
3.095076 -7.863265 -4.949152 9.793086 -1.195809 2.100609 -0.001910 -0.003960 1711710.000000 1 0 0
-5.111024 4.907135 -13.111952 14.903886 -0.765049 2.646169 0.006710 -0.008782 2940010.000000 1 0 0
-5.687624 9.586335 5.390148 12.381461 -1.035314 1.120380 0.001321 -0.003223 1715410.000000 1 0 0
-0.420624 -1.873565 -9.350552 9.545679 1.349953 2.939052 0.006929 -0.005166 433744.000000 1 0 0
-16.845124 -0.034665 6.478748 18.048091 0.002058 1.203631 0.046407 -0.016799 -1493680.000000 1 0 0
-5.896224 -2.879965 4.066648 7.719928 0.454359 1.015997 -0.000982 -0.002373 1689850.000000 1 0 0
0.976476 -5.702465 -5.136252 7.736452 -1.401204 2.296822 0.000010 -0.003298 393506.000000 1 0 0
-7.078724 1.345135 -8.435752 11.094126 -0.187786 2.434694 0.004918 -0.008737 1881370.000000 1 0 0
7.984276 1.963835 4.751848 9.496598 0.241175 1.046766 0.001071 -0.000120 10647.500000 1 0 0
0.495376 -8.023265 -0.537452 8.056490 -1.509132 1.637556 0.000942 -0.002486 803435.000000 1 0 0
5.442176 5.510035 -3.427852 8.469234 0.791594 1.987493 -0.000028 -0.001200 -829352.000000 1 0 0
-0.732724 -0.357365 -1.177852 1.432456 0.453776 2.536168 0.003156 -0.004182 972599.000000 1 0 0
9.064876 6.349135 -6.408052 12.788535 0.611001 2.095640 -0.000099 -0.002889 477406.000000 1 0 0
-14.951724 -7.080865 2.554448 16.739711 0.442291 1.417600 0.001455 -0.004269 1340730.000000 1 0 0
-6.441424 6.807335 8.912748 12.933245 -0.813010 0.810502 0.003188 -0.003217 753398.000000 1 0 0
-9.443624 -3.194065 -9.593252 13.835265 0.326146 2.336981 0.002560 -0.006442 291624.000000 1 0 0
14.902676 3.445135 -1.356852 15.355772 0.227185 1.659273 0.012198 0.003353 1347950.000000 1 0 0
12.056376 1.732835 -5.782252 13.483076 0.142750 2.014019 0.014507 0.001749 -334076.000000 1 0 0
1.754076 -9.367865 12.811648 15.967843 -1.385696 0.639590 -0.002054 -0.002958 -1022850.000000 1 0 0
-3.573524 6.344535 7.883348 10.731746 -1.057842 0.745746 0.002569 -0.002825 1648320.000000 1 0 0
-4.116824 13.081035 -12.418552 18.500869 -1.265893 2.306679 0.006280 -0.001749 1666950.000000 1 0 0
-10.266624 7.855335 6.478448 14.459604 -0.653116 1.106227 -0.001377 -0.006203 1500150.000000 1 0 0
8.010776 -9.240365 -7.150252 14.166262 -0.856554 2.099875 0.009769 -0.004767 394697.000000 1 0 0
5.830776 -3.776965 -0.324952 6.954783 -0.574802 1.617537 0.006344 -0.004455 -2248850.000000 1 0 0
-1.632824 -4.424465 4.209248 6.321375 1.217257 0.842130 -0.000787 -0.000046 426589.000000 1 0 0
9.991676 -2.043665 -2.614252 10.528270 -0.201754 1.821729 0.009707 -0.004262 -1825510.000000 1 0 0
13.599376 7.005835 1.431948 15.364740 0.475701 1.477464 0.011345 0.003501 194735.000000 1 0 0
5.413276 -3.670165 -3.238852 7.298207 -0.595803 2.030617 0.005551 -0.006526 -3347380.000000 1 0 0
-12.240624 -5.973265 1.982548 13.763839 0.453991 1.426253 0.004271 -0.003113 1830490.000000 1 0 0
3.667576 -5.658065 -0.318052 6.750257 -0.995685 1.617931 0.002836 -0.002795 -270496.000000 1 0 0
-5.193324 3.691035 -8.715952 10.796396 -0.617889 2.510362 0.006048 -0.008770 1214470.000000 1 0 0
-1.730324 -9.187365 7.266048 11.840488 1.384640 0.910107 0.000761 -0.002363 1999020.000000 1 0 0
-7.340924 -7.377665 2.667148 10.743965 0.787894 1.319927 0.010910 -0.003782 -4329800.000000 1 0 0
-5.797324 13.017835 -8.423752 16.553930 -1.151827 2.104665 0.008687 -0.006806 849257.000000 1 0 0
9.271776 -13.817265 -4.172052 17.154843 -0.979780 1.816460 0.021595 -0.002011 1503720.000000 1 0 0
-6.451024 -5.155065 -6.673352 10.617158 0.674197 2.250476 0.008611 -0.006661 1049030.000000 1 0 0
3.458176 0.431335 -6.218352 7.128319 0.124088 2.630774 0.002557 -0.005538 1383510.000000 1 0 0
-3.638624 5.729335 4.967848 8.410968 -1.004977 0.938945 0.003419 -0.000829 456689.000000 1 0 0
-2.608224 -10.817765 -2.775252 11.468605 1.334206 1.815209 0.008648 -0.004181 2409850.000000 1 0 0
-12.561324 -0.464565 1.738448 12.689558 0.036967 1.433366 0.002459 -0.004184 931769.000000 1 0 0
8.405076 -11.955565 -6.098552 15.835819 -0.958042 1.966125 0.020303 -0.009896 -54510.600000 1 0 0
6.120576 3.950435 1.005048 7.353741 0.573160 1.433696 0.000434 -0.000549 -994195.000000 1 0 0
3.417576 -4.774965 -10.969752 12.442491 -0.949593 2.650115 0.003985 0.001908 -399492.000000 1 0 0
-7.669524 4.225035 8.540548 12.231659 -0.503523 0.797870 -0.000457 -0.002383 3933140.000000 1 0 0
8.237176 8.804135 4.066148 12.723892 0.818656 1.245523 0.006568 -0.000954 1766260.000000 1 0 0
0.300876 10.523335 -6.308552 12.273098 1.542213 2.110655 0.006537 -0.002946 966934.000000 1 0 0
5.433576 8.187435 3.332048 10.375952 0.984886 1.243872 0.004220 0.000474 2052850.000000 1 0 0
8.100976 6.656535 -3.760152 11.138851 0.687831 1.915131 -0.000983 -0.001935 2329970.000000 1 0 0
10.512776 2.561435 -8.275852 13.622376 0.238993 2.223730 0.008568 -0.000023 624808.000000 1 0 0
3.408076 -12.440865 -0.234452 12.901359 -1.303414 1.588970 0.003181 -0.005846 -961195.000000 1 0 0
0.569376 2.176335 5.254648 5.715938 1.314910 0.404504 0.000142 0.000119 1134030.000000 1 0 0
-4.988124 13.397435 1.451148 14.369359 -1.214378 1.469635 0.003288 -0.002956 1299770.000000 1 0 0
8.222676 4.073535 -8.134652 12.262897 0.459963 2.296089 0.000277 0.000379 -268935.000000 1 0 0
-13.847524 -0.656065 -3.579152 14.317635 0.047342 1.823458 -0.002397 -0.003604 195624.000000 1 0 0
-8.582424 -0.060465 -0.512752 8.597940 0.007045 1.630468 -0.000706 -0.003417 217208.000000 1 0 0
1.791676 -3.745565 -1.158552 4.310638 -1.124622 1.842908 0.002072 -0.002183 -1308510.000000 1 0 0
8.044876 -5.624465 -0.217852 9.818457 -0.610146 1.592986 0.010489 -0.006923 3441060.000000 1 0 0
-2.297624 -1.049865 7.493648 7.907974 0.428606 0.325138 0.002219 -0.001109 2576790.000000 1 0 0
-5.884524 8.803935 -11.708752 15.787076 -0.981597 2.406348 0.004635 -0.004989 -838343.000000 1 0 0
-6.193524 9.083435 -8.833252 14.103009 -0.972357 2.247643 0.011879 -0.005864 653790.000000 1 0 0
-1.508124 13.893135 -8.320552 16.264231 -1.462668 2.107826 0.012264 -0.004663 -178389.000000 1 0 0
-1.439724 7.189735 9.766948 12.213041 -1.373163 0.643976 0.005860 -0.004395 -58448.000000 1 0 0
9.992776 2.298935 -3.990352 11.002889 0.226125 1.941921 0.004348 -0.000834 -2354850.000000 1 0 0
-3.008124 -7.504065 -6.842552 10.591521 1.189544 2.273182 0.006152 -0.004389 -85210.900000 1 0 0
-5.517524 -5.026665 -1.518752 7.616892 0.738879 1.771534 0.007553 -0.004552 -908035.000000 1 0 0
5.622676 7.345335 -8.775052 12.750293 0.917464 2.329834 -0.002379 -0.000272 441188.000000 1 0 0
-9.658824 5.119735 -7.497452 13.255805 -0.487404 2.171954 0.005978 -0.005966 15346.100000 1 0 0
-0.482724 6.079835 -5.372152 8.127572 -1.491565 2.292919 0.007961 -0.005602 -1458150.000000 1 0 0
-8.287024 2.754735 -6.323252 10.781783 -0.320924 2.197497 0.002361 -0.005629 1692440.000000 1 0 0
3.657776 1.449635 -1.981052 4.405148 0.377326 2.037240 0.001349 -0.003650 3367500.000000 1 0 0
-6.810524 12.412935 -3.448352 14.572417 -1.068980 1.809698 0.012566 0.002401 1311010.000000 1 0 0
-6.575824 3.129435 -2.413752 7.672094 -0.444182 1.890847 0.002389 -0.004411 -935841.000000 1 0 0
12.095476 4.006335 -0.913152 12.774392 0.319853 1.642340 0.005310 0.000097 -1151850.000000 1 0 0
2.272476 12.316535 -5.526152 13.689395 1.388342 1.986333 0.010112 -0.008050 -4011.590000 1 0 0
-9.205724 -1.484865 -4.332052 10.281870 0.159921 2.005707 -0.000285 -0.003412 -950005.000000 1 0 0
-1.158824 5.735935 3.437448 6.786743 -1.371451 1.039682 0.002277 -0.002109 2359810.000000 1 0 0
11.584376 2.625035 12.032748 16.907856 0.222838 0.778929 0.058239 0.000405 708512.000000 1 0 0
-7.072524 -2.362965 -5.770852 9.429047 0.322445 2.229420 0.007501 -0.007480 -1122060.000000 1 0 0
7.469776 -7.338265 10.859248 15.085455 -0.776517 0.767212 0.003728 -0.005716 -986260.000000 1 0 0
-5.544924 -2.027265 -10.861452 12.362327 0.350511 2.643704 0.007850 -0.005733 -1191290.000000 1 0 0
0.795476 -6.136065 4.461948 7.628437 -1.441876 0.946027 -0.002584 0.000212 142980.000000 1 0 0
-4.844324 -9.312465 7.483348 12.891469 1.091121 0.951468 0.000167 -0.002732 2769380.000000 1 0 0
-8.857624 9.308335 1.641048 12.953596 -0.810204 1.443768 -0.001158 -0.003346 302899.000000 1 0 0
-8.138124 7.095335 -9.082552 14.109061 -0.717051 2.270171 0.007470 -0.007810 -689483.000000 1 0 0
-1.196824 -10.639065 -0.008152 10.706174 1.458774 1.571558 0.006972 -0.002594 -1060960.000000 1 0 0
-4.013524 10.247035 7.729548 13.448272 -1.197486 0.958484 0.004581 -0.003474 2315140.000000 1 0 0
-7.614124 12.049535 1.972248 14.389439 -1.007249 1.433301 0.001241 -0.005736 3378340.000000 1 0 0
-8.150724 -8.286465 -2.787552 11.952835 0.793656 1.806176 0.014917 -0.004377 1707810.000000 1 0 0
5.358176 4.521135 -8.131352 10.736368 0.700873 2.430065 0.000387 0.001338 1832500.000000 1 0 0
-8.956324 -0.144765 -10.160052 13.544864 0.016162 2.419015 0.004446 -0.009277 -1580590.000000 1 0 0
-15.135624 -2.368265 -1.543352 15.397329 0.155211 1.671200 -0.006196 -0.005142 1372000.000000 1 0 0
-7.160524 -5.689565 8.782648 12.679872 0.671424 0.805647 0.002944 -0.006772 -1276530.000000 1 0 0
8.136676 3.394135 -0.963752 8.868735 0.395195 1.679680 0.002337 0.000923 2131920.000000 1 0 0
11.897776 7.185035 -5.964852 15.124855 0.543280 1.976183 0.006330 -0.004127 718028.000000 1 0 0
3.762176 13.194735 -9.465552 16.668883 1.293040 2.174697 0.012911 -0.013153 2272270.000000 1 0 0
-9.825724 5.394535 -0.458952 11.218578 -0.502092 1.611718 -0.004164 -0.000351 3062650.000000 1 0 0
11.285276 -1.214965 -5.222252 12.494219 -0.107246 2.002010 0.017398 -0.004169 -956107.000000 1 0 0
10.611476 1.685035 -1.211452 10.812510 0.157479 1.683074 0.007163 -0.000931 -1685890.000000 1 0 0
14.576176 5.088235 4.818948 16.173351 0.335854 1.268246 0.023463 -0.006102 1516410.000000 1 0 0
0.965676 -0.840365 10.326148 10.405195 -0.716125 0.123341 0.004670 -0.002908 1799740.000000 1 0 0
-7.948324 1.388435 -12.433552 14.822173 -0.172938 2.565960 0.001128 -0.008603 -992302.000000 1 0 0
3.051976 -11.529765 -7.893352 14.302274 -1.312027 2.155431 -0.003849 -0.000672 772085.000000 1 0 0
2.904676 5.013635 -6.741152 8.889140 1.045695 2.431587 0.003296 -0.002436 -831144.000000 1 0 0
6.489076 8.024535 0.574648 10.335932 0.890801 1.515171 0.006263 -0.003047 1214020.000000 1 0 0
-9.087524 -5.358365 6.789648 12.545696 0.532767 0.998941 0.004292 -0.003388 -2556320.000000 1 0 0
-0.270224 -6.977765 -11.841352 13.746994 1.532089 2.608772 0.000047 0.003213 2127080.000000 1 0 0
6.453676 -13.340865 -4.631252 15.526658 -1.120231 1.873684 0.011103 -0.005738 2376890.000000 1 0 0
-3.253724 -0.298165 10.138148 10.651651 0.091383 0.311773 0.002726 -0.001576 1721930.000000 1 0 0
8.543976 8.493235 6.918048 13.892226 0.782420 1.049529 0.000208 -0.000274 77795.300000 1 0 0
-7.997024 5.636235 -2.692952 10.147489 -0.613935 1.839396 0.002316 -0.004183 939613.000000 1 0 0
-5.386224 5.767835 -6.525652 10.240286 -0.819598 2.261725 0.004393 -0.004997 -583145.000000 1 0 0
3.329576 -13.614465 2.583748 14.251859 -1.330943 1.388496 0.010989 -0.005602 -2377960.000000 1 0 0
-11.299624 -6.982665 6.571848 14.819862 0.553518 1.111354 0.023564 -0.007267 -537015.000000 1 0 0
-12.870324 -3.780365 -6.820852 15.048602 0.285692 2.041210 0.007242 -0.005572 -892908.000000 1 0 0
6.070376 0.290435 -7.290052 9.490978 0.047808 2.446670 0.000938 0.000275 -188250.000000 1 0 0
-1.483224 2.193035 -2.480352 3.627878 -0.976131 2.323606 0.006345 -0.006171 2462160.000000 1 0 0
7.625076 0.937235 -5.038652 9.187394 0.122301 2.151283 0.003263 -0.000099 -990714.000000 1 0 0
3.682676 -4.436565 10.877848 12.311490 -0.877985 0.487402 -0.000726 -0.002666 559825.000000 1 0 0
5.960876 -2.505165 2.104948 6.799904 -0.397856 1.256071 0.005489 -0.003551 -2241510.000000 1 0 0
-6.414424 7.702435 1.097648 10.083510 -0.876385 1.461724 -0.000857 -0.002793 265574.000000 1 0 0
6.034976 -3.446065 7.962248 10.568524 -0.518835 0.717590 0.003824 -0.004361 -695942.000000 1 0 0
6.783076 -2.285365 -7.860052 10.630777 -0.324977 2.402927 0.006624 -0.001550 293312.000000 1 0 0
12.071076 -8.040365 -5.873352 15.647831 -0.587600 1.955566 0.031256 -0.007673 1327400.000000 1 0 0
5.556476 -9.575965 9.932848 14.873971 -1.045024 0.839546 -0.008297 -0.000310 1335970.000000 1 0 0
-6.651724 7.469935 -4.595952 11.007640 -0.843274 2.001515 0.004511 -0.004493 1247320.000000 1 0 0
-1.307824 -7.408465 9.753848 12.318008 1.396065 0.656986 0.001495 -0.004722 -1995020.000000 1 0 0
10.117976 -9.202165 0.682248 13.693748 -0.738032 1.520954 0.012643 -0.006452 759964.000000 1 0 0
11.132376 6.102035 9.692548 15.972167 0.501410 0.918718 0.014806 -0.006183 1926370.000000 1 0 0
-15.263224 -4.269065 -5.020852 16.625278 0.272727 1.877587 0.001770 -0.005852 1522310.000000 1 0 0
-4.713124 -4.574265 7.874748 10.254223 0.770448 0.695159 0.001645 -0.003819 -1260010.000000 1 0 0
2.892976 10.900435 -11.018552 15.766968 1.311377 2.344568 0.005242 -0.006895 661691.000000 1 0 0
9.933476 -1.306465 1.464148 10.125439 -0.130771 1.425687 0.009827 -0.004816 126289.000000 1 0 0
-1.612224 -2.656265 0.637148 3.171903 1.025281 1.368548 -0.000453 -0.002373 568359.000000 1 0 0
1.562676 2.986435 0.812748 3.467176 1.088716 1.334182 0.001018 -0.001582 -212172.000000 1 0 0
-8.891824 -2.405865 4.268748 10.152583 0.264243 1.136845 -0.000559 -0.003240 4039250.000000 1 0 0
9.900676 4.845135 -2.746152 11.359580 0.455111 1.814963 0.000469 -0.000432 325753.000000 1 0 0
2.551876 8.497535 2.577348 9.239204 1.279057 1.288088 0.003405 -0.002983 2331040.000000 1 0 0
-8.094524 -0.113965 2.390348 8.440857 0.014078 1.283680 -0.003491 -0.005740 1137000.000000 1 0 0
6.969676 2.096235 13.701248 15.514341 0.292159 0.488294 0.025338 -0.003246 64946.600000 1 0 0
6.789776 4.400635 3.734448 8.911383 0.575057 1.138381 -0.000389 0.000414 1582180.000000 1 0 0
-0.299124 3.272235 7.903848 8.559662 -1.479637 0.393994 0.000325 -0.000647 -29720.500000 1 0 0
2.660576 -10.136565 9.294548 14.007756 -1.314113 0.845271 -0.003830 -0.005652 1873250.000000 1 0 0
1.400176 -4.517665 6.871548 8.341940 -1.270251 0.602829 -0.002539 -0.001980 -429716.000000 1 0 0
-0.213724 10.713435 -1.990752 10.898920 -1.550850 1.754483 0.009337 -0.007424 2218820.000000 1 0 0
8.823376 5.483435 7.919948 13.063139 0.556055 0.919419 0.001041 -0.000177 -1161130.000000 1 0 0
2.600076 11.312135 -2.892252 11.962020 1.344872 1.815003 0.012521 -0.009915 3202270.000000 1 0 0
1.473576 2.396135 -6.771452 7.332493 1.019435 2.747866 0.005149 -0.003574 1682630.000000 1 0 0
-13.616024 -2.223765 3.644548 14.269687 0.161890 1.312530 0.007905 -0.002391 1343030.000000 1 0 0
-0.940924 -10.617565 -5.262552 11.887492 1.482408 2.029400 0.002316 -0.002848 53687.800000 1 0 0
-5.749124 2.874435 0.359548 6.437708 -0.463630 1.514917 0.003661 -0.005118 371508.000000 1 0 0
3.824176 7.272235 -5.080752 9.660422 1.086676 2.124610 0.005313 -0.004119 -1213620.000000 1 0 0
3.011476 9.703935 -6.501552 12.062567 1.269885 2.140029 0.007989 -0.006076 2784030.000000 1 0 0
-12.179324 1.587635 -2.573352 12.549050 -0.129624 1.777325 -0.001089 -0.002629 236131.000000 1 0 0
-2.495924 9.578835 -5.715152 11.430078 -1.315898 2.094407 0.001242 -0.001470 2117510.000000 1 0 0
-1.361824 3.308535 1.738448 3.977835 -1.180322 1.118498 0.001007 -0.002437 939877.000000 1 0 0
12.887776 3.711435 9.700848 16.552219 0.280394 0.944590 0.045785 -0.003757 708185.000000 1 0 0
-2.551524 -9.460165 11.634548 15.210776 1.307353 0.699928 -0.001278 -0.009477 447924.000000 1 0 0
-0.469924 -8.915565 -7.457152 11.632594 1.518137 2.266671 0.001265 -0.000363 1239590.000000 1 0 0
2.339176 7.616635 -0.494152 7.983048 1.272826 1.632736 0.006287 -0.003603 1994190.000000 1 0 0
-11.829924 -1.410065 -5.542052 13.139624 0.118635 2.006206 0.001085 -0.002695 -1280290.000000 1 0 0
-6.214324 -7.152265 -10.903852 14.445300 0.855454 2.426202 0.000943 -0.001706 1664410.000000 1 0 0
-4.701824 -2.246665 -1.410752 5.398599 0.445754 1.835184 0.002205 -0.003658 -1605930.000000 1 0 0
-10.557724 3.707535 4.450048 12.042188 -0.337715 1.192284 -0.003954 -0.004587 3268180.000000 1 0 0
6.800876 9.285135 -3.588352 12.055783 0.938624 1.873022 0.001868 -0.002804 852993.000000 1 0 0
1.239876 -2.716365 -11.520552 11.901220 -1.142594 2.887988 0.006911 -0.000091 -1409210.000000 1 0 0
1.227976 8.718035 7.559848 11.604454 1.430862 0.861288 -0.000862 0.003883 20821.700000 1 0 0
10.416076 0.375435 10.481648 14.781764 0.036028 0.782585 0.021543 -0.005151 1892830.000000 1 0 0
-5.228524 -0.823665 -3.981852 6.623521 0.156249 2.215759 0.008678 -0.007219 -680838.000000 1 0 0
11.662476 5.601435 5.396448 14.018241 0.447760 1.175633 0.006949 -0.001124 3188200.000000 1 0 0
9.980176 -3.439065 3.526548 11.129583 -0.331847 1.248377 0.019009 -0.008879 -105240.000000 1 0 0
7.371776 -1.709365 -3.506152 8.340150 -0.227853 2.004676 0.005518 -0.001654 -2561960.000000 1 0 0
2.339576 9.289135 10.454848 14.179756 1.324066 0.741720 0.003246 0.000674 3524600.000000 1 0 0
2.451676 -10.705865 6.306148 12.664666 -1.345675 1.049583 -0.002835 -0.003312 -49188.300000 1 0 0
5.854076 -7.470565 -1.307752 9.580697 -0.906124 1.707722 0.005405 -0.006521 372207.000000 1 0 0
-0.274124 -5.498465 -2.364552 5.991608 1.520983 1.976477 0.001117 0.000104 896421.000000 1 0 0
7.623576 -5.006865 2.784048 9.536170 -0.581113 1.274535 0.007542 -0.007774 2010710.000000 1 0 0
-2.694624 -12.502665 4.692348 13.623354 1.358519 1.219160 0.009101 0.000232 -144318.000000 1 0 0
4.914976 -10.207465 -1.165752 11.388955 -1.122051 1.673334 0.002605 -0.005502 -39869.500000 1 0 0
0.908276 0.230635 1.166948 1.496638 0.248670 0.676589 -0.001664 -0.001531 -1640590.000000 1 0 0
-1.669724 8.490435 2.388448 8.976645 -1.376615 1.301479 0.004112 -0.001630 1148130.000000 1 0 0
-7.564324 0.628935 -3.145052 8.216198 -0.082954 1.963607 0.000535 -0.002596 -629793.000000 1 0 0
4.469876 -6.281265 12.868648 15.001206 -0.952314 0.539743 0.006666 -0.007244 -641324.000000 1 0 0
-5.199824 12.950535 8.366748 16.271355 -1.188985 1.030720 0.014883 -0.012073 2144290.000000 1 0 0
0.631076 6.046735 8.210548 10.216377 1.466806 0.637367 -0.000673 0.002377 161087.000000 1 0 0
7.975276 -0.500065 -0.812852 8.032174 -0.062620 1.672169 0.007170 -0.003398 3345000.000000 1 0 0
2.412876 -9.164665 -2.387452 9.773074 -1.313358 1.817582 -0.001775 -0.003045 2617650.000000 1 0 0
-7.222424 12.152435 4.872348 14.952754 -1.034564 1.238886 0.001588 -0.006990 945942.000000 1 0 0
-14.924624 0.144935 0.186048 14.926487 -0.009711 1.558332 0.001862 -0.003820 115920.000000 1 0 0
6.791976 -0.507465 3.961348 7.879133 -0.074577 1.044002 0.003492 -0.000559 1524260.000000 1 0 0
-4.187824 -5.002265 5.097748 8.279346 0.873789 0.907499 0.001067 -0.002822 487916.000000 1 0 0
2.917276 5.114835 6.874748 9.051751 1.052459 0.708262 -0.004351 0.001235 -75823.700000 1 0 0
2.061976 -7.129865 1.790648 7.634994 -1.289275 1.334060 -0.002935 -0.001149 1957620.000000 1 0 0
-2.470324 6.442935 -1.768952 7.123419 -1.204668 1.821751 0.006127 -0.004098 636520.000000 1 0 0
2.646276 -3.829465 -6.531352 8.020357 -0.966116 2.522399 0.000396 -0.004722 -993453.000000 1 0 0
-5.113024 0.847435 -12.153152 13.212126 -0.164247 2.738490 0.008787 -0.005781 157512.000000 1 0 0
-7.541324 6.377235 -11.871052 15.442233 -0.701957 2.447664 0.006222 -0.011093 2525810.000000 1 0 0
-1.076224 11.117935 -8.992552 14.339900 -1.474296 2.248621 0.007099 -0.003821 531517.000000 1 0 0
4.633676 5.873135 -0.652052 7.509317 0.902823 1.657738 0.002804 -0.001080 1160960.000000 1 0 0
-2.760624 13.345035 3.483948 14.065877 -1.366808 1.320503 0.009806 -0.002487 752138.000000 1 0 0
1.390176 -7.810665 10.334748 13.028664 -1.394657 0.654698 -0.002778 -0.004105 -1281180.000000 1 0 0
13.005876 -0.267465 -1.020752 13.048612 -0.020562 1.649103 0.016110 -0.002052 1402570.000000 1 0 0
-1.024024 3.034335 -5.362252 6.245763 -1.245319 2.603216 0.007498 -0.007217 1237180.000000 1 0 0
6.596776 1.071335 7.308948 9.903834 0.160997 0.740707 0.000744 0.000422 293188.000000 1 0 0
5.409776 -6.281865 6.943348 10.813768 -0.859851 0.873583 -0.001521 -0.003662 1473570.000000 1 0 0
12.305176 -4.802265 2.609148 13.464277 -0.372085 1.375780 0.020247 -0.008524 -1849850.000000 1 0 0
4.497976 -9.104365 13.807948 17.140032 -1.111923 0.634115 -0.000216 -0.004720 684576.000000 1 0 0
-2.736824 -4.370765 -1.414452 5.347380 1.011359 1.838495 0.004188 -0.003978 1807150.000000 1 0 0
-9.273624 -5.253965 -7.498552 13.031981 0.515460 2.183885 0.010156 -0.004519 -65144.400000 1 0 0
-10.588924 -3.074465 7.841348 13.530129 0.282578 0.952623 0.008976 -0.005278 -779366.000000 1 0 0
12.082176 -0.624965 1.610948 12.205110 -0.051680 1.438420 0.015042 -0.004338 -63012.600000 1 0 0
-7.665924 4.700935 4.396248 10.009605 -0.550087 1.116085 0.000526 -0.004289 1690860.000000 1 0 0
-1.098224 10.527635 6.924348 12.648470 -1.466854 0.991488 0.002975 0.002602 3018950.000000 1 0 0
7.494676 -9.882065 1.767948 12.528009 -0.921933 1.429204 0.007069 -0.008544 1905120.000000 1 0 0
-4.344324 -1.674165 1.641248 4.936565 0.367830 1.231877 -0.002347 -0.000410 1156000.000000 1 0 0
6.792476 -14.959665 -1.034452 16.462059 -1.144577 1.633676 0.019629 -0.007712 -1314570.000000 1 0 0
-10.438424 1.639335 2.343948 10.823226 -0.155776 1.352500 -0.005671 -0.001157 398712.000000 1 0 0
-3.055824 8.310135 -11.382252 14.420543 -1.218421 2.480478 0.003362 -0.003355 -343288.000000 1 0 0
-1.365424 -5.153865 -6.846652 8.677750 1.311814 2.479959 0.000771 -0.003262 -324993.000000 1 0 0
12.790876 -0.497465 6.399648 14.311166 -0.038873 1.107188 0.026816 -0.006658 3901280.000000 1 0 0
5.973776 -13.175365 3.664148 14.923211 -1.145114 1.322726 0.002236 -0.004701 1168880.000000 1 0 0
-5.606824 3.457635 -5.014952 8.278977 -0.552596 2.221499 0.004809 -0.006770 1388960.000000 1 0 0
-4.488224 7.969335 3.318648 9.729742 -1.057885 1.222728 0.004398 -0.001987 -35584.600000 1 0 0
14.005476 6.153335 -4.088252 15.834478 0.413964 1.831941 0.021198 0.001248 819176.000000 1 0 0
-6.728924 -8.427765 5.375248 12.049852 0.897018 1.108411 0.008435 -0.000931 -118876.000000 1 0 0
1.631976 11.395435 2.731748 11.831388 1.428550 1.337804 0.008954 -0.006985 277061.000000 1 0 0
-7.434524 7.252335 5.963248 11.976178 -0.772994 1.049591 0.001960 -0.004473 -286468.000000 1 0 0
-17.558324 -4.161965 5.213448 18.782884 0.232741 1.289539 0.058434 -0.012574 35353.400000 1 0 0
7.448376 -13.032765 -8.590152 17.295143 -1.051588 2.090566 0.025491 -0.009329 -1021270.000000 1 0 0
-2.328524 12.754535 -2.741952 13.252113 -1.390221 1.779209 0.002493 -0.002920 112449.000000 1 0 0
-5.551224 13.870635 -5.703052 15.991729 -1.190105 1.935449 0.012425 0.003944 2095470.000000 1 0 0
-5.564624 2.424035 7.364648 9.543533 -0.410827 0.689302 0.002189 -0.004205 1015770.000000 1 0 0
-7.526624 5.052735 1.420648 9.175971 -0.591214 1.415348 -0.000495 -0.002948 1396750.000000 1 0 0
10.675776 -5.691865 -4.971152 13.079827 -0.489820 1.960660 0.016863 -0.006353 3523030.000000 1 0 0
-9.488724 -0.741365 6.765548 11.677249 0.077973 0.952830 -0.001280 -0.005028 -902407.000000 1 0 0
-11.319224 -4.625165 -2.519152 12.484515 0.387908 1.773973 0.001770 -0.003277 -735065.000000 1 0 0
6.575676 -4.290065 13.541048 15.652609 -0.578071 0.525450 0.023120 -0.014110 -1375110.000000 1 0 0
0.155776 10.230135 -11.604352 15.470647 1.555570 2.418992 0.008794 -0.005442 -1064710.000000 1 0 0
-11.840724 -3.271465 1.493148 12.374762 0.269564 1.449841 0.003889 -0.003002 4300700.000000 1 0 0
5.181676 6.002335 5.385848 9.585674 0.858645 0.974159 -0.001056 0.001480 -4644420.000000 1 0 0
-7.145624 0.007435 8.118048 10.814930 -0.001040 0.721776 -0.001780 -0.002452 -327421.000000 1 0 0
1.819876 2.035835 9.737448 10.113084 0.841350 0.273407 -0.001006 -0.004782 3733960.000000 1 0 0
10.548776 -4.908865 -1.959752 11.798909 -0.435545 1.737666 0.011626 -0.005980 2862880.000000 1 0 0
-9.598624 -2.499865 -1.634452 10.052579 0.254780 1.734112 0.002362 -0.002982 -607535.000000 1 0 0
-1.964224 -5.260465 -9.903952 11.385031 1.213435 2.625816 0.009207 -0.003724 1407250.000000 1 0 0
7.716876 -1.627365 6.563648 10.260603 -0.207839 0.876696 0.005861 -0.003196 288725.000000 1 0 0
1.586776 -11.795965 -2.601952 12.183300 -1.437080 1.786021 0.004953 -0.004830 -3099100.000000 1 0 0
-0.792624 -1.443265 4.842948 5.115214 1.068577 0.327737 0.001708 -0.000635 3867860.000000 1 0 0
7.646976 1.481835 9.911048 12.605592 0.191408 0.666092 0.005329 -0.002020 907753.000000 1 0 0
-3.893024 10.730635 -7.957552 13.914913 -1.222768 2.179583 0.004793 -0.000598 1773730.000000 1 0 0
-9.690024 12.624835 6.360348 17.138759 -0.916166 1.190593 0.006391 -0.007767 1804420.000000 1 0 0
-2.559224 -2.543165 -11.017952 11.593644 0.782251 2.825136 0.011064 -0.005702 -57846.400000 1 0 0
1.201376 -11.795065 11.193648 16.305356 -1.469292 0.814130 -0.002434 -0.002109 1815530.000000 1 0 0
1.377676 3.498135 -1.985252 4.251607 1.195619 2.056625 0.004730 -0.003757 2870780.000000 1 0 0
-1.962024 -9.430065 -11.999952 15.387479 1.365662 2.465225 0.002786 0.001513 381123.000000 1 0 0
1.283276 -2.657565 1.565548 3.340717 -1.120941 1.083061 0.002149 -0.000490 2035340.000000 1 0 0
-1.098624 -2.183065 -6.601652 7.039500 1.104553 2.787038 0.004591 -0.007322 469494.000000 1 0 0
1.825776 5.886635 4.035848 7.367089 1.270048 0.991039 -0.003451 0.000700 -1733590.000000 1 0 0
-11.019624 8.598535 3.648048 14.445594 -0.662608 1.315495 -0.007601 -0.005614 1722020.000000 1 0 0
-16.413524 -1.694265 3.984348 16.974962 0.102859 1.333867 0.032167 -0.009802 -463328.000000 1 0 0
-12.125824 0.286735 6.766948 13.889183 -0.023642 1.061904 0.001211 -0.001722 215014.000000 1 0 0
-5.100424 3.043035 4.679548 7.561254 -0.537933 0.903474 0.000384 -0.003301 1633920.000000 1 0 0
5.132376 -6.001765 4.035948 8.868559 -0.863323 1.098329 0.002279 -0.005007 727246.000000 1 0 0
9.906876 3.403435 6.221248 12.183328 0.330911 1.034872 -0.000256 0.001180 366923.000000 1 0 0
-12.198024 5.844335 3.172948 13.893007 -0.446806 1.340378 -0.003457 -0.002402 1821370.000000 1 0 0
-4.965824 12.308735 -1.236052 13.330123 -1.187329 1.663656 -0.000059 -0.000142 1991050.000000 1 0 0
-1.759124 -12.094365 10.370348 16.028484 1.426359 0.867160 0.005867 -0.006023 993524.000000 1 0 0
5.226176 6.405135 13.780848 16.070172 0.886414 0.540324 0.006896 -0.002162 177344.000000 1 0 0
12.962676 -3.628265 -6.019952 14.745680 -0.272917 1.991335 0.014180 -0.003831 2469940.000000 1 0 0
3.582276 -2.458865 6.406748 7.741133 -0.601538 0.595935 -0.002388 -0.001063 1001230.000000 1 0 0
7.261576 -11.763165 -0.708752 13.842141 -1.017743 1.622021 0.007208 -0.006234 -2015990.000000 1 0 0
-6.097024 -6.608465 -4.012152 9.845957 0.825630 1.990503 0.010756 -0.005299 -448451.000000 1 0 0
0.316376 -8.844565 5.047948 10.188631 -1.535041 1.052445 0.001480 -0.001563 2316770.000000 1 0 0
-10.272224 2.428335 -0.425852 10.563936 -0.232137 1.611119 -0.002982 -0.000897 -1796200.000000 1 0 0
-1.983324 8.957435 -0.410552 9.183560 -1.352895 1.615516 0.006993 -0.004922 28554.500000 1 0 0
-3.519924 2.334035 -6.693652 7.914705 -0.585524 2.578716 0.011108 -0.011550 -108141.000000 1 0 0
-12.752724 3.006035 6.365748 14.566776 -0.231491 1.118531 -0.000422 -0.009750 793466.000000 1 0 0
11.356076 1.630435 7.928048 13.945348 0.142599 0.966105 0.014082 -0.004311 -1605310.000000 1 0 0
6.051476 2.665335 -3.236652 7.362084 0.414879 2.025992 0.000138 -0.000926 1136440.000000 1 0 0
10.478876 -2.434965 6.270348 12.452034 -0.228317 1.043082 0.020603 -0.006864 3431320.000000 1 0 0
-1.017024 10.984935 4.050748 11.752093 -1.478476 1.218895 0.007960 -0.001924 2455460.000000 1 0 0
-1.571924 -12.170065 7.445148 14.353106 1.442344 1.025451 0.002097 -0.001898 -181563.000000 1 0 0
8.067276 8.665135 -7.751352 14.150935 0.821114 2.150484 0.002418 -0.002731 1739750.000000 1 0 0
-4.650124 -6.058465 -8.626352 11.521397 0.916163 2.416932 0.007411 -0.003203 -278403.000000 1 0 0
-8.579824 -5.346665 -11.591152 15.380345 0.557280 2.424370 0.003352 -0.003757 363253.000000 1 0 0
6.050276 -0.654865 -9.961152 11.673013 -0.107817 2.593172 0.006761 0.002311 -1436940.000000 1 0 0
-11.175624 -5.505765 -5.304252 13.540425 0.457757 1.973312 0.005656 -0.007544 -1149490.000000 1 0 0
3.920876 8.854035 -2.747252 10.065515 1.153917 1.847241 0.009720 -0.006665 1225100.000000 1 0 0
11.752476 -10.288465 -4.008452 16.125783 -0.719073 1.822004 0.031020 -0.008433 -971370.000000 1 0 0
4.007476 -11.174065 3.887448 12.491271 -1.226445 1.254327 0.000224 -0.003920 645667.000000 1 0 0
-1.037024 0.870035 3.226048 3.498538 -0.698057 0.397289 0.002289 -0.001763 -854078.000000 1 0 0
-10.599624 -5.132465 4.562948 12.629914 0.450938 1.201155 0.014072 -0.005264 2358630.000000 1 0 0
4.694876 -8.626565 2.749848 10.199076 -1.072390 1.297801 -0.000110 -0.003997 5806140.000000 1 0 0
-3.653024 -5.760865 2.624048 7.308747 1.005673 1.203570 0.001827 -0.001444 1822250.000000 1 0 0
10.024576 5.065335 12.182348 16.569832 0.467872 0.744816 0.027798 0.002493 -829528.000000 1 0 0
1.616176 -12.340765 -5.316852 13.534231 -1.440575 1.974519 0.000804 -0.003833 2656080.000000 1 0 0
9.920276 -10.646165 -1.800552 14.662697 -0.820678 1.693905 0.013723 -0.006869 3002680.000000 1 0 0
9.648076 -4.440665 -9.248052 14.083016 -0.431357 2.287206 0.017476 -0.000511 1543280.000000 1 0 0
-7.446724 -3.050265 -13.033652 15.317764 0.388765 2.588463 0.002941 -0.001576 1840420.000000 1 0 0
0.433476 6.307535 -2.547552 6.816371 1.502181 1.953834 0.005440 -0.005393 754074.000000 1 0 0
-5.921724 -9.446065 1.025448 11.195825 1.010833 1.479076 0.011245 0.000063 399147.000000 1 0 0
-8.950924 -4.138765 0.631748 9.881676 0.433105 1.506821 0.000821 -0.003590 3898610.000000 1 0 0
1.881376 3.752135 12.121548 12.827705 1.106018 0.333353 0.002509 -0.007846 336031.000000 1 0 0
6.749376 4.253135 9.580148 12.466855 0.562296 0.694382 -0.000154 0.000383 1678680.000000 1 0 0
-8.287624 9.824735 -3.604252 13.349186 -0.870061 1.844187 0.006404 -0.001970 2308040.000000 1 0 0
16.507776 2.154535 -6.062752 17.717382 0.129783 1.920045 0.051208 0.005158 168312.000000 1 0 0
-10.954324 2.570835 -5.101352 12.354360 -0.230515 1.996453 0.002705 -0.003295 401161.000000 1 0 0
-13.739424 4.013735 1.437248 14.385671 -0.284224 1.470721 -0.003588 -0.000966 139259.000000 1 0 0
-17.339224 10.272135 3.255548 20.414800 -0.534829 1.410643 0.043478 -0.023348 -1729530.000000 1 0 0
-14.300524 2.758635 -1.180052 14.611899 -0.190564 1.651644 -0.002186 -0.000566 810360.000000 1 0 0
-14.442024 5.015935 5.179848 16.141948 -0.334281 1.244123 0.001762 -0.009821 1423360.000000 1 0 0
-17.434324 7.362335 3.012548 19.163379 -0.399573 1.412938 0.027713 -0.013250 -1480910.000000 1 0 0
-14.895324 12.582535 -3.494352 19.809123 -0.701427 1.748125 0.048577 -0.017513 267113.000000 1 0 0
-8.490224 12.404435 -9.529252 17.797768 -0.970583 2.135799 0.022123 -0.013171 1677340.000000 1 0 0
-12.584924 8.664835 -9.931252 18.223321 -0.602972 2.147155 0.022360 -0.008090 -992958.000000 1 0 0
-13.768624 -3.608565 -12.244752 18.775801 0.256321 2.281221 0.020599 0.005217 -67350.500000 1 0 0
-14.855224 5.653935 -7.649652 17.639780 -0.363673 2.019346 0.030495 -0.002219 -1118790.000000 1 0 0
-10.930724 13.326235 -8.290952 19.126138 -0.883835 2.019156 0.034295 -0.020618 888396.000000 1 0 0
-10.999224 13.539235 3.899148 17.874484 -0.888542 1.350888 0.008026 -0.007369 -1754710.000000 1 0 0
-15.141724 3.187435 3.046048 15.770541 -0.207477 1.376427 0.001420 -0.003007 902230.000000 1 0 0
-11.169424 9.393835 -12.378952 19.137362 -0.699264 2.274240 0.024951 -0.015640 -752782.000000 1 0 0
-13.254224 11.443435 -8.991952 19.684559 -0.712211 2.045194 0.038260 -0.025364 1711340.000000 1 0 0
-8.829424 14.538935 -3.371752 17.340936 -1.025030 1.766482 0.019981 -0.008780 188847.000000 1 0 0
-16.815824 8.246935 -4.151452 19.183807 -0.455960 1.788926 0.039867 -0.006711 -1429950.000000 1 0 0
-16.914824 6.627035 0.285148 18.168935 -0.373408 1.555101 0.022171 -0.003447 558596.000000 1 0 0
-10.473424 2.773035 -12.432552 16.490927 -0.258830 2.424778 0.005026 -0.013136 120715.000000 1 0 0
-16.821224 0.799735 2.421648 17.013452 -0.047507 1.427974 0.026686 -0.010345 -522652.000000 1 0 0
-12.625424 1.118435 -6.940052 14.450486 -0.088355 2.071752 0.003638 -0.006114 767894.000000 1 0 0
-12.294924 8.943335 -5.407752 16.136672 -0.628880 1.912531 0.026124 -0.003689 -749187.000000 1 0 0
-9.721824 13.964635 1.276348 17.063234 -0.962642 1.495925 0.018689 -0.007548 -650343.000000 1 0 0
-12.225324 11.071535 2.744148 16.720281 -0.735913 1.405930 0.001655 -0.005834 -493288.000000 1 0 0
-12.606224 6.754735 -3.604552 14.749106 -0.491895 1.817688 0.004754 0.001471 983714.000000 1 0 0
-15.930924 3.633235 -9.343152 18.822572 -0.224227 2.090220 0.041250 -0.010693 -1151670.000000 1 0 0
-15.150124 5.841335 -4.683452 16.899177 -0.368000 1.851613 0.016422 0.002677 128966.000000 1 0 0
-17.957924 5.103735 7.378848 20.074425 -0.276904 1.194397 0.032643 -0.020786 -814641.000000 1 0 0
-15.907424 10.119935 -2.203852 18.981997 -0.566596 1.687161 0.038047 -0.007272 -674367.000000 1 0 0
-8.834024 9.815135 -8.408052 15.654782 -0.837959 2.137782 0.011145 -0.008485 1389690.000000 1 0 0
-16.937224 4.148835 -1.273152 17.484373 -0.240224 1.643677 0.013124 -0.001819 340858.000000 1 0 0
-10.257424 5.280635 -4.567552 12.408158 -0.475426 1.947770 0.003993 -0.003217 -1515120.000000 1 0 0
-18.191224 2.566235 6.093348 19.355493 -0.140145 1.250537 0.054274 -0.025885 -2815240.000000 1 0 0
-10.365724 10.080035 -5.753952 15.561597 -0.771426 1.949540 0.011705 -0.005212 822733.000000 1 0 0
-15.345024 0.485935 -5.866052 16.435220 -0.031657 1.935765 0.008113 -0.002928 113467.000000 1 0 0
-16.271824 -4.139665 -8.851952 18.980678 0.249122 2.055975 0.027758 -0.013498 -706164.000000 1 0 0
-10.030924 9.637035 -1.122752 13.955374 -0.765374 1.651336 -0.000531 0.000464 2245030.000000 1 0 0
-17.355024 -3.077965 -3.225052 17.918474 0.175528 1.751767 0.015910 -0.006690 -879420.000000 1 0 0
-12.038624 5.034135 -11.563852 17.435414 -0.396067 2.295935 0.014955 -0.009211 234756.000000 1 0 0
-16.409824 6.935035 5.836848 18.746889 -0.399849 1.254183 0.023539 -0.012091 -432526.000000 1 0 0
-12.200324 5.914535 -8.803052 16.165499 -0.451402 2.146658 0.019707 -0.008952 1603930.000000 1 0 0
-14.609824 8.469835 -0.193552 16.888533 -0.525386 1.582257 0.020410 -0.003526 1157210.000000 1 0 0
-14.883324 11.782035 3.748048 19.348839 -0.669614 1.375855 0.016042 -0.015898 1011960.000000 1 0 0
-17.404524 4.152835 -4.083852 18.353238 -0.234227 1.795189 0.032125 -0.002888 -385405.000000 1 0 0
-13.855724 13.394935 -0.848252 19.290539 -0.768490 1.614783 0.038885 -0.013295 -1061240.000000 1 0 0
-10.092124 6.863135 -13.011852 17.839896 -0.597210 2.388194 0.001444 -0.016229 576649.000000 1 0 0
-15.853224 -1.154965 -8.273852 17.919690 0.072725 2.050728 0.021093 -0.010364 75974.000000 1 0 0
-11.478124 11.915835 -0.077552 16.545104 -0.804106 1.575484 0.016277 -0.005774 1198610.000000 1 0 0
-12.032724 7.382835 -0.910752 14.146454 -0.550333 1.635221 -0.003871 0.004891 2596260.000000 1 0 0
-11.482424 0.099335 -11.658352 16.363774 -0.008651 2.363778 0.009617 -0.009955 351033.000000 1 0 0
-19.017324 -1.283465 -4.702952 19.632210 0.067387 1.812702 0.030853 -0.013727 -1708950.000000 1 0 0
-17.965224 1.458035 -5.139652 18.742763 -0.080981 1.848575 0.017877 -0.004221 -81136.800000 1 0 0
-13.300924 -0.146765 -9.445052 16.313955 0.011034 2.188243 0.012580 -0.008218 -38820.800000 1 0 0
-6.148724 11.175635 -13.237552 18.382992 -1.067807 2.374740 -0.002607 -0.002579 -2363580.000000 1 0 0
16.429576 5.873135 6.963148 18.785902 0.343317 1.191079 0.056346 -0.013633 -546471.000000 1 0 0
14.729476 10.163635 -5.543552 18.734671 0.603997 1.871192 0.055820 -0.024562 610488.000000 1 0 0
2.376676 16.818135 4.275148 17.514998 1.430410 1.324220 0.025846 -0.013740 193098.000000 1 0 0
-3.936424 18.216235 -5.874752 19.540710 -1.357974 1.876162 0.016606 -0.004148 -233234.000000 1 0 0
5.406376 14.592035 5.663748 16.560025 1.215975 1.221738 0.011208 -0.008680 -1295920.000000 1 0 0
10.055376 5.964835 14.996948 19.015738 0.535403 0.662170 0.049029 -0.005454 -1149270.000000 1 0 0
4.665976 12.679735 -1.177152 13.562179 1.218188 1.657702 0.013300 -0.011805 2372930.000000 1 0 0
3.708876 13.667935 12.952348 19.191965 1.305821 0.829989 0.033473 -0.019678 -71617.100000 1 0 0
-0.797924 12.366735 9.136248 15.396228 -1.506364 0.935510 0.014387 -0.002215 1725800.000000 1 0 0
-7.886224 13.940735 8.296848 18.038135 -1.055982 1.092844 0.021214 -0.020023 2011260.000000 1 0 0
11.433876 12.769235 -4.211352 17.649996 0.840515 1.811724 0.058213 -0.014463 188978.000000 1 0 0
-5.894624 16.128235 0.953748 17.198145 -1.220394 1.515311 0.012038 -0.000795 642291.000000 1 0 0
3.200876 10.591735 6.729948 12.950778 1.277318 1.024348 0.006685 0.002673 2225260.000000 1 0 0
-1.252824 15.486235 2.450048 15.728820 -1.490073 1.414391 0.019893 -0.007177 -788268.000000 1 0 0
9.817076 8.847935 9.391348 16.212907 0.733522 0.952986 0.014065 -0.004154 2843640.000000 1 0 0
7.230176 12.303935 6.182148 15.552531 1.039521 1.162004 0.008889 -0.004955 -139171.000000 1 0 0
11.959876 13.900535 -1.659652 18.412440 0.860301 1.661056 0.053681 -0.006502 700157.000000 1 0 0
9.724676 15.839535 -1.276352 18.630332 1.020183 1.639359 0.039960 -0.007649 1934500.000000 1 0 0
10.182276 13.671235 3.022948 17.312412 0.930634 1.395285 0.020491 -0.004066 2616620.000000 1 0 0
-6.104724 14.585735 6.178248 16.975926 -1.174409 1.198300 0.008264 -0.009734 127726.000000 1 0 0
-0.949624 18.171435 -6.184552 19.218520 -1.518585 1.898428 0.028242 -0.003511 889743.000000 1 0 0
-3.626724 15.685735 5.345448 16.963762 -1.343577 1.250224 0.013046 -0.009140 1764730.000000 1 0 0
7.064876 12.318035 10.545448 17.687649 1.050061 0.932032 0.013663 -0.004515 2055610.000000 1 0 0
1.500176 14.611735 6.164648 15.929727 1.468486 1.173431 0.015687 -0.003417 226480.000000 1 0 0
17.402776 7.805135 -1.582252 19.138450 0.421605 1.653565 0.026004 0.001094 983019.000000 1 0 0
1.955076 16.090835 -3.321652 16.546017 1.449887 1.772922 0.011456 -0.012615 2455200.000000 1 0 0
6.772376 11.196535 0.567548 13.097694 1.026808 1.527451 0.011694 -0.005230 1049510.000000 1 0 0
12.590976 9.208235 3.227048 15.929159 0.631449 1.366797 0.018009 0.001230 -1216230.000000 1 0 0
5.998776 14.204635 -3.496852 15.810912 1.171205 1.793807 0.018755 -0.012622 830036.000000 1 0 0
3.133676 16.397035 1.520848 16.762925 1.381961 1.479944 0.026416 -0.020956 -89720.300000 1 0 0
2.692076 18.692835 -2.513752 19.052252 1.427763 1.703122 0.023925 -0.028789 399835.000000 1 0 0
4.000476 11.956335 10.577948 16.457544 1.247915 0.872725 0.018767 -0.005945 2519730.000000 1 0 0
8.108176 11.614335 3.396248 14.566049 0.961335 1.335468 0.008213 -0.000620 1195100.000000 1 0 0
0.710276 12.360935 0.177748 12.382601 1.513398 1.556441 0.015423 -0.009469 145575.000000 1 0 0
11.899476 9.806035 -4.625152 16.098071 0.689248 1.862215 0.032033 -0.007803 1420840.000000 1 0 0
-1.346224 16.413835 9.829948 19.179525 -1.488962 1.032676 0.016225 -0.009409 -273545.000000 1 0 0
8.067476 14.915835 -7.994252 18.747649 1.074992 2.011320 0.046739 -0.006486 250085.000000 1 0 0
14.465576 7.580235 -1.381952 16.389711 0.482678 1.655215 0.016937 0.003669 -63297.600000 1 0 0
12.502876 8.286235 6.053548 16.174951 0.585284 1.187204 0.017816 -0.001697 -1527250.000000 1 0 0
-3.126924 14.176635 10.134348 17.704792 -1.353703 0.961358 0.018700 -0.016088 2841880.000000 1 0 0
-4.695624 17.140735 -3.171352 18.053010 -1.303411 1.747381 0.026433 -0.003233 -305579.000000 1 0 0
-7.164224 16.429635 -1.756652 18.009576 -1.159599 1.668492 0.022434 -0.004528 331270.000000 1 0 0
8.399576 11.292435 -1.933952 14.206060 0.931260 1.707356 0.010128 -0.005101 57645.100000 1 0 0
8.556076 12.962235 -4.256152 16.104062 0.987370 1.838265 0.035075 -0.006601 3111030.000000 1 0 0
2.540176 14.717735 -7.328652 16.636507 1.399887 2.026970 0.011242 -0.009748 -1674870.000000 1 0 0
11.290176 11.297035 9.737848 18.706062 0.785702 1.023276 0.032218 -0.008928 544217.000000 1 0 0
8.694876 15.675335 1.490248 17.987157 1.064363 1.487851 0.015169 -0.007407 1134510.000000 1 0 0
6.038376 9.944935 7.674148 13.937585 1.025113 0.987704 0.003431 0.003753 3752190.000000 1 0 0
14.486176 11.343535 2.537248 18.573172 0.664326 1.433760 0.033501 -0.000862 2254180.000000 1 0 0
12.149276 12.613335 1.068748 17.545465 0.804136 1.509846 0.034350 -0.001378 1868230.000000 1 0 0
5.173076 15.899535 8.224748 18.633368 1.256239 1.113639 0.023003 -0.007345 -87339.900000 1 0 0
11.570676 14.947235 5.090748 19.575906 0.912048 1.307721 0.041273 -0.008641 -272851.000000 1 0 0
6.029076 16.603935 1.776348 17.753755 1.222489 1.470574 0.011898 -0.022368 124556.000000 1 0 0
-0.800324 16.091335 -4.212552 16.652843 -1.521101 1.826538 0.009971 -0.003657 594944.000000 1 0 0
16.060076 6.410335 2.528248 17.475997 0.379771 1.425617 0.012198 0.003197 187575.000000 1 0 0
7.624876 16.612735 -3.166052 18.551161 1.140502 1.742302 0.037094 -0.020152 288464.000000 1 0 0
14.859276 8.187035 7.486048 18.543639 0.503589 1.155240 0.054060 -0.006165 357871.000000 1 0 0
2.024076 12.858435 8.550248 15.573791 1.414665 0.989611 0.014741 -0.001479 1626290.000000 1 0 0
15.945476 7.554435 -5.948452 18.620198 0.442442 1.895958 0.028103 -0.006406 -1719040.000000 1 0 0
-3.062224 16.929235 0.687548 17.217693 -1.391847 1.530853 0.013008 -0.008844 1888930.000000 1 0 0
-2.953024 18.498335 4.473248 19.259250 -1.412495 1.336391 0.021754 -0.010823 1563920.000000 1 0 0
-0.833624 18.855135 0.732948 18.887781 -1.526613 1.531981 0.022722 -0.021036 1214910.000000 1 0 0
6.825676 16.849935 -6.032652 19.154713 1.185913 1.891193 0.039253 -0.012422 508741.000000 1 0 0
11.103176 9.978335 0.692548 14.944139 0.732092 1.524437 0.010166 -0.000750 -1680320.000000 1 0 0
9.150476 8.729235 14.359048 19.134080 0.761843 0.722063 0.033700 -0.004421 627284.000000 1 0 0
6.418776 12.429035 -8.327852 16.279887 1.094088 2.107775 0.026283 -0.009990 -763767.000000 1 0 0
6.345876 9.084835 13.322848 17.329243 0.961069 0.693822 0.016186 -0.009196 915010.000000 1 0 0
16.699176 9.433635 2.944348 19.404255 0.514223 1.418471 0.033409 0.004388 -766515.000000 1 0 0
2.526676 14.656735 -0.788052 14.893791 1.400084 1.623732 0.014581 -0.015601 1669270.000000 1 0 0
9.140776 12.946535 8.309648 17.894603 0.956028 1.087878 0.022408 -0.008441 1593850.000000 1 0 0
7.158676 9.393135 10.480648 15.789921 0.919585 0.844968 0.007183 -0.005645 907128.000000 1 0 0
4.234976 15.734935 -5.301252 17.135532 1.307882 1.885329 0.027639 -0.014739 2265050.000000 1 0 0
0.270076 16.299235 -8.051352 18.181371 1.554228 2.029555 0.015135 -0.006863 805039.000000 1 0 0
-2.554224 15.683835 -2.021952 16.018584 -1.409357 1.697359 0.004401 -0.003518 -953578.000000 1 0 0
13.293976 10.500535 7.681548 18.601000 0.668535 1.145090 0.048688 -0.010329 1863370.000000 1 0 0
-1.023724 15.927935 6.994748 17.426234 -1.506612 1.157760 0.015107 -0.008433 4125860.000000 1 0 0
13.298076 13.328935 6.781348 20.012147 0.786557 1.225090 0.052099 -0.008650 187725.000000 1 0 0
5.394376 17.330035 4.560348 18.714331 1.269029 1.324636 0.018194 -0.015226 2717890.000000 1 0 0
10.789076 9.436635 -1.941652 14.464586 0.718630 1.705438 0.009237 -0.000574 1090990.000000 1 0 0
3.237176 12.774535 4.677648 13.983864 1.322612 1.229718 0.010430 -0.002770 1065390.000000 1 0 0
-0.102024 17.972135 3.534548 18.316688 -1.565120 1.376609 0.021004 -0.015212 3006040.000000 1 0 0
-7.812724 15.787235 -5.751952 18.529986 -1.111256 1.886424 0.044800 -0.009779 932338.000000 1 0 0
-12.436424 -9.024565 8.360448 17.492985 0.627738 1.072498 0.035732 -0.010438 -260863.000000 1 0 0
-13.282324 -11.661665 7.054948 19.031208 0.720517 1.191029 0.040402 -0.004688 -1312650.000000 1 0 0
-6.355524 -12.094865 12.396848 18.448856 1.086979 0.833947 0.022062 -0.009260 -959888.000000 1 0 0
-1.734224 -10.669465 14.404048 18.008932 1.409665 0.643788 0.003453 -0.003663 43930.300000 1 0 0
-8.932424 2.801935 10.892748 14.362834 -0.303961 0.709944 0.003033 -0.003166 714649.000000 1 0 0
0.584476 10.044935 15.131248 18.171324 1.512676 0.586832 0.023753 -0.011000 952566.000000 1 0 0
1.021776 -6.765765 16.631848 17.984381 -1.420908 0.390303 0.017040 -0.019491 2919830.000000 1 0 0
6.113476 2.411035 17.642848 18.827049 0.375653 0.356566 0.044266 -0.013112 608122.000000 1 0 0
-5.146324 -2.907965 17.726448 18.686034 0.514330 0.321866 0.037866 -0.016731 353667.000000 1 0 0
-4.322524 8.086335 12.894448 15.822131 -1.079895 0.618131 0.000914 -0.004289 584855.000000 1 0 0
0.032376 -4.786665 18.577448 19.184233 -1.564033 0.252180 0.026799 -0.029221 225288.000000 1 0 0
-11.676724 2.114035 11.153348 16.285337 -0.179107 0.816370 0.008244 -0.009993 -642803.000000 1 0 0
-3.440824 -6.073865 14.475048 16.070412 1.055376 0.449357 0.018995 -0.010307 2259520.000000 1 0 0
-7.466024 -2.241265 14.649948 16.594751 0.291636 0.488993 0.015802 -0.004304 1634280.000000 1 0 0
-6.143824 -1.051065 10.631948 12.324351 0.169436 0.530255 0.004850 -0.003377 887733.000000 1 0 0
-3.994724 2.461735 11.275248 12.212665 -0.552280 0.394361 0.004473 -0.003084 -662464.000000 1 0 0
-6.433924 6.249035 13.374248 16.103302 -0.770821 0.590741 -0.005179 -0.003656 262327.000000 1 0 0
-9.055824 5.452035 12.419648 16.308902 -0.541924 0.705132 0.005255 -0.004568 -879557.000000 1 0 0
-12.311424 -2.176265 15.826448 20.168881 0.174961 0.668590 0.030196 -0.008990 1095720.000000 1 0 0
-3.560224 -7.629165 17.000448 18.970888 1.134175 0.459818 0.036948 -0.015140 -720548.000000 1 0 0
-0.569224 -5.360165 14.504348 15.473574 1.464998 0.355816 0.011437 -0.006578 1429050.000000 1 0 0
-14.278424 -2.206765 13.627248 19.860642 0.153339 0.814622 0.036611 -0.019797 -802522.000000 1 0 0
-6.523624 1.524035 12.205648 13.923297 -0.229502 0.501973 0.006951 -0.005110 348292.000000 1 0 0
2.229376 -2.283865 14.654148 14.997674 -0.797471 0.214445 0.006335 -0.005854 -776991.000000 1 0 0
-12.644124 4.013035 9.113348 16.094454 -0.307328 0.968858 0.000373 -0.008562 -631447.000000 1 0 0
-9.052724 -2.969265 12.533348 15.743353 0.316940 0.649966 0.004479 -0.004673 499817.000000 1 0 0
-7.220624 -7.233565 15.186648 18.305632 0.786293 0.592376 0.034814 -0.016706 -1405430.000000 1 0 0
-3.386124 5.959535 19.309348 20.489822 -1.054098 0.341100 0.039111 -0.018636 -1079790.000000 1 0 0
0.697176 5.521135 16.180448 17.110695 1.445187 0.331259 0.020486 -0.010874 1071660.000000 1 0 0
3.449776 1.543435 16.762748 17.183506 0.420691 0.221751 0.018715 -0.009625 2029900.000000 1 0 0
-11.776924 11.429735 7.830348 18.183760 -0.770439 1.125613 0.010840 -0.013542 539892.000000 1 0 0
0.750976 -9.474765 15.544448 18.219907 -1.491701 0.548788 -0.002311 0.003301 2207220.000000 1 0 0
-2.526924 -3.566865 18.915348 19.413868 0.954426 0.227109 0.036963 -0.024356 781210.000000 1 0 0
-12.841124 2.375435 13.731848 18.949956 -0.182919 0.760288 0.012005 -0.013798 -854001.000000 1 0 0
-5.313824 -0.641965 15.801248 16.683174 0.120228 0.326606 0.018619 -0.005089 439104.000000 1 0 0
-4.423224 -5.960165 11.721848 13.874084 0.932350 0.564467 0.007040 -0.005943 133035.000000 1 0 0
2.398076 1.786535 13.970448 14.286913 0.640285 0.210870 0.005920 -0.007973 -242037.000000 1 0 0
0.154976 3.324235 14.323648 14.705151 1.524210 0.228282 0.014651 -0.008214 -355567.000000 1 0 0
-13.113024 7.116435 12.166048 19.251176 -0.497221 0.886712 0.024799 -0.007583 960729.000000 1 0 0
0.825176 1.421235 18.220148 18.294114 1.044760 0.089954 0.018965 -0.014493 247802.000000 1 0 0
-1.984524 6.359935 12.530048 14.191167 -1.268335 0.488693 0.007563 -0.003847 213890.000000 1 0 0
-13.496524 -2.577165 10.852948 17.509553 0.188679 0.902270 0.039310 -0.018136 5809.210000 1 0 0
-2.552024 3.552435 13.595048 14.281385 -0.947836 0.311281 0.007598 -0.002551 -36952.600000 1 0 0
3.630176 6.031335 16.283048 17.739584 1.028991 0.408057 0.019782 -0.009424 1130400.000000 1 0 0
-3.788924 12.335835 12.222148 17.773848 -1.272795 0.812552 0.020357 -0.017692 1539440.000000 1 0 0
3.734376 -1.432865 17.137248 17.597839 -0.366373 0.229295 0.028570 -0.019398 127128.000000 1 0 0
-15.835124 0.507435 9.201948 18.321695 -0.032034 1.044605 0.039726 -0.019357 1168370.000000 1 0 0
-4.741824 4.631735 15.140548 16.527978 -0.773654 0.412664 0.006414 -0.005845 1285440.000000 1 0 0
-7.982824 -8.123165 10.447148 15.454909 0.794112 0.828508 0.012804 -0.012559 2113380.000000 1 0 0
-2.587124 -0.431465 14.772548 15.003585 0.165253 0.175718 0.014492 -0.005437 1528250.000000 1 0 0
-1.865624 0.968935 17.253948 17.381545 -0.479017 0.121243 0.022431 -0.014467 1606680.000000 1 0 0
-0.673424 -2.463565 14.448348 14.672335 1.303961 0.174957 0.011540 -0.004861 -303425.000000 1 0 0
5.134976 -8.179465 16.459748 19.083892 -1.010194 0.530618 0.009526 -0.016975 1245060.000000 1 0 0
-4.501524 9.919635 10.593948 15.195217 -1.144787 0.799327 0.003909 -0.008013 -1031760.000000 1 0 0
-6.195824 2.131535 15.259448 16.606699 -0.331344 0.405582 0.008323 -0.002193 -1931410.000000 1 0 0
-5.080824 6.853535 17.167448 19.170472 -0.932858 0.461209 0.016898 -0.004844 -1010110.000000 1 0 0
-4.253024 9.233735 15.612948 18.631002 -1.139166 0.577172 0.014809 -0.006989 139993.000000 1 0 0
-4.732924 -9.828065 18.618248 21.578475 1.121999 0.529983 0.066385 -0.013873 -43412.100000 1 0 0
-6.760824 -4.070465 11.181548 13.685922 0.541938 0.614588 0.009047 -0.004026 88366.200000 1 0 0
-2.363624 -0.724165 19.613848 19.769021 0.297299 0.125376 0.033343 -0.015146 -585191.000000 1 0 0
-5.765424 -4.553665 15.342948 17.011233 0.668505 0.446578 0.021796 -0.009182 932222.000000 1 0 0
-12.885324 0.067635 9.708648 16.133630 -0.005249 0.925088 0.015109 -0.010897 1338290.000000 1 0 0
-14.604924 8.676435 10.237848 19.834260 -0.536052 1.028423 0.028935 -0.016653 283098.000000 1 0 0
-8.411824 10.602435 12.840148 18.655825 -0.900101 0.811702 0.012248 -0.016647 833112.000000 1 0 0
-10.538224 7.178535 10.659148 16.619355 -0.597990 0.874514 0.010092 -0.008709 -41980.400000 1 0 0
-9.990624 -6.419165 14.754348 18.939616 0.571098 0.677694 0.047915 -0.022186 247206.000000 1 0 0
-0.729124 -13.429665 14.512548 19.786399 1.516558 0.747397 0.003505 -0.004025 237883.000000 1 0 0
3.879576 -5.628965 16.982848 18.307198 -0.967344 0.382700 0.024115 -0.022852 1351910.000000 1 0 0
-7.393624 9.234735 10.450348 15.784669 -0.895670 0.847236 0.005551 -0.010127 498885.000000 1 0 0
-10.268124 -6.606465 11.718748 16.923617 0.571718 0.805918 0.033695 -0.023273 2655200.000000 1 0 0
-10.904724 -3.836865 10.682748 15.740256 0.338325 0.824819 0.019032 -0.009473 1424360.000000 1 0 0
-10.076924 -10.105865 9.841448 17.335715 0.786832 0.967090 0.024577 -0.017008 1680430.000000 1 0 0
-9.880624 -3.535265 15.212248 18.480729 0.343605 0.603876 0.030288 -0.017368 1451370.000000 1 0 0
5.664576 -3.351065 16.189148 17.475857 -0.534207 0.386133 0.034576 -0.020370 417807.000000 1 0 0
-11.382524 0.528835 15.257448 19.042879 -0.046427 0.641473 0.017994 -0.010187 -1014520.000000 1 0 0
-3.261924 3.129535 18.676348 19.215622 -0.764688 0.237472 0.035856 -0.017721 -734876.000000 1 0 0
0.564276 7.326235 13.889548 15.713423 1.493927 0.486598 0.013451 -0.010119 -501671.000000 1 0 0
-13.154624 -7.167065 12.109348 19.262587 0.498867 0.890985 0.046603 -0.030032 -379280.000000 1 0 0
-1.419224 -1.082865 12.154348 12.284746 0.651768 0.145831 0.006170 -0.004598 1240580.000000 1 0 0
2.071176 -4.851565 13.193448 14.208959 -1.167310 0.380362 0.004430 -0.005633 905001.000000 1 0 0
-14.625724 -3.985765 8.654648 17.455689 0.266057 1.052033 0.051077 -0.019684 598616.000000 1 0 0
8.071576 0.820835 16.102048 18.030531 0.101346 0.466732 0.050593 -0.013112 272707.000000 1 0 0
-1.298224 11.330435 13.360648 17.566191 -1.456715 0.706577 0.020975 -0.008493 1401380.000000 1 0 0
2.879276 -12.243365 -13.851852 18.709998 -1.339823 2.404380 0.010417 0.003890 -826486.000000 1 0 0
0.779576 -10.692265 -14.035952 17.661829 -1.498015 2.489318 0.007337 0.005450 -1689450.000000 1 0 0
3.170676 -14.358265 -12.310052 19.176818 -1.353458 2.267801 0.012805 -0.002090 -677260.000000 1 0 0
-5.083424 -10.114065 -16.273152 19.822991 1.105063 2.533822 0.009415 -0.001954 -1228250.000000 1 0 0
-1.016524 -12.193365 -15.020852 19.373628 1.487622 2.458025 0.021820 -0.003026 -176443.000000 1 0 0
5.640376 -14.962765 -12.187152 20.105344 -1.210308 2.222026 0.020186 0.001280 751183.000000 1 0 0
1.895876 -11.983565 -16.157752 20.205769 -1.413890 2.497526 0.019653 0.005131 -577677.000000 1 0 0
1.200376 -14.201365 -13.998052 19.976614 -1.486471 2.347205 0.027675 0.005811 -220053.000000 1 0 0
-1.161824 -10.803265 -15.860452 19.225356 1.463664 2.540956 0.025986 -0.005766 -533251.000000 1 0 0
-5.950524 -5.557465 -14.952052 17.025217 0.751256 2.642944 0.013299 -0.004563 30607.200000 1 0 0
-6.592524 -7.698965 -16.320752 19.212037 0.862664 2.585846 0.019578 -0.007990 181270.000000 1 0 0
4.956576 -12.491065 -11.484852 17.677561 -1.193043 2.277967 0.003806 -0.000885 -114225.000000 1 0 0
-1.755224 -15.385565 -13.100752 20.283642 1.457205 2.272969 0.026025 -0.003217 135263.000000 1 0 0
15.877576 -7.327965 -8.842352 19.595501 -0.432400 2.038955 0.073200 0.000163 534558.000000 1 0 0
19.244576 -3.564865 -4.159552 20.009094 -0.183164 1.780207 0.096613 -0.011647 1128570.000000 1 0 0
15.045976 -11.561565 -8.717752 20.881819 -0.655183 2.001467 0.062955 -0.010992 -26171.300000 1 0 0
17.784276 -3.568465 -6.497352 19.267330 -0.198023 1.914760 0.092777 -0.001989 436487.000000 1 0 0
9.314276 -9.100465 -15.382952 20.154637 -0.773788 2.439119 0.077287 -0.019673 -25663.400000 1 0 0
1.398976 1.859035 -15.197852 15.374910 0.925679 2.989684 0.012724 -0.002948 55373.400000 1 0 0
4.787476 -4.258265 -13.949452 15.350568 -0.726961 2.711017 0.019601 0.002456 484719.000000 1 0 0
13.244076 -5.566265 -8.735852 16.813803 -0.397869 2.117137 0.038274 0.002069 -941194.000000 1 0 0
2.946176 0.803535 -12.266452 12.640865 0.266262 2.897598 0.003898 -0.001712 -2523230.000000 1 0 0
0.687376 6.330435 -12.940252 14.422101 1.462637 2.684301 0.010843 -0.002574 24437.800000 1 0 0
3.055576 -1.225865 -16.876452 17.194590 -0.381531 2.948929 0.028940 -0.003640 -280023.000000 1 0 0
13.225876 4.254135 -11.476752 18.020469 0.311201 2.261232 0.032556 -0.003722 1149220.000000 1 0 0
-3.825724 9.416535 -16.614352 19.476755 -1.184890 2.592570 0.009942 0.002015 -210215.000000 1 0 0
-0.362624 -4.977765 -17.737652 18.426447 1.498076 2.867308 0.023370 -0.010406 383122.000000 1 0 0
-0.526024 -8.808165 -17.621452 19.707258 1.511147 2.677349 0.028716 -0.005498 -1413580.000000 1 0 0
5.719876 -10.189465 -12.075952 16.803892 -1.059279 2.372641 0.011494 0.001671 470389.000000 1 0 0
1.931676 -9.774065 -18.052952 20.619718 -1.375678 2.637305 0.043092 -0.009267 253790.000000 1 0 0
10.861976 8.990835 -14.849152 20.477181 0.691425 2.382057 0.078951 -0.007618 -104900.000000 1 0 0
11.067276 -3.740465 -12.978052 17.461543 -0.325922 2.408691 0.035651 -0.000370 976408.000000 1 0 0
4.803976 7.578935 -12.172552 15.122482 1.005852 2.506355 0.000797 -0.003364 -271344.000000 1 0 0
9.687376 -5.946365 -12.789752 17.110881 -0.550524 2.415031 0.031980 0.005153 -740635.000000 1 0 0
-3.336024 0.291035 -15.885352 16.234474 -0.087020 2.933831 0.015402 -0.003442 -2114170.000000 1 0 0
-0.795924 10.769735 -12.761752 16.717745 -1.497027 2.439304 0.012050 -0.004625 -463288.000000 1 0 0
6.621876 -5.498765 -12.601352 15.260397 -0.693001 2.542336 0.018799 0.001920 290093.000000 1 0 0
18.067876 -6.067265 -8.512452 20.873947 -0.323973 1.990843 0.107467 -0.005830 798017.000000 1 0 0
13.272176 4.834335 -13.964952 19.863064 0.349309 2.350490 0.072063 -0.011768 445339.000000 1 0 0
14.198976 0.863735 -11.490352 18.286201 0.060756 2.250242 0.039405 -0.003925 400003.000000 1 0 0
15.239376 5.940835 -11.239752 19.846010 0.371712 2.172864 0.062637 -0.010592 590442.000000 1 0 0
8.220776 1.585335 -11.738552 14.418323 0.190506 2.522045 0.003233 0.003618 978206.000000 1 0 0
9.919476 1.211835 -8.890652 13.375658 0.121565 2.297874 0.006970 -0.000056 495673.000000 1 0 0
-0.121724 -5.840765 -12.973152 14.227861 1.549959 2.718475 0.004864 0.001247 289544.000000 1 0 0
10.621876 -5.689465 -9.073052 15.083585 -0.491749 2.216197 0.021030 -0.003673 -1484010.000000 1 0 0
10.197376 8.454535 -11.282152 17.399787 0.692228 2.276287 0.043984 -0.014605 783056.000000 1 0 0
8.278776 8.291635 -14.694052 18.793736 0.786174 2.468438 0.051542 -0.005155 611393.000000 1 0 0
8.702776 10.580635 -10.635452 17.343615 0.882474 2.230927 0.050912 -0.014715 -1666480.000000 1 0 0
6.927476 1.836235 -18.054752 19.425132 0.259107 2.763724 0.039426 0.001096 -834719.000000 1 0 0
12.105576 2.651235 -13.039252 17.988777 0.215605 2.381620 0.044796 -0.004297 -809918.000000 1 0 0
2.639776 -0.917065 -19.343952 19.544766 -0.334359 2.998120 0.045331 -0.015132 -122191.000000 1 0 0
10.528276 -2.174765 -15.443852 18.817193 -0.203699 2.533486 0.070083 -0.006152 474531.000000 1 0 0
8.344676 -0.800065 -13.034452 15.497440 -0.095585 2.570057 0.017095 0.001519 757360.000000 1 0 0
0.592776 4.382535 -14.639252 15.292668 1.436354 2.848215 0.008910 -0.000482 464280.000000 1 0 0
3.966676 -7.723665 -15.839652 18.063335 -1.096348 2.640161 0.028297 -0.002957 -2333320.000000 1 0 0
11.744676 -5.852365 -14.352552 19.446936 -0.462286 2.400952 0.075396 -0.003866 108374.000000 1 0 0
-5.862224 4.262835 -16.953852 18.438290 -0.628729 2.737581 0.020575 0.001073 511642.000000 1 0 0
11.378076 7.747135 -9.151952 16.529880 0.597780 2.157551 0.035939 -0.008410 -1557590.000000 1 0 0
9.546876 6.359335 -13.674952 17.849042 0.587622 2.443617 0.034632 0.004470 176801.000000 1 0 0
12.096676 0.583035 -10.177452 15.819293 0.048161 2.269671 0.018532 0.001678 444064.000000 1 0 0
5.585976 -7.443365 -13.905052 16.731924 -0.926998 2.551788 0.022097 0.003085 -1071510.000000 1 0 0
8.596676 -10.096165 -10.702852 17.040728 -0.865444 2.249873 0.024780 -0.003108 145001.000000 1 0 0
10.051076 4.679535 -15.802852 19.304204 0.435731 2.529804 0.064012 -0.011179 -151767.000000 1 0 0
9.919776 -0.306265 -10.978452 14.799397 -0.030864 2.406573 0.014915 0.002278 240546.000000 1 0 0
-1.714724 5.444135 -13.924252 15.048710 -1.265665 2.752566 0.009187 -0.002977 722326.000000 1 0 0
1.389676 -0.723265 -14.968752 15.050510 -0.479878 3.037313 0.011249 -0.001927 -1588640.000000 1 0 0
11.499976 -10.311865 -14.591952 21.248743 -0.730981 2.327765 0.091116 -0.013411 354808.000000 1 0 0
9.398576 -7.672065 -10.861252 16.283753 -0.684602 2.300970 0.028094 -0.000586 -195143.000000 1 0 0
14.185176 -0.981965 -9.826552 17.284229 -0.069114 2.175511 0.040846 -0.003308 962561.000000 1 0 0
4.011176 11.163435 -12.183352 17.004290 1.225848 2.369550 0.021430 -0.013508 438488.000000 1 0 0
-1.263424 2.837235 -16.899652 17.182677 -1.151857 2.959840 0.013250 -0.002763 -212224.000000 1 0 0
5.839076 -0.534665 -17.686452 18.633069 -0.091312 2.821470 0.022673 0.000350 110703.000000 1 0 0
6.282376 -6.593165 -16.354352 18.719052 -0.809531 2.633500 0.038149 0.004382 127805.000000 1 0 0
-1.861024 -5.272465 -19.834252 20.607276 1.231478 2.866823 0.047528 -0.021175 -833131.000000 1 0 0
-0.093324 -4.372265 -15.165052 15.783035 1.549455 2.860832 0.011176 -0.004819 694709.000000 1 0 0
0.411976 0.692235 -13.038252 13.063113 1.033959 3.079887 0.007894 -0.004721 1110050.000000 1 0 0
15.511676 0.607235 -13.665052 20.681259 0.039127 2.292608 0.092124 -0.026494 696649.000000 1 0 0
-0.020724 7.065235 -16.295452 17.761186 -1.567863 2.732483 0.018474 0.002459 -522852.000000 1 0 0
-5.077424 -0.657465 -18.242152 18.946994 0.128771 2.867973 0.019984 -0.006044 -99571.400000 1 0 0
10.386676 -8.415465 -13.183452 18.775156 -0.680940 2.349244 0.033645 -0.007189 -161607.000000 1 0 0
4.209276 8.704935 -17.269252 19.791942 1.120395 2.631173 0.039316 -0.010604 -115652.000000 1 0 0
9.196776 0.932035 -17.088852 19.428799 0.100999 2.645739 0.047255 -0.002842 -264340.000000 1 0 0
3.401576 4.948935 -18.474952 19.426439 0.968621 2.827319 0.030509 -0.001801 -598350.000000 1 0 0
1.442076 -8.199565 -15.954252 17.995850 -1.396704 2.660634 0.017527 -0.004846 -41164.000000 1 0 0
4.532676 7.838635 -14.793052 17.344271 1.046524 2.592325 0.011212 -0.004102 582171.000000 1 0 0
-5.722424 -0.451365 -15.205552 16.252959 0.078714 2.780626 0.008988 -0.004410 -173102.000000 1 0 0
2.885876 3.413335 -13.754152 14.462221 0.868937 2.827380 0.004782 0.000340 -1168820.000000 1 0 0
-2.447724 -10.434365 -18.065652 21.005597 1.340380 2.606144 0.041269 -0.008030 287208.000000 1 0 0
6.152676 -9.224565 -15.662252 19.189949 -0.982571 2.525547 0.023638 0.003909 55811.400000 1 0 0
-1.757024 5.416735 -17.281852 18.195894 -1.257135 2.823286 0.014913 -0.000035 1175500.000000 1 0 0
10.170376 -12.075965 -11.558752 19.567070 -0.870848 2.202753 0.065079 -0.017617 -324197.000000 1 0 0
10.899876 3.629835 -9.455852 14.879386 0.321465 2.259452 0.011458 -0.001518 -1404080.000000 1 0 0
4.802276 -0.461465 -10.905752 11.925193 -0.095799 2.725100 0.008959 0.000302 -246853.000000 1 0 0
6.347076 9.491635 -11.302152 16.065962 0.981386 2.351085 0.016080 -0.010492 216278.000000 1 0 0
10.781476 -9.388365 -9.368952 17.092656 -0.716439 2.150920 0.044975 -0.005040 -1148410.000000 1 0 0
3.118976 -2.489065 -14.522352 15.060616 -0.673544 2.873433 0.017665 0.001628 128683.000000 1 0 0
9.473276 -4.617265 -14.992752 18.326066 -0.453516 2.528914 0.056077 0.003601 -100583.000000 1 0 0
-4.132724 -6.695265 -16.511252 18.290091 1.017782 2.696900 0.009986 -0.005791 -792456.000000 1 0 0
5.981576 -7.715965 -11.258252 14.901799 -0.911348 2.427207 0.010201 0.001458 311802.000000 1 0 0
5.453876 6.600335 -16.851152 18.901600 0.880222 2.671486 0.024455 -0.003823 -733980.000000 1 0 0
9.032776 1.491735 -19.611652 21.643318 0.163670 2.704839 0.061979 -0.011296 255707.000000 1 0 0
13.122576 5.656335 -9.527152 17.174479 0.406974 2.158831 0.019644 -0.005383 1266670.000000 1 0 0
-1.800424 -1.019365 -17.319252 17.442394 0.515181 3.022695 0.019904 -0.008045 1463290.000000 1 0 0
-0.532224 -0.480765 -19.560852 19.573996 0.734642 3.104943 0.035169 -0.019251 -146041.000000 1 0 0
2.857676 6.540335 -16.510752 17.987418 1.158863 2.733566 0.013300 0.004768 -524097.000000 1 0 0
7.598976 3.853135 -15.806352 17.956387 0.469279 2.647214 0.027551 0.002787 -597432.000000 1 0 0
3.085276 -9.947265 -14.917252 18.193169 -1.270042 2.532097 0.014770 0.001382 -258318.000000 1 0 0
9.087476 -10.648865 -13.368352 19.356998 -0.864346 2.333144 0.051969 -0.003947 486671.000000 1 0 0
3.857576 0.071635 -14.853452 15.346369 0.018568 2.887455 0.013151 0.001730 -2778270.000000 1 0 0
-1.237124 -2.871365 -19.001052 19.256562 1.163982 2.978509 0.044344 -0.012525 286438.000000 1 0 0
9.238776 10.100035 -13.124652 18.963707 0.829904 2.335181 0.066473 -0.016910 -310198.000000 1 0 0
4.591376 2.063535 -10.726152 11.848597 0.422386 2.702806 0.000196 0.001850 34646.800000 1 0 0
-0.444524 7.029235 -18.837652 20.111312 -1.507641 2.783792 0.026438 0.001269 185152.000000 1 0 0
0.698776 -1.829765 -17.664952 17.773206 -1.205996 3.031166 0.030002 -0.010705 -1249580.000000 1 0 0
-4.504324 -2.239365 -14.009252 14.884987 0.461372 2.796862 0.009311 -0.006992 -3418150.000000 1 0 0
9.865276 6.015035 -10.491452 15.606885 0.547534 2.308016 0.014988 0.000815 118113.000000 1 0 0
8.406876 5.802735 -17.449852 20.219907 0.604143 2.611982 0.070603 -0.012641 -177561.000000 1 0 0
11.488876 0.274035 -13.660652 17.851688 0.023848 2.442195 0.038043 0.005805 524724.000000 1 0 0
7.031176 11.842435 -12.001652 18.268014 1.035002 2.287597 0.047713 -0.019251 -392772.000000 1 0 0
-0.833424 0.462735 -15.388552 15.418049 -0.506843 3.079725 0.011048 -0.007485 -77492.900000 1 0 0
-4.344524 -3.060265 -18.943052 19.674332 0.613670 2.868090 0.021535 -0.005903 15584.300000 1 0 0
5.743276 -11.945565 -13.929752 19.228097 -1.122637 2.381029 0.019717 -0.006020 -230231.000000 1 0 0
2.121376 -4.783165 -14.100552 15.040095 -1.153354 2.786260 0.010688 0.002386 -960310.000000 1 0 0
11.757976 1.898135 -15.593552 19.621717 0.160053 2.489324 0.077603 -0.004615 389420.000000 1 0 0
9.671976 2.129135 -13.898252 17.065806 0.216679 2.522477 0.032194 -0.002161 202284.000000 1 0 0
-2.354624 -4.189365 -16.425452 17.114044 1.058750 2.856959 0.012550 -0.008898 -1337540.000000 1 0 0
-2.989124 10.052735 -14.263652 17.704353 -1.281778 2.507582 0.012113 -0.006252 -41021.100000 1 0 0
3.500176 5.793635 -13.503852 15.105345 1.027337 2.676942 0.004626 0.000223 -180193.000000 1 0 0
-5.088624 -2.693465 -16.458952 17.436913 0.486821 2.805087 0.007975 -0.005703 496538.000000 1 0 0
-4.309724 6.163535 -13.634552 15.571252 -0.960588 2.637521 0.007486 -0.003771 -315075.000000 1 0 0
6.078276 -1.096065 -14.302552 15.579146 -0.178408 2.733949 0.016282 0.007189 -695137.000000 1 0 0
6.711176 -2.941265 -12.677852 14.643048 -0.413051 2.617530 0.016907 0.000743 1274810.000000 1 0 0
2.838676 -3.315665 -18.448252 18.957577 -0.862748 2.909266 0.043619 -0.012259 143408.000000 1 0 0
7.544476 -12.079165 -11.913852 18.567854 -1.012495 2.267429 0.027378 -0.006671 120673.000000 1 0 0
-6.290724 -5.493665 -17.542452 19.429132 0.717864 2.697252 0.040997 -0.004386 586972.000000 1 0 0
0.415876 8.705435 -11.984752 14.818631 1.523061 2.512841 0.007824 -0.003241 194234.000000 1 0 0
0.411576 8.638935 -14.437952 16.830183 1.523190 2.601888 0.012617 0.001293 132675.000000 1 0 0
7.886976 -2.536665 -14.992852 17.129643 -0.311178 2.636765 0.031700 -0.006476 -414950.000000 1 0 0
14.312476 1.485135 -8.896452 16.917430 0.103395 2.124540 0.033816 -0.003132 503863.000000 1 0 0
2.810876 10.884935 -14.515452 18.359771 1.318082 2.482604 0.020531 -0.005844 -1058020.000000 1 0 0
6.034376 1.180935 -15.617052 16.783939 0.193259 2.766506 0.018750 0.001086 491487.000000 1 0 0
16.556176 -5.640765 -10.669752 20.488260 -0.328370 2.118554 0.112225 -0.003622 121830.000000 1 0 0
4.917776 -4.289765 -11.180252 12.945448 -0.717298 2.613249 0.009181 0.002196 -1110040.000000 1 0 0
9.027876 -3.443565 -17.106052 19.646315 -0.364402 2.627421 0.069965 -0.009410 373442.000000 1 0 0
13.257576 -9.656665 -8.933952 18.676991 -0.629526 2.069560 0.061294 -0.001991 278721.000000 1 0 0
2.445876 -7.676765 -13.708252 15.900667 -1.262357 2.610231 0.007990 0.003303 500285.000000 1 0 0
-6.850824 -2.484365 -18.322452 19.718471 0.347888 2.763045 0.024307 -0.006036 -786575.000000 1 0 0
-1.592424 -6.483565 -15.870952 17.218001 1.329954 2.743405 0.006438 -0.002063 665742.000000 1 0 0
1.547876 -7.285465 -18.372452 19.824755 -1.361448 2.756445 0.043649 -0.013254 157.491000 1 0 0
5.407376 11.037735 -14.447752 18.968628 1.115262 2.436676 0.051062 -0.023497 451480.000000 1 0 0
5.333676 -3.490365 -17.500652 18.625347 -0.579463 2.792299 0.035280 -0.008415 -202542.000000 1 0 0
3.865976 13.082935 -13.999152 19.547000 1.283475 2.369108 0.045392 -0.021632 148430.000000 1 0 0
8.967376 10.609035 -15.653452 20.928354 0.869061 2.415771 0.088014 -0.018445 138824.000000 1 0 0
2.479376 3.918835 -16.320952 16.966969 1.006692 2.864757 0.015570 0.000423 345904.000000 1 0 0
16.723276 1.751335 -11.641552 20.451427 0.104344 2.176365 0.100460 -0.011127 -354814.000000 1 0 0
10.011076 -3.668065 -10.601552 15.035599 -0.351210 2.353356 0.023155 0.001753 1850090.000000 1 0 0
14.624276 -2.224765 -12.178752 19.160924 -0.150971 2.259586 0.086029 -0.009825 86861.800000 1 0 0
-2.714024 -8.761765 -16.156352 18.578540 1.270412 2.625237 0.009882 -0.000152 -635627.000000 1 0 0
13.962176 8.065735 -9.039852 18.485599 0.523850 2.081764 0.052447 -0.011082 306918.000000 1 0 0
-8.231124 0.118135 -16.482652 18.423984 -0.014351 2.678399 0.006213 -0.005190 -520035.000000 1 0 0
-3.491124 3.920135 -15.973652 16.814070 -0.843220 2.824087 0.010979 0.001164 -582344.000000 1 0 0
15.118776 3.862635 -9.710152 18.378911 0.250135 2.127430 0.027463 -0.003057 330657.000000 1 0 0
5.341676 1.064435 -12.980552 14.076976 0.196693 2.744301 0.005062 0.003185 -436949.000000 1 0 0
7.869376 -7.842165 -12.940852 17.055564 -0.783666 2.432183 0.030680 0.001436 -2028060.000000 1 0 0
3.148976 -6.060265 -11.836752 13.665707 -1.091584 2.618272 0.006608 0.002688 -439294.000000 1 0 0
-3.139224 3.581435 -18.564252 19.165408 -0.851102 2.890467 0.014305 0.002369 -101769.000000 1 0 0
0.920576 5.166935 -17.687552 18.449774 1.394480 2.853145 0.025953 -0.010039 -1397540.000000 1 0 0
6.347176 7.048335 -10.186552 13.918747 0.837693 2.391841 -0.002931 -0.001172 630197.000000 1 0 0
9.739476 3.768735 -11.880852 15.818198 0.369210 2.420504 0.025094 0.000207 193382.000000 1 0 0
4.412776 1.725035 -17.615952 18.241987 0.372653 2.878851 0.022557 0.001313 881168.000000 1 0 0
2.590576 8.131035 -13.276452 15.782553 1.262361 2.570315 0.007704 -0.002629 -2583500.000000 1 0 0
14.517976 -3.522865 -9.948952 17.948923 -0.238054 2.158309 0.064152 0.000583 485151.000000 1 0 0
-1.303724 9.323935 -16.209352 18.745094 -1.431871 2.615399 0.019320 0.000592 -1503110.000000 1 0 0
-5.224124 2.032435 -15.780452 16.746490 -0.371029 2.800274 0.017464 -0.004277 496272.000000 1 0 0
4.588076 4.202435 -11.972252 13.492432 0.741556 2.662321 -0.002465 0.001039 508785.000000 1 0 0
9.091776 3.311835 -17.839752 20.294960 0.349328 2.644607 0.051615 -0.004623 773065.000000 1 0 0
-4.429524 14.361435 -13.294552 20.065309 -1.271622 2.295033 0.016739 -0.006798 -298937.000000 1 0 0
15.688076 -4.788565 -8.151052 18.316269 -0.296253 2.031990 0.074837 -0.001599 749793.000000 1 0 0
1.226676 9.270735 -16.910752 19.324202 1.439244 2.636454 0.017351 0.003840 -659371.000000 1 0 0
0.470776 -3.240465 -12.839352 13.250328 -1.426525 2.891881 0.005247 0.000605 309312.000000 1 0 0
7.553076 3.626935 -13.217452 15.649429 0.447677 2.576607 0.009865 0.002773 99530.800000 1 0 0
-2.820624 7.578735 -15.062652 17.096100 -1.214504 2.648890 0.008560 -0.000000 215969.000000 1 0 0
12.163376 -5.122965 -11.047952 17.211906 -0.398630 2.267742 0.043712 -0.003443 -555804.000000 1 0 0
0.608776 -4.397865 -20.019552 20.505957 -1.433245 2.923352 0.056662 -0.021005 -691575.000000 1 0 0
3.399676 -4.623065 -16.225552 17.210435 -0.936723 2.801651 0.033746 -0.007797 431053.000000 1 0 0
-5.675824 4.162135 -14.429052 16.054155 -0.632733 2.687761 0.008816 -0.004259 541499.000000 1 0 0
12.273976 -7.462165 -9.863252 17.424641 -0.546257 2.172505 0.032878 0.001181 271714.000000 1 0 0
-1.972624 -1.776765 -14.842052 15.077621 0.733208 2.964592 0.013021 -0.002599 706958.000000 1 0 0
7.158376 5.943535 -14.436252 17.174787 0.692940 2.569092 0.022362 0.002133 -116129.000000 1 0 0
4.234276 -5.489065 -18.556852 19.809484 -0.913738 2.784068 0.058140 -0.009417 113273.000000 1 0 0
7.433476 7.388235 -12.403252 16.238326 0.782346 2.440016 0.017200 -0.004689 -375584.000000 1 0 0
12.410876 -2.513665 -11.045452 16.803284 -0.199834 2.288078 0.029595 -0.000950 -1524900.000000 1 0 0
7.400376 -0.680965 -10.725352 13.048465 -0.091759 2.535645 0.009014 0.001857 -2413590.000000 1 0 0
5.350376 4.121735 -14.512952 16.007529 0.656407 2.706030 0.004512 0.002300 313061.000000 1 0 0
14.734776 2.919135 -13.010852 19.872525 0.195579 2.284603 0.061524 -0.015874 -14693.500000 1 0 0
-6.816824 6.465735 -15.859952 18.434015 -0.758972 2.606779 0.017955 0.000086 357873.000000 1 0 0
-11.229924 3.932335 -16.236552 20.129582 -0.336822 2.509176 0.031064 -0.022407 -507705.000000 1 0 0
-5.193224 6.502735 -17.999552 19.830255 -0.896896 2.708522 0.017940 0.013373 -77310.800000 1 0 0
-10.024424 1.671935 -15.532052 18.561495 -0.165265 2.562188 0.019276 -0.008275 -75010.800000 1 0 0
-7.679024 5.703035 -18.175352 20.538633 -0.638798 2.657150 0.020525 0.005347 105924.000000 1 0 0
-8.654124 3.695535 -15.658852 18.268839 -0.403585 2.600477 0.006072 0.000885 -936064.000000 1 0 0
9.120176 13.478335 -12.293452 20.395394 0.975911 2.217747 0.097033 -0.027918 -471458.000000 1 0 0
13.978076 9.223435 -11.401452 20.259602 0.583269 2.168527 0.068193 -0.010393 304816.000000 1 0 0
8.341176 16.070835 -9.103952 20.266447 1.092044 2.036681 0.066164 -0.020286 -19195.600000 1 0 0
7.174876 13.558635 -13.920352 20.714527 1.084083 2.307715 0.080263 -0.021730 27364.300000 1 0 0
4.961376 15.801335 -12.508752 20.754910 1.266560 2.217663 0.072642 -0.032385 -71028.600000 1 0 0
11.100676 10.985035 -11.653652 19.485985 0.780162 2.211866 0.094725 -0.020464 364743.000000 1 0 0
15.625976 9.870035 -9.337652 20.707015 0.563362 2.038616 0.085233 -0.020879 -852572.000000 1 0 0
13.102776 10.584635 -9.252052 19.217640 0.679489 2.073088 0.086715 -0.024220 480151.000000 1 0 0
10.628176 12.089235 -7.814952 17.893608 0.849624 2.022774 0.062352 -0.011504 214266.000000 1 0 0
5.368176 15.982135 -9.956752 19.580165 1.246750 2.104252 0.055623 -0.029127 -343014.000000 1 0 0
6.839976 14.435235 -11.462052 19.660618 1.128296 2.193207 0.057091 -0.021219 -1086510.000000 1 0 0
10.577876 13.860935 -9.757152 19.980465 0.918937 2.080977 0.088285 -0.026813 -305805.000000 1 0 0
8.298676 -18.526165 -1.446952 20.351424 -1.149654 1.641955 0.044608 -0.003113 -16577.900000 1 0 0
7.570276 -17.206065 -3.559852 19.131918 -1.156309 1.757956 0.025079 -0.003188 65156.500000 1 0 0
4.734176 -18.093465 5.785348 19.576929 -1.314882 1.270798 0.051531 -0.005691 463211.000000 1 0 0
9.972776 -17.052365 -2.636652 19.929660 -1.041604 1.703483 0.041280 -0.000922 -2116200.000000 1 0 0
-9.682224 -12.294365 -10.018752 18.581503 0.903703 2.140258 0.028959 -0.010326 -567691.000000 1 0 0
-5.093424 -7.106165 -12.081252 14.912988 0.948910 2.515147 0.000306 -0.000594 717695.000000 1 0 0
-10.778624 -9.479965 -5.715452 15.450400 0.721382 1.949722 0.016356 -0.004499 -801082.000000 1 0 0
-4.666724 -11.647765 -14.171652 18.928404 1.189726 2.416892 0.013641 0.001044 226899.000000 1 0 0
-2.605924 -15.502265 7.426448 17.385718 1.404254 1.129449 -0.001202 0.000593 -77596.800000 1 0 0
-4.935524 -11.941365 -11.614552 17.373929 1.178866 2.302993 0.007764 0.001762 501113.000000 1 0 0
-14.398224 -12.891565 -4.250152 19.788004 0.730245 1.787267 0.051296 -0.005400 -200841.000000 1 0 0
-3.240824 -12.229765 -3.225852 13.056654 1.311755 1.820447 0.011710 -0.004578 1073950.000000 1 0 0
-2.340524 -17.241065 -1.559452 17.468951 1.435868 1.660185 0.025129 -0.023039 -657206.000000 1 0 0
-5.887224 -12.167065 3.731748 14.022226 1.120139 1.301419 0.007955 0.001153 384875.000000 1 0 0
-8.702024 -10.636665 -11.868752 18.158500 0.885106 2.283154 0.003948 -0.001454 -123821.000000 1 0 0
-9.740124 -12.246365 -7.370852 17.296616 0.898898 2.011023 0.028145 -0.008504 -156976.000000 1 0 0
-10.928924 -15.111065 6.133648 19.631793 0.944643 1.253042 0.051092 -0.011460 990644.000000 1 0 0
-9.383024 -15.533265 0.767948 18.163513 1.027397 1.528504 0.025035 -0.008735 -823424.000000 1 0 0
-14.732624 -7.683165 -7.882752 18.390732 0.480705 2.013768 0.018832 -0.012142 -52010.400000 1 0 0
-2.261024 -16.583765 5.104248 17.498195 1.435292 1.274791 0.015563 -0.005691 -570290.000000 1 0 0
4.422776 -15.495765 5.975048 17.186648 -1.292770 1.215726 0.024167 -0.011084 -686385.000000 1 0 0
4.184876 -14.589865 -10.024252 18.189639 -1.291461 2.154474 0.008842 -0.003612 858753.000000 1 0 0
-7.481624 -14.040065 -0.125952 15.909557 1.081195 1.578713 0.013958 -0.002339 863996.000000 1 0 0
2.833476 -14.555165 9.663448 17.699255 -1.378530 0.993237 0.018356 -0.018813 -362346.000000 1 0 0
2.568876 -16.961965 10.339848 20.030473 -1.420489 1.028381 0.053328 -0.022473 -476065.000000 1 0 0
-8.295224 -17.322665 -5.319152 19.929346 1.124199 1.840972 0.063078 -0.021844 -170858.000000 1 0 0
-6.469524 -9.103565 -7.634052 13.528059 0.952953 2.170396 0.007142 -0.002369 316605.000000 1 0 0
-6.261024 -13.090365 -4.757252 15.270544 1.124665 1.887600 0.008734 -0.010262 597538.000000 1 0 0
2.383576 -19.137565 -4.823852 19.879572 -1.446885 1.815897 0.039231 -0.021958 107327.000000 1 0 0
-5.557024 -12.866965 8.312748 16.295432 1.163110 1.035463 0.011717 -0.000698 630072.000000 1 0 0
2.396376 -17.523565 3.495248 18.028719 -1.434888 1.375690 0.032578 -0.009294 311313.000000 1 0 0
-17.702224 -10.002765 -2.555352 20.492776 0.514330 1.695817 0.038216 -0.009735 799475.000000 1 0 0
-3.402124 -15.479465 2.631348 16.065873 1.354453 1.406270 0.012802 -0.005137 -58854.600000 1 0 0
-10.135824 -10.657565 -14.033552 20.328778 0.810485 2.332740 0.022957 -0.013046 -61364.800000 1 0 0
5.934676 -14.544765 -5.577752 16.669789 -1.183388 1.911980 0.002008 -0.008600 837210.000000 1 0 0
-7.272224 -12.405865 -10.579952 17.852902 1.040591 2.205102 0.011615 -0.008083 -219751.000000 1 0 0
-7.361724 -14.281565 3.957448 16.547492 1.094849 1.329299 0.015530 0.001050 1049380.000000 1 0 0
3.225176 -14.674265 -3.031652 15.327320 -1.354452 1.769903 0.013219 -0.007652 -246060.000000 1 0 0
-7.554124 -11.341665 7.799048 15.701061 0.983220 1.050980 0.012350 -0.007681 -1807140.000000 1 0 0
-12.704224 -12.161965 -0.910652 17.610792 0.763595 1.622529 0.016721 0.000342 -445036.000000 1 0 0
-1.896524 -13.645865 3.989048 14.342906 1.432699 1.288960 0.005052 0.000886 -1853720.000000 1 0 0
-2.987324 -13.985665 5.447948 15.303695 1.360360 1.206824 0.007422 0.000321 -12215.500000 1 0 0
-14.520024 -10.400965 -4.437552 18.403887 0.621594 1.814316 0.028592 -0.001661 393778.000000 1 0 0
-6.449824 -8.638565 -10.418152 14.992095 0.929455 2.339091 0.004759 -0.001124 502519.000000 1 0 0
1.108976 -19.438565 2.320248 19.607937 -1.513808 1.452186 0.040067 -0.014227 233051.000000 1 0 0
6.198476 -13.762165 -8.014552 17.089509 -1.147610 2.058926 0.018186 -0.012686 -2507530.000000 1 0 0
-3.780324 -16.670665 -5.830552 18.060932 1.347803 1.899511 0.021943 -0.018619 -489782.000000 1 0 0
-3.805724 -13.786965 -13.084952 19.385043 1.301465 2.311764 0.016961 0.001251 -279076.000000 1 0 0
-8.242224 -14.820565 -4.426652 17.526513 1.063256 1.826131 0.025795 -0.015879 -632038.000000 1 0 0
-4.588124 -14.316265 10.242148 18.190875 1.260655 0.972739 0.014585 -0.000200 -605196.000000 1 0 0
-0.379824 -12.159165 -9.888252 15.676960 1.539569 2.253316 0.000114 0.001249 203878.000000 1 0 0
2.498476 -17.074465 6.832948 18.559874 -1.425499 1.193770 0.034990 -0.016135 -981111.000000 1 0 0
-2.685924 -19.087365 -3.464352 19.584265 1.430997 1.748627 0.046635 -0.028028 -577631.000000 1 0 0
0.660776 -15.286765 -2.975352 15.587640 -1.527598 1.762854 0.014064 -0.010087 -169509.000000 1 0 0
6.103476 -17.963865 0.662148 18.983975 -1.243269 1.535910 0.023661 -0.004587 -44882.200000 1 0 0
-6.802824 -16.787265 3.996748 18.548981 1.185783 1.353623 0.015500 0.000370 782849.000000 1 0 0
-5.203724 -13.462165 -9.436652 17.244101 1.201943 2.149859 0.010032 -0.008302 247663.000000 1 0 0
5.667876 -15.201665 -2.094552 16.358563 -1.213916 1.699189 0.015735 -0.004021 -691096.000000 1 0 0
-8.863024 -10.234365 -0.530352 13.549048 0.857083 1.609949 0.007667 0.001776 -389416.000000 1 0 0
-7.325124 -18.287265 -2.662752 19.878927 1.189808 1.705149 0.051931 -0.037324 -360183.000000 1 0 0
8.067576 -15.914765 -1.310852 17.890888 -1.101625 1.644131 0.018027 -0.003424 531583.000000 1 0 0
-8.111224 -10.182365 -9.406452 16.060942 0.898135 2.196506 0.012287 -0.003631 -503891.000000 1 0 0
-9.123924 -15.544665 -6.877652 19.292089 1.040028 1.935317 0.045550 -0.014445 -4484.270000 1 0 0
-11.432124 -10.604765 -11.736952 19.516930 0.747872 2.216015 0.033782 -0.005259 772609.000000 1 0 0
6.666876 -16.221165 2.537148 17.720343 -1.180845 1.427125 0.020898 -0.002659 228332.000000 1 0 0
-2.212024 -11.173965 -6.073252 12.908715 1.375361 2.060627 0.004956 -0.003902 -194980.000000 1 0 0
-12.450324 -15.416065 -3.307652 20.089953 0.891426 1.736191 0.043884 -0.010470 798345.000000 1 0 0
-0.105124 -19.371765 -2.855252 19.581338 1.565370 1.717133 0.058912 -0.027928 75786.700000 1 0 0
-5.908024 -15.658865 -4.721652 17.389618 1.210014 1.845770 0.025030 -0.017657 -2143740.000000 1 0 0
2.070376 -15.855765 -0.901452 16.015753 -1.440955 1.627111 0.010184 -0.009921 723494.000000 1 0 0
-13.218324 -11.935865 5.482548 18.634573 0.734458 1.272164 0.030943 -0.001536 280217.000000 1 0 0
1.999776 -15.376965 -8.916052 17.887038 -1.441472 2.092623 0.015026 0.003234 -2831710.000000 1 0 0
-11.663324 -16.760665 0.155148 20.420017 0.962844 1.563198 0.064105 -0.022718 549939.000000 1 0 0
-7.642924 -16.528765 -0.854552 18.230322 1.137677 1.617689 0.037866 -0.018969 177605.000000 1 0 0
-2.808524 -14.374565 -1.748252 14.750333 1.377846 1.689598 0.010318 -0.009168 469845.000000 1 0 0
-1.810224 -10.534065 -13.082852 16.893918 1.400614 2.456581 0.007822 -0.001207 641239.000000 1 0 0
1.461576 -19.498465 4.943548 20.168416 -1.495978 1.323160 0.055697 -0.016448 -98771.900000 1 0 0
-17.347424 -9.369065 2.599148 19.886379 0.495198 1.439721 0.020271 -0.009114 -542948.000000 1 0 0
-2.689724 -15.626565 -7.983652 17.752826 1.400341 2.037239 0.014413 -0.008890 -1202460.000000 1 0 0
-10.357424 -12.192065 0.208348 15.998940 0.866580 1.557773 0.010730 0.003727 80344.700000 1 0 0
-6.854124 -11.436965 -6.505652 14.835993 1.030895 2.024730 0.011207 -0.004691 -239656.000000 1 0 0
-2.126624 -13.521665 -6.702952 15.240982 1.414799 2.026170 0.004983 -0.002652 826579.000000 1 0 0
-14.160624 -14.354065 -0.944252 20.185492 0.792182 1.617592 0.044421 -0.008109 -344509.000000 1 0 0
-9.599024 -11.327865 -4.383052 15.481374 0.867824 1.857840 0.019183 -0.004771 899623.000000 1 0 0
9.492876 -15.071065 -5.138952 18.538083 -1.008700 1.851686 0.023399 -0.001294 126777.000000 1 0 0
-5.546024 -10.822265 -9.384952 15.360896 1.097227 2.228074 0.005686 -0.000119 -11180.800000 1 0 0
-10.441824 -16.066265 -4.699852 19.729297 0.994476 1.811326 0.054136 -0.021330 -1791050.000000 1 0 0
2.468076 -17.102365 -3.178252 17.569393 -1.427474 1.752695 0.027652 -0.012026 681743.000000 1 0 0
-0.285724 -14.514265 -8.256352 16.700685 1.551113 2.087909 0.006451 0.001378 -527890.000000 1 0 0
-0.415524 -18.216165 -7.141352 19.570392 1.547990 1.944328 0.045188 -0.009982 183318.000000 1 0 0
-1.641024 -9.916265 -10.511152 14.543369 1.406795 2.378563 0.000079 0.001130 97666.300000 1 0 0
-4.941424 -17.400165 2.022248 18.200904 1.294094 1.459459 0.025622 -0.013886 147438.000000 1 0 0
0.315476 -12.759465 -2.657152 13.037021 -1.546077 1.776050 0.003860 -0.005619 -1336680.000000 1 0 0
2.604676 -14.950465 3.080248 15.485111 -1.398307 1.370544 0.018426 -0.002340 -1056970.000000 1 0 0
-9.311524 -13.108065 6.889648 17.492659 0.953147 1.165970 0.017867 -0.001896 -956775.000000 1 0 0
-0.892624 -17.593665 -4.589652 18.204360 1.520104 1.825665 0.043428 -0.021582 21239.400000 1 0 0
-9.665924 -17.466665 -2.192452 20.082861 1.065352 1.680185 0.061443 -0.033675 -529169.000000 1 0 0
1.396976 -16.273565 1.529548 16.404877 -1.485163 1.477423 0.014754 -0.011968 -507371.000000 1 0 0
-0.260724 -17.938465 4.032748 18.388028 1.556263 1.349685 0.031946 -0.014481 723341.000000 1 0 0
-17.400024 -9.213565 -0.011652 19.688849 0.486979 1.571388 -0.000930 -0.004723 861279.000000 1 0 0
-14.869824 -7.418765 -10.414252 19.611384 0.462779 2.130613 0.054439 -0.014301 619317.000000 1 0 0
2.699776 -12.761565 -8.858052 15.767416 -1.362315 2.167350 -0.000749 0.000169 426645.000000 1 0 0
-11.676124 -14.800365 1.851648 18.942315 0.902856 1.472888 0.031802 -0.001997 227148.000000 1 0 0
-2.301124 -15.486065 10.478348 18.839033 1.423282 0.980985 0.016971 -0.007339 -740745.000000 1 0 0
-6.938124 -15.897665 1.478948 17.408636 1.159289 1.485739 0.024723 -0.009140 -960291.000000 1 0 0
-12.619824 -15.217365 -5.872352 20.623110 0.878441 1.859538 0.060814 -0.015286 751355.000000 1 0 0
0.921976 -13.764165 -5.058152 14.693100 -1.503912 1.922240 0.004876 -0.003712 266497.000000 1 0 0
6.208176 -16.217365 -7.686552 18.990194 -1.205196 1.987517 0.042533 -0.013554 499252.000000 1 0 0
-6.626824 -12.869965 5.955948 15.653246 1.095295 1.180467 0.011571 0.000589 -302328.000000 1 0 0
-2.491324 -13.523765 0.631648 13.765823 1.388621 1.524895 0.011661 -0.005730 2853180.000000 1 0 0
-4.186624 -15.457465 0.205248 16.015716 1.306294 1.557981 0.019534 -0.013797 283470.000000 1 0 0
-17.600624 -7.394065 -2.086652 19.204382 0.397715 1.679666 -0.000890 -0.003827 175631.000000 1 0 0
1.183576 -12.581565 -11.943852 17.388278 -1.477000 2.327999 0.006577 0.001886 862628.000000 1 0 0
1.375676 -16.876265 -5.656652 17.852129 -1.489461 1.893215 0.037411 -0.014044 -709766.000000 1 0 0
-12.768324 -6.428765 -9.181252 16.989835 0.466438 2.141705 0.022418 -0.002441 567807.000000 1 0 0
-11.437624 -13.685565 -8.680052 19.835757 0.874637 2.023720 0.044076 -0.018202 26213.100000 1 0 0
-4.299724 -9.840665 3.569748 11.316776 1.158861 1.249877 0.008326 0.000189 -2817540.000000 1 0 0
-7.044524 -14.198665 9.858348 18.665863 1.110242 1.014378 0.018268 -0.005182 -548830.000000 1 0 0
-5.207524 -15.782765 -7.976952 18.434905 1.252094 2.018292 0.020356 -0.022347 -1184320.000000 1 0 0
-0.234724 -13.432165 2.175148 13.609167 1.553323 1.410278 0.010293 -0.006341 480793.000000 1 0 0
-10.984624 -13.500565 -4.757652 18.043350 0.887792 1.837630 0.046479 -0.013787 -494204.000000 1 0 0
-9.719024 -10.505465 6.689948 15.798090 0.824264 1.133529 0.023147 -0.004533 -47347.000000 1 0 0
-15.645824 -8.146065 -4.729852 18.262576 0.480034 1.832774 0.023598 -0.005271 121316.000000 1 0 0
-14.631024 -7.356565 5.544948 17.289661 0.465890 1.244318 0.040488 -0.010424 484285.000000 1 0 0
-1.623824 -19.243665 0.031948 19.312081 1.486613 1.569142 0.029173 -0.020754 -519867.000000 1 0 0
-15.254424 -12.087465 -1.357152 19.510155 0.670084 1.640414 0.022269 0.000862 1138460.000000 1 0 0
-4.395524 -12.197165 -6.518352 14.511388 1.224911 2.036653 0.002598 -0.001865 108129.000000 1 0 0
-7.308224 -18.397065 2.038048 19.900145 1.192663 1.468203 0.032603 -0.012130 29201.600000 1 0 0
-2.636024 -11.706065 -8.648752 14.791264 1.349306 2.195332 0.001803 0.001755 512719.000000 1 0 0
-0.936724 -20.196065 -5.014552 20.830368 1.524448 1.813917 0.073318 -0.018346 -800.908000 1 0 0
-5.352524 -9.104565 -13.821652 17.394846 1.039325 2.489117 0.004557 -0.000298 587838.000000 1 0 0
-8.577924 -19.008865 -0.471952 20.860021 1.146896 1.593423 0.056391 -0.026991 190287.000000 1 0 0
-17.206824 -7.325865 5.637848 19.532753 0.402509 1.277995 0.059088 -0.016443 -43265.400000 1 0 0
-3.640924 -14.680965 -4.209652 15.700581 1.327698 1.842238 0.009545 -0.009852 -2734050.000000 1 0 0
-2.977624 -14.996765 -10.858052 18.752773 1.374794 2.188311 0.018528 -0.002009 210611.000000 1 0 0
0.008976 -16.718265 6.255348 17.850206 -1.570259 1.212760 0.036560 -0.009380 -812771.000000 1 0 0
-11.224124 -11.635265 3.889648 16.627980 0.803382 1.334687 0.017147 0.000574 78892.900000 1 0 0
-0.087124 -14.584765 -0.068652 14.585187 1.564823 1.575503 0.015766 -0.009227 621188.000000 1 0 0
-7.205924 -9.512465 -2.378752 12.168434 0.922497 1.767549 0.011961 -0.001438 117729.000000 1 0 0
-11.200924 -14.372965 -0.737052 18.236943 0.908802 1.611223 0.035035 -0.012455 -93397.400000 1 0 0
0.263176 -14.597265 -10.752852 18.132105 -1.552769 2.205611 0.009553 0.004944 -381991.000000 1 0 0
-1.396124 -14.004965 -3.891052 14.602345 1.471437 1.840523 0.004457 -0.005303 -3387330.000000 1 0 0
-11.488924 -8.047365 -7.561252 15.935118 0.611025 2.065195 0.017364 -0.004666 674944.000000 1 0 0
-0.063924 -17.190665 -0.293952 17.193297 1.567078 1.587894 0.019355 -0.016998 240170.000000 1 0 0
-12.874424 -9.508865 4.672148 16.673280 0.636156 1.286775 0.020467 -0.004638 7816.500000 1 0 0
4.057676 -16.690465 1.546148 17.246070 -1.332310 1.481024 0.020022 -0.012855 2250410.000000 1 0 0
-3.780924 -17.911565 -8.054352 19.999803 1.362762 1.985285 0.057091 -0.021338 245745.000000 1 0 0
-13.399324 -11.291165 2.811448 17.746451 0.700221 1.411703 0.015339 -0.001966 50483.200000 1 0 0
-8.614824 -12.166965 4.211148 15.491417 0.954688 1.295494 0.014662 -0.002151 1219470.000000 1 0 0
-8.217224 -9.376765 -5.745152 13.727828 0.851208 2.002594 0.014799 -0.004968 -708893.000000 1 0 0
3.986376 -17.209865 -5.242652 18.427047 -1.343177 1.859290 0.014835 -0.006180 248427.000000 1 0 0
-2.604424 -13.029665 11.364848 17.484707 1.373512 0.863228 0.004839 -0.005632 206419.000000 1 0 0
0.042876 -16.819465 -9.620152 19.376366 -1.568247 2.090346 0.027824 0.003853 -19272.200000 1 0 0
-7.019224 -10.842165 -14.827252 19.663912 0.996251 2.424978 0.009635 0.011630 -695142.000000 1 0 0
-4.444824 -18.789065 -1.556252 19.370270 1.338502 1.651225 0.045380 -0.031011 -138671.000000 1 0 0
-2.378424 -17.152965 1.001148 17.345991 1.433015 1.513048 0.026080 -0.020569 61852.500000 1 0 0
4.001076 -14.718165 -7.452652 16.975718 -1.305365 2.025302 0.017862 -0.007387 92030.200000 1 0 0
-0.950624 -15.777865 -6.140652 16.957368 1.510619 1.941341 0.015965 -0.006192 -684250.000000 1 0 0
-9.464124 -15.194065 8.386748 19.767822 1.013721 1.132649 0.032507 -0.007847 -274289.000000 1 0 0
-7.231524 -12.077965 -1.742252 14.184767 1.031306 1.693933 0.009787 -0.002780 561812.000000 1 0 0
-7.289124 -15.077565 -9.252452 19.133012 1.120483 2.075543 0.028064 -0.016890 -822876.000000 1 0 0
-4.966124 -13.214365 -0.723152 14.135232 1.211313 1.621978 0.013484 -0.004759 3657910.000000 1 0 0
-6.435724 -13.800665 -7.167852 16.830181 1.134442 2.010745 0.012257 -0.013454 593582.000000 1 0 0
6.007476 -15.359565 0.275148 16.494899 -1.197966 1.554115 0.013199 -0.002106 -134162.000000 1 0 0
-14.375424 -12.811465 1.064348 19.285209 0.727935 1.515578 0.010464 -0.000753 979996.000000 1 0 0
0.828676 -15.252465 11.128048 18.898620 -1.516519 0.941188 0.013243 -0.009866 -87484.600000 1 0 0
-9.397524 -10.757365 1.975148 14.419971 0.852766 1.433391 0.009664 0.002341 173368.000000 1 0 0
-9.479224 -8.939465 -3.513352 13.494939 0.756102 1.834177 0.011271 -0.002453 1257130.000000 1 0 0
-12.196824 -7.328765 -12.136252 18.701923 0.541063 2.276974 0.038306 -0.006127 -736386.000000 1 0 0
-13.333724 -8.451965 -0.555152 15.796585 0.564959 1.605947 0.006376 -0.004103 350006.000000 1 0 0
-11.211924 -9.704865 0.566848 14.839574 0.713472 1.532589 0.005560 0.002967 -53350.400000 1 0 0
-15.911024 -12.172965 3.028448 20.261127 0.653073 1.420763 0.041532 -0.003737 232209.000000 1 0 0
-10.423124 -12.586065 -2.317352 16.505171 0.879126 1.711663 0.029153 -0.006466 1038410.000000 1 0 0
-3.444224 -8.890265 -12.024552 15.345662 1.201186 2.471203 0.004915 0.001140 -1456330.000000 1 0 0
-0.167024 -15.488265 3.898748 15.972304 1.560013 1.324211 0.017073 -0.008517 -783930.000000 1 0 0
-15.588524 -7.841065 1.302848 17.498051 0.466047 1.496271 -0.011081 -0.001697 562337.000000 1 0 0
-6.386124 -13.395065 -13.295152 19.924141 1.125919 2.301359 0.022770 -0.002769 -136084.000000 1 0 0
-15.397124 -10.399965 1.152948 18.616122 0.594058 1.508824 0.006027 0.000019 542431.000000 1 0 0
-10.026424 -8.535865 -12.511652 18.164020 0.705270 2.330650 0.014041 0.002691 652086.000000 1 0 0
-13.312924 -11.712665 -6.279152 18.810854 0.721540 1.911133 0.044343 -0.005282 50168.000000 1 0 0
-12.221424 -11.480865 -3.886552 17.212750 0.754164 1.798555 0.023649 0.001939 -714244.000000 1 0 0
-11.617124 -11.006265 -8.781652 18.254119 0.758403 2.072680 0.034810 -0.021889 809642.000000 1 0 0
-13.225624 -8.539065 -5.702152 16.743575 0.573308 1.918306 0.015955 -0.005417 -903220.000000 1 0 0
-13.612624 -8.253765 -3.162852 16.230582 0.545062 1.766921 0.013774 -0.003307 165733.000000 1 0 0
-4.178224 -16.967165 -3.280652 17.779340 1.329347 1.756380 0.022048 -0.024705 -277480.000000 1 0 0
-15.545224 -8.976065 -1.797152 18.040330 0.523648 1.670580 0.008177 -0.002808 -4041680.000000 1 0 0
-9.316124 -16.072665 3.765648 18.955232 1.045493 1.370806 0.020017 0.003182 -338419.000000 1 0 0
4.868176 -16.979365 8.039848 19.407141 -1.291575 1.143653 0.048392 -0.027224 268304.000000 1 0 0
-8.257924 -15.462665 6.076948 18.553076 1.080277 1.237093 0.015489 0.005144 1033730.000000 1 0 0
0.901176 -16.013865 8.567548 18.184028 -1.514581 1.080193 0.026818 -0.010190 184046.000000 1 0 0
-10.694524 -7.886965 -10.059652 16.666543 0.635438 2.218784 0.015781 -0.006232 1282180.000000 1 0 0
-4.697724 -15.921865 5.957748 17.637153 1.283888 1.226223 0.011852 -0.005829 -518306.000000 1 0 0
-1.437524 -13.173765 -12.030952 17.898558 1.462106 2.307938 0.009171 0.000841 -162651.000000 1 0 0
-6.476024 -14.465265 -2.472852 16.040504 1.149861 1.725577 0.019519 -0.011829 443026.000000 1 0 0
-17.820824 -6.958165 -7.085252 20.400947 0.372248 1.925487 0.054706 -0.013924 365123.000000 1 0 0
-17.133324 -4.055165 -10.235252 20.365548 0.232406 2.097373 0.055132 -0.013451 1170970.000000 1 0 0
-15.210024 -5.316265 -8.897052 18.405571 0.336250 2.075318 0.020913 -0.015796 -629368.000000 1 0 0
-16.091024 -5.419965 -5.738352 17.922772 0.324896 1.896706 0.009242 -0.008851 -616750.000000 1 0 0
-15.141824 -4.497765 -12.308352 20.024991 0.288741 2.232738 0.051689 -0.005589 379307.000000 1 0 0
-18.681424 -5.021465 -5.560352 20.127798 0.262588 1.850689 0.033648 -0.012522 778025.000000 1 0 0
-17.420024 -4.426865 -7.721952 19.562283 0.248857 1.976578 0.032492 -0.013401 1756150.000000 1 0 0
12.100176 -7.794965 8.771348 16.855631 -0.572289 1.023499 0.055155 -0.013618 161433.000000 1 0 0
16.030976 -3.408965 1.923948 16.501964 -0.209528 1.453942 0.031471 -0.012113 408464.000000 1 0 0
12.115476 -2.207065 12.587548 17.609721 -0.180193 0.774449 0.062770 -0.009205 123179.000000 1 0 0
9.606776 -9.879765 5.157048 14.713771 -0.799406 1.212701 0.010297 -0.008562 -33591.400000 1 0 0
17.095276 -2.031265 7.189348 18.656399 -0.118266 1.175203 0.099788 -0.018967 -232301.000000 1 0 0
5.139976 -12.704065 9.020748 16.406905 -1.186337 0.988655 0.002433 -0.003254 -350856.000000 1 0 0
15.169876 -9.044165 -2.057752 17.780787 -0.537615 1.686785 0.025674 -0.007028 -14476.900000 1 0 0
11.200076 -8.584565 6.414948 15.501226 -0.653961 1.144134 0.030466 -0.012315 -2165940.000000 1 0 0
20.100676 -3.173965 3.682948 20.680313 -0.156610 1.391752 0.107284 -0.019289 253386.000000 1 0 0
13.599176 -8.554465 6.878048 17.476384 -0.561501 1.166293 0.059929 -0.014911 -684252.000000 1 0 0
8.293176 -11.068365 8.765248 16.374219 -0.927764 1.005924 0.002462 -0.006678 -2082850.000000 1 0 0
16.926276 0.026035 -0.618052 16.937576 0.001538 1.607294 0.036175 0.003142 -1056340.000000 1 0 0
12.440676 -12.176265 2.288548 17.557599 -0.774658 1.440079 0.032435 -0.008702 -13302.200000 1 0 0
10.423276 -11.561065 3.662948 15.991250 -0.837107 1.339685 0.024262 -0.006392 -1752640.000000 1 0 0
16.429276 2.911335 2.328048 16.846863 0.175383 1.432164 0.024329 0.001565 315209.000000 1 0 0
18.338176 -3.174865 0.614048 18.621104 -0.171429 1.537814 0.052833 -0.012487 1041350.000000 1 0 0
13.700076 -11.686865 -0.142152 18.008195 -0.706263 1.578690 0.042994 -0.001774 -450695.000000 1 0 0
16.948876 -7.544165 -0.801552 18.569365 -0.418782 1.613975 0.035807 -0.011232 355220.000000 1 0 0
10.178176 -5.645665 9.785948 15.206366 -0.506432 0.871678 0.023239 -0.009006 -306027.000000 1 0 0
11.310476 -13.300865 6.130648 18.504722 -0.866095 1.233113 0.042609 -0.010226 500641.000000 1 0 0
13.157276 -1.736065 10.287048 16.791402 -0.131189 0.911403 0.060744 -0.008779 -301787.000000 1 0 0
15.594176 -2.016865 -1.397852 15.786071 -0.128621 1.659462 0.030231 -0.003026 -75304.800000 1 0 0
10.424876 -12.352165 9.097348 18.547662 -0.869813 1.058150 0.051602 -0.020906 -72610.500000 1 0 0
14.612376 1.232535 3.354848 15.043127 0.084150 1.345890 0.023513 -0.003604 1254760.000000 1 0 0
15.089576 -5.768365 5.317948 17.007349 -0.365133 1.252778 0.058863 -0.016731 217430.000000 1 0 0
14.400976 -3.491865 -2.961952 15.111399 -0.237883 1.768081 0.017207 -0.004458 1001440.000000 1 0 0
14.097076 0.667335 9.506048 17.015811 0.047303 0.978027 0.067625 -0.010386 -68436.500000 1 0 0
15.541476 -3.385965 4.490248 16.527691 -0.214514 1.295658 0.045083 -0.012107 -223238.000000 1 0 0
18.334676 4.972835 -4.532952 19.530414 0.264854 1.805029 0.013528 0.004609 466746.000000 1 0 0
18.219676 -5.788865 -5.132952 19.794311 -0.307639 1.833109 0.092785 -0.006025 580482.000000 1 0 0
17.431676 0.162935 6.006748 18.438300 0.009347 1.238964 0.084842 -0.007489 622383.000000 1 0 0
17.222076 -6.681465 4.027948 18.906777 -0.370084 1.356108 0.080391 -0.023929 -44786.400000 1 0 0
9.832876 -6.576665 14.247648 18.518462 -0.589509 0.692934 0.045755 -0.017435 -618672.000000 1 0 0
8.664276 -12.268465 5.120948 15.868491 -0.955906 1.242203 0.012832 -0.008968 -1784820.000000 1 0 0
16.890376 -10.201265 -0.472352 19.737622 -0.543333 1.594730 0.041108 -0.003182 53991.500000 1 0 0
15.009076 -8.783965 0.421148 17.395625 -0.529499 1.546584 0.041620 -0.012843 -293532.000000 1 0 0
9.984576 -12.810965 1.512548 16.312583 -0.908757 1.477940 0.018342 -0.008074 -495979.000000 1 0 0
16.837476 -8.215465 8.966748 20.770099 -0.453943 1.124404 0.107624 -0.022293 440781.000000 1 0 0
19.208276 0.002935 -1.996552 19.311760 0.000153 1.674367 0.080784 -0.000190 446181.000000 1 0 0
13.331576 -1.180765 7.764148 15.472786 -0.088339 1.045125 0.039992 -0.009480 71625.000000 1 0 0
12.895876 -9.679465 -3.111052 16.421763 -0.643876 1.761395 0.029417 -0.008275 -2970130.000000 1 0 0
8.902876 -15.191365 1.472748 17.669402 -1.040698 1.487349 0.029497 -0.002357 170269.000000 1 0 0
11.450876 -8.312965 11.139348 18.008693 -0.627942 0.903895 0.057385 -0.018106 -275452.000000 1 0 0
14.071376 -3.988265 -0.512652 14.634640 -0.276187 1.605834 0.016409 -0.009353 -1702450.000000 1 0 0
7.038976 -13.256765 10.660948 18.410454 -1.082679 0.953208 0.012692 -0.004008 -1537080.000000 1 0 0
15.536076 -6.762465 1.928348 17.053419 -0.410541 1.457477 0.038431 -0.015977 1247150.000000 1 0 0
15.943876 -5.973765 -2.550452 17.216209 -0.358485 1.719486 0.047131 -0.004355 -15346.600000 1 0 0
11.054976 -8.473065 3.722948 14.417547 -0.653945 1.309614 0.023173 -0.011567 29722.100000 1 0 0
10.624776 -14.420965 -0.401652 17.916791 -0.935823 1.593216 0.028717 -0.012498 573898.000000 1 0 0
13.387876 -12.850765 4.704748 19.144504 -0.764931 1.322504 0.038401 -0.006373 429915.000000 1 0 0
12.832676 -11.104465 6.511748 18.176622 -0.713325 1.204405 0.046453 -0.011105 -418517.000000 1 0 0
10.921476 -10.355665 1.365048 15.112306 -0.758812 1.480346 0.015973 -0.007532 67503.300000 1 0 0
13.915076 -7.661365 11.849148 19.817370 -0.503289 0.929896 0.089667 -0.027880 731623.000000 1 0 0
15.394376 -1.837265 -4.910052 16.262563 -0.118785 1.877506 0.045792 0.002394 -552311.000000 1 0 0
12.973376 -11.496265 -7.183352 18.763612 -0.725106 1.963659 0.052659 0.002537 -3163.880000 1 0 0
17.749376 -5.307665 2.043448 18.638330 -0.290570 1.460939 0.071164 -0.016476 569923.000000 1 0 0
10.535476 -9.806465 9.155748 17.058450 -0.749576 1.004242 0.033327 -0.010756 -867033.000000 1 0 0
16.502876 1.815535 9.973948 19.368033 0.109573 1.029824 0.099979 -0.011856 340911.000000 1 0 0
18.107976 3.903635 0.414648 18.528602 0.212326 1.548416 0.013737 0.009681 519290.000000 1 0 0
13.339576 -3.989465 5.817948 15.090018 -0.290603 1.174993 0.031473 -0.011683 -838244.000000 1 0 0
12.128776 -6.203265 6.556048 15.118514 -0.472766 1.122264 0.032719 -0.013303 -60616.300000 1 0 0
16.616676 -10.197065 3.619148 19.829077 -0.550406 1.387250 0.049318 -0.014746 166914.000000 1 0 0
16.292876 -7.992765 -5.583152 18.987198 -0.456074 1.869256 0.063153 -0.005324 311160.000000 1 0 0
14.058076 -0.389565 5.332648 15.040558 -0.027704 1.208362 0.026996 -0.006050 1860750.000000 1 0 0
18.479176 -4.274265 5.333648 19.702718 -0.227304 1.296670 0.109244 -0.016094 324746.000000 1 0 0
13.721376 -13.448965 7.204248 20.519552 -0.775372 1.212059 0.080089 -0.015666 192730.000000 1 0 0
15.112976 -13.713065 -0.955152 20.429452 -0.736872 1.617567 0.049371 0.004169 494097.000000 1 0 0
17.994776 -5.961265 8.098848 20.614072 -0.319899 1.167035 0.124452 -0.018620 1068050.000000 1 0 0
14.399876 3.345035 9.344748 17.489139 0.228248 1.007097 0.052455 -0.007280 -217596.000000 1 0 0
18.899276 3.597535 2.838448 19.446894 0.188103 1.424314 0.059961 -0.003283 -958041.000000 1 0 0
14.746476 -10.567565 8.223048 19.918597 -0.621791 1.145234 0.071372 -0.024676 -688733.000000 1 0 0
14.907176 -4.783165 10.349248 18.767245 -0.310486 0.986692 0.101356 -0.021823 200344.000000 1 0 0
18.053676 -7.852765 1.944748 19.783406 -0.410283 1.472335 0.085229 -0.019974 242622.000000 1 0 0
18.476376 -5.778465 -1.910252 19.452922 -0.303112 1.669154 0.065356 -0.005488 -527507.000000 1 0 0
14.361776 -12.879065 -5.380552 20.027013 -0.731022 1.842803 0.054549 -0.003405 77828.600000 1 0 0
15.545876 -1.373265 9.210448 18.121602 -0.088108 1.037636 0.118346 -0.017888 94955.500000 1 0 0
12.968676 -10.083865 10.123548 19.296557 -0.660905 1.018516 0.062217 -0.028170 -1914010.000000 1 0 0
16.645776 2.261235 4.836648 17.481081 0.135018 1.290460 0.046809 -0.005973 -1183550.000000 1 0 0
15.056976 2.443635 -0.096152 15.254282 0.160890 1.577100 0.012704 0.006224 -1065830.000000 1 0 0
14.974976 -9.755665 -6.966352 19.182100 -0.577404 1.942464 0.056636 -0.003416 1187010.000000 1 0 0
16.208876 -0.052465 -3.224552 16.526589 -0.003237 1.767169 0.037086 0.004984 199978.000000 1 0 0
12.032576 2.577235 13.593548 18.336018 0.211000 0.735705 0.075599 -0.004953 -166038.000000 1 0 0
17.475576 -2.992165 9.646948 20.184460 -0.169575 1.072489 0.101754 -0.021496 -6732.400000 1 0 0
8.376776 -18.000565 4.345448 20.324213 -1.135241 1.355326 0.069996 -0.018091 -12306.500000 1 0 0
6.901576 -11.088665 6.542748 14.608141 -1.014069 1.106399 0.002267 -0.006784 202815.000000 1 0 0
17.975276 2.241935 -1.562552 18.181815 0.124083 1.656843 0.032974 0.008654 194476.000000 1 0 0
17.716076 -2.354365 3.651048 18.240957 -0.132120 1.369279 0.055177 -0.014391 -235179.000000 1 0 0
12.648676 -13.471565 -1.893852 18.575757 -0.816892 1.672927 0.032515 0.002886 1487010.000000 1 0 0
15.162976 -8.165865 4.486948 17.796907 -0.494002 1.315926 0.054322 -0.013351 -86999.000000 1 0 0
11.958976 -2.990965 15.006448 19.420516 -0.245075 0.687695 0.068283 -0.018528 10639.900000 1 0 0
12.000476 -13.680265 -6.302652 19.258362 -0.850716 1.904208 0.028942 -0.012282 169272.000000 1 0 0
10.753576 -11.885365 -1.226552 16.075003 -0.835350 1.647172 0.020756 -0.009722 -295761.000000 1 0 0
13.206776 -8.008965 2.090248 15.586263 -0.545133 1.436283 0.034522 -0.008527 205701.000000 1 0 0
8.773376 -7.727165 10.004548 15.387403 -0.722078 0.862978 0.010341 -0.004787 -642905.000000 1 0 0
15.610276 -3.823965 8.093948 17.994872 -0.240234 1.104264 0.101461 -0.020934 -1403650.000000 1 0 0
10.705876 -16.766765 4.920348 20.492682 -1.002535 1.328325 0.074635 -0.027844 -208075.000000 1 0 0
15.271476 -6.272865 8.241648 18.452414 -0.389745 1.107786 0.085250 -0.015752 -47673.400000 1 0 0
16.541776 -4.983865 -0.262752 17.278261 -0.292639 1.586004 0.030408 -0.009118 -1164340.000000 1 0 0
13.976476 -10.460365 3.633548 17.831539 -0.642493 1.365588 0.048272 -0.012834 867128.000000 1 0 0
14.954476 -9.898865 -4.470352 18.482638 -0.584718 1.815086 0.046667 -0.008327 11776.900000 1 0 0
13.758876 -6.579065 0.005048 15.250927 -0.446031 1.570465 0.023392 -0.009927 -270973.000000 1 0 0
17.800876 -0.995465 -4.924352 18.496253 -0.055864 1.840281 0.080955 0.001205 -660126.000000 1 0 0
14.439476 0.239035 -1.514652 14.520667 0.016553 1.675296 0.015927 0.001653 -1392670.000000 1 0 0
4.745376 -12.880065 11.647648 18.002288 -1.217800 0.867141 -0.008402 -0.001243 -747020.000000 1 0 0
12.004876 -7.652565 13.550348 19.654280 -0.567505 0.810088 0.062360 -0.021351 -662543.000000 1 0 0
12.024676 -5.832865 11.661548 17.737160 -0.451636 0.853348 0.047460 -0.013607 713470.000000 1 0 0
13.209276 -4.707065 8.373348 16.332617 -0.342317 1.032497 0.049785 -0.013354 -1997370.000000 1 0 0
15.394176 -1.162265 3.124848 15.751069 -0.075357 1.371082 0.032058 -0.003529 154287.000000 1 0 0
15.229476 -10.275265 5.809348 19.268278 -0.593541 1.264533 0.071098 -0.019808 -81548.200000 1 0 0
13.668776 -7.809065 -5.673452 16.733349 -0.519054 1.916704 0.040798 -0.006325 980133.000000 1 0 0
9.733076 -2.415565 13.755548 17.023009 -0.243266 0.629951 0.033039 -0.003591 709057.000000 1 0 0
9.846976 -9.148465 13.668348 19.169796 -0.748642 0.777008 0.059972 -0.015598 110530.000000 1 0 0
20.192576 6.265535 -3.419752 21.417090 0.300869 1.731157 0.106524 -0.009528 -1155440.000000 1 0 0
11.303176 -3.621665 10.597548 15.911828 -0.310076 0.841940 0.029541 -0.004905 851238.000000 1 0 0
10.308176 -13.881365 -2.904952 17.532528 -0.932054 1.737253 0.024034 -0.001642 1297250.000000 1 0 0
14.981976 -12.650965 2.718648 19.796403 -0.701241 1.433031 0.046731 -0.005821 -5016.560000 1 0 0
11.339776 -0.505365 14.433448 18.362199 -0.044536 0.666417 0.059606 -0.008131 319866.000000 1 0 0
19.239376 -1.783365 5.761348 20.162517 -0.092429 1.281012 0.125463 -0.015387 1316800.000000 1 0 0
19.074676 -0.353965 7.924648 20.658378 -0.018555 1.177100 0.125915 -0.018573 617373.000000 1 0 0
19.034576 0.919235 0.493748 19.063154 0.048255 1.544893 0.069128 -0.003426 -161748.000000 1 0 0
18.558276 0.648835 3.694348 18.933536 0.034948 1.374415 0.057983 -0.011247 476501.000000 1 0 0
16.637876 -3.991465 -4.250352 17.629980 -0.235453 1.814282 0.057727 -0.002991 -1485850.000000 1 0 0
11.093476 -8.168265 15.825648 20.981823 -0.634683 0.716277 0.089408 -0.030817 372317.000000 1 0 0
16.729576 -7.482665 6.468248 19.434691 -0.420583 1.231504 0.085690 -0.016122 511506.000000 1 0 0
18.970776 2.248535 5.756448 19.952016 0.117976 1.278121 0.076388 -0.008987 -254205.000000 1 0 0
15.356076 1.708635 7.619448 17.227434 0.110812 1.112651 0.070394 -0.010631 200775.000000 1 0 0
8.753376 -15.424265 3.872448 18.152834 -1.054612 1.355820 0.034166 -0.020364 -415236.000000 1 0 0
11.439676 -14.929065 1.962648 18.910186 -0.916964 1.466821 0.044350 -0.006697 -129483.000000 1 0 0
8.428176 -16.182165 6.208548 19.272848 -1.090623 1.242808 0.047626 -0.008660 245987.000000 1 0 0
14.574176 -11.604065 -2.510152 18.797920 -0.672424 1.704730 0.036855 -0.003322 678004.000000 1 0 0
13.720176 -4.755465 3.272248 14.885069 -0.333646 1.349152 0.025626 -0.009118 -2076710.000000 1 0 0
-1.004724 10.180535 -5.501352 11.615405 -1.472424 2.064199 0.001927 -0.002097 -186935.000000 1 0 0
8.284276 -1.789765 -8.072352 11.704501 -0.212773 2.331842 0.006226 -0.001455 -3755800.000000 1 0 0
2.822576 -9.942665 7.687548 12.881068 -1.294188 0.931277 -0.002285 -0.005921 579001.000000 1 0 0
-6.286724 1.310635 8.265448 10.467010 -0.205533 0.660531 -0.000116 -0.002782 -398467.000000 1 0 0
7.233376 -6.248665 -7.153452 11.938987 -0.712489 2.213257 0.005674 -0.003364 -345217.000000 1 0 0
-11.321224 -4.532065 -4.070252 12.855998 0.380779 1.892943 0.003392 -0.005637 416751.000000 1 0 0
2.103576 -3.194365 2.879448 4.787507 -0.988450 0.925481 0.000550 0.000250 1807700.000000 1 0 0
-3.715824 -4.169365 9.004448 10.595803 0.842853 0.555166 -0.001217 -0.002665 -1707180.000000 1 0 0
-4.869724 -1.069965 -2.490352 5.573230 0.216281 2.034028 0.002427 -0.003077 -358602.000000 1 0 0
4.984676 -5.167765 -3.540152 8.005340 -0.803430 2.028873 0.006695 -0.006083 166593.000000 1 0 0
2.732676 14.262435 -8.830952 16.996184 1.381491 2.117161 0.019521 -0.011843 322364.000000 1 0 0
5.561676 -5.500565 13.699548 15.775490 -0.779874 0.518815 0.016533 -0.011819 -1375420.000000 1 0 0
-4.726524 -0.869065 9.891848 10.997453 0.181839 0.452248 0.005175 -0.002662 -1335810.000000 1 0 0
-1.023424 11.913035 -2.640452 12.244990 -1.485099 1.788139 0.004028 -0.005259 -1153180.000000 1 0 0
3.048376 9.432735 -10.529852 14.461911 1.258221 2.386356 0.006849 -0.006125 -352925.000000 1 0 0
-10.565324 2.619035 1.114448 10.942002 -0.242992 1.468769 -0.005865 -0.000140 37175.300000 1 0 0
5.651076 -8.897565 -0.692752 10.563201 -1.004948 1.636425 0.002825 -0.006899 398222.000000 1 0 0
-6.993224 5.380535 9.372448 12.872378 -0.655797 0.755242 0.001011 -0.000659 206939.000000 1 0 0
-5.371424 -1.881065 5.175548 7.692653 0.336852 0.832821 0.000112 -0.003193 761663.000000 1 0 0
6.627376 -3.782665 -7.353752 10.597562 -0.518645 2.337701 0.005260 -0.002705 496940.000000 1 0 0
6.288676 4.795335 11.018848 13.563101 0.651475 0.622517 0.001326 -0.000253 512470.000000 1 0 0
3.756076 -9.850365 3.069248 10.979894 -1.206502 1.287488 -0.005045 -0.003779 1395120.000000 1 0 0
-6.671624 6.497835 -5.868852 11.007990 -0.772203 2.133110 0.005827 -0.005434 137373.000000 1 0 0
-11.108124 8.536335 5.291048 14.975134 -0.655222 1.209676 -0.003331 -0.004567 369645.000000 1 0 0
-9.164424 -5.517365 5.186348 11.888069 0.541919 1.119353 0.006047 -0.002997 -1101170.000000 1 0 0
3.354776 9.766835 -8.053952 13.096249 1.239936 2.233159 0.007920 -0.006371 718035.000000 1 0 0
-8.118224 -8.559065 6.079148 13.270991 0.811826 1.094965 0.009368 -0.001468 -2331050.000000 1 0 0
-7.741524 -5.637365 -7.456252 12.137000 0.629401 2.232346 0.008632 -0.004627 -1635480.000000 1 0 0
9.252776 -1.593665 6.961848 11.688497 -0.170563 0.932765 0.008665 -0.006446 554847.000000 1 0 0
-4.037024 -0.407865 -4.856752 6.328662 0.100689 2.445606 0.007985 -0.008488 -1763690.000000 1 0 0
9.100076 1.151235 -4.607252 10.264672 0.125840 2.036269 0.003026 -0.000137 -4256330.000000 1 0 0
-1.993224 -10.569565 10.631348 15.123300 1.384404 0.791220 -0.002226 -0.006500 485325.000000 1 0 0
-12.771924 0.116935 -2.712152 13.057239 -0.009155 1.780032 -0.004133 -0.002302 -600888.000000 1 0 0
-9.768424 -5.288065 -5.980552 12.615575 0.496172 2.064694 0.009175 -0.004263 -1035970.000000 1 0 0
-5.582924 8.220135 -0.103852 9.937326 -0.974183 1.581247 0.000485 -0.002327 -199590.000000 1 0 0
6.314276 9.632835 0.471448 11.527526 0.990568 1.529887 0.009879 -0.005875 239852.000000 1 0 0
-0.466524 -12.041265 0.031948 12.050341 1.532072 1.568145 0.009948 -0.002711 -472512.000000 1 0 0
6.122376 4.774435 2.348648 8.111403 0.662323 1.277041 0.001400 -0.000275 294380.000000 1 0 0
3.374776 -7.471065 -8.263352 11.639970 -1.146519 2.360169 -0.000870 -0.002819 507841.000000 1 0 0
-6.599424 -9.820265 4.690148 12.727431 0.979096 1.193394 0.009626 -0.000341 -2394570.000000 1 0 0
-0.071624 6.589135 -9.266552 11.370612 -1.559927 2.523450 0.007786 -0.004959 -381582.000000 1 0 0
-17.469524 -2.878165 4.285348 18.216265 0.163287 1.333322 0.057183 -0.011771 1177620.000000 1 0 0
-8.477424 0.879935 -9.105052 12.471687 -0.103427 2.389203 0.000975 -0.007991 1100240.000000 1 0 0
-9.985824 -6.025665 -11.842252 16.621199 0.542932 2.363821 0.003661 0.003577 -971808.000000 1 0 0
2.141976 9.446735 6.421648 11.621808 1.347824 0.985374 0.001061 0.002619 49484.200000 1 0 0
-11.346824 1.607635 -1.233652 11.526353 -0.140745 1.678031 -0.002016 -0.001952 -2622290.000000 1 0 0
-5.921324 -5.386965 -3.001252 8.549210 0.738180 1.929495 0.013120 -0.006089 682443.000000 1 0 0
-6.865724 -8.206565 1.394948 10.790355 0.874125 1.441156 0.011830 -0.001026 -260499.000000 1 0 0
-0.032524 10.795835 -7.838452 13.341381 -1.567784 2.198798 0.007779 -0.003818 625714.000000 1 0 0
-2.895124 9.205335 -4.212752 10.529350 -1.266086 1.982418 0.004511 -0.005238 193925.000000 1 0 0
3.517676 -4.817965 9.328948 11.073216 -0.940143 0.568929 0.002276 -0.004225 -1319820.000000 1 0 0
-8.976924 1.492935 -0.475452 9.112633 -0.164800 1.622995 -0.003970 -0.002452 -1592820.000000 1 0 0
2.431476 3.515535 -10.575852 11.407002 0.965705 2.757495 0.003505 -0.001411 309219.000000 1 0 0
-13.667324 0.490835 1.062548 13.717350 -0.035898 1.493258 0.000810 -0.004474 -1045530.000000 1 0 0
9.456476 -12.511965 -5.027552 16.469684 -0.923597 1.881009 0.030931 -0.009541 -1442550.000000 1 0 0
-4.738924 9.455935 -8.276952 13.430564 -1.106222 2.234803 0.006083 -0.003559 -772923.000000 1 0 0
-2.317724 7.150335 8.385448 11.261211 -1.257341 0.730814 0.003344 -0.001691 -1102330.000000 1 0 0
-10.746024 -1.389365 -4.482952 11.726220 0.128578 1.963082 0.001452 -0.004739 -4739400.000000 1 0 0
2.645876 -7.066765 9.793348 12.363232 -1.212542 0.656497 -0.004019 -0.003163 -1861660.000000 1 0 0
-16.170424 -6.501265 3.444948 17.765605 0.382269 1.375649 0.028592 -0.006810 316087.000000 1 0 0
-10.719024 -0.022765 6.076048 12.321378 0.002124 1.055112 0.000584 -0.003383 -1622130.000000 1 0 0
-8.439124 9.903235 9.445148 16.078050 -0.865051 0.942885 0.006679 -0.011444 -1641080.000000 1 0 0
0.213676 -5.966965 -3.798152 7.076460 -1.535002 2.137354 -0.001901 -0.000779 171102.000000 1 0 0
4.997276 1.520635 -2.870552 5.960299 0.295390 2.073290 -0.000771 -0.000810 591610.000000 1 0 0
0.333676 5.422435 3.885548 6.679193 1.509338 0.949931 -0.000004 0.000312 -2224560.000000 1 0 0
6.068376 -11.181065 -1.553552 12.816198 -1.073547 1.692313 0.000513 -0.008110 -3218420.000000 1 0 0
6.274976 -13.366865 5.203848 15.656578 -1.131892 1.231976 0.003465 -0.008029 408848.000000 1 0 0
8.289976 -8.200665 -5.945252 13.088950 -0.779982 2.042292 0.008369 -0.006252 937188.000000 1 0 0
-13.193824 -1.431465 -4.749252 14.095442 0.108072 1.914456 -0.001052 -0.004735 -2721740.000000 1 0 0
-6.852424 -1.472265 -7.036052 9.931229 0.211636 2.358135 0.005924 -0.009556 -749098.000000 1 0 0
-5.678924 12.847835 -4.511752 14.753744 -1.154603 1.881579 0.006568 0.001862 854626.000000 1 0 0
-4.277724 6.854635 -6.780152 10.547768 -1.012871 2.268950 0.004673 -0.004657 -3563140.000000 1 0 0
-9.494324 -3.782365 -8.078352 13.027212 0.379111 2.239684 0.003002 -0.004980 594500.000000 1 0 0
-2.274324 -6.272165 9.211648 11.373964 1.222936 0.626834 0.001009 -0.002686 -453135.000000 1 0 0
7.450776 -5.947165 10.034148 13.840772 -0.673639 0.759805 0.006285 -0.004833 298074.000000 1 0 0
9.656876 -4.884965 12.208548 16.314619 -0.468319 0.725271 0.026188 -0.009246 -616210.000000 1 0 0
-6.515624 2.776835 -8.993952 11.447940 -0.402871 2.474525 0.004038 -0.009283 997084.000000 1 0 0
7.543876 5.420435 8.869248 12.843471 0.623048 0.808527 -0.000080 0.000705 -661065.000000 1 0 0
12.735976 3.300335 11.214048 17.287341 0.253558 0.864940 0.055633 -0.001346 -758735.000000 1 0 0
-7.502224 -7.294765 -3.838352 11.145847 0.771379 1.922369 0.012269 -0.006352 -1214340.000000 1 0 0
2.271676 1.378935 -5.849952 6.425256 0.545560 2.715196 0.004643 -0.002617 -577110.000000 1 0 0
12.784276 6.819635 -7.217852 16.187727 0.490040 2.032958 0.011886 -0.003569 100255.000000 1 0 0
0.848576 -7.773665 1.029548 7.887326 -1.462067 1.439891 -0.003875 -0.001770 357985.000000 1 0 0
-10.120224 -6.147365 -8.508752 14.581080 0.545868 2.193887 0.008422 -0.002729 258754.000000 1 0 0
-6.717324 0.310635 3.113248 7.410213 -0.046211 1.137208 -0.000704 -0.002873 -366643.000000 1 0 0
10.839176 -7.875365 1.142848 13.446755 -0.628333 1.485703 0.013460 -0.008026 101810.000000 1 0 0
6.250076 1.059335 10.565648 12.321467 0.167896 0.540407 0.005040 -0.001974 -124890.000000 1 0 0
-13.050724 5.400735 1.846148 14.244213 -0.392369 1.440824 -0.002670 -0.000956 100810.000000 1 0 0
2.093176 7.405635 3.653248 8.518864 1.295335 1.127586 -0.000835 -0.000078 -179655.000000 1 0 0
10.246676 -9.372065 -0.906352 13.915870 -0.740847 1.635973 0.008923 -0.007171 843535.000000 1 0 0
6.842876 -11.598465 -9.091252 16.248083 -1.037776 2.164612 0.006306 -0.008182 496956.000000 1 0 0
10.206576 3.478735 11.950248 16.096093 0.328485 0.734104 0.024126 -0.001291 -339192.000000 1 0 0
-11.013724 -3.165565 -1.925252 11.620220 0.279876 1.737245 -0.000579 -0.002978 -149669.000000 1 0 0
12.303376 0.987235 6.783248 14.084039 0.080069 1.068286 0.018685 -0.002324 -22330.200000 1 0 0
-9.605424 9.149235 3.080548 13.618460 -0.761079 1.342618 -0.004630 -0.003739 262442.000000 1 0 0
-6.635724 7.550135 -8.761552 13.334248 -0.849768 2.287723 0.005242 -0.007773 -697179.000000 1 0 0
8.540276 5.535035 11.964848 15.707658 0.575045 0.704832 0.015541 0.000241 -2616690.000000 1 0 0
1.309376 4.961235 -2.690452 5.793690 1.312759 2.053726 0.004792 -0.005028 526468.000000 1 0 0
1.359976 0.531135 9.553748 9.664665 0.372331 0.151648 0.002344 -0.004806 709424.000000 1 0 0
2.558276 12.485035 -3.974552 13.349829 1.368687 1.873103 0.011776 -0.010192 286699.000000 1 0 0
2.067476 0.566035 13.035748 13.210813 0.267232 0.162979 0.005501 -0.007507 -658925.000000 1 0 0
-12.243124 -1.819165 0.856448 12.407133 0.147507 1.501713 -0.002397 -0.001093 -68969.500000 1 0 0
3.266976 8.755435 -1.248552 9.428131 1.213660 1.703615 0.009334 -0.004571 550039.000000 1 0 0
3.622376 -2.869565 -5.788152 7.406667 -0.669953 2.467829 0.002123 -0.003328 -1172120.000000 1 0 0
-7.710224 -7.142365 9.227048 13.985684 0.747184 0.850311 0.005691 -0.007827 -105167.000000 1 0 0
-7.078924 10.830635 -3.370852 13.370732 -0.991893 1.825653 0.009519 0.001738 -310826.000000 1 0 0
0.396876 0.551835 2.638348 2.724502 0.947305 0.252151 -0.002640 -0.001387 -2411690.000000 1 0 0
-7.060224 4.584135 -2.043252 8.662329 -0.575876 1.808918 0.002069 -0.004023 -863624.000000 1 0 0
-6.854324 -3.892565 -5.877652 9.832630 0.516481 2.211513 0.006772 -0.006266 161940.000000 1 0 0
3.030176 -6.038165 13.505048 15.100587 -1.105680 0.463844 0.004352 -0.007173 -1663830.000000 1 0 0
-5.613024 -0.592665 -11.596852 12.897452 0.105198 2.688639 0.010464 -0.007643 -1517470.000000 1 0 0
11.888276 2.465335 -0.700452 12.161398 0.204477 1.628425 0.006581 -0.000915 -1425910.000000 1 0 0
6.083976 -10.897065 10.698348 16.438231 -1.061593 0.862131 -0.003821 -0.004566 524616.000000 1 0 0
-8.146124 6.194135 -10.409652 14.597517 -0.650110 2.364722 0.002029 -0.006561 569369.000000 1 0 0
2.818176 7.937135 11.182148 13.999309 1.229619 0.645558 0.004337 -0.000002 663500.000000 1 0 0
-6.244524 -10.257465 -0.261852 12.011588 1.023947 1.592598 0.014766 -0.000315 -300734.000000 1 0 0
11.272076 4.207235 6.081948 13.481491 0.357230 1.102762 0.007893 -0.002098 -345276.000000 1 0 0
-8.042924 10.616735 1.365348 13.389095 -0.922468 1.468644 -0.000425 -0.001298 84243.500000 1 0 0
4.318276 -2.614865 -3.510052 6.148617 -0.544479 2.178360 0.003573 -0.004135 -4494280.000000 1 0 0
6.351276 6.404435 6.344948 11.027867 0.789566 0.957757 -0.000813 0.001021 -4629750.000000 1 0 0
-0.480324 10.213835 -10.150752 14.408015 -1.523804 2.352545 0.008052 -0.006878 -330279.000000 1 0 0
14.096176 6.550435 -2.553252 15.752126 0.435008 1.733604 0.017604 0.003680 405017.000000 1 0 0
1.419676 9.410335 -6.162952 11.338071 1.421062 2.145472 0.007560 -0.006882 1073920.000000 1 0 0
0.627076 7.299935 7.211848 10.280712 1.485105 0.793306 -0.002857 0.003212 -411822.000000 1 0 0
12.315376 6.182435 1.795548 13.896581 0.465254 1.441226 0.006522 0.001879 -2100300.000000 1 0 0
-6.926724 6.661935 -3.299152 10.160969 -0.765915 1.901479 0.001087 -0.005191 631612.000000 1 0 0
1.001776 9.950335 11.084348 14.929015 1.470457 0.734046 0.008817 -0.000148 1008450.000000 1 0 0
-3.606924 13.550935 -11.000252 17.822550 -1.310653 2.235988 0.002857 -0.001445 305262.000000 1 0 0
-10.146824 -5.633865 -2.174052 11.807835 0.506853 1.755972 0.002500 -0.003582 -143173.000000 1 0 0
-4.026324 3.815535 -12.574652 13.743779 -0.758525 2.726141 0.007166 -0.007184 451057.000000 1 0 0
-3.268824 8.360935 2.376648 9.286490 -1.198104 1.311992 0.004141 -0.001288 -1413740.000000 1 0 0
6.970376 8.828035 6.970448 13.232819 0.902446 1.016018 0.005989 0.001737 116211.000000 1 0 0
-1.346624 -2.242865 -8.157352 8.566576 1.030080 2.831254 0.006450 -0.006515 -2196280.000000 1 0 0
0.847476 -1.267665 4.892448 5.124572 -0.981503 0.302134 0.000769 -0.000501 1629790.000000 1 0 0
2.667676 -8.822565 -6.132952 11.071009 -1.277167 2.157916 -0.004519 -0.003177 216606.000000 1 0 0
5.450576 3.953335 8.704248 11.004616 0.627509 0.658414 -0.003300 -0.001858 -27268.500000 1 0 0
6.060276 -7.547065 -2.867652 10.094977 -0.894230 1.858830 0.006286 -0.008112 1043320.000000 1 0 0
1.766876 2.272035 -8.345352 8.827734 0.909825 2.809481 0.005407 -0.003521 81598.100000 1 0 0
-5.495124 10.954435 -0.654552 12.272916 -1.105842 1.624155 -0.000753 -0.002083 297411.000000 1 0 0
-5.425824 3.321635 -3.477952 7.250447 -0.549335 2.071095 0.002129 -0.002702 -88392.300000 1 0 0
1.926276 13.601035 -6.405652 15.156882 1.430105 2.007134 0.004355 -0.006640 704878.000000 1 0 0
-5.273424 -2.509065 2.600248 6.392629 0.444096 1.151895 -0.004448 -0.002237 -390082.000000 1 0 0
10.599276 -3.318165 -1.880652 11.264622 -0.303391 1.738534 0.007742 -0.004411 -115265.000000 1 0 0
2.381876 -3.277965 7.040348 8.123108 -0.942419 0.522236 -0.001468 -0.002518 -1344990.000000 1 0 0
-2.956824 9.919235 -11.635652 15.573132 -1.281093 2.414578 0.005630 -0.003364 -2800640.000000 1 0 0
0.540576 -2.045565 9.320848 9.557969 -1.312435 0.223213 0.002403 -0.002828 764850.000000 1 0 0
9.412676 2.619035 4.936548 10.946566 0.271381 1.102947 0.002521 -0.002016 -878362.000000 1 0 0
13.414576 2.016935 -4.985752 14.452563 0.149236 1.923007 0.016605 0.002363 -1022020.000000 1 0 0
-6.389124 3.728835 7.586148 10.595979 -0.528290 0.772818 0.000505 -0.005174 1744020.000000 1 0 0
10.653376 0.086535 1.830348 10.809814 0.008123 1.400654 0.008545 -0.002015 1192860.000000 1 0 0
15.331076 6.634835 -4.812052 17.384440 0.408434 1.851261 0.023522 -0.001072 -528099.000000 1 0 0
8.134376 -4.944665 -9.229552 13.259050 -0.546188 2.340740 0.012013 0.000336 497568.000000 1 0 0
4.492776 5.646435 -2.206352 7.545545 0.898693 1.867537 0.002115 -0.003056 -538232.000000 1 0 0
-1.558024 -10.516865 1.572648 10.747330 1.423721 1.423940 0.006325 -0.001788 -753831.000000 1 0 0
-2.860324 12.251035 -12.991952 18.084804 -1.341429 2.372282 0.011315 -0.001464 643586.000000 1 0 0
8.366876 4.164835 -9.700652 13.470453 0.461867 2.374805 0.002963 0.001323 -735551.000000 1 0 0
4.088176 7.571835 -9.011352 12.459949 1.075726 2.379258 0.004897 -0.004823 -1772830.000000 1 0 0
-1.768824 -4.965565 -2.521652 5.843313 1.228593 2.017001 0.002492 -0.002200 -635493.000000 1 0 0
-3.298024 -9.028965 7.100648 11.950664 1.220582 0.934571 0.002286 -0.000533 -437895.000000 1 0 0
1.053876 7.328535 -1.443352 7.543298 1.427971 1.763326 0.007749 -0.004751 505241.000000 1 0 0
0.523876 -0.559265 -2.143352 2.276221 -0.818059 2.798229 0.002170 -0.005742 -3113810.000000 1 0 0
4.171476 -6.877165 7.745848 11.166681 -1.025561 0.804242 -0.002527 -0.003338 29282.800000 1 0 0
-14.083524 3.776835 6.040848 15.782965 -0.262009 1.178031 0.002102 -0.006023 -982564.000000 1 0 0
4.294676 6.392335 12.529448 14.706912 0.979215 0.551112 0.007005 -0.001827 -1951040.000000 1 0 0
8.334176 10.101735 -7.154652 14.922888 0.880982 2.070815 0.019369 -0.007071 -124506.000000 1 0 0
12.522276 5.282535 9.411948 16.531707 0.399200 0.965109 0.028909 -0.002818 1112930.000000 1 0 0
7.492876 4.128435 0.300648 8.560231 0.503596 1.535668 0.003275 0.001025 -2318740.000000 1 0 0
-10.928624 -7.639465 -0.942152 13.367270 0.610076 1.641337 0.006929 -0.003192 -1181350.000000 1 0 0
10.396276 6.823635 0.219648 12.437556 0.580829 1.553135 0.003216 0.001013 -480408.000000 1 0 0
14.647476 3.625435 4.103248 15.637422 0.242636 1.305289 0.022837 -0.004616 606014.000000 1 0 0
2.153576 5.539935 8.230448 10.152293 1.200037 0.625452 -0.004573 0.000229 -250750.000000 1 0 0
4.294876 0.120535 11.902448 12.654199 0.028057 0.346424 0.006194 -0.003753 -1231970.000000 1 0 0
-1.386024 -1.619465 -0.546952 2.200656 0.862914 1.821969 0.001980 -0.004817 -1012860.000000 1 0 0
3.104776 -5.211665 -9.506852 11.277469 -1.033518 2.573623 0.000206 0.000320 246226.000000 1 0 0
-3.990924 -5.339465 -1.209752 6.775018 0.928936 1.750320 0.003349 -0.004521 -1483690.000000 1 0 0
-1.211724 -8.553065 8.639548 12.217405 1.430062 0.785336 -0.001337 -0.001153 -181827.000000 1 0 0
3.994776 8.545935 -6.003652 11.181908 1.133528 2.137564 0.006566 -0.003943 -42452.800000 1 0 0
-14.291124 -1.885965 -2.760352 14.676942 0.131209 1.759997 -0.004403 -0.004546 -1191080.000000 1 0 0
8.816676 -10.506865 -6.625252 15.232267 -0.872644 2.020777 0.007970 -0.007317 291471.000000 1 0 0
14.895876 6.088535 1.515048 16.163315 0.388018 1.476925 0.005582 0.003238 -1170260.000000 1 0 0
-5.848924 0.342535 -8.665852 10.460604 -0.058497 2.547091 0.007199 -0.011926 199605.000000 1 0 0
-8.105524 -4.534765 -12.898352 15.894373 0.510082 2.517518 0.006614 -0.003058 859532.000000 1 0 0
0.919376 -10.546465 12.188048 16.143782 -1.483842 0.715190 0.003454 -0.003110 -263880.000000 1 0 0
0.212576 11.756435 3.286548 12.209027 1.552717 1.298244 0.009775 -0.004734 -876044.000000 1 0 0
5.187076 -13.084765 -3.706352 14.555201 -1.193379 1.828273 0.008353 -0.006647 67541.200000 1 0 0
-7.455624 1.516935 -6.906852 10.275798 -0.200722 2.307902 0.004175 -0.007157 809509.000000 1 0 0
1.458576 2.776635 4.083448 5.148951 1.087112 0.654973 -0.001714 0.000086 -426003.000000 1 0 0
17.286476 5.454435 2.214048 18.261301 0.305645 1.449255 0.015038 0.000504 106350.000000 1 0 0
2.407076 -8.144465 -3.555752 9.207046 -1.283429 1.967304 -0.001130 -0.002713 560280.000000 1 0 0
-0.413824 -9.351965 -0.543852 9.376901 1.526575 1.628828 0.005700 -0.001775 -747838.000000 1 0 0
0.777376 11.830035 -5.587252 13.106160 1.505179 2.011203 0.006848 -0.005468 -1346870.000000 1 0 0
5.992276 -5.059665 7.823848 11.077914 -0.701213 0.786600 0.001010 -0.004186 -1232900.000000 1 0 0
-6.088124 -2.011665 -9.391752 11.371766 0.319130 2.542563 0.006595 -0.008073 -647965.000000 1 0 0
2.170376 -1.306765 11.277148 11.558211 -0.541956 0.220981 -0.000061 -0.004918 -726989.000000 1 0 0
18.107576 2.175335 -5.900452 19.168508 0.119561 1.883697 0.069540 0.003042 184367.000000 1 0 0
-8.899824 4.870235 7.717748 12.747145 -0.500713 0.920466 -0.000524 -0.007540 -119977.000000 1 0 0
11.389976 -7.073265 -4.818952 14.247278 -0.555723 1.915839 0.020743 -0.008554 -404589.000000 1 0 0
10.828876 0.512635 8.942548 14.053345 0.047304 0.881066 0.011005 -0.002343 -35817.500000 1 0 0
-8.447424 -7.459965 -1.475352 11.366033 0.723402 1.700967 0.012728 -0.004113 -732355.000000 1 0 0
10.326976 -10.302065 -3.299152 14.955379 -0.784191 1.793226 0.019802 -0.007112 175757.000000 1 0 0
7.720776 -13.875165 -3.789252 16.324491 -1.063018 1.805054 0.015816 -0.008292 -1000010.000000 1 0 0
1.699376 -1.186265 -11.590452 11.774280 -0.609422 2.964655 0.006969 -0.003508 89029.300000 1 0 0
-11.801424 -2.637865 -6.455652 13.707932 0.219906 2.061156 0.003723 -0.003490 348984.000000 1 0 0
2.720576 -12.163665 -6.447052 14.032846 -1.350754 2.048145 -0.001939 -0.001549 564537.000000 1 0 0
-5.558124 1.464335 1.067148 5.846010 -0.257605 1.387224 0.000228 -0.002709 514088.000000 1 0 0
0.125776 6.785735 -4.045552 7.901171 1.552263 2.108330 0.008541 -0.005899 1085910.000000 1 0 0
5.514476 -11.642065 3.612748 13.379053 -1.128435 1.297372 0.000667 -0.009799 -1724120.000000 1 0 0
-4.336424 -9.316765 1.129248 10.338370 1.135174 1.461349 0.011911 -0.000585 -546162.000000 1 0 0
7.062776 -6.237965 -4.665152 10.514687 -0.723465 2.030497 0.007278 -0.007328 -53188.900000 1 0 0
-6.906524 -5.949265 2.292148 9.399350 0.711074 1.324450 0.006489 -0.003705 -261994.000000 1 0 0
-6.425224 -0.899065 7.031948 9.567660 0.139025 0.745173 -0.000876 -0.002820 -3684150.000000 1 0 0
4.179876 -4.988865 3.244048 7.272138 -0.873404 1.108401 -0.000730 -0.002774 -786331.000000 1 0 0
-2.537924 10.554035 -8.771152 13.955709 -1.334807 2.250418 0.001105 -0.001677 -1166830.000000 1 0 0
-2.273224 -4.897765 2.775248 6.071050 1.136250 1.096033 -0.001271 0.000342 751970.000000 1 0 0
15.150976 5.158935 6.297548 17.199587 0.328188 1.195933 0.040216 -0.010240 -91484.000000 1 0 0
6.813176 0.391235 0.031248 6.824471 0.057360 1.566217 0.004523 -0.002041 5640760.000000 1 0 0
-9.797724 9.224835 0.371048 13.462194 -0.755291 1.543231 -0.005974 -0.001043 -2017180.000000 1 0 0
7.224076 10.467935 -2.646152 12.991037 0.966736 1.775922 0.003221 -0.003050 -57916.900000 1 0 0
1.590576 -4.338465 -5.419852 7.122289 -1.219391 2.435604 0.000919 -0.004056 -409640.000000 1 0 0
0.895876 -8.219565 -7.850452 11.401466 -1.462232 2.330281 -0.001865 -0.000121 -1139280.000000 1 0 0
-10.451724 0.244235 -10.471352 14.796871 -0.023364 2.356996 0.005221 -0.009061 -3856900.000000 1 0 0
5.813576 -2.465365 0.557148 6.339251 -0.401083 1.482794 0.006010 -0.002838 451673.000000 1 0 0
-3.306624 5.284535 -1.171352 6.342881 -1.011681 1.756534 0.005494 -0.005008 479126.000000 1 0 0
-0.378624 4.500735 -5.106052 6.817018 -1.486869 2.417371 0.006877 -0.006099 -745091.000000 1 0 0
3.981676 -9.605065 10.051648 14.461903 -1.177819 0.802316 -0.006129 -0.003126 -1685970.000000 1 0 0
7.349176 -13.392665 -0.867052 15.301165 -1.068916 1.627492 0.014138 -0.009229 462662.000000 1 0 0
13.033176 -0.020265 0.526248 13.043811 -0.001555 1.530441 0.009977 -0.005367 201635.000000 1 0 0
9.354276 2.392635 -0.567652 9.672094 0.250411 1.629520 0.005954 -0.001187 -347926.000000 1 0 0
-0.742724 -5.729065 4.481748 7.311627 1.441874 0.910993 -0.002091 0.000586 -851131.000000 1 0 0
11.525176 -3.659465 3.217148 12.512850 -0.307451 1.310768 0.020538 -0.007345 -1873850.000000 1 0 0
1.627676 -8.046965 11.938848 14.489274 -1.371217 0.602400 -0.000115 -0.004218 408483.000000 1 0 0
9.393676 -5.871965 -5.912252 12.556904 -0.558670 2.061035 0.009318 -0.007314 -103145.000000 1 0 0
3.149376 6.263835 -0.222452 7.014534 1.104921 1.602515 0.002067 -0.001695 -745784.000000 1 0 0
6.453276 -1.356065 11.427948 13.194002 -0.207122 0.523355 0.005719 -0.003536 158432.000000 1 0 0
-4.863124 -7.541265 -3.689552 9.702239 0.998037 1.960894 0.011592 -0.004794 -199289.000000 1 0 0
-3.421924 -8.505965 -5.635152 10.761782 1.188311 2.121898 0.007267 -0.002290 -585911.000000 1 0 0
9.800476 5.330735 2.206148 11.372473 0.498168 1.375568 0.004875 -0.001012 573186.000000 1 0 0
8.877276 -1.376565 0.220448 8.986076 -0.153841 1.546262 0.009322 -0.003670 1181630.000000 1 0 0
-3.908924 9.596435 9.175048 13.840259 -1.183986 0.846078 0.003184 -0.002561 51273.400000 1 0 0
-14.264924 -3.644465 -6.082152 15.929933 0.250134 1.962546 0.005352 -0.005164 -1383750.000000 1 0 0
10.595276 6.229535 -6.034852 13.692568 0.531515 2.027218 0.002589 -0.003266 -1145060.000000 1 0 0
-1.841024 4.422335 2.790248 5.543636 -1.176316 1.043354 0.001739 -0.004075 613253.000000 1 0 0
6.835276 -3.642065 2.671848 8.192948 -0.489568 1.238605 0.007279 -0.005559 -1909660.000000 1 0 0
8.350976 -11.095665 -1.652952 13.985165 -0.925612 1.689266 0.012901 -0.008339 203789.000000 1 0 0
4.552376 0.502535 1.824348 4.930001 0.109944 1.191733 0.001970 0.000002 23165.600000 1 0 0
-10.840524 2.330335 3.695248 11.687698 -0.211743 1.249111 -0.005542 -0.002288 -123518.000000 1 0 0
-0.875424 -3.038065 4.469548 5.474766 1.290244 0.615663 -0.001043 -0.000100 149841.000000 1 0 0
8.521376 -8.623765 -8.542852 14.831166 -0.791370 2.184632 0.016198 -0.001326 -819971.000000 1 0 0
12.238976 -4.672165 1.027848 13.140705 -0.364671 1.492498 0.016187 -0.006634 242775.000000 1 0 0
2.892776 4.864035 3.432648 6.618917 1.034263 1.025570 -0.001169 -0.000696 -435211.000000 1 0 0
6.029976 7.512535 2.025948 9.843945 0.894438 1.363509 0.002569 -0.000991 48593.300000 1 0 0
-1.603924 -1.392165 -10.318452 10.534759 0.714837 2.938598 0.010972 -0.006321 1777110.000000 1 0 0
-0.932124 -8.543765 6.067048 10.520164 1.462126 0.956105 -0.001587 -0.000338 816976.000000 1 0 0
-4.261424 -0.228965 2.272248 4.834798 0.053678 1.081531 -0.001341 -0.000942 731754.000000 1 0 0
-8.528124 6.077235 -7.975252 13.163067 -0.619140 2.221669 0.004910 -0.006985 -1285700.000000 1 0 0
6.632076 11.270235 -9.414652 16.113296 1.038906 2.194787 0.013363 -0.006064 217352.000000 1 0 0
-11.154424 -5.784765 3.184248 12.962412 0.478422 1.322604 0.008667 -0.001441 538885.000000 1 0 0
1.454576 -6.209265 2.982148 7.040168 -1.340687 1.133391 -0.000834 -0.000484 808413.000000 1 0 0
10.103776 2.214335 7.187648 12.595708 0.215748 0.963508 0.006126 0.000392 -1305460.000000 1 0 0
-4.093324 -2.544865 -10.590752 11.635964 0.556231 2.714500 0.008907 -0.005734 -2089870.000000 1 0 0
-8.340124 11.820735 5.972148 15.651006 -0.956355 1.179289 0.001774 -0.004842 622600.000000 1 0 0
6.867976 5.973835 -2.932952 9.563368 0.715883 1.882506 0.001935 -0.001200 -2075280.000000 1 0 0
3.938976 -9.746665 -2.323652 10.766261 -1.186730 1.788335 -0.002219 -0.004917 -289250.000000 1 0 0
8.528876 -12.855965 -7.434052 17.125498 -0.985046 2.019827 0.019302 -0.007399 431236.000000 1 0 0
-1.231824 9.449635 3.599848 10.186849 -1.441170 1.209613 0.003368 -0.001271 30715.300000 1 0 0
0.517776 -13.103765 4.751348 13.948192 -1.531303 1.223196 0.010551 -0.003660 -1202870.000000 1 0 0
-11.277224 -7.033265 -5.016852 14.206034 0.557642 1.931732 0.008218 -0.006302 321857.000000 1 0 0
3.674376 10.278935 -3.368652 11.423894 1.227485 1.870124 0.012072 -0.006710 -512234.000000 1 0 0
11.701276 -7.989465 -7.394252 15.982064 -0.599079 2.051789 0.037590 -0.002088 74327.700000 1 0 0
11.679776 -4.618565 -5.734252 13.806880 -0.376563 1.999089 0.016869 -0.008687 1973700.000000 1 0 0
1.289976 -10.267365 -2.675352 10.688327 -1.445813 1.823793 -0.000204 -0.002624 -833578.000000 1 0 0
2.411976 -12.009465 -3.954352 12.871743 -1.372594 1.883058 0.002708 -0.004472 -1187940.000000 1 0 0
-7.643224 -5.597165 7.267048 11.939729 0.632079 0.916445 0.005348 -0.003408 -3154820.000000 1 0 0
-7.253724 -0.812765 9.521748 11.997533 0.111583 0.654024 0.001292 -0.003628 -182046.000000 1 0 0
16.229776 2.674435 -7.563952 18.104463 0.163318 2.001813 0.053724 0.001081 684848.000000 1 0 0
-2.031624 6.392235 -5.440352 8.636295 -1.263066 2.252273 0.006087 -0.004891 -1045090.000000 1 0 0
7.669376 1.013035 8.431148 11.442457 0.131328 0.742427 0.005123 -0.003176 -805317.000000 1 0 0
8.003076 8.263235 -3.803852 12.116087 0.801391 1.890147 -0.002094 0.000562 -200652.000000 1 0 0
7.967676 0.595235 3.999348 8.934929 0.074568 1.106707 0.001750 -0.002206 804860.000000 1 0 0
-7.075124 5.825535 5.365148 10.619748 -0.688837 1.041177 0.002472 -0.007676 152226.000000 1 0 0
-6.057424 -2.042865 -4.583952 7.866276 0.325271 2.192886 0.006922 -0.007323 -569722.000000 1 0 0
-15.148324 -2.186065 3.166448 15.629363 0.143321 1.366788 0.014857 -0.004672 -886270.000000 1 0 0
0.961876 1.260135 -10.600652 10.718534 0.918830 2.993146 0.007717 -0.006752 919003.000000 1 0 0
1.438276 -9.157465 9.524148 13.290493 -1.415009 0.771861 -0.001683 -0.004592 -1000120.000000 1 0 0
-0.147924 -6.657665 -1.200152 6.766591 1.548581 1.749104 0.000791 -0.000699 687681.000000 1 0 0
-0.467024 -10.219265 -8.368852 13.217003 1.525128 2.256462 0.000329 -0.001662 211768.000000 1 0 0
-4.461524 6.435335 3.825748 8.715221 -0.964591 1.116341 0.002864 -0.000679 -260097.000000 1 0 0
10.810076 -1.246865 -8.628152 13.887311 -0.114835 2.241194 0.018678 0.000406 889553.000000 1 0 0
3.149076 -0.967065 6.269348 7.082134 -0.297953 0.483799 -0.001861 -0.000451 947149.000000 1 0 0
2.006076 -12.191265 6.752248 14.079920 -1.407708 1.070636 0.002478 -0.003970 454169.000000 1 0 0
2.861876 -4.906365 -1.449152 5.861978 -1.042748 1.820598 0.006927 -0.003082 -1646130.000000 1 0 0
-1.070624 9.409535 -1.694752 9.620695 -1.457503 1.747877 0.007857 -0.006956 219345.000000 1 0 0
4.499476 -2.484965 2.609248 5.764418 -0.504591 1.101064 0.004379 -0.001892 -2715460.000000 1 0 0
17.738376 6.804435 -2.802052 19.204213 0.366289 1.717227 0.017966 0.005603 -197626.000000 1 0 0
-7.150024 3.502535 -5.479152 9.664973 -0.455505 2.173544 0.002596 -0.007294 -81748.200000 1 0 0
-13.819724 -5.971365 2.387048 15.242702 0.407861 1.413546 0.004091 -0.003731 1174580.000000 1 0 0
6.696376 -5.898765 3.691248 9.657235 -0.722156 1.178592 0.005145 -0.005981 -156841.000000 1 0 0
-4.613324 2.050835 3.495648 6.140704 -0.418309 0.965193 0.001227 -0.003112 1018620.000000 1 0 0
6.899476 -12.042865 -5.523152 14.937823 -1.050534 1.949528 0.012127 -0.009623 133556.000000 1 0 0
2.961776 -12.223165 3.284948 12.998799 -1.333070 1.315314 0.006319 -0.005646 -452261.000000 1 0 0
3.320276 11.239635 -6.115852 13.219579 1.283558 2.051762 0.007476 -0.005361 -514286.000000 1 0 0
-5.634724 -8.342165 6.533748 12.001321 0.976737 0.995100 0.005606 -0.002791 -796208.000000 1 0 0
-3.944824 6.499135 6.359748 9.911952 -1.025263 0.874182 0.005939 -0.002330 393841.000000 1 0 0
4.288076 4.270535 -6.963252 9.225613 0.783349 2.426106 0.001321 -0.000138 -1325970.000000 1 0 0
-0.303524 -2.751965 1.586048 3.190766 1.460947 1.050572 -0.000959 0.000025 -800849.000000 1 0 0
-13.144324 -0.843265 6.473048 14.675991 0.064067 1.114013 0.014278 -0.006588 -665787.000000 1 0 0
-0.555824 -9.249265 -5.900252 10.985027 1.510775 2.137813 0.000330 -0.000989 19949.600000 1 0 0
2.019376 -1.612565 -3.920952 4.695967 -0.673854 2.558859 0.005641 -0.002689 -203009.000000 1 0 0
11.370276 -1.909165 1.029548 11.575321 -0.166357 1.481735 0.012524 -0.007542 102521.000000 1 0 0
0.552076 -4.168965 -2.046852 4.677035 -1.439137 2.023767 0.001180 -0.001454 -1228450.000000 1 0 0
1.181376 -7.564065 -11.475652 13.794974 -1.415865 2.553269 -0.001446 0.000802 -455266.000000 1 0 0
-4.555424 4.067335 -10.086552 11.791252 -0.728854 2.597170 0.006050 -0.007787 118142.000000 1 0 0
-0.993524 5.930335 -2.052252 6.353558 -1.404805 1.899703 0.007199 -0.005939 -2579300.000000 1 0 0
-11.377124 1.617135 -3.939552 12.148010 -0.141193 1.901064 0.000793 -0.003396 -553042.000000 1 0 0
-1.799124 -11.206165 4.265348 12.124693 1.411607 1.211313 0.011050 -0.000647 -27842.100000 1 0 0
-3.510724 -5.580565 -9.655452 11.691691 1.009255 2.542484 0.004311 -0.001578 -646133.000000 1 0 0
-12.828824 -3.828065 -8.418252 15.814543 0.289984 2.132124 0.015394 -0.001874 -464025.000000 1 0 0
11.337476 4.432835 0.389048 12.179480 0.372715 1.538848 0.005633 0.000588 -87921.300000 1 0 0
-8.850124 -2.383165 -3.000652 9.644070 0.263041 1.887188 0.004533 -0.005514 -80048.600000 1 0 0
-2.598624 -6.063365 -6.312452 9.130405 1.165899 2.334174 0.003926 -0.002568 2331.100000 1 0 0
-0.087424 2.812935 -1.931552 3.413376 -1.539727 2.172293 0.004826 -0.004921 455580.000000 1 0 0
8.089476 6.033835 -5.230952 11.367042 0.640864 2.049001 0.000486 -0.001684 -819584.000000 1 0 0
-9.757724 -1.027765 -1.041252 9.866797 0.104941 1.676524 -0.001198 -0.003234 91151.300000 1 0 0
6.203776 0.479035 -8.860252 10.826836 0.077064 2.529348 0.003444 0.000438 645441.000000 1 0 0
-4.078524 2.526135 7.874048 9.220431 -0.554544 0.547212 0.001926 -0.002716 -1436710.000000 1 0 0
-10.184624 -3.431065 1.469948 10.847098 0.324945 1.434863 0.001406 -0.002894 3479640.000000 1 0 0
-1.836924 -8.128765 -7.749952 11.380372 1.348551 2.319914 0.002658 -0.002879 -138700.000000 1 0 0
-9.473424 -9.770765 4.237248 14.253697 0.800848 1.268960 0.009104 -0.001157 53032.500000 1 0 0
-1.083624 -10.658865 7.367948 13.002781 1.469480 0.968369 0.003837 -0.002412 777264.000000 1 0 0
9.394176 3.753535 -3.817052 10.812467 0.380127 1.931597 0.000914 -0.000774 -760617.000000 1 0 0
12.911076 -0.873365 2.983348 13.280023 -0.067542 1.344213 0.017928 -0.004303 499769.000000 1 0 0
6.605276 11.904435 -6.800152 15.217993 1.064231 2.034037 0.010308 -0.005005 -319671.000000 1 0 0
-11.808324 -0.197165 -6.550052 13.504761 0.016696 2.077180 0.002391 -0.004176 527083.000000 1 0 0
-7.603224 -6.566565 -11.417752 15.208348 0.712368 2.420001 0.005122 -0.001318 -1620670.000000 1 0 0
4.090676 6.092035 6.532148 9.824229 0.979469 0.843434 -0.003261 0.002032 -3108880.000000 1 0 0
-4.361624 -1.303865 -7.415152 8.701052 0.290484 2.590997 0.007811 -0.011396 -1645410.000000 1 0 0
9.655276 9.323135 0.760848 13.443366 0.767899 1.514170 0.009022 -0.000604 -1788320.000000 1 0 0
-8.988724 3.931035 4.824648 10.932860 -0.412267 1.113752 -0.001329 -0.005844 693403.000000 1 0 0
-7.110124 7.896235 -12.075852 16.085105 -0.837735 2.419989 0.007809 -0.009629 -1158130.000000 1 0 0
11.126776 -3.680865 7.118548 13.712317 -0.319479 1.024957 0.021449 -0.005767 1287100.000000 1 0 0
11.776076 6.858035 6.404248 15.057324 0.527356 1.131476 0.009361 -0.002811 159303.000000 1 0 0
-9.959324 -0.642565 -14.679252 17.750534 0.064430 2.544503 0.006930 -0.003605 -13264.000000 1 0 0
1.702076 -13.026765 12.069148 17.839787 -1.440872 0.827756 0.000091 -0.001874 62869.400000 1 0 0
2.968476 3.000735 13.040348 13.706456 0.790802 0.313040 0.001354 -0.006230 -663495.000000 1 0 0
-2.500624 -1.373365 11.031348 11.394292 0.502236 0.253076 0.006379 -0.002265 -180564.000000 1 0 0
2.479376 -10.096065 -8.317252 13.313696 -1.329983 2.245561 -0.004830 -0.000635 -1052280.000000 1 0 0
13.977376 3.678535 -7.480052 16.274207 0.257342 2.048371 0.022964 -0.001762 -2908820.000000 1 0 0
7.288176 -1.588865 5.023348 8.993110 -0.214647 0.978127 0.004509 -0.002260 639049.000000 1 0 0
-1.215024 8.723435 10.140248 13.431278 -1.432404 0.715184 0.007049 -0.001635 86064.400000 1 0 0
-12.291924 -4.725865 0.989948 13.206256 0.367046 1.495765 0.002581 -0.003603 200176.000000 1 0 0
-4.926624 4.842135 -5.309652 8.712652 -0.776749 2.226123 0.006238 -0.005823 -86025.600000 1 0 0
-11.225924 0.334935 2.000048 11.407618 -0.029827 1.394560 -0.004639 -0.001197 -2417700.000000 1 0 0
-1.313324 2.195935 -4.042852 4.784517 -1.031797 2.577336 0.007672 -0.006923 806745.000000 1 0 0
3.234276 -9.801465 13.095248 16.673775 -1.252068 0.667487 -0.004593 -0.004631 -2234850.000000 1 0 0
8.955176 4.622935 -1.492752 10.187984 0.476548 1.717847 0.001605 -0.002227 -1527170.000000 1 0 0
4.022276 2.355635 3.738148 5.975071 0.529799 0.894865 -0.001688 0.001362 -233802.000000 1 0 0
-5.493724 -3.204365 7.527148 9.854284 0.528033 0.701546 0.000513 -0.003812 152048.000000 1 0 0
1.752476 -5.824965 7.723448 9.831228 -1.278554 0.667125 -0.002152 -0.003295 -1022690.000000 1 0 0
-5.780924 -6.317965 -9.658052 12.907894 0.829757 2.416184 0.007449 -0.002381 -1271330.000000 1 0 0
-11.697924 -5.722765 5.602148 14.176584 0.454980 1.164544 0.016547 -0.007043 -2430130.000000 1 0 0
10.508676 6.216635 4.445548 12.993911 0.534199 1.221618 0.003801 -0.000566 -407663.000000 1 0 0
1.404776 -3.689565 0.338448 3.962428 -1.207000 1.485278 0.005476 -0.000888 -1398370.000000 1 0 0
8.738576 4.305435 6.840448 11.903412 0.457785 0.958604 -0.000301 0.001611 -14730.500000 1 0 0
-8.022824 12.075335 3.485048 14.910566 -0.984366 1.334884 0.001181 -0.006007 40710.900000 1 0 0
-6.251824 13.064935 -6.882152 16.035643 -1.124480 2.014379 0.020346 -0.003883 237146.000000 1 0 0
4.452476 -6.911865 -0.877252 8.268494 -0.998524 1.677092 0.002651 -0.004996 -880715.000000 1 0 0
-1.906524 -8.124765 11.034948 13.835343 1.340310 0.647505 0.001984 -0.006751 -740889.000000 1 0 0
11.566676 8.795935 -5.812452 15.650593 0.650159 1.951300 0.023191 -0.009557 292818.000000 1 0 0
-3.366024 -2.974765 -1.924652 4.887088 0.723771 1.975584 0.004722 -0.004727 -2087860.000000 1 0 0
-2.063824 6.012235 4.764948 7.944248 -1.240129 0.927547 0.002184 -0.001430 674258.000000 1 0 0
0.365176 -11.377765 -5.713952 12.737195 -1.538712 2.035999 -0.001731 -0.005658 92019.400000 1 0 0
-8.872124 6.222835 -1.481052 10.937631 -0.611659 1.706622 0.000825 -0.001749 216280.000000 1 0 0
2.845976 0.033135 3.915748 4.840843 0.011642 0.628521 -0.001189 0.002124 53644.300000 1 0 0
-10.147824 3.916135 -1.021852 10.925138 -0.368300 1.664465 -0.000748 -0.000849 -58887.900000 1 0 0
6.498476 5.523435 13.466448 15.940005 0.704470 0.564566 0.016312 -0.000921 -833985.000000 1 0 0
-8.744924 -1.623565 5.621248 10.521791 0.183568 1.007178 -0.000811 -0.004439 -238264.000000 1 0 0
12.984276 -1.810865 -1.446352 13.189488 -0.138572 1.680677 0.014236 -0.004856 -1772660.000000 1 0 0
4.951476 -5.647565 5.559948 9.344791 -0.850979 0.933558 0.002539 -0.005808 451016.000000 1 0 0
-8.980624 -1.246765 3.156648 9.600545 0.137947 1.235765 -0.003468 -0.003626 759765.000000 1 0 0
2.005676 5.452435 5.596348 8.066653 1.218309 0.804095 -0.001073 0.000809 -1484520.000000 1 0 0
9.270276 3.159535 -7.493752 12.331950 0.328477 2.223919 0.004274 -0.001463 -2310150.000000 1 0 0
2.299676 -2.259165 -1.501752 3.556346 -0.776512 2.006749 0.004000 -0.002871 150374.000000 1 0 0
-6.260324 0.374535 -3.986752 7.431428 -0.059756 2.137047 0.001829 -0.003137 -1972660.000000 1 0 0
-3.997724 4.152235 5.061548 7.670862 -0.804354 0.850189 0.002185 -0.002463 363767.000000 1 0 0
-6.427124 1.747335 -12.306052 13.992856 -0.265453 2.645507 0.003734 -0.007996 -2411200.000000 1 0 0
-0.141624 3.068635 6.368848 7.070983 -1.524677 0.449414 0.000431 -0.000777 1114540.000000 1 0 0
-8.761524 9.414835 -2.113552 13.033439 -0.821326 1.733679 0.003732 -0.000166 628563.000000 1 0 0
-1.354524 -3.704465 -6.164352 7.318267 1.220251 2.572377 0.001584 -0.003339 515109.000000 1 0 0
-3.318024 7.005335 -2.985952 8.306619 -1.128456 1.938493 0.006784 -0.003820 950955.000000 1 0 0
7.062876 -0.393965 -4.384252 8.322325 -0.055722 2.125635 0.003190 -0.000792 -181120.000000 1 0 0
-5.133424 -10.811065 6.970548 13.849899 1.127486 1.043392 0.005081 0.000550 721271.000000 1 0 0
9.663276 8.371835 -1.519352 12.875362 0.713913 1.689077 0.000712 0.000463 5267.980000 1 0 0
13.725076 4.587435 -4.412152 15.129089 0.322564 1.866731 0.008659 -0.002787 771795.000000 1 0 0
4.766876 1.071835 -6.848852 8.413008 0.221172 2.521938 -0.001971 -0.000827 -1212330.000000 1 0 0
9.115876 -4.755365 3.317748 10.803710 -0.480823 1.258659 0.010422 -0.007477 -423207.000000 1 0 0
-8.646424 -3.382565 -0.729952 9.313175 0.372906 1.649255 0.004985 -0.003380 451574.000000 1 0 0
-8.596024 -4.297165 -10.370052 14.138431 0.463569 2.394203 0.001623 -0.005225 -530926.000000 1 0 0
10.602676 -1.172065 10.753648 15.146994 -0.110097 0.781365 0.025741 -0.005559 451071.000000 1 0 0
2.189776 -11.521365 9.976548 15.397028 -1.382974 0.865903 -0.004461 -0.006809 121956.000000 1 0 0
-6.431624 -10.446465 2.154248 12.455328 1.018931 1.396964 0.014136 -0.000712 -639994.000000 1 0 0
-3.826424 -1.009265 6.983848 8.027096 0.257889 0.515525 0.003479 0.002835 529480.000000 1 0 0
4.807176 -7.588565 3.930848 9.805449 -1.006125 1.158315 -0.001356 -0.003499 434616.000000 1 0 0
11.680476 -9.500665 -5.390252 15.992216 -0.682846 1.914583 0.034952 -0.008839 136677.000000 1 0 0
11.362176 1.192835 11.432048 16.162104 0.104600 0.785073 0.043558 -0.005507 -364754.000000 1 0 0
-10.145524 -3.555565 4.375348 11.606781 0.337081 1.184279 0.009704 -0.003290 2277280.000000 1 0 0
2.000176 8.744235 8.982548 12.694429 1.345923 0.784704 0.002285 0.001994 -188818.000000 1 0 0
6.625276 8.823735 4.122348 11.779063 0.926753 1.213255 0.003664 -0.001042 -700578.000000 1 0 0
-4.362224 3.618535 0.396548 5.681553 -0.692481 1.500944 0.004222 -0.005791 -318330.000000 1 0 0
4.891776 7.070235 4.255948 9.593268 0.965539 1.111141 0.001086 0.001858 -1244910.000000 1 0 0
-8.335824 13.227235 1.196548 15.680480 -1.008465 1.494414 0.003959 -0.002337 -1143810.000000 1 0 0
8.859276 8.223835 -9.094752 15.127219 0.748218 2.215820 0.009187 -0.006373 -453361.000000 1 0 0
7.060976 1.929535 6.050348 9.496694 0.266755 0.880066 -0.000382 0.000789 -912547.000000 1 0 0
11.613776 -6.157965 2.980648 13.479042 -0.487538 1.347821 0.020111 -0.007481 -290582.000000 1 0 0
11.350476 4.619235 -2.166552 12.444460 0.386495 1.745786 0.004386 0.000653 -1226600.000000 1 0 0
-4.017724 14.177635 -5.944552 15.889781 -1.294652 1.954235 0.002636 0.000887 -1270820.000000 1 0 0
7.229876 -3.068965 7.024748 10.537397 -0.401433 0.841092 0.003856 -0.004167 -798475.000000 1 0 0
-8.012924 -0.572965 0.864548 8.079770 0.071384 1.463590 -0.001116 -0.003192 130171.000000 1 0 0
-3.317224 1.105635 10.872648 11.421072 -0.321722 0.311152 0.004186 -0.002286 -363892.000000 1 0 0
7.133876 -1.227765 -1.980452 7.504784 -0.170434 1.837851 0.007689 -0.002913 -1237650.000000 1 0 0
-7.823324 5.310535 2.958948 9.907652 -0.596361 1.267516 0.000097 -0.001852 822451.000000 1 0 0
9.442876 -2.169165 2.729148 10.065855 -0.225797 1.296230 0.009246 -0.005947 -1130280.000000 1 0 0
0.218476 3.421035 1.550048 3.762162 1.507020 1.146137 0.002176 -0.001284 -2482740.000000 1 0 0
-7.476624 -3.076065 3.951648 8.998756 0.390316 1.116163 -0.002441 -0.002088 -510927.000000 1 0 0
-2.293424 8.389335 -6.767752 11.020127 -1.303943 2.232075 0.003288 -0.004877 -473398.000000 1 0 0
4.443276 9.763535 7.405448 13.034952 1.143719 0.966574 0.002386 0.003220 1437870.000000 1 0 0
-11.762124 -3.050765 6.788148 13.918825 0.253780 1.061348 0.018707 -0.008832 -2979040.000000 1 0 0
-4.758124 2.347935 -5.744252 7.819781 -0.458400 2.395843 0.007302 -0.009880 -1327790.000000 1 0 0
-2.756524 2.931035 -1.882352 4.442144 -0.816071 2.008376 0.006294 -0.004697 268934.000000 1 0 0
2.459576 5.100835 11.495648 12.814755 1.121497 0.457718 0.001804 -0.005419 537753.000000 1 0 0
-0.730424 1.697035 4.492448 4.857524 -1.164351 0.390173 0.003529 -0.001893 -77629.100000 1 0 0
5.151676 1.558935 7.753148 9.438292 0.293847 0.606836 -0.001054 -0.000748 -91195.600000 1 0 0
3.426376 -8.021765 1.917848 8.931232 -1.167119 1.354376 -0.000264 -0.002825 3692420.000000 1 0 0
5.130476 6.406735 -4.723652 9.470001 0.895571 2.093012 0.001710 -0.002519 -1971090.000000 1 0 0
-4.043624 2.843835 -8.040452 9.438599 -0.612930 2.590340 0.010851 -0.011641 -172984.000000 1 0 0
-8.753024 -2.139365 -12.834952 15.682101 0.239715 2.529497 0.007248 -0.003583 -249053.000000 1 0 0
-7.910124 8.116235 1.288148 11.406255 -0.798258 1.457621 0.000810 -0.002251 -2314260.000000 1 0 0
7.359976 0.963335 -6.587652 9.924435 0.130148 2.296659 0.002804 0.000911 695334.000000 1 0 0
9.019276 8.906835 5.448548 13.797309 0.779126 1.164838 0.005468 -0.000355 437611.000000 1 0 0
9.392276 -1.066265 -1.448952 9.563013 -0.113042 1.722898 0.007982 -0.003977 168379.000000 1 0 0
5.344276 0.127835 4.295248 6.857608 0.023915 0.893937 -0.003043 0.001569 -1028120.000000 1 0 0
-4.161024 -7.393065 -7.880852 11.579264 1.058158 2.319378 0.008681 -0.002660 -1476890.000000 1 0 0
-2.361024 7.386335 -0.506152 7.771008 -1.261413 1.635976 0.005610 -0.004550 322221.000000 1 0 0
13.373476 -3.448165 -7.580352 15.754410 -0.252340 2.072771 0.028571 0.000209 1169530.000000 1 0 0
-4.725024 -5.054665 1.644048 7.111848 0.819092 1.337516 0.005040 -0.002429 699625.000000 1 0 0
-8.896324 1.251535 2.528948 9.333087 -0.139763 1.296400 -0.004061 -0.002756 -966655.000000 1 0 0
-1.186824 11.184035 10.085248 15.106403 -1.465074 0.839797 0.007314 -0.004749 159375.000000 1 0 0
-8.483524 0.359235 7.351848 11.231603 -0.042320 0.857185 -0.001862 -0.004632 -1120860.000000 1 0 0
-6.207424 12.869135 -2.052652 14.434685 -1.121368 1.713483 0.004418 0.000984 195430.000000 1 0 0
-13.091524 -0.774965 3.225948 13.505381 0.059127 1.329601 0.004813 -0.004883 512590.000000 1 0 0
-6.795024 12.727435 8.534548 16.763009 -1.080407 1.036623 0.019616 -0.015235 1473620.000000 1 0 0
-8.028424 0.851035 -13.959452 16.125947 -0.105608 2.617247 0.001957 -0.005943 -446098.000000 1 0 0
7.228076 2.889735 3.694048 8.616359 0.380328 1.127715 0.000124 -0.000005 -390336.000000 1 0 0
-1.683324 0.686435 -1.932752 2.653357 -0.387200 2.386806 0.004269 -0.004825 548213.000000 1 0 0
-6.246324 9.607535 -10.364952 15.451651 -0.994317 2.306082 0.006095 -0.005692 -90892.100000 1 0 0
-10.235724 13.654335 5.278348 17.862583 -0.927531 1.270820 0.002577 -0.005473 294057.000000 1 0 0
-5.774024 8.167235 2.452648 10.298474 -0.955405 1.330329 0.000516 -0.002597 -1750910.000000 1 0 0
-2.338124 -10.820165 -1.138152 11.128261 1.357979 1.673251 0.008606 -0.002405 -134483.000000 1 0 0
-2.210824 -12.462265 8.861848 15.450830 1.395221 0.959961 0.003457 -0.002562 396375.000000 1 0 0
-14.688824 -6.480065 -1.653952 16.139652 0.415475 1.673454 0.002550 -0.004693 181081.000000 1 0 0
-2.770324 -9.293965 3.394148 10.274859 1.281104 1.234138 0.006870 -0.001696 -505857.000000 1 0 0
4.757576 -2.616365 7.485648 9.247422 -0.502795 0.627522 0.000940 -0.001940 -1575830.000000 1 0 0
-14.873624 -1.340365 -0.359852 14.938232 0.089874 1.594888 -0.004069 -0.007323 -221038.000000 1 0 0
5.520676 8.736135 -2.806352 10.708573 1.007225 1.835959 0.006801 -0.003349 -772776.000000 1 0 0
-5.610024 -5.671065 8.566748 11.705662 0.790809 0.749769 0.002691 -0.004798 -3325800.000000 1 0 0
3.520276 3.594935 7.014548 8.632484 0.795891 0.622238 -0.004090 -0.000072 717500.000000 1 0 0
3.379576 2.413235 9.405948 10.281882 0.620103 0.415764 -0.001637 -0.004452 1345290.000000 1 0 0
9.847676 -3.219865 5.058448 11.529620 -0.316010 1.116606 0.019985 -0.007883 -445774.000000 1 0 0
6.539276 9.990235 -5.017352 12.951476 0.991217 1.968602 0.001173 -0.003848 688562.000000 1 0 0
-4.588024 12.031735 -8.428752 15.390142 -1.206490 2.150376 0.001899 -0.003019 -1523220.000000 1 0 0
-3.253224 -7.240565 2.087048 8.207620 1.148520 1.313691 0.006450 -0.000428 1361250.000000 1 0 0
-7.445024 -4.066265 1.269748 8.577596 0.499900 1.422220 0.003650 -0.004299 3180080.000000 1 0 0
-2.007724 -4.081965 -10.960652 11.867151 1.113688 2.748197 0.009708 -0.004794 -298944.000000 1 0 0
-5.255024 8.239335 -4.485352 10.752688 -1.003047 2.001090 0.007375 -0.005941 -949038.000000 1 0 0
-10.938524 -3.312065 -10.143352 15.280991 0.294014 2.296670 0.011019 -0.002021 -922931.000000 1 0 0
4.626476 -11.306565 -7.835152 14.513177 -1.182397 2.141073 0.001608 -0.003525 -1954180.000000 1 0 0
-9.389224 -3.897965 7.256848 12.490537 0.393501 0.950855 0.003617 -0.005947 -922777.000000 1 0 0
-5.641524 -9.617565 -5.107952 12.264401 1.040299 2.000373 0.009230 -0.004524 -6478.160000 1 0 0
4.766376 4.435935 -9.543252 11.552901 0.749505 2.542856 0.000815 0.001085 -239767.000000 1 0 0
-3.350124 -7.305465 -14.100552 16.230179 1.140832 2.623542 0.001520 0.001616 93201.600000 1 0 0
0.734676 -0.866465 -8.825452 8.898264 -0.867523 3.013577 0.007129 -0.007165 796434.000000 1 0 0
-7.780324 2.211435 -2.961152 8.613496 -0.276931 1.921736 0.001361 -0.003921 -129793.000000 1 0 0
-2.347024 7.503735 -12.542752 14.803215 -1.267656 2.581676 0.007824 -0.003539 -134583.000000 1 0 0
-9.732824 8.879535 7.629448 15.224404 -0.739585 1.045889 0.002403 -0.008456 -140943.000000 1 0 0
-10.636124 -2.996765 -14.396352 18.148352 0.274634 2.486940 0.019417 0.010291 -46544.600000 1 0 0
-3.144624 4.873135 8.028748 9.904388 -0.997734 0.625577 0.003889 -0.004338 -445091.000000 1 0 0
8.795876 -2.355365 -3.583052 9.785368 -0.261642 1.945680 0.008006 -0.002363 -4304960.000000 1 0 0
1.931776 -8.392365 -1.116452 8.683894 -1.344555 1.699719 -0.001830 -0.002043 -753253.000000 1 0 0
-13.631024 -2.849965 5.119448 14.836977 0.206110 1.218508 0.026189 -0.009832 160095.000000 1 0 0
7.129676 2.705535 -2.055252 7.897864 0.362688 1.834056 0.000332 -0.001883 179603.000000 1 0 0
-11.177924 4.493235 8.876648 14.964292 -0.382207 0.935782 -0.000169 -0.007231 -2540620.000000 1 0 0
-1.775724 -2.443365 8.008448 8.559116 0.942340 0.360663 -0.000380 -0.001208 126794.000000 1 0 0
2.946376 11.867035 -9.767752 15.649812 1.327435 2.244833 0.008218 -0.012702 665711.000000 1 0 0
3.632876 -4.964165 -7.135052 9.420705 -0.939032 2.430087 -0.000221 -0.004742 641873.000000 1 0 0
7.966576 -13.979365 -9.825052 18.852602 -1.052818 2.118995 0.025846 0.000037 433021.000000 1 0 0
-6.253824 -5.810965 -0.329852 8.543210 0.748708 1.609416 0.011524 -0.005056 -228246.000000 1 0 0
-1.143824 -4.048565 9.838448 10.700200 1.295447 0.404081 0.000730 -0.002390 1263800.000000 1 0 0
2.778576 3.333035 1.762048 4.683420 0.875873 1.185071 -0.001731 0.000704 -422151.000000 1 0 0
-9.306724 13.415835 7.750748 18.074121 -0.964303 1.127598 0.012546 -0.018195 346291.000000 1 0 0
4.088176 -11.012465 -0.037252 11.746870 -1.215333 1.573968 0.001512 -0.003926 -17061.800000 1 0 0
-12.475724 -1.465365 -9.121952 15.524207 0.116922 2.198880 0.011005 -0.005302 -7034.100000 1 0 0
-4.275424 0.835435 -13.525552 14.209777 -0.192972 2.830006 0.009958 -0.005784 660150.000000 1 0 0
3.888176 -2.994065 4.969648 6.984249 -0.656206 0.779093 -0.001424 0.000178 -92154.700000 1 0 0
1.668776 -1.173765 1.113748 2.324429 -0.612983 1.071111 0.001076 -0.000304 349868.000000 1 0 0
8.225376 -8.891465 7.383348 14.185513 -0.824293 1.023377 0.006963 -0.005650 -935485.000000 1 0 0
-0.053324 2.194335 -6.307352 6.678371 -1.546500 2.806697 0.006351 -0.006032 -288365.000000 1 0 0
-3.748624 -9.776765 -3.218652 10.954316 1.204663 1.869022 0.010187 -0.002250 969275.000000 1 0 0
-9.442724 2.186735 -5.385652 11.088377 -0.227567 2.077963 0.000636 -0.004098 -1294730.000000 1 0 0
9.002976 -7.499865 5.357648 12.884329 -0.694567 1.141945 0.010545 -0.006438 1150710.000000 1 0 0
-5.523824 -4.267765 4.693848 8.411817 0.657816 0.978815 -0.000518 -0.003075 -855179.000000 1 0 0
-0.185324 -12.243565 10.490548 16.124231 1.555661 0.862412 0.002064 -0.006517 -873280.000000 1 0 0
-14.149524 -8.307165 3.182448 16.713647 0.530879 1.379216 0.007793 -0.005461 -687985.000000 1 0 0
10.895076 -1.233165 -3.644052 11.554328 -0.112706 1.891658 0.014141 -0.003041 -373608.000000 1 0 0
-13.576524 2.981635 2.695048 14.158935 -0.216185 1.379285 -0.001025 -0.002955 -1211040.000000 1 0 0
-6.361024 6.101935 1.043948 8.876152 -0.764612 1.452911 0.000792 -0.002248 992142.000000 1 0 0
7.232876 -6.873065 -0.750952 10.005870 -0.759896 1.645918 0.009540 -0.009453 439396.000000 1 0 0
-7.006224 7.755735 10.047648 14.498063 -0.836128 0.805107 0.001390 -0.005530 152749.000000 1 0 0
-12.638324 -5.129365 -1.940652 13.776928 0.385546 1.712129 0.002391 -0.004565 -4048760.000000 1 0 0
-9.437924 -5.654165 0.277448 11.005497 0.539750 1.545584 0.007361 -0.002929 -394714.000000 1 0 0
-1.812624 1.827535 2.177348 3.371400 -0.789494 0.868688 0.002747 -0.001796 -166377.000000 1 0 0
-7.105824 7.334335 7.525948 12.685626 -0.801222 0.935687 0.003829 -0.005925 -85448.100000 1 0 0
5.618276 7.134935 -0.450252 9.092582 0.903766 1.620335 0.006010 -0.003088 -811129.000000 1 0 0
0.005776 -4.075365 7.435248 8.478888 -1.569379 0.501395 0.000150 -0.001580 -1276610.000000 1 0 0
6.406276 0.719435 13.043448 14.549553 0.111833 0.459026 0.014905 -0.005814 617030.000000 1 0 0
5.695876 6.076635 -7.864852 11.455321 0.817730 2.327554 -0.004380 -0.000740 -443343.000000 1 0 0
10.022876 5.294535 8.934548 14.433166 0.485988 0.903291 0.006078 -0.001542 -2500470.000000 1 0 0
-1.302824 -4.984765 -8.455452 9.901510 1.315154 2.594337 0.005578 -0.003092 567634.000000 1 0 0
10.107576 -3.606265 -7.990152 13.379490 -0.342709 2.210795 0.016306 -0.005348 710503.000000 1 0 0
7.919676 -5.715065 1.376448 9.862953 -0.625095 1.430782 0.007488 -0.008916 1079540.000000 1 0 0
15.758176 3.161935 -5.075952 16.854769 0.198024 1.876703 0.028017 0.005519 -207641.000000 1 0 0
-6.975724 3.591135 1.099948 7.922554 -0.475421 1.431509 -0.000254 -0.003783 479894.000000 1 0 0
-1.792024 3.908835 0.351648 4.314394 -1.140934 1.489200 0.005036 -0.003715 -758530.000000 1 0 0
-2.634724 9.986435 6.953648 12.450859 -1.312844 0.978235 0.002428 0.000545 1013750.000000 1 0 0
5.538576 -5.762865 -8.806452 11.892856 -0.805242 2.404584 0.004202 -0.001601 2340690.000000 1 0 0
-1.397624 -0.843865 6.213548 6.424457 0.543198 0.256944 0.003666 -0.002000 292393.000000 1 0 0
-5.707024 4.952835 -7.915652 10.943411 -0.714765 2.379403 0.005335 -0.007816 221961.000000 1 0 0
6.741176 -1.191365 2.556748 7.307514 -0.174923 1.213354 0.003828 -0.001427 -898475.000000 1 0 0
8.867276 7.587535 3.183248 12.096790 0.707781 1.304512 0.003796 -0.000107 253385.000000 1 0 0
-5.163324 -4.922065 -7.604152 10.426398 0.761481 2.388120 0.010751 -0.007576 914396.000000 1 0 0
-2.362124 7.875135 -10.019852 12.961281 -1.279388 2.454448 0.007224 -0.005203 264934.000000 1 0 0
-2.851824 -2.282265 1.603848 3.989231 0.674913 1.157048 -0.001757 0.000850 595243.000000 1 0 0
6.009076 -2.077265 -9.261452 11.233811 -0.332828 2.539985 0.004522 0.000112 1036540.000000 1 0 0
1.186976 -7.536665 5.100948 9.177685 -1.414586 0.981473 -0.001887 -0.000146 434051.000000 1 0 0
1.747776 11.731335 1.175348 11.918909 1.422901 1.472024 0.013750 -0.008306 188530.000000 1 0 0
-1.106824 6.981135 2.440348 7.477741 -1.413560 1.238359 0.003178 -0.001235 632855.000000 1 0 0
8.728176 7.866735 -6.587852 13.470945 0.733535 2.081787 0.004317 -0.002780 -326705.000000 1 0 0
3.706576 -10.889065 5.414048 12.713078 -1.242704 1.130879 0.001722 -0.001907 -1022050.000000 1 0 0
8.007776 -7.107865 12.353548 16.347978 -0.725933 0.714132 0.018142 -0.011187 688175.000000 1 0 0
-8.683524 -0.047465 -4.056652 9.584481 0.005466 2.007828 0.000202 -0.002764 -882748.000000 1 0 0
-3.162224 -4.997965 11.363848 12.810791 1.006677 0.479875 0.006987 -0.006117 1178030.000000 1 0 0
-8.162924 0.164635 -11.470052 14.079152 -0.020166 2.522979 0.001702 -0.011023 -3021540.000000 1 0 0
1.429776 -4.972365 5.345948 7.439613 -1.290805 0.769040 -0.001602 -0.000523 -543828.000000 1 0 0
6.705976 3.707535 -7.820752 10.948976 0.505044 2.366406 -0.001252 0.002084 -102186.000000 1 0 0
16.269476 4.256635 -1.384352 16.873980 0.255897 1.652929 0.015757 0.008293 -1773800.000000 1 0 0
7.930676 7.407735 0.320748 10.856935 0.751318 1.541249 0.004231 -0.000940 -2753950.000000 1 0 0
5.541576 -10.314465 13.798448 18.096807 -1.077785 0.703659 -0.003295 -0.006975 -1728.190000 1 0 0
-5.158424 -9.203565 9.048248 13.899127 1.059942 0.861903 0.000351 -0.005141 331363.000000 1 0 0
-12.583224 -3.183165 2.937348 13.307820 0.247771 1.348240 0.008018 -0.004379 -246976.000000 1 0 0
-2.188624 -1.363165 -5.833252 6.377705 0.557045 2.725393 0.007339 -0.008834 -1937100.000000 1 0 0
-2.474524 12.853035 -4.325652 13.785320 -1.380599 1.889975 0.002319 0.000412 501959.000000 1 0 0
3.990576 -0.409365 -4.994652 6.406155 -0.102225 2.464926 0.002376 -0.002238 -364674.000000 1 0 0
-8.978424 3.653435 -7.431752 12.214361 -0.386451 2.224894 0.002107 -0.006199 19179.400000 1 0 0
-4.613024 7.889835 -11.336452 14.561752 -1.041718 2.463083 0.006222 -0.004665 -529408.000000 1 0 0
-10.100024 -6.430565 7.472848 14.114040 0.566960 1.012830 0.007001 -0.004453 -1027690.000000 1 0 0
8.032076 5.369935 4.118848 10.503112 0.589313 1.167823 0.000800 0.000696 -1544430.000000 1 0 0
-6.649024 -7.479065 4.114448 10.820103 0.844082 1.180719 0.009901 -0.003162 -697947.000000 1 0 0
-4.215324 11.756835 8.014348 14.839875 -1.226532 1.000294 0.008051 -0.006450 -16003.800000 1 0 0
-7.272024 9.877235 -7.932152 14.606887 -0.936159 2.144852 0.010415 -0.008206 563353.000000 1 0 0
13.048976 5.458835 4.604648 14.875397 0.396211 1.256079 0.009732 -0.001497 -839856.000000 1 0 0
5.314376 3.988335 -3.737552 7.623562 0.643809 2.083188 0.001011 -0.001290 701571.000000 1 0 0
-2.880224 -4.060165 5.130548 7.148647 0.953799 0.770310 -0.000696 -0.001322 -1094370.000000 1 0 0
12.508276 -2.220065 -5.395152 13.801932 -0.175658 1.972404 0.015114 -0.008433 -1051810.000000 1 0 0
-5.268924 9.594235 6.923448 12.951642 -1.068586 1.006808 0.002284 -0.002623 465836.000000 1 0 0
1.711776 3.824635 -0.477852 4.217387 1.149969 1.684345 0.003340 -0.002502 373233.000000 1 0 0
-0.057724 9.582635 7.706248 12.297011 -1.564773 0.893515 0.002064 0.002576 -1440510.000000 1 0 0
-5.519824 2.030935 5.853248 8.297811 -0.352562 0.787814 0.000645 -0.004321 708857.000000 1 0 0
8.858376 0.821335 10.698548 13.914178 0.092454 0.693685 0.018698 -0.002450 359015.000000 1 0 0
0.428576 -2.968365 -10.184852 10.617254 -1.427406 2.855216 0.006543 -0.002783 -1795180.000000 1 0 0
1.169576 10.490935 -2.742552 10.906384 1.459770 1.824988 0.011020 -0.008082 1026200.000000 1 0 0
2.322976 -4.240265 11.733748 12.690820 -1.069615 0.390850 0.000920 -0.003674 279623.000000 1 0 0
6.594876 -3.061065 9.433948 11.910579 -0.434565 0.656612 0.004013 -0.002846 772302.000000 1 0 0
-10.664924 -8.159965 5.695048 14.586268 0.653109 1.169688 0.012045 -0.001989 -743021.000000 1 0 0
-2.954924 0.848635 -6.935552 7.586411 -0.279667 2.724344 0.010600 -0.008628 862896.000000 1 0 0
10.960476 2.623135 -5.114352 12.376165 0.234908 1.996808 0.010143 -0.000607 -3181200.000000 1 0 0
-1.998024 -4.134365 0.020548 4.591895 1.120620 1.566321 -0.000042 -0.001918 1140620.000000 1 0 0
-1.168524 -6.492765 -10.624652 12.506185 1.392729 2.585931 0.007841 0.000053 1104610.000000 1 0 0
0.298176 6.802835 -6.629352 9.503461 1.526993 2.342800 0.007763 -0.004976 -2662090.000000 1 0 0
2.020476 3.779735 -6.201752 7.538597 1.079888 2.536882 0.003271 -0.003482 -1107010.000000 1 0 0
1.651376 -14.651665 6.460148 16.097573 -1.458561 1.157848 0.019551 -0.007202 -196750.000000 1 0 0
-1.706024 5.378535 -10.498752 11.919016 -1.263643 2.648431 0.010024 -0.003372 277427.000000 1 0 0
13.640976 4.305835 -0.905252 14.333036 0.305756 1.633997 0.007350 0.001592 -1403400.000000 1 0 0
-2.374124 3.317535 -6.179052 7.404268 -0.949658 2.558068 0.011730 -0.008744 -380917.000000 1 0 0
5.642676 7.904435 14.088648 17.111689 0.950827 0.603534 0.015353 -0.005377 406960.000000 1 0 0
15.941976 0.673035 -5.754952 16.962283 0.042193 1.916947 0.036545 -0.000264 220071.000000 1 0 0
6.185776 -8.219665 10.536548 14.725677 -0.925660 0.773425 -0.004814 -0.000618 124230.000000 1 0 0
-0.016424 -5.848565 -6.387652 8.660720 1.567988 2.400221 0.000150 -0.002823 -898626.000000 1 0 0
8.590976 5.540535 -7.695652 12.795525 0.572799 2.216090 -0.000254 -0.000938 -431910.000000 1 0 0
-16.102524 -0.947365 5.368248 17.000202 0.058766 1.249522 0.035137 -0.014726 -75887.100000 1 0 0
-0.345924 4.030235 -12.272552 12.921996 -1.485174 2.823204 0.007998 -0.003711 499194.000000 1 0 0
-11.413824 3.728235 5.812548 13.340196 -0.315716 1.119962 -0.000964 -0.007186 55905.000000 1 0 0
5.244076 -9.445265 -9.552552 14.420978 -1.063964 2.294823 -0.001933 -0.000205 295235.000000 1 0 0
1.460876 11.146135 -11.646952 16.187093 1.440473 2.373909 0.008146 -0.005925 -1689600.000000 1 0 0
5.949176 2.386835 1.193248 6.520239 0.381544 1.386752 0.002634 0.000337 -195875.000000 1 0 0
5.622876 4.579635 4.835148 8.715988 0.683499 0.982740 -0.002986 0.000843 160452.000000 1 0 0
0.333676 -1.468265 -6.330652 6.507249 -1.347333 2.908088 0.004712 -0.003780 381832.000000 1 0 0
12.666776 6.818635 -4.645552 15.116949 0.493823 1.883159 0.007315 -0.005460 -428069.000000 1 0 0
7.470576 3.197835 12.702548 15.079469 0.404457 0.569123 0.016676 0.000918 -912224.000000 1 0 0
-2.334824 -0.078665 8.757048 9.063304 0.033679 0.260702 -0.000549 -0.002643 1905870.000000 1 0 0
2.281676 -15.217565 13.308748 20.344609 -1.421968 0.857717 0.011115 -0.003568 39841.000000 1 0 0
18.778476 4.545935 -2.003452 19.424482 0.237513 1.674121 0.008408 0.010001 199827.000000 1 0 0
-0.268424 -13.089665 7.363048 15.020848 1.550293 1.058490 0.005392 -0.004608 -1133180.000000 1 0 0
4.339076 1.656435 -0.560452 4.678190 0.364674 1.690886 0.001697 -0.002753 268285.000000 1 0 0
2.763076 -0.535265 -7.307352 7.830612 -0.191351 2.773951 0.001758 -0.002948 1434120.000000 1 0 0
7.267376 -11.194265 0.786648 13.369560 -0.994980 1.511924 0.004769 -0.005299 215859.000000 1 0 0
-11.848524 -7.423765 1.390648 14.051111 0.559718 1.471663 0.005803 -0.000442 276565.000000 1 0 0
0.125776 -6.898665 10.077648 12.213369 -1.552566 0.600360 -0.001296 -0.003475 -2930470.000000 1 0 0
-4.666324 -7.102665 10.621248 13.602696 0.989528 0.674820 0.004939 -0.004654 -1263520.000000 1 0 0
11.837776 0.723435 -1.629952 11.971342 0.061036 1.707375 0.009916 -0.001081 849931.000000 1 0 0
6.468576 -9.643765 -7.293152 13.712576 -0.979971 2.131590 -0.000354 -0.005422 -485712.000000 1 0 0
-11.050124 4.825635 3.481848 12.550509 -0.411742 1.289682 -0.004674 -0.003454 -714693.000000 1 0 0
6.126276 -8.994265 2.022148 11.068746 -0.972846 1.387075 0.004072 -0.006446 3192910.000000 1 0 0
11.592876 -1.395465 5.778848 13.028322 -0.119796 1.111229 0.022040 -0.008826 112281.000000 1 0 0
-6.487124 3.657235 4.201048 8.550260 -0.513352 1.057174 -0.000949 -0.003667 -793003.000000 1 0 0
9.574276 6.324335 -3.198252 11.911876 0.583759 1.842624 -0.000107 -0.001206 578352.000000 1 0 0
-2.240624 6.429735 10.934048 12.880811 -1.235478 0.556965 0.005791 -0.003749 482102.000000 1 0 0
1.761276 9.838935 2.941148 10.419073 1.393662 1.284621 0.003795 -0.003265 -441470.000000 1 0 0
2.856976 6.165535 -5.660652 8.844157 1.136873 2.265352 0.004109 -0.003338 -2136800.000000 1 0 0
11.785076 0.169635 -5.792052 13.132580 0.014393 2.027558 0.015409 -0.001256 249158.000000 1 0 0
-2.544324 -12.605665 6.251748 14.298977 1.371632 1.118295 0.007002 0.000394 115045.000000 1 0 0
10.743176 1.725635 -2.765852 11.226913 0.159266 1.819718 0.007198 -0.000635 -78602.000000 1 0 0
-8.974024 5.299035 0.849848 10.456344 -0.533394 1.489431 -0.001736 -0.001661 -1001840.000000 1 0 0
1.230276 -10.070765 5.514648 11.547521 -1.449236 1.072919 -0.000614 -0.002394 -574746.000000 1 0 0
9.556376 -5.585365 -0.840052 11.100735 -0.528918 1.646544 0.012351 -0.007125 1790850.000000 1 0 0
-7.815224 8.547835 -4.465752 12.413144 -0.830141 1.938807 0.007644 -0.005374 -492702.000000 1 0 0
-7.461824 -0.062065 -1.672452 7.647207 0.008317 1.791279 0.000777 -0.002748 -1085240.000000 1 0 0
4.119676 8.945735 2.810348 10.241873 1.139230 1.292833 0.007594 -0.003964 1503150.000000 1 0 0
-1.257124 -10.513065 -3.679152 11.208972 1.451784 1.905228 0.005637 -0.002508 182350.000000 1 0 0
3.249876 7.844035 -3.711552 9.266401 1.178013 1.982901 0.007333 -0.005336 -688459.000000 1 0 0
-4.274924 1.626035 -11.085952 11.992385 -0.363467 2.750298 0.009286 -0.009232 -460779.000000 1 0 0
1.252476 2.723535 11.083548 11.481785 1.139764 0.264146 0.001174 -0.004083 546094.000000 1 0 0
2.117976 5.530635 -8.079352 10.017468 1.205071 2.509049 0.004788 -0.001936 370529.000000 1 0 0
15.422276 6.072635 3.937048 17.035957 0.375113 1.337586 0.014984 -0.002908 -478882.000000 1 0 0
-4.473324 8.971735 4.555448 11.011574 -1.108268 1.144286 0.004201 -0.000157 248432.000000 1 0 0
-1.062224 -8.190865 -12.465752 14.953714 1.441832 2.556430 0.002720 0.003824 -696059.000000 1 0 0
14.231476 -4.253065 -5.267852 15.759877 -0.290401 1.911613 0.031342 -0.000592 835773.000000 1 0 0
-5.963524 -6.247365 -5.578052 10.281432 0.808639 2.144250 0.009614 -0.004181 646707.000000 1 0 0
-8.929124 2.589635 -12.118652 15.274069 -0.282277 2.487193 0.003829 -0.010784 -1051580.000000 1 0 0
10.596976 5.431935 13.591848 18.070422 0.473671 0.719463 0.038855 0.000065 590616.000000 1 0 0
-0.483924 10.864435 5.518848 12.195401 -1.526284 1.101190 0.003635 0.002323 566800.000000 1 0 0
0.386876 11.071535 -0.591552 11.094075 1.535867 1.624143 0.011520 -0.007752 -183588.000000 1 0 0
-1.569824 -0.581865 3.727748 4.086444 0.354957 0.422118 0.001171 -0.000747 653407.000000 1 0 0
-4.845324 6.713635 8.845248 12.115629 -0.945645 0.752373 0.004483 -0.003099 323921.000000 1 0 0
3.580676 -8.740065 -11.508352 14.887986 -1.181969 2.454346 -0.003172 0.004397 -37993.200000 1 0 0
6.767876 -3.761565 12.019248 14.297407 -0.507283 0.572297 0.014787 -0.004851 -310612.000000 1 0 0
-2.481624 -1.931565 -12.447952 12.839038 0.661398 2.894139 0.009481 -0.006345 1228800.000000 1 0 0
-16.159624 -4.968765 5.431348 17.757298 0.298305 1.259949 0.045998 -0.012643 1333750.000000 1 0 0
-8.995624 7.280535 5.705148 12.902564 -0.680411 1.112778 -0.003314 -0.004168 -2782350.000000 1 0 0
-12.752624 1.488735 5.928548 14.141904 -0.116213 1.138212 -0.001995 -0.007560 371688.000000 1 0 0
-3.572724 3.610435 10.253148 11.442318 -0.790648 0.459955 0.005985 -0.004698 305308.000000 1 0 0
2.138176 -12.298665 -1.187852 12.539535 -1.398663 1.665667 0.006632 -0.004712 -2059290.000000 1 0 0
10.125176 -5.292465 -3.454252 11.935712 -0.481645 1.864401 0.018293 -0.006437 936251.000000 1 0 0
3.200376 -13.456265 1.031648 13.870031 -1.337299 1.496348 0.006518 -0.003133 569943.000000 1 0 0
10.084776 -1.697065 -6.147852 11.932259 -0.166718 2.112072 0.013645 -0.001114 -209714.000000 1 0 0
12.038376 -5.365665 -1.539552 13.269630 -0.419283 1.687079 0.016264 -0.006673 511352.000000 1 0 0
1.439476 1.030235 5.966848 6.223886 0.621186 0.288395 -0.000367 -0.000615 519145.000000 1 0 0
-10.831124 11.560235 6.581748 17.154349 -0.817949 1.177020 0.006387 -0.011291 -688817.000000 1 0 0
4.758576 -13.995565 3.083648 15.100621 -1.243052 1.365143 0.007645 -0.004322 -4215910.000000 1 0 0
5.316476 -3.380865 -1.740452 6.536385 -0.566415 1.840319 0.006960 -0.004488 -1090310.000000 1 0 0
1.998676 -2.941965 -7.624952 8.413665 -0.974052 2.705143 0.001806 -0.001692 -737002.000000 1 0 0
-2.805124 14.712635 -8.780452 17.361644 -1.382397 2.101034 0.007675 -0.003153 -1557590.000000 1 0 0
-2.355924 6.036335 -8.118252 10.387191 -1.198688 2.467965 0.008900 -0.006505 -9693.030000 1 0 0
2.603976 -3.492865 -11.353352 12.160567 -0.930173 2.775185 0.004822 0.002694 -1649660.000000 1 0 0
14.596476 2.733135 -2.759152 15.104306 0.185103 1.754501 0.017393 0.005563 555761.000000 1 0 0
-3.609024 13.133235 2.167948 13.791552 -1.302615 1.412948 0.003813 -0.003092 -1158200.000000 1 0 0
7.863476 -5.026165 14.004748 16.829425 -0.568730 0.587808 0.024119 -0.016755 -2081090.000000 1 0 0
-11.435524 7.223035 2.939348 13.841359 -0.563354 1.356807 -0.008346 -0.001150 840704.000000 1 0 0
-2.360024 11.881735 4.006548 12.759223 -1.374722 1.251381 0.008199 -0.002739 770376.000000 1 0 0
1.771076 1.434735 0.661248 2.373273 0.680865 1.288436 -0.001637 -0.000574 -1383690.000000 1 0 0
-6.953624 8.617335 5.213648 12.239015 -0.891841 1.130745 -0.000699 -0.005792 -566259.000000 1 0 0
-1.300024 9.183635 0.997748 9.328704 -1.430172 1.463637 0.007687 -0.003028 135558.000000 1 0 0
4.929276 12.809935 -8.399052 16.091497 1.203461 2.119939 0.021849 -0.020739 -2529460.000000 1 0 0
8.961576 6.905935 7.129648 13.372870 0.656565 1.008485 -0.001436 0.000117 -1365030.000000 1 0 0
7.254076 -13.630765 2.772648 15.687796 -1.081734 1.393124 0.013044 -0.006129 355087.000000 1 0 0
4.341576 -13.224465 -1.287352 13.978306 -1.253584 1.663023 0.001759 -0.002111 -2918610.000000 1 0 0
12.146676 -11.703065 -4.548252 17.469690 -0.766800 1.834182 0.032647 -0.004483 -641090.000000 1 0 0
3.143176 -0.028365 -1.949452 3.698746 -0.009024 2.125931 0.002911 -0.002727 1823300.000000 1 0 0
-13.567024 -3.283065 -10.717052 17.598235 0.237424 2.225576 0.024433 -0.003276 348194.000000 1 0 0
-6.687724 13.676435 4.959948 16.011609 -1.115990 1.255843 0.008652 -0.008740 442849.000000 1 0 0
7.285876 -4.277065 -0.571552 8.467818 -0.530832 1.638345 0.006360 -0.004073 -1805010.000000 1 0 0
11.742276 2.236735 -7.272752 13.992031 0.188231 2.117388 0.019056 -0.000417 -737261.000000 1 0 0
-7.432624 -4.521165 9.838148 13.132936 0.546490 0.724063 0.007176 -0.006512 126059.000000 1 0 0
0.993876 2.662835 8.516148 8.977932 1.213570 0.322126 -0.000723 -0.004519 -1731320.000000 1 0 0
1.533276 8.076235 -8.680752 11.955415 1.383179 2.383420 0.007017 -0.005540 -865928.000000 1 0 0
-8.602324 -2.119565 -5.635052 10.499826 0.241582 2.137294 0.005608 -0.006821 -2134990.000000 1 0 0
6.702176 -0.528265 7.157148 9.819521 -0.078657 0.754127 0.003652 -0.001000 436406.000000 1 0 0
-10.971024 6.505835 7.091648 14.593860 -0.535258 1.063365 0.000047 -0.006083 1082680.000000 1 0 0
-6.064724 11.042335 4.909948 13.521155 -1.068548 1.199170 -0.000911 -0.004184 197669.000000 1 0 0
6.126076 -1.265565 -6.878652 9.297651 -0.203721 2.403609 0.002642 -0.000212 -566959.000000 1 0 0
4.536876 -5.662165 11.394048 13.508060 -0.895287 0.567030 0.001893 -0.003521 -1786630.000000 1 0 0
-8.910424 -7.237265 2.778248 11.810687 0.682151 1.333339 0.011807 -0.001977 -2615180.000000 1 0 0
-1.117124 12.677835 -9.319452 15.774272 -1.482907 2.202847 0.013135 -0.003643 910990.000000 1 0 0
-4.757024 9.169435 -2.328452 10.589122 -1.092229 1.792499 0.001216 -0.004154 476458.000000 1 0 0
-3.365124 9.691935 -0.291952 10.263669 -1.236610 1.599245 0.005997 -0.005031 -1496190.000000 1 0 0
-3.461824 10.630835 -6.404052 12.884516 -1.255986 2.090974 0.005558 -0.000531 363937.000000 1 0 0
4.815176 -4.773465 0.290848 6.786492 -0.781048 1.527926 0.004621 -0.003759 -1870060.000000 1 0 0
-2.221724 3.005435 -10.866952 11.491707 -0.934220 2.810335 0.011307 -0.005875 -1531530.000000 1 0 0
-3.619424 12.074835 -2.124752 12.783444 -1.279569 1.737783 -0.000700 -0.001101 87922.000000 1 0 0
-0.270424 0.415035 0.131448 0.512506 -0.993318 1.311416 -0.000551 -0.001286 -1449110.000000 1 0 0
-4.751224 -1.568565 0.066048 5.003888 0.318873 1.557597 -0.000009 -0.000771 190421.000000 1 0 0
2.466376 2.440135 -2.531152 4.294648 0.780050 2.201080 0.000484 -0.001815 1829220.000000 1 0 0
5.988576 -9.673465 8.400948 14.142662 -1.016471 0.934756 -0.004491 -0.001168 -207050.000000 1 0 0
-4.276124 -5.427665 6.594948 9.551865 0.903515 0.808705 -0.000050 -0.003064 -16070.200000 1 0 0
-6.309424 5.313535 -12.115752 14.657214 -0.699924 2.543848 0.003667 -0.008828 1270590.000000 1 0 0
-12.827724 2.991335 7.927948 15.373710 -0.229099 1.028993 0.002018 -0.012062 451747.000000 1 0 0
4.638476 -7.423065 -5.036552 10.098723 -1.012288 2.092931 0.002744 -0.006409 405517.000000 1 0 0
-6.071624 2.478835 -1.103252 6.650294 -0.387611 1.737462 0.002982 -0.003740 -796409.000000 1 0 0
-6.913024 -2.776365 -14.517452 16.317307 0.381897 2.667476 0.004105 -0.002535 -802536.000000 1 0 0
2.771976 -6.006365 0.982648 6.687740 -1.138415 1.423330 -0.001078 -0.002213 155640.000000 1 0 0
4.857976 -7.848165 12.912048 15.871818 -1.016527 0.620616 0.001134 -0.008954 -180517.000000 1 0 0
-9.936124 -1.658465 8.019448 12.875893 0.165388 0.898446 0.005067 -0.004605 -639293.000000 1 0 0
-4.519924 13.322535 -0.075252 14.068593 -1.243713 1.576145 -0.002121 0.000121 876568.000000 1 0 0
6.760176 2.144635 -4.582852 8.444049 0.307202 2.144482 0.000480 0.000393 -927048.000000 1 0 0
5.010576 4.476735 0.008548 6.719159 0.729189 1.569524 0.000426 -0.000819 -917752.000000 1 0 0
-5.973224 12.174635 1.863548 13.688461 -1.114674 1.434232 -0.001081 -0.003534 1840150.000000 1 0 0
6.542076 -7.339265 6.547048 11.812172 -0.842764 0.983319 -0.000620 -0.005059 -898561.000000 1 0 0
-0.292424 4.838235 7.783748 9.169556 -1.510429 0.556955 0.000324 -0.001413 -1247940.000000 1 0 0
-5.770924 -3.427865 -1.507552 6.879429 0.535988 1.791728 0.004622 -0.004842 -980727.000000 1 0 0
2.289076 -6.553665 -5.247852 8.702318 -1.234761 2.218104 -0.001556 -0.002729 -788915.000000 1 0 0
-14.477724 -4.947665 -3.758252 15.754629 0.329300 1.811668 -0.001504 -0.006567 413441.000000 1 0 0
-12.327424 -5.174865 -6.304352 14.781389 0.397445 2.011423 0.010369 -0.009047 -1716750.000000 1 0 0
-14.811124 -3.892765 -1.245552 15.364713 0.257014 1.651951 -0.002654 -0.005372 227017.000000 1 0 0
11.966976 2.823235 8.761448 15.097753 0.231683 0.951681 0.019351 -0.002727 -1282670.000000 1 0 0
8.727676 -6.363965 7.678348 13.252524 -0.630037 0.952819 0.010630 -0.007025 73975.500000 1 0 0
-8.913224 -1.658465 -9.520852 13.146965 0.183964 2.380650 0.003709 -0.006922 -314079.000000 1 0 0
-8.914024 5.018635 -3.838552 10.926162 -0.512773 1.929774 0.002370 -0.004731 -2529330.000000 1 0 0
-4.083124 -6.177065 4.111548 8.469526 0.986718 1.063916 0.004678 -0.001305 -1676030.000000 1 0 0
-0.177024 -9.252165 3.603348 9.930660 1.551665 1.199471 0.000537 -0.001470 3795.090000 1 0 0
8.029876 -10.375965 3.227648 13.511375 -0.912179 1.329580 0.006145 -0.008062 -312206.000000 1 0 0
-0.003224 6.539935 9.600048 11.616010 -1.570303 0.598024 0.000771 -0.003731 -675876.000000 1 0 0
-0.026924 3.472835 -9.685252 10.289092 -1.563044 2.797295 0.009438 -0.004677 -602439.000000 1 0 0
4.508576 -3.046365 10.984548 12.258381 -0.594218 0.459927 0.003403 -0.006530 -1375250.000000 1 0 0
8.585776 -8.976165 1.121248 12.471739 -0.807624 1.480772 0.008168 -0.007353 -874833.000000 1 0 0
-0.164924 -0.414865 11.390748 11.399494 1.192415 0.039174 0.008986 -0.003085 -1208040.000000 1 0 0
10.860176 5.969435 11.209448 16.710156 0.502584 0.835487 0.025526 0.000272 -277770.000000 1 0 0
-6.366424 -2.944965 -11.840852 13.762629 0.433264 2.606777 0.003085 -0.005533 -292217.000000 1 0 0
-1.646124 2.847435 8.665048 9.268261 -1.046630 0.362773 0.006016 -0.006052 46104.300000 1 0 0
-1.647224 13.359935 -6.798652 15.080546 -1.448120 2.038483 0.008991 -0.004500 584280.000000 1 0 0
7.788176 3.036235 9.792448 12.875032 0.371728 0.706596 0.006274 0.001024 900403.000000 1 0 0
6.490276 8.435935 -7.914052 13.263517 0.915019 2.210152 -0.000167 -0.002888 481496.000000 1 0 0
6.640576 -3.073065 -3.940152 8.310582 -0.433423 2.064752 0.006471 -0.002135 -2675150.000000 1 0 0
2.052176 8.143635 1.029348 8.461074 1.323939 1.448837 0.005676 -0.002694 941446.000000 1 0 0
-17.729924 6.187835 6.237548 19.787535 -0.335788 1.250101 0.036427 -0.015757 -760233.000000 1 0 0
-14.748624 3.163835 -10.326152 18.280076 -0.211315 2.171091 0.038997 -0.008897 -584379.000000 1 0 0
-18.275624 0.093635 -4.355652 18.787733 -0.005123 1.804760 0.039284 -0.009819 277700.000000 1 0 0
-13.125824 7.992135 0.134648 15.368136 -0.546928 1.562035 -0.002639 0.002478 -334747.000000 1 0 0
-12.525424 -4.514465 -12.718352 18.412580 0.345931 2.333312 0.024571 0.007006 218996.000000 1 0 0
-17.367524 -0.734565 -8.679452 19.429446 0.042270 2.033888 0.038258 -0.018304 659297.000000 1 0 0
-16.713424 -2.268265 -1.978552 16.982292 0.134891 1.687568 0.016390 -0.008769 1483820.000000 1 0 0
-15.331824 3.984735 1.664248 15.928361 -0.254274 1.466122 0.003921 -0.002784 -1296590.000000 1 0 0
-13.163724 5.790035 4.518348 15.073938 -0.414379 1.266370 -0.002975 -0.006796 1266570.000000 1 0 0
-10.152924 14.222435 2.777948 17.693969 -0.950824 1.413144 0.021114 -0.007820 -588361.000000 1 0 0
-11.825824 2.411535 -6.407252 13.664498 -0.201163 2.058839 0.004139 -0.002557 -199075.000000 1 0 0
-15.818524 10.500235 3.607648 19.326039 -0.586011 1.383022 0.017355 -0.014998 -926313.000000 1 0 0
-12.723124 1.057435 -8.542652 15.361411 -0.082921 2.160496 0.011019 -0.007400 598663.000000 1 0 0
-12.425224 14.250835 4.008448 19.327187 -0.853728 1.361880 0.035923 -0.017612 -277508.000000 1 0 0
-10.520624 11.128335 -1.115252 15.354711 -0.813462 1.643493 0.006184 -0.002623 391919.000000 1 0 0
-17.316724 5.518335 8.844248 20.212414 -0.308497 1.117907 0.047777 -0.017178 489726.000000 1 0 0
-11.811224 12.217435 -8.962852 19.212065 -0.802302 2.056151 0.031273 -0.024465 516150.000000 1 0 0
-17.148524 -0.587965 3.131948 17.442095 0.034273 1.390255 0.033940 -0.008240 507529.000000 1 0 0
-13.140424 14.801635 -0.869852 19.812011 -0.844780 1.614716 0.043615 -0.018852 -318174.000000 1 0 0
-16.869924 4.643835 -10.189152 20.247922 -0.268620 2.098117 0.079673 -0.014417 373945.000000 1 0 0
-12.027724 7.483735 -9.007452 16.787097 -0.556588 2.137163 0.020040 -0.009206 311473.000000 1 0 0
-14.783024 13.325135 -2.091052 20.011735 -0.733577 1.675479 0.054329 -0.023121 -190186.000000 1 0 0
-11.909524 10.530135 -5.515852 16.826917 -0.724004 1.904770 0.030376 -0.007721 1390730.000000 1 0 0
-17.710124 2.809835 -0.846052 17.951587 -0.157346 1.617943 0.043154 -0.002370 -572034.000000 1 0 0
-9.508724 15.444635 0.737448 18.152036 -1.018938 1.530159 0.027029 -0.010329 -43507.400000 1 0 0
-8.222824 13.071835 -3.645552 15.867506 -1.009291 1.802617 0.015432 -0.003559 -1274930.000000 1 0 0
-17.904224 11.314535 2.190348 21.292665 -0.563580 1.467745 0.104570 -0.015477 98249.200000 1 0 0
-8.330224 15.514135 -7.270552 19.051035 -1.078032 1.962361 0.063214 -0.018543 50207.500000 1 0 0
-6.339824 15.211335 -5.359752 17.329311 -1.175906 1.885241 0.017619 -0.002088 87515.200000 1 0 0
-17.229824 5.113035 -0.078352 17.972649 -0.288477 1.575156 0.037112 -0.003520 338376.000000 1 0 0
-5.476024 12.238135 -12.244652 18.157376 -1.150060 2.310897 -0.002183 -0.004392 135442.000000 1 0 0
-11.148524 3.692035 -11.374552 16.349347 -0.319801 2.340217 0.007151 -0.012727 98677.900000 1 0 0
-11.760824 11.056135 1.211848 16.187146 -0.754524 1.495861 0.002473 -0.004580 14392.000000 1 0 0
-12.981824 0.074635 -11.039452 17.041210 -0.005749 2.275501 0.012970 -0.010442 1363610.000000 1 0 0
-13.931624 -2.309365 -13.155752 19.300185 0.164271 2.320796 0.029747 0.002023 65258.700000 1 0 0
-18.698924 -2.355465 -3.620052 19.191216 0.125308 1.760564 0.024009 -0.009947 49770.100000 1 0 0
-18.551324 4.835635 -4.957252 19.801751 -0.254989 1.823832 0.079150 -0.007428 176896.000000 1 0 0
-8.307424 15.392635 -2.153952 17.623451 -1.075894 1.693323 0.027548 -0.005793 -340090.000000 1 0 0
-16.203624 9.070535 -5.369352 19.330338 -0.510324 1.852266 0.040167 -0.007751 -225150.000000 1 0 0
-18.151324 1.611335 2.095648 18.342811 -0.088540 1.456297 0.066415 -0.018236 -591022.000000 1 0 0
-15.615224 -2.673865 -8.563652 18.008912 0.169590 2.066355 0.012699 -0.009489 -143338.000000 1 0 0
-9.815424 10.322835 -7.237652 15.977706 -0.810589 2.040906 0.019784 -0.010006 289984.000000 1 0 0
-14.243624 11.884835 -7.795752 20.122224 -0.695366 1.968628 0.051252 -0.022022 462787.000000 1 0 0
-11.048524 6.405835 -3.779552 13.318770 -0.525427 1.858526 0.002450 -0.002938 -476105.000000 1 0 0
-13.148424 4.791835 -12.692452 18.892884 -0.349482 2.307448 0.031355 -0.017134 3592.830000 1 0 0
-17.670824 8.874135 2.603648 19.944605 -0.465399 1.439879 0.043807 -0.022055 885281.000000 1 0 0
-13.397424 8.533335 -6.471152 17.151810 -0.567138 1.957661 0.018746 -0.008576 -475075.000000 1 0 0
-15.893124 6.984335 -3.858452 17.783700 -0.414051 1.789501 0.017731 0.002017 -522845.000000 1 0 0
-14.874024 -0.382765 -9.250552 17.520155 0.025728 2.127034 0.026382 -0.013771 -381242.000000 1 0 0
-10.118724 5.704335 -6.108752 13.124209 -0.513331 2.054947 0.006659 -0.006087 190836.000000 1 0 0
-12.907024 12.115335 -0.755852 17.718463 -0.753769 1.613468 0.024585 -0.011575 -515597.000000 1 0 0
-10.542024 3.498335 -13.861252 17.762515 -0.320412 2.466046 0.001988 -0.013835 212588.000000 1 0 0
-11.124124 6.289935 -11.941952 17.490558 -0.514614 2.322338 0.012488 -0.013964 -450181.000000 1 0 0
-5.903524 11.474935 -14.823052 19.653208 -1.095639 2.425278 0.010265 -0.012229 3886.860000 1 0 0
-15.648624 13.131535 3.296248 20.692557 -0.698161 1.410818 0.037656 -0.020664 291226.000000 1 0 0
-15.132524 11.049135 -3.268452 19.019975 -0.630681 1.743497 0.045532 -0.008649 821028.000000 1 0 0
-18.248324 7.874735 -4.708352 20.425018 -0.407390 1.803407 0.046407 -0.008839 -883011.000000 1 0 0
-4.154324 16.151235 -10.618352 19.770437 -1.319040 2.137771 0.018358 -0.006142 -143848.000000 1 0 0
-15.870424 4.461635 -4.409252 17.065112 -0.274055 1.832139 0.016807 0.001323 -74587.000000 1 0 0
-18.579824 -1.942465 -6.123452 19.659087 0.104169 1.887549 0.027494 -0.010721 463214.000000 1 0 0
-10.767524 8.535835 -5.732152 14.888171 -0.670298 1.966019 0.010318 -0.004174 526473.000000 1 0 0
-11.227324 13.485335 -6.735552 18.795604 -0.876516 1.937305 0.042262 -0.014739 111574.000000 1 0 0
-9.429224 10.525435 -4.553652 14.846912 -0.840278 1.882528 0.005314 -0.000690 -40250.100000 1 0 0
-11.166724 6.267535 -0.127752 12.806016 -0.511454 1.580772 -0.004619 0.002260 300615.000000 1 0 0
-14.746324 9.302735 -1.531052 17.502545 -0.562796 1.658384 0.028449 -0.003538 -346417.000000 1 0 0
-18.625124 3.227735 4.676948 19.472734 -0.171596 1.328246 0.058459 -0.022837 456365.000000 1 0 0
-14.835824 13.399235 0.415048 19.995336 -0.734562 1.550038 0.034113 -0.006953 -151096.000000 1 0 0
-16.735824 2.283435 -8.962552 19.121434 -0.135603 2.058635 0.040040 -0.015632 290182.000000 1 0 0
-9.119024 8.337435 -9.020952 15.298595 -0.740654 2.201433 0.010938 -0.006998 -2177670.000000 1 0 0
-17.657424 4.630535 -2.611852 18.440397 -0.256468 1.712912 0.034906 -0.001705 867410.000000 1 0 0
-13.646324 5.783135 -4.287052 15.428727 -0.400843 1.852364 0.011737 0.003137 -2199200.000000 1 0 0
-12.227324 9.627135 3.361748 15.921386 -0.666977 1.358048 -0.005810 -0.003338 879934.000000 1 0 0
-17.672224 2.565935 -4.035152 18.307757 -0.144188 1.793028 0.038451 -0.004631 965728.000000 1 0 0
-11.272024 1.393335 -12.530152 16.911671 -0.122986 2.405232 0.010681 -0.008283 74625.300000 1 0 0
-11.198924 12.011935 3.463148 16.783798 -0.820411 1.362965 0.003355 -0.007282 -451075.000000 1 0 0
-16.105924 13.217135 -4.356552 21.285511 -0.687199 1.776925 0.048164 -0.017802 408085.000000 1 0 0
-11.081124 4.011635 -4.491252 12.611736 -0.347346 1.934905 0.000860 -0.002027 -877946.000000 1 0 0
-11.271624 14.749335 -8.911252 20.591328 -0.918261 2.018356 0.053184 -0.028512 196601.000000 1 0 0
-15.500624 7.131735 -0.320752 17.065576 -0.431216 1.589593 0.015156 0.000070 324631.000000 1 0 0
-12.810624 8.307035 -4.051552 15.796645 -0.575284 1.830177 0.013976 -0.000679 836187.000000 1 0 0
-19.187024 1.873335 -6.061352 20.208693 -0.097327 1.875424 0.075258 -0.015685 -149429.000000 1 0 0
-13.015324 9.853635 -8.996052 18.639253 -0.648017 2.074463 0.034285 -0.015644 929566.000000 1 0 0
-16.600524 10.927335 -0.977752 19.898242 -0.582155 1.619954 0.040915 -0.015506 59675.900000 1 0 0
-10.721324 6.656935 -14.425652 19.166664 -0.555650 2.422863 0.014840 -0.020782 -292754.000000 1 0 0
-13.522324 12.866635 -4.307352 19.156117 -0.760556 1.797591 0.038685 -0.015262 468444.000000 1 0 0
-18.107724 7.577135 -0.191852 19.630065 -0.396308 1.580570 0.070245 -0.012531 -208865.000000 1 0 0
-12.775424 6.592135 -2.052352 14.521703 -0.476367 1.712601 -0.002078 0.003994 149444.000000 1 0 0
-13.920324 8.181035 -10.742952 19.393705 -0.531330 2.157886 0.029218 -0.011167 576645.000000 1 0 0
-14.953424 1.295635 -0.949252 15.039436 -0.086429 1.633956 -0.000803 0.000435 -456636.000000 1 0 0
-13.361124 2.636035 -2.453952 13.837998 -0.194790 1.749073 -0.002787 -0.000636 -763232.000000 1 0 0
-11.426724 9.125335 -10.845352 18.206137 -0.673884 2.208930 0.021468 -0.015643 -1097410.000000 1 0 0
-15.413624 4.233735 -7.977852 17.864782 -0.268064 2.033723 0.025436 -0.007159 312639.000000 1 0 0
-18.288224 10.368035 4.526648 21.504554 -0.515744 1.358713 0.090689 -0.040416 334287.000000 1 0 0
-15.368624 6.154635 -6.225052 17.686871 -0.380909 1.930459 0.024223 0.002147 741645.000000 1 0 0
-7.702424 11.128135 -13.004552 18.769153 -0.965353 2.336256 0.008834 -0.010796 -2098830.000000 1 0 0
-17.010424 9.197235 -2.871752 19.549696 -0.495661 1.718225 0.048406 -0.011495 592575.000000 1 0 0
-20.583124 -1.090265 -4.865852 21.178531 0.052919 1.802621 0.073126 -0.020140 -452651.000000 1 0 0
-15.447124 4.261835 4.185448 16.561850 -0.269201 1.315310 0.009276 -0.009280 388.835000 1 0 0
-6.897424 12.468235 -9.417252 17.079695 -1.065500 2.154803 0.013729 -0.008617 -915351.000000 1 0 0
-17.162624 1.375835 5.920648 18.207215 -0.079994 1.239593 0.038399 -0.020119 105263.000000 1 0 0
-10.362724 14.264635 -3.022852 17.888642 -0.942530 1.740593 0.038032 -0.012968 -475896.000000 1 0 0
-10.025824 8.432535 -12.877652 18.370049 -0.699294 2.347614 -0.000411 -0.014342 -406790.000000 1 0 0
-13.674724 11.736735 2.699448 18.221856 -0.709281 1.422106 0.019105 -0.007206 -901429.000000 1 0 0
-16.668724 6.576835 1.867548 18.016350 -0.375809 1.466951 0.009704 -0.008434 737444.000000 1 0 0
-9.348224 13.071635 -8.344552 18.107691 -0.949973 2.049726 0.037128 -0.015695 122230.000000 1 0 0
-5.539824 9.747735 -12.940452 17.122012 -1.053997 2.427639 0.000214 -0.004539 -1188640.000000 1 0 0
-15.786924 1.716035 3.215648 16.202227 -0.108275 1.371000 0.005117 -0.003724 -346063.000000 1 0 0
-18.762724 -5.020965 4.564948 19.952159 0.261477 1.339957 0.062647 -0.008668 582040.000000 1 0 0
-5.231824 14.362435 -9.053452 17.765599 -1.221465 2.105523 0.003013 -0.004339 46222.000000 1 0 0
-15.485824 -0.812965 -6.757052 16.915360 0.052449 1.981727 0.018225 -0.005703 737205.000000 1 0 0
-8.977824 10.875535 -9.598552 17.059038 -0.880695 2.168404 0.010548 -0.010882 539121.000000 1 0 0
-16.630824 1.370335 -6.022952 17.740859 -0.082212 1.917177 0.009590 -0.003540 -902435.000000 1 0 0
-11.216924 8.635035 -1.556752 14.241022 -0.656067 1.680330 -0.001478 -0.000024 -373389.000000 1 0 0
-10.733924 10.878635 -12.548852 19.774618 -0.792094 2.258279 0.030007 -0.015900 -124246.000000 1 0 0
-14.095424 11.849835 -10.278852 21.089200 -0.699062 2.079905 0.053515 -0.018033 310946.000000 1 0 0
-13.280524 5.613535 -7.642452 16.318430 -0.399912 2.058199 0.018580 -0.001581 -1063450.000000 1 0 0
-8.883624 15.372135 -4.694052 18.364516 -1.046782 1.829269 0.034868 -0.010264 -165965.000000 1 0 0
-8.697224 6.094435 -12.907152 16.714617 -0.611218 2.453104 0.005778 -0.012553 -857755.000000 1 0 0
-16.469724 7.384435 4.326248 18.560661 -0.421493 1.335545 0.027166 -0.009364 669315.000000 1 0 0
-12.768924 5.357235 -10.176152 17.184279 -0.397248 2.204555 0.021796 -0.010870 202209.000000 1 0 0
-12.537924 9.237535 -13.184852 20.405193 -0.634978 2.273328 0.042849 -0.023066 -683783.000000 1 0 0
-10.849124 5.114735 -8.524452 14.714968 -0.440541 2.188672 0.009261 -0.005562 -1429600.000000 1 0 0
-17.692324 -4.534965 -2.662852 18.457384 0.250922 1.715572 0.008529 -0.005832 207961.000000 1 0 0
-8.759724 13.185835 -10.921052 19.231963 -0.984414 2.174699 0.041397 -0.014513 419436.000000 1 0 0
-15.147824 6.015835 6.205348 17.439988 -0.378040 1.207014 0.015269 -0.013590 -821171.000000 1 0 0
-16.313024 -3.185865 -4.464952 17.210470 0.192868 1.833231 0.001038 -0.006711 -179330.000000 1 0 0
-11.196824 -1.219765 -12.504652 16.829231 0.108511 2.408385 0.009179 -0.002812 354848.000000 1 0 0
-15.474724 6.816335 -8.582052 18.962624 -0.414910 2.040450 0.031569 -0.005552 219857.000000 1 0 0
-14.970224 9.369135 1.070048 17.692747 -0.559211 1.510280 0.022535 -0.007925 -363108.000000 1 0 0
-19.546324 5.062035 7.630748 21.584979 -0.253409 1.209464 0.077742 -0.029943 -240640.000000 1 0 0
-16.254924 0.377035 1.017248 16.291087 -0.023191 1.508314 0.018595 -0.005526 -401250.000000 1 0 0
-17.443924 3.655035 6.940448 19.126411 -0.206543 1.199448 0.028057 -0.020698 466260.000000 1 0 0
-15.363424 3.910635 -1.483352 15.922569 -0.249249 1.664092 0.002712 -0.000579 -747443.000000 1 0 0
-10.817424 13.309935 0.337448 17.154734 -0.888339 1.551124 0.016833 -0.012778 -897727.000000 1 0 0
-13.387124 3.296735 0.045648 13.787155 -0.241457 1.567485 -0.002512 0.000269 -372822.000000 1 0 0
-15.039824 0.135935 -4.317452 15.647849 -0.009038 1.850336 0.001292 -0.002012 445236.000000 1 0 0
-18.823024 6.640735 3.324648 20.235091 -0.339166 1.405747 0.043940 -0.014465 -71412.200000 1 0 0
-14.053424 1.331635 -6.301452 15.458987 -0.094473 1.990647 0.011692 -0.004471 -1168880.000000 1 0 0
-14.347024 11.967135 5.234548 19.402317 -0.695202 1.297622 0.019574 -0.017200 40240.100000 1 0 0
17.665676 5.637635 6.003548 19.491065 0.308913 1.257690 0.049319 -0.014110 -1168260.000000 1 0 0
18.487076 7.619435 -0.355552 19.998854 0.390936 1.588576 0.035939 -0.001355 785998.000000 1 0 0
16.585276 5.207635 8.396048 19.305037 0.304243 1.120853 0.069951 -0.010817 89785.900000 1 0 0
11.582276 12.254735 10.984248 20.124148 0.813601 0.993424 0.034352 -0.013408 767372.000000 1 0 0
-2.563824 16.056035 -0.504452 16.267265 -1.412453 1.601812 0.006664 -0.010675 -26400.200000 1 0 0
15.130576 12.595035 3.313248 19.963638 0.694201 1.404061 0.049871 -0.004999 373781.000000 1 0 0
13.419376 11.756635 6.728748 19.067621 0.719449 1.210140 0.044759 -0.005189 680309.000000 1 0 0
-0.655524 15.850035 8.536848 18.014747 -1.529462 1.077103 0.013615 -0.006633 31010.700000 1 0 0
0.688976 12.872435 9.430948 15.972384 1.517324 0.939176 0.010328 -0.001790 -1010760.000000 1 0 0
0.562976 15.356035 -3.839452 15.838754 1.534151 1.815644 0.006321 -0.007481 1336600.000000 1 0 0
5.438676 10.343635 13.614748 17.942445 1.086723 0.709326 0.024552 -0.010206 77557.900000 1 0 0
-1.444924 16.515135 -2.832052 16.818383 -1.483528 1.739993 0.009390 0.001022 -572316.000000 1 0 0
8.608176 10.137935 3.255548 13.692224 0.866822 1.330731 0.008216 -0.002063 531158.000000 1 0 0
12.576476 13.597435 -4.944952 19.170564 0.824385 1.831691 0.084915 -0.024695 142016.000000 1 0 0
2.345976 11.531935 7.740248 14.085474 1.370102 0.989007 0.009060 0.001891 393089.000000 1 0 0
-0.323024 14.884335 -8.548452 17.167522 -1.549097 2.092022 0.017441 -0.007269 -1987740.000000 1 0 0
2.338976 15.841635 0.285548 16.015922 1.424208 1.552966 0.020221 -0.017581 -677193.000000 1 0 0
1.871976 13.488535 5.102748 14.542452 1.432894 1.212279 0.013389 -0.001603 204438.000000 1 0 0
17.476876 9.315135 -2.111452 19.916605 0.489696 1.677011 0.025539 -0.002702 354581.000000 1 0 0
-7.270324 14.954335 7.234748 18.133707 -1.118275 1.160406 0.018509 -0.018049 -344780.000000 1 0 0
8.610376 15.728435 -0.118652 17.931434 1.069921 1.577413 0.026024 -0.013139 -121567.000000 1 0 0
15.617876 10.273035 2.070848 18.808022 0.581821 1.460468 0.035095 0.000190 546404.000000 1 0 0
14.198876 7.450335 8.736548 18.260417 0.483222 1.071917 0.047902 -0.006676 -968335.000000 1 0 0
4.124676 18.200635 -1.903552 18.758986 1.347938 1.672445 0.033741 -0.030553 274932.000000 1 0 0
-0.450424 17.499035 -4.860652 18.167142 -1.545062 1.841648 0.020413 -0.004527 77830.800000 1 0 0
1.290776 13.633535 -0.665752 13.710675 1.476401 1.619373 0.013389 -0.012252 169235.000000 1 0 0
10.252376 14.713335 4.222248 18.423377 0.962216 1.339562 0.018325 -0.010113 106704.000000 1 0 0
-1.827224 15.328435 -5.168252 16.279143 -1.452151 1.893864 0.007083 -0.002016 57300.100000 1 0 0
15.024776 8.803835 -6.309352 18.521861 0.530028 1.918398 0.043801 -0.019697 47680.900000 1 0 0
-2.363124 18.337635 0.779648 18.505704 -1.442635 1.528654 0.014528 -0.015011 -150184.000000 1 0 0
-3.921724 19.343435 3.482848 20.041922 -1.370766 1.396131 0.039667 -0.012237 378127.000000 1 0 0
1.678376 17.477435 -2.580752 17.746491 1.475059 1.716737 0.012638 -0.017559 -733180.000000 1 0 0
2.895876 12.190335 3.258648 12.946395 1.337564 1.316357 0.011579 -0.003414 224576.000000 1 0 0
-2.641924 16.102835 1.931048 16.431981 -1.408179 1.453006 0.013414 -0.010393 -559620.000000 1 0 0
11.937776 12.686335 -2.695652 17.627255 0.815788 1.724324 0.047871 -0.005695 429365.000000 1 0 0
7.203976 11.723735 4.678948 14.533953 1.019799 1.243027 0.006090 -0.001388 -240388.000000 1 0 0
7.179376 15.545535 2.005048 17.240282 1.138149 1.454232 0.012213 -0.012959 -762353.000000 1 0 0
5.527176 12.193935 10.129148 16.788132 1.145224 0.923099 0.017914 -0.002677 -206899.000000 1 0 0
-1.420224 14.083235 3.121548 14.494779 -1.470291 1.353739 0.012408 -0.005843 -1009520.000000 1 0 0
4.651976 15.893535 1.549748 16.632710 1.286054 1.477486 0.018843 -0.019801 -1897800.000000 1 0 0
7.292776 13.085935 11.913648 19.140566 1.062367 0.898954 0.024937 -0.013392 -87424.600000 1 0 0
0.810476 17.124635 -9.283952 19.496199 1.523504 2.067116 0.030651 -0.013401 294756.000000 1 0 0
9.936776 9.658535 15.450948 20.754725 0.771200 0.731079 0.039524 -0.010702 -118355.000000 1 0 0
13.570976 7.596935 -0.058752 15.552757 0.510331 1.574574 0.007448 0.005502 -126295.000000 1 0 0
12.442076 13.596935 -0.172752 18.431271 0.829720 1.580169 0.041234 -0.000296 323676.000000 1 0 0
9.497576 12.370035 3.513648 15.986477 0.916007 1.349198 0.012474 0.001355 -286957.000000 1 0 0
-0.781724 12.764335 0.697048 12.807233 -1.509630 1.516343 0.010055 -0.008361 795818.000000 1 0 0
15.985276 7.404735 -0.979352 17.644214 0.433795 1.626330 0.017584 0.005245 -1957410.000000 1 0 0
-4.258724 18.421035 -2.323452 19.049139 -1.343600 1.693072 0.026971 -0.007234 -122121.000000 1 0 0
11.431476 9.034635 -3.303352 14.940395 0.668817 1.793741 0.014007 -0.005510 -303669.000000 1 0 0
14.745776 9.778535 7.793548 19.333832 0.585558 1.155890 0.054303 -0.010183 602454.000000 1 0 0
4.466176 13.759135 4.668948 15.200645 1.256929 1.258595 0.012323 -0.001524 -943482.000000 1 0 0
2.165376 15.954435 5.630248 17.056745 1.435898 1.234398 0.017760 -0.001827 152070.000000 1 0 0
6.211776 18.495735 5.323748 20.224259 1.246783 1.304422 0.030463 -0.020461 285502.000000 1 0 0
10.696776 17.065335 -0.972852 20.164154 1.010894 1.619062 0.062061 -0.013023 -1348600.000000 1 0 0
10.035876 13.569635 -4.421752 17.447226 0.933995 1.827027 0.056592 -0.011237 804178.000000 1 0 0
16.702776 7.914035 2.414448 18.639856 0.442481 1.440900 0.024000 0.005698 908316.000000 1 0 0
3.951776 13.925735 -0.607052 14.488310 1.294290 1.612708 0.014053 -0.014910 206977.000000 1 0 0
5.538876 13.059035 -2.467652 14.398154 1.169653 1.743033 0.011600 -0.012055 -108463.000000 1 0 0
-6.243424 16.933935 -2.947052 18.287253 -1.217566 1.732655 0.026755 -0.001730 -1865820.000000 1 0 0
18.146276 10.009235 2.616248 20.888199 0.504060 1.445216 0.051803 -0.006437 -404622.000000 1 0 0
7.927576 12.956135 9.342248 17.832148 1.021689 1.019374 0.027529 -0.005160 125771.000000 1 0 0
-2.593624 15.637235 6.588548 17.165633 -1.406431 1.176865 0.012141 -0.010469 1871220.000000 1 0 0
11.267176 16.017835 6.283448 20.567013 0.957782 1.260321 0.045419 -0.014829 -127353.000000 1 0 0
13.525176 11.841935 1.382948 18.029818 0.719140 1.494018 0.035332 -0.004543 -375343.000000 1 0 0
17.401476 7.999335 -5.508152 19.928383 0.430885 1.850840 0.035932 0.003128 -850369.000000 1 0 0
9.430776 9.343135 7.914448 15.455491 0.780730 1.033192 0.012551 0.000287 -294414.000000 1 0 0
-2.055924 14.153435 -1.994052 14.440318 -1.426546 1.709328 0.002318 -0.005798 709940.000000 1 0 0
11.030676 11.538235 0.701148 15.978056 0.807884 1.526900 0.015934 0.000456 -184550.000000 1 0 0
11.813976 9.720135 -0.703052 15.314873 0.688469 1.616719 0.011326 0.001412 -1021190.000000 1 0 0
-0.314624 16.151835 11.038948 19.566276 -1.551320 0.971354 0.024659 -0.009017 45026.300000 1 0 0
2.081376 19.805635 -1.502952 19.971334 1.466091 1.646123 0.034049 -0.029734 -158661.000000 1 0 0
9.290576 14.279435 1.883748 17.139591 0.993981 1.460668 0.012975 -0.006650 -1120620.000000 1 0 0
8.486276 11.697235 -5.187352 15.354179 0.943164 1.915424 0.024983 -0.005061 -1346390.000000 1 0 0
10.516676 10.005435 10.169248 17.723510 0.760492 0.959693 0.010447 -0.006564 -81035.700000 1 0 0
-5.157124 15.791135 5.819948 17.601922 -1.255133 1.233812 0.008982 -0.011078 -86146.000000 1 0 0
14.364376 9.048435 -2.027252 17.097345 0.562131 1.689647 0.027609 -0.002349 -680845.000000 1 0 0
12.198076 9.561435 6.968748 16.993456 0.664814 1.148250 0.023282 -0.002847 -1392110.000000 1 0 0
3.044476 12.970735 9.787548 16.531936 1.340251 0.937210 0.013380 -0.005178 -411025.000000 1 0 0
8.519776 12.653835 -2.724352 15.496071 0.978218 1.747524 0.024933 -0.006359 -1196460.000000 1 0 0
9.504676 16.929135 2.125048 19.530753 1.059213 1.461775 0.017420 -0.008989 -105024.000000 1 0 0
9.462376 14.446535 -7.423252 18.797436 0.990919 1.976764 0.073754 -0.019530 -102839.000000 1 0 0
6.396276 11.405535 7.197148 14.926403 1.059696 1.067660 0.004833 0.000109 -689623.000000 1 0 0
5.303276 16.880035 -5.525452 18.536206 1.266387 1.873487 0.051151 -0.013310 -1027940.000000 1 0 0
-4.270424 17.279135 -4.671552 18.401859 -1.328508 1.827468 0.020584 0.002256 205749.000000 1 0 0
-0.270124 18.343735 -0.661552 18.357648 -1.556072 1.606841 0.019779 -0.021520 -1146780.000000 1 0 0
6.436476 15.596935 -2.778152 17.100021 1.179411 1.733984 0.032396 -0.011407 633835.000000 1 0 0
-0.807824 20.457435 0.780448 20.488248 -1.531329 1.532695 0.023823 -0.018188 26863.000000 1 0 0
-1.384524 18.759035 4.154048 19.263292 -1.497124 1.353443 0.019202 -0.012789 1230200.000000 1 0 0
7.187076 13.786335 -4.478252 16.179364 1.090239 1.851246 0.031819 -0.006750 179768.000000 1 0 0
-1.019024 11.926135 7.651248 14.206080 -1.485559 1.002034 0.005114 0.002400 551246.000000 1 0 0
7.650776 10.877735 10.789448 17.125177 0.957830 0.889199 0.012004 -0.005909 -49401.600000 1 0 0
1.577876 15.981035 -7.168852 17.586233 1.472381 1.990664 0.017660 -0.011645 -47432.600000 1 0 0
9.046176 7.180835 14.849148 18.812094 0.670948 0.661062 0.035343 0.000527 325391.000000 1 0 0
11.342276 11.300635 -4.841052 16.726845 0.783559 1.864415 0.052204 -0.010134 -462581.000000 1 0 0
-3.428624 17.005135 4.429748 17.903987 -1.371841 1.320783 0.014883 -0.007683 -77747.200000 1 0 0
3.914876 15.223535 -6.777052 17.117555 1.319091 1.977858 0.034800 -0.016726 -1357410.000000 1 0 0
-4.570324 13.941535 9.437748 17.444923 -1.254015 0.999168 0.022325 -0.017007 303552.000000 1 0 0
6.259676 17.440135 0.432048 18.534522 1.226194 1.547484 0.014791 -0.028261 -625951.000000 1 0 0
9.848776 10.702135 -2.196852 14.709189 0.826898 1.720710 0.018637 -0.003063 -925508.000000 1 0 0
7.316876 17.971735 -2.383252 19.549931 1.184156 1.693006 0.052200 -0.014176 -116637.000000 1 0 0
3.558276 10.393135 10.352148 15.094554 1.240937 0.815066 0.009383 -0.001210 1393050.000000 1 0 0
0.056176 18.373735 1.993248 18.481621 1.567739 1.462736 0.023771 -0.023067 232174.000000 1 0 0
-0.887424 17.132335 -7.360352 18.667598 -1.519044 1.976086 0.022544 -0.004597 2192.310000 1 0 0
10.013376 8.821935 13.017548 18.642714 0.722227 0.797826 0.026832 -0.006076 57886.400000 1 0 0
3.623176 11.457435 5.453148 13.196100 1.264518 1.144788 0.006618 -0.002496 403308.000000 1 0 0
12.909976 13.912835 8.243048 20.692566 0.822769 1.161070 0.053502 -0.019402 49128.500000 1 0 0
-0.567324 17.418635 6.693248 18.668966 -1.538238 1.204111 0.018563 -0.006497 -603276.000000 1 0 0
12.034276 13.647035 5.853348 19.113530 0.848115 1.259554 0.033837 -0.005942 21646.900000 1 0 0
4.740176 14.484435 -4.436252 15.872884 1.254522 1.854055 0.017800 -0.012587 -568999.000000 1 0 0
3.769276 17.497735 4.573448 18.474160 1.358623 1.320636 0.022371 -0.016849 -579.766000 1 0 0
7.157476 11.794435 2.032848 13.945273 1.025354 1.424502 0.012187 -0.003084 1487870.000000 1 0 0
6.327176 8.836835 11.738748 15.997532 0.949412 0.746920 0.009097 -0.004987 590483.000000 1 0 0
-5.530524 14.844235 1.799248 15.942876 -1.214157 1.457699 0.007362 -0.000177 -181935.000000 1 0 0
6.717376 13.791035 5.964048 16.458604 1.117536 1.199991 0.011293 -0.004599 -1030890.000000 1 0 0
5.935176 15.908135 4.975348 17.693195 1.213701 1.285751 0.011987 -0.013796 678735.000000 1 0 0
1.277076 17.961235 4.346648 18.523775 1.499814 1.333935 0.029762 -0.014730 -508457.000000 1 0 0
7.083876 18.193835 -6.891352 20.704774 1.199499 1.910109 0.045632 -0.015011 178067.000000 1 0 0
-2.434224 18.660835 -5.912852 19.725973 -1.441083 1.875226 0.023157 -0.003218 -2508550.000000 1 0 0
13.510076 9.869835 -4.591452 17.349848 0.630939 1.838626 0.037051 -0.014293 -1274950.000000 1 0 0
-1.557124 17.963135 9.676348 20.462907 -1.484328 1.078248 0.021049 -0.015973 -292946.000000 1 0 0
3.441876 11.696735 -1.564952 12.292648 1.284614 1.698451 0.014678 -0.011129 1040560.000000 1 0 0
4.329576 13.818135 -10.832952 18.084218 1.267159 2.213083 0.030383 -0.024678 224800.000000 1 0 0
11.636976 13.488835 2.320748 17.965348 0.858969 1.441255 0.028678 -0.003761 538718.000000 1 0 0
16.022676 6.623635 -7.281952 18.804933 0.391997 1.968428 0.031548 0.002788 193153.000000 1 0 0
2.458376 16.005235 2.906248 16.451670 1.418389 1.393211 0.021901 -0.013238 -225828.000000 1 0 0
13.449676 10.540435 3.465848 17.435787 0.664719 1.370686 0.026301 0.001608 296269.000000 1 0 0
-4.944824 19.468035 -5.876352 20.928143 -1.322059 1.855410 0.025793 -0.006168 287283.000000 1 0 0
5.564676 12.095635 0.068748 13.314456 1.139611 1.565633 0.013955 -0.009685 117947.000000 1 0 0
4.688976 15.438235 9.657048 18.803834 1.275926 1.031458 0.022343 -0.006203 -259369.000000 1 0 0
7.745576 9.401035 14.079548 18.617386 0.881647 0.713222 0.019185 -0.010605 -852265.000000 1 0 0
-5.120524 13.631435 6.972648 16.144770 -1.211464 1.124217 0.008732 -0.007572 -1541440.000000 1 0 0
-4.658124 17.122635 0.695548 17.758562 -1.305180 1.531619 0.021816 -0.005059 -373553.000000 1 0 0
-0.627024 16.472035 3.543748 16.860583 -1.532749 1.359038 0.022767 -0.013056 -1449290.000000 1 0 0
7.761076 16.947535 -4.772652 19.241399 1.141353 1.821454 0.045324 -0.017724 169715.000000 1 0 0
2.923276 16.366935 -4.559852 17.239906 1.394051 1.838476 0.010392 -0.012249 669882.000000 1 0 0
9.659076 14.460735 8.173748 19.215118 0.981904 1.131413 0.035224 -0.011511 204723.000000 1 0 0
12.744676 10.895335 9.144748 19.098730 0.707328 1.071493 0.041644 -0.014784 1073630.000000 1 0 0
3.786076 12.311035 12.129148 17.692150 1.272441 0.815415 0.026336 -0.013592 566299.000000 1 0 0
-3.271224 18.990335 5.952748 20.168514 -1.400213 1.271183 0.028401 -0.014087 144095.000000 1 0 0
-2.754124 15.686135 10.038848 18.826006 -1.396991 1.008366 0.025038 -0.021908 -8529.840000 1 0 0
2.054376 14.194935 7.597648 16.230862 1.427068 1.083658 0.017840 -0.002988 -337640.000000 1 0 0
4.515876 17.333535 7.821348 19.545282 1.315934 1.159099 0.032259 -0.008773 267397.000000 1 0 0
-1.976224 13.449435 9.299248 16.470239 -1.424903 0.970837 0.013454 -0.008025 50673.300000 1 0 0
5.934076 17.553935 3.078948 18.783871 1.244808 1.406139 0.011297 -0.022276 720352.000000 1 0 0
7.167576 15.535635 -6.840152 18.426008 1.138533 1.951122 0.031997 -0.006938 -429000.000000 1 0 0
10.974376 7.684435 9.391648 16.361251 0.610871 0.959392 0.010169 -0.003358 1263480.000000 1 0 0
9.059376 16.110135 -2.707452 18.679910 1.058528 1.716248 0.053733 -0.021849 -441452.000000 1 0 0
14.449176 11.325535 -6.649052 19.525786 0.664796 1.918273 0.081198 -0.023999 258832.000000 1 0 0
11.283876 6.452335 15.943448 20.570659 0.519440 0.683990 0.070849 -0.011117 371149.000000 1 0 0
8.412576 8.453735 10.125648 15.644993 0.787838 0.866873 0.005171 -0.006167 779543.000000 1 0 0
16.429176 9.441335 4.537748 19.484552 0.521585 1.335748 0.047625 -0.001474 45047.300000 1 0 0
-3.520324 14.288535 4.541948 15.400786 -1.329233 1.271428 0.008562 -0.003832 -1111680.000000 1 0 0
4.792776 14.769535 12.559548 19.971282 1.257013 0.890684 0.029915 -0.013884 -853206.000000 1 0 0
15.973176 10.601835 -4.589052 19.712956 0.585965 1.805746 0.058704 -0.026957 521096.000000 1 0 0
14.681476 13.999935 6.289548 21.239170 0.761640 1.270158 0.064254 -0.008750 -131538.000000 1 0 0
6.148176 9.508935 9.233948 14.611150 0.996837 0.886691 0.002716 -0.002064 512287.000000 1 0 0
10.438276 12.117735 8.707448 18.210348 0.859718 1.072239 0.031030 -0.008615 -234192.000000 1 0 0
8.006876 11.518335 -0.388252 14.033276 0.963338 1.598466 0.007154 -0.004788 -264490.000000 1 0 0
7.384076 13.638835 -8.646852 17.756983 1.074579 2.079396 0.038601 -0.010215 -836221.000000 1 0 0
2.634376 15.225635 -2.229552 15.611880 1.399470 1.714098 0.014562 -0.015248 -29714.200000 1 0 0
12.101076 14.211435 -7.725652 20.201154 0.865430 1.963228 0.087712 -0.023565 -991723.000000 1 0 0
-8.021824 14.651735 9.719348 19.325857 -1.069875 1.043823 0.035629 -0.033210 211445.000000 1 0 0
11.482476 9.368635 2.125048 14.971119 0.684365 1.428372 0.019421 0.001002 -2078700.000000 1 0 0
12.024376 8.734435 4.601748 15.558022 0.628221 1.270525 0.016273 -0.000101 -83635.100000 1 0 0
14.032676 7.978135 6.156448 17.276240 0.516966 1.206434 0.026315 -0.000586 -3412360.000000 1 0 0
16.271776 7.457635 7.218648 19.300153 0.429749 1.187456 0.067534 -0.009635 234809.000000 1 0 0
13.538276 8.185235 2.529748 16.021317 0.543795 1.412234 0.013656 0.004546 -2172400.000000 1 0 0
-4.204724 17.352135 -7.181552 19.244505 -1.333061 1.953224 0.019428 -0.006978 258007.000000 1 0 0
2.912776 19.354935 -3.939152 19.965337 1.421425 1.769399 0.035263 -0.021529 341145.000000 1 0 0
-0.082624 14.839335 6.238548 16.097583 -1.565228 1.172829 0.014003 -0.004331 58005.000000 1 0 0
6.777376 16.006335 8.392548 19.302084 1.170266 1.120980 0.030110 -0.013717 -144457.000000 1 0 0
12.954976 15.084435 -2.226352 20.008204 0.861198 1.682299 0.095346 -0.016530 770536.000000 1 0 0
12.765976 15.577135 4.262148 20.585995 0.884258 1.362247 0.050796 -0.010262 -754510.000000 1 0 0
3.140276 17.978535 1.417248 18.305672 1.397873 1.493298 0.032648 -0.023835 -614463.000000 1 0 0
10.478576 14.416635 -1.410952 17.878219 0.942284 1.649799 0.046246 -0.003442 -1300670.000000 1 0 0
-6.399324 15.760835 -0.519352 17.018372 -1.185105 1.601318 0.015556 -0.003457 -288083.000000 1 0 0
-3.982424 15.815935 -2.626452 16.519738 -1.324126 1.730463 0.014129 -0.005336 -1990630.000000 1 0 0
-6.951924 17.001435 1.717748 18.448000 -1.182639 1.477548 0.024454 -0.009411 -980363.000000 1 0 0
0.038776 19.392935 -6.513552 20.457610 1.568797 1.894830 0.037406 -0.011252 252533.000000 1 0 0
4.778376 14.865335 7.083048 17.145863 1.259784 1.144935 0.019705 -0.004915 -888724.000000 1 0 0
8.655276 12.432635 6.841348 16.621921 0.962643 1.146603 0.019812 -0.004782 -1064410.000000 1 0 0
-7.671224 17.396835 -5.670552 19.840683 -1.155489 1.860642 0.049341 -0.011845 140889.000000 1 0 0
-7.876424 17.755035 -1.215452 19.461671 -1.153264 1.633291 0.056078 -0.012143 97009.800000 1 0 0
-13.777324 -9.048065 9.289848 18.920450 0.581096 1.057565 0.059647 -0.022172 1013660.000000 1 0 0
-12.569724 -12.897165 7.796348 19.624420 0.798255 1.162248 0.049315 -0.010155 195236.000000 1 0 0
-3.853524 -15.028665 12.538548 19.948073 1.319792 0.891097 0.016191 -0.008332 436908.000000 1 0 0
-2.036324 -14.081865 15.133448 20.771779 1.427186 0.754582 0.031514 -0.001776 -1350110.000000 1 0 0
-6.757324 -13.559065 12.897048 19.895817 1.108460 0.865540 0.021796 -0.008953 187428.000000 1 0 0
-9.894924 -11.463065 9.029148 17.630567 0.858688 1.033133 0.027214 -0.010261 957870.000000 1 0 0
-10.597024 -10.322265 11.310548 18.621884 0.772265 0.918039 0.053552 -0.029891 249255.000000 1 0 0
-5.935824 -12.130165 10.834348 17.313521 1.115710 0.894673 0.018235 -0.007870 759834.000000 1 0 0
-12.508524 -10.300765 7.380648 17.805699 0.688907 1.143392 0.029852 -0.007754 -211651.000000 1 0 0
-7.599024 -11.069165 12.569648 18.392054 0.969186 0.818348 0.027682 -0.014105 257483.000000 1 0 0
-14.805524 -11.479965 7.496248 20.178872 0.659550 1.190183 0.056204 -0.006960 -328405.000000 1 0 0
-11.112024 -9.093365 9.175248 17.039705 0.685822 1.002184 0.030191 -0.013136 -1332780.000000 1 0 0
-5.176024 -11.622665 13.361448 18.450091 1.151825 0.760931 0.027269 -0.015941 -879594.000000 1 0 0
4.053676 -12.396065 14.689848 19.643990 -1.254745 0.726049 -0.007492 0.000827 -625191.000000 1 0 0
6.574576 -12.718765 14.085348 20.084548 -1.093705 0.793573 0.026320 -0.005390 -173238.000000 1 0 0
6.679276 -8.508665 16.109348 19.404154 -0.905271 0.591328 0.006935 -0.011998 188884.000000 1 0 0
0.748176 -1.782265 14.505248 14.633471 -1.173347 0.132477 0.005466 -0.007364 -3247640.000000 1 0 0
-0.087124 -6.367665 15.567048 16.819267 1.557115 0.388314 0.015092 -0.011780 -233667.000000 1 0 0
-1.541124 -4.615565 18.323348 18.958470 1.248538 0.259574 0.034197 -0.030890 -1661570.000000 1 0 0
-5.260124 12.664535 12.866348 18.804315 -1.177134 0.817258 0.021577 -0.019078 976874.000000 1 0 0
-4.004024 8.811035 11.551548 15.069997 -1.144262 0.697382 0.002614 -0.000391 -414418.000000 1 0 0
-0.747524 -3.916165 15.118348 15.635204 1.382184 0.257841 0.011340 -0.006656 347899.000000 1 0 0
-4.607724 9.192735 14.053448 17.413699 -1.106161 0.631684 0.010475 -0.012477 473846.000000 1 0 0
-13.451724 -2.550465 16.895248 21.746337 0.187377 0.681031 0.043367 -0.005322 -272957.000000 1 0 0
-0.260324 0.840135 17.223348 17.245791 -1.270318 0.051023 0.019995 -0.013731 -478664.000000 1 0 0
-3.495924 -7.329065 15.472848 17.474144 1.125722 0.483290 0.023232 -0.012077 330607.000000 1 0 0
-7.487224 5.468735 12.472548 15.541237 -0.630844 0.639247 -0.003550 -0.002698 -1779160.000000 1 0 0
-9.975724 10.322035 13.292948 19.564303 -0.802458 0.823785 0.025502 -0.016752 1963510.000000 1 0 0
-5.549324 2.259235 11.216148 12.716176 -0.386628 0.490626 0.006845 -0.004012 -2488160.000000 1 0 0
-7.303324 -7.554165 16.761348 19.782486 0.802280 0.559949 0.037583 -0.018478 106677.000000 1 0 0
-4.785024 2.733235 18.460048 19.265005 -0.518978 0.290095 0.013470 -0.014166 -796228.000000 1 0 0
1.096476 -8.353865 16.628948 18.641653 -1.440289 0.468975 0.015724 -0.010431 573652.000000 1 0 0
-15.192124 -3.513365 13.742948 20.784922 0.227267 0.848382 0.067782 -0.029521 245986.000000 1 0 0
-14.280624 2.400135 13.075148 19.510417 -0.166513 0.836369 0.022627 -0.010949 -1181710.000000 1 0 0
-5.439524 0.921235 15.999248 16.923742 -0.167768 0.332059 0.017362 -0.008011 201137.000000 1 0 0
4.622976 5.621035 15.049948 16.717323 0.882520 0.450428 0.014205 -0.003995 858455.000000 1 0 0
-1.097924 -12.043865 13.868248 18.400773 1.479887 0.717157 -0.002815 0.000281 116571.000000 1 0 0
-5.898524 -4.055065 16.875348 18.330671 0.602268 0.401164 0.030407 -0.013789 340439.000000 1 0 0
-12.930124 -1.522065 9.780548 16.283854 0.117175 0.926509 0.019420 -0.010475 -973440.000000 1 0 0
-14.692424 10.293235 10.036348 20.555931 -0.611116 1.060718 0.026764 -0.011656 439488.000000 1 0 0
-3.604324 -3.274365 17.806048 18.459902 0.737467 0.266951 0.031005 -0.018055 -2134810.000000 1 0 0
-7.976824 9.358635 11.913948 17.121797 -0.864940 0.801214 0.001015 -0.007205 -26936.100000 1 0 0
-4.311924 10.734435 16.168048 19.880306 -1.188833 0.621047 0.011106 -0.012417 247638.000000 1 0 0
-12.611624 12.765035 8.211148 19.733782 -0.791443 1.141649 0.029429 -0.021398 411754.000000 1 0 0
-12.627224 3.216035 10.516448 16.744711 -0.249388 0.891757 0.006617 -0.007463 206625.000000 1 0 0
-10.158124 -3.299465 13.632948 17.318523 0.314060 0.664559 0.021052 -0.011030 -1160430.000000 1 0 0
-4.140924 -6.410565 17.887948 19.447912 0.997271 0.403257 0.044426 -0.014966 -144746.000000 1 0 0
0.756476 -3.566065 17.890748 18.258366 -1.361763 0.201008 0.025293 -0.026292 -690595.000000 1 0 0
-6.061124 1.969835 13.698248 15.108259 -0.314227 0.435468 0.007545 -0.002029 -744166.000000 1 0 0
-10.585124 8.706935 10.210848 17.091430 -0.688348 0.930510 0.012959 -0.014200 -254009.000000 1 0 0
4.588776 2.562635 17.262248 18.044644 0.509313 0.295553 0.028106 -0.007564 -985403.000000 1 0 0
0.554576 -5.327665 13.359448 14.393277 -1.467076 0.381324 0.006155 -0.005744 -58684.300000 1 0 0
-4.438824 5.597635 20.414648 21.628558 -0.900349 0.336625 0.057720 -0.023005 -880185.000000 1 0 0
-10.796424 10.860635 8.999048 17.762293 -0.788363 1.039516 0.012523 -0.016020 724820.000000 1 0 0
0.721876 4.176535 13.117548 13.785304 1.399646 0.312525 0.012622 -0.008693 -2495840.000000 1 0 0
-3.157524 7.074435 13.333248 15.420541 -1.151000 0.526359 0.003706 -0.001140 -693646.000000 1 0 0
0.722676 8.911835 13.986848 16.600451 1.489882 0.568781 0.015145 -0.008486 182903.000000 1 0 0
-4.243624 -6.627565 13.179248 15.350099 1.001271 0.538308 0.017009 -0.008745 292671.000000 1 0 0
-5.277124 8.306935 16.481548 19.196214 -1.004848 0.538297 0.018390 -0.001894 695180.000000 1 0 0
1.741576 -10.774565 15.805948 19.208132 -1.410545 0.604339 -0.003280 0.001763 394652.000000 1 0 0
-15.105924 -0.997665 14.196948 20.754219 0.065949 0.817494 0.042832 -0.013728 8749.850000 1 0 0
-13.564624 -5.193465 8.547848 16.853392 0.365651 1.038877 0.048840 -0.015655 -472355.000000 1 0 0
-14.156724 -1.820765 12.053748 18.682100 0.127913 0.869507 0.038581 -0.020861 401671.000000 1 0 0
9.419076 1.129335 16.941248 19.416495 0.119329 0.510463 0.063180 -0.009639 241824.000000 1 0 0
5.023076 -6.664965 16.833748 18.789043 -0.924961 0.460266 0.019567 -0.023923 -589908.000000 1 0 0
-6.110624 -2.613665 11.106348 12.943027 0.404176 0.539248 0.004854 -0.002302 -11251.700000 1 0 0
0.610076 -6.151665 18.065448 19.093863 -1.471947 0.329702 0.028866 -0.025064 39382.800000 1 0 0
-8.382524 11.977335 11.965748 18.891861 -0.960161 0.884882 0.017474 -0.021835 215663.000000 1 0 0
-6.682424 -5.781265 14.885848 17.310872 0.713221 0.535697 0.029498 -0.011301 -730532.000000 1 0 0
-4.501724 -8.872965 17.318448 19.973074 1.101284 0.521466 0.049036 -0.014938 46667.300000 1 0 0
2.497176 -6.123765 16.304848 17.595012 -1.183597 0.385330 0.018699 -0.019387 1351030.000000 1 0 0
2.264276 5.270935 16.024948 17.020830 1.165055 0.343771 0.020722 -0.008112 -1823700.000000 1 0 0
1.013176 -8.812865 14.121248 16.676413 -1.456333 0.560894 0.001060 -0.003273 13848.500000 1 0 0
-9.933924 -2.683865 11.226448 15.228891 0.263872 0.741908 0.000501 -0.007607 537909.000000 1 0 0
-1.300524 10.082335 12.340648 15.988635 -1.442514 0.689068 0.008701 -0.008527 -318784.000000 1 0 0
-12.408924 -3.663965 11.335048 17.201435 0.287110 0.851362 0.035481 -0.011861 1193270.000000 1 0 0
-2.049424 6.503435 19.985348 21.116556 -1.265518 0.328801 0.041519 -0.016927 -310127.000000 1 0 0
0.374576 -13.220865 15.679548 20.512918 -1.542472 0.700726 -0.003667 -0.005669 -445919.000000 1 0 0
4.103176 -8.585265 15.256448 17.980602 -1.124958 0.557662 0.004531 -0.011620 401743.000000 1 0 0
4.447276 -4.394965 16.214148 17.377934 -0.779482 0.368050 0.030577 -0.019103 -583106.000000 1 0 0
8.108076 1.753835 14.795348 16.962286 0.213025 0.511013 0.031366 -0.001414 856065.000000 1 0 0
-6.262324 -0.043465 11.883648 13.432784 0.006941 0.485000 0.007783 -0.002580 231406.000000 1 0 0
-3.535424 -10.920565 18.735448 21.972141 1.257704 0.549681 0.070489 -0.014154 336536.000000 1 0 0
3.193176 -1.572865 13.641748 14.098495 -0.457687 0.255238 0.004347 -0.005900 71634.000000 1 0 0
-2.715624 8.806735 15.828248 18.315748 -1.271690 0.527262 0.018480 -0.004896 -458569.000000 1 0 0
-3.253824 4.073435 14.948148 15.831215 -0.896793 0.335579 0.012832 -0.002915 219149.000000 1 0 0
-4.614224 -8.911665 19.919148 22.304289 1.093031 0.466687 0.074623 -0.019895 75707.600000 1 0 0
-5.762024 -2.974765 19.195648 20.261369 0.476579 0.325780 0.037574 -0.019199 -705299.000000 1 0 0
-6.616124 -8.598465 11.129048 15.542278 0.914960 0.772669 0.015238 -0.010717 -240684.000000 1 0 0
-11.643024 2.527235 12.681648 17.400320 -0.213744 0.754204 0.010909 -0.013003 -80835.900000 1 0 0
-11.687024 -7.364065 11.509448 17.980083 0.562263 0.876139 0.043336 -0.025210 506958.000000 1 0 0
-11.183124 -7.106465 15.578648 20.451366 0.566088 0.704800 0.070756 -0.037961 -73709.200000 1 0 0
0.397876 5.649235 17.768848 18.649507 1.500482 0.308538 0.023840 -0.010595 -67475.600000 1 0 0
-2.167324 -0.100765 13.256548 13.432927 0.046459 0.162229 0.011593 -0.004079 630352.000000 1 0 0
-6.200224 -10.470565 18.478748 22.125543 1.036163 0.582341 0.092329 -0.019610 268788.000000 1 0 0
0.367676 2.604935 19.261848 19.440670 1.430577 0.135739 0.030622 -0.013233 -348504.000000 1 0 0
-0.685624 10.934935 14.789548 18.405804 -1.508178 0.637601 0.029229 -0.009229 -36578.500000 1 0 0
-12.851724 -2.314665 14.338448 19.393700 0.178195 0.738714 0.029398 -0.012449 -741468.000000 1 0 0
-13.950324 8.341235 11.659648 20.003378 -0.538892 0.948523 0.037830 -0.016344 20458.900000 1 0 0
-18.179924 -0.766665 6.895648 19.458864 0.042146 1.208555 0.088610 -0.029595 -875551.000000 1 0 0
-2.085524 -7.938365 17.525848 19.352581 1.313887 0.437986 0.037229 -0.021998 -1360730.000000 1 0 0
5.697676 2.748635 14.410848 15.738203 0.449480 0.413649 0.022083 -0.002475 -2121540.000000 1 0 0
-14.265024 -6.646965 11.075448 19.244184 0.436049 0.957554 0.071648 -0.026912 586048.000000 1 0 0
3.309176 7.598635 16.289548 18.276741 1.160069 0.470654 0.028226 -0.015709 -85514.800000 1 0 0
1.017276 2.071335 14.687348 14.867531 1.114277 0.155845 0.011073 -0.010363 -2215640.000000 1 0 0
-14.318924 0.728935 9.692548 17.306312 -0.050863 0.976340 0.025654 -0.014603 -1553740.000000 1 0 0
-9.509124 -5.049565 15.490948 18.865074 0.488157 0.607383 0.034561 -0.016893 -107816.000000 1 0 0
-2.652424 -0.040465 18.213848 18.406011 0.015255 0.144627 0.029228 -0.016247 337166.000000 1 0 0
6.988176 3.746435 17.426748 19.145807 0.492117 0.427000 0.053820 -0.008160 -102833.000000 1 0 0
-4.080624 -0.976765 14.835948 15.417877 0.234946 0.275621 0.018071 -0.004303 -918236.000000 1 0 0
4.682576 -8.950665 17.844248 20.505075 -1.088798 0.515116 0.011292 -0.012018 155062.000000 1 0 0
1.928776 6.781035 13.380748 15.124385 1.293678 0.484917 0.015755 -0.004848 -2371630.000000 1 0 0
-3.768624 -0.774265 20.368548 20.728718 0.202631 0.186687 0.042702 -0.018291 -1142720.000000 1 0 0
-10.831824 1.647535 16.264348 19.610503 -0.150944 0.592819 0.020092 -0.006791 -241941.000000 1 0 0
-4.061324 7.058735 18.363648 20.088396 -1.048690 0.417410 0.026329 -0.010275 -238143.000000 1 0 0
-12.693224 1.049235 14.527448 19.320082 -0.082474 0.719804 0.024359 -0.015189 -381245.000000 1 0 0
-16.132524 -4.603665 8.397148 18.760708 0.277977 1.106725 0.074090 -0.025498 632144.000000 1 0 0
-2.370024 0.799735 15.747548 15.944964 -0.325440 0.157523 0.019496 -0.007162 -229822.000000 1 0 0
-13.627724 -8.612565 12.573348 20.444565 0.563609 0.908414 0.063871 -0.041079 750001.000000 1 0 0
6.077376 -3.231165 14.630848 16.169003 -0.488662 0.439722 0.023472 -0.017914 766304.000000 1 0 0
-15.824424 0.090735 7.670148 17.585557 -0.005734 1.119467 0.039599 -0.021293 211389.000000 1 0 0
-14.091624 5.844635 12.356348 19.631938 -0.393165 0.890015 0.034430 -0.015386 225034.000000 1 0 0
0.368376 9.484935 16.630048 19.148321 1.531978 0.518656 0.031070 -0.019072 -257310.000000 1 0 0
-10.267624 -5.314065 10.761148 15.794483 0.477593 0.821227 0.018495 -0.017685 142673.000000 1 0 0
-3.104824 -10.932165 15.159048 18.945947 1.294075 0.643300 0.023483 -0.005782 -1665610.000000 1 0 0
-3.589924 2.717435 12.780348 13.550251 -0.647942 0.338717 0.009625 -0.003353 -2227310.000000 1 0 0
-12.401824 -7.625765 7.543248 16.396894 0.551297 1.092755 0.038117 -0.010384 185848.000000 1 0 0
-8.183024 -1.841265 13.236948 15.670639 0.221324 0.564797 0.011371 -0.002671 -387857.000000 1 0 0
-9.800824 6.449935 9.469348 15.077346 -0.582049 0.891750 0.000813 -0.007099 -526100.000000 1 0 0
-18.132424 -3.738465 6.624348 19.663238 0.203327 1.227184 0.083275 -0.022435 149255.000000 1 0 0
-1.412424 0.126435 20.599748 20.648500 -0.089278 0.068731 0.031034 -0.014130 -952692.000000 1 0 0
-2.818824 2.647735 20.165948 20.533430 -0.754111 0.189475 0.041976 -0.018738 -315246.000000 1 0 0
-3.931224 11.287435 11.076848 16.295928 -1.235652 0.823400 0.013367 -0.012928 -572918.000000 1 0 0
-4.207324 -4.753765 15.048048 16.332287 0.846302 0.399211 0.020629 -0.011080 266971.000000 1 0 0
-0.199724 -14.391065 13.332048 19.618516 1.556919 0.823627 0.003567 -0.005457 597211.000000 1 0 0
-11.979624 0.373935 8.394548 14.632828 -0.031204 0.959806 0.003236 -0.005971 -412189.000000 1 0 0
-7.728124 1.963135 15.554648 17.479270 -0.248763 0.473690 0.003047 0.002514 -1753120.000000 1 0 0
3.394176 -2.035465 18.585348 19.002071 -0.540194 0.209814 0.026963 -0.015759 4253.220000 1 0 0
-2.112824 4.792735 12.661148 13.701789 -1.155587 0.392251 0.006525 -0.003175 -136070.000000 1 0 0
-10.338324 -6.105465 13.259848 17.888019 0.533454 0.735836 0.024084 -0.021922 -933442.000000 1 0 0
2.374076 -3.819965 14.358048 15.045993 -1.014724 0.303564 0.008090 -0.006595 -373100.000000 1 0 0
6.753876 1.169835 16.883748 18.222083 0.171508 0.385650 0.039818 -0.013436 -1450520.000000 1 0 0
-1.944824 -5.821765 13.968348 15.257459 1.248391 0.414024 0.008946 -0.007606 -2235650.000000 1 0 0
-12.803124 3.635735 14.754048 19.870091 -0.276689 0.733963 0.007699 -0.004123 294636.000000 1 0 0
-13.170324 -6.147265 13.373048 19.750563 0.436697 0.826986 0.038080 -0.038050 -711071.000000 1 0 0
-9.530824 6.877035 11.850248 16.690075 -0.625048 0.781273 0.006546 -0.004738 -113242.000000 1 0 0
-1.020724 -2.435365 12.910848 13.178121 1.173912 0.201745 0.008513 -0.003404 304154.000000 1 0 0
0.137276 6.778935 15.375248 16.803900 1.550549 0.415336 0.020501 -0.007327 795852.000000 1 0 0
-16.587524 -0.589365 10.057248 19.407255 0.035516 1.026027 0.064495 -0.020359 165045.000000 1 0 0
-1.228724 2.745635 13.846448 14.169418 -1.150007 0.213918 0.009793 -0.005627 -2112340.000000 1 0 0
-11.210824 -3.311565 16.075848 19.876668 0.287222 0.628722 0.033403 -0.016739 -356540.000000 1 0 0
-5.356924 -1.403965 17.233848 18.101748 0.256319 0.310914 0.042683 -0.008080 288786.000000 1 0 0
-12.022924 6.722535 11.067548 17.670139 -0.509836 0.893945 0.018647 -0.007632 -578455.000000 1 0 0
-3.008424 4.660435 18.497948 19.311767 -0.997574 0.291343 0.038970 -0.015615 316189.000000 1 0 0
5.200876 -1.964865 16.764048 17.661911 -0.361219 0.320227 0.032443 -0.014931 122535.000000 1 0 0
-7.987424 -4.095765 12.196048 15.143244 0.473817 0.634482 0.015369 -0.008948 -1206560.000000 1 0 0
-11.707524 -0.738365 16.137748 19.950895 0.062984 0.628563 0.037406 -0.008335 365602.000000 1 0 0
2.074776 2.014535 17.437948 17.676116 0.770668 0.164343 0.015812 -0.011692 -1064090.000000 1 0 0
-8.913324 -7.444465 11.505348 16.347490 0.695843 0.790065 0.019036 -0.018369 87802.300000 1 0 0
-7.218924 6.875635 14.591448 17.671943 -0.761047 0.599382 -0.005598 -0.006011 -861740.000000 1 0 0
-5.692024 3.507235 15.790648 17.147723 -0.552222 0.400516 0.002619 -0.002240 231168.000000 1 0 0
-9.369124 4.262335 11.390248 15.352060 -0.426950 0.734843 -0.003067 -0.005967 -323717.000000 1 0 0
-10.284424 0.125735 14.147648 17.491173 -0.012225 0.628611 0.008057 -0.004230 -401289.000000 1 0 0
8.008676 -0.749865 15.703748 17.643948 -0.093359 0.473372 0.039785 -0.013107 78092.400000 1 0 0
-8.716124 -7.392265 14.717348 18.633753 0.703398 0.660278 0.046600 -0.017635 -1385820.000000 1 0 0
-0.030324 4.212735 15.664848 16.221453 -1.563598 0.262720 0.017273 -0.010825 65576.100000 1 0 0
-8.174124 3.097935 9.564648 12.957469 -0.362267 0.740462 -0.000253 -0.002172 -434768.000000 1 0 0
-2.048924 -9.627965 13.179648 16.449891 1.361115 0.641499 0.000469 -0.006785 664527.000000 1 0 0
-6.076024 10.117335 10.447148 15.761391 -1.029968 0.846202 0.012648 -0.012517 -1742120.000000 1 0 0
-8.640824 -2.625665 15.699348 18.111529 0.295001 0.522017 0.021436 -0.013445 936484.000000 1 0 0
4.297176 5.592535 17.680748 19.035520 0.915637 0.379556 0.024436 -0.010415 277047.000000 1 0 0
-6.661124 -0.959365 15.074048 16.508116 0.143041 0.419900 0.012647 -0.003363 -1058350.000000 1 0 0
-0.800724 -9.963665 15.511048 18.452870 1.490604 0.572450 0.002208 -0.002526 564368.000000 1 0 0
-4.459124 5.831935 16.094948 17.690184 -0.918014 0.427937 0.012118 -0.008051 338327.000000 1 0 0
3.768276 0.118235 17.411148 17.814656 0.031366 0.213243 0.027355 -0.014956 -341685.000000 1 0 0
1.249776 0.274935 19.206248 19.248831 0.216538 0.066529 0.015883 -0.015917 -487267.000000 1 0 0
-6.467124 6.432335 17.851548 20.046855 -0.782701 0.472373 0.006516 -0.004815 -805207.000000 1 0 0
-12.179224 0.619335 11.034848 16.446427 -0.050808 0.835297 0.014874 -0.008707 -373753.000000 1 0 0
-5.369124 5.194135 13.775748 15.670921 -0.768834 0.496900 -0.000033 -0.001094 -1494490.000000 1 0 0
-8.613824 -9.463065 9.937748 16.202049 0.832343 0.910484 0.019958 -0.012607 -351952.000000 1 0 0
6.936276 -3.788865 17.077248 18.817540 -0.499951 0.433461 0.041581 -0.018273 -71390.700000 1 0 0
-16.502224 1.983135 9.403348 19.096575 -0.119600 1.055940 0.046419 -0.025212 445322.000000 1 0 0
-4.134924 -9.436465 11.486148 15.429714 1.157810 0.731134 0.006642 -0.009426 -648210.000000 1 0 0
-11.084424 -3.750565 9.135048 14.845211 0.326271 0.907962 0.019505 -0.009252 -656860.000000 1 0 0
3.613376 -5.351265 18.569048 19.659656 -0.976883 0.334649 0.019354 -0.024322 -77500.400000 1 0 0
2.586676 -1.868065 16.141048 16.453389 -0.625462 0.195160 0.015216 -0.013980 -517697.000000 1 0 0
-3.095424 -4.338465 20.202948 20.894091 0.951078 0.257924 0.042789 -0.023719 -1020310.000000 1 0 0
-6.357124 -3.398565 14.431448 16.131645 0.490949 0.463250 0.016345 -0.003681 626839.000000 1 0 0
-9.720524 5.084235 13.818348 17.643265 -0.481910 0.670987 0.011176 -0.003943 246500.000000 1 0 0
-5.805224 -5.196465 11.792048 14.133516 0.730121 0.583876 0.005536 -0.004641 -701205.000000 1 0 0
6.201676 2.061235 19.226248 20.306602 0.320881 0.327660 0.066200 -0.017263 364707.000000 1 0 0
-2.849224 11.755735 13.389148 18.043965 -1.333013 0.734704 0.021456 -0.024717 -40680.300000 1 0 0
3.407176 1.437035 15.148648 15.593443 0.399129 0.239421 0.013232 -0.008716 -870510.000000 1 0 0
-5.702524 7.370435 12.554748 15.635338 -0.912297 0.638530 -0.007980 -0.009659 -780756.000000 1 0 0
-1.658224 -1.601165 15.355748 15.527796 0.767894 0.149000 0.017642 -0.004923 -149905.000000 1 0 0
-7.404624 10.883135 14.051048 19.253650 -0.973363 0.752787 0.028121 -0.017072 44235.700000 1 0 0
-10.244224 2.000235 10.518348 14.818256 -0.192829 0.781549 -0.003355 -0.002924 -2281080.000000 1 0 0
-13.771724 5.156835 9.093548 17.290054 -0.358289 1.016975 0.010724 -0.009697 336589.000000 1 0 0
0.394876 -4.756765 20.170248 20.727317 -1.487973 0.232367 0.037994 -0.034017 -72573.500000 1 0 0
-14.323024 -2.873665 7.565148 16.451092 0.198004 1.092962 0.036129 -0.014674 921642.000000 1 0 0
-2.212024 2.429835 17.700748 18.003156 -0.832287 0.183547 0.021906 -0.012104 -462947.000000 1 0 0
-6.360024 -8.347165 14.463048 17.869103 0.919698 0.627686 0.022014 -0.012596 -275746.000000 1 0 0
-7.995524 2.054135 11.952548 14.526228 -0.251472 0.604431 0.000602 -0.003323 -475294.000000 1 0 0
-14.676024 -3.283165 10.050848 18.088240 0.220086 0.981644 0.049626 -0.023591 547912.000000 1 0 0
-0.562024 6.916735 12.899248 14.647447 -1.489719 0.493568 0.010848 -0.006420 -2130140.000000 1 0 0
-1.811724 -2.199065 19.352848 19.561466 0.881674 0.146176 0.033881 -0.020907 -184203.000000 1 0 0
-12.857924 10.300235 7.479648 18.093264 -0.675400 1.144618 0.010544 -0.013002 -99229.600000 1 0 0
-19.468324 2.089935 6.828348 20.736678 -0.106941 1.235246 0.085878 -0.034411 -1219820.000000 1 0 0
-16.174624 8.259035 6.716348 19.363354 -0.472105 1.216577 0.024375 -0.010741 548944.000000 1 0 0
-12.415624 7.560335 13.572948 19.887969 -0.546965 0.819659 0.023589 -0.005635 529685.000000 1 0 0
-16.134524 8.169935 10.120848 20.724437 -0.468725 1.060595 0.036145 -0.012514 377272.000000 1 0 0
1.978776 10.888035 15.077748 18.703030 1.391020 0.633153 0.034767 -0.019648 722389.000000 1 0 0
2.258776 14.381435 12.784548 19.374530 1.415007 0.850159 0.026021 -0.011616 -103927.000000 1 0 0
-3.072924 13.624935 11.628848 18.174483 -1.348971 0.876500 0.009616 -0.018884 91104.600000 1 0 0
9.249776 4.847235 15.716248 18.869406 0.482693 0.586477 0.049618 0.000771 -294655.000000 1 0 0
-0.453624 12.601235 12.839348 17.995715 -1.534813 0.776363 0.017939 -0.013712 -156956.000000 1 0 0
3.965376 13.429135 14.511248 20.165371 1.283674 0.767553 0.039832 -0.021419 387702.000000 1 0 0
-2.835724 -4.055265 -13.736752 14.600851 0.960561 2.795834 0.000460 -0.004829 -312991.000000 1 0 0
6.022076 -11.433765 16.116348 20.657518 -1.086024 0.675861 0.012251 -0.012113 234465.000000 1 0 0
7.840176 -13.524765 7.215448 17.217733 -1.045444 1.138375 -0.003487 -0.007032 -104823.000000 1 0 0
-0.194824 15.425035 1.265148 15.478057 -1.558167 1.488967 0.018704 -0.012762 -2162970.000000 1 0 0
-13.640424 8.138635 9.035548 18.274017 -0.537957 1.053597 0.003200 -0.006954 813969.000000 1 0 0
-15.457324 -9.801765 4.975348 18.967276 0.565129 1.305379 0.034626 -0.009203 -515862.000000 1 0 0
9.415076 -11.115465 11.123448 18.328347 -0.868032 0.918644 0.032728 -0.011102 34012.900000 1 0 0
-5.562824 -10.697165 -16.849852 20.719360 1.091255 2.520498 0.021444 -0.002806 157396.000000 1 0 0
-1.800124 -12.676365 -14.786052 19.559090 1.429733 2.427928 0.025700 -0.002831 76935.800000 1 0 0
5.383676 -15.209165 -13.067952 20.762322 -1.230584 2.251586 0.032185 -0.011331 130538.000000 1 0 0
1.026676 -12.341865 -16.294452 20.466677 -1.487801 2.491695 0.026925 -0.001971 121485.000000 1 0 0
0.508476 -14.720065 -13.604652 20.050571 -1.536267 2.316538 0.037347 0.012048 64104.900000 1 0 0
-6.824824 -5.630965 -14.587652 17.061230 0.689842 2.596381 0.017842 -0.000693 -212708.000000 1 0 0
-6.439624 -8.173765 -17.129252 20.042217 0.903514 2.595689 0.020060 -0.006780 77160.800000 1 0 0
-2.040624 -16.259065 -12.859452 20.829951 1.445942 2.236171 0.028052 -0.012637 230630.000000 1 0 0
16.410576 -8.089665 -9.038152 20.406809 -0.457995 2.029626 0.093418 -0.007078 -60679.300000 1 0 0
19.204176 -3.840065 -3.251152 19.852366 -0.197357 1.735304 0.112859 -0.017674 146100.000000 1 0 0
15.340376 -12.326065 -8.236752 21.333145 -0.676874 1.967198 0.037861 0.014817 142781.000000 1 0 0
18.439276 -2.892865 -6.627852 19.806665 -0.155618 1.912006 0.184719 -0.000699 -172058.000000 1 0 0
9.155476 -9.835765 -15.963052 20.865858 -0.821204 2.441888 0.086360 -0.003677 287436.000000 1 0 0
-4.602424 9.869435 -16.307852 19.609541 -1.134445 2.552830 0.009598 0.004718 402018.000000 1 0 0
2.768376 -9.766865 -18.502752 21.104677 -1.294595 2.639783 0.048645 0.004056 474421.000000 1 0 0
11.135076 8.171835 -14.452852 19.991341 0.633106 2.378867 0.100232 -0.045217 409859.000000 1 0 0
18.113776 -5.885065 -7.581252 20.499225 -0.314136 1.949624 0.073245 -0.016649 55821.300000 1 0 0
12.418476 5.223435 -14.113752 19.511556 0.398153 2.379443 0.069164 -0.003628 114050.000000 1 0 0
16.107776 5.873335 -10.860552 20.295519 0.349646 2.135447 0.061175 -0.018202 162778.000000 1 0 0
3.309976 -0.286965 -19.106752 19.393459 -0.086481 2.969428 0.050560 -0.014268 168540.000000 1 0 0
10.599376 -1.845065 -14.555752 18.100302 -0.172346 2.505077 0.055120 -0.006251 270689.000000 1 0 0
12.523476 -5.545865 -13.902952 19.516304 -0.416882 2.363675 0.078761 -0.006808 76721.600000 1 0 0
9.844876 6.257735 -12.778652 17.302450 0.566210 2.401707 0.038765 -0.006427 449036.000000 1 0 0
10.696376 5.166435 -16.301752 20.170563 0.449962 2.511877 0.079702 -0.023162 382596.000000 1 0 0
12.124176 -9.673865 -14.917352 21.519914 -0.673458 2.336700 0.116015 -0.025269 464771.000000 1 0 0
-1.348724 2.132935 -17.531552 17.712249 -1.006942 2.998629 0.011911 -0.005670 354152.000000 1 0 0
6.368776 -1.163465 -17.210452 18.387893 -0.180690 2.781790 0.036154 0.008427 70653.200000 1 0 0
6.707376 -5.961265 -15.786452 18.158679 -0.726572 2.624705 0.027535 -0.001695 303495.000000 1 0 0
-2.588824 -4.733765 -20.121852 20.832654 1.070348 2.879618 0.064114 -0.032658 86683.400000 1 0 0
16.129776 -0.086865 -13.468452 21.013719 -0.005385 2.266514 0.102000 -0.018899 40082.800000 1 0 0
-4.156024 -0.435665 -18.307152 18.778023 0.104446 2.917177 0.025286 -0.016704 114536.000000 1 0 0
3.479376 8.718135 -17.877152 20.191694 1.191069 2.658089 0.042125 -0.017882 79318.000000 1 0 0
9.999276 0.514535 -17.378752 20.056702 0.051412 2.618906 0.073605 -0.010769 -31395.300000 1 0 0
4.250176 4.660035 -18.160352 19.224419 0.831365 2.807323 0.028144 -0.007873 387067.000000 1 0 0
-2.487124 -11.370065 -17.906652 21.356787 1.355445 2.565234 0.047438 -0.016628 227850.000000 1 0 0
5.537876 -9.853965 -16.020552 19.606804 -1.058791 2.527144 0.020383 -0.002257 58728.000000 1 0 0
9.980876 -12.747965 -10.914552 19.525776 -0.906546 2.163954 0.037914 0.007711 314301.000000 1 0 0
6.294776 7.012735 -16.692052 19.168392 0.839297 2.627646 0.049162 -0.021803 480508.000000 1 0 0
8.480776 1.582435 -20.379452 22.130290 0.184470 2.741141 0.064932 -0.012166 -6565.150000 1 0 0
-1.189924 -0.603665 -20.235152 20.279095 0.469482 3.075749 0.043216 -0.017809 242222.000000 1 0 0
-0.434824 6.463835 -19.600952 20.643826 -1.503627 2.822379 0.027730 -0.001945 205682.000000 1 0 0
8.895376 6.050135 -18.226152 21.164226 0.597275 2.608378 0.089848 -0.022144 68727.400000 1 0 0
12.031576 0.266635 -12.880952 17.628069 0.022158 2.390153 0.026904 -0.003691 -94440.400000 1 0 0
-4.098224 -2.609765 -19.742352 20.331423 0.567042 2.900286 0.019892 -0.014529 410855.000000 1 0 0
6.259976 -11.471365 -14.570652 19.572517 -1.071257 2.410499 0.028093 -0.006220 61054.400000 1 0 0
11.121176 2.213335 -16.224152 19.794002 0.196453 2.531596 0.061709 -0.001686 -262147.000000 1 0 0
-2.913324 -4.455065 -17.146352 17.953619 0.991660 2.840577 0.016427 -0.008427 242163.000000 1 0 0
-7.235524 -5.491065 -17.641852 19.842871 0.649175 2.666122 0.037181 0.006930 16165.400000 1 0 0
2.956576 10.451135 -15.347952 18.802319 1.295105 2.525737 0.018971 -0.017410 189526.000000 1 0 0
16.909376 -6.338765 -11.208852 21.254300 -0.358654 2.126297 0.112800 -0.004751 57150.400000 1 0 0
9.769876 -3.243665 -17.664552 20.445249 -0.320556 2.613943 0.070760 -0.012269 78866.000000 1 0 0
-7.450924 -1.816665 -18.011652 19.576418 0.239151 2.739052 0.032726 -0.015315 504710.000000 1 0 0
1.284976 -7.318865 -19.284652 20.666755 -1.396997 2.773803 0.052316 -0.022562 254304.000000 1 0 0
5.638876 10.158335 -14.172852 18.326440 1.064047 2.454913 0.043874 -0.021544 468550.000000 1 0 0
6.119476 -3.949165 -17.773652 19.207982 -0.573095 2.752692 0.061573 -0.021109 608591.000000 1 0 0
4.603376 13.488635 -14.439852 20.289003 1.241913 2.362723 0.055696 -0.026777 95605.400000 1 0 0
9.578276 11.328135 -15.763652 21.646310 0.868903 2.386543 0.115443 -0.020109 147883.000000 1 0 0
17.410776 1.126535 -11.840152 21.085383 0.064613 2.167034 0.132041 -0.006612 73729.600000 1 0 0
15.147976 -2.998465 -12.351152 19.773794 -0.195419 2.245444 0.115997 -0.016008 -8643.310000 1 0 0
-8.833324 0.208835 -17.211752 19.347238 -0.023637 2.667316 0.026766 -0.012391 571159.000000 1 0 0
-3.343524 4.401235 -18.998552 19.786232 -0.921130 2.858480 0.026608 -0.000168 124110.000000 1 0 0
3.796676 1.730035 -16.892852 17.400466 0.427560 2.899455 0.016966 -0.003045 459078.000000 1 0 0
-5.321324 14.390535 -13.620752 20.516551 -1.216610 2.296806 0.026128 -0.014262 240720.000000 1 0 0
0.932576 9.955635 -17.499752 20.155041 1.477396 2.622474 0.022506 0.004822 314242.000000 1 0 0
0.691876 -5.131065 -20.617852 21.257995 -1.436764 2.895563 0.044859 0.008662 467936.000000 1 0 0
3.649576 -6.222565 -18.406552 19.769696 -1.040357 2.768073 0.050595 -0.006289 -170322.000000 1 0 0
-7.313224 7.272135 -15.935652 18.981891 -0.782581 2.567193 0.016836 -0.001987 46779.100000 1 0 0
-11.990824 3.365835 -16.287352 20.503330 -0.273659 2.488776 0.053871 -0.032609 236369.000000 1 0 0
-4.613924 7.109635 -17.553952 19.492984 -0.995147 2.691776 0.009355 0.023067 459676.000000 1 0 0
-8.273224 4.995835 -17.953452 20.389484 -0.543250 2.647765 0.024847 0.000840 397272.000000 1 0 0
-8.359124 4.338335 -15.024652 17.732351 -0.478727 2.581680 -0.005161 -0.020033 496721.000000 1 0 0
9.494376 13.741735 -13.125952 21.243094 0.966193 2.236856 0.101707 -0.035511 254093.000000 1 0 0
14.707476 9.592035 -11.885952 21.203604 0.577912 2.165862 0.131970 -0.023403 214943.000000 1 0 0
8.285876 15.651135 -9.954452 20.315139 1.083898 2.082888 0.069070 -0.027941 -6622.570000 1 0 0
7.776776 13.189735 -14.556052 21.126429 1.038053 2.330901 0.103695 -0.040391 83199.100000 1 0 0
4.304676 15.360035 -13.034652 20.600074 1.297554 2.255893 0.062496 -0.027057 135869.000000 1 0 0
11.192576 11.523535 -10.876452 19.400073 0.799966 2.165955 0.104394 -0.038977 247842.000000 1 0 0
15.809276 10.797535 -9.244252 21.259731 0.599217 2.020640 0.086367 -0.037823 376806.000000 1 0 0
12.527076 10.402135 -8.518752 18.376647 0.692988 2.052810 0.078500 -0.045898 460085.000000 1 0 0
10.167376 11.868335 -7.014052 17.129794 0.862436 1.992664 0.050760 -0.017312 -308655.000000 1 0 0
5.625276 16.894435 -10.021552 20.432747 1.249376 2.083420 0.080242 -0.022395 9980.120000 1 0 0
11.375176 13.833135 -10.273052 20.646691 0.882597 2.091585 0.129541 -0.049659 -168143.000000 1 0 0
8.429776 -19.262265 -2.032952 21.124130 -1.158275 1.667184 0.035999 -0.007249 194273.000000 1 0 0
7.967776 -16.955765 -4.385652 19.241033 -1.131505 1.800750 0.028899 -0.000240 31471.700000 1 0 0
4.051376 -18.681865 5.485348 19.887553 -1.357242 1.291356 0.058563 -0.018462 293939.000000 1 0 0
10.559876 -17.466965 -2.015452 20.510190 -1.027029 1.669221 0.045116 -0.017330 447123.000000 1 0 0
-3.268624 -15.161465 8.015648 17.458652 1.358459 1.093790 0.025113 -0.021169 241234.000000 1 0 0
-15.261624 -12.777265 -3.870752 20.277041 0.697025 1.762868 0.053468 -0.012380 200075.000000 1 0 0
-9.559824 -13.149265 -7.137052 17.754744 0.942163 1.984475 0.036134 -0.005082 66629.700000 1 0 0
-11.632224 -15.207865 6.764848 20.306427 0.917838 1.231166 0.056892 -0.007897 231520.000000 1 0 0
-14.752724 -8.598565 -8.135852 18.914816 0.527711 2.015434 0.048113 -0.009348 65270.000000 1 0 0
4.852776 -14.909665 6.586748 17.006846 -1.256132 1.173095 0.026755 -0.016608 177837.000000 1 0 0
2.631076 -13.908965 8.997148 16.772911 -1.383841 1.004619 0.008327 -0.011468 314650.000000 1 0 0
3.426476 -17.064565 9.944248 20.045653 -1.372637 1.051718 0.054153 -0.024475 207322.000000 1 0 0
-8.765724 -18.019765 -4.877452 20.623758 1.118047 1.809555 0.074584 -0.025513 -80634.900000 1 0 0
2.242376 -19.527765 -3.969352 20.052870 -1.456467 1.770057 0.049382 -0.022479 -125226.000000 1 0 0
-17.976324 -10.815665 -2.147152 21.088791 0.541640 1.672788 0.007990 -0.006703 -82128.500000 1 0 0
-4.203124 -15.080965 2.950848 15.931392 1.298990 1.384498 0.012262 -0.000160 119361.000000 1 0 0
-10.850124 -10.268165 -14.524152 20.835340 0.757848 2.342130 0.040406 -0.006171 117494.000000 1 0 0
1.086676 -20.378465 2.456448 20.554728 -1.517522 1.451002 0.049028 -0.012550 37644.500000 1 0 0
7.003576 -18.114065 0.926348 19.442930 -1.201862 1.523134 0.042821 -0.013114 212547.000000 1 0 0
-6.781224 -17.512565 -2.743552 18.978989 1.201355 1.715862 0.013664 -0.070698 -63173.300000 1 0 0
-8.546324 -16.039565 -7.446752 19.640810 1.081233 1.959670 0.051919 -0.018113 -249136.000000 1 0 0
-11.986724 -11.096565 -12.331152 20.466378 0.746854 2.217436 0.046979 -0.003795 122492.000000 1 0 0
-13.233324 -14.905865 -3.137352 20.177925 0.844766 1.726914 0.051724 -0.020415 129055.000000 1 0 0
-0.160224 -20.294765 -2.637452 20.466053 1.562902 1.700025 0.069862 -0.026622 337089.000000 1 0 0
-11.774924 -16.907465 -0.776752 20.618306 0.962468 1.608478 0.053833 -0.014373 85019.300000 1 0 0
0.707976 -20.044065 5.135648 20.703639 -1.535490 1.320124 0.061554 -0.020470 -87336.600000 1 0 0
-18.179524 -8.913965 2.653448 20.420447 0.455882 1.440487 0.040460 -0.004674 21341.000000 1 0 0
-14.788024 -14.829665 -0.412552 20.946953 0.786804 1.590493 0.058955 -0.013431 4058.350000 1 0 0
10.203776 -15.649365 -4.888452 19.311049 -0.992999 1.826724 0.025303 0.004662 -64482.500000 1 0 0
0.135076 -18.988665 -7.091452 20.270085 -1.563683 1.928205 0.059156 -0.012581 208583.000000 1 0 0
-10.092324 -18.118365 -2.736352 20.919316 1.062578 1.701977 0.056929 0.015033 492045.000000 1 0 0
-15.369824 -6.854365 -10.992152 20.100777 0.419491 2.149396 0.096757 -0.022603 113256.000000 1 0 0
-12.625124 -14.840465 1.866348 19.573360 0.865883 1.475300 0.059658 -0.021384 287778.000000 1 0 0
-2.283024 -16.351665 10.869348 19.766939 1.432073 0.988582 0.014938 -0.010180 366352.000000 1 0 0
-12.401524 -14.744965 -6.667152 20.387808 0.871510 1.903941 0.051740 -0.010084 144263.000000 1 0 0
5.642676 -16.948465 -7.467152 19.361008 -1.249408 1.966741 0.037618 -0.008333 201764.000000 1 0 0
-17.234224 -7.253865 -2.951852 18.930147 0.398392 1.727369 -0.019458 -0.008232 -180791.000000 1 0 0
-12.113124 -13.653365 -9.347252 20.506420 0.845104 2.044090 0.059487 -0.027953 -56749.300000 1 0 0
-7.858224 -13.806065 10.152148 18.852725 1.053342 1.002143 0.032510 -0.001731 586168.000000 1 0 0
-16.007924 -8.134665 -5.608052 18.811610 0.470158 1.873515 0.038430 -0.004431 420848.000000 1 0 0
-0.815224 -19.537265 0.434948 19.559103 1.529094 1.548557 0.029479 -0.018905 172247.000000 1 0 0
-14.802524 -11.386565 -1.812052 18.763052 0.655696 1.667523 0.005551 -0.000168 129987.000000 1 0 0
-6.874324 -18.875065 1.341148 20.132637 1.221526 1.504131 0.033882 -0.022631 154511.000000 1 0 0
-1.177824 -21.057965 -4.695952 21.607340 1.514922 1.789876 0.067537 -0.018629 147047.000000 1 0 0
-9.256424 -19.585065 -0.803652 21.677223 1.129286 1.607878 0.062920 -0.028944 72670.600000 1 0 0
-17.889424 -7.412865 4.982848 19.995271 0.392834 1.318941 0.058260 -0.014648 -117048.000000 1 0 0
-2.733324 -15.914765 -10.856952 19.458268 1.400708 2.162723 0.023372 0.002251 56407.000000 1 0 0
-3.045124 -18.388265 -7.688452 20.162177 1.406684 1.962031 0.038624 -0.012068 137682.000000 1 0 0
4.662076 -17.128365 -4.579952 18.332807 -1.305050 1.823294 0.019539 -0.020752 648281.000000 1 0 0
0.616176 -17.428465 -9.169652 19.703136 -1.535456 2.054872 0.036584 0.001474 104598.000000 1 0 0
-7.660224 -10.333765 -14.344452 19.267305 0.932899 2.410578 0.006648 -0.017699 280566.000000 1 0 0
-4.927224 -19.426165 -2.069952 20.147906 1.322396 1.673716 0.055131 -0.033870 311969.000000 1 0 0
-10.079924 -15.879865 8.616948 20.688808 1.005208 1.141201 0.040426 -0.010841 195963.000000 1 0 0
-7.147624 -15.455365 -10.112552 19.804559 1.137622 2.106699 0.017755 -0.005364 277999.000000 1 0 0
-12.710824 -8.099565 -12.346552 19.483463 0.567337 2.257115 0.048300 -0.007412 453574.000000 1 0 0
-15.539224 -12.741365 3.692748 20.431502 0.686787 1.389060 0.045437 -0.010223 17372.100000 1 0 0
-6.384024 -14.318865 -13.073552 20.413315 1.151401 2.265870 0.013295 -0.001507 442736.000000 1 0 0
-14.077824 -11.457965 -6.781752 19.376848 0.683160 1.928359 0.060385 -0.016721 248775.000000 1 0 0
-11.160724 -10.181065 -8.896552 17.531813 0.739527 2.103021 0.013684 -0.011672 102240.000000 1 0 0
-10.056624 -15.510865 3.961948 18.905546 0.995575 1.359666 0.020372 0.024602 474472.000000 1 0 0
5.531776 -17.655665 7.970648 20.145825 -1.267170 1.164023 0.071109 -0.039407 218479.000000 1 0 0
-4.912324 -16.673165 5.417448 18.206430 1.284278 1.268664 0.016324 0.002882 294432.000000 1 0 0
-18.728124 -7.150965 -6.879952 21.194638 0.364745 1.901394 0.067005 -0.019817 5653.210000 1 0 0
-16.665924 -3.526865 -10.871652 20.208528 0.208545 2.138828 0.061042 -0.012482 -355322.000000 1 0 0
-15.585724 -4.293065 -13.122952 20.822033 0.268783 2.252663 0.051013 -0.002740 333329.000000 1 0 0
-19.485824 -4.650565 -5.903652 20.884880 0.234281 1.857379 0.055592 -0.013305 171752.000000 1 0 0
5.342676 -13.545265 8.628548 16.925432 -1.195100 1.035847 0.018923 -0.006111 296088.000000 1 0 0
19.905976 -3.339865 2.768048 20.373136 -0.166234 1.434507 0.078074 -0.013204 -122409.000000 1 0 0
18.017076 -2.483065 0.047748 18.187438 -0.136955 1.568171 0.044027 -0.012810 292646.000000 1 0 0
14.507676 -11.363565 0.239548 18.429885 -0.664462 1.557798 0.045290 -0.001069 -10326.500000 1 0 0
11.186376 -13.973265 5.471148 18.716853 -0.895717 1.274153 0.030981 0.001253 432894.000000 1 0 0
10.109776 -12.723965 8.281848 18.239952 -0.899390 1.099491 0.038136 -0.033479 -184087.000000 1 0 0
18.924476 5.263935 -5.218452 20.324297 0.271297 1.830464 0.077663 0.017834 26872.500000 1 0 0
18.906776 -6.146665 -4.583052 20.402255 -0.314326 1.797364 0.084376 -0.010114 -7726.930000 1 0 0
17.568476 -10.137765 0.189848 20.284518 -0.523368 1.561437 0.040791 -0.002038 333612.000000 1 0 0
17.710776 -8.584965 8.910648 21.604927 -0.451358 1.145670 0.152385 -0.030283 152016.000000 1 0 0
19.844376 0.514735 -2.482252 20.005644 0.025933 1.695194 0.099662 0.000497 114198.000000 1 0 0
7.453776 -13.010965 11.479548 18.884491 -1.050554 0.917405 0.022391 -0.011976 355711.000000 1 0 0
16.314176 -6.425565 -3.299752 17.841765 -0.375205 1.756813 0.051829 -0.004254 268023.000000 1 0 0
14.430776 -6.893765 11.631748 19.775461 -0.445659 0.941976 0.104093 -0.044947 453127.000000 1 0 0
17.141576 1.150135 9.746448 19.752207 0.066996 1.054761 0.158243 -0.032660 490255.000000 1 0 0
16.410876 -10.411465 2.716848 19.623881 -0.565348 1.431904 0.020875 -0.009301 216165.000000 1 0 0
16.174676 -7.091665 -5.859552 18.607692 -0.413201 1.891147 0.063480 -0.003618 191235.000000 1 0 0
19.258376 -4.779465 5.534048 20.599855 -0.243261 1.298810 0.231603 -0.026965 -137733.000000 1 0 0
13.367076 -13.394665 8.084048 20.577842 -0.786429 1.167065 0.079807 -0.021251 249308.000000 1 0 0
15.529176 -14.208565 -1.650752 21.113114 -0.741019 1.649062 0.057761 0.001035 252477.000000 1 0 0
18.810776 -6.441465 8.176248 21.498576 -0.329919 1.180659 0.156539 -0.031501 411174.000000 1 0 0
19.594276 3.211435 2.318348 19.990590 0.162452 1.454563 0.074072 -0.007213 180801.000000 1 0 0
15.691576 -10.477265 8.190548 20.568999 -0.588718 1.161244 0.107007 -0.043197 292978.000000 1 0 0
14.183676 -4.329265 10.765348 18.325172 -0.296247 0.942877 0.088134 -0.017301 -26151.100000 1 0 0
18.936576 -7.516765 1.844348 20.457206 -0.377869 1.480517 0.088788 -0.022173 13354.900000 1 0 0
19.128476 -6.168865 -1.340452 20.143244 -0.311966 1.637392 0.071510 -0.012651 70624.500000 1 0 0
14.923776 -13.335365 -5.995752 20.892584 -0.729249 1.861869 0.076065 -0.008986 676409.000000 1 0 0
13.742776 -9.621565 10.422848 19.750295 -0.610805 1.014869 0.068898 -0.019662 319449.000000 1 0 0
14.275776 2.516135 0.439448 14.502476 0.174460 1.540490 0.004938 0.001314 -81110.100000 1 0 0
12.956476 2.366435 13.660248 18.975581 0.180654 0.767159 0.070679 -0.010895 127689.000000 1 0 0
17.959576 -3.741165 9.319448 20.576559 -0.205373 1.100763 0.116876 -0.020915 55417.500000 1 0 0
7.851376 -18.352965 5.054148 20.591742 -1.166557 1.322817 0.075282 -0.026072 254353.000000 1 0 0
12.865976 -2.822665 15.233748 20.138715 -0.215968 0.712942 0.086000 -0.004770 304402.000000 1 0 0
11.202476 -13.504665 -6.787252 18.813246 -0.878309 1.939890 0.030796 -0.012752 68444.100000 1 0 0
11.104876 -17.492565 4.455148 21.193311 -1.005157 1.359002 0.067789 -0.021017 586520.000000 1 0 0
18.445276 -0.317665 -5.091452 19.137711 -0.017220 1.840082 0.108055 -0.004361 333605.000000 1 0 0
4.468576 -13.783465 11.548748 18.529049 -1.257290 0.897869 0.004791 -0.004350 323815.000000 1 0 0
9.539076 -3.030665 14.453048 17.580373 -0.307625 0.605684 0.048928 -0.007236 257164.000000 1 0 0
9.108776 -9.371965 14.222948 19.315687 -0.799638 0.743149 0.047110 -0.009262 314348.000000 1 0 0
20.886576 5.748335 -3.028052 21.873763 0.268568 1.709675 0.135971 -0.007442 488192.000000 1 0 0
14.863076 -13.372365 2.112048 20.104525 -0.732651 1.465549 0.051361 -0.007248 289389.000000 1 0 0
12.092776 -0.427165 15.007348 19.277920 -0.035309 0.678566 0.089223 -0.013020 50875.300000 1 0 0
19.501676 0.464635 7.701148 20.972337 0.023821 1.194794 0.129540 -0.021461 194793.000000 1 0 0
19.965876 1.095435 0.429048 20.000506 0.054810 1.549343 0.093977 -0.005804 151203.000000 1 0 0
17.983076 0.337735 3.005248 18.235586 0.018779 1.405240 0.051036 -0.001568 -98549.700000 1 0 0
10.355676 -8.441265 16.358248 21.120778 -0.683901 0.684857 0.067161 -0.019182 140653.000000 1 0 0
19.587676 2.642535 5.150948 20.425286 0.134098 1.315859 0.095609 -0.016278 198393.000000 1 0 0
15.264276 2.463335 7.049748 16.993089 0.160000 1.143008 0.062269 -0.011460 40002.500000 1 0 0
11.431876 -15.877965 2.007548 19.667939 -0.946784 1.468546 0.027170 -0.000008 245526.000000 1 0 0
9.001676 -16.225665 6.964648 19.819402 -1.064291 1.211724 0.044429 -0.005023 242120.000000 1 0 0
6.101576 6.574535 7.245648 11.530531 0.822692 0.891317 0.001390 0.003414 -1150580.000000 1 0 0
18.463376 2.469135 -6.730852 19.806495 0.132943 1.917533 0.081231 0.000791 88325.200000 1 0 0
14.411076 4.467735 -7.177752 16.708078 0.300625 2.014844 0.022396 -0.004242 367375.000000 1 0 0
-10.448924 -3.842865 -14.007152 17.892678 0.352422 2.470018 0.013325 0.005517 -142812.000000 1 0 0
7.336576 -14.570665 -10.220052 19.250431 -1.104339 2.130458 0.020101 0.004113 -281354.000000 1 0 0
2.011576 -15.919865 13.888848 21.222362 -1.445106 0.857349 0.012826 -0.007054 278950.000000 1 0 0
-9.328424 -7.860765 2.196048 12.394908 0.700222 1.392683 0.013136 0.002203 340150.000000 1 0 0
-13.878424 3.215135 -9.948552 17.375887 -0.227648 2.180408 0.030222 -0.010043 179474.000000 1 0 0
-12.757024 -5.307465 -13.187252 19.100117 0.394259 2.332877 0.030743 0.007096 126722.000000 1 0 0
-18.068324 -1.291365 -8.360852 19.950835 0.071350 2.003220 0.079679 -0.035619 401503.000000 1 0 0
-12.396624 14.920535 4.681548 19.955339 -0.877529 1.333988 0.043942 -0.026806 393140.000000 1 0 0
-17.032424 6.421935 8.915948 20.269160 -0.360559 1.115334 0.016399 -0.016618 76883.400000 1 0 0
-13.785224 15.381835 -0.482552 20.660738 -0.840084 1.594154 0.065815 -0.027257 285074.000000 1 0 0
-16.419124 5.332335 -10.663752 20.291305 -0.314018 2.124138 0.069121 -0.012085 37702.500000 1 0 0
-18.302124 2.980435 -0.122952 18.543621 -0.161429 1.577427 0.075811 -0.007750 -9402.490000 1 0 0
-9.654624 15.609335 -0.186752 18.354781 -1.016873 1.580971 0.023405 -0.012876 -220982.000000 1 0 0
-18.375724 12.039635 2.583348 22.119985 -0.580017 1.453741 0.156560 -0.034072 187022.000000 1 0 0
-8.721724 16.259835 -7.710152 19.997429 -1.078457 1.966608 0.078742 -0.022238 129771.000000 1 0 0
-14.758724 -1.845665 -13.096952 19.818087 0.124410 2.292758 0.034222 -0.012994 138385.000000 1 0 0
-19.157124 5.343335 -4.430352 20.375835 -0.272008 1.789979 0.102595 -0.008753 60872.700000 1 0 0
-16.827124 9.481235 -5.956752 20.212096 -0.513110 1.869951 0.048073 0.002395 -154590.000000 1 0 0
-18.835124 1.286735 2.669748 19.066860 -0.068210 1.430314 0.079317 -0.028393 193455.000000 1 0 0
-14.986624 11.294035 -7.758752 20.306461 -0.645806 1.962845 0.061909 -0.018258 85491.900000 1 0 0
-12.862724 5.104135 -13.543052 19.362751 -0.377759 2.345408 0.032628 -0.024959 -23585.700000 1 0 0
-14.101424 9.160935 -6.585352 18.059340 -0.576126 1.944054 0.029771 -0.013308 143748.000000 1 0 0
-6.716224 11.444335 -15.314052 20.263283 -1.040095 2.427601 0.021601 -0.026536 -154154.000000 1 0 0
-15.006424 13.752535 2.973248 20.570979 -0.741826 1.425752 0.047839 -0.030169 113308.000000 1 0 0
-18.621824 8.580435 -5.222952 21.158342 -0.431777 1.820225 0.071614 -0.014841 -49971.900000 1 0 0
-4.971524 16.204635 -11.099952 20.261174 -1.273116 2.150581 0.012626 -0.002284 22774.100000 1 0 0
-19.319624 -2.101965 -6.697652 20.555405 0.108373 1.902690 0.043046 -0.014215 -262825.000000 1 0 0
-11.917224 13.030135 -6.267252 18.737212 -0.829979 1.911851 0.065955 -0.034356 -110851.000000 1 0 0
-19.470724 2.915835 4.376848 20.168490 -0.148650 1.352042 0.098823 -0.024336 82461.500000 1 0 0
-15.504124 12.727435 0.347148 20.062053 -0.687359 1.553492 0.045566 -0.008551 176303.000000 1 0 0
-17.484424 2.449335 -8.401652 19.552291 -0.139181 2.014959 0.042077 -0.017415 60522.100000 1 0 0
-16.250624 14.150535 -4.254952 21.964176 -0.716428 1.765751 0.033167 0.023948 123104.000000 1 0 0
-10.930924 15.488835 -8.421852 20.744076 -0.956236 1.988856 0.061520 -0.026684 106101.000000 1 0 0
-18.975124 1.771035 -6.981752 20.296225 -0.093065 1.921962 0.061361 -0.023835 221534.000000 1 0 0
-17.102524 10.391035 -0.375352 20.015265 -0.545969 1.589551 0.049991 -0.014787 90883.200000 1 0 0
-11.618624 6.950335 -14.531952 19.861450 -0.539100 2.391559 0.019358 -0.021853 392953.000000 1 0 0
-13.638924 12.431435 -5.143752 19.157740 -0.739115 1.842626 0.056513 -0.017486 356865.000000 1 0 0
-18.927224 7.211135 0.119648 20.254743 -0.364014 1.564889 0.086018 -0.019648 211800.000000 1 0 0
-14.670924 8.758035 -10.664352 20.141191 -0.538185 2.128783 0.035477 -0.001297 502498.000000 1 0 0
-18.539324 11.247935 4.781948 22.205621 -0.545336 1.353748 0.091539 -0.040266 118059.000000 1 0 0
-8.211224 11.633735 -13.627352 19.709711 -0.956181 2.334225 0.012269 -0.018757 418444.000000 1 0 0
-21.187524 -1.718865 -5.242952 21.894160 0.080949 1.812614 0.093162 -0.027242 432085.000000 1 0 0
-10.647524 13.433435 -3.384052 17.472228 -0.900575 1.765710 0.029828 -0.003796 373895.000000 1 0 0
-18.771424 -4.873765 3.626448 19.729954 0.254028 1.385941 0.052108 -0.012916 -122630.000000 1 0 0
-11.324024 11.406935 -12.024252 20.073224 -0.789046 2.213072 0.043100 -0.032364 259141.000000 1 0 0
-14.954324 11.446635 -10.326952 21.477970 -0.653310 2.072381 0.054246 -0.015995 281531.000000 1 0 0
-12.467624 9.629035 -14.047552 21.106721 -0.657636 2.299025 0.047317 -0.023009 350470.000000 1 0 0
-17.779924 -5.175965 -3.358552 18.820101 0.283284 1.750213 -0.029120 -0.008318 -414741.000000 1 0 0
-9.063024 12.618235 -11.619952 19.400555 -0.947928 2.212985 0.027872 -0.010246 -65476.500000 1 0 0
-15.545224 7.629035 -8.095052 19.115074 -0.456231 2.008091 0.021850 -0.007508 92228.200000 1 0 0
-14.760624 8.909835 1.874748 17.342891 -0.543078 1.462486 0.020791 -0.006125 -170037.000000 1 0 0
-19.846324 5.811535 8.131348 22.220921 -0.284863 1.196162 0.086649 -0.023977 287302.000000 1 0 0
-18.745924 5.752835 3.653348 19.946221 -0.297761 1.386597 0.043593 -0.015764 154325.000000 1 0 0
-14.469424 12.809135 5.657148 20.135578 -0.724609 1.286010 0.035820 -0.021752 -20761.700000 1 0 0
18.008176 6.455435 5.662448 19.950698 0.344203 1.283019 0.042289 -0.012482 25823.800000 1 0 0
18.348376 8.210635 0.375048 20.105175 0.420761 1.552141 0.044123 0.007687 50902.400000 1 0 0
15.882776 5.379835 9.011948 19.037342 0.326592 1.077669 0.043114 0.004800 3005.910000 1 0 0
12.364176 12.760835 10.797248 20.791641 0.801184 1.024756 0.066060 -0.024834 89194.200000 1 0 0
15.602476 12.415035 4.117948 20.359957 0.672119 1.367134 0.056164 -0.005164 282067.000000 1 0 0
5.368976 10.321835 14.561948 18.639112 1.091153 0.674118 0.032701 -0.010221 64913.900000 1 0 0
12.349276 14.513735 -5.051252 19.714671 0.865798 1.829904 0.064193 0.012998 214228.000000 1 0 0
17.706976 9.394835 -3.029652 20.272610 0.487805 1.720804 0.029817 -0.008257 -89845.500000 1 0 0
14.648276 7.703035 9.534448 19.100116 0.484126 1.048141 0.061086 -0.004641 187822.000000 1 0 0
4.593076 18.824435 -1.361452 19.424450 1.331477 1.640943 0.029567 -0.030419 648159.000000 1 0 0
-4.784524 18.992535 3.295948 19.861302 -1.324015 1.404077 0.038327 -0.023528 405423.000000 1 0 0
8.200676 13.316335 12.072448 19.756515 1.018814 0.913395 0.069566 -0.007844 39034.500000 1 0 0
0.246576 17.129835 -10.048452 19.861103 1.556403 2.101263 0.027591 -0.001466 31109.100000 1 0 0
10.734576 9.275135 15.795948 21.231374 0.712590 0.731773 0.051025 -0.012115 -207589.000000 1 0 0
-1.194424 12.065135 1.190348 12.182408 -1.472120 1.472930 0.009248 -0.006060 448400.000000 1 0 0
-4.900024 19.114235 -2.220052 19.856809 -1.319846 1.682834 0.035931 -0.001649 48875.900000 1 0 0
5.719076 18.862035 6.048648 20.617234 1.276401 1.273038 0.034133 -0.008335 313783.000000 1 0 0
11.330076 17.300835 -1.640652 20.745632 0.990994 1.649963 0.072302 -0.010480 453707.000000 1 0 0
18.366276 10.776535 3.131348 21.523455 0.530625 1.424793 0.044760 -0.007337 321933.000000 1 0 0
11.827176 16.768335 6.443948 21.507757 0.956503 1.266512 0.057964 -0.007035 -35411.400000 1 0 0
18.114576 7.861635 -6.120652 20.673789 0.409465 1.871360 0.047133 0.011564 486736.000000 1 0 0
0.455576 15.628535 10.850648 19.031427 1.541654 0.964116 0.017760 -0.006674 481248.000000 1 0 0
1.377076 20.374835 -1.790052 20.499623 1.503312 1.658229 0.029825 -0.007397 306350.000000 1 0 0
14.265976 9.753535 -1.398252 17.337953 0.599697 1.651531 0.030443 -0.007736 -113479.000000 1 0 0
10.273476 17.006835 1.572548 19.931123 1.027383 1.491815 0.046804 -0.018993 91116.600000 1 0 0
0.145376 17.496935 -0.548252 17.506126 1.562488 1.602119 0.017242 -0.017417 48187.200000 1 0 0
0.042976 20.839135 0.961648 20.861356 1.568734 1.524683 0.030577 -0.016062 217743.000000 1 0 0
6.953876 18.088535 0.442348 19.384199 1.203779 1.547974 0.026568 -0.010475 -68228.500000 1 0 0
6.630976 18.407635 -2.875252 19.775691 1.225037 1.716707 0.038898 -0.022082 128444.000000 1 0 0
10.101476 9.738035 12.782048 18.980250 0.767081 0.831945 0.025918 -0.003077 78262.800000 1 0 0
12.896176 14.862635 8.253848 21.338587 0.856121 1.173633 0.070480 -0.019690 234410.000000 1 0 0
0.283176 17.617535 7.067048 18.984228 1.554724 1.189355 0.017608 -0.004104 292642.000000 1 0 0
7.601576 18.086635 -7.680652 21.068999 1.172924 1.943943 0.064748 -0.017157 37003.700000 1 0 0
-0.811424 18.479535 9.393848 20.745988 -1.526915 1.100890 0.028205 -0.013859 39329.400000 1 0 0
16.077476 7.074035 -8.116552 19.349564 0.414504 2.003657 0.056494 0.002573 -545142.000000 1 0 0
-5.168824 19.783035 -6.744152 21.530648 -1.315234 1.889394 0.022073 -0.006008 262494.000000 1 0 0
3.850676 15.733835 9.992148 19.032191 1.330776 1.018066 0.026409 -0.005461 206848.000000 1 0 0
9.176176 14.821335 7.439348 18.953049 1.016437 1.167432 0.028663 -0.010924 310564.000000 1 0 0
-2.817124 19.816235 6.072248 20.916299 -1.429580 1.276244 0.037260 -0.008359 148388.000000 1 0 0
5.008176 18.057635 8.190048 20.450841 1.300252 1.158761 0.035570 -0.012168 205621.000000 1 0 0
15.144776 11.970735 -6.599852 20.401489 0.668872 1.900221 0.098822 -0.030627 167806.000000 1 0 0
12.043376 6.783935 15.479048 20.752484 0.512991 0.728928 0.085974 -0.015993 313184.000000 1 0 0
17.238976 9.264235 5.001848 20.199674 0.493118 1.320573 0.062774 -0.008843 297584.000000 1 0 0
5.682576 14.583635 12.835648 20.241738 1.199240 0.883929 0.033038 -0.022845 176649.000000 1 0 0
15.736576 10.774335 -3.685252 19.424397 0.600362 1.761676 0.054820 -0.025266 249104.000000 1 0 0
15.329776 14.069635 6.980448 21.947285 0.742562 1.247119 0.077581 0.006889 267700.000000 1 0 0
12.819876 13.730235 -8.118252 20.463983 0.819673 1.978726 0.149147 -0.056241 367672.000000 1 0 0
-8.420224 15.509735 9.631548 20.105193 -1.073421 1.071215 0.046233 -0.031845 233131.000000 1 0 0
-3.793624 17.764335 -7.932252 19.821297 -1.360404 1.982519 0.004045 0.047561 101169.000000 1 0 0
2.287676 19.138035 -4.620852 19.820447 1.451825 1.806097 0.032518 -0.031408 79844.000000 1 0 0
7.043276 16.428435 9.201048 20.103743 1.165775 1.095414 0.030501 -0.015590 551003.000000 1 0 0
13.489576 15.512935 -1.568152 20.617442 0.855050 1.646929 0.097908 -0.017454 262672.000000 1 0 0
12.948176 16.475335 4.512248 21.434839 0.904704 1.358700 0.067860 -0.020353 366596.000000 1 0 0
3.287376 18.319935 0.542948 18.620463 1.393243 1.541634 0.046162 -0.024476 134434.000000 1 0 0
-7.809724 17.226335 1.376848 18.964022 -1.145152 1.498129 0.037104 -0.007333 389402.000000 1 0 0
0.154976 20.009435 -5.800152 20.833705 1.563051 1.852927 0.043125 -0.001211 86910.000000 1 0 0
-7.069524 17.758535 -6.310452 20.128724 -1.191936 1.889678 0.049657 -0.018303 61632.100000 1 0 0
-7.287024 18.477435 -1.033252 19.889292 -1.195149 1.622770 0.058135 -0.013310 99253.800000 1 0 0
-14.574224 -9.415565 8.926048 19.512437 0.573588 1.095666 0.068077 -0.015179 412877.000000 1 0 0
-13.143024 -13.650965 7.870948 20.519253 0.804353 1.177117 0.050278 -0.006827 40025.500000 1 0 0
-4.570724 -15.643565 12.438348 20.501833 1.286530 0.918901 0.063338 -0.011096 186259.000000 1 0 0
-2.411024 -14.778365 14.607248 20.918528 1.409076 0.797787 0.037698 -0.026161 274488.000000 1 0 0
-6.980224 -13.571565 13.820448 20.589213 1.095753 0.834906 0.014825 -0.006985 51838.600000 1 0 0
-9.886324 -10.647065 11.850848 18.749453 0.822430 0.886583 0.047611 -0.023566 -89919.900000 1 0 0
-7.350124 -10.273565 13.025248 18.144629 0.949783 0.770077 0.027373 -0.014877 340877.000000 1 0 0
-15.175624 -11.887465 8.270548 20.976495 0.664491 1.165515 0.054661 0.004979 349880.000000 1 0 0
-4.330124 -12.052465 13.313748 18.473434 1.225885 0.765989 0.024507 -0.017859 268574.000000 1 0 0
3.720776 -12.509665 13.807348 18.999441 -1.281697 0.757256 -0.004856 0.000903 382915.000000 1 0 0
6.473076 -13.589965 14.450348 20.866251 -1.126277 0.805816 0.023862 -0.004253 252637.000000 1 0 0
7.184276 -9.007765 16.740548 20.322392 -0.897542 0.602804 0.033901 -0.017009 521775.000000 1 0 0
-5.301324 13.548735 13.211348 19.652277 -1.197831 0.833545 0.020476 -0.018857 386439.000000 1 0 0
-13.740124 -1.772965 17.358748 22.209470 0.128327 0.673582 0.060925 -0.016530 353189.000000 1 0 0
-10.312024 10.830035 14.021848 20.499749 -0.809895 0.817563 0.020024 0.028177 441890.000000 1 0 0
-7.470424 -8.460365 16.992048 20.398890 0.847458 0.586308 0.053111 -0.022897 176377.000000 1 0 0
-4.850424 1.786335 18.421748 19.133176 -0.352870 0.273553 0.018393 -0.009880 487114.000000 1 0 0
-16.137824 -3.432365 13.782648 21.498183 0.209568 0.874856 0.087845 -0.036757 335188.000000 1 0 0
-14.580024 3.180035 12.622848 19.545486 -0.214746 0.868701 0.030337 -0.004028 304347.000000 1 0 0
-13.820524 10.668135 10.078448 20.159145 -0.657374 1.047262 -0.037005 0.017973 4034.510000 1 0 0
-4.477924 11.418335 15.529948 19.789125 -1.197058 0.668468 0.019106 -0.012022 192241.000000 1 0 0
-13.254824 13.010535 7.556548 20.051579 -0.776098 1.184397 0.031041 -0.037018 173549.000000 1 0 0
-3.528324 -6.207665 18.585148 19.909593 1.053950 0.366808 0.048195 -0.021173 175544.000000 1 0 0
0.743976 -2.789865 18.438448 18.663151 -1.310190 0.155333 0.021966 -0.017150 85685.600000 1 0 0
-5.028724 6.321135 20.591048 22.118682 -0.898780 0.373832 0.042347 -0.025179 -9179.280000 1 0 0
2.323776 -10.804465 16.556048 19.905756 -1.358948 0.588595 -0.000617 0.001500 447631.000000 1 0 0
-14.682824 -0.169765 14.001548 20.289344 0.011562 0.809178 0.016027 -0.010825 -265857.000000 1 0 0
-13.711824 -6.027565 8.978048 17.462847 0.414162 1.030812 0.043417 -0.005586 44237.600000 1 0 0
10.106976 1.409235 16.348848 19.272305 0.138539 0.558015 0.062621 -0.004143 403110.000000 1 0 0
-7.611424 12.423435 11.635648 18.645745 -1.021115 0.896897 0.025223 -0.020458 -12005.100000 1 0 0
-2.152324 7.379235 20.338748 21.742821 -1.286996 0.361341 0.054690 -0.013990 528425.000000 1 0 0
1.281276 -13.300065 15.407148 20.393960 -1.474757 0.714416 -0.005475 -0.007914 553526.000000 1 0 0
-3.371624 -11.343865 17.900948 21.459149 1.281892 0.584139 0.058607 -0.019114 486000.000000 1 0 0
-2.512724 8.323735 16.620748 18.757602 -1.277621 0.481976 0.035424 -0.027394 320190.000000 1 0 0
-4.212624 -9.277465 20.698548 23.070489 1.144562 0.457437 0.084277 -0.026377 171079.000000 1 0 0
-6.706224 -2.993165 19.298848 20.648923 0.419795 0.363614 0.035023 -0.016519 335839.000000 1 0 0
-10.976324 -7.915165 16.032248 20.980050 0.624755 0.701048 0.097075 -0.034774 115868.000000 1 0 0
-0.342624 6.207035 17.976148 19.020688 -1.515653 0.332945 0.032254 -0.011261 67397.700000 1 0 0
-6.338924 -11.275265 18.964248 22.955528 1.058637 0.598592 0.113109 -0.026456 443869.000000 1 0 0
0.621576 3.471035 18.965348 19.290383 1.393599 0.183832 0.028893 -0.008141 108345.000000 1 0 0
-18.405724 -0.841065 7.815348 20.013939 0.045664 1.169627 0.074934 -0.029588 123170.000000 1 0 0
-1.947324 -8.877065 17.574748 19.785503 1.354851 0.477245 0.030521 -0.014884 333234.000000 1 0 0
5.188876 3.165735 13.725548 15.011229 0.547813 0.416891 0.022569 -0.009446 -665603.000000 1 0 0
-14.992724 -7.256365 11.036448 19.980986 0.450760 0.985619 0.121034 0.004360 89557.500000 1 0 0
4.028576 8.215535 16.356048 18.741525 1.114890 0.510056 0.028071 -0.022484 65140.800000 1 0 0
6.673776 4.293835 16.716748 18.504755 0.571714 0.443219 0.057875 -0.043256 336546.000000 1 0 0
5.323376 -8.855465 18.539148 21.223987 -1.029539 0.508451 0.009119 0.001877 397565.000000 1 0 0
-4.519124 -0.290665 20.043748 20.548937 0.064230 0.222198 0.041002 -0.014570 807452.000000 1 0 0
-11.260624 1.890435 17.076448 20.542164 -0.166329 0.589376 0.039223 -0.009106 56042.100000 1 0 0
-16.780224 -3.997665 8.737348 19.336455 0.233877 1.101948 0.072814 -0.028989 258999.000000 1 0 0
-12.949324 -8.928265 13.158648 20.507290 0.603629 0.874139 0.058859 -0.043956 48565.900000 1 0 0
-14.709324 5.962035 13.068448 20.559534 -0.385087 0.881960 0.046723 -0.012474 363760.000000 1 0 0
1.248176 9.548835 16.982748 19.523113 1.440818 0.515839 0.037182 -0.021468 156733.000000 1 0 0
-3.648424 -10.157565 15.075348 18.540584 1.225964 0.621339 0.032350 -0.015517 570011.000000 1 0 0
-18.941924 -3.247465 6.545448 20.302350 0.169793 1.242534 0.156412 -0.028696 -252820.000000 1 0 0
-0.785824 -0.429465 21.047948 21.066990 0.500164 0.042521 0.038340 -0.020747 456472.000000 1 0 0
-1.869624 2.649535 20.203948 20.462528 -0.956294 0.159144 0.035413 -0.025668 52738.500000 1 0 0
-8.023124 2.473035 16.299948 18.335068 -0.298998 0.475631 0.000538 0.010310 492652.000000 1 0 0
3.118376 -2.943865 18.620448 19.107896 -0.756620 0.226360 0.029645 -0.016415 -5241.840000 1 0 0
-12.009624 4.140035 14.617748 19.366195 -0.331969 0.715436 -0.013466 -0.000338 81675.800000 1 0 0
-12.693124 -5.345765 13.192948 19.072139 0.398609 0.806902 -0.004348 -0.028392 -301160.000000 1 0 0
-16.794724 -0.316465 10.943248 20.047883 0.018841 0.993386 0.047934 -0.015779 170806.000000 1 0 0
-7.651324 7.670935 14.303148 17.943413 -0.786678 0.648277 0.001600 -0.016101 16577.800000 1 0 0
-9.555724 0.725835 14.254948 17.176794 -0.075813 0.591876 0.010563 0.000459 122991.000000 1 0 0
7.245576 -0.949665 15.174348 16.842241 -0.130325 0.448797 0.036313 -0.012211 118551.000000 1 0 0
3.989376 6.041035 18.459648 19.828460 0.987159 0.373743 0.028015 -0.015381 49949.200000 1 0 0
1.915776 0.521535 19.837148 19.936265 0.265791 0.099758 0.023360 -0.020321 224889.000000 1 0 0
-7.113224 7.116335 17.720048 20.377446 -0.785617 0.516422 0.002746 -0.004190 414894.000000 1 0 0
7.709876 -3.240965 17.014748 18.959106 -0.397939 0.456854 0.040987 -0.003577 444092.000000 1 0 0
-16.117524 2.693835 8.903848 18.609402 -0.165606 1.071897 0.031119 -0.026249 69669.300000 1 0 0
3.704476 -6.047665 19.208748 20.476167 -1.021203 0.353685 0.023685 -0.035351 71562.800000 1 0 0
-3.769924 -3.897965 20.706348 21.404656 0.802095 0.256137 0.041311 -0.019491 206673.000000 1 0 0
-9.769324 5.777635 14.465848 18.386993 -0.534076 0.665281 0.010665 -0.001556 -60231.200000 1 0 0
6.561476 2.785835 19.724148 20.972741 0.401510 0.346798 0.081153 -0.018381 23829.200000 1 0 0
-7.332724 11.810835 14.242848 19.902849 -1.015189 0.773287 0.031363 -0.021964 162346.000000 1 0 0
-14.345824 5.227935 9.847148 18.168663 -0.349465 0.997999 0.012282 -0.006628 407809.000000 1 0 0
1.254776 -5.109965 20.366248 21.034977 -1.330006 0.252829 0.049560 -0.037065 224863.000000 1 0 0
-6.388624 -8.252165 13.518248 17.077933 0.912002 0.657435 0.021978 -0.009965 243978.000000 1 0 0
-12.977024 10.120935 6.554348 17.714287 -0.662371 1.191784 -0.000333 -0.019037 197000.000000 1 0 0
-19.640524 2.437835 7.695448 21.234716 -0.123491 1.199955 0.075080 -0.034217 -66497.500000 1 0 0
-15.926824 8.964935 6.130848 19.277476 -0.512680 1.247144 0.026747 -0.020514 67501.200000 1 0 0
-13.087224 7.703835 14.229348 20.811027 -0.532034 0.817920 0.037659 -0.008877 183123.000000 1 0 0
-16.815024 8.832835 10.116448 21.519910 -0.483678 1.081395 0.051918 -0.025461 421856.000000 1 0 0
2.698276 10.498535 14.594848 18.179921 1.319227 0.638819 0.037506 -0.049980 478810.000000 1 0 0
1.640676 14.142735 13.465348 19.596540 1.455304 0.813267 0.032303 -0.033233 588576.000000 1 0 0
8.969376 5.111135 16.584748 19.535283 0.517950 0.556775 0.052339 -0.001934 111584.000000 1 0 0
-0.574424 13.363535 13.393348 18.928703 -1.527838 0.784745 0.022020 -0.001791 82760.900000 1 0 0
4.144676 12.519835 14.719848 19.763566 1.251103 0.730565 0.044427 -0.021415 45448.400000 1 0 0
-3.638224 -4.561165 -13.684352 14.876236 0.897488 2.738571 -0.000121 -0.006328 88810.300000 1 0 0
6.183176 -12.242865 16.587448 21.523542 -1.103122 0.690912 0.011737 0.002179 201109.000000 1 0 0
8.785876 -13.591365 7.153948 17.694513 -0.996934 1.154579 0.016147 -0.012711 -136750.000000 1 0 0
-0.427424 15.112635 0.398648 15.123933 -1.542521 1.544435 0.016696 -0.011191 -248337.000000 1 0 0
-14.136724 7.749235 8.325148 18.144027 -0.501432 1.094111 0.003375 -0.008012 150312.000000 1 0 0
-16.295124 -9.865665 4.531948 19.580628 0.544407 1.337228 0.046853 -0.008985 44154.300000 1 0 0
8.760776 -10.499865 11.432348 17.824055 -0.875446 0.874475 0.009094 -0.003835 125598.000000 1 0 0
-26.421624 6.061235 30.882037 41.091861 -0.225503 0.720408 0.080608 -0.031558 56154.200000 0 0 1
-25.177154 5.487335 30.577777 39.987503 -0.214593 0.700247 0.069428 -0.030278 281403.000000 0 0 1
-24.117724 5.737135 31.492497 40.079380 -0.233540 0.666884 0.055028 -0.023247 894546.000000 0 0 1
-22.775924 5.023335 31.153217 38.916572 -0.217079 0.642646 0.065562 -0.025769 172311.000000 0 0 1
-22.801724 3.660435 31.446987 39.015771 -0.159175 0.633421 0.027826 -0.023143 1082150.000000 0 0 1
-21.584124 3.056435 30.914007 37.827134 -0.140670 0.614184 0.047153 -0.025135 1083500.000000 0 0 1
-21.124924 1.850335 31.650591 38.097849 -0.087367 0.590305 0.041557 -0.025025 5627.570000 0 0 1
-21.880424 0.663935 31.357207 38.242231 -0.030334 0.609450 0.046335 -0.024034 374292.000000 0 0 1
-21.914324 -0.193165 32.508000 39.205165 0.008814 0.593164 0.035863 -0.017755 -418158.000000 0 0 1
-22.479524 -1.565765 32.131251 39.245356 0.069541 0.611605 0.046373 -0.028741 -261819.000000 0 0 1
-21.648724 -2.463765 31.391117 38.211774 0.113319 0.606753 0.082333 -0.042257 296701.000000 0 0 1
-22.032424 -3.826065 31.662768 38.763351 0.171941 0.614915 0.081969 -0.044573 -139963.000000 0 0 1
-23.421324 -4.439665 31.390607 39.416231 0.187334 0.649497 0.066364 -0.028847 595043.000000 0 0 1
-24.553524 -4.031965 32.178011 40.676243 0.162759 0.658230 0.052253 -0.023125 846479.000000 0 0 1
-24.690224 -4.556565 33.512807 41.874547 0.182496 0.642977 0.035980 -0.019878 538906.000000 0 0 1
-25.881544 -3.942565 -33.222162 42.297874 0.151169 2.474192 0.052247 -0.015717 850681.000000 0 0 1
-25.816104 -4.422865 -31.908582 41.281843 0.169675 2.454266 0.058334 -0.025983 649311.000000 0 0 1
-26.874804 -3.900065 -31.108172 41.293873 0.144114 2.423917 0.074642 -0.020508 98028.900000 0 0 1
-26.848694 -4.526765 -29.656692 40.259947 0.167032 2.398870 0.062941 -0.022155 -589044.000000 0 0 1
-26.958384 -5.919265 -29.758052 40.587360 0.216141 2.393790 0.059651 -0.020162 528509.000000 0 0 1
-26.837814 -6.537765 -28.512222 39.698330 0.238949 2.372040 0.043775 -0.017716 -175722.000000 0 0 1
-27.094834 -8.064965 -28.418912 40.085013 0.289306 2.358827 0.048727 -0.015252 64107.000000 0 0 1
-28.451774 -8.439665 -28.555142 41.184069 0.288363 2.336930 0.073946 -0.012881 -142387.000000 0 0 1
-28.610324 -9.710865 -28.057972 41.232285 0.327217 2.319221 0.080613 -0.013520 -441234.000000 0 0 1
-30.069244 -10.104565 -27.896312 42.242939 0.324187 2.292118 0.140554 -0.017630 -575534.000000 0 0 1
-30.263544 -11.184165 -26.991442 42.065492 0.353992 2.267448 0.157990 -0.025920 -431008.000000 0 0 1
-31.569944 -11.282165 -26.480132 42.721728 0.343226 2.239320 0.152809 -0.025493 -198188.000000 0 0 1
-31.701594 -12.096065 -25.155652 42.238758 0.364510 2.208757 0.149200 -0.031087 14904.700000 0 0 1
-31.301144 -11.346865 -23.983652 41.033261 0.347773 2.195051 0.170663 -0.030907 287300.000000 0 0 1
-31.294794 -12.132865 -22.737552 40.540928 0.369855 2.166214 0.180168 -0.043453 -324263.000000 0 0 1
-31.030714 -11.256865 -21.467352 39.376001 0.348001 2.147411 0.195204 -0.044027 161128.000000 0 0 1
-30.722454 -11.941565 -20.242352 38.681042 0.370720 2.121532 0.203199 -0.044810 155558.000000 0 0 1
-29.450124 -12.570465 -20.232852 37.877364 0.403427 2.134319 0.195764 -0.049451 -164497.000000 0 0 1
-29.031594 -12.852365 -18.791852 36.893772 0.416769 2.105226 0.172093 -0.056304 -80964.600000 0 0 1
-28.546564 -11.728965 -18.073952 35.765104 0.389843 2.100586 0.152913 -0.055256 178097.000000 0 0 1
-28.212654 -12.052665 -16.771252 34.964203 0.403739 2.071074 0.147938 -0.048521 -34266.200000 0 0 1
-27.735634 -10.784865 -16.002452 33.788418 0.370853 2.064179 0.139183 -0.040065 -490904.000000 0 0 1
-26.427124 -10.341265 -16.219252 32.686370 0.372995 2.090022 0.123028 -0.039933 -87597.100000 0 0 1
-26.208904 -9.163065 -15.497652 31.796944 0.336333 2.079900 0.115901 -0.037951 -46973.100000 0 0 1
-24.712624 -8.779265 -15.509252 30.468446 0.341348 2.104850 0.117866 -0.032478 -91328.000000 0 0 1
-23.896324 -9.493865 -14.620052 29.578940 0.378171 2.087794 0.111846 -0.039610 480368.000000 0 0 1
-22.554524 -9.061965 -14.806752 28.461653 0.382040 2.117923 0.134434 -0.049702 483303.000000 0 0 1
-21.464424 -9.470065 -13.781452 27.209044 0.415510 2.101920 0.118504 -0.029168 441718.000000 0 0 1
-20.720524 -10.688665 -14.004652 27.197756 0.476246 2.111710 0.119808 -0.033086 278656.000000 0 0 1
-19.711624 -10.822565 -13.054752 26.001973 0.502110 2.096784 0.137147 -0.032816 -504962.000000 0 0 1
-18.472024 -11.608865 -13.509252 25.660891 0.561081 2.125219 0.126478 -0.030821 -110457.000000 0 0 1
-17.778824 -11.133965 -14.643952 25.583141 0.559497 2.180234 0.134883 -0.038671 368480.000000 0 0 1
-18.405324 -11.411565 -15.887152 26.858544 0.555006 2.203729 0.116803 -0.045013 -303452.000000 0 0 1
-17.780324 -10.656965 -17.093952 26.868458 0.539955 2.260371 0.123090 -0.048569 -182421.000000 0 0 1
-18.375124 -11.081565 -18.249852 28.169192 0.542677 2.275576 0.072865 -0.031917 68911.400000 0 0 1
-18.048624 -10.161565 -19.273952 28.293028 0.512777 2.320233 0.077120 -0.037660 -180283.000000 0 0 1
-18.569024 -10.449065 -20.718252 29.719313 0.512553 2.342184 0.063869 -0.034285 -1058920.000000 0 0 1
-19.892424 -10.105365 -20.821952 30.518529 0.470028 2.321663 0.056628 -0.043407 -1160440.000000 0 0 1
-20.519624 -10.633865 -21.937952 31.865464 0.478124 2.330154 0.043282 -0.028021 455653.000000 0 0 1
-21.925424 -10.036165 -22.265952 32.821052 0.429273 2.316385 0.046679 -0.028495 189259.000000 0 0 1
-21.841724 -8.753165 -22.854952 32.802860 0.381156 2.341634 0.036438 -0.032588 -396666.000000 0 0 1
-22.816724 -8.262865 -23.707752 33.925438 0.347449 2.344542 0.046498 -0.033780 -933508.000000 0 0 1
-22.196524 -7.395565 -24.812852 34.103632 0.321618 2.385573 0.030551 -0.036246 136049.000000 0 0 1
-21.466924 -8.272465 -25.717022 34.505474 0.367821 2.411785 0.038992 -0.038113 294688.000000 0 0 1
-21.108424 -7.475065 -26.837702 34.952888 0.340347 2.446236 0.030343 -0.046655 -450561.000000 0 0 1
-19.959524 -8.089165 -27.626392 35.029055 0.385048 2.479440 0.061138 -0.045232 -456021.000000 0 0 1
-20.235624 -9.276665 -28.368542 36.059828 0.429844 2.476254 0.058126 -0.034011 338590.000000 0 0 1
-19.052924 -9.831165 -28.926072 36.005324 0.476360 2.503752 0.040881 -0.027925 106824.000000 0 0 1
-19.352224 -10.935965 -29.970662 37.314132 0.514363 2.503442 0.048508 -0.025516 -138742.000000 0 0 1
-19.983224 -10.488365 -31.171392 38.483642 0.483336 2.514933 0.054317 -0.022155 454243.000000 0 0 1
-20.211824 -11.665665 -31.922542 39.543068 0.523464 2.510334 0.039967 -0.023745 -126175.000000 0 0 1
-20.904924 -11.315265 -33.262072 40.882961 0.496118 2.521101 0.033889 -0.024947 -799092.000000 0 0 1
-20.125924 -10.634265 33.398085 40.417478 0.486098 0.598241 0.037985 -0.029722 -117081.000000 0 0 1
-20.648224 -10.683865 32.039584 39.585718 0.477489 0.627714 0.055454 -0.028663 -97006.800000 0 0 1
-20.199824 -11.899865 31.183267 39.013278 0.532372 0.644669 0.072740 -0.032580 1547370.000000 0 0 1
-18.758824 -11.824965 30.918427 38.048291 0.562450 0.622180 0.079676 -0.031007 1728020.000000 0 0 1
-18.351424 -12.701565 29.883867 37.298124 0.605424 0.641471 0.084623 -0.028869 -98254.400000 0 0 1
-18.351124 -14.258165 30.035987 37.976566 0.660536 0.658504 0.084779 -0.020352 159607.000000 0 0 1
-19.646924 -14.886465 29.954517 38.792803 0.648411 0.688552 0.072308 -0.023982 619009.000000 0 0 1
-19.813124 -16.062465 30.692297 39.907140 0.681230 0.693376 0.091724 -0.026100 -279088.000000 0 0 1
-20.095024 -15.836765 32.224664 41.146593 0.667439 0.671053 0.034747 -0.025149 -302151.000000 0 0 1
-18.908224 -15.616365 32.948927 41.073393 0.690337 0.639831 0.070831 -0.023420 -85328.900000 0 0 1
-19.149924 -15.220765 -33.292742 41.313411 0.671575 2.507919 0.047665 -0.018735 -365453.000000 0 0 1
-17.821724 -15.083665 -32.555272 40.062158 0.702379 2.519428 0.060235 -0.023570 -385351.000000 0 0 1
-17.055624 -14.010365 -33.099112 39.783613 0.687685 2.553461 0.051776 -0.022777 762596.000000 0 0 1
-15.878924 -13.730465 -32.271382 38.498156 0.712965 2.564877 0.063055 -0.018990 932447.000000 0 0 1
-16.178524 -13.038665 -30.906992 37.242363 0.678343 2.549703 0.072763 -0.020796 -306260.000000 0 0 1
-16.724924 -14.022765 -30.043972 37.134906 0.697742 2.513329 0.064473 -0.022656 -297565.000000 0 0 1
-16.789224 -13.625665 -28.660402 35.902025 0.681757 2.495255 0.055681 -0.019704 64056.400000 0 0 1
-17.080624 -14.862165 -27.725602 35.795819 0.716058 2.456797 0.071424 -0.016219 649729.000000 0 0 1
-15.938024 -15.675065 -27.434072 35.388650 0.777080 2.457863 0.077283 -0.032887 293346.000000 0 0 1
-15.418124 -16.516365 -28.465482 36.342709 0.819775 2.470675 0.084403 -0.032241 -439053.000000 0 0 1
-14.107524 -17.161165 -28.041932 35.775379 0.882748 2.471611 0.125189 -0.028870 -44138.400000 0 0 1
-13.062124 -16.241065 -27.749002 34.704443 0.893460 2.497393 0.098034 -0.036631 1248240.000000 0 0 1
-11.848624 -16.766765 -27.145702 34.035326 0.955606 2.494060 0.144806 -0.044566 1754020.000000 0 0 1
-10.514724 -16.136365 -27.641152 33.689390 0.993285 2.533030 0.134628 -0.052997 513359.000000 0 0 1
-10.344724 -14.797265 -27.199182 32.646100 0.960677 2.555580 0.119381 -0.041523 447867.000000 0 0 1
-9.018324 -14.351965 -27.526142 32.326422 1.009778 2.589647 0.154518 -0.045393 702270.000000 0 0 1
-8.718124 -12.873365 -27.613992 31.690089 0.975522 2.628797 0.120808 -0.043751 120043.000000 0 0 1
-9.394824 -12.250365 -28.721762 32.607879 0.916566 2.648394 0.153686 -0.044368 298143.000000 0 0 1
-9.074424 -10.881365 -28.849692 32.141157 0.875699 2.685076 0.118872 -0.040615 -396916.000000 0 0 1
-7.939324 -10.507365 -29.789462 32.570687 0.923723 2.725338 0.110544 -0.029575 -133180.000000 0 0 1
-6.612624 -10.919265 -29.431772 32.080934 1.026275 2.732350 0.107247 -0.032318 590299.000000 0 0 1
-5.663024 -10.576565 -30.385522 32.668234 1.079207 2.765548 0.106788 -0.033845 -218511.000000 0 0 1
-5.272224 -9.114465 -30.624082 32.383703 1.046376 2.810425 0.103582 -0.030768 -64857.200000 0 0 1
-3.998324 -8.793565 -31.228962 32.688858 1.144051 2.841603 0.114682 -0.047241 970903.000000 0 0 1
-4.068824 -7.458365 -31.711082 32.829487 1.071385 2.879821 0.122858 -0.043208 461144.000000 0 0 1
-2.679424 -6.850665 -32.090962 32.923256 1.197969 2.916262 0.123504 -0.049273 432292.000000 0 0 1
-2.172424 -7.325565 -33.311072 34.176174 1.282504 2.916113 0.144052 -0.050999 291080.000000 0 0 1
-0.913624 -6.701665 -33.585582 34.259865 1.435304 2.942865 0.172129 -0.048176 610748.000000 0 0 1
-0.257524 -7.247265 32.722822 33.516746 1.535277 0.218089 0.164964 -0.044617 -399299.000000 0 0 1
-0.775724 -6.758765 31.517147 32.243034 1.456523 0.212593 0.163797 -0.041955 -65541.400000 0 0 1
-0.385324 -7.538265 30.417697 31.340233 1.519725 0.243235 0.131758 -0.036830 -268897.000000 0 0 1
-0.606824 -6.990665 29.004977 29.841688 1.484208 0.237362 0.114100 -0.021279 414685.000000 0 0 1
0.293776 -5.915265 28.629237 29.235422 -1.521173 0.203993 0.129793 -0.031454 561795.000000 0 0 1
0.274476 -5.616165 27.226497 27.801058 -1.521963 0.203659 0.121733 -0.024839 126014.000000 0 0 1
-0.833724 -4.582765 26.848347 27.249414 1.390838 0.171783 0.095380 -0.017572 1155730.000000 0 0 1
-2.165024 -5.053765 27.105937 27.657905 1.166051 0.200118 0.057315 0.000530 189753.000000 0 0 1
-3.089524 -3.985965 26.968547 27.436028 0.911423 0.184865 0.039487 -0.003105 362372.000000 0 0 1
-4.528324 -4.425565 27.349677 28.073051 0.773922 0.227504 0.034037 -0.002061 158846.000000 0 0 1
-5.144024 -5.326465 26.455997 27.472750 0.802821 0.272911 0.042965 -0.000788 257069.000000 0 0 1
-6.482324 -5.648365 26.827347 28.171459 0.716758 0.310149 0.034439 -0.007215 736865.000000 0 0 1
-6.795924 -7.142265 26.722517 28.483144 0.810241 0.353441 0.046811 -0.005402 184003.000000 0 0 1
-6.001824 -7.872465 27.626757 29.346811 0.919418 0.344072 0.036415 0.000180 33937.900000 0 0 1
-6.245324 -9.288565 27.460597 29.654105 0.978858 0.387040 0.050243 -0.008347 356231.000000 0 0 1
-5.622124 -10.092565 28.678707 30.918221 1.062552 0.382950 0.046733 -0.007787 197075.000000 0 0 1
-5.828224 -11.500765 28.564947 31.339943 1.101749 0.423989 0.078143 -0.011177 148930.000000 0 0 1
-5.556524 -12.195965 29.733827 32.614675 1.143292 0.423466 0.089107 -0.013283 -152020.000000 0 0 1
-5.685024 -13.698265 29.585057 33.094374 1.177411 0.464690 0.123292 -0.028950 477044.000000 0 0 1
-7.018124 -14.193965 29.547777 33.523035 1.111603 0.491942 0.120300 -0.030895 265299.000000 0 0 1
-6.972924 -15.615765 29.661867 34.238869 1.150831 0.523006 0.156512 -0.037521 268997.000000 0 0 1
-6.915524 -16.243565 31.091657 35.754287 1.168300 0.516420 0.161507 -0.032576 552036.000000 0 0 1
-8.230124 -16.270165 31.649669 36.526084 1.102486 0.522659 0.154164 -0.034068 322646.000000 0 0 1
-8.273224 -16.670265 32.963065 37.853767 1.110124 0.513969 0.183239 -0.038644 25720.200000 0 0 1
-9.751924 -16.799465 33.430047 38.663809 1.044846 0.526375 0.193113 -0.030712 687454.000000 0 0 1
-10.511424 -17.919865 32.978718 38.977012 1.040303 0.562158 0.179386 -0.029148 141988.000000 0 0 1
-11.018524 -17.766865 31.682355 37.958412 1.015676 0.583282 0.157618 -0.041145 -768452.000000 0 0 1
-11.900124 -18.935865 31.225447 38.408443 1.009725 0.621538 0.141078 -0.039659 -19666.800000 0 0 1
-12.946124 -19.286765 32.116794 39.636724 0.979632 0.626169 0.135469 -0.041594 164180.000000 0 0 1
-13.397924 -20.590265 31.932344 40.288187 0.993935 0.655738 0.120503 -0.030976 -398844.000000 0 0 1
-12.779324 -21.649265 32.891155 41.398429 1.037548 0.652608 0.118970 -0.026193 -273818.000000 0 0 1
-11.454424 -21.995165 32.520380 40.897019 1.090671 0.651496 0.122622 -0.033760 -41859.200000 0 0 1
-10.775624 -22.627865 33.583387 41.904394 1.126361 0.641116 0.132010 -0.041325 -2980.620000 0 0 1
-11.007724 -24.083065 -33.781162 42.922382 1.142076 2.476775 0.136244 -0.031012 -158006.000000 0 0 1
-10.545924 -24.961465 32.764306 42.518126 1.171055 0.691020 0.124788 -0.031232 -63732.500000 0 0 1
-10.881024 -26.281965 33.048087 43.604065 1.178270 0.710688 0.135764 -0.033716 -874600.000000 0 0 1
-10.255624 -27.210735 31.995226 43.235361 1.210364 0.737690 0.097585 -0.026836 352270.000000 0 0 1
-8.876524 -27.053825 31.695246 42.606229 1.253758 0.731892 0.131534 -0.037382 657864.000000 0 0 1
-7.989324 -27.534785 32.699471 43.488494 1.288397 0.719841 0.112533 -0.044053 480111.000000 0 0 1
-6.463724 -27.183875 32.700866 43.012666 1.337353 0.707081 0.133524 -0.046273 987326.000000 0 0 1
-6.015624 -25.881135 32.919487 42.305006 1.342419 0.679087 0.152573 -0.048557 -190139.000000 0 0 1
-4.898624 -25.552705 32.114501 41.331325 1.381388 0.680908 0.215348 -0.033218 60764.300000 0 0 1
-4.268824 -24.210465 32.473242 40.729362 1.396269 0.647999 0.231560 -0.045624 -5368.580000 0 0 1
-3.535624 -24.353965 33.702457 41.730946 1.426627 0.630703 0.207994 -0.046377 137885.000000 0 0 1
-3.068624 -23.109065 -33.452792 40.774191 1.438780 2.532977 0.191032 -0.033246 19145.300000 0 0 1
35.110656 -15.998465 1.911448 38.631110 -0.427549 1.521297 0.219808 -0.061360 -46981.800000 0 0 1
36.026496 -15.940665 2.973248 39.507637 -0.416575 1.495468 0.174832 -0.057561 48759.100000 0 0 1
35.343576 -16.091965 4.189148 39.059809 -0.427253 1.463340 0.140647 -0.051310 88430.400000 0 0 1
36.263486 -16.115465 5.454048 40.056151 -0.418187 1.434212 0.101227 -0.029448 326815.000000 0 0 1
37.168886 -17.210365 5.544548 41.333579 -0.433638 1.436249 0.129334 -0.035822 -388298.000000 0 0 1
-37.697484 -17.156365 6.696748 41.955782 0.427092 1.410496 0.115892 -0.025944 -275778.000000 0 0 1
-36.286294 -17.763865 6.459848 40.914297 0.455251 1.412246 0.136463 -0.028221 -129933.000000 0 0 1
-36.265394 -19.193865 6.401248 41.527813 0.486782 1.416036 0.102174 -0.020950 -33567.200000 0 0 1
-34.962385 -19.720865 6.448748 40.655470 0.513573 1.411504 0.080429 -0.009904 -212903.000000 0 0 1
-34.861493 -21.141065 6.922948 41.354511 0.545134 1.402599 0.094306 -0.004809 -111009.000000 0 0 1
-34.791536 -22.018365 5.833348 41.584701 0.564235 1.430056 0.116349 -0.016093 330075.000000 0 0 1
-35.175486 -23.300165 6.289548 42.658773 0.585041 1.422818 0.121076 -0.017225 -112724.000000 0 0 1
-34.738313 -24.405965 5.340348 42.789261 0.612446 1.445664 0.123062 -0.014682 177753.000000 0 0 1
-35.352002 -24.360365 4.065548 43.124472 0.603360 1.476381 0.126571 -0.011511 510808.000000 0 0 1
-34.644596 -25.289165 3.230348 43.014243 0.630552 1.495626 0.128952 -0.017283 379109.000000 0 0 1
-34.939559 -25.008975 1.741948 43.002977 0.621237 1.530278 0.128324 -0.013895 -643847.000000 0 0 1
-35.979854 -25.710985 1.157548 44.237366 0.620454 1.544627 0.116951 -0.012531 -386123.000000 0 0 1
-36.564234 -25.124985 0.025848 44.364499 0.602047 1.570214 0.113455 -0.016044 425566.000000 0 0 1
-37.478764 -23.859665 0.139948 44.429281 0.566910 1.567646 0.112620 -0.018282 502269.000000 0 0 1
36.677726 -24.060865 0.095948 43.865590 -0.580587 1.568609 0.097236 -0.013783 512806.000000 0 0 1
35.980896 -22.890365 0.448848 42.647334 -0.566599 1.560271 0.110509 -0.014368 489765.000000 0 0 1
34.429086 -22.979565 0.457048 41.396029 -0.588542 1.559755 0.089238 -0.012840 251753.000000 0 0 1
33.872966 -22.889865 -0.805152 40.889754 -0.594269 1.590488 0.098398 -0.021699 481458.000000 0 0 1
32.440556 -22.811265 -0.797552 39.665849 -0.612851 1.590904 0.087206 -0.019692 933558.000000 0 0 1
31.988786 -22.679865 -2.325852 39.281908 -0.616737 1.630040 0.091287 -0.016126 -127672.000000 0 0 1
32.180966 -21.410465 -2.958552 38.765650 -0.587066 1.647190 0.136425 -0.027684 121907.000000 0 0 1
31.647436 -21.403265 -4.264452 38.442756 -0.594644 1.681955 0.139933 -0.042761 -13005.000000 0 0 1
31.585636 -19.956165 -4.895152 37.681075 -0.563482 1.701075 0.147902 -0.051574 66041.700000 0 0 1
30.653096 -19.196365 -4.162552 36.406587 -0.559494 1.685382 0.168554 -0.052230 81980.800000 0 0 1
30.755756 -17.791565 -4.446352 35.808188 -0.524445 1.695289 0.172601 -0.053475 26788.600000 0 0 1
29.683166 -17.058165 -3.609052 34.425232 -0.521590 1.675827 0.173516 -0.039863 -180675.000000 0 0 1
30.001466 -16.747365 -2.271452 34.434310 -0.509131 1.636809 0.165291 -0.036735 26679.400000 0 0 1
30.499666 -17.671065 -1.308752 35.273347 -0.525124 1.607908 0.149690 -0.022263 -130727.000000 0 0 1
29.610166 -18.864765 -0.913852 35.120883 -0.567256 1.596819 0.136017 -0.029923 201908.000000 0 0 1
28.543566 -18.524265 -0.025952 34.027698 -0.575659 1.571559 0.122411 -0.009813 776013.000000 0 0 1
27.790366 -19.677165 0.394548 34.053648 -0.616113 1.559210 0.095789 -0.007228 330737.000000 0 0 1
26.593966 -19.403965 1.351248 32.948122 -0.630341 1.529773 0.092356 0.002616 -834598.000000 0 0 1
26.008466 -20.630465 1.709548 33.241223 -0.670594 1.519345 0.078325 0.004943 -169394.000000 0 0 1
24.949866 -20.467165 2.628548 32.377614 -0.687016 1.489523 0.060698 0.011963 1070290.000000 0 0 1
23.554466 -20.028165 2.007848 30.983410 -0.704663 1.505947 0.039341 0.007682 101998.000000 0 0 1
23.490466 -18.605865 1.660248 30.012274 -0.669881 1.515449 0.096259 -0.014951 166999.000000 0 0 1
23.525566 -17.674565 2.750748 29.553496 -0.644327 1.477584 0.114484 -0.012738 -381483.000000 0 0 1
23.400166 -16.241765 2.289848 28.576321 -0.606747 1.490579 0.109401 -0.004192 -388281.000000 0 0 1
22.069766 -16.001465 1.940148 27.329208 -0.627334 1.499745 0.081846 -0.008136 -605586.000000 0 0 1
21.728566 -14.773165 1.377248 26.311096 -0.597106 1.518428 0.094247 -0.022274 508636.000000 0 0 1
20.210166 -14.670665 1.021648 24.994459 -0.627901 1.529910 0.045377 -0.013217 636183.000000 0 1 0
19.359366 -14.504065 2.165948 24.286710 -0.642990 1.481495 0.060292 -0.016110 428969.000000 0 1 0
18.444466 -13.429665 2.030548 22.905837 -0.629346 1.482032 0.076586 -0.024696 -207841.000000 0 1 0
18.988666 -12.023965 2.320148 22.594872 -0.564487 1.467930 0.081777 -0.020631 -724153.000000 0 1 0
19.831166 -11.496665 1.330848 22.961263 -0.525380 1.512803 0.081290 -0.025017 183463.000000 0 1 0
20.370366 -10.315365 1.798148 22.903971 -0.468747 1.492207 0.098782 -0.027539 -24539.800000 0 1 0
21.193366 -9.567165 0.686648 23.262865 -0.424036 1.541275 0.104532 -0.027074 738025.000000 0 1 0
20.309766 -9.317965 -0.421752 22.349249 -0.430142 1.589668 0.095035 -0.022751 1123440.000000 0 1 0
21.050666 -8.554865 -1.315452 22.760638 -0.386006 1.628624 0.088196 -0.009282 -189717.000000 0 1 0
20.406766 -8.499365 -2.716952 22.272340 -0.394647 1.693089 0.090859 -0.006604 -415379.000000 0 1 0
21.161566 -7.808665 -3.672552 22.853331 -0.353502 1.732197 0.115144 -0.005147 501144.000000 0 1 0
22.292666 -8.462565 -4.225052 24.216297 -0.362808 1.746165 0.104761 -0.000957 -365812.000000 0 1 0
22.018866 -9.712565 -5.139252 24.608459 -0.415430 1.781186 0.093531 -0.004833 -114932.000000 0 1 0
21.492966 -9.440365 -6.463152 24.348314 -0.413862 1.839462 0.100823 -0.006976 707713.000000 0 1 0
20.167866 -8.946765 -6.570252 23.020765 -0.417531 1.860226 0.105615 -0.001669 12572.500000 0 1 0
19.497666 -9.032865 -7.977352 22.921382 -0.433842 1.926266 0.110895 0.002138 -29791.200000 0 1 0
19.510566 -10.238765 -8.694052 23.687149 -0.483275 1.946618 0.108601 0.000559 350205.000000 0 1 0
20.778066 -10.561265 -9.241752 25.073458 -0.470257 1.948285 0.112725 -0.004240 100674.000000 0 0 1
20.812366 -12.008165 -9.772452 25.939380 -0.523315 1.957073 0.095148 -0.013007 -129000.000000 0 0 1
19.687366 -12.177165 -10.588952 25.455876 -0.553931 1.999809 0.117465 -0.015011 -99831.700000 0 0 1
19.744366 -13.466865 -11.146852 26.371362 -0.598585 2.007205 0.107667 -0.009117 416293.000000 0 0 1
18.491266 -13.726865 -12.035552 25.984769 -0.638583 2.052373 0.109631 -0.011658 400669.000000 0 0 1
18.475166 -15.058165 -12.523452 26.924281 -0.683850 2.054585 0.106319 -0.023159 -347604.000000 0 0 1
17.464066 -15.189065 -13.459952 26.774458 -0.715839 2.097534 0.097538 -0.022829 -729516.000000 0 0 1
17.296866 -16.713165 -13.922052 27.790915 -0.768237 2.095500 0.081767 -0.027899 -599026.000000 0 0 1
16.818966 -17.561465 -12.947952 27.548723 -0.806991 2.060089 0.073892 -0.024540 103782.000000 0 0 1
16.728466 -18.917565 -13.353352 28.566201 -0.846733 2.057204 0.069099 -0.033172 -639733.000000 0 0 1
16.054766 -19.849165 -12.353052 28.360937 -0.890689 2.021463 0.054300 -0.026469 450963.000000 0 0 1
14.658666 -19.495065 -12.375452 27.351158 -0.926070 2.040324 0.036912 -0.021338 542952.000000 0 0 1
13.863666 -20.343565 -11.572852 27.202808 -0.972611 2.010232 0.022594 -0.009923 993728.000000 0 0 1
12.321466 -20.099465 -11.739052 26.336521 -1.020855 2.032789 0.030706 -0.014439 841989.000000 0 0 1
11.477366 -20.999665 -11.071652 26.368491 -1.070606 2.004112 0.027771 -0.017323 331793.000000 0 0 1
10.130966 -20.863465 -11.535352 25.903378 -1.118748 2.032331 0.025090 -0.012774 1061210.000000 0 0 1
9.065066 -21.655165 -10.691952 25.796113 -1.174351 1.998167 0.021635 -0.001373 220235.000000 0 0 1
9.150666 -23.060665 -10.651652 26.999753 -1.193044 1.976330 0.045715 -0.012008 -323917.000000 0 0 1
8.110666 -23.552865 -9.857952 26.789915 -1.239155 1.947624 0.050599 -0.022263 -193719.000000 0 0 1
8.137666 -25.125175 -9.751452 28.152919 -1.257573 1.924500 0.055517 -0.023739 187459.000000 0 0 1
9.289066 -25.567575 -9.067052 28.674014 -1.222310 1.892530 0.031719 -0.018811 -369225.000000 0 0 1
9.841966 -26.760085 -9.554552 30.070848 -1.218366 1.894136 0.026335 -0.011432 81783.000000 0 0 1
11.352966 -26.854095 -9.268452 30.593078 -1.170820 1.878592 0.011675 -0.003877 31732.800000 0 0 1
11.617866 -27.092065 -7.865052 30.509242 -1.165687 1.831533 0.019415 -0.010910 -322099.000000 0 0 1
13.010966 -27.215585 -7.695552 31.131894 -1.124846 1.820577 0.020170 -0.003932 -75465.500000 0 0 1
13.470366 -27.337185 -6.152052 31.090516 -1.112966 1.769986 0.026733 -0.011526 156246.000000 0 0 1
13.011866 -28.503635 -5.503152 31.812742 -1.142551 1.744657 0.039903 -0.010648 504495.000000 0 0 1
11.608666 -28.646875 -5.264352 31.354712 -1.185787 1.739492 0.044818 -0.014469 455124.000000 0 0 1
11.179266 -29.770335 -4.236552 32.081103 -1.211573 1.703241 0.061085 -0.026516 94914.100000 0 0 1
11.260366 -31.073745 -4.676752 33.380316 -1.223139 1.711364 0.067138 -0.024050 -265280.000000 0 0 1
10.163166 -31.423415 -5.487752 33.478894 -1.257988 1.735456 0.083708 -0.023630 -156419.000000 0 0 1
10.282766 -32.838365 -6.141152 34.954359 -1.267335 1.747404 0.085844 -0.016730 52155.200000 0 0 1
10.202466 -33.798115 -5.150352 35.678131 -1.277629 1.715658 0.078281 -0.025141 -168909.000000 0 0 1
10.374366 32.560766 -5.652652 34.637890 1.262350 1.734722 0.088658 -0.023329 45590.700000 0 0 1
10.009666 31.551325 -4.554752 33.412951 1.263590 1.707539 0.086459 -0.022740 -333122.000000 0 0 1
8.669066 31.202795 -4.427452 32.685921 1.299801 1.706668 0.092681 -0.028707 -990445.000000 0 0 1
8.393166 30.098255 -3.511052 31.443245 1.298846 1.682693 0.077254 -0.025448 478285.000000 0 0 1
6.905466 29.624675 -3.498852 30.619419 1.341787 1.685316 0.072001 -0.027557 527659.000000 0 0 1
6.557666 28.916355 -4.679052 30.017530 1.347788 1.727312 0.077271 -0.028661 48995.600000 0 0 1
6.067666 29.794485 -5.707452 30.937080 1.369893 1.756345 0.092853 -0.031042 -383606.000000 0 0 1
5.841366 29.164245 -7.106452 30.580654 1.373120 1.805324 0.098649 -0.035073 109475.000000 0 0 1
4.796566 28.220325 -7.258352 29.530958 1.402437 1.819129 0.111197 -0.037460 117278.000000 0 0 1
5.205266 26.917205 -6.850452 28.258793 1.379774 1.815654 0.105250 -0.032310 109200.000000 0 0 1
4.456566 25.740315 -7.604052 27.207470 1.399360 1.854053 0.109811 -0.031633 551308.000000 0 0 1
3.101366 25.560505 -7.222552 26.741786 1.450052 1.844277 0.108078 -0.031727 369289.000000 0 0 1
2.121366 26.117485 -8.114952 27.431290 1.489750 1.871119 0.098531 -0.032843 398060.000000 0 0 1
1.703866 25.396755 -9.380752 27.127418 1.503807 1.923891 0.108786 -0.038449 -154943.000000 0 0 1
2.763566 25.249975 -10.354652 27.430227 1.461782 1.957881 0.111009 -0.035196 465110.000000 0 0 1
2.560066 24.461395 -11.532052 27.164352 1.466519 2.009238 0.130756 -0.037515 -634923.000000 0 0 1
2.181466 22.999175 -11.338552 25.734871 1.476229 2.027053 0.134563 -0.034652 -151086.000000 0 0 1
0.942466 22.789785 -10.697852 25.193384 1.529465 2.009349 0.133348 -0.032260 -36329.000000 0 0 1
0.861766 21.397275 -10.461852 23.833513 1.530544 2.025232 0.092854 -0.027712 202892.000000 0 1 0
-0.287334 20.915575 -9.502852 22.974944 -1.557059 1.997221 0.087070 -0.018779 1260380.000000 0 1 0
-1.579934 21.043875 -10.116852 23.402811 -1.495859 2.017830 0.083361 -0.028683 408177.000000 0 1 0
-2.608634 20.446675 -9.371952 22.642989 -1.443900 1.997531 0.066387 -0.013887 -218338.000000 0 1 0
-3.937034 20.299575 -10.108752 23.016512 -1.379228 2.025499 0.064164 -0.024454 -233259.000000 0 1 0
-4.945734 19.659475 -9.348652 22.323811 -1.324341 2.002892 0.054079 -0.023313 -416121.000000 0 1 0
-5.997534 19.262375 -10.157752 22.587373 -1.268950 2.037236 0.057736 -0.021938 -1115110.000000 0 1 0
-6.736534 18.038675 -9.486852 21.465671 -1.213386 2.028573 0.055677 -0.023532 283921.000000 0 1 0
-7.839434 18.499775 -8.697652 21.894007 -1.169978 1.979327 0.075523 -0.018773 1147170.000000 0 1 0
-9.059534 18.577475 -9.494452 22.745161 -1.117068 2.001409 0.081289 -0.023410 1283760.000000 0 1 0
-10.271234 18.959375 -8.535852 23.190880 -1.074309 1.947728 0.103589 -0.030146 813368.000000 0 1 0
-10.720434 17.906075 -7.667852 22.234010 -1.031330 1.922897 0.102247 -0.025657 -63303.800000 0 1 0
-11.788434 18.360475 -6.844652 22.867520 -1.000027 1.874774 0.107024 -0.022082 -346114.000000 0 1 0
-12.166434 17.113775 -6.067852 21.856858 -0.952783 1.852110 0.090192 -0.027208 99022.600000 0 1 0
-13.215334 17.412175 -5.143252 22.456223 -0.921579 1.801882 0.094297 -0.024706 279070.000000 0 1 0
-13.483034 16.259475 -4.292652 21.554341 -0.878478 1.771292 0.084337 -0.025155 525086.000000 0 1 0
-14.676934 16.593075 -3.323152 22.400578 -0.846599 1.719697 0.072097 -0.029135 106636.000000 0 1 0
-15.942734 16.381575 -3.886352 23.186861 -0.798974 1.739201 0.099840 -0.048471 -498428.000000 0 1 0
-16.912734 16.855675 -2.975952 24.062640 -0.783708 1.694789 0.105304 -0.040326 676917.000000 0 1 0
-18.334834 16.943875 -3.658252 25.231802 -0.745991 1.716295 0.104932 -0.051232 497116.000000 0 0 1
-18.407134 18.021475 -4.538852 26.157166 -0.774812 1.745201 0.095936 -0.050969 1626330.000000 0 0 1
-19.710034 18.202075 -5.205652 27.329467 -0.745644 1.762445 0.082965 -0.050026 1440430.000000 0 0 1
-19.601334 19.060075 -6.451552 28.091303 -0.771399 1.802528 0.077811 -0.031593 -40811.700000 0 0 1
-19.339334 20.442175 -6.204452 28.816446 -0.813114 1.787805 0.086637 -0.035294 145318.000000 0 0 1
-19.156734 21.180375 -7.388052 29.498679 -0.835524 1.823945 0.078554 -0.021857 -82324.500000 0 0 1
-18.967534 22.719895 -7.134652 30.444445 -0.875168 1.807346 0.104465 -0.023014 165863.000000 0 0 1
-17.668834 23.124075 -6.730152 29.869809 -0.918340 1.798064 0.086455 -0.029225 162192.000000 0 0 1
-17.723634 23.982035 -5.563352 30.335064 -0.934348 1.755237 0.109722 -0.035973 -524769.000000 0 0 1
-16.346034 24.440845 -5.120952 29.845802 -0.981318 1.743230 0.084747 -0.032870 -998275.000000 0 0 1
-16.289034 25.196685 -3.911752 30.257352 -0.996903 1.700442 0.084714 -0.034695 644022.000000 0 0 1
-15.045634 25.908875 -3.728452 30.191758 -1.044679 1.694605 0.101676 -0.042610 929509.000000 0 0 1
-14.723934 26.975675 -4.851052 31.112923 -1.071166 1.727353 0.116926 -0.038160 -696095.000000 0 0 1
-15.513934 28.094235 -4.742052 32.441567 -1.066258 1.717494 0.131597 -0.039712 -334768.000000 0 0 1
-15.012734 29.180825 -5.463052 33.267817 -1.095638 1.735758 0.116194 -0.043526 17735.000000 0 0 1
-15.663834 30.462435 -4.915452 34.604585 -1.095852 1.713325 0.122043 -0.037343 -423189.000000 0 0 1
-16.990534 30.649985 -5.277352 35.439389 -1.064627 1.720264 0.166358 -0.035544 -325032.000000 0 0 1
-17.664934 31.639125 -4.474852 36.511757 -1.061584 1.693664 0.156531 -0.035346 329723.000000 0 0 1
13.036976 -8.470965 18.448987 24.126440 -0.576210 0.700253 0.145813 -0.041785 -156577.000000 0 1 0
13.468076 -9.649965 18.992487 25.203680 -0.621719 0.717335 0.151957 -0.041161 -79650.400000 0 0 1
13.741276 -10.656365 17.990787 25.020975 -0.659623 0.768393 0.156480 -0.045083 -305716.000000 0 0 1
14.404276 -11.843465 18.618887 26.351732 -0.688143 0.786181 0.202269 -0.061766 -1146580.000000 0 0 1
15.757776 -11.599565 18.848887 27.168694 -0.634557 0.804083 0.191793 -0.054668 -234378.000000 0 0 1
16.364576 -12.592465 19.682987 28.526996 -0.655862 0.809338 0.177216 -0.056083 222801.000000 0 0 1
17.086276 -13.743065 18.874787 28.932166 -0.677378 0.860075 0.167115 -0.057287 -479148.000000 0 0 1
16.152176 -14.375165 18.046687 28.164181 -0.727253 0.875299 0.186981 -0.062536 97482.800000 0 0 1
16.619376 -15.597265 17.539187 28.759371 -0.753683 0.914913 0.190669 -0.059679 -166300.000000 0 0 1
16.026576 -15.944365 16.148687 27.782261 -0.782827 0.950521 0.170935 -0.055219 351309.000000 0 0 1
14.620976 -16.156765 16.153787 27.124875 -0.835256 0.932866 0.214815 -0.056654 207705.000000 0 0 1
14.069476 -16.125965 14.874987 26.062658 -0.853399 0.963390 0.234082 -0.063177 -158678.000000 0 0 1
13.418576 -17.423465 14.420187 26.297854 -0.914527 0.990417 0.165915 -0.039035 -530324.000000 0 0 1
14.323376 -18.429865 14.078787 27.258600 -0.910124 1.028050 0.166445 -0.041203 -284234.000000 0 0 1
13.680876 -19.628165 13.754587 27.597462 -0.962085 1.049044 0.131461 -0.039088 -362091.000000 0 0 1
14.639576 -20.663965 13.180387 28.548892 -0.954416 1.090911 0.125407 -0.022930 -664815.000000 0 0 1
15.529376 -21.175965 14.110387 29.810838 -0.938037 1.077728 0.097446 -0.024094 -247274.000000 0 0 1
16.154176 -22.343165 13.535587 30.714598 -0.944798 1.114430 0.073534 -0.025780 64045.800000 0 0 1
17.230376 -23.057365 14.386987 32.179393 -0.929036 1.107290 0.088893 -0.032135 -473312.000000 0 0 1
18.469676 -22.416565 14.363087 32.402617 -0.881633 1.111554 0.064787 -0.032044 -717341.000000 0 0 1
19.305276 -23.081865 15.270287 33.743856 -0.874261 1.101190 0.084657 -0.040570 229220.000000 0 0 1
20.715676 -22.476165 15.518687 34.280415 -0.826135 1.101007 0.038237 -0.036519 760616.000000 0 0 1
21.586776 -22.500765 14.387487 34.340546 -0.806126 1.138491 0.042360 -0.031692 -767212.000000 0 0 1
22.829876 -22.020865 14.767687 34.988660 -0.767362 1.135068 0.044841 -0.025395 -737182.000000 0 0 1
24.023876 -22.578465 13.983187 35.811496 -0.754392 1.169658 0.038097 -0.027168 -429638.000000 0 0 1
24.309876 -23.851365 14.543087 37.031865 -0.775878 1.167211 0.037855 -0.028362 -125701.000000 0 0 1
25.403976 -24.489965 13.942687 37.940992 -0.767081 1.194495 0.059180 -0.031771 -231619.000000 0 0 1
25.870276 -25.823205 14.687187 39.393179 -0.784488 1.188733 0.065290 -0.024439 -401516.000000 0 0 1
26.343776 -25.641305 15.986887 40.088048 -0.771886 1.160595 0.083013 -0.022531 77335.700000 0 0 1
26.569776 -26.874605 16.567487 41.263531 -0.791102 1.157638 0.115335 -0.013219 -105306.000000 0 0 1
27.182876 -26.745235 17.957287 42.150688 -0.777283 1.130701 0.105553 -0.001538 263285.000000 0 0 1
26.265076 -26.290695 18.966687 41.722776 -0.785886 1.098886 0.101787 -0.004124 602777.000000 0 0 1
26.931576 -26.147665 20.212987 42.633027 -0.770631 1.076837 0.107722 -0.003812 170126.000000 0 0 1
25.891576 -25.834915 21.297287 42.324827 -0.784303 1.043514 0.085809 -0.011025 97639.400000 0 0 1
25.124876 -26.981565 21.571487 42.715258 -0.821016 1.041407 0.094186 -0.011225 74126.000000 0 0 1
23.998576 -26.700925 22.394087 42.312719 -0.838649 1.013078 0.093694 -0.010705 425353.000000 0 0 1
23.057076 -27.895445 22.602177 42.668994 -0.880073 1.012538 0.105152 -0.010706 72511.800000 0 0 1
23.807576 -28.915085 23.290037 44.105653 -0.881972 1.014492 0.100552 -0.019335 744537.000000 0 0 1
23.464876 -30.238065 22.837277 44.569970 -0.910859 1.032829 0.112226 -0.022846 -149909.000000 0 0 1
24.478476 -31.312365 23.319007 46.080756 -0.907282 1.040201 0.094429 -0.009947 98059.700000 0 0 1
24.447176 -31.600355 24.709927 46.976881 -0.912339 1.016904 0.077734 -0.015378 440485.000000 0 0 1
25.650276 -32.224035 25.149637 48.257946 -0.898500 1.022598 0.082074 -0.024460 142090.000000 0 0 1
25.422976 -32.630475 26.673557 49.219450 -0.908919 0.998063 0.077755 -0.034284 438361.000000 0 0 1
24.648776 -33.806325 26.934447 49.758358 -0.940795 0.998808 0.074072 -0.019285 734624.000000 0 0 1
23.236076 -33.668295 26.755067 48.880496 -0.966714 0.991594 0.060929 -0.013689 133351.000000 0 0 1
22.562476 32.719860 27.329887 48.234607 0.967108 0.968419 0.084783 -0.029472 -462030.000000 0 0 1
22.109576 32.905178 28.648727 48.911488 0.979167 0.945021 0.061659 -0.025837 -21804.700000 0 0 1
21.632776 31.733025 29.207367 48.249686 0.972450 0.920606 0.068850 -0.037517 -121709.000000 0 0 1
21.423376 32.017309 30.775257 49.307054 0.981098 0.896746 0.050576 -0.032492 -524474.000000 0 0 1
22.677076 32.291746 31.326337 50.382001 0.958558 0.899788 0.048996 -0.018834 -21035.900000 0 0 1
22.540576 32.745906 32.624259 51.426785 0.967933 0.883587 0.037443 -0.009321 -775403.000000 0 0 1
23.722276 32.291551 33.425482 52.180011 0.937206 0.875543 0.021639 0.000887 -764415.000000 0 0 1
23.802376 30.901795 33.686977 51.539174 0.914455 0.858440 0.040625 0.001507 720425.000000 0 0 1
24.997476 30.444395 -33.263062 51.557407 0.883329 2.272036 0.023767 0.024262 615082.000000 0 0 1
24.858476 28.899895 -33.115612 50.495460 0.860435 2.286056 0.055249 0.006789 51830.400000 0 0 1
25.074076 28.217465 33.263541 50.312998 0.844315 0.848470 0.078339 0.001740 223526.000000 0 0 1
24.991576 26.795205 33.319753 49.525426 0.820212 0.832835 0.090061 -0.013166 -336381.000000 0 0 1
25.498376 26.123165 32.069976 48.590846 0.797501 0.849977 0.150376 -0.024487 8616.580000 0 0 1
26.909476 26.075565 32.035246 49.298195 0.769661 0.863441 0.133422 -0.032464 274169.000000 0 0 1
27.439076 25.305675 30.964547 48.498281 0.744973 0.878292 0.176555 -0.045737 -375422.000000 0 0 1
28.745376 24.602195 31.284047 49.094361 0.707890 0.879907 0.142500 -0.034464 -733307.000000 0 0 1
28.571476 23.586125 32.182965 49.075226 0.690105 0.855570 0.141878 -0.034867 -148759.000000 0 0 1
29.437276 23.650365 33.263640 50.322587 0.676820 0.848635 0.125343 -0.041958 -1058990.000000 0 0 1
28.945376 22.805145 -33.123452 49.548688 0.667300 2.302991 0.121225 -0.051495 -367382.000000 0 0 1
27.745776 23.305145 -32.547682 48.706359 0.698632 2.302641 0.131922 -0.054447 1497740.000000 0 0 1
26.497876 22.937555 -33.199002 48.274658 0.713503 2.329127 0.133751 -0.043923 609976.000000 0 0 1
26.164776 21.414675 -33.033792 47.269601 0.685893 2.344568 0.122473 -0.044529 -1075080.000000 0 0 1
25.828576 21.078475 -31.728572 46.023034 0.684476 2.331466 0.104870 -0.062222 349660.000000 0 0 1
25.615576 19.666375 -31.701912 45.254118 0.654765 2.346938 0.122920 -0.060416 -238043.000000 0 0 1
25.663176 19.025875 -30.302262 44.031915 0.637954 2.329786 0.138229 -0.056693 814056.000000 0 0 1
24.418576 19.263675 -29.595402 42.933016 0.667932 2.331373 0.114284 -0.048192 1270610.000000 0 0 1
24.365376 18.536175 -28.385392 41.749153 0.650351 2.318427 0.125329 -0.036862 199123.000000 0 0 1
22.964276 18.748675 -27.743292 40.602475 0.684678 2.323056 0.115343 -0.028897 270676.000000 0 0 1
22.709776 18.091575 -26.514492 39.319935 0.672690 2.310849 0.114924 -0.023236 187218.000000 0 0 1
23.244076 18.897375 -25.440682 39.301732 0.682616 2.274856 0.110090 -0.014476 -198187.000000 0 0 1
23.516176 18.101975 -24.146952 38.259212 0.656032 2.253819 0.129879 -0.016082 966192.000000 0 0 1
24.595176 17.132475 -24.363552 38.626766 0.608426 2.253306 0.163244 -0.023741 1121790.000000 0 0 1
24.876876 16.331475 -23.193352 37.729400 0.580926 2.232839 0.162153 -0.025027 -256852.000000 0 0 1
25.972676 15.302875 -23.536852 38.245801 0.532434 2.233702 0.191572 -0.020686 -1384770.000000 0 0 1
27.214276 15.830275 -23.222652 39.121682 0.526848 2.206322 0.196863 -0.026944 -600015.000000 0 0 1
28.179676 14.771275 -23.038652 39.281855 0.482805 2.197522 0.184448 -0.032802 313982.000000 0 0 1
28.073276 13.857975 -21.773352 38.134383 0.458543 2.178476 0.173055 -0.025815 -53022.700000 0 0 1
26.835876 13.134375 -21.741752 36.951046 0.455159 2.199867 0.184351 -0.019468 477074.000000 0 0 1
26.403976 12.661775 -20.494152 35.742142 0.447146 2.181433 0.137764 -0.018865 -394449.000000 0 0 1
24.962376 12.156775 -20.439852 34.477455 0.453197 2.205386 0.160561 -0.019946 -298388.000000 0 0 1
24.064276 13.226575 -20.256052 34.122416 0.502563 2.206357 0.172733 -0.020808 -343565.000000 0 0 1
22.809276 12.993675 -20.862552 33.531250 0.517817 2.242324 0.152675 -0.025108 479811.000000 0 0 1
21.755676 14.111575 -20.589652 33.111625 0.575418 2.241868 0.130331 -0.025766 -338139.000000 0 0 1
21.987076 15.348175 -21.233852 34.203427 0.609419 2.240573 0.125806 -0.026865 382080.000000 0 0 1
20.961476 16.346975 -21.169352 33.981591 0.662338 2.243324 0.086190 -0.020411 502556.000000 0 0 1
19.718176 16.166375 -22.079052 33.728959 0.686741 2.284453 0.078499 -0.011143 -252073.000000 0 0 1
18.829976 15.217475 -21.637852 32.470543 0.679692 2.300145 0.051491 -0.014440 -139843.000000 0 0 1
17.741376 15.019975 -22.531552 32.373243 0.702521 2.340598 0.046699 -0.019927 450181.000000 0 0 1
16.734976 13.904175 -22.096752 31.010513 0.693268 2.363932 0.041888 -0.022847 26406.500000 0 0 1
15.530176 14.092975 -22.775052 30.959672 0.736920 2.397402 0.048670 -0.027947 -673081.000000 0 0 1
14.497776 13.272375 -22.285652 29.715177 0.741300 2.418821 0.065368 -0.034896 534564.000000 0 0 1
13.167076 13.399675 -23.118252 29.788869 0.794153 2.459207 0.065402 -0.040459 275475.000000 0 0 1
12.661176 14.684675 -22.944352 30.039779 0.859260 2.439975 0.083882 -0.041416 -66256.500000 0 0 1
11.803876 15.036775 -24.025352 30.702665 0.905269 2.469494 0.076812 -0.035630 -767322.000000 0 0 1
11.563476 16.551675 -24.132752 31.465245 0.960991 2.444895 0.071555 -0.042560 -775436.000000 0 0 1
12.618076 17.504575 -24.155352 32.389921 0.946217 2.412483 0.059486 -0.029642 564441.000000 0 0 1
13.695176 17.276475 -25.116642 33.419756 0.900518 2.421206 0.056009 -0.029046 746027.000000 0 0 1
13.358676 17.232075 -26.673342 34.450919 0.911348 2.456313 0.091839 -0.034586 -1144500.000000 0 0 1
14.562176 17.027075 -27.304702 35.320320 0.863270 2.454446 0.078054 -0.033807 -565528.000000 0 0 1
14.335776 17.096975 -28.704852 36.356424 0.873018 2.480855 0.092513 -0.041664 231116.000000 0 0 1
15.539576 17.600575 -29.605832 37.785764 0.847509 2.471104 0.092241 -0.038383 491929.000000 0 0 1
16.661676 16.748675 -29.554222 37.836247 0.788002 2.467236 0.069143 -0.030875 -371557.000000 0 0 1
17.689776 17.299475 -30.332762 39.144303 0.774244 2.457347 0.073330 -0.025842 -433774.000000 0 0 1
18.992076 16.489275 -30.172802 39.280951 0.714976 2.446709 0.088942 -0.027298 -433185.000000 0 0 1
19.996076 16.855675 -31.085222 40.623243 0.700386 2.442160 0.103499 -0.034550 -494246.000000 0 0 1
21.046576 15.937575 -31.011482 40.726854 0.648127 2.436344 0.130515 -0.033013 -13009.200000 0 0 1
22.357676 16.511475 -31.638992 42.113184 0.636110 2.420803 0.147990 -0.037269 244714.000000 0 0 1
22.328776 16.649875 -33.038012 43.212299 0.640723 2.441141 0.134986 -0.042262 -235558.000000 0 0 1
23.394176 17.483675 -33.364082 44.341045 0.641804 2.422559 0.140657 -0.051537 -495202.000000 0 0 1
23.596776 17.788475 32.740030 44.103824 0.645962 0.734240 0.122263 -0.042930 -332683.000000 0 0 1
24.682776 18.662075 32.589782 44.940030 0.647379 0.759495 0.121468 -0.034530 -104781.000000 0 0 1
24.909676 18.954775 31.280507 44.252069 0.650466 0.785731 0.124827 -0.034783 -327915.000000 0 0 1
26.040776 19.973775 30.968957 45.123719 0.654305 0.814390 0.154519 -0.035940 573529.000000 0 0 1
27.320776 19.484575 31.357367 45.927747 0.619516 0.819271 0.124017 -0.030302 248467.000000 0 0 1
28.342476 20.421975 31.108747 46.777208 0.624381 0.843248 0.110071 -0.034421 140384.000000 0 0 1
29.775376 19.943575 31.421707 47.661755 0.590169 0.850956 0.132905 -0.027983 19420.000000 0 0 1
29.965876 19.799575 32.792255 48.634441 0.583886 0.830834 0.100323 -0.035317 -799399.000000 0 0 1
31.299176 19.640275 33.115180 49.618484 0.560396 0.840090 0.095255 -0.027184 -824169.000000 0 0 1
31.551876 19.238175 -33.041462 49.571831 0.547544 2.300350 0.083286 -0.019509 -300326.000000 0 0 1
30.984776 20.198475 -32.167102 49.017927 0.577698 2.286610 0.064071 -0.040538 93306.700000 0 0 1
30.601276 19.668775 -30.910162 47.736117 0.571257 2.275124 0.084772 -0.050354 19637.600000 0 0 1
31.562076 19.912375 -29.725422 47.710251 0.562828 2.243420 0.097571 -0.058677 -107158.000000 0 0 1
32.812776 19.274475 -29.738892 48.296846 0.531109 2.234137 0.102709 -0.060011 -445272.000000 0 0 1
33.522976 19.345575 -28.532172 48.084571 0.523399 2.206041 0.118684 -0.060699 -1053110.000000 0 0 1
34.946976 18.926975 -28.807452 49.085546 0.496364 2.198000 0.057335 -0.039986 -1253050.000000 0 0 1
35.675276 19.799575 -29.597252 50.405811 0.506670 2.198366 0.057370 -0.045493 -1151700.000000 0 0 1
36.794276 20.188875 -28.899862 50.956956 0.501842 2.173829 0.040792 -0.020633 -1091240.000000 0 0 1
37.781276 21.087975 -29.672362 52.465003 0.509086 2.171914 0.055849 -0.017279 91024.500000 0 0 1
-36.940914 20.354475 -30.562102 52.086254 -0.503611 2.197847 0.043994 -0.014370 -23992.300000 0 0 1
-35.871314 21.135375 -30.979312 51.895790 -0.532440 2.210493 0.044048 -0.013750 -156275.000000 0 0 1
-34.961314 20.552975 -32.102392 51.723127 -0.531458 2.240378 0.050677 -0.021135 234315.000000 0 0 1
-34.264714 19.393875 -31.698362 50.546802 -0.515045 2.248633 0.056534 -0.014264 260283.000000 0 0 1
-33.306614 18.938375 -32.630102 50.326098 -0.517017 2.276242 0.070630 -0.014926 -175085.000000 0 0 1
-32.611114 17.663375 -32.252522 49.149819 -0.496400 2.286579 0.062211 -0.004752 -195506.000000 0 0 1
-33.490314 16.569375 -32.160092 49.299258 -0.459440 2.281470 0.068051 -0.006181 131053.000000 0 0 1
-32.756714 15.371375 -32.361072 48.544005 -0.438754 2.300480 0.063677 -0.005759 280984.000000 0 0 1
-33.622914 14.191975 -32.891432 49.130019 -0.399405 2.304301 0.076173 -0.005388 -265000.000000 0 0 1
-32.978814 12.979375 -33.013062 48.434787 -0.374948 2.320741 0.081237 -0.013376 -143276.000000 0 0 1
-33.929914 11.934275 -33.150452 48.914399 -0.338218 2.315459 0.090859 -0.015746 212852.000000 0 0 1
-33.280714 10.547275 -32.970472 48.019818 -0.306905 2.327600 0.098496 -0.013710 771697.000000 0 0 1
-32.428314 10.140175 33.520887 47.729117 -0.303063 0.792152 0.064600 -0.016386 533571.000000 0 0 1
-32.925914 8.928475 33.050253 47.498976 -0.264801 0.801250 0.111747 -0.030845 -281534.000000 0 0 1
-31.999614 8.348675 32.003562 46.020688 -0.255210 0.801796 0.126672 -0.030799 692237.000000 0 0 1
-30.771414 7.800075 32.540129 45.459665 -0.248255 0.773024 0.092170 -0.019158 577661.000000 0 0 1
-30.082414 7.207275 31.453297 44.115829 -0.235152 0.777070 0.094252 -0.025893 -158389.000000 0 0 1
21.900276 -3.806865 -31.770392 38.774632 -0.172108 2.531090 0.088870 -0.058128 -1400590.000000 0 0 1
23.196676 -4.133165 -32.170142 39.875893 -0.176329 2.509439 0.086982 -0.056869 -117832.000000 0 0 1
24.202076 -3.228965 -31.684022 40.000549 -0.132634 2.485021 0.096712 -0.049749 441117.000000 0 0 1
24.116176 -1.825265 -32.205322 40.275356 -0.075542 2.497473 0.086710 -0.043125 -1485460.000000 0 0 1
24.932676 -0.884265 -31.585502 40.250021 -0.035451 2.473061 0.095070 -0.038678 -310018.000000 0 0 1
24.703176 0.456235 -31.987552 40.418542 0.018467 2.483905 0.067827 -0.033177 -486198.000000 0 0 1
25.655076 1.541735 -31.448492 40.614868 0.060023 2.456420 0.078952 -0.030871 -401374.000000 0 0 1
26.958876 1.427735 -31.931982 41.814721 0.052910 2.439750 0.091319 -0.035188 -367862.000000 0 0 1
27.867176 2.323635 -31.274142 41.952958 0.083190 2.412017 0.100059 -0.033889 18103.200000 0 0 1
29.317476 2.267535 -31.738392 43.266403 0.077190 2.394338 0.097356 -0.040058 -360086.000000 0 0 1
29.604976 2.742735 -33.068912 44.469429 0.092381 2.409283 0.094415 -0.037460 28864.400000 0 0 1
29.654976 1.654535 33.605097 44.849277 0.055735 0.723808 0.089904 -0.034440 -637020.000000 0 0 1
30.290476 2.095335 32.241704 44.288044 0.069065 0.755396 0.076705 -0.039373 74331.600000 0 0 1
29.655476 3.155435 31.486357 43.368130 0.106004 0.758272 0.074400 -0.023929 270345.000000 0 0 1
29.971776 4.453335 31.974380 44.051113 0.147505 0.758531 0.091941 -0.026764 -198726.000000 0 0 1
29.436076 5.536535 31.120077 43.192534 0.185915 0.766278 0.096922 -0.022454 -403291.000000 0 0 1
29.868476 6.807235 31.443417 43.899348 0.224080 0.772366 0.104624 -0.039685 -120669.000000 0 0 1
29.171676 7.840635 30.771717 43.120306 0.262570 0.776137 0.096532 -0.037613 167689.000000 0 0 1
29.705076 9.282835 31.116497 44.009078 0.302885 0.785482 0.086713 -0.033509 -541457.000000 0 0 1
31.037476 9.584635 30.915447 44.843673 0.299518 0.810129 0.064790 -0.032550 -901129.000000 0 0 1
31.339876 10.901135 31.308427 45.620611 0.334746 0.814437 0.063650 -0.018851 -235456.000000 0 0 1
32.675976 11.429035 30.793257 46.331058 0.336469 0.843791 0.073335 -0.021863 -474803.000000 0 0 1
33.845776 10.775035 31.316367 47.353487 0.308212 0.848203 0.094845 -0.039480 206426.000000 0 0 1
35.072876 11.064935 30.751437 47.939444 0.305601 0.874391 0.101651 -0.038169 -384254.000000 0 0 1
35.550176 12.528635 30.890127 48.733784 0.338830 0.884270 0.104733 -0.033824 -1417590.000000 0 0 1
35.912676 12.928635 32.176175 49.921700 0.345557 0.870384 0.109745 -0.026710 109784.000000 0 0 1
36.217676 14.337135 32.257656 50.574993 0.376932 0.879134 0.117358 -0.017276 76020.500000 0 0 1
35.015076 15.322535 32.294526 50.037706 0.412493 0.869245 0.116075 -0.026345 -395442.000000 0 0 1
34.572576 15.662735 30.996447 49.003714 0.425379 0.885978 0.100772 -0.036563 699406.000000 0 0 1
33.413676 16.512235 31.002747 48.479872 0.458978 0.876952 0.084852 -0.030477 877501.000000 0 0 1
32.039576 15.819435 31.174057 47.419519 0.458632 0.853420 0.085332 -0.027962 -367532.000000 0 0 1
31.616376 14.916335 30.155537 46.167615 0.440827 0.859026 0.076484 -0.023182 675333.000000 0 0 1
30.311876 14.432735 30.508117 45.363629 0.444379 0.833183 0.072606 -0.029535 610474.000000 0 0 1
29.431876 13.912135 29.355537 43.835264 0.441561 0.837020 0.089085 -0.024610 -231839.000000 0 0 1
29.960076 12.796435 28.688027 43.409190 0.403662 0.848813 0.080690 -0.024630 409187.000000 0 0 1
29.073576 12.269135 27.660327 41.963057 0.399329 0.851096 0.102288 -0.029418 428469.000000 0 0 1
28.927176 10.701235 27.619317 41.401988 0.354325 0.840485 0.093968 -0.019740 -636184.000000 0 0 1
30.001676 9.909435 27.264087 41.732816 0.319015 0.858860 0.091939 -0.021690 -918423.000000 0 0 1
29.589576 8.684235 26.740787 40.817014 0.285473 0.856431 0.097521 -0.018159 -414757.000000 0 0 1
30.691576 7.684035 26.412677 41.214642 0.245320 0.875183 0.083988 -0.027940 -414626.000000 0 0 1
31.315376 8.006735 25.197617 40.983905 0.250318 0.908642 0.084528 -0.017585 243551.000000 0 0 1
32.361276 7.116835 24.808727 41.392928 0.216472 0.928111 0.102188 -0.016061 432427.000000 0 0 1
32.855476 7.371435 23.361587 40.982729 0.220705 0.964248 0.106522 -0.009820 -218755.000000 0 0 1
33.399576 8.677035 23.149017 41.553575 0.254176 0.979921 0.100838 -0.021210 247174.000000 0 0 1
32.447476 9.725435 22.982797 40.934481 0.291208 0.974655 0.094974 -0.024546 -98028.900000 0 0 1
31.925176 9.879635 21.520287 39.748545 0.300115 0.998682 0.102515 -0.009955 -666740.000000 0 0 1
32.873076 10.194635 20.577287 40.099806 0.300716 1.031943 0.117535 -0.024547 -612116.000000 0 0 1
32.383176 10.071235 19.257587 38.999417 0.301520 1.054352 0.135310 -0.033309 -1019730.000000 0 0 1
33.170476 10.788535 18.120287 39.306714 0.314454 1.091678 0.148203 -0.060795 278771.000000 0 0 1
34.443476 10.354435 17.699487 40.085399 0.292026 1.113477 0.145977 -0.055371 -249291.000000 0 0 1
35.434176 10.433435 18.666187 41.386760 0.286353 1.102890 0.138688 -0.042742 -1071450.000000 0 0 1
36.810976 9.952735 18.151287 42.232382 0.264060 1.126530 0.185227 -0.039754 4552.270000 0 0 1
36.848676 8.526735 18.008887 41.890931 0.227396 1.126415 0.171503 -0.035880 643375.000000 0 0 1
-37.511414 8.106735 17.373487 42.126754 -0.212841 1.145699 0.186775 -0.038061 158354.000000 0 0 1
-37.487714 6.629535 17.080087 41.725398 -0.175036 1.149060 0.188522 -0.038797 -48917.800000 0 0 1
37.178876 6.226735 16.052887 40.972384 0.165940 1.168212 0.175788 -0.039355 395059.000000 0 0 1
37.487176 4.919235 15.674887 40.929077 0.130479 1.177780 0.186674 -0.042675 -715712.000000 0 0 1
36.231776 4.089635 15.620387 39.666903 0.112399 1.166046 0.180380 -0.038770 -787029.000000 0 0 1
35.929276 3.565935 16.896587 39.863811 0.098925 1.133096 0.178685 -0.029332 420645.000000 0 0 1
34.718876 2.817035 16.881387 38.708103 0.080961 1.119514 0.160147 -0.027748 216903.000000 0 0 1
34.496276 1.915535 18.109287 39.007802 0.055472 1.088011 0.155121 -0.029406 -113083.000000 0 0 1
35.228176 0.732135 18.098587 39.612110 0.020780 1.096295 0.175107 -0.023582 -142602.000000 0 0 1
34.741476 -0.074765 19.101687 39.646566 -0.002152 1.068089 0.162342 -0.018576 -228366.000000 0 0 1
35.438976 -1.441665 19.262287 40.361307 -0.040658 1.073278 0.150455 -0.018359 -23669.800000 0 0 1
34.987576 -2.125365 20.395687 40.554059 -0.060672 1.043816 0.141437 -0.012248 343349.000000 0 0 1
35.751976 -3.305965 20.564687 41.376800 -0.092207 1.050647 0.119076 -0.013215 222075.000000 0 0 1
35.189476 -4.148665 21.766887 41.584949 -0.117353 1.019923 0.112450 -0.017732 49408.300000 0 0 1
35.480676 -3.554665 22.982027 42.422725 -0.099853 0.998292 0.116655 -0.019846 85615.400000 0 0 1
35.036676 -4.280365 24.040647 42.706474 -0.121566 0.972873 0.098653 -0.020126 -197779.000000 0 0 1
35.224276 -3.671865 25.435447 43.602685 -0.103867 0.947954 0.073756 -0.018341 -7899.140000 0 0 1
34.359976 -4.131665 26.456517 43.561748 -0.119672 0.918096 0.071959 -0.020931 158876.000000 0 0 1
34.536276 -3.406565 27.666897 44.382612 -0.098319 0.897748 0.083818 -0.027149 79811.800000 0 0 1
33.632876 -3.987965 28.785067 44.448333 -0.118022 0.866356 0.060847 -0.031047 -70872.200000 0 0 1
34.075976 -5.230665 29.214217 45.188521 -0.152311 0.867813 0.063173 -0.025068 386358.000000 0 0 1
33.174276 -5.839265 30.153647 45.209203 -0.174233 0.840648 0.069860 -0.036291 288675.000000 0 0 1
33.585576 -7.339065 30.328367 45.843894 -0.215137 0.847903 0.065484 -0.023474 -110794.000000 0 0 1
34.754276 -7.405765 31.085457 47.212400 -0.209949 0.852082 0.075004 -0.022635 -538149.000000 0 0 1
35.496576 -8.592565 30.899237 47.839335 -0.237499 0.868600 0.075791 -0.013707 509454.000000 0 0 1
36.822276 -8.557565 31.721413 49.349367 -0.228348 0.872658 0.106651 -0.013410 339618.000000 0 0 1
36.684976 -8.892465 33.117250 50.215691 -0.237814 0.850643 0.084705 -0.018323 -574525.000000 0 0 1
-37.639114 -8.908665 33.726137 51.317829 0.232409 0.853697 0.062043 -0.021619 -751235.000000 0 0 1
-37.509014 -9.088065 -32.318202 50.338705 0.237709 2.267920 0.075570 -0.022563 -266985.000000 0 0 1
37.363176 -8.171565 -31.465802 49.526539 -0.215316 2.259235 0.057998 -0.031471 258929.000000 0 0 1
37.762276 -6.826065 -31.504782 49.650135 -0.178833 2.258204 0.063415 -0.032960 -65627.000000 0 0 1
36.907976 -5.912265 -30.602492 48.308033 -0.158840 2.256847 0.073082 -0.027519 -129643.000000 0 0 1
37.335776 -6.000265 -29.264432 47.816005 -0.159348 2.229411 0.068133 -0.013686 94303.600000 0 0 1
36.597376 -5.165265 -28.438792 46.634888 -0.140211 2.226627 0.084188 -0.031739 -511666.000000 0 0 1
37.289976 -5.093065 -27.085602 46.369294 -0.135740 2.194602 0.088658 -0.035052 280995.000000 0 0 1
-37.070014 -4.346465 -27.164102 46.162389 0.116717 2.199933 0.093944 -0.026465 100253.000000 0 0 1
-36.432514 -4.358865 -25.893182 44.908626 0.119076 2.185327 0.097807 -0.031510 -986242.000000 0 0 1
-34.970814 -4.011465 -25.881082 43.690732 0.114210 2.204794 0.115014 -0.016387 -1449000.000000 0 0 1
-34.561814 -3.716965 -24.551952 42.557410 0.107134 2.185741 0.132511 -0.031228 1191930.000000 0 0 1
-33.155014 -3.884365 -24.289052 41.283184 0.116626 2.199816 0.166170 -0.026243 1833270.000000 0 0 1
-32.041014 -2.981665 -24.967552 40.729542 0.092791 2.230659 0.157611 -0.024658 100015.000000 0 0 1
-31.813314 -3.343465 -26.288632 41.404805 0.104712 2.258698 0.161196 -0.023738 -535440.000000 0 0 1
-30.906714 -2.532865 -26.938012 41.076719 0.081769 2.286035 0.154773 -0.023000 -120761.000000 0 0 1
-30.389014 -3.208365 -28.227332 41.600097 0.105187 2.316570 0.138482 -0.024307 348585.000000 0 0 1
-31.465414 -3.161365 -29.152902 43.011141 0.100135 2.315561 0.151941 -0.025297 344124.000000 0 0 1
-31.281314 -4.087865 -30.196162 43.669663 0.129944 2.334315 0.121557 -0.011525 292300.000000 0 0 1
-32.586514 -4.359365 -31.035092 45.211303 0.132989 2.327386 0.112279 -0.018540 271920.000000 0 0 1
-33.550814 -5.146865 -30.341202 45.527309 0.152218 2.300219 0.113521 -0.016272 821390.000000 0 0 1
-34.578614 -4.539565 -29.548742 45.710134 0.130536 2.273702 0.122023 -0.021492 607064.000000 0 0 1
-35.633714 -3.654965 -30.266432 46.895386 0.102213 2.272347 0.129090 -0.030399 -806835.000000 0 0 1
-35.160414 -2.423265 -30.815292 46.815693 0.068811 2.289256 0.150728 -0.027837 217766.000000 0 0 1
-34.643914 -1.475165 -29.814952 45.730824 0.042555 2.280971 0.164897 -0.022978 123127.000000 0 0 1
-34.339514 -0.073365 -30.426282 45.879911 0.002136 2.295845 0.148020 -0.027578 157558.000000 0 0 1
-35.519414 0.671635 -30.643622 46.916004 -0.018907 2.282545 0.159757 -0.019922 -12153.700000 0 0 1
-35.265014 1.978935 -31.190862 47.121198 -0.056057 2.294185 0.159454 -0.008559 -239558.000000 0 0 1
-36.533514 2.608035 -31.751852 48.473494 -0.071267 2.285026 0.140394 -0.009173 -367488.000000 0 0 1
-36.883714 2.218935 -33.062532 49.582891 -0.060088 2.300721 0.158557 -0.016217 309052.000000 0 0 1
37.484176 2.897335 -33.425992 50.306609 0.077142 2.297548 0.132844 -0.016514 398623.000000 0 0 1
36.714376 2.226735 32.970767 49.396105 0.060576 0.839981 0.105349 -0.015380 113732.000000 0 0 1
37.210076 2.427935 31.654526 48.913123 0.065157 0.866946 0.126225 -0.023771 346259.000000 0 0 1
-37.235614 1.630035 31.320057 48.683611 -0.043748 0.871945 0.126328 -0.018037 -28983.200000 0 0 1
-36.875714 1.617335 29.809987 47.445436 -0.043831 0.891430 0.143357 -0.024612 -5966.210000 0 0 1
-36.484014 2.933135 29.382407 46.936259 -0.080223 0.894375 0.143663 -0.030051 324605.000000 0 0 1
-35.882114 2.898735 28.064397 45.645801 -0.080610 0.908626 0.119636 -0.022667 297262.000000 0 0 1
-35.540714 4.333535 27.607377 45.211604 -0.121333 0.913946 0.118726 -0.018908 -540947.000000 0 0 1
-34.836514 4.343135 26.426187 43.940743 -0.124032 0.925538 0.125703 -0.016283 -118738.000000 0 0 1
-34.551014 5.669635 26.069087 43.652201 -0.162645 0.930791 0.124150 -0.020543 -64095.000000 0 0 1
-33.707414 5.893835 24.768027 42.241949 -0.173103 0.944266 0.120630 -0.020786 -292868.000000 0 0 1
-32.523014 5.164135 24.728077 41.181216 -0.157469 0.926708 0.102641 -0.014165 -55008.600000 0 0 1
-31.632414 5.394835 23.634587 39.853577 -0.168922 0.935973 0.097954 -0.016016 313219.000000 0 0 1
-32.110914 4.918035 22.241987 39.370089 -0.151977 0.970428 0.112159 -0.017932 -228546.000000 0 0 1
-32.031614 3.557035 22.005587 39.024642 -0.110595 0.971708 0.088445 -0.010574 -282663.000000 0 0 1
-32.686414 3.395235 20.813687 38.899086 -0.103502 1.006207 0.124488 -0.014182 -1183670.000000 0 0 1
-32.775714 1.933735 20.372887 38.639893 -0.058931 1.015435 0.096793 -0.007277 612115.000000 0 0 1
-31.504214 1.353635 20.035687 37.360094 -0.042940 1.004766 0.082744 -0.009152 1030560.000000 0 0 1
-30.830814 1.913935 18.905687 36.216395 -0.061999 1.021579 0.100390 -0.017233 -526470.000000 0 0 1
-29.588814 1.179035 18.406587 34.866754 -0.039826 1.014656 0.121142 -0.019496 -339249.000000 0 0 1
-29.920814 -0.047065 17.800287 34.815335 0.001573 1.034126 0.116655 -0.016038 197714.000000 0 0 1
-28.817514 -0.699565 17.194687 33.564800 0.024271 1.032955 0.136595 -0.018408 -224000.000000 0 0 1
-28.552114 -0.339665 15.724387 32.597469 0.011896 1.067426 0.156531 -0.012591 31811.700000 0 0 1
-28.064714 0.996235 15.603187 32.126004 -0.035483 1.063647 0.162995 -0.022835 108963.000000 0 0 1
-28.233314 1.390435 14.249687 31.656073 -0.049208 1.103873 0.196980 -0.029585 -253556.000000 0 0 1
-27.437314 2.601835 13.823287 30.832759 -0.094546 1.105899 0.185103 -0.032320 1338170.000000 0 0 1
-26.041014 2.334835 13.478787 29.415363 -0.089421 1.094802 0.174488 -0.040092 1611730.000000 0 0 1
-25.382114 3.465635 12.928987 28.695314 -0.135699 1.103403 0.171246 -0.040060 376450.000000 0 0 1
-23.834114 3.333535 12.895187 27.303174 -0.138963 1.078902 0.150355 -0.037836 54110.000000 0 0 1
-23.245314 3.575935 14.154387 27.449565 -0.152638 1.029029 0.123802 -0.020820 713903.000000 0 0 1
-21.887914 3.971035 13.933687 26.248763 -0.179474 1.011214 0.107870 -0.022840 558489.000000 0 0 1
-21.224214 4.780735 15.112987 26.490094 -0.221552 0.963664 0.103843 -0.025087 -123155.000000 0 0 1
-21.753714 6.058135 15.318987 27.287295 -0.271606 0.974724 0.093156 -0.009362 375472.000000 0 0 1
-21.073614 6.710635 16.369387 27.515208 -0.308285 0.933628 0.077893 -0.003489 -334993.000000 0 0 1
-21.428414 8.213735 16.541487 28.288923 -0.366037 0.946245 0.084490 -0.010349 -470098.000000 0 0 1
-20.705314 9.079635 15.660087 27.502512 -0.413264 0.965014 0.068793 -0.012053 810812.000000 0 0 1
-20.944114 10.442835 15.918287 28.303721 -0.462531 0.973499 0.064090 -0.007841 122820.000000 0 0 1
-20.061714 11.046935 17.104587 28.584507 -0.503340 0.929310 0.062185 -0.008778 4597.860000 0 0 1
-20.391414 10.548335 18.378287 29.408138 -0.477386 0.895743 0.071830 -0.016274 543220.000000 0 0 1
-19.698814 11.222835 19.428787 29.857547 -0.517858 0.862269 0.078837 -0.010907 -146147.000000 0 0 1
-12.461124 -32.953005 -19.949552 40.486600 1.209268 2.086037 0.139021 -0.059106 637611.000000 0 0 1
-13.562124 -33.431505 -19.168152 40.853577 1.185412 2.059171 0.166000 -0.056670 997856.000000 0 0 1
-14.690724 -32.533905 -19.099252 40.485229 1.146653 2.062080 0.152317 -0.074760 519035.000000 0 0 1
-15.937724 -33.188905 -18.492952 41.200773 1.123104 2.036274 0.151619 -0.064003 -1042610.000000 0 0 1
-16.495424 33.527635 -19.368552 42.087316 -1.113573 2.049016 0.129616 -0.064574 290187.000000 0 0 1
-17.480824 32.648935 -18.838452 41.550204 -1.079217 2.041362 0.147272 -0.056495 856140.000000 0 0 1
-18.857224 33.188235 -18.331652 42.345051 -1.054095 2.018516 0.139720 -0.051193 -112852.000000 0 0 1
-18.798924 -33.735205 -17.122252 42.244942 1.062404 1.988113 0.161181 -0.055722 999939.000000 0 0 1
-20.123624 -33.432305 -16.626452 42.416013 1.028965 1.973585 0.129661 -0.045554 962847.000000 0 0 1
-20.439224 33.580535 -15.256452 42.168395 -1.024031 1.940992 0.144820 -0.042146 -169765.000000 0 0 1
-20.562124 32.185335 -15.316852 41.149759 -1.002288 1.952198 0.150365 -0.046814 248477.000000 0 0 1
-20.955924 31.615935 -14.072752 40.456896 -0.985456 1.926069 0.162657 -0.040232 88851.800000 0 0 1
-20.957824 30.039535 -14.170052 39.273330 -0.961633 1.939928 0.160781 -0.044480 114418.000000 0 0 1
-19.705324 29.521335 -13.784252 38.076431 -0.982221 1.941225 0.188248 -0.054223 75699.100000 0 0 1
-19.700424 28.136035 -13.904952 37.055241 -0.959946 1.955462 0.178843 -0.059661 -348214.000000 0 0 1
-18.496924 27.363835 -13.370952 35.632822 -0.976386 1.955455 0.188089 -0.055164 -381205.000000 0 0 1
-17.300624 27.532635 -14.090252 35.438578 -1.009779 1.979692 0.197894 -0.061846 -392121.000000 0 0 1
-16.298324 26.635135 -13.675752 34.089470 -1.021665 1.983593 0.195094 -0.066159 242161.000000 0 0 1
-14.899724 27.167535 -14.089552 34.038099 -1.069153 1.997569 0.169357 -0.064293 35664.800000 0 0 1
-14.841424 27.346535 -15.496452 34.759759 -1.073562 2.032882 0.137691 -0.061527 977381.000000 0 0 1
-13.527524 27.830135 -15.868152 34.775114 -1.118351 2.044638 0.159922 -0.060420 1036630.000000 0 0 1
-13.586124 28.121835 -17.366152 35.735187 -1.120746 2.078267 0.173403 -0.075034 98532.400000 0 0 1
-13.856224 26.929235 -18.091352 35.277127 -1.095583 2.109280 0.130290 -0.064466 201301.000000 0 0 1
-14.181124 27.184335 -19.439752 36.304219 -1.089967 2.135858 0.110043 -0.058599 -48776.200000 0 0 1
-13.542424 26.120835 -20.374852 35.788683 -1.092496 2.176463 0.081490 -0.030877 50393.900000 0 0 1
-12.177924 26.304235 -20.693352 35.615017 -1.137214 2.190789 0.066652 -0.025508 -201116.000000 0 0 1
-11.690724 25.252235 -21.448452 35.133808 -1.137219 2.227462 0.067235 -0.028868 -45201.500000 0 0 1
-10.291324 25.599335 -21.976752 35.273431 -1.188554 2.243419 0.091447 -0.026989 -138099.000000 0 0 1
-10.438324 26.391035 -23.163752 36.633383 -1.194153 2.255331 0.083796 -0.022228 360075.000000 0 0 1
-9.218224 26.529535 -23.856452 36.849996 -1.236377 2.274956 0.079071 -0.030286 140641.000000 0 0 1
-9.610924 27.268435 -25.203922 38.355900 -1.231935 2.287770 0.073175 -0.029184 158596.000000 0 0 1
-10.427224 26.445635 -26.013172 38.532891 -1.195223 2.311883 0.061322 -0.023950 -415823.000000 0 0 1
-10.920824 27.187335 -27.053882 39.878918 -1.188836 2.316380 0.069213 -0.021505 -160342.000000 0 0 1
-12.037724 26.365935 -27.742932 40.121560 -1.142498 2.334321 0.058265 -0.015345 69677.600000 0 0 1
-12.507024 26.819835 -29.024452 41.450549 -1.134442 2.346500 0.069962 -0.016244 1396720.000000 0 0 1
-13.798524 26.156635 -29.243852 41.590524 -1.085365 2.350597 0.058489 -0.011198 1219330.000000 0 0 1
-14.203224 26.395935 -30.737752 42.933511 -1.077148 2.368764 0.064609 -0.014494 239724.000000 0 0 1
-13.325424 25.850335 -31.752222 43.058220 -1.094839 2.400047 0.061385 -0.013544 464481.000000 0 0 1
-13.357224 24.458735 -31.819652 42.298173 -1.070943 2.422297 0.049105 -0.019806 153855.000000 0 0 1
-12.549524 23.915535 -33.027432 42.664442 -1.087550 2.456121 0.051506 -0.015157 -52324.900000 0 0 1
-13.107624 24.278835 33.363920 43.294605 -1.075757 0.690974 0.058595 -0.013637 126838.000000 0 0 1
-12.296224 23.752635 32.311494 41.945411 -1.093106 0.691450 0.053888 -0.016625 -231632.000000 0 0 1
-12.902524 23.754935 30.891247 41.049254 -1.073226 0.718884 0.075660 -0.007765 -1365470.000000 0 0 1
-14.066524 23.037235 30.802187 40.955537 -1.022620 0.719571 0.079846 -0.018675 -941219.000000 0 0 1
-14.540124 23.122035 29.486957 40.193586 -1.009438 0.747158 0.094247 -0.013480 -889702.000000 0 0 1
-15.763924 22.279335 29.300047 40.042014 -0.955016 0.749936 0.076594 -0.012592 -951588.000000 0 0 1
-15.490224 20.915635 29.571437 39.393918 -0.933335 0.721736 0.062753 -0.017326 -201206.000000 0 0 1
-16.628824 20.115235 29.766407 39.587618 -0.879999 0.719839 0.060176 -0.020465 -138118.000000 0 0 1
-16.244724 18.646435 29.883317 38.789087 -0.854124 0.691320 0.055894 -0.027954 -26924.300000 0 0 1
-15.767424 18.135635 28.657687 37.400213 -0.855137 0.697821 0.062750 -0.029353 202378.000000 0 0 1
-15.256024 16.822135 28.849407 36.715376 -0.834181 0.666875 0.049419 -0.037396 -94075.400000 0 0 1
-14.794724 16.138335 27.556907 35.195353 -0.828807 0.671370 0.056350 -0.031004 220304.000000 0 0 1
-13.626824 16.732235 27.004057 34.566995 -0.887333 0.674196 0.030723 -0.028290 264586.000000 0 0 1
-13.161724 15.894335 25.951137 33.156031 -0.879169 0.671808 0.021048 -0.022992 556240.000000 0 0 1
-12.040424 16.498735 25.007597 32.288698 -0.940363 0.684872 0.032422 -0.018441 493773.000000 0 0 1
-12.405024 17.463935 24.026547 32.189263 -0.953176 0.728138 0.031891 -0.019459 -347706.000000 0 0 1
-12.847024 18.732235 24.494797 33.405655 -0.969648 0.747702 0.038143 -0.021137 427751.000000 0 0 1
-11.747124 19.679835 25.111347 33.998097 -1.032651 0.739790 0.042822 -0.020951 362418.000000 0 0 1
-11.446024 19.539535 26.485167 34.846363 -1.040892 0.707398 0.051230 -0.021476 469508.000000 0 0 1
-12.535724 19.836135 27.371227 36.052749 -1.007205 0.708714 0.067109 -0.016790 307383.000000 0 0 1
-12.173224 19.558935 28.856987 36.925128 -1.014078 0.673730 0.056392 -0.020038 67686.000000 0 0 1
-11.200424 20.377935 29.459647 37.531061 -1.068233 0.668196 0.057603 -0.024562 -42742.200000 0 0 1
-11.243624 20.108535 30.845037 38.499202 -1.060958 0.641521 0.052273 -0.021420 183276.000000 0 0 1
-10.130424 20.843735 31.637498 39.217574 -1.118397 0.632220 0.034907 -0.015925 -583767.000000 0 0 1
-8.878424 20.246135 31.599396 38.564935 -1.157526 0.610465 0.037636 -0.015305 -1266040.000000 0 0 1
-7.918824 21.203135 31.884824 39.101442 -1.213364 0.617310 0.050333 -0.020666 -467365.000000 0 0 1
-6.623624 20.557635 32.424965 38.959814 -1.259101 0.587612 0.051095 -0.015986 -556405.000000 0 0 1
-6.706424 19.896935 33.664287 39.675539 -1.245697 0.557671 0.051983 -0.014509 191249.000000 0 0 1
-5.476224 19.504535 -33.323172 38.998073 -1.297077 2.595350 0.054094 -0.010596 722267.000000 0 0 1
-4.687124 18.334035 33.585007 38.549432 -1.320506 0.513116 0.045613 -0.009482 44106.100000 0 0 1
-5.210124 17.023235 -33.780302 38.184352 -1.273790 2.656568 0.052129 -0.012100 236961.000000 0 0 1
-5.007824 16.196535 32.678933 36.814654 -1.270929 0.478556 0.054647 -0.005294 -163098.000000 0 0 1
-5.511724 14.688335 32.757903 36.320883 -1.211811 0.446642 0.082263 -0.014632 -287661.000000 0 0 1
-4.883824 13.681535 33.511227 36.524492 -1.227930 0.409047 0.089224 -0.013379 -279734.000000 0 0 1
-5.299324 12.440935 33.083161 35.740107 -1.168114 0.388022 0.100437 -0.020292 -183967.000000 0 0 1
-4.388724 11.310335 33.577597 35.702095 -1.200653 0.346716 0.099905 -0.035561 -37847.900000 0 0 1
-4.502524 10.873035 -32.662862 34.718268 -1.178194 2.795772 0.137480 -0.052480 -167802.000000 0 0 1
-3.498024 9.928735 -32.360572 34.029731 -1.232062 2.827089 0.148430 -0.051230 -9287.830000 0 0 1
-3.428124 9.506235 -30.886002 32.497164 -1.224693 2.825385 0.163656 -0.054651 -84176.800000 0 0 1
-4.433324 8.559135 -30.590732 32.073447 -1.092881 2.836341 0.170493 -0.053633 -516882.000000 0 0 1
-5.225224 9.120735 -29.599592 31.410613 -1.050545 2.800362 0.182393 -0.062777 -937423.000000 0 0 1
-6.423124 8.269335 -29.226952 31.045984 -0.910400 2.797579 0.169279 -0.052016 -694685.000000 0 0 1
-6.075824 7.120035 -28.464792 29.964227 -0.864365 2.823901 0.162334 -0.033924 242036.000000 0 0 1
-7.242424 6.390835 -28.102682 29.716262 -0.723015 2.810539 0.173659 -0.050127 -22929.700000 0 0 1
-7.073524 5.668335 -26.731642 28.226680 -0.675561 2.814669 0.155772 -0.043713 -71915.400000 0 0 1
-6.962124 6.482635 -25.589872 27.300866 -0.749750 2.785678 0.107328 -0.022701 808305.000000 0 0 1
-5.591724 6.823135 -25.342132 26.833677 -0.884263 2.806608 0.112100 -0.029404 459247.000000 0 0 1
-5.554324 7.914935 -24.276752 26.131540 -0.958895 2.762555 0.060929 -0.009227 311421.000000 0 0 1
-6.058024 7.537435 -22.941852 24.896609 -0.893788 2.742683 0.047664 0.000413 325053.000000 0 1 0
-7.412624 7.853935 -22.682652 25.122380 -0.814297 2.697233 0.056277 0.005632 202458.000000 0 0 1
-7.738124 7.831035 -21.143052 23.837624 -0.791366 2.661520 0.055255 -0.000569 154906.000000 0 1 0
-6.984724 8.868535 -20.502652 23.405043 -0.903672 2.638287 0.037185 -0.002190 183698.000000 0 1 0
-7.041424 8.960935 -19.046752 22.195918 -0.904780 2.602392 0.032605 -0.004639 405309.000000 0 1 0
-8.412924 9.169835 -18.294352 22.125697 -0.828420 2.544257 0.039659 -0.004031 21966.700000 0 1 0
-8.266624 9.185935 -16.923952 20.955635 -0.838024 2.510882 0.035943 -0.005141 -183895.000000 0 1 0
-9.330724 9.581535 -16.084252 20.918207 -0.798659 2.447933 0.030199 -0.010593 -375824.000000 0 1 0
-9.764124 11.040435 -16.303552 21.978060 -0.846669 2.406562 0.049253 -0.016898 -510496.000000 0 1 0
-8.832624 11.994635 -15.822052 21.730712 -0.936068 2.386337 0.035396 -0.018110 169980.000000 0 1 0
-9.247824 13.372435 -16.109452 22.887960 -0.965758 2.351585 0.064436 -0.024922 398353.000000 0 1 0
-8.031024 14.294735 -15.802452 22.771787 -1.058926 2.337755 0.061285 -0.023791 336645.000000 0 1 0
-7.629324 14.415835 -14.445352 21.787406 -1.084037 2.295634 0.052053 -0.018979 200569.000000 0 1 0
-8.411524 15.315635 -13.686752 22.195711 -1.068559 2.235263 0.056654 -0.022373 -381914.000000 0 1 0
-7.581424 16.133135 -12.622252 21.842099 -1.131494 2.186933 0.038843 -0.019863 243079.000000 0 1 0
-7.129224 17.402735 -13.043952 22.887239 -1.181989 2.177208 0.042943 -0.017742 -129260.000000 0 1 0
-6.066524 17.428135 -13.964852 23.142163 -1.235826 2.218601 0.048994 -0.015230 -416425.000000 0 1 0
-5.859924 18.896935 -14.442852 24.495486 -1.270100 2.201376 0.063603 -0.013040 68430.200000 0 1 0
-5.452724 19.803735 -13.427452 24.540102 -1.302116 2.149768 0.074013 -0.025809 -33430.300000 0 1 0
-5.623424 21.117035 -13.841052 25.867485 -1.310538 2.135393 0.070462 -0.024978 -37136.500000 0 0 1
-5.330024 22.141135 -12.658452 26.055238 -1.334562 2.078110 0.088655 -0.026615 -930467.000000 0 0 1
-5.358424 23.534835 -12.957352 27.395148 -1.346932 2.063466 0.064806 -0.030855 145849.000000 0 0 1
-6.633824 24.156335 -13.040252 28.241535 -1.302783 2.050752 0.061946 -0.027233 454818.000000 0 0 1
-7.484724 24.141135 -11.726052 27.862444 -1.270154 2.005184 0.037443 -0.022884 -238086.000000 0 0 1
-7.944324 22.831135 -11.363152 26.711313 -1.235940 2.010207 0.048097 -0.018376 -99551.200000 0 0 1
-8.642224 22.676935 -10.118752 26.292975 -1.206687 1.965838 0.064956 -0.020195 325473.000000 0 0 1
-7.837824 22.959135 -8.792952 25.804445 -1.241820 1.918514 0.069619 -0.019103 117586.000000 0 0 1
-7.524924 24.283735 -8.666152 26.859383 -1.270305 1.899323 0.052207 -0.013881 -279894.000000 0 0 1
-6.967624 24.583635 -7.391952 26.599696 -1.294614 1.852400 0.057206 -0.017415 9656.110000 0 0 1
-6.972124 26.124735 -7.259652 27.996693 -1.309996 1.833098 0.046694 -0.017519 167812.000000 0 0 1
-5.901524 26.804835 -7.875352 28.554305 -1.354087 1.850221 0.041564 -0.017373 -197840.000000 0 0 1
-6.011624 26.699835 -9.291652 28.902519 -1.349334 1.898091 0.037961 -0.016891 -291711.000000 0 0 1
-5.180624 27.788135 -10.023252 29.991414 -1.386479 1.911557 0.031885 -0.010345 213085.000000 0 0 1
-5.847424 29.041135 -10.038152 31.278497 -1.372103 1.897506 0.022939 -0.009221 89506.500000 0 0 1
-6.753924 29.224435 -11.116452 31.988413 -1.343678 1.925716 0.028893 -0.006004 11761.000000 0 0 1
-7.809824 30.293335 -10.847352 33.111094 -1.318484 1.904564 0.048644 -0.010697 50230.300000 0 0 1
-8.917324 29.862735 -10.058552 32.748681 -1.280615 1.882987 0.074158 -0.009693 -192299.000000 0 0 1
-9.802524 30.941735 -9.889852 33.930659 -1.263993 1.866562 0.092209 -0.018341 -255681.000000 0 0 1
-10.987024 30.520935 -9.003452 33.664586 -1.225256 1.841538 0.113253 -0.021369 -107509.000000 0 0 1
-11.867524 29.593935 -9.630852 33.307543 -1.189418 1.864134 0.120352 -0.035889 -429240.000000 0 0 1
-13.021024 29.542935 -8.846952 33.475374 -1.155662 1.838256 0.159153 -0.032689 -584989.000000 0 0 1
-14.106824 28.562635 -9.249452 33.171961 -1.112048 1.853375 0.174149 -0.043248 -187169.000000 0 0 1
-13.855624 27.198835 -9.040552 31.835303 -1.099641 1.858738 0.126461 -0.040229 -362305.000000 0 0 1
-14.964024 26.424735 -9.419352 31.794855 -1.055534 1.871564 0.154006 -0.040360 27572.700000 0 0 1
-15.216424 25.003435 -8.728952 30.543509 -1.024097 1.860624 0.129018 -0.038050 18230.500000 0 0 1
-14.316124 24.004635 -9.157252 29.411378 -1.033035 1.887410 0.123673 -0.030756 127934.000000 0 0 1
-14.692724 22.729735 -8.630352 28.407745 -0.996949 1.879478 0.121728 -0.031890 221003.000000 0 0 1
-13.692524 21.610735 -9.048252 27.136322 -1.006038 1.910743 0.116361 -0.028403 63690.300000 0 0 1
-13.843224 21.256935 -10.443652 27.432864 -0.993555 1.961348 0.110779 -0.027621 -27317.400000 0 0 1
-13.143624 20.135335 -10.804752 26.361510 -0.992480 1.993106 0.105340 -0.027299 -675777.000000 0 0 1
-13.402624 19.686135 -12.235752 26.774762 -0.973062 2.045403 0.111411 -0.021120 295191.000000 0 0 1
-14.705224 19.129035 -12.341552 27.101245 -0.915410 2.043603 0.125892 -0.023175 272515.000000 0 0 1
-14.881924 18.616035 -13.670252 27.475520 -0.896413 2.091560 0.132312 -0.019780 672027.000000 0 0 1
-16.386524 18.509935 -14.081652 28.450462 -0.846172 2.088577 0.128342 -0.008183 681389.000000 0 0 1
-16.951924 19.723235 -14.583252 29.816857 -0.860819 2.081847 0.124307 -0.017772 1158030.000000 0 0 1
-18.358724 19.450835 -14.835552 30.585476 -0.814275 2.077219 0.107870 -0.015800 887783.000000 0 0 1
-19.071124 20.623335 -15.526052 32.094984 -0.824482 2.075734 0.119213 -0.018392 -243863.000000 0 0 1
-19.393824 21.677435 -14.654352 32.569643 -0.840942 2.037493 0.121318 -0.038666 161633.000000 0 0 1
-19.960424 22.716735 -15.380352 33.926742 -0.849894 2.041305 0.139929 -0.033863 -205075.000000 0 0 1
-20.460224 23.960935 -14.642252 34.743959 -0.864043 2.005821 0.142577 -0.032305 719237.000000 0 0 1
-21.694424 23.792535 -13.913852 35.076032 -0.831491 1.978690 0.153356 -0.035601 997630.000000 0 0 1
-22.127124 24.964335 -13.216752 35.881892 -0.845574 1.948020 0.157164 -0.048175 100385.000000 0 0 1
-26.920814 -0.323065 3.370648 27.132930 0.012000 1.446247 0.233099 -0.050110 -59244.100000 0 0 1
-27.028874 -0.061165 4.740948 27.441581 0.002263 1.397160 0.217766 -0.044596 628629.000000 0 0 1
-28.359424 -0.445765 5.095048 28.816925 0.015717 1.393054 0.221417 -0.043807 187989.000000 0 0 1
-28.960994 0.394935 6.197448 29.619310 -0.013636 1.360002 0.231971 -0.035757 -845268.000000 0 0 1
-29.397754 1.668835 5.783548 30.007706 -0.056707 1.376847 0.254873 -0.046032 168386.000000 0 0 1
-29.585354 2.607335 6.868648 30.483925 -0.087902 1.343525 0.274601 -0.040600 77847.400000 0 0 1
-28.315764 3.007535 7.672348 29.490553 -0.105817 1.307605 0.274205 -0.039877 259870.000000 0 0 1
-27.666914 1.991035 8.444348 28.995334 -0.071841 1.275283 0.249790 -0.047521 727074.000000 0 0 1
-26.797674 2.370835 9.515148 28.535491 -0.088242 1.230836 0.246060 -0.056702 230358.000000 0 0 1
-25.935684 1.210635 10.084048 27.853427 -0.046644 1.200341 0.229056 -0.052734 755928.000000 0 0 1
-24.815924 0.766935 9.274448 26.503465 -0.030895 1.213296 0.218787 -0.055590 1123890.000000 0 0 1
-25.148354 -0.456965 8.612148 26.586042 0.018169 1.240911 0.179932 -0.046727 84775.900000 0 0 1
-23.948024 -1.147465 7.884448 25.238642 0.047878 1.253082 0.153778 -0.056156 -4194.610000 0 0 1
-23.072224 -1.681065 8.841748 24.765501 0.072732 1.205722 0.165721 -0.067820 -734097.000000 0 1 0
-21.987624 -2.243265 8.204548 23.575463 0.101672 1.215346 0.183099 -0.056846 -41062.400000 0 1 0
-20.658624 -2.428765 9.030648 22.676646 0.117029 1.161204 0.145870 -0.047735 436165.000000 0 1 0
-20.027724 -1.224165 9.324948 22.126070 0.061048 1.135757 0.130802 -0.053161 418192.000000 0 1 0
-20.600224 -0.539465 10.481548 23.119756 0.026181 1.100266 0.135818 -0.051859 -248959.000000 0 1 0
-20.107624 0.959935 10.630348 22.764936 -0.047704 1.084945 0.101211 -0.039446 -153525.000000 0 1 0
-20.513724 1.911435 9.676148 22.761685 -0.092910 1.131716 0.115553 -0.041654 227450.000000 0 1 0
-21.883624 2.225135 9.772348 24.069546 -0.101332 1.152718 0.141265 -0.039230 -390329.000000 0 1 0
-22.257924 3.653535 9.340148 24.413150 -0.162695 1.178202 0.134332 -0.043385 -531051.000000 0 1 0
-22.037324 4.521935 10.437448 24.799836 -0.202385 1.136395 0.109147 -0.036409 651238.000000 0 1 0
-22.349824 5.903735 10.166348 25.253185 -0.258253 1.156466 0.091623 -0.025686 -122505.000000 0 0 1
-22.467424 6.933135 11.378748 26.121436 -0.299315 1.120081 0.085786 -0.026254 182220.000000 0 0 1
-23.644224 6.653535 12.124548 27.392034 -0.274308 1.112266 0.103395 -0.023365 517553.000000 0 0 1
-23.812124 7.486435 13.260748 28.265021 -0.304611 1.082460 0.109822 -0.012467 -730634.000000 0 0 1
-24.839824 6.935635 14.205948 29.443656 -0.272280 1.067314 0.137933 -0.023466 -752327.000000 0 0 1
-26.168814 7.091135 13.767948 30.408016 -0.264622 1.100923 0.146968 -0.033223 -114995.000000 0 0 1
-27.051704 6.577735 14.751748 31.506751 -0.238525 1.083533 0.146759 -0.038399 -1628410.000000 0 0 1
-28.465054 6.571035 14.325948 32.537219 -0.226871 1.114870 0.168871 -0.037159 -1662440.000000 0 0 1
-28.821454 5.617935 13.297148 32.234323 -0.192508 1.145583 0.197077 -0.031912 -27207.100000 0 0 1
-29.991804 6.035135 12.644548 33.103108 -0.198574 1.178864 0.232300 -0.029521 -338946.000000 0 0 1
-30.578744 5.072035 11.603248 33.097137 -0.164371 1.212604 0.253923 -0.032466 -75197.400000 0 0 1
-31.335304 4.022935 12.184548 33.860722 -0.127685 1.202697 0.223354 -0.034515 102971.000000 0 0 1
-32.059204 3.285335 11.244548 34.132475 -0.102121 1.235088 0.217089 -0.021704 -527374.000000 0 0 1
-33.210364 2.510135 11.841048 35.347411 -0.075439 1.229201 0.158116 -0.011603 -671472.000000 0 0 1
-32.737044 1.344535 12.509448 35.071472 -0.041048 1.206080 0.158586 -0.004866 -83778.300000 0 0 1
-33.766464 0.619835 13.138448 36.237786 -0.018354 1.199781 0.129546 -0.006936 -180922.000000 0 0 1
-33.326784 -0.646465 13.897848 36.114300 0.019395 1.175773 0.114405 -0.015836 -267961.000000 0 0 1
-33.133824 -1.892465 13.240248 35.731441 0.057054 1.191196 0.124112 -0.012406 262286.000000 0 0 1
-33.186744 -2.996765 14.137248 36.196718 0.090056 1.169549 0.108696 -0.013381 -111122.000000 0 0 1
-33.114824 -4.487265 13.594348 36.076771 0.134686 1.184439 0.110921 -0.014036 187560.000000 0 0 1
-34.301427 -4.948665 12.966648 37.002853 0.143281 1.212774 0.106519 -0.031354 136916.000000 0 0 1
-34.202307 -6.359165 12.691448 37.031198 0.183829 1.220982 0.122083 -0.028214 -209814.000000 0 0 1
-35.553116 -6.962165 12.188548 38.223769 0.193377 1.246256 0.122503 -0.029162 1326300.000000 0 0 1
-36.692784 -6.794365 13.074948 39.540841 0.183095 1.233783 0.110968 -0.041475 1012710.000000 0 0 1
-37.289694 -5.518065 13.099848 39.907097 0.146912 1.236337 0.122408 -0.041862 -167735.000000 0 0 1
36.818796 -5.495765 12.560548 39.288606 -0.148171 1.245384 0.136710 -0.044459 830423.000000 0 0 1
35.761116 -5.922365 13.415148 38.650977 -0.164119 1.216336 0.134946 -0.041504 219166.000000 0 0 1
34.531556 -5.776365 12.732048 37.254527 -0.165743 1.222009 0.151872 -0.039961 553173.000000 0 0 1
33.373326 -6.771165 13.090648 36.482772 -0.200174 1.203796 0.146668 -0.036524 192910.000000 0 0 1
32.795206 -6.457165 14.339248 36.370792 -0.194407 1.165543 0.145772 -0.029470 -458655.000000 0 0 1
31.695846 -7.287465 14.510648 35.613097 -0.225991 1.151133 0.128190 -0.036886 -407674.000000 0 0 1
31.145236 -7.378965 15.957748 35.764851 -0.232632 1.108298 0.096962 -0.021610 337331.000000 0 0 1
31.997736 -8.058065 16.906048 37.075625 -0.246702 1.097314 0.090649 -0.009752 279782.000000 0 0 1
31.330956 -8.190665 18.153648 37.125069 -0.255701 1.059869 0.061600 -0.011888 -510456.000000 0 0 1
32.136706 -8.679365 19.364348 38.510742 -0.263783 1.043927 0.060811 -0.010091 -138566.000000 0 0 1
33.280226 -7.946165 19.733148 39.498254 -0.234377 1.047665 0.065914 -0.007373 -180286.000000 0 0 1
34.457506 -8.503365 19.190848 40.347436 -0.241944 1.075105 0.063099 0.000863 292707.000000 0 0 1
35.743406 -7.702265 19.652848 41.510847 -0.212242 1.077605 0.056887 -0.004433 733915.000000 0 0 1
36.103446 -8.112865 20.967248 42.531199 -0.221040 1.055279 0.058548 -0.006456 -20009.700000 0 0 1
37.330816 -7.580565 21.438548 43.711167 -0.200340 1.058180 0.054645 -0.010901 104217.000000 0 0 1
37.772606 -8.289265 22.720248 44.851882 -0.216027 1.039604 0.057381 -0.002738 41337.200000 0 0 1
36.941206 -7.948265 23.838948 44.677993 -0.211929 1.007977 0.063270 -0.001035 77081.400000 0 0 1
37.144526 -8.829365 24.921748 45.593497 -0.233372 0.992489 0.060005 -0.008902 -217077.000000 0 0 1
36.617766 -8.233465 26.224548 45.786217 -0.221171 0.960927 0.077723 -0.009952 60578.800000 0 0 1
37.533376 -7.308965 26.721448 46.649877 -0.192325 0.960868 0.072997 -0.024667 147796.000000 0 0 1
36.887736 -6.526265 27.716148 46.599164 -0.175110 0.933807 0.076648 -0.030117 628585.000000 0 0 1
-37.648614 -5.784265 28.651948 47.663508 0.152446 0.925882 0.082670 -0.027611 1117920.000000 0 0 1
-36.923534 -6.647265 29.554148 47.759619 0.178120 0.903569 0.083778 -0.029711 -136862.000000 0 0 1
-35.527166 -6.627365 29.434348 46.609896 0.184424 0.887305 0.077392 -0.034620 -270279.000000 0 0 1
-34.799008 -7.258965 30.611548 46.911943 0.205648 0.859875 0.075175 -0.026340 -121293.000000 0 0 1
-34.997545 -8.640365 30.754948 47.385134 0.242045 0.864472 0.068406 -0.021480 22473.100000 0 0 1
-34.165956 -9.067365 31.792748 47.542702 0.259412 0.838311 0.060363 -0.016481 -440310.000000 0 0 1
-34.148101 -10.545265 32.080648 48.025654 0.299519 0.839292 0.077618 -0.021223 183673.000000 0 0 1
-35.483450 -10.927465 32.375248 49.260952 0.298743 0.853673 0.068128 -0.019211 264784.000000 0 0 1
-35.583676 -12.310365 32.594848 49.801277 0.333067 0.857278 0.071581 -0.009369 579767.000000 0 0 1
-37.062594 -12.749565 32.830748 51.127735 0.331320 0.873520 0.072565 -0.014736 490957.000000 0 0 1
-37.397254 -14.104265 32.763448 51.681026 0.360652 0.884140 0.073104 -0.023057 -243757.000000 0 0 1
36.810226 -14.287765 33.066448 51.502650 -0.370246 0.873648 0.068263 -0.026925 -199571.000000 0 0 1
36.410176 -15.730065 33.229448 51.742942 -0.407805 0.873428 0.066745 -0.015211 -309984.000000 0 0 1
36.920126 -16.354565 -33.232691 52.297029 -0.416994 2.259401 0.075910 -0.032775 170208.000000 0 0 1
36.532906 -17.744665 -33.177591 52.443101 -0.452156 2.255753 0.082620 -0.042401 -189406.000000 0 0 1
36.945666 -18.489265 -31.917591 52.206970 -0.464003 2.228583 0.082450 -0.027411 -242171.000000 0 0 1
36.167156 -18.347565 -30.775491 50.909991 -0.469470 2.219944 0.080806 -0.023929 -330118.000000 0 0 1
36.492646 -19.417365 -29.926491 51.032755 -0.488989 2.197425 0.075369 -0.025527 -755996.000000 0 0 1
35.379606 -19.633165 -28.926991 49.738803 -0.506620 2.191463 0.073786 -0.023120 451968.000000 0 0 1
34.138076 -20.083865 -29.478391 49.373529 -0.531782 2.210613 0.070239 -0.013591 511036.000000 0 0 1
33.211886 -19.076765 -29.849491 48.558670 -0.521380 2.232814 0.056506 -0.004982 422270.000000 0 0 1
31.745006 -19.657865 -29.913191 47.843244 -0.554449 2.246227 0.045838 -0.006161 96450.500000 0 0 1
30.912056 -18.879865 -30.673591 47.464446 -0.548294 2.273448 0.037439 0.004006 -397759.000000 0 0 1
29.650866 -19.535865 -30.701191 46.940249 -0.582581 2.283720 0.036692 -0.004587 466193.000000 0 0 1
28.639366 -19.010565 -31.744391 46.790183 -0.586009 2.316435 0.033582 0.008231 236474.000000 0 0 1
29.067566 -19.458665 -32.988991 48.081561 -0.589912 2.326918 0.033133 0.001457 -260691.000000 0 0 1
28.159766 -19.147965 33.590748 47.832576 -0.597160 0.792234 0.057778 -0.009599 -299759.000000 0 0 1
28.608066 -19.343365 32.132348 47.170701 -0.594540 0.821405 0.058854 -0.005567 -146011.000000 0 0 1
29.636966 -18.475065 31.664848 47.141705 -0.557433 0.834302 0.036988 -0.011086 251336.000000 0 0 1
29.872366 -18.396565 30.247048 46.321440 -0.551984 0.859282 0.041924 -0.018823 361575.000000 0 0 1
28.700266 -17.850465 29.337648 44.755357 -0.556411 0.855937 0.029113 -0.006813 502785.000000 0 0 1
28.510866 -16.477465 29.707448 44.349846 -0.524038 0.836799 0.038461 -0.014785 1205080.000000 0 0 1
27.405666 -15.805565 29.018448 42.929672 -0.523131 0.828539 0.031856 -0.005370 1014500.000000 0 0 1
27.173066 -14.415665 29.655048 42.727143 -0.487759 0.803688 0.048303 -0.007130 478723.000000 0 0 1
28.354566 -13.622165 29.604848 43.197127 -0.447863 0.815722 0.048783 -0.008260 494545.000000 0 0 1
28.043466 -12.458365 30.340048 43.152814 -0.418064 0.791071 0.079427 -0.013069 -115209.000000 0 0 1
29.197466 -11.466565 30.425248 43.699769 -0.374219 0.800659 0.079790 -0.018441 -221727.000000 0 0 1
29.567366 -10.947365 29.164648 42.949396 -0.354601 0.824333 0.066524 -0.017049 228308.000000 0 0 1
30.867246 -10.371365 29.300548 43.804956 -0.324148 0.838086 0.076269 -0.011917 367777.000000 0 0 1
31.465536 -9.918265 27.970448 43.252721 -0.305352 0.867579 0.059679 -0.010261 -84373.200000 0 0 1
31.405096 -8.552965 27.883348 42.859239 -0.265895 0.862449 0.058421 -0.011333 -19857.200000 0 0 1
31.972356 -8.123565 26.667448 42.419060 -0.248816 0.890959 0.057832 -0.007329 11950.300000 0 0 1
31.931196 -6.596165 26.534248 42.037804 -0.203709 0.887697 0.054999 -0.017210 -501737.000000 0 0 1
30.690536 -6.093965 26.154348 40.781066 -0.196012 0.874559 0.065904 -0.017414 -730702.000000 0 0 1
30.614666 -4.716465 26.176848 40.555273 -0.152857 0.869170 0.079359 -0.014758 257935.000000 0 0 1
29.125966 -4.347565 25.989848 39.277161 -0.148174 0.847707 0.075334 -0.015011 226280.000000 0 0 1
28.630366 -4.469165 24.639448 38.036478 -0.154849 0.866123 0.082751 -0.018692 176223.000000 0 0 1
27.216566 -4.429265 24.627448 36.971219 -0.161327 0.841795 0.099298 -0.024750 267827.000000 0 0 1
26.508066 -4.890165 23.292248 35.624712 -0.182427 0.858171 0.109355 -0.030653 -31531.600000 0 0 1
26.627666 -4.016665 22.182548 34.888847 -0.149717 0.881744 0.118278 -0.019239 107816.000000 0 0 1
26.479366 -4.665865 20.936648 34.077417 -0.174417 0.909190 0.130671 -0.017369 128611.000000 0 0 1
27.006066 -3.687265 19.818148 33.699889 -0.135696 0.942116 0.147673 -0.026722 267112.000000 0 0 1
25.979766 -2.754365 19.601548 32.661222 -0.105625 0.927111 0.144788 -0.018405 46449.000000 0 0 1
26.282766 -1.727865 18.665848 32.282862 -0.065647 0.954279 0.148535 -0.031589 -155736.000000 0 0 1
25.125066 -0.705465 18.575348 31.253962 -0.028071 0.934357 0.118603 -0.036317 -531582.000000 0 0 1
24.057666 -1.291865 17.928348 30.031082 -0.053647 0.931049 0.128927 -0.038154 -554924.000000 0 0 1
22.960466 -0.390465 17.716048 29.003341 -0.017004 0.913691 0.128151 -0.035017 1370620.000000 0 0 1
21.729466 -1.185965 17.107448 27.681058 -0.054525 0.904575 0.136359 -0.040919 572374.000000 0 0 1
21.976666 -1.616165 15.803448 27.117057 -0.073408 0.948643 0.153900 -0.045197 -523911.000000 0 0 1
20.998666 -2.491965 15.396448 26.157302 -0.118120 0.941458 0.171603 -0.046419 -962669.000000 0 0 1
21.256566 -3.211365 14.094548 25.706239 -0.149942 0.990475 0.190387 -0.050833 -1114060.000000 0 0 1
20.297266 -4.098165 13.709648 24.834017 -0.199229 0.985974 0.201452 -0.045166 -451836.000000 0 1 0
20.275466 -4.385965 12.351248 24.143002 -0.213036 1.033765 0.192806 -0.043801 190317.000000 0 1 0
19.154966 -5.395165 11.928148 23.201320 -0.274546 1.030821 0.178906 -0.043169 339655.000000 0 1 0
19.534266 -6.705265 12.269548 24.022696 -0.330655 1.034742 0.204337 -0.054811 548111.000000 0 1 0
18.387366 -7.473565 12.525448 23.469901 -0.386055 1.007849 0.194770 -0.032942 -142003.000000 0 1 0
18.746966 -8.934165 12.790348 24.389773 -0.444725 1.018769 0.212491 -0.048779 -387757.000000 0 1 0
19.229866 -9.595865 11.646548 24.444027 -0.462854 1.074175 0.191408 -0.058424 321761.000000 0 1 0
18.872666 -10.939965 11.555148 24.685660 -0.525339 1.083666 0.211352 -0.056130 -108884.000000 0 1 0
19.360266 -11.548665 10.187948 24.738348 -0.537852 1.146337 0.193575 -0.057251 94552.000000 0 1 0
18.833366 -10.967265 9.011648 23.583604 -0.527327 1.178712 0.186348 -0.052546 192085.000000 0 1 0
19.521266 -11.463265 7.906148 23.979021 -0.530969 1.234799 0.196444 -0.062760 -144274.000000 0 1 0
19.147966 -10.706365 6.586748 22.905373 -0.509832 1.279114 0.166060 -0.053596 -198751.000000 0 1 0
19.738766 -9.468865 6.542448 22.849112 -0.447283 1.280399 0.176913 -0.047059 266703.000000 0 1 0
19.501366 -8.835265 5.335448 22.064274 -0.425395 1.326562 0.090490 -0.047149 -501088.000000 0 1 0
20.401366 -7.563665 5.158548 22.361471 -0.355033 1.338010 0.153777 -0.042017 -34173.700000 0 1 0
20.865666 -7.396965 3.849948 22.470274 -0.340682 1.398612 0.124203 -0.032120 773960.000000 0 1 0
21.600166 -6.166665 3.710148 22.767523 -0.278094 1.407108 0.168786 -0.027745 -26376.700000 0 1 0
21.851566 -5.883665 2.181748 22.734741 -0.263018 1.474683 0.156807 -0.027508 470469.000000 0 1 0
20.700966 -5.440265 1.435348 21.451962 -0.256991 1.503836 0.086160 -0.043210 1044590.000000 0 1 0
21.057666 -4.747465 0.257648 21.587730 -0.221743 1.558861 0.085105 -0.026311 -543423.000000 0 1 0
-25.315714 -15.085365 -0.442052 29.472853 0.537391 1.585795 0.142208 -0.022564 460841.000000 0 0 1
-24.202024 -14.195765 -0.654452 28.065745 0.530473 1.594117 0.105595 -0.010990 609989.000000 0 0 1
-22.955024 -14.673765 -0.235352 27.245328 0.568774 1.579435 0.107116 0.000725 -186663.000000 0 0 1
-22.562624 -14.276365 1.190848 26.726480 0.564149 1.526225 0.131504 -0.025938 -753155.000000 0 0 1
-23.396324 -14.844765 2.164448 27.792803 0.565395 1.492839 0.130067 -0.004817 -58913.500000 0 0 1
-23.013224 -14.538065 3.463648 27.440129 0.563422 1.444233 0.133218 -0.004816 -206584.000000 0 0 1
-23.752024 -15.349065 4.527848 28.640074 0.573714 1.412035 0.160294 -0.000771 -336435.000000 0 0 1
-23.486124 -16.721665 4.718048 29.214245 0.618721 1.408588 0.196069 -0.023769 -44618.400000 0 0 1
-24.335324 -17.394665 5.605848 30.433664 0.620584 1.385540 0.207535 -0.024075 -272613.000000 0 0 1
-24.405924 -18.912065 5.354048 31.336579 0.659245 1.399098 0.165341 -0.016547 60212.800000 0 0 1
-25.043274 -19.652465 6.406048 32.471871 0.665367 1.372214 0.170651 -0.023698 303323.000000 0 0 1
-25.382784 -21.000265 6.010248 33.487609 0.691192 1.390342 0.169683 -0.034106 186545.000000 0 0 1
-26.053364 -21.801365 7.217848 34.730025 0.696779 1.361443 0.158332 -0.030043 517508.000000 0 0 1
-25.179744 -22.085465 8.309248 34.508418 0.720025 1.327618 0.157140 -0.025135 443949.000000 0 0 1
-25.973094 -22.245565 9.491548 35.490228 0.708247 1.300060 0.159808 -0.027307 578370.000000 0 0 1
-25.176214 -22.797665 10.725948 35.617710 0.735859 1.264907 0.129180 -0.034990 177859.000000 0 0 1
-24.072224 -21.980865 11.085548 34.431378 0.740017 1.242997 0.144179 -0.030415 244518.000000 0 0 1
-23.471924 -22.564965 12.264148 34.792502 0.765700 1.210561 0.154178 -0.034048 -228330.000000 0 0 1
-23.814424 -21.968065 13.645948 35.155861 0.745091 1.172167 0.115958 -0.021232 181365.000000 0 0 1
-25.191964 -22.192965 13.936948 36.351084 0.722192 1.177323 0.110773 -0.025518 202278.000000 0 0 1
-25.514104 -21.576265 15.152148 36.689131 0.701969 1.145065 0.088941 -0.012936 -249375.000000 0 0 1
-26.959154 -21.964165 15.517648 38.079101 0.683652 1.151070 0.058116 -0.010770 -540634.000000 0 0 1
-27.884754 -21.523865 14.550348 38.112320 0.657362 1.179080 0.065794 -0.006723 -99909.700000 0 0 1
-28.507804 -22.474365 13.758348 38.821181 0.667602 1.208521 0.065852 -0.010102 267107.000000 0 0 1
-29.541854 -23.514965 14.306248 40.377512 0.672290 1.208618 0.055125 -0.011598 156339.000000 0 0 1
-28.949804 -24.349165 15.305348 40.807189 0.699294 1.186329 0.042533 -0.004424 504350.000000 0 0 1
-29.853874 -25.386385 15.793348 42.251061 0.704700 1.187696 0.026901 0.001779 510892.000000 0 0 1
-29.777614 -26.714725 15.029448 42.734847 0.731233 1.211420 0.033995 -0.005702 -87120.200000 0 0 1
-30.379234 -26.683865 13.778048 42.717223 0.720729 1.242384 0.038606 -0.014253 693566.000000 0 0 1
-31.729124 -27.202985 13.841048 44.026291 0.708746 1.250991 0.066312 -0.025992 1072590.000000 0 0 1
-32.481644 -27.477785 12.525548 44.350595 0.702137 1.284479 0.097613 -0.036437 139921.000000 0 0 1
-31.914944 -28.601325 11.888748 44.474058 0.730697 1.300187 0.084891 -0.039173 428341.000000 0 0 1
-32.605344 -28.879935 10.665548 44.843205 0.724882 1.330654 0.103567 -0.033242 275134.000000 0 0 1
-32.040124 -30.199785 10.084248 45.169554 0.755838 1.345646 0.095855 -0.042798 202725.000000 0 0 1
-32.378414 -31.352275 10.783348 46.342286 0.769298 1.335954 0.089853 -0.037332 383697.000000 0 0 1
-31.618864 -32.431345 10.191248 46.426353 0.798083 1.349480 0.098460 -0.039540 354049.000000 0 0 1
-31.797494 -33.768705 10.962548 47.661132 0.815454 1.338708 0.085435 -0.036747 282921.000000 0 0 1
-33.137344 33.408104 10.921148 48.305864 -0.789467 1.342741 0.066601 -0.028810 286038.000000 0 0 1
-33.206454 32.167538 11.582248 47.660965 -0.769508 1.325325 0.091391 -0.033275 997080.000000 0 0 1
-34.637443 31.960389 12.246548 48.694937 -0.745222 1.316571 0.097119 -0.025159 1394440.000000 0 0 1
-35.783355 31.706547 11.469548 49.166088 -0.725065 1.335345 0.054978 -0.023446 342818.000000 0 0 1
-36.295064 32.827056 10.708548 50.096111 -0.735268 1.355374 0.079958 -0.025176 886114.000000 0 0 1
-37.746144 32.672292 10.085248 50.930956 -0.713470 1.371461 0.076342 -0.015431 1150090.000000 0 0 1
-37.704544 31.873946 8.878248 50.163776 -0.701795 1.392874 0.054719 -0.010116 483888.000000 0 0 1
36.597266 31.885431 8.224648 49.230940 0.716703 1.402947 0.049245 -0.003880 316816.000000 0 0 1
36.495036 31.142565 6.853248 48.463533 0.706428 1.428910 0.049752 -0.002888 -193938.000000 0 0 1
36.666526 29.734795 6.925948 47.713320 0.681383 1.425124 0.077321 -0.010262 39724.200000 0 0 1
36.322886 29.095835 5.707848 46.888156 0.675371 1.448760 0.108209 -0.018747 63763.000000 0 0 1
36.430136 27.562625 5.688348 46.034882 0.647704 1.446914 0.119393 -0.022075 511039.000000 0 0 1
35.370676 26.913575 6.413348 44.906083 0.650441 1.427489 0.125528 -0.024077 545688.000000 0 0 1
35.781056 26.435055 7.682748 45.145550 0.636295 1.399787 0.106293 -0.022035 288316.000000 0 0 1
34.760126 25.355835 8.163548 43.793016 0.630220 1.383287 0.100694 -0.020836 431734.000000 0 0 1
34.835856 24.310535 7.239648 43.092360 0.609288 1.401993 0.109167 -0.028789 -343512.000000 0 0 1
33.751756 23.445475 7.305248 41.740124 0.607123 1.394873 0.107214 -0.027113 -1252560.000000 0 0 1
33.944096 22.159775 6.432648 41.044320 0.578363 1.413423 0.110922 -0.026810 546338.000000 0 0 1
34.891936 21.229475 6.998348 41.438082 0.546599 1.401096 0.119034 -0.026134 677386.000000 0 0 1
36.249896 21.651475 7.111648 42.818417 0.538420 1.403935 0.121866 -0.032544 -7299.390000 0 0 1
37.188626 20.400075 7.066248 43.001033 0.501735 1.405720 0.096164 -0.028550 24979.000000 0 0 1
37.156526 19.716075 5.808548 42.462575 0.487844 1.433574 0.114292 -0.043144 122684.000000 0 0 1
37.698636 18.429275 6.065548 42.398304 0.454694 1.427243 0.130234 -0.039532 -179052.000000 0 0 1
37.186816 17.436575 5.039548 41.379832 0.438452 1.448706 0.130410 -0.046841 88645.200000 0 0 1
37.784506 17.553675 3.717148 41.828430 0.434907 1.481812 0.140198 -0.048342 380551.000000 0 0 1
37.071226 16.658275 2.889548 40.744612 0.422320 1.499818 0.134762 -0.045409 -250733.000000 0 0 1
-37.690854 16.198975 1.601148 41.055706 -0.405917 1.531787 0.159188 -0.033517 248569.000000 0 0 1
-36.665294 15.260975 1.844348 39.757298 -0.394414 1.524389 0.156103 -0.046668 -20092.200000 0 0 1
-35.444838 15.942675 2.025848 38.917984 -0.422678 1.518718 0.172869 -0.044646 -492461.000000 0 0 1
-34.141455 15.133675 1.898448 37.393465 -0.417238 1.520005 0.170498 -0.040891 101048.000000 0 0 1
-33.797714 14.409575 3.078048 36.869984 -0.403012 1.487215 0.184634 -0.043704 -22214.100000 0 0 1
-32.453634 13.997675 3.170348 35.485552 -0.407206 1.481335 0.184363 -0.051254 -90250.700000 0 0 1
-32.107184 13.334275 4.543548 35.061631 -0.393630 1.440843 0.209236 -0.038751 -28176.100000 0 0 1
-32.471054 11.957575 4.572148 34.903546 -0.352843 1.439425 0.235945 -0.048950 363474.000000 0 0 1
-32.130344 11.478875 5.903048 34.626140 -0.343128 1.399480 0.211609 -0.029501 -40648.600000 0 0 1
-32.259974 9.912075 6.046848 34.285850 -0.298100 1.393503 0.242119 -0.041106 310270.000000 0 0 1
-33.601074 9.452275 6.138148 35.440860 -0.274222 1.396724 0.253758 -0.031358 122331.000000 0 0 1
-33.665924 8.054375 6.202048 35.167212 -0.234830 1.393510 0.279048 -0.040223 -347548.000000 0 0 1
-35.084632 7.493175 6.111948 36.392788 -0.210413 1.402053 0.256015 -0.032246 69105.500000 0 0 1
-35.927074 7.777075 7.248048 37.466942 -0.213179 1.376117 0.238459 -0.029235 523047.000000 0 0 1
-37.249104 7.280375 7.133248 38.618426 -0.193018 1.385019 0.189828 -0.030944 361929.000000 0 0 1
-37.754374 6.532475 8.334148 39.211274 -0.171329 1.356618 0.170179 -0.032565 -206241.000000 0 0 1
37.189636 7.285575 9.383948 39.041095 0.193453 1.328059 0.188790 -0.042197 323000.000000 0 0 1
-37.545254 8.059875 10.233848 39.740903 -0.211462 1.310348 0.204880 -0.042587 18791.600000 0 0 1
37.223886 8.813275 11.358848 39.903821 0.232483 1.282149 0.180663 -0.042255 -262449.000000 0 0 1
36.695106 8.056675 12.381048 39.556683 0.216128 1.252451 0.168142 -0.045650 361573.000000 0 0 1
36.171676 8.939775 13.365448 39.584655 0.242293 1.226386 0.170423 -0.048422 -406751.000000 0 0 1
35.417506 8.281175 14.525248 39.165807 0.229690 1.190855 0.181018 -0.054023 -66431.900000 0 0 1
34.109546 7.791275 14.253148 37.779853 0.224566 1.183951 0.173959 -0.055732 459470.000000 0 0 1
33.641296 7.197375 15.480048 37.724937 0.210767 1.147970 0.181249 -0.048209 -7454.770000 0 0 1
32.108436 7.086075 15.557348 36.375750 0.217210 1.128867 0.165870 -0.041320 -1086630.000000 0 0 1
31.412106 8.284475 15.672248 36.068993 0.257863 1.121305 0.137628 -0.038425 780448.000000 0 0 1
30.031566 8.145475 16.062548 35.017841 0.264858 1.094269 0.138391 -0.027476 1055490.000000 0 0 1
29.671166 7.320575 17.342348 35.138667 0.241893 1.054641 0.124296 -0.041282 -1025470.000000 0 0 1
29.922666 7.994875 18.559648 36.107402 0.261086 1.030941 0.144823 -0.048435 -67043.800000 0 0 1
28.920866 7.756575 19.517048 35.742077 0.262033 0.993151 0.140410 -0.035386 -164017.000000 0 0 1
29.230966 6.753275 20.644948 36.417990 0.227048 0.968072 0.136888 -0.029016 304577.000000 0 0 1
28.151366 6.685875 21.581048 36.096287 0.233177 0.929950 0.104194 -0.018581 201637.000000 0 0 1
28.343066 5.649175 22.547648 36.655682 0.196736 0.908258 0.094286 -0.017091 -141309.000000 0 0 1
27.089766 5.457075 23.429748 36.229659 0.198784 0.867545 0.114495 -0.014892 -472774.000000 0 0 1
26.009066 4.978675 22.719948 34.892044 0.189133 0.861698 0.068991 -0.017590 -544659.000000 0 0 1
24.960366 5.985475 22.821048 34.345975 0.235355 0.844044 0.107073 -0.007899 1632570.000000 0 0 1
23.522466 5.400975 22.452448 32.963455 0.225697 0.821489 0.108186 -0.018140 781467.000000 0 0 1
23.397266 5.106175 21.105448 31.920918 0.214869 0.848407 0.099674 -0.021814 313797.000000 0 0 1
22.066166 5.036675 20.638848 30.630799 0.224409 0.831465 0.063644 -0.019765 -223529.000000 0 0 1
21.222466 3.748475 20.942848 30.050741 0.174825 0.799708 0.094137 -0.027454 -540058.000000 0 0 1
19.891866 3.734675 20.541148 28.837006 0.185588 0.777999 0.071709 -0.026570 -426123.000000 0 0 1
19.020166 4.187375 21.545048 29.042898 0.216698 0.734993 0.101307 -0.029461 -374165.000000 0 0 1
17.542766 4.232975 21.075848 27.746317 0.236769 0.708113 0.141281 -0.031994 -149774.000000 0 0 1
16.975366 2.934475 21.110848 27.247791 0.171175 0.684441 0.131933 -0.032979 -173974.000000 0 0 1
15.809166 3.008075 20.307448 25.910822 0.188026 0.670125 0.152315 -0.040012 -22469.700000 0 0 1
14.812166 1.865075 20.689548 25.513451 0.125256 0.625062 0.151750 -0.036712 141723.000000 0 0 1
15.417366 0.594475 20.592148 25.731015 0.038540 0.643026 0.115210 -0.034565 268579.000000 0 0 1
14.677866 -0.218525 21.464248 26.003874 -0.014887 0.599842 0.129940 -0.038981 -40167.200000 0 0 1
15.022366 -1.669425 21.493648 26.276137 -0.110675 0.612886 0.094801 -0.022085 -281785.000000 0 0 1
14.474066 -2.312425 20.335848 25.067760 -0.158424 0.624535 0.105651 -0.020166 229895.000000 0 0 1
14.545266 -3.700225 20.371948 25.303610 -0.249110 0.634952 0.099840 -0.020068 -38110.100000 0 0 1
14.194166 -4.323925 19.036348 24.136139 -0.295696 0.662093 0.109995 -0.030701 -21785.900000 0 1 0
12.808966 -4.474325 18.840648 23.217649 -0.336062 0.624117 0.103486 -0.032096 -268615.000000 0 1 0
12.624766 -5.067925 17.600448 22.245097 -0.381736 0.658018 0.113387 -0.030917 -416622.000000 0 1 0
11.149966 -5.188425 17.247348 21.182835 -0.435530 0.619423 0.103725 -0.031621 -439566.000000 0 1 0
10.372166 -5.964425 18.149748 21.738665 -0.521865 0.582834 0.097143 -0.027776 595861.000000 0 1 0
9.035866 -6.050125 17.603648 20.691528 -0.590008 0.553355 0.074574 -0.048147 659325.000000 0 1 0
7.988666 -6.553525 18.612848 21.288626 -0.687029 0.506785 0.057051 -0.047975 -599000.000000 0 1 0
7.938766 -7.945325 18.814548 21.912084 -0.785811 0.538190 0.049698 -0.039763 -91391.200000 0 1 0
9.071166 -8.552725 19.371248 23.036502 -0.755990 0.571864 0.101478 -0.045351 -144144.000000 0 1 0
9.083866 -10.051325 19.054048 23.379532 -0.835914 0.618087 0.124710 -0.049763 97131.900000 0 1 0
9.086766 -10.192325 17.672248 22.332961 -0.842680 0.657851 0.094900 -0.031439 3300.550000 0 1 0
9.729466 -11.377325 17.295248 22.874257 -0.863313 0.713462 0.123920 -0.039961 128114.000000 0 1 0
9.446466 -11.694925 15.809948 21.816541 -0.891353 0.760231 0.107934 -0.037049 -70876.500000 0 1 0
10.011666 -12.948325 15.435148 22.497475 -0.912611 0.814704 0.083436 -0.028714 -107511.000000 0 1 0
9.788566 -13.270925 14.059048 21.670032 -0.935282 0.864818 0.061749 -0.017293 -1193100.000000 0 1 0
10.667166 -14.357125 13.436148 22.370640 -0.931798 0.926526 0.095439 -0.030982 1470230.000000 0 1 0
12.054666 -14.029925 13.129148 22.683216 -0.860979 0.953534 0.086830 -0.032345 1285840.000000 0 1 0
12.167466 -13.027425 12.142348 21.568441 -0.819517 0.972823 0.052468 -0.030501 -1388640.000000 0 1 0
13.565366 -12.610225 11.708448 21.911748 -0.748925 1.007063 0.111110 -0.040235 -763846.000000 0 1 0
14.043166 -13.530825 10.795448 22.289806 -0.766820 1.065208 0.103715 -0.042064 467332.000000 0 1 0
15.341866 -13.160125 10.294048 22.683235 -0.709000 1.099752 0.118370 -0.054519 1070780.000000 0 1 0
16.225266 -14.370325 9.808348 23.790107 -0.724845 1.145834 0.098289 -0.050203 220546.000000 0 1 0
16.761866 -15.199625 10.786948 25.066851 -0.736558 1.125941 0.098619 -0.039570 320937.000000 0 0 1
16.046566 -16.445325 10.882048 25.423610 -0.797670 1.128485 0.132604 -0.038203 387924.000000 0 0 1
16.580866 -17.352325 12.045648 26.853788 -0.808129 1.105638 0.125351 -0.031775 -417118.000000 0 0 1
17.877466 -17.852925 11.923748 27.937546 -0.784711 1.129845 0.143796 -0.040569 -353029.000000 0 0 1
18.267666 -18.449825 13.140848 29.099580 -0.790359 1.102259 0.099153 -0.033983 133599.000000 0 0 1
19.568266 -19.269925 12.978648 30.375851 -0.777717 1.129327 0.074184 -0.037095 234525.000000 0 0 1
20.723366 -18.508325 12.718648 30.557814 -0.728998 1.141517 0.092307 -0.039251 508720.000000 0 0 1
21.918266 -19.318025 12.564048 31.803330 -0.722424 1.164669 0.082981 -0.045639 1050370.000000 0 0 1
22.940066 -18.499025 11.740348 31.722174 -0.678635 1.191681 0.127939 -0.045646 -469528.000000 0 0 1
22.803766 -18.527725 10.291148 31.131914 -0.682308 1.233893 0.121488 -0.031384 1389380.000000 0 0 1
21.543266 -18.087425 9.653348 29.739778 -0.698417 1.240214 0.129094 -0.031879 1568840.000000 0 0 1
21.214966 -16.569525 9.784248 28.641848 -0.663066 1.222170 0.186351 -0.050385 149834.000000 0 0 1
21.999966 -15.638625 8.992348 28.450438 -0.617969 1.249211 0.176341 -0.028529 344306.000000 0 0 1
21.458266 -14.332525 8.940348 27.309490 -0.588874 1.237276 0.187989 -0.044319 -111921.000000 0 0 1
-36.376614 25.011835 8.166948 44.894866 -0.602342 1.387865 0.125863 -0.030866 101436.000000 0 0 1
-35.428788 24.115735 8.760548 43.743741 -0.597643 1.369163 0.134734 -0.037846 1184900.000000 0 0 1
-34.299020 24.924635 9.213648 43.388380 -0.628413 1.356814 0.132476 -0.035989 714640.000000 0 0 1
-33.244154 24.034835 9.929548 42.207144 -0.625982 1.333313 0.158424 -0.045717 -152072.000000 0 0 1
-32.652454 23.118935 9.060248 41.021409 -0.616095 1.348094 0.155165 -0.038573 -265192.000000 0 0 1
-31.679944 22.372235 9.734948 39.986310 -0.614872 1.324868 0.157101 -0.031701 353616.000000 0 0 1
-30.767694 21.484635 8.785748 38.541276 -0.609574 1.340818 0.125880 -0.031353 423600.000000 0 0 1
-31.531764 20.450435 8.199848 38.466998 -0.575367 1.355982 0.132593 -0.030081 76301.300000 0 0 1
-30.973884 19.941035 7.002948 37.497569 -0.572005 1.382936 0.132675 -0.034022 261601.000000 0 0 1
-31.995004 19.146735 6.104148 37.782779 -0.539263 1.408526 0.139409 -0.035023 -23568.500000 0 0 1
-32.565944 17.968335 6.533048 37.763508 -0.504188 1.396923 0.163366 -0.038505 161835.000000 0 0 1
-33.541974 17.675735 5.527748 38.315162 -0.484993 1.426021 0.131327 -0.044101 453937.000000 0 0 1
-34.488380 16.441335 5.867748 38.654836 -0.444852 1.418409 0.132520 -0.028148 138507.000000 0 0 1
-35.185421 16.768435 7.035248 39.606679 -0.444731 1.392221 0.107668 -0.025292 -272677.000000 0 0 1
-35.785121 15.601435 7.546948 39.760987 -0.411130 1.379830 0.116188 -0.034031 -42766.400000 0 0 1
-36.828654 15.755735 8.682548 40.987554 -0.404250 1.357345 0.105708 -0.023819 -459014.000000 0 0 1
37.508896 16.255835 8.276548 41.709360 0.408952 1.371037 0.121687 -0.029630 -586426.000000 0 0 1
36.725386 16.398135 9.435348 41.311967 0.419945 1.340370 0.115937 -0.027532 -27050.600000 0 0 1
35.785336 17.610635 9.515148 41.003204 0.457323 1.336603 0.082505 -0.019825 527895.000000 0 0 1
34.729096 17.713935 8.548948 39.912130 0.471663 1.354929 0.087835 -0.031103 200693.000000 0 0 1
33.855666 18.745735 8.903048 39.709860 0.505676 1.344672 0.080697 -0.023188 -152230.000000 0 0 1
32.420346 18.639735 8.354048 38.318516 0.521789 1.351015 0.079657 -0.031701 -435439.000000 0 0 1
31.743176 19.837135 8.513948 38.387868 0.558546 1.347149 0.085722 -0.027877 90480.700000 0 0 1
30.382266 19.863335 8.089348 37.189672 0.579028 1.351528 0.055013 -0.022757 553547.000000 0 0 1
30.030866 19.751435 6.574548 36.540344 0.581772 1.389885 0.052750 -0.016927 -967440.000000 0 0 1
30.079466 18.450035 6.090948 35.808905 0.550197 1.399869 0.070552 -0.023951 91777.900000 0 0 1
29.647066 18.293335 4.763148 35.160805 0.552853 1.434911 0.070087 -0.032471 385954.000000 0 0 1
28.181766 18.687235 4.400048 34.099635 0.585527 1.441400 0.089015 -0.034730 -421512.000000 0 0 1
27.158166 17.848635 4.929148 32.869990 0.581428 1.420270 0.105844 -0.034578 -17138.400000 0 0 1
25.850666 18.092835 4.527448 31.876408 0.610658 1.428283 0.116036 -0.033583 -429378.000000 0 0 1
25.205866 19.406235 5.031548 32.206430 0.656122 1.413926 0.109734 -0.025428 -1271240.000000 0 0 1
25.543166 20.552835 4.319148 33.068526 0.677559 1.439810 0.078052 -0.029076 112718.000000 0 0 1
25.109866 21.809635 4.768548 33.599175 0.715176 1.428391 0.070816 -0.021812 -235080.000000 0 0 1
26.158666 22.902235 4.426748 35.048313 0.719120 1.444154 0.041693 -0.009584 -88864.700000 0 0 1
27.310666 22.820635 5.235548 35.973112 0.696071 1.424737 0.049900 -0.021596 -313776.000000 0 0 1
28.246366 23.777535 4.827248 37.236147 0.699709 1.440792 0.061816 -0.015888 -77120.900000 0 0 1
29.634566 23.628935 5.551748 38.306083 0.673119 1.425353 0.069465 -0.021230 649931.000000 0 0 1
30.558666 22.665235 5.042548 38.379320 0.638165 1.439028 0.065781 -0.021992 555668.000000 0 0 1
30.993756 22.695335 3.666948 38.589346 0.632047 1.475628 0.074549 -0.028532 -658252.000000 0 0 1
31.890826 23.875435 3.260448 39.971136 0.642644 1.489136 0.118409 -0.041233 -383656.000000 0 0 1
31.263526 25.117135 3.207748 40.231433 0.676811 1.490979 0.079974 -0.036301 308903.000000 0 0 1
32.226966 26.012935 2.650948 41.500333 0.679103 1.506875 0.140144 -0.031666 -114223.000000 0 0 1
31.758986 27.476435 2.816448 42.089429 0.713227 1.503830 0.118803 -0.025570 532568.000000 0 0 1
30.575866 27.948635 2.183248 41.482241 0.740537 1.518141 0.126046 -0.033424 1506110.000000 0 0 1
29.328666 27.451635 2.775548 40.267438 0.752352 1.501814 0.090257 -0.021169 212029.000000 0 0 1
28.099466 28.072335 2.172948 39.778860 0.784915 1.516143 0.056104 -0.013381 -834563.000000 0 0 1
27.956166 29.447335 2.508548 40.681514 0.811369 1.509094 0.038929 -0.012658 87504.700000 0 0 1
26.612266 29.828135 2.283748 40.039304 0.842315 1.513728 0.033721 -0.006960 177012.000000 0 0 1
26.272866 31.238935 2.789548 40.913520 0.871533 1.502562 0.036982 -0.022743 -225080.000000 0 0 1
26.101566 31.297935 4.199848 40.969393 0.875682 1.468104 0.027913 -0.036133 -35132.300000 0 0 1
27.300966 31.337735 4.931348 41.853489 0.854131 1.452698 0.033995 -0.039086 -177553.000000 0 0 1
27.072666 31.034035 6.476048 41.689084 0.853467 1.414823 0.036091 -0.041624 104765.000000 0 0 1
26.515366 29.771035 6.873448 40.455203 0.843175 1.400065 0.048840 -0.045793 -38310.300000 0 0 1
27.301366 28.671235 6.524248 40.124433 0.809867 1.407471 0.058283 -0.044595 -288376.000000 0 0 1
26.868766 27.257235 7.016348 38.911651 0.792575 1.389490 0.078039 -0.043466 -238757.000000 0 0 1
25.590166 26.868435 6.588248 37.685201 0.809761 1.395070 0.047661 -0.043643 -413611.000000 0 0 1
25.158266 25.612235 6.965348 36.571040 0.794340 1.379165 0.069501 -0.041307 -385926.000000 0 0 1
23.784366 25.354035 6.305748 35.331086 0.817331 1.391359 0.077489 -0.019997 -202563.000000 0 0 1
23.752866 25.351135 4.895548 35.083402 0.817935 1.430799 0.052487 -0.021421 127725.000000 0 0 1
23.881266 26.568135 4.239548 35.974358 0.838607 1.452673 0.044817 -0.013559 -485875.000000 0 0 1
23.958366 26.440835 2.714848 35.783955 0.834615 1.494856 0.041724 -0.003096 -410326.000000 0 0 1
25.073566 25.738935 2.252348 36.003466 0.798492 1.508196 0.024512 0.008612 -276188.000000 0 0 1
25.005166 25.487435 0.865548 35.715778 0.794949 1.546560 0.040737 0.002338 -66506.800000 0 0 1
26.193266 24.767135 0.174748 36.048976 0.757420 1.565949 0.056694 -0.006178 30448.700000 0 0 1
27.375266 25.622235 0.114348 37.495562 0.752333 1.567747 0.055915 -0.002426 1691420.000000 0 0 1
28.481466 25.110835 -0.666052 37.976197 0.722587 1.588336 0.065502 -0.005184 605672.000000 0 0 1
29.171266 23.853235 -0.178252 37.682507 0.685439 1.575527 0.069663 -0.012713 -1071310.000000 0 0 1
28.331566 22.684535 -0.147552 36.294456 0.675156 1.574862 0.061365 -0.014372 246912.000000 0 0 1
28.604266 21.769235 0.939548 35.958120 0.650535 1.544664 0.062939 -0.024338 -165199.000000 0 0 1
27.306966 21.012935 1.325648 34.481461 0.655870 1.532342 0.056147 -0.027286 45969.500000 0 0 1
26.877466 20.115835 0.362048 33.573443 0.642494 1.560012 0.085419 -0.043317 -82850.100000 0 0 1
25.848766 19.313835 0.841448 32.278336 0.641698 1.544725 0.074062 -0.036338 -777641.000000 0 0 1
25.346266 18.265035 -0.143052 31.242041 0.624431 1.575375 0.093799 -0.034090 -617937.000000 0 0 1
24.141066 17.684135 0.290348 29.926643 0.632228 1.561094 0.090915 -0.029170 61182.300000 0 0 1
23.557666 16.838935 -0.743352 28.966635 0.620588 1.596461 0.111308 -0.054253 -38509.700000 0 0 1
22.170666 16.409635 -0.251452 27.584013 0.637168 1.579912 0.109426 -0.034403 -1066330.000000 0 0 1
21.530466 15.638735 -1.215752 26.638488 0.628195 1.616451 0.118442 -0.039224 566703.000000 0 0 1
20.187966 15.385135 -0.774152 25.394008 0.651197 1.601287 0.137365 -0.036538 17876.100000 0 0 1
19.122866 16.250335 -1.392852 25.133591 0.704370 1.626243 0.150660 -0.036723 -1089170.000000 0 0 1
19.093066 17.522735 -0.798452 25.927378 0.742538 1.601597 0.126130 -0.028552 -173401.000000 0 0 1
18.212066 18.411235 -1.403452 25.934968 0.790836 1.624937 0.108080 -0.030709 -240165.000000 0 0 1
18.225866 19.814635 -0.779252 26.933421 0.827139 1.599733 0.094622 -0.019970 -176548.000000 0 0 1
17.779166 19.797535 0.548848 26.614702 0.839060 1.550173 0.095606 -0.013256 -24268.900000 0 0 1
17.899966 21.094635 1.097748 27.687496 0.867142 1.531138 0.103396 -0.013812 172640.000000 0 0 1
16.798866 22.122035 0.727248 27.786961 0.921324 1.544621 0.096140 -0.019600 -318483.000000 0 0 1
15.547066 21.913135 1.306448 26.899880 0.953732 1.522210 0.069428 -0.012501 -504088.000000 0 0 1
14.671866 22.964335 1.056748 27.271616 1.002265 1.532038 0.061793 -0.011594 -119842.000000 0 0 1
13.287766 22.875835 1.730948 26.511596 1.044566 1.505460 0.061828 -0.012764 162751.000000 0 0 1
13.266066 23.189335 3.081448 26.892919 1.051162 1.455962 0.060969 -0.004479 578745.000000 0 0 1
11.908766 23.271135 3.532648 26.378856 1.097801 1.436473 0.055354 -0.008919 723813.000000 0 0 1
11.746466 23.462035 5.081048 26.725710 1.106622 1.379514 0.081261 -0.020761 50111.600000 0 0 1
12.200566 22.340535 5.829248 26.113855 1.070939 1.345675 0.079578 -0.043935 327113.000000 0 0 1
11.405966 22.115635 7.008248 25.851749 1.094634 1.296267 0.066541 -0.039292 -171513.000000 0 0 1
12.209066 21.101135 7.841848 25.608861 1.046263 1.259581 0.079300 -0.038522 247306.000000 0 0 1
13.393466 21.473435 8.508548 26.699976 1.013116 1.246468 0.109182 -0.041736 241696.000000 0 0 1
14.497166 21.561035 7.619248 27.075801 0.978850 1.285539 0.108490 -0.032581 -711595.000000 0 0 1
15.893166 21.726335 8.240748 28.152021 0.939230 1.273723 0.133826 -0.040435 -494886.000000 0 0 1
16.371766 20.519035 8.784748 27.680992 0.897348 1.247856 0.147921 -0.047022 14008.700000 0 0 1
17.723166 20.628135 9.185448 28.705453 0.861000 1.245078 0.134945 -0.052784 98891.100000 0 0 1
17.938666 21.388335 10.548548 29.841724 0.872892 1.209504 0.102961 -0.036171 -851294.000000 0 0 1
17.379666 20.788335 11.653148 29.495822 0.874469 1.164644 0.117452 -0.049895 -135009.000000 0 0 1
17.474866 21.561735 12.795548 30.561502 0.889711 1.138803 0.118659 -0.048386 -23209.700000 0 0 1
18.481566 21.018135 13.840748 31.223334 0.849528 1.111539 0.112239 -0.035988 -125311.000000 0 0 1
19.813766 21.275235 13.490048 32.049997 0.820952 1.136352 0.115787 -0.040063 -599236.000000 0 0 1
20.643466 20.767335 14.521948 32.685193 0.788389 1.110406 0.110818 -0.041927 -281896.000000 0 0 1
22.062466 21.349635 14.556748 33.977319 0.768980 1.128047 0.124096 -0.046091 -413423.000000 0 0 1
22.835866 20.758635 13.554748 33.706511 0.737785 1.156943 0.138150 -0.054971 -564274.000000 0 0 1
24.005666 21.492435 13.310448 34.862082 0.730216 1.179050 0.132457 -0.053023 -245600.000000 0 0 1
24.880266 20.842535 12.200748 34.674157 0.697318 1.211230 0.129816 -0.048581 148359.000000 0 0 1
24.513866 21.127335 10.828048 34.125365 0.711335 1.247913 0.136522 -0.042387 -276146.000000 0 0 1
25.620166 20.840635 10.048648 34.521012 0.682886 1.275433 0.157397 -0.058448 -690710.000000 0 0 1
25.549966 21.461835 8.651248 34.471078 0.698657 1.317113 0.119767 -0.050930 -39063.700000 0 0 1
25.858066 22.854135 8.741848 35.600154 0.723809 1.322703 0.104187 -0.042083 695527.000000 0 0 1
27.253266 23.125635 8.599248 36.762516 0.703649 1.334695 0.083115 -0.038759 52829.200000 0 0 1
27.747766 24.241935 9.553048 38.064034 0.718067 1.317111 0.104044 -0.043834 -300088.000000 0 0 1
28.936066 24.819035 9.064748 39.184819 0.708959 1.337349 0.090173 -0.031000 -24493.600000 0 0 1
29.369766 25.850035 9.960048 40.373382 0.721744 1.321524 0.092415 -0.029210 263275.000000 0 0 1
30.599466 26.586435 9.364148 41.603523 0.715338 1.343771 0.090044 -0.028289 294178.000000 0 0 1
30.323066 27.375635 8.260648 41.679156 0.734359 1.371279 0.088764 -0.031387 358497.000000 0 0 1
31.545696 27.592835 7.547648 42.584768 0.718657 1.392617 0.099051 -0.023088 580486.000000 0 0 1
31.489526 28.502835 6.305548 42.939047 0.735655 1.423415 0.128981 -0.019310 -27036.600000 0 0 1
31.361636 29.893735 6.588448 43.824596 0.761439 1.419887 0.120148 -0.021299 55222.300000 0 0 1
31.481946 30.737135 5.505648 44.341815 0.773428 1.446311 0.121095 -0.025677 -32000.300000 0 0 1
31.313596 32.233035 5.957548 45.332132 0.799866 1.438995 0.082801 -0.020532 -712312.000000 0 0 1
30.126866 32.588635 6.562348 44.863254 0.824631 1.423995 0.072160 -0.033114 -900742.000000 0 0 1
30.145166 -33.713605 6.921148 45.751945 -0.841220 1.418938 0.057136 -0.014867 178254.000000 0 0 1
28.728466 -33.187705 7.238048 44.487502 -0.857295 1.407371 0.054288 -0.029404 438653.000000 0 0 1
27.867266 -32.993905 6.098448 43.616205 -0.869435 1.430516 0.046448 -0.031319 933105.000000 0 0 1
26.605566 -32.397105 6.526548 42.426694 -0.883242 1.416352 0.049630 -0.037604 870896.000000 0 0 1
25.550966 -32.647205 5.446648 41.813369 -0.906732 1.440164 0.049182 -0.026062 -331245.000000 0 0 1
25.912266 -32.034505 4.207748 41.416907 -0.890660 1.469026 0.030022 -0.012043 -68984.500000 0 0 1
24.921366 -32.181605 3.222448 40.830312 -0.911863 1.491791 0.043966 -0.022369 -58019.700000 0 0 1
25.358466 -31.447105 1.939948 40.444228 -0.892174 1.522812 0.052397 -0.012919 142025.000000 0 0 1
25.649166 -30.062305 2.087948 39.572483 -0.864447 1.518009 0.064838 -0.008221 -9967.850000 0 0 1
26.360366 -29.526405 1.018148 39.594370 -0.841989 1.545079 0.055203 -0.004300 -437968.000000 0 0 1
26.562666 -27.957805 1.129048 38.580939 -0.810982 1.541528 0.058538 -0.007147 -235505.000000 0 0 1
25.409966 -27.153105 1.054848 37.203094 -0.818549 1.542439 0.055031 -0.001004 -418869.000000 0 0 1
24.856866 -27.006305 -0.210852 36.704887 -0.826819 1.576541 0.067113 -0.008889 -339354.000000 0 0 1
23.527366 -26.220205 -0.202052 35.228922 -0.839475 1.576532 0.045662 -0.007306 8465.590000 0 0 1
23.582966 -24.830205 -0.158452 34.245006 -0.811155 1.575423 0.064978 -0.010453 -298333.000000 0 0 1
23.858566 -24.199305 1.081248 34.000097 -0.792488 1.538990 0.045150 -0.002503 483071.000000 0 0 1
22.601966 -24.025705 2.007148 33.047118 -0.815923 1.510023 0.035262 -0.003092 386363.000000 0 0 1
22.811766 -23.185205 3.120348 32.675173 -0.793517 1.475155 0.035739 -0.001999 -619921.000000 0 0 1
21.765266 -23.198905 4.051948 32.067651 -0.817271 1.444101 0.052390 -0.001774 -368901.000000 0 0 1
21.859366 -22.350405 5.390448 31.724272 -0.796505 1.400052 0.055860 -0.002919 -96778.400000 0 0 1
21.892166 -20.909305 5.265348 30.727672 -0.762439 1.398591 0.083947 0.005996 84555.400000 0 0 1
20.672166 -20.320305 4.863248 29.392251 -0.776815 1.404572 0.059187 0.009261 -432516.000000 0 0 1
20.608666 -18.835805 5.238848 28.406869 -0.740483 1.385313 0.072718 -0.000835 39481.300000 0 0 1
20.231666 -18.647705 6.573348 28.288975 -0.744680 1.336289 0.117481 -0.009099 146166.000000 0 0 1
18.850266 -18.364705 6.751948 27.169537 -0.772351 1.319653 0.090059 -0.004976 345317.000000 0 0 1
20.381276 -25.672025 -12.049552 34.923358 -0.899780 1.923065 0.118812 -0.030145 243992.000000 0 0 1
20.081776 -24.453865 -12.628952 34.069923 -0.883255 1.950535 0.134790 -0.031852 -58889.000000 0 0 1
18.701776 -24.343865 -12.951952 33.318662 -0.915727 1.970049 0.111986 -0.029446 529827.000000 0 0 1
18.301376 -22.895765 -13.352052 32.209218 -0.896461 1.998235 0.104339 -0.038022 -170945.000000 0 0 1
18.336276 -21.847965 -12.324952 31.071804 -0.872566 1.978672 0.118796 -0.040660 161759.000000 0 0 1
19.620776 -21.506165 -11.775852 31.403195 -0.831209 1.955181 0.113130 -0.042574 -71608.700000 0 0 1
19.726276 -22.066065 -10.339252 31.351831 -0.841326 1.906868 0.131373 -0.033053 359422.000000 0 0 1
18.806576 -21.700365 -9.291852 30.181644 -0.856716 1.883744 0.113300 -0.041809 1285530.000000 0 0 1
17.414276 -21.969765 -9.557752 29.618882 -0.900555 1.899368 0.099632 -0.018486 481949.000000 0 0 1
16.427076 -21.328865 -8.587752 28.258075 -0.914504 1.879585 0.069975 -0.020143 -1243040.000000 0 0 1
16.238476 -19.951765 -8.650852 27.140344 -0.887645 1.895202 0.049773 -0.022859 568728.000000 0 0 1
15.404276 -19.500865 -7.562952 25.976406 -0.902227 1.866222 0.050616 -0.023055 463463.000000 0 0 1
13.885176 -19.753965 -7.645952 25.327412 -0.958123 1.877465 0.032568 -0.006952 -433102.000000 0 0 1
13.488676 -21.116865 -7.723352 26.220536 -1.002361 1.869785 0.029614 -0.010923 -469108.000000 0 0 1
12.168276 -21.322965 -8.161652 25.871767 -1.052226 1.891744 0.028369 -0.009124 -409858.000000 0 0 1
11.708576 -22.711565 -7.729252 26.695454 -1.094799 1.864537 0.022874 -0.011162 -239717.000000 0 0 1
11.315176 -22.695165 -6.377052 26.149006 -1.108292 1.817154 0.028226 -0.017954 40451.900000 0 0 1
10.830476 -23.936265 -5.933052 26.934088 -1.145889 1.792898 0.018993 -0.016833 -119989.000000 0 0 1
11.489076 -24.418465 -4.665152 27.386565 -1.131020 1.741976 0.030890 -0.019024 -407942.000000 0 0 1
10.783976 -25.463335 -4.079552 27.952072 -1.170188 1.717268 0.047406 -0.017435 -443502.000000 0 0 1
11.191876 -25.744335 -2.729352 28.204224 -1.160712 1.667719 0.049121 -0.022904 -330886.000000 0 0 1
10.222776 -26.570715 -1.890252 28.532106 -1.203515 1.637095 0.051399 -0.019032 -149247.000000 0 0 1
9.125376 -25.846775 -1.379252 27.445047 -1.231401 1.621073 0.043754 -0.015845 -254061.000000 0 0 1
8.718076 -26.537925 -0.218152 27.934099 -1.253390 1.578606 0.057867 -0.023247 -33338.800000 0 0 1
7.885676 -25.747415 0.804548 26.939944 -1.273597 1.540927 0.060532 -0.021714 -901701.000000 0 0 1
6.648476 -25.373025 0.347248 26.231912 -1.314528 1.557558 0.064063 -0.022832 -1377960.000000 0 0 1
5.884076 -24.977985 1.453348 25.702807 -1.339444 1.514222 0.073039 -0.025279 -661378.000000 0 0 1
4.507876 -24.471265 1.039348 24.904698 -1.388628 1.529051 0.068836 -0.029625 -365325.000000 0 1 0
3.623176 -25.458495 0.547048 25.720840 -1.429429 1.549526 0.059960 -0.035359 -255687.000000 0 0 1
2.300076 -24.995435 0.700748 25.110818 -1.479035 1.542886 0.055713 -0.033051 -60281.300000 0 0 1
1.220576 -25.870585 0.025348 25.899375 -1.523651 1.569818 0.079666 -0.029548 90081.900000 0 0 1
0.846376 -26.958065 0.832748 26.984201 -1.539411 1.539931 0.074320 -0.024257 503275.000000 0 0 1
1.773576 -28.076925 0.744848 28.142745 -1.507712 1.544326 0.062852 -0.028895 247898.000000 0 0 1
1.240476 -29.261295 1.531148 29.327574 -1.528429 1.518564 0.099795 -0.030872 730.030000 0 0 1
1.371776 -29.155945 2.918648 29.333759 -1.523781 1.471133 0.075568 -0.026690 -146486.000000 0 0 1
0.786376 -30.222585 3.561648 30.441885 -1.544783 1.453529 0.112040 -0.033661 -128035.000000 0 0 1
1.166976 -30.166325 5.112548 30.618738 -1.532131 1.403036 0.105174 -0.027724 -1179580.000000 0 0 1
2.461476 -30.380535 5.514548 30.974926 -1.489951 1.391810 0.037958 -0.007430 -1236460.000000 0 0 1
2.575976 -30.014955 6.835148 30.890976 -1.485183 1.347683 0.051043 -0.010261 -349458.000000 0 0 1
3.862676 -30.505215 7.474748 31.644277 -1.444843 1.332331 0.067423 -0.010269 -341247.000000 0 0 1
4.089576 -31.905645 7.374048 33.001082 -1.443314 1.345445 0.065571 -0.012990 316637.000000 0 0 1
5.443876 -32.243785 7.661148 33.585572 -1.403539 1.340662 0.042923 -0.012090 479725.000000 0 0 1
5.522076 -33.798995 7.442948 35.046581 -1.408847 1.356794 0.027492 -0.002481 -77467.200000 0 0 1
5.534576 33.456276 6.114348 34.457788 1.406854 1.392407 0.028092 -0.007303 -30620.900000 0 0 1
5.397276 32.037206 5.950348 33.029075 1.403895 1.389652 0.030282 -0.009621 -512759.000000 0 0 1
5.616976 31.496095 4.535948 32.312989 1.394313 1.429956 0.039047 -0.016661 427705.000000 0 0 1
6.956676 31.391315 4.064948 32.408854 1.352709 1.445038 0.050837 -0.016171 -236479.000000 0 0 1
7.635876 30.303075 4.527748 31.576628 1.323952 1.426911 0.047022 -0.018444 -198805.000000 0 0 1
9.089176 30.203145 3.984648 31.791831 1.278482 1.445130 0.056858 -0.016324 397861.000000 0 0 1
10.021876 31.146555 4.446048 33.019891 1.259493 1.435739 0.060382 -0.020920 227271.000000 0 0 1
11.304976 31.140975 3.838448 33.351109 1.222565 1.455449 0.060702 -0.022083 509154.000000 0 0 1
12.424176 31.726380 4.705048 34.395651 1.197549 1.433574 0.069205 -0.033468 72574.200000 0 0 1
12.979676 30.943985 5.789448 34.051724 1.173630 1.399947 0.076766 -0.032116 625935.000000 0 0 1
14.347976 31.288555 6.024448 34.944700 1.140839 1.397531 0.105871 -0.034358 566563.000000 0 0 1
15.068176 30.237385 6.917148 34.484726 1.108486 1.368840 0.091588 -0.035289 -155783.000000 0 0 1
14.456276 30.010445 8.194648 34.303979 1.121889 1.329581 0.082182 -0.030739 235141.000000 0 0 1
15.138576 29.012895 8.945348 33.925563 1.089871 1.303965 0.071872 -0.038683 218680.000000 0 0 1
14.874376 29.198765 10.448048 34.394427 1.099643 1.262148 0.056348 -0.023685 -308444.000000 0 0 1
15.726176 30.105525 11.048548 35.717302 1.089415 1.256305 0.057559 -0.039314 -344041.000000 0 0 1
15.260476 30.511665 12.313848 36.269473 1.107027 1.224400 0.041147 -0.032069 366463.000000 0 0 1
16.359276 31.222195 13.174548 37.630042 1.088163 1.213111 0.048910 -0.023301 648127.000000 0 0 1
17.354676 30.326725 13.688948 37.527088 1.051026 1.197405 0.048770 -0.033025 713680.000000 0 0 1
18.266576 31.121295 14.500548 38.890470 1.040029 1.188711 0.048562 -0.022697 217748.000000 0 0 1
19.386676 30.273545 15.127948 39.002379 1.001211 1.172474 0.069919 -0.034774 -553105.000000 0 0 1
20.475976 29.960925 14.331748 39.016940 0.971283 1.194669 0.056069 -0.037982 -569848.000000 0 0 1
20.962376 28.681835 14.657148 38.430468 0.939658 1.179493 0.054455 -0.030523 775783.000000 0 0 1
22.427276 28.408315 14.129648 38.854369 0.902514 1.198606 0.096617 -0.034495 1532650.000000 0 0 1
23.455976 28.881105 15.032948 40.128426 0.888687 1.186808 0.109600 -0.036658 89469.400000 0 0 1
24.689476 28.854155 14.369848 40.603264 0.863023 1.209049 0.120767 -0.035926 -192924.000000 0 0 1
25.935976 28.994875 15.264948 41.789906 0.841027 1.196865 0.121281 -0.035848 -20818.400000 0 0 1
25.940676 27.930035 16.194648 41.415844 0.822310 1.169051 0.116621 -0.025911 -139588.000000 0 0 1
26.902776 28.146195 17.210348 42.569516 0.807982 1.154596 0.108207 -0.025611 126914.000000 0 0 1
27.834176 26.915445 17.442048 42.466546 0.768619 1.147548 0.076680 -0.013319 260166.000000 0 0 1
27.173476 25.758395 17.988048 41.538688 0.758671 1.122930 0.085443 -0.018968 -24438.300000 0 0 1
27.020076 25.841835 19.421148 42.131531 0.763113 1.091714 0.110643 -0.017429 -82638.000000 0 0 1
26.293376 24.615365 19.968948 41.182723 0.752449 1.064563 0.116698 -0.026243 -206214.000000 0 0 1
27.067476 23.446465 19.830048 40.934286 0.713837 1.065078 0.077288 -0.022130 -48107.800000 0 0 1
26.395376 22.303075 20.301648 40.078672 0.701562 1.039623 0.091224 -0.018832 38036.300000 0 0 1
27.302776 21.055475 20.272248 39.996733 0.656922 1.039272 0.067074 -0.016992 114412.000000 0 0 1
26.558376 19.815775 20.307748 38.864082 0.641014 1.020978 0.068259 -0.002200 -235435.000000 0 0 1
27.297076 18.663375 20.293048 38.797677 0.599711 1.020373 0.068114 -0.017147 -71379.900000 0 0 1
28.064876 18.281175 21.630248 39.871120 0.577352 0.997381 0.089841 -0.010042 510501.000000 0 0 1
27.208776 17.748575 22.639748 39.596560 0.577998 0.962146 0.077059 -0.001392 101895.000000 0 0 1
27.904176 17.358075 23.786048 40.567498 0.556482 0.944272 0.110579 0.003399 296072.000000 0 0 1
26.960676 16.570775 24.772748 40.189024 0.551106 0.906626 0.100454 0.003929 631917.000000 0 0 1
26.589276 15.301475 24.262348 39.112482 0.522192 0.901643 0.099469 -0.002161 435560.000000 0 0 1
25.416176 14.668975 24.755948 38.392939 0.523449 0.870029 0.100611 -0.006139 220874.000000 0 0 1
24.880976 13.495375 23.929848 37.065155 0.496988 0.868967 0.106308 -0.008582 542169.000000 0 0 1
23.619376 13.086175 24.485548 36.450857 0.505943 0.834239 0.084167 -0.015838 536519.000000 0 0 1
23.155276 11.927975 23.803048 35.284961 0.475678 0.830381 0.101731 -0.017706 -163705.000000 0 0 1
21.715076 11.593375 24.193148 34.514624 0.490388 0.794063 0.097953 -0.024054 210114.000000 0 0 1
20.678376 12.521375 23.894948 33.990419 0.544476 0.791202 0.111815 -0.035405 -36418.400000 0 0 1
19.435476 11.917975 23.750348 32.921951 0.550074 0.764955 0.118214 -0.032752 -589833.000000 0 0 1
18.158176 12.733775 23.836048 32.558034 0.611577 0.749383 0.120446 -0.047451 -353682.000000 0 0 1
18.022976 13.186875 25.144548 33.629892 0.631666 0.726228 0.137492 -0.027243 364846.000000 0 0 1
16.945776 14.133675 25.222748 33.512790 0.695163 0.718748 0.147669 -0.035230 62140.600000 0 0 1
16.568576 14.178075 26.737448 34.502560 0.707806 0.684175 0.134202 -0.025010 -424238.000000 0 0 1
16.023276 12.989175 27.210448 34.144876 0.681198 0.648631 0.139673 -0.018772 -163670.000000 0 0 1
15.907576 12.989775 28.640048 35.242554 0.684768 0.622102 0.118188 -0.025232 483449.000000 0 0 1
17.158776 12.793575 29.615648 36.540194 0.640679 0.625799 0.125106 -0.010338 789670.000000 0 0 1
18.064976 13.874175 29.525248 37.290433 0.654931 0.657104 0.149707 -0.034703 726598.000000 0 0 1
19.435876 13.462575 29.445648 37.762950 0.605787 0.676530 0.129200 -0.016666 612968.000000 0 0 1
20.384476 14.669875 29.172248 38.493534 0.623799 0.710788 0.149801 -0.028132 -219864.000000 0 0 1
20.391976 15.335775 27.908048 37.813725 0.644811 0.740635 0.149570 -0.042287 248767.000000 0 0 1
20.792076 14.549575 26.770848 36.887381 0.610568 0.758679 0.139948 -0.035046 -240835.000000 0 0 1
20.730076 15.248075 25.422448 36.173757 0.634191 0.791489 0.106858 -0.030925 -660278.000000 0 0 1
21.807076 16.088775 25.168448 36.984429 0.635633 0.822331 0.104022 -0.019689 -363134.000000 0 0 1
21.653976 16.833875 24.014748 36.455207 0.660810 0.851645 0.089707 -0.020876 -230270.000000 0 0 1
22.852776 17.731875 23.668248 37.374520 0.659883 0.885022 0.091889 -0.019939 -255650.000000 0 0 1
22.806876 18.333875 22.362548 36.828903 0.677099 0.918263 0.096739 -0.027375 278058.000000 0 0 1
23.895676 19.202575 22.013248 37.740235 0.676932 0.948031 0.099922 -0.018416 265392.000000 0 0 1
23.977876 20.633775 22.702148 38.936856 0.710578 0.948318 0.103891 -0.026369 -367860.000000 0 0 1
23.093876 21.509675 22.088248 38.521214 0.749896 0.960141 0.105950 -0.017676 -194231.000000 0 0 1
23.135176 22.706165 22.825248 39.645911 0.776040 0.957302 0.119648 -0.021045 -325426.000000 0 0 1
22.238076 23.811985 22.372248 39.522906 0.819563 0.969081 0.123857 -0.043485 -440926.000000 0 0 1
22.647276 24.135485 21.079148 39.239664 0.817198 1.003694 0.130807 -0.043952 36081.800000 0 0 1
22.044576 25.337265 20.735748 39.470389 0.854779 1.017671 0.130156 -0.048993 -198366.000000 0 0 1
22.732576 26.085575 19.584948 39.759243 0.853974 1.055735 0.127555 -0.047425 -247561.000000 0 0 1
22.507576 25.445235 18.373548 38.621733 0.846583 1.075002 0.113437 -0.045067 -87102.800000 0 0 1
22.968576 26.127505 17.265348 38.836764 0.849651 1.110111 0.107387 -0.057552 -119118.000000 0 0 1
22.665776 25.345395 15.963148 37.562595 0.841153 1.131863 0.086295 -0.032326 -229856.000000 0 0 1
21.291476 25.325215 15.662248 36.606003 0.871713 1.128672 0.084632 -0.031853 -418592.000000 0 0 1
21.071876 24.908425 14.303348 35.623579 0.868644 1.157628 0.099188 -0.026597 1177160.000000 0 0 1
19.523276 24.764495 13.977348 34.493547 0.903195 1.153581 0.088452 -0.027667 1267890.000000 0 0 1
18.809876 25.953385 13.774948 34.887517 0.943648 1.164904 0.073411 -0.024907 -256428.000000 0 0 1
18.031576 26.260125 14.929148 35.179701 0.969085 1.132532 0.085597 -0.020597 256114.000000 0 0 1
16.511176 26.420285 14.524548 34.374596 1.012238 1.134553 0.091523 -0.019117 528065.000000 0 0 1
15.929676 25.118795 14.193348 32.956935 1.005627 1.125569 0.096272 -0.026388 175337.000000 0 0 1
15.694376 24.167505 15.204248 32.581450 0.994843 1.085293 0.112605 -0.032240 -650056.000000 0 0 1
14.848976 24.577395 16.413848 33.074988 1.027315 1.051509 0.119039 -0.033897 -474587.000000 0 0 1
15.386876 25.552275 17.283948 34.473317 1.028781 1.045613 0.107930 -0.031639 80184.400000 0 0 1
14.336876 26.311525 17.871748 34.888992 1.071885 1.032998 0.097502 -0.042810 251708.000000 0 0 1
14.865076 27.555965 18.624448 36.430369 1.076089 1.034176 0.098762 -0.044683 -229721.000000 0 0 1
15.096076 28.602875 17.679248 36.858809 1.085171 1.070543 0.087788 -0.039997 185787.000000 0 0 1
15.799376 29.691005 18.238248 38.259767 1.081779 1.073905 0.067412 -0.036305 -84374.900000 0 0 1
15.774676 30.892145 17.310248 38.766090 1.098675 1.107912 0.060383 -0.029963 -1346990.000000 0 0 1
14.448676 31.216455 17.258048 38.484692 1.137304 1.105778 0.068849 -0.032548 -1131710.000000 0 0 1
14.300576 32.525074 16.804748 39.303772 1.156559 1.129004 0.055737 -0.021450 543946.000000 0 0 1
12.870476 33.132142 17.108148 39.447138 1.200279 1.122203 0.058212 -0.024940 670164.000000 0 0 1
12.737876 -33.138065 16.702648 39.234720 -1.203821 1.131049 0.069204 -0.019353 -203170.000000 0 0 1
13.432876 -32.055885 17.292348 38.820706 -1.173980 1.109129 0.057388 -0.023300 -329417.000000 0 0 1
13.371076 -31.874415 18.830348 39.361733 -1.173600 1.071973 0.061241 -0.031867 -225499.000000 0 0 1
14.265676 -32.737595 19.496948 40.686492 -1.159849 1.071054 0.064792 -0.027870 238213.000000 0 0 1
14.088876 -32.582285 20.900148 41.193663 -1.162667 1.038674 0.064402 -0.030480 -273303.000000 0 0 1
15.351576 -33.033755 21.676548 42.388354 -1.135766 1.034007 0.064941 -0.027038 262162.000000 0 0 1
16.407376 -32.116775 21.350648 41.911089 -1.098494 1.036277 0.065095 -0.021997 328925.000000 0 0 1
17.586276 -32.544445 22.057648 43.069221 -1.075371 1.033117 0.080373 -0.014534 100443.000000 0 0 1
18.764076 -31.651425 21.694348 42.714728 -1.035662 1.038064 0.083215 -0.021834 -440805.000000 0 0 1
18.578376 -30.286725 21.833348 41.702960 -1.020570 1.019791 0.089863 -0.029547 580761.000000 0 0 1
19.837276 -29.604735 21.747948 41.748426 -0.980441 1.022858 0.099212 -0.026186 350238.000000 0 0 1
-5.064824 13.096135 18.302187 23.067970 -1.201771 0.654418 0.028998 -0.010356 -144506.000000 0 1 0
-4.684124 14.368935 17.909887 23.434406 -1.255670 0.700909 0.036430 -0.015131 365719.000000 0 1 0
-5.894924 14.887335 17.406087 23.650682 -1.193770 0.743705 0.041651 -0.018508 342863.000000 0 1 0
-5.686624 16.385035 17.148787 24.390325 -1.236741 0.791052 0.054052 -0.025577 64375.000000 0 1 0
-5.429024 17.096735 18.351487 25.662224 -1.263320 0.774005 0.065137 -0.013868 233410.000000 0 0 1
-4.997524 18.385735 17.986887 26.201882 -1.305393 0.814169 0.066095 -0.012529 -375515.000000 0 0 1
-4.333324 19.153135 19.120587 27.408341 -1.348296 0.798727 0.060203 -0.012455 -23090.900000 0 0 1
-5.234724 19.615235 20.108487 28.574657 -1.310004 0.790180 0.054140 -0.012791 430016.000000 0 0 1
-4.445824 20.219635 21.113087 29.569603 -1.354364 0.775583 0.043799 0.002306 447005.000000 0 0 1
-5.352324 20.750835 22.257487 30.897253 -1.318365 0.766459 0.028872 -0.000433 372908.000000 0 0 1
-6.142424 19.792135 22.942027 30.915928 -1.269874 0.734631 0.033812 -0.010514 25078.700000 0 0 1
-6.731924 20.106635 24.203657 32.177828 -1.247716 0.719426 0.023243 -0.015547 197436.000000 0 0 1
-5.814524 20.522035 25.386267 33.157581 -1.294702 0.698784 0.018102 -0.020219 -808458.000000 0 0 1
-5.391524 21.869735 25.369067 33.925557 -1.329087 0.726075 0.028507 -0.015917 460937.000000 0 0 1
-4.263324 22.142535 26.205127 34.571325 -1.380584 0.710552 0.035797 -0.015232 413865.000000 0 0 1
-2.900224 21.703635 25.647377 33.723094 -1.437955 0.706669 0.056362 -0.002829 -936853.000000 0 0 1
-2.564824 20.381135 26.034377 33.162596 -1.445611 0.668016 0.067494 0.002688 -605174.000000 0 0 1
-1.276724 20.166135 25.559977 32.582441 -1.507570 0.668954 0.076781 0.007392 -853630.000000 0 0 1
-0.697824 18.861435 26.084867 32.197220 -1.533816 0.626373 0.081065 0.018631 -479535.000000 0 0 1
-1.222024 17.614635 25.639877 31.131528 -1.501532 0.603070 0.078153 0.010056 -372771.000000 0 0 1
-0.569224 16.479335 26.139307 30.905596 -1.536268 0.562773 0.065674 0.013458 533029.000000 0 0 1
0.896576 16.169835 25.656207 30.339881 1.515406 0.563059 0.067463 0.011904 655585.000000 0 0 1
1.062176 16.043135 24.252657 29.098141 1.504685 0.585424 0.073088 -0.000785 -224355.000000 0 0 1
0.722876 14.747035 23.856467 28.055813 1.521817 0.554200 0.070333 0.002139 -274407.000000 0 0 1
1.006076 14.668535 22.326787 26.733192 1.502316 0.582353 0.074613 -0.020915 -190174.000000 0 0 1
2.373476 14.874735 22.094687 26.740724 1.412566 0.598368 0.072853 -0.026246 -659201.000000 0 0 1
2.800576 13.766235 21.367587 25.571982 1.370097 0.581598 0.069383 -0.029703 341786.000000 0 0 1
4.306576 13.763035 20.957587 25.439894 1.267539 0.602700 0.063557 -0.031990 442015.000000 0 0 1
4.598676 14.606035 19.917387 25.123423 1.265774 0.655437 0.060960 -0.038011 -1268450.000000 0 0 1
5.969476 14.634735 19.795587 25.331312 1.183500 0.673783 0.065444 -0.034882 -950060.000000 0 0 1
6.536676 15.651435 18.772187 25.300011 1.175176 0.734772 0.072040 -0.042859 -80681.200000 0 0 1
6.545876 15.134535 17.424587 23.989975 1.162580 0.757832 0.076870 -0.057704 93943.000000 0 1 0
7.052976 16.153935 16.601687 24.213841 1.159133 0.815330 0.074925 -0.043191 -197897.000000 0 1 0
7.273376 15.773135 15.129587 23.034717 1.138730 0.854207 0.071911 -0.038435 165370.000000 0 1 0
8.311576 14.918535 14.649587 22.500120 1.062495 0.861778 0.072078 -0.043041 192548.000000 0 1 0
8.458776 13.656235 15.288987 22.176491 1.016229 0.810104 0.067071 -0.045868 87769.000000 0 1 0
9.661576 12.846035 14.706087 21.786135 0.925949 0.829804 0.075197 -0.044372 936409.000000 0 1 0
10.951276 13.419535 14.908387 22.853323 0.886333 0.860114 0.069878 -0.040836 449360.000000 0 1 0
11.919776 12.767535 14.094587 22.444340 0.819725 0.891842 0.092123 -0.029604 114786.000000 0 1 0
13.319176 13.384335 14.232487 23.645392 0.787838 0.924901 0.090290 -0.022166 -791986.000000 0 1 0
14.090076 13.103735 15.393387 24.641317 0.749143 0.896051 0.076186 -0.026198 469125.000000 0 1 0
15.394676 13.651935 15.418787 25.712067 0.725472 0.927706 0.088252 -0.021009 522054.000000 0 0 1
16.432076 13.118035 14.394087 25.481085 0.673715 0.970493 0.108729 -0.024697 264018.000000 0 0 1
17.749376 13.673035 14.634487 26.761174 0.656391 0.992193 0.109021 -0.030478 1482590.000000 0 0 1
18.750076 13.142435 13.771187 26.719553 0.611348 1.029325 0.117875 -0.026355 942370.000000 0 0 1
20.162176 13.818735 13.793587 28.066596 0.600846 1.057032 0.106274 -0.035156 672945.000000 0 0 1
20.881176 13.502435 14.951187 29.015121 0.574004 1.029451 0.094417 -0.031925 89443.900000 0 0 1
22.208376 14.010035 14.924787 30.203349 0.562791 1.053947 0.109040 -0.042966 113742.000000 0 0 1
22.967076 13.568535 16.176087 31.197075 0.533614 1.025685 0.116554 -0.031150 -294309.000000 0 0 1
23.157576 12.184035 16.129787 30.739129 0.484337 1.018397 0.113764 -0.025891 109536.000000 0 0 1
23.986476 11.754235 17.168687 31.753376 0.455645 0.999541 0.101623 -0.031084 -252487.000000 0 0 1
24.180476 10.228235 17.074287 31.318421 0.400172 0.994188 0.103550 -0.026177 183758.000000 0 0 1
23.039176 9.508635 17.531987 30.472747 0.391420 0.957785 0.102999 -0.018925 691660.000000 0 0 1
23.171476 8.136035 17.135187 29.945400 0.337675 0.961593 0.073779 -0.018615 -993460.000000 0 0 1
21.928976 7.368835 17.441287 28.972025 0.324177 0.924787 0.125521 -0.012510 -983136.000000 0 0 1
21.753476 6.211635 16.584387 28.050669 0.278145 0.938214 0.116175 -0.031556 -250110.000000 0 0 1
20.589276 5.542735 16.953787 27.240982 0.262971 0.899038 0.131489 -0.032271 -644022.000000 0 0 1
20.588976 4.051535 16.826287 26.896929 0.194299 0.894917 0.147728 -0.021762 -642386.000000 0 0 1
20.136776 3.780235 15.535887 25.712715 0.185568 0.922022 0.158202 -0.027128 211843.000000 0 0 1
20.042076 2.414535 15.194987 25.266627 0.119895 0.925562 0.140411 -0.044352 176505.000000 0 0 1
18.939276 1.525935 15.857687 24.748553 0.080396 0.875319 0.152287 -0.040857 -68959.200000 0 1 0
19.321976 1.182535 17.186887 25.886796 0.061125 0.844741 0.148617 -0.044592 -78860.000000 0 0 1
18.279876 1.098435 18.106387 25.752702 0.060018 0.791067 0.136890 -0.032768 -602146.000000 0 0 1
18.787576 0.477435 19.414487 27.020793 0.025407 0.769151 0.138431 -0.038973 13660.000000 0 0 1
19.149376 -0.892065 19.289487 27.195196 -0.046551 0.782295 0.146114 -0.038276 -279427.000000 0 0 1
18.099076 -1.785265 19.494487 26.660809 -0.098320 0.750711 0.114507 -0.027813 -572881.000000 0 0 1
18.299376 -3.137465 18.802387 26.424243 -0.169801 0.779083 0.104098 -0.028405 -55137.800000 0 0 1
18.115676 -3.072965 17.393687 25.301407 -0.168031 0.812812 0.127590 -0.046930 238109.000000 0 0 1
18.194476 -4.404365 16.897787 25.218497 -0.237503 0.836513 0.149929 -0.041454 -282122.000000 0 0 1
17.679676 -4.515165 15.433787 23.898942 -0.250043 0.868734 0.142336 -0.049857 872624.000000 0 1 0
16.263976 -4.240565 15.313787 22.737884 -0.255055 0.831873 0.127899 -0.039961 1276550.000000 0 1 0
15.637076 -4.298565 14.023387 21.439477 -0.268269 0.857815 0.119333 -0.041527 480225.000000 0 1 0
15.959276 -3.175365 13.027687 20.844713 -0.196402 0.895681 0.120170 -0.036041 -91513.000000 0 1 0
15.001076 -2.180265 13.235587 20.123782 -0.144330 0.853023 0.113653 -0.033277 -3121.750000 0 1 0
15.635376 -0.951965 12.956687 20.328477 -0.060810 0.879721 0.114861 -0.028446 216316.000000 0 1 0
14.717576 0.317035 13.084387 19.695399 0.021538 0.844190 0.119054 -0.020282 -245175.000000 0 1 0
15.187676 1.586235 12.640187 19.823117 0.104065 0.879354 0.114670 -0.018407 -477285.000000 0 1 0
16.276276 2.052635 13.356587 21.154879 0.125450 0.887476 0.137995 -0.030607 -653523.000000 0 1 0
16.547076 3.551735 13.052487 21.372598 0.211436 0.913838 0.125888 -0.023040 302460.000000 0 1 0
15.450576 4.363635 13.480187 20.963708 0.275256 0.872355 0.113047 -0.009834 614944.000000 0 1 0
15.428676 5.452335 12.572287 20.635755 0.339691 0.915685 0.117118 -0.025768 -383486.000000 0 1 0
14.304876 6.429435 12.830487 20.262984 0.422403 0.885118 0.091244 -0.017584 -494713.000000 0 1 0
14.322076 7.577835 12.042887 20.188526 0.486657 0.931636 0.060382 -0.023671 -150022.000000 0 1 0
13.293676 8.480735 12.329187 20.016332 0.567859 0.907197 0.045877 -0.014671 -467347.000000 0 1 0
13.514776 9.427535 13.557587 21.338598 0.609095 0.882328 0.047322 -0.015093 -202450.000000 0 1 0
13.123276 8.976635 14.798787 21.721060 0.599923 0.821245 0.057642 -0.019694 418661.000000 0 1 0
13.671876 9.806535 15.813387 23.090074 0.622228 0.816390 0.086525 -0.027483 -243029.000000 0 1 0
13.168876 9.353535 17.170887 23.574293 0.617589 0.754851 0.075856 -0.021490 -428740.000000 0 1 0
11.904476 9.789935 17.592487 23.389206 0.688236 0.719459 0.044362 -0.026305 -332930.000000 0 1 0
11.408476 9.088735 18.747987 23.753851 0.672704 0.661192 0.074972 -0.013785 -139785.000000 0 1 0
12.098576 9.397535 20.112187 25.282193 0.660401 0.650951 0.109650 -0.019055 -366939.000000 0 0 1
13.424376 8.924235 20.089587 25.757472 0.586694 0.676207 0.149604 -0.032670 -584676.000000 0 0 1
14.061776 9.369635 21.227887 27.132025 0.587762 0.672298 0.143105 -0.011902 -310887.000000 0 0 1
15.539076 8.896135 21.263587 27.798278 0.519954 0.699872 0.144533 -0.023980 335611.000000 0 0 1
16.364776 9.745135 20.486687 27.972806 0.537100 0.748987 0.137313 -0.024147 -719200.000000 0 0 1
17.522576 9.204935 19.993287 28.133664 0.483697 0.780370 0.117254 -0.023255 -487991.000000 0 0 1
18.440776 10.093335 19.096187 28.400739 0.500797 0.833372 0.120374 -0.022256 110139.000000 0 0 1
19.199776 11.061835 19.760287 29.689468 0.522694 0.842545 0.124707 -0.032584 -204580.000000 0 0 1
20.039576 11.710935 18.836987 29.892519 0.528863 0.889041 0.133718 -0.034655 -67007.300000 0 0 1
21.139076 12.479635 19.624087 31.427800 0.533300 0.896410 0.123414 -0.034259 -877863.000000 0 0 1
20.744176 13.687635 20.312187 32.097619 0.583255 0.885600 0.108379 -0.031315 -266681.000000 0 0 1
21.618876 14.332835 21.203887 33.502400 0.585444 0.885495 0.099040 -0.027080 -1009750.000000 0 0 1
22.919576 14.849535 20.651787 34.239041 0.574896 0.923333 0.088707 -0.024022 -638661.000000 0 0 1
23.939176 13.886335 20.373587 34.365644 0.525634 0.936206 0.069615 -0.010460 -846139.000000 0 0 1
25.131576 14.556335 20.360587 35.468810 0.524989 0.959363 0.071573 -0.015341 -1171610.000000 0 0 1
26.412376 13.726635 20.463087 36.121628 0.479287 0.968538 0.065389 -0.020137 -12530.300000 0 0 1
26.770776 13.008735 19.242587 35.442613 0.452329 0.996883 0.084300 -0.030082 -17202.900000 0 0 1
27.982676 12.307135 19.363587 36.186244 0.414350 1.006159 0.105799 -0.035811 15385.300000 0 0 1
28.347076 11.616035 18.037187 35.550374 0.388908 1.038666 0.130535 -0.037232 110000.000000 0 0 1
28.765076 12.564335 16.992287 35.693556 0.411815 1.074627 0.145695 -0.051328 233588.000000 0 0 1
29.091576 11.978435 15.780387 35.196922 0.390594 1.105883 0.181948 -0.057624 448936.000000 0 0 1
27.859176 11.638635 14.849687 33.646764 0.395728 1.113704 0.159061 -0.053994 567494.000000 0 0 1
27.177076 12.786235 14.406087 33.310908 0.439753 1.123562 0.175799 -0.047386 -76561.000000 0 0 1
26.191876 12.429135 13.469587 31.967601 0.443074 1.135862 0.172498 -0.043083 -114326.000000 0 0 1
25.641376 13.496635 12.557687 31.580608 0.484514 1.161854 0.162075 -0.043320 -98802.600000 0 0 1
25.005976 14.569635 13.213187 31.814484 0.527562 1.142502 0.146886 -0.042639 233505.000000 0 0 1
24.893876 15.648935 12.290287 31.869192 0.561202 1.174886 0.139180 -0.036101 -297367.000000 0 0 1
24.097576 16.850835 12.803487 32.071375 0.610239 1.160132 0.138414 -0.042634 -229189.000000 0 0 1
22.720276 16.577335 12.907587 30.945513 0.630335 1.140537 0.144147 -0.052807 365653.000000 0 0 1
21.867076 17.695335 13.143987 31.049288 0.680339 1.133682 0.125889 -0.050980 -570711.000000 0 0 1
21.130176 18.266935 11.911987 30.365452 0.712849 1.167679 0.144731 -0.046499 -826667.000000 0 0 1
20.050176 17.579635 11.405387 29.002344 0.719838 1.166625 0.133220 -0.045618 588271.000000 0 0 1
18.856476 17.761235 12.237287 28.649247 0.755497 1.129467 0.118796 -0.044880 769140.000000 0 0 1
17.518376 17.194335 11.686087 27.186454 0.776064 1.126470 0.115759 -0.027008 212851.000000 0 0 1
17.517976 15.819335 11.509887 26.260395 0.734489 1.117092 0.117224 -0.021226 -196251.000000 0 0 1
16.267476 15.407335 11.038487 24.977289 0.758249 1.113035 0.116844 -0.022176 -350846.000000 0 1 0
16.216876 14.020035 10.391987 23.823137 0.712871 1.119409 0.116142 -0.021277 -120472.000000 0 1 0
16.249676 12.851035 11.212787 23.556903 0.669136 1.074710 0.108853 -0.013314 456627.000000 0 1 0
16.572876 11.754035 10.370787 22.811637 0.616896 1.098843 0.102023 -0.003473 -16586.400000 0 1 0
16.787276 10.434735 11.093187 22.666167 0.556141 1.059376 0.095924 -0.016431 -562251.000000 0 1 0
17.456876 9.542435 10.280387 22.393904 0.500251 1.093847 0.089128 -0.015349 373275.000000 0 1 0
17.985576 8.312135 10.844887 22.587255 0.432916 1.069990 0.092236 -0.017329 1086830.000000 0 1 0
19.278976 8.469535 11.741387 24.109585 0.413932 1.062144 0.092436 -0.025493 407728.000000 0 1 0
18.999776 9.110535 12.982887 24.749721 0.447120 1.018590 0.085406 -0.027826 253804.000000 0 1 0
20.181876 9.270635 13.738887 26.115317 0.430606 1.016805 0.098798 -0.028080 -503446.000000 0 0 1
19.879976 9.591335 15.190687 26.794853 0.449519 0.968027 0.089100 -0.013940 386332.000000 0 0 1
19.130976 8.672535 16.029987 26.422861 0.425615 0.918930 0.091815 -0.017647 1485630.000000 0 0 1
17.720676 8.571635 15.769787 25.222638 0.450529 0.895378 0.096285 -0.024028 365865.000000 0 0 1
17.085276 7.262435 16.139187 24.599247 0.401930 0.855177 0.115646 -0.023209 -818078.000000 0 1 0
16.876676 7.239935 17.535687 25.391715 0.405246 0.808469 0.150627 -0.021529 207114.000000 0 0 1
16.244576 6.062035 18.013687 25.002549 0.357168 0.766311 0.141696 0.001947 1182360.000000 0 0 1
14.734776 5.754335 17.641987 23.695268 0.372314 0.730956 0.124426 -0.014921 750400.000000 0 1 0
14.395076 4.353035 17.752887 23.266545 0.293655 0.702821 0.141004 -0.013647 214583.000000 0 1 0
14.171176 3.832135 16.447187 22.045803 0.264101 0.728692 0.152721 -0.015477 29346.100000 0 1 0
13.856576 2.303335 16.571287 21.723665 0.164721 0.703130 0.144510 -0.019706 883327.000000 0 1 0
15.104676 1.592135 16.720587 22.589028 0.105019 0.737416 0.137017 -0.022729 890131.000000 0 1 0
15.044176 0.166535 16.622287 22.419978 0.011069 0.735634 0.142633 -0.022136 -583994.000000 0 1 0
14.281276 -0.707665 17.642087 22.709004 -0.049511 0.681107 0.137252 -0.020039 1348860.000000 0 1 0
12.869276 -0.549865 17.319987 21.584776 -0.042701 0.639462 0.126872 -0.019881 924614.000000 0 1 0
12.029276 -1.059765 18.337487 21.956548 -0.087872 0.582351 0.094638 -0.025213 239263.000000 0 1 0
-26.145184 14.015235 28.512017 41.145262 -0.492073 0.805210 0.112019 -0.014008 -671828.000000 0 0 1
-25.397824 14.011235 29.674817 41.496493 -0.504125 0.774006 0.088436 -0.019157 -22700.100000 0 0 1
-24.713124 12.771435 29.756387 40.734391 -0.476987 0.751746 0.069316 -0.019523 -481371.000000 0 0 1
-23.565724 12.835935 30.749367 40.812108 -0.498755 0.717522 0.073541 -0.027147 -831638.000000 0 0 1
-24.031624 12.946135 32.050611 42.099443 -0.494136 0.705469 0.072981 -0.030181 211495.000000 0 0 1
-22.981024 13.011035 32.997909 42.264365 -0.515169 0.674931 0.056818 -0.027514 -419267.000000 0 0 1
-23.570024 13.308635 -33.232292 42.860833 -0.514015 2.458071 0.054341 -0.026231 45080.300000 0 0 1
-24.120424 12.205435 -32.540382 42.304184 -0.468453 2.448385 0.044024 -0.021148 291260.000000 0 0 1
-24.924924 12.555935 -31.410302 42.017977 -0.466643 2.415154 0.037216 -0.026315 275734.000000 0 0 1
-25.648224 11.303435 -30.777402 41.627485 -0.415102 2.402905 0.027840 -0.026475 105264.000000 0 0 1
-24.779824 10.405735 -30.116292 40.364713 -0.397567 2.412988 0.040649 -0.033036 266439.000000 0 0 1
-24.265424 9.421935 -31.051882 40.519169 -0.370368 2.443937 0.029661 -0.026806 -2345.780000 0 0 1
-23.390824 8.365535 -30.364012 39.231187 -0.343466 2.455893 0.039392 -0.012461 -402097.000000 0 0 1
-24.089724 7.481735 -29.529312 38.836470 -0.301133 2.434648 0.047318 -0.013797 85098.400000 0 0 1
-23.182224 6.673135 -28.824252 37.587016 -0.280278 2.444742 0.043941 -0.005869 -202594.000000 0 0 1
-23.783424 5.750035 -27.729652 36.981722 -0.237215 2.418587 0.044626 -0.007348 -121864.000000 0 0 1
-24.657124 4.721135 -28.142622 37.712996 -0.189182 2.413179 0.070280 -0.015746 176473.000000 0 0 1
-25.052824 4.028535 -26.992162 37.046591 -0.159437 2.387073 0.115300 -0.016997 -327210.000000 0 0 1
-26.052504 2.859235 -27.270112 37.822840 -0.109311 2.376035 0.113709 -0.021263 1365660.000000 0 0 1
-27.403474 3.240635 -27.613862 39.038154 -0.117710 2.356547 0.127640 -0.022050 1002730.000000 0 0 1
-27.643444 3.888135 -28.861892 40.153286 -0.139736 2.372861 0.124569 -0.022331 -445701.000000 0 0 1
-28.968274 3.511035 -29.578692 41.549817 -0.120614 2.362975 0.149347 -0.029712 -62441.500000 0 0 1
-30.146864 3.728935 -28.828512 41.878652 -0.123067 2.330052 0.126380 -0.030808 1129280.000000 0 0 1
-31.322264 3.740935 -29.703962 43.329022 -0.118871 2.326147 0.132797 -0.030418 1302440.000000 0 0 1
-31.762584 5.091635 -30.283542 44.180079 -0.158951 2.326027 0.135891 -0.041219 -703250.000000 0 0 1
-30.815894 5.507735 -31.223812 44.214035 -0.176863 2.354908 0.138009 -0.041138 83025.600000 0 0 1
-31.180054 6.689435 -31.921522 45.121257 -0.211338 2.356695 0.138213 -0.038929 -165018.000000 0 0 1
-30.671374 7.938635 -31.055702 44.364532 -0.253271 2.346211 0.102369 -0.033436 570621.000000 0 0 1
-29.269814 8.154535 -30.860352 43.307964 -0.271709 2.363964 0.050447 -0.038701 734673.000000 0 0 1
-28.748394 7.563735 -29.679032 42.006252 -0.257271 2.355391 0.041308 -0.035328 -527357.000000 0 0 1
-28.881284 8.410535 -28.374362 41.351785 -0.283374 2.327007 0.029132 -0.026921 -59075.800000 0 0 1
-30.184934 8.646435 -27.876012 41.987654 -0.278979 2.296831 0.050597 -0.026241 73267.800000 0 0 1
-30.744064 7.537735 -27.212372 41.743600 -0.240434 2.280875 0.052373 -0.013112 210050.000000 0 0 1
-32.237564 7.740435 -26.763712 42.608346 -0.235645 2.249948 0.064331 -0.005411 760676.000000 0 0 1
-32.389054 8.637235 -25.653322 42.210728 -0.260607 2.224013 0.022129 -0.002214 -58656.800000 0 0 1
-32.330754 7.904635 -24.411952 41.275953 -0.239789 2.203631 0.035874 -0.010780 -91517.400000 0 0 1
-31.744454 8.725835 -23.218752 40.285990 -0.268252 2.185049 0.037516 -0.005578 -440753.000000 0 0 1
-32.541574 9.711135 -22.674952 40.833976 -0.290009 2.159515 0.053234 -0.011444 -342480.000000 0 0 1
-31.788654 10.674835 -21.947952 40.077216 -0.323975 2.150339 0.063265 -0.015073 -133901.000000 0 0 1
-32.606994 11.562435 -20.966752 40.453809 -0.340767 2.115645 0.058078 -0.009568 44808.600000 0 0 1
-33.147104 10.808335 -19.877952 40.133323 -0.315201 2.088974 0.062784 -0.020531 160097.000000 0 0 1
-33.851234 11.604135 -18.935152 40.485824 -0.330244 2.057481 0.064418 -0.013981 243459.000000 0 0 1
-33.043434 12.307535 -17.745752 39.474747 -0.356547 2.037054 0.070874 -0.015699 134927.000000 0 0 1
-32.575964 11.590935 -16.598652 38.354380 -0.341844 2.018360 0.107621 -0.012807 317782.000000 0 0 1
-33.559974 11.302735 -15.613152 38.701346 -0.324860 1.986055 0.102589 -0.010270 -17045.300000 0 0 1
-34.095766 12.524835 -14.801252 39.223333 -0.352041 1.957738 0.090475 -0.004898 -554661.000000 0 0 1
-34.952270 13.365335 -15.494052 40.501345 -0.365232 1.963358 0.057491 -0.010700 -327219.000000 0 0 1
-35.210981 14.507635 -14.673552 40.811736 -0.390825 1.938574 0.025294 -0.008169 467161.000000 0 0 1
-36.158274 15.616135 -15.303352 42.254906 -0.407686 1.941388 0.014819 -0.008091 715542.000000 0 0 1
-37.515174 15.194535 -15.459352 43.327286 -0.384830 1.935641 0.031740 -0.008660 559591.000000 0 0 1
37.254466 16.260735 -15.927252 43.657578 0.411552 1.944238 0.035716 -0.013065 -630568.000000 0 0 1
37.176246 16.399835 -17.470152 44.229335 0.415459 1.976853 0.024907 -0.011372 -187899.000000 0 0 1
36.311476 15.429835 -18.064452 43.392713 0.401811 2.000170 0.064120 -0.017782 301574.000000 0 0 1
34.965696 15.843835 -18.088552 42.436101 0.425450 2.011144 0.102344 -0.020725 -541013.000000 0 0 1
33.942546 14.707535 -18.303352 41.272517 0.408885 2.030269 0.112815 -0.020044 -140551.000000 0 0 1
33.793496 14.372635 -19.668252 41.658290 0.402131 2.062505 0.105441 -0.014821 14335.900000 0 0 1
33.144616 13.173835 -19.986352 40.884835 0.378319 2.081562 0.051050 -0.004629 -50509.000000 0 0 1
33.720126 11.835835 -19.401852 40.664059 0.337567 2.068177 0.070520 -0.002463 29018.500000 0 0 1
33.395906 11.743135 -18.034652 39.729541 0.338130 2.041974 0.106560 -0.009207 1525.080000 0 0 1
33.763766 10.495835 -17.524152 39.462011 0.301391 2.030940 0.097594 -0.020738 -164342.000000 0 0 1
33.648866 10.340035 -15.995952 38.665656 0.298133 1.997310 0.078636 -0.014082 -321019.000000 0 0 1
32.328206 10.164835 -15.563352 37.291483 0.304639 2.001316 0.101715 -0.012284 -414061.000000 0 0 1
32.142636 9.954835 -14.171352 36.511299 0.300339 1.969405 0.088910 -0.001066 -195956.000000 0 0 1
31.558026 11.143935 -13.379352 36.043076 0.339456 1.951102 0.111037 -0.012528 -1098640.000000 0 0 1
30.190366 11.146535 -13.589952 34.934084 0.353683 1.970361 0.109310 -0.011475 -1130430.000000 0 0 1
29.617266 12.118535 -12.721052 34.436412 0.388388 1.949167 0.138891 -0.013003 -65361.200000 0 0 1
28.089066 12.028935 -12.922152 33.176391 0.404614 1.970883 0.125923 0.000755 -412069.000000 0 0 1
27.492266 10.865735 -12.323352 32.027393 0.376387 1.965761 0.129338 -0.003764 1283130.000000 0 0 1
26.109466 10.638135 -12.701552 30.922541 0.386907 1.994077 0.125639 0.016671 1133150.000000 0 0 1
25.748066 10.329735 -14.215952 31.173059 0.381527 2.044329 0.109250 -0.005978 -613090.000000 0 0 1
26.178966 9.061735 -14.709352 31.365878 0.333237 2.058910 0.124941 -0.007680 147767.000000 0 0 1
27.548766 8.945335 -15.013152 32.624350 0.313969 2.048997 0.127699 -0.010421 72772.500000 0 0 1
28.534166 8.192535 -14.080452 32.856892 0.279592 2.013671 0.126812 -0.011835 -35938.100000 0 0 1
28.290066 6.787735 -14.035852 32.301800 0.235482 2.020304 0.134552 -0.029653 705495.000000 0 0 1
27.222966 6.363535 -13.170852 30.903977 0.229633 2.011069 0.152590 -0.026237 302657.000000 0 0 1
27.008266 4.834935 -13.215052 30.454238 0.177140 2.019648 0.167739 -0.035609 -168753.000000 0 0 1
26.202066 4.321435 -12.170052 29.211868 0.163456 2.000513 0.196847 -0.035581 540153.000000 0 0 1
25.953866 2.971635 -12.317352 28.881671 0.114000 2.011390 0.190169 -0.039997 -96280.900000 0 0 1
25.228066 2.344335 -11.085452 27.655713 0.092660 1.983227 0.204489 -0.035131 25013.900000 0 0 1
26.100266 2.095635 -9.988952 28.024895 0.080120 1.935242 0.219786 -0.035627 448568.000000 0 0 1
25.454866 1.480835 -8.928752 27.016026 0.058109 1.907628 0.241845 -0.021720 -593236.000000 0 0 1
26.427166 1.231635 -7.760452 27.570575 0.046571 1.856128 0.275947 -0.013596 -254046.000000 0 0 1
26.297566 -0.024965 -7.138752 27.249300 -0.000949 1.835869 0.240120 -0.017686 328260.000000 0 0 1
26.862766 -1.080165 -7.908852 28.023649 -0.040189 1.856904 0.190420 -0.019767 -497541.000000 0 0 1
26.908266 -2.423665 -7.143752 27.945699 -0.089829 1.829295 0.168709 -0.022904 -701609.000000 0 0 1
28.006566 -2.538365 -6.290752 28.816394 -0.090388 1.790873 0.166548 -0.030418 -47080.800000 0 0 1
28.011966 -3.766065 -5.556852 28.805070 -0.133643 1.764926 0.178771 -0.038610 -892661.000000 0 0 1
29.382866 -4.054865 -4.967852 30.074479 -0.137135 1.736742 0.129672 -0.029113 -387382.000000 0 0 1
30.244966 -4.573165 -5.986152 31.168988 -0.150067 1.764052 0.116117 -0.019284 878791.000000 0 0 1
31.579066 -4.844365 -5.558752 32.428460 -0.152218 1.743063 0.179425 -0.025665 881575.000000 0 0 1
32.634846 -5.112165 -6.690752 33.703613 -0.155385 1.770641 0.193264 -0.036983 244941.000000 0 0 1
32.389536 -6.257565 -7.522652 33.835328 -0.190846 1.795001 0.167173 -0.032238 296851.000000 0 0 1
33.103356 -6.302765 -8.772652 34.821207 -0.188145 1.825475 0.177421 -0.030146 -110289.000000 0 0 1
32.268406 -7.194765 -9.769152 34.473917 -0.219378 1.858111 0.149065 -0.028347 -21164.400000 0 0 1
31.107126 -6.574665 -10.231552 33.400062 -0.208290 1.882135 0.108952 -0.034702 -410199.000000 0 0 1
30.012266 -7.007265 -9.421552 32.227372 -0.229371 1.867476 0.105708 -0.027674 -1073280.000000 0 0 1
28.908766 -5.981265 -9.461852 31.000305 -0.204023 1.880964 0.102026 -0.028902 -1082810.000000 0 0 1
28.192866 -5.954765 -10.667852 30.726210 -0.208156 1.925370 0.092073 -0.029128 370345.000000 0 0 1
26.986166 -5.227865 -10.499652 29.424928 -0.191354 1.935667 0.132784 -0.021476 486061.000000 0 0 1
25.653266 -6.007165 -10.437952 28.339494 -0.230023 1.947996 0.175277 -0.012868 -656049.000000 0 0 1
25.597866 -6.925665 -9.295752 28.100295 -0.264230 1.907954 0.160875 -0.016362 -117344.000000 0 0 1
24.320466 -7.383365 -9.012952 26.967247 -0.294744 1.911572 0.153173 -0.008439 -694283.000000 0 0 1
23.353966 -6.435465 -8.245652 25.589328 -0.268889 1.898881 0.186304 -0.010393 -246607.000000 0 0 1
23.014666 -5.282465 -9.023852 25.278631 -0.225618 1.935824 0.200394 -0.007770 166821.000000 0 0 1
22.711566 -4.151065 -8.304952 24.536071 -0.180778 1.916097 0.215917 -0.017739 -190243.000000 0 1 0
22.761266 -2.847165 -9.148652 24.695736 -0.124442 1.950295 0.244815 -0.022076 102580.000000 0 1 0
24.073166 -2.603765 -9.609652 26.050764 -0.107742 1.948602 0.201185 -0.030345 510032.000000 0 0 1
23.960666 -1.841865 -10.809152 26.350403 -0.076719 1.993479 0.221406 -0.036806 26053.800000 0 0 1
25.241066 -1.964365 -11.685052 27.883876 -0.077668 2.003207 0.155774 -0.034231 322859.000000 0 0 1
26.305066 -1.271765 -11.053052 28.561229 -0.048309 1.968167 0.150183 -0.039886 411883.000000 0 0 1
27.478666 -1.262165 -11.828952 29.943183 -0.045900 1.976915 0.131007 -0.032568 612946.000000 0 0 1
28.657866 -0.266165 -11.474952 30.871000 -0.009287 1.951643 0.104661 -0.016326 232617.000000 0 0 1
29.795566 -0.614365 -12.215352 32.208198 -0.020616 1.959795 0.091032 -0.022728 55392.000000 0 0 1
30.920916 0.208035 -11.920852 33.139901 0.006728 1.938757 0.108869 -0.022353 290806.000000 0 0 1
31.052106 1.429535 -12.850652 33.636529 0.046004 1.962804 0.114217 -0.023692 -358393.000000 0 0 1
31.316666 1.169635 -14.207052 34.408457 0.037331 1.996426 0.106465 -0.023638 242525.000000 0 0 1
31.406926 2.390935 -14.921552 34.853468 0.075981 2.013210 0.105511 -0.013687 -99684.400000 0 0 1
31.508746 2.258135 -16.459652 35.620505 0.071545 2.051140 0.103829 -0.021077 -727994.000000 0 0 1
30.391066 1.716435 -17.069952 34.899087 0.056418 2.081880 0.095146 -0.012531 -837300.000000 0 0 1
30.574466 1.523235 -18.466352 35.750865 0.049779 2.113588 0.077424 -0.016193 -810070.000000 0 0 1
29.479966 0.875635 -19.266552 35.228329 0.029694 2.149459 0.054380 -0.015032 -668286.000000 0 0 1
29.334566 -0.464465 -19.053652 34.982483 -0.015832 2.146783 0.058117 -0.012809 61493.400000 0 0 1
29.121666 -1.125465 -20.316752 35.526166 -0.038628 2.179594 0.043484 -0.013331 32514.100000 0 0 1
28.711466 -2.631265 -20.334452 35.281181 -0.091390 2.185056 0.052592 -0.019553 -159990.000000 0 0 1
27.533566 -3.005565 -19.667452 33.969682 -0.108730 2.188262 0.048804 -0.014110 -50441.800000 0 0 1
27.363766 -4.451165 -19.638552 33.974421 -0.161254 2.187120 0.050248 -0.017264 208686.000000 0 0 1
28.178966 -5.109465 -18.473752 34.079910 -0.179373 2.143697 0.043076 -0.013497 -1247640.000000 0 0 1
29.514366 -5.208165 -18.706552 35.329278 -0.174664 2.128797 0.055350 -0.017275 -1744280.000000 0 0 1
30.177766 -5.270765 -17.479352 35.270473 -0.172913 2.089299 0.070976 -0.023174 -221445.000000 0 0 1
31.705576 -5.119365 -17.615352 36.629934 -0.160084 2.072478 0.104042 -0.024342 -67640.300000 0 0 1
32.410916 -6.111365 -18.340852 37.738615 -0.186371 2.078300 0.081622 -0.020224 -827043.000000 0 0 1
33.687966 -5.652765 -18.598352 38.893849 -0.166249 2.069380 0.110759 -0.020016 -785931.000000 0 0 1
34.541776 -6.787165 -19.240552 40.117312 -0.194020 2.071003 0.094352 -0.009005 -234014.000000 0 0 1
35.030176 -7.771265 -18.401652 40.325260 -0.218309 2.044663 0.118937 -0.019469 -147620.000000 0 0 1
35.680026 -8.742065 -19.165852 41.434500 -0.240279 2.051674 0.092456 -0.014077 -347549.000000 0 0 1
36.510256 -9.676265 -18.231252 41.940522 -0.259073 2.020494 0.109941 -0.018571 -673401.000000 0 0 1
35.773196 -10.368565 -17.248152 41.045431 -0.282111 2.004485 0.117495 -0.023505 542043.000000 0 0 1
36.599336 -11.080465 -16.281052 41.561529 -0.293978 1.973311 0.120608 -0.026024 698539.000000 0 0 1
37.737426 -10.358665 -15.437752 42.068271 -0.267895 1.946545 0.145009 -0.028965 480125.000000 0 0 1
-37.361304 -11.117365 -14.321952 41.528077 0.289220 1.922901 0.149640 -0.033416 573919.000000 0 0 1
-36.727914 -12.408865 -14.555552 41.409947 0.325818 1.929968 0.131625 -0.030141 -83354.100000 0 0 1
-35.258971 -12.458265 -15.023052 40.300068 0.339644 1.952799 0.140760 -0.038657 -198841.000000 0 0 1
-35.116773 -12.285065 -16.378452 40.649284 0.336528 1.985503 0.146694 -0.022527 919928.000000 0 0 1
-33.743674 -12.355865 -16.837952 39.683996 0.351005 2.008986 0.165387 -0.038464 1006040.000000 0 0 1
-33.442414 -11.534565 -18.086352 39.731063 0.332132 2.043415 0.188768 -0.042744 -64619.600000 0 0 1
-33.736234 -10.217365 -17.795452 39.486785 0.294079 2.038310 0.189726 -0.037802 357415.000000 0 0 1
-34.918877 -9.823665 -18.489552 40.714812 0.274240 2.042184 0.169544 -0.032278 308826.000000 0 0 1
-35.400183 -8.393865 -18.063352 40.619141 0.232814 2.031636 0.188216 -0.030064 552884.000000 0 0 1
-36.505584 -7.913265 -18.862452 41.845783 0.213466 2.038414 0.183409 -0.028153 493335.000000 0 0 1
-36.984534 -6.655065 -18.458152 41.867040 0.178037 2.027370 0.173546 -0.033400 -230929.000000 0 0 1
25.723076 27.197535 -26.675682 45.967103 0.813253 2.189919 0.057921 0.011320 -29088.400000 0 0 1
26.229276 26.159435 -25.879422 45.188886 0.784065 2.180585 0.076372 -0.010198 -45939.400000 0 0 1
27.404876 25.590935 -26.396422 45.855144 0.751184 2.184193 0.071888 -0.018235 -254468.000000 0 0 1
28.069576 24.576335 -25.398502 45.132928 0.719142 2.168504 0.090003 -0.033908 -151597.000000 0 0 1
28.705176 25.206535 -24.292652 45.271287 0.720593 2.137201 0.090326 -0.032138 188546.000000 0 0 1
28.996276 24.284235 -23.283552 44.414320 0.697189 2.122613 0.110781 -0.033624 305076.000000 0 0 1
29.725976 25.056335 -22.129352 44.734347 0.700364 2.088267 0.090756 -0.027368 668328.000000 0 0 1
28.787076 25.714735 -21.274752 44.074464 0.729086 2.074532 0.099890 -0.028928 629496.000000 0 0 1
29.494776 26.618235 -20.435452 44.677510 0.734180 2.045865 0.072278 -0.020076 225801.000000 0 0 1
28.545376 27.652435 -19.797152 44.400708 0.769510 2.032948 0.079742 -0.011892 -206817.000000 0 0 1
27.663476 27.128135 -18.836952 43.081717 0.775628 2.023321 0.102590 -0.017021 -122149.000000 0 0 1
26.901376 28.208035 -18.343852 43.079858 0.809104 2.010654 0.103095 -0.015831 171651.000000 0 0 1
25.792376 27.814535 -17.329552 41.703817 0.823102 1.999331 0.104599 -0.016179 923952.000000 0 0 1
24.645076 27.142235 -17.888552 40.793149 0.833580 2.024746 0.113908 -0.020388 625122.000000 0 0 1
23.578476 27.113235 -16.972952 39.738560 0.855016 2.012096 0.100636 -0.015016 231112.000000 0 0 1
22.477576 26.064535 -17.252052 38.499801 0.859158 2.035444 0.107908 -0.017835 492178.000000 0 0 1
21.687976 26.283735 -18.439852 38.745724 0.880908 2.066806 0.094427 -0.021038 38455.700000 0 0 1
20.710776 25.297035 -18.597052 37.612851 0.884754 2.087979 0.084360 -0.013356 231075.000000 0 0 1
19.898576 25.446335 -19.941852 37.962438 0.907139 2.123870 0.062805 -0.009524 850934.000000 0 0 1
18.962676 26.543335 -19.954352 38.240134 0.950468 2.119776 0.056214 -0.011004 188392.000000 0 0 1
18.144876 26.519435 -21.113852 38.448819 0.970746 2.152133 0.054953 -0.006510 558540.000000 0 0 1
16.932576 27.515635 -21.062252 38.567353 1.019145 2.148517 0.058228 -0.009319 672986.000000 0 0 1
16.100276 27.212935 -19.922952 37.372272 1.036546 2.133050 0.066219 -0.010177 52433.300000 0 0 1
15.347076 28.327735 -19.505052 37.662187 1.074295 2.115185 0.065188 -0.013669 88893.600000 0 0 1
14.647476 28.180235 -18.140252 36.575168 1.091452 2.089750 0.064017 -0.009783 273050.000000 0 0 1
13.749976 27.085335 -18.119052 35.369157 1.101044 2.108638 0.060826 -0.009022 -96528.600000 0 0 1
13.033776 26.970835 -16.903552 34.395280 1.120635 2.084550 0.069885 -0.009854 408995.000000 0 0 1
12.031176 25.814835 -16.798652 33.065837 1.134670 2.103700 0.088240 -0.013210 223230.000000 0 0 1
12.793176 24.618035 -16.648052 32.355380 1.091539 2.111264 0.077077 -0.010782 396100.000000 0 0 1
11.958976 23.483635 -16.443552 31.062656 1.099778 2.128651 0.098096 -0.007250 516922.000000 0 0 1
12.784676 22.142435 -16.582552 30.474848 1.047173 2.146159 0.091517 -0.013983 457802.000000 0 0 1
13.213776 21.929535 -17.891052 31.234566 1.028499 2.180710 0.080838 -0.006275 -168894.000000 0 0 1
14.284576 21.026535 -18.077952 31.192573 0.974058 2.188984 0.086099 -0.010451 -20330.900000 0 0 1
13.924676 19.532935 -18.058652 30.025773 0.951477 2.216097 0.094377 -0.011291 -35480.600000 0 0 1
13.475676 19.088635 -16.766252 28.758947 0.956086 2.193203 0.108527 -0.029574 -76393.300000 0 0 1
13.074676 17.754635 -16.777152 27.706444 0.936050 2.221231 0.087737 -0.029913 262022.000000 0 0 1
14.207076 16.670135 -16.707352 27.547595 0.864999 2.222435 0.114464 -0.034750 389425.000000 0 0 1
14.816676 16.392735 -15.436652 26.954515 0.835855 2.180583 0.115952 -0.039480 1380.470000 0 0 1
15.821376 15.441635 -15.562552 27.036143 0.773252 2.184159 0.123776 -0.036106 -975021.000000 0 0 1
16.303576 14.822235 -14.214152 26.221124 0.737842 2.143716 0.183139 -0.040816 -665915.000000 0 0 1
17.135176 15.460735 -13.259552 26.616992 0.734074 2.092273 0.153766 -0.042005 1621640.000000 0 0 1
18.432376 15.927535 -13.723352 27.960136 0.712627 2.083825 0.114637 -0.025367 650471.000000 0 0 1
19.450676 14.833835 -14.106452 28.237624 0.651541 2.093890 0.107869 -0.023541 -919772.000000 0 0 1
19.978976 13.977535 -13.082652 27.671045 0.610466 2.063253 0.140884 -0.032791 245617.000000 0 0 1
21.083376 14.485535 -12.363552 28.411210 0.601988 2.021017 0.123516 -0.018078 -440520.000000 0 0 1
21.910476 13.268335 -11.919952 28.252485 0.544505 2.006345 0.137165 -0.036048 -366373.000000 0 0 1
21.297076 12.496535 -10.891252 26.987927 0.530636 1.986201 0.237421 -0.046593 462059.000000 0 0 1
22.011976 11.290335 -10.546652 26.892947 0.473928 1.973788 0.249261 -0.026505 -10756.200000 0 0 1
21.772376 10.062635 -11.421052 26.565643 0.432932 2.015198 0.184020 -0.012927 -488844.000000 0 0 1
22.485076 10.109035 -12.627452 27.698804 0.422512 2.044162 0.153167 0.005938 107052.000000 0 0 1
22.354376 8.980935 -13.498552 27.614964 0.382017 2.081525 0.127716 -0.001118 -245345.000000 0 0 1
22.655476 7.563035 -12.992952 27.189830 0.322196 2.069014 0.147472 0.018601 -27068.800000 0 0 1
21.633876 7.065335 -12.124652 25.786638 0.315666 2.060304 0.149043 -0.008063 354577.000000 0 0 1
21.871576 5.939635 -11.315752 25.331627 0.265173 2.033875 0.158363 0.001295 -503467.000000 0 0 1
21.903976 4.447135 -11.920052 25.330788 0.200306 2.060739 0.167148 -0.012800 1002470.000000 0 0 1
20.608776 3.982835 -12.394452 24.376363 0.190906 2.104194 0.108938 -0.024099 1589720.000000 0 1 0
20.024276 4.444435 -13.628852 24.626616 0.218412 2.157261 0.074145 -0.031347 -272940.000000 0 1 0
19.450476 3.239835 -14.368752 24.398331 0.165053 2.200523 0.090532 -0.029880 -641771.000000 0 1 0
20.241776 2.095835 -14.541752 25.011688 0.103172 2.191243 0.129708 -0.061369 5680.100000 0 0 1
20.068176 1.128135 -13.472552 24.197397 0.056156 2.161297 0.167531 -0.072876 -286175.000000 0 1 0
21.097376 -0.081665 -13.488852 25.041067 -0.003871 2.139653 0.198445 -0.074538 -635794.000000 0 0 1
22.375976 0.327935 -13.071252 25.916201 0.014655 2.099444 0.230527 -0.060052 211935.000000 0 0 1
23.262676 0.735435 -14.096452 27.210345 0.031604 2.115372 0.156166 -0.049865 -322667.000000 0 0 1
23.802576 -0.373065 -14.991652 28.132746 -0.015672 2.132808 0.125340 -0.034907 -1339720.000000 0 0 1
22.898576 -0.764765 -15.959652 27.922037 -0.033386 2.179225 0.145025 -0.038563 -259317.000000 0 0 1
23.584776 -1.555165 -16.900152 29.056416 -0.065844 2.191530 0.086579 -0.021862 -2788.440000 0 0 1
22.613676 -2.267065 -17.859152 28.904450 -0.099918 2.236825 0.112499 -0.036091 -602362.000000 0 0 1
21.703576 -3.025865 -17.174052 27.841500 -0.138525 2.235532 0.137469 -0.032986 -479903.000000 0 0 1
20.853376 -3.674765 -18.100652 27.856790 -0.174428 2.278085 0.120635 -0.022669 62024.100000 0 0 1
19.899176 -4.712365 -17.432752 26.871628 -0.232529 2.276726 0.110533 -0.025253 243213.000000 0 0 1
20.581676 -5.871765 -16.910752 27.277400 -0.277908 2.239481 0.123170 -0.018642 378150.000000 0 0 1
19.655776 -6.800465 -16.434052 26.507997 -0.333087 2.239495 0.122427 -0.004804 -285731.000000 0 0 1
20.380576 -7.973765 -15.849052 27.021126 -0.372935 2.197580 0.146965 -0.003576 -51489.300000 0 0 1
20.817576 -8.944765 -16.777452 28.193318 -0.405823 2.208169 0.126837 -0.010660 658423.000000 0 0 1
21.764176 -9.903065 -16.261052 28.916636 -0.427018 2.168012 0.119563 -0.010663 350703.000000 0 0 1
22.311676 -10.880565 -17.324952 30.271299 -0.453729 2.180132 0.092162 -0.012735 75078.500000 0 0 1
23.336676 -10.426565 -18.196552 31.375599 -0.420180 2.189474 0.073053 -0.008591 253590.000000 0 0 1
23.906776 -11.429365 -19.028652 32.622905 -0.445959 2.193571 0.065760 -0.014272 -242608.000000 0 0 1
23.273576 -11.737165 -20.435052 33.121167 -0.467092 2.235694 0.089069 -0.021443 725100.000000 0 0 1
21.932176 -12.237965 -20.460152 32.394536 -0.508958 2.254402 0.093331 -0.025706 449721.000000 0 0 1
21.642676 -13.523565 -19.976452 32.409117 -0.558496 2.234938 0.083376 -0.017075 524661.000000 0 0 1
20.102776 -13.832265 -19.881452 31.475789 -0.602679 2.254467 0.087850 -0.027397 914660.000000 0 0 1
19.476576 -13.661765 -21.133052 31.821168 -0.611696 2.297112 0.089268 -0.016163 -26502.200000 0 0 1
18.077376 -13.894765 -21.015952 31.008487 -0.655316 2.315492 0.095447 -0.019484 616632.000000 0 0 1
17.241776 -13.148565 -22.111652 30.969158 -0.651516 2.365976 0.087152 -0.017227 62547.800000 0 0 1
17.483276 -13.611965 -23.399552 32.225604 -0.661537 2.383454 0.083716 -0.008252 518948.000000 0 0 1
16.549376 -13.015665 -24.313252 32.162456 -0.666439 2.427902 0.101924 -0.017144 274562.000000 0 0 1
16.542976 -13.607565 -25.702002 33.457866 -0.688346 2.446806 0.097481 -0.023261 -259729.000000 0 0 1
15.944976 -14.886265 -25.766302 33.760116 -0.751073 2.439074 0.095311 -0.019539 90203.800000 0 0 1
16.014576 -15.494465 -27.080782 35.070127 -0.768893 2.453076 0.084390 -0.023555 -272065.000000 0 0 1
17.024376 -16.656165 -27.186482 36.143630 -0.774466 2.422159 0.074349 -0.026736 445294.000000 0 0 1
18.379276 -16.191865 -27.135702 36.555719 -0.722210 2.407309 0.086355 -0.020349 814668.000000 0 0 1
19.266476 -17.314865 -27.373742 37.687178 -0.732099 2.383780 0.103354 -0.022135 404900.000000 0 0 1
20.761576 -17.016765 -27.210502 38.223353 -0.686595 2.362970 0.085267 -0.010908 -212845.000000 0 0 1
21.136576 -16.609165 -25.915872 37.339679 -0.666024 2.337906 0.095262 -0.010226 381129.000000 0 0 1
22.540276 -16.346365 -25.831642 37.980803 -0.627444 2.318728 0.086528 -0.008669 291129.000000 0 0 1
22.829176 -16.012465 -24.318152 36.999227 -0.611667 2.287975 0.098610 -0.006957 -20126.800000 0 0 1
22.521776 -14.689065 -23.937552 36.000075 -0.577932 2.298197 0.098433 -0.007706 63840.000000 0 0 1
21.247676 -14.127865 -24.236852 35.192120 -0.586788 2.330492 0.126557 -0.013293 126303.000000 0 0 1
21.123976 -12.674065 -23.771552 34.233623 -0.540408 2.338371 0.125975 -0.004365 161810.000000 0 0 1
21.915476 -11.703465 -24.444552 34.853913 -0.490498 2.348076 0.131621 -0.024925 319555.000000 0 0 1
21.807176 -10.541565 -23.615952 33.828844 -0.450279 2.343538 0.129271 -0.029889 250273.000000 0 0 1
22.452676 -9.289665 -24.310152 34.371558 -0.392298 2.356433 0.151210 -0.033886 66024.200000 0 0 1
22.110976 -8.099265 -23.679952 33.395111 -0.351122 2.358995 0.141801 -0.032374 -94231.200000 0 0 1
21.664876 -7.157865 -24.619452 33.566639 -0.319099 2.394180 0.113944 -0.027484 -139856.000000 0 0 1
21.032876 -5.884165 -24.006452 32.454815 -0.272786 2.403404 0.119024 -0.033172 148063.000000 0 0 1
19.706176 -6.181065 -23.607452 31.366395 -0.303943 2.422851 0.129050 -0.036264 75074.700000 0 0 1
19.071476 -5.210565 -22.751452 30.141329 -0.266704 2.426185 0.125452 -0.031374 339272.000000 0 0 1
19.556376 -5.214065 -21.273052 29.362919 -0.260556 2.381086 0.114886 -0.029465 -378349.000000 0 0 1
19.214576 -6.388865 -20.539752 28.842658 -0.321001 2.363325 0.121320 -0.028470 118525.000000 0 0 1
19.810976 -7.643465 -20.882952 29.782461 -0.368223 2.347852 0.106058 -0.024329 -258815.000000 0 0 1
19.360176 -8.774265 -19.942952 29.146620 -0.425522 2.324342 0.109031 -0.025610 875835.000000 0 0 1
17.960076 -9.062965 -20.080752 28.424255 -0.467335 2.355288 0.127197 -0.027097 479570.000000 0 0 1
17.629076 -10.181065 -19.350652 28.087117 -0.523723 2.330837 0.132808 -0.019592 -115697.000000 0 0 1
16.129976 -10.486165 -19.180752 27.166837 -0.576448 2.354681 0.144300 -0.023392 -77914.200000 0 0 1
15.563276 -9.538065 -18.284952 25.836596 -0.549820 2.357055 0.154786 -0.014919 1270330.000000 0 0 1
14.116476 -9.485065 -18.299252 24.982073 -0.591627 2.392777 0.126299 -0.024062 1535450.000000 0 1 0
13.394576 -8.283465 -17.614852 23.628658 -0.553853 2.412061 0.143583 -0.012435 1447230.000000 0 1 0
11.971676 -8.153565 -17.855752 22.991945 -0.597909 2.460062 0.131565 -0.027434 1075480.000000 0 1 0
11.517876 -6.845565 -17.595352 22.116049 -0.536249 2.490780 0.137105 -0.020209 -307272.000000 0 1 0
10.034876 -6.693565 -17.924252 21.605123 -0.588254 2.549240 0.118248 -0.014464 -274449.000000 0 1 0
9.807176 -6.666665 -19.305152 22.656434 -0.597022 2.590748 0.116721 -0.025262 -201764.000000 0 1 0
8.452576 -6.315965 -19.463752 22.139898 -0.641722 2.644821 0.111001 -0.030627 57542.100000 0 1 0
7.937576 -5.941965 -20.905852 23.137993 -0.642596 2.698731 0.117517 -0.043318 229011.000000 0 1 0
7.636776 -7.059165 -21.719852 24.081198 -0.746114 2.695043 0.110661 -0.043468 210990.000000 0 1 0
6.869276 -6.595765 -22.834452 24.740721 -0.765088 2.746472 0.123320 -0.046239 127551.000000 0 1 0
6.828976 -7.601265 -23.987652 26.073388 -0.838866 2.738890 0.104759 -0.042982 -137314.000000 0 0 1
6.279476 -8.826965 -23.594752 25.962655 -0.952462 2.711185 0.111870 -0.035941 65606.000000 0 0 1
6.300776 -9.746165 -24.637652 27.234195 -0.996894 2.701374 0.093908 -0.021488 -337166.000000 0 0 1
5.376576 -10.955765 -24.428152 27.306976 -1.114574 2.678277 0.092506 -0.027878 -366872.000000 0 0 1
5.907276 -12.069565 -23.750452 27.288354 -1.115636 2.626711 0.078568 -0.023344 -520314.000000 0 0 1
5.056876 -13.147565 -23.529952 27.424243 -1.203615 2.602156 0.091564 -0.024939 -503043.000000 0 0 1
5.789676 -14.252065 -22.672652 27.398738 -1.184927 2.545449 0.090785 -0.021683 855545.000000 0 0 1
6.885176 -14.948565 -23.295252 28.522517 -1.139170 2.526521 0.088137 -0.018017 774257.000000 0 0 1
8.141476 -14.325765 -23.504452 28.704885 -1.054004 2.530168 0.090791 -0.019193 809890.000000 0 0 1
8.997876 -13.697165 -22.325152 27.694521 -0.989575 2.508365 0.090045 -0.012573 -20535.500000 0 0 1
9.577176 -14.681665 -21.488352 27.731261 -0.992790 2.457319 0.079544 -0.003961 223288.000000 0 0 1
8.677276 -15.475665 -20.705352 27.267250 -1.059772 2.433108 0.084639 -0.007474 80110.000000 0 0 1
9.189376 -15.619465 -19.229652 26.423320 -1.039003 2.385836 0.083563 -0.008003 40525.900000 0 0 1
10.355176 -16.375765 -19.052752 27.173566 -1.006931 2.347806 0.078634 -0.010429 -429802.000000 0 0 1
10.728276 -16.639965 -17.688152 26.549106 -0.998135 2.299955 0.068357 -0.009595 -246770.000000 0 0 1
9.813576 -17.544365 -16.847252 26.228628 -1.060797 2.268322 0.050189 -0.008412 -702607.000000 0 0 1
9.835976 -18.902865 -17.291652 27.442047 -1.091007 2.252498 0.040843 -0.006799 288247.000000 0 0 1
9.138876 -19.272465 -18.530352 28.254573 -1.128006 2.286085 0.066043 0.003903 1295060.000000 0 0 1
7.567876 -19.373465 -18.339552 27.729822 -1.198393 2.293434 0.076578 -0.005536 1175880.000000 0 0 1
7.010076 -18.101865 -17.939552 26.431916 -1.201323 2.316798 0.091543 -0.012336 313895.000000 0 0 1
5.589476 -18.092665 -17.793252 25.984353 -1.271162 2.325082 0.083990 -0.011278 763157.000000 0 0 1
5.024876 -16.666365 -17.535752 24.708697 -1.277966 2.359868 0.068081 0.000504 183749.000000 0 1 0
5.187876 -16.285165 -16.153452 23.517114 -1.262396 2.327985 0.038432 0.004539 209627.000000 0 1 0
4.475576 -15.075865 -16.048752 22.469422 -1.282213 2.366346 0.016697 0.015145 212180.000000 0 1 0
11.078376 29.842435 -18.128752 36.632676 1.215336 2.088492 0.095662 -0.026866 240825.000000 0 0 1
10.203276 29.245335 -19.143352 36.412421 1.235115 2.124377 0.125852 -0.040663 737725.000000 0 0 1
9.301676 28.459235 -18.319952 35.100853 1.254899 2.119900 0.116712 -0.033035 369202.000000 0 0 1
8.047976 27.858935 -19.002052 34.669412 1.289569 2.150879 0.127276 -0.034130 416232.000000 0 0 1
7.212576 28.889335 -19.549152 35.619998 1.326136 2.151755 0.140309 -0.051084 -270727.000000 0 0 1
6.384976 28.303435 -20.514952 35.534710 1.348920 2.186241 0.126199 -0.049898 -185940.000000 0 0 1
5.418776 29.246335 -21.213152 36.533670 1.387593 2.190319 0.123780 -0.054394 -44436.800000 0 0 1
4.174476 29.429235 -20.580252 36.153186 1.429888 2.176391 0.112743 -0.043511 328655.000000 0 0 1
3.211676 30.115535 -21.377152 37.070783 1.464553 2.185428 0.113221 -0.051124 1295150.000000 0 0 1
1.705876 30.328535 -20.860552 36.849595 1.514609 2.172563 0.119164 -0.042598 1644530.000000 0 0 1
0.927776 29.176335 -21.007052 35.964086 1.539008 2.194582 0.120414 -0.052281 -180869.000000 0 0 1
0.522976 28.811035 -22.314952 36.445937 1.552646 2.229732 0.150391 -0.074739 -555259.000000 0 0 1
-0.223224 27.422935 -22.393052 35.405027 -1.562656 2.255550 0.153103 -0.068510 -298142.000000 0 0 1
-1.499624 27.476835 -21.854752 35.140511 -1.516273 2.241995 0.153448 -0.066279 -757706.000000 0 0 1
-2.058224 26.200135 -21.867852 34.188979 -1.492400 2.264796 0.162891 -0.074611 181870.000000 0 0 1
-3.145524 25.941735 -20.785152 33.389976 -1.450132 2.242725 0.120407 -0.068432 -77785.000000 0 0 1
-4.428324 26.445235 -21.019352 34.070129 -1.404883 2.235650 0.105952 -0.062458 -132300.000000 0 0 1
-5.406824 25.898835 -20.156752 33.260758 -1.364985 2.221846 0.091635 -0.057255 -734159.000000 0 0 1
-6.718224 26.630835 -20.261752 34.130258 -1.323680 2.206395 0.086799 -0.062327 -1122660.000000 0 0 1
-7.729824 26.047435 -19.507052 33.447633 -1.282315 2.193473 0.090974 -0.050675 -207946.000000 0 0 1
-8.504824 26.995735 -18.739452 33.945085 -1.265596 2.155620 0.094289 -0.061800 388454.000000 0 0 1
-9.637224 26.315635 -17.931652 33.270601 -1.219748 2.140003 0.109008 -0.059559 210059.000000 0 0 1
-9.228024 25.458335 -16.878752 31.908863 -1.223051 2.128180 0.103255 -0.059717 177776.000000 0 0 1
-10.432824 24.948735 -16.285152 31.567220 -1.174725 2.112840 0.083519 -0.042787 615832.000000 0 0 1
-10.326724 24.081535 -15.012052 30.198067 -1.165692 2.091072 0.081961 -0.027693 -74016.000000 0 0 1
-9.800724 22.788235 -15.134752 29.058881 -1.164632 2.118620 0.082666 -0.025363 -207755.000000 0 0 1
-10.054224 22.144135 -13.922252 28.022834 -1.144592 2.090725 0.089203 -0.021887 103101.000000 0 0 1
-9.476324 20.678335 -13.846352 26.629227 -1.141084 2.117610 0.091327 -0.012552 316117.000000 0 0 1
-10.233724 19.584235 -14.421752 26.386707 -1.089273 2.149040 0.093821 -0.011465 -49362.700000 0 0 1
-10.606524 19.604335 -15.816452 27.331090 -1.074866 2.187928 0.107143 -0.002437 379249.000000 0 0 1
-9.451124 19.603535 -16.866552 27.533669 -1.121560 2.230116 0.113122 -0.014730 82393.200000 0 0 1
-8.931924 18.368935 -17.130952 26.658330 -1.118208 2.268698 0.107448 -0.013389 -510307.000000 0 0 1
-7.902024 18.481635 -18.075252 27.031973 -1.166759 2.303204 0.108414 -0.022676 479340.000000 0 0 1
-7.072224 17.146635 -18.314852 26.066401 -1.179599 2.349873 0.087752 -0.022929 68464.500000 0 0 1
-7.927524 16.248735 -18.931952 26.177965 -1.116887 2.379224 0.100767 -0.030128 -356684.000000 0 0 1
-7.393424 15.304035 -19.853152 26.134725 -1.120758 2.433566 0.087008 -0.031266 545521.000000 0 0 1
-6.094424 14.452735 -19.600852 25.104122 -1.171741 2.466713 0.064777 -0.026676 337131.000000 0 0 1
-6.290124 13.395835 -18.700752 23.848106 -1.131797 2.472139 0.048566 -0.021096 298525.000000 0 1 0
-5.098624 12.746935 -18.263152 22.847823 -1.190300 2.496990 0.048291 -0.010796 465042.000000 0 1 0
-4.327924 13.408935 -17.090652 22.149963 -1.258588 2.452131 0.032177 -0.001544 -62684.700000 0 1 0
-3.854724 14.692335 -17.426052 23.116896 -1.314216 2.424658 0.048800 -0.012896 -519925.000000 0 1 0
-3.341024 15.264035 -16.273452 22.560551 -1.355313 2.376507 0.039815 -0.002165 227155.000000 0 1 0
-2.426424 16.518135 -16.447852 23.436470 -1.424945 2.348726 0.074150 -0.011320 418123.000000 0 1 0
-3.191924 17.665335 -16.816652 24.597809 -1.392037 2.323569 0.073354 -0.017716 208319.000000 0 1 0
-2.484024 18.874935 -16.697352 25.322620 -1.439944 2.290797 0.088860 -0.022906 236241.000000 0 0 1
-3.402724 20.019335 -17.221052 26.625494 -1.402433 2.274162 0.095697 -0.026912 497933.000000 0 0 1
-3.762424 19.899835 -18.572452 27.478996 -1.383934 2.312952 0.095598 -0.031622 -289227.000000 0 0 1
-4.251524 21.018135 -19.267852 28.828589 -1.371211 2.302797 0.122028 -0.037203 -318492.000000 0 0 1
-3.277824 22.186735 -19.515852 29.729847 -1.424119 2.286886 0.108030 -0.045414 -132534.000000 0 0 1
-2.205524 21.879335 -20.404052 29.998249 -1.470332 2.318797 0.139472 -0.044908 242306.000000 0 0 1
-1.070524 22.725935 -20.346952 30.522329 -1.523725 2.300468 0.133101 -0.048374 773299.000000 0 0 1
-0.053624 22.330335 -19.214652 29.459287 -1.568395 2.281338 0.147527 -0.041675 -215074.000000 0 0 1
-0.534424 22.492435 -17.898052 28.749530 -1.547041 2.242795 0.135252 -0.033127 -417728.000000 0 0 1
0.406676 22.041135 -16.923452 27.791730 1.552348 2.225518 0.147735 -0.035735 140982.000000 0 0 1
0.064576 22.156635 -15.437652 27.004476 1.567882 2.179336 0.139178 -0.042026 -176527.000000 0 0 1
-0.968224 21.271735 -15.048852 26.074741 -1.525311 2.186022 0.121385 -0.026592 -34537.100000 0 0 1
-1.093924 21.326835 -13.636252 25.337283 -1.519548 2.139083 0.143006 -0.028647 32329.300000 0 0 1
-1.942424 20.138135 -13.129952 24.118730 -1.474639 2.146456 0.089963 -0.022404 -438922.000000 0 1 0
-1.363224 18.896135 -13.297252 23.146041 -1.498778 2.182782 0.081842 -0.015147 -17364.000000 0 1 0
-2.247524 17.853335 -12.859352 22.116868 -1.445567 2.191278 0.067699 -0.009868 35649.700000 0 1 0
-1.719224 16.431135 -12.956352 20.995356 -1.466544 2.235855 0.039229 -0.002210 -637451.000000 0 1 0
-0.788624 16.106035 -11.945252 20.067768 -1.521871 2.208368 0.027807 -0.007573 128167.000000 0 1 0
-0.285124 14.808435 -11.810752 18.943730 -1.551545 2.243963 0.021121 -0.008816 -174675.000000 0 1 0
0.496976 14.137435 -12.959652 19.185063 1.535658 2.312449 0.029988 -0.008047 -268202.000000 0 1 0
-0.208724 13.908235 -14.190952 19.871227 -1.555790 2.366199 0.032959 -0.014945 -99565.500000 0 1 0
0.397476 12.962835 -15.011752 19.837988 1.540143 2.429074 0.033007 -0.018990 -584489.000000 0 1 0
-0.242624 12.810035 -16.402652 20.813526 -1.551858 2.478474 0.032205 -0.009754 -62635.600000 0 1 0
-0.172824 13.946535 -17.247752 22.181538 -1.558405 2.461592 0.043191 -0.015761 33003.500000 0 1 0
-0.449824 13.612735 -18.575052 23.033485 -1.537764 2.508898 0.052587 -0.019172 -316542.000000 0 1 0
-0.893724 14.845835 -19.354052 24.408541 -1.510669 2.486385 0.065456 -0.017901 -312474.000000 0 1 0
0.022476 15.898835 -19.413652 25.093093 1.569383 2.455402 0.073566 -0.023263 -249187.000000 0 0 1
-0.571024 17.098135 -19.944652 26.276633 -1.537412 2.432612 0.114624 -0.033456 -217049.000000 0 0 1
0.402376 18.247035 -20.146552 27.184550 1.548748 2.405508 0.136166 -0.034926 -285064.000000 0 0 1
1.277676 17.950735 -21.200152 27.808412 1.499739 2.437756 0.151525 -0.047082 -490399.000000 0 0 1
2.105976 19.031135 -21.496552 28.787514 1.460585 2.413931 0.157915 -0.046518 16422.100000 0 0 1
2.719976 18.826335 -22.946152 29.805285 1.427312 2.449431 0.173127 -0.055867 493600.000000 0 0 1
3.921476 18.061235 -22.963952 29.477606 1.356994 2.463914 0.143966 -0.054991 61494.600000 0 0 1
4.461476 18.229635 -24.275952 30.684625 1.330777 2.483473 0.145041 -0.067661 365897.000000 0 0 1
5.561676 17.161635 -24.541152 30.458531 1.257400 2.507692 0.094167 -0.053648 -1032840.000000 0 0 1
6.718776 17.242635 -23.768352 30.122831 1.199235 2.480054 0.086656 -0.047661 -299790.000000 0 0 1
7.686976 16.238035 -23.936752 29.928773 1.128660 2.497743 0.081229 -0.039375 138460.000000 0 0 1
8.149476 15.857635 -25.403172 31.035458 1.096079 2.529628 0.070501 -0.040559 -1730670.000000 0 0 1
9.028976 16.897735 -25.831102 32.160561 1.080063 2.503430 0.056282 -0.034775 61315.100000 0 0 1
9.420976 16.837035 -27.164922 33.319266 1.060659 2.524029 0.069086 -0.039158 -41670.800000 0 0 1
9.878576 15.481835 -27.822662 33.337276 1.002850 2.558168 0.077838 -0.041753 -22464.700000 0 0 1
11.075776 14.939535 -27.252332 32.993213 0.932839 2.542767 0.076116 -0.033797 297388.000000 0 0 1
11.275876 13.562435 -27.504822 32.674152 0.877197 2.571390 0.072458 -0.019936 314288.000000 0 0 1
10.399976 12.450235 -26.741642 31.277520 0.874885 2.596308 0.075343 -0.019751 533794.000000 0 0 1
9.022476 12.582535 -27.018402 31.140316 0.948710 2.621220 0.079199 -0.024735 -452524.000000 0 0 1
8.292476 11.528235 -26.407202 29.983423 0.947222 2.648191 0.105409 -0.031777 -526278.000000 0 0 1
6.806176 11.816435 -26.433842 29.743910 1.048217 2.665330 0.091748 -0.039506 -952460.000000 0 0 1
6.394176 12.989235 -25.690172 29.488822 1.113354 2.628404 0.105403 -0.031250 290419.000000 0 0 1
4.979076 13.058835 -25.539532 29.113434 1.206531 2.640883 0.125745 -0.045364 797760.000000 0 0 1
4.243676 13.799835 -26.726092 30.376442 1.272458 2.646300 0.134600 -0.037150 -382781.000000 0 0 1
4.202676 13.085035 -27.934362 31.132125 1.260022 2.684375 0.137992 -0.051484 197078.000000 0 0 1
3.910676 13.965235 -29.020952 32.442824 1.297760 2.678166 0.122452 -0.059355 -154944.000000 0 0 1
4.087376 13.387035 -30.440952 33.504789 1.274463 2.710609 0.156060 -0.046823 -1495320.000000 0 0 1
5.342176 13.035935 -30.835152 33.901048 1.181867 2.713029 0.140938 -0.044954 -1538870.000000 0 0 1
5.471076 12.857635 -32.246352 35.143686 1.168492 2.732689 0.142539 -0.050305 -1433360.000000 0 0 1
6.643676 12.010935 -32.673022 35.439065 1.065549 2.743880 0.144675 -0.041588 -1583.530000 0 0 1
7.935476 12.548535 -32.345912 35.590666 1.006906 2.711270 0.151189 -0.034352 741818.000000 0 0 1
8.316776 12.503035 -30.970352 34.418851 0.983823 2.690125 0.139035 -0.028791 -1033510.000000 0 0 1
8.559276 11.078235 -30.334012 33.408693 0.912974 2.709205 0.142799 -0.029651 6529.330000 0 0 1
9.784776 10.445335 -30.664532 33.840218 0.818039 2.704902 0.126939 -0.031642 86612.000000 0 0 1
9.732776 9.141935 -30.153332 32.977649 0.754105 2.724712 0.121952 -0.035960 -249251.000000 0 0 1
10.933076 8.238635 -30.427102 33.364888 0.645770 2.718808 0.094685 -0.023035 1824.960000 0 0 1
12.056676 8.429635 -29.569432 33.026860 0.610167 2.679933 0.091767 -0.020544 108922.000000 0 0 1
12.879376 7.306435 -29.568652 33.069132 0.516026 2.677318 0.065023 -0.008099 -1228050.000000 0 0 1
14.095876 7.415235 -28.690002 32.814564 0.484275 2.634802 0.066752 0.001434 244001.000000 0 0 1
14.914476 6.198435 -28.517432 32.773558 0.393881 2.626273 0.062717 0.002468 310717.000000 0 0 1
15.812876 5.865635 -29.499142 33.980172 0.355207 2.622215 0.051811 0.001918 -1400910.000000 0 0 1
16.717176 4.726435 -29.148822 33.933125 0.275538 2.604125 0.073838 -0.007460 -376316.000000 0 0 1
17.541476 4.965935 -28.028772 33.436147 0.275878 2.564913 0.063813 -0.014992 -224947.000000 0 0 1
18.357076 3.882635 -27.767422 33.512487 0.208434 2.547344 0.066276 -0.013097 -501568.000000 0 0 1
19.020776 4.021735 -26.384662 32.773688 0.208370 2.506567 0.082335 -0.016656 -370512.000000 0 0 1
19.929276 5.084835 -26.469122 33.520829 0.249814 2.481005 0.118339 -0.024891 -154130.000000 0 0 1
20.443676 5.344235 -25.169892 32.863782 0.255691 2.443214 0.128086 -0.033502 230425.000000 0 0 1
21.455376 6.546035 -25.162002 33.709198 0.296129 2.413497 0.118997 -0.025524 16369.500000 0 0 1
20.892976 7.811335 -25.606162 33.958930 0.357783 2.424977 0.121761 -0.017288 582362.000000 0 0 1
21.796076 8.857935 -26.088722 35.130519 0.386012 2.407774 0.130401 -0.026837 -179587.000000 0 0 1
22.152076 8.610735 -27.602382 36.424589 0.370736 2.430724 0.162025 -0.032469 266299.000000 0 0 1
21.098976 8.729735 -28.558302 36.564349 0.392305 2.467129 0.130311 -0.018299 275206.000000 0 0 1
20.040776 7.810135 -28.439612 35.657291 0.371606 2.494072 0.115330 -0.009194 -466955.000000 0 0 1
18.703376 8.244235 -29.062802 35.530693 0.415167 2.528658 0.100729 0.006163 -332521.000000 0 0 1
18.564676 8.330235 -30.455952 36.627927 0.421784 2.552590 0.071228 0.009334 166758.000000 0 0 1
17.423276 9.132335 -30.713392 36.473038 0.482777 2.571933 0.052556 0.014522 -37542.900000 0 0 1
16.980676 8.913535 -32.167292 37.450355 0.483386 2.603976 0.029317 0.018888 -1318.050000 0 0 1
16.439976 7.639635 -32.559892 37.266384 0.435010 2.633567 0.047381 0.019485 -273574.000000 0 0 1
15.188076 7.812535 -33.134592 37.277534 0.475090 2.665652 0.046553 0.009951 -300616.000000 0 0 1
14.414976 6.500635 -33.494722 37.039792 0.423655 2.700511 0.062178 -0.003528 308440.000000 0 0 1
14.008076 5.689435 -32.386732 35.742080 0.385800 2.704824 0.063801 0.001096 -135695.000000 0 0 1
13.267076 4.630335 -32.873112 35.750479 0.335792 2.737642 0.072681 -0.015758 -172339.000000 0 0 1
12.900976 3.558435 -31.815412 34.515476 0.269135 2.743423 0.085401 -0.021421 -18392.700000 0 0 1
14.024076 2.806935 -31.408532 34.511584 0.197541 2.714289 0.077720 -0.026866 91916.100000 0 0 1
13.758976 1.868335 -30.397152 33.418362 0.134965 2.713103 0.089353 -0.027781 -25763.200000 0 0 1
13.168076 0.475635 -30.834142 33.531608 0.036105 2.737742 0.093339 -0.030202 500197.000000 0 0 1
14.095876 -0.402265 -31.472102 34.486936 -0.028530 2.720347 0.092230 -0.036191 837396.000000 0 0 1
15.143476 -0.995165 -30.662022 34.212202 -0.065621 2.681994 0.093573 -0.039184 788727.000000 0 0 1
15.536576 -2.304665 -31.296482 35.016659 -0.147264 2.676455 0.100960 -0.044641 918539.000000 0 0 1
14.431776 -3.233065 -31.113552 34.449702 -0.220385 2.697868 0.102797 -0.047281 952312.000000 0 0 1
14.696576 -4.379065 -31.896122 35.391074 -0.289589 2.693437 0.097733 -0.045946 -193809.000000 0 0 1
13.733576 -5.578765 -31.693272 34.988530 -0.385851 2.704105 0.115107 -0.051177 -278669.000000 0 0 1
14.078976 -6.423265 -30.688832 34.369758 -0.428024 2.674547 0.117271 -0.039079 -235327.000000 0 0 1
13.544776 -7.753865 -30.712842 34.450864 -0.519925 2.671435 0.134798 -0.047755 -81930.200000 0 0 1
13.882776 -8.442965 -29.429692 33.617285 -0.546399 2.637128 0.112975 -0.043862 1745290.000000 0 0 1
15.325876 -8.645465 -29.221812 34.110714 -0.513611 2.599586 0.131454 -0.042704 1734970.000000 0 0 1
15.666476 -9.346065 -28.059042 33.467854 -0.537890 2.565115 0.140561 -0.043726 -12378.200000 0 0 1
15.583676 -10.908165 -28.231982 34.042383 -0.610708 2.548683 0.109618 -0.033408 -1015550.000000 0 0 1
14.300076 -11.386765 -28.424272 33.794819 -0.672464 2.570080 0.081287 -0.033122 -823064.000000 0 0 1
14.377776 -12.668865 -29.010852 34.768522 -0.722298 2.557839 0.087196 -0.029155 242298.000000 0 0 1
-10.398224 -2.989065 -17.731152 20.771406 0.279912 2.593717 0.032704 0.008719 -134718.000000 0 1 0
-11.324824 -2.422265 -18.637452 21.942507 0.210715 2.585599 0.046982 -0.000427 -89636.500000 0 1 0
-12.241824 -3.433865 -18.966952 22.834162 0.273475 2.551051 0.050074 -0.002401 -618318.000000 0 1 0
-13.228824 -3.014765 -20.047752 24.207498 0.224067 2.546618 0.058881 -0.015387 -279324.000000 0 1 0
-14.092824 -1.941865 -19.727952 24.322225 0.136929 2.516840 0.041708 -0.011282 -372095.000000 0 1 0
-14.920324 -1.655165 -20.791952 25.644900 0.110482 2.516252 0.038437 -0.007413 -158855.000000 0 0 1
-15.589024 -0.282665 -20.602652 25.837315 0.018130 2.493769 0.041338 -0.006166 318848.000000 0 0 1
-14.727024 0.772735 -21.002152 25.662672 -0.052422 2.529405 0.039369 -0.008164 -2469.240000 0 0 1
-15.369024 2.017135 -20.831852 25.966166 -0.130501 2.501883 0.037992 -0.002404 -126917.000000 0 0 1
-14.768724 3.226435 -21.602252 26.366311 -0.215085 2.531007 0.064134 -0.021856 190357.000000 0 0 1
-13.592024 3.722935 -20.966852 25.262863 -0.267349 2.549810 0.070344 -0.021873 468400.000000 0 0 1
-13.174724 4.946635 -21.571752 25.756223 -0.359177 2.563553 0.092698 -0.031260 -83274.300000 0 0 1
-12.021924 5.678935 -20.834752 24.715660 -0.441310 2.573591 0.067281 -0.028115 48232.000000 0 1 0
-12.354724 6.214335 -19.573752 23.966413 -0.466039 2.526493 0.077729 -0.035825 1283760.000000 0 1 0
-11.153524 6.571735 -18.838352 22.857653 -0.532446 2.539513 0.051605 -0.027600 958566.000000 0 1 0
-11.555224 7.191935 -17.489852 22.161725 -0.556725 2.480288 0.067534 -0.026845 -184515.000000 0 1 0
-12.158124 8.448135 -17.617252 23.012139 -0.607265 2.442713 0.073649 -0.032171 -737439.000000 0 1 0
-13.280724 8.542635 -16.827052 23.076046 -0.571605 2.387948 0.087036 -0.029944 -1305070.000000 0 1 0
-13.766224 9.936235 -16.810852 23.892309 -0.625197 2.351261 0.103934 -0.033960 -843527.000000 0 1 0
-12.973924 10.856335 -16.139952 23.381205 -0.696770 2.332694 0.065090 -0.017543 25752.100000 0 1 0
-13.617124 12.106035 -16.258352 24.419586 -0.726721 2.299350 0.087635 -0.023539 -71413.100000 0 1 0
-12.906024 13.243235 -15.516452 24.139366 -0.798293 2.268926 0.097750 -0.017153 -309797.000000 0 1 0
-13.141624 13.258035 -14.089952 23.388128 -0.789808 2.217351 0.103923 -0.019283 231391.000000 0 1 0
-12.615524 14.443235 -13.527452 23.468073 -0.852842 2.185136 0.097366 -0.016182 -307006.000000 0 1 0
-13.155724 14.676635 -12.034352 23.093339 -0.839989 2.118957 0.080916 -0.024191 506552.000000 0 1 0
-14.502124 15.048735 -11.853552 24.026709 -0.803893 2.086732 0.076732 -0.020413 310259.000000 0 1 0
-15.499724 14.062735 -12.101352 24.175291 -0.736828 2.095050 0.072423 -0.015711 1050790.000000 0 1 0
-16.918424 14.448935 -11.491652 25.041223 -0.706832 2.047564 0.048416 -0.015287 663118.000000 0 0 1
-17.946024 13.558735 -11.757052 25.379664 -0.647030 2.052452 0.047283 -0.016652 -429910.000000 0 0 1
-19.185624 14.125635 -11.380052 26.403169 -0.634650 2.016409 0.121554 -0.020916 -172894.000000 0 0 1
-20.343924 13.496235 -12.169152 27.278414 -0.585740 2.033210 0.126322 -0.028055 -465879.000000 0 0 1
-20.575724 12.200035 -11.794952 26.670624 -0.535207 2.028897 0.134538 -0.030484 1164150.000000 0 0 1
-21.840824 11.755135 -12.350452 27.708094 -0.493753 2.032791 0.192827 -0.032385 766913.000000 0 0 1
-22.282424 10.484435 -11.682552 27.256409 -0.439791 2.013757 0.183810 -0.033125 -419388.000000 0 0 1
-21.548524 9.350235 -12.066152 26.407533 -0.409398 2.045327 0.157405 -0.031517 289454.000000 0 0 1
-22.077024 8.176335 -11.515452 26.207882 -0.354692 2.025715 0.148210 -0.027947 42597.100000 0 0 1
-21.025024 7.023435 -11.449452 24.949353 -0.322397 2.047562 0.160580 -0.031905 62042.900000 0 1 0
-20.701424 6.489535 -12.711752 25.144615 -0.303780 2.100811 0.153486 -0.031031 864069.000000 0 0 1
-19.556624 5.651335 -12.513352 23.895253 -0.281310 2.121956 0.149015 -0.035946 312323.000000 0 1 0
-19.799024 4.284935 -13.259152 24.210889 -0.213134 2.150352 0.172059 -0.051687 -623549.000000 0 1 0
-20.641524 3.414435 -12.609052 24.427834 -0.163931 2.113176 0.164784 -0.051293 208405.000000 0 1 0
-21.173924 2.509435 -13.600752 25.290567 -0.117965 2.138598 0.147904 -0.052901 -6394.890000 0 0 1
-22.097724 1.366635 -13.144352 25.747837 -0.061766 2.106566 0.177050 -0.051799 -546284.000000 0 0 1
-23.005724 1.047735 -14.121852 27.014585 -0.045511 2.120869 0.135980 -0.043713 -539085.000000 0 0 1
-23.364424 -0.231965 -13.981452 27.229233 0.009928 2.110022 0.122916 -0.040862 -974428.000000 0 0 1
-24.590024 -0.663865 -14.763252 28.689085 0.026991 2.111331 0.125372 -0.032810 260331.000000 0 0 1
-25.777144 0.044035 -14.309452 29.482597 -0.001708 2.077563 0.151742 -0.050169 312123.000000 0 0 1
-26.917764 -0.435965 -14.934352 30.786214 0.016195 2.077272 0.163626 -0.037640 -216940.000000 0 0 1
-28.247264 0.042035 -14.292752 31.657423 -0.001488 2.039222 0.156018 -0.042270 10123.200000 0 0 1
-28.642134 -0.695165 -13.177452 31.535700 0.024266 2.001883 0.176618 -0.042463 -440155.000000 0 0 1
-29.834504 -0.272965 -12.608352 32.390472 0.009149 1.970626 0.204460 -0.047051 -462676.000000 0 0 1
-30.147544 -0.903365 -11.250052 32.190902 0.029956 1.927812 0.200355 -0.050588 21500.200000 0 0 1
-30.579544 -2.320165 -11.220552 32.655665 0.075728 1.921546 0.222103 -0.038047 644694.000000 0 0 1
-29.576144 -3.232465 -11.632252 31.945366 0.108861 1.943494 0.214843 -0.046351 -101441.000000 0 0 1
-29.801614 -4.674465 -11.139152 32.156921 0.155585 1.924527 0.221405 -0.047301 -433417.000000 0 0 1
-30.981274 -5.317665 -11.524952 33.480463 0.169985 1.922214 0.208760 -0.038632 -219486.000000 0 0 1
-31.274434 -6.529965 -10.888652 33.753421 0.205838 1.899265 0.220801 -0.044596 -153924.000000 0 0 1
-30.522784 -7.823265 -11.298952 33.474022 0.250908 1.915103 0.211612 -0.050627 -261725.000000 0 0 1
-29.151684 -7.795465 -11.017952 32.124527 0.261297 1.920880 0.163270 -0.039758 -84910.500000 0 0 1
-28.451184 -8.905165 -11.634252 32.001995 0.303339 1.942870 0.146697 -0.035684 168678.000000 0 0 1
-26.959794 -8.947965 -11.246252 30.551183 0.320460 1.947774 0.154100 -0.044909 -528505.000000 0 0 1
-26.267004 -7.803565 -11.788152 29.829711 0.288781 1.977062 0.130975 -0.036841 1112820.000000 0 0 1
-24.866124 -7.785565 -11.470452 28.469465 0.303431 1.985484 0.145030 -0.033288 673137.000000 0 0 1
-24.423524 -7.604565 -10.009652 27.468729 0.301848 1.943787 0.153521 -0.031277 -840773.000000 0 0 1
-24.658024 -6.340665 -9.403452 27.141243 0.251691 1.924595 0.157088 -0.022711 1392590.000000 0 0 1
-26.030854 -6.008565 -9.090252 28.219513 0.226852 1.898771 0.171668 -0.033782 742306.000000 0 0 1
-26.207554 -4.540565 -8.547752 27.937729 0.171551 1.881740 0.177510 -0.037411 -257297.000000 0 0 1
-25.890354 -4.424265 -7.176452 27.228405 0.169250 1.837512 0.176389 -0.034846 438195.000000 0 0 1
-25.754564 -3.100065 -6.700452 26.791865 0.119793 1.823572 0.222435 -0.048634 -97322.500000 0 0 1
-25.630084 -2.878665 -5.194052 26.309050 0.111847 1.769526 0.215657 -0.042434 122398.000000 0 0 1
-24.305824 -3.022965 -4.717152 24.943194 0.123737 1.761058 0.140669 -0.030293 330404.000000 0 1 0
-24.256624 -2.905065 -3.285752 24.649937 0.119196 1.704491 0.125082 -0.016389 -779704.000000 0 1 0
-22.853924 -3.200165 -2.804852 23.246722 0.139122 1.691747 0.105846 -0.007137 -501843.000000 0 1 0
-22.353724 -4.528765 -2.955852 22.998603 0.199890 1.699676 0.097760 -0.006909 1047440.000000 0 1 0
-21.018824 -4.765965 -2.483152 21.694963 0.222977 1.685505 0.058722 -0.005224 259279.000000 0 1 0
-20.747224 -6.223465 -2.501252 21.804474 0.291426 1.685762 0.058366 -0.005209 -772286.000000 0 1 0
-21.419224 -6.875665 -1.501752 22.545802 0.310614 1.637455 0.066765 -0.006589 179902.000000 0 1 0
-22.062724 -8.029965 -1.997552 23.563411 0.349057 1.655672 0.085349 -0.013200 72988.900000 0 1 0
-22.654124 -9.010365 -0.942752 24.398459 0.378553 1.609446 0.111736 -0.017854 -238912.000000 0 1 0
-21.656724 -9.757265 -0.280952 23.754933 0.423305 1.582624 0.067781 -0.006334 303943.000000 0 1 0
-22.090924 -10.541065 0.791548 24.489784 0.445215 1.538469 0.046769 -0.001184 -164717.000000 0 1 0
-20.844224 -11.002065 1.580148 23.622531 0.485658 1.503855 0.065002 -0.010018 -213414.000000 0 1 0
-20.220224 -11.986765 0.842048 23.521247 0.535116 1.534989 0.061330 -0.001619 302708.000000 0 1 0
-19.071224 -12.412965 1.585048 22.810210 0.576989 1.501252 0.035406 -0.009494 -1102.210000 0 1 0
-18.454724 -13.666665 0.978148 22.985025 0.637426 1.528228 0.043437 -0.005665 -726690.000000 0 1 0
-19.276624 -14.786365 1.082148 24.318632 0.654332 1.526283 0.075511 -0.005175 16490.400000 0 1 0
-18.828024 -16.001965 0.439148 24.713361 0.704437 1.553026 0.071038 -0.009707 322075.000000 0 1 0
-17.662724 -16.711265 1.222348 24.346095 0.757726 1.520568 0.078676 -0.009036 -124793.000000 0 1 0
-16.403824 -16.132265 1.028648 23.030274 0.777052 1.526116 0.082651 -0.006652 174665.000000 0 1 0
-15.329024 -16.672265 1.790048 22.718884 0.827348 1.491923 0.091548 -0.016494 510529.000000 0 1 0
-15.343324 -16.343665 3.319248 22.661650 0.816957 1.423798 0.104519 -0.029474 -454462.000000 0 1 0
-15.033624 -15.019265 3.751048 21.579123 0.784920 1.396081 0.074215 -0.022875 -244704.000000 0 1 0
-14.177724 -14.960465 4.844848 21.173000 0.812255 1.339929 0.049102 -0.019564 -403535.000000 0 1 0
-14.774824 -15.298265 6.227148 22.160995 0.802802 1.285965 0.092400 -0.022273 -829154.000000 0 1 0
-15.668724 -14.356765 6.754748 22.299153 0.741731 1.263046 0.079349 -0.021293 389203.000000 0 1 0
-16.182424 -14.595465 8.087848 23.244607 0.733882 1.215418 0.098897 -0.016982 788107.000000 0 1 0
-17.165924 -15.814565 8.351048 24.789301 0.744447 1.227194 0.090465 -0.012451 567164.000000 0 1 0
-16.414224 -17.034365 8.120548 25.010791 0.803936 1.240121 0.087122 -0.004750 655589.000000 0 0 1
-17.105024 -18.235665 8.507848 26.410316 0.817380 1.242806 0.106620 -0.013547 58707.800000 0 0 1
-16.876524 -18.696865 9.937448 27.076608 0.836525 1.195001 0.122295 -0.017235 552838.000000 0 0 1
-15.560424 -19.212465 10.143148 26.723193 0.890040 1.181472 0.078426 -0.012266 482381.000000 0 0 1
-15.424824 -19.642065 11.476948 27.485565 0.905086 1.140035 0.083493 -0.011925 540130.000000 0 0 1
-14.078324 -20.400765 11.719248 27.417717 0.966754 1.129144 0.073597 -0.006870 106810.000000 0 0 1
-12.919924 -19.644065 11.638148 26.234714 0.989026 1.111167 0.074678 -0.009410 -1335910.000000 0 0 1
-11.844624 -20.331065 12.153348 26.483036 1.043279 1.094028 0.070280 -0.011847 -303551.000000 0 0 1
-10.640124 -19.412265 12.493048 25.418980 1.069403 1.057002 0.077838 -0.016187 270159.000000 0 0 1
-9.855624 -18.995665 11.375948 24.235941 1.092194 1.082204 0.072758 -0.011164 325127.000000 0 1 0
-8.914124 -18.029965 11.908248 23.374080 1.111634 1.036235 0.071775 -0.013065 661553.000000 0 1 0
-8.004024 -17.414665 10.808848 22.003776 1.139976 1.057298 0.040799 -0.011514 714390.000000 0 1 0
-6.840824 -18.112765 10.377648 21.967356 1.209678 1.078771 0.036230 -0.013348 583485.000000 0 1 0
-6.127824 -17.433865 9.321348 20.697280 1.232795 1.103621 0.029602 -0.007534 628509.000000 0 1 0
-4.918424 -18.218765 8.727548 20.791450 1.307117 1.137609 0.027464 -0.009750 187984.000000 0 1 0
-3.726924 -18.025265 9.447048 20.689293 1.366908 1.096609 0.035211 -0.020491 -835685.000000 0 1 0
-2.713324 -18.626465 8.718148 20.743998 1.426143 1.137050 0.045155 -0.018667 741029.000000 0 1 0
-1.287524 -18.798865 9.378348 21.047766 1.502414 1.108980 0.049573 -0.028894 1426050.000000 0 1 0
-0.348124 -19.531365 8.600248 21.343844 1.552974 1.156071 0.055073 -0.014633 441321.000000 0 1 0
0.874276 -19.799565 9.285948 21.886433 -1.526669 1.132631 0.070416 -0.016467 305334.000000 0 1 0
2.035176 -20.202165 8.355848 21.956539 -1.470395 1.180391 0.079136 -0.034074 8997.720000 0 1 0
2.036176 -21.477765 7.769648 22.930500 -1.476275 1.225118 0.085507 -0.030320 -141724.000000 0 1 0
2.282976 -22.479865 8.745948 24.229072 -1.469587 1.201489 0.095308 -0.037112 -77882.300000 0 1 0
1.753076 -23.874865 8.263348 25.325193 -1.497500 1.238421 0.089100 -0.032163 127794.000000 0 0 1
1.842876 -24.812965 9.277748 26.554774 -1.496662 1.213885 0.115329 -0.035053 96040.500000 0 0 1
1.518276 -26.048035 8.698248 27.503905 -1.512575 1.249017 0.125660 -0.037320 -801733.000000 0 0 1
1.572876 -27.195535 9.757548 28.935805 -1.513025 1.226841 0.154023 -0.037187 94518.800000 0 0 1
0.629176 -27.197215 10.804248 29.271422 -1.547667 1.192750 0.135483 -0.038574 166490.000000 0 0 1
-0.708624 -27.451135 10.370848 29.353389 1.544988 1.209689 0.108603 -0.029645 79907.400000 0 0 1
-1.668124 -27.462925 11.564048 29.844968 1.510130 1.172910 0.105810 -0.034385 -79820.600000 0 0 1
-1.384524 -28.569915 12.388448 31.170990 1.522373 1.162076 0.115428 -0.039995 -60275.400000 0 0 1
-1.874324 -28.311065 13.712348 31.512823 1.504688 1.120608 0.098997 -0.047128 -263672.000000 0 0 1
-1.296124 -29.295085 14.720848 32.811360 1.526581 1.105541 0.092841 -0.039023 -21346.700000 0 0 1
-1.612424 -29.016175 16.046848 33.196983 1.515284 1.066282 0.107235 -0.043736 -20002.800000 0 0 1
-1.177024 -30.091035 16.907748 34.535890 1.531701 1.059199 0.118609 -0.040299 1122.350000 0 0 1
-1.514124 -29.981345 18.395948 35.207734 1.520337 1.021019 0.128580 -0.040603 -823564.000000 0 0 1
-2.891724 -29.937865 18.574748 35.350518 1.474504 1.017558 0.126024 -0.041550 -712393.000000 0 0 1
-3.110224 -29.701875 19.920348 35.898400 1.466462 0.982543 0.128755 -0.047136 -107794.000000 0 0 1
-4.614424 -29.529995 20.198548 36.073465 1.415788 0.976497 0.152810 -0.046739 -157463.000000 0 0 1
-5.199024 -28.369105 19.591248 34.866215 1.389544 0.974118 0.118326 -0.039935 359981.000000 0 0 1
-6.436524 -28.008895 20.202248 35.129160 1.344915 0.958088 0.107771 -0.039302 295214.000000 0 0 1
-6.373724 -26.928425 21.308848 34.926085 1.338382 0.914594 0.146036 -0.040072 -543976.000000 0 0 1
-5.750824 -27.419485 22.483748 35.922403 1.364058 0.894514 0.167485 -0.043042 139494.000000 0 0 1
-5.696224 -26.406715 23.453848 35.774915 1.358340 0.855826 0.180091 -0.042119 -257307.000000 0 0 1
-4.701324 -26.745515 24.614848 36.651272 1.396794 0.834436 0.200289 -0.040639 138598.000000 0 0 1
-4.998224 -27.926235 25.304048 38.015151 1.393692 0.842458 0.203027 -0.045665 49132.600000 0 0 1
-4.480124 -29.060115 24.666448 38.379623 1.417833 0.872784 0.214735 -0.039978 -320435.000000 0 0 1
-4.780724 -30.406315 25.370248 39.887953 1.414845 0.881444 0.223954 -0.041236 -391650.000000 0 0 1
-4.125924 -30.594735 26.594048 40.746834 1.436748 0.859699 0.212633 -0.045071 54959.200000 0 0 1
-4.603024 -31.673195 27.426748 42.149800 1.426478 0.862294 0.180283 -0.039243 -78682.600000 0 0 1
-4.048124 -31.597335 28.908948 43.017510 1.443374 0.833853 0.191559 -0.042704 -349663.000000 0 0 1
-2.660724 -31.779585 28.980448 43.091622 1.487267 0.833173 0.199321 -0.046614 -357408.000000 0 0 1
-2.283224 -31.837745 30.335048 44.034876 1.499205 0.810844 0.195663 -0.049639 -17512.700000 0 0 1
-29.335824 2.961635 -10.090252 31.163682 -0.100615 1.900521 0.215400 -0.045439 335679.000000 0 0 1
-30.090844 2.541135 -11.244052 32.223361 -0.084249 1.927237 0.213188 -0.062394 407183.000000 0 0 1
-30.546284 3.647935 -12.054752 33.040883 -0.118860 1.944261 0.198461 -0.059392 -795.588000 0 0 1
-31.609204 3.189235 -13.062652 34.350340 -0.100555 1.960892 0.185384 -0.048477 -611530.000000 0 0 1
-32.848864 2.817135 -12.570052 35.284421 -0.085551 1.935047 0.168974 -0.047858 -286558.000000 0 0 1
-33.721264 2.442835 -13.620252 36.449998 -0.072316 1.953758 0.185515 -0.046359 -227521.000000 0 0 1
-35.016584 1.740035 -13.241552 37.477027 -0.049651 1.931919 0.175758 -0.050761 -209402.000000 0 0 1
-34.805342 0.351935 -13.016352 37.161285 -0.010111 1.928652 0.201851 -0.049208 1035600.000000 0 0 1
-36.037814 -0.409965 -12.893852 38.277193 0.011375 1.914371 0.177698 -0.051953 924779.000000 0 0 1
-35.766365 -1.913865 -12.556352 37.954680 0.053459 1.907974 0.208211 -0.053080 124758.000000 0 0 1
-35.330951 -2.830365 -13.541352 37.942790 0.079939 1.935731 0.200273 -0.042102 67561.800000 0 0 1
-34.724502 -3.919665 -12.878452 37.242574 0.112403 1.923887 0.210438 -0.046192 15140.600000 0 0 1
-34.239733 -5.029265 -13.796952 37.255989 0.145841 1.950159 0.222372 -0.039639 -98213.500000 0 0 1
-34.051170 -6.273265 -13.226152 37.064365 0.182188 1.935682 0.202228 -0.046151 50448.400000 0 0 1
-34.786068 -7.205065 -13.949552 38.165082 0.204237 1.944972 0.199841 -0.041867 -686549.000000 0 0 1
-34.668164 -8.554965 -13.303152 38.105680 0.241934 1.927420 0.166562 -0.043352 1132230.000000 0 0 1
-33.337494 -9.116765 -13.243252 37.011993 0.266942 1.936718 0.167305 -0.043150 1494880.000000 0 0 1
-32.616854 -9.420965 -14.448052 36.896612 0.281185 1.973147 0.175507 -0.044487 375874.000000 0 0 1
-31.510514 -10.515365 -14.324152 36.175499 0.322089 1.977912 0.152218 -0.048153 616996.000000 0 0 1
-32.125094 -11.683165 -13.776852 36.855389 0.348807 1.953908 0.136725 -0.044665 463458.000000 0 0 1
-31.087024 -12.529165 -13.365952 36.083677 0.383120 1.950253 0.147293 -0.047479 -59122.400000 0 0 1
-31.170734 -13.906065 -14.046552 36.909334 0.419627 1.961208 0.156646 -0.040230 -346363.000000 0 0 1
-30.924424 -13.920965 -15.456352 37.269453 0.422988 1.998430 0.152471 -0.045436 109976.000000 0 0 1
-30.987374 -15.182665 -16.070452 38.065603 0.455586 2.006643 0.169543 -0.055040 -310456.000000 0 0 1
-29.877724 -16.113165 -15.582352 37.351334 0.494594 2.001140 0.139390 -0.045603 -632832.000000 0 0 1
-28.622604 -15.630565 -15.969952 36.312634 0.499838 2.026162 0.142140 -0.051032 -303540.000000 0 0 1
-27.571424 -16.615265 -15.839052 35.876539 0.542348 2.028052 0.148871 -0.045422 1633730.000000 0 0 1
-26.205724 -15.953165 -16.276952 34.730140 0.546840 2.058580 0.140399 -0.050335 836790.000000 0 0 1
-26.251704 -15.784565 -17.696252 35.376006 0.541358 2.094664 0.139079 -0.052417 455923.000000 0 0 1
-24.951224 -15.495865 -18.230152 34.569117 0.555751 2.126279 0.105209 -0.033489 404021.000000 0 0 1
-24.998524 -15.030565 -19.692852 35.194495 0.541344 2.164631 0.118397 -0.035173 124658.000000 0 0 1
-25.627224 -15.854465 -20.666652 36.540788 0.554025 2.171930 0.116885 -0.033572 -292811.000000 0 0 1
-27.013154 -15.889865 -20.746252 37.584641 0.531718 2.155542 0.132678 -0.045743 -735574.000000 0 0 1
-27.536974 -17.132965 -21.540752 38.933629 0.556569 2.157079 0.130621 -0.050902 -49081.700000 0 0 1
-27.222114 -16.938365 -22.892052 39.395403 0.556604 2.190857 0.127035 -0.035840 146862.000000 0 0 1
-27.876004 -17.913165 -23.671752 40.722290 0.571157 2.191118 0.120807 -0.027150 -373816.000000 0 0 1
-27.370524 -18.141865 -25.094052 41.327767 0.585338 2.223323 0.099736 -0.021973 275461.000000 0 0 1
-26.058084 -18.686965 -25.169192 40.764134 0.622129 2.236274 0.093842 -0.017161 245376.000000 0 0 1
-25.929184 -20.058265 -24.891452 41.161158 0.658422 2.220225 0.080828 -0.011878 390109.000000 0 0 1
-24.476224 -20.647165 -24.684152 40.431403 0.700743 2.227512 0.063615 0.008613 771148.000000 0 0 1
-23.773224 -20.680365 -25.891862 40.782744 0.715935 2.258640 0.048890 0.003203 958902.000000 0 0 1
-22.410624 -21.124365 -25.609472 40.053963 0.755861 2.264480 0.056038 0.006486 1301710.000000 0 0 1
-21.570424 -21.060165 -26.899172 40.402713 0.773429 2.299330 0.050689 0.001199 -449181.000000 0 0 1
-21.787124 -22.106865 -27.870992 41.715518 0.792682 2.302476 0.078514 0.000672 -175698.000000 0 0 1
-22.351224 -21.685665 -29.120652 42.636342 0.770286 2.322659 0.087247 -0.003109 -196375.000000 0 0 1
-21.477624 -21.728065 -30.371032 43.078959 0.791195 2.353231 0.088078 -0.018243 -210811.000000 0 0 1
-21.153124 -23.022565 -30.779662 43.873463 0.827691 2.348374 0.094721 -0.026534 341514.000000 0 0 1
-20.353324 -23.009865 -31.980622 44.344919 0.846584 2.376299 0.102125 -0.029618 622336.000000 0 0 1
-19.786324 -24.403865 -32.466102 45.178480 0.889513 2.372610 0.099596 -0.025224 361378.000000 0 0 1
-19.024124 -24.509065 -33.687792 45.798241 0.910732 2.397303 0.095169 -0.029240 -21892.800000 0 0 1
-19.749024 -24.217265 32.746788 45.264247 0.886679 0.761998 0.099425 -0.022830 -206157.000000 0 0 1
-18.850824 -24.146165 31.491527 43.932985 0.907937 0.771582 0.106679 -0.015479 391375.000000 0 0 1
-18.039224 -22.977865 31.384457 42.876334 0.905226 0.749578 0.077085 -0.015989 -97687.500000 0 0 1
-17.153624 -22.963065 30.306277 41.713542 0.929212 0.757533 0.087560 -0.014561 -43370.800000 0 0 1
-16.488824 -21.602565 30.052877 40.518238 0.918850 0.735177 0.074926 -0.011611 519485.000000 0 0 1
-17.469824 -20.573965 29.743647 40.164255 0.866812 0.736908 0.086267 -0.018827 693173.000000 0 0 1
-16.964224 -19.227765 29.614647 39.172939 0.847859 0.713620 0.085102 -0.021801 130193.000000 0 0 1
-16.395624 -18.505265 30.844137 39.530016 0.845771 0.675697 0.084303 -0.025164 126644.000000 0 0 1
-15.839124 -17.274865 30.534787 38.492493 0.828729 0.654642 0.087258 -0.022118 -105536.000000 0 0 1
-15.351924 -16.542365 31.657982 38.878777 0.822705 0.619319 0.085260 -0.024631 109944.000000 0 0 1
-14.834824 -15.154065 31.370177 37.865627 0.796043 0.594443 0.094841 -0.031244 157981.000000 0 0 1
-13.602724 -15.161665 30.660557 36.810053 0.839542 0.586397 0.108987 -0.038001 251172.000000 0 0 1
-13.218324 -13.892165 30.164477 35.743699 0.810248 0.566266 0.091844 -0.036285 -721177.000000 0 0 1
-11.845724 -13.878765 29.536007 34.717676 0.864266 0.553389 0.105136 -0.031167 -390489.000000 0 0 1
-11.309224 -12.542065 29.350467 33.862249 0.837041 0.522126 0.101164 -0.028059 1154990.000000 0 0 1
-9.970924 -12.407065 29.895517 33.868814 0.893834 0.489250 0.093992 -0.026743 1042150.000000 0 0 1
-9.505424 -10.946865 30.048397 33.363050 0.855760 0.449536 0.078192 -0.018000 -291026.000000 0 0 1
-10.122724 -10.177865 31.036207 34.195097 0.788114 0.433213 0.071819 -0.020110 11156.900000 0 0 1
-9.676524 -8.826765 30.977667 33.632763 0.739506 0.400012 0.046922 -0.016804 -330171.000000 0 0 1
-10.496124 -7.908265 31.870700 34.473915 0.645703 0.391108 0.032147 -0.017026 -946034.000000 0 0 1
-11.803924 -7.732465 31.431437 34.453721 0.579935 0.421980 0.063437 -0.027239 -438280.000000 0 0 1
-12.679424 -7.133865 32.392630 35.509750 0.512491 0.422131 0.056471 -0.026429 259860.000000 0 0 1
-12.418024 -5.664665 32.863362 35.585058 0.427969 0.393649 0.035321 -0.025968 -531522.000000 0 0 1
-12.489424 -4.729165 31.788099 34.479472 0.361970 0.397730 0.054423 -0.028833 87731.600000 0 0 1
-12.772324 -3.425265 32.205010 34.814184 0.262013 0.389618 0.050084 -0.030328 -526230.000000 0 0 1
-12.297024 -2.263365 31.336307 33.738758 0.182021 0.379655 0.059116 -0.031538 535350.000000 0 0 1
-10.885024 -2.078365 31.481997 33.375433 0.188667 0.338456 0.062172 -0.031498 582206.000000 0 0 1
-10.326824 -1.055265 30.751167 32.455988 0.101833 0.325557 0.066646 -0.029150 -102888.000000 0 0 1
-8.790024 -0.964265 30.945267 32.183908 0.109263 0.278337 0.056796 -0.032138 231220.000000 0 0 1
-8.458624 -0.526765 32.255912 33.350707 0.062195 0.256936 0.080445 -0.045592 263349.000000 0 0 1
-7.072824 -0.240765 32.359275 33.124093 0.034028 0.215308 0.103627 -0.046048 78232.900000 0 0 1
-6.823324 0.493935 33.724687 34.411572 -0.072263 0.200138 0.148097 -0.062345 -303607.000000 0 0 1
-7.408524 1.772135 -33.695852 34.546159 -0.234790 2.919263 0.168205 -0.054598 181803.000000 0 0 1
-6.819324 2.838735 33.113848 33.927696 -0.394460 0.219473 0.169906 -0.055397 -148730.000000 0 0 1
-7.552424 4.133335 33.209977 34.307815 -0.500757 0.253660 0.166607 -0.055771 -659562.000000 0 0 1
-8.812224 4.022035 32.634113 34.041407 -0.428176 0.288544 0.121984 -0.040557 -592141.000000 0 0 1
-9.606824 5.197435 32.749280 34.522743 -0.495919 0.321922 0.108503 -0.028093 -268323.000000 0 0 1
-11.018724 4.911235 32.242258 34.425219 -0.419287 0.358032 0.079984 -0.023717 -581425.000000 0 0 1
-11.894024 6.005635 32.333436 34.971225 -0.467583 0.390884 0.083349 -0.024989 308768.000000 0 0 1
-13.122524 5.707035 31.656457 34.740498 -0.410229 0.424545 0.030960 -0.017917 702706.000000 0 0 1
-14.027924 6.979735 31.550012 35.226448 -0.461694 0.460941 0.050333 -0.023079 189148.000000 0 0 1
-14.742624 7.304135 32.733178 36.635452 -0.459996 0.465753 0.045844 -0.022859 -196888.000000 0 0 1
-15.533024 8.420135 32.544660 37.031451 -0.496742 0.497374 0.041568 -0.012896 -431233.000000 0 0 1
-16.470024 8.872935 33.668627 38.517102 -0.494151 0.507172 0.027002 -0.005846 -432652.000000 0 0 1
-15.853224 9.357635 -32.813092 37.624315 -0.533232 2.630324 0.025179 -0.009566 -566978.000000 0 0 1
-16.720024 9.626035 -31.722282 37.128465 -0.522374 2.595177 0.042380 -0.006517 -826001.000000 0 0 1
-15.935124 10.019135 -30.458192 35.805205 -0.561288 2.588043 0.069387 -0.018920 47502.900000 0 0 1
-15.115424 11.187135 -30.471822 35.807261 -0.637144 2.588674 0.061224 -0.021553 -34364.200000 0 0 1
-13.832924 10.832335 -30.964992 35.602247 -0.664341 2.625488 0.077534 -0.030495 -323414.000000 0 0 1
-12.842324 12.017635 -30.873882 35.532315 -0.752237 2.623764 0.091567 -0.032680 -169563.000000 0 0 1
-13.078824 12.961335 -31.891292 36.825349 -0.780886 2.617972 0.072825 -0.029130 260936.000000 0 0 1
-12.221424 14.118835 -31.810852 36.886786 -0.857309 2.610771 0.085747 -0.029476 163685.000000 0 0 1
-12.496924 15.165435 -30.705342 36.455199 -0.881568 2.572288 0.079336 -0.028582 -226783.000000 0 0 1
-13.683624 15.916235 -30.718442 37.204714 -0.860682 2.542167 0.065094 -0.028438 -68358.600000 0 0 1
-13.675624 16.941435 -29.800072 36.906357 -0.891663 2.510615 0.062860 -0.026954 -382848.000000 0 0 1
-15.039724 17.631735 -29.793852 37.745794 -0.864568 2.480512 0.055675 -0.031742 -585195.000000 0 0 1
-15.411324 18.182635 -31.090722 39.175887 -0.867706 2.487530 0.050513 -0.030986 -358291.000000 0 0 1
-16.741124 18.556935 -31.256452 40.019881 -0.836795 2.467099 0.048242 -0.031025 -96018.200000 0 0 1
-17.311424 19.746535 -30.393322 40.166716 -0.851015 2.429015 0.033149 -0.026521 -608154.000000 0 0 1
-16.660124 20.943135 -30.835692 40.829089 -0.898809 2.426814 0.031815 -0.023801 436034.000000 0 0 1
-17.284224 22.188435 -30.517902 41.501968 -0.909008 2.396959 0.024769 -0.014973 337431.000000 0 0 1
-18.715324 22.459635 -31.048272 42.646146 -0.876085 2.386261 0.037373 -0.013678 139758.000000 0 0 1
-19.776524 21.688935 -30.540142 42.358247 -0.831486 2.376035 0.041535 -0.013978 59955.800000 0 0 1
-20.918224 21.824735 -31.366712 43.563308 -0.806603 2.374636 0.074308 -0.024466 -508326.000000 0 0 1
-22.218624 21.256535 -30.766382 43.498021 -0.763272 2.356475 0.103157 -0.029945 -317767.000000 0 0 1
-22.962924 22.240035 -30.021322 43.854245 -0.769407 2.324811 0.130073 -0.031215 723431.000000 0 0 1
-23.752824 23.207235 -30.728182 45.243713 -0.773781 2.317428 0.126269 -0.027122 668479.000000 0 0 1
-25.094184 22.622835 -31.345342 46.087321 -0.733653 2.318735 0.128047 -0.034478 421567.000000 0 0 1
-24.865824 21.757035 -32.442352 46.305334 -0.718817 2.347060 0.127490 -0.033089 185625.000000 0 0 1
-26.113424 21.311835 -32.920142 47.115188 -0.684497 2.344398 0.139575 -0.035478 -2533.220000 0 0 1
-26.013244 20.211435 33.607137 47.059863 -0.660538 0.775407 0.131866 -0.032566 -169002.000000 0 0 1
-25.448044 19.010635 -33.529172 46.186714 -0.641602 2.383209 0.129542 -0.039163 364808.000000 0 0 1
-25.188504 18.136335 32.947759 45.265243 -0.624039 0.755568 0.114076 -0.048699 -183037.000000 0 0 1
-24.894924 16.695035 33.463155 44.925096 -0.590735 0.730463 0.089802 -0.040700 -15358.700000 0 0 1
-26.051774 15.896335 33.706517 45.469965 -0.547873 0.735803 0.088330 -0.028534 698147.000000 0 0 1
-26.474334 15.178035 32.538018 44.609256 -0.520564 0.753351 0.095362 -0.028545 -613549.000000 0 0 1
-27.292174 13.951335 32.885117 44.954794 -0.472555 0.750255 0.066539 -0.020741 -331811.000000 0 0 1
-28.668634 14.204235 33.101171 46.036273 -0.460011 0.768400 0.080549 -0.015569 659406.000000 0 0 1
-29.585264 13.092035 32.940714 46.171202 -0.416615 0.776391 0.076359 -0.011372 619779.000000 0 0 1
-29.519084 12.022735 -33.561852 46.285207 -0.386772 2.381990 0.068663 -0.015065 -142283.000000 0 0 1
-28.335634 11.235735 -33.568722 45.343235 -0.377506 2.404350 0.058694 -0.025364 39420.600000 0 0 1
-28.677174 9.882035 -33.693052 45.334939 -0.331852 2.408641 0.071791 -0.018026 397088.000000 0 0 1
-27.418034 8.915835 -33.574942 44.255140 -0.314396 2.432062 0.061500 -0.024924 1640410.000000 0 0 1
-26.450664 8.837735 32.948784 43.166719 -0.322460 0.702404 0.044109 -0.021099 615935.000000 0 0 1
-25.684114 10.042235 32.774117 42.832966 -0.372715 0.699505 0.028733 -0.019730 -942145.000000 0 0 1
-24.351224 9.609135 32.158606 41.466777 -0.375848 0.683247 0.041778 -0.017150 -781901.000000 0 0 1
-24.424724 9.235935 30.810427 40.387524 -0.361520 0.703056 0.049154 -0.022940 11768.100000 0 0 1
-23.159524 9.053135 30.211507 39.128736 -0.372640 0.688649 0.058869 -0.021699 193617.000000 0 0 1
-23.239924 8.956835 28.683857 37.987928 -0.367863 0.715023 0.076822 -0.029778 47892.200000 0 0 1
-23.737324 10.164735 28.163917 38.209798 -0.404593 0.742048 0.085249 -0.029549 -19598.300000 0 0 1
-23.844924 9.986535 26.760517 37.208018 -0.396618 0.768126 0.084649 -0.028022 -465646.000000 0 0 1
-24.312424 11.262235 26.100707 37.405599 -0.433801 0.798509 0.087752 -0.023813 -570814.000000 0 0 1
-25.628434 11.614135 26.401137 38.583997 -0.425490 0.817220 0.109345 -0.022694 -379683.000000 0 0 1
-26.403044 11.401435 25.192767 38.233349 -0.407635 0.851413 0.127674 -0.014458 524762.000000 0 0 1
-27.801754 12.086635 25.343317 39.513390 -0.410095 0.874493 0.129659 -0.016662 466590.000000 0 0 1
-27.688704 13.463035 25.062877 39.699691 -0.452570 0.887553 0.135710 -0.012939 51140.200000 0 0 1
-28.861994 14.126635 25.458107 40.996241 -0.455176 0.900796 0.129368 -0.013407 -12217.100000 0 0 1
-29.013054 15.483535 24.773837 41.173295 -0.490223 0.925173 0.141528 -0.013085 -213481.000000 0 0 1
-28.050534 16.346035 25.287897 41.152194 -0.527628 0.909048 0.154362 -0.012392 -88102.800000 0 0 1
-28.002314 17.581935 24.545847 41.179518 -0.560664 0.932200 0.128415 -0.013109 -198328.000000 0 0 1
-23.547124 -8.447365 31.329237 40.091722 0.344442 0.673828 0.062838 -0.020710 -1160630.000000 0 0 1
-22.539424 -8.365665 30.437267 38.787076 0.355397 0.668541 0.070885 -0.031020 -1195330.000000 0 0 1
-22.919724 -8.603365 29.104147 38.031343 0.359095 0.699340 0.073469 -0.030752 84951.000000 0 0 1
-21.795824 -8.368165 28.040627 36.487819 0.366580 0.694314 0.102845 -0.034800 -657986.000000 0 0 1
-21.371824 -7.060865 27.877937 35.830016 0.319092 0.679223 0.109449 -0.035101 272338.000000 0 0 1
-20.183924 -6.726965 28.590867 35.638189 0.321706 0.639736 0.100226 -0.037611 -509150.000000 0 0 1
-18.856924 -7.237465 28.041757 34.558713 0.366472 0.624212 0.105544 -0.033564 -1657990.000000 0 0 1
-18.634624 -8.638765 28.222277 34.905221 0.434095 0.629129 0.110089 -0.028312 -62882.400000 0 0 1
-18.152824 -9.029365 29.464597 35.766143 0.461572 0.602692 0.101474 -0.032570 198685.000000 0 0 1
-16.700224 -8.625665 29.937607 35.349115 0.476760 0.560645 0.090542 -0.031977 270447.000000 0 0 1
-15.720524 -9.322765 29.193627 34.442949 0.535280 0.559362 0.082050 -0.032170 -317874.000000 0 0 1
-14.477524 -8.786265 29.640427 34.137254 0.545470 0.519088 0.079229 -0.034918 64208.300000 0 0 1
-13.221924 -9.357265 28.986127 33.205019 0.615881 0.509591 0.080154 -0.029567 -319419.000000 0 0 1
-12.968224 -9.104865 27.617107 31.839881 0.612128 0.520894 0.090064 -0.033187 -232049.000000 0 0 1
-11.851524 -9.897565 27.282797 31.349186 0.695798 0.515011 0.095280 -0.025379 -185716.000000 0 0 1
-11.319424 -9.814065 25.860467 29.886602 0.714287 0.525075 0.081233 -0.023327 289529.000000 0 0 1
-12.218824 -10.352465 24.875217 29.584618 0.702899 0.572008 0.081660 -0.024968 397597.000000 0 0 1
-11.792024 -9.953165 23.569127 28.171281 0.701035 0.579682 0.096375 -0.030781 -175685.000000 0 0 1
-12.822024 -10.333365 22.526477 27.903851 0.678333 0.631252 0.110312 -0.034991 -1380560.000000 0 0 1
-12.918124 -11.722365 22.282487 28.298428 0.736908 0.664199 0.098773 -0.029888 -11960.700000 0 0 1
-14.132224 -12.119765 21.692387 28.586153 0.708888 0.709262 0.084904 -0.024920 487579.000000 0 0 1
-15.382424 -11.928465 22.642097 29.859200 0.659598 0.710102 0.089233 -0.028162 -263567.000000 0 0 1
-16.588324 -12.439365 22.085287 30.293072 0.643429 0.753857 0.048759 -0.008712 80553.100000 0 0 1
-17.593924 -12.519465 23.035667 31.574121 0.618455 0.753097 0.055734 -0.006986 -886654.000000 0 0 1
-18.865224 -13.233665 22.648627 32.310786 0.611722 0.794051 0.086992 -0.014552 -1183260.000000 0 0 1
-18.722324 -14.629065 22.606857 32.796417 0.663278 0.810262 0.075249 -0.017818 -565.456000 0 0 1
-19.899024 -15.351265 22.312487 33.607731 0.657093 0.844762 0.090839 -0.013719 426241.000000 0 0 1
-20.922124 -15.360965 23.533417 35.035928 0.633310 0.834303 0.084925 -0.016221 262243.000000 0 0 1
-20.426624 -16.157765 24.656667 35.864629 0.669238 0.812766 0.075925 -0.013054 67400.400000 0 0 1
-21.311724 -16.017965 25.700027 37.030477 0.644527 0.803733 0.078191 -0.015120 -455081.000000 0 0 1
-21.082724 -17.015965 26.834767 38.133044 0.679058 0.790184 0.085564 -0.017651 -21595.700000 0 0 1
-21.117724 -18.376365 26.492017 38.541874 0.716097 0.812953 0.091039 -0.015763 175806.000000 0 0 1
-20.866424 -19.117165 27.657987 39.570670 0.741677 0.796866 0.080130 -0.019173 -60539.900000 0 0 1
-20.657724 -20.666465 27.421147 40.071981 0.785610 0.817157 0.090312 -0.013413 -471874.000000 0 0 1
-21.827724 -21.297765 27.029747 40.751093 0.773110 0.845591 0.080063 -0.014505 -494756.000000 0 0 1
-21.579624 -22.622165 26.909707 41.250150 0.808980 0.860110 0.087143 -0.007166 280451.000000 0 0 1
-22.932324 -23.297765 26.614867 42.154816 0.793303 0.887491 0.081873 -0.006178 148008.000000 0 0 1
-23.890924 -23.151465 27.653257 43.260481 0.769680 0.877304 0.073426 -0.011371 229036.000000 0 0 1
-25.115784 -23.716765 27.181547 43.955933 0.756757 0.904114 0.054656 -0.004108 363588.000000 0 0 1
-25.802074 -24.709765 28.132167 45.472391 0.763777 0.903754 0.037599 -0.010409 -201960.000000 0 0 1
-26.476024 -24.139665 29.259457 46.258179 0.739272 0.885987 0.042756 -0.002535 261893.000000 0 0 1
-26.913604 -25.176075 30.132087 47.603776 0.752054 0.885404 0.038195 -0.003868 -639574.000000 0 0 1
-28.040204 -24.787165 31.091717 48.655436 0.723897 0.877575 0.042206 -0.005736 -217475.000000 0 0 1
-29.153864 -24.511465 30.248737 48.638933 0.699106 0.899625 0.027831 -0.004486 -397805.000000 0 0 1
-30.152724 -23.904465 31.015087 49.422119 0.670323 0.892388 0.042036 -0.015147 -277748.000000 0 0 1
-31.376424 -23.405865 30.206347 49.444291 0.640917 0.913578 0.057877 -0.020902 644102.000000 0 0 1
-32.272994 -24.409365 29.672717 50.178017 0.647547 0.938066 0.056653 -0.020375 782166.000000 0 0 1
-33.501814 -23.893365 29.178357 50.444435 0.619528 0.953999 0.059144 -0.023265 764986.000000 0 0 1
-34.730475 -24.531965 29.888767 51.974625 0.614977 0.958113 0.060485 -0.025651 145784.000000 0 0 1
-35.018515 -25.873355 29.553597 52.622638 0.636325 0.974461 0.068423 -0.023040 216493.000000 0 0 1
-36.190834 -26.311425 30.231457 54.000079 0.628630 0.976602 0.072502 -0.016463 442986.000000 0 0 1
-36.064204 -27.848635 30.407957 54.779715 0.657556 0.982319 0.077342 -0.025331 532670.000000 0 0 1
-35.047263 -28.187125 31.377657 54.839603 0.677333 0.961645 0.067849 -0.020763 573583.000000 0 0 1
-34.737625 -29.581085 31.460757 55.421318 0.705398 0.967129 0.079726 -0.029709 -118039.000000 0 0 1
-33.721194 -29.893275 32.551150 55.590504 0.725297 0.945235 0.080660 -0.021652 -190321.000000 0 0 1
-34.265347 -29.842585 -33.735282 56.592960 0.716518 2.209436 0.072193 -0.016152 -170922.000000 0 0 1
-33.254684 -29.946065 -32.767792 55.465025 0.733095 2.202825 0.072935 -0.019855 -56786.700000 0 0 1
-33.667644 -29.525035 -31.337902 54.656217 0.719937 2.181402 0.071732 -0.022060 238304.000000 0 0 1
-33.890804 -28.152435 -31.090942 53.923955 0.693171 2.185321 0.064812 -0.019839 -45701.300000 0 0 1
-32.656124 -27.563565 -30.705142 52.621082 0.701033 2.193845 0.071743 -0.016513 248513.000000 0 0 1
-32.610184 -26.027835 -30.642802 51.767303 0.673612 2.204252 0.054934 -0.013024 -189124.000000 0 0 1
-33.287904 -25.503005 -29.536172 51.292039 0.653747 2.184431 0.047881 -0.018776 -241272.000000 0 0 1
-33.224684 -24.120665 -29.577822 50.601716 0.627954 2.195087 0.058330 -0.025795 -187086.000000 0 0 1
-32.210264 -23.512465 -28.623462 49.088081 0.630557 2.193341 0.067426 -0.027658 -206801.000000 0 0 1
-31.886204 -22.101065 -28.766492 48.298014 0.606096 2.208814 0.069031 -0.025484 50733.700000 0 0 1
-30.825924 -21.769965 -27.910962 46.938159 0.614890 2.207605 0.083872 -0.022332 -200419.000000 0 0 1
-30.543494 -20.237565 -27.956502 46.087201 0.585169 2.222573 0.095102 -0.028305 19501.300000 0 0 1
-29.959124 -19.819765 -29.201392 46.293558 0.584459 2.253364 0.088328 -0.017515 421005.000000 0 0 1
-29.626514 -18.433465 -29.179282 45.485750 0.556580 2.267253 0.088015 -0.022413 -67898.700000 0 0 1
-29.044044 -17.899265 -30.582442 45.817310 0.552304 2.301625 0.088541 -0.017336 45993.400000 0 0 1
-29.880094 -17.818965 -31.719222 47.079131 0.537731 2.310058 0.077655 -0.016040 -252943.000000 0 0 1
-30.820414 -16.787765 -31.478872 47.144951 0.498762 2.301917 0.092644 -0.017825 -628508.000000 0 0 1
-31.469904 -16.190965 -32.780892 48.239912 0.475173 2.317930 0.093173 -0.020963 397913.000000 0 0 1
-32.365404 -17.025465 -33.512212 49.602966 0.484261 2.312587 0.089382 -0.024724 298293.000000 0 0 1
-33.655584 -17.113665 -32.962752 50.121042 0.470420 2.288508 0.086451 -0.031090 418890.000000 0 0 1
-34.839345 -17.267665 33.590167 51.383378 0.460151 0.858311 0.095389 -0.030313 814824.000000 0 0 1
-34.777330 -18.620365 33.104139 51.498201 0.491578 0.872621 0.088684 -0.029797 -23474.100000 0 0 1
-35.858000 -19.012865 32.290888 51.865082 0.487535 0.898743 0.089533 -0.032078 -373643.000000 0 0 1
-36.430584 -20.361265 32.732516 53.039478 0.509655 0.905700 0.087449 -0.037129 274125.000000 0 0 1
-35.511149 -21.435965 32.510256 52.701604 0.543092 0.906031 0.092263 -0.032138 408009.000000 0 0 1
-36.068834 -22.609565 33.079943 53.911371 0.559925 0.910186 0.090737 -0.027364 -70716.300000 0 0 1
-34.877957 -23.593765 33.381230 53.734944 0.594756 0.900498 0.082016 -0.024171 1030700.000000 0 0 1
-34.030533 -23.263665 -33.116402 52.876946 0.599642 2.247584 0.066082 -0.023387 139483.000000 0 0 1
-33.165594 -22.186765 -33.428952 52.054817 0.589595 2.268145 0.066881 -0.022787 -1043990.000000 0 0 1
-31.762044 -22.259265 -32.785452 50.785708 0.611272 2.272559 0.056036 -0.011786 139102.000000 0 0 1
-30.893414 -23.315365 -33.260562 51.032091 0.646505 2.280696 0.047632 -0.008396 616183.000000 0 0 1
-29.593384 -23.244565 -32.698732 49.852635 0.665815 2.286181 0.052131 -0.009403 248653.000000 0 0 1
-29.293274 -23.589665 -31.246932 48.897229 0.677960 2.264036 0.068525 -0.004909 -872674.000000 0 0 1
-29.322344 -24.964465 -31.069372 49.480605 0.705295 2.249661 0.068613 -0.012787 18053.000000 0 0 1
-28.807764 -25.199415 -29.764332 48.485186 0.718685 2.231769 0.062498 -0.017057 -141539.000000 0 0 1
-28.447874 -26.690545 -29.546722 48.935422 0.753538 2.219043 0.063083 -0.018242 4114.430000 0 0 1
-29.547334 -27.572925 -29.587092 50.086996 0.750846 2.202740 0.062171 -0.011813 50158.600000 0 0 1
-29.206334 -28.786435 -28.925142 50.182991 0.778158 2.185105 0.070140 -0.013301 36750.900000 0 0 1
-29.776924 -30.062785 -29.551782 51.611472 0.790175 2.180448 0.064979 0.000354 -232464.000000 0 0 1
-29.328184 -30.324045 -30.845342 52.260168 0.802091 2.202136 0.064835 -0.018035 292665.000000 0 0 1
-29.798074 -31.593045 -31.268732 53.514291 0.814628 2.194821 0.085329 -0.011732 -150078.000000 0 0 1
-29.139584 -31.979205 -32.610112 54.177526 0.831825 2.216690 0.069635 -0.022115 13445.600000 0 0 1
-27.733754 -32.127655 -32.552572 53.488478 0.858668 2.225079 0.066147 -0.024776 -107118.000000 0 0 1
-27.335684 -32.713155 -33.760152 54.379573 0.874712 2.240590 0.075798 -0.026392 -1320390.000000 0 0 1
-25.869114 -32.994355 33.737897 53.815279 0.905859 0.893202 0.077774 -0.031449 -1158690.000000 0 0 1
-25.524434 -33.576275 32.499332 53.245371 0.920804 0.914270 0.070120 -0.022695 -884921.000000 0 0 1
-24.355024 33.362642 32.494371 52.555849 -0.940213 0.904241 0.062112 -0.016859 -1115890.000000 0 0 1
-24.241324 32.617938 31.120307 51.186377 -0.931668 0.917282 0.058341 -0.019664 16245.400000 0 0 1
-25.301714 31.680445 30.955567 51.010533 -0.896877 0.918709 0.067446 -0.035336 394833.000000 0 0 1
-25.119464 30.902735 29.810707 49.745802 -0.888266 0.928219 0.064699 -0.024709 263949.000000 0 0 1
-26.481624 30.284125 29.344937 49.794879 -0.852284 0.940584 0.071216 -0.024172 455170.000000 0 0 1
-27.053134 29.319165 30.203047 50.037082 -0.825574 0.922771 0.072550 -0.026794 1221670.000000 0 0 1
-28.311464 28.847705 29.637197 50.120780 -0.794779 0.938107 0.076450 -0.034656 1366370.000000 0 0 1
-29.051764 27.741615 30.492397 50.432019 -0.762334 0.921503 0.078852 -0.040169 -45815.700000 0 0 1
-28.308334 26.549985 30.641607 49.448676 -0.753357 0.902481 0.075763 -0.037612 540715.000000 0 0 1
-29.064804 25.351075 31.046907 49.511113 -0.717257 0.893011 0.080010 -0.031731 970108.000000 0 0 1
-30.198844 24.812735 30.103027 49.333906 -0.687801 0.914497 0.093623 -0.030826 464506.000000 0 0 1
-29.695874 24.361325 28.855977 48.041508 -0.687033 0.926486 0.090022 -0.028820 353401.000000 0 0 1
-30.607604 23.490065 28.201967 47.790789 -0.654581 0.939597 0.098170 -0.022695 416085.000000 0 0 1
-29.912384 23.255055 26.807677 46.413359 -0.660832 0.955029 0.099636 -0.031040 730228.000000 0 0 1
-28.688034 22.574675 26.971467 45.388097 -0.666703 0.934475 0.079569 -0.027024 496041.000000 0 0 1
-27.688784 22.767985 25.952177 44.255682 -0.688181 0.944171 0.076294 -0.034310 965301.000000 0 0 1
-26.300754 22.152075 26.278817 43.278405 -0.699983 0.918260 0.081535 -0.024588 322293.000000 0 0 1
-26.425114 20.729075 26.421587 42.732675 -0.665185 0.904219 0.112319 -0.026872 631158.000000 0 0 1
-25.203674 20.256175 26.990327 42.119064 -0.676993 0.875243 0.096849 -0.023513 286675.000000 0 0 1
-25.310484 18.921875 27.756267 42.060294 -0.641957 0.850089 0.117444 -0.021129 837330.000000 0 0 1
-24.018024 18.374175 28.125277 41.297785 -0.653042 0.821620 0.108148 -0.013412 1245410.000000 0 0 1
-24.141224 17.165575 28.844627 41.345716 -0.618102 0.798691 0.104444 -0.017688 -468616.000000 0 0 1
-22.844524 16.357075 28.795457 40.231885 -0.621395 0.773117 0.094494 -0.023782 -158781.000000 0 0 1
-21.843424 16.843175 29.672697 40.512920 -0.656861 0.748919 0.111232 -0.028012 -2667.660000 0 0 1
-20.697624 16.036075 29.655197 39.559804 -0.659172 0.723294 0.093319 -0.027042 -124555.000000 0 0 1
-19.468224 16.454775 30.463817 39.721726 -0.701708 0.696752 0.080240 -0.031956 -296425.000000 0 0 1
-19.552824 16.056175 31.793986 40.632146 -0.687516 0.672152 0.070197 -0.031149 116088.000000 0 0 1
-18.413924 16.488275 32.480033 40.815295 -0.730281 0.650500 0.063829 -0.036106 -739783.000000 0 0 1
-18.575024 16.058675 -33.668382 41.671003 -0.712870 2.511473 0.055448 -0.039020 125778.000000 0 0 1
-19.492024 16.648375 -32.767422 41.603021 -0.706877 2.477735 0.081219 -0.036250 614757.000000 0 0 1
-20.860524 16.341075 -32.999532 42.322114 -0.664505 2.465020 0.088085 -0.030658 235112.000000 0 0 1
-21.921024 17.103675 -32.155972 42.509687 -0.662576 2.428647 0.086750 -0.041297 7017.070000 0 0 1
-22.086324 16.708475 -30.814522 41.430829 -0.647653 2.409472 0.097178 -0.042536 396679.000000 0 0 1
-23.079124 17.505975 -30.167352 41.823131 -0.648932 2.376485 0.103261 -0.041870 -550221.000000 0 0 1
-23.277524 17.185075 -28.643762 40.714064 -0.635951 2.351156 0.100830 -0.035442 17283.900000 0 0 1
-24.050324 16.054175 -28.293402 40.455793 -0.588596 2.345306 0.095488 -0.035993 -569706.000000 0 0 1
-25.407354 16.186875 -28.607292 41.544262 -0.567249 2.330350 0.095855 -0.033748 -539253.000000 0 0 1
-26.296894 15.252775 -27.699312 41.126946 -0.525600 2.309740 0.088296 -0.027900 174316.000000 0 0 1
-26.165074 13.853975 -27.897202 40.679204 -0.486955 2.326479 0.070674 -0.025208 -304780.000000 0 0 1
-27.015484 13.159275 -27.042832 40.426695 -0.453275 2.303571 0.048190 -0.022018 -238201.000000 0 0 1
-26.761364 11.662175 -27.001822 39.765253 -0.410969 2.317238 0.059528 -0.023427 303449.000000 0 0 1
-25.579024 11.252775 -26.326212 38.392458 -0.414442 2.326379 0.061897 -0.023969 45759.300000 0 0 1
-24.910824 10.241875 -27.064542 38.182910 -0.390074 2.358610 0.052981 -0.013504 -813197.000000 0 0 1
-23.861324 9.594075 -26.243852 36.744371 -0.382295 2.366317 0.105803 -0.016810 -857928.000000 0 0 1
-24.351324 8.666975 -25.262582 36.142793 -0.341934 2.344747 0.085432 -0.021451 111577.000000 0 0 1
-23.294824 8.083475 -24.528552 34.779897 -0.334006 2.353573 0.133909 -0.014332 108877.000000 0 0 1
-23.763024 6.997875 -23.537052 34.170812 -0.286390 2.330637 0.125285 -0.010299 211227.000000 0 0 1
-24.292324 5.821575 -24.149152 34.744630 -0.235211 2.339282 0.115986 -0.021997 403228.000000 0 0 1
-24.846524 4.970775 -23.135152 34.311713 -0.197452 2.310764 0.112776 -0.014543 57498.500000 0 0 1
36.400756 24.777335 -9.810852 45.113015 0.597643 1.790021 0.032040 0.002328 52487.400000 0 0 1
36.733686 24.060235 -8.663952 44.758492 0.579876 1.765597 0.065591 -0.002210 1194550.000000 0 0 1
-37.560954 23.387135 -8.945952 45.142147 -0.556904 1.770290 0.078362 -0.009119 1368990.000000 0 0 1
-36.889514 22.780435 -7.685752 44.032434 -0.553211 1.746243 0.119714 -0.010591 -150184.000000 0 0 1
-37.358314 21.561835 -7.167852 43.725673 -0.523458 1.735467 0.079591 -0.012586 -217829.000000 0 0 1
-36.472774 21.059035 -6.202352 42.570123 -0.523629 1.717014 0.153430 -0.018596 -287312.000000 0 0 1
-37.043424 20.026435 -5.224552 42.433116 -0.495614 1.694234 0.112162 -0.006439 -263052.000000 0 0 1
-37.324204 18.778235 -5.835052 42.187275 -0.466134 1.709554 0.070006 0.005575 364823.000000 0 0 1
37.587436 17.963535 -4.877252 41.943909 0.445823 1.687340 0.079911 -0.011727 -155348.000000 0 0 1
36.783356 16.831835 -5.546952 40.830070 0.429151 1.707072 0.063015 -0.001307 196702.000000 0 0 1
35.588136 17.304735 -6.155352 40.048191 0.452587 1.725107 0.077103 -0.009310 69654.200000 0 0 1
35.031286 16.237035 -6.911152 39.224945 0.434024 1.747914 0.087801 -0.014511 104282.000000 0 0 1
34.165766 16.546535 -8.127152 38.821875 0.451010 1.781701 0.054527 -0.021135 -52151.800000 0 0 1
33.866486 15.437735 -8.942552 38.278346 0.427701 1.806594 0.062026 -0.029410 128141.000000 0 0 1
33.118086 15.758735 -10.113152 38.044989 0.444129 1.839852 0.064968 -0.021926 -86889.400000 0 0 1
32.398926 14.560335 -10.784552 37.121426 0.422361 1.865568 0.068836 -0.026045 810477.000000 0 0 1
31.182256 14.131435 -10.123952 35.700489 0.425502 1.858322 0.069573 -0.009485 1058910.000000 0 0 1
31.362906 13.491735 -8.861452 35.272994 0.406251 1.824742 0.069812 -0.010837 493352.000000 0 0 1
30.267666 12.319935 -8.774952 33.836551 0.386554 1.833128 0.082379 0.003751 770365.000000 0 0 1
30.699636 11.185535 -9.491652 34.024628 0.349405 1.853512 0.099056 -0.000556 474992.000000 0 0 1
29.789366 10.067635 -9.528852 32.856698 0.325909 1.865036 0.145341 -0.003807 -130811.000000 0 0 1
30.428566 8.771135 -9.989052 33.205596 0.280645 1.876353 0.160834 -0.000738 -455488.000000 0 0 1
31.559506 8.416335 -9.254052 33.948116 0.260616 1.846884 0.141708 -0.011676 -182527.000000 0 0 1
31.622796 7.007835 -9.101752 33.644507 0.218083 1.844737 0.172536 -0.017023 148594.000000 0 0 1
32.727446 6.449735 -8.133252 34.334160 0.194581 1.809955 0.172412 -0.016181 231222.000000 0 0 1
34.009176 6.750735 -8.635652 35.731932 0.195950 1.814892 0.142447 -0.015350 -459332.000000 0 0 1
34.989636 6.401335 -7.681952 36.390439 0.180948 1.783495 0.143135 -0.021831 -57063.100000 0 0 1
36.384336 6.826635 -8.194652 37.915368 0.185469 1.788645 0.134427 -0.018252 -13157.600000 0 0 1
36.754466 6.185735 -9.410252 38.440954 0.166736 1.818107 0.131339 -0.021997 -266535.000000 0 0 1
-37.468274 5.828335 -9.528152 39.097656 -0.154317 1.816977 0.106218 -0.020568 -1392770.000000 0 0 1
-37.230834 5.213435 -10.905752 39.143969 -0.139125 1.853139 0.109540 -0.027765 825654.000000 0 0 1
-35.883298 4.808835 -11.276452 37.919577 -0.133219 1.872742 0.132872 -0.038475 1385610.000000 0 0 1
-34.956372 5.774635 -11.691952 37.309464 -0.163717 1.889544 0.133719 -0.036580 -302842.000000 0 0 1
-34.329020 6.743735 -10.668452 36.575613 -0.193974 1.866781 0.131908 -0.028273 -1137280.000000 0 0 1
-35.169267 7.754135 -10.142652 37.414935 -0.217009 1.845317 0.118700 -0.018340 -26892.700000 0 0 1
-35.550483 8.774935 -11.013952 38.237985 -0.241993 1.862973 0.118261 -0.033229 -87090.700000 0 0 1
-36.550584 9.689935 -10.238752 39.174891 -0.259149 1.835227 0.100823 -0.031311 373703.000000 0 0 1
-35.915047 10.296835 -9.165052 38.469645 -0.279211 1.811351 0.108217 -0.022886 230972.000000 0 0 1
-36.915214 11.062635 -8.514752 39.466643 -0.291160 1.788252 0.101482 -0.029077 -105987.000000 0 0 1
-36.499794 11.953635 -7.287352 39.092581 -0.316490 1.758306 0.103825 -0.030753 -98668.000000 0 0 1
-35.595987 12.972035 -7.672952 38.655170 -0.349467 1.770621 0.103109 -0.028973 31625.900000 0 0 1
-35.365906 13.907935 -6.653152 38.580337 -0.374681 1.744112 0.127080 -0.022762 -49065.000000 0 0 1
-34.458337 15.077335 -7.051152 38.267764 -0.412455 1.756113 0.105113 -0.014224 -58079.600000 0 0 1
-35.005060 15.929835 -8.051752 39.293060 -0.427064 1.777174 0.066533 -0.011351 -139871.000000 0 0 1
-34.439715 17.207635 -7.991052 39.319888 -0.463364 1.775454 0.060610 -0.004162 -152459.000000 0 0 1
-35.017936 18.242935 -8.942052 40.484822 -0.480274 1.793507 0.060173 -0.008874 -34500.500000 0 0 1
-34.536200 18.042735 -10.250152 40.290880 -0.481430 1.828027 0.046232 -0.006022 28747.700000 0 0 1
-35.307468 18.771735 -11.199652 41.526227 -0.488657 1.843879 0.036205 -0.011620 -344298.000000 0 0 1
-34.799000 18.784235 -12.663652 41.523319 -0.494972 1.880710 0.009824 0.005413 -256650.000000 0 0 1
-33.785934 19.729635 -12.852852 41.181836 -0.528542 1.888199 0.032145 -0.000757 -333375.000000 0 0 1
-33.530164 19.796135 -14.235652 41.458566 -0.533329 1.921300 -0.001329 0.002732 -429558.000000 0 0 1
-32.645314 20.999335 -14.553352 41.454658 -0.571621 1.929506 0.033473 0.001334 335003.000000 0 0 1
-31.325214 20.755635 -14.012952 40.105215 -0.585172 1.927732 0.052058 0.004155 1193480.000000 0 0 1
-30.437384 21.868135 -13.932252 39.984464 -0.623010 1.926704 0.054121 -0.010995 193755.000000 0 0 1
-29.773304 22.400335 -15.168652 40.228257 -0.645012 1.957421 0.065241 -0.015287 -806987.000000 0 0 1
-30.741794 22.877635 -16.071452 41.554009 -0.639770 1.967913 0.056146 -0.002216 146121.000000 0 0 1
-30.141124 23.329535 -17.252652 41.837884 -0.658691 1.995849 0.073645 0.005844 -71963.900000 0 0 1
-29.421824 24.688835 -17.203152 42.084804 -0.698152 1.991906 0.089556 0.004057 95009.900000 0 0 1
-30.251234 25.848435 -17.015252 43.275831 -0.707077 1.974885 0.112974 -0.013748 -22889.600000 0 0 1
-29.522474 27.032035 -17.126852 43.538907 -0.741391 1.975089 0.112869 -0.021696 50493.900000 0 0 1
-30.330064 28.380935 -16.928652 44.854983 -0.752212 1.957793 0.111822 -0.025034 89081.000000 0 0 1
-30.550524 28.684735 -15.577352 44.707968 -0.753911 1.926686 0.103442 -0.023876 955648.000000 0 0 1
-29.451304 29.405635 -14.937952 44.217792 -0.784622 1.915403 0.095115 -0.014172 735222.000000 0 0 1
-29.688724 29.972535 -13.509252 44.297552 -0.790155 1.880699 0.093415 -0.010969 222507.000000 0 0 1
-30.770504 30.913735 -13.573452 45.680647 -0.787720 1.872490 0.065048 -0.007101 387416.000000 0 0 1
-30.772084 31.899935 -12.477952 46.045915 -0.803392 1.845217 0.056551 -0.007868 -227549.000000 0 0 1
-29.550364 32.826235 -12.441152 45.886468 -0.837868 1.845362 0.067020 -0.011254 -131909.000000 0 0 1
-29.488444 33.743735 -13.530652 46.811180 -0.852593 1.864028 0.063352 -0.022918 139300.000000 0 0 1
-28.373664 -33.014705 -13.603852 45.608117 0.860856 1.873683 0.108385 -0.028819 440789.000000 0 0 1
-28.456924 -32.028205 -14.827152 45.337037 0.844374 1.903969 0.091454 -0.026652 55404.600000 0 0 1
-28.069714 -32.618105 -16.051152 45.929175 0.860206 1.927808 0.090816 -0.028360 -92931.900000 0 0 1
-28.306844 -31.676205 -17.089752 45.789944 0.841511 1.953274 0.096290 -0.017962 -105527.000000 0 0 1
-27.512394 -32.022605 -18.372052 46.042495 0.861011 1.981248 0.093173 -0.019283 3496.120000 0 0 1
-27.816294 -33.276705 -19.011052 47.355099 0.874540 1.983904 0.095930 -0.015208 94416.600000 0 0 1
-27.228764 33.264935 -18.350152 46.740663 -0.884851 1.974248 0.096595 -0.026119 -512368.000000 0 0 1
-27.537544 31.842935 -18.980152 46.179379 -0.857777 1.994357 0.108572 -0.029952 302390.000000 0 0 1
-28.878044 31.394335 -18.881552 46.648244 -0.827123 1.987518 0.127008 -0.035788 -142084.000000 0 0 1
-29.691784 31.921935 -19.902452 47.924102 -0.821578 1.999059 0.113766 -0.030498 -207036.000000 0 0 1
-31.157484 31.444335 -19.682452 48.445164 -0.789980 1.989179 0.110878 -0.042029 133063.000000 0 0 1
-31.518014 30.144535 -20.086052 48.015911 -0.763128 2.002392 0.109583 -0.041687 439445.000000 0 0 1
-32.908074 30.204535 -20.383552 49.099333 -0.742588 1.998903 0.113075 -0.039577 232958.000000 0 0 1
-33.428194 28.882235 -21.064052 48.942026 -0.712571 2.015719 0.115223 -0.040048 -394758.000000 0 0 1
-34.818579 28.797435 -21.207752 49.913870 -0.691031 2.009633 0.116992 -0.035655 -192016.000000 0 0 1
-35.081424 27.442235 -21.515752 49.464231 -0.663820 2.020808 0.100184 -0.018591 98564.900000 0 0 1
-36.563494 27.038035 -21.770852 50.417402 -0.636735 2.017297 0.081018 -0.023738 65144.300000 0 0 1
-37.171334 27.739635 -22.805952 51.684687 -0.641106 2.027789 0.097378 -0.024378 94650.500000 0 0 1
37.210146 26.993935 -23.088652 51.442719 0.627600 2.036244 0.091013 -0.018051 -92284.500000 0 0 1
36.415216 27.552035 -24.239752 51.698628 0.647717 2.058803 0.101574 -0.017674 -322533.000000 0 0 1
37.059936 27.403735 -25.517902 52.683649 0.636711 2.076429 0.131004 -0.031626 -135363.000000 0 0 1
36.204276 27.645635 -26.584372 52.742388 0.652149 2.099069 0.125062 -0.031493 -611198.000000 0 0 1
36.959136 27.847935 -27.880032 54.025747 0.645724 2.113030 0.129826 -0.025054 249400.000000 0 0 1
37.778316 26.759635 -28.289732 54.254844 0.616297 2.119314 0.108732 -0.004035 -36786.400000 0 0 1
-37.094694 26.975735 -29.473242 54.519525 -0.628757 2.141946 0.084908 -0.006400 -279125.000000 0 0 1
-36.633544 25.621835 -30.068142 53.875673 -0.610329 2.162893 0.075843 -0.004168 246156.000000 0 0 1
-35.699898 24.819335 -29.407032 52.490529 -0.607512 2.165466 0.068195 0.002663 610588.000000 0 0 1
-34.329865 25.227535 -29.328842 51.721844 -0.633739 2.173716 0.041662 0.005916 647021.000000 0 0 1
-33.479514 24.376135 -28.389132 50.209727 -0.629331 2.171728 0.026240 0.004463 -115657.000000 0 0 1
-33.013984 23.098735 -28.876512 49.571440 -0.610501 2.192626 0.036308 -0.002216 152650.000000 0 0 1
-33.250924 22.024535 -27.969362 48.713338 -0.585025 2.182377 0.033707 0.000352 -176940.000000 0 0 1
-32.765044 20.697035 -28.577282 48.151598 -0.563389 2.206179 0.042601 -0.004514 -693797.000000 0 0 1
-31.396344 20.606035 -28.802382 47.327754 -0.580805 2.225057 0.080558 -0.011222 -781190.000000 0 0 1
-31.199894 19.297135 -29.137182 46.848567 -0.553912 2.242019 0.078257 -0.016241 -48562.500000 0 0 1
-29.691434 18.966735 -29.218192 45.771400 -0.568458 2.263150 0.098944 -0.018938 147223.000000 0 0 1
-28.928954 19.570835 -30.285332 46.228815 -0.594789 2.285135 0.109610 -0.027221 845002.000000 0 0 1
-27.769404 18.822235 -30.680142 45.460834 -0.595674 2.311585 0.113219 -0.035105 367149.000000 0 0 1
-27.916354 17.495435 -31.434382 45.536067 -0.559827 2.332725 0.105262 -0.035734 -426737.000000 0 0 1
-28.559794 16.440835 -30.758862 45.078492 -0.522333 2.321755 0.075231 -0.025965 217673.000000 0 0 1
-28.314004 15.211735 -31.430992 44.955389 -0.493003 2.345018 0.053939 -0.023936 -189227.000000 0 0 1
-28.811334 14.004935 -30.650192 44.335826 -0.452459 2.334109 0.050246 -0.023938 706154.000000 0 0 1
-30.242784 14.033135 -30.507672 45.191514 -0.434448 2.311863 0.048992 -0.016874 762349.000000 0 0 1
-30.861224 12.801235 -30.120762 44.983853 -0.393200 2.304454 0.046986 -0.005305 69410.400000 0 0 1
-30.422284 11.994135 -28.838232 43.600668 -0.375544 2.293503 0.034009 -0.018770 -423419.000000 0 0 1
-30.938474 12.521835 -27.645882 43.339132 -0.384580 2.262560 0.017852 -0.013021 126733.000000 0 0 1
-31.021484 11.508535 -26.697582 42.515171 -0.355247 2.249718 0.025861 -0.008499 54611.100000 0 0 1
-31.038154 12.129935 -25.285992 41.831612 -0.372557 2.219898 0.027554 -0.009130 152481.000000 0 0 1
-29.703424 12.402735 -24.920452 40.708109 -0.395546 2.229604 0.031857 -0.015745 -160236.000000 0 0 1
-29.638034 13.209935 -23.768752 40.222743 -0.419280 2.203005 0.035540 -0.006898 -519046.000000 0 0 1
-28.233824 13.510835 -23.271252 39.003111 -0.446328 2.210118 0.056305 -0.003396 -1309580.000000 0 0 1
-27.477284 14.263435 -24.165952 39.273909 -0.478810 2.233586 0.071662 -0.009894 1410030.000000 0 0 1
-26.057584 14.361435 -23.803252 38.103062 -0.503720 2.245553 0.072425 -0.011716 1840330.000000 0 0 1
-25.725004 15.176235 -22.557752 37.429215 -0.532990 2.217649 0.076980 -0.011300 -973575.000000 0 0 1
-25.977044 16.565535 -22.589152 38.203319 -0.567679 2.203451 0.096835 -0.010688 -47057.300000 0 0 1
-26.283574 17.034635 -21.273052 37.862221 -0.575045 2.167422 0.096500 -0.007364 604337.000000 0 0 1
-27.773594 17.118035 -20.810552 38.697270 -0.552349 2.138596 0.086515 -0.002328 634534.000000 0 0 1
-28.474514 15.894235 -20.617552 38.581189 -0.509111 2.134587 0.081578 0.001010 -282508.000000 0 0 1
-29.565414 16.020635 -19.770952 39.008525 -0.496581 2.102308 0.080321 0.005994 -1131000.000000 0 0 1
-30.522544 14.779235 -19.809852 39.274441 -0.450934 2.099478 0.062579 -0.007174 242198.000000 0 0 1
-31.330364 14.608935 -20.936052 40.414490 -0.436315 2.115346 0.052421 -0.004302 -40121.800000 0 0 1
-32.265404 15.600535 -21.260352 41.670560 -0.450366 2.106215 0.033621 0.001867 -631589.000000 0 0 1
-32.782084 15.637835 -22.723152 42.843302 -0.445098 2.129843 0.021733 0.009438 -38314.200000 0 0 1
-33.800794 14.688235 -23.002652 43.443756 -0.409934 2.128785 0.031180 0.000782 155769.000000 0 0 1
-34.308720 15.070435 -24.271552 44.646551 -0.413886 2.145562 0.026333 0.002671 25759.900000 0 0 1
-35.693223 14.458435 -24.589152 45.691125 -0.384874 2.139049 0.032402 -0.005364 58542.100000 0 0 1
-35.705555 13.078535 -25.023152 45.520247 -0.351111 2.152819 0.038068 -0.002508 -3046.270000 0 0 1
-35.647846 12.134135 -23.902252 44.601836 -0.328087 2.136373 0.026020 -0.003549 -212683.000000 0 0 1
-35.509163 10.683335 -24.446952 44.414950 -0.292247 2.153666 0.037683 -0.016692 -207635.000000 0 0 1
-36.710274 10.162335 -24.938852 45.528712 -0.270062 2.150482 0.039956 -0.012228 -122559.000000 0 0 1
-36.447844 9.076135 -25.839162 45.590392 -0.244053 2.173374 0.045465 -0.005574 593657.000000 0 0 1
37.722246 8.574335 -26.284142 46.769041 0.223504 2.167597 0.062595 -0.001880 630773.000000 0 0 1
37.001516 7.881935 -25.291992 45.507383 0.209880 2.160095 0.041982 0.001996 751799.000000 0 0 1
35.721536 7.328835 -25.671002 44.595294 0.202358 2.184188 0.052432 -0.000345 722176.000000 0 0 1
35.065546 6.653835 -24.457152 43.266827 0.187525 2.171549 0.067304 -0.013515 -414945.000000 0 0 1
35.685326 5.525835 -23.948552 43.330249 0.153629 2.156395 0.063947 -0.016394 -149938.000000 0 0 1
34.877156 4.838835 -23.028052 42.072812 0.137859 2.149977 0.079809 -0.023242 -70966.000000 0 0 1
35.688296 3.699535 -22.427652 42.312416 0.103293 2.129455 0.073799 -0.018526 -64644.100000 0 0 1
36.067126 2.709035 -23.343852 43.047786 0.074970 2.143942 0.078949 -0.016453 -230403.000000 0 0 1
37.122786 1.975435 -22.822352 43.621821 0.053163 2.121382 0.123025 -0.015601 -422708.000000 0 0 1
37.694276 0.780835 -23.602252 44.480720 0.020712 2.130125 0.136945 -0.021406 -97463.200000 0 0 1
36.974806 -0.419665 -23.667752 43.903016 -0.011350 2.140155 0.099740 -0.031210 6873.440000 0 0 1
37.767516 -1.412965 -24.297252 44.930370 -0.037395 2.142155 0.112346 -0.030793 247111.000000 0 0 1
-23.845424 28.755235 26.803327 45.977018 -0.878470 0.948414 0.039722 -0.009312 -354614.000000 0 0 1
-25.112394 29.058635 26.232537 46.510027 -0.858118 0.971552 0.032350 -0.019639 596962.000000 0 0 1
-25.349534 28.347635 25.052917 45.539389 -0.841174 0.988268 0.028012 -0.006109 -147320.000000 0 0 1
-25.739144 26.845735 25.186087 44.916990 -0.806439 0.975535 0.042431 -0.018639 134284.000000 0 0 1
-26.987604 26.567835 25.834747 45.843373 -0.777560 0.972127 0.049542 -0.014396 660634.000000 0 0 1
-27.006164 26.658035 27.279127 46.734725 -0.778911 0.947516 0.050841 -0.013454 -920155.000000 0 0 1
-26.426584 25.420835 28.004007 46.139003 -0.766002 0.918581 0.056179 -0.009541 406009.000000 0 0 1
-25.057464 25.417435 28.385267 45.603135 -0.792530 0.898938 0.068621 -0.003874 -2815.650000 0 0 1
-24.784324 26.248535 29.453227 46.591211 -0.814082 0.886455 0.065851 -0.013481 -720010.000000 0 0 1
-23.320624 26.129135 29.876067 46.034363 -0.842132 0.864534 0.084088 -0.010261 -781327.000000 0 0 1
-22.368724 26.681335 28.956857 45.285241 -0.873095 0.877036 0.087207 -0.016361 710056.000000 0 0 1
-21.082824 26.446235 29.543317 44.907643 -0.897768 0.852811 0.113348 -0.022833 507092.000000 0 0 1
-20.316824 25.108835 29.371817 43.656965 -0.890501 0.832828 0.111419 -0.017070 -382775.000000 0 0 1
-19.843124 24.944935 28.029527 42.445892 -0.898819 0.849500 0.102262 -0.018423 172764.000000 0 0 1
-20.714624 24.169735 27.225617 41.886824 -0.862225 0.863238 0.107211 -0.026064 -56757.000000 0 0 1
-20.597224 22.638835 27.354827 41.049349 -0.832583 0.841441 0.103872 -0.011328 154260.000000 0 0 1
-21.070924 21.989735 28.551797 41.746107 -0.806733 0.817648 0.081857 -0.014998 154257.000000 0 0 1
-21.089724 20.606235 28.439837 40.966056 -0.773803 0.803448 0.091129 -0.013614 123283.000000 0 0 1
-21.425724 20.007935 29.808357 41.808101 -0.751193 0.777057 0.088916 -0.021605 306842.000000 0 0 1
-20.323324 20.056235 30.716597 41.938043 -0.778784 0.748915 0.084259 -0.026691 504823.000000 0 0 1
-20.714124 19.732735 32.033814 42.949052 -0.761139 0.728977 0.080202 -0.030341 -156781.000000 0 0 1
-19.660124 20.272335 33.016109 43.445961 -0.800728 0.707583 0.094439 -0.031725 -411457.000000 0 0 1
-19.693524 21.701335 33.247218 44.318849 -0.833864 0.722459 0.062077 -0.024608 105723.000000 0 0 1
-18.850224 22.429535 32.349672 43.645347 -0.871890 0.735949 0.074947 -0.027477 1059700.000000 0 0 1
-17.362024 22.535635 32.882459 43.480465 -0.914351 0.713221 0.076165 -0.015470 941621.000000 0 0 1
-16.713424 21.283835 33.004267 42.680462 -0.905106 0.686787 0.081330 -0.029425 -99331.700000 0 0 1
-15.354724 21.399735 33.385758 42.524406 -0.948409 0.667945 0.058478 -0.022486 -182300.000000 0 0 1
-14.652124 20.015835 33.433185 41.630473 -0.938898 0.638326 0.054163 -0.017684 457662.000000 0 0 1
-13.248824 20.016935 33.695287 41.371263 -0.986114 0.618996 0.038432 -0.023705 734944.000000 0 0 1
-12.898424 19.963435 -32.522102 40.281450 -0.997166 2.510480 0.045714 -0.023139 116068.000000 0 0 1
-11.384524 20.074335 -32.233372 39.643115 -1.054905 2.520235 0.043554 -0.022653 588310.000000 0 0 1
-10.725724 21.360135 -32.373592 40.241098 -1.105440 2.505614 0.051820 -0.025702 -1019630.000000 0 0 1
-9.381024 21.295535 -32.129362 39.671140 -1.155857 2.514765 0.054478 -0.021529 -1242170.000000 0 0 1
-8.677224 22.661335 -32.085512 40.228229 -1.205110 2.494081 0.062905 -0.027730 15214.900000 0 0 1
-8.928124 23.537935 -30.934962 39.883802 -1.208254 2.458505 0.068133 -0.026881 240199.000000 0 0 1
-8.267624 23.062435 -29.765322 38.551315 -1.226579 2.452929 0.072555 -0.031131 23791.400000 0 0 1
-7.669424 24.161035 -28.869672 38.419183 -1.263427 2.421037 0.078250 -0.029409 -84795.600000 0 0 1
-6.521224 24.770535 -29.401102 38.993981 -1.313372 2.424913 0.083678 -0.029075 -120782.000000 0 0 1
-6.095824 25.830335 -28.580452 39.002660 -1.339042 2.393198 0.098759 -0.025953 138919.000000 0 0 1
-4.714924 26.447535 -28.915882 39.469366 -1.394375 2.392954 0.094198 -0.034138 66053.900000 0 0 1
-3.593124 25.669435 -28.558712 38.567220 -1.431723 2.404598 0.114933 -0.028334 137661.000000 0 0 1
-2.424624 25.828035 -29.315632 39.145529 -1.477195 2.417179 0.128162 -0.028729 371035.000000 0 0 1
-1.487224 27.050435 -29.027962 39.705924 -1.515872 2.390691 0.142202 -0.047124 -239818.000000 0 0 1
-1.026224 27.117335 -27.723422 38.794215 -1.532971 2.366888 0.149706 -0.063834 254435.000000 0 0 1
-0.114824 28.197335 -27.637322 39.483217 -1.566724 2.346161 0.160150 -0.057355 -844075.000000 0 0 1
0.422076 28.623535 -26.268432 38.852483 1.556052 2.313262 0.160527 -0.065609 78720.200000 0 0 1
1.534576 27.940735 -25.675042 37.976932 1.515929 2.313211 0.197664 -0.074019 1457220.000000 0 0 1
2.771076 28.152435 -26.434082 38.716910 1.472681 2.322320 0.193684 -0.072923 357333.000000 0 0 1
3.914876 28.192135 -25.380562 38.135228 1.432815 2.299015 0.186330 -0.073764 -313662.000000 0 0 1
4.305176 26.924635 -24.961652 36.966939 1.412241 2.312090 0.191560 -0.064548 -292334.000000 0 0 1
5.552776 27.022035 -24.343252 36.791543 1.368127 2.293818 0.159136 -0.053987 -252753.000000 0 0 1
6.228476 25.715135 -23.855852 35.625324 1.333162 2.304509 0.148603 -0.047575 272998.000000 0 0 1
7.446076 26.004635 -23.185952 35.626864 1.291922 2.279434 0.135330 -0.045586 -245587.000000 0 0 1
8.030976 24.836235 -22.648952 34.558793 1.258051 2.285475 0.119398 -0.031427 -394692.000000 0 0 1
9.482476 25.043735 -22.249652 34.815988 1.208841 2.264077 0.111194 -0.014018 -1635420.000000 0 0 1
9.621676 26.108435 -21.302352 35.043077 1.217712 2.224197 0.114421 -0.009874 453081.000000 0 0 1
10.945376 26.651835 -21.230652 35.789134 1.181117 2.205843 0.112126 -0.016074 676141.000000 0 0 1
12.041276 25.761235 -20.602652 35.115564 1.133552 2.197786 0.078769 0.003726 -529183.000000 0 0 1
12.505576 24.765235 -21.446252 35.066337 1.103185 2.228866 0.075533 -0.009094 -187203.000000 0 0 1
12.502176 23.515735 -20.790152 33.786456 1.082149 2.233613 0.056320 0.002368 -494605.000000 0 0 1
12.711876 22.233335 -21.623452 33.518452 1.051409 2.271978 0.062984 -0.011850 -308397.000000 0 0 1
11.689276 21.867435 -22.518652 33.494978 1.079891 2.308107 0.068622 -0.026562 -134697.000000 0 0 1
11.939376 20.748835 -23.333352 33.429151 1.048644 2.343389 0.062162 -0.021762 -141637.000000 0 0 1
11.152476 20.741435 -24.652752 34.093152 1.077453 2.379076 0.075810 -0.026111 -1126760.000000 0 0 1
9.826276 20.410435 -24.602152 33.442599 1.122112 2.397427 0.067718 -0.029457 -1296570.000000 0 0 1
9.281576 20.330235 -25.887152 34.199572 1.142517 2.429420 0.060026 -0.029343 -151349.000000 0 0 1
7.747976 20.149635 -25.973912 33.773999 1.203704 2.448151 0.086592 -0.043495 -66671.900000 0 0 1
6.904676 21.162935 -25.502842 33.851725 1.255423 2.423967 0.112645 -0.048987 -103668.000000 0 0 1
6.802276 21.485535 -24.186552 33.058864 1.264182 2.391493 0.118541 -0.048379 -1182410.000000 0 0 1
5.350576 21.640335 -23.780352 32.595059 1.328407 2.388488 0.155347 -0.053329 -311909.000000 0 0 1
4.629676 22.748835 -24.357552 33.648681 1.370026 2.380204 0.153457 -0.047484 -114086.000000 0 0 1
3.287176 22.744835 -23.936152 33.182411 1.427266 2.376547 0.185709 -0.051834 -374634.000000 0 0 1
2.585976 23.932735 -24.611652 34.426683 1.463162 2.367278 0.170629 -0.044555 96096.700000 0 0 1
1.166476 23.873835 -24.523052 34.244718 1.521975 2.369012 0.188819 -0.064949 69218.000000 0 0 1
0.577776 24.669335 -25.501342 35.485608 1.547380 2.372639 0.184350 -0.056031 -445618.000000 0 0 1
-0.947724 24.583635 -25.453272 35.399468 -1.532264 2.373202 0.187739 -0.054843 -407230.000000 0 0 1
-1.481224 23.332835 -25.747092 34.778268 -1.507399 2.404344 0.203868 -0.054992 -174108.000000 0 0 1
-2.800024 23.454135 -26.234572 35.301407 -1.451976 2.408576 0.186702 -0.041019 483655.000000 0 0 1
-3.447924 22.085935 -26.828422 34.920494 -1.415932 2.446933 0.164992 -0.042063 264393.000000 0 0 1
-2.778324 21.679235 -28.038732 35.551073 -1.443335 2.479470 0.197326 -0.059441 247349.000000 0 0 1
-3.328024 20.454735 -28.566702 35.292044 -1.409508 2.513990 0.154003 -0.049846 1903640.000000 0 0 1
-4.787524 20.609235 -29.260002 36.108291 -1.342545 2.515529 0.109166 -0.040650 1532370.000000 0 0 1
-4.896924 21.241335 -30.580292 37.554340 -1.344218 2.522309 0.126645 -0.039596 90266.500000 0 0 1
-4.289924 22.538135 -30.680762 38.310314 -1.382706 2.499507 0.142689 -0.040188 -33159.500000 0 0 1
-3.876624 22.960735 -32.121082 39.673511 -1.403537 2.514327 0.124257 -0.034245 1279230.000000 0 0 1
-2.759724 22.167435 -32.673492 39.579898 -1.446939 2.541897 0.121600 -0.033721 1520320.000000 0 0 1
-2.287024 22.489835 33.626627 40.518801 -1.469453 0.591865 0.120361 -0.018852 -485666.000000 0 0 1
-1.091824 21.719635 33.090116 39.596596 -1.520570 0.581425 0.138981 -0.013992 -325653.000000 0 0 1
-1.334124 20.336135 32.829052 38.640457 -1.505287 0.555564 0.115448 -0.007364 -294546.000000 0 0 1
-0.234524 19.747335 32.219985 37.790736 -1.558921 0.549876 0.119543 -0.005744 -293348.000000 0 0 1
-0.619624 18.289235 31.801613 36.690907 -1.536930 0.522160 0.091901 0.007557 588295.000000 0 0 1
-1.487824 18.175735 30.665197 35.678079 -1.489121 0.536512 0.079424 0.008952 361243.000000 0 0 1
-1.836624 16.850935 30.344937 34.758343 -1.462232 0.509423 0.060139 0.014061 258453.000000 0 0 1
-2.883024 16.727735 29.163197 33.743459 -1.400123 0.527114 0.065497 0.026185 1850960.000000 0 0 1
-4.233324 17.153535 29.516087 34.400061 -1.328841 0.539386 0.050910 0.018231 1270950.000000 0 0 1
-4.510624 18.477335 29.139877 34.797846 -1.331363 0.578279 0.049647 0.014142 -769713.000000 0 0 1
-5.994924 18.815435 29.117847 35.182506 -1.262348 0.595937 0.027954 0.005179 -163216.000000 0 0 1
-6.675324 18.012035 28.133037 34.065542 -1.215886 0.599088 0.018758 0.005896 551927.000000 0 0 1
-8.091824 18.174635 28.170847 34.487557 -1.151919 0.614883 0.034861 0.004157 586261.000000 0 0 1
-8.949624 17.145035 27.363547 33.508383 -1.089708 0.615269 0.040186 -0.004202 160406.000000 0 0 1
-9.138724 15.798535 27.898167 33.337932 -1.046370 0.579330 0.045055 -0.012801 78446.200000 0 0 1
-9.855224 15.777235 29.104787 34.541790 -1.012450 0.568710 0.049904 -0.008058 -613871.000000 0 0 1
-10.470524 14.411735 29.468007 34.433900 -0.942488 0.543730 0.043084 -0.013641 75932.400000 0 0 1
-9.592224 13.318235 29.798367 34.019536 -0.946620 0.503458 0.066128 -0.010782 652198.000000 0 0 1
-8.944824 13.380635 31.099257 35.017354 -0.981532 0.477580 0.073064 -0.010901 -13179.900000 0 0 1
-9.825624 13.001435 32.284870 36.164804 -0.923636 0.467461 0.114861 -0.020026 -243477.000000 0 0 1
-10.125624 11.593435 32.306315 35.785947 -0.852877 0.444640 0.131393 -0.032024 390351.000000 0 0 1
-10.964224 11.212035 33.391975 36.891028 -0.796572 0.439060 0.143912 -0.034233 -49972.700000 0 0 1
-11.458024 9.745335 33.274861 36.516767 -0.704799 0.424557 0.138438 -0.036641 -346071.000000 0 0 1
-10.443124 8.808935 33.544797 36.220293 -0.700717 0.386769 0.160062 -0.043124 -31608.900000 0 0 1
-10.478724 8.182935 -32.790992 35.383799 -0.662991 2.756393 0.181247 -0.056656 -177986.000000 0 0 1
-9.637624 8.825935 -31.629532 34.222919 -0.741465 2.749786 0.146868 -0.059788 -130485.000000 0 0 1
-10.173324 10.036935 -31.039312 34.171267 -0.778650 2.710107 0.127066 -0.052727 338573.000000 0 0 1
-9.298324 10.829035 -30.227532 33.427990 -0.861303 2.700435 0.125213 -0.057391 650304.000000 0 0 1
-8.219824 11.650135 -31.037382 34.155676 -0.956351 2.710964 0.119423 -0.046581 688153.000000 0 0 1
-8.818424 12.801935 -31.505042 35.131493 -0.967603 2.683223 0.100433 -0.034716 116325.000000 0 0 1
-7.779224 13.675035 -31.867722 35.539761 -1.053586 2.683004 0.074417 -0.022970 29772.900000 0 0 1
-8.198824 15.132035 -32.056942 36.384704 -1.074256 2.648885 0.078491 -0.014695 248657.000000 0 0 1
-9.235324 15.333635 -33.016862 37.556953 -1.028693 2.644797 0.102184 -0.016639 423598.000000 0 0 1
-9.404324 16.709835 -33.322592 38.445481 -1.058178 2.619443 0.082333 -0.014888 -716754.000000 0 0 1
-9.756424 17.020135 32.752361 38.178397 -1.050294 0.539673 0.070511 -0.019651 544906.000000 0 0 1
-10.940024 16.449735 32.217722 37.792321 -0.983908 0.550059 0.060938 -0.017947 548374.000000 0 0 1
-12.174424 16.844235 32.826290 38.852416 -0.944955 0.564424 0.053028 -0.026436 -281528.000000 0 0 1
-13.282024 16.110935 32.017664 38.224406 -0.881347 0.577878 0.062552 -0.035352 -358471.000000 0 0 1
-13.294024 14.719635 32.286527 37.892197 -0.836244 0.550883 0.060435 -0.035351 563680.000000 0 0 1
-14.543724 14.282635 32.814126 38.630046 -0.776341 0.555862 0.036481 -0.027033 210154.000000 0 0 1
-14.742324 12.720035 32.781579 38.128301 -0.711892 0.535977 0.040365 -0.028639 -36543.400000 0 0 1
-14.969524 12.149735 31.486437 36.920163 -0.681793 0.549425 0.024477 -0.025471 215581.000000 0 0 1
-13.782824 11.634135 30.902997 35.781484 -0.701061 0.528313 0.055633 -0.022702 -116759.000000 0 0 1
-13.879024 11.056735 29.478847 34.407574 -0.672695 0.541853 0.045321 -0.017828 -662773.000000 0 0 1
-14.699724 9.944735 29.308997 34.263639 -0.594797 0.544480 0.042329 -0.016819 7590.680000 0 0 1
-14.618124 9.500235 27.965517 32.954729 -0.576301 0.557455 0.033257 -0.012753 547210.000000 0 0 1
-15.614224 8.323435 27.744797 32.906798 -0.489750 0.567713 0.043224 -0.014709 444384.000000 0 0 1
-14.952224 7.162535 28.212457 32.723289 -0.446730 0.531294 0.037433 -0.015231 2009.540000 0 0 1
-15.583924 5.951335 27.803677 32.424089 -0.364797 0.540404 0.050380 -0.014563 -444846.000000 0 0 1
-14.885824 4.561135 27.892987 31.943864 -0.297325 0.509092 0.072335 -0.018046 -736815.000000 0 0 1
-13.866324 4.349135 26.984807 30.649139 -0.303930 0.494002 0.067029 -0.024171 -571246.000000 0 0 1
-14.237724 4.358335 25.608737 29.622885 -0.297054 0.526658 0.063868 -0.020761 -206780.000000 0 0 1
-13.028624 4.241035 24.607997 28.165315 -0.314699 0.508042 0.051923 -0.012380 366733.000000 0 0 1
-12.339724 3.010735 24.729387 27.800646 -0.239312 0.474490 0.054799 -0.020256 237643.000000 0 0 1
-11.432124 2.829835 23.643807 26.414599 -0.242656 0.462132 0.049407 -0.021211 303648.000000 0 0 1
-10.340324 1.729335 23.824637 26.029334 -0.165708 0.414545 0.051822 -0.023677 -398767.000000 0 0 1
-9.100824 2.203335 24.260737 26.005058 -0.237532 0.368347 0.041555 -0.025036 -624441.000000 0 0 1
-8.269924 1.079935 24.305507 25.696607 -0.129851 0.330548 0.051725 -0.023613 -1560360.000000 0 0 1
-6.803224 1.376935 24.356267 25.326026 -0.199697 0.277625 0.056241 -0.029967 -1591470.000000 0 0 1
-6.351624 1.724635 23.028887 23.950932 -0.265134 0.278377 0.043897 -0.025684 282870.000000 0 1 0
-4.967924 1.928535 22.803817 23.418232 -0.370290 0.229574 0.047362 -0.024365 256061.000000 0 1 0
-4.400924 3.265135 23.401577 24.034622 -0.638310 0.230023 0.064678 -0.026205 -546767.000000 0 1 0
-4.312424 3.235935 24.824887 25.403608 -0.643741 0.213860 0.075152 -0.029895 59891.600000 0 0 1
-3.926524 4.476835 25.356047 26.045898 -0.850792 0.230667 0.079212 -0.028512 146316.000000 0 0 1
4.424076 -24.190765 12.844748 27.744425 -1.389912 1.089457 0.164793 -0.028584 363380.000000 0 0 1
3.727376 -25.036125 13.702148 28.782803 -1.423002 1.074635 0.181555 -0.046153 65549.700000 0 0 1
2.434876 -25.454565 13.276548 28.811981 -1.475431 1.091900 0.146956 -0.038738 393778.000000 0 0 1
1.875376 -26.576775 14.125148 30.155627 -1.500349 1.083308 0.130164 -0.020447 -164935.000000 0 0 1
1.729276 -26.194165 15.436648 30.453486 -1.504874 1.039220 0.168559 -0.037355 -19597.400000 0 0 1
1.739776 -27.394755 16.250948 31.899729 -1.507374 1.036264 0.168919 -0.039758 -168040.000000 0 0 1
1.445976 -27.099455 17.735948 32.419673 -1.517489 0.991932 0.154600 -0.044366 -17074.500000 0 0 1
2.485276 -26.579805 18.543948 32.504471 -1.477565 0.963676 0.176743 -0.051603 -164691.000000 0 0 1
2.251276 -26.724515 19.913848 33.404031 -1.486755 0.932098 0.166198 -0.055182 515063.000000 0 0 1
3.192776 -25.883155 20.872648 33.403577 -1.448063 0.895841 0.135717 -0.046653 618773.000000 0 0 1
2.815376 -24.513165 20.995948 32.398325 -1.456446 0.865766 0.126321 -0.041441 268634.000000 0 0 1
3.886276 -23.799165 21.589548 32.366835 -1.408930 0.840585 0.108093 -0.051566 390215.000000 0 0 1
3.384676 -22.400865 22.126848 31.667842 -1.420835 0.797194 0.126508 -0.045051 -71419.100000 0 0 1
2.808576 -21.558265 21.153748 30.333611 -1.441248 0.799075 0.140430 -0.045786 60277.100000 0 0 1
3.695276 -21.036765 20.203748 29.400544 -1.396912 0.813183 0.120874 -0.027981 -35206.800000 0 0 1
2.943476 -19.904865 19.499048 28.019289 -1.423983 0.801103 0.089654 -0.032076 249180.000000 0 0 1
2.778076 -18.787865 20.350448 27.835990 -1.423995 0.750887 0.073265 -0.031598 450803.000000 0 0 1
1.745876 -17.878465 19.929248 26.830254 -1.473453 0.733568 0.075859 -0.037305 593583.000000 0 0 1
1.443976 -16.662465 20.844748 26.725013 -1.484352 0.676176 0.087835 -0.034043 -219694.000000 0 0 1
2.529276 -15.781065 20.812448 26.241137 -1.411875 0.654877 0.043669 -0.008770 18047.400000 0 0 1
2.116776 -14.510865 21.306648 25.865405 -1.425943 0.602801 0.055560 -0.006755 135822.000000 0 0 1
3.191376 -13.502265 20.910448 25.094678 -1.338697 0.585814 0.000074 0.006008 -936098.000000 0 0 1
3.447176 -13.035065 19.577448 23.771252 -1.312261 0.603108 -0.019739 -0.000368 -241716.000000 0 1 0
2.370976 -12.589665 18.774448 22.728860 -1.384649 0.598790 -0.011923 0.003440 182196.000000 0 1 0
1.475676 -11.468865 19.339448 22.532793 -1.442831 0.538887 -0.002284 -0.002777 -369305.000000 0 1 0
2.146476 -10.207465 19.232448 21.878911 -1.363531 0.496951 0.000767 0.003321 3608.440000 0 1 0
1.722076 -9.282865 20.236748 22.330766 -1.387370 0.436523 0.021608 -0.017445 -209273.000000 0 1 0
0.251276 -8.846365 20.126548 21.986342 -1.542400 0.414268 0.042753 -0.027196 -329454.000000 0 1 0
0.013176 -8.089865 21.300048 22.784603 -1.569168 0.362977 0.057413 -0.033456 694328.000000 0 1 0
-1.361324 -7.682165 21.144148 22.537610 1.395411 0.353486 0.061492 -0.031766 761713.000000 0 1 0
-1.927724 -7.005865 22.389548 23.539119 1.302283 0.313813 0.060832 -0.024634 -204332.000000 0 1 0
-2.211724 -7.933465 23.433348 24.838547 1.298915 0.337979 0.060237 -0.016502 207510.000000 0 1 0
-2.575224 -7.304965 24.668148 25.855596 1.231869 0.304243 0.061446 -0.006640 -42902.800000 0 0 1
-2.753224 -8.420765 25.700248 27.184413 1.254796 0.331965 0.070174 0.001640 138496.000000 0 0 1
-1.516324 -8.977465 26.085848 27.629072 1.403472 0.335806 0.075064 -0.005534 179741.000000 0 0 1
-1.797724 -10.077865 26.914548 28.795626 1.394270 0.363453 0.091723 -0.007873 4215.580000 0 0 1
-0.565924 -10.933865 27.281948 29.396843 1.519084 0.381635 0.116549 -0.015811 -426303.000000 0 0 1
0.260576 -10.319365 28.221748 30.050362 -1.545551 0.350654 0.111748 -0.022458 275923.000000 0 0 1
1.474776 -11.111565 28.217948 30.362715 -1.438843 0.378116 0.141631 -0.025762 601338.000000 0 0 1
2.463976 -10.528065 29.259048 31.193000 -1.340895 0.353980 0.169948 -0.036735 -291204.000000 0 0 1
2.069076 -10.601165 30.603148 32.453327 -1.378045 0.339295 0.172720 -0.040346 -214044.000000 0 0 1
2.929376 -9.964365 31.513948 33.181301 -1.284867 0.318359 0.228404 -0.058082 80620.300000 0 0 1
2.209676 -9.679165 32.864548 34.331435 -1.346351 0.293377 0.224929 -0.067803 -294019.000000 0 0 1
1.710276 -10.783265 33.595648 35.325224 -1.413502 0.314218 0.212000 -0.071781 56644.200000 0 0 1
2.071976 -10.737565 -32.605391 34.390404 -1.380174 2.817989 0.184345 -0.068400 302886.000000 0 0 1
3.560776 -11.034865 -32.237991 34.259822 -1.258660 2.796326 0.168279 -0.054145 626690.000000 0 0 1
4.548876 -10.120465 -32.696591 34.528005 -1.148381 2.814432 0.155313 -0.061368 178934.000000 0 0 1
4.914976 -9.056465 -31.770691 33.399900 -1.073572 2.827967 0.167398 -0.064328 -380703.000000 0 0 1
3.862876 -8.000765 -31.407391 32.639826 -1.120992 2.865916 0.158184 -0.050896 -416355.000000 0 0 1
3.523676 -7.106465 -32.410291 33.366826 -1.110482 2.901571 0.199951 -0.061820 15621.200000 0 0 1
3.047376 -5.889065 -31.873491 32.555906 -1.093276 2.936483 0.166082 -0.034909 54771.400000 0 0 1
3.080676 -4.649465 -32.817191 33.287777 -0.985623 2.973246 0.171718 -0.032780 106027.000000 0 0 1
2.108276 -4.694565 33.781448 34.171187 -1.148701 0.151177 0.177782 -0.045522 -183177.000000 0 0 1
2.413476 -3.562965 33.001548 33.280952 -0.975414 0.129669 0.193869 -0.030253 638794.000000 0 0 1
1.573176 -3.495765 31.689548 31.920569 -1.147923 0.120384 0.204285 -0.033035 1268500.000000 0 0 1
0.222376 -2.995765 31.794148 31.935747 -1.496702 0.094203 0.178407 -0.034336 494540.000000 0 0 1
-0.470824 -3.450265 30.700748 30.897604 1.435174 0.112943 0.168068 -0.022962 -130285.000000 0 0 1
-2.013724 -3.383565 30.718548 30.969869 1.033952 0.127483 0.129877 -0.030670 199761.000000 0 0 1
-2.584524 -2.118965 30.442748 30.625654 0.686738 0.109346 0.122351 -0.031801 -1357850.000000 0 0 1
-3.949724 -2.250665 30.407248 30.745188 0.517939 0.148404 0.080496 -0.025481 -1126130.000000 0 0 1
-4.601924 -1.053465 29.671848 30.045067 0.225041 0.157783 0.047284 -0.017683 -439292.000000 0 0 1
-4.450424 -1.073465 28.250648 28.619185 0.236684 0.160655 0.054014 -0.018147 -300877.000000 0 0 1
-5.466524 -0.461165 27.497648 28.039547 0.084162 0.196920 0.038771 -0.023329 -7354.740000 0 0 1
-5.861424 1.034235 27.682348 28.314984 -0.174650 0.211785 0.065252 -0.025784 55622.000000 0 0 1
-6.802624 1.131935 28.734948 29.550875 -0.164886 0.235537 0.060256 -0.022294 -239241.000000 0 0 1
-7.316924 2.467635 28.764348 29.782786 -0.325272 0.262268 0.070533 -0.029063 121723.000000 0 0 1
-8.745324 2.700235 29.323048 30.718286 -0.299477 0.302551 0.066701 -0.031434 296287.000000 0 0 1
-9.736224 2.450635 28.359048 30.083804 -0.246581 0.340259 0.060901 -0.028073 -977215.000000 0 0 1
-11.033424 2.732535 28.717348 30.885098 -0.242775 0.376893 0.059782 -0.023587 -650057.000000 0 0 1
-12.078924 1.906535 27.925848 30.485870 -0.156548 0.412738 0.062656 -0.018343 -112697.000000 0 0 1
-12.099124 0.559135 28.348848 30.827887 -0.046180 0.403775 0.072694 -0.022000 96006.900000 0 0 1
-12.398024 -0.258265 27.207448 29.900216 0.020828 0.427653 0.074209 -0.018513 -583585.000000 0 0 1
-11.980124 -1.699765 27.438648 29.988198 0.140941 0.415334 0.085959 -0.018819 248011.000000 0 0 1
-10.623924 -2.040665 27.731848 29.767222 0.189771 0.371941 0.078945 -0.028822 1193600.000000 0 0 1
-9.615424 -1.889965 26.730448 28.470076 0.194081 0.351387 0.094088 -0.030004 -86839.600000 0 0 1
-9.741424 -2.734565 25.463748 27.400286 0.273672 0.378218 0.064447 -0.023409 -879115.000000 0 0 1
-10.746324 -2.282665 24.555548 26.901096 0.209303 0.420687 0.051081 -0.023062 428614.000000 0 0 1
-10.639624 -2.701165 23.186748 25.653912 0.248625 0.442161 0.051598 -0.020495 -199344.000000 0 0 1
-9.458224 -2.116165 22.397848 24.404913 0.220113 0.408394 0.045992 -0.022738 904223.000000 0 1 0
-8.156724 -2.364465 22.963848 24.483896 0.282146 0.354223 0.049860 -0.024591 165236.000000 0 1 0
-7.178924 -1.881365 22.097448 23.310378 0.256304 0.324011 0.035444 -0.020769 568921.000000 0 1 0
-5.677324 -2.207565 22.482148 23.292753 0.370848 0.264592 0.036318 -0.020135 990263.000000 0 1 0
-5.275724 -3.511565 22.221848 23.107897 0.587269 0.277818 0.043482 -0.025034 -270070.000000 0 1 0
-5.673224 -4.339365 23.274448 24.345749 0.652960 0.297759 0.047015 -0.016316 -258929.000000 0 1 0
-5.648824 -5.915565 23.050448 24.458665 0.808460 0.340988 0.071899 -0.017403 -271994.000000 0 1 0
-6.587524 -6.454865 22.140448 23.984583 0.775227 0.394701 0.069843 -0.021807 10203.800000 0 1 0
-6.274324 -6.230665 20.794248 22.596218 0.781907 0.402069 0.063269 -0.024321 -633809.000000 0 1 0
-7.472924 -6.425965 19.871348 22.181256 0.710213 0.460428 0.061568 -0.019287 251240.000000 0 1 0
-8.467924 -5.393965 20.120148 22.486017 0.567173 0.462847 0.062364 -0.019320 491704.000000 0 1 0
-9.339024 -5.163365 19.009848 21.800276 0.505052 0.511522 0.062766 -0.022387 633809.000000 0 1 0
-9.976724 -3.695365 19.101648 21.864668 0.354731 0.508181 0.050409 -0.019674 70529.900000 0 1 0
-9.043924 -2.756865 18.666448 20.924368 0.295883 0.468844 0.038006 -0.020050 -167550.000000 0 1 0
-9.521724 -1.405765 18.764548 21.089042 0.146579 0.473940 0.036904 -0.017332 -99487.200000 0 1 0
-8.505424 -0.293065 18.405648 20.277969 0.034443 0.433104 0.011160 -0.007687 822.897000 0 1 0
-7.548224 -0.071465 19.437348 20.851650 0.009468 0.370426 0.018614 0.002661 385284.000000 0 1 0
-7.894724 0.867135 20.463148 21.950376 -0.109399 0.370225 0.036835 -0.000176 -409343.000000 0 1 0
-7.948924 2.340035 19.955648 21.607616 -0.286296 0.393567 0.028633 -0.016506 150615.000000 0 1 0
-8.920724 2.643435 18.978948 21.136876 -0.288082 0.455805 0.014239 -0.023656 334639.000000 0 1 0
-8.607224 4.000535 18.609548 20.890282 -0.435083 0.471642 0.007623 -0.022461 573268.000000 0 1 0
-9.558924 4.565035 17.482848 20.441687 -0.445541 0.544754 0.012106 -0.009861 185086.000000 0 1 0
-10.799924 5.024335 17.972348 21.561252 -0.435438 0.585296 0.019386 -0.002098 55766.600000 0 1 0
-11.531924 5.813635 17.036248 21.377965 -0.466949 0.648639 0.016054 0.018642 108855.000000 0 1 0
-11.056124 7.282135 16.882948 21.454634 -0.582433 0.665005 0.007945 0.012557 -102358.000000 0 1 0
-9.725024 7.502835 16.448248 20.528358 -0.657118 0.641423 -0.007561 -0.001261 384293.000000 0 1 0
-9.464024 8.858735 16.186148 20.737317 -0.752375 0.675279 -0.028163 -0.010623 55987.600000 0 1 0
-8.306824 9.499535 17.007548 21.177847 -0.852281 0.638347 -0.014294 0.000873 -276570.000000 0 1 0
-8.602124 9.958235 18.349548 22.580277 -0.858333 0.622135 0.012686 0.019890 -160895.000000 0 1 0
-8.176424 11.302535 18.608048 23.256411 -0.944528 0.643292 0.038307 0.013703 -179552.000000 0 1 0
-8.916524 12.496435 17.932648 23.606041 -0.951050 0.708001 0.052191 0.000086 -32163.100000 0 1 0
-8.765024 12.538135 16.496648 22.498219 -0.960695 0.747718 0.050717 -0.016741 -80789.500000 0 1 0
-9.425724 13.700535 15.968748 23.055365 -0.968182 0.805673 0.063519 -0.030597 -227291.000000 0 1 0
-9.146224 14.177135 14.527648 22.264257 -0.997846 0.859904 0.067574 -0.028911 549026.000000 0 1 0
-7.971024 15.008335 14.466848 22.317640 -1.082574 0.865546 0.062400 -0.018589 426742.000000 0 1 0
-7.624524 15.353735 13.168248 21.616505 -1.109880 0.915776 0.048441 -0.035631 23766.500000 0 1 0
-6.542324 16.457735 13.168848 22.069835 -1.192427 0.931426 0.029919 -0.031527 621788.000000 0 1 0
-5.223824 16.024635 13.497448 21.593017 -1.255672 0.895557 0.022113 -0.033345 125831.000000 0 1 0
-4.319624 17.105535 13.374548 22.139038 -1.323440 0.922140 0.017190 -0.034080 143179.000000 0 1 0
-2.828024 16.723935 13.319448 21.566071 -1.403281 0.905095 0.029034 -0.043833 73935.800000 0 1 0
-2.145524 16.329635 14.535048 21.966517 -1.440156 0.847724 0.040809 -0.039939 197243.000000 0 1 0
-2.468724 15.022735 14.944948 21.333744 -1.407920 0.794655 0.039712 -0.031953 198172.000000 0 1 0
-1.405624 14.496435 16.009848 21.643420 -1.474135 0.738157 0.043695 -0.026586 1134720.000000 0 1 0
-0.122324 14.327135 15.370948 21.013039 -1.562259 0.750283 0.035580 -0.037826 351499.000000 0 1 0
0.809276 13.757535 16.259348 21.314106 1.512040 0.703095 0.049032 -0.027169 -102564.000000 0 1 0
1.694276 14.717335 17.066048 22.599127 1.456180 0.714892 0.052132 -0.028865 -624693.000000 0 1 0
0.965976 15.537135 17.930548 23.745320 1.508704 0.714960 0.045846 -0.031155 -549233.000000 0 1 0
1.765176 16.502235 18.556648 24.895558 1.464236 0.729692 0.055148 -0.029664 -494732.000000 0 1 0
0.908276 17.641935 19.172948 26.070381 1.519358 0.744495 0.068450 -0.023704 456904.000000 0 0 1
0.266576 18.473335 18.193948 25.929808 1.556367 0.793070 0.044885 -0.024712 738587.000000 0 0 1
-0.966524 17.939035 17.673548 25.201140 -1.516970 0.793577 0.052101 -0.022320 -22333.700000 0 0 1
-1.477424 18.801835 16.510748 25.065845 -1.492379 0.851713 0.048047 -0.022211 -294813.000000 0 0 1
-2.009224 19.999135 17.003748 26.327359 -1.470667 0.868649 0.038407 -0.015367 -65768.100000 0 0 1
-2.489524 20.932535 16.103748 26.527334 -1.452422 0.918438 0.034017 -0.018065 -353957.000000 0 0 1
-3.246724 22.166135 16.628948 27.899833 -1.425358 0.932257 0.031608 -0.011373 355493.000000 0 0 1
-4.435124 21.848535 17.359048 28.255360 -1.370523 0.909218 0.040546 -0.010425 411416.000000 0 0 1
-5.050024 23.009035 17.893948 29.582289 -1.354742 0.921172 0.045696 -0.014563 3181.620000 0 0 1
-5.974724 22.750435 19.116548 30.310428 -1.313976 0.888352 0.042447 -0.011243 -1058010.000000 0 0 1
-7.225624 22.409835 18.651048 30.037842 -1.258890 0.900883 0.037581 -0.015443 -1179210.000000 0 0 1
-7.999424 22.013235 19.797748 30.667966 -1.222242 0.869051 0.033688 -0.016922 -158655.000000 0 0 1
-9.507624 22.158835 19.554348 31.044829 -1.165486 0.889405 0.038350 -0.020038 -270727.000000 0 0 1
-9.919324 23.492935 19.721548 32.237408 -1.171278 0.912513 0.043488 -0.020382 -279995.000000 0 0 1
-11.101524 23.728035 19.010448 32.367586 -1.133185 0.943041 0.042556 -0.018871 -125124.000000 0 0 1
-11.802824 25.100135 19.212648 33.740914 -1.131247 0.965000 0.054178 -0.013809 -62575.700000 0 0 1
-12.697724 25.104935 20.290648 34.687179 -1.102531 0.945964 0.054956 -0.021358 -65107.500000 0 0 1
-13.123324 26.428035 20.524548 35.943285 -1.109898 0.963041 0.060188 -0.017656 -564422.000000 0 0 1
-14.012524 26.568135 21.762048 37.091824 -1.085455 0.943809 0.086719 -0.026732 -242898.000000 0 0 1
-15.368224 26.257535 21.507648 37.258816 -1.041265 0.955440 0.084503 -0.031734 529886.000000 0 0 1
-16.178224 26.467835 22.688348 38.432309 -1.022152 0.939309 0.070014 -0.021391 123907.000000 0 0 1
-17.654524 26.082535 22.558248 38.740875 -0.975762 0.949259 0.079493 -0.020370 -192442.000000 0 0 1
-17.828624 24.705535 22.358048 37.790285 -0.945691 0.937711 0.081725 -0.020230 -883020.000000 0 0 1
-19.124624 24.355335 22.698448 38.394702 -0.905124 0.938267 0.088303 -0.015133 -805124.000000 0 0 1
29.126576 23.768835 23.445537 44.305848 0.684453 1.013169 0.134010 -0.023271 77765.000000 0 0 1
28.742476 23.024235 24.579867 44.276576 0.675382 0.982260 0.140005 -0.031136 44863.300000 0 0 1
28.189376 21.787835 24.178967 43.057788 0.658003 0.974542 0.130602 -0.016874 -190084.000000 0 0 1
27.575076 20.980335 25.343387 42.928389 0.650405 0.939286 0.144384 -0.022999 -290563.000000 0 0 1
26.366676 21.566635 25.731857 42.690161 0.685591 0.923843 0.146781 -0.020285 -300635.000000 0 0 1
25.872476 20.890535 26.905357 42.774966 0.679263 0.890533 0.145715 -0.028018 263909.000000 0 0 1
24.437076 21.201035 27.389527 42.389159 0.714610 0.868274 0.166532 -0.028913 48152.400000 0 0 1
24.306776 22.489435 27.975907 43.350264 0.746582 0.869321 0.180132 -0.041875 160340.000000 0 0 1
23.111276 22.594135 28.734637 43.247027 0.774084 0.844065 0.212734 -0.039509 153331.000000 0 0 1
22.819176 23.987735 29.332477 44.232572 0.810359 0.845788 0.200313 -0.035524 -402929.000000 0 0 1
22.185676 24.867035 28.471387 43.831422 0.842323 0.863783 0.182761 -0.039907 131589.000000 0 0 1
21.557276 26.038135 28.994947 44.535464 0.879266 0.861825 0.149182 -0.043654 900033.000000 0 0 1
20.251376 25.927735 29.892957 44.451710 0.907705 0.833240 0.137886 -0.039443 470973.000000 0 0 1
19.101876 25.638535 29.097227 43.230369 0.930474 0.832439 0.145188 -0.036790 617322.000000 0 0 1
17.897976 26.087535 29.724897 43.410443 0.969478 0.816548 0.114905 -0.029556 723942.000000 0 0 1
17.131276 24.991635 30.526317 43.010679 0.969882 0.781670 0.079268 -0.031705 -263617.000000 0 0 1
17.892776 24.590735 31.649718 43.892600 0.941771 0.765448 0.098993 -0.034447 521186.000000 0 0 1
17.077076 23.858635 32.577337 43.842261 0.949571 0.733168 0.084477 -0.036324 398990.000000 0 0 1
17.648776 23.874535 -33.596892 44.835520 0.934224 2.417856 0.101260 -0.035415 32317.400000 0 0 1
17.777776 25.157435 -33.002902 45.145735 0.955614 2.390627 0.093585 -0.038683 -61000.000000 0 0 1
18.523476 25.061235 -31.840632 44.553457 0.934289 2.366936 0.071138 -0.019417 -236017.000000 0 0 1
18.890676 26.392835 -31.224632 45.037951 0.949578 2.336849 0.074867 -0.013039 221405.000000 0 0 1
17.789976 26.984435 -30.561252 44.481829 0.987933 2.328218 0.088106 -0.016840 568851.000000 0 0 1
18.270276 28.142335 -29.928622 44.961277 0.994977 2.299165 0.098840 -0.018431 189890.000000 0 0 1
17.531976 28.504735 -28.614242 44.030273 1.019381 2.278218 0.112265 -0.021774 -82312.900000 0 0 1
17.856476 27.545935 -27.633222 42.909524 0.995657 2.270496 0.095763 -0.017336 303079.000000 0 0 1
17.634876 27.995135 -26.320622 42.278736 1.008662 2.242793 0.072599 -0.007735 -178863.000000 0 0 1
18.355776 27.106035 -25.252602 41.344474 0.975548 2.227848 0.059950 -0.012875 760940.000000 0 0 1
19.751676 27.412235 -25.231562 42.168602 0.946416 2.212236 0.061539 -0.002694 186837.000000 0 0 1
20.453176 26.749835 -24.219252 41.478407 0.918011 2.194321 0.058850 -0.001627 149220.000000 0 0 1
21.963676 26.503835 -24.389552 42.186568 0.878800 2.187238 0.063649 -0.000620 295530.000000 0 0 1
22.632876 26.283735 -23.170152 41.712561 0.859894 2.159727 0.069537 -0.004029 -354688.000000 0 0 1
24.031776 26.237535 -23.297252 42.528772 0.829249 2.150528 0.081459 -0.006414 232212.000000 0 0 1
24.760576 26.182135 -21.907152 42.172427 0.813296 2.117022 0.102077 -0.015224 323687.000000 0 0 1
24.480376 24.882835 -21.376252 40.931509 0.793551 2.120277 0.114994 -0.019685 -265651.000000 0 0 1
25.155576 24.670435 -20.177452 40.602499 0.775662 2.090878 0.123149 -0.027279 -340933.000000 0 0 1
24.551476 23.664135 -19.128252 39.098034 0.766997 2.082012 0.124820 -0.031965 -646332.000000 0 0 1
24.788376 22.323035 -19.507652 38.643627 0.733116 2.099957 0.115506 -0.026534 182047.000000 0 0 1
24.743776 21.376335 -18.495852 37.567255 0.712513 2.085572 0.127027 -0.029327 -1202400.000000 0 0 1
24.547976 19.967735 -19.050952 36.935786 0.682869 2.112721 0.120773 -0.036196 -157258.000000 0 0 1
23.401676 19.648135 -19.772052 36.395352 0.698427 2.145109 0.113131 -0.029888 -64034.200000 0 0 1
22.149476 19.886235 -19.119652 35.378280 0.731609 2.141750 0.103735 -0.038691 220828.000000 0 0 1
20.974076 19.780035 -20.186952 35.194810 0.756108 2.181663 0.078659 -0.019819 496418.000000 0 0 1
20.900376 20.582335 -21.324552 36.265614 0.777731 2.199393 0.089737 -0.013089 -199773.000000 0 0 1
21.104376 21.990835 -21.221552 37.139544 0.805965 2.179008 0.088775 -0.016919 63620.300000 0 0 1
20.988376 22.741035 -22.580352 38.308470 0.825456 2.201156 0.077611 -0.001665 121949.000000 0 0 1
19.662176 22.729135 -23.050452 37.875296 0.857621 2.225076 0.076768 0.001141 -350178.000000 0 0 1
19.518076 23.200535 -24.365552 38.896018 0.871388 2.247758 0.067210 -0.000874 704564.000000 0 0 1
18.046376 23.180735 -24.925552 38.526631 0.909299 2.274400 0.052683 0.002518 977960.000000 0 0 1
17.226576 24.066535 -24.168552 38.210887 0.949552 2.255579 0.061584 -0.008158 -353414.000000 0 0 1
15.852176 23.929935 -24.417952 37.685138 0.985725 2.275682 0.063245 -0.007515 -95267.400000 0 0 1
15.125676 25.026335 -23.599752 37.577278 1.027155 2.249819 0.062701 -0.015350 -171496.000000 0 0 1
15.292276 26.357035 -24.083352 38.840119 1.045065 2.239620 0.062784 -0.015867 -274035.000000 0 0 1
14.306076 27.194835 -23.568952 38.726197 1.086520 2.225097 0.086412 -0.024828 -255387.000000 0 0 1
14.451476 28.611735 -24.136152 40.125184 1.103086 2.216200 0.085777 -0.031534 84690.000000 0 0 1
14.333976 28.699135 -25.547852 41.009705 1.107583 2.243331 0.094223 -0.042444 -168534.000000 0 0 1
13.859276 29.937935 -25.993452 42.000226 1.137239 2.238123 0.122820 -0.052903 -72311.000000 0 0 1
14.818276 31.165835 -25.898082 43.146277 1.126968 2.214596 0.133791 -0.046400 21246.100000 0 0 1
15.967176 31.076035 -26.702982 43.974082 1.096162 2.223383 0.105555 -0.027014 -141024.000000 0 0 1
16.638976 32.316135 -26.858002 45.194473 1.095315 2.207162 0.106645 -0.030638 -563993.000000 0 0 1
18.064276 32.112135 -27.362432 45.893463 1.058378 2.209576 0.088899 -0.003405 -384151.000000 0 0 1
18.895876 31.503135 -26.350212 45.208797 1.030517 2.193035 0.048828 -0.000984 1451.050000 0 0 1
20.170376 31.320835 -26.921452 45.963065 0.998656 2.196563 0.049512 0.009073 -464916.000000 0 0 1
21.122176 30.490735 -25.978772 45.284962 0.964959 2.181780 0.023883 0.011141 -45869.300000 0 0 1
21.659676 31.325635 -24.944352 45.526450 0.965841 2.150659 0.030069 0.009559 820038.000000 0 0 1
22.754576 32.215435 -25.260912 46.837150 0.955838 2.140443 0.029909 -0.000408 1095110.000000 0 0 1
24.175976 31.516635 -25.339452 47.115432 0.916449 2.138641 0.022084 0.012109 640422.000000 0 0 1
24.489276 30.963535 -26.611992 47.609487 0.901625 2.163932 0.024054 0.019660 -198586.000000 0 0 1
25.397876 31.776235 -27.281372 48.980143 0.896499 2.161552 0.007438 0.034422 -1139880.000000 0 0 1
25.555576 31.450135 -28.763742 49.694580 0.888435 2.188066 0.013089 0.029904 -714096.000000 0 0 1
24.470076 31.711935 -29.560702 49.782191 0.913591 2.206571 0.030794 0.014756 -199252.000000 0 0 1
23.330376 30.819835 -29.388802 48.557907 0.922835 2.220854 0.022780 0.010623 173755.000000 0 0 1
22.230776 31.396635 -30.305782 48.973426 0.954680 2.238037 0.024426 0.007652 -1109990.000000 0 0 1
21.763876 32.660735 -29.962002 49.377236 0.983005 2.222822 0.042949 0.007352 -129473.000000 0 0 1
21.027376 33.306635 -30.981762 50.113392 1.007660 2.237289 0.050936 -0.003798 203719.000000 0 0 1
19.509176 32.948435 -31.077432 49.315455 1.036197 2.252577 0.062733 -0.013312 74817.500000 0 0 1
19.150476 31.606135 -31.464712 48.535725 1.026043 2.276119 0.097159 -0.025824 -18118.200000 0 0 1
19.591276 31.134035 -32.719772 49.231389 1.009142 2.297771 0.105858 -0.030529 -556668.000000 0 0 1
18.915876 31.724935 33.632087 49.953970 1.033141 0.832185 0.137581 -0.034011 -487860.000000 0 0 1
19.233776 33.092635 33.401662 50.800902 1.044307 0.853299 0.113611 -0.020006 255966.000000 0 0 1
18.552476 33.579035 32.226131 50.102590 1.066034 0.872122 0.108482 -0.018779 -168316.000000 0 0 1
17.094476 -33.663405 32.426224 49.768524 -1.100924 0.861183 0.120054 -0.028995 -427219.000000 0 0 1
16.092276 32.956235 32.368209 48.916007 1.116559 0.847699 0.140518 -0.035578 301850.000000 0 0 1
14.818276 33.419535 32.747473 49.079972 1.153443 0.840317 0.126275 -0.037388 -179746.000000 0 0 1
13.948876 -33.710405 31.637637 48.289778 -1.178463 0.856399 0.114788 -0.035661 -1067720.000000 0 0 1
14.446776 -32.531605 31.015137 47.211793 -1.152873 0.854048 0.124130 -0.021837 289080.000000 0 0 1
13.467876 -31.907705 30.192467 45.946386 -1.171394 0.853800 0.128159 -0.024901 -369564.000000 0 0 1
13.903476 -30.625405 29.486977 44.729229 -1.144633 0.850998 0.123518 -0.020291 -268382.000000 0 0 1
14.000676 -29.564405 30.401727 44.658011 -1.128519 0.821986 0.108656 -0.022666 460832.000000 0 0 1
14.338576 -28.330605 29.732757 43.500055 -1.102268 0.818235 0.123226 -0.035116 -480029.000000 0 0 1
14.149976 -27.035705 30.621247 43.229758 -1.088619 0.783657 0.116889 -0.027898 -712514.000000 0 0 1
12.861976 -26.713305 31.035997 42.921605 -1.122073 0.762537 0.103901 -0.027535 -687360.000000 0 0 1
12.079176 -26.079705 30.046617 41.579523 -1.137049 0.763197 0.085866 -0.031011 -464601.000000 0 0 1
12.194076 -24.543305 30.096677 40.704782 -1.109681 0.738634 0.078190 -0.027642 -424617.000000 0 0 1
11.487876 -23.916705 31.116547 40.892782 -1.123009 0.706051 0.102821 -0.029280 117907.000000 0 0 1
12.121776 -22.689005 31.366267 40.565640 -1.080120 0.686889 0.095710 -0.030591 187212.000000 0 0 1
11.516376 -22.068605 32.640475 41.049371 -1.089826 0.651539 0.086596 -0.028251 -221561.000000 0 0 1
11.653976 -22.858305 -33.774262 42.414833 -1.099311 2.491924 0.077538 -0.029252 771600.000000 0 0 1
12.964976 -23.117105 -33.254382 42.524641 -1.059669 2.468669 0.070838 -0.029841 880543.000000 0 0 1
13.703276 -21.982805 -32.468462 41.535822 -1.013375 2.468180 0.063689 -0.027210 54097.100000 0 0 1
13.920176 -20.803505 -33.208982 41.585978 -0.981093 2.495699 0.059332 -0.024375 175963.000000 0 0 1
15.017976 -20.009905 -32.806852 41.258035 -0.926958 2.490072 0.051910 -0.025458 32405.200000 0 0 1
15.320976 -18.778005 -33.645772 41.465452 -0.886435 2.517369 0.050582 -0.022130 -303948.000000 0 0 1
15.771476 -19.087905 32.644216 40.972337 -0.880250 0.648918 0.070179 -0.007971 181481.000000 0 0 1
15.508376 -18.045705 31.663525 39.607272 -0.860874 0.644439 0.060876 -0.006385 -357152.000000 0 0 1
16.530676 -16.923905 31.577654 39.456686 -0.797152 0.642981 0.065556 -0.008383 -657354.000000 0 0 1
16.405876 -16.085405 32.703030 39.967252 -0.775535 0.612444 0.058583 -0.010115 90217.500000 0 0 1
16.984476 -14.829905 32.463399 39.525571 -0.717778 0.607064 0.068977 -0.024156 -475586.000000 0 0 1
18.405776 -14.654905 33.008216 40.534938 -0.672427 0.619248 0.068685 -0.014892 -187336.000000 0 0 1
19.296176 -15.453905 32.245479 40.631718 -0.675277 0.654087 0.080925 -0.011491 -483853.000000 0 0 1
20.643876 -15.283905 32.582910 41.489919 -0.637303 0.667582 0.090947 -0.011384 -88205.100000 0 0 1
21.633476 -15.950105 31.588840 41.476113 -0.635316 0.704994 0.101154 -0.016754 -70446.700000 0 0 1
21.811076 -15.165005 30.382567 40.358404 -0.607557 0.718462 0.079470 -0.004708 352323.000000 0 0 1
22.545176 -15.890605 29.416217 40.325056 -0.613963 0.753239 0.067521 -0.004195 -169982.000000 0 0 1
22.859476 -15.114205 28.120527 39.265238 -0.584194 0.772499 0.047035 0.004163 -204319.000000 0 0 1
23.861376 -14.150105 28.346747 39.662688 -0.535266 0.774608 0.027227 -0.000390 130396.000000 0 0 1
24.036076 -13.371405 27.212597 38.691767 -0.507672 0.790743 0.021440 0.000255 124992.000000 0 0 1
24.813776 -12.067105 27.461837 38.929308 -0.452633 0.787769 0.017338 0.000097 -108451.000000 0 0 1
24.034176 -11.120805 28.144407 38.644813 -0.433371 0.754982 0.035971 -0.007014 -27364.000000 0 0 1
24.615976 -9.832805 28.154897 38.669478 -0.380031 0.755263 0.025904 -0.012584 -490746.000000 0 0 1
23.587076 -8.737305 28.193127 37.782841 -0.354756 0.728478 0.058100 -0.017214 -652778.000000 0 0 1
22.857476 -8.704805 29.357547 38.211300 -0.363872 0.694623 0.071411 -0.026794 -1107630.000000 0 0 1
21.784076 -7.863305 29.220767 37.285798 -0.346410 0.670201 0.091888 -0.039882 -88378.900000 0 0 1
20.676576 -7.821105 30.347647 37.545575 -0.361625 0.629557 0.077686 -0.031919 498906.000000 0 0 1
21.090276 -7.297805 31.607563 38.692322 -0.333131 0.614789 0.081979 -0.032509 156506.000000 0 0 1
21.259776 -8.361405 32.547664 39.764829 -0.374715 0.611994 0.088425 -0.030102 -172283.000000 0 0 1
21.362876 -7.960905 -33.597082 40.601877 -0.356710 2.545394 0.107896 -0.054774 -173248.000000 0 0 1
20.060876 -7.926205 -33.081172 39.492118 -0.376282 2.563791 0.085690 -0.061849 -351616.000000 0 0 1
19.912676 -7.020605 -32.035892 38.367980 -0.338962 2.558864 0.097099 -0.060816 446438.000000 0 0 1
18.455676 -6.873205 -31.490722 37.141870 -0.356504 2.582713 0.091317 -0.059988 538361.000000 0 0 1
18.292376 -5.880505 -30.507122 36.053791 -0.311039 2.579526 0.095924 -0.051209 -168420.000000 0 0 1
17.046476 -5.888105 -29.854002 34.878554 -0.332584 2.598165 0.094024 -0.044146 -721998.000000 0 0 1
16.867676 -4.795505 -28.810882 33.728063 -0.276993 2.594828 0.096369 -0.040310 52676.000000 0 0 1
17.777076 -4.847405 -27.707712 33.275202 -0.266206 2.554733 0.094413 -0.034140 164109.000000 0 0 1
17.578076 -5.835505 -26.732672 32.521956 -0.320529 2.535690 0.105922 -0.036449 9623.460000 0 0 1
16.279976 -5.662605 -25.901942 31.112912 -0.334737 2.554427 0.126036 -0.039154 146804.000000 0 0 1
16.238976 -4.522205 -25.076652 30.215776 -0.271597 2.549759 0.106286 -0.033778 264280.000000 0 0 1
15.082376 -4.589005 -24.226952 28.904709 -0.295363 2.564709 0.109976 -0.035186 653602.000000 0 0 1
14.845176 -3.259405 -23.476752 27.967139 -0.216130 2.567049 0.115725 -0.037089 46875.500000 0 0 1
14.427076 -2.290405 -24.383552 28.424357 -0.157443 2.601848 0.081325 -0.040152 -109907.000000 0 0 1
13.975676 -1.139405 -23.697652 27.535367 -0.081348 2.607294 0.088233 -0.038203 -103594.000000 0 0 1
14.288976 0.249595 -24.301252 28.191984 0.017466 2.609982 0.087738 -0.040230 52205.300000 0 0 1
13.433976 0.800595 -25.305862 28.661809 0.059524 2.652825 0.081695 -0.038227 111680.000000 0 0 1
13.917976 2.095595 -25.642952 29.251710 0.149445 2.639611 0.085683 -0.018266 -246233.000000 0 0 1
13.246876 2.884595 -26.769352 30.006646 0.214409 2.672799 0.086159 -0.015013 -478481.000000 0 0 1
12.102676 3.567595 -26.349792 29.214962 0.286659 2.695009 0.094589 -0.030280 -165683.000000 0 0 1
11.411576 4.110595 -27.462662 30.021973 0.345744 2.725690 0.098990 -0.022165 -30900.800000 0 0 1
10.161176 4.951595 -27.157972 29.416377 0.453440 2.747190 0.092998 -0.020648 -342786.000000 0 0 1
10.419676 6.145595 -26.450062 29.085112 0.532891 2.712641 0.096890 -0.038267 199479.000000 0 0 1
9.288176 6.998595 -26.322552 28.777201 0.645734 2.725565 0.111468 -0.039521 26530.100000 0 0 1
8.775876 5.242635 -30.834422 32.484809 0.538499 2.821465 0.108124 -0.031786 -102226.000000 0 0 1
8.850876 4.220135 -29.860742 31.429468 0.444919 2.824312 0.087674 -0.019652 297749.000000 0 0 1
8.367776 2.979435 -30.331682 31.605500 0.342064 2.856716 0.080272 -0.014804 -167673.000000 0 0 1
8.309376 1.899735 -29.251992 30.468570 0.224763 2.858052 0.085847 -0.016029 -870848.000000 0 0 1
9.543576 1.460135 -28.818432 30.392661 0.151819 2.818329 0.104449 -0.026206 -482290.000000 0 0 1
9.372576 0.674935 -27.715792 29.265437 0.071888 2.814712 0.109670 -0.025550 1090330.000000 0 0 1
10.723776 -0.000065 -27.210302 29.247220 -0.000006 2.766177 0.114458 -0.037561 855638.000000 0 0 1
11.133976 -1.076965 -27.969252 30.123153 -0.096428 2.761141 0.100198 -0.033396 -393882.000000 0 0 1
12.341876 -1.568765 -27.462782 30.149416 -0.126431 2.716230 0.095723 -0.036555 -287873.000000 0 0 1
12.793676 -2.890665 -28.020162 30.938060 -0.222214 2.703791 0.083392 -0.038983 -246610.000000 0 0 1
12.040076 -3.925665 -27.478732 30.256486 -0.315181 2.709743 0.097127 -0.028253 -459099.000000 0 0 1
12.734176 -5.135465 -27.426862 30.671892 -0.383333 2.677441 0.097993 -0.033840 -474071.000000 0 0 1
12.069276 -6.233065 -26.636142 29.899876 -0.476713 2.669997 0.106738 -0.055355 -110928.000000 0 0 1
11.989476 -5.800365 -25.314242 28.604241 -0.450594 2.657252 0.121349 -0.037539 -316562.000000 0 0 1
11.393476 -6.770065 -24.540152 27.890216 -0.536148 2.646414 0.129778 -0.041586 -160348.000000 0 0 1
11.532076 -6.615865 -23.013252 26.577588 -0.520851 2.617722 0.147186 -0.043057 18463.900000 0 0 1
12.876176 -6.755565 -22.608852 26.881104 -0.483177 2.570052 0.129209 -0.042384 -198499.000000 0 0 1
13.048476 -6.824365 -21.222252 25.830576 -0.481879 2.534998 0.167886 -0.048732 -258902.000000 0 0 1
14.495976 -6.640165 -20.772152 26.186015 -0.429544 2.486930 0.173104 -0.039922 -99220.600000 0 0 1
14.822476 -5.248865 -20.619952 25.931425 -0.340336 2.490088 0.147533 -0.036500 418792.000000 0 0 1
16.043276 -5.140165 -19.862252 26.044520 -0.310060 2.438161 0.156166 -0.031544 568667.000000 0 0 1
16.414576 -3.674565 -19.514752 25.763662 -0.220229 2.430199 0.146511 -0.029536 -147298.000000 0 0 1
16.904076 -2.974765 -20.617552 26.826861 -0.174196 2.447355 0.121996 -0.028578 68739.100000 0 0 1
17.358276 -1.681365 -20.290752 26.755398 -0.096561 2.431620 0.134553 -0.018060 145997.000000 0 0 1
18.362376 -1.062965 -21.313852 28.152922 -0.057824 2.429620 0.096282 -0.027897 1722270.000000 0 0 1
19.688476 -1.660965 -21.159852 28.950548 -0.084163 2.390431 0.127850 -0.040370 546481.000000 0 0 1
20.658476 -0.912465 -21.765952 30.022689 -0.044140 2.381807 0.123850 -0.029892 -269045.000000 0 0 1
22.048976 -1.555165 -21.998152 31.184845 -0.070416 2.353800 0.083868 -0.032965 -68770.500000 0 0 1
22.913376 -1.531965 -20.863052 31.026386 -0.066760 2.308282 0.072053 -0.028351 1211940.000000 0 0 1
24.220676 -2.110365 -21.050952 32.159561 -0.086911 2.284421 0.055709 -0.028505 1073600.000000 0 0 1
25.260576 -1.451265 -21.947852 33.494941 -0.057389 2.285321 0.063822 -0.031446 -986416.000000 0 0 1
24.948176 -1.623065 -23.361052 34.216729 -0.064966 2.322299 0.077389 -0.034857 59490.000000 0 0 1
25.845676 -0.974565 -24.225052 35.437295 -0.037689 2.323485 0.081194 -0.030729 371330.000000 0 0 1
27.105576 -1.793365 -24.667552 36.693549 -0.066066 2.308052 0.103488 -0.041925 -359262.000000 0 0 1
27.952876 -2.167865 -23.601052 36.647954 -0.077399 2.270504 0.086352 -0.026108 675827.000000 0 0 1
29.164976 -2.828365 -24.013552 37.884642 -0.096676 2.257330 0.075083 -0.021107 1232320.000000 0 0 1
30.264776 -1.958865 -24.695352 39.110794 -0.064634 2.254180 0.077615 -0.033091 -811011.000000 0 0 1
29.961976 -1.678265 -26.048432 39.737355 -0.055955 2.285661 0.101440 -0.040138 191654.000000 0 0 1
30.545676 -0.483365 -26.477152 40.426619 -0.015823 2.284904 0.091825 -0.042274 -556471.000000 0 0 1
30.124076 -0.043465 -27.943852 41.089180 -0.001443 2.318666 0.102070 -0.049102 -81362.900000 0 0 1
28.810976 0.391035 -28.196092 40.314325 0.013572 2.345363 0.103962 -0.045686 -17710.100000 0 0 1
28.478676 1.648635 -27.578162 39.677550 0.057826 2.339296 0.090844 -0.037198 -129807.000000 0 0 1
26.987776 2.055335 -27.737062 38.754471 0.076011 2.368440 0.099581 -0.033287 274278.000000 0 0 1
26.104776 1.406035 -26.835202 37.464174 0.053809 2.369267 0.109964 -0.034488 -557533.000000 0 0 1
24.785276 1.632935 -27.211162 36.843231 0.065788 2.401737 0.088697 -0.029968 58428.000000 0 0 1
23.724476 1.190535 -26.103972 35.294270 0.050140 2.403286 0.080727 -0.026920 492335.000000 0 0 1
23.578476 2.099535 -25.023152 34.445765 0.088810 2.383939 0.098614 -0.031366 -96377.700000 0 0 1
22.630776 1.639635 -24.114152 33.110916 0.072325 2.386611 0.099810 -0.021290 -430556.000000 0 0 1
22.533176 2.442635 -22.751852 32.114751 0.107980 2.358103 0.098055 -0.028909 -282812.000000 0 0 1
22.045776 3.759235 -22.719552 31.879870 0.168895 2.364081 0.104180 -0.033234 378270.000000 0 0 1
22.314676 4.276935 -21.448952 31.245711 0.189368 2.327407 0.095504 -0.037415 -252537.000000 0 0 1
21.948976 5.744735 -21.229052 31.071404 0.255989 2.322979 0.103189 -0.027756 -269966.000000 0 0 1
22.775276 6.658035 -21.896652 32.287861 0.284411 2.316066 0.105812 -0.020377 114777.000000 0 0 1
22.470076 7.995935 -21.508552 32.116306 0.341875 2.304612 0.110224 -0.020829 -425644.000000 0 0 1
22.941076 8.521035 -20.130352 31.688043 0.355638 2.259150 0.102895 -0.028348 631578.000000 0 0 1
24.373776 8.614035 -19.966252 32.663952 0.339713 2.228451 0.106916 -0.028914 1193920.000000 0 0 1
24.738976 8.466235 -18.580152 32.076722 0.329729 2.188594 0.114752 -0.036427 -4725.810000 0 0 1
24.399876 9.633035 -17.653752 31.619681 0.376014 2.163150 0.109367 -0.031675 -77733.300000 0 0 1
23.037576 9.800635 -17.299552 30.431182 0.402226 2.175455 0.099028 -0.029236 60386.700000 0 0 1
22.756076 11.149735 -16.772652 30.388771 0.455589 2.155480 0.065773 -0.022228 793148.000000 0 0 1
21.213076 11.337035 -16.523552 29.181342 0.490816 2.172729 0.063761 -0.019079 1211480.000000 0 0 1
20.363376 11.219735 -17.661952 29.197501 0.503592 2.220453 0.063615 -0.022219 436369.000000 0 0 1
19.875076 9.873035 -17.863352 28.488503 0.461048 2.248540 0.070243 -0.010958 -503308.000000 0 0 1
19.049576 9.659635 -19.104752 28.656351 0.469295 2.300548 0.070000 -0.000582 152575.000000 0 0 1
19.823476 9.945735 -20.269552 30.045675 0.465019 2.311252 0.083545 -0.010812 623481.000000 0 0 1
18.941176 9.827835 -21.369152 30.199257 0.478622 2.356900 0.069077 -0.017725 -254049.000000 0 0 1
19.612176 10.099635 -22.687652 31.644425 0.475550 2.370222 0.099370 -0.016407 -600171.000000 0 0 1
19.849276 11.465035 -22.879152 32.386670 0.523790 2.355248 0.106513 -0.023608 425540.000000 0 0 1
20.599676 11.609735 -24.089552 33.755579 0.513216 2.365486 0.127146 -0.023172 132112.000000 0 0 1
20.898276 13.091335 -24.425052 34.708848 0.559628 2.351406 0.171635 -0.020490 235145.000000 0 0 1
21.673376 13.341135 -25.614412 36.108437 0.551778 2.359407 0.191232 -0.021570 258393.000000 0 0 1
21.796476 14.741735 -25.849532 36.886358 0.594667 2.347298 0.193247 -0.018023 -455675.000000 0 0 1
20.655376 15.426735 -26.587002 37.033733 0.641490 2.371596 0.153915 -0.019596 -683327.000000 0 0 1
19.454276 15.334435 -25.889592 35.831337 0.667523 2.378266 0.105158 -0.019954 -582075.000000 0 0 1
18.359376 15.894135 -26.621192 36.033013 0.713552 2.402084 0.098787 -0.022737 1237920.000000 0 0 1
16.977976 15.323735 -26.120352 34.718025 0.734231 2.422429 0.076768 -0.025882 492202.000000 0 0 1
16.754676 14.005435 -26.489292 34.330074 0.696258 2.452158 0.101806 -0.023498 19068.200000 0 0 1
15.461976 13.563835 -26.137572 33.259930 0.720096 2.474878 0.061874 -0.027218 -55684.200000 0 0 1
15.384976 12.035635 -26.019782 32.535873 0.663853 2.497635 0.050176 -0.024382 -144649.000000 0 0 1
14.065276 11.614835 -25.778162 31.579265 0.690264 2.525773 0.054641 -0.034114 -33867.600000 0 0 1
14.066476 10.295135 -25.229912 30.666007 0.631811 2.536997 0.067525 -0.033322 464572.000000 0 0 1
12.640176 9.691335 -25.018852 29.658708 0.654109 2.574671 0.103047 -0.045866 499889.000000 0 0 1
11.822976 10.269235 -24.043952 28.694103 0.715184 2.564295 0.111088 -0.053830 482333.000000 0 0 1
10.678176 9.440035 -23.760052 27.706998 0.723932 2.601278 0.122447 -0.052464 553192.000000 0 0 1
9.624676 10.106935 -22.844952 26.770811 0.809834 2.593180 0.116191 -0.052708 -193313.000000 0 0 1
9.066976 11.257035 -23.394152 27.499404 0.892741 2.588140 0.115863 -0.055040 -321725.000000 0 0 1
8.531876 12.151535 -22.438952 26.906491 0.958647 2.557043 0.108001 -0.054281 122413.000000 0 0 1
9.527776 12.883235 -21.492352 26.808160 0.934018 2.500946 0.107239 -0.056485 407957.000000 0 0 1
10.270776 11.970335 -20.623652 25.963682 0.861665 2.488695 0.135250 -0.054491 211729.000000 0 0 1
11.253876 12.768435 -19.970552 26.239390 0.848363 2.435789 0.157763 -0.057397 -168164.000000 0 0 1
12.279276 11.910835 -19.177952 25.699075 0.770168 2.413208 0.164907 -0.050865 362294.000000 0 0 1
13.260576 11.294735 -20.025652 26.541301 0.705511 2.425702 0.135631 -0.045187 330863.000000 0 0 1
12.823576 10.109535 -20.615152 26.298884 0.667600 2.471686 0.136548 -0.057451 149665.000000 0 0 1
13.944776 9.388135 -21.478552 27.274934 0.592537 2.477511 0.130582 -0.048077 772920.000000 0 0 1
14.750576 8.495235 -20.728052 26.821645 0.522530 2.454054 0.142337 -0.052907 519322.000000 0 0 1
15.802676 7.934835 -21.509652 27.845130 0.465342 2.453525 0.112513 -0.042523 90204.400000 0 0 1
16.395976 6.651435 -20.814752 27.318922 0.385389 2.437064 0.167582 -0.049193 28889.900000 0 0 1
17.142376 7.015135 -19.671452 27.019237 0.388436 2.386275 0.120564 -0.035689 31872.600000 0 0 1
17.443876 5.875535 -18.857552 26.351812 0.324890 2.368290 0.126853 -0.047950 -1272.740000 0 0 1
18.508876 6.124535 -17.757852 26.371001 0.319556 2.309575 0.155136 -0.035279 24386.600000 0 0 1
19.843476 6.120835 -18.208752 27.618595 0.299196 2.290675 0.115575 -0.038646 540659.000000 0 0 1
20.738976 6.218335 -17.070752 27.571423 0.291308 2.238452 0.106887 -0.051705 3292.940000 0 0 1
22.089676 5.529835 -17.158452 28.512196 0.245295 2.216541 0.109729 -0.047723 -835564.000000 0 0 1
22.877976 5.673835 -15.983252 28.479089 0.243099 2.166665 0.099241 -0.059194 648027.000000 0 0 1
23.512076 4.484735 -15.499152 28.515860 0.188478 2.145430 0.153590 -0.069602 845018.000000 0 0 1
24.774876 3.986035 -16.327552 29.937800 0.159523 2.147642 0.072703 -0.016797 458668.000000 0 0 1
25.537376 3.020335 -15.582952 30.068395 0.117724 2.115600 0.087507 -0.020303 388558.000000 0 0 1
26.584776 2.539535 -16.406752 31.342958 0.095237 2.121702 0.074031 -0.029335 -201099.000000 0 0 1
27.396776 1.418735 -15.798652 31.657440 0.051739 2.093299 0.095153 -0.043008 -368282.000000 0 0 1
26.817476 0.109735 -15.805252 31.128685 0.004092 2.103355 0.091459 -0.035290 -240589.000000 0 0 1
27.783876 -0.918165 -15.671852 31.912282 -0.033035 2.084139 0.098215 -0.027180 -171091.000000 0 0 1
27.321576 -2.387165 -15.916452 31.709628 -0.087152 2.096641 0.079783 -0.024544 -116034.000000 0 0 1
26.455076 -2.863165 -14.900052 30.497218 -0.107808 2.081247 0.080528 -0.026419 272830.000000 0 0 1
26.186976 -4.224465 -15.167252 30.555676 -0.159941 2.090221 0.081004 -0.025769 -1080090.000000 0 0 1
25.504576 -5.015065 -14.040652 29.542751 -0.194157 2.066062 0.099532 -0.030398 681279.000000 0 0 1
24.210076 -4.579665 -13.630552 28.158357 -0.186955 2.076094 0.133184 -0.021605 766549.000000 0 0 1
23.176876 -4.779365 -14.604052 27.808061 -0.203362 2.123715 0.143687 -0.027916 -220012.000000 0 0 1
21.766876 -4.490365 -13.994952 26.264404 -0.203440 2.132760 0.162620 -0.029790 119020.000000 0 0 1
21.156176 -5.589365 -13.361852 25.639108 -0.258294 2.118996 0.173964 -0.023480 215204.000000 0 0 1
21.334576 -5.623665 -11.949152 25.091273 -0.257731 2.067156 0.200184 -0.020731 -365430.000000 0 0 1
20.877876 -7.003965 -11.512352 24.849054 -0.323675 2.052502 0.174000 -0.012308 754832.000000 0 1 0
19.463976 -7.229265 -11.585752 23.776843 -0.355626 2.079758 0.163519 -0.001652 1108810.000000 0 1 0
19.291876 -8.512365 -12.174852 24.348796 -0.415546 2.094417 0.153227 -0.013533 948623.000000 0 1 0
17.844476 -9.105965 -11.883452 23.292925 -0.471850 2.106184 0.150334 -0.016356 2104600.000000 0 1 0
16.785476 -8.321465 -12.517952 22.532157 -0.460245 2.159832 0.139429 -0.003966 1421000.000000 0 1 0
15.465376 -8.839665 -12.280152 21.636073 -0.519259 2.174357 0.125503 -0.011810 1475030.000000 0 1 0
14.357076 -7.736865 -12.529652 20.566402 -0.494272 2.225885 0.097679 -0.010705 264240.000000 0 1 0
14.281176 -7.056065 -13.780852 21.063046 -0.458902 2.284009 0.092703 -0.009014 773521.000000 0 1 0
15.442376 -6.239065 -14.143952 21.850498 -0.383969 2.274841 0.099575 -0.000074 844884.000000 0 1 0
15.133776 -5.171465 -15.206052 22.068059 -0.329277 2.330977 0.090454 -0.006534 221904.000000 0 1 0
14.274976 -4.113765 -14.719952 20.913512 -0.280578 2.351598 0.108094 -0.011687 595387.000000 0 1 0
14.069776 -2.993165 -15.585152 21.208833 -0.209612 2.396231 0.106825 -0.014419 96715.100000 0 1 0
15.280876 -2.035065 -15.712752 22.012206 -0.132398 2.365734 0.136126 -0.018774 -88893.500000 0 1 0
16.420976 -2.440265 -16.447952 23.369605 -0.147527 2.351554 0.135840 -0.022379 302197.000000 0 1 0
17.583876 -1.690965 -16.176252 23.952519 -0.095871 2.312231 0.154951 -0.037260 304640.000000 0 1 0
18.427076 -2.220665 -14.969852 23.845019 -0.119933 2.249517 0.162380 -0.046303 -518545.000000 0 1 0
17.821176 -2.087165 -13.697152 22.573492 -0.116586 2.222800 0.148875 -0.034420 482189.000000 0 1 0
18.533376 -2.953465 -12.786852 22.709305 -0.158030 2.168888 0.147638 -0.032999 -24626.600000 0 1 0
18.001176 -2.948865 -11.385352 21.502660 -0.162373 2.128791 0.144389 -0.028744 -584405.000000 0 1 0
18.318576 -1.814565 -10.620052 21.252020 -0.098734 2.094071 0.157766 -0.025730 622390.000000 0 1 0
17.779976 -2.027565 -9.324052 20.178615 -0.113546 2.051131 0.141005 -0.018628 -611254.000000 0 1 0
17.723376 -0.676265 -8.534252 19.682704 -0.038138 2.019271 0.127814 -0.015819 1115110.000000 0 1 0
19.010576 -0.070265 -8.164652 20.689816 -0.003696 1.976453 0.142170 -0.012797 1946740.000000 0 1 0
19.863476 0.449535 -9.154252 21.876016 0.022627 2.002546 0.153102 -0.010429 -405402.000000 0 1 0
19.428876 1.702235 -9.893052 21.868957 0.087391 2.040227 0.147244 -0.013221 -846473.000000 0 1 0
19.326776 2.808535 -9.046852 21.523421 0.144308 2.004601 0.125728 -0.004769 611467.000000 0 1 0
18.839676 3.933635 -9.766052 21.581998 0.205838 2.040373 0.121949 -0.017446 -357313.000000 0 1 0
18.672176 5.163935 -8.890252 21.315557 0.269814 2.001024 0.096664 -0.011038 -204876.000000 0 1 0
18.119576 6.228035 -9.683852 21.468219 0.331068 2.038770 0.088478 -0.012413 596193.000000 0 1 0
18.522176 7.475435 -9.174752 21.980200 0.383601 2.001389 0.104138 -0.008149 -445639.000000 0 1 0
-27.059454 -28.930485 5.383148 39.977060 0.818803 1.435730 0.110117 -0.027933 177243.000000 0 0 1
-27.446314 -28.058215 6.422748 39.772042 0.796422 1.408597 0.118014 -0.024323 957276.000000 0 0 1
-26.378644 -27.061355 6.425748 38.333276 0.798173 1.402373 0.118033 -0.028546 680309.000000 0 0 1
-26.777044 -25.805135 7.218748 37.881729 0.766917 1.379064 0.114263 -0.022481 1029320.000000 0 0 1
-28.003104 -25.095645 6.818448 38.215919 0.730697 1.391417 0.103766 -0.021610 1031700.000000 0 0 1
-29.221564 -25.654195 7.212148 39.548105 0.720481 1.387406 0.095656 -0.018388 -140351.000000 0 0 1
-29.613724 -25.718885 8.771048 40.191604 0.715124 1.350795 0.089887 -0.013094 496681.000000 0 0 1
-28.658934 -26.619465 9.393248 40.226404 0.748520 1.335111 0.078794 -0.016949 227900.000000 0 0 1
-28.939084 -26.772865 10.761848 40.866542 0.746535 1.304312 0.067753 -0.013258 -7793.780000 0 0 1
-27.780964 -27.485025 11.498248 40.735958 0.780043 1.284644 0.052287 -0.015596 1749090.000000 0 0 1
-26.584914 -26.674375 11.807548 39.467685 0.787078 1.266974 0.074038 -0.008294 1166730.000000 0 0 1
-26.702834 -25.889745 12.971348 39.390051 0.769939 1.235229 0.081891 -0.008469 -1015880.000000 0 0 1
-25.413324 -25.392395 13.590048 38.409637 0.784986 1.209146 0.100799 -0.020822 -825206.000000 0 0 1
-24.658024 -26.349505 14.246048 38.797738 0.818547 1.194813 0.090127 -0.028313 -1103290.000000 0 0 1
-23.624224 -25.847305 14.996848 38.093209 0.830305 1.166156 0.104706 -0.034030 -599859.000000 0 0 1
-22.721124 -27.023485 15.449948 38.538541 0.871672 1.158302 0.103746 -0.035052 -534936.000000 0 0 1
-23.333524 -27.850915 16.385748 39.857491 0.873427 1.147127 0.096457 -0.023387 106627.000000 0 0 1
-22.686724 -29.122495 16.618148 40.484195 0.908986 1.147811 0.095033 -0.021246 15258.300000 0 0 1
-23.510724 -30.053035 17.528448 41.990303 0.906937 1.140170 0.091796 -0.023897 653316.000000 0 0 1
-24.732024 -30.574925 16.992948 42.839927 0.890653 1.162919 0.066925 -0.021191 662519.000000 0 0 1
-25.397454 -31.426065 17.891848 44.189891 0.891096 1.153943 0.071023 -0.017950 323836.000000 0 0 1
-26.423604 -32.367275 17.192748 45.182275 0.886154 1.180438 0.060678 -0.018795 375555.000000 0 0 1
-25.727104 -33.381395 16.491948 45.256887 0.914177 1.197800 0.067040 -0.025389 86713.700000 0 0 1
-26.601454 33.431325 15.812448 45.555728 -0.898680 1.216318 0.072972 -0.028988 -641297.000000 0 0 1
-25.962164 32.890711 14.473648 44.331922 -0.902585 1.238215 0.083798 -0.036962 439708.000000 0 0 1
-24.808524 32.094541 14.640448 43.126154 -0.912748 1.224433 0.063911 -0.030648 542312.000000 0 0 1
-23.602224 32.842950 14.751148 43.050212 -0.947670 1.221060 0.063138 -0.030771 764140.000000 0 0 1
-22.255724 32.001777 14.671248 41.649448 -0.963129 1.210816 0.061741 -0.036687 1099340.000000 0 0 1
-22.122224 31.326455 13.444148 40.638463 -0.955932 1.233621 0.052155 -0.021462 -243066.000000 0 0 1
-20.898824 30.641985 13.420348 39.443603 -0.972231 1.223623 0.059296 -0.024755 -291261.000000 0 0 1
-20.738324 29.728515 12.180048 38.238937 -0.961689 1.246624 0.060033 -0.022671 30191.600000 0 0 1
-20.182424 30.458325 11.095648 38.185772 -0.985598 1.275974 0.042442 -0.012103 -95547.900000 0 0 1
-20.559024 29.940855 9.836448 37.628234 -0.969083 1.306312 0.062905 -0.016765 42829.900000 0 0 1
-19.989224 30.664075 8.581848 37.596578 -0.993102 1.340505 0.061798 -0.016303 -102556.000000 0 0 1
-18.631324 30.371605 8.348748 36.595932 -1.020549 1.340636 0.062704 -0.021516 -327606.000000 0 0 1
-18.180024 30.848535 7.079248 36.500153 -1.038258 1.375608 0.084650 -0.024381 9732.140000 0 0 1
-17.935624 29.795115 6.022148 35.294500 -1.028933 1.399332 0.097978 -0.029608 -20804.100000 0 0 1
-19.068424 29.003805 5.701348 35.175714 -0.989205 1.407996 0.078875 -0.022852 40169.400000 0 0 1
-19.244324 27.860585 6.525148 34.483819 -0.966315 1.380425 0.059614 -0.017117 -140145.000000 0 0 1
-20.304724 26.926105 5.957348 34.245977 -0.924682 1.395949 0.059143 -0.015679 -109877.000000 0 0 1
-19.831324 26.335445 4.781148 33.312107 -0.925360 1.426773 0.077290 -0.026667 340130.000000 0 0 1
-20.830224 25.471055 4.304748 33.184390 -0.885296 1.440708 0.085370 -0.029373 -537207.000000 0 0 1
-20.271524 24.614575 3.172148 32.044883 -0.881855 1.471643 0.099165 -0.033916 -1275130.000000 0 0 1
-19.982924 25.249835 1.923348 32.257878 -0.901316 1.511137 0.090862 -0.036561 322302.000000 0 0 1
-18.828624 26.067035 1.926048 32.213616 -0.945250 1.510971 0.101658 -0.032212 10919.200000 0 0 1
-17.447224 25.414965 2.271348 30.910922 -0.969192 1.497250 0.112616 -0.033883 -611176.000000 0 0 1
-16.929024 24.402765 1.434448 29.734566 -0.964288 1.522536 0.136532 -0.044964 261915.000000 0 0 1
-16.737124 24.663315 0.049748 29.806256 -0.974561 1.569127 0.123152 -0.040845 -460213.000000 0 0 1
-16.395024 23.390265 -0.730252 28.573319 -0.959444 1.596356 0.112886 -0.043664 -379503.000000 0 0 1
-17.440024 22.475475 -0.883552 28.461941 -0.910888 1.601845 0.115333 -0.051222 -285061.000000 0 0 1
-17.253024 21.429075 -1.861052 27.574184 -0.892940 1.638340 0.102273 -0.045763 -629960.000000 0 0 1
-16.166624 20.420375 -1.596652 26.094075 -0.901143 1.632023 0.112262 -0.052144 -274588.000000 0 0 1
-16.548624 19.591475 -0.504052 25.650281 -0.869396 1.590449 0.127577 -0.054979 197126.000000 0 0 1
-15.558524 18.615675 -0.314752 24.263349 -0.874619 1.583769 0.140835 -0.051878 -120306.000000 0 1 0
-16.015124 17.601775 0.782648 23.810066 -0.832561 1.537920 0.128726 -0.046585 293323.000000 0 1 0
-16.886524 16.673175 0.184948 23.731491 -0.779041 1.563003 0.123963 -0.040829 337819.000000 0 1 0
-17.590324 15.815575 1.085848 23.679759 -0.732321 1.524925 0.147768 -0.056456 176576.000000 0 1 0
-18.063224 14.516275 0.384948 23.176507 -0.676955 1.554186 0.137623 -0.053847 -569560.000000 0 1 0
-19.302324 14.735175 -0.203252 24.284695 -0.652015 1.579166 0.180601 -0.061410 -173742.000000 0 1 0
-20.064424 13.531175 -0.378352 24.203656 -0.593328 1.586429 0.195753 -0.055468 688087.000000 0 1 0
-21.364124 13.653775 -1.244552 25.385041 -0.568673 1.619843 0.208896 -0.053243 112090.000000 0 0 1
-22.118424 12.465275 -1.503552 25.433608 -0.513202 1.629948 0.192914 -0.059525 793814.000000 0 0 1
-23.091724 12.089075 -0.534352 26.070270 -0.482289 1.591294 0.205417 -0.059208 564686.000000 0 0 1
-24.447524 12.875175 -0.647952 27.638224 -0.484736 1.594243 0.208706 -0.061014 52460.300000 0 0 1
-24.252424 14.177375 -0.117052 28.092557 -0.529001 1.574963 0.209996 -0.067428 134486.000000 0 0 1
-25.434934 14.921975 -0.251452 29.490074 -0.530562 1.579323 0.194771 -0.054380 -208324.000000 0 0 1
-25.416234 16.283675 0.406148 30.187878 -0.569796 1.557342 0.181715 -0.053293 -68967.400000 0 0 1
-25.298064 16.171575 1.837148 30.081340 -0.568775 1.509686 0.175778 -0.049260 56866.300000 0 0 1
-25.096974 17.354775 2.571248 30.621196 -0.605004 1.486728 0.147629 -0.044602 954691.000000 0 0 1
-26.440794 18.153975 2.826048 32.197344 -0.601669 1.482911 0.152832 -0.040845 369622.000000 0 0 1
-27.366064 17.497475 3.682648 32.689830 -0.568877 1.457902 0.158712 -0.044148 772706.000000 0 0 1
-28.630934 18.150475 3.851148 34.117466 -0.565007 1.457676 0.142044 -0.045632 1036740.000000 0 0 1
-29.571294 18.199475 2.592348 34.819572 -0.551698 1.496276 0.132109 -0.039766 453620.000000 0 0 1
-30.857474 18.787675 2.952548 36.247455 -0.546904 1.489251 0.122546 -0.036594 1402750.000000 0 0 1
-31.599364 18.999675 1.734148 36.912257 -0.541351 1.523799 0.105869 -0.037049 453873.000000 0 0 1
-32.882834 19.880375 1.924648 38.473554 -0.543782 1.520750 0.120460 -0.045837 646924.000000 0 0 1
-33.954224 19.048375 2.440248 39.008778 -0.511251 1.508199 0.139430 -0.038594 321873.000000 0 0 1
-35.107235 19.838875 2.644448 40.411533 -0.514358 1.505312 0.146801 -0.042272 -104144.000000 0 0 1
-35.363123 20.518875 4.027948 41.082832 -0.525759 1.472594 0.130665 -0.052379 -289454.000000 0 0 1
-34.508902 21.630075 4.290548 40.952818 -0.559890 1.465836 0.130426 -0.049764 329028.000000 0 0 1
-34.650650 22.078075 5.610448 41.467892 -0.567297 1.435084 0.125511 -0.046328 456851.000000 0 0 1
-33.453714 23.009925 6.063348 41.053280 -0.602500 1.422559 0.128578 -0.047752 330892.000000 0 0 1
-33.169834 23.965885 5.113248 41.240112 -0.625681 1.446489 0.120366 -0.039037 262343.000000 0 0 1
-32.210474 24.838435 5.671948 41.068644 -0.656887 1.432244 0.109492 -0.040902 -140894.000000 0 0 1
-32.692994 26.249265 5.442348 42.278540 -0.676508 1.441712 0.101306 -0.036800 -281503.000000 0 0 1
-33.757974 26.561815 6.302748 43.414922 -0.666659 1.425107 0.104496 -0.028902 82317.000000 0 0 1
-34.260982 27.856305 6.249748 44.596502 -0.682655 1.430194 0.094870 -0.023652 -539895.000000 0 0 1
-35.334524 28.190325 7.261748 45.781612 -0.673406 1.411506 0.094397 -0.015939 -708938.000000 0 0 1
-34.805209 28.505305 8.567048 45.796826 -0.686217 1.382621 0.094647 -0.028933 500680.000000 0 0 1
-35.707927 29.149015 9.492748 47.062017 -0.684612 1.367696 0.105367 -0.024774 76027.500000 0 0 1
-36.838324 28.254655 10.041348 47.499646 -0.654287 1.357791 0.095079 -0.019855 -112624.000000 0 0 1
-36.370714 27.216465 10.825148 46.698487 -0.642417 1.336859 0.115232 -0.028458 540191.000000 0 0 1
-37.501754 26.600985 11.445548 47.381373 -0.616958 1.326821 0.108620 -0.027915 528056.000000 0 0 1
-37.186954 25.307565 12.287248 46.629592 -0.597552 1.304140 0.138321 -0.027121 256366.000000 0 0 1
-36.181974 25.515515 13.272348 46.220472 -0.614207 1.279543 0.166391 -0.044925 96566.500000 0 0 1
-35.647190 24.274825 13.753648 45.267562 -0.597843 1.262086 0.174627 -0.045584 -169565.000000 0 0 1
-34.379468 24.613895 14.564848 44.720537 -0.621349 1.239059 0.192260 -0.048754 -105717.000000 0 0 1
-34.539786 25.505555 15.701048 45.717098 -0.636061 1.220220 0.184617 -0.050840 1187550.000000 0 0 1
-33.195954 25.887705 16.123448 45.078933 -0.662330 1.205023 0.209084 -0.044886 1479940.000000 0 0 1
-33.167944 27.210335 16.907848 46.112798 -0.687045 1.195377 0.194805 -0.046718 -21538.800000 0 0 1
-33.380774 28.334955 16.043748 46.632045 -0.703821 1.219570 0.214301 -0.043312 104487.000000 0 0 1
-33.803484 29.499025 16.747448 47.888882 -0.717504 1.213530 0.177307 -0.040373 21620.000000 0 0 1
-33.517434 30.813065 16.033748 48.269498 -0.743384 1.232192 0.145939 -0.038263 -1006980.000000 0 0 1
-32.185184 31.048985 15.788548 47.425772 -0.767432 1.231408 0.134789 -0.033777 -1246860.000000 0 0 1
-32.019064 32.285626 15.141248 47.925354 -0.789543 1.249355 0.104497 -0.019738 1074440.000000 0 0 1
-30.481334 32.511831 14.764348 46.948023 -0.817621 1.250885 0.123779 -0.025859 1558900.000000 0 0 1
-29.935864 31.854024 13.631248 45.789144 -0.816431 1.268518 0.120335 -0.028486 -99421.500000 0 0 1
-29.739824 30.444685 13.771048 44.732290 -0.797109 1.257859 0.144294 -0.031630 1075970.000000 0 0 1
-30.976854 29.394695 13.534048 44.797143 -0.759197 1.263882 0.178017 -0.039600 1368470.000000 0 0 1
-31.248394 29.223055 12.161248 44.478591 -0.751918 1.293852 0.181816 -0.045219 222751.000000 0 0 1
-32.226624 28.202605 11.941648 44.458354 -0.718906 1.298854 0.196724 -0.046523 457077.000000 0 0 1
-32.315304 27.928115 10.404948 43.960453 -0.712702 1.331840 0.159338 -0.037451 397208.000000 0 0 1
-31.118134 27.300945 9.919148 42.568408 -0.720149 1.335618 0.137294 -0.026401 499037.000000 0 0 1
-30.899174 27.666975 8.597948 42.357351 -0.730265 1.366390 0.123178 -0.028070 -189072.000000 0 0 1
-29.709674 26.956825 7.950348 40.896738 -0.736856 1.375150 0.141897 -0.033924 -347133.000000 0 0 1
-29.429904 27.555875 6.694048 40.868763 -0.752524 1.406261 0.137143 -0.045705 -389280.000000 0 0 1
-28.485994 26.722625 6.081448 39.528908 -0.753469 1.416335 0.113009 -0.035650 -397187.000000 0 0 1
-28.123754 27.032475 4.606948 39.280074 -0.765616 1.453241 0.098923 -0.034588 -392808.000000 0 0 1
-27.361604 28.186575 4.438048 39.532729 -0.800249 1.458297 0.084848 -0.040193 1102.430000 0 0 1
-27.183514 28.519605 3.085748 39.520035 -0.809379 1.492636 0.080459 -0.038700 48105.500000 0 0 1
-25.990894 29.472415 2.828948 39.397370 -0.848088 1.498929 0.072498 -0.035342 1185880.000000 0 0 1
-24.647924 28.947345 2.955548 38.134030 -0.865447 1.493214 0.070630 -0.031459 829712.000000 0 0 1
-23.717724 29.988425 2.810248 38.337104 -0.901631 1.497427 0.077962 -0.031678 -257803.000000 0 0 1
-22.301624 29.460955 3.101048 37.080006 -0.922837 1.487067 0.067450 -0.034191 -142351.000000 0 0 1
-21.295024 30.166195 2.419448 37.004474 -0.956106 1.505367 0.074335 -0.029401 -135185.000000 0 0 1
-20.004724 29.677725 2.757748 35.896539 -0.977689 1.493896 0.099491 -0.034362 320406.000000 0 0 1
-18.851724 30.567255 2.262948 35.984240 -1.018167 1.507868 0.096531 -0.036066 -37692.200000 0 0 1
-18.661424 31.735992 2.973348 36.935928 -1.039232 1.490209 0.105428 -0.033706 -205567.000000 0 0 1
-17.491724 32.417254 2.606548 36.927400 -1.075988 1.500152 0.117649 -0.027513 -127964.000000 0 0 1
-17.129124 33.625335 3.538348 37.902374 -1.099648 1.477306 0.120714 -0.034510 170156.000000 0 0 1
-18.076424 -32.969485 3.564748 37.768393 1.069277 1.476271 0.125319 -0.039126 423091.000000 0 0 1
-17.580024 -31.931135 4.443348 36.720539 1.067523 1.449495 0.112555 -0.045509 832731.000000 0 0 1
-18.704024 -30.887805 4.824948 36.430443 1.026308 1.437963 0.124857 -0.041514 567217.000000 0 0 1
-18.915224 -29.933445 3.816548 35.614083 1.007244 1.463426 0.134609 -0.039043 225070.000000 0 0 1
-19.853224 -28.965485 4.253348 35.372882 0.969930 1.450261 0.148830 -0.045620 333.870000 0 0 1
-20.381524 -27.993075 3.188948 34.773383 0.941465 1.478961 0.125132 -0.059642 -282276.000000 0 0 1
-19.462424 -26.988685 2.869648 33.397754 0.946028 1.484767 0.134026 -0.059476 -97913.900000 0 0 1
-19.954124 -26.063715 1.895148 32.879719 0.917392 1.513126 0.125664 -0.048294 628091.000000 0 0 1
-18.891524 -24.902565 1.734248 31.305511 0.921803 1.515370 0.123176 -0.042176 550885.000000 0 0 1
-17.814624 -25.270235 0.906648 30.931661 0.956746 1.541481 0.138666 -0.046153 -766296.000000 0 0 1
-16.869324 -24.233665 1.002348 29.544023 0.962685 1.536863 0.122720 -0.041042 163985.000000 0 0 1
-15.491724 -24.605965 0.362448 29.078831 1.008902 1.558332 0.113769 -0.043956 207306.000000 0 0 1
-15.539324 -24.689265 -1.018452 29.190198 1.009042 1.605694 0.096317 -0.038497 179127.000000 0 0 1
-15.384824 -23.448365 -1.646852 28.093251 0.990134 1.629451 0.096541 -0.039513 -268827.000000 0 0 1
-15.565724 -23.478665 -3.159952 28.346513 0.985355 1.682504 0.060394 -0.020845 72455.200000 0 0 1
-14.489824 -24.140165 -3.795052 28.409593 1.030202 1.704780 0.088578 -0.022714 34846.000000 0 0 1
-14.675624 -24.133565 -5.185052 28.717376 1.024442 1.752347 0.070788 -0.021557 372114.000000 0 0 1
-13.444524 -24.595865 -6.026652 28.671106 1.070554 1.782575 0.088960 -0.024392 539650.000000 0 0 1
-13.052324 -25.979535 -5.871652 29.661013 1.105224 1.770071 0.070070 -0.021530 308576.000000 0 0 1
-11.856924 -26.216795 -6.614452 29.523854 1.146061 1.796752 0.087082 -0.021594 431043.000000 0 0 1
24.654776 12.244335 27.847957 39.157253 0.460949 0.779617 0.111706 -0.024195 -404198.000000 0 0 1
25.576376 11.273735 28.235337 39.730119 0.415166 0.780334 0.105837 -0.031455 100571.000000 0 0 1
25.255576 10.635835 29.474157 40.245385 0.398587 0.749013 0.108582 -0.019633 -119515.000000 0 0 1
25.264576 11.583635 30.754307 41.452464 0.429894 0.734871 0.131792 -0.041018 306976.000000 0 0 1
24.113676 12.420735 30.848417 41.077596 0.475647 0.721253 0.127258 -0.031180 326349.000000 0 0 1
24.100576 13.083135 32.080594 42.203918 0.497342 0.707278 0.123184 -0.030529 -688066.000000 0 0 1
22.869976 13.966335 32.266965 41.943430 0.548239 0.693056 0.110076 -0.025132 -597394.000000 0 0 1
21.736876 13.255535 32.684036 41.430028 0.547607 0.661784 0.106339 -0.008269 -535449.000000 0 0 1
20.808276 14.187235 33.174424 41.650983 0.598411 0.649335 0.107203 -0.007480 -225584.000000 0 0 1
19.630276 13.532035 -33.663762 41.251819 0.603539 2.525349 0.097722 0.003499 714445.000000 0 0 1
18.505976 13.106735 33.125782 40.144428 0.616237 0.600302 0.085401 0.010465 344086.000000 0 0 1
17.702276 12.294235 -33.683972 39.989108 0.607025 2.572386 0.067393 0.007014 -559699.000000 0 0 1
16.389676 11.918235 33.215353 38.909195 0.628735 0.547817 0.057572 0.007939 -119414.000000 0 0 1
16.443976 11.006335 32.151469 37.752625 0.589840 0.551699 0.042143 0.024360 1381350.000000 0 0 1
15.082676 10.582535 31.824541 36.773341 0.611823 0.524800 0.081939 0.004520 1578820.000000 0 0 1
15.181876 9.511035 30.681477 35.528892 0.559658 0.528501 0.093596 0.005731 -20771.500000 0 0 1
15.671876 8.301835 31.160897 35.854284 0.487146 0.517420 0.068861 0.002603 -122053.000000 0 0 1
16.075176 7.550835 30.041107 34.898345 0.439132 0.533922 0.065762 -0.009374 244208.000000 0 0 1
16.612076 6.125935 30.404667 35.184257 0.353292 0.527327 0.084393 -0.029216 333728.000000 0 0 1
15.546976 5.221835 30.692747 34.799723 0.324036 0.490744 0.081642 -0.024484 82927.100000 0 0 1
15.966376 3.922735 31.122687 35.198504 0.240916 0.486007 0.076800 -0.030401 -173781.000000 0 0 1
14.829276 2.952835 31.526898 34.965297 0.196551 0.447198 0.060134 -0.030073 -168136.000000 0 0 1
15.246576 1.761635 32.165895 35.639953 0.115033 0.445202 0.060863 -0.036157 -180713.000000 0 0 1
14.147576 0.994535 32.653068 35.600082 0.070182 0.409754 0.063224 -0.036262 2462.840000 0 0 1
14.594476 -0.423365 33.083546 36.162121 -0.029000 0.415617 0.052953 -0.044732 -93093.700000 0 0 1
14.920276 -1.347565 32.060941 35.388339 -0.090073 0.437120 0.042264 -0.042437 61501.300000 0 0 1
15.368476 -2.546665 32.667078 36.191346 -0.164215 0.444975 0.085258 -0.051640 -407785.000000 0 0 1
15.517476 -3.716965 31.675760 35.467755 -0.235104 0.466637 0.090254 -0.055683 -648712.000000 0 0 1
15.985376 -4.968065 32.122898 36.222845 -0.301325 0.480393 0.098950 -0.054338 169772.000000 0 0 1
17.288376 -5.006265 32.663883 37.294502 -0.281864 0.503630 0.082235 -0.052976 181764.000000 0 0 1
18.556776 -4.704865 31.810278 37.126587 -0.248307 0.541753 0.096308 -0.057006 -153583.000000 0 0 1
18.711476 -3.327565 31.767260 37.018250 -0.175996 0.539138 0.100649 -0.061929 -349690.000000 0 0 1
19.692376 -2.956565 30.853107 36.721182 -0.149024 0.573146 0.123086 -0.062009 -286849.000000 0 0 1
19.708076 -1.455765 30.504117 36.345958 -0.073733 0.574855 0.117131 -0.061377 -585408.000000 0 0 1
20.212576 -0.808065 31.578629 37.502147 -0.039957 0.569726 0.099095 -0.057408 -202165.000000 0 0 1
20.213976 0.612735 31.578427 37.499031 0.030303 0.569607 0.078289 -0.047427 -186294.000000 0 0 1
21.397676 1.317435 30.888617 37.599240 0.061491 0.606720 0.092326 -0.042421 -461023.000000 0 0 1
21.471776 1.265135 29.455207 36.472551 0.058853 0.630726 0.099962 -0.044336 208189.000000 0 0 1
22.373876 2.241735 28.916997 36.630703 0.099861 0.660933 0.080496 -0.034098 -1885.350000 0 0 1
21.842576 3.680635 28.777257 36.314952 0.166939 0.656005 0.059600 -0.016770 -611321.000000 0 0 1
21.632976 4.260535 30.065467 37.283644 0.194458 0.632760 0.056449 -0.019677 109806.000000 0 0 1
21.089676 5.528635 29.949727 37.044924 0.256380 0.629248 0.058228 -0.015744 -311297.000000 0 0 1
20.884076 6.081135 31.335127 38.144659 0.283350 0.606792 0.066084 -0.012465 479311.000000 0 0 1
19.752976 5.455435 31.978507 37.981137 0.269466 0.569895 0.055565 -0.007417 719527.000000 0 0 1
19.594876 5.826135 33.353288 39.119622 0.289005 0.549861 0.050873 -0.007482 294459.000000 0 0 1
18.343876 5.186835 -33.568442 38.603644 0.275562 2.625120 0.057985 -0.010137 297277.000000 0 0 1
18.505476 3.770935 -33.564722 38.513155 0.201022 2.629076 0.057306 -0.015193 584604.000000 0 0 1
17.362776 3.064635 -33.060472 37.468023 0.174707 2.651661 0.060303 -0.020280 440508.000000 0 0 1
17.401576 1.565435 -33.377202 37.673638 0.089718 2.659349 0.066625 -0.040136 -532361.000000 0 0 1
18.508976 0.963935 -32.732292 37.615346 0.052032 2.626373 0.064496 -0.030257 180672.000000 0 0 1
18.520176 -0.429365 -32.867702 37.728863 -0.023179 2.628347 0.070795 -0.037248 467549.000000 0 0 1
19.694576 -1.012765 -31.974122 37.566561 -0.051378 2.588935 0.087785 -0.037082 524060.000000 0 0 1
19.444276 -1.044365 -30.554812 36.232128 -0.053659 2.574204 0.094797 -0.038153 291577.000000 0 0 1
19.339376 0.255435 -29.970152 35.669128 0.013207 2.568497 0.083030 -0.030189 -302398.000000 0 0 1
18.828676 0.157235 -28.499202 34.157697 0.008351 2.557734 0.096331 -0.025427 415803.000000 0 0 1
17.432876 -0.106065 -28.370112 33.298343 -0.006084 2.590586 0.109112 -0.035595 433719.000000 0 0 1
16.907976 -0.439565 -27.100872 31.945737 -0.025992 2.583640 0.099269 -0.029255 -153215.000000 0 0 1
17.529576 -1.572065 -26.278162 31.627507 -0.089441 2.551455 0.118299 -0.026335 -816408.000000 0 0 1
18.769376 -1.206865 -25.721892 31.864741 -0.064211 2.510225 0.126068 -0.028142 98519.500000 0 0 1
19.550076 -2.375965 -25.351662 32.102296 -0.120939 2.481140 0.109037 -0.027416 835030.000000 0 0 1
20.482176 -2.959665 -26.455772 33.588495 -0.143506 2.477772 0.127841 -0.042842 158486.000000 0 0 1
21.612276 -2.169965 -26.798842 34.496045 -0.100069 2.460471 0.124259 -0.034026 -69897.400000 0 0 1
22.167076 -2.645065 -28.016582 35.823239 -0.118763 2.468790 0.130165 -0.043393 422366.000000 0 0 1
23.513976 -1.985765 -28.413852 36.935042 -0.084251 2.448529 0.105530 -0.044036 601274.000000 0 0 1
24.673976 -2.633765 -27.919082 37.352603 -0.106340 2.415007 0.099698 -0.047981 932169.000000 0 0 1
25.883976 -2.005365 -28.433602 38.502875 -0.077321 2.401610 0.072887 -0.046632 1408140.000000 0 0 1
27.203776 -2.725565 -28.059122 39.176376 -0.099857 2.369175 0.089999 -0.042875 147541.000000 0 0 1
27.444476 -3.906465 -28.842692 40.004507 -0.141391 2.376021 0.108312 -0.055497 1406250.000000 0 0 1
28.822176 -4.369565 -28.726232 40.926853 -0.150459 2.348847 0.100197 -0.056582 1348980.000000 0 0 1
29.021076 -5.512265 -27.753282 40.532118 -0.187704 2.325020 0.086614 -0.040794 -205821.000000 0 0 1
28.912876 -5.181065 -26.385032 39.483765 -0.177314 2.302650 0.068955 -0.027622 235505.000000 0 0 1
28.964776 -6.395865 -25.644802 39.211238 -0.217328 2.283678 0.042295 -0.024084 -270812.000000 0 0 1
28.946276 -6.304665 -24.124452 38.205037 -0.214456 2.254214 0.027087 -0.018761 -365557.000000 0 0 1
30.243976 -6.033665 -23.684552 38.885231 -0.196914 2.225707 0.025099 -0.016099 -177797.000000 0 0 1
30.243776 -5.824765 -22.260752 38.002039 -0.190264 2.196636 0.036905 -0.016036 480196.000000 0 0 1
31.623476 -5.324465 -21.707452 38.724767 -0.166806 2.165855 0.044620 -0.018095 329941.000000 0 0 1
31.967076 -4.052865 -22.172752 39.114583 -0.126110 2.173494 0.060059 -0.027228 -561235.000000 0 0 1
33.235376 -3.757265 -21.677652 39.857594 -0.112572 2.145847 0.079705 -0.023479 -285126.000000 0 0 1
33.831976 -2.508165 -22.364552 40.633320 -0.074001 2.153639 0.092218 -0.034686 -304433.000000 0 0 1
32.993376 -1.444065 -22.113852 39.745070 -0.043740 2.160834 0.070306 -0.028602 -117138.000000 0 0 1
33.458976 -0.322365 -22.789952 40.484428 -0.009634 2.168724 0.083821 -0.031016 110902.000000 0 0 1
32.545176 0.890435 -22.510352 39.581527 0.027353 2.175731 0.074987 -0.025056 988336.000000 0 0 1
31.217476 0.798735 -23.065152 38.822287 0.025581 2.206969 0.053943 -0.027380 841148.000000 0 0 1
30.343476 1.800135 -22.644952 37.904628 0.059256 2.211075 0.055702 -0.018481 -347033.000000 0 0 1
28.973876 1.686735 -23.311352 37.225659 0.058150 2.247488 0.068475 -0.025508 -303289.000000 0 0 1
28.024976 2.701835 -23.053652 36.389147 0.096111 2.256905 0.076221 -0.021298 578957.000000 0 0 1
27.129876 2.858935 -24.172852 36.449011 0.104992 2.295878 0.100168 -0.026169 379302.000000 0 0 1
26.028976 3.933235 -24.015152 35.632926 0.149975 2.310352 0.094297 -0.015256 -42015.100000 0 0 1
26.521576 5.288035 -23.902452 36.092721 0.196805 2.294616 0.084872 -0.006650 51881.200000 0 0 1
25.492176 6.239635 -23.789352 35.421989 0.240047 2.307160 0.109920 -0.016290 -171751.000000 0 0 1
25.949576 7.531135 -23.059952 35.522667 0.282462 2.277278 0.130682 -0.018208 -95048.800000 0 0 1
26.846576 8.297835 -23.838752 36.849407 0.299769 2.274340 0.136914 -0.011109 -29548.000000 0 0 1
27.229776 9.413635 -23.108852 36.933674 0.332849 2.246806 0.162479 -0.015553 -123916.000000 0 0 1
28.437176 10.131735 -23.754352 38.413464 0.342263 2.237484 0.195530 -0.016407 -383127.000000 0 0 1
28.296876 10.708135 -25.058052 39.284645 0.361767 2.262511 0.218848 -0.025143 249771.000000 0 0 1
27.162676 11.543335 -25.268282 38.852871 0.401846 2.278852 0.225892 -0.023081 242424.000000 0 0 1
27.019776 12.045035 -26.764612 39.893553 0.419344 2.306219 0.220736 -0.025194 -73914.400000 0 0 1
26.651876 11.027335 -27.762972 40.033826 0.392307 2.337115 0.183633 -0.023914 533895.000000 0 0 1
27.560876 9.935635 -27.948362 40.489871 0.345996 2.332639 0.169536 -0.033370 284159.000000 0 0 1
28.486776 10.090435 -29.195972 42.020448 0.340425 2.338944 0.158482 -0.033244 -61078.700000 0 0 1
29.651776 10.920835 -29.064402 42.932877 0.352886 2.314439 0.144667 -0.034330 914923.000000 0 0 1
30.482776 11.019235 -30.202162 44.303428 0.346874 2.320896 0.152514 -0.043226 429475.000000 0 0 1
31.133276 9.751835 -30.760482 44.839563 0.303549 2.326790 0.100411 -0.032188 -239129.000000 0 0 1
30.149176 9.103435 -31.603002 44.616085 0.293242 2.357929 0.099544 -0.026184 730700.000000 0 0 1
30.501076 7.782735 -31.925722 44.834566 0.249832 2.363250 0.084760 -0.011366 -723310.000000 0 0 1
29.338776 7.049635 -32.559092 44.390940 0.235813 2.394198 0.087113 -0.024830 -139313.000000 0 0 1
28.398376 6.556735 -31.612172 42.997534 0.226908 2.396771 0.107638 -0.031126 -205017.000000 0 0 1
27.243376 6.097035 -32.261812 42.663800 0.220171 2.428263 0.067292 -0.029545 -282603.000000 0 0 1
25.976876 6.277035 -31.411152 41.241480 0.237094 2.436636 0.103679 -0.022053 -1139480.000000 0 0 1
25.725676 7.679535 -31.255912 41.203370 0.290095 2.431922 0.111990 -0.013164 373722.000000 0 0 1
24.533876 7.925735 -30.516832 39.950036 0.312470 2.440093 0.117354 -0.019045 1008170.000000 0 0 1
23.162576 7.550535 -31.169112 39.560448 0.315118 2.478164 0.127849 -0.017724 -230472.000000 0 0 1
22.772476 8.540735 -32.114272 40.284690 0.358811 2.493411 0.123557 -0.014860 112926.000000 0 0 1
21.389176 8.384235 -32.399512 39.718014 0.373578 2.524801 0.095762 -0.006466 264430.000000 0 0 1
20.865976 9.510135 -33.294052 40.426792 0.427644 2.538462 0.098033 -0.001792 -215051.000000 0 0 1
21.266576 9.327435 32.971730 40.328691 0.413330 0.613609 0.085200 -0.006103 -92149.000000 0 0 1
20.893476 10.358935 32.100746 39.677485 0.460280 0.628276 0.065532 -0.008844 -111766.000000 0 0 1
19.959976 9.885535 30.976557 38.153264 0.459855 0.623400 0.069111 -0.005969 160926.000000 0 0 1
20.519276 8.955035 30.042207 37.466886 0.411504 0.640439 0.065032 -0.009710 233465.000000 0 0 1
21.551176 9.315335 29.125077 37.409875 0.407989 0.678461 0.078934 -0.011066 -96763.500000 0 0 1
21.082676 10.032735 27.834927 36.330678 0.444163 0.697960 0.096016 -0.014262 335347.000000 0 0 1
20.081676 9.382735 27.013417 34.943299 0.437089 0.687138 0.084433 -0.006688 512542.000000 0 0 1
18.816176 9.895335 27.362697 34.650878 0.484148 0.660528 0.099508 -0.027948 -498761.000000 0 0 1
17.615776 9.200535 26.702467 33.286441 0.481320 0.639821 0.117068 -0.027272 -542834.000000 0 0 1
17.310376 9.538435 25.372547 32.162043 0.503629 0.661784 0.119611 -0.026990 1762840.000000 0 0 1
15.987476 9.041135 24.949947 30.981307 0.514676 0.634577 0.139349 -0.025665 1864510.000000 0 0 1
15.935776 7.518135 24.723727 30.360072 0.440816 0.619188 0.133631 -0.022604 -301120.000000 0 0 1
16.004176 6.798535 25.937717 31.226894 0.401699 0.590574 0.105502 -0.030316 -54209.700000 0 0 1
15.909576 5.434435 25.723917 30.730565 0.329156 0.578874 0.120456 -0.028080 -300648.000000 0 0 1
16.398476 4.613535 26.890477 31.832255 0.274250 0.564688 0.082772 -0.032822 -1558560.000000 0 0 1
17.761376 4.612935 27.021067 32.663186 0.254103 0.596577 0.091584 -0.023725 -1429180.000000 0 0 1
18.199776 3.844935 28.096717 33.696304 0.208201 0.584801 0.089561 -0.034091 -787644.000000 0 0 1
18.563876 2.315035 28.029957 33.699486 0.124066 0.588522 0.085246 -0.036607 -614037.000000 0 0 1
17.539976 1.348735 27.902997 32.985559 0.076744 0.562517 0.087701 -0.047209 -202892.000000 0 0 1
16.827576 1.110035 29.069927 33.607442 0.065870 0.525676 0.077544 -0.046518 -137522.000000 0 0 1
16.360276 -0.381265 29.302787 33.562737 -0.023300 0.509323 0.074889 -0.048672 -822729.000000 0 0 1
15.421076 -0.873565 28.421957 32.347803 -0.056587 0.497797 0.072649 -0.041004 -378288.000000 0 0 1
15.842576 -1.390965 27.181767 31.492387 -0.087575 0.529377 0.089040 -0.041431 -722299.000000 0 0 1
16.934976 -2.544765 27.192787 32.135913 -0.149151 0.562020 0.089162 -0.029441 1954050.000000 0 0 1
18.317476 -2.209565 27.472727 33.093245 -0.120046 0.591400 0.104744 -0.052038 1155450.000000 0 0 1
18.872076 -1.253865 26.563887 32.609317 -0.066343 0.618739 0.094314 -0.048906 -1355740.000000 0 0 1
20.205676 -0.741965 27.108347 33.818373 -0.036704 0.640852 0.134798 -0.038318 -501007.000000 0 0 1
21.275576 -1.636165 26.986517 34.403478 -0.076752 0.669048 0.115425 -0.036409 318515.000000 0 0 1
22.508776 -0.983965 27.371667 35.451676 -0.043687 0.688683 0.107778 -0.041334 933248.000000 0 0 1
23.756776 -1.573265 26.684047 35.761683 -0.066127 0.728516 0.111977 -0.041662 -152564.000000 0 0 1
23.845676 -1.192265 25.311617 34.795340 -0.049958 0.756209 0.124459 -0.018467 -94911.500000 0 0 1
23.171376 -2.031265 24.431457 33.733289 -0.087439 0.760845 0.144573 -0.009592 -224229.000000 0 0 1
23.145076 -1.755465 22.931587 32.628728 -0.075701 0.791465 0.132037 -0.039263 265503.000000 0 0 1
22.291376 -0.618865 22.743257 31.851910 -0.027755 0.775557 0.107736 -0.024782 245033.000000 0 0 1
22.363876 -0.082365 21.388687 30.945527 -0.003683 0.807687 0.096608 -0.014008 209200.000000 0 0 1
-32.082304 -26.496505 -10.427852 42.896143 0.690330 1.816352 0.044292 0.026867 86054.900000 0 0 1
-31.718054 -25.450205 -9.583852 41.780356 0.676196 1.802244 0.057710 0.028358 -131520.000000 0 0 1
-32.303244 -25.623805 -8.277852 42.054748 0.670597 1.768925 0.074078 0.016864 -359419.000000 0 0 1
-32.160354 -24.291005 -7.443152 40.984653 0.646890 1.753418 0.118207 0.009615 591450.000000 0 0 1
-30.937614 -23.847905 -6.853552 39.658917 0.656705 1.744481 0.108554 0.005734 -100.963000 0 0 1
-30.316984 -24.735705 -5.916552 39.572468 0.684363 1.720871 0.112021 -0.003984 412298.000000 0 0 1
-29.027964 -24.135305 -5.261552 38.115870 0.693626 1.709280 0.099785 -0.005913 -75150.700000 0 0 1
-29.092244 -23.122005 -4.261052 37.405111 0.671551 1.684960 0.120991 -0.010614 21838.100000 0 0 1
-29.780674 -21.941805 -4.679352 37.285757 0.634986 1.696628 0.146197 -0.013031 -133097.000000 0 0 1
-29.755074 -20.810205 -3.672252 36.495404 0.610312 1.671589 0.140539 -0.020258 596852.000000 0 0 1
-28.518834 -20.082705 -3.575352 35.063116 0.613533 1.672943 0.154197 -0.026989 843199.000000 0 0 1
-28.687144 -18.969705 -2.704352 34.498050 0.584251 1.649268 0.182266 -0.022660 -312228.000000 0 0 1
-27.691674 -17.856505 -3.035252 33.089218 0.572734 1.662655 0.162798 -0.019478 -7015.710000 0 0 1
-28.077094 -17.063905 -4.180852 33.120682 0.546100 1.697365 0.164385 -0.036246 652730.000000 0 0 1
-27.072774 -16.088505 -4.515452 31.814531 0.536195 1.713208 0.131509 -0.035121 329345.000000 0 0 1
-27.464574 -15.128005 -5.654552 31.861157 0.503472 1.749216 0.158739 -0.052719 -178076.000000 0 0 1
-28.661964 -14.460705 -5.364652 32.548420 0.467262 1.736372 0.154804 -0.033308 -225239.000000 0 0 1
-28.908174 -13.378105 -6.233952 32.457948 0.433430 1.764060 0.191781 -0.054275 305977.000000 0 0 1
-30.285594 -12.667505 -6.079652 33.386301 0.396155 1.753918 0.177921 -0.038386 -271548.000000 0 0 1
-31.357324 -13.340905 -6.611352 34.712699 0.402250 1.762426 0.179202 -0.040141 -35569.800000 0 0 1
-32.555484 -12.532805 -6.508852 35.486560 0.367481 1.755258 0.168546 -0.040911 275812.000000 0 0 1
-33.756344 -13.229705 -7.117052 36.948184 0.373519 1.764630 0.120676 -0.038815 -604588.000000 0 0 1
-34.413370 -14.247205 -6.355852 37.784385 0.392519 1.739814 0.109623 -0.025539 390492.000000 0 0 1
-34.738628 -15.314405 -7.161752 38.634104 0.415216 1.757249 0.107643 -0.035314 -664895.000000 0 0 1
-35.730935 -16.355805 -6.592352 39.845592 0.429279 1.737008 0.103412 -0.026288 1284060.000000 0 0 1
-37.131194 -15.997205 -6.690352 40.980446 0.406798 1.734788 0.085830 -0.031373 1159650.000000 0 0 1
-37.646044 -15.194605 -5.647052 40.987679 0.383621 1.709010 0.099632 -0.034598 -553969.000000 0 0 1
36.406206 -15.030205 -5.545752 39.775297 -0.391532 1.710679 0.151933 -0.036565 -1097460.000000 0 0 1
35.882396 -14.232405 -6.601052 39.162247 -0.377607 1.740161 0.164987 -0.042301 1126410.000000 0 0 1
34.457126 -14.039105 -6.554852 37.780366 -0.386901 1.745178 0.164692 -0.032313 1102390.000000 0 0 1
33.740866 -13.442505 -5.297652 36.704388 -0.379130 1.715635 0.186474 -0.045943 -779985.000000 0 0 1
33.591186 -14.384005 -4.274252 36.790442 -0.404584 1.687238 0.184371 -0.049752 524898.000000 0 0 1
32.966036 -13.708805 -3.169452 35.843218 -0.394092 1.659337 0.221010 -0.048142 -461483.000000 0 0 1
32.912976 -14.645805 -1.917452 36.075479 -0.418676 1.623972 0.220397 -0.053387 72560.200000 0 0 1
34.101236 -15.053505 -1.250552 37.297000 -0.415709 1.604332 0.252928 -0.041222 250328.000000 0 0 1
35.004736 -15.894805 -1.967452 38.494769 -0.426238 1.621928 0.214611 -0.041296 -317317.000000 0 0 1
34.622806 -17.379805 -2.380652 38.813191 -0.465227 1.632171 0.187965 -0.034721 -847976.000000 0 0 1
34.680346 -18.228005 -1.242352 39.198597 -0.483918 1.602495 0.167448 -0.041406 215974.000000 0 0 1
34.453706 -19.572205 -1.641352 39.658834 -0.516613 1.612195 0.146029 -0.025565 -22645.200000 0 0 1
35.658456 -20.267405 -2.341252 41.082534 -0.516842 1.627816 0.134483 -0.026264 2427.700000 0 0 1
36.023946 -19.588205 -3.483752 41.152873 -0.498036 1.655552 0.102246 -0.033208 -749348.000000 0 0 1
37.064746 -20.185805 -4.170252 42.410531 -0.498695 1.669286 0.103497 -0.024408 -738476.000000 0 0 1
37.313256 -19.433405 -5.442052 42.421129 -0.480163 1.699437 0.117847 -0.031620 -551607.000000 0 0 1
36.200146 -19.445005 -6.266252 41.567111 -0.492926 1.722123 0.096606 -0.040949 -162999.000000 0 0 1
36.439586 -18.556505 -7.333452 41.544757 -0.471012 1.748245 0.107688 -0.042838 363275.000000 0 0 1
35.330016 -18.655805 -8.436752 40.834151 -0.485830 1.778905 0.103290 -0.045633 233158.000000 0 0 1
35.375496 -19.805405 -9.264152 41.587309 -0.510383 1.795445 0.106370 -0.038529 677736.000000 0 0 1
34.305336 -19.632605 -10.209252 40.823082 -0.519795 1.823565 0.098454 -0.050968 160249.000000 0 0 1
34.078886 -20.920905 -11.018852 41.478546 -0.550575 1.839676 0.110304 -0.040825 -110503.000000 0 0 1
33.682266 -21.928205 -10.152552 41.453776 -0.577100 1.818226 0.095986 -0.046393 56925.600000 0 0 1
33.219226 -23.042405 -10.900452 41.872297 -0.606449 1.834156 0.088048 -0.042210 -35293.800000 0 0 1
32.773576 -24.178505 -9.914252 41.916581 -0.635611 1.809582 0.104994 -0.030830 109706.000000 0 0 1
31.475806 -24.030305 -9.378652 40.695713 -0.652056 1.803345 0.115669 -0.033365 89849.500000 0 0 1
30.831466 -25.328205 -9.350852 40.982139 -0.687717 1.800993 0.080333 -0.027851 722551.000000 0 0 1
29.365566 -25.266105 -8.775252 39.720493 -0.710500 1.793559 0.075047 -0.027913 899077.000000 0 0 1
28.591066 -24.524305 -9.721652 38.902456 -0.708983 1.823371 0.073545 -0.024004 -1021470.000000 0 0 1
27.343366 -24.241505 -9.179552 37.677240 -0.725339 1.816910 0.094058 -0.029364 -618814.000000 0 0 1
26.393966 -23.624505 -10.226852 36.869326 -0.730086 1.851863 0.179249 -0.047761 -548622.000000 0 0 1
25.968366 -24.655505 -11.083652 37.484627 -0.759470 1.870969 0.141377 -0.041388 -105069.000000 0 0 1
25.256766 -24.121305 -12.179052 36.987442 -0.762407 1.906332 0.149245 -0.030924 -18370.000000 0 0 1
24.381466 -25.175205 -12.914752 37.350203 -0.801414 1.923861 0.139953 -0.040009 221154.000000 0 0 1
25.121466 -26.168405 -13.648952 38.757804 -0.805808 1.930674 0.117669 -0.035858 506686.000000 0 0 1
24.406666 -27.421305 -13.610152 39.151622 -0.843499 1.925835 0.133688 -0.015168 33022.100000 0 0 1
25.109466 -28.624605 -14.280752 40.666856 -0.850722 1.929611 0.103711 -0.015956 -339450.000000 0 0 1
25.172166 -28.632005 -15.701052 41.230482 -0.849614 1.961470 0.093835 -0.016547 45454.200000 0 0 1
25.388666 -29.937705 -16.105552 42.429227 -0.867436 1.960145 0.088838 -0.011670 -258050.000000 0 0 1
25.317466 -30.159705 -17.656052 43.154583 -0.872461 1.992302 0.085274 -0.002109 -637230.000000 0 0 1
24.066166 -29.888705 -18.187252 42.465176 -0.892897 2.013392 0.095907 -0.006854 -635119.000000 0 0 1
24.008066 -29.910605 -19.569352 43.057996 -0.894435 2.042594 0.077207 0.000020 219332.000000 0 0 1
22.631466 -29.483305 -20.161852 42.284143 -0.916124 2.067828 0.058337 0.009912 303083.000000 0 0 1
22.475866 -29.426205 -21.548752 42.841741 -0.918519 2.097845 0.031773 0.016130 301562.000000 0 0 1
21.083966 -29.477405 -21.837952 42.312494 -0.949903 2.113101 0.046574 0.003463 135372.000000 0 0 1
20.787966 -29.685405 -23.369452 43.121851 -0.959885 2.143540 0.041397 0.000086 -414521.000000 0 0 1
21.182966 -28.603805 -24.156952 43.016904 -0.933361 2.167077 0.050851 0.002911 331172.000000 0 0 1
21.250466 -28.912805 -25.561212 44.055739 -0.936975 2.189773 0.043820 -0.000106 -348163.000000 0 0 1
21.833766 -27.690805 -26.306842 43.994817 -0.903117 2.211741 0.041386 -0.005270 12382.300000 0 0 1
21.060066 -26.499805 -26.378182 42.913570 -0.899280 2.232779 0.075749 -0.022726 550014.000000 0 0 1
20.038866 -26.575805 -27.410022 43.117732 -0.924723 2.259714 0.095388 -0.033244 376550.000000 0 0 1
19.186066 -25.318605 -27.634312 42.104537 -0.922331 2.286735 0.092508 -0.033673 2377.930000 0 0 1
18.145866 -25.075705 -26.708712 40.882988 -0.944378 2.282727 0.076397 -0.013823 -30103.400000 0 0 1
17.675366 -23.745605 -26.671832 39.845438 -0.930912 2.304173 0.056669 -0.014256 95466.500000 0 0 1
16.429166 -23.572005 -25.793962 38.611985 -0.962102 2.302355 0.057110 -0.014718 -64062.700000 0 0 1
15.217466 -24.187205 -26.194082 38.764959 -1.009216 2.312731 0.108718 -0.024423 645707.000000 0 0 1
14.008266 -23.895805 -25.483242 37.638233 -1.040569 2.314553 0.093861 -0.023808 777158.000000 0 0 1
13.952266 -24.185005 -23.945252 36.782540 -1.047537 2.279691 0.081042 -0.022527 -276053.000000 0 0 1
14.904066 -23.377005 -23.223752 36.165705 -1.003221 2.268094 0.039698 -0.016686 116245.000000 0 0 1
14.983266 -23.713205 -21.847652 35.554665 -1.007284 2.232524 0.054846 -0.017441 16553.700000 0 0 1
16.058366 -22.998705 -21.012752 35.047786 -0.961260 2.213730 0.032121 -0.015092 18961.700000 0 0 1
15.821866 -21.622805 -20.862852 33.957852 -0.939097 2.232390 0.025086 -0.015938 -20967.200000 0 0 1
16.957866 -20.946905 -20.369952 33.782791 -0.890251 2.218013 0.020596 -0.019121 -178835.000000 0 0 1
16.577366 -19.508205 -20.159552 32.585068 -0.866439 2.237851 0.039771 -0.014608 339637.000000 0 0 1
15.965166 -19.228305 -18.912752 31.341768 -0.877854 2.218599 0.040330 -0.014328 245681.000000 0 0 1
14.556666 -19.424505 -18.862752 30.741036 -0.927681 2.231410 0.021385 -0.011999 -19013.200000 0 0 1
14.027366 -19.470905 -17.420152 29.653749 -0.946492 2.198703 0.032678 -0.006454 -50797.600000 0 0 1
14.060566 -18.255305 -16.744152 28.483720 -0.914481 2.199195 0.060636 -0.021679 52623.300000 0 0 1
13.502366 -18.378105 -15.460852 27.551889 -0.937160 2.166576 0.049442 -0.025263 -269162.000000 0 0 1
13.488766 -17.050805 -14.728452 26.260313 -0.901510 2.166225 0.061721 -0.018073 -331622.000000 0 0 1
12.261566 -16.400605 -14.918952 25.335765 -0.928814 2.200431 0.062033 -0.032578 -145103.000000 0 0 1
12.349166 -15.126205 -14.332752 24.222546 -0.886130 2.203976 0.061458 -0.037880 -708262.000000 0 1 0
11.014866 -14.491205 -13.976652 22.949272 -0.920858 2.225625 0.076382 -0.032280 -619054.000000 0 1 0
10.137666 -14.339005 -15.054552 23.130475 -0.955388 2.279505 0.104281 -0.024279 -274751.000000 0 1 0
8.836566 -13.906205 -14.747052 22.112055 -1.004724 2.300869 0.095879 -0.021819 -147580.000000 0 1 0
8.174766 -13.417005 -16.062952 22.469117 -1.023578 2.367263 0.078271 -0.012808 -130704.000000 0 1 0
8.687966 -12.270505 -16.770652 22.523339 -0.954697 2.410717 0.074734 -0.008078 820472.000000 0 1 0
9.992066 -12.371905 -17.389852 23.565066 -0.891413 2.400825 0.109071 -0.016819 758352.000000 0 1 0
10.341466 -11.241705 -18.328752 23.859275 -0.827084 2.446825 0.120611 -0.016415 -445467.000000 0 1 0
9.616366 -11.258405 -19.510852 24.492846 -0.863898 2.492436 0.123023 -0.024742 -57519.200000 0 1 0
9.698566 -10.001805 -20.142252 24.490990 -0.800790 2.536475 0.120502 -0.029664 -100295.000000 0 1 0
9.471166 -9.927505 -21.643252 25.625938 -0.808918 2.576584 0.123812 -0.031813 240802.000000 0 0 1
10.480266 -10.493405 -22.459252 26.914039 -0.786025 2.557986 0.131441 -0.032758 -279498.000000 0 0 1
10.115566 -10.334805 -23.792052 27.842317 -0.796118 2.595439 0.125286 -0.029386 190786.000000 0 0 1
11.109766 -10.961005 -24.802452 29.304132 -0.778658 2.579949 0.136447 -0.029151 50135.400000 0 0 1
11.271866 -12.386205 -24.734252 29.870659 -0.832465 2.546408 0.118475 -0.024018 -370183.000000 0 0 1
12.419266 -12.796705 -25.418692 31.050020 -0.800365 2.529830 0.102178 -0.028631 -306739.000000 0 0 1
12.732166 -14.289605 -25.170742 31.620675 -0.842971 2.491490 0.084623 -0.018231 89799.000000 0 0 1
11.736566 -15.134305 -25.742752 32.085564 -0.911178 2.501961 0.076052 -0.013952 36399.000000 0 0 1
11.785866 -16.421705 -25.169322 32.281168 -0.948289 2.464968 0.061393 -0.013925 187530.000000 0 0 1
10.571466 -17.295705 -25.520732 32.591487 -1.022168 2.470349 0.064853 -0.011353 102482.000000 0 0 1
10.804466 -17.938405 -26.794432 34.006829 -1.028681 2.478209 0.073500 -0.023729 223536.000000 0 0 1
9.734966 -18.809405 -27.162242 34.443441 -1.093201 2.479332 0.081407 -0.023843 239620.000000 0 0 1
10.014266 -19.593005 -28.455902 35.970957 -1.098297 2.483369 0.079797 -0.028062 -265142.000000 0 0 1
10.831966 -20.685505 -28.095832 36.532142 -1.088408 2.448184 0.069087 -0.027833 -129446.000000 0 0 1
10.791366 -21.715005 -29.051982 37.841943 -1.109588 2.446070 0.087712 -0.029059 -235516.000000 0 0 1
11.865966 -22.790805 -28.856022 38.637960 -1.090768 2.414080 0.075247 -0.022038 -218656.000000 0 0 1
11.944866 -23.846505 -29.820642 40.007578 -1.106424 2.411893 0.072966 -0.020444 -81716.100000 0 0 1
12.524566 -25.060405 -29.367102 40.587132 -1.107329 2.379738 0.103156 -0.026057 -701686.000000 0 0 1
11.518866 -25.948005 -28.591992 40.292496 -1.153009 2.359742 0.111173 -0.028164 81763.100000 0 0 1
10.928366 -25.283305 -27.534762 38.946602 -1.162812 2.356026 0.117685 -0.034783 -690393.000000 0 0 1
10.632366 -26.261505 -26.532012 38.815738 -1.186103 2.323394 0.120667 -0.029271 340362.000000 0 0 1
9.941766 -25.464905 -25.370252 37.295439 -1.198584 2.318901 0.103540 -0.026067 542846.000000 0 0 1
10.759766 -24.381505 -24.932652 36.494760 -1.155194 2.322911 0.090337 -0.023283 -66368.800000 0 0 1
9.980766 -23.211705 -24.852952 35.441052 -1.164708 2.347942 0.080768 -0.011737 -125500.000000 0 0 1
10.799366 -21.904705 -24.915552 34.888782 -1.112752 2.366194 0.074291 -0.002938 -202849.000000 0 0 1
11.331466 -21.743605 -23.640952 34.059963 -1.090380 2.337962 0.064195 -0.006294 272669.000000 0 0 1
12.369566 -20.744505 -23.621152 33.783124 -1.033115 2.345074 0.054138 -0.013682 528218.000000 0 0 1
13.010766 -20.439505 -22.211452 32.869469 -1.003935 2.312774 0.035919 0.000317 402529.000000 0 0 1
12.171266 -19.756605 -21.247252 31.462817 -1.018651 2.312185 0.022458 0.003299 141793.000000 0 0 1
11.782666 -18.421705 -21.528552 30.686625 -1.001761 2.348383 0.026736 -0.002063 -233339.000000 0 0 1
12.844066 -17.346905 -21.233752 30.278001 -0.933452 2.348006 0.043234 -0.004896 -338400.000000 0 0 1
14.000866 -17.577805 -21.973252 31.429719 -0.898188 2.344967 0.039010 -0.004095 -908581.000000 0 0 1
14.902966 -16.517405 -21.867852 31.194968 -0.836735 2.347603 0.060917 -0.008815 403976.000000 0 0 1
16.145766 -16.598105 -22.818952 32.509805 -0.799212 2.348872 0.039140 -0.003314 1735590.000000 0 0 1
17.351066 -17.222205 -22.252252 33.057927 -0.781671 2.309228 0.047488 0.004845 917950.000000 0 0 1
18.443666 -16.926805 -23.072852 34.044706 -0.742539 2.315457 0.073648 -0.005502 -741950.000000 0 0 1
19.784966 -17.148305 -22.399752 34.456612 -0.714129 2.278494 0.073406 -0.010186 -614144.000000 0 0 1
19.933566 -18.523105 -22.014652 35.001391 -0.748738 2.251018 0.070972 -0.019959 663742.000000 0 0 1
21.310366 -18.792105 -21.707852 35.756198 -0.722685 2.223212 0.067691 -0.028615 901564.000000 0 0 1
21.602066 -20.229005 -21.180252 36.393199 -0.752586 2.191962 0.073254 -0.032645 235250.000000 0 0 1
20.997466 -20.632105 -19.916652 35.542233 -0.776622 2.165624 0.077139 -0.031687 469541.000000 0 0 1
21.624566 -21.827905 -19.539452 36.412490 -0.790078 2.137216 0.094303 -0.025857 -140552.000000 0 0 1
-16.641224 13.194135 28.791047 35.776248 -0.670371 0.635537 0.070334 -0.026232 -69667.000000 0 0 1
-17.830224 13.839435 28.350017 36.237692 -0.660046 0.672390 0.074133 -0.031515 367715.000000 0 0 1
-17.963724 13.531935 27.008617 35.146466 -0.645605 0.694367 0.063066 -0.026888 446676.000000 0 0 1
-19.220324 14.168235 26.322367 35.539088 -0.635225 0.736745 0.078277 -0.025136 410782.000000 0 0 1
-19.240624 15.555435 26.589207 36.320230 -0.679883 0.749430 0.086459 -0.023770 724633.000000 0 0 1
-20.317324 16.210835 25.882617 36.680986 -0.673448 0.787507 0.090402 -0.020545 44672.800000 0 0 1
-20.354324 17.693435 26.166047 37.576830 -0.715576 0.800519 0.097383 -0.007009 209565.000000 0 0 1
-19.258724 18.437235 25.655767 37.000655 -0.763609 0.804618 0.065915 -0.019339 556003.000000 0 0 1
-18.078824 18.396135 26.459387 36.950790 -0.794097 0.772639 0.063475 -0.008909 542674.000000 0 0 1
-16.992424 19.401635 25.860117 36.522754 -0.851500 0.784056 0.070735 -0.016365 722198.000000 0 0 1
-17.378224 20.757035 26.027827 37.554027 -0.873768 0.805048 0.080016 -0.017658 -236206.000000 0 0 1
-16.425824 21.461635 25.337747 37.046065 -0.917539 0.817630 0.093862 -0.028474 -429409.000000 0 0 1
-16.641724 22.967735 25.353197 38.042719 -0.943770 0.841372 0.101095 -0.026621 -89604.200000 0 0 1
-16.232924 23.682935 26.498307 39.071083 -0.969918 0.825475 0.097882 -0.020039 79291.200000 0 0 1
-16.507924 25.072435 26.456357 40.013465 -0.988532 0.848397 0.100271 -0.016252 -327554.000000 0 0 1
-15.803324 25.884435 27.542527 40.967546 -1.022667 0.833483 0.082633 -0.013685 1272840.000000 0 0 1
-14.388024 26.084635 27.277787 40.391845 -1.066733 0.829386 0.079644 -0.015772 1877090.000000 0 0 1
-13.621224 26.759335 28.305177 41.264789 -1.099953 0.814901 0.085569 -0.010311 1731820.000000 0 0 1
-12.044424 26.646135 28.275087 40.676347 -1.146269 0.802205 0.098410 -0.015930 1133690.000000 0 0 1
-11.482824 27.489735 27.278097 40.393507 -1.175114 0.829413 0.070995 -0.004124 -792584.000000 0 0 1
-10.106124 27.352335 27.447857 40.045834 -1.216874 0.815628 0.072308 -0.005566 -741059.000000 0 0 1
-9.372324 27.909335 26.167847 39.389436 -1.246816 0.844190 0.073437 -0.001719 1403410.000000 0 0 1
-7.941324 28.124535 26.345667 39.346516 -1.295598 0.837152 0.081235 -0.015726 1768990.000000 0 0 1
-7.348024 28.613635 25.113207 38.773789 -1.319427 0.866254 0.094272 -0.016163 450648.000000 0 0 1
-5.825024 28.310135 25.038877 38.240555 -1.367871 0.856914 0.102675 -0.025974 -225691.000000 0 0 1
-5.119024 28.996635 26.043407 39.309901 -1.396058 0.846625 0.118235 -0.030490 794303.000000 0 0 1
-3.689624 28.892235 25.961107 39.017351 -1.443781 0.842802 0.107708 -0.028249 956301.000000 0 0 1
-3.043224 29.856235 24.922927 39.010361 -1.469218 0.877755 0.105711 -0.023932 -549128.000000 0 0 1
-2.938224 29.352435 23.550947 37.747129 -1.471027 0.897056 0.107943 -0.020074 51668.900000 0 0 1
-2.696424 30.351735 22.594977 37.934569 -1.482190 0.932746 0.106950 -0.019718 -402686.000000 0 0 1
-2.853924 29.823935 21.134287 36.664289 -1.475394 0.956447 0.113951 -0.022106 299882.000000 0 0 1
-4.149924 29.728435 20.577987 36.393066 -1.432098 0.969833 0.104558 -0.019596 201555.000000 0 0 1
-4.929824 28.627935 21.095687 35.901112 -1.400266 0.942700 0.098906 -0.013264 -194645.000000 0 0 1
-6.432324 28.674535 20.785487 35.995003 -1.350127 0.955189 0.082724 -0.015204 -213561.000000 0 0 1
-6.817424 28.785535 19.415887 35.384474 -1.338246 0.989973 0.064317 -0.019672 -4233.200000 0 0 1
-7.514124 27.647735 18.928187 34.338544 -1.305425 0.986967 0.038257 -0.011897 -626731.000000 0 0 1
-6.712324 26.316735 18.733487 32.993475 -1.321062 0.966973 0.022616 -0.015604 454930.000000 0 0 1
-5.851924 26.189935 17.575287 32.078785 -1.350966 0.990970 0.029967 -0.019280 447251.000000 0 0 1
-4.573724 26.742735 17.846187 32.474286 -1.401408 0.988973 0.054386 -0.016033 -580733.000000 0 0 1
-3.671624 26.741635 16.637987 31.708335 -1.434350 1.018411 0.047091 -0.016722 -425550.000000 0 0 1
-3.136524 25.554935 16.151587 30.393523 -1.448671 1.010526 0.044835 -0.016375 -127049.000000 0 0 1
-2.418024 25.857035 14.973287 29.977199 -1.477552 1.047787 0.052989 -0.023489 -330131.000000 0 0 1
-1.911824 24.669835 14.201687 28.529699 -1.493454 1.049752 0.044131 -0.023110 72467.400000 0 0 1
-0.887424 24.020935 14.969487 28.317457 -1.533869 1.013809 0.048746 -0.017649 411901.000000 0 0 1
-0.293024 23.003035 14.153187 27.009965 -1.558059 1.019257 0.046463 -0.032727 -1064800.000000 0 0 1
0.978776 22.419835 14.706787 26.830889 1.527167 0.990671 0.041642 -0.026076 -443266.000000 0 0 1
2.050576 23.356335 14.669287 27.657029 1.483226 1.011724 0.047916 -0.029326 230590.000000 0 0 1
3.232276 22.815335 15.221987 27.616952 1.430062 0.987015 0.042345 -0.024174 331417.000000 0 0 1
4.407776 23.811835 15.442187 28.720953 1.387760 1.003134 0.070981 -0.033566 211812.000000 0 0 1
5.651676 23.168735 15.480287 28.431866 1.331534 0.995040 0.082010 -0.030103 -648054.000000 0 0 1
6.691776 24.097435 15.674787 29.515508 1.299925 1.010934 0.097340 -0.032965 180523.000000 0 0 1
8.088276 23.390835 15.665887 29.291149 1.237879 1.006486 0.113836 -0.033605 418924.000000 0 0 1
8.299176 22.602135 14.471587 28.091986 1.218894 1.029614 0.097466 -0.035023 35297.400000 0 0 1
8.763376 23.415035 13.366687 28.350114 1.212672 1.079821 0.109246 -0.035858 -247463.000000 0 0 1
9.296476 22.568935 12.168187 27.273542 1.180061 1.108334 0.095923 -0.037536 128434.000000 0 0 1
10.577976 22.023435 12.421587 27.408413 1.123028 1.100441 0.094423 -0.031422 179119.000000 0 0 1
11.090576 21.174635 11.394687 26.480274 1.088316 1.125962 0.088278 -0.042399 480565.000000 0 0 1
12.572176 20.735235 11.610487 26.885182 1.025743 1.124248 0.132996 -0.042533 593429.000000 0 0 1
12.683976 19.734935 12.581687 26.620476 0.999558 1.078521 0.123928 -0.035365 -552844.000000 0 0 1
14.027276 19.412235 12.755387 27.134834 0.945063 1.081421 0.112740 -0.035157 -499353.000000 0 0 1
14.302376 18.690135 14.106187 27.438360 0.917615 1.030833 0.115190 -0.034155 -73185.500000 0 0 1
15.645976 18.275535 14.245087 27.959153 0.862762 1.036197 0.124952 -0.034084 137672.000000 0 0 1
15.874276 17.676135 15.475187 28.353480 0.839053 0.993459 0.120047 -0.041795 -316986.000000 0 0 1
17.252576 17.008135 15.496987 28.759079 0.778264 1.001718 0.095823 -0.038327 -397751.000000 0 0 1
17.625276 16.608735 16.809087 29.479583 0.755713 0.964054 0.101593 -0.043409 -975789.000000 0 0 1
18.855276 16.012435 16.617487 29.800342 0.704046 0.979272 0.090232 -0.040846 -928095.000000 0 0 1
19.626776 15.638635 17.881887 30.814593 0.672787 0.951692 0.099513 -0.042466 -4816.970000 0 0 1
20.260476 16.729335 18.606287 32.195519 0.690224 0.954624 0.108251 -0.037544 397345.000000 0 0 1
19.345976 17.627135 19.198287 32.458541 0.738943 0.937914 0.095911 -0.036518 -209064.000000 0 0 1
19.910276 18.594735 20.301287 33.975366 0.751246 0.930380 0.083317 -0.035205 -97211.000000 0 0 1
18.956876 19.527735 20.754387 34.226308 0.800231 0.919287 0.107500 -0.044933 232293.000000 0 0 1
19.634476 20.523935 21.501287 35.623727 0.807543 0.922830 0.099241 -0.034134 -310952.000000 0 0 1
18.705876 21.647535 21.880687 36.017913 0.858167 0.917894 0.119418 -0.038981 189081.000000 0 0 1
17.845776 21.187835 22.955297 35.976961 0.870810 0.878826 0.115687 -0.040083 528231.000000 0 0 1
17.143376 22.214335 23.639477 36.690556 0.913535 0.870698 0.098766 -0.041763 367126.000000 0 0 1
16.413576 21.782835 24.980627 36.985526 0.925053 0.829267 0.117503 -0.038095 302783.000000 0 0 1
15.303876 20.952635 24.752397 35.859485 0.939955 0.808947 0.132535 -0.043768 -387510.000000 0 0 1
14.583076 20.756635 25.953327 36.291586 0.958345 0.773981 0.133007 -0.032902 -99333.900000 0 0 1
13.580276 19.596235 25.890217 35.195734 0.964781 0.744234 0.149052 -0.032857 -168704.000000 0 0 1
14.069376 18.250235 25.897917 34.665841 0.914044 0.727148 0.132882 -0.048679 65355.800000 0 0 1
14.592776 17.763635 24.604387 33.673012 0.883084 0.751471 0.146902 -0.053724 602333.000000 0 0 1
13.556176 17.516935 23.406397 32.225337 0.912180 0.757821 0.150635 -0.051834 555226.000000 0 0 1
12.979576 18.701135 22.798797 32.217806 0.964073 0.784635 0.130240 -0.047945 437705.000000 0 0 1
13.861776 19.573335 22.052287 32.581707 0.954590 0.827348 0.132205 -0.047253 184125.000000 0 0 1
14.636576 18.950235 20.868887 31.762418 0.913132 0.853923 0.148295 -0.053360 -259719.000000 0 0 1
13.785676 18.432135 19.889187 30.419866 0.928631 0.858171 0.120837 -0.044328 -125977.000000 0 0 1
14.455676 17.551135 19.009187 29.637107 0.881811 0.874477 0.109678 -0.040127 -821.210000 0 0 1
13.507876 16.624835 18.229387 28.127538 0.888473 0.865713 0.112573 -0.033982 187715.000000 0 0 1
12.820076 17.219735 17.131787 27.465829 0.930825 0.897266 0.126117 -0.038525 -165765.000000 0 0 1
11.795376 16.449535 16.595887 26.175209 0.948709 0.884042 0.100612 -0.039035 -389480.000000 0 0 1
11.162176 17.079435 15.384787 25.553727 0.991933 0.924722 0.102536 -0.035204 -623497.000000 0 0 1
10.264076 18.106335 15.598387 26.009619 1.055088 0.927650 0.103654 -0.041989 -161064.000000 0 0 1
9.712476 18.621235 14.374887 25.450343 1.090034 0.970580 0.092848 -0.023516 -768497.000000 0 0 1
8.592376 19.606735 14.539887 25.877815 1.157768 0.974155 0.095117 -0.023928 -917598.000000 0 0 1
7.424576 18.950235 14.968987 25.264725 1.197385 0.936655 0.055195 -0.022367 -645005.000000 0 0 1
6.441776 19.966635 15.158687 25.883369 1.258712 0.945110 0.065425 -0.026756 685825.000000 0 0 1
5.142376 19.299635 15.760187 25.442159 1.310397 0.902752 0.045746 -0.033345 677656.000000 0 0 1
4.272876 18.656335 14.845187 24.221806 1.345649 0.911089 0.031984 -0.039909 523854.000000 0 1 0
3.001576 18.435135 15.474687 24.255507 1.409394 0.878916 0.021605 -0.036003 1062800.000000 0 1 0
1.820276 18.114635 14.517787 23.285608 1.470646 0.897628 0.034874 -0.031488 411494.000000 0 1 0
1.257976 19.236235 13.822987 23.721092 1.505493 0.948713 0.032314 -0.030563 -643945.000000 0 1 0
0.177276 18.761335 13.110987 22.889236 1.561348 0.960877 0.033856 -0.031510 -415512.000000 0 1 0
-0.681224 19.750935 12.239987 23.246092 -1.536319 1.016271 0.027495 -0.034726 -30180.400000 0 1 0
-1.647624 20.474035 12.924687 24.268257 -1.490496 1.009155 0.030746 -0.030597 -550926.000000 0 1 0
-2.716924 20.682135 12.023587 24.076940 -1.440179 1.047911 0.033389 -0.030813 232046.000000 0 1 0
-3.967824 21.418835 12.593987 25.161849 -1.387624 1.046598 0.030867 -0.026788 -96114.200000 0 0 1
-4.667924 20.519835 13.368587 24.931351 -1.347119 1.004849 0.032469 -0.033237 -655121.000000 0 1 0
-5.765124 21.241035 13.885487 26.023547 -1.305767 1.007976 0.034808 -0.024610 -425978.000000 0 0 1
-6.453424 20.504835 15.044887 26.238208 -1.265884 0.960151 0.039798 -0.029008 -214953.000000 0 0 1
-7.489224 19.627735 14.584487 25.574279 -1.206284 0.963950 0.049734 -0.029031 364841.000000 0 0 1
-8.158024 18.887235 15.623787 25.833771 -1.163068 0.921305 0.054938 -0.022428 103666.000000 0 0 1
-9.269124 19.623935 16.395387 27.199710 -1.129522 0.923818 0.055306 -0.007576 182812.000000 0 0 1
-10.461324 19.780535 15.596087 27.275388 -1.084321 0.962097 0.049885 -0.024208 217706.000000 0 0 1
-11.553024 19.657835 16.483887 28.135767 -1.039466 0.944844 0.045898 -0.008482 -119881.000000 0 0 1
-12.900124 19.342135 15.800787 28.110430 -0.982602 0.973877 0.054789 -0.022094 -81560.300000 0 0 1
-13.438424 20.485335 15.170587 28.816435 -0.990213 1.016369 0.050814 -0.013555 -315175.000000 0 0 1
-14.469924 20.159435 14.291887 28.636333 -0.948241 1.048257 0.053596 -0.023857 -541101.000000 0 0 1
-15.423924 21.312635 13.920787 29.764310 -0.944342 1.084109 0.041600 -0.023434 93056.200000 0 0 1
-16.512524 21.272635 14.838387 30.746808 -0.910716 1.067176 0.023833 -0.024309 -26996.600000 0 0 1
-17.354124 22.392335 14.634087 31.886342 -0.911484 1.093989 0.046856 -0.029076 475253.000000 0 0 1
-18.739324 22.377935 15.355887 32.980866 -0.873662 1.086484 0.104888 -0.036139 -50068.300000 0 0 1
-19.599824 21.359535 14.829987 32.562423 -0.828334 1.097938 0.102883 -0.036175 32266.600000 0 0 1
-20.706524 21.189035 15.672987 33.516830 -0.796915 1.084205 0.104673 -0.030863 456576.000000 0 0 1
-21.909024 22.197935 15.660687 34.900011 -0.791948 1.105452 0.105430 -0.035367 -199824.000000 0 0 1
-22.696824 22.211735 14.489287 34.906252 -0.774597 1.142753 0.113363 -0.025204 -229186.000000 0 0 1
-23.472824 23.355435 14.425687 36.118559 -0.782891 1.159936 0.139356 -0.033891 -219580.000000 0 0 1
-22.777024 24.524135 13.722687 36.173722 -0.822317 1.181697 0.126033 -0.026638 377074.000000 0 0 1
-21.545624 25.023335 14.238187 35.959800 -0.859939 1.163697 0.106331 -0.041477 316371.000000 0 0 1
-21.085024 26.094135 13.439287 36.139958 -0.891174 1.189776 0.076888 -0.029110 521677.000000 0 0 1
-19.612824 26.474735 13.820587 35.729303 -0.933201 1.173622 0.055950 -0.020926 310902.000000 0 0 1
-18.673224 25.562835 13.343087 34.353833 -0.939903 1.171900 0.068808 -0.012959 157801.000000 0 0 1
-17.352624 26.090335 13.500587 34.118690 -0.983881 1.163972 0.020455 -0.008219 318720.000000 0 0 1
-16.356124 25.558835 12.462787 32.803931 -1.001526 1.181089 0.043555 -0.014089 111679.000000 0 0 1
-15.055624 26.081135 12.686687 32.677966 -1.047264 1.172082 0.039628 -0.013165 697872.000000 0 0 1
-14.079724 25.535535 11.770787 31.446043 -1.066896 1.187136 0.049344 -0.008985 -75059.400000 0 0 1
-12.718124 26.188635 11.965087 31.476318 -1.118706 1.180860 0.049559 -0.005067 -671503.000000 0 0 1
-11.680224 25.488335 11.286687 30.223702 -1.141097 1.188084 0.030607 -0.005318 325811.000000 0 0 1
-10.345524 25.856835 11.536787 30.144705 -1.190197 1.178065 0.047476 -0.009206 181091.000000 0 0 1
-9.930824 27.201835 10.874687 30.932506 -1.220752 1.211557 0.054982 -0.014955 -803750.000000 0 0 1
-8.680824 27.657835 11.340787 31.127576 -1.266668 1.197880 0.080984 -0.021181 61291.000000 0 0 1
-8.351424 28.906535 10.798787 31.967919 -1.289543 1.226217 0.090871 -0.028173 -858990.000000 0 0 1
-7.131224 29.581535 11.354387 32.478357 -1.334240 1.213654 0.095944 -0.030844 -416794.000000 0 0 1
-5.892424 29.031235 10.913387 31.569531 -1.370548 1.217818 0.091520 -0.030947 132959.000000 0 0 1
-4.871324 29.651535 11.677587 32.238321 -1.407965 1.200140 0.116031 -0.036304 -426103.000000 0 0 1
-3.448024 29.361035 11.206787 31.615682 -1.453896 1.208450 0.110206 -0.032114 -478372.000000 0 0 1
-3.191324 30.063835 10.015887 31.848653 -1.465041 1.250883 0.133863 -0.047705 -646011.000000 0 0 1
-1.940024 29.763235 9.501087 31.303107 -1.505707 1.262413 0.132417 -0.046148 -417913.000000 0 0 1
-1.577624 30.622735 8.292187 31.764779 -1.519324 1.306687 0.133858 -0.049962 85976.000000 0 0 1
-2.284324 30.211135 7.140887 31.127529 -1.495328 1.339327 0.144564 -0.042684 23586.600000 0 0 1
-2.043824 31.043135 6.014187 31.686336 -1.505053 1.379834 0.147459 -0.040939 40222.400000 0 0 1
11.977776 -33.714405 -25.999042 44.227575 -1.229433 2.199191 0.213104 -0.063838 -80609.400000 0 0 1
12.709876 -33.469205 -24.812052 43.558771 -1.207869 2.176843 0.197872 -0.058406 -2577.580000 0 0 1
13.625676 -32.436405 -25.073252 43.202400 -1.173106 2.189976 0.183132 -0.050620 -106292.000000 0 0 1
14.625976 -32.178005 -23.907752 42.672283 -1.144179 2.165501 0.161282 -0.050162 -566753.000000 0 0 1
14.067976 -31.627505 -22.716852 41.403652 -1.152274 2.151566 0.164351 -0.053237 260231.000000 0 0 1
14.818976 -31.817405 -21.519452 41.170816 -1.134922 2.120796 0.117214 -0.040594 -185890.000000 0 0 1
16.280876 -31.338705 -21.482152 41.335991 -1.091660 2.117291 0.080786 -0.023920 -249644.000000 0 0 1
17.184676 -32.353505 -21.905352 42.683800 -1.082538 2.109706 0.086178 -0.024806 -348297.000000 0 0 1
18.484276 -32.059505 -21.500652 42.799046 -1.047789 2.097126 0.060840 -0.023229 -397459.000000 0 0 1
19.489376 -33.230305 -21.602752 44.167497 -1.040367 2.081865 0.042070 -0.008656 455179.000000 0 0 1
20.881776 -33.001505 -21.437652 44.550205 -1.006642 2.072822 0.033408 0.009239 301166.000000 0 0 1
21.581176 33.464035 -21.558752 45.280996 0.998010 2.067023 0.035320 0.008842 -560953.000000 0 0 1
23.058376 33.662935 -21.210252 45.986484 0.970223 2.050175 0.051219 0.008682 -231566.000000 0 0 1
23.820576 -33.396605 -22.249352 46.666762 -0.951224 2.067774 0.034212 0.011624 1302400.000000 0 0 1
25.244676 -33.358505 -21.994452 47.263510 -0.922977 2.054835 0.036586 0.012230 1580250.000000 0 0 1
26.128176 -32.718405 -23.103952 47.822256 -0.896923 2.075013 0.051750 0.006600 254170.000000 0 0 1
26.128576 -31.289605 -23.093552 46.851403 -0.875042 2.086228 0.051724 0.011341 677294.000000 0 0 1
24.951276 -30.812205 -23.787952 46.236617 -0.890117 2.111201 0.027129 0.012723 840020.000000 0 0 1
24.884276 -29.244105 -23.749252 45.149439 -0.865771 2.124704 0.027591 0.006791 421818.000000 0 0 1
25.829876 -28.552605 -24.596052 45.688067 -0.835423 2.139271 0.038121 0.008171 353356.000000 0 0 1
25.802276 -27.162005 -24.408852 44.713801 -0.811065 2.148248 0.055188 0.014388 158621.000000 0 0 1
26.403476 -26.575005 -25.688782 45.423429 -0.788636 2.171885 0.059795 0.013920 -797989.000000 0 0 1
25.506876 -26.205805 -26.672262 45.263169 -0.798913 2.200952 0.044475 0.009366 -897393.000000 0 0 1
26.134376 -25.778305 -27.872902 46.091488 -0.778539 2.220223 0.046011 0.006057 -384019.000000 0 0 1
25.144276 -25.127405 -28.874722 45.797059 -0.785063 2.252984 0.045613 -0.004453 324766.000000 0 0 1
24.500376 -23.945805 -28.502812 44.565461 -0.773952 2.264737 0.057586 -0.010003 -548718.000000 0 0 1
23.360276 -24.151005 -27.722822 43.560629 -0.802040 2.260643 0.052593 -0.006418 71302.700000 0 0 1
22.471976 -22.820505 -27.426752 42.166241 -0.793093 2.278964 0.056732 -0.008046 824295.000000 0 0 1
22.018276 -22.190605 -28.609912 42.376343 -0.789296 2.311949 0.079667 -0.020645 -75743.200000 0 0 1
21.314676 -21.041305 -28.234802 41.161341 -0.778944 2.326711 0.070368 -0.009379 -355653.000000 0 0 1
20.267676 -20.520205 -29.246922 41.076026 -0.791589 2.363166 0.091717 -0.021461 23299.900000 0 0 1
19.122976 -21.350905 -29.124402 40.862943 -0.840389 2.364184 0.069971 -0.024511 -672026.000000 0 0 1
18.085276 -20.784305 -29.864242 40.631730 -0.854725 2.396460 0.055211 -0.027922 -29477.700000 0 0 1
16.738376 -21.546205 -29.664242 40.303591 -0.910326 2.397968 0.058184 -0.032852 137068.000000 0 0 1
16.658376 -22.670105 -30.501702 41.494445 -0.937083 2.396580 0.059870 -0.026147 245900.000000 0 0 1
15.812776 -23.673705 -29.941782 41.315838 -0.981908 2.381402 0.073918 -0.030745 62340.500000 0 0 1
16.205376 -25.065305 -30.502152 42.676281 -0.996867 2.367039 0.097096 -0.033801 900404.000000 0 0 1
15.265276 -26.027405 -29.932782 42.502069 -1.040357 2.352186 0.108685 -0.037753 552881.000000 0 0 1
15.648376 -27.374105 -30.292902 43.724972 -1.051484 2.336169 0.143624 -0.031991 331813.000000 0 0 1
14.877476 -28.418805 -29.421432 43.526870 -1.088520 2.313032 0.153448 -0.041129 105952.000000 0 0 1
15.307476 -28.678905 -28.104862 42.973034 -1.080512 2.283672 0.175261 -0.057992 -155035.000000 0 0 1
15.472276 -27.591805 -27.231712 41.740450 -1.059733 2.281551 0.134434 -0.048221 -41302.300000 0 0 1
16.674776 -27.763205 -26.278372 41.706073 -1.029931 2.252459 0.093229 -0.025683 -327706.000000 0 0 1
16.491876 -28.741505 -25.223632 41.644780 -1.049864 2.221423 0.119630 -0.032821 -312713.000000 0 0 1
17.137376 -28.399105 -24.055152 40.973762 -1.027846 2.198252 0.139135 -0.034459 -1434180.000000 0 0 1
16.555976 -27.226705 -23.186252 39.408071 -1.024458 2.199829 0.121589 -0.033348 614665.000000 0 0 1
15.392076 -27.564805 -22.450052 38.739377 -1.061530 2.188930 0.116834 -0.038074 332141.000000 0 0 1
14.216076 -27.900005 -23.184152 38.961673 -1.099549 2.208124 0.138855 -0.038625 -891610.000000 0 0 1
12.953076 -27.869805 -22.321452 37.983620 -1.135727 2.198960 0.114785 -0.032063 -357490.000000 0 0 1
12.708876 -26.547105 -22.009352 36.751542 -1.124310 2.212884 0.082907 -0.026017 59307.800000 0 0 1
11.498176 -26.469205 -21.274352 35.852823 -1.160992 2.206048 0.077186 -0.024595 -7113.490000 0 0 1
11.093376 -24.973505 -21.081952 34.513586 -1.152771 2.227905 0.061200 -0.016787 138206.000000 0 0 1
11.725776 -24.357605 -19.950052 33.597490 -1.122138 2.206565 0.026512 -0.011347 329541.000000 0 0 1
11.211076 -23.027705 -19.908352 32.439265 -1.117723 2.231549 0.026441 -0.011648 38745.500000 0 0 1
11.436776 -22.264405 -18.596452 31.182232 -1.096265 2.209780 0.012940 -0.008759 -42988.300000 0 0 1
10.707276 -22.754805 -17.493552 30.634152 -1.130985 2.178577 0.028707 -0.007531 145049.000000 0 0 1
10.992076 -21.980005 -16.383352 29.535751 -1.107073 2.158793 0.024441 -0.007045 -404428.000000 0 0 1
10.177976 -22.373105 -15.207852 28.903733 -1.143858 2.124869 0.017731 -0.000695 -227163.000000 0 0 1
10.701076 -23.599905 -14.745252 29.814275 -1.145088 2.088137 0.035275 -0.005956 252077.000000 0 0 1
9.941976 -24.109605 -13.641452 29.431363 -1.179675 2.052738 0.035405 -0.009862 -12511.300000 0 0 1
10.132176 -25.635005 -13.406852 30.652213 -1.194393 2.023486 0.047985 -0.012866 -308674.000000 0 0 1
11.347776 -26.125005 -12.919852 31.276356 -1.161021 1.996637 0.031102 -0.016489 -653999.000000 0 0 1
11.303876 -27.547805 -12.878652 32.442547 -1.181411 1.979007 0.040181 -0.017024 -458768.000000 0 0 1
12.663476 -28.091405 -12.333452 33.190431 -1.147281 1.951525 0.047940 -0.014230 1040790.000000 0 0 1
13.852176 -27.613705 -12.980352 33.509536 -1.105837 1.968566 0.056502 -0.016255 460330.000000 0 0 1
13.966976 -27.844905 -14.365452 34.304247 -1.105870 2.002882 0.060436 -0.018402 -1473020.000000 0 0 1
15.327076 -27.390405 -14.872752 34.732582 -1.060629 2.013305 0.048335 -0.016642 -642824.000000 0 0 1
16.426576 -28.158705 -14.505552 35.681313 -1.042704 1.989450 0.123781 -0.017681 -177530.000000 0 0 1
17.600776 -27.641005 -15.106852 36.083645 -1.003783 2.002768 0.150613 -0.022889 1205780.000000 0 0 1
18.980176 -28.391205 -14.979352 37.291937 -0.981510 1.984145 0.127964 -0.019101 1111200.000000 0 0 1
19.132376 -29.584905 -15.715952 38.578563 -0.996749 1.990374 0.107968 -0.007339 -756204.000000 0 0 1
20.498476 -29.771605 -15.905352 39.490710 -0.967814 1.985329 0.108407 -0.001963 -231115.000000 0 0 1
20.884476 -30.767205 -17.020452 40.895941 -0.974447 2.000047 0.095663 -0.008171 -27917.000000 0 0 1
20.486476 -32.045305 -16.720152 41.547091 -1.001982 1.984975 0.087004 -0.002441 -82527.100000 0 0 1
21.196476 -33.015405 -17.453652 42.941094 -1.000053 1.989368 0.081642 -0.005354 -50459.100000 0 0 1
20.945176 33.190835 -17.007652 42.773732 1.007856 1.979717 0.066264 -0.000962 -286540.000000 0 0 1
21.918276 32.580535 -16.216752 42.483939 0.978600 1.962447 0.094613 -0.007862 -45109.400000 0 0 1
21.420876 31.344735 -15.738452 41.097995 0.971301 1.963783 0.091600 -0.017856 -184930.000000 0 0 1
22.413776 30.775535 -14.726152 40.821201 0.941329 1.939866 0.102966 -0.020401 141465.000000 0 0 1
23.634676 30.330435 -15.323152 41.392417 0.908843 1.950012 0.104177 -0.015058 941761.000000 0 0 1
24.708976 30.021135 -14.420552 41.469921 0.882156 1.925951 0.103946 -0.024780 689052.000000 0 0 1
24.442576 28.883835 -13.374852 40.132307 0.868491 1.910565 0.099496 -0.015337 -1329140.000000 0 0 1
24.551876 27.562135 -13.836752 39.419812 0.843097 1.929446 0.104983 -0.003120 13266.700000 0 0 1
24.011276 26.545635 -13.025852 38.090483 0.835485 1.919810 0.056487 -0.004702 741299.000000 0 0 1
22.467876 26.602535 -12.773952 37.090082 0.869459 1.922400 0.071229 -0.015681 227917.000000 0 0 1
21.633376 26.268835 -13.895552 36.757870 0.881867 1.958463 0.088054 -0.021908 -389052.000000 0 0 1
20.281776 26.274335 -13.606452 35.872366 0.913411 1.959838 0.099940 -0.024169 -798047.000000 0 0 1
19.457176 27.588135 -13.618652 36.402672 0.956540 1.954235 0.099470 -0.028459 -254076.000000 0 0 1
19.318376 28.225835 -14.867352 37.295248 0.970602 1.980829 0.096860 -0.022972 409262.000000 0 0 1
18.649076 27.525935 -15.958152 36.879910 0.975325 2.018288 0.081253 -0.017362 -33420.300000 0 0 1
18.822676 28.217235 -17.356952 38.102090 0.982519 2.043773 0.080022 -0.010631 26519.400000 0 0 1
18.205976 29.492935 -17.369652 38.768487 1.017754 2.035363 0.068749 -0.007357 176902.000000 0 0 1
18.677276 30.255835 -18.481152 40.072549 1.017745 2.050135 0.054097 -0.004197 -132543.000000 0 0 1
17.732476 31.402535 -18.872252 40.702847 1.056750 2.052917 0.044605 -0.003785 -106966.000000 0 0 1
17.729776 32.484435 -18.039152 41.170310 1.071189 2.024346 0.067201 -0.021332 199976.000000 0 0 1
17.063176 33.586135 -18.649452 42.035491 1.100736 2.030474 0.067814 -0.018680 57655.100000 0 0 1
16.782676 -32.883705 -17.650652 40.921165 -1.098892 2.016766 0.067261 -0.016087 537027.000000 0 0 1
15.794176 -32.012205 -18.229352 40.081748 -1.112459 2.042949 0.058757 -0.015779 291656.000000 0 0 1
15.418176 -31.057705 -17.305852 38.752983 -1.110004 2.033723 0.069208 -0.021071 -304656.000000 0 0 1
14.188276 -30.304505 -17.784952 37.894257 -1.132919 2.059329 0.066951 -0.025771 -780253.000000 0 0 1
12.937276 -30.907205 -17.789352 37.935333 -1.174372 2.058885 0.063267 -0.017555 -846882.000000 0 0 1
11.956676 -29.919505 -17.953952 36.884729 -1.190611 2.079171 0.052464 -0.018741 -204894.000000 0 0 1
10.575076 -30.527405 -18.261852 37.111318 -1.237321 2.085277 0.087161 -0.022967 -932586.000000 0 0 1
9.983776 -31.119105 -17.141752 36.904121 -1.260346 2.053860 0.087530 -0.020675 -12509.700000 0 0 1
8.863176 -31.939105 -17.416952 37.443458 -1.300105 2.054604 0.112282 -0.020300 820066.000000 0 0 1
7.477376 -31.217205 -17.710052 36.661574 -1.335698 2.074952 0.114770 -0.016378 512742.000000 0 0 1
7.369476 -30.667005 -19.020352 36.831347 -1.334962 2.113458 0.108995 -0.016829 -48167.500000 0 0 1
7.212376 -31.705805 -19.950252 38.148250 -1.347124 2.121124 0.126117 -0.030429 -1420670.000000 0 0 1
7.305176 -31.136805 -21.384352 38.472805 -1.340349 2.160158 0.129086 -0.024842 728633.000000 0 0 1
8.579576 -30.712105 -21.946052 38.710098 -1.298386 2.173575 0.139213 -0.032957 1131330.000000 0 0 1
9.676876 -31.597205 -21.903852 39.645984 -1.273609 2.156140 0.148441 -0.043918 -228107.000000 0 0 1
9.646476 -32.781205 -22.881352 41.124423 -1.284606 2.160835 0.166165 -0.056977 -457592.000000 0 0 1
8.553776 -33.627105 -22.622452 41.421306 -1.321708 2.148564 0.176997 -0.061764 -250036.000000 0 0 1
8.358376 32.990835 -23.588252 41.408493 1.322663 2.176873 0.186952 -0.075192 92326.400000 0 0 1
7.142376 32.073635 -23.263852 40.260879 1.351685 2.186861 0.173370 -0.078656 817461.000000 0 0 1
5.826476 32.602335 -23.243152 40.461144 1.393950 2.182736 0.167349 -0.074583 437259.000000 0 0 1
5.429376 33.385835 -22.149652 40.431413 1.409583 2.150568 0.137044 -0.061400 -816835.000000 0 0 1
4.113076 -33.559405 -22.445052 40.582403 -1.448843 2.156845 0.121666 -0.047300 -522133.000000 0 0 1
2.956776 33.318735 -22.407452 40.261328 1.482286 2.161024 0.113824 -0.053749 -148886.000000 0 0 1
1.823976 -33.679205 -22.950952 40.796592 -1.516692 2.168288 0.102245 -0.041914 987948.000000 0 0 1
0.459676 33.302135 -22.530952 40.210537 1.556994 2.165574 0.088663 -0.048540 730653.000000 0 0 1
0.085376 33.583935 -21.206952 39.719300 1.568254 2.134027 0.074403 -0.042746 -95218.700000 0 0 1
-1.156824 33.026035 -20.826052 39.061255 -1.535783 2.133132 0.068297 -0.042118 264381.000000 0 0 1
-1.485224 33.251835 -19.309452 38.480454 -1.526160 2.096474 0.076511 -0.038490 352211.000000 0 0 1
-0.646524 32.518835 -18.393052 37.365719 -1.550917 2.085462 0.080420 -0.043381 51429.200000 0 0 1
-1.182524 32.407535 -17.090852 36.657113 -1.534323 2.055827 0.049835 -0.030359 -3369.870000 0 0 1
-0.477424 31.369235 -16.183952 35.301234 -1.555578 2.047050 0.043082 -0.022182 652705.000000 0 0 1
0.805576 31.785935 -15.720152 35.469956 1.545458 2.029957 0.044837 -0.017863 47040.500000 0 0 1
1.333476 30.820435 -14.889552 34.254578 1.527557 2.020472 0.051488 -0.011023 540430.000000 0 0 1
2.469676 31.253535 -13.882652 34.287181 1.491940 1.987659 0.066219 -0.012081 93757.700000 0 0 1
3.573376 31.716635 -14.578752 35.089228 1.458604 1.999263 0.084907 -0.016346 -611279.000000 0 0 1
4.440376 32.446835 -13.714352 35.504894 1.434790 1.967377 0.098665 -0.022805 831704.000000 0 0 1
5.871276 32.736635 -14.296952 36.201685 1.393334 1.976783 0.105534 -0.032357 842098.000000 0 0 1
6.658776 31.568735 -14.466152 35.358081 1.362914 1.992300 0.102718 -0.021788 -716123.000000 0 0 1
7.769676 31.846435 -15.279852 36.166796 1.331498 2.006979 0.090380 -0.009906 -547096.000000 0 0 1
8.738576 30.697235 -15.202952 35.352690 1.293463 2.015330 0.086254 -0.016277 -530075.000000 0 0 1
9.275576 30.494935 -13.923452 34.782753 1.275520 1.982638 0.066852 -0.018686 -244012.000000 0 0 1
10.282876 29.488335 -13.863852 34.168784 1.235271 1.988591 0.067457 -0.013767 308899.000000 0 0 1
9.852976 28.011235 -13.665052 32.687063 1.232563 2.002102 0.080353 -0.013086 5548.070000 0 0 1
9.248476 27.528335 -14.886452 32.633571 1.246682 2.044483 0.093389 -0.017450 189677.000000 0 0 1
8.636276 26.265435 -14.735952 31.330602 1.253124 2.060469 0.077277 -0.012717 -79104.100000 0 0 1
8.016276 25.671535 -16.020152 31.303892 1.268127 2.108031 0.082482 -0.015664 468777.000000 0 0 1
8.949676 25.065935 -16.936452 31.547444 1.227859 2.137503 0.093288 -0.012622 -121676.000000 0 0 1
8.258376 24.283435 -17.860252 31.254993 1.242984 2.179052 0.091387 -0.009140 -473167.000000 0 0 1
9.102476 23.499635 -18.792652 31.436470 1.201246 2.211547 0.097845 -0.007723 -625982.000000 0 0 1
8.309776 22.694035 -19.601552 31.117398 1.219793 2.252250 0.114693 -0.014369 172260.000000 0 0 1
9.170276 21.715435 -20.195152 31.040268 1.171221 2.279186 0.095569 -0.012197 255656.000000 0 0 1
8.497476 20.564535 -21.010452 30.603044 1.178954 2.327527 0.084383 -0.029781 -43147.600000 0 0 1
7.721876 19.660235 -20.263652 29.270596 1.196541 2.335450 0.097869 -0.027644 24480.300000 0 0 1
7.056976 18.783135 -21.169052 29.167376 1.211405 2.382962 0.094433 -0.029060 136451.000000 0 0 1
26.154276 -12.787565 -9.770052 30.708661 -0.454751 1.894577 0.125013 -0.012413 142988.000000 0 0 1
26.595076 -11.971565 -8.693252 30.433354 -0.422972 1.860480 0.130730 -0.024029 166603.000000 0 0 1
25.653176 -12.070065 -7.659852 29.367418 -0.439778 1.834676 0.112050 -0.012183 -180604.000000 0 0 1
26.059376 -11.319065 -6.330752 29.108259 -0.409769 1.790038 0.109206 -0.020548 -60404.400000 0 0 1
25.725476 -9.927465 -6.297252 28.284449 -0.368293 1.795318 0.118376 -0.027486 177389.000000 0 0 1
26.708476 -9.158665 -6.918252 29.070363 -0.330347 1.811085 0.086368 -0.018573 -988968.000000 0 0 1
26.741176 -7.759465 -6.186452 28.523183 -0.282413 1.789426 0.112752 -0.020064 -179050.000000 0 0 1
27.276176 -7.780765 -4.882352 28.781373 -0.277878 1.741256 0.135555 -0.027345 494290.000000 0 0 1
28.677576 -7.934065 -4.781252 30.136574 -0.269913 1.730122 0.132714 -0.033727 -295833.000000 0 0 1
29.192576 -7.860765 -3.329152 30.415150 -0.263034 1.680473 0.162567 -0.048607 -258713.000000 0 0 1
29.748576 -6.543765 -3.097752 30.616902 -0.216521 1.672148 0.190770 -0.041246 487643.000000 0 0 1
30.478076 -6.609765 -1.894552 31.244062 -0.213562 1.631471 0.224713 -0.042464 -353708.000000 0 0 1
31.033276 -5.243665 -1.601552 31.513889 -0.167388 1.621639 0.226006 -0.048672 -622821.000000 0 0 1
30.078376 -4.318465 -1.154052 30.408710 -0.142599 1.608757 0.247887 -0.038426 -53360.400000 0 0 1
30.618676 -3.157165 -0.510952 30.785257 -0.102749 1.587394 0.228408 -0.031828 693593.000000 0 0 1
31.638276 -3.263465 0.711348 31.814096 -0.102786 1.548435 0.202428 -0.031330 753150.000000 0 0 1
30.992476 -3.650965 1.920548 31.265822 -0.117261 1.509331 0.260928 -0.046311 572308.000000 0 0 1
31.763376 -3.250065 3.059448 32.075461 -0.101966 1.475268 0.191288 -0.035232 20330.500000 0 0 1
31.280276 -3.906465 4.353248 31.822427 -0.124243 1.433568 0.211862 -0.036726 -111938.000000 0 0 1
31.557576 -5.313765 4.311048 32.290894 -0.166818 1.436890 0.178107 -0.035704 114924.000000 0 0 1
31.457176 -5.968565 5.575148 32.500153 -0.187507 1.398401 0.175227 -0.029201 160289.000000 0 0 1
32.238276 -7.348965 5.696948 33.552480 -0.224128 1.400178 0.129868 -0.033838 -74857.800000 0 0 1
33.622376 -7.143765 5.762348 34.852578 -0.209357 1.404699 0.148563 -0.050811 -460860.000000 0 0 1
34.286776 -8.377265 5.533948 35.726547 -0.239634 1.415273 0.143746 -0.053907 -1138400.000000 0 0 1
35.757476 -8.295765 5.827448 37.166866 -0.227968 1.413355 0.188883 -0.063423 -1259860.000000 0 0 1
36.510176 -7.936865 4.686548 37.655683 -0.214057 1.446015 0.208703 -0.057426 117100.000000 0 0 1
-37.773114 -7.479665 5.090448 38.841553 0.195487 1.439361 0.240428 -0.060377 -304334.000000 0 0 1
-36.719414 -7.579465 4.021948 37.708616 0.203557 1.463934 0.264452 -0.060450 -680826.000000 0 0 1
-36.422014 -8.921965 3.706748 37.681621 0.240230 1.472267 0.317880 -0.069187 110268.000000 0 0 1
-35.668714 -8.754465 2.511748 36.813132 0.240681 1.502514 0.332370 -0.073310 -163366.000000 0 0 1
-35.347414 -10.023965 1.674248 36.779378 0.276329 1.525259 0.343155 -0.061088 533905.000000 0 0 1
-34.367614 -10.907765 2.253948 36.127448 0.307329 1.508367 0.333903 -0.065730 559366.000000 0 0 1
-33.965014 -11.936465 1.366548 36.027335 0.337952 1.532856 0.347448 -0.063354 90402.500000 0 0 1
-32.983014 -13.018765 1.844048 35.507295 0.375939 1.518839 0.224178 -0.055870 46760.900000 0 0 1
-31.676114 -12.618665 2.186548 34.167059 0.379096 1.506757 0.251221 -0.044649 186194.000000 0 0 1
-30.699714 -13.352165 1.471448 33.509968 0.410250 1.526871 0.272161 -0.041265 -386335.000000 0 0 1
-29.397614 -13.522365 2.241148 32.436042 0.431124 1.501647 0.260151 -0.046249 -415018.000000 0 0 1
-28.660114 -12.325365 2.475648 31.296096 0.406143 1.491610 0.230353 -0.055066 1071230.000000 0 0 1
-27.383414 -12.655665 3.062148 30.321510 0.432924 1.469635 0.195577 -0.033356 610158.000000 0 0 1
-26.726614 -11.527665 3.848348 29.359986 0.407210 1.439343 0.173587 -0.033351 -136164.000000 0 0 1
-25.477814 -11.998465 4.322048 28.491442 0.440129 1.418512 0.129042 -0.019980 83761.100000 0 0 1
-24.745414 -10.905665 4.860748 27.475369 0.415105 1.392947 0.125041 -0.019096 394635.000000 0 0 1
-23.331614 -11.294265 5.394748 26.476932 0.450827 1.365607 0.110113 -0.004663 433623.000000 0 0 1
-23.402214 -12.176965 6.503748 27.170588 0.479782 1.329082 0.109717 -0.011679 467950.000000 0 0 1
-22.102614 -12.484465 7.011748 26.335376 0.514166 1.301298 0.091428 -0.004499 449270.000000 0 0 1
-21.606614 -11.808765 8.348448 25.999794 0.500179 1.243909 0.114998 -0.013903 -640976.000000 0 0 1
-21.453414 -10.389965 8.362448 25.261253 0.451012 1.233392 0.111799 -0.013701 1123200.000000 0 0 1
-22.707914 -9.688865 8.484548 26.105766 0.403287 1.239778 0.146625 -0.031900 674110.000000 0 0 1
-23.418714 -9.758765 9.886348 27.228837 0.394826 1.199221 0.107171 -0.014802 -620891.000000 0 0 1
-23.782114 -11.000965 10.372948 28.181701 0.433260 1.193860 0.108558 -0.027941 871197.000000 0 0 1
-25.138514 -11.317265 10.036448 29.338638 0.423017 1.221656 0.092639 -0.025122 1359960.000000 0 0 1
-26.330614 -10.784465 10.943248 30.485416 0.388737 1.203636 0.100004 -0.025824 227979.000000 0 0 1
-26.524014 -11.424365 12.219548 31.358520 0.406704 1.170521 0.094028 -0.023502 511530.000000 0 0 1
-27.784114 -11.149665 12.825748 32.569493 0.381623 1.166038 0.075427 -0.021076 401922.000000 0 0 1
-28.038014 -11.888365 14.157648 33.584259 0.401031 1.135636 0.072875 -0.011324 -249977.000000 0 0 1
-28.012714 -13.277965 13.957648 33.997536 0.442630 1.147740 0.071498 -0.021607 398453.000000 0 0 1
-28.315414 -14.027865 15.102348 35.023201 0.459972 1.124963 0.080193 -0.014837 -547707.000000 0 0 1
-28.182214 -15.508165 14.717748 35.374461 0.503060 1.141693 0.084829 -0.009843 124754.000000 0 0 1
-29.064114 -16.341265 15.472948 36.758289 0.512199 1.136318 0.076387 -0.001986 228087.000000 0 0 1
-28.789514 -17.711065 15.314448 37.108628 0.551515 1.145388 0.068884 -0.002340 -339021.000000 0 0 1
-29.869414 -18.663765 15.822948 38.611963 0.558488 1.148568 0.051980 0.008041 -107242.000000 0 0 1
-29.592414 -18.713165 17.225048 39.020454 0.563877 1.113597 0.058070 0.015629 310906.000000 0 0 1
-30.307214 -19.701365 17.940548 40.355102 0.576414 1.110105 0.064854 0.012344 341648.000000 0 0 1
-29.346314 -20.909765 18.218948 40.377649 0.619078 1.102671 0.043317 0.011266 -19853.100000 0 0 1
-28.264414 -20.588565 19.035948 39.813734 0.629551 1.072277 0.046795 0.010920 -111933.000000 0 0 1
-27.569514 -21.802265 19.383948 40.139187 0.669112 1.066812 0.040329 0.008635 694356.000000 0 0 1
-26.071414 -21.584165 19.779548 39.202364 0.691515 1.041936 0.040770 0.012914 664424.000000 0 0 1
-25.144614 -21.482365 18.699148 37.992128 0.707016 1.056198 0.045858 0.000909 45630.100000 0 0 1
-23.913414 -21.114865 19.266148 37.267591 0.723327 1.027491 0.070543 0.003649 -88362.400000 0 0 1
-22.722814 -20.866965 18.313948 35.876973 0.742849 1.035071 0.090841 -0.015264 37580.400000 0 0 1
-22.280814 -22.022065 17.632348 35.948654 0.779558 1.058148 0.089863 -0.017026 597336.000000 0 0 1
-20.982414 -21.720765 17.113948 34.712254 0.802687 1.055235 0.105157 -0.022157 519582.000000 0 0 1
-20.665814 -22.433765 15.764548 34.334686 0.826395 1.093765 0.110458 -0.013419 -394369.000000 0 0 1
-20.816614 -23.892665 15.855248 35.434161 0.854091 1.106877 0.115449 -0.023877 825316.000000 0 0 1
-19.803814 -24.657665 16.556048 35.697258 0.894137 1.088527 0.125244 -0.028745 1110270.000000 0 0 1
-18.345314 -24.764365 15.990148 34.720443 0.933213 1.092193 0.112919 -0.029536 932527.000000 0 0 1
-17.628614 -23.537565 16.164148 33.556887 0.927963 1.068210 0.112921 -0.030682 975008.000000 0 0 1
-16.210514 -23.738365 15.964048 32.880717 0.971651 1.063845 0.117696 -0.032964 1391960.000000 0 0 1
-15.336814 -22.451165 16.027348 31.561821 0.971490 1.038158 0.102966 -0.027499 -381846.000000 0 0 1
-15.493914 -21.623765 14.896948 30.488812 0.949067 1.060308 0.096997 -0.014367 -23341.000000 0 0 1
-16.620814 -20.766865 14.903448 30.489784 0.895840 1.060081 0.094120 -0.011159 -63768.500000 0 0 1
-16.696014 -19.486565 15.804848 30.137623 0.862370 1.018760 0.094058 -0.012706 -640913.000000 0 0 1
-16.092914 -18.457965 15.168948 28.805821 0.853743 1.016208 0.085962 -0.014469 -215638.000000 0 0 1
-16.229214 -17.325365 16.018148 28.638030 0.818054 0.977217 0.083624 -0.016582 -306297.000000 0 0 1
-15.485914 -16.036565 15.590848 27.204035 0.802865 0.960503 0.079432 -0.014473 32591.700000 0 0 1
-16.103914 -15.318465 14.524148 26.550750 0.760407 0.991980 0.080954 -0.015370 207800.000000 0 0 1
-16.125914 -15.905265 13.237248 26.234468 0.778510 1.041907 0.100108 -0.016353 -357775.000000 0 0 1
-17.017314 -15.170865 12.246248 25.878847 0.728097 1.077860 0.092103 -0.012924 676271.000000 0 0 1
-18.414814 -15.203665 12.592848 26.996975 0.690170 1.085519 0.088931 -0.013804 638392.000000 0 0 1
-19.137014 -14.245865 11.859648 26.642471 0.639917 1.109465 0.120939 -0.021133 -684014.000000 0 0 1
-20.615114 -14.644965 11.909148 27.951489 0.617671 1.130658 0.114656 -0.022272 -542047.000000 0 0 1
-21.069714 -15.780265 11.193448 28.604945 0.642832 1.168740 0.124347 -0.028477 213776.000000 0 0 1
-21.233914 -15.666665 9.773648 28.139789 0.635656 1.216079 0.143287 -0.027694 -55369.000000 0 0 1
-22.016314 -16.897465 9.171648 29.229464 0.654606 1.251624 0.134497 -0.014462 29464.600000 0 0 1
-21.302314 -18.082265 9.093248 29.384419 0.703820 1.256173 0.140341 0.001049 339917.000000 0 0 1
-22.091014 -19.137365 8.441048 30.422080 0.713879 1.289642 0.136089 -0.013798 681317.000000 0 0 1
-21.493714 -20.545865 8.675548 30.973819 0.762855 1.286905 0.149352 -0.012174 753158.000000 0 0 1
-20.269114 -20.803365 7.991848 30.124519 0.798405 1.302288 0.179558 -0.008087 374837.000000 0 0 1
-19.864014 -22.218965 8.067548 30.876315 0.841300 1.306442 0.167328 -0.016323 -457034.000000 0 0 1
-18.606114 -22.537965 7.298948 30.123446 0.880672 1.326059 0.151593 -0.026961 251501.000000 0 0 1
-17.470714 -21.777065 7.766148 28.978949 0.894683 1.299487 0.123384 -0.021202 681015.000000 0 0 1
-16.244614 -22.050265 7.112948 28.296567 0.935856 1.316699 0.135812 -0.025095 -29857.800000 0 0 1
-15.054014 -21.431065 7.861048 27.344286 0.958435 1.279197 0.070646 -0.016886 116683.000000 0 0 1
-13.781114 -21.709965 7.287448 26.727300 1.005193 1.294640 0.082840 -0.015725 -85958.700000 0 0 1
-12.771114 -21.678165 8.256848 26.480554 1.038413 1.253701 0.074113 -0.007029 -1022180.000000 0 0 1
-11.478614 -22.127265 7.632448 26.069689 1.092258 1.273673 0.072699 -0.015528 -844554.000000 0 0 1
-11.352614 -23.523865 7.465148 27.165834 1.121165 1.292416 0.071267 -0.016572 -519672.000000 0 0 1
-10.093014 -23.834465 6.941048 26.797925 1.170228 1.308795 0.081573 -0.021310 -36608.200000 0 0 1
-9.808014 -25.345905 6.906048 28.041140 1.201576 1.321953 0.098215 -0.026016 49359.800000 0 0 1
-10.588914 -26.011605 5.935748 28.704735 1.184198 1.362507 0.110738 -0.032060 -95987.500000 0 0 1
-10.694414 -27.408105 6.169048 30.060470 1.198774 1.364107 0.131541 -0.028391 19154.800000 0 0 1
-9.598014 -28.197095 5.414248 30.273951 1.242708 1.390987 0.145774 -0.034393 -301712.000000 0 0 1
-8.291014 -27.868095 5.825548 29.653139 1.281626 1.373054 0.144351 -0.034988 -187164.000000 0 0 1
-7.254014 -28.684685 5.343148 30.066279 1.323101 1.392135 0.157147 -0.030995 100503.000000 0 0 1
-7.173014 -30.082295 5.975648 31.497698 1.336721 1.379922 0.182304 -0.046955 -673409.000000 0 0 1
-7.081014 -29.999985 7.393848 31.698720 1.339005 1.335374 0.176050 -0.045010 223589.000000 0 0 1
-6.845014 -31.252345 7.939448 32.963588 1.355177 1.327550 0.217112 -0.048353 -149692.000000 0 0 1
-7.274014 -31.311845 9.440948 33.503349 1.342536 1.285136 0.178499 -0.051751 -217250.000000 0 0 1
-6.362014 -30.626145 10.270448 32.922911 1.365978 1.253547 0.155243 -0.044899 241310.000000 0 0 1
-6.656014 -30.845505 11.614348 33.625002 1.358269 1.218123 0.135781 -0.037195 121817.000000 0 0 1
-5.754014 -30.037165 12.619148 33.084481 1.381526 1.179462 0.109751 -0.032264 429739.000000 0 0 1
-6.259014 -28.710555 12.869148 32.079373 1.356151 1.158007 0.098031 -0.023417 364987.000000 0 0 1
-5.410014 -27.979015 13.735048 31.634555 1.379794 1.121670 0.080157 -0.027777 -278198.000000 0 0 1
-6.247014 -27.447935 14.903348 31.851595 1.347013 1.083884 0.087033 -0.025097 -15555.500000 0 0 1
-6.845014 -28.404995 15.755648 33.195458 1.334326 1.076250 0.072760 -0.023791 410528.000000 0 0 1
-5.940014 -29.200485 16.535748 34.079071 1.370113 1.064185 0.068370 -0.026122 313292.000000 0 0 1
-6.694014 -30.485445 16.848548 35.468941 1.354646 1.075807 0.072212 -0.030268 230391.000000 0 0 1
-7.098014 -31.126845 15.655948 35.557995 1.346595 1.114871 0.087430 -0.029941 300794.000000 0 0 1
-7.581014 -32.438255 15.694948 36.824497 1.341211 1.130498 0.090724 -0.036283 131806.000000 0 0 1
-6.371014 -33.366575 15.446548 37.316404 1.382127 1.144024 0.089295 -0.033936 468680.000000 0 0 1
-5.833014 -33.352715 14.109048 36.680961 1.397659 1.175976 0.107183 -0.040526 -358661.000000 0 0 1
-4.822014 33.385482 13.952248 36.503527 -1.427354 1.178603 0.130845 -0.045821 -697215.000000 0 0 1
-3.823014 33.680002 12.831048 36.243534 -1.457770 1.208927 0.146560 -0.049383 -532305.000000 0 0 1
-4.375014 33.582007 11.559048 35.784124 -1.441247 1.241876 0.157013 -0.047975 -102676.000000 0 0 1
-3.516014 -33.616155 10.553648 35.408865 1.466582 1.268146 0.164499 -0.044229 -291389.000000 0 0 1
-4.289014 -33.303195 9.224248 34.822194 1.442714 1.302701 0.165617 -0.052340 -761537.000000 0 0 1
-4.548014 33.280576 8.301948 34.600629 -1.434981 1.328496 0.174711 -0.063624 440059.000000 0 0 1
-5.356014 32.170565 8.682748 33.749404 -1.405821 1.310599 0.190236 -0.060916 -396605.000000 0 0 1
-6.799014 32.395055 9.115048 34.332933 -1.363921 1.302084 0.197463 -0.056807 -1055630.000000 0 0 1
-7.675014 32.897056 8.163048 34.752806 -1.341592 1.333692 0.190448 -0.051506 -1399620.000000 0 0 1
-8.890014 33.043958 8.830848 35.340054 -1.307983 1.318238 0.152856 -0.048606 -355514.000000 0 0 1
-10.059014 33.387344 7.866648 35.746086 -1.278164 1.348910 0.156126 -0.053972 56936.700000 0 0 1
-9.959014 -32.971815 7.413848 35.231913 1.277463 1.358782 0.163107 -0.045930 -52084.800000 0 0 1
-10.401014 -32.952825 6.102548 35.090039 1.265059 1.395996 0.144401 -0.036358 59481.200000 0 0 1
-10.966814 -31.588095 5.556548 33.896224 1.236634 1.406125 0.135432 -0.047493 412282.000000 0 0 1
-12.166314 -31.165515 6.169748 34.020205 1.198613 1.388432 0.137924 -0.045729 423550.000000 0 0 1
-13.013914 -30.392775 5.299648 33.483862 1.166226 1.411853 0.129044 -0.044330 774159.000000 0 0 1
-14.133814 -29.559315 6.025348 33.314001 1.124780 1.388930 0.105154 -0.043053 -213670.000000 0 0 1
-15.143314 -30.385035 6.499948 34.566163 1.108445 1.381626 0.118181 -0.039095 228968.000000 0 0 1
-16.018114 -29.577525 7.355848 34.431359 1.074453 1.355499 0.111760 -0.046030 308168.000000 0 0 1
34.682496 -12.320265 -12.764652 38.956396 -0.341326 1.904628 0.144042 -0.032124 386762.000000 0 0 1
33.439666 -12.604965 -12.100052 37.729400 -0.360476 1.897271 0.161012 -0.035694 556435.000000 0 0 1
33.401486 -13.882165 -11.457852 37.942801 -0.393895 1.877562 0.160269 -0.040882 -163171.000000 0 0 1
34.323406 -14.207165 -10.242052 38.533613 -0.392449 1.839825 0.142164 -0.033400 1149050.000000 0 0 1
35.677616 -14.426265 -10.682152 39.938925 -0.384251 1.841555 0.144674 -0.035788 769874.000000 0 0 1
36.598646 -14.620965 -9.621852 40.568627 -0.380071 1.810253 0.121783 -0.028429 -119803.000000 0 0 1
-37.608284 -15.168065 -10.037552 41.775659 0.383363 1.813443 0.095520 -0.034353 -22066.300000 0 0 1
-36.803724 -14.241765 -10.774652 40.907641 0.369219 1.837331 0.108534 -0.049968 -55386.300000 0 0 1
-35.445206 -14.586265 -10.710352 39.797405 0.390394 1.843277 0.102573 -0.050458 6024.420000 0 0 1
-34.477305 -13.428665 -11.083652 38.624616 0.371416 1.861846 0.120043 -0.059434 53962.500000 0 0 1
-34.647300 -12.291565 -10.316252 38.183020 0.340911 1.844375 0.134138 -0.055479 260790.000000 0 0 1
-33.786334 -11.301465 -10.829952 37.236103 0.322798 1.865907 0.145520 -0.045357 -91075.500000 0 0 1
-33.955494 -9.998665 -10.027352 36.789899 0.286370 1.846846 0.161604 -0.037205 101051.000000 0 0 1
-33.493394 -10.032465 -8.687152 36.026718 0.291031 1.814327 0.166860 -0.039127 720874.000000 0 0 1
-34.257277 -8.985265 -8.061552 36.321958 0.256510 1.794607 0.214805 -0.052639 357236.000000 0 0 1
-33.824344 -8.755765 -6.577452 35.552954 0.253300 1.756873 0.206166 -0.048967 -624207.000000 0 0 1
-32.481074 -8.352765 -6.508752 34.163617 0.251704 1.762485 0.205711 -0.052512 -111114.000000 0 0 1
-32.075954 -7.976665 -5.201452 33.459664 0.243736 1.726884 0.219993 -0.042226 -74089.100000 0 0 1
-31.663634 -9.034265 -4.190952 33.192887 0.277935 1.697395 0.204772 -0.040866 -303853.000000 0 0 1
-32.640364 -10.056665 -4.020952 34.390376 0.298876 1.687985 0.199818 -0.035030 354070.000000 0 0 1
-32.499834 -10.643265 -2.763252 34.309676 0.316479 1.651422 0.214294 -0.041071 -84390.300000 0 0 1
-33.191184 -12.007565 -2.714452 35.400630 0.347121 1.647550 0.219540 -0.043287 310111.000000 0 0 1
-34.603081 -11.925465 -2.878952 36.713462 0.331888 1.649294 0.242556 -0.050888 354717.000000 0 0 1
-35.172501 -13.083165 -2.369052 37.601682 0.356113 1.633842 0.255209 -0.053416 -617787.000000 0 0 1
-36.700894 -12.995165 -2.378652 39.006255 0.340308 1.631815 0.253097 -0.043243 -335023.000000 0 0 1
-37.324534 -12.247265 -1.349352 39.305688 0.317059 1.605133 0.288573 -0.059431 3141.150000 0 0 1
36.846876 -12.326565 -1.399752 38.879246 -0.322832 1.606807 0.282401 -0.056855 -236934.000000 0 0 1
36.193386 -11.730765 -0.135552 38.047213 -0.313430 1.574359 0.279975 -0.073851 -88515.100000 0 0 1
36.288906 -12.555765 1.000648 38.412670 -0.333102 1.544743 0.299223 -0.060656 262748.000000 0 0 1
35.488406 -12.039565 2.048148 37.530960 -0.327069 1.516197 0.310086 -0.056702 270321.000000 0 0 1
36.041526 -12.441765 3.479548 38.287026 -0.332398 1.479790 0.253183 -0.062545 389398.000000 0 0 1
35.105206 -12.353265 4.536548 37.490784 -0.338360 1.449495 0.214878 -0.066565 -231951.000000 0 0 1
35.842476 -12.237965 5.733848 38.305716 -0.329026 1.420545 0.203218 -0.058878 98407.600000 0 0 1
35.103996 -11.958265 7.092648 37.757069 -0.328323 1.381824 0.157491 -0.057621 7843.130000 0 0 1
34.467416 -10.707865 7.285148 36.820300 -0.301213 1.371625 0.154960 -0.052811 -4212.410000 0 0 1
33.877306 -10.631165 8.528748 36.516203 -0.304081 1.335058 0.124967 -0.039536 -586695.000000 0 0 1
33.022526 -9.352965 8.763748 35.422711 -0.276001 1.320795 0.134080 -0.063588 -488018.000000 0 0 1
31.649296 -9.586365 8.573148 34.162482 -0.294109 1.317133 0.137868 -0.056031 -408306.000000 0 0 1
30.900816 -8.545565 9.116148 33.331535 -0.269805 1.293767 0.161240 -0.044590 -231741.000000 0 0 1
29.415666 -8.652665 8.701848 31.872750 -0.286083 1.294267 0.141406 -0.037136 -236392.000000 0 0 1
28.984366 -8.167765 7.499548 31.033032 -0.274676 1.326717 0.159340 -0.037535 4126.570000 0 0 1
28.259766 -9.111565 6.762248 30.452635 -0.311898 1.346872 0.168266 -0.045401 -307607.000000 0 0 1
27.356866 -8.551765 5.653248 29.214551 -0.302976 1.376060 0.179831 -0.041538 -319378.000000 0 0 1
26.343766 -7.734465 6.171148 28.140700 -0.285573 1.349703 0.196328 -0.038732 395049.000000 0 0 1
25.335866 -7.329065 5.247548 26.891598 -0.281590 1.374399 0.209749 -0.045897 257726.000000 0 0 1
25.657466 -5.985165 4.534748 26.733718 -0.229174 1.400346 0.208332 -0.041066 -215637.000000 0 0 1
26.443266 -6.221365 3.367248 27.373163 -0.231070 1.447471 0.190368 -0.041242 402698.000000 0 0 1
26.821566 -4.949265 2.914848 27.429691 -0.182473 1.464329 0.211104 -0.038702 222492.000000 0 0 1
27.456466 -4.954165 1.484348 27.939301 -0.178516 1.517644 0.223356 -0.050855 385583.000000 0 0 1
26.452666 -5.075865 0.487548 26.939667 -0.189580 1.552698 0.207021 -0.044943 286194.000000 0 0 1
26.977266 -5.083965 -0.770552 27.462944 -0.186269 1.598858 0.212008 -0.050786 172205.000000 0 0 1
25.851766 -5.669765 -1.709152 26.521335 -0.215900 1.635285 0.171247 -0.031855 262135.000000 0 0 1
24.797466 -4.786965 -1.863252 25.323922 -0.190697 1.644440 0.195004 -0.029274 -197706.000000 0 0 1
24.095666 -4.893165 -3.103152 24.782529 -0.200348 1.696341 0.186181 -0.027310 53284.600000 0 1 0
22.967066 -3.856165 -3.214352 23.509321 -0.166348 1.707953 0.164096 -0.021520 -188702.000000 0 1 0
23.439166 -2.525965 -3.322452 23.807849 -0.107353 1.710806 0.187303 -0.025926 390578.000000 0 1 0
24.162066 -2.113565 -4.464452 24.661790 -0.087252 1.752827 0.208168 -0.023829 468442.000000 0 1 0
23.214266 -1.410065 -5.534652 23.906543 -0.060667 1.804428 0.210504 -0.010350 669287.000000 0 1 0
22.791266 -0.125865 -5.065652 23.347772 -0.005522 1.789501 0.207764 -0.003551 219006.000000 0 1 0
21.894866 0.571835 -5.913252 22.686531 0.026111 1.834492 0.202552 0.004207 36906.400000 0 1 0
21.502166 1.904935 -5.247352 22.215009 0.088362 1.809257 0.182078 0.008720 -33984.700000 0 1 0
22.517866 2.891735 -5.317552 23.317220 0.127721 1.800873 0.218643 -0.004526 493010.000000 0 1 0
23.300866 2.954935 -4.124052 23.846798 0.126143 1.744610 0.237837 -0.002982 -298144.000000 0 1 0
24.403166 3.995135 -4.154052 25.074524 0.162274 1.737232 0.262706 -0.023709 -439093.000000 0 0 1
23.917566 5.312435 -4.053052 24.833428 0.218566 1.734739 0.220784 -0.008408 80916.000000 0 1 0
24.816666 6.205335 -3.446252 25.811814 0.245023 1.704711 0.216255 -0.018165 -408160.000000 0 0 1
24.297366 7.637035 -3.323152 25.685202 0.304538 1.700540 0.193604 -0.022154 241737.000000 0 0 1
23.068566 7.711035 -2.597152 24.461480 0.322590 1.677170 0.208107 -0.032600 731996.000000 0 1 0
22.448166 8.964035 -2.690352 24.321021 0.379921 1.681642 0.178940 -0.022747 -162762.000000 0 1 0
21.340866 9.253835 -1.663752 23.320251 0.409149 1.642201 0.130907 -0.022387 -258240.000000 0 1 0
21.860166 9.428735 -0.369852 23.809760 0.407212 1.586331 0.101797 -0.028668 155669.000000 0 1 0
20.927466 9.978835 0.507048 23.190366 0.444940 1.548930 0.058858 -0.026287 -576898.000000 0 1 0
21.575766 10.361435 1.847148 24.005936 0.447711 1.493775 0.087549 -0.023873 -572182.000000 0 1 0
22.577166 11.325735 1.769448 25.320577 0.464963 1.500857 0.110941 -0.035345 -32295.400000 0 0 1
22.203366 12.668335 1.547548 25.609980 0.518491 1.510332 0.124884 -0.027369 -752632.000000 0 0 1
21.267966 13.275135 2.611048 25.206609 0.558013 1.467024 0.115255 -0.017479 486541.000000 0 0 1
19.884266 12.940635 2.314848 23.837000 0.576936 1.473531 0.140020 -0.013564 1525730.000000 0 1 0
18.956466 13.720435 3.072748 23.601689 0.626512 1.440234 0.129665 -0.014668 168346.000000 0 1 0
18.905866 13.593135 4.644248 23.743928 0.623358 1.373930 0.119357 -0.013429 -656294.000000 0 1 0
18.598266 12.379935 5.263948 22.953593 0.587298 1.339407 0.105074 -0.005562 249014.000000 0 1 0
18.754166 12.367935 6.658248 23.431108 0.583008 1.282663 0.115518 -0.016179 -116011.000000 0 1 0
18.522666 10.962935 7.268848 22.718082 0.534417 1.245110 0.057160 -0.010570 -150685.000000 0 1 0
19.427966 10.003235 6.791748 22.883147 0.475487 1.269455 0.037248 -0.019488 95960.300000 0 1 0
19.472966 8.752335 7.490148 22.625253 0.422405 1.233378 0.042620 -0.012669 250533.000000 0 1 0
20.483766 7.797835 6.751948 22.934247 0.363744 1.271964 0.053384 -0.018562 340941.000000 0 1 0
20.000466 7.491235 5.472748 22.047408 0.358379 1.319947 0.034141 -0.021419 472054.000000 0 1 0
21.021566 6.951235 4.654948 22.625084 0.319353 1.363574 0.059185 -0.022873 -297609.000000 0 1 0
20.618666 6.806535 3.212948 21.949518 0.318851 1.423889 0.065487 -0.011710 -623986.000000 0 1 0
21.504266 6.198735 2.339948 22.501847 0.280648 1.466619 0.072849 -0.016711 -184804.000000 0 1 0
20.994966 6.179535 1.061848 21.911247 0.286251 1.522316 0.062120 -0.000018 -194026.000000 0 1 0
21.994766 5.450135 0.132848 22.660347 0.242900 1.564934 0.150055 -0.011846 310720.000000 0 1 0
21.969466 4.054135 0.419648 22.344340 0.182482 1.552014 0.128376 -0.012644 96540.400000 0 1 0
22.994266 3.448535 -0.306552 23.253443 0.148864 1.583980 0.167972 -0.020890 -267525.000000 0 1 0
23.023266 1.925035 -0.239152 23.104842 0.083419 1.581147 0.201429 -0.022682 659897.000000 0 1 0
21.992066 1.197635 -0.954952 22.045345 0.054404 1.614128 0.130112 -0.016087 1197760.000000 0 1 0
22.554066 0.011435 -1.443852 22.600237 0.000507 1.634726 0.191231 -0.028073 -965993.000000 0 1 0
22.606466 -1.233865 -0.463852 22.644864 -0.054526 1.591282 0.211303 -0.023977 -230335.000000 0 1 0
23.587766 -1.217865 0.527048 23.625064 -0.051585 1.548486 0.228508 -0.027564 -453249.000000 0 1 0
24.879766 -1.462565 0.028748 24.922734 -0.058718 1.569643 0.247341 -0.042235 -648894.000000 0 1 0
25.874966 -1.218465 1.202848 25.931551 -0.047056 1.524394 0.255875 -0.034249 -103316.000000 0 0 1
25.739266 0.146335 1.536848 25.785522 0.005685 1.511160 0.243704 -0.032637 801455.000000 0 0 1
26.684266 0.511035 2.564948 26.812127 0.019149 1.474986 0.244512 -0.032696 -19593.600000 0 0 1
26.575266 2.027735 3.001148 26.820950 0.076154 1.458666 0.220009 -0.030546 322831.000000 0 0 1
27.213966 2.989335 2.105448 27.458495 0.109407 1.494044 0.254559 -0.028156 551227.000000 0 0 1
28.634466 2.925535 2.075148 28.858233 0.101815 1.498826 0.248660 -0.024670 136148.000000 0 0 1
29.183666 3.863635 1.015548 29.455821 0.131625 1.536312 0.293225 -0.035606 -420145.000000 0 0 1
29.004366 3.306935 -0.291752 29.193735 0.113525 1.580790 0.360169 -0.030279 -83410.500000 0 0 1
29.409266 4.028435 -1.443252 29.718953 0.136131 1.619379 0.346375 -0.029988 -694476.000000 0 0 1
30.873586 3.769035 -1.736752 31.151248 0.121478 1.626577 0.305031 -0.029484 -1183440.000000 0 0 1
31.840986 4.333135 -0.901052 32.147105 0.135256 1.598829 0.248249 -0.024574 -342958.000000 0 0 1
33.095986 3.790235 -1.263652 33.336271 0.114026 1.608712 0.217131 -0.023431 -76516.600000 0 0 1
34.186656 4.049135 -0.222252 34.426332 0.117893 1.577252 0.144882 -0.016988 -177721.000000 0 0 1
33.962796 3.350935 0.959048 34.141178 0.098347 1.542702 0.170173 -0.020090 -203337.000000 0 0 1
33.287906 4.103635 1.902148 33.593789 0.122658 1.514144 0.165984 -0.003920 -224711.000000 0 0 1
33.240886 3.403635 3.226948 33.570142 0.102037 1.474522 0.177881 -0.006482 261507.000000 0 0 1
32.323806 2.284035 3.266348 32.568609 0.070544 1.470336 0.202321 -0.016504 728776.000000 0 0 1
32.645706 1.376835 4.363548 32.964804 0.042150 1.438037 0.184950 -0.020051 155858.000000 0 0 1
33.675766 0.272535 4.029948 33.917134 0.008093 1.451697 0.181999 -0.017478 341139.000000 0 0 1
35.021376 0.687535 3.972848 35.252702 0.019629 1.457860 0.169489 -0.017600 288235.000000 0 0 1
35.971896 -0.337665 3.755548 36.168985 -0.009387 1.466775 0.146429 -0.022174 449641.000000 0 0 1
37.458876 0.004235 3.994748 37.671281 0.000113 1.464554 0.187394 -0.031445 204573.000000 0 0 1
-37.457174 0.713535 2.968848 37.581420 -0.019047 1.491716 0.165805 -0.021685 382208.000000 0 0 1
-36.086214 0.311235 2.922448 36.205696 -0.008625 1.489991 0.171360 -0.026986 422855.000000 0 0 1
-35.276701 1.066235 1.869748 35.342304 -0.030216 1.517868 0.187814 -0.032534 -400990.000000 0 0 1
-34.730446 2.301835 2.245948 34.879028 -0.066180 1.506359 0.169866 -0.058498 -56696.000000 0 0 1
-34.131582 2.872135 1.122648 34.270606 -0.083951 1.538032 0.191738 -0.038404 -643763.000000 0 0 1
-33.393514 4.144735 1.476048 33.682107 -0.123486 1.526959 0.225534 -0.038967 -342154.000000 0 0 1
-32.259544 3.771335 2.252548 32.557259 -0.116378 1.501554 0.232684 -0.050986 262476.000000 0 0 1
-31.664184 4.899735 2.915048 32.173366 -0.153523 1.480068 0.247034 -0.047142 -185352.000000 0 0 1
-32.120904 4.948335 4.417948 32.798731 -0.152852 1.435687 0.257539 -0.035973 -51485.300000 0 0 1
-33.505604 5.255635 4.611048 34.227313 -0.155591 1.435667 0.266103 -0.015995 691737.000000 0 0 1
-34.230614 4.015735 4.742648 34.790139 -0.116780 1.434049 0.250518 -0.022764 -305146.000000 0 0 1
-34.120801 3.318135 6.133548 34.826133 -0.096942 1.393754 0.212058 -0.014750 -954078.000000 0 0 1
-34.798818 4.063035 7.122448 35.751857 -0.116232 1.370235 0.219949 -0.027352 312395.000000 0 0 1
-34.907368 3.361335 8.357548 36.050957 -0.095997 1.336842 0.184071 -0.024981 -54779.800000 0 0 1
-36.022324 2.280535 8.425648 37.064811 -0.063225 1.341469 0.164754 -0.023109 -380814.000000 0 0 1
-35.790936 1.132835 7.560048 36.598207 -0.031641 1.362729 0.160437 -0.023706 -383874.000000 0 0 1
-36.678574 0.088835 7.702448 37.478706 -0.002422 1.363806 0.151731 -0.014226 -504581.000000 0 0 1
-36.519624 -0.747165 8.986948 37.616571 0.020456 1.329554 0.154767 -0.013506 -181616.000000 0 0 1
-35.310053 -1.480465 9.051948 36.481905 0.041903 1.320056 0.140312 -0.029941 214342.000000 0 0 1
-35.161234 -2.148765 10.279648 36.696059 0.061036 1.286867 0.123382 -0.020503 51314.400000 0 0 1
-33.871734 -2.998465 10.351148 35.544781 0.088294 1.275300 0.120207 -0.012724 -4857.550000 0 0 1
-33.923764 -4.107065 9.421848 35.446593 0.120481 1.301758 0.144515 -0.027631 553804.000000 0 0 1
-32.847104 -5.002965 9.734348 34.622528 0.151149 1.285797 0.169283 -0.028152 294150.000000 0 0 1
-32.810644 -6.361265 8.990948 34.609843 0.191502 1.308002 0.175375 -0.031579 -263494.000000 0 0 1
-33.939244 -7.158165 9.189748 35.882629 0.207865 1.311805 0.191245 -0.045693 -254637.000000 0 0 1
-34.602959 -7.378665 7.947548 36.262557 0.210091 1.349836 0.194941 -0.056117 -213174.000000 0 0 1
-35.663377 -8.476865 7.962748 37.511852 0.233361 1.356896 0.204085 -0.071855 -368025.000000 0 0 1
-36.680894 -8.308165 8.911448 38.651359 0.222740 1.338143 0.208059 -0.061914 -69382.600000 0 0 1
-37.489874 -9.485065 8.948848 39.693060 0.247803 1.343390 0.206461 -0.069217 88748.300000 0 0 1
8.422476 -23.755865 10.319648 27.235535 -1.230080 1.182185 0.162779 -0.045606 -324502.000000 0 0 1
7.675776 -24.433265 9.368848 27.270447 -1.266407 1.220099 0.156989 -0.052332 -880405.000000 0 0 1
6.301376 -24.342365 9.618848 26.921744 -1.317492 1.205432 0.163253 -0.057229 -187909.000000 0 0 1
5.550276 -25.435235 8.838148 27.493083 -1.355952 1.243517 0.130783 -0.034734 -179194.000000 0 0 1
5.385476 -25.135275 7.490948 26.774983 -1.359728 1.287237 0.135798 -0.032320 -154745.000000 0 0 1
5.139876 -26.281195 6.705748 27.605916 -1.377662 1.325432 0.108198 -0.025962 -187301.000000 0 0 1
4.461876 -25.917285 5.353248 26.837870 -1.400309 1.369983 0.096104 -0.022550 1219730.000000 0 0 1
3.037976 -25.687805 5.392948 26.423030 -1.453078 1.365252 0.074395 -0.029592 1061900.000000 0 0 1
2.249176 -26.791175 4.888448 27.326229 -1.487041 1.390936 0.062619 -0.020792 235065.000000 0 0 1
0.747076 -26.467325 4.844448 26.917394 -1.542577 1.389836 0.090827 -0.031732 -170602.000000 0 0 1
0.038076 -26.371455 6.077448 27.062714 -1.569353 1.344296 0.090310 -0.024309 -177678.000000 0 0 1
-1.349624 -26.578775 6.061748 27.294643 1.520062 1.346843 0.086079 -0.019371 71804.900000 0 0 1
-1.705624 -28.117175 6.031848 28.807427 1.510209 1.359850 0.114055 -0.022658 -597972.000000 0 0 1
-1.405124 -28.711725 7.308148 29.660522 1.521896 1.321839 0.101396 -0.025754 220990.000000 0 0 1
-1.846224 -30.050355 7.435948 31.011703 1.509436 1.328658 0.143131 -0.032604 -63692.200000 0 0 1
-1.516224 -30.770865 8.809348 32.042935 1.521561 1.292286 0.132870 -0.037459 43534.000000 0 0 1
-0.161924 -31.046295 9.098848 32.352553 1.565581 1.285710 0.120900 -0.022108 33989.600000 0 0 1
0.001076 -31.361575 10.455748 33.058600 -1.570762 1.248992 0.128053 -0.015481 -274549.000000 0 0 1
1.446576 -31.370635 10.955248 33.259988 -1.524717 1.235147 0.101697 -0.015405 -278026.000000 0 0 1
2.088976 -32.626505 10.827648 34.439666 -1.506857 1.250977 0.115609 -0.009392 225586.000000 0 0 1
3.440276 -32.559495 11.265748 34.624750 -1.465526 1.239397 0.108513 -0.009946 419534.000000 0 0 1
3.780076 -33.214165 12.642448 35.739351 -1.457475 1.209229 0.126843 -0.008904 -241697.000000 0 0 1
3.236176 -32.486145 13.686948 35.399929 -1.471507 1.173813 0.139662 -0.017485 -14865.000000 0 0 1
3.756476 -32.823405 14.940448 36.258847 -1.456847 1.146094 0.138138 -0.020045 -225544.000000 0 0 1
3.391576 -31.707205 15.955248 35.656971 -1.464236 1.106868 0.155213 -0.035365 17727.600000 0 0 1
3.935576 -30.471915 15.644348 34.478573 -1.442353 1.099837 0.161486 -0.038351 -563178.000000 0 0 1
5.282276 -30.211355 15.872648 34.533598 -1.397702 1.093219 0.146452 -0.030667 -640600.000000 0 0 1
5.713876 -28.857255 15.327248 33.170982 -1.375320 1.090471 0.160324 -0.024234 -54299.200000 0 0 1
6.105276 -28.913705 13.958948 32.682242 -1.362698 1.129501 0.139231 -0.016909 3323.950000 0 0 1
5.066176 -28.595545 13.063648 31.843841 -1.395449 1.148078 0.129572 -0.006134 65126.600000 0 0 1
5.639276 -28.791655 11.600948 31.549054 -1.377380 1.194249 0.108272 -0.015871 410890.000000 0 0 1
5.877276 -30.077155 11.117248 32.600166 -1.377821 1.222797 0.093647 -0.015446 401690.000000 0 0 1
7.225276 -30.527665 11.292048 33.341465 -1.338393 1.225284 0.093457 -0.014075 316835.000000 0 0 1
7.574276 -31.888965 10.721848 34.485269 -1.337597 1.254645 0.059524 -0.007898 -272939.000000 0 0 1
7.203876 -33.002875 11.480848 35.677661 -1.355887 1.243173 0.053143 -0.013303 -10589.700000 0 0 1
7.258276 33.451512 10.776548 35.886212 1.357129 1.265792 0.054776 -0.012333 34755.700000 0 0 1
7.249776 32.098477 11.549548 34.874970 1.348663 1.233253 0.065356 -0.014957 -218435.000000 0 0 1
6.072076 31.897003 12.269948 34.710813 1.382682 1.209496 0.075347 -0.013136 -630006.000000 0 0 1
6.111476 30.799285 13.098348 34.022240 1.374912 1.175595 0.085984 -0.005878 752687.000000 0 0 1
4.963176 30.682975 14.171148 34.159911 1.410429 1.143021 0.097950 -0.019787 570779.000000 0 0 1
5.238976 31.476045 15.274148 35.376375 1.405865 1.124352 0.090607 -0.024262 309151.000000 0 0 1
4.344076 31.322435 16.395248 35.619799 1.432986 1.092480 0.127161 -0.032371 412862.000000 0 0 1
5.007676 31.850881 17.699548 36.780830 1.414850 1.068754 0.159876 -0.032227 -2143.580000 0 0 1
4.844876 33.241906 17.871148 38.050954 1.426069 1.081887 0.176784 -0.031424 110962.000000 0 0 1
5.377076 33.563986 19.156348 39.018198 1.411942 1.057606 0.157177 -0.029130 -452310.000000 0 0 1
5.248276 -32.608745 19.584248 38.398144 -1.411218 1.035575 0.150224 -0.041175 673550.000000 0 0 1
3.879176 -32.208775 19.457348 37.829110 -1.450935 1.030548 0.154038 -0.041081 470340.000000 0 0 1
3.655976 -30.952445 20.037048 37.052710 -1.453225 0.999442 0.135825 -0.033867 378962.000000 0 0 1
2.225476 -30.386485 19.683748 36.273146 -1.497688 0.997203 0.159346 -0.032988 1486890.000000 0 0 1
1.099576 -31.173335 20.093548 37.104401 -1.535538 0.998527 0.186903 -0.046230 458733.000000 0 0 1
0.789276 -31.107035 21.463648 37.801571 -1.545429 0.966968 0.175172 -0.048557 16873.200000 0 0 1
-0.186724 -32.264735 21.927448 39.011037 1.565009 0.973894 0.204739 -0.045421 -745001.000000 0 0 1
-1.495124 -32.231115 21.524848 38.786586 1.524442 0.982486 0.198286 -0.043024 -1302880.000000 0 0 1
-2.148324 -33.407495 21.889448 39.997799 1.506578 0.991702 0.186707 -0.033357 1144940.000000 0 0 1
-3.516324 -33.164765 22.674648 40.328722 1.465165 0.973698 0.189968 -0.031670 1251450.000000 0 0 1
-4.585924 -32.745095 21.818948 39.614877 1.431652 0.987502 0.163854 -0.038803 -300275.000000 0 0 1
-5.704124 -32.560675 22.657048 40.075883 1.397372 0.969934 0.142505 -0.036064 -592555.000000 0 0 1
-6.930924 -32.064575 21.897048 39.441798 1.357916 0.982225 0.095240 -0.029057 -459811.000000 0 0 1
-7.610024 -33.021645 21.106648 39.922827 1.344295 1.013744 0.087945 -0.027220 -560278.000000 0 0 1
-8.591324 -32.403345 20.375348 39.229357 1.311623 1.024659 0.078693 -0.030683 -443058.000000 0 0 1
-9.671924 -33.337705 19.764648 39.944837 1.288429 1.053193 0.078958 -0.029110 283645.000000 0 0 1
-10.543124 33.756085 20.706448 40.980334 -1.268064 1.041093 0.091197 -0.023888 -658179.000000 0 0 1
-11.881824 33.625222 20.309948 41.040557 -1.231131 1.053105 0.082207 -0.024799 441940.000000 0 0 1
-12.818424 33.483663 21.566848 41.840132 -1.205182 1.029254 0.086010 -0.015679 -15497.300000 0 0 1
-13.084324 -33.069925 22.413648 42.037972 1.194040 1.008446 0.095182 -0.014567 1089720.000000 0 0 1
-11.878924 -32.539895 23.044548 41.605346 1.220771 0.983774 0.081586 -0.007510 1037550.000000 0 0 1
-12.104224 -31.285995 23.905548 41.192244 1.201643 0.951649 0.075282 -0.003835 -18568.700000 0 0 1
-12.645424 -31.469845 25.218448 42.263791 1.188716 0.931424 0.093212 -0.001030 451245.000000 0 0 1
-13.172724 -30.208305 25.718648 41.803244 1.159593 0.908117 0.110853 -0.002372 75916.300000 0 0 1
-13.996624 -30.261505 27.009148 42.908720 1.137578 0.889944 0.084414 0.001651 -198142.000000 0 0 1
-13.277224 -30.253455 28.238248 43.462109 1.157240 0.863579 0.069518 0.002886 4311.720000 0 0 1
-14.106724 -30.108895 29.387948 44.375632 1.132645 0.846973 0.073137 0.000226 -396520.000000 0 0 1
-13.481124 -29.572455 30.659348 44.679598 1.143074 0.814538 0.053691 -0.004401 -686742.000000 0 0 1
-14.458124 -29.170585 31.591948 45.365312 1.110642 0.800441 0.066283 -0.007502 85438.600000 0 0 1
-14.043324 -28.629925 32.852648 45.784103 1.114768 0.770510 0.057332 -0.009110 -164822.000000 0 0 1
-13.204724 -29.567645 33.797848 46.807103 1.150779 0.764011 0.059834 -0.010525 567390.000000 0 0 1
-11.816124 -29.659705 33.483448 46.265108 1.191679 0.761604 0.049304 -0.010048 432798.000000 0 0 1
-11.233024 -30.615945 -33.237891 46.564733 1.219145 2.365705 0.047093 -0.009197 -102357.000000 0 0 1
-9.799324 -31.019325 -33.625991 46.786029 1.264808 2.372754 0.055962 -0.017146 -19947.300000 0 0 1
-8.816724 -30.143695 -33.108491 45.634955 1.286244 2.382567 0.100008 -0.030232 188547.000000 0 0 1
-7.608824 -30.816075 -32.750791 45.608541 1.328727 2.371843 0.116291 -0.037238 342865.000000 0 0 1
-6.739024 -29.816815 -31.967091 44.230666 1.348517 2.378549 0.146526 -0.039503 -289326.000000 0 0 1
-7.216324 -29.733395 -30.630491 43.294077 1.332699 2.356749 0.158003 -0.044624 123318.000000 0 0 1
-6.320024 -29.136255 -29.701591 42.083828 1.357193 2.354309 0.161078 -0.043229 62482.300000 0 0 1
-6.892424 -29.155595 -28.309091 41.218429 1.338657 2.327883 0.160924 -0.039549 -76750.800000 0 0 1
-6.505424 -30.359235 -27.678391 41.594435 1.359707 2.298873 0.132156 -0.041762 529828.000000 0 0 1
-7.373324 -30.658885 -26.555091 41.225065 1.334783 2.270707 0.136876 -0.044142 343867.000000 0 0 1
-6.949724 -31.955915 -25.759091 41.629436 1.356652 2.237974 0.108212 -0.044425 271421.000000 0 0 1
-5.832924 -31.687155 -24.940891 40.744900 1.388756 2.229539 0.066209 -0.038444 -84937.700000 0 0 1
-5.475224 -32.886405 -24.231291 41.214672 1.405821 2.199292 0.074422 -0.045957 -55126.200000 0 0 1
-4.449724 -32.677045 -23.086891 40.256600 1.435456 2.181560 0.097864 -0.058623 8854.380000 0 0 1
-4.897724 -32.124085 -21.840591 39.152981 1.419499 2.162562 0.107081 -0.051802 3468.310000 0 0 1
-5.134724 -30.739285 -21.913191 38.097992 1.405283 2.183620 0.087961 -0.031053 -328997.000000 0 0 1
-5.622324 -30.111115 -20.571391 36.898129 1.386203 2.162190 0.126779 -0.047240 -854457.000000 0 0 1
-6.990224 -30.113205 -20.325991 36.997490 1.342704 2.152428 0.138203 -0.058670 -132516.000000 0 0 1
-7.692324 -28.831905 -20.359391 36.124166 1.310070 2.169527 0.141462 -0.053703 568138.000000 0 0 1
-7.970224 -28.271595 -21.757091 36.553776 1.296011 2.208320 0.193025 -0.068177 31411.500000 0 0 1
-6.730424 -27.979415 -22.425191 36.483359 1.334732 2.232763 0.203858 -0.040782 442285.000000 0 0 1
-6.838624 -27.536405 -23.774991 37.017166 1.327373 2.268252 0.272300 -0.053794 -493066.000000 0 0 1
-5.466724 -27.341085 -24.464191 37.093350 1.373453 2.290990 0.248529 -0.049719 20882.600000 0 0 1
-4.658024 -26.247525 -24.066891 35.914412 1.395160 2.305164 0.235143 -0.054846 245434.000000 0 0 1
-4.122624 -26.214145 -22.747591 34.951829 1.414807 2.279469 0.155561 -0.040135 -1712500.000000 0 0 1
-2.652424 -26.684545 -22.792491 35.193720 1.471722 2.275266 0.123170 -0.036104 -454428.000000 0 0 1
-1.738024 -25.703785 -23.185091 34.659108 1.503282 2.303587 0.115937 -0.043118 -50644.200000 0 0 1
-1.538224 -24.697765 -22.233691 33.266842 1.508595 2.302777 0.139255 -0.048498 -1506020.000000 0 0 1
-0.971824 -23.393665 -22.836091 32.706193 1.529278 2.343703 0.145336 -0.049211 -139490.000000 0 0 1
-1.770624 -22.662965 -23.765591 32.886903 1.492826 2.378419 0.254972 -0.058304 750673.000000 0 0 1
-2.998524 -22.166765 -23.146791 32.188982 1.436341 2.373289 0.262994 -0.063406 670607.000000 0 0 1
-4.075624 -21.936165 -24.225291 32.934340 1.387096 2.397294 0.261118 -0.068672 -97328.100000 0 0 1
-3.725524 -20.782065 -24.977891 32.705791 1.393414 2.439844 0.257451 -0.058477 -167660.000000 0 0 1
-4.589124 -20.568165 -26.042791 33.501290 1.351274 2.461265 0.328061 -0.061956 -296720.000000 0 0 1
-4.229724 -21.217365 -27.418591 34.926298 1.374024 2.473559 0.276700 -0.047364 -481629.000000 0 0 1
-5.224724 -21.096265 -28.355691 35.726676 1.328020 2.487638 0.288033 -0.040248 -477133.000000 0 0 1
-4.825924 -21.848165 -29.483091 37.011951 1.353402 2.492418 0.293853 -0.032502 329892.000000 0 0 1
-5.974124 -21.910765 -30.526391 38.047764 1.304610 2.501964 0.303691 -0.041373 172745.000000 0 0 1
-6.235124 -20.730865 -31.288491 38.047539 1.278638 2.536330 0.295448 -0.050818 -318778.000000 0 0 1
-6.912524 -21.086765 -32.457391 39.318149 1.254022 2.541895 0.268835 -0.045676 23281.000000 0 0 1
-6.509424 -20.217665 -33.721191 39.852795 1.259310 2.579504 0.235096 -0.040373 687291.000000 0 0 1
-5.174224 -20.422565 33.425648 39.511109 1.322660 0.562394 0.235784 -0.038973 134728.000000 0 0 1
-5.037924 -19.864765 32.147948 38.124535 1.322422 0.567523 0.220368 -0.035354 1215180.000000 0 0 1
-3.568024 -20.033065 31.567348 37.557316 1.394538 0.572570 0.164766 -0.043082 118999.000000 0 0 1
-3.227324 -21.391265 31.536148 38.243045 1.421055 0.601258 0.217234 -0.049915 830141.000000 0 0 1
-2.152324 -21.747365 30.604948 37.606425 1.472148 0.620097 0.178040 -0.031893 2533610.000000 0 0 1
-0.701824 -21.130465 30.903448 37.443454 1.537595 0.599998 0.124908 -0.036070 476579.000000 0 0 1
-0.610324 -19.790865 30.483148 36.349321 1.539967 0.576058 0.103781 -0.038142 191587.000000 0 0 1
0.465676 -19.069965 31.088548 36.474351 -1.546382 0.550353 0.108664 -0.037107 44264.900000 0 0 1
0.247076 -18.759665 32.607848 37.619913 -1.557627 0.522106 0.104981 -0.037757 163186.000000 0 0 1
-0.854924 -17.845765 32.659748 37.227159 1.522927 0.500569 0.108433 -0.033800 91426.600000 0 0 1
-1.330624 -17.791065 -33.618091 38.058752 1.496144 2.653696 0.119897 -0.038836 195833.000000 0 0 1
-2.643924 -16.980065 -33.465491 37.619836 1.416329 2.667200 0.126186 -0.047572 354011.000000 0 0 1
-2.435524 -15.535765 -33.444691 36.957261 1.415293 2.702072 0.134702 -0.039511 -985234.000000 0 0 1
-3.603624 -14.911165 -33.103191 36.484931 1.333670 2.707641 0.164391 -0.051989 -767843.000000 0 0 1
-3.540824 -13.349065 -33.299291 36.049657 1.311518 2.748441 0.140721 -0.058953 -41937.000000 0 0 1
-2.616324 -12.802465 -32.371091 34.908964 1.369211 2.757931 0.143193 -0.056803 20573.200000 0 0 1
-2.373924 -11.415965 -32.446791 34.478312 1.365771 2.796601 0.136959 -0.055608 -14314.700000 0 0 1
-1.972324 -10.774065 33.764848 35.496979 1.389739 0.313683 0.131164 -0.053024 -493965.000000 0 0 1
-2.952124 -10.773365 32.760348 34.612438 1.303341 0.328614 0.110393 -0.042062 -573625.000000 0 0 1
-2.496424 -10.434465 31.461248 33.240342 1.335963 0.328653 0.103794 -0.029714 -524490.000000 0 0 1
-1.591724 -11.521365 30.864248 32.982984 1.433511 0.360380 0.114586 -0.038830 -211706.000000 0 0 1
-2.177824 -12.781665 30.827248 33.442983 1.402030 0.398136 0.112567 -0.031311 -447528.000000 0 0 1
-1.241824 -13.759465 30.502148 33.485012 1.480788 0.425289 0.119968 -0.036771 -364994.000000 0 0 1
-1.702624 -15.233965 30.673348 34.290333 1.459493 0.463443 0.096756 -0.021744 -83580.800000 0 0 1
-2.131224 -15.809065 29.455348 33.497555 1.436794 0.496346 0.129123 -0.025980 228163.000000 0 0 1
-2.280424 -17.216965 29.660348 34.370925 1.439111 0.529720 0.138109 -0.022781 -455162.000000 0 0 1
-2.282724 -18.016365 28.335248 33.655409 1.444765 0.569960 0.146873 -0.019843 180699.000000 0 0 1
-3.406824 -17.891865 27.453748 32.945919 1.382637 0.585751 0.158425 -0.025674 245524.000000 0 0 1
-3.792324 -19.251265 27.102348 33.459381 1.376296 0.626632 0.176700 -0.029789 710110.000000 0 0 1
-4.887724 -19.145865 25.975348 32.636984 1.320846 0.650325 0.159269 -0.037857 423788.000000 0 0 1
-5.449524 -20.358065 25.468048 33.057066 1.309245 0.691286 0.177199 -0.040645 581704.000000 0 0 1
-4.485324 -21.163265 24.728748 32.855942 1.361948 0.718731 0.185752 -0.049549 705840.000000 0 0 1
-30.956084 -33.260305 -0.954052 45.447082 0.821265 1.591790 0.111770 -0.036475 69825.000000 0 0 1
-30.161164 -32.137005 -0.540252 44.076919 0.817103 1.583054 0.114231 -0.046541 265418.000000 0 0 1
-30.454174 -31.770805 0.814248 44.017085 0.806554 1.552297 0.093082 -0.031372 124239.000000 0 0 1
-29.629944 -30.561605 1.355648 42.588532 0.800875 1.538960 0.106201 -0.038001 -465928.000000 0 0 1
-28.258074 -30.777405 1.307048 41.802820 0.828047 1.539524 0.125384 -0.040582 -964300.000000 0 0 1
-27.657744 -29.471405 1.515448 40.445162 0.817134 1.533318 0.135335 -0.038641 528357.000000 0 0 1
-26.109254 -29.476305 1.620948 39.410318 0.845898 1.529655 0.129178 -0.040302 207995.000000 0 0 1
-25.575774 -30.233805 2.693148 39.692017 0.868668 1.502893 0.112710 -0.035780 748492.000000 0 0 1
-24.164424 -29.956405 2.734648 38.584763 0.892012 1.499863 0.122993 -0.031105 976129.000000 0 0 1
-23.466724 -30.513605 4.024248 38.703512 0.915209 1.466632 0.123292 -0.039177 45344.200000 0 0 1
-24.005624 -30.011905 5.211948 38.783358 0.896135 1.436002 0.119675 -0.035563 64448.100000 0 0 1
-23.291624 -30.545505 6.298148 38.925497 0.919329 1.408282 0.108616 -0.032839 -5965.100000 0 0 1
-23.920724 -30.029605 7.612348 39.139827 0.898149 1.375058 0.109126 -0.020412 135797.000000 0 0 1
-23.499424 -28.744005 8.074148 37.995166 0.885450 1.356659 0.127168 -0.036007 336217.000000 0 0 1
-24.206824 -28.498605 9.294648 38.529616 0.866648 1.327159 0.099740 -0.028802 211678.000000 0 0 1
-23.630024 -27.383705 10.173548 37.573214 0.858848 1.296608 0.114881 -0.034294 880674.000000 0 0 1
-22.344824 -27.618105 10.770248 37.122084 0.890553 1.276433 0.108057 -0.041298 995372.000000 0 0 1
-21.627224 -26.569805 11.448748 36.121534 0.887590 1.248284 0.125632 -0.039994 31221.100000 0 0 1
-20.240224 -26.839205 11.984848 35.688180 0.924658 1.228319 0.119705 -0.042717 -827390.000000 0 0 1
-20.070424 -27.670005 13.111748 36.611051 0.943259 1.204525 0.122661 -0.036023 -730580.000000 0 0 1
-18.741824 -27.812505 13.502648 36.154017 0.977828 1.188043 0.126472 -0.041654 -370706.000000 0 0 1
-18.748624 -28.792405 14.693748 37.368700 0.993602 1.166676 0.114650 -0.040905 147901.000000 0 0 1
-18.861424 -30.121705 14.213248 38.276453 1.011353 1.190354 0.108690 -0.036279 -19198.700000 0 0 1
-18.924024 -31.065705 15.290348 39.458731 1.023668 1.172876 0.109317 -0.030165 124638.000000 0 0 1
-18.671624 -32.489105 14.730048 40.263455 1.049184 1.196259 0.095929 -0.035163 106784.000000 0 0 1
-18.513924 -33.515205 15.691948 41.379604 1.066110 1.181844 0.099571 -0.030443 133227.000000 0 0 1
-18.193924 32.934135 14.998248 40.504612 -1.066087 1.191481 0.085775 -0.034384 -20531.200000 0 0 1
-18.048824 31.659935 15.915248 39.766904 -1.052664 1.159047 0.083572 -0.032643 -190709.000000 0 0 1
-19.309624 31.251935 16.382248 40.223415 -1.017341 1.151321 0.085784 -0.036851 -8239.540000 0 0 1
-19.154424 30.112835 17.146848 39.594055 -1.004263 1.122905 0.060154 -0.025451 98677.900000 0 0 1
-19.956324 30.216835 18.456848 40.644400 -0.987119 1.099428 0.069604 -0.026119 85437.100000 0 0 1
-19.383324 31.168735 19.354948 41.494787 -1.014441 1.085531 0.080228 -0.027820 624655.000000 0 0 1
-20.213424 31.308035 20.537748 42.550848 -0.997499 1.067103 0.080492 -0.022109 304424.000000 0 0 1
-19.777024 32.458035 21.444348 43.640747 -1.023559 1.057119 0.070326 -0.014705 565538.000000 0 0 1
-18.536424 32.179435 22.103048 43.216430 -1.048186 1.033925 0.066180 -0.013867 310858.000000 0 0 1
-18.351224 32.824335 23.352348 44.266653 -1.061013 1.015096 0.071438 -0.016993 83152.300000 0 0 1
-19.301924 32.356835 24.482348 44.932332 -1.032930 0.994560 0.067826 -0.013097 542892.000000 0 0 1
-20.680724 32.699835 24.410848 45.747799 -1.006864 1.007949 0.053361 -0.014900 210902.000000 0 0 1
-21.445224 32.017335 25.389648 46.148040 -0.980627 0.988219 0.031686 -0.010474 -535288.000000 0 0 1
-22.926224 32.288135 25.172548 46.923263 -0.953356 1.004557 0.047482 -0.016518 -862527.000000 0 0 1
-23.373024 31.779835 23.967148 46.159293 -0.936661 1.024850 0.038721 -0.008385 1221420.000000 0 0 1
-24.759624 32.133135 23.717948 46.990621 -0.914283 1.041718 0.038204 -0.012592 1084380.000000 0 0 1
-25.221454 31.897935 22.238248 46.348028 -0.901757 1.070358 0.035811 -0.020511 -76985.300000 0 0 1
-24.620824 32.732035 21.240648 46.138230 -0.925893 1.092385 0.026886 -0.019316 135986.000000 0 0 1
-24.364524 31.891135 20.102448 44.886334 -0.918401 1.106434 0.022303 -0.012281 -12794.200000 0 0 1
-23.804924 32.729335 18.897348 44.665351 -0.941965 1.133946 0.031373 -0.010362 -753337.000000 0 0 1
-22.466924 33.025935 19.062648 44.259006 -0.973427 1.125521 0.052912 -0.015675 -1049870.000000 0 0 1
-21.865124 33.609735 17.914248 43.916036 -0.994028 1.150621 0.065937 -0.014581 316777.000000 0 0 1
-20.618924 -33.225205 18.307348 43.176536 1.015381 1.132926 0.084174 -0.016528 195314.000000 0 0 1
-20.997824 -32.149505 19.113048 42.892982 0.992224 1.108954 0.091049 -0.023289 1292490.000000 0 0 1
-19.781224 -31.457005 19.513248 41.971500 1.009445 1.087256 0.100613 -0.031032 1098520.000000 0 0 1
-20.023924 -30.282905 20.472448 41.678928 0.986568 1.057336 0.079120 -0.018738 189250.000000 0 0 1
-20.786424 -29.203605 19.936748 41.017068 0.952211 1.063221 0.104324 -0.019580 445837.000000 0 0 1
-21.279424 -28.310705 20.939148 41.143138 0.926247 1.036850 0.107755 -0.012625 208276.000000 0 0 1
-22.212424 -27.167105 20.508148 40.645141 0.885402 1.041917 0.101728 -0.022631 -353400.000000 0 0 1
-21.414224 -26.185205 19.890548 39.241150 0.885296 1.039235 0.104714 -0.015004 448506.000000 0 0 1
-22.084424 -24.961205 19.628248 38.678827 0.846471 1.038553 0.093152 -0.004157 59514.900000 0 0 1
-23.258324 -25.017005 18.601648 38.895006 0.821812 1.072132 0.078241 -0.014300 765279.000000 0 0 1
-24.539024 -25.300305 19.204548 40.138309 0.800672 1.071897 0.069409 -0.009216 452070.000000 0 0 1
-25.510784 -25.315605 18.194648 40.283063 0.781558 1.102160 0.052009 -0.002262 -1708190.000000 0 0 1
-26.890264 -25.486805 18.726748 41.513307 0.758609 1.102796 0.037221 -0.002898 -1331970.000000 0 0 1
-27.496454 -26.743905 19.047048 42.826178 0.771525 1.109898 0.034296 -0.006773 47273.600000 0 0 1
-27.584904 -27.694605 18.006848 43.036783 0.787383 1.139107 0.048550 -0.012703 -601598.000000 0 0 1
-28.356864 -28.937705 18.456148 44.521140 0.795536 1.143350 0.054951 -0.013914 2044900.000000 0 0 1
-29.803774 -28.774605 18.679148 45.443959 0.767831 1.147205 0.034516 -0.008922 1633840.000000 0 0 1
-30.611294 -29.147905 17.594548 45.784493 0.760915 1.176357 0.039187 -0.009000 259519.000000 0 0 1
-32.080014 -28.711405 17.894848 46.622931 0.730042 1.176866 0.040480 -0.013120 507897.000000 0 0 1
-32.316464 -27.323505 17.596648 45.831974 0.701875 1.176739 0.042148 -0.006490 -546281.000000 0 0 1
-33.653414 -27.004405 17.831048 46.687648 0.676219 1.178921 0.050461 0.000369 -393554.000000 0 0 1
-34.180407 -25.792105 17.031048 46.082421 0.646431 1.192242 0.059494 -0.010338 -253186.000000 0 0 1
-34.334360 -25.905005 15.617648 45.758371 0.646370 1.222489 0.078606 -0.024836 772289.000000 0 0 1
-35.154569 -24.828405 15.065148 45.598817 0.614918 1.234085 0.094368 -0.025766 571911.000000 0 0 1
-34.379525 -23.483205 14.799748 44.186482 0.599265 1.229257 0.076819 -0.021334 269789.000000 0 0 1
-33.661924 -22.967005 15.894048 43.740476 0.598737 1.198912 0.054079 -0.005218 200781.000000 0 0 1
-33.080814 -21.712205 15.667648 42.558610 0.580818 1.193786 0.061457 0.003462 -273711.000000 0 0 1
-34.056909 -20.558805 15.891748 42.837894 0.543107 1.190739 0.074856 -0.008109 -175697.000000 0 0 1
-34.384709 -20.394205 17.249748 43.540621 0.535344 1.163448 0.071975 -0.000348 232342.000000 0 0 1
-35.332631 -19.383905 17.480448 43.928313 0.501777 1.161536 0.079435 -0.003017 -98945.700000 0 0 1
-35.831295 -19.230405 18.939848 44.859871 0.492569 1.134925 0.077389 -0.007248 -144121.000000 0 0 1
-36.785694 -20.129605 19.457648 46.227572 0.500701 1.136348 0.081236 -0.002685 213379.000000 0 0 1
-37.103364 -19.673905 20.745148 46.841043 0.487550 1.111984 0.082927 0.002819 120718.000000 0 0 1
37.061196 -20.166105 21.228348 47.231841 -0.498325 1.104647 0.082145 0.002420 223683.000000 0 0 1
36.944216 -21.539005 21.445448 47.840475 -0.527836 1.105967 0.099199 -0.015304 162742.000000 0 0 1
37.726446 -22.108005 22.492848 49.172928 -0.530068 1.095701 0.079041 0.002297 -134010.000000 0 0 1
37.003546 -23.302605 23.094348 49.453238 -0.562000 1.084908 0.076532 0.008104 225923.000000 0 0 1
35.856356 -22.971205 23.864648 48.814710 -0.569771 1.059988 0.106649 -0.021203 202177.000000 0 0 1
35.440966 -24.045205 24.619548 49.399960 -0.596121 1.049077 0.104865 -0.035200 -404247.000000 0 0 1
34.488036 -23.739005 25.793248 49.175773 -0.602848 1.018655 0.116642 -0.040259 628313.000000 0 0 1
33.186576 -23.335005 25.354348 47.840508 -0.612834 1.012223 0.131197 -0.042120 317546.000000 0 0 1
32.230526 -23.574205 26.352648 47.843620 -0.631507 0.987464 0.097771 -0.041477 38607.400000 0 0 1
31.029446 -24.450105 25.905448 47.241151 -0.667359 0.990387 0.091856 -0.034745 -425097.000000 0 0 1
29.971966 -23.743705 25.337948 45.870403 -0.669965 0.985578 0.084788 -0.023344 -811376.000000 0 0 1
28.991966 -24.621405 24.871048 45.445756 -0.704058 0.991699 0.082852 -0.018315 -664924.000000 0 0 1
27.754966 -23.845605 24.435348 44.000423 -0.709781 0.982020 0.076429 -0.009531 -646555.000000 0 0 1
27.664866 -23.251105 23.160148 42.922618 -0.698927 1.000859 0.078773 -0.016787 -612562.000000 0 0 1
28.569266 -22.237205 22.912648 42.844903 -0.661407 1.006548 0.087634 -0.010467 -359381.000000 0 0 1
28.403766 -21.596805 21.495548 41.656386 -0.650092 1.028598 0.093817 -0.017037 828098.000000 0 0 1
27.340066 -20.624805 21.405848 40.386534 -0.646299 1.012167 0.072006 -0.006580 557620.000000 0 0 1
27.323266 -20.069605 20.133048 39.429551 -0.633523 1.034904 0.049764 -0.004765 -141194.000000 0 0 1
26.445766 -18.778305 20.119048 38.167779 -0.617451 1.015587 0.053481 -0.006052 -356483.000000 0 0 1
26.743066 -17.519605 20.735848 38.106476 -0.579958 0.995414 0.061203 -0.008282 -321973.000000 0 0 1
26.669166 -17.574605 22.121448 38.851893 -0.582666 0.965046 0.056730 -0.011002 -133188.000000 0 0 1
26.743066 -16.160005 22.787348 38.672995 -0.543553 0.940689 0.050080 -0.003651 -264703.000000 0 0 1
25.552766 -15.412805 22.610448 37.439695 -0.542751 0.922391 0.009732 -0.003552 -200154.000000 0 0 1
25.575866 -14.186305 23.245748 37.359617 -0.506426 0.899226 -0.000229 -0.000816 -664484.000000 0 0 1
24.358266 -13.330405 23.045548 36.084929 -0.500740 0.878057 -0.004375 -0.001089 -592416.000000 0 0 1
23.177866 -13.855605 23.602648 35.864694 -0.538796 0.852500 0.032538 -0.001976 -35572.500000 0 0 1
22.080866 -12.991105 23.430148 34.717507 -0.531803 0.829994 0.062582 -0.007026 -417918.000000 0 0 1
20.677166 -13.488505 23.737648 34.248517 -0.578017 0.805016 0.073566 -0.008926 -621018.000000 0 0 1
20.318266 -14.444305 22.785048 33.773189 -0.618006 0.830307 0.089631 -0.018899 -182164.000000 0 0 1
19.184866 -15.191305 23.154348 33.689148 -0.669744 0.813039 0.107345 -0.021886 -225142.000000 0 0 1
18.728166 -16.261605 22.187648 33.278758 -0.715021 0.840996 0.116643 -0.034980 -191268.000000 0 0 1
19.629866 -17.319405 22.044848 34.223804 -0.722949 0.870901 0.093943 -0.021223 -220029.000000 0 0 1
18.970066 -18.284305 21.261648 33.856120 -0.766993 0.891816 0.116101 -0.025052 89690.600000 0 0 1
19.333966 -19.727405 21.665348 35.104986 -0.795470 0.905670 0.095320 -0.013374 -41386.300000 0 0 1
18.954666 -19.924705 23.009448 35.856770 -0.810343 0.874078 0.109732 -0.013258 140018.000000 0 0 1
19.364666 -21.153505 23.620148 37.153364 -0.829519 0.881820 0.110104 -0.015080 -172662.000000 0 0 1
18.721366 -22.463305 23.138648 37.289230 -0.876007 0.901393 0.109048 -0.021579 90758.700000 0 0 1
19.291466 -22.944905 21.915648 37.133879 -0.871683 0.939515 0.109289 -0.003225 -15512.900000 0 0 1
20.226866 -23.992905 22.093648 38.378573 -0.870360 0.957365 0.108015 -0.012835 28176.300000 0 0 1
21.145666 -24.215205 20.884448 38.336347 -0.852964 0.994683 0.090721 -0.004676 -331710.000000 0 0 1
20.444766 -24.658205 19.780948 37.647064 -0.878546 1.017574 0.089946 -0.013995 38875.200000 0 0 1
21.313266 -25.183205 18.766848 37.955813 -0.868438 1.053607 0.084582 -0.020146 348776.000000 0 0 1
20.538966 -25.899905 17.624948 37.460552 -0.900330 1.080946 0.080033 -0.024745 98063.200000 0 0 1
20.066666 -27.151605 18.108748 38.311976 -0.934334 1.078483 0.096189 -0.030618 31191.100000 0 0 1
19.278266 -27.733805 17.084048 37.850762 -0.963354 1.102516 0.103767 -0.034730 -116567.000000 0 0 1
18.436566 -28.949805 17.574148 38.559679 -1.003724 1.097565 0.080717 -0.013525 -231423.000000 0 0 1
17.284266 -28.486905 18.218148 37.975657 -1.025433 1.070447 0.081672 -0.025142 -480315.000000 0 0 1
16.593166 -29.512205 18.931848 38.790698 -1.058599 1.060941 0.076874 -0.032039 -628032.000000 0 0 1
15.394466 -28.895705 19.598648 38.158333 -1.081286 1.031405 0.068757 -0.020968 -989915.000000 0 0 1
14.363866 -28.568405 18.711048 37.048316 -1.104920 1.041363 0.080334 -0.029393 -970633.000000 0 0 1
13.237166 -28.208905 19.440148 36.727159 -1.132046 1.013006 0.063173 -0.033005 -212025.000000 0 0 1
12.032066 -27.789905 18.553848 35.514711 -1.162198 1.021101 0.096483 -0.043324 50881.200000 0 0 1
11.512066 -28.857905 17.762648 35.788518 -1.191219 1.051439 0.082766 -0.040296 129956.000000 0 0 1
11.363466 -28.418405 16.403248 34.724640 -1.190408 1.078806 0.111682 -0.035029 -58609.100000 0 0 1
11.053566 -29.515405 15.397448 35.077370 -1.212463 1.116359 0.086766 -0.030380 331961.000000 0 0 1
9.821266 -30.202905 15.625048 35.395125 -1.256405 1.113586 0.105885 -0.029680 288299.000000 0 0 1
9.533866 -31.007305 14.504248 35.534783 -1.272499 1.150347 0.076119 -0.018934 76609.900000 0 0 1
8.527366 -32.132405 14.783948 36.383685 -1.311394 1.152357 0.073080 -0.019008 84791.300000 0 0 1
9.021966 -33.097405 15.669048 37.714098 -1.304674 1.142338 0.087966 -0.022807 -234998.000000 0 0 1
8.113966 33.486035 15.669248 37.850711 1.333069 1.143980 0.090873 -0.012028 -39715.500000 0 0 1
8.503166 32.315635 16.590748 37.307600 1.313500 1.109955 0.106850 -0.018100 72210.100000 0 0 1
9.653566 31.632035 16.104448 36.784918 1.274591 1.117646 0.090504 -0.025390 78382.800000 0 0 1
9.979966 30.500235 16.881948 36.261057 1.254567 1.086521 0.115372 -0.028047 -1423220.000000 0 0 1
11.335366 29.956235 16.640148 36.093782 1.209050 1.091646 0.060947 -0.039791 -1413900.000000 0 0 1
11.384366 29.070935 15.544348 34.876207 1.197547 1.108840 0.108483 -0.030315 -254189.000000 0 0 1
12.711866 28.716135 15.247448 34.909778 1.154052 1.118794 0.091445 -0.044399 -114791.000000 0 0 1
12.881766 27.556235 14.224248 33.579982 1.133508 1.133388 0.084726 -0.034812 14385.100000 0 0 1
12.153166 26.440335 14.731748 32.616179 1.139951 1.102160 0.092512 -0.035878 286069.000000 0 0 1
12.071666 25.431835 13.715748 31.314934 1.127619 1.117430 0.083121 -0.028119 -84874.900000 0 0 1
-9.869224 -9.009565 19.188087 23.382826 0.739894 0.608326 0.114401 -0.042468 43323.700000 0 1 0
-9.751524 -9.142665 17.769887 22.236219 0.753185 0.644930 0.092536 -0.042477 61241.000000 0 1 0
-9.720824 -10.522665 17.428087 22.560123 0.824987 0.688000 0.100597 -0.044177 75474.900000 0 1 0
-9.990024 -10.822965 15.920087 21.688392 0.825397 0.746548 0.098194 -0.037014 -85573.900000 0 1 0
-11.344324 -10.624065 15.564787 21.996069 0.752624 0.784677 0.101628 -0.040632 343072.000000 0 1 0
-11.817224 -11.273265 14.376787 21.758339 0.761845 0.848981 0.107990 -0.035030 76897.200000 0 1 0
-11.744224 -12.819965 14.358787 22.548904 0.829163 0.880476 0.082585 -0.029390 -548088.000000 0 1 0
-10.487324 -13.348765 13.960887 21.979078 0.904873 0.882542 0.089015 -0.026438 236080.000000 0 1 0
-10.255524 -14.714965 14.200887 22.877307 0.962124 0.901109 0.092243 -0.022609 -7990.180000 0 1 0
-10.254324 -15.170765 15.673987 24.103468 0.976410 0.862844 0.120670 -0.028076 -349304.000000 0 1 0
-11.439224 -14.999565 16.411587 25.003660 0.919256 0.854803 0.127972 -0.028386 -345999.000000 0 0 1
-11.267724 -15.078865 17.801487 25.908044 0.929056 0.813302 0.166172 -0.030890 389915.000000 0 0 1
-12.440124 -14.437565 18.630487 26.651361 0.859578 0.796736 0.107208 -0.031825 -86243.000000 0 0 1
-12.811924 -13.126865 18.256187 25.879497 0.797539 0.787766 0.102600 -0.029999 1190940.000000 0 0 1
-14.142724 -12.999965 17.699887 26.120906 0.743321 0.826283 0.130142 -0.039608 2132490.000000 0 0 1
-15.428724 -13.232265 18.601487 27.552744 0.708912 0.829665 0.071005 -0.024358 411433.000000 0 0 1
-15.633524 -14.587265 18.858787 28.510511 0.750791 0.848022 0.077046 -0.019842 348774.000000 0 0 1
-16.777424 -14.766065 19.694987 29.789447 0.721720 0.848459 0.076793 -0.017471 329618.000000 0 0 1
-17.237324 -16.236465 19.930387 30.951066 0.755507 0.871170 0.080413 -0.024766 34282.600000 0 0 1
-17.984524 -16.792065 18.839287 30.989277 0.751122 0.917346 0.082816 -0.011746 336621.000000 0 0 1
-18.796724 -17.874165 19.240387 32.295435 0.760246 0.932582 0.088995 -0.020351 -129526.000000 0 0 1
-20.123624 -18.045165 18.499187 32.753750 0.730997 0.970610 0.092430 -0.013480 -403676.000000 0 0 1
-19.993324 -18.343765 17.124687 32.085536 0.742397 1.007803 0.097593 -0.011721 141699.000000 0 0 1
-20.157724 -17.232565 16.286887 31.121662 0.707324 1.020043 0.088615 -0.008908 -331538.000000 0 0 1
-19.767524 -17.435765 14.829087 30.243392 0.722804 1.058334 0.098747 -0.017942 -671661.000000 0 0 1
-20.398824 -18.521765 14.337087 31.059940 0.737208 1.091005 0.112175 -0.016660 -130406.000000 0 0 1
-20.080724 -18.663665 12.971387 30.328613 0.748840 1.128855 0.139705 -0.029752 29236.800000 0 0 1
-20.268324 -20.070265 12.443987 31.120304 0.780488 1.159424 0.155484 -0.032385 -416712.000000 0 0 1
-19.322524 -20.989565 12.870687 31.298185 0.826728 1.146996 0.142354 -0.024071 -342633.000000 0 0 1
-19.412124 -22.196565 12.113387 31.878711 0.852218 1.181018 0.125730 -0.017212 -25234.900000 0 0 1
-18.285324 -23.206965 12.460187 32.065130 0.903462 1.171696 0.114493 -0.014401 76397.400000 0 0 1
-18.250624 -24.474565 11.754287 32.714720 0.930054 1.203282 0.135559 -0.042119 -382435.000000 0 0 1
-17.365524 -24.512865 10.677887 31.881958 0.954438 1.229277 0.119452 -0.035830 -506551.000000 0 0 1
-17.595124 -25.713585 9.716987 32.637351 0.970703 1.268487 0.110679 -0.038711 578582.000000 0 0 1
-18.829824 -25.447565 9.014287 32.915015 0.933761 1.293386 0.115135 -0.036769 457703.000000 0 0 1
-19.125824 -26.541505 8.137587 33.711555 0.946378 1.327000 0.131535 -0.040353 812602.000000 0 0 1
-20.530724 -26.513135 7.433987 34.347069 0.911886 1.352633 0.124931 -0.040848 718828.000000 0 0 1
-20.617224 -25.309635 6.654087 33.315528 0.887216 1.369715 0.138693 -0.046086 -232827.000000 0 0 1
-21.678424 -25.335975 5.733787 33.834036 0.863038 1.400506 0.151019 -0.040728 -146248.000000 0 0 1
-21.708724 -24.018165 4.949687 32.751189 0.835860 1.419085 0.156109 -0.047669 -269036.000000 0 0 1
-22.412924 -24.104665 3.761287 33.128859 0.821750 1.457016 0.156155 -0.049734 -16776.100000 0 0 1
-22.424924 -22.839365 3.094787 32.157294 0.794554 1.474408 0.147427 -0.034534 -138004.000000 0 0 1
-23.033424 -22.975365 1.729887 32.579112 0.784136 1.517673 0.122447 -0.026123 -426839.000000 0 0 1
-22.281724 -23.737265 0.854487 32.567824 0.817017 1.544556 0.130807 -0.044078 -18076.500000 0 0 1
-22.781624 -23.591665 -0.463013 32.799138 0.802864 1.584913 0.113597 -0.042834 -573616.000000 0 0 1
-21.946124 -24.314765 -1.475113 32.787439 0.836555 1.615802 0.123491 -0.044123 -580698.000000 0 0 1
-20.606724 -23.806265 -1.457113 31.519811 0.857315 1.617041 0.128537 -0.041167 861220.000000 0 0 1
-19.702624 -24.328065 -2.443113 31.400907 0.890065 1.648679 0.118425 -0.033962 597315.000000 0 0 1
-19.494924 -25.847125 -2.503313 32.471411 0.924587 1.647966 0.140892 -0.035318 -776982.000000 0 0 1
-20.565624 -26.508585 -3.118113 33.695291 0.910980 1.663467 0.162964 -0.045856 -160126.000000 0 0 1
-20.022624 -27.728345 -3.552613 34.385864 0.945392 1.674297 0.155718 -0.042192 -117045.000000 0 0 1
-21.034324 -28.718715 -4.087313 35.831739 0.938638 1.685115 0.165048 -0.047914 -635105.000000 0 0 1
-21.785624 -28.323805 -5.184813 36.107252 0.915143 1.714889 0.147677 -0.041859 -216788.000000 0 0 1
-22.668324 -29.343205 -5.626213 37.503745 0.913035 1.721382 0.154404 -0.060739 -292144.000000 0 0 1
-23.458124 -28.869525 -6.834813 37.821260 0.888446 1.752508 0.145665 -0.012157 -653990.000000 0 0 1
-22.714224 -28.555485 -7.997613 37.353896 0.898841 1.786571 0.168611 -0.013832 -156920.000000 0 0 1
-23.418424 -28.606705 -9.192113 38.095421 0.884796 1.814493 0.167006 -0.016208 -225370.000000 0 0 1
-24.365624 -27.467575 -9.660513 37.966786 0.845172 1.828072 0.130531 -0.012103 -191013.000000 0 0 1
-23.784324 -26.282745 -10.130613 36.866056 0.835258 1.849173 0.119579 -0.013847 -196814.000000 0 0 1
-23.239524 -25.499425 -9.086813 35.677252 0.831732 1.828328 0.096151 -0.016599 -62913.000000 0 0 1
-22.708824 -24.107765 -9.496113 34.453609 0.815271 1.850031 0.083773 -0.016850 303894.000000 0 0 1
-23.716524 -23.236565 -9.997113 34.674973 0.775176 1.863257 0.086968 -0.016870 711839.000000 0 0 1
-23.154724 -21.946365 -10.064813 33.452723 0.758612 1.876398 0.096080 -0.017011 24819.000000 0 0 1
-24.335524 -20.987665 -9.985613 33.651334 0.711666 1.872071 0.107692 -0.014183 -192638.000000 0 0 1
-25.131614 -21.067065 -11.183013 34.647930 0.697644 1.899442 0.100756 -0.006509 53776.500000 0 0 1
-26.279474 -20.284465 -11.310613 35.071359 0.657355 1.899169 0.102889 -0.001783 -322176.000000 0 0 1
-26.150254 -18.712165 -11.272213 34.074091 0.621095 1.907963 0.111164 -0.024809 -1021340.000000 0 0 1
-25.611974 -18.138165 -12.488913 33.777791 0.616202 1.949523 0.132820 -0.026217 529507.000000 0 0 1
-25.408914 -16.719265 -12.421713 32.854919 0.581984 1.958515 0.117047 -0.043334 -387143.000000 0 0 1
-24.257324 -16.178065 -11.577613 31.371782 0.588189 1.948778 0.100861 -0.036471 -715438.000000 0 0 1
-24.551124 -16.435965 -10.191413 31.253216 0.589933 1.902963 0.133066 -0.043669 1112840.000000 0 0 1
-23.368024 -16.584065 -9.370613 30.148037 0.617200 1.886852 0.135481 -0.046078 640273.000000 0 0 1
-23.727324 -17.125465 -7.990813 30.333489 0.625182 1.837375 0.115065 -0.048255 -46840.600000 0 0 1
-24.372024 -18.416165 -8.010413 31.580333 0.647093 1.827250 0.127608 -0.037758 231053.000000 0 0 1
-24.923924 -18.705065 -6.765813 31.888206 0.643812 1.784594 0.131515 -0.024914 -96478.800000 0 0 1
-25.742004 -20.031265 -6.777613 33.314237 0.661278 1.775671 0.144538 -0.023423 711930.000000 0 0 1
-26.918234 -20.023765 -7.618913 34.403348 0.639569 1.794106 0.125924 -0.022895 439110.000000 0 0 1
-27.618704 -21.219665 -7.495213 35.626468 0.655115 1.782763 0.123352 -0.005859 -256322.000000 0 0 1
-26.986334 -22.458465 -8.200613 36.054056 0.694079 1.800258 0.106566 -0.000052 -737621.000000 0 0 1
-27.715304 -23.630165 -8.017113 37.293389 0.706004 1.787462 0.115897 0.005116 -550488.000000 0 0 1
-27.180494 -24.748065 -8.698113 37.774372 0.738591 1.803146 0.102807 0.011478 127699.000000 0 0 1
-27.733824 -26.173515 -8.307513 39.028613 0.756462 1.785294 0.097472 -0.010191 83973.700000 0 0 1
-27.179934 -26.685435 -7.103613 38.746904 0.776218 1.755173 0.130550 -0.031164 183831.000000 0 0 1
-27.486554 -28.039715 -6.898613 39.866366 0.795360 1.744715 0.126734 -0.024409 12693.100000 0 0 1
-27.096024 -28.394335 -5.472013 39.627966 0.808791 1.709324 0.161259 -0.046049 109962.000000 0 0 1
-28.015244 -27.743105 -4.593313 39.694235 0.780518 1.686774 0.123534 -0.047458 243833.000000 0 0 1
-27.892524 -28.008265 -3.163113 39.654270 0.787469 1.650648 0.130371 -0.054190 -316556.000000 0 0 1
-28.158504 -29.485705 -2.667713 40.858596 0.808418 1.636134 0.119828 -0.035472 -224968.000000 0 0 1
-27.337034 -30.463925 -3.289213 41.063160 0.839443 1.650984 0.156717 -0.054702 -82128.100000 0 0 1
-27.438064 -31.707705 -2.639613 42.014206 0.857462 1.633664 0.150372 -0.057948 -342172.000000 0 0 1
-26.346084 -31.773195 -1.581013 41.305589 0.878507 1.609082 0.161524 -0.061666 -892317.000000 0 0 1
-25.075104 -31.517705 -2.118113 40.331290 0.898751 1.623338 0.171533 -0.067812 -737419.000000 0 0 1
-24.158224 -31.558975 -1.038113 39.757595 0.917452 1.596910 0.171195 -0.045985 521351.000000 0 0 1
-23.038924 -30.463925 -1.157313 38.212330 0.923295 1.601087 0.181887 -0.045472 476297.000000 0 0 1
-23.504224 -29.184985 -0.739713 37.480116 0.892800 1.590534 0.161256 -0.052954 183004.000000 0 0 1
-24.070724 -28.367635 -1.763713 37.245579 0.867158 1.618168 0.186341 -0.067961 -212945.000000 0 0 1
-24.701624 -27.041745 -1.362713 36.650828 0.830593 1.607986 0.122097 -0.052689 689573.000000 0 0 1
-25.962964 -27.348805 -0.706413 37.716464 0.811387 1.589527 0.143154 -0.057470 811232.000000 0 0 1
-26.703744 -26.218505 -0.276713 37.424277 0.776230 1.578190 0.140005 -0.057213 92517.400000 0 0 1
-26.105634 -25.466305 0.896487 36.480687 0.773002 1.546220 0.140602 -0.045876 -429164.000000 0 0 1
-26.386794 -26.061105 2.122987 37.147694 0.779188 1.513615 0.123715 -0.046648 -340005.000000 0 0 1
-25.763244 -25.384445 3.158187 36.305495 0.777992 1.483697 0.131779 -0.038166 283262.000000 0 0 1
-26.594254 -24.203665 3.844787 36.164266 0.738372 1.464280 0.150602 -0.038181 394842.000000 0 0 1
-26.769804 -23.143365 2.969387 35.511337 0.712871 1.487081 0.137442 -0.036756 31907.300000 0 0 1
-27.645914 -22.105165 3.362287 35.556151 0.674486 1.476092 0.125126 -0.028618 -324598.000000 0 0 1
-27.612704 -20.790065 2.529387 34.656688 0.645365 1.497747 0.130430 -0.019798 -244884.000000 0 0 1
-26.385684 -20.126965 2.577287 33.285755 0.651642 1.493290 0.112170 -0.019682 -442671.000000 0 0 1
-26.327814 -19.336565 1.410787 32.696282 0.633477 1.527635 0.088919 -0.014357 -31265.500000 0 0 1
-25.163874 -18.361465 1.627687 31.193162 0.630366 1.518592 0.102250 -0.015757 643565.000000 0 0 1
-23.895124 -19.022265 1.509787 30.579454 0.672342 1.521404 0.117501 -0.028736 1054270.000000 0 0 1
-22.762224 -18.169565 1.707487 29.174774 0.673663 1.512237 0.135844 -0.015898 473936.000000 0 0 1
-21.419024 -18.917565 1.823887 28.635213 0.723463 1.507059 0.116841 -0.027733 -191915.000000 0 0 1
-21.034224 -19.370465 0.577087 28.600464 0.744244 1.550617 0.071448 -0.013644 -104708.000000 0 0 1
-19.922824 -20.226365 0.622487 28.397399 0.792958 1.548874 0.106691 -0.014794 -315361.000000 0 0 1
-19.430024 -20.786965 -0.703313 28.462579 0.819126 1.595509 0.111156 -0.021864 -30530.500000 0 0 1
-18.826024 -19.837165 -1.554413 27.392490 0.811545 1.627573 0.117650 -0.028556 129457.000000 0 0 1
-18.656924 -20.317965 -2.849813 27.731245 0.827991 1.673743 0.104897 -0.022532 2217.120000 0 0 1
-17.957524 -19.369765 -3.856813 26.693360 0.823214 1.715790 0.121867 -0.012273 1038460.000000 0 0 1
-16.516624 -19.397165 -3.849513 25.765629 0.865434 1.720763 0.149780 -0.025503 857375.000000 0 0 1
-16.051224 -18.582465 -4.883413 25.035925 0.858355 1.767111 0.152420 -0.021422 -829369.000000 0 0 1
-14.613224 -18.126365 -4.697913 23.752512 0.892295 1.769895 0.168000 -0.037068 -858216.000000 0 1 0
-13.701024 -19.177865 -4.897713 24.072726 0.950459 1.775682 0.132325 -0.039879 -311061.000000 0 1 0
-12.500524 -18.677165 -5.411613 23.116772 0.980977 1.807088 0.130645 -0.056002 -486944.000000 0 1 0
-11.332824 -19.640565 -5.623413 23.362523 1.047452 1.813886 0.135583 -0.062759 79947.600000 0 1 0
-11.614724 -20.620865 -6.548913 24.556265 1.057837 1.840753 0.111272 -0.051752 -281102.000000 0 1 0
-10.399524 -21.235165 -6.897313 24.630373 1.115397 1.854625 0.135599 -0.044714 13131.600000 0 1 0
-10.562724 -22.483365 -7.811713 26.040271 1.131598 1.875474 0.104671 -0.016902 158945.000000 0 0 1
-11.083324 -22.231865 -9.130313 26.466177 1.108323 1.923014 0.102723 -0.032992 36974.900000 0 0 1
-10.932524 -23.396165 -9.938013 27.670647 1.133667 1.938157 0.112865 -0.022398 242717.000000 0 0 1
-11.660424 -23.303765 -11.311713 28.407495 1.106856 1.980344 0.138538 -0.025201 366078.000000 0 0 1
-10.913224 -22.514465 -12.290613 27.875774 1.119447 2.027405 0.128092 -0.018578 167458.000000 0 0 1
-11.656624 -22.146165 -13.416613 28.396039 1.086292 2.062901 0.136382 -0.026229 -835293.000000 0 0 1
-11.245424 -20.870765 -14.193213 27.631426 1.076583 2.110244 0.112779 -0.021685 -220365.000000 0 0 1
-11.312824 -19.726665 -13.419913 26.404836 1.050106 2.103933 0.111380 -0.022886 -134332.000000 0 0 1
-11.107024 -18.527165 -14.142713 25.819337 1.030745 2.150477 0.098031 -0.014520 -212757.000000 0 0 1
-10.561024 -17.438265 -13.217613 24.296782 1.026252 2.146001 0.108180 -0.016875 -626241.000000 0 1 0
-11.279524 -17.174465 -12.015413 23.802522 0.989683 2.099942 0.104532 -0.028661 -25777.700000 0 1 0
-10.714324 -16.200365 -11.136013 22.388822 0.986474 2.091386 0.090422 -0.037477 -32551.500000 0 1 0
-10.449424 -14.762465 -11.702013 21.542004 0.954830 2.145062 0.086243 -0.025076 120231.000000 0 1 0
-11.621424 -14.234465 -12.300313 22.112783 0.886118 2.160667 0.084429 -0.018423 349634.000000 0 1 0
-11.456024 -14.126765 -13.672813 22.754160 0.889417 2.215414 0.086040 -0.025309 6593.220000 0 1 0
-12.711624 -13.535065 -14.366513 23.477224 0.816761 2.229300 0.092616 -0.028835 18216.500000 0 1 0
-12.812424 -12.120965 -14.206213 22.647130 0.757673 2.248859 0.069378 -0.012253 -38671.900000 0 1 0
-13.970924 -11.587565 -14.815113 23.429596 0.692416 2.255347 0.095669 -0.025288 56966.500000 0 1 0
-14.216624 -10.118065 -14.350013 22.592267 0.618540 2.259030 0.087141 -0.022401 580612.000000 0 1 0
-13.065424 -9.258765 -14.495513 21.599767 0.616505 2.306482 0.057448 -0.005991 730976.000000 0 1 0
-13.033024 -8.381465 -15.624913 22.005603 0.571505 2.360355 0.057424 -0.015009 -109468.000000 0 1 0
-11.955924 -7.280865 -15.514413 20.896223 0.546993 2.407517 0.034408 -0.005603 -831166.000000 0 1 0
-10.676424 -7.704265 -15.775413 20.547637 0.625086 2.446116 0.029484 -0.009532 -1035050.000000 0 1 0
-9.729424 -6.743465 -15.408813 19.431097 0.606080 2.486510 0.015011 0.000904 -247341.000000 0 1 0
11.924876 21.765135 15.695687 29.364577 1.069575 1.006867 0.130742 -0.031382 282170.000000 0 0 1
12.855176 22.097535 16.738187 30.556890 1.043906 0.991098 0.141938 -0.038622 160689.000000 0 0 1
13.423676 20.883635 17.133987 30.164463 0.999510 0.966700 0.134597 -0.036525 82271.100000 0 0 1
14.519576 21.032435 18.259887 31.410267 0.966582 0.950428 0.155695 -0.047880 196600.000000 0 0 1
15.751476 21.315835 17.640487 31.838037 0.934401 0.983551 0.147779 -0.038512 376959.000000 0 0 1
16.828776 20.868735 18.519387 32.583424 0.892158 0.966275 0.135999 -0.050896 786437.000000 0 0 1
18.278476 21.148535 18.085987 33.293635 0.858064 0.996521 0.108299 -0.037857 -656617.000000 0 0 1
18.583476 22.545335 18.111187 34.375177 0.881430 1.015885 0.110632 -0.046005 35129.800000 0 0 1
19.788976 22.959835 17.502487 35.001352 0.859437 1.047138 0.106428 -0.039521 469812.000000 0 0 1
21.149476 22.543635 18.107487 35.824529 0.817295 1.040894 0.100501 -0.041467 -348037.000000 0 0 1
21.483676 21.176535 17.914887 35.084714 0.778199 1.034893 0.110449 -0.036078 -480883.000000 0 0 1
22.715376 20.984235 18.549287 36.061094 0.745804 1.030506 0.120322 -0.034707 -435414.000000 0 0 1
23.258976 19.566635 18.271387 35.463739 0.699393 1.029540 0.105439 -0.035644 -120787.000000 0 0 1
23.728976 19.413835 16.958387 35.036384 0.685710 1.065551 0.097623 -0.038952 -4897.370000 0 0 1
23.449576 18.076035 16.555387 33.922065 0.656710 1.060951 0.079324 -0.025819 -342436.000000 0 0 1
24.354276 16.908535 16.948687 34.150949 0.606873 1.051479 0.091427 -0.029127 -426119.000000 0 0 1
25.614276 16.928835 16.339887 34.780289 0.584009 1.081729 0.119303 -0.044092 104375.000000 0 0 1
26.412076 15.749635 16.510087 34.903177 0.537698 1.078075 0.114317 -0.026750 297003.000000 0 0 1
27.817876 15.760235 15.825587 35.674479 0.515461 1.111173 0.198280 -0.056213 -619344.000000 0 0 1
28.681276 16.692635 16.399187 37.016118 0.527083 1.111823 0.174423 -0.054107 2333.460000 0 0 1
29.567876 16.094035 17.355587 37.874710 0.498463 1.094786 0.176552 -0.055999 270281.000000 0 0 1
30.749376 15.257835 16.734887 38.188769 0.460603 1.117185 0.160506 -0.059581 -489389.000000 0 0 1
31.782876 16.070935 16.183887 39.119616 0.468155 1.144279 0.195651 -0.051021 131725.000000 0 0 1
32.589776 15.334235 15.252787 39.113678 0.439789 1.170208 0.172057 -0.051967 78160.800000 0 0 1
32.037076 14.758935 13.905387 37.915171 0.431702 1.195283 0.143771 -0.049740 -422551.000000 0 0 1
31.867976 15.862435 12.993287 37.894726 0.461850 1.220817 0.154745 -0.032666 -431554.000000 0 0 1
31.201476 15.488035 11.852387 36.795250 0.460754 1.242831 0.144360 -0.036685 424530.000000 0 0 1
29.961076 16.412635 11.494687 36.043980 0.501151 1.246220 0.131972 -0.042952 525125.000000 0 0 1
30.162676 17.831535 11.501987 36.878806 0.533908 1.253619 0.141870 -0.042348 -361391.000000 0 0 1
30.344776 18.479735 12.787587 37.760143 0.547005 1.225311 0.168874 -0.043306 -343788.000000 0 0 1
29.281076 18.515135 13.896287 37.326913 0.563849 1.189325 0.160224 -0.046882 -392659.000000 0 0 1
28.137476 19.300735 13.656687 36.752429 0.601230 1.190080 0.173401 -0.046126 546794.000000 0 0 1
27.097076 19.139335 14.635487 36.259663 0.614958 1.155315 0.144135 -0.048087 450934.000000 0 0 1
27.370476 19.911235 15.997887 37.437049 0.628926 1.129261 0.141724 -0.046795 -283890.000000 0 0 1
27.410776 21.315435 15.874687 38.179891 0.660951 1.141989 0.119909 -0.042417 -440594.000000 0 0 1
26.282576 21.931635 16.393687 37.954228 0.695400 1.124161 0.097261 -0.037961 -476030.000000 0 0 1
26.230476 23.400435 15.977787 38.612277 0.728438 1.144171 0.098326 -0.031830 29077.600000 0 0 1
25.936376 23.640035 14.586487 38.004111 0.739112 1.176874 0.115405 -0.047144 55772.900000 0 0 1
26.010476 24.990335 14.381987 38.831730 0.765398 1.191392 0.116857 -0.045023 -204931.000000 0 0 1
25.602276 25.437235 12.928187 38.336242 0.782165 1.226822 0.120738 -0.048271 -327026.000000 0 0 1
24.252876 25.212135 12.645987 37.199123 0.804788 1.223928 0.111942 -0.043537 -443419.000000 0 0 1
24.046876 25.381235 11.259087 36.731817 0.812388 1.259260 0.100887 -0.052918 52464.300000 0 0 1
23.382476 24.160835 10.585687 35.249722 0.801768 1.265783 0.110137 -0.053962 121279.000000 0 0 1
22.069076 23.849235 11.074287 34.328850 0.824147 1.242327 0.114976 -0.051785 728458.000000 0 0 1
21.581276 22.566735 10.637787 32.987445 0.807716 1.242448 0.126847 -0.048342 -36738.600000 0 0 1
21.471276 22.294735 9.076187 32.255977 0.804211 1.285564 0.139461 -0.043300 -118285.000000 0 0 1
20.289176 22.944535 8.608687 31.815277 0.846740 1.296797 0.139008 -0.041000 426541.000000 0 0 1
20.505376 23.418735 7.289887 31.969517 0.851628 1.340746 0.121687 -0.041138 -252055.000000 0 0 1
19.243276 23.749735 6.475187 31.245506 0.889835 1.362048 0.111933 -0.033672 -823503.000000 0 0 1
18.644876 22.510135 5.978187 29.834146 0.879043 1.369050 0.113924 -0.025772 429964.000000 0 0 1
17.907776 22.680535 4.766687 29.288503 0.902450 1.407320 0.126027 -0.031878 1174510.000000 0 0 1
16.523076 23.453535 4.940887 29.111728 0.957055 1.400249 0.101786 -0.017776 486442.000000 0 0 1
16.662576 24.870335 5.093387 30.366389 0.980505 1.402269 0.102295 -0.025452 -49637.600000 0 0 1
15.399076 25.386035 5.408787 30.180081 1.025541 1.390606 0.103299 -0.028034 -208539.000000 0 0 1
15.351776 26.877535 5.030787 31.359013 1.051841 1.409675 0.096336 -0.031731 -277991.000000 0 0 1
15.175876 26.894335 3.613587 31.091325 1.057057 1.454308 0.083515 -0.015257 483472.000000 0 0 1
14.785776 28.177835 3.076887 31.969936 1.087560 1.474404 0.087774 -0.021224 -243212.000000 0 0 1
14.372076 28.155135 1.562787 31.649810 1.098816 1.521399 0.084435 -0.021420 421626.000000 0 0 1
15.445076 28.037535 0.607187 32.015971 1.067284 1.551830 0.089610 -0.023002 505440.000000 0 0 1
15.583976 26.674035 0.257087 30.893859 1.042047 1.562475 0.084069 -0.013931 114756.000000 0 0 1
16.497376 26.442535 -0.981113 31.182265 1.012992 1.602265 0.088221 -0.018187 236020.000000 0 0 1
16.060776 27.055035 -2.200113 31.539878 1.035071 1.640610 0.084339 -0.016410 -33162.800000 0 0 1
17.010376 26.786435 -3.236713 31.895804 1.005012 1.672449 0.080474 -0.017328 210916.000000 0 0 1
16.554476 27.162035 -4.650613 32.147395 1.023442 1.715971 0.091396 -0.021244 -3440.560000 0 0 1
15.568176 26.301935 -5.218913 31.006401 1.036352 1.739919 0.116566 -0.030858 -165873.000000 0 0 1
15.376276 26.623535 -6.557513 31.436340 1.047052 1.780936 0.111648 -0.034265 1176710.000000 0 0 1
13.950076 26.329635 -7.190213 30.652136 1.083575 1.807577 0.118113 -0.042576 1034340.000000 0 0 1
13.801476 25.000735 -7.640713 29.561765 1.066386 1.832230 0.149008 -0.044676 -1189430.000000 0 0 1
12.509576 24.852035 -8.078113 28.971866 1.104463 1.853368 0.120656 -0.041222 -1315260.000000 0 0 1
12.131176 23.412435 -8.508213 27.707350 1.092734 1.882914 0.139926 -0.043047 -449095.000000 0 0 1
12.696276 22.977035 -9.672113 27.976585 1.065987 1.923804 0.120468 -0.042493 -317303.000000 0 0 1
12.753476 21.565035 -9.835913 26.915554 1.036727 1.944897 0.130061 -0.043179 -267058.000000 0 0 1
12.897176 21.211235 -11.287113 27.269993 1.024490 1.997533 0.115634 -0.035648 -104201.000000 0 0 1
12.681076 19.854535 -11.614613 26.266166 1.002406 2.028834 0.128976 -0.041037 -63126.300000 0 0 1
12.819376 19.626735 -13.013913 26.812442 0.992204 2.077581 0.125690 -0.037889 275832.000000 0 0 1
14.279576 19.256235 -13.364713 27.446756 0.932721 2.079370 0.116134 -0.039863 -224052.000000 0 0 1
15.193776 20.288135 -13.366013 28.655009 0.928000 2.056065 0.112665 -0.031756 -500040.000000 0 0 1
16.490876 19.849135 -13.732513 29.232158 0.877549 2.059831 0.107825 -0.026802 267662.000000 0 0 1
17.591976 20.833935 -13.301913 30.339271 0.869568 2.024657 0.111744 -0.019323 -551535.000000 0 0 1
17.678476 22.076335 -14.002813 31.559021 0.895575 2.030522 0.109558 -0.021134 -414497.000000 0 0 1
16.542976 22.888835 -14.141213 31.583900 0.944963 2.035027 0.107607 -0.019407 -427991.000000 0 0 1
16.754076 24.257235 -14.823513 32.997713 0.966350 2.036698 0.121196 -0.014781 68172.400000 0 0 1
17.227676 24.024435 -16.133913 33.678917 0.948693 2.070369 0.107852 -0.024160 109293.000000 0 0 1
16.178776 24.128535 -17.108713 33.714196 0.980128 2.103034 0.074508 -0.012106 293242.000000 0 0 1
16.587876 24.173435 -18.584713 34.711729 0.969390 2.135779 0.071882 -0.014213 -98279.000000 0 0 1
17.006476 22.902735 -19.052213 34.303678 0.932079 2.159638 0.069748 -0.004618 -32957.600000 0 0 1
16.708676 22.828035 -20.417213 34.887843 0.938956 2.195953 0.078983 0.000856 -66068.000000 0 0 1
17.073576 21.484235 -21.058613 34.591104 0.899294 2.225327 0.076440 0.003285 -123246.000000 0 0 1
16.191476 20.415135 -20.829113 33.358561 0.900270 2.245161 0.076023 0.001596 -25827.400000 0 0 1
16.682376 19.187735 -21.429013 33.251668 0.855130 2.271099 0.056983 0.000112 -94674.500000 0 0 1
15.596376 18.126635 -21.533113 32.179136 0.860288 2.303879 0.060735 0.001948 -820536.000000 0 0 1
15.293776 17.426835 -20.312013 30.824860 0.850496 2.290217 0.064184 -0.003149 399463.000000 0 0 1
14.386376 16.328935 -20.435213 29.852970 0.848558 2.324753 0.063250 -0.019445 257121.000000 0 0 1
12.908276 16.656535 -20.721513 29.554100 0.911506 2.347789 0.079241 -0.035319 -791340.000000 0 0 1
12.110076 16.941835 -19.605313 28.601538 0.950204 2.326037 0.079815 -0.036493 -89834.800000 0 0 1
10.787976 17.149835 -20.083813 28.528175 1.009295 2.351809 0.083280 -0.035085 111580.000000 0 0 1
9.722876 16.767035 -19.055713 27.180654 1.045302 2.347702 0.097117 -0.047041 -507811.000000 0 0 1
9.300076 15.424935 -19.252613 26.364429 1.028229 2.389483 0.116155 -0.057700 898342.000000 0 0 1
8.028076 14.987735 -18.722213 25.290383 1.079043 2.404298 0.127059 -0.053898 960527.000000 0 0 1
7.678676 15.135835 -17.219213 24.177610 1.101312 2.363419 0.131782 -0.055525 -226697.000000 0 1 0
7.485076 16.495735 -16.922813 24.789458 1.144821 2.322195 0.133098 -0.050330 -152601.000000 0 1 0
6.847576 16.643835 -15.651713 23.851261 1.180486 2.286597 0.129227 -0.050985 -71590.600000 0 1 0
6.392776 18.076535 -15.383513 24.582131 1.230873 2.246954 0.127449 -0.038136 992450.000000 0 1 0
7.541976 18.956935 -15.122213 25.395435 1.192147 2.208647 0.112244 -0.037072 971638.000000 0 0 1
8.204576 19.408835 -16.330113 26.658779 1.170855 2.230092 0.127838 -0.026313 208079.000000 0 0 1
9.563976 20.088835 -16.020613 27.416983 1.126464 2.194853 0.100392 -0.009890 126989.000000 0 0 1
9.473276 21.184235 -15.112113 27.692792 1.150286 2.148027 0.104911 -0.015873 -168016.000000 0 0 1
9.037276 20.944135 -13.818113 26.669634 1.163438 2.115450 0.097268 -0.035278 -534372.000000 0 0 1
8.690176 22.196635 -12.991813 27.147688 1.197631 2.069811 0.092683 -0.026486 802540.000000 0 0 1
7.506076 22.922935 -13.441913 27.613170 1.254352 2.079212 0.100858 -0.023932 1185190.000000 0 0 1
6.947176 23.886835 -12.528613 27.853371 1.287767 2.037344 0.079947 -0.025651 493201.000000 0 0 1
6.241476 23.387835 -11.236213 26.687063 1.310006 2.005383 0.073083 -0.025089 17639.000000 0 0 1
7.176276 23.312535 -10.173413 26.428612 1.272172 1.965938 0.059182 -0.022061 489029.000000 0 0 1
6.547976 22.735535 -9.025813 25.322832 1.290379 1.935240 0.073306 -0.030838 254498.000000 0 0 1
7.596976 22.578835 -7.933913 25.109058 1.246230 1.892284 0.074043 -0.033588 44858.800000 0 0 1
7.890276 23.749435 -7.207513 26.043048 1.250039 1.851211 0.062006 -0.026380 535161.000000 0 0 1
9.028876 23.556735 -6.360013 26.017112 1.204784 1.817754 0.078090 -0.027858 253750.000000 0 0 1
9.459076 24.866035 -5.650413 27.197812 1.207299 1.780073 0.056853 -0.022396 -51519.100000 0 0 1
10.025576 25.838435 -6.483813 28.463603 1.200669 1.800607 0.061778 -0.029542 -173203.000000 0 0 1
10.140976 27.039135 -5.761013 29.447300 1.211984 1.767704 0.068304 -0.028773 176514.000000 0 0 1
10.477576 28.371935 -6.552313 30.946391 1.217038 1.784142 0.070260 -0.027559 804432.000000 0 0 1
11.805776 28.562335 -7.059513 31.702051 1.178848 1.795362 0.084191 -0.028677 325357.000000 0 0 1
11.945476 29.799935 -7.732513 33.023057 1.189552 1.807146 0.087558 -0.030655 -1103370.000000 0 0 1
13.204176 29.852435 -8.528613 33.738040 1.154352 1.826358 0.096022 -0.031491 -21740.700000 0 0 1
14.389776 30.062035 -7.732613 34.213811 1.124358 1.798775 0.082789 -0.029617 -16220.800000 0 0 1
15.531276 30.175835 -8.518713 34.990999 1.095464 1.816722 0.089005 -0.025211 -213125.000000 0 0 1
16.810876 30.561835 -7.752513 35.731397 1.067906 1.789502 0.079192 -0.028674 76166.100000 0 0 1
17.534076 29.490135 -7.171213 35.050509 1.034376 1.776848 0.079068 -0.032675 540437.000000 0 0 1
18.660176 30.028035 -6.423913 35.932599 1.014772 1.750539 0.066057 -0.021130 1435960.000000 0 0 1
19.800376 29.001235 -6.092713 35.640534 0.971747 1.742589 0.063334 -0.019535 9690.780000 0 0 1
19.547376 28.119935 -5.013213 34.611601 0.963338 1.716150 0.079721 -0.027072 -474772.000000 0 0 1
20.633876 27.345635 -4.567313 34.560106 0.924384 1.703340 0.074094 -0.021113 -561352.000000 0 0 1
20.824476 26.095935 -5.469913 33.831591 0.897278 1.733190 0.084063 -0.007448 -203873.000000 0 0 1
21.411876 26.397135 -6.715113 34.646355 0.889297 1.765850 0.074513 -0.012728 64235.200000 0 0 1
21.156076 25.358235 -7.713013 33.913275 0.875495 1.800238 0.076618 -0.019546 -793650.000000 0 0 1
21.814776 25.749735 -9.013313 34.930976 0.867939 1.831781 0.087595 -0.024711 1225060.000000 0 0 1
23.259476 25.818135 -8.988613 35.893934 0.837486 1.823912 0.054922 -0.017439 724723.000000 0 0 1
23.926476 24.642235 -9.116713 35.536326 0.800134 1.830244 0.056473 -0.010832 -1149920.000000 0 0 1
25.443876 24.816035 -9.179913 36.708272 0.772907 1.823557 -0.002066 0.005177 -210471.000000 0 0 1
26.012876 25.336635 -10.367413 37.763713 0.772230 1.848901 0.017218 0.003051 448285.000000 0 0 1
27.439176 25.315135 -10.252313 38.715299 0.745157 1.838806 0.010718 0.012980 178513.000000 0 0 1
28.135176 25.384735 -11.583713 39.625185 0.734052 1.867461 0.030906 0.004106 -409899.000000 0 0 1
28.239276 26.658035 -12.234713 40.716038 0.756603 1.876001 0.040101 0.006348 273396.000000 0 0 1
29.034876 26.590635 -13.429013 41.598368 0.741485 1.899510 0.049077 -0.000280 403675.000000 0 0 1
28.694076 27.820035 -14.381313 42.475010 0.769934 1.916207 0.054261 -0.005181 106935.000000 0 0 1
29.179776 29.112635 -14.071513 43.554705 0.784246 1.899775 0.057303 -0.010550 -10523.600000 0 0 1
29.437676 29.874535 -15.274813 44.636134 0.792763 1.920061 0.074818 -0.009400 -258003.000000 0 0 1
29.671176 31.402135 -15.010913 45.736203 0.813733 1.905200 0.064850 -0.013355 -227169.000000 0 0 1
30.854976 31.600735 -14.296013 46.422106 0.797338 1.883841 0.061899 -0.014757 -29991.600000 0 0 1
31.386276 32.953535 -14.279413 47.696283 0.809752 1.874841 0.066400 -0.021495 -46030.500000 0 0 1
16.674576 -31.494605 -27.314142 44.900044 -1.083873 2.224754 0.136679 -0.047575 148514.000000 0 0 1
17.803176 -32.338605 -27.129762 45.812252 -1.067551 2.204576 0.107779 -0.030422 625728.000000 0 0 1
18.566376 -32.017405 -25.978732 45.218570 -1.045299 2.182807 0.096233 -0.031120 337724.000000 0 0 1
19.953576 -32.688405 -25.764382 46.157127 -1.022752 2.162997 0.022714 -0.024109 949100.000000 0 0 1
21.063976 -32.090105 -26.460742 46.622278 -0.989934 2.174330 0.030526 -0.021064 738613.000000 0 0 1
21.373576 -32.724905 -27.712292 47.913675 -0.992225 2.187537 0.041924 -0.011974 894016.000000 0 0 1
22.849776 -32.399205 -28.193712 48.648804 -0.956551 2.188955 0.043300 -0.001290 1022630.000000 0 0 1
22.985376 -31.024705 -28.602762 48.051824 -0.933162 2.208371 0.046577 -0.018589 315269.000000 0 0 1
24.165076 -30.506405 -27.993732 47.939969 -0.900872 2.194361 0.022734 -0.008244 137081.000000 0 0 1
24.730376 -29.300005 -28.712872 47.901052 -0.869773 2.213573 0.012980 -0.002644 -103170.000000 0 0 1
25.110776 -29.669605 -30.048822 49.130115 -0.868427 2.228899 0.013911 -0.007936 -86758.400000 0 0 1
25.456776 -28.540905 -30.788222 49.097304 -0.842452 2.248603 0.032468 -0.022041 113279.000000 0 0 1
25.886876 -28.866205 -32.236712 50.424138 -0.839758 2.264398 0.044047 -0.000071 194642.000000 0 0 1
27.105176 -29.574205 -32.333172 51.524345 -0.828932 2.249176 0.068023 -0.017365 -171962.000000 0 0 1
27.465876 -29.915805 -33.665332 52.751154 -0.828068 2.262943 0.060954 -0.019857 348940.000000 0 0 1
28.839476 -30.647105 -33.752932 53.946462 -0.815776 2.246792 0.058037 -0.018588 42455.600000 0 0 1
29.900876 -29.764005 33.737607 54.020223 -0.783104 0.896258 0.075167 -0.031566 -1716640.000000 0 0 1
31.084376 -30.428305 33.567287 54.944362 -0.774733 0.913559 0.082876 -0.022393 -1351010.000000 0 0 1
32.289076 -29.585705 33.243747 54.982225 -0.741735 0.921499 0.086449 -0.031993 -485775.000000 0 0 1
32.344876 -28.959605 31.975063 53.918961 -0.730234 0.935991 0.080238 -0.017766 661972.000000 0 0 1
33.680076 -28.446405 31.835849 54.378918 -0.701354 0.945368 0.082624 -0.028678 581865.000000 0 0 1
33.953276 -27.607505 30.599097 53.397603 -0.682680 0.960583 0.084280 -0.034097 155889.000000 0 0 1
35.281776 -27.060105 30.670617 54.016106 -0.654274 0.966959 0.067308 -0.040391 928461.000000 0 0 1
35.439176 -26.082505 29.630007 53.048747 -0.634467 0.978168 0.103620 -0.035282 -305211.000000 0 0 1
35.799976 -26.572305 28.225127 52.767258 -0.638519 1.006409 0.092582 -0.026258 -217439.000000 0 0 1
34.926076 -27.551205 27.652987 52.379265 -0.667901 1.014626 0.075345 -0.042557 1185430.000000 0 0 1
33.718076 -27.060005 27.022367 50.983927 -0.676286 1.012175 0.085487 -0.047214 702439.000000 0 0 1
32.919776 -28.205805 26.386617 50.749706 -0.708431 1.024020 0.084343 -0.037475 1039850.000000 0 0 1
31.573876 -27.913505 25.946557 49.490375 -0.723944 1.018933 0.097309 -0.026878 1196290.000000 0 0 1
30.966876 -28.876605 25.091927 49.217990 -0.750483 1.035830 0.082480 -0.013005 20915.800000 0 0 1
29.732476 -28.397705 24.302797 47.760608 -0.762440 1.036953 0.089510 -0.008811 598639.000000 0 0 1
28.571376 -28.393105 25.135637 47.479387 -0.782269 1.012902 0.097298 -0.016651 224885.000000 0 0 1
27.387176 -27.970305 24.488277 46.174355 -0.795932 1.011790 0.092323 -0.007611 785131.000000 0 0 1
26.229176 -27.783605 25.544027 45.960806 -0.814169 0.981497 0.092504 -0.011490 383906.000000 0 0 1
26.285676 -26.611905 26.332827 45.744377 -0.791565 0.957395 0.076157 -0.014470 -278609.000000 0 0 1
25.157176 -26.500905 27.142217 45.517924 -0.811404 0.931916 0.076203 -0.020402 -530544.000000 0 0 1
25.146976 -25.306805 28.185757 45.466930 -0.788566 0.902158 0.062890 -0.006140 555737.000000 0 0 1
23.886076 -25.182305 28.887797 45.157479 -0.811809 0.876672 0.076146 -0.007521 699021.000000 0 0 1
23.800676 -24.205005 29.893697 45.232594 -0.793820 0.848794 0.076775 -0.013784 -190503.000000 0 0 1
23.327576 -22.785705 29.416447 43.916871 -0.773648 0.836828 0.077013 -0.007386 -353792.000000 0 0 1
24.151576 -22.230405 28.412247 43.413654 -0.744001 0.857336 0.073522 -0.003246 87709.200000 0 0 1
23.812876 -20.915305 28.070377 42.337325 -0.720707 0.845954 0.083084 0.002287 137402.000000 0 0 1
24.643476 -19.823405 28.819557 42.788260 -0.677423 0.831810 0.076264 0.001457 -63449.500000 0 0 1
24.180076 -19.806805 30.131617 43.415434 -0.686302 0.803725 0.080905 -0.000450 -58291.200000 0 0 1
24.962076 -18.973605 30.927727 44.041199 -0.649932 0.792250 0.076361 -0.007718 -358579.000000 0 0 1
24.326276 -18.656005 32.284157 44.520569 -0.654234 0.759542 0.094760 -0.006441 -139333.000000 0 0 1
24.422876 -19.683205 33.220888 45.689527 -0.678348 0.756707 0.079689 -0.007459 -65368.700000 0 0 1
23.791976 -19.304205 -33.211232 45.185134 -0.681638 2.396468 0.094849 -0.014722 -297244.000000 0 0 1
23.871676 -20.375805 -32.088232 44.885242 -0.706555 2.367270 0.073087 -0.010162 226890.000000 0 0 1
25.114576 -20.386505 -31.411902 45.089456 -0.681859 2.341524 0.056128 -0.013390 -12546.800000 0 0 1
25.020376 -21.311805 -30.342802 44.731397 -0.705525 2.316288 0.047785 -0.014832 278288.000000 0 0 1
26.360476 -21.575105 -29.600172 45.127929 -0.685899 2.286193 0.043964 0.002449 576033.000000 0 0 1
27.322576 -22.309605 -30.369632 46.546280 -0.684737 2.281624 0.044377 -0.001767 68363.300000 0 0 1
28.325776 -22.776605 -29.493302 46.807886 -0.677233 2.252469 0.045013 -0.003459 -259013.000000 0 0 1
29.317476 -23.827805 -29.959972 48.216995 -0.682468 2.241270 0.044106 -0.002334 -298033.000000 0 0 1
30.396776 -23.409205 -30.763422 49.176651 -0.656255 2.246658 0.050026 -0.005337 -411221.000000 0 0 1
30.093076 -23.152705 -32.115862 49.729966 -0.655783 2.272874 0.051317 -0.006551 -176847.000000 0 0 1
30.194076 -24.313505 -33.092462 50.969989 -0.677928 2.277399 0.057134 -0.015723 252964.000000 0 0 1
29.080376 -25.178805 -32.863432 50.592940 -0.713616 2.277809 0.067060 -0.024201 133646.000000 0 0 1
29.222376 -26.543505 -33.257292 51.619302 -0.737397 2.270878 0.079865 -0.030205 -178708.000000 0 0 1
28.938976 -26.800805 32.839348 51.324168 -0.747057 0.876504 0.079486 -0.025505 257437.000000 0 0 1
29.869776 -26.164905 31.950050 50.966768 -0.719377 0.893254 0.068910 -0.028667 155473.000000 0 0 1
29.595876 -26.491705 30.629277 50.158538 -0.730110 0.913916 0.064470 -0.027041 -36467.500000 0 0 1
30.716076 -26.042005 29.627857 49.994732 -0.703233 0.936489 0.075645 -0.035503 125829.000000 0 0 1
30.806476 -24.618505 29.421447 49.200928 -0.674213 0.929811 0.060490 -0.035981 167796.000000 0 0 1
31.097276 -23.799705 30.556267 49.670434 -0.653241 0.908182 0.051440 -0.024317 -1355040.000000 0 0 1
31.650976 -22.384705 30.237217 49.164505 -0.615566 0.908383 0.052508 -0.015436 -735388.000000 0 0 1
32.902376 -22.267505 29.677937 49.590201 -0.594968 0.929214 0.088984 -0.032559 -1048050.000000 0 0 1
33.924376 -22.462905 30.620237 50.921943 -0.584867 0.925648 0.080368 -0.029274 -31733.600000 0 0 1
35.308776 -21.810005 30.259447 51.361660 -0.553328 0.940796 0.083437 -0.033889 1111040.000000 0 0 1
36.105176 -22.444305 29.217477 51.584799 -0.556177 0.968669 0.098734 -0.051979 1175730.000000 0 0 1
37.397976 -21.802305 29.219627 52.227729 -0.527811 0.977055 0.089228 -0.049485 769310.000000 0 0 1
-37.384614 -22.002105 27.913457 51.583555 0.531946 0.999015 0.095388 -0.047564 -117057.000000 0 0 1
-37.055914 -23.383405 27.645677 51.809342 0.562924 1.007940 0.086253 -0.033988 148929.000000 0 0 1
-36.567814 -23.539705 26.320617 50.834021 0.571953 1.026547 0.061402 -0.012723 -79225.500000 0 0 1
-36.403514 -24.996105 26.040277 51.265165 0.601703 1.037990 0.060379 -0.017194 488529.000000 0 0 1
-37.637214 -25.699705 25.817187 52.379022 0.599107 1.055386 0.067829 -0.019843 395723.000000 0 0 1
-37.512414 -27.005105 25.283897 52.685220 0.623956 1.070250 0.053270 -0.010123 40628.100000 0 0 1
-36.772314 -28.013305 26.201707 53.136408 0.651013 1.055144 0.057461 -0.018920 -650907.000000 0 0 1
-36.581614 -29.321505 25.654077 53.442463 0.675677 1.070105 0.057404 -0.019067 308077.000000 0 0 1
-35.648314 -30.214705 26.287357 53.616750 0.703086 1.058382 0.061562 -0.028984 2031720.000000 0 0 1
-34.140314 -29.652105 26.164437 52.243528 0.715157 1.046254 0.071019 -0.021496 734092.000000 0 0 1
-33.767014 -29.743705 24.806957 51.383698 0.722134 1.066971 0.064798 -0.022765 -1083870.000000 0 0 1
-32.430914 -29.429005 24.721187 50.288842 0.736909 1.056889 0.053188 -0.019913 -827755.000000 0 0 1
-31.767614 -29.303805 23.304407 49.101830 0.745077 1.076271 0.050186 -0.019335 96173.000000 0 0 1
-31.729214 -30.571905 22.651927 49.542852 0.766824 1.095931 0.058304 -0.022842 467310.000000 0 0 1
-31.137214 -30.434705 21.354587 48.495523 0.773989 1.114817 0.051874 -0.017746 -688549.000000 0 0 1
-31.206014 -31.746205 20.598887 49.050495 0.793979 1.137403 0.060583 -0.017044 948901.000000 0 0 1
-30.172414 -32.767605 20.838287 49.176465 0.826608 1.133220 0.074843 -0.028734 1613380.000000 0 0 1
-28.837414 -32.307205 20.531487 47.925921 0.842085 1.128074 0.084528 -0.021625 312619.000000 0 0 1
-27.802514 -33.429005 20.544987 48.089237 0.877030 1.129374 0.083501 -0.020116 -398807.000000 0 0 1
-27.994414 33.222335 19.494487 47.617705 -0.870592 1.149005 0.073003 -0.017539 542949.000000 0 0 1
-29.134014 32.341535 19.647887 47.757776 -0.837526 1.146799 0.083963 -0.022452 767534.000000 0 0 1
-29.051514 31.325135 20.794187 47.514764 -0.823038 1.117828 0.088816 -0.020244 5817.140000 0 0 1
-28.155714 30.258235 20.542187 46.155027 -0.821376 1.109545 0.085243 -0.016594 -88248.400000 0 0 1
-28.221314 29.259335 21.507887 45.990656 -0.803455 1.084157 0.088894 -0.016228 -59496.000000 0 0 1
-27.133014 28.228435 21.192187 44.521386 -0.805182 1.074695 0.076320 -0.017469 -15242.200000 0 0 1
-25.808614 28.616335 21.483087 44.119182 -0.836941 1.062221 0.057325 -0.013945 214694.000000 0 0 1
-24.881414 27.668535 20.929087 42.692614 -0.838386 1.058446 0.057837 -0.019438 859885.000000 0 0 1
-23.388914 28.123035 20.914987 42.135295 -0.877044 1.051376 0.040637 -0.013152 636849.000000 0 0 1
-22.831414 28.154635 22.244287 42.529581 -0.889427 1.020393 0.049392 -0.011257 -5816.650000 0 0 1
-21.442414 28.328335 22.237987 41.914195 -0.922878 1.011535 0.072366 -0.015687 -404503.000000 0 0 1
-20.936214 28.558735 23.694607 42.607051 -0.938204 0.981087 0.065700 -0.004031 -504506.000000 0 0 1
-20.728614 27.256835 24.265727 41.969465 -0.920614 0.954305 0.075872 -0.020761 358921.000000 0 0 1
-20.378314 27.289335 25.632817 42.626574 -0.929378 0.925626 0.076238 -0.019558 -477024.000000 0 0 1
-18.994814 27.746435 26.086687 42.557994 -0.970491 0.910985 0.098227 -0.017379 -1113320.000000 0 0 1
-18.773314 29.169335 25.912627 43.298403 -0.998935 0.929211 0.082583 -0.009013 389240.000000 0 0 1
-17.540014 29.652735 26.437417 43.426649 -1.036640 0.916270 0.083645 -0.008027 126502.000000 0 0 1
-17.549314 29.727835 27.929757 44.404887 -1.037515 0.890557 0.070976 -0.002983 -348583.000000 0 0 1
-17.175114 28.526835 28.594057 43.890602 -1.028857 0.861256 0.076623 -0.011297 248701.000000 0 0 1
-17.368614 28.767735 29.961987 45.021906 -1.027622 0.842636 0.062410 -0.005169 -93798.600000 0 0 1
-17.148114 27.501535 30.856817 44.749697 -1.013253 0.809939 0.057959 -0.006183 1041170.000000 0 0 1
-15.756714 27.117035 31.008887 44.103954 -1.044417 0.791068 0.067413 0.000614 1439460.000000 0 0 1
-15.487914 25.989535 31.899169 43.964627 -1.033376 0.758942 0.077657 -0.002572 -445068.000000 0 0 1
-15.895314 26.076935 33.383877 45.245451 -1.023381 0.740933 0.081227 0.001600 578871.000000 0 0 1
-17.303714 25.903235 33.601177 45.819594 -0.981862 0.747580 0.087262 -0.003206 388091.000000 0 0 1
-17.714714 26.515835 -32.808272 45.752413 -0.981816 2.370404 0.090317 -0.001862 636520.000000 0 0 1
-19.140614 26.032435 -32.403892 45.760933 -0.936796 2.357618 0.064435 -0.003459 1232480.000000 0 0 1
-20.236214 26.267135 -33.323102 47.009529 -0.914366 2.358675 0.061143 -0.003541 1709820.000000 0 0 1
-21.444714 25.663335 -32.783982 46.832382 -0.874712 2.346233 0.082497 -0.008133 1569720.000000 0 0 1
-22.715614 25.686435 -33.719922 48.091841 -0.846699 2.347815 0.097675 -0.021850 579822.000000 0 0 1
-22.729414 24.813235 32.686248 46.911765 -0.829201 0.799926 0.090209 -0.016441 -18787.400000 0 0 1
-22.614014 23.435735 32.958084 46.334249 -0.803240 0.779434 0.086930 -0.021332 -317912.000000 0 0 1
-23.007914 22.508335 31.791175 45.240116 -0.774423 0.791582 0.091197 -0.025993 -149649.000000 0 0 1
-24.386114 22.205435 31.733366 45.768662 -0.738628 0.804679 0.085880 -0.028575 -280295.000000 0 0 1
-24.854114 22.380535 30.439827 45.223870 -0.733078 0.832415 0.094853 -0.029993 582194.000000 0 0 1
-26.401914 22.136135 30.422137 45.962767 -0.697738 0.847464 0.084922 -0.018756 751922.000000 0 0 1
-26.789514 20.772035 30.695427 45.731442 -0.659547 0.834956 0.097604 -0.030233 513749.000000 0 0 1
-28.068914 20.476135 30.120307 45.982268 -0.630248 0.856558 0.103012 -0.031865 361020.000000 0 0 1
-28.573014 19.058035 30.442687 45.895349 -0.588229 0.845568 0.128214 -0.036968 -651444.000000 0 0 1
-29.079314 19.076835 31.724966 47.074469 -0.580601 0.831279 0.131179 -0.031116 -134051.000000 0 0 1
-29.197114 17.825635 32.432682 47.139194 -0.548124 0.812040 0.119462 -0.020552 145118.000000 0 0 1
-30.280014 16.874035 31.833206 47.063418 -0.508405 0.827947 0.095020 -0.021641 501625.000000 0 0 1
-31.630114 17.336535 31.875381 48.135844 -0.501385 0.847050 0.091139 -0.024065 724933.000000 0 0 1
-32.496114 16.233535 31.613274 48.155210 -0.463290 0.854644 0.100860 -0.019699 718633.000000 0 0 1
-34.036514 16.427035 31.504997 49.202608 -0.449655 0.875893 0.089973 -0.016680 354485.000000 0 0 1
-34.646114 16.779035 32.690828 50.503262 -0.451007 0.866758 0.086006 -0.019212 566079.000000 0 0 1
-36.068214 16.848635 32.574295 51.438092 -0.437010 0.885023 0.105258 -0.019422 430035.000000 0 0 1
-36.687214 17.305035 -33.684462 52.726264 -0.440745 2.263806 0.099195 -0.009878 421346.000000 0 0 1
37.454976 17.334135 -33.709632 53.288711 0.433447 2.255683 0.092689 -0.020775 431350.000000 0 0 1
36.947376 17.992835 -32.566952 52.435265 0.453182 2.240927 0.071713 -0.029227 33960.400000 0 0 1
35.409276 17.905235 -32.509182 51.295820 0.468169 2.257199 0.077711 -0.031779 -184535.000000 0 0 1
34.956976 16.622635 -32.349102 50.445679 0.443870 2.266943 0.078947 -0.027704 -84951.500000 0 0 1
33.734376 16.589135 -31.644922 49.138667 0.457032 2.270502 0.074679 -0.036244 -485535.000000 0 0 1
32.847476 15.401935 -31.765382 48.220491 0.438453 2.289956 0.076537 -0.039611 -1078050.000000 0 0 1
31.951176 15.404435 -32.800352 48.311876 0.449245 2.317100 0.089944 -0.044931 -704781.000000 0 0 1
31.210376 14.200735 -32.981122 47.576284 0.427005 2.336752 0.086790 -0.046673 -77277.200000 0 0 1
31.866776 12.858135 -33.425542 47.938397 0.383517 2.342365 0.076343 -0.035010 -58832.500000 0 0 1
32.717076 12.313435 -32.441492 47.691489 0.359963 2.318882 0.072513 -0.025194 354376.000000 0 0 1
33.729676 11.448735 -32.985972 48.547285 0.327224 2.317824 0.093199 -0.024177 216162.000000 0 0 1
17.639676 -20.979165 10.007648 29.179386 -0.871657 1.220720 0.050023 -0.014555 -207458.000000 0 0 1
17.821676 -22.159865 10.773548 30.409556 -0.893480 1.208651 0.057066 -0.019727 194018.000000 0 0 1
19.048476 -22.835465 10.533748 31.547785 -0.875569 1.230360 0.039561 -0.027116 -32303.400000 0 0 1
18.998876 -24.260865 11.009848 32.722524 -0.906441 1.227640 0.040398 -0.015204 108569.000000 0 0 1
18.104076 -25.130445 10.342348 32.653652 -0.946507 1.248518 0.045670 -0.017544 -446527.000000 0 0 1
16.823176 -25.196805 10.924448 32.206238 -0.982099 1.224727 0.040950 -0.013296 -476331.000000 0 0 1
16.018676 -26.184445 10.069748 32.305154 -1.021772 1.253807 0.065247 -0.019735 -408719.000000 0 0 1
15.780276 -25.500815 8.892648 31.279192 -1.016657 1.282521 0.075678 -0.024366 -27197.700000 0 0 1
15.228376 -26.367525 7.932448 31.465434 -1.047053 1.315946 0.098244 -0.022056 -161813.000000 0 0 1
15.025376 -25.674265 6.601548 30.471466 -1.041307 1.352418 0.101227 -0.019189 -827423.000000 0 0 1
14.141676 -24.644865 6.713148 29.196279 -1.049851 1.338789 0.099598 -0.024951 -551192.000000 0 0 1
13.723876 -24.148465 5.481248 28.311432 -1.054002 1.375961 0.113909 -0.019805 111658.000000 0 0 1
13.189576 -22.696565 5.688048 26.859875 -1.044370 1.357413 0.139288 -0.025715 70322.400000 0 0 1
12.361376 -22.215565 4.640548 25.843174 -1.063031 1.390251 0.128212 -0.025167 -161505.000000 0 0 1
11.642776 -21.114265 5.066048 24.638004 -1.066865 1.363700 0.135339 -0.025604 -92072.400000 0 1 0
10.573776 -20.653765 4.055248 23.554783 -1.097631 1.397772 0.105538 -0.020013 -150076.000000 0 1 0
11.107176 -19.898165 3.008148 22.985980 -1.061679 1.439551 0.093475 -0.019365 75431.400000 0 1 0
10.135876 -19.392565 2.099048 21.982119 -1.089179 1.475162 0.048002 -0.004308 94073.600000 0 1 0
10.832876 -18.923065 0.829848 21.820225 -1.050866 1.532756 0.058116 -0.004265 238072.000000 0 1 0
11.860776 -17.986765 1.051948 21.571006 -0.987830 1.522010 0.046330 0.002665 -113702.000000 0 1 0
12.623176 -17.798265 -0.115952 21.820546 -0.953898 1.576110 0.045669 -0.009969 -177828.000000 0 1 0
13.803476 -16.820765 0.044348 21.759505 -0.883607 1.568758 0.034845 0.004457 247914.000000 0 1 0
14.953476 -17.361865 0.676548 22.923754 -0.859788 1.541279 0.063880 -0.008522 917123.000000 0 1 0
16.100876 -16.470565 0.585348 23.040407 -0.796748 1.545388 0.069566 -0.021538 1368220.000000 0 1 0
17.272176 -17.003865 1.477248 24.282540 -0.777570 1.509923 0.058337 -0.012617 276187.000000 0 1 0
17.801076 -18.255365 1.020048 25.518173 -0.797997 1.530812 0.067155 -0.010432 337748.000000 0 0 1
19.059776 -18.542765 1.623848 26.641060 -0.771650 1.509806 0.067808 -0.004451 324214.000000 0 0 1
19.725576 -19.808865 1.054048 27.974998 -0.787505 1.533109 0.041774 -0.006643 22866.300000 0 0 1
19.011576 -21.027165 1.290948 28.376896 -0.835697 1.525288 0.059567 -0.001495 244898.000000 0 0 1
19.475376 -22.058065 0.399348 29.428013 -0.847502 1.557226 0.069428 -0.016452 606729.000000 0 0 1
18.445776 -23.246565 0.312048 29.677379 -0.900041 1.560281 0.081155 -0.018058 461520.000000 0 0 1
18.517576 -24.139865 1.392648 30.456086 -0.916444 1.525054 0.058575 -0.004167 81211.800000 0 0 1
17.394976 -25.001645 1.501148 30.494604 -0.962926 1.521550 0.083341 -0.009630 50967.400000 0 0 1
17.491176 -25.756795 2.832948 31.263066 -0.974242 1.480055 0.082928 -0.011228 949169.000000 0 0 1
18.558476 -26.727035 2.908948 32.668232 -0.963858 1.481633 0.071747 -0.018870 1090960.000000 0 0 1
19.808176 -26.215345 3.401048 33.032942 -0.923724 1.467654 0.071302 -0.005822 242943.000000 0 0 1
20.912676 -27.275235 3.417848 34.539255 -0.916675 1.471679 0.076353 -0.006148 -164084.000000 0 0 1
21.383676 -27.740695 2.165348 35.092684 -0.914090 1.509053 0.064175 -0.009291 -42404.800000 0 0 1
22.253276 -28.888575 2.255848 36.535557 -0.914420 1.509013 0.065854 -0.009742 136015.000000 0 0 1
21.773476 -30.239665 2.779048 37.366358 -0.946753 1.496355 0.076965 -0.015775 -501088.000000 0 0 1
21.654176 -30.389885 4.167848 37.547562 -0.951700 1.459565 0.092355 -0.017784 -1600.070000 0 0 1
21.039076 -31.664145 4.483148 38.280013 -0.984334 1.453412 0.091891 -0.032484 93070.700000 0 0 1
20.843776 -32.011325 5.990448 38.666179 -0.993622 1.415242 0.104062 -0.037772 288499.000000 0 0 1
22.011976 -32.468885 6.645048 39.785830 -0.975029 1.402989 0.081751 -0.044482 221540.000000 0 0 1
21.599076 -33.344815 7.651448 40.459133 -0.996005 1.380535 0.072635 -0.039690 -162989.000000 0 0 1
22.785876 33.461928 8.093548 41.284407 0.972971 1.373475 0.086985 -0.048877 23887.600000 0 0 1
23.827876 -33.382835 8.627948 41.912084 -0.950884 1.363456 0.085668 -0.040717 279492.000000 0 0 1
24.750476 33.414804 9.321948 42.614949 0.933271 1.350265 0.112300 -0.043089 333536.000000 0 0 1
25.664276 -33.411715 10.279248 43.366585 -0.915798 1.331487 0.106855 -0.038321 -119773.000000 0 0 1
26.618976 -32.605615 9.615448 43.175836 -0.886140 1.346209 0.083848 -0.030094 160882.000000 0 0 1
27.130076 -31.528025 10.388248 42.871588 -0.860234 1.326049 0.081440 -0.032570 289386.000000 0 0 1
27.808776 -30.456595 9.468348 42.315267 -0.830811 1.345129 0.068962 -0.028193 5384.910000 0 0 1
26.919576 -29.499035 8.951148 40.926516 -0.831086 1.350301 0.060463 -0.027600 7506.980000 0 0 1
27.512176 -28.721135 7.923148 40.553664 -0.806894 1.374157 0.054009 -0.023157 265289.000000 0 0 1
26.820376 -27.293525 7.832548 39.059159 -0.794142 1.368897 0.044813 -0.025724 287806.000000 0 0 1
27.297576 -26.489605 8.908548 39.066854 -0.770378 1.340739 0.064455 -0.030943 21176.100000 0 0 1
27.007176 -25.143555 8.692148 37.909621 -0.749678 1.339452 0.060305 -0.035302 -300049.000000 0 0 1
27.781276 -24.279365 9.640948 38.134430 -0.718233 1.315208 0.076047 -0.052240 -669646.000000 0 0 1
29.155676 -24.285465 9.449448 39.104083 -0.694517 1.326732 0.096323 -0.045011 -1066560.000000 0 0 1
29.874076 -23.476065 10.360048 39.381679 -0.666043 1.304596 0.084090 -0.047224 -827417.000000 0 0 1
31.280076 -23.292365 9.873048 40.230020 -0.640061 1.322849 0.096390 -0.038785 -1018570.000000 0 0 1
31.274576 -22.710165 8.584048 39.592128 -0.628064 1.352249 0.095924 -0.028745 -789865.000000 0 0 1
32.520276 -22.273665 8.128148 40.246134 -0.600531 1.367437 0.089361 -0.030339 -494163.000000 0 0 1
32.624876 -21.509865 6.782848 39.661869 -0.582891 1.398935 0.074989 -0.008327 -112633.000000 0 0 1
32.028376 -20.236065 6.997748 38.526402 -0.563486 1.388147 0.060430 0.006134 133796.000000 0 0 1
32.485276 -19.364765 5.989248 38.290447 -0.537554 1.413735 0.053800 -0.000601 106138.000000 0 0 1
32.165976 -17.900265 6.321748 37.350154 -0.507818 1.400721 0.070970 0.000047 100714.000000 0 0 1
32.965276 -17.389065 7.368348 37.991862 -0.485402 1.375614 0.067635 -0.002833 4460.840000 0 0 1
32.612076 -16.061165 7.591848 37.136837 -0.457623 1.364916 0.081328 -0.008455 -2486.720000 0 0 1
33.407576 -15.471365 8.766348 37.845450 -0.433702 1.337038 0.080801 -0.033818 -266411.000000 0 0 1
34.765476 -15.313865 8.483948 38.924673 -0.414918 1.351075 0.090495 -0.032417 -543818.000000 0 0 1
35.497576 -14.915165 9.653848 39.695552 -0.397776 1.325136 0.086243 -0.043586 351962.000000 0 0 1
37.030476 -14.926765 9.429548 41.024149 -0.383171 1.338869 0.103663 -0.053929 11776.300000 0 0 1
37.411676 -13.876965 8.638348 40.826765 -0.355194 1.357600 0.135867 -0.050933 -1872700.000000 0 0 1
-36.822214 -13.953965 8.409448 40.265462 0.362234 1.360397 0.145508 -0.045697 -1158310.000000 0 0 1
-36.110814 -12.773465 7.678348 39.065450 0.339994 1.372957 0.165697 -0.060842 32406.300000 0 0 1
-36.470114 -12.657265 6.276548 39.111004 0.334052 1.409619 0.192345 -0.073120 657815.000000 0 0 1
-35.538914 -11.782265 5.576148 37.854057 0.320128 1.422952 0.214216 -0.057752 1299610.000000 0 0 1
-34.302314 -12.588165 5.041748 36.885361 0.351718 1.433680 0.220465 -0.063937 70394.700000 0 0 1
-33.434314 -13.161065 5.957748 36.421996 0.375011 1.406482 0.210712 -0.060845 12798.900000 0 0 1
-32.557214 -14.149065 5.396548 35.906698 0.409966 1.419931 0.215544 -0.041561 278050.000000 0 0 1
-31.888114 -14.955765 6.530048 35.821338 0.438548 1.387476 0.161331 -0.030268 638250.000000 0 0 1
-32.921814 -15.728165 7.149748 37.179832 0.445684 1.377289 0.130618 -0.043959 474103.000000 0 0 1
-32.430614 -16.349365 8.284948 37.251669 0.466949 1.346516 0.118333 -0.033521 -103086.000000 0 0 1
-33.467314 -17.170665 9.075448 38.694400 0.474039 1.334049 0.060777 -0.021122 316565.000000 0 0 1
-34.483914 -16.342965 9.728948 39.381281 0.442575 1.321167 0.070882 -0.024860 1603280.000000 0 0 1
-35.350414 -16.985765 10.683148 40.648464 0.447924 1.304855 0.080112 -0.020790 271624.000000 0 0 1
-36.162914 -18.268465 10.380148 41.823924 0.467776 1.319988 0.086727 -0.017837 -498877.000000 0 0 1
-35.516814 -19.529265 10.542648 41.880589 0.502735 1.316328 0.103676 -0.011101 -153964.000000 0 0 1
-35.300414 -19.985265 11.833248 42.255838 0.515156 1.286962 0.097995 -0.029358 814400.000000 0 0 1
-36.500514 -20.933165 12.251448 43.824456 0.520709 1.287463 0.072248 -0.036894 936478.000000 0 0 1
-36.571914 -22.161365 11.611348 44.310884 0.544795 1.305658 0.103527 -0.031504 -648721.000000 0 0 1
37.713976 -22.657465 11.804148 45.552636 -0.540986 1.308673 0.107690 -0.031264 -489853.000000 0 0 1
37.673676 -24.197765 11.498348 46.228235 -0.570942 1.319428 0.107067 -0.032850 -727729.000000 0 0 1
-37.308714 -24.991905 12.524148 46.619629 0.590215 1.298810 0.105159 -0.031006 122598.000000 0 0 1
37.543376 -26.150705 12.921748 47.542991 -0.608404 1.295543 0.117171 -0.039296 305837.000000 0 0 1
36.139176 -25.933405 13.572748 46.505924 -0.622439 1.274636 0.122751 -0.050578 341793.000000 0 0 1
35.142376 -25.602545 12.623448 45.275030 -0.629623 1.288234 0.108401 -0.045763 361203.000000 0 0 1
33.932676 -24.988075 13.064548 44.119302 -0.634741 1.270170 0.109958 -0.019850 659675.000000 0 0 1
34.061476 -23.426365 13.404548 43.458723 -0.602469 1.257240 0.113996 -0.021700 -337491.000000 0 0 1
35.021376 -23.116865 14.390448 44.361822 -0.583428 1.240432 0.113359 -0.025981 -60136.000000 0 0 1
35.136576 -21.772765 14.709048 43.874689 -0.554751 1.228924 0.112911 -0.038007 -403668.000000 0 0 1
36.343476 -21.493965 15.590548 45.010043 -0.534081 1.217088 0.089361 -0.027477 -532527.000000 0 0 1
36.437176 -20.237165 16.258448 44.738661 -0.506979 1.198871 0.094058 -0.009338 347176.000000 0 0 1
35.581376 -20.112365 17.403448 44.423209 -0.514476 1.168247 0.102322 -0.008767 256442.000000 0 0 1
35.610776 -18.705665 17.991848 44.065132 -0.483667 1.150204 0.106778 0.007273 -212681.000000 0 0 1
35.157276 -17.724665 17.060248 42.909787 -0.466965 1.161914 0.092422 -0.001148 216384.000000 0 0 1
34.989776 -16.380665 17.546648 42.432245 -0.437849 1.144478 0.096527 0.003458 645488.000000 0 0 1
36.331376 -15.572065 17.735548 43.324447 -0.404926 1.149037 0.070953 -0.004192 772653.000000 0 0 1
37.123176 -16.066065 18.787148 44.600511 -0.408440 1.135993 0.084450 0.005139 374251.000000 0 0 1
-37.287414 -15.316965 19.116948 44.614105 0.389766 1.127969 0.064942 -0.003294 192473.000000 0 0 1
-36.863814 -15.349165 20.586448 44.925934 0.394542 1.094793 0.077192 0.004889 -359177.000000 0 0 1
-36.297514 -16.549265 20.985848 45.075421 0.427778 1.086516 0.078264 0.011655 152012.000000 0 0 1
-35.755414 -16.427465 22.328648 45.242456 0.430676 1.054649 0.077769 0.005933 834074.000000 0 0 1
-34.628014 -17.462065 22.707048 44.940328 0.467062 1.041100 0.075210 0.010125 -102531.000000 0 0 1
-35.172614 -18.734065 23.021148 46.022291 0.489411 1.046947 0.075697 -0.004056 341282.000000 0 0 1
-34.262614 -19.676265 23.596848 46.020576 0.521291 1.032417 0.059286 -0.003506 620676.000000 0 0 1
-33.085014 -20.195965 22.675448 44.907362 0.548051 1.041486 0.037355 0.003865 338937.000000 0 0 1
-32.106514 -19.225365 22.458248 43.644196 0.539536 1.030283 0.044836 0.013240 -385786.000000 0 0 1
-30.937514 -19.788865 21.895548 42.756801 0.569058 1.033174 0.034693 0.011532 -196222.000000 0 0 1
-29.763114 -18.827465 21.837248 41.438893 0.564029 1.015759 0.056355 0.012379 -241750.000000 0 0 1
-29.052414 -18.709965 23.062748 41.545107 0.572151 0.982282 0.042498 0.006753 -97742.900000 0 0 1
-27.997014 -17.801265 23.010448 40.375718 0.566347 0.964402 0.073205 0.001518 -376603.000000 0 0 1
-27.479214 -17.400565 24.420448 40.672413 0.564493 0.926773 0.063481 -0.009859 -1198670.000000 0 0 1
-26.543114 -16.345365 24.344948 39.552299 0.551959 0.907760 0.085297 -0.015485 192694.000000 0 0 1
-26.055214 -15.872265 25.604148 39.829328 0.547141 0.872588 0.068876 -0.016390 704596.000000 0 0 1
-25.031814 -16.905465 26.255348 40.021616 0.593996 0.855251 0.051585 -0.015432 -156011.000000 0 0 1
-25.613814 -18.159165 26.656848 41.187502 0.616714 0.866881 0.040734 -0.007152 111419.000000 0 0 1
-24.651114 -18.917465 27.388748 41.420906 0.654550 0.848339 0.053178 -0.007718 -57469.200000 0 0 1
-25.186414 -20.158865 28.077548 42.767792 0.674977 0.854612 0.051295 -0.004651 -589296.000000 0 0 1
-26.028114 -19.853965 29.150048 43.833412 0.651636 0.843277 0.029017 -0.008996 -146296.000000 0 0 1
-26.507614 -21.018465 29.746548 45.047604 0.670410 0.849530 0.032428 -0.006474 -369210.000000 0 0 1
-27.694914 -20.921165 30.730248 46.357864 0.646958 0.846122 0.040213 -0.003823 -573443.000000 0 0 1
-27.410114 -20.311765 32.027848 46.793859 0.637737 0.816953 0.050899 -0.007499 205005.000000 0 0 1
-28.497814 -20.424765 32.912148 48.088522 0.621855 0.817005 0.062632 -0.014947 1454880.000000 0 0 1
-29.846314 -19.590565 32.619748 48.359494 0.580848 0.830474 0.051569 -0.019065 956622.000000 0 0 1
-30.593914 -20.156865 31.555148 48.353016 0.582573 0.859786 0.058359 -0.022521 -184764.000000 0 0 1
-31.796014 -19.411165 31.534148 48.807605 0.548097 0.868345 0.078262 -0.021748 -517680.000000 0 0 1
-32.816414 -19.860765 30.509948 49.012488 0.544240 0.898872 0.075083 -0.012441 -644602.000000 0 0 1
-32.474314 -19.659765 29.113748 47.840336 0.544376 0.916551 0.067222 -0.020568 578929.000000 0 0 1
-33.566714 -20.084665 28.296448 48.278433 0.539206 0.944548 0.076247 -0.026284 218964.000000 0 0 1
-34.390314 -18.941365 27.741448 48.073454 0.503439 0.955667 0.080035 -0.021199 619617.000000 0 0 1
-35.625514 -19.404865 27.136148 48.806727 0.498757 0.981240 0.063386 -0.025360 1093110.000000 0 0 1
-36.286414 -18.352365 26.435748 48.501154 0.468248 0.994343 0.109704 -0.022393 3611.650000 0 0 1
-37.420614 -18.813565 25.504948 49.038301 0.465853 1.023825 0.086421 -0.029596 -273672.000000 0 0 1
36.941576 -19.107465 26.136148 49.121009 -0.477340 1.009745 0.088589 -0.037415 -82347.700000 0 0 1
35.954376 -19.742865 25.332748 48.210434 -0.502159 1.017538 0.118028 -0.032054 45398.200000 0 0 1
34.731076 -20.179265 26.128248 47.918010 -0.526343 0.994085 0.106324 -0.040672 -161395.000000 0 0 1
33.806876 -19.135965 26.352348 46.941839 -0.515073 0.974740 0.101992 -0.051954 415663.000000 0 0 1
32.483576 -19.549365 26.658648 46.346994 -0.541759 0.957951 0.086070 -0.042041 402449.000000 0 0 1
-30.515394 -5.173465 33.764007 45.803518 0.167939 0.741955 0.092227 -0.024131 -164432.000000 0 0 1
-31.661454 -5.189865 32.953283 45.992404 0.162473 0.772033 0.095032 -0.018326 237126.000000 0 0 1
-31.466484 -4.182565 31.981347 45.060405 0.132147 0.781662 0.110533 -0.015513 331550.000000 0 0 1
-32.363514 -4.408465 30.710117 44.832387 0.135384 0.816195 0.095206 -0.026809 188969.000000 0 0 1
-32.005854 -5.351565 29.706957 43.994514 0.165673 0.829503 0.087905 -0.023343 -53322.600000 0 0 1
-30.762994 -5.141365 29.060317 42.629772 0.165598 0.820725 0.087140 -0.026318 257846.000000 0 0 1
-30.430834 -6.155665 27.905477 41.744982 0.199591 0.838640 0.086454 -0.026881 233758.000000 0 0 1
-31.196024 -5.786565 26.752317 41.501358 0.183406 0.870279 0.083274 -0.029592 253376.000000 0 0 1
-30.762564 -6.585265 25.625007 40.575141 0.210885 0.887253 0.098561 -0.028730 91481.200000 0 0 1
-31.392604 -6.133865 24.279487 40.157358 0.192961 0.921522 0.089669 -0.022075 -26301.000000 0 0 1
-31.009844 -4.861465 23.896917 39.450056 0.155506 0.920087 0.095119 -0.027180 -53513.500000 0 0 1
-31.549094 -4.533365 22.589387 39.066318 0.142716 0.954237 0.104221 -0.024712 -92157.700000 0 0 1
-30.950734 -3.350365 21.868687 38.044873 0.107828 0.958421 0.098918 -0.018546 612199.000000 0 0 1
-29.553974 -3.507765 21.576187 36.759674 0.118137 0.943507 0.107609 -0.022342 641094.000000 0 0 1
-29.124344 -2.327265 20.924887 35.937369 0.079738 0.949291 0.117206 -0.018085 -139431.000000 0 0 1
-27.671664 -2.341165 20.429787 34.475763 0.084404 0.936533 0.115475 -0.015964 -301882.000000 0 0 1
-27.428314 -3.166065 19.278587 33.674921 0.114922 0.961256 0.140665 -0.017821 -141876.000000 0 0 1
-26.290644 -2.753865 18.558787 32.298767 0.104366 0.958684 0.135239 -0.015515 -453551.000000 0 0 1
-25.877844 -3.627165 17.398387 31.393041 0.139258 0.983381 0.146013 -0.018858 59070.000000 0 0 1
-26.724394 -3.459465 16.269787 31.478042 0.128734 1.027616 0.143961 -0.008429 677965.000000 0 0 1
-26.127634 -4.008265 15.090087 30.437316 0.152224 1.052068 0.161787 -0.021901 456265.000000 0 0 1
-27.211164 -4.007665 13.979487 30.853442 0.146229 1.100564 0.175689 -0.027783 300511.000000 0 0 1
-27.821174 -2.782965 13.636887 31.108316 0.099699 1.117014 0.173794 -0.019298 192643.000000 0 0 1
-29.058174 -2.984965 12.990787 31.969486 0.102365 1.152341 0.165431 -0.027206 378074.000000 0 0 1
-29.680094 -1.751965 12.212387 32.142181 0.058960 1.181055 0.162710 -0.018518 163016.000000 0 0 1
-29.104674 -1.600365 10.936687 31.132850 0.054931 1.211847 0.193368 -0.025610 173665.000000 0 0 1
-29.502034 -0.370365 10.320387 31.257281 0.012553 1.234307 0.192906 -0.021054 458319.000000 0 0 1
-30.879374 -0.419565 9.582587 32.334776 0.013586 1.269922 0.183337 -0.014538 372570.000000 0 0 1
-30.821444 -1.063465 8.339187 31.947370 0.034490 1.306708 0.183890 -0.021448 -214755.000000 0 0 1
-32.059184 -1.026365 7.677387 32.981616 0.032004 1.335863 0.182112 -0.024292 -201070.000000 0 0 1
-32.124734 -2.026065 6.517787 32.841818 0.062985 1.371010 0.211882 -0.034114 -69279.500000 0 0 1
-31.519414 -1.482965 5.341087 32.003123 0.047015 1.403119 0.217127 -0.042336 277709.000000 0 0 1
-32.303354 -0.532665 4.621687 32.636642 0.016488 1.428708 0.225588 -0.029059 -263509.000000 0 0 1
-31.845894 -0.160465 3.208487 32.007517 0.005039 1.470386 0.207822 -0.033898 -303051.000000 0 0 1
-32.236424 -1.180265 2.313187 32.340855 0.036596 1.499210 0.189855 -0.053733 371450.000000 0 0 1
-31.870284 -0.890965 0.987587 31.898028 0.027949 1.539831 0.171763 -0.058476 -67170.300000 0 0 1
-32.612764 -1.824165 -0.008013 32.663742 0.055876 1.571042 0.148358 -0.055095 778080.000000 0 0 1
-34.022336 -1.606665 -0.049413 34.060287 0.047189 1.572247 0.184566 -0.058325 441381.000000 0 0 1
-34.660985 -2.202365 -1.153613 34.750038 0.063455 1.604000 0.194666 -0.069059 364524.000000 0 0 1
-36.152454 -1.745665 -1.216013 36.214997 0.048249 1.604380 0.198736 -0.052252 150862.000000 0 0 1
-36.977414 -2.443765 -0.330413 37.059551 0.065992 1.579712 0.217137 -0.055820 529697.000000 0 0 1
37.325466 -1.817365 -0.072313 37.369753 -0.048651 1.572731 0.183228 -0.047485 735066.000000 0 0 1
36.327026 -2.810965 0.574987 36.440156 -0.077226 1.555017 0.207262 -0.052400 -171033.000000 0 0 1
36.461236 -3.070165 1.981387 36.643874 -0.084005 1.516698 0.206231 -0.049224 -128892.000000 0 0 1
35.575116 -4.074665 2.370987 35.886116 -0.114040 1.504678 0.207176 -0.040836 -258092.000000 0 0 1
35.533656 -4.283465 3.875787 36.000146 -0.119968 1.462927 0.198063 -0.032815 491777.000000 0 0 1
34.721116 -3.317865 4.596187 35.180805 -0.095268 1.439777 0.190456 -0.034355 528479.000000 0 0 1
34.715826 -3.652365 5.953387 35.411455 -0.104822 1.401874 0.166822 -0.045054 -148722.000000 0 0 1
34.208706 -2.546465 6.938687 34.998077 -0.074302 1.371215 0.161623 -0.034813 348530.000000 0 0 1
32.794566 -2.449365 6.998387 33.622319 -0.074550 1.361116 0.187606 -0.028223 267339.000000 0 0 1
32.320866 -1.397265 7.873587 33.295406 -0.043204 1.332058 0.184865 -0.024314 -178965.000000 0 0 1
30.796186 -1.414465 8.011787 31.852700 -0.045898 1.316540 0.175143 -0.018410 -1029520.000000 0 0 1
30.147066 -1.043765 6.821287 30.926768 -0.034609 1.348405 0.217853 -0.018007 1571740.000000 0 0 1
28.714366 -0.833465 7.067487 29.583084 -0.029018 1.329560 0.199167 -0.005898 1906380.000000 0 0 1
27.862366 -2.140265 6.945087 28.794555 -0.076665 1.327200 0.242844 -0.024416 -428458.000000 0 0 1
28.193366 -3.151465 7.894587 29.446937 -0.111318 1.299381 0.203379 -0.030647 204933.000000 0 0 1
27.309366 -4.252665 7.752787 28.705267 -0.154481 1.297318 0.206971 -0.045828 104198.000000 0 0 1
27.615266 -5.407965 8.711587 29.457440 -0.193385 1.270572 0.184082 -0.043209 -331186.000000 0 0 1
27.113866 -5.112265 9.951287 29.331299 -0.186360 1.224653 0.178052 -0.041477 178310.000000 0 0 1
27.365066 -6.125865 10.860987 30.072148 -0.220226 1.201280 0.162233 -0.037046 -315397.000000 0 0 1
26.470866 -6.100565 12.107287 29.740713 -0.226508 1.151525 0.134680 -0.033690 -31533.400000 0 0 1
25.154966 -6.486765 11.824887 28.542571 -0.252374 1.143634 0.162732 -0.042634 -583860.000000 0 0 1
24.149166 -6.221465 12.757787 28.011604 -0.252144 1.097923 0.179044 -0.047650 212581.000000 0 0 1
23.065566 -7.316565 12.679887 27.319077 -0.307168 1.088132 0.163393 -0.048321 -195252.000000 0 0 1
23.487466 -8.522065 13.226287 28.270503 -0.348063 1.083942 0.135648 -0.039881 -109984.000000 0 0 1
22.509366 -9.550865 13.189387 27.782198 -0.401283 1.076125 0.202389 -0.065133 -81006.900000 0 0 1
22.765066 -10.743865 14.155187 28.879892 -0.440953 1.058546 0.130741 -0.052224 -144968.000000 0 0 1
22.816566 -10.216565 15.494087 29.411573 -0.420998 1.015962 0.116047 -0.046292 263155.000000 0 0 1
23.197466 -11.209165 16.463887 30.574947 -0.450123 1.002168 0.096724 -0.041243 -200722.000000 0 0 1
23.013066 -10.819265 17.892887 31.093618 -0.439472 0.957640 0.104214 -0.033376 175691.000000 0 0 1
21.650266 -10.878065 18.295087 30.360773 -0.465602 0.924054 0.111288 -0.050075 346177.000000 0 0 1
21.455766 -11.252165 19.665987 31.204361 -0.483004 0.888944 0.135711 -0.043717 183366.000000 0 0 1
22.032066 -10.319965 20.814687 32.018195 -0.438055 0.863094 0.131081 -0.035560 -28393.800000 0 0 1
21.262066 -9.159565 21.106087 31.327943 -0.406768 0.831573 0.143302 -0.032817 216212.000000 0 0 1
21.569866 -7.992065 20.298987 30.678675 -0.354837 0.847760 0.140690 -0.035824 311216.000000 0 0 1
22.851766 -7.191765 20.769187 31.706211 -0.304900 0.856546 0.116178 -0.022737 1666930.000000 0 0 1
24.136866 -7.827565 20.685087 32.737317 -0.313598 0.886858 0.122599 -0.028025 792165.000000 0 0 1
24.663766 -7.890165 19.374587 32.340852 -0.309621 0.928451 0.127354 -0.037536 -391395.000000 0 0 1
26.039966 -8.598265 19.342387 33.557979 -0.318923 0.956496 0.093959 -0.025987 221518.000000 0 0 1
25.822866 -9.955965 19.692387 33.966627 -0.367986 0.952366 0.078057 -0.027636 -66316.800000 0 0 1
27.053266 -10.615565 19.651587 35.082108 -0.373933 0.976218 0.071465 -0.025132 -208093.000000 0 0 1
26.948466 -12.150265 19.792087 35.574928 -0.423577 0.980810 0.029699 -0.006537 -2362.910000 0 0 1
26.239166 -12.706965 18.703087 34.637642 -0.450988 1.000402 0.070469 -0.024982 82669.800000 0 0 1
25.927766 -14.023765 19.000987 35.070679 -0.495813 0.998230 0.039328 -0.013028 475138.000000 0 0 1
24.751366 -14.541465 18.092887 33.932829 -0.531179 1.008421 0.065210 -0.020202 268726.000000 0 0 1
25.160166 -14.592765 16.733487 33.555809 -0.525580 1.048725 0.086202 -0.021813 850930.000000 0 0 1
24.160666 -15.115065 15.822087 32.596647 -0.559035 1.063987 0.086260 -0.024951 370427.000000 0 0 1
23.899166 -16.640865 15.940087 33.199020 -0.608235 1.069985 0.058352 -0.025159 -241530.000000 0 0 1
24.983066 -17.467365 15.595887 34.241701 -0.610167 1.097902 0.096854 -0.028922 -31690.900000 0 0 1
24.651966 -18.787765 15.921687 34.845368 -0.651213 1.096262 0.070474 -0.020716 -559632.000000 0 0 1
25.872566 -19.676065 16.040687 36.246943 -0.650187 1.112368 0.071176 -0.014669 -515108.000000 0 0 1
26.367666 -19.954265 14.715587 36.193577 -0.647820 1.152089 0.085015 -0.031392 -404166.000000 0 0 1
27.295766 -20.978265 14.724487 37.442716 -0.655270 1.166629 0.105513 -0.033936 -730575.000000 0 0 1
27.716966 -21.212665 13.254387 37.334784 -0.653241 1.207867 0.093972 -0.052316 -67375.200000 0 0 1
26.632666 -21.594165 12.407187 36.462928 -0.681301 1.223594 0.099838 -0.038470 377406.000000 0 0 1
26.655766 -20.947665 11.177487 35.696929 -0.666059 1.252318 0.127480 -0.038655 266423.000000 0 0 1
25.268766 -21.025565 10.479187 34.502149 -0.693997 1.262196 0.079823 -0.030277 134424.000000 0 0 1
24.896966 -22.185665 9.778687 34.751768 -0.727876 1.285557 0.060616 -0.034152 -1542870.000000 0 0 1
23.534766 -22.155865 9.692287 33.744748 -0.755228 1.279469 0.051115 -0.023906 -1366600.000000 0 0 1
23.067366 -23.152265 8.602887 33.795568 -0.787235 1.313407 0.043339 -0.020122 -340717.000000 0 0 1
23.309266 -24.527965 8.788287 34.959647 -0.810869 1.316687 0.040499 -0.015584 -22444.900000 0 0 1
23.106466 -25.321105 7.626187 35.117316 -0.831097 1.351889 0.042956 -0.007068 363958.000000 0 0 1
21.618866 -25.719145 7.459187 34.416410 -0.871800 1.352329 0.053161 0.001440 743809.000000 0 0 1
20.631466 -24.735565 7.123987 32.988737 -0.875617 1.353129 0.057461 -0.005894 -251289.000000 0 0 1
19.358866 -25.335315 7.048087 32.654546 -0.918328 1.353246 0.071465 -0.026827 -29928.600000 0 0 1
18.306566 -24.197065 7.068687 31.154368 -0.923109 1.341911 0.068682 -0.023042 -461052.000000 0 0 1
18.198866 -23.576465 5.838187 30.350170 -0.913421 1.377229 0.080068 -0.023478 208801.000000 0 0 1
17.323766 -22.477165 6.040587 29.014212 -0.914161 1.361068 0.081725 -0.011468 84769.500000 0 0 1
17.134966 -21.560865 4.800587 27.955743 -0.899280 1.398220 0.110823 -0.007611 -153200.000000 0 0 1
16.168166 -20.568465 5.058287 26.646906 -0.904610 1.379811 0.127564 -0.014297 18405.300000 0 0 1
15.873866 -19.917865 3.852587 25.759336 -0.897908 1.420672 0.137004 -0.016734 -33396.500000 0 0 1
15.005966 -18.699365 4.121787 24.327647 -0.894542 1.400547 0.139750 -0.009322 158933.000000 0 1 0
15.822166 -17.639165 4.643687 24.146323 -0.839646 1.377276 0.105190 -0.007774 339126.000000 0 1 0
15.145066 -16.425365 4.865987 22.865771 -0.825930 1.356350 0.091498 -0.005925 217533.000000 0 1 0
16.109966 -15.214565 5.124187 22.743599 -0.756821 1.343543 0.084161 -0.007888 59611.300000 0 1 0
16.923466 -15.361665 6.296487 23.707176 -0.737061 1.301976 0.128319 -0.015850 854022.000000 0 1 0
17.997866 -14.413065 6.382987 23.924927 -0.675241 1.300733 0.131796 -0.014917 547543.000000 0 1 0
19.262866 -14.660765 5.554387 24.836410 -0.650561 1.345250 0.166817 -0.038898 -611275.000000 0 1 0
20.151566 -13.580865 5.495687 24.914415 -0.593018 1.348385 0.163225 -0.042387 434590.000000 0 1 0
21.454166 -13.910965 5.014887 26.056578 -0.575252 1.377126 0.162560 -0.036084 409799.000000 0 0 1
22.347666 -12.676565 5.001387 26.174937 -0.515985 1.378539 0.158360 -0.034881 -329010.000000 0 0 1
22.451966 -12.105665 6.333387 26.282117 -0.494499 1.327424 0.185488 -0.047745 120210.000000 0 0 1
23.383666 -11.060365 6.304487 26.624689 -0.441811 1.331735 0.180180 -0.048285 -73718.600000 0 0 1
23.864266 -10.436665 7.632887 27.141999 -0.412271 1.285731 0.199097 -0.047324 -175848.000000 0 0 1
24.654066 -11.277765 8.425687 28.390195 -0.429024 1.269476 0.200230 -0.036410 113208.000000 0 0 1
24.797166 -10.699865 9.707887 28.698948 -0.407359 1.225722 0.217054 -0.052999 -78943.600000 0 0 1
25.230366 -11.817965 10.651387 29.827633 -0.438052 1.205637 0.177491 -0.045364 260860.000000 0 0 1
24.107066 -12.535165 11.138487 29.365743 -0.479503 1.181754 0.193474 -0.050132 755666.000000 0 0 1
24.578066 -13.737965 11.806487 30.532051 -0.509690 1.173755 0.195803 -0.047484 1271920.000000 0 0 1
23.375766 -14.719965 12.182587 30.191377 -0.561979 1.155444 0.169409 -0.051624 1065470.000000 0 0 1
22.429566 -14.240465 13.127787 29.634694 -0.565685 1.111869 0.139187 -0.049516 863724.000000 0 0 1
21.338266 -15.199565 13.288087 29.375528 -0.618943 1.101395 0.109141 -0.049934 1284060.000000 0 0 1
20.114566 -14.521865 14.013787 28.493272 -0.625311 1.056608 0.112089 -0.050484 -208449.000000 0 0 1
20.170666 -14.315965 15.395587 29.134631 -0.617234 1.014047 0.110759 -0.045922 -28686.400000 0 0 1
19.876766 -13.011765 15.737187 28.496507 -0.579617 0.985736 0.132096 -0.061612 1589880.000000 0 0 1
18.341166 -12.517665 15.771987 27.236848 -0.598877 0.953211 0.171316 -0.064773 1345350.000000 0 0 1
17.766766 -12.777065 14.485587 26.243925 -0.623467 0.986084 0.185395 -0.071727 397768.000000 0 0 1
16.343066 -12.684565 14.401187 25.206907 -0.660024 0.962684 0.232630 -0.071323 618677.000000 0 0 1
15.742966 -11.288365 14.235987 24.040206 -0.622072 0.937042 0.189062 -0.066394 -682472.000000 0 1 0
16.058866 -10.389465 15.253687 24.464324 -0.574236 0.897575 0.181285 -0.053149 176080.000000 0 1 0
15.636066 -9.075665 14.974987 23.475615 -0.525907 0.879034 0.166074 -0.049256 -680190.000000 0 1 0
16.015966 -8.019165 16.012487 24.025360 -0.464206 0.841315 0.177177 -0.045800 -917462.000000 0 1 0
17.384866 -7.812165 15.910787 24.827739 -0.422326 0.875195 0.175369 -0.055693 -726531.000000 0 1 0
18.007566 -8.412065 17.055487 26.190168 -0.437016 0.861609 0.173970 -0.052939 -751050.000000 0 0 1
19.519266 -8.494865 16.869387 27.161382 -0.410482 0.900677 0.148931 -0.044290 -190525.000000 0 0 1
20.209466 -7.226565 16.933187 27.338226 -0.343414 0.902823 0.132905 -0.049668 -548133.000000 0 0 1
21.506466 -7.259765 16.477987 28.049177 -0.325551 0.942870 0.121452 -0.044872 -1154050.000000 0 0 1
22.189966 -5.916265 16.618287 28.347209 -0.260558 0.944386 0.121091 -0.045341 -441043.000000 0 0 1
22.681066 -5.677965 17.894987 29.443176 -0.245298 0.917534 0.142596 -0.041151 -226244.000000 0 0 1
23.175066 -4.452565 18.034387 29.700979 -0.189814 0.918267 0.155530 -0.041542 -305107.000000 0 0 1
-5.419524 -32.509105 -6.087352 33.515206 1.405608 1.753440 0.071011 -0.029423 -302320.000000 0 0 1
-6.348524 -31.470505 -6.116752 32.681969 1.371738 1.759066 0.072970 -0.026606 -366873.000000 0 0 1
-5.876324 -30.296205 -5.488752 31.345137 1.379213 1.746811 0.098578 -0.038048 -687124.000000 0 0 1
-6.715624 -28.979105 -5.573252 30.264654 1.343076 1.756004 0.101399 -0.036026 1734630.000000 0 0 1
-8.108024 -28.999905 -5.139652 30.547513 1.298170 1.739852 0.097049 -0.036442 1262980.000000 0 0 1
-8.963824 -29.694705 -6.001952 31.593497 1.277628 1.761932 0.092026 -0.030507 -1067000.000000 0 0 1
-10.435524 -29.546105 -5.616252 31.834176 1.231278 1.748147 0.089051 -0.023778 -50732.900000 0 0 1
-11.361224 -30.196505 -6.472052 32.905832 1.210936 1.768771 0.078094 -0.025354 272326.000000 0 0 1
-12.704624 -29.915205 -6.116252 33.071672 1.169190 1.756806 0.085600 -0.024245 522949.000000 0 0 1
-13.805824 -30.495105 -7.034852 34.205867 1.145681 1.777937 0.093229 -0.030088 262131.000000 0 0 1
-13.907324 -29.896105 -8.307452 34.003007 1.135384 1.817610 0.114018 -0.036531 7439.440000 0 0 1
-15.118424 -30.289605 -8.914452 35.007062 1.107846 1.828279 0.145454 -0.036246 138271.000000 0 0 1
-15.389724 -29.634705 -10.269152 34.935867 1.091817 1.869146 0.165207 -0.034363 -327909.000000 0 0 1
-15.819924 -28.261505 -10.136952 33.937302 1.060484 1.874123 0.171763 -0.039802 471954.000000 0 0 1
-14.770924 -27.302205 -9.940752 32.594618 1.074877 1.880715 0.146388 -0.035985 173385.000000 0 0 1
-15.216724 -25.836405 -9.613052 31.487764 1.038531 1.881044 0.137838 -0.024847 -158040.000000 0 0 1
-15.741024 -25.163805 -10.718852 31.557736 1.011807 1.917350 0.158953 -0.036853 275325.000000 0 0 1
-16.257924 -23.886705 -10.299152 30.675190 0.973191 1.913196 0.117611 -0.012592 67951.400000 0 0 1
-16.847024 -23.059405 -11.489152 30.782446 0.939832 1.953292 0.135485 -0.013828 -241984.000000 0 0 1
-18.096824 -23.510905 -11.927252 31.976820 0.914793 1.953033 0.146958 -0.029129 -1031050.000000 0 0 1
-18.725924 -22.665805 -12.855752 32.088461 0.880297 1.983006 0.154386 -0.034842 107754.000000 0 0 1
-20.222824 -23.067505 -13.006752 33.320384 0.851016 1.971813 0.138084 -0.023111 153891.000000 0 0 1
-20.524824 -24.429205 -13.344852 34.585250 0.872034 1.966929 0.173867 -0.028934 -49705.600000 0 0 1
-20.270424 -25.288405 -12.282152 34.658978 0.895099 1.933038 0.188978 -0.037748 -1598470.000000 0 0 1
-20.041224 -26.812505 -12.521252 35.739933 0.928924 1.928734 0.188270 -0.045387 163374.000000 0 0 1
-19.059324 -27.131005 -13.469352 35.787885 0.958400 1.956667 0.185594 -0.046319 860545.000000 0 0 1
-17.689424 -26.870005 -13.094152 34.732833 0.988585 1.957348 0.190387 -0.047196 88894.000000 0 0 1
-16.757524 -27.990405 -13.476252 35.297121 1.031342 1.962534 0.167828 -0.044794 -594584.000000 0 0 1
-16.602224 -28.176205 -14.865752 35.923849 1.038335 1.997435 0.173848 -0.055894 555293.000000 0 0 1
-15.693624 -29.291205 -15.196052 36.540177 1.078937 1.999698 0.170137 -0.049923 676954.000000 0 0 1
-16.240724 -30.747305 -15.275652 37.980303 1.084844 1.984714 0.167701 -0.056122 -304076.000000 0 0 1
-16.722424 -31.128605 -14.028352 38.018735 1.077830 1.948713 0.160035 -0.052433 40056.800000 0 0 1
-16.871924 -32.536005 -13.894952 39.195958 1.092410 1.933175 0.153846 -0.046292 -458757.000000 0 0 1
-17.604324 -33.048105 -12.616552 39.512869 1.081342 1.895790 0.199905 -0.043957 1651530.000000 0 0 1
-19.010724 -32.729105 -12.370152 39.819877 1.044576 1.886676 0.212944 -0.042883 1702790.000000 0 0 1
-19.442324 -31.399405 -12.233652 38.904869 1.016383 1.890674 0.211919 -0.049206 -544027.000000 0 0 1
-18.822524 -30.475205 -11.178952 37.523253 1.017511 1.873310 0.212257 -0.050554 -710549.000000 0 0 1
-19.085324 -30.812705 -9.830952 37.554228 1.016236 1.835663 0.208485 -0.056277 172912.000000 0 0 1
-19.028624 -29.701405 -8.972052 36.397249 1.001012 1.819867 0.202395 -0.049482 -161817.000000 0 0 1
-19.329624 -30.047005 -7.495352 36.505303 0.999136 1.777589 0.197893 -0.046859 -546663.000000 0 0 1
-18.354924 -30.769405 -6.841652 36.475577 1.032931 1.759482 0.197891 -0.048545 -280537.000000 0 0 1
-18.815724 -31.222905 -5.575752 36.878046 1.028448 1.722573 0.198616 -0.059977 210270.000000 0 0 1
-17.876424 -32.371605 -5.036152 37.320908 1.066246 1.706151 0.182712 -0.048788 286841.000000 0 0 1
-16.566824 -31.980405 -4.734052 36.326536 1.092829 1.701487 0.156953 -0.037661 -120552.000000 0 0 1
-16.338724 -31.680805 -3.362552 35.804107 1.094644 1.664850 0.141260 -0.037371 174426.000000 0 0 1
-15.014024 -31.006405 -2.897352 34.571849 1.119850 1.654701 0.129582 -0.031068 464339.000000 0 0 1
-13.825024 -31.774705 -2.976752 34.779652 1.160406 1.656490 0.093878 -0.028544 57275.400000 0 0 1
-12.793224 -30.990205 -2.394952 33.612426 1.179292 1.642109 0.096020 -0.025377 429298.000000 0 0 1
-11.409124 -31.709205 -2.446452 33.787970 1.225414 1.643266 0.085738 -0.027963 -314782.000000 0 0 1
-11.289624 -32.801105 -1.572152 34.725204 1.239312 1.616086 0.091194 -0.019652 920205.000000 0 0 1
-9.921424 -33.267705 -1.521852 34.748970 1.280964 1.614606 0.109488 -0.030187 1331090.000000 0 0 1
-8.957624 -32.368705 -0.654252 33.591668 1.300816 1.590274 0.143096 -0.037575 -613062.000000 0 0 1
-9.251324 -32.276305 0.730648 33.583935 1.291651 1.549039 0.144368 -0.034849 -48658.700000 0 0 1
-8.104424 -31.829905 1.438748 32.876961 1.321477 1.527021 0.152861 -0.038265 608549.000000 0 0 1
-7.380824 -33.060505 2.121548 33.940750 1.351146 1.508248 0.157275 -0.050016 -289337.000000 0 0 1
-8.087724 -33.623405 3.197048 34.729897 1.334742 1.478611 0.163939 -0.052255 -35865.400000 0 0 1
-7.396824 33.057035 4.008448 34.110823 -1.350663 1.453012 0.174101 -0.048917 1158880.000000 0 0 1
-6.188924 33.568335 4.935648 34.489078 -1.388476 1.427196 0.191083 -0.048743 1154020.000000 0 0 1
-5.050824 -33.650505 4.216748 34.287728 1.421812 1.447503 0.204767 -0.057579 -158181.000000 0 0 1
-4.045224 -33.362505 5.143948 33.998247 1.450135 1.418913 0.198301 -0.063644 172771.000000 0 0 1
-2.705224 -32.744105 4.636648 33.181217 1.488366 1.430600 0.210548 -0.056687 431690.000000 0 0 1
-2.730524 -31.411705 4.182148 31.806310 1.484087 1.438926 0.191636 -0.040408 25376.900000 0 0 1
-3.231324 -31.263105 2.867748 31.560215 1.467803 1.479805 0.191528 -0.045465 -32522.500000 0 0 1
-3.460224 -29.763705 2.547648 30.072276 1.455059 1.485977 0.160406 -0.050520 -527133.000000 0 0 1
-2.274024 -29.050405 2.538448 29.249631 1.492677 1.483901 0.126722 -0.040532 -670569.000000 0 0 1
-2.379424 -27.890605 1.713848 28.044336 1.485690 1.509646 0.122587 -0.037973 -55905.900000 0 0 1
-2.870324 -26.686005 2.442948 26.950874 1.463649 1.480027 0.123180 -0.036014 -389263.000000 0 0 1
-3.167324 -25.690105 1.525948 25.929558 1.448126 1.511913 0.131033 -0.037432 -158454.000000 0 0 1
-3.535424 -24.394505 1.984848 24.729147 1.426871 1.490446 0.112234 -0.033899 572066.000000 0 1 0
-4.549524 -24.226105 3.190348 24.855194 1.385164 1.442084 0.086326 -0.022192 162107.000000 0 1 0
-3.989024 -24.317205 4.499648 25.049663 1.408203 1.390187 0.084256 -0.022677 47171.100000 0 0 1
-4.925724 -24.056305 5.518248 25.167829 1.368830 1.349742 0.067146 -0.014582 58256.300000 0 0 1
-5.676824 -25.182405 6.229348 26.555313 1.349074 1.334010 0.094219 -0.019554 193736.000000 0 0 1
-4.878624 -25.889205 7.178248 27.305295 1.384538 1.304782 0.073859 -0.023261 231627.000000 0 0 1
-5.620124 -26.857305 7.908648 28.556039 1.364514 1.290176 0.086231 -0.027300 281233.000000 0 0 1
-4.864124 -27.315705 9.191848 29.228368 1.394573 1.250884 0.086952 -0.026630 93075.800000 0 0 1
-4.637424 -26.273305 10.127248 28.536878 1.396089 1.208008 0.069709 -0.031801 687617.000000 0 0 1
-5.787824 -25.642705 10.737748 28.396240 1.348806 1.183010 0.075867 -0.035420 169286.000000 0 0 1
-5.319924 -24.477305 11.609448 27.608320 1.356784 1.136794 0.062818 -0.033508 185736.000000 0 0 1
-4.602924 -25.089005 12.700948 28.494897 1.389350 1.108810 0.060553 -0.032086 -37879.700000 0 0 1
-4.023924 -24.121305 13.529148 27.947579 1.405498 1.065473 0.053749 -0.037478 127785.000000 0 0 1
-2.923124 -24.642205 14.479048 28.730224 1.452725 1.042612 0.047390 -0.042945 105557.000000 0 0 1
-3.461824 -25.357005 15.569648 29.956233 1.435112 1.024242 0.056239 -0.046940 -52236.100000 0 0 1
-2.444924 -25.881705 16.391748 30.733202 1.476610 1.008233 0.090363 -0.040028 -45030.700000 0 0 1
-2.887224 -26.220205 17.802248 31.823816 1.461124 0.977134 0.118758 -0.038021 -94984.400000 0 0 1
-2.866724 -25.136205 18.735848 31.481406 1.457239 0.933356 0.122885 -0.031519 -118570.000000 0 0 1
-3.278524 -25.474205 20.045648 32.580851 1.442800 0.908082 0.153964 -0.040924 -390018.000000 0 0 1
-2.768024 -24.554805 21.122148 32.507623 1.458542 0.863528 0.140257 -0.045043 407461.000000 0 0 1
-1.363424 -24.680405 21.364448 32.671409 1.515609 0.858044 0.087544 -0.061052 648944.000000 0 0 1
-0.782324 -23.906105 22.450248 32.804383 1.538083 0.817061 0.097973 -0.050464 529687.000000 0 0 1
-0.386524 -22.440105 22.091748 31.492111 1.553573 0.793295 0.114414 -0.061601 270619.000000 0 0 1
-1.527024 -21.659405 21.743148 30.728263 1.500411 0.784708 0.148971 -0.056377 200224.000000 0 0 1
-1.095124 -20.603505 20.910448 29.376020 1.517694 0.778710 0.154958 -0.052781 293525.000000 0 0 1
-2.228124 -19.637605 20.476148 28.458263 1.457817 0.767693 0.147227 -0.033891 -582410.000000 0 0 1
-2.862824 -18.857605 21.450448 28.704124 1.420134 0.726814 0.166396 -0.059776 48645.400000 0 0 1
-4.147724 -19.291905 21.844348 29.437336 1.359022 0.734654 0.170973 -0.063314 -490951.000000 0 0 1
-5.294424 -18.923905 20.905148 28.690945 1.297997 0.754473 0.142027 -0.060380 -935716.000000 0 0 1
-5.483124 -19.677305 19.775648 28.431272 1.299038 0.801598 0.150975 -0.055759 -179215.000000 0 0 1
-5.970624 -20.993405 20.003648 29.606036 1.293708 0.828935 0.157261 -0.051962 -214645.000000 0 0 1
-6.131924 -21.854205 18.745648 29.438174 1.297247 0.880481 0.106307 -0.050087 173658.000000 0 0 1
-6.475524 -23.203605 18.986148 30.672684 1.298646 0.903338 0.097655 -0.050826 -179665.000000 0 0 1
-6.505224 -23.771605 17.741748 30.367364 1.303681 0.946856 0.084914 -0.046948 58574.300000 0 0 1
-6.956324 -25.239805 17.726348 31.617426 1.301864 0.975624 0.078713 -0.042288 1170800.000000 0 0 1
-8.377024 -25.320505 17.958148 32.152723 1.251292 0.978188 0.085503 -0.044393 472750.000000 0 0 1
-8.906124 -26.545805 17.466548 33.001199 1.247097 1.013056 0.075948 -0.042778 -557587.000000 0 0 1
-10.404524 -26.575105 17.703148 33.584100 1.197627 1.015578 0.073849 -0.040297 -1355880.000000 0 0 1
-11.170724 -25.806905 16.817848 32.766163 1.162289 1.031807 0.080408 -0.042063 477460.000000 0 0 1
-12.561224 -25.796605 17.189548 33.447418 1.117657 1.031039 0.094686 -0.038444 950448.000000 0 0 1
-12.954224 -24.910205 18.377648 33.556940 1.091248 0.991237 0.087833 -0.045190 -1068060.000000 0 0 1
-13.032224 -23.618305 17.930348 32.390748 1.066584 0.984159 0.086404 -0.032267 46682.600000 0 0 1
-13.071624 -22.566105 18.906848 32.211261 1.045767 0.943493 0.089822 -0.042054 82818.300000 0 0 1
-11.611224 -22.236405 19.305748 31.654228 1.089569 0.914869 0.097494 -0.037366 135027.000000 0 0 1
-11.114924 -23.001705 20.344048 32.657316 1.120661 0.898281 0.105187 -0.045829 -937665.000000 0 0 1
-9.731624 -23.040505 20.380348 32.263415 1.171155 0.887070 0.120513 -0.055345 -638140.000000 0 0 1
-9.141424 -23.903605 21.539548 33.449964 1.205529 0.871168 0.121876 -0.058346 32904.200000 0 0 1
-9.002424 -23.220805 22.786048 33.755791 1.200949 0.829796 0.130060 -0.061945 41439.400000 0 0 1
-8.460024 -24.046405 23.743048 34.835814 1.232500 0.820890 0.121486 -0.062878 -416339.000000 0 0 1
-7.974824 -23.296505 24.978848 35.075174 1.240981 0.778238 0.130902 -0.050403 166102.000000 0 0 1
-7.027224 -24.077505 25.675948 35.893766 1.286825 0.773698 0.160743 -0.046551 131312.000000 0 0 1
-6.446524 -23.558305 26.858248 36.303125 1.303694 0.737974 0.171017 -0.058744 -31556.300000 0 0 1
-5.201324 -24.227905 27.482748 37.004684 1.359323 0.733728 0.199955 -0.056654 -62709.500000 0 0 1
-4.051324 -24.118405 26.710748 36.215670 1.404374 0.741366 0.187838 -0.050735 354630.000000 0 0 1
-2.841424 -23.909405 27.478048 36.534593 1.452510 0.719538 0.175470 -0.040931 1222890.000000 0 0 1
-1.610424 -23.457705 26.657448 35.545421 1.502252 0.722803 0.148547 -0.033528 -590036.000000 0 0 1
-1.715524 -22.132705 26.160148 34.309663 1.493440 0.703672 0.140771 -0.035882 -84801.800000 0 0 1
-0.454024 -21.611005 25.813448 33.668617 1.549790 0.697124 0.128929 -0.036573 888605.000000 0 0 1
0.581776 -21.298705 26.992048 34.388137 -1.543488 0.668224 0.100277 -0.017721 188155.000000 0 0 1
1.134276 -22.492005 27.504748 35.548390 -1.520409 0.686093 0.096966 -0.024626 -532635.000000 0 0 1
1.991776 -22.184805 28.556248 36.215909 -1.481255 0.662430 0.073882 -0.030476 -464527.000000 0 0 1
2.474276 -23.454705 29.273848 37.592598 -1.465693 0.678184 0.101675 -0.037482 -874193.000000 0 0 1
3.345476 -24.225405 28.508048 37.560235 -1.433566 0.709027 0.081688 -0.044567 -172762.000000 0 0 1
3.860776 -25.359505 29.127548 38.812680 -1.419715 0.722031 0.083576 -0.025113 326989.000000 0 0 1
5.051476 -25.016705 30.160848 39.509868 -1.371551 0.702274 0.068154 -0.031123 1174710.000000 0 0 1
6.267676 -24.522605 29.580648 38.931435 -1.320566 0.707769 0.081470 -0.035287 764652.000000 0 0 1
7.036176 -25.515905 28.918348 39.202551 -1.301727 0.741191 0.061267 -0.028073 -97299.200000 0 0 1
8.413576 -25.017705 28.363748 38.745013 -1.246374 0.749453 0.059153 -0.025286 495305.000000 0 0 1
8.353776 -24.071105 27.330148 37.364966 -1.236756 0.750368 0.064969 -0.033187 22030.100000 0 0 1
9.618776 -23.941605 26.710348 37.137097 -1.188774 0.768094 0.075000 -0.020065 -29377.600000 0 0 1
9.686276 -23.064505 25.475148 35.704040 -1.173198 0.776303 0.095064 -0.018739 305306.000000 0 0 1
8.743976 -23.470505 24.472848 35.017739 -1.214174 0.796980 0.076316 -0.016923 419391.000000 0 0 1
8.378776 -22.320105 23.686748 33.607336 -1.211683 0.788643 0.083214 -0.028345 223270.000000 0 0 1
7.623676 -22.708905 22.380848 32.782879 -1.246906 0.819346 0.080163 -0.024636 -343676.000000 0 0 1
8.426576 -23.373405 21.499848 32.856761 -1.224781 0.857473 0.068307 -0.019652 -457516.000000 0 0 1
7.789276 -23.530205 20.247448 32.004727 -1.251117 0.885840 0.086315 -0.016842 -251646.000000 0 0 1
8.612976 -24.260905 19.202648 32.117232 -1.229661 0.929927 0.122109 -0.031421 15180.000000 0 0 1
9.733976 -23.482105 18.771348 31.599415 -1.177829 0.934723 0.125658 -0.028649 140317.000000 0 0 1
10.482776 -24.304805 17.882648 31.943720 -1.163598 0.976631 0.138516 -0.036543 -400723.000000 0 0 1
11.861676 -23.820305 17.456748 31.825215 -1.108778 0.990204 0.119969 -0.036593 -335454.000000 0 0 1
11.813876 -22.670705 16.674648 30.521671 -1.090406 0.992830 0.125166 -0.025666 -684844.000000 0 0 1
13.051176 -22.449105 16.083148 30.544446 -1.044190 1.016260 0.114333 -0.029696 -430147.000000 0 0 1
-12.463424 22.283435 11.076248 27.831128 -1.060831 1.161482 0.069546 -0.025346 -173969.000000 0 0 1
-13.566824 21.395135 11.002848 27.620159 -1.005674 1.161065 0.060137 -0.036653 90879.700000 0 0 1
-13.281624 20.092235 10.454948 26.256530 -0.986704 1.161259 0.088931 -0.044520 82266.200000 0 0 1
-14.362924 19.551935 9.469648 26.043156 -0.937222 1.198652 0.104129 -0.042480 -248268.000000 0 0 1
-14.398924 20.335735 8.277248 26.256123 -0.954681 1.250076 0.111814 -0.044590 -312568.000000 0 0 1
-15.068324 19.788435 7.195448 25.892297 -0.919994 1.289190 0.107154 -0.039414 718402.000000 0 0 1
-16.641724 19.731035 7.175748 26.790896 -0.870130 1.299643 0.103390 -0.035639 695589.000000 0 0 1
-17.209324 18.878235 8.178248 26.822236 -0.831611 1.260957 0.097749 -0.039814 -238469.000000 0 0 1
-18.601724 18.819035 8.067748 27.663492 -0.791205 1.274857 0.103184 -0.033297 -428460.000000 0 0 1
-19.292924 17.702335 8.935248 27.666374 -0.742430 1.241936 0.091524 -0.029432 52802.200000 0 0 1
-19.188624 16.372435 8.479248 26.611230 -0.706370 1.246508 0.099943 -0.034356 257592.000000 0 0 1
-19.691824 15.421335 9.394048 26.717666 -0.664372 1.211512 0.097630 -0.039108 -194144.000000 0 0 1
-18.620224 14.963235 10.409548 26.057050 -0.676933 1.159835 0.086481 -0.029516 -512227.000000 0 0 1
-17.643024 14.176835 9.859248 24.687319 -0.676894 1.159972 0.069208 -0.013106 -489774.000000 0 1 0
-16.781624 13.464235 10.717448 24.036893 -0.676154 1.108645 0.064716 -0.020428 28808.800000 0 1 0
-17.431624 12.311435 11.476548 24.231057 -0.614922 1.077389 0.054284 -0.014514 -153089.000000 0 1 0
-18.191224 11.401935 10.669848 23.974370 -0.559880 1.109564 0.042069 -0.012379 454296.000000 0 1 0
-19.115724 10.719235 11.525148 24.761703 -0.511063 1.086662 0.056431 -0.009066 276199.000000 0 1 0
-20.150824 9.846835 10.746148 24.869571 -0.454532 1.123976 0.060264 -0.008297 -105644.000000 0 1 0
-19.671824 8.763035 9.957048 23.725814 -0.419073 1.137713 0.050872 -0.009730 266136.000000 0 1 0
-19.214924 9.154335 8.647148 22.973644 -0.444605 1.184895 0.063264 -0.013383 -553146.000000 0 1 0
-20.270924 9.228535 7.534648 23.512702 -0.427219 1.244592 0.086202 -0.019458 -173147.000000 0 1 0
-20.623124 7.912635 7.124048 23.209375 -0.366357 1.258813 0.068675 -0.025909 224344.000000 0 1 0
-21.208624 7.814835 5.885248 23.356231 -0.353037 1.316073 0.078737 -0.032451 -318580.000000 0 1 0
-21.466324 6.405535 5.292148 23.018271 -0.289988 1.338810 0.099258 -0.031331 -224587.000000 0 1 0
-22.499624 5.681535 5.941748 23.954484 -0.247346 1.320136 0.137414 -0.032032 365746.000000 0 1 0
-22.387824 4.295335 5.729848 23.505228 -0.189557 1.324546 0.160463 -0.047875 -1027350.000000 0 1 0
-23.679924 3.520235 5.717748 24.613482 -0.147578 1.336353 0.205452 -0.040897 -740395.000000 0 1 0
-24.541824 3.834935 4.621248 25.265862 -0.155008 1.386856 0.212582 -0.045135 288573.000000 0 0 1
-25.664464 2.976235 4.711648 26.262565 -0.115451 1.390414 0.229765 -0.048001 -102682.000000 0 0 1
-26.874184 3.267535 3.796848 27.337056 -0.120992 1.431456 0.239693 -0.051184 19495.600000 0 0 1
-26.707264 3.051635 2.393048 26.987351 -0.113769 1.482007 0.241271 -0.049495 -274619.000000 0 0 1
-27.952144 3.057135 1.768248 28.174370 -0.108937 1.507994 0.231694 -0.045397 -357173.000000 0 0 1
-27.850354 3.135835 0.213648 28.027154 -0.112124 1.563173 0.256610 -0.044708 -332707.000000 0 0 1
-27.490214 4.456135 -0.194052 27.849716 -0.160701 1.577764 0.266869 -0.049967 62590.300000 0 0 1
-27.539084 4.697335 -1.572652 27.981053 -0.168944 1.627030 0.310763 -0.042731 431913.000000 0 0 1
-28.961184 4.864135 -2.219752 29.450591 -0.166401 1.646240 0.276200 -0.051243 636774.000000 0 0 1
-29.652014 3.630135 -2.241952 29.957406 -0.121818 1.645704 0.219643 -0.051040 -701373.000000 0 0 1
-31.014764 3.750935 -2.007952 31.305223 -0.120356 1.634982 0.173654 -0.021594 -1010550.000000 0 0 1
-31.729344 2.396835 -2.202452 31.895876 -0.075397 1.639903 0.132765 -0.015679 -359338.000000 0 0 1
-32.051164 2.080035 -3.550252 32.314207 -0.064806 1.680885 0.125269 -0.030409 554587.000000 0 0 1
-32.705404 0.835435 -3.784452 32.934230 -0.025539 1.685960 0.135691 -0.039753 -75235.500000 0 0 1
-32.834754 0.494135 -5.288852 33.261648 -0.015048 1.730482 0.140236 -0.029526 93571.300000 0 0 1
-31.562614 0.352635 -5.934652 32.117644 -0.011172 1.756643 0.169173 -0.046514 637223.000000 0 0 1
-31.533134 -0.301465 -7.229952 32.352769 0.009560 1.796172 0.189860 -0.048387 -271237.000000 0 0 1
-32.032254 0.539235 -8.430052 33.127358 -0.016833 1.828100 0.179555 -0.041435 659536.000000 0 0 1
-33.465654 0.672635 -8.388052 34.507418 -0.020097 1.816336 0.169244 -0.034907 1016810.000000 0 0 1
-33.893454 1.536935 -9.465552 35.223928 -0.045315 1.842865 0.174022 -0.029240 120075.000000 0 0 1
-35.428737 1.687435 -9.340952 36.678280 -0.047593 1.828305 0.173924 -0.027132 58442.600000 0 0 1
-35.777441 2.480635 -8.238552 36.797454 -0.069224 1.796599 0.141678 -0.022123 417783.000000 0 0 1
-37.145654 2.354735 -7.874852 38.044155 -0.063307 1.779296 0.147856 -0.016167 203394.000000 0 0 1
-37.476944 3.312735 -6.661652 38.208287 -0.088165 1.746043 0.162001 -0.017725 -353879.000000 0 0 1
36.719696 3.210635 -6.410552 37.413091 0.087215 1.742991 0.170995 -0.020658 -146281.000000 0 0 1
36.357406 3.737735 -5.155452 36.910843 0.102445 1.710928 0.173312 -0.020741 -267940.000000 0 0 1
34.911566 3.459535 -4.740352 35.401366 0.098772 1.705103 0.205240 -0.027116 -242322.000000 0 0 1
34.697176 2.110935 -4.265852 35.022101 0.060764 1.692904 0.193974 -0.028747 260187.000000 0 0 1
33.381116 1.631335 -4.510252 33.723916 0.048831 1.704939 0.226498 -0.038371 381549.000000 0 0 1
33.194916 0.401235 -3.559252 33.387598 0.012087 1.677603 0.267377 -0.038103 -158655.000000 0 0 1
34.034636 -0.659365 -3.874652 34.260825 -0.019371 1.684132 0.179626 -0.032229 -9451.070000 0 0 1
33.669856 -1.757965 -3.036652 33.852192 -0.052164 1.660620 0.191892 -0.034487 164148.000000 0 0 1
34.735746 -2.867665 -3.067852 34.988673 -0.082370 1.658590 0.158713 -0.024443 99784.000000 0 0 1
34.380676 -3.994065 -2.333152 34.690446 -0.115653 1.638103 0.170143 -0.033625 818199.000000 0 0 1
35.504866 -4.891565 -2.352952 35.917395 -0.136910 1.636353 0.204476 -0.035374 669965.000000 0 0 1
35.158856 -6.169365 -1.518452 35.728307 -0.173703 1.613309 0.250320 -0.052678 -2107.430000 0 0 1
35.382236 -5.994565 -0.153052 35.886778 -0.167829 1.575061 0.247407 -0.073448 32474.500000 0 0 1
35.243056 -7.204365 0.615248 35.977137 -0.201641 1.553694 0.258272 -0.064867 -986166.000000 0 0 1
34.051566 -7.294465 1.512548 34.856938 -0.211029 1.527390 0.267044 -0.056327 -772873.000000 0 0 1
32.866826 -7.645065 0.815448 33.754114 -0.228543 1.546635 0.232394 -0.041531 1458350.000000 0 0 1
31.620786 -7.510265 1.560048 32.537854 -0.233190 1.522832 0.276985 -0.054200 477192.000000 0 0 1
31.268326 -8.668765 2.530948 32.546296 -0.270446 1.492953 0.228907 -0.048970 -786983.000000 0 0 1
30.269566 -9.536865 2.113448 31.806683 -0.305219 1.504301 0.212690 -0.047395 74516.500000 0 0 1
28.946166 -9.034865 2.178748 30.401583 -0.302545 1.499069 0.223793 -0.047541 -1046220.000000 0 0 1
27.872666 -10.140065 1.924648 29.722225 -0.348915 1.505996 0.173496 -0.040270 48319.400000 0 0 1
26.572566 -9.797765 2.445548 28.426716 -0.353251 1.484660 0.146610 -0.045840 1142690.000000 0 0 1
25.793966 -8.859865 1.759448 27.329865 -0.330860 1.506374 0.162572 -0.044115 -960384.000000 0 0 1
25.313366 -9.276065 0.355848 26.961797 -0.351253 1.557598 0.137467 -0.037287 -1066430.000000 0 0 1
26.325566 -9.406765 -0.655452 27.963409 -0.343185 1.594238 0.144363 -0.046468 626581.000000 0 0 1
25.929466 -9.657265 -2.031352 27.743943 -0.356528 1.644080 0.116272 -0.041281 -189853.000000 0 0 1
25.110866 -10.975665 -2.312052 27.502116 -0.412065 1.654964 0.104132 -0.031480 301540.000000 0 0 1
23.837766 -11.051965 -1.704452 26.330404 -0.434133 1.635575 0.078152 -0.009527 47065.500000 0 0 1
23.388066 -12.363365 -1.746852 26.512373 -0.486279 1.636732 0.072108 -0.006448 -748096.000000 0 0 1
21.895766 -12.546165 -1.482152 25.278995 -0.520326 1.629462 0.073824 -0.012739 -108164.000000 0 0 1
21.057666 -12.054365 -2.569952 24.399542 -0.519912 1.676320 0.080095 -0.005047 -1051290.000000 0 1 0
19.768666 -12.187965 -2.166052 23.324631 -0.552485 1.663796 0.092018 -0.012539 -1398530.000000 0 1 0
18.757966 -11.645465 -3.238052 22.315087 -0.555593 1.716416 0.082177 -0.006172 91421.800000 0 1 0
18.619966 -12.507365 -4.353352 22.849266 -0.591491 1.762493 0.080096 -0.009185 203303.000000 0 1 0
18.152066 -11.762865 -5.421152 22.299134 -0.574981 1.816368 0.092528 -0.002167 -225736.000000 0 1 0
18.253066 -12.481365 -6.809252 23.137087 -0.599767 1.869520 0.101007 -0.009217 12878.000000 0 1 0
17.258466 -13.480065 -7.050352 23.005961 -0.663091 1.882266 0.081803 -0.013997 441030.000000 0 1 0
17.685366 -14.506865 -7.917552 24.205556 -0.686982 1.904026 0.091137 -0.015177 -707902.000000 0 1 0
16.702066 -15.513365 -8.508252 24.331335 -0.748516 1.928029 0.078653 -0.020894 -713729.000000 0 1 0
15.890466 -14.980465 -9.496752 23.814062 -0.755929 1.980991 0.106891 -0.006408 -215272.000000 0 1 0
15.201166 -15.990565 -10.177352 24.297162 -0.810701 2.002997 0.088930 -0.006329 -294478.000000 0 1 0
14.351366 -15.564565 -11.385052 24.038236 -0.825930 2.064196 0.083669 -0.026079 -838890.000000 0 1 0
13.252166 -14.769265 -11.132852 22.752834 -0.839486 2.082078 0.078322 -0.028996 -463217.000000 0 1 0
13.550366 -13.368165 -10.922752 21.945996 -0.778630 2.091753 0.080578 -0.019156 -264158.000000 0 1 0
13.704566 -12.509765 -12.226252 22.221399 -0.739852 2.153402 0.100419 -0.016834 -26812.200000 0 1 0
14.832366 -12.780465 -13.032652 23.519978 -0.711225 2.158090 0.111042 -0.015224 43024.600000 0 1 0
14.690866 -12.276865 -14.380952 23.944827 -0.696122 2.215031 0.132880 -0.014640 -295110.000000 0 1 0
15.957666 -11.611665 -14.929252 24.745917 -0.629046 2.218431 0.147634 -0.028445 -19734.800000 0 1 0
16.962466 -12.520365 -15.342652 26.074542 -0.635856 2.199893 0.143386 -0.031356 328464.000000 0 0 1
18.033466 -11.879465 -16.040452 26.900254 -0.582499 2.209673 0.142008 -0.018851 625873.000000 0 0 1
19.153766 -12.961065 -16.296852 28.292107 -0.594906 2.184649 0.115895 -0.017304 116121.000000 0 0 1
19.906966 -13.263965 -15.143752 28.311716 -0.587747 2.135178 0.093586 -0.025389 -410720.000000 0 0 1
20.789366 -14.324565 -15.367452 29.555870 -0.603328 2.117584 0.068544 -0.021353 -492494.000000 0 0 1
21.901766 -14.333965 -14.299852 29.826761 -0.579508 2.070802 0.073896 -0.024022 -152551.000000 0 0 1
22.863666 -13.358465 -14.648652 30.261837 -0.528770 2.076089 0.084515 -0.012888 -550082.000000 0 0 1
23.806166 -13.183165 -13.638452 30.439066 -0.505734 2.035388 0.105560 -0.018267 28990.400000 0 0 1
24.667466 -11.935865 -13.775152 30.670891 -0.450661 2.036585 0.118506 -0.014873 -419661.000000 0 0 1
23.974266 -10.847565 -13.190752 29.435200 -0.424904 2.035467 0.114371 -0.004869 241385.000000 0 0 1
24.647066 -9.587065 -13.113652 29.518766 -0.370965 2.031131 0.125878 -0.013731 427358.000000 0 0 1
25.839166 -9.484165 -12.124552 30.076845 -0.351779 1.985719 0.137349 -0.015302 539635.000000 0 0 1
27.054066 -10.175165 -12.375352 31.442102 -0.359739 1.975332 0.131822 -0.025239 35137.200000 0 0 1
27.984566 -9.859765 -11.392452 31.782682 -0.338748 1.937402 0.129528 -0.020319 -1280950.000000 0 0 1
29.349766 -10.457765 -11.574452 33.237652 -0.342290 1.926482 0.143648 -0.030315 -584685.000000 0 0 1
30.022466 -9.908365 -12.725052 34.080069 -0.318776 1.953454 0.129989 -0.028672 -426467.000000 0 0 1
31.318146 -10.391165 -12.842152 35.407957 -0.320364 1.941950 0.133778 -0.028311 -689095.000000 0 0 1
32.081336 -9.965365 -14.132352 36.445082 -0.301179 1.969009 0.120069 -0.020684 -57265.600000 0 0 1
31.453656 -10.321765 -15.347052 36.488399 -0.317085 2.004904 0.102139 -0.018503 303641.000000 0 0 1
32.288046 -10.060765 -16.470552 37.616698 -0.302059 2.024005 0.079912 -0.022951 320187.000000 0 0 1
31.737796 -10.821665 -17.784552 37.956375 -0.328609 2.058448 0.054685 -0.013057 429274.000000 0 0 1
30.585166 -10.304965 -18.414552 37.158315 -0.324981 2.089287 0.062874 -0.008853 184118.000000 0 0 1
30.661476 -8.979865 -18.900552 37.121354 -0.284904 2.105000 0.049821 -0.010706 -283346.000000 0 0 1
29.246966 -8.608965 -19.392952 36.132892 -0.286269 2.137332 0.021107 -0.015192 204644.000000 0 0 1
28.744966 -9.346565 -20.537752 36.543544 -0.314372 2.167607 0.018143 -0.007695 383502.000000 0 0 1
27.427866 -8.891165 -20.793352 35.548616 -0.313477 2.195587 0.047979 -0.009413 9043.250000 0 0 1
26.863566 -9.316265 -22.177952 36.059749 -0.333821 2.233225 0.067183 -0.014510 -72146.600000 0 0 1
26.520766 -10.703765 -22.140352 36.167897 -0.383605 2.229579 0.067850 -0.010659 -156457.000000 0 0 1
25.959266 -10.953465 -23.376252 36.610258 -0.399283 2.263365 0.094057 -0.016768 -922452.000000 0 0 1
26.047466 -12.497065 -23.654952 37.339039 -0.447342 2.256888 0.088129 -0.006676 305437.000000 0 0 1
27.215266 -12.942965 -24.273952 38.696457 -0.443919 2.248867 0.079182 -0.005430 -580797.000000 0 0 1
28.461566 -12.790265 -23.659152 39.158742 -0.422344 2.219540 0.046499 0.002141 -515777.000000 0 0 1
29.616466 -13.442765 -24.435452 40.680883 -0.426088 2.215125 0.032517 0.008954 -104348.000000 0 0 1
30.316366 -12.727465 -25.411602 41.555023 -0.397476 2.228773 0.046232 -0.003293 2187690.000000 0 0 1
31.751786 -13.090865 -25.351332 42.687664 -0.391054 2.206669 0.006593 -0.005749 2498340.000000 0 0 1
32.625636 -12.575865 -26.564302 43.911805 -0.367909 2.220495 0.034383 -0.006487 116051.000000 0 0 1
32.349956 -13.310565 -27.802222 44.683938 -0.390343 2.242343 0.045251 -0.018324 647469.000000 0 0 1
33.333756 -13.067365 -28.829212 45.967584 -0.373605 2.248703 0.042633 -0.029101 571189.000000 0 0 1
33.015686 -13.817865 -30.138762 46.790104 -0.396373 2.270678 0.068213 -0.036039 82094.700000 0 0 1
33.142166 -15.228365 -30.093252 47.285411 -0.430715 2.260641 0.067624 -0.024284 -15247.300000 0 0 1
33.784906 -15.672665 -31.260572 48.623818 -0.434349 2.269083 0.070192 -0.028171 -134739.000000 0 0 1
32.813546 -16.386765 -32.187762 48.798636 -0.463160 2.291088 0.054109 -0.019048 -171585.000000 0 0 1
31.980596 -15.531865 -32.918862 48.452542 -0.452114 2.317747 0.056383 -0.022229 -463307.000000 0 0 1
30.907176 -16.260165 -33.431412 48.345690 -0.484306 2.334370 0.044065 -0.018620 -36849.300000 0 0 1
29.874366 -15.496765 33.286893 47.335449 -0.478520 0.790890 0.063389 -0.018312 406246.000000 0 0 1
29.125566 -14.431165 -33.686922 46.812026 -0.460026 2.374053 0.070623 -0.025009 700830.000000 0 0 1
29.853166 -13.208965 -33.609022 46.853544 -0.416570 2.370746 0.086901 -0.026764 -526282.000000 0 0 1
28.948566 -12.089065 -33.115942 45.616122 -0.395590 2.383240 0.092386 -0.019836 -176891.000000 0 0 1
28.055566 -11.621465 33.519147 45.229487 -0.392713 0.736103 0.094541 -0.031869 -478618.000000 0 0 1
27.257066 -10.631265 -33.487612 44.467871 -0.371888 2.423519 0.058951 -0.030408 -52114.600000 0 0 1
21.978776 -29.330105 8.659048 37.660334 -0.927706 1.338796 0.056383 -0.021440 -116612.000000 0 0 1
22.499776 -28.751305 7.555348 37.282177 -0.906777 1.366730 0.070665 -0.025285 -277216.000000 0 0 1
23.664376 -29.428405 7.141948 38.432293 -0.893540 1.383878 0.069520 -0.024349 -39609.500000 0 0 1
24.175476 -28.919205 5.765948 38.131617 -0.874506 1.419002 0.061518 -0.022204 -69785.200000 0 0 1
24.385276 -27.538605 5.651148 37.214942 -0.846054 1.418355 0.053545 -0.006561 147638.000000 0 0 1
25.082276 -27.369905 4.423548 37.387164 -0.828984 1.452201 0.043443 -0.000784 -46043.800000 0 0 1
25.283176 -25.860405 4.102048 36.398164 -0.796684 1.457857 0.042025 -0.004254 2108.150000 0 0 1
26.017876 -25.135105 5.063248 36.528617 -0.768142 1.431738 0.044423 -0.006393 6486.580000 0 0 1
25.952276 -23.804205 4.730848 35.532263 -0.742253 1.437257 0.040260 -0.002833 -3202.370000 0 0 1
26.797676 -22.846805 5.581948 35.654594 -0.705982 1.413593 0.044500 -0.011249 997445.000000 0 0 1
28.236876 -22.929605 5.425248 36.776640 -0.682042 1.422737 0.052531 -0.007862 1700850.000000 0 0 1
29.005376 -22.104405 6.370648 37.020288 -0.651187 1.397850 0.057891 -0.009658 344644.000000 0 0 1
28.685476 -20.591005 6.487648 35.901749 -0.622586 1.389092 0.072246 -0.004081 -555371.000000 0 0 1
28.821776 -19.887705 5.263848 35.410785 -0.603999 1.421592 0.073054 0.004466 66911.200000 0 0 1
28.309376 -18.571405 5.333948 34.274901 -0.580593 1.414539 0.094149 0.006363 -36157.000000 0 0 1
28.545676 -17.617105 4.100048 33.793911 -0.552938 1.449172 0.111496 0.011196 -404222.000000 0 0 1
29.884576 -17.262705 3.927148 34.734872 -0.523821 1.457493 0.108449 0.009259 -384707.000000 0 0 1
30.046876 -16.427005 2.804948 34.358827 -0.500316 1.489068 0.121562 0.014915 49043.500000 0 0 1
31.201376 -15.414805 2.926248 34.924275 -0.458870 1.486910 0.133953 -0.008725 33722.600000 0 0 1
30.968876 -14.386705 3.870248 34.366079 -0.434891 1.457939 0.148565 -0.013809 637659.000000 0 0 1
32.212376 -13.868805 4.337848 35.338334 -0.406556 1.447734 0.145051 -0.024600 462374.000000 0 0 1
31.878976 -12.818105 5.389348 34.779563 -0.382304 1.415212 0.152804 -0.035331 183697.000000 0 0 1
31.312276 -13.324505 6.605548 34.664597 -0.402325 1.379068 0.122548 -0.041803 231535.000000 0 0 1
30.703276 -12.214605 7.291148 33.838566 -0.378632 1.353625 0.117121 -0.026782 -92910.000000 0 0 1
30.388476 -12.449805 8.786748 33.995059 -0.388830 1.309357 0.147742 -0.025713 -65397.000000 0 0 1
29.387476 -13.405505 9.055848 33.546083 -0.427968 1.297453 0.128254 -0.018767 -60777.400000 0 0 1
29.006576 -13.587905 10.392248 33.675086 -0.438084 1.257072 0.157281 -0.020092 576120.000000 0 0 1
29.981876 -14.521405 11.235748 35.157163 -0.451041 1.245503 0.159444 -0.015394 758166.000000 0 0 1
31.250876 -13.992305 11.586148 36.147485 -0.420974 1.244513 0.120863 -0.001595 279986.000000 0 0 1
31.927676 -14.932905 12.400048 37.364814 -0.437484 1.232517 0.134125 -0.005221 665874.000000 0 0 1
33.010676 -14.283805 13.346448 38.364821 -0.408377 1.215485 0.121337 -0.011818 1238260.000000 0 0 1
34.340976 -14.095305 12.852948 39.283311 -0.389484 1.237472 0.093512 -0.009637 607568.000000 0 0 1
35.275276 -14.084605 13.912248 40.450857 -0.379883 1.219698 0.072869 -0.009592 -209904.000000 0 0 1
36.717776 -14.203805 13.403648 41.588471 -0.369108 1.242646 0.102410 -0.010169 -163157.000000 0 0 1
37.229776 -12.976005 12.836648 41.463387 -0.335372 1.256035 0.134709 -0.025793 -1750390.000000 0 0 1
-37.054014 -13.033505 12.485748 41.216091 0.338227 1.263027 0.138144 -0.018536 -2189270.000000 0 0 1
-36.587014 -11.688205 11.927248 40.217944 0.309216 1.269702 0.147856 -0.038865 -592149.000000 0 0 1
-35.237414 -11.722505 11.591748 38.903228 0.321155 1.268238 0.129850 -0.037936 -750594.000000 0 0 1
-34.493314 -10.600905 11.991748 38.025911 0.298170 1.249963 0.116931 -0.045583 53607.300000 0 0 1
-33.097514 -10.583905 11.300948 36.540059 0.309503 1.256365 0.125938 -0.047615 753068.000000 0 0 1
-32.170314 -11.599905 11.790748 36.173314 0.346067 1.238778 0.108068 -0.041718 489589.000000 0 0 1
-32.396114 -12.874705 11.226348 36.623724 0.378276 1.259249 0.117612 -0.035788 -926029.000000 0 0 1
-31.362714 -13.970105 11.435148 36.187654 0.419053 1.249290 0.078610 -0.029883 656714.000000 0 0 1
-30.100014 -13.776205 10.756848 34.806673 0.429223 1.256607 0.093256 -0.032862 433519.000000 0 0 1
-29.305714 -14.908505 10.948748 34.654920 0.470602 1.249353 0.093180 -0.014894 370223.000000 0 0 1
-28.025614 -14.794505 10.032348 33.240945 0.485712 1.264209 0.103095 -0.012661 363963.000000 0 0 1
-28.286914 -14.942905 8.678548 33.147506 0.486001 1.305893 0.121138 -0.029242 623373.000000 0 0 1
-27.124014 -14.801005 7.850848 31.881307 0.499520 1.321985 0.098046 -0.023883 509637.000000 0 0 1
-27.534314 -14.802205 6.346548 31.898627 0.493266 1.370500 0.134116 -0.022803 70588.800000 0 0 1
-27.979914 -16.085405 5.921748 32.812847 0.521752 1.389332 0.142857 -0.004747 206588.000000 0 0 1
-28.009014 -16.090505 4.499848 32.613768 0.521440 1.432381 0.150252 -0.003572 -230315.000000 0 0 1
-28.970114 -17.152805 3.961648 33.899571 0.534580 1.453664 0.128975 -0.008905 -503115.000000 0 0 1
-30.333714 -16.859105 4.053748 34.939899 0.507276 1.454514 0.096268 -0.028437 -590982.000000 0 0 1
-31.020914 -18.017005 3.694348 36.063247 0.526184 1.468175 0.111138 -0.016432 -433038.000000 0 0 1
-32.537214 -17.967605 3.935848 37.376410 0.504544 1.465298 0.153723 -0.035531 -358955.000000 0 0 1
-33.202614 -17.029005 3.162848 37.448688 0.473900 1.486237 0.213211 -0.043969 -649597.000000 0 0 1
-34.510514 -16.901305 3.652348 38.600121 0.455409 1.476034 0.222364 -0.038261 -261336.000000 0 0 1
-35.374114 -15.887905 2.854748 38.883198 0.422138 1.497312 0.220536 -0.052259 178514.000000 0 0 1
-35.747414 -16.337405 1.574448 39.335319 0.428679 1.530759 0.213152 -0.048337 -322004.000000 0 0 1
-36.621514 -15.514105 0.878348 39.781833 0.400713 1.548715 0.237418 -0.046983 -58415.400000 0 0 1
-37.050414 -16.138305 -0.505352 40.415758 0.410795 1.583300 0.199153 -0.039841 426908.000000 0 0 1
-35.863614 -16.331405 -1.276852 39.427706 0.427315 1.603187 0.201437 -0.031161 856007.000000 0 0 1
-36.141214 -17.256905 -2.325352 40.117271 0.445474 1.628793 0.163346 -0.016210 -188640.000000 0 0 1
-34.858114 -17.867505 -2.890652 39.277115 0.473659 1.644459 0.139451 -0.011513 -617962.000000 0 0 1
-35.071914 -18.811505 -3.885952 39.987654 0.492318 1.668129 0.125321 -0.010331 -185721.000000 0 0 1
-33.971914 -19.509405 -4.420252 39.423933 0.521293 1.683154 0.132130 -0.012839 -361463.000000 0 0 1
-34.386414 -20.465605 -5.568252 40.401385 0.536857 1.709060 0.136488 -0.015197 -215116.000000 0 0 1
-35.115514 -21.528605 -5.058552 41.499026 0.549981 1.692996 0.132330 -0.018144 -158670.000000 0 0 1
-35.311014 -22.524605 -6.057352 42.319228 0.567816 1.714424 0.114411 -0.008653 165324.000000 0 0 1
-36.056714 -23.787705 -5.579652 43.555414 0.583185 1.699254 0.120003 -0.012830 283868.000000 0 0 1
-35.190414 -24.645805 -4.867452 43.237403 0.610965 1.683610 0.140555 -0.015049 -259459.000000 0 0 1
-35.833914 -25.806705 -4.476352 44.385731 0.624139 1.671819 0.122976 -0.011244 602673.000000 0 0 1
-34.802114 -26.877505 -3.924452 44.147353 0.657618 1.659808 0.107471 -0.012423 70626.400000 0 0 1
-33.918514 -27.390405 -4.940852 43.876097 0.679319 1.683645 0.094446 -0.010247 546797.000000 0 0 1
-33.166214 -28.532705 -4.495652 43.980949 0.710440 1.673193 0.095970 -0.018613 639796.000000 0 0 1
-32.014914 -28.211105 -3.470052 42.811943 0.722323 1.651939 0.109829 -0.031781 -329229.000000 0 0 1
-32.523514 -27.899205 -2.176752 42.905511 0.709014 1.621552 0.109940 -0.031627 -42694.300000 0 0 1
-31.611214 -28.137605 -1.123852 42.335053 0.727327 1.597346 0.108738 -0.035516 -3442.220000 0 0 1
-32.290014 -27.877505 0.254648 42.659878 0.712192 1.564827 0.099973 -0.026421 432504.000000 0 0 1
-33.011614 -29.056305 0.642848 43.982369 0.721759 1.556180 0.096843 -0.024810 150709.000000 0 0 1
-33.788014 -28.986205 1.821948 44.555016 0.709054 1.529893 0.101799 -0.014887 -100127.000000 0 0 1
-34.336614 -30.390205 2.249048 45.908886 0.724503 1.521787 0.088137 -0.020715 -1005770.000000 0 0 1
-35.192514 -30.185705 3.304748 46.482375 0.708965 1.499639 0.083512 -0.014618 20829.700000 0 0 1
-35.818214 -31.358405 3.900348 47.765121 0.719106 1.489048 0.072024 -0.015788 421905.000000 0 0 1
-36.752014 -32.225605 3.038048 48.973768 0.719871 1.508722 0.063776 -0.001124 -275091.000000 0 0 1
-37.651214 -33.056405 3.774148 50.245239 0.720506 1.495611 0.073403 -0.009041 230185.000000 0 0 1
36.913876 -33.507505 2.876248 49.936559 -0.737065 1.513166 0.073104 -0.008807 -839231.000000 0 0 1
35.823776 33.387535 3.614148 49.103284 0.750213 1.497127 0.076083 -0.014810 -484156.000000 0 0 1
35.048476 -33.544005 4.572748 48.728903 -0.763468 1.476817 0.060988 -0.013737 492621.000000 0 0 1
34.355676 -32.332305 4.241348 47.367493 -0.755067 1.481135 0.059838 -0.015000 -36298.600000 0 0 1
33.105376 -32.477305 3.331448 46.495589 -0.775822 1.499084 0.062700 -0.006217 -737540.000000 0 0 1
33.398076 -33.073005 2.037348 47.046848 -0.780508 1.527478 0.074329 -0.004613 42814.500000 0 0 1
32.573676 -32.647105 0.931948 46.127501 -0.786524 1.550591 0.056451 -0.003952 -89454.600000 0 0 1
33.080876 -33.318105 -0.409952 46.953259 -0.788971 1.579527 0.072471 -0.008491 791520.000000 0 0 1
34.200876 -32.796705 -1.110352 47.397855 -0.764443 1.594225 0.054939 0.002523 138940.000000 0 0 1
35.460976 -32.900505 -0.477852 48.375121 -0.747961 1.580675 0.051247 0.003118 -35035.800000 0 0 1
36.695776 -32.556405 -1.331852 49.074161 -0.725697 1.597939 0.050583 0.006416 117141.000000 0 0 1
36.972176 -33.595305 -2.275252 50.007630 -0.737582 1.616310 0.050116 -0.003551 -176700.000000 0 0 1
-37.619214 -33.167305 -3.175752 50.252968 0.722589 1.634034 0.051870 -0.009815 -390241.000000 0 0 1
-37.052714 33.350735 -4.124852 50.021891 -0.732864 1.653351 0.043988 -0.014634 101969.000000 0 0 1
-35.876814 32.821235 -3.544952 48.753933 -0.740949 1.643572 0.057757 -0.010875 150549.000000 0 0 1
-35.282814 31.801435 -4.367552 47.699935 -0.733549 1.662488 0.084001 -0.023822 1257970.000000 0 0 1
-33.922114 31.191335 -3.815852 46.240350 -0.743484 1.653412 0.104485 -0.027958 945102.000000 0 0 1
-32.766314 32.016135 -4.016352 45.986904 -0.773819 1.658245 0.112057 -0.032930 320763.000000 0 0 1
-31.568914 31.288635 -3.827152 44.611906 -0.780939 1.656690 0.155355 -0.042732 405594.000000 0 0 1
-31.093314 31.086535 -2.324952 44.029220 -0.785289 1.623626 0.139625 -0.037446 -224943.000000 0 0 1
-31.950314 30.221635 -1.567852 44.007135 -0.757601 1.606431 0.110189 -0.026374 198507.000000 0 0 1
-31.578614 30.098535 -0.149852 43.625143 -0.761406 1.574231 0.105254 -0.025079 -49336.900000 0 0 1
-32.712314 29.368935 0.567948 43.965355 -0.731595 1.557878 0.100632 -0.026149 -70418.300000 0 0 1
-32.976114 28.003935 0.176248 43.262866 -0.704040 1.566722 0.107116 -0.043962 969129.000000 0 0 1
-34.145114 27.860235 -0.678852 44.074282 -0.684383 1.586199 0.103321 -0.031471 904548.000000 0 0 1
-34.378414 26.354935 -1.168352 43.333855 -0.654049 1.597761 0.105438 -0.023561 59399.500000 0 0 1
-34.617814 25.477635 -0.117352 42.982749 -0.634461 1.573527 0.098691 -0.026426 -96094.000000 0 0 1
-34.965914 24.211335 -0.638052 42.534821 -0.605625 1.585798 0.120746 -0.027607 -350711.000000 0 0 1
-34.727314 23.088435 0.379748 41.703794 -0.586743 1.561690 0.140855 -0.034753 -85592.000000 0 0 1
-33.392514 22.893335 0.779148 40.494097 -0.600984 1.551554 0.138653 -0.043390 -153497.000000 0 0 1
-33.030814 23.667035 1.928748 40.680257 -0.621723 1.523366 0.132582 -0.040503 1388940.000000 0 0 1
-31.471014 23.535235 2.337048 39.367421 -0.642116 1.511396 0.113312 -0.045914 1882180.000000 0 0 1
-30.649214 24.376635 1.572948 39.192714 -0.671895 1.530652 0.128493 -0.041467 -296635.000000 0 0 1
-30.520114 25.750635 2.046248 39.984493 -0.700841 1.519598 0.093754 -0.040175 -639363.000000 0 0 1
-29.914114 26.572435 0.933948 40.022753 -0.726308 1.547459 0.091307 -0.041795 268205.000000 0 0 1
-28.628014 26.143535 0.517148 38.772607 -0.740068 1.557458 0.095349 -0.041013 23678.700000 0 0 1
-28.105314 27.015135 -0.482852 38.986656 -0.765623 1.583182 0.103642 -0.036802 687729.000000 0 0 1
-26.819814 26.497135 -1.211352 37.720922 -0.779346 1.602915 0.109555 -0.037954 349734.000000 0 0 1
-27.126414 25.373235 -2.075252 37.201479 -0.752016 1.626609 0.135103 -0.047027 883468.000000 0 0 1
-25.982614 24.955435 -2.882952 36.141132 -0.765236 1.650650 0.124306 -0.030016 1436620.000000 0 0 1
-25.015214 23.983935 -2.134352 34.720967 -0.764354 1.632307 0.090459 -0.023848 238009.000000 0 0 1
-25.647114 22.789635 -1.819152 34.357696 -0.726472 1.623769 0.100171 -0.023494 215804.000000 0 0 1
-24.665614 21.881335 -1.297052 32.997995 -0.725653 1.610113 0.090842 -0.029145 152006.000000 0 0 1
-25.228814 20.479535 -0.915552 32.507578 -0.681866 1.598964 0.105330 -0.032749 -581617.000000 0 0 1
-26.015314 20.289135 0.267048 32.992679 -0.662359 1.562702 0.110371 -0.029634 578393.000000 0 0 1
-27.308714 20.876035 0.355648 34.375881 -0.652683 1.560450 0.103630 -0.030946 467084.000000 0 0 1
-28.302514 20.405535 -0.753352 34.899652 -0.624668 1.592384 0.121933 -0.044204 -1143880.000000 0 0 1
-28.762014 19.070035 -0.594852 34.514831 -0.585480 1.588032 0.132391 -0.051031 -168585.000000 0 0 1
-29.606714 18.837135 -1.680752 35.131469 -0.566645 1.618656 0.153187 -0.048270 -360945.000000 0 0 1
-30.115614 17.401735 -1.691352 34.822856 -0.523959 1.619386 0.145848 -0.039665 -192727.000000 0 0 1
-30.927814 17.165235 -0.565652 35.376475 -0.506681 1.586786 0.136184 -0.036513 -96921.600000 0 0 1
-31.246014 15.810135 -0.409452 35.020586 -0.468427 1.582488 0.143643 -0.050499 -368164.000000 0 0 1
-30.119014 14.887135 0.069248 33.597420 -0.459059 1.568735 0.187424 -0.050185 -301850.000000 0 0 1
-29.865714 15.030435 1.446348 33.465905 -0.466258 1.527564 0.204737 -0.045618 829798.000000 0 0 1
-28.579814 14.578135 1.929448 32.141104 -0.471683 1.510730 0.241213 -0.050323 820530.000000 0 0 1
-28.444214 13.075535 2.240048 31.385678 -0.430883 1.499364 0.264279 -0.052647 -353656.000000 0 0 1
-28.434214 12.347535 1.041648 31.016950 -0.409679 1.537207 0.249739 -0.057623 212860.000000 0 0 1
-27.877214 11.059035 1.287948 30.018330 -0.377663 1.527878 0.295135 -0.060079 -119635.000000 0 0 1
-27.604314 10.195935 0.021148 29.427125 -0.353817 1.570078 0.277034 -0.056857 -537516.000000 0 0 1
-28.708614 9.830735 -0.756452 30.354573 -0.329916 1.595719 0.244112 -0.049623 -346771.000000 0 0 1
-28.357514 9.214035 -1.942752 29.880116 -0.314163 1.635860 0.265674 -0.045687 -227704.000000 0 0 1
-29.546414 8.580235 -2.714852 30.886590 -0.282625 1.658807 0.230182 -0.047331 59531.100000 0 0 1
-29.240414 7.883435 -3.927552 30.538108 -0.263346 1.699765 0.219168 -0.037512 936909.000000 0 0 1
-30.471014 7.560535 -4.610252 31.731669 -0.243211 1.716601 0.208149 -0.041646 892915.000000 0 0 1
-11.575124 18.428835 -20.468352 29.875724 -1.009972 2.325560 0.156209 -0.015698 497919.000000 0 0 1
-11.824924 17.319735 -21.300952 29.892016 -0.971747 2.363989 0.159982 -0.031209 269071.000000 0 0 1
-10.555924 16.706935 -21.541852 29.233553 -1.007301 2.399251 0.149108 -0.040816 561360.000000 0 0 1
-10.701024 15.481335 -22.508552 29.339710 -0.965987 2.445214 0.135602 -0.029071 -533534.000000 0 0 1
-9.838224 14.454335 -22.154752 28.223244 -0.973181 2.473464 0.154515 -0.041860 -399312.000000 0 0 1
-9.895724 13.352935 -23.017652 28.390818 -0.933022 2.516216 0.127903 -0.039401 -474628.000000 0 0 1
-9.049924 12.129635 -22.709352 27.289995 -0.929796 2.553769 0.116812 -0.033857 -930224.000000 0 0 1
-7.695824 12.394435 -22.889252 27.143426 -1.015144 2.574136 0.090804 -0.033932 -1122920.000000 0 0 1
-6.941824 11.358935 -22.297252 25.968861 -1.022231 2.603358 0.077544 -0.027339 62498.200000 0 0 1
-5.428724 11.663435 -22.388252 25.821320 -1.135170 2.620037 0.057996 -0.018263 76846.600000 0 0 1
-4.973024 11.416035 -23.680352 26.754736 -1.159967 2.657484 0.047467 -0.025018 932907.000000 0 0 1
-3.525924 11.424135 -23.797152 26.631700 -1.271434 2.676021 0.037277 -0.021623 1551120.000000 0 0 1
-2.923624 11.250035 -25.219382 27.769193 -1.316544 2.709708 0.064497 -0.038269 -194834.000000 0 0 1
-2.965124 9.962435 -25.740712 27.760157 -1.281515 2.757807 0.071076 -0.033339 14097.100000 0 0 1
-2.344124 9.860935 -27.016912 28.855614 -1.337410 2.782680 0.079169 -0.035187 -294686.000000 0 0 1
-2.053524 8.395735 -27.339152 28.672889 -1.330915 2.835388 0.086222 -0.017221 100185.000000 0 0 1
-1.117324 7.608235 -26.601922 27.691080 -1.424981 2.860192 0.077847 -0.024689 109199.000000 0 0 1
-1.349824 7.442835 -25.208722 26.319147 -1.391387 2.850077 0.088741 -0.038267 -301266.000000 0 0 1
-0.475324 6.379435 -24.537052 25.357248 -1.496425 2.886557 0.010968 -0.024531 1276750.000000 0 0 1
0.973876 6.567935 -24.541552 25.423886 1.423592 2.877367 0.042332 0.003504 1762320.000000 0 0 1
1.578176 5.745035 -23.514352 24.257387 1.302707 2.893444 0.025076 0.014902 229793.000000 0 1 0
1.582676 6.425435 -22.118052 23.086777 1.329290 2.850880 0.035352 0.007455 -405452.000000 0 1 0
2.416576 7.546135 -22.035652 23.416958 1.260876 2.796407 0.042251 -0.008680 -107323.000000 0 1 0
2.352976 8.215235 -20.752652 22.443243 1.291848 2.750971 0.059766 -0.009178 -120478.000000 0 1 0
3.191176 9.497735 -20.617252 22.922950 1.246654 2.689226 0.061202 -0.021984 -356380.000000 0 1 0
2.974076 10.268535 -19.482952 22.223261 1.288880 2.639738 0.063824 -0.024885 -46861.100000 0 1 0
3.540776 11.589535 -19.505952 22.963810 1.274288 2.585684 0.074020 -0.026750 156757.000000 0 1 0
4.880676 11.720235 -18.740952 22.636435 1.176206 2.546169 0.082801 -0.032092 681230.000000 0 1 0
5.925976 10.918835 -19.329652 22.977676 1.073552 2.570362 0.086974 -0.028712 -135900.000000 0 1 0
7.026276 10.834935 -18.486752 22.550485 0.995488 2.531848 0.093777 -0.015560 235639.000000 0 1 0
8.172776 9.817635 -18.862652 22.781129 0.876574 2.546318 0.131055 -0.029787 558513.000000 0 1 0
7.860776 8.428635 -18.942052 22.172844 0.820245 2.594981 0.118918 -0.027299 223708.000000 0 1 0
6.921976 8.109735 -19.982552 22.649148 0.864251 2.651449 0.086014 -0.026878 385282.000000 0 1 0
6.654876 6.554935 -20.109652 22.173242 0.777833 2.706743 0.095108 -0.028258 -31182.800000 0 1 0
7.796076 5.866435 -20.597152 22.791150 0.645090 2.699211 0.096056 -0.010566 208227.000000 0 1 0
7.585776 4.503135 -20.960652 22.741397 0.535722 2.743226 0.079843 -0.007309 -229120.000000 0 1 0
7.727476 4.373335 -22.509952 24.197890 0.515003 2.765875 0.092433 -0.016988 -537194.000000 0 1 0
6.662176 4.900835 -23.232352 24.660595 0.634235 2.799587 0.090998 -0.014347 -392693.000000 0 1 0
6.812876 4.680735 -24.585352 25.937696 0.601977 2.817254 0.091061 -0.019050 146233.000000 0 0 1
5.873076 5.633835 -25.410152 26.681622 0.764610 2.831635 0.077338 -0.018196 102057.000000 0 0 1
6.064576 7.039735 -25.365632 27.013927 0.859676 2.790459 0.078713 -0.033871 -180138.000000 0 0 1
5.788876 7.643735 -24.122852 25.958616 0.922617 2.763258 0.097344 -0.041024 -784875.000000 0 0 1
5.594376 9.191035 -24.275652 26.553332 1.024021 2.724381 0.110326 -0.053464 411225.000000 0 0 1
4.511476 9.582835 -25.105252 27.248079 1.130791 2.742358 0.101499 -0.055333 25683.800000 0 0 1
3.230976 9.425035 -24.565152 26.508813 1.240543 2.756274 0.098933 -0.037209 -212278.000000 0 0 1
2.015676 9.793335 -25.466972 27.359441 1.367810 2.767472 0.097543 -0.026065 452988.000000 0 0 1
1.915976 11.219135 -25.555652 27.975548 1.401651 2.722601 0.123351 -0.049734 -290694.000000 0 0 1
0.767476 11.517035 -26.298392 28.719967 1.504256 2.728001 0.126036 -0.057073 -430629.000000 0 0 1
0.628976 12.988635 -26.618942 29.625467 1.522409 2.687172 0.125315 -0.057329 -120940.000000 0 0 1
0.162076 13.668235 -25.465862 28.902544 1.558939 2.648967 0.114869 -0.053450 65163.800000 0 0 1
-0.068624 15.051435 -25.669382 29.756807 -1.566237 2.611260 0.124876 -0.055241 -353890.000000 0 0 1
-0.661024 15.753035 -24.470352 29.110019 -1.528859 2.569216 0.130577 -0.047607 -319185.000000 0 0 1
-1.875424 15.206535 -24.042252 28.509398 -1.448086 2.574208 0.110166 -0.042321 -355310.000000 0 0 1
-2.453524 15.921335 -22.969552 28.055463 -1.417896 2.529974 0.104361 -0.041597 -811991.000000 0 0 1
-3.575524 15.142235 -22.282552 27.176898 -1.338915 2.532046 0.085248 -0.042113 250124.000000 0 0 1
-4.917924 15.493635 -22.590252 27.830885 -1.263439 2.517848 0.089971 -0.041992 32768.000000 0 0 1
-5.319224 15.028135 -23.833552 28.673632 -1.230606 2.552061 0.091066 -0.045723 -349132.000000 0 0 1
-6.833824 15.122935 -24.174452 29.322490 -1.146376 2.539997 0.081734 -0.040398 385474.000000 0 0 1
-7.360224 16.459335 -24.279152 30.241690 -1.150293 2.502835 0.084119 -0.039580 198741.000000 0 0 1
-8.612224 16.421135 -24.946652 31.083107 -1.087773 2.502402 0.095548 -0.037985 -16553.600000 0 0 1
-9.359824 17.755935 -25.252432 32.257787 -1.085675 2.470001 0.101360 -0.032352 134622.000000 0 0 1
-9.927924 18.490535 -24.180052 32.017784 -1.078051 2.426766 0.109591 -0.037006 361994.000000 0 0 1
-11.005824 19.264435 -24.741452 33.232304 -1.051745 2.410582 0.103904 -0.024554 629288.000000 0 0 1
-11.558424 20.359835 -23.856552 33.425366 -1.054460 2.365600 0.094901 -0.025451 -437423.000000 0 0 1
-10.697624 21.451935 -23.726052 33.727588 -1.108206 2.351052 0.105621 -0.021757 -61367.600000 0 0 1
-11.128124 22.723635 -24.207552 35.017200 -1.115410 2.334089 0.095821 -0.028506 -265713.000000 0 0 1
-10.904224 22.907335 -25.709212 36.119409 -1.126521 2.362831 0.084987 -0.022820 -470221.000000 0 0 1
-11.749024 22.184235 -26.523132 36.519260 -1.083741 2.383688 0.076805 -0.020346 -225988.000000 0 0 1
-11.848424 22.709035 -27.820652 37.816320 -1.089901 2.397464 0.085371 -0.020323 9657.200000 0 0 1
-12.470224 21.660635 -28.813252 38.143061 -1.048429 2.427060 0.079309 -0.022084 669833.000000 0 0 1
-11.544824 20.660035 -29.296782 37.661936 -1.061222 2.462095 0.074052 -0.025436 419231.000000 0 0 1
-11.084824 19.727235 -28.339622 36.265290 -1.058859 2.467787 0.063742 -0.022256 -198767.000000 0 0 1
-10.092224 18.771035 -29.020882 36.005782 -1.077485 2.508170 0.063141 -0.022173 -1369530.000000 0 0 1
-8.780424 19.270435 -29.037082 35.938804 -1.143260 2.511476 0.065091 -0.025885 -209373.000000 0 0 1
-7.910124 18.393835 -29.775432 35.881466 -1.164663 2.549595 0.069404 -0.021574 452044.000000 0 0 1
-7.488524 17.122135 -29.016992 34.514219 -1.158504 2.569418 0.092145 -0.035158 -360270.000000 0 0 1
-8.571724 16.177735 -29.025222 34.317008 -1.083557 2.578854 0.068022 -0.025931 554691.000000 0 0 1
-8.278224 15.023035 -28.240542 33.041622 -1.067159 2.595761 0.079265 -0.037707 -362087.000000 0 0 1
-9.485024 14.089735 -28.130782 32.860724 -0.978293 2.598396 0.074338 -0.025928 -255421.000000 0 0 1
-10.329924 14.525535 -27.111702 32.445999 -0.952622 2.560011 0.076964 -0.031914 -137271.000000 0 0 1
-11.547324 13.816035 -26.978492 32.435514 -0.874609 2.553063 0.103042 -0.030024 233691.000000 0 0 1
-12.504124 14.321135 -25.900402 32.129097 -0.853030 2.508388 0.108600 -0.026876 -157912.000000 0 0 1
-13.119824 15.516735 -26.303142 33.237842 -0.868905 2.483829 0.098437 -0.028962 -585500.000000 0 0 1
-14.242024 15.729035 -25.473842 33.153498 -0.834972 2.447072 0.113176 -0.026161 -452578.000000 0 0 1
-15.026924 16.887435 -26.089752 34.520560 -0.843629 2.427632 0.093920 -0.021301 -169367.000000 0 0 1
-14.544724 18.254235 -25.867352 34.840867 -0.898018 2.407506 0.085294 -0.022195 145547.000000 0 0 1
-15.503024 19.168535 -26.347962 36.083121 -0.890728 2.389414 0.072423 -0.020685 67752.600000 0 0 1
-15.095524 20.676935 -26.168042 36.608427 -0.940176 2.367148 0.068038 -0.018843 770319.000000 0 0 1
-16.160024 21.594835 -26.557312 37.852002 -0.928366 2.348450 0.038758 -0.014262 970361.000000 0 0 1
-15.778524 22.998935 -26.585422 38.531772 -0.969491 2.332232 0.041633 -0.013218 -52702.500000 0 0 1
-15.330524 23.654935 -25.307042 37.881754 -0.995765 2.302386 0.015804 -0.011404 36378.000000 0 0 1
-14.906824 24.983835 -25.619142 38.765266 -1.032837 2.292785 0.038263 -0.017940 89499.200000 0 0 1
-14.415324 25.632835 -24.465852 38.254695 -1.058500 2.264711 0.053389 -0.027149 9504.140000 0 0 1
-13.686824 27.023835 -24.625052 39.038571 -1.101984 2.253364 0.070286 -0.026896 53187.600000 0 0 1
-14.439424 28.101035 -25.152842 40.383544 -1.096138 2.243175 0.082745 -0.033929 -158161.000000 0 0 1
-15.074924 28.973835 -24.184852 40.640417 -1.091045 2.208178 0.087422 -0.036107 769787.000000 0 0 1
-16.386524 29.618735 -24.750852 41.933189 -1.065462 2.202159 0.075876 -0.041745 660310.000000 0 0 1
-17.490824 28.745835 -24.889752 41.853933 -1.024176 2.207666 0.060865 -0.031634 -132735.000000 0 0 1
-18.652224 29.478635 -25.234992 43.054619 -1.006653 2.197053 0.065496 -0.037146 59163.100000 0 0 1
-19.860524 28.560335 -25.477282 43.118732 -0.963172 2.202925 0.088608 -0.008969 -321662.000000 0 0 1
-20.414124 27.997135 -24.314052 42.329058 -0.940773 2.182674 0.088897 -0.020009 -499621.000000 0 0 1
-21.493124 27.152735 -24.559352 42.454531 -0.901221 2.187668 0.082802 -0.034995 -429443.000000 0 0 1
-22.127824 26.567935 -23.299752 41.693815 -0.876327 2.163771 0.097585 -0.035699 79594.100000 0 0 1
-22.948224 27.496035 -22.580552 42.338331 -0.875310 2.133336 0.095641 -0.029170 54507.400000 0 0 1
-23.326124 27.002035 -21.321852 41.567287 -0.858308 2.109412 0.088307 -0.022895 -60266.600000 0 0 1
-24.483524 27.889735 -20.781852 42.534288 -0.850344 2.081270 0.066290 -0.016457 109940.000000 0 0 1
-25.775414 27.404935 -21.037252 43.104158 -0.816030 2.080658 0.091111 -0.023956 -217747.000000 0 0 1
-26.806204 28.212535 -20.539352 44.004371 -0.810954 2.056417 0.087669 -0.023257 205393.000000 0 0 1
-28.245304 27.675835 -20.691152 44.630402 -0.775215 2.052863 0.092990 -0.023425 44941.500000 0 0 1
-28.607684 27.645135 -22.014352 45.467403 -0.768289 2.076221 0.091305 -0.028780 -221074.000000 0 0 1
-29.979874 27.346735 -22.152952 46.231916 -0.739498 2.070505 0.085848 -0.016301 -16859.600000 0 0 1
-30.346064 26.862635 -23.583052 46.889712 -0.724583 2.097802 0.083731 -0.018999 5317.940000 0 0 1
-30.072324 25.521035 -23.919252 46.128067 -0.703713 2.115939 0.094669 -0.007353 -88146.300000 0 0 1
-30.434724 25.433635 -25.285322 47.037110 -0.696121 2.138338 0.083009 -0.005618 -48792.000000 0 0 1
-30.754954 23.995735 -25.738562 46.734742 -0.662565 2.154044 0.069368 -0.008455 508207.000000 0 0 1
-29.607314 23.129335 -25.734592 45.539306 -0.663174 2.171360 0.096085 -0.021895 806923.000000 0 0 1
-30.133674 21.825035 -26.004102 45.393654 -0.626832 2.180784 0.083979 -0.012072 -262985.000000 0 0 1
-29.109634 20.734935 -26.327472 44.389685 -0.618937 2.205699 0.099831 -0.008479 -287081.000000 0 0 1
-28.586124 20.162935 -25.120242 43.066658 -0.614301 2.193566 0.092681 -0.006211 -45157.700000 0 0 1
-27.755554 19.080335 -25.329172 42.142578 -0.602248 2.215592 0.096279 -0.012700 -72281.800000 0 0 1
-28.540514 17.734935 -25.153552 41.973683 -0.556003 2.213385 0.089749 -0.003415 12353.600000 0 0 1
-29.421614 17.396435 -26.166652 43.046034 -0.533984 2.224179 0.088610 -0.010994 -158535.000000 0 0 1
-29.840794 16.036835 -26.070252 42.747060 -0.493128 2.226696 0.070601 -0.007734 160791.000000 0 0 1
-30.801194 15.662135 -27.238872 43.999684 -0.470417 2.238354 0.041348 -0.012581 1429370.000000 0 0 1
-32.084434 16.352735 -27.227272 45.145844 -0.471360 2.218173 0.035087 -0.003066 1504900.000000 0 0 1
-32.802924 16.075735 -28.476642 46.318249 -0.455672 2.232934 0.041513 -0.009682 488486.000000 0 0 1
-34.088204 16.872335 -28.755552 47.681895 -0.459608 2.218141 0.041755 -0.015566 -295911.000000 0 0 1
-35.177728 16.495835 -27.956402 47.865912 -0.438483 2.194514 0.021861 -0.006550 -73370.700000 0 0 1
-36.375944 16.885435 -28.604502 49.259971 -0.434593 2.190366 0.032728 -0.010294 260200.000000 0 0 1
-37.710624 16.569335 -27.899852 49.749731 -0.413988 2.166153 0.042608 -0.011956 -21845.100000 0 0 1
37.655856 17.357635 -26.745612 49.341450 0.431926 2.143673 0.036004 -0.020680 -26453.900000 0 0 1
36.555126 16.919135 -25.974052 47.928965 0.433479 2.143526 0.033283 -0.016368 46976.200000 0 0 1
36.102656 17.934235 -24.884652 47.373879 0.461050 2.123843 0.034052 -0.006161 -16221.300000 0 0 1
35.527496 19.106435 -25.427942 47.684788 0.493423 2.133235 0.043607 -0.028569 34999.100000 0 0 1
34.932956 19.850435 -24.377452 46.995865 0.516742 2.116143 0.064933 -0.018466 -239244.000000 0 0 1
34.208986 21.084335 -24.910652 47.279430 0.552347 2.125723 0.093986 -0.040445 378064.000000 0 0 1
32.978826 20.668635 -25.514592 46.538047 0.559838 2.151069 0.099046 -0.049505 395716.000000 0 0 1
31.931486 21.589635 -25.195322 46.049282 0.594521 2.149738 0.134690 -0.043290 250231.000000 0 0 1
30.652206 21.359635 -26.005842 45.520276 0.608601 2.178888 0.101646 -0.042966 127205.000000 0 0 1
30.153366 20.016935 -25.904832 44.508016 0.586041 2.192015 0.124115 -0.054491 650318.000000 0 0 1
28.925766 19.791635 -26.635222 44.020947 0.600058 2.220635 0.151787 -0.053008 844502.000000 0 0 1
28.463866 18.316135 -26.750512 43.142350 0.571783 2.239606 0.162691 -0.037535 138037.000000 0 0 1
29.279266 17.522335 -27.601942 43.888208 0.539283 2.250953 0.135689 -0.048851 834940.000000 0 0 1
30.400166 16.940935 -26.898522 43.985177 0.508403 2.228797 0.121522 -0.038828 1063490.000000 0 0 1
31.555236 16.197135 -27.642522 44.968757 0.474227 2.232808 0.081622 -0.028078 420739.000000 0 0 1
31.106996 15.051635 -28.394072 44.726057 0.450658 2.258603 0.103225 -0.037113 332619.000000 0 0 1
30.536266 13.946935 -27.626212 43.476294 0.428439 2.259364 0.114542 -0.028967 90367.300000 0 0 1
31.380266 13.274235 -26.496842 43.162588 0.400186 2.231768 0.091278 -0.015220 -193783.000000 0 0 1
31.495896 13.995135 -25.300812 42.754957 0.418144 2.204041 0.085337 -0.017073 -194430.000000 0 0 1
32.022586 13.182435 -24.278852 42.292851 0.390518 2.182258 0.059626 -0.008500 -79169.800000 0 0 1
-15.342124 -30.769705 -23.220252 41.488982 1.108260 2.164787 0.123890 -0.029092 -66063.200000 0 0 1
-14.786324 -29.745705 -23.972252 40.964756 1.109479 2.195913 0.117019 -0.045716 72561.300000 0 0 1
-15.138324 -29.828105 -25.306002 41.943753 1.101152 2.218469 0.083635 -0.036848 -169097.000000 0 0 1
-14.552624 -28.666105 -26.066702 41.388373 1.101040 2.252102 0.107205 -0.039381 145596.000000 0 0 1
-15.100824 -27.385205 -25.688202 40.470583 1.066861 2.258465 0.106178 -0.029876 556239.000000 0 0 1
-14.420724 -26.369505 -26.442662 40.031518 1.070358 2.292342 0.107114 -0.030195 113544.000000 0 0 1
-14.846524 -24.934305 -26.071422 39.010997 1.033747 2.302730 0.039820 -0.013784 91912.400000 0 0 1
-14.359524 -24.542905 -24.800852 37.731053 1.041421 2.288035 0.099072 -0.035491 259013.000000 0 0 1
-15.062324 -23.362205 -24.500352 37.053117 0.998134 2.293243 0.043823 -0.030376 -199871.000000 0 0 1
-14.691724 -22.662505 -23.176352 35.589032 0.995629 2.279990 0.086752 -0.022528 -777878.000000 0 0 1
-13.353824 -22.297605 -23.075852 34.756334 1.031193 2.296861 0.139788 -0.042463 -679358.000000 0 0 1
-13.159424 -21.592405 -21.884252 33.441335 1.023460 2.284195 0.097409 -0.030997 2007670.000000 0 0 1
-11.590824 -21.330305 -21.630152 32.514498 1.073037 2.298620 0.139937 -0.040605 1998940.000000 0 0 1
-10.941424 -20.574905 -22.617952 32.474809 1.082045 2.341272 0.179164 -0.052706 890152.000000 0 0 1
-9.526424 -20.414805 -22.360452 31.741248 1.134189 2.352459 0.238259 -0.060696 1110160.000000 0 0 1
-8.887224 -19.364905 -23.255752 31.540645 1.140537 2.399900 0.283191 -0.059423 -88563.600000 0 0 1
-9.401424 -18.062405 -22.922952 30.661033 1.090886 2.415275 0.187946 -0.059526 -125574.000000 0 0 1
-9.418124 -17.156705 -24.000752 30.969173 1.068762 2.457493 0.191802 -0.052784 -20304.600000 0 0 1
-8.099924 -16.593305 -24.631052 30.783685 1.116678 2.498314 0.235537 -0.050440 312644.000000 0 0 1
-7.564924 -17.385105 -25.698162 31.935333 1.160370 2.505956 0.214786 -0.055475 -358258.000000 0 0 1
-6.443824 -16.725005 -26.218362 31.759269 1.203043 2.541944 0.212865 -0.049517 -310260.000000 0 0 1
-5.967024 -17.355905 -27.538132 33.093527 1.239652 2.553735 0.215488 -0.042866 153569.000000 0 0 1
-6.772124 -16.954105 -28.633872 33.958827 1.190774 2.573993 0.230072 -0.044872 48116.500000 0 0 1
-6.356324 -17.637405 -29.785522 35.194577 1.224897 2.579816 0.239590 -0.046548 169747.000000 0 0 1
-7.221924 -17.322405 -31.051202 36.282214 1.175796 2.597939 0.235226 -0.042450 154903.000000 0 0 1
-7.084924 -16.103805 -31.836012 36.373896 1.156328 2.636735 0.190898 -0.042429 -334446.000000 0 0 1
-7.185324 -14.866105 -31.134542 35.241874 1.120569 2.653978 0.157933 -0.040173 -204185.000000 0 0 1
-7.799724 -13.750105 -31.968432 35.663451 1.054807 2.682358 0.120798 -0.035517 -286774.000000 0 0 1
-7.123124 -13.358305 -33.128092 36.423257 1.080915 2.712951 0.127501 -0.045099 -59242.600000 0 0 1
-7.988824 -12.723205 33.516087 36.729135 1.010119 0.421392 0.109002 -0.031539 36232.000000 0 0 1
-8.385824 -11.279605 -33.656322 36.473272 0.931500 2.745996 0.074416 -0.031220 67213.700000 0 0 1
-7.311124 -10.368205 -33.576062 35.892954 0.956623 2.780326 0.062753 -0.035882 -488569.000000 0 0 1
-6.741924 -10.081905 32.794157 34.965055 0.981377 0.354234 0.045049 -0.033929 143446.000000 0 0 1
-5.615624 -8.977205 32.882908 34.545783 1.011807 0.311534 0.072552 -0.039218 386410.000000 0 0 1
-5.297224 -8.485205 31.603538 33.148800 1.012708 0.306538 0.049385 -0.025057 -225870.000000 0 0 1
-4.304024 -7.488705 31.668868 32.825639 1.049161 0.266266 0.052457 -0.033085 -1046310.000000 0 0 1
-4.309924 -6.443905 30.556887 31.524954 0.981292 0.248461 0.040886 -0.022323 697734.000000 0 0 1
-5.402424 -5.490105 30.586577 31.541499 0.793448 0.246695 0.017636 -0.017568 -211035.000000 0 0 1
-6.620824 -6.033005 30.255887 31.553941 0.738978 0.287829 0.023140 -0.012871 -1359360.000000 0 0 1
-7.749424 -4.967605 30.051297 31.429463 0.570043 0.297233 0.014713 -0.015824 352775.000000 0 0 1
-8.984424 -5.671905 30.025107 31.849607 0.563120 0.340118 0.036357 -0.017058 -2036.060000 0 0 1
-10.030924 -4.744305 29.751657 31.753566 0.441789 0.356985 0.047266 -0.024079 502876.000000 0 0 1
-11.159724 -5.299305 28.801187 31.338961 0.443334 0.405205 0.070645 -0.028364 371263.000000 0 0 1
-10.705724 -5.387805 27.484167 29.983669 0.466255 0.411210 0.064775 -0.021080 567125.000000 0 0 1
-11.741924 -5.871305 26.668907 29.725000 0.463671 0.457436 0.076609 -0.029127 -65147.800000 0 0 1
-11.275924 -5.776205 25.208347 28.212972 0.473407 0.465712 0.057580 -0.021942 291746.000000 0 0 1
-10.175824 -6.676105 24.966937 27.775272 0.580634 0.453565 0.062144 -0.017921 1120370.000000 0 0 1
-9.435324 -6.376405 23.748757 26.337945 0.594300 0.447126 0.066248 -0.022496 29386.000000 0 0 1
-10.157624 -6.750405 22.457287 25.555333 0.586546 0.497515 0.080733 -0.028080 1244830.000000 0 0 1
-11.426524 -6.045205 22.213587 25.701234 0.486617 0.527038 0.058157 -0.024109 1342810.000000 0 0 1
-12.083924 -6.310505 20.996387 25.033817 0.481268 0.575866 0.060342 -0.025674 -218988.000000 0 0 1
-13.238724 -5.294305 20.852087 25.260701 0.380429 0.599752 0.060074 -0.017992 -232300.000000 0 0 1
-12.846024 -3.962105 20.683387 24.668221 0.299173 0.576340 0.050043 -0.013662 -432006.000000 0 1 0
-13.965124 -3.194505 20.379787 24.911148 0.224880 0.612699 0.063126 -0.016849 -164712.000000 0 1 0
-13.623624 -1.704405 20.123387 24.361011 0.124460 0.598736 0.047329 -0.009400 391936.000000 0 1 0
-12.915824 -0.968405 21.170387 24.818171 0.074838 0.549052 0.060437 -0.016494 506644.000000 0 1 0
-13.082824 0.442595 21.143187 24.867460 -0.033817 0.554365 0.064740 -0.018159 -81921.700000 0 1 0
-12.519624 1.212595 19.843187 23.493903 -0.096554 0.564960 0.059408 -0.014790 272246.000000 0 1 0
-13.198424 0.969595 18.609187 22.835069 -0.073331 0.618172 0.062564 -0.013674 317092.000000 0 1 0
-14.464024 1.602595 18.506787 23.543098 -0.110349 0.666353 0.062791 -0.010724 666223.000000 0 1 0
-15.449124 1.046595 17.414387 23.303040 -0.067641 0.726805 0.073015 -0.011004 436355.000000 0 1 0
-15.714624 -0.335405 17.547187 23.557710 0.021340 0.730472 0.062786 -0.014648 800086.000000 0 1 0
-16.835524 -0.776405 16.773987 23.778232 0.046084 0.787760 0.080021 -0.015630 -26699.300000 0 1 0
-17.181924 -2.273405 16.948587 24.241318 0.131550 0.796573 0.083735 -0.017000 -73626.600000 0 1 0
-17.767724 -2.541405 18.197187 25.559507 0.142071 0.778520 0.094560 -0.009435 116656.000000 0 0 1
-17.564024 -3.876305 18.598687 25.873381 0.217214 0.768672 0.104651 -0.018514 -147333.000000 0 0 1
-18.302924 -4.364205 19.877587 27.370820 0.234072 0.757970 0.099446 -0.011842 -121903.000000 0 0 1
-17.723124 -3.901805 21.113587 27.840919 0.216697 0.709995 0.102479 -0.005306 714125.000000 0 0 1
-18.490624 -4.199805 22.326587 29.291945 0.223342 0.704077 0.092065 -0.011322 -327871.000000 0 0 1
-18.691024 -5.648905 22.907217 30.099919 0.293497 0.705883 0.108197 -0.012123 245697.000000 0 0 1
-17.581224 -6.410505 23.401847 29.963986 0.349641 0.674532 0.066229 -0.017086 652197.000000 0 0 1
-16.616524 -6.707305 22.363587 28.657056 0.383651 0.675512 0.081153 -0.010025 287431.000000 0 0 1
-15.352624 -7.374705 22.975697 28.600210 0.447808 0.637913 0.095921 -0.010058 -108564.000000 0 0 1
-15.714724 -8.544205 23.650697 29.653187 0.497999 0.647529 0.090125 -0.021602 34955.700000 0 0 1
-15.538324 -8.479805 25.062837 30.683749 0.499563 0.614934 0.088670 -0.022356 -50283.800000 0 0 1
-16.506324 -9.315505 25.915977 32.107246 0.513801 0.631456 0.080556 -0.024575 -260021.000000 0 0 1
-16.544924 -10.750005 25.730937 32.424964 0.576197 0.654170 0.088416 -0.029433 192111.000000 0 0 1
-15.595324 -11.339905 26.623817 32.873017 0.628706 0.626817 0.082622 -0.024480 228858.000000 0 0 1
-15.450724 -12.853605 26.451977 33.221185 0.693897 0.649745 0.083546 -0.028134 129378.000000 0 0 1
-16.451924 -13.592005 27.143217 34.527709 0.690493 0.666276 0.083180 -0.035960 252917.000000 0 0 1
-16.522324 -14.958005 26.842147 34.888823 0.735747 0.692954 0.098709 -0.026423 407130.000000 0 0 1
-15.405724 -15.894205 27.453387 35.265430 0.801003 0.678558 0.109129 -0.024446 697159.000000 0 0 1
-14.128724 -15.774905 26.859407 34.203746 0.840392 0.667653 0.078151 -0.030979 466509.000000 0 0 1
-13.194824 -16.633005 27.496577 34.739344 0.900159 0.657519 0.095947 -0.022643 331306.000000 0 0 1
-11.865824 -17.026105 26.808667 33.902665 0.962141 0.658757 0.109104 -0.033466 -92912.900000 0 0 1
-10.970424 -17.597905 27.716277 34.615437 1.013353 0.642348 0.138868 -0.036671 230083.000000 0 0 1
-9.929824 -18.318505 27.027327 34.126902 1.074065 0.656775 0.134893 -0.043211 -259667.000000 0 0 1
-8.913924 -18.805605 28.014677 34.898868 1.128161 0.638922 0.171928 -0.051983 -730116.000000 0 0 1
-9.278424 -19.983605 28.666617 36.155339 1.136113 0.655286 0.165518 -0.047486 173058.000000 0 0 1
-8.338224 -20.301905 29.664887 36.901204 1.181090 0.636972 0.197731 -0.052672 116466.000000 0 0 1
-8.610724 -21.739105 30.243687 38.228443 1.193662 0.658141 0.164955 -0.046475 213654.000000 0 0 1
-8.441224 -22.815605 29.297357 38.080720 1.216438 0.692975 0.173626 -0.051981 82236.200000 0 0 1
-8.773424 -24.076305 29.844847 39.336451 1.221350 0.709470 0.148599 -0.044788 -134536.000000 0 0 1
-8.816524 -25.221005 28.790287 39.277358 1.234504 0.748075 0.137455 -0.030865 -180714.000000 0 0 1
-10.041824 -25.350405 28.078867 39.139546 1.193639 0.770728 0.117224 -0.035587 307514.000000 0 0 1
-10.008124 -26.396605 27.136487 39.157787 1.208397 0.805149 0.089813 -0.030874 63723.600000 0 0 1
-11.378124 -26.809005 26.486617 39.366551 1.169422 0.832782 0.089763 -0.026317 542169.000000 0 0 1
-11.726524 -26.066205 25.349777 38.204314 1.148047 0.845267 0.099246 -0.030918 163235.000000 0 0 1
-12.140924 -24.756905 25.528847 37.576967 1.114854 0.823886 0.086710 -0.030386 -638571.000000 0 0 1
-12.492824 -24.003005 24.233647 36.324710 1.090908 0.840434 0.109346 -0.052699 -423088.000000 0 0 1
-13.734624 -24.314805 23.678847 36.613351 1.056611 0.867511 0.102835 -0.039896 -156148.000000 0 0 1
-13.696524 -23.745705 22.410087 35.407136 1.047610 0.885470 0.108687 -0.046982 290807.000000 0 0 1
-15.022824 -23.883505 21.609887 35.540038 1.009323 0.917203 0.110702 -0.040573 -4662.500000 0 0 1
-15.399324 -25.152705 21.068887 36.244941 1.021430 0.950481 0.107816 -0.040441 113456.000000 0 0 1
-16.501324 -25.048905 20.198187 36.162247 0.988285 0.978168 0.109542 -0.041586 -297726.000000 0 0 1
-17.032324 -26.434105 19.821187 37.171783 0.998416 1.008380 0.108553 -0.033225 19039.100000 0 0 1
-16.241224 -27.090505 18.836887 36.776367 1.030732 1.033051 0.103056 -0.038543 109417.000000 0 0 1
-16.548024 -28.446705 18.672287 37.837897 1.043926 1.054709 0.112691 -0.035702 30216.300000 0 0 1
-15.606124 -29.140705 17.668487 37.482092 1.079120 1.079936 0.115049 -0.042595 -50657.400000 0 0 1
-15.752524 -28.698105 16.342487 36.589618 1.068794 1.107787 0.108989 -0.043176 -479292.000000 0 0 1
-14.563424 -28.932705 15.662087 35.979101 1.104468 1.120413 0.098773 -0.044507 -602714.000000 0 0 1
-14.631924 -28.430705 14.225287 34.996528 1.095496 1.152201 0.099606 -0.039557 -267677.000000 0 0 1
-14.711824 -27.013205 14.152187 33.859052 1.072096 1.139583 0.091095 -0.043565 -79571.100000 0 0 1
-14.977624 -26.466605 12.824087 33.004055 1.055823 1.171727 0.094341 -0.038704 759321.000000 0 0 1
-13.824324 -26.490905 11.721987 32.098053 1.089821 1.196956 0.085104 -0.038380 968157.000000 0 0 1
-14.339124 -25.992505 10.506287 31.489726 1.066677 1.230632 0.077551 -0.029018 634723.000000 0 0 1
-13.547224 -26.594105 9.430887 31.300405 1.099651 1.264738 0.086215 -0.028046 540761.000000 0 0 1
-13.928524 -26.046605 8.071487 30.619901 1.079734 1.304041 0.095669 -0.025241 68228.000000 0 0 1
-15.193124 -26.286105 7.488187 31.270806 1.046717 1.328984 0.086966 -0.043327 36117.600000 0 0 1
-15.369124 -25.478705 6.349587 30.425181 1.028017 1.360556 0.086833 -0.041735 -395917.000000 0 0 1
-16.210824 -26.104105 5.269787 31.176686 1.015074 1.400951 0.080862 -0.045539 -734001.000000 0 0 1
-15.699224 -27.204405 4.585387 31.742260 1.047397 1.425832 0.091530 -0.040108 -598027.000000 0 0 1
-16.280824 -27.511205 3.377587 32.145602 1.036436 1.465531 0.113909 -0.038774 -560590.000000 0 0 1
-15.569724 -28.705205 2.701087 32.767377 1.073806 1.488270 0.121397 -0.036459 2662.510000 0 0 1
-14.255924 -28.478705 2.252387 31.927124 1.106683 1.500190 0.085228 -0.024090 19726.000000 0 0 1
-13.674524 -29.570705 1.543987 32.615995 1.137650 1.523440 0.086563 -0.026422 707980.000000 0 0 1
-12.349124 -29.176305 0.807387 31.692420 1.170402 1.545318 0.088006 -0.026828 350851.000000 0 0 1
-12.511624 -28.456805 -0.392213 31.088331 1.156565 1.583413 0.092855 -0.027897 54197.500000 0 0 1
-12.584824 -27.058605 -0.261613 29.843162 1.135460 1.579563 0.083243 -0.030372 -159076.000000 0 0 1
-12.351424 -26.425005 -1.660913 29.216386 1.133555 1.627676 0.080790 -0.030658 -996173.000000 0 0 1
-11.058924 -26.592905 -2.077613 28.875576 1.176693 1.642809 0.101665 -0.033396 -1502920.000000 0 0 1
-10.805924 -25.735705 -3.137213 28.088015 1.173270 1.682722 0.118563 -0.034165 164509.000000 0 0 1
-9.442924 -26.028205 -3.786813 27.945952 1.222768 1.706719 0.115527 -0.035711 -9134.060000 0 0 1
-8.914524 -25.045805 -4.673913 26.992713 1.228849 1.744828 0.125213 -0.040960 428797.000000 0 0 1
-7.682724 -25.580105 -5.198513 27.210119 1.279028 1.763029 0.146409 -0.031912 415381.000000 0 0 1
-6.887324 -24.526305 -5.959513 26.162772 1.297033 1.800600 0.126464 -0.034722 -358556.000000 0 0 1
-7.331424 -24.080805 -7.215313 26.185792 1.275261 1.849951 0.135627 -0.039841 -1032820.000000 0 0 1
-6.484724 -23.187605 -7.758913 25.296589 1.298100 1.882539 0.140456 -0.035376 -750231.000000 0 0 1
-6.630224 -23.004005 -9.270113 25.672536 1.290181 1.940234 0.123863 -0.036289 67181.300000 0 0 1
-6.311424 -24.260805 -9.849413 26.933839 1.316289 1.945169 0.112791 -0.037457 -40525.700000 0 0 1
-6.288224 -24.099505 -11.229913 27.321033 1.315560 1.994386 0.086176 -0.015657 221910.000000 0 0 1
-7.433524 -24.905705 -11.888413 28.581214 1.280747 1.999786 0.085738 -0.009779 209540.000000 0 0 1
-7.527024 -24.801905 -13.291113 29.128067 1.276145 2.044628 0.097953 -0.006168 784917.000000 0 0 1
-8.641324 -25.532405 -13.882813 30.320104 1.244452 2.046400 0.116971 -0.009482 606045.000000 0 0 1
-8.703224 -25.395705 -15.443113 30.970594 1.240635 2.092823 0.121815 -0.013473 207181.000000 0 0 1
-7.685124 -26.107505 -16.140613 31.641465 1.284518 2.106108 0.109458 -0.024253 -233901.000000 0 0 1
-6.575924 -25.306205 -16.396413 30.862423 1.316565 2.130900 0.111412 -0.015522 -771149.000000 0 0 1
-5.354824 -26.084205 -16.920913 31.549599 1.368320 2.136876 0.102070 -0.013045 -558416.000000 0 0 1
-5.431424 -26.640005 -18.165313 32.698147 1.369671 2.159815 0.174605 -0.023725 -373975.000000 0 0 1
-4.359824 -27.468105 -18.476813 33.390080 1.413386 2.157192 0.150936 -0.030350 -313199.000000 0 0 1
-26.098364 14.850135 -4.515452 30.365119 -0.517318 1.720055 0.179423 -0.050456 -16618.000000 0 0 1
-25.608804 13.616135 -3.982352 29.275743 -0.488683 1.707248 0.187551 -0.054056 454952.000000 0 0 1
-24.512824 13.204535 -4.797452 28.253386 -0.494110 1.741424 0.191298 -0.050287 -60212.100000 0 0 1
-24.000424 11.786735 -4.454052 27.106938 -0.456507 1.735859 0.189791 -0.044793 40283.900000 0 0 1
-24.685024 10.651235 -4.986952 27.343535 -0.407351 1.754204 0.188764 -0.029481 -214667.000000 0 0 1
-26.044794 10.472535 -4.697052 28.461686 -0.382313 1.736585 0.216749 -0.035646 -573829.000000 0 0 1
-26.670084 9.559635 -5.733252 28.905885 -0.344174 1.770462 0.228835 -0.030674 -294054.000000 0 0 1
-26.747784 10.320535 -6.921352 29.493432 -0.368246 1.807680 0.267752 -0.036249 66988.800000 0 0 1
-27.006784 9.433835 -8.016352 29.709014 -0.336063 1.844012 0.249185 -0.030630 11604.800000 0 0 1
-27.529974 10.169235 -9.230252 30.765409 -0.353841 1.875510 0.248050 -0.031730 -273038.000000 0 0 1
-26.562824 11.073435 -9.679452 30.362747 -0.394970 1.895253 0.247718 -0.022891 -46413.300000 0 0 1
-26.990674 11.778835 -10.806152 31.368940 -0.411490 1.922487 0.240084 -0.032973 -432245.000000 0 0 1
-25.908704 12.612135 -11.498552 31.024887 -0.453025 1.950477 0.210178 -0.028787 -351495.000000 0 0 1
-25.648344 13.885635 -10.958852 31.156779 -0.496205 1.930218 0.193929 -0.032487 32401.300000 0 0 1
-24.905424 14.692335 -11.814552 31.236653 -0.532979 1.958677 0.161975 -0.025577 -299629.000000 0 0 1
-24.736824 16.156835 -11.452252 31.687661 -0.578586 1.940576 0.170480 -0.036302 -491124.000000 0 0 1
-23.720124 16.368135 -10.523652 30.680733 -0.604019 1.920911 0.144171 -0.027373 -150061.000000 0 0 1
-23.619024 17.720135 -10.179652 31.232784 -0.643660 1.902790 0.098275 -0.022372 290440.000000 0 0 1
-22.526524 17.980735 -9.076452 30.218092 -0.673644 1.875871 0.100880 -0.028458 -331360.000000 0 0 1
-22.798724 17.424335 -7.776052 29.729720 -0.652570 1.835433 0.127621 -0.042007 17345.700000 0 0 1
-23.680024 18.253535 -7.069352 30.723132 -0.656707 1.802975 0.131493 -0.033172 -310268.000000 0 0 1
-24.025924 17.591735 -5.729052 30.323855 -0.632010 1.760868 0.137864 -0.026258 -659691.000000 0 0 1
-22.951324 17.533635 -4.846452 29.286170 -0.652369 1.737047 0.120684 -0.038883 -538628.000000 0 0 1
-23.250824 17.265135 -3.520552 29.173275 -0.638723 1.691768 0.128610 -0.037007 -712454.000000 0 0 1
-22.108824 16.968935 -2.538952 27.985552 -0.654619 1.661645 0.128394 -0.049244 -778595.000000 0 0 1
-21.531124 18.113535 -2.019852 28.209383 -0.699405 1.642460 0.107175 -0.040249 161543.000000 0 0 1
-20.761024 17.654235 -0.871952 27.266324 -0.704700 1.602781 0.169795 -0.065965 284222.000000 0 0 1
-20.132624 18.912735 -0.242752 27.623777 -0.754165 1.579584 0.128443 -0.042388 20004.800000 0 0 1
-21.137724 19.623635 0.424548 28.845635 -0.748270 1.556078 0.109818 -0.036350 231940.000000 0 0 1
-20.666224 20.958135 0.611348 29.439939 -0.792411 1.550029 0.114509 -0.038031 679702.000000 0 0 1
-21.743524 21.902035 1.260248 30.887995 -0.789030 1.529984 0.098185 -0.027170 425911.000000 0 0 1
-21.974524 21.509135 2.595948 30.858735 -0.774696 1.486573 0.124416 -0.029109 368117.000000 0 0 1
-23.190324 22.006135 3.130648 32.122610 -0.759203 1.473182 0.110324 -0.032902 34020.000000 0 0 1
-23.206624 21.708535 4.641948 32.114725 -0.752057 1.425746 0.122798 -0.028561 -298496.000000 0 0 1
-22.243124 22.465835 5.337948 32.061878 -0.790379 1.403528 0.102380 -0.025798 -84721.900000 0 0 1
-21.568024 21.665335 6.256548 31.204340 -0.787649 1.368926 0.103968 -0.017673 -379633.000000 0 0 1
-22.173624 21.542635 7.651548 31.848091 -0.770965 1.328172 0.088427 -0.016050 622422.000000 0 0 1
-23.445224 20.844235 7.773548 32.320098 -0.726738 1.327897 0.105057 -0.015704 1432350.000000 0 0 1
-23.780424 20.499635 9.103648 32.689754 -0.711441 1.288579 0.124103 -0.023301 -100933.000000 0 0 1
-24.224324 21.620435 10.100948 34.004268 -0.728661 1.269195 0.122187 -0.016263 363377.000000 0 0 1
-25.614994 21.938635 9.908048 35.151117 -0.708242 1.285054 0.142869 -0.015785 903220.000000 0 0 1
-25.984704 22.966735 10.850748 36.337508 -0.723824 1.267560 0.147860 -0.014404 -256896.000000 0 0 1
-27.398564 23.449535 10.498148 37.560260 -0.707890 1.287521 0.159073 -0.029886 49668.200000 0 0 1
-28.050574 24.064735 11.646148 38.750212 -0.709066 1.265533 0.166218 -0.032373 327528.000000 0 0 1
-27.925404 25.453835 11.714148 39.559413 -0.739129 1.270173 0.149292 -0.032069 -10111.100000 0 0 1
-28.259764 25.880335 13.149548 40.513166 -0.741477 1.240234 0.184355 -0.040986 196042.000000 0 0 1
-27.188024 25.570235 14.011948 39.866782 -0.754744 1.211656 0.152657 -0.034772 107651.000000 0 0 1
-27.427144 26.137435 15.239648 40.837001 -0.761325 1.188360 0.182668 -0.037197 -43897.200000 0 0 1
-26.174984 26.225435 16.130948 40.411765 -0.786361 1.160191 0.148471 -0.038179 -93499.400000 0 0 1
-25.789894 25.095335 16.915648 39.762214 -0.771749 1.131370 0.159120 -0.040356 992540.000000 0 0 1
-24.616224 25.301435 17.752948 39.513141 -0.799124 1.104823 0.123565 -0.038372 713647.000000 0 0 1
-24.202924 23.951735 18.387848 38.698580 -0.780182 1.075655 0.134518 -0.033532 178259.000000 0 0 1
-23.069224 24.056635 19.251848 38.490836 -0.806348 1.047005 0.127956 -0.043096 550411.000000 0 0 1
-22.752724 22.770735 19.823548 37.804311 -0.785794 1.018818 0.125687 -0.038858 -1045930.000000 0 0 1
-21.312824 22.610635 20.275848 37.102390 -0.814937 0.992637 0.083383 -0.036246 -838698.000000 0 0 1
-20.447724 22.879535 19.135148 36.162639 -0.841466 1.013208 0.081247 -0.044116 727057.000000 0 0 1
-19.076124 22.547935 19.317548 35.291296 -0.868614 0.991573 0.078565 -0.044728 -4281.120000 0 0 1
-18.743324 21.014735 19.267848 34.120101 -0.842467 0.970719 0.062341 -0.029242 -1010750.000000 0 0 1
-19.166624 20.176535 20.323148 34.459867 -0.811062 0.940031 0.078796 -0.028630 141823.000000 0 0 1
-18.469824 20.349135 21.559948 34.929258 -0.833773 0.905559 0.072812 -0.023880 -10254.300000 0 0 1
-19.374624 20.086635 22.823648 36.052294 -0.803439 0.885283 0.068961 -0.020797 -658122.000000 0 0 1
-20.486924 20.893535 22.772148 37.078627 -0.795224 0.909477 0.074758 -0.019284 -656776.000000 0 0 1
-21.182524 20.831935 24.015848 38.202484 -0.777054 0.890985 0.090087 -0.011007 251038.000000 0 0 1
-22.497024 21.643135 24.017448 39.387551 -0.766056 0.915023 0.086973 -0.013294 -19928.700000 0 0 1
-22.139724 23.080435 24.072448 40.029447 -0.806198 0.925584 0.097136 -0.025387 619871.000000 0 0 1
-23.216324 24.002035 24.217248 41.250097 -0.802037 0.943345 0.101756 -0.033656 640731.000000 0 0 1
-24.244824 24.170435 23.016848 41.252839 -0.783862 0.978888 0.093866 -0.034666 370828.000000 0 0 1
-25.236384 23.161235 22.997048 41.257510 -0.742547 0.979542 0.082379 -0.034294 -35978.100000 0 0 1
-25.801114 23.240835 21.689948 40.942493 -0.733240 1.012471 0.085896 -0.032679 -1149810.000000 0 0 1
-27.010264 22.370435 21.486048 41.129564 -0.691713 1.021134 0.106910 -0.031276 -631168.000000 0 0 1
-28.164354 22.924735 22.097148 42.509508 -0.683197 1.024160 0.097796 -0.034615 638254.000000 0 0 1
-29.256444 21.984435 22.063748 42.732469 -0.644421 1.028245 0.111442 -0.031033 -114172.000000 0 0 1
-30.552534 22.532835 22.609548 44.185718 -0.635460 1.033642 0.129872 -0.022068 -928421.000000 0 0 1
-31.183084 23.316235 21.649248 44.550213 -0.642041 1.063345 0.145561 -0.032510 1093210.000000 0 0 1
-32.602304 23.554335 21.858748 45.776870 -0.625651 1.072982 0.155966 -0.035133 1572050.000000 0 0 1
-33.527984 22.734335 20.886948 45.576752 -0.595856 1.094736 0.158542 -0.043622 -447343.000000 0 0 1
-33.500134 21.332035 21.225248 45.031388 -0.567022 1.079983 0.143777 -0.040450 253281.000000 0 0 1
-34.230587 20.542935 20.318548 44.794963 -0.540518 1.100007 0.145093 -0.039194 9909.080000 0 0 1
-35.768345 20.595435 20.454048 46.064244 -0.522436 1.110701 0.156546 -0.042027 -430308.000000 0 0 1
-36.390044 19.801035 19.488348 45.783316 -0.498328 1.131100 0.141000 -0.026588 24023.600000 0 0 1
37.767776 19.774935 19.623448 46.931148 0.482343 1.139408 0.155420 -0.036690 143440.000000 0 0 1
37.154546 18.901035 18.572748 45.636130 0.470594 1.151657 0.144164 -0.036574 -168737.000000 0 0 1
37.597416 17.545135 18.506548 45.430053 0.436620 1.151231 0.136936 -0.036005 338046.000000 0 0 1
36.857796 16.908735 17.464448 44.152116 0.430112 1.164128 0.154243 -0.050141 131091.000000 0 0 1
37.015986 15.338535 17.324448 43.653068 0.392838 1.162696 0.167393 -0.056632 -62479.700000 0 0 1
36.252186 14.754835 16.280148 42.390675 0.386531 1.176617 0.197840 -0.060098 32047.900000 0 0 1
36.539386 13.392935 16.126948 42.125715 0.351328 1.177940 0.194602 -0.054545 88850.200000 0 0 1
35.527926 12.589635 15.263148 40.665663 0.340553 1.186041 0.176498 -0.059741 38001.200000 0 0 1
35.626996 12.883135 13.896848 40.353195 0.346982 1.219218 0.175082 -0.059015 258737.000000 0 0 1
34.631246 12.111835 13.263548 39.012068 0.336441 1.223895 0.172766 -0.047163 -241647.000000 0 0 1
34.549156 12.407935 11.706648 38.531112 0.344793 1.262093 0.186416 -0.047952 -255256.000000 0 0 1
35.726596 11.974635 11.054748 39.268168 0.323406 1.285419 0.187250 -0.045026 254370.000000 0 0 1
35.649886 11.869635 9.665648 38.797260 0.321406 1.319012 0.182085 -0.043296 -3976.000000 0 0 1
36.965866 12.028335 8.847648 39.867743 0.314585 1.347008 0.135188 -0.019827 434465.000000 0 0 1
-37.664814 10.959835 9.011048 40.248667 -0.283164 1.344998 0.208229 -0.038869 2304460.000000 0 0 1
-36.264514 11.285435 8.707148 38.965247 -0.301698 1.345434 0.230454 -0.038996 1851120.000000 0 0 1
-35.682990 11.458735 7.301748 38.182377 -0.310724 1.378378 0.217749 -0.053058 -915455.000000 0 0 1
-36.341714 12.410535 6.516348 38.951308 -0.329079 1.402711 0.184209 -0.053665 15623.300000 0 0 1
-35.947231 12.482935 5.159548 38.401146 -0.334229 1.436030 0.201390 -0.057050 -567224.000000 0 0 1
-37.034164 13.177835 4.350148 39.548811 -0.341858 1.460579 0.182288 -0.070723 -116265.000000 0 0 1
37.358856 12.373135 4.213548 39.579446 0.319826 1.464136 0.175039 -0.061553 -618734.000000 0 0 1
36.240216 13.114935 3.965848 38.743809 0.347227 1.468256 0.132360 -0.056588 -626965.000000 0 0 1
35.439146 13.611735 5.215148 38.319840 0.366714 1.434277 0.131627 -0.042882 -852105.000000 0 0 1
34.789326 14.842035 5.042348 38.157679 0.403247 1.438264 0.117290 -0.033900 34354.900000 0 0 1
34.279776 15.485635 6.218948 38.125887 0.424302 1.406948 0.090381 -0.027623 -310439.000000 0 0 1
33.081786 14.880335 6.944048 36.933030 0.422691 1.381653 0.167829 -0.036310 -560564.000000 0 0 1
33.356046 13.685735 7.671548 36.861603 0.389348 1.361146 0.206255 -0.038336 764688.000000 0 0 1
32.103296 13.115935 8.105548 35.613891 0.387859 1.341189 0.208362 -0.038626 771369.000000 0 0 1
31.759306 11.787735 7.336148 34.661553 0.355398 1.357533 0.217142 -0.040833 -76510.700000 0 0 1
31.424646 11.984535 5.965248 34.157307 0.364347 1.395256 0.204748 -0.054085 192223.000000 0 0 1
31.344226 10.700535 5.309048 33.543225 0.328982 1.411853 0.210027 -0.052094 -232287.000000 0 0 1
31.006136 10.681735 3.857548 33.020609 0.331770 1.453707 0.171631 -0.050682 -183587.000000 0 0 1
29.642766 10.934635 3.615348 31.801424 0.353395 1.456865 0.146380 -0.046758 -124403.000000 0 0 1
29.420566 11.066735 2.223248 31.511667 0.359784 1.500184 0.168832 -0.050875 571218.000000 0 0 1
27.913666 10.893535 1.843348 30.020656 0.372080 1.509355 0.190737 -0.042080 707151.000000 0 0 1
27.424366 9.574935 1.735748 29.099623 0.335908 1.511112 0.169836 -0.041386 -305650.000000 0 0 1
26.023066 9.473935 1.779348 27.751063 0.349144 1.506634 0.174282 -0.038383 -190456.000000 0 0 1
25.711366 7.962035 1.669548 26.967679 0.300304 1.508847 0.190307 -0.040171 41429.900000 0 0 1
26.031066 7.203435 2.829348 27.157155 0.269969 1.466423 0.203463 -0.031751 -644234.000000 0 0 1
27.337266 6.746235 2.720948 28.288537 0.241944 1.474462 0.237941 -0.039109 -839211.000000 0 0 1
27.806566 6.057435 4.034648 28.743278 0.214491 1.429963 0.230954 -0.046037 -94421.200000 0 0 1
29.214566 5.984535 4.137248 30.106849 0.202052 1.432941 0.245619 -0.049032 26217.300000 0 0 1
29.613766 5.402835 5.328448 30.570543 0.180459 1.395601 0.232439 -0.033082 794165.000000 0 0 1
31.160526 5.449335 5.594248 32.124278 0.173129 1.395760 0.217369 -0.037435 729771.000000 0 0 1
31.694896 6.720535 5.855848 32.924504 0.208944 1.391988 0.238138 -0.046038 293092.000000 0 0 1
33.096596 6.614835 6.130648 34.303433 0.197265 1.391113 0.249075 -0.044233 920374.000000 0 0 1
33.623636 7.733735 7.092748 35.223098 0.226077 1.368044 0.211889 -0.050401 -175602.000000 0 0 1
33.219676 7.658535 8.384248 35.106917 0.226583 1.329645 0.228480 -0.049698 -246722.000000 0 0 1
33.886316 8.553235 9.259848 36.155014 0.247245 1.311795 0.239776 -0.052847 -240959.000000 0 0 1
33.396026 8.624935 10.707848 36.115676 0.252740 1.269784 0.230669 -0.052110 -150699.000000 0 0 1
32.114726 9.237535 10.742548 35.101140 0.280081 1.259760 0.220940 -0.054171 40931.700000 0 0 1
31.608746 9.093535 11.997448 35.010626 0.280126 1.221028 0.213239 -0.054142 -315252.000000 0 0 1
30.104266 9.430735 12.164648 33.811008 0.303585 1.202760 0.182484 -0.046968 -19921.500000 0 0 1
29.868166 10.800335 12.439548 34.110071 0.346971 1.197498 0.210481 -0.053802 137943.000000 0 0 1
30.059966 11.801835 11.468748 34.269769 0.374119 1.229551 0.209971 -0.055145 -104078.000000 0 0 1
28.977766 11.773835 10.342148 32.943803 0.385931 1.251464 0.170535 -0.035016 136572.000000 0 0 1
29.117466 12.789135 9.379648 33.156697 0.413858 1.283992 0.144167 -0.020201 71047.900000 0 0 1
28.041266 12.742335 8.463248 31.942233 0.426518 1.302639 0.139615 -0.020259 90829.500000 0 0 1
27.972466 14.024935 7.585948 32.197892 0.464754 1.332956 0.137197 -0.024908 -94389.600000 0 0 1
27.465566 15.083735 8.331348 32.423567 0.502219 1.310928 0.132145 -0.015792 -14180.400000 0 0 1
27.791166 16.359335 7.854648 33.191448 0.532034 1.331883 0.128497 -0.012289 -1111020.000000 0 0 1
27.281066 17.552835 8.664848 33.577346 0.571727 1.309786 0.150311 -0.029202 404091.000000 0 0 1
25.934566 17.993135 8.531048 32.697605 0.606546 1.306834 0.163838 -0.036422 835226.000000 0 0 1
24.939366 17.026535 8.900848 31.481740 0.599032 1.284157 0.170776 -0.031710 489318.000000 0 0 1
23.490366 17.610635 9.101348 30.737051 0.643307 1.270186 0.158678 -0.042238 663123.000000 0 0 1
22.782466 17.906035 7.942848 30.045893 0.666119 1.303259 0.149698 -0.042170 100194.000000 0 0 1
21.514266 18.500735 8.148948 29.521961 0.710230 1.291135 0.176794 -0.052962 130615.000000 0 0 1
21.012566 18.942735 6.770348 29.089392 0.733641 1.335899 0.160761 -0.048038 207223.000000 0 0 1
21.875866 19.973035 6.237648 30.271833 0.739960 1.363255 0.106472 -0.024844 600635.000000 0 0 1
21.339566 20.500535 5.034448 30.016573 0.765348 1.402278 0.129200 -0.035854 72641.400000 0 0 1
18.200476 17.070435 32.668743 41.108440 0.753370 0.652289 0.156854 -0.033390 -194931.000000 0 0 1
17.659476 17.690635 31.572637 40.269679 0.786280 0.669664 0.136747 -0.036196 48471.700000 0 0 1
17.489176 16.751935 30.557307 38.990353 0.763871 0.670172 0.151050 -0.041010 -175557.000000 0 0 1
16.892976 17.392135 29.311747 38.039946 0.799956 0.691090 0.153050 -0.047388 118507.000000 0 0 1
17.824176 18.181735 28.590697 38.284523 0.795328 0.727566 0.157720 -0.047251 190134.000000 0 0 1
17.358376 18.346335 27.230477 37.140276 0.813061 0.747811 0.147371 -0.046672 -38334.200000 0 0 1
18.431776 18.585635 26.142117 36.994141 0.789555 0.786036 0.126283 -0.037396 -270123.000000 0 0 1
19.096176 19.783935 26.333327 38.072459 0.803086 0.807007 0.124519 -0.032076 -35044.600000 0 0 1
20.196076 19.940935 25.461907 38.129137 0.779042 0.839573 0.113274 -0.034289 -207516.000000 0 0 1
20.843376 21.342135 25.568877 39.289955 0.797221 0.862193 0.142593 -0.028125 -687146.000000 0 0 1
20.104576 22.447435 25.192947 39.278059 0.840401 0.874475 0.127559 -0.037045 -244769.000000 0 0 1
20.454276 23.635935 25.885037 40.584110 0.857436 0.879142 0.136142 -0.032078 -339291.000000 0 0 1
19.535676 24.802435 25.518397 40.595468 0.903630 0.891042 0.139983 -0.037299 -215293.000000 0 0 1
19.657276 25.288635 24.214437 40.152989 0.910041 0.923472 0.145762 -0.040481 339568.000000 0 0 1
18.826376 26.444335 24.133187 40.449302 0.952112 0.931504 0.134106 -0.046521 -94493.600000 0 0 1
19.076976 27.367435 22.922997 40.476800 0.962041 0.968757 0.105266 -0.045958 -242591.000000 0 0 1
20.327276 27.997335 23.060717 41.579389 0.942805 0.982891 0.126169 -0.045102 -188926.000000 0 0 1
20.474076 28.843235 21.933987 41.619945 0.953497 1.015722 0.102372 -0.042934 -228999.000000 0 0 1
21.794676 29.627635 21.897387 42.805376 0.936562 1.033801 0.111693 -0.034974 -460933.000000 0 0 1
22.847676 28.836135 21.428687 42.576139 0.900751 1.043380 0.137803 -0.040927 -514388.000000 0 0 1
24.022576 29.570435 21.154887 43.577793 0.888549 1.063917 0.139631 -0.041704 144535.000000 0 0 1
24.256076 29.776735 19.604887 43.120329 0.887217 1.098811 0.132979 -0.038216 -398811.000000 0 0 1
23.443876 30.754235 19.069387 43.117048 0.919471 1.112668 0.104766 -0.029734 -58583.700000 0 0 1
23.808276 30.778435 17.702387 42.749510 0.912401 1.143847 0.114094 -0.013509 -166106.000000 0 0 1
23.100576 31.771535 16.762987 42.709071 0.942123 1.167456 0.116821 -0.024576 -670207.000000 0 0 1
23.575276 33.087635 16.887987 43.997606 0.951724 1.176846 0.127495 -0.022396 162352.000000 0 0 1
23.513276 -33.771105 15.730187 44.054517 -0.962589 1.205676 0.122366 -0.024324 424085.000000 0 0 1
24.673076 33.555835 14.710387 44.171826 0.936780 1.231285 0.106961 -0.027664 334143.000000 0 0 1
24.471776 32.438635 13.874687 42.937627 0.924484 1.241755 0.123797 -0.031032 -207195.000000 0 0 1
23.477676 32.642635 12.902487 42.228155 0.947278 1.260288 0.098885 -0.029309 -168603.000000 0 0 1
23.106276 31.368335 12.163487 40.814493 0.935919 1.268180 0.105793 -0.050194 353206.000000 0 0 1
24.169076 30.977335 11.272487 40.875524 0.908234 1.291399 0.119211 -0.062577 543241.000000 0 0 1
23.772076 29.803835 10.564287 39.559883 0.897510 1.300470 0.105183 -0.063365 -309768.000000 0 0 1
24.927776 29.334435 9.635387 39.683041 0.866431 1.325536 0.100922 -0.060251 694485.000000 0 0 1
26.066876 28.699635 10.188187 40.086784 0.833434 1.313824 0.107645 -0.050399 495438.000000 0 0 1
26.884976 29.570035 10.987687 41.447776 0.832923 1.302492 0.105849 -0.052033 -877832.000000 0 0 1
28.216776 28.964335 11.465687 42.030716 0.798471 1.294501 0.102934 -0.046536 -134515.000000 0 0 1
28.171876 27.974635 12.438087 41.604577 0.781885 1.267194 0.105560 -0.042089 508564.000000 0 0 1
29.407476 27.903835 13.186187 42.629792 0.759168 1.256320 0.083661 -0.035657 764896.000000 0 0 1
29.693176 26.656635 14.020887 42.294753 0.731563 1.232899 0.073923 -0.041088 246316.000000 0 0 1
30.824776 26.850935 14.861887 43.497301 0.716607 1.222099 0.058948 -0.038849 149571.000000 0 0 1
31.243876 25.675535 15.502687 43.309886 0.687880 1.204727 0.071333 -0.035048 182095.000000 0 0 1
32.471676 25.988935 16.401887 44.708572 0.674959 1.195162 0.084365 -0.040460 59093.800000 0 0 1
33.683576 26.088635 15.699787 45.405765 0.659011 1.217741 0.102374 -0.037328 -732936.000000 0 0 1
34.733176 26.326135 16.595587 46.635527 0.648572 1.206965 0.094387 -0.037937 406854.000000 0 0 1
36.170476 26.255535 16.009087 47.475755 0.627887 1.226849 0.116874 -0.045592 716182.000000 0 0 1
36.606976 27.491235 15.352087 48.285870 0.644130 1.247239 0.103563 -0.036649 28063.900000 0 0 1
-37.556714 27.675735 15.369287 49.118918 -0.635068 1.252552 0.141176 -0.040631 510930.000000 0 0 1
-37.235714 28.956335 14.527187 49.355921 -0.660963 1.272036 0.096640 -0.031269 32543.600000 0 0 1
37.715076 30.128635 14.988887 50.545310 0.674038 1.269725 0.093795 -0.029626 -64107.000000 0 0 1
37.403276 31.012935 13.929787 50.545486 0.692264 1.291594 0.082346 -0.012813 171503.000000 0 0 1
36.772776 32.324835 14.488387 51.059234 0.721115 1.283087 0.053209 -0.017844 -414219.000000 0 0 1
36.444976 33.235835 13.424387 51.118208 0.739376 1.305065 0.029522 -0.018694 -203438.000000 0 0 1
35.525476 -33.458905 13.856787 50.730349 -0.755450 1.294135 0.026615 -0.011662 163115.000000 0 0 1
34.090076 33.785735 13.407287 49.833367 0.780914 1.298398 0.071050 -0.014916 -139293.000000 0 0 1
33.696476 32.623935 14.109087 48.977954 0.769227 1.278585 0.060977 -0.022275 -489033.000000 0 0 1
32.686776 31.954535 13.393987 47.633145 0.774071 1.285762 0.075290 -0.023896 -325366.000000 0 0 1
32.257076 30.639335 14.066487 46.659981 0.759683 1.264565 0.101606 -0.028302 328973.000000 0 0 1
31.278276 30.945535 15.073587 46.509888 0.780051 1.240742 0.100643 -0.022132 378307.000000 0 0 1
30.967176 29.937035 15.940887 45.927159 0.768486 1.216329 0.095646 -0.027931 -310891.000000 0 0 1
29.982476 30.305535 17.054487 45.915464 0.790757 1.190245 0.097722 -0.024701 -270558.000000 0 0 1
29.799776 29.340135 18.047787 45.547698 0.777626 1.163379 0.090053 -0.021114 -123902.000000 0 0 1
29.933676 29.911735 19.355487 46.533555 0.785032 1.141813 0.073216 -0.021710 -35240.000000 0 0 1
29.808676 28.984635 20.604487 46.402706 0.771383 1.110698 0.080010 -0.017807 -722384.000000 0 0 1
28.511676 28.705635 20.978087 45.574217 0.788788 1.092456 0.102878 -0.033722 -1084000.000000 0 0 1
28.520076 27.940135 22.145887 45.656174 0.775127 1.064367 0.106019 -0.031431 -478038.000000 0 0 1
27.256276 27.782535 22.965477 45.190563 0.794959 1.037712 0.135611 -0.035089 -1013370.000000 0 0 1
26.235176 27.047935 22.338087 43.804856 0.800651 1.035675 0.149254 -0.040995 -346660.000000 0 0 1
25.101176 26.878935 23.156977 43.460232 0.819586 1.008853 0.167120 -0.048170 -27695.400000 0 0 1
25.232776 25.787635 24.235977 43.463521 0.796273 0.979285 0.154449 -0.045835 -918840.000000 0 0 1
26.053676 26.106835 25.308687 44.731315 0.786417 0.969401 0.159036 -0.043237 -323883.000000 0 0 1
26.194576 25.001035 26.174597 44.680164 0.762089 0.944903 0.173056 -0.035835 -196700.000000 0 0 1
27.587376 24.924335 26.832337 45.850410 0.734728 0.945651 0.170905 -0.032044 609.015000 0 0 1
27.974376 25.855935 27.827537 47.174855 0.746064 0.939885 0.212325 -0.046471 81509.400000 0 0 1
28.364376 27.124135 27.364897 47.844478 0.763051 0.961909 0.169374 -0.038064 -296147.000000 0 0 1
28.851576 28.093735 28.501337 49.335561 0.772091 0.954884 0.121455 -0.029017 -28567.900000 0 0 1
30.156376 27.894835 28.990277 50.278872 0.746460 0.956248 0.102382 -0.019586 -399161.000000 0 0 1
30.515176 29.040735 29.697617 51.541136 0.760646 0.956734 0.095108 -0.018345 315030.000000 0 0 1
32.066476 29.118035 29.785077 52.566811 0.737246 0.968406 0.073245 -0.013500 87888.700000 0 0 1
32.554276 29.527435 28.582977 52.427444 0.736681 0.994179 0.064622 -0.015893 243093.000000 0 0 1
33.988076 29.572735 28.530047 53.326349 0.716043 1.006279 0.059619 -0.017920 622606.000000 0 0 1
34.474876 30.141135 27.207007 53.265620 0.718429 1.034705 0.059141 -0.017251 -558428.000000 0 0 1
34.286176 31.561635 27.169577 53.943161 0.744045 1.042954 0.060164 -0.016514 164519.000000 0 0 1
34.598576 32.078635 25.908257 53.826927 0.747623 1.068630 0.059901 -0.021250 -227425.000000 0 0 1
34.303676 33.590035 25.676667 54.445605 0.774887 1.079689 0.055630 -0.026401 -493406.000000 0 0 1
35.262076 -33.212205 26.277137 55.108552 -0.755471 1.073757 0.059079 -0.027456 96804.600000 0 0 1
34.843176 -31.908205 26.657537 54.247624 -0.741458 1.057094 0.058778 -0.028381 -45887.400000 0 0 1
36.069776 -31.125905 27.191147 54.856259 -0.711956 1.052179 0.052127 -0.031685 78594.300000 0 0 1
36.151876 -31.350305 28.571297 55.732565 -0.714386 1.032528 0.063478 -0.038249 -16166.600000 0 0 1
37.067976 -30.515005 29.200847 56.195105 -0.688738 1.024375 0.063359 -0.036922 -653007.000000 0 0 1
36.731776 -30.191905 30.696707 56.595603 -0.687986 0.997521 0.078606 -0.037807 -417387.000000 0 0 1
36.551576 -31.325405 31.549945 57.556040 -0.708555 0.990633 0.087351 -0.029834 1242470.000000 0 0 1
35.242976 -31.948905 31.460607 57.031304 -0.736413 0.986470 0.075422 -0.028940 735765.000000 0 0 1
34.843776 -32.794105 32.679837 57.944057 -0.755104 0.971587 0.082338 -0.026414 -230957.000000 0 0 1
34.562876 -32.098805 -33.676302 57.957044 -0.748451 2.190822 0.093316 -0.025835 187866.000000 0 0 1
34.752676 -32.869405 -32.520842 57.842471 -0.757555 2.167878 0.105374 -0.024853 -193745.000000 0 0 1
34.036476 33.404635 -32.384602 57.646455 0.776030 2.167332 0.109998 -0.024034 -64977.300000 0 0 1
34.481476 32.415835 -33.317302 57.877467 0.754530 2.184198 0.116381 -0.023405 -103209.000000 0 0 1
33.895076 31.185735 -33.075662 56.704723 0.743792 2.193577 0.112429 -0.015865 -603.029000 0 0 1
33.867676 30.196435 33.360975 56.318725 0.728155 0.936811 0.097311 -0.010655 -476887.000000 0 0 1
35.149676 29.782635 33.029434 56.687288 0.702930 0.948798 0.094403 -0.015430 -516066.000000 0 0 1
35.103076 28.745635 32.127960 55.594454 0.686155 0.954645 0.083674 -0.008499 -125570.000000 0 0 1
36.505576 28.253235 31.715056 56.006671 0.658649 0.968820 0.086679 -0.006678 -415387.000000 0 0 1
37.114376 27.443335 32.642917 56.534711 0.636699 0.955261 0.087982 -0.002069 -580452.000000 0 0 1
-37.311914 26.897235 32.071023 56.073084 -0.624599 0.961915 0.085253 -0.007266 -620567.000000 0 0 1
-36.926314 25.644935 32.837431 55.673264 -0.607018 0.939955 0.089377 -0.007159 -259468.000000 0 0 1
-37.735814 24.540935 32.481978 55.509711 -0.576611 0.945721 0.080308 -0.006141 194145.000000 0 0 1
-37.550414 23.437635 33.303337 55.393760 -0.557998 0.925781 0.075618 -0.000952 38902.900000 0 0 1
37.570876 22.120335 32.698643 54.498451 0.532116 0.927305 0.075803 -0.015764 248086.000000 0 0 1
-37.009814 21.690635 31.761471 53.376034 -0.530120 0.933467 0.082294 -0.007441 698862.000000 0 0 1
-37.372614 20.425135 31.205937 52.798759 -0.500173 0.938454 0.079910 -0.009922 -132280.000000 0 0 1
-36.272814 19.793635 30.350387 51.270372 -0.499527 0.937299 0.083500 -0.024327 -299879.000000 0 0 1
-36.172614 20.348935 29.035117 50.651508 -0.512428 0.960350 0.079191 -0.015649 710029.000000 0 0 1
-35.099514 19.856535 28.196927 49.206957 -0.514833 0.960601 0.091053 -0.019380 671021.000000 0 0 1
-35.577914 18.699635 27.328607 48.603674 -0.483915 0.973663 0.113889 -0.013101 -15908.800000 0 0 1
-36.071914 17.612935 28.080357 48.988825 -0.454222 0.960391 0.105938 -0.021604 -11914.400000 0 0 1
-36.494914 16.567635 27.275717 48.480203 -0.426151 0.973250 0.115505 -0.029424 -69115.000000 0 0 1
-37.131814 15.378435 28.063107 49.018424 -0.392652 0.961243 0.087400 -0.033371 338362.000000 0 0 1
-36.139114 14.677735 28.806117 48.489833 -0.385793 0.934693 0.099513 -0.028497 463480.000000 0 0 1
-36.756614 13.579235 29.437127 49.010089 -0.353884 0.926502 0.096945 -0.040412 -290874.000000 0 0 1
-35.771714 12.473535 29.790167 48.193969 -0.335515 0.904434 0.109290 -0.035393 278790.000000 0 0 1
-34.690714 12.872135 30.638657 48.040242 -0.355307 0.879196 0.112857 -0.028484 546806.000000 0 0 1
-33.759214 11.852935 30.879037 47.261946 -0.337656 0.858783 0.101855 -0.031247 1269470.000000 0 0 1
-32.244714 12.207535 30.556037 46.069696 -0.361915 0.845634 0.117079 -0.024193 475783.000000 0 0 1
-31.877614 12.174535 29.194437 44.907870 -0.364819 0.863085 0.109594 -0.021829 1522640.000000 0 0 1
-30.526614 12.603335 28.873707 43.868089 -0.391546 0.852379 0.104771 -0.020115 1475580.000000 0 0 1
-29.267514 11.885335 29.396417 43.150874 -0.385748 0.821331 0.097926 -0.027223 -266278.000000 0 0 1
-29.170914 10.600135 28.748477 42.305792 -0.348545 0.823661 0.099028 -0.032950 -124270.000000 0 0 1
-27.979714 9.929635 29.105797 41.576550 -0.341022 0.795324 0.085110 -0.026413 -221594.000000 0 0 1
-27.626914 8.776835 28.136907 40.397584 -0.307607 0.800288 0.085494 -0.031970 476008.000000 0 0 1
-28.526914 7.644235 28.157867 40.805449 -0.261815 0.809236 0.083997 -0.036198 605003.000000 0 0 1
-29.776114 7.956335 27.544497 41.335452 -0.261105 0.841473 0.101428 -0.036531 -421041.000000 0 0 1
-30.749014 6.803435 27.465977 41.787181 -0.217749 0.853589 0.095081 -0.027241 -514071.000000 0 0 1
-31.316914 6.555535 28.734757 43.004772 -0.206349 0.839042 0.101501 -0.023060 -406577.000000 0 0 1
-32.057214 5.387935 28.609877 43.303809 -0.166516 0.849075 0.110304 -0.024897 -513406.000000 0 0 1
-32.626814 4.787835 29.944767 44.543478 -0.145705 0.833540 0.109092 -0.025586 -24937.100000 0 0 1
-33.831314 5.400035 30.339257 45.762307 -0.158281 0.846011 0.127701 -0.033185 -409232.000000 0 0 1
-34.332214 4.908635 31.540844 46.878785 -0.142012 0.832786 0.133826 -0.030950 527896.000000 0 0 1
-35.855514 5.194135 31.697849 48.138868 -0.143862 0.852016 0.142101 -0.026358 448417.000000 0 0 1
-36.289114 6.543635 31.892332 48.752844 -0.178402 0.857720 0.132838 -0.025971 533176.000000 0 0 1
-37.699714 6.576435 32.133740 49.970944 -0.172705 0.872324 0.133869 -0.023220 894836.000000 0 0 1
37.330376 8.030735 32.454222 50.113134 0.211897 0.866341 0.117679 -0.030583 -67322.500000 0 0 1
37.681476 8.496135 33.712187 51.269772 0.221764 0.853241 0.116034 -0.028212 578609.000000 0 0 1
37.045076 9.806035 -33.748172 51.063050 0.258771 2.292829 0.112031 -0.030669 122632.000000 0 0 1
37.200976 10.227635 -32.260412 50.291662 0.268300 2.267205 0.105046 -0.024283 -87482.500000 0 0 1
36.228476 9.664035 -31.407192 48.911223 0.260682 2.268065 0.087933 -0.017131 -85997.200000 0 0 1
36.436076 9.883435 -30.060532 48.258735 0.264880 2.243245 0.061497 -0.008416 945642.000000 0 0 1
35.257276 9.286035 -29.155002 46.683188 0.257531 2.245325 0.048988 -0.005160 877028.000000 0 0 1
35.245176 7.926935 -29.018852 46.337377 0.221227 2.247532 0.057878 -0.009421 -628925.000000 0 0 1
33.988376 7.379035 -28.843662 45.184252 0.213787 2.263158 0.072969 -0.016947 -842461.000000 0 0 1
36.724336 6.033935 -19.851752 42.180295 0.162848 2.060813 0.073989 -0.017126 -144371.000000 0 0 1
35.872886 6.938335 -19.137152 41.246030 0.191055 2.053274 0.051552 -0.023667 536793.000000 0 0 1
36.436456 8.198635 -18.782452 41.804467 0.221326 2.036770 0.041180 -0.015589 -711533.000000 0 0 1
37.661706 8.228035 -17.830652 42.473954 0.215093 2.004024 0.059039 -0.022714 1173830.000000 0 0 1
-36.672294 7.800535 -18.454252 41.788335 -0.209586 2.028191 0.074719 -0.023270 984339.000000 0 0 1
-35.985084 8.705935 -19.323552 41.762654 -0.237371 2.051834 0.076557 -0.018633 -103910.000000 0 0 1
-34.874125 7.955935 -20.155252 41.057712 -0.224294 2.083919 0.069370 -0.013923 204575.000000 0 0 1
-35.213321 6.858435 -21.012652 41.575806 -0.192360 2.100648 0.061898 -0.009849 -19660.900000 0 0 1
-35.829762 7.259335 -22.229152 42.785570 -0.199900 2.117118 0.045760 -0.002425 218687.000000 0 0 1
-36.004264 6.036635 -23.139552 43.222527 -0.166119 2.135729 0.069139 -0.002608 209621.000000 0 0 1
-34.789669 5.801435 -23.813852 42.556754 -0.165237 2.164674 0.079431 -0.010758 5635.330000 0 0 1
-34.755728 4.515835 -24.464752 42.741987 -0.129207 2.180204 0.088317 -0.010485 -383623.000000 0 0 1
-33.638344 4.423835 -25.503372 42.444440 -0.130761 2.215379 0.118765 -0.017706 -669994.000000 0 0 1
-32.390514 4.326235 -24.899252 41.083263 -0.132779 2.221904 0.109900 -0.017514 -1262700.000000 0 0 1
-31.382234 4.069035 -25.809642 40.835515 -0.128941 2.254978 0.109070 -0.020333 -112918.000000 0 0 1
-29.950184 4.329435 -25.277112 39.429556 -0.143560 2.266688 0.095224 -0.020732 208451.000000 0 0 1
-29.643294 5.695735 -25.079552 39.244748 -0.189829 2.264065 0.064956 -0.013516 -1096030.000000 0 0 1
-28.364444 5.849935 -24.599652 37.998767 -0.203390 2.274939 0.084632 -0.013580 -760644.000000 0 0 1
-27.846174 7.332835 -24.766552 37.981074 -0.257488 2.281116 0.067967 -0.017080 -129289.000000 0 0 1
-28.512614 8.236335 -23.921652 38.118917 -0.281211 2.249203 0.058365 -0.020139 -256504.000000 0 0 1
-28.092964 9.611335 -23.995652 38.175695 -0.329643 2.250495 0.037208 -0.014686 -15863.400000 0 0 1
-26.680084 9.976335 -23.503152 36.929017 -0.357827 2.260672 0.078681 -0.011416 -242809.000000 0 0 1
-26.450954 9.990435 -22.120152 35.899344 -0.361133 2.234669 0.050612 -0.006119 165012.000000 0 0 1
-25.092884 10.276735 -21.837352 34.815716 -0.388710 2.248784 0.104849 -0.023347 -110735.000000 0 0 1
-24.904724 10.930335 -20.428952 34.015579 -0.413573 2.215018 0.123558 -0.039865 -664315.000000 0 0 1
-25.444584 12.261335 -20.240752 34.748457 -0.449050 2.192589 0.119626 -0.036801 1682650.000000 0 0 1
-26.871504 12.419735 -20.065452 35.762409 -0.432945 2.166482 0.092028 -0.021649 1357880.000000 0 0 1
-27.694124 11.580335 -19.002252 35.526810 -0.396055 2.135151 0.092831 -0.019037 -412783.000000 0 0 1
-27.275614 11.762435 -17.694352 34.574616 -0.407147 2.108043 0.105915 -0.029528 555320.000000 0 0 1
-28.159164 11.009135 -16.840952 34.608630 -0.372690 2.079003 0.120715 -0.031373 -287831.000000 0 0 1
-27.669764 10.620135 -15.437052 33.417147 -0.366478 2.050989 0.165070 -0.038892 -217714.000000 0 0 1
-26.676664 9.661435 -15.300152 32.234801 -0.347474 2.065359 0.196265 -0.040445 1602650.000000 0 0 1
-25.324034 9.972235 -15.749052 31.444949 -0.375138 2.095371 0.184979 -0.031429 890386.000000 0 0 1
-24.265724 8.907035 -15.458052 30.118300 -0.351794 2.109757 0.147630 -0.030119 -889614.000000 0 0 1
-22.937924 9.248135 -15.635152 29.259773 -0.383246 2.134543 0.121728 -0.022460 -337771.000000 0 0 1
-22.111024 8.085835 -15.531152 28.204517 -0.350586 2.153953 0.138337 -0.028011 433770.000000 0 0 1
-20.588224 8.373135 -15.439852 27.062398 -0.386265 2.177945 0.152478 -0.038690 37285.100000 0 0 1
-19.947724 8.660435 -16.651852 27.389761 -0.409601 2.224284 0.157878 -0.050392 319643.000000 0 0 1
-18.582424 8.899635 -16.362652 26.310575 -0.446648 2.241968 0.137820 -0.048218 -275175.000000 0 0 1
-17.773324 9.518935 -17.539352 26.723212 -0.491700 2.286746 0.115101 -0.034240 54428.000000 0 0 1
-17.361324 8.771535 -18.695952 26.979511 -0.467826 2.336395 0.158342 -0.054277 443731.000000 0 0 1
-16.590824 7.617035 -18.433952 25.943887 -0.430405 2.361050 0.155262 -0.050100 -753552.000000 0 0 1
-16.314924 6.776335 -19.658552 26.430175 -0.393665 2.409522 0.137321 -0.047457 -299164.000000 0 0 1
-17.360824 6.043635 -20.175452 27.294186 -0.334998 2.402656 0.137427 -0.038823 96715.400000 0 0 1
-18.380724 6.683735 -20.978252 28.681185 -0.348763 2.391212 0.151148 -0.038695 573084.000000 0 0 1
-19.295324 5.706835 -21.732852 29.617467 -0.287565 2.394673 0.151013 -0.030157 -37684.500000 0 0 1
-20.221724 5.078635 -20.866352 29.497717 -0.246058 2.356593 0.171878 -0.036407 67047.000000 0 0 1
-20.916524 4.050135 -21.508952 30.274405 -0.191266 2.360957 0.132548 -0.016623 -44447.700000 0 0 1
-21.849224 3.297335 -20.504352 30.144476 -0.149783 2.318835 0.147642 -0.018803 184596.000000 0 0 1
-22.491924 2.128735 -21.023752 30.861243 -0.094363 2.320244 0.152745 -0.011893 210468.000000 0 0 1
-23.252824 1.592835 -19.993052 30.707541 -0.068394 2.279802 0.139325 -0.015217 -288931.000000 0 0 1
-23.919024 0.219735 -20.319152 31.385282 -0.009186 2.274978 0.124541 -0.005525 102610.000000 0 0 1
-23.034624 -0.879565 -20.192952 30.645111 0.038166 2.290190 0.116950 -0.013433 245164.000000 0 0 1
-23.657024 -2.110565 -20.465252 31.351807 0.088980 2.282020 0.113295 -0.019463 -367358.000000 0 0 1
-24.249824 -2.471765 -21.852752 32.736927 0.101578 2.301678 0.112550 -0.019664 499573.000000 0 0 1
-23.425824 -2.629465 -23.058052 32.975098 0.111779 2.345153 0.076302 -0.020260 678496.000000 0 0 1
-22.514924 -3.765965 -23.041452 32.434747 0.165731 2.360854 0.063680 -0.028332 609189.000000 0 0 1
-21.477924 -3.643765 -24.185652 32.550330 0.168052 2.408373 0.056724 -0.024663 -51333.400000 0 0 1
-22.083824 -3.628465 -25.485552 33.917170 0.162849 2.420986 0.052461 -0.031079 53778.500000 0 0 1
-21.167724 -3.731465 -26.558972 34.166875 0.174488 2.461208 0.048447 -0.032820 -363384.000000 0 0 1
-21.918024 -3.598065 -27.890782 35.654475 0.162709 2.469069 0.044332 -0.035202 93840.900000 0 0 1
-22.809324 -4.696465 -28.049592 36.456847 0.203063 2.448685 0.049115 -0.029898 136812.000000 0 0 1
-23.337324 -4.802465 -29.370592 37.819651 0.202952 2.460041 0.026506 -0.031888 -588963.000000 0 0 1
-22.955324 -6.082065 -30.134542 38.367031 0.259001 2.474184 0.033053 -0.027540 -1168350.000000 0 0 1
-21.626924 -6.057865 -30.464992 37.848875 0.273108 2.506323 0.024816 -0.029909 -1247450.000000 0 0 1
-21.128124 -7.278365 -30.936142 38.163033 0.331755 2.516025 0.028983 -0.023733 -413681.000000 0 0 1
-19.674724 -7.188965 -31.434632 37.774490 0.350320 2.553798 0.052329 -0.028569 -446458.000000 0 0 1
-19.511824 -6.594665 -32.717422 38.660452 0.325929 2.579753 0.060196 -0.038362 475057.000000 0 0 1
-19.873524 -7.490565 -33.757132 39.882446 0.360446 2.580015 0.061082 -0.033167 -683966.000000 0 0 1
-19.818324 -6.930765 32.415281 38.620615 0.336421 0.574754 0.066412 -0.038155 527025.000000 0 0 1
-18.525024 -6.737465 31.812166 37.424376 0.348823 0.554738 0.086242 -0.038190 748164.000000 0 0 1
-17.953524 -5.505665 32.125212 37.211163 0.297558 0.528981 0.075191 -0.043936 -921755.000000 0 0 1
-16.541624 -5.286465 31.617774 36.072922 0.309327 0.502262 0.074765 -0.043212 -788830.000000 0 0 1
-16.513424 -5.240765 30.208897 34.824363 0.307310 0.520713 0.087430 -0.043298 -174989.000000 0 0 1
-15.406324 -4.623965 29.625787 33.710876 0.291580 0.497413 0.079583 -0.033942 -449735.000000 0 0 1
-15.417424 -4.759465 28.082257 32.387693 0.299425 0.521514 0.091957 -0.031174 134129.000000 0 0 1
-16.496824 -4.006465 27.556857 32.366300 0.238250 0.552136 0.088281 -0.036377 225009.000000 0 0 1
-16.794424 -4.248165 26.179677 31.392278 0.247754 0.584564 0.103146 -0.028867 -49913.600000 0 0 1
-15.845624 -3.622865 25.135437 29.933245 0.224772 0.574036 0.118755 -0.022757 -99665.800000 0 0 1
-16.015224 -2.258665 24.905877 29.696661 0.140108 0.575949 0.119239 -0.019754 1164840.000000 0 0 1
-14.879624 -1.666765 24.205207 28.461788 0.111552 0.553964 0.107134 -0.023191 1101990.000000 0 0 1
-15.031224 -0.119365 24.343557 28.610500 0.007941 0.553175 0.090790 -0.015798 134635.000000 0 0 1
-16.074724 0.468535 23.577967 28.540092 -0.029139 0.598583 0.094103 -0.021554 266773.000000 0 0 1
-16.176124 1.851635 23.954207 28.963763 -0.113971 0.596974 0.074823 -0.018313 -188924.000000 0 0 1
-16.726024 2.737635 22.865217 28.461776 -0.162237 0.637870 0.085114 -0.020526 20459.800000 0 0 1
-15.624424 3.208235 22.101087 27.255705 -0.202520 0.625143 0.072818 -0.017678 591531.000000 0 0 1
-15.970624 4.228435 21.188687 26.868215 -0.258825 0.662242 0.083992 -0.017431 213246.000000 0 0 1
-14.781824 4.708235 20.282987 25.535649 -0.308355 0.652940 0.087659 -0.011332 501227.000000 0 0 1
-13.953524 5.588235 21.017187 25.838951 -0.380928 0.620837 0.052563 -0.015834 -308424.000000 0 0 1
-12.662224 5.659935 20.504287 24.754648 -0.420351 0.594729 0.034029 -0.010669 -651828.000000 0 1 0
-11.835724 6.838235 20.915387 24.985981 -0.523908 0.578864 0.029836 -0.009291 -489149.000000 0 1 0
-12.304924 8.000735 20.282487 25.036018 -0.576520 0.626419 0.041689 -0.014126 250873.000000 0 0 1
-11.503024 9.148035 20.546687 25.262076 -0.671851 0.620924 0.025738 -0.010468 163863.000000 0 0 1
-12.219924 10.558935 20.430587 26.042783 -0.712609 0.668905 0.027117 -0.005819 -84753.500000 0 0 1
-12.460824 10.997935 19.063987 25.291547 -0.723119 0.717017 0.026276 -0.009859 508846.000000 0 0 1
-13.171924 12.230535 19.089387 26.220036 -0.748356 0.755329 0.021068 -0.007612 -259293.000000 0 0 1
-13.555524 12.786735 17.673587 25.682845 -0.756222 0.811863 0.040110 -0.011796 -193669.000000 0 0 1
-12.626824 13.591335 16.956287 25.133180 -0.822169 0.830296 0.033872 -0.010718 215494.000000 0 0 1
-12.453124 14.953735 17.429787 26.124547 -0.876387 0.840379 0.052454 -0.023994 -280463.000000 0 0 1
-13.691124 15.867535 17.164187 27.089387 -0.858896 0.884582 0.054791 -0.012194 277597.000000 0 0 1
-13.940924 16.303735 15.797487 26.640603 -0.863363 0.936035 0.057578 -0.024342 -55339.600000 0 0 1
-14.336424 15.340835 14.881287 25.735714 -0.819230 0.954233 0.082116 -0.030994 -496826.000000 0 0 1
-14.875224 15.940035 13.540887 25.665398 -0.819939 1.015032 0.068773 -0.035056 372050.000000 0 0 1
-16.109524 16.613235 13.710987 26.898095 -0.800790 1.035916 0.051042 -0.030752 -116417.000000 0 0 1
-16.441324 17.314435 12.557287 26.977625 -0.811258 1.086630 0.069013 -0.036323 1044850.000000 0 0 1
-17.701524 18.294435 12.580087 28.395227 -0.801868 1.111815 0.065985 -0.029347 1215790.000000 0 0 1
-18.967224 17.692835 12.773987 28.913090 -0.750650 1.113185 0.074974 -0.030174 -279777.000000 0 0 1
-19.984324 18.646935 12.917687 30.231574 -0.750793 1.129302 0.074082 -0.030352 -27730.700000 0 0 1
-21.383924 18.013735 13.013287 30.840112 -0.700063 1.135190 0.084998 -0.020616 -102026.000000 0 0 1
-21.802524 17.379235 11.844787 30.293347 -0.672983 1.169075 0.092017 -0.024286 1075530.000000 0 0 1
-23.141924 16.870235 12.137687 31.104291 -0.629919 1.169920 0.097801 -0.023454 1112880.000000 0 0 1
-23.847724 16.275035 10.965787 30.884287 -0.598855 1.207818 0.107642 -0.021400 -202704.000000 0 0 1
-23.150324 15.077935 10.619587 29.598265 -0.577292 1.203824 0.081151 -0.004037 460664.000000 0 0 1
-23.609424 14.616535 9.355287 29.301355 -0.554344 1.245828 0.092547 -0.004239 57910.900000 0 0 1
-22.818024 13.323035 9.017287 27.919115 -0.528484 1.241921 0.111291 -0.002149 -375843.000000 0 0 1
-22.933224 12.180435 9.836387 27.767792 -0.488237 1.208698 0.107718 -0.008405 790675.000000 0 0 1
-24.229624 11.564535 9.910587 28.618751 -0.445314 1.217175 0.145562 -0.003992 831161.000000 0 0 1
-24.961824 10.997535 8.652787 28.616589 -0.414988 1.263619 0.171288 -0.009015 -93804.900000 0 0 1
-25.438114 12.019435 7.731687 29.177791 -0.441404 1.302608 0.184510 -0.011044 1130970.000000 0 0 1
-26.518094 11.436935 6.948687 29.703486 -0.407185 1.334673 0.234499 -0.020036 421213.000000 0 0 1
-27.031484 12.275035 5.731087 30.236121 -0.426259 1.380098 0.219168 -0.028079 -542282.000000 0 0 1
-26.289194 12.454835 4.572387 29.447434 -0.442438 1.414893 0.223681 -0.037336 283971.000000 0 0 1
-25.104534 13.263135 4.594787 28.762136 -0.486043 1.410358 0.203611 -0.032172 -506.761000 0 0 1
-25.076934 14.738135 5.113287 29.533218 -0.531339 1.396783 0.181387 -0.025569 633052.000000 0 0 1
-23.686824 15.129135 5.273987 28.596701 -0.568401 1.385308 0.163377 -0.038303 1667490.000000 0 0 1
-23.623424 16.291335 6.030387 29.323017 -0.603730 1.363665 0.145698 -0.032357 -259245.000000 0 0 1
-22.177324 16.790035 6.185287 28.495557 -0.648018 1.351993 0.134463 -0.033129 -238555.000000 0 0 1
-21.779324 17.554435 5.077087 28.430159 -0.678397 1.391252 0.155639 -0.042549 77267.300000 0 0 1
-20.396024 17.783835 5.168787 27.549573 -0.717087 1.382060 0.162024 -0.043965 -289706.000000 0 0 1
-19.832624 18.936335 4.283887 27.753729 -0.762284 1.415823 0.144059 -0.032861 -34866.700000 0 0 1
-18.438024 19.131635 4.442287 26.939081 -0.803858 1.405138 0.130803 -0.033406 292123.000000 0 0 1
-17.870624 20.039135 3.527487 27.080792 -0.842538 1.440167 0.134231 -0.038974 92360.600000 0 0 1
-18.161024 21.513335 3.800987 28.409398 -0.869694 1.436601 0.122360 -0.040463 -212732.000000 0 0 1
-17.308424 21.886635 4.864087 28.324295 -0.901677 1.398212 0.130319 -0.044620 235765.000000 0 0 1
-17.559624 23.239135 5.254287 29.597387 -0.923717 1.392325 0.112549 -0.034764 -15798.100000 0 0 1
-16.856024 23.653135 6.568587 29.778225 -0.951642 1.348384 0.099364 -0.022426 53018.400000 0 0 1
-17.417224 22.978735 7.667787 29.835833 -0.922213 1.310880 0.095008 -0.021025 470980.000000 0 0 1
-16.532324 22.976835 8.791887 29.640344 -0.947089 1.269646 0.090296 -0.023002 245575.000000 0 0 1
-17.046424 22.131735 9.979587 29.664565 -0.914476 1.227690 0.065753 -0.022389 543496.000000 0 0 1
-18.216424 22.645435 10.619087 30.942186 -0.893367 1.220484 0.076233 -0.013453 430446.000000 0 0 1
-19.215524 21.651435 10.875187 30.923950 -0.844934 1.211436 0.083967 -0.024690 356044.000000 0 0 1
-20.555424 22.246335 11.349887 32.345708 -0.824883 1.212272 0.085668 -0.025152 -182467.000000 0 0 1
-21.272724 23.124735 10.479087 33.122401 -0.827088 1.248891 0.093289 -0.013237 101817.000000 0 0 1
-20.680924 24.372435 10.054587 33.508371 -0.867152 1.266039 0.071224 -0.012915 -565450.000000 0 0 1
-21.699824 25.331435 9.429887 34.662469 -0.862462 1.295275 0.083580 -0.012007 -454215.000000 0 0 1
-22.476424 25.970035 10.363587 35.875288 -0.857386 1.277741 0.090140 -0.019033 -494879.000000 0 0 1
-23.342324 26.887235 9.744487 36.915343 -0.855856 1.303662 0.110414 -0.016946 -361264.000000 0 0 1
-24.376824 27.491835 10.678687 38.263101 -0.845382 1.287954 0.120542 -0.026436 -277606.000000 0 0 1
-23.720324 28.174935 11.759587 38.662238 -0.871027 1.261738 0.128201 -0.034205 652579.000000 0 0 1
-24.656024 28.792535 12.616187 39.951193 -0.862637 1.249507 0.127296 -0.036704 -7532.110000 0 0 1
10.160876 -32.537605 27.594067 43.856262 -1.268111 0.890281 0.061882 -0.028764 775654.000000 0 0 1
11.576976 -32.679605 27.386947 44.181759 -1.230334 0.902219 0.060633 -0.032929 1058340.000000 0 0 1
11.993076 -32.342305 26.100867 43.256373 -1.215698 0.923039 0.076395 -0.025448 302514.000000 0 0 1
13.531376 -32.460605 25.888237 43.669095 -1.175844 0.936231 0.028865 -0.014160 505027.000000 0 0 1
13.943176 33.796135 25.758617 44.722447 1.179503 0.957011 0.051114 -0.032195 -682194.000000 0 0 1
15.325776 33.764235 25.664177 45.094933 1.144699 0.965368 0.056630 -0.020443 -1001510.000000 0 0 1
15.879376 32.396535 25.287747 44.058600 1.115054 0.959466 0.080132 -0.015087 -217342.000000 0 0 1
15.882576 32.200635 23.905967 43.135048 1.112573 0.983380 0.068550 -0.026464 392844.000000 0 0 1
16.690376 31.132335 23.400297 42.371746 1.078679 0.985721 0.063616 -0.023197 -538867.000000 0 0 1
16.447576 30.721335 21.988287 41.204465 1.079247 1.007899 0.070610 -0.037308 181243.000000 0 0 1
15.267776 29.958935 21.732487 40.036780 1.099480 0.997013 0.078493 -0.031306 102531.000000 0 0 1
15.388576 28.539535 22.002587 39.184527 1.076281 0.974584 0.083008 -0.029968 -729213.000000 0 0 1
15.069276 27.976735 23.417047 39.473268 1.076720 0.935721 0.094382 -0.037849 -241402.000000 0 0 1
16.042676 28.256635 24.403397 40.636568 1.054428 0.926635 0.082661 -0.031404 126578.000000 0 0 1
15.524476 27.993635 25.706767 41.054730 1.064450 0.894180 0.071005 -0.034749 -52392.000000 0 0 1
16.513776 28.150735 26.891697 42.288675 1.040273 0.881612 0.080167 -0.036585 60594.600000 0 0 1
16.757576 29.495835 27.220517 43.494565 1.054138 0.894592 0.083465 -0.039451 -173116.000000 0 0 1
17.688176 29.556235 28.251487 44.548728 1.031511 0.883861 0.094409 -0.042795 -212787.000000 0 0 1
17.652376 30.972035 28.931547 45.911957 1.052769 0.889046 0.097633 -0.051996 79189.900000 0 0 1
18.257176 31.876935 28.025747 46.205043 1.050663 0.919080 0.086444 -0.037943 -50029.700000 0 0 1
18.265976 33.220935 28.535127 47.450289 1.068081 0.925583 0.102920 -0.019317 13336.800000 0 0 1
19.065076 -33.469105 27.640987 47.409728 -1.053006 0.948351 0.075346 -0.022198 -416979.000000 0 0 1
18.263776 -32.983805 26.594237 46.138383 -1.065102 0.956478 0.079735 -0.018610 -280242.000000 0 0 1
18.271776 -31.626005 26.215337 44.958936 -1.046901 0.948263 0.066424 -0.022791 549656.000000 0 0 1
19.596776 -31.079505 25.549057 44.751800 -1.008225 0.963188 0.079907 -0.018072 530880.000000 0 0 1
20.732576 -30.942405 26.342587 45.620215 -0.980464 0.955216 0.082404 -0.013991 -105025.000000 0 0 1
21.558176 -29.879905 25.844917 45.005815 -0.945790 0.959100 0.086954 -0.017893 107028.000000 0 0 1
22.117676 -28.981105 26.954267 45.339040 -0.918916 0.934147 0.105082 -0.017035 -1143900.000000 0 0 1
21.124176 -28.422805 27.686727 44.951546 -0.931654 0.907238 0.099575 -0.013802 -766027.000000 0 0 1
21.591376 -27.498305 28.569317 45.150307 -0.905152 0.885684 0.117357 -0.011272 -498130.000000 0 0 1
20.449476 -27.070805 29.505357 44.961936 -0.923844 0.854985 0.092945 -0.021603 95622.300000 0 0 1
19.478576 -26.362905 28.757707 43.605314 -0.934461 0.850643 0.119939 -0.019910 165122.000000 0 0 1
18.324976 -26.072905 29.540167 43.453683 -0.958170 0.823295 0.095879 -0.026379 357930.000000 0 0 1
17.192176 -25.350705 28.764087 42.019066 -0.974870 0.816812 0.118569 -0.012170 -757861.000000 0 0 1
16.682076 -26.036205 27.652497 41.482963 -1.000968 0.841160 0.114614 -0.016397 560392.000000 0 0 1
15.943276 -25.147905 26.743177 40.022527 -1.005765 0.839005 0.108754 -0.036379 1343170.000000 0 0 1
14.475776 -24.785905 27.276387 39.596597 -1.042200 0.810885 0.099233 -0.029420 1234650.000000 0 0 1
13.531676 -25.893605 27.284317 39.975230 -1.089242 0.819577 0.085325 -0.015316 778202.000000 0 0 1
12.849076 -25.987105 26.048107 38.973482 -1.111606 0.838802 0.063686 -0.023427 -613651.000000 0 0 1
12.077876 -27.316105 25.907737 39.538026 -1.154488 0.856268 0.055128 -0.022356 -767636.000000 0 0 1
10.716376 -27.155405 26.153737 39.195340 -1.194927 0.840264 0.053304 -0.033837 -956017.000000 0 0 1
10.023276 -28.337905 26.097267 39.806661 -1.230824 0.855819 0.042035 -0.023383 -1263250.000000 0 0 1
8.575576 -28.263905 26.520607 39.695484 -1.276213 0.839142 0.033536 -0.037961 -769982.000000 0 0 1
7.543076 -27.967105 25.615837 38.668179 -1.307353 0.846708 0.068266 -0.038510 99822.100000 0 0 1
7.627576 -26.686105 24.949387 37.320236 -1.292394 0.838577 0.087936 -0.037776 -494721.000000 0 0 1
6.271776 -26.393605 24.221967 36.368410 -1.337498 0.841940 0.102374 -0.039865 299992.000000 0 0 1
6.097876 -27.007505 22.969837 35.975031 -1.348735 0.878257 0.094979 -0.040554 -120408.000000 0 0 1
5.891076 -28.413605 22.920287 36.978065 -1.366360 0.902264 0.094787 -0.040519 -593031.000000 0 0 1
4.694976 -29.039105 23.720687 37.788668 -1.410506 0.892176 0.156903 -0.034551 -175738.000000 0 0 1
3.528976 -28.799705 22.955977 36.998021 -1.448869 0.901461 0.164829 -0.032492 659917.000000 0 0 1
2.329976 -28.696505 23.765537 37.332545 -1.489780 0.880727 0.190903 -0.031508 823329.000000 0 0 1
1.739676 -27.319505 23.975797 36.389843 -1.507203 0.851495 0.159347 -0.038933 -241989.000000 0 0 1
2.538776 -26.518605 24.828057 36.415851 -1.475352 0.820586 0.121017 -0.040044 71090.600000 0 0 1
2.111276 -25.187405 24.770117 35.389569 -1.487169 0.795501 0.110284 -0.031685 -533798.000000 0 0 1
3.025476 -24.192405 25.399207 35.207182 -1.446383 0.764944 0.103326 -0.028898 -793230.000000 0 0 1
4.357276 -24.104905 24.970187 34.979173 -1.391964 0.775803 0.098249 -0.035525 28006.600000 0 0 1
5.237876 -23.262105 25.731537 35.080948 -1.349322 0.747353 0.081226 -0.031185 402285.000000 0 0 1
4.996876 -21.707105 25.880057 34.145930 -1.344542 0.710670 0.070595 -0.017271 -464346.000000 0 0 1
5.028376 -20.961005 24.709397 32.790282 -1.335354 0.717338 0.075673 -0.022180 326146.000000 0 0 1
4.232476 -19.794505 24.871517 32.067564 -1.360148 0.683135 0.100900 -0.033299 177237.000000 0 0 1
4.102676 -18.887705 23.610937 30.513173 -1.356905 0.685986 0.121725 -0.033876 -166925.000000 0 0 1
5.346376 -18.311805 23.337967 30.142439 -1.286729 0.685258 0.078352 -0.021967 -456422.000000 0 0 1
5.527976 -18.097805 21.955787 28.985266 -1.274347 0.711350 0.076579 -0.023496 -133778.000000 0 0 1
6.821176 -17.309005 21.705887 28.588033 -1.195402 0.708614 0.071651 -0.012061 -278866.000000 0 0 1
7.993276 -18.046005 21.943387 29.513776 -1.153830 0.732513 0.077732 -0.015631 -1001140.000000 0 0 1
8.996176 -17.430305 21.204087 28.885291 -1.094334 0.746487 0.078360 -0.012938 -481310.000000 0 0 1
10.359076 -17.400805 21.930187 29.850152 -1.033824 0.745608 0.084475 -0.004249 -169140.000000 0 0 1
10.420076 -16.618005 23.107627 30.310040 -1.010735 0.703821 0.087788 -0.000255 -274185.000000 0 0 1
11.662376 -16.824805 23.733157 31.342429 -0.964672 0.711748 0.109576 -0.002333 -30848.400000 0 0 1
11.698176 -16.018405 25.043297 31.946883 -0.940026 0.669867 0.125386 -0.020910 93929.100000 0 0 1
11.544576 -14.608305 24.851827 31.053070 -0.902014 0.642998 0.146130 -0.026083 128384.000000 0 0 1
11.295876 -13.966205 26.127717 31.706613 -0.890712 0.602280 0.139859 -0.030515 -123380.000000 0 0 1
11.585976 -12.455505 26.128707 31.178258 -0.821550 0.577111 0.141909 -0.026104 69388.900000 0 0 1
10.561776 -11.767705 25.470487 29.979588 -0.839352 0.555581 0.151520 -0.025839 176357.000000 0 0 1
10.938076 -10.408005 25.451947 29.593406 -0.760571 0.535420 0.140235 -0.022405 88692.600000 0 0 1
9.863276 -9.574405 24.751917 28.312733 -0.770538 0.506943 0.116705 -0.018197 196127.000000 0 0 1
8.577876 -9.509705 25.369507 28.418767 -0.836870 0.467489 0.121458 -0.026402 412970.000000 0 0 1
7.698276 -8.874605 24.465217 27.139803 -0.856258 0.447685 0.102870 -0.032300 -476289.000000 0 0 1
6.215576 -8.943105 24.829147 27.112710 -0.963425 0.413363 0.092883 -0.032949 -1334680.000000 0 0 1
5.761876 -8.066605 25.866807 27.701282 -0.950546 0.365972 0.112572 -0.025399 614761.000000 0 0 1
4.472276 -8.380405 26.376077 28.034441 -1.080586 0.345679 0.131287 -0.029003 978343.000000 0 0 1
3.218276 -8.407305 25.453857 26.998869 -1.205209 0.339939 0.096931 -0.027225 -377974.000000 0 0 1
2.905376 -7.126605 24.932747 26.093516 -1.183687 0.299395 0.100224 -0.029754 -292241.000000 0 0 1
1.750576 -7.061705 24.143517 25.215900 -1.327798 0.292687 0.081490 -0.030045 -6707.590000 0 0 1
1.710076 -5.745505 23.348007 24.105282 -1.281509 0.251321 0.059568 -0.034985 88253.900000 0 1 0
1.656476 -4.569005 24.146967 24.631195 -1.222988 0.198615 0.075149 -0.026605 333308.000000 0 1 0
2.393576 -3.467905 23.591017 23.964383 -0.966672 0.176752 0.076368 -0.030240 -132322.000000 0 1 0
1.583376 -2.739805 22.407587 22.629927 -1.046774 0.140294 0.066100 -0.032043 1062040.000000 0 1 0
0.607976 -1.763405 22.814387 22.890511 -1.238785 0.081577 0.068742 -0.031812 792616.000000 0 1 0
-0.547424 -2.328405 23.446207 23.567897 1.339883 0.101664 0.058020 -0.026093 -32440.400000 0 1 0
-1.562224 -1.228405 23.888637 23.971160 0.666342 0.083001 0.056475 -0.029784 -51808.900000 0 1 0
-1.038124 -0.382405 24.858507 24.883113 0.352938 0.044475 0.075555 -0.032403 -243362.000000 0 1 0
-1.898524 0.653595 25.254207 25.333902 -0.331556 0.079340 0.074861 -0.032423 -398103.000000 0 0 1
-1.535824 1.357595 26.611187 26.690019 -0.723878 0.076877 0.110092 -0.039376 -322016.000000 0 0 1
-1.883824 0.737595 27.845007 27.918404 -0.373193 0.072527 0.136812 -0.037044 189816.000000 0 0 1
-1.186724 -0.504405 28.060227 28.089840 0.401904 0.045921 0.140993 -0.039315 -364051.000000 0 0 1
0.243276 -0.423405 28.627267 28.631432 -1.049285 0.017056 0.164439 -0.035949 -416189.000000 0 0 1
1.197376 0.275595 27.860837 27.887917 0.226226 0.044072 0.126035 -0.036716 -17814.600000 0 0 1
1.811976 -0.446405 26.802327 26.867216 -0.241553 0.069514 0.113328 -0.033113 162943.000000 0 0 1
2.925476 -1.500405 27.207657 27.405588 -0.473895 0.120258 0.109876 -0.031522 -93700.400000 0 0 1
2.480676 -2.667505 27.904027 28.140790 -0.821673 0.129810 0.142232 -0.033593 -137243.000000 0 0 1
3.483076 -3.587005 28.269307 28.708050 -0.800097 0.175054 0.161889 -0.025403 375766.000000 0 0 1
4.276176 -4.398305 27.151297 27.835655 -0.799476 0.222203 0.147983 -0.025100 482154.000000 0 0 1
5.171676 -3.631805 26.356187 27.103226 -0.612234 0.235331 0.137231 -0.026254 177996.000000 0 0 1
5.701576 -4.453605 25.322657 26.335898 -0.663121 0.278291 0.126674 -0.023778 -79638.500000 0 0 1
6.895376 -3.857705 24.476657 25.720320 -0.510079 0.312244 0.107293 -0.027531 705403.000000 0 0 1
8.121876 -3.775805 25.234427 26.776816 -0.435170 0.341067 0.096975 -0.024478 887323.000000 0 0 1
8.883276 -4.987405 25.259827 27.236844 -0.511582 0.383358 0.107634 -0.028728 31865.600000 0 0 1
9.726676 -5.291605 23.969207 26.403261 -0.498248 0.432758 0.092142 -0.033740 115026.000000 0 0 1
8.826776 -5.495205 22.892597 25.143195 -0.556843 0.426332 0.095312 -0.036705 409569.000000 0 0 1
9.555676 -5.527405 21.658287 24.309351 -0.524417 0.471375 0.099083 -0.033616 303155.000000 0 1 0
9.799476 -4.135005 21.071487 23.603719 -0.399295 0.467453 0.111681 -0.047487 1866570.000000 0 1 0
8.512976 -3.617905 20.576187 22.559687 -0.401860 0.422473 0.089653 -0.055560 1051300.000000 0 1 0
8.699476 -2.317405 20.169487 22.087541 -0.260339 0.419823 0.090229 -0.042828 -906841.000000 0 1 0
7.423376 -1.562405 20.066387 21.452448 -0.207443 0.361438 0.077406 -0.030880 -1040360.000000 0 1 0
6.697076 -1.312405 21.240587 22.309993 -0.193515 0.310876 0.078291 -0.026106 641547.000000 0 1 0
5.427376 -0.729405 20.903487 21.608892 -0.133593 0.256216 0.053049 -0.026471 159806.000000 0 1 0
4.659576 -0.281405 22.104487 22.592016 -0.060320 0.208124 0.038649 -0.031299 -519373.000000 0 1 0
3.387776 0.276595 21.868787 22.131367 0.081464 0.154195 0.042260 -0.031922 13019.200000 0 1 0
2.800076 0.609595 23.125047 23.301928 0.214362 0.123292 0.058136 -0.034878 179395.000000 0 1 0
1.394976 1.263595 23.148237 23.224632 0.736021 0.081132 0.060810 -0.041770 -51515.100000 0 1 0
1.185376 2.613595 22.884037 23.063286 1.145001 0.124757 0.061369 -0.032590 -273831.000000 0 1 0
-0.195424 2.815595 22.981717 23.154375 -1.501500 0.122197 0.044404 -0.025083 -347115.000000 0 1 0
-0.758624 4.226595 22.604307 23.008571 -1.393199 0.187733 0.053085 -0.019281 -118533.000000 0 1 0
-0.526624 5.267595 23.541477 24.129361 -1.471153 0.221194 0.064559 -0.020414 -74055.400000 0 1 0
-1.229624 6.367595 23.067677 23.961969 -1.380038 0.274065 0.056190 -0.020068 -197264.000000 0 1 0
-1.046524 7.652595 23.931217 25.146781 -1.434885 0.312196 0.069674 -0.012974 526252.000000 0 0 1
0.072876 8.396595 23.432297 24.891378 1.562117 0.344092 0.065302 -0.010954 657334.000000 0 1 0
-0.098224 9.741595 23.938977 25.845366 -1.560714 0.386488 0.082121 -0.008338 -870448.000000 0 0 1
0.752076 10.716595 23.121587 25.495467 1.500733 0.434952 0.085161 -0.015569 228624.000000 0 0 1
2.154176 10.703595 23.264927 25.699499 1.372192 0.438787 0.075701 -0.014821 -79453.400000 0 0 1
2.709376 10.891595 24.542137 26.986739 1.326987 0.428922 0.085344 -0.012659 -180714.000000 0 0 1
4.038576 11.755595 24.531127 27.500551 1.239884 0.468995 0.068906 -0.015448 1846720.000000 0 0 1
5.296076 11.274595 23.993697 27.034467 1.131652 0.478856 0.070867 -0.015329 1144880.000000 0 0 1
5.289576 10.693595 22.705297 25.648842 1.111439 0.483794 0.075139 -0.018034 -981879.000000 0 0 1
6.699476 10.438595 22.149587 25.386049 1.000208 0.510480 0.065342 -0.014069 -241442.000000 0 0 1
7.395176 11.592595 21.761687 25.741949 1.002958 0.563523 0.063707 -0.018315 -287041.000000 0 0 1
8.607076 11.185595 21.192887 25.462478 0.914945 0.587519 0.072317 -0.016142 -263170.000000 0 0 1
9.482476 12.312595 20.580287 25.788865 0.914527 0.646777 0.070580 -0.040494 -681726.000000 0 0 1
9.083376 12.729595 19.328787 24.862669 0.951025 0.680240 0.060279 -0.041843 -110530.000000 0 1 0
9.820876 13.815595 18.746687 25.273673 0.952823 0.735124 0.073130 -0.041390 295943.000000 0 0 1
11.256376 13.373595 18.320487 25.321913 0.871148 0.761933 0.069101 -0.040848 394506.000000 0 0 1
12.200076 13.437595 19.413587 26.576271 0.833630 0.751763 0.086180 -0.043020 -51185.900000 0 0 1
13.434476 12.926595 18.973087 26.600001 0.766134 0.776638 0.092475 -0.044061 290551.000000 0 0 1
14.516776 12.979595 20.114687 27.996559 0.729551 0.769196 0.119889 -0.043248 249636.000000 0 0 1
15.026476 14.225595 20.422387 29.072950 0.758026 0.791958 0.128673 -0.046991 -432825.000000 0 0 1
16.301676 14.013595 20.971987 30.032478 0.710065 0.797762 0.136307 -0.049034 69900.100000 0 0 1
17.128776 15.302595 21.209587 31.263573 0.729148 0.825197 0.135436 -0.044446 105644.000000 0 0 1
16.750176 15.988595 22.389287 32.209994 0.762140 0.802232 0.141942 -0.041975 595498.000000 0 0 1
17.704976 17.020595 22.714017 33.452853 0.765692 0.824416 0.128612 -0.034529 170775.000000 0 0 1
-22.214224 13.024435 -24.410452 35.482077 -0.530293 2.329479 0.098545 -0.009043 166575.000000 0 0 1
-22.081724 12.697035 -25.774242 36.237119 -0.521836 2.362094 0.089145 -0.019056 -242084.000000 0 0 1
-22.723324 13.595535 -26.602742 37.535236 -0.539174 2.358508 0.086666 -0.024419 -351010.000000 0 0 1
-22.349224 13.423535 -28.092562 38.325855 -0.540880 2.393507 0.077344 -0.023364 17392.000000 0 0 1
-21.043124 13.929735 -28.269042 37.894450 -0.584738 2.412823 0.098268 -0.022013 -273977.000000 0 0 1
-20.812424 14.226335 -29.585292 38.869462 -0.599600 2.435873 0.084336 -0.033269 383227.000000 0 0 1
-19.376624 14.762835 -29.884052 38.554525 -0.651067 2.457688 0.075862 -0.033111 886291.000000 0 0 1
-18.353124 13.789735 -30.038382 37.806062 -0.644369 2.489044 0.072815 -0.025910 -677933.000000 0 0 1
-17.077024 14.246535 -30.316432 37.598864 -0.695280 2.508687 0.055449 -0.020340 -284925.000000 0 0 1
-16.057224 13.920635 -29.197772 36.112718 -0.714246 2.512425 0.086419 -0.010780 -314914.000000 0 0 1
-16.428724 14.325935 -27.884992 35.393618 -0.717131 2.478112 0.112191 -0.014154 -90435.400000 0 0 1
-17.039124 13.298435 -27.136922 34.692833 -0.662715 2.468994 0.139538 -0.012720 49558.800000 0 0 1
-17.829924 13.780635 -25.875882 34.312875 -0.657993 2.425103 0.126706 -0.020740 151512.000000 0 0 1
-17.018924 14.207935 -24.786852 33.255033 -0.695622 2.411866 0.163360 -0.031324 -145558.000000 0 0 1
-17.774024 14.751235 -23.752552 33.131535 -0.692728 2.370166 0.160524 -0.030663 -544413.000000 0 0 1
-16.892224 15.397035 -22.694752 32.209745 -0.739125 2.352645 0.171187 -0.029236 182517.000000 0 0 1
-16.264924 16.622435 -23.142452 32.808934 -0.796269 2.353742 0.150724 -0.028843 -250984.000000 0 0 1
-15.685524 17.330235 -22.083252 32.156535 -0.835173 2.327794 0.143862 -0.027660 -591058.000000 0 0 1
-15.650724 18.858435 -22.227752 33.085627 -0.878084 2.307466 0.121057 -0.022545 553729.000000 0 0 1
-16.929124 19.472235 -22.193752 34.034186 -0.855148 2.281150 0.095891 -0.016981 516771.000000 0 0 1
-17.850324 19.216135 -23.241252 35.043540 -0.822229 2.295897 0.086086 -0.014405 120162.000000 0 0 1
-19.084324 20.172235 -23.254352 36.220096 -0.813104 2.267938 0.062862 -0.014580 483273.000000 0 0 1
-18.754224 21.490335 -23.682552 37.073153 -0.853281 2.263742 0.051927 -0.008944 -138739.000000 0 0 1
-19.886724 22.322135 -23.633052 38.108800 -0.843033 2.239726 0.086614 -0.024166 -62069.200000 0 0 1
-19.571624 23.800235 -23.746052 38.902116 -0.882588 2.227368 0.067484 -0.027300 -54947.200000 0 0 1
-18.975024 24.356735 -22.584052 38.253647 -0.908963 2.202321 0.060942 -0.024687 64888.000000 0 0 1
-18.156124 25.475435 -22.873352 38.753488 -0.951603 2.202136 0.051237 -0.011531 -492806.000000 0 0 1
-17.062424 25.697335 -21.831352 37.790042 -0.984659 2.186706 0.046886 -0.017995 -160405.000000 0 0 1
-16.031124 24.677435 -21.754152 36.595298 -0.994683 2.207380 0.059221 -0.028426 522747.000000 0 0 1
-16.366624 23.323735 -21.422552 35.648124 -0.958920 2.215479 0.075055 -0.013128 -1700020.000000 0 0 1
-15.142324 22.472435 -21.203552 34.407716 -0.977859 2.234761 0.099735 -0.015797 -494459.000000 0 0 1
-14.488324 22.870435 -20.005952 33.663132 -1.006111 2.207190 0.121282 -0.027353 -500968.000000 0 0 1
-13.352624 22.088535 -19.830052 32.548839 -1.027071 2.225898 0.118367 -0.024309 -636787.000000 0 0 1
-12.563924 22.307335 -18.510452 31.592819 -1.057861 2.196795 0.101354 -0.021559 -33215.500000 0 0 1
-13.117624 21.978035 -17.236152 30.857593 -1.032695 2.163458 0.121155 -0.018844 -538469.000000 0 0 1
-14.026724 22.927635 -16.806052 31.699666 -1.021758 2.129591 0.118761 -0.031058 -178839.000000 0 0 1
-14.608424 22.849135 -15.325652 31.150676 -1.001950 2.085164 0.135530 -0.034488 -11841.300000 0 0 1
-13.648924 23.069335 -14.343352 30.400972 -1.036541 2.062134 0.130804 -0.036143 57787.500000 0 0 1
-14.251024 23.537235 -13.112252 30.479899 -1.026367 2.015503 0.142276 -0.042980 -30062.300000 0 0 1
-13.200024 24.160235 -12.194152 30.110711 -1.070757 1.987750 0.165880 -0.041464 -339159.000000 0 0 1
-12.744424 25.401635 -12.624652 31.097351 -1.105776 1.988838 0.161923 -0.053004 313614.000000 0 0 1
-11.660324 25.812535 -11.795352 30.681924 -1.146504 1.965397 0.111178 -0.039629 184016.000000 0 0 1
-11.219224 27.255835 -12.087352 31.856798 -1.180307 1.959974 0.150680 -0.041760 2118.730000 0 0 1
-10.500524 27.438035 -13.290852 32.245209 -1.205292 1.995643 0.137258 -0.039562 -22917.700000 0 0 1
-10.506424 28.789835 -13.779752 33.602397 -1.220879 1.993341 0.103026 -0.015641 -375111.000000 0 0 1
-9.653724 28.941335 -15.096652 34.039744 -1.248840 2.030297 0.137116 -0.043361 731192.000000 0 0 1
-8.235724 28.923535 -15.001952 33.607389 -1.293396 2.033522 0.083665 -0.044850 337490.000000 0 0 1
-7.739124 27.593735 -14.765452 32.238592 -1.297355 2.046547 0.090536 -0.042939 71917.400000 0 0 1
-6.220824 27.443935 -15.117452 31.943788 -1.347889 2.063775 0.088627 -0.047019 592252.000000 0 0 1
-5.394024 28.183635 -14.298752 32.060366 -1.381695 2.033082 0.057961 -0.037800 167036.000000 0 0 1
-4.007424 28.121635 -14.695052 31.981719 -1.429246 2.048209 0.075994 -0.039383 1165400.000000 0 0 1
-3.051324 29.029235 -13.884552 32.323178 -1.466069 2.014795 0.051740 -0.027010 -263232.000000 0 0 1
-3.027124 30.439435 -14.125352 33.693445 -1.471675 2.003395 0.039467 -0.017585 268987.000000 0 0 1
-4.277824 31.071835 -13.840252 34.282813 -1.433981 1.986363 0.022864 -0.012187 422810.000000 0 0 1
-4.374624 32.519735 -14.097052 35.712706 -1.437077 1.976576 0.032410 -0.013166 -122750.000000 0 0 1
-3.617924 33.309135 -13.204752 36.013238 -1.462604 1.946217 0.010050 -0.014067 -204814.000000 0 0 1
-3.846824 -32.960805 -13.409152 35.791313 1.454613 1.954814 0.037746 -0.010626 638535.000000 0 0 1
-2.933124 -31.987005 -12.552752 34.486857 1.479355 1.943341 0.044368 -0.014296 419457.000000 0 0 1
-3.169424 -32.023805 -11.175352 34.065493 1.472147 1.905040 0.039061 -0.016983 16017.900000 0 0 1
-2.349224 -31.135305 -10.410952 32.913736 1.495487 1.892634 0.044066 -0.022597 -59627.600000 0 0 1
-2.493624 -31.330305 -8.895052 32.663866 1.491372 1.846601 0.046091 -0.016020 -117081.000000 0 0 1
-1.696724 -30.394805 -8.156052 31.515777 1.515031 1.832568 0.069527 -0.029523 100962.000000 0 0 1
-1.862824 -30.654905 -6.798552 31.454946 1.510103 1.788652 0.063098 -0.033342 -57261.400000 0 0 1
-0.699224 -30.168105 -5.909652 30.749430 1.547623 1.764187 0.087292 -0.037124 40937.100000 0 0 1
-0.762924 -30.642605 -4.502952 30.981089 1.545904 1.716658 0.097110 -0.044174 358111.000000 0 0 1
0.327676 -29.995805 -3.835352 30.241786 -1.559873 1.697962 0.090748 -0.038909 135787.000000 0 0 1
0.438276 -30.343905 -2.348752 30.437827 -1.556354 1.648039 0.089132 -0.027880 -450355.000000 0 0 1
0.819476 -31.668005 -1.980952 31.740483 -1.544925 1.633248 0.095022 -0.042768 256510.000000 0 0 1
2.081776 -32.139605 -2.426052 32.298200 -1.506114 1.645981 0.087433 -0.040908 -124988.000000 0 0 1
3.318476 -31.551005 -1.745552 31.773025 -1.466003 1.625762 0.080895 -0.036099 -1681040.000000 0 0 1
3.546376 -31.881405 -0.420452 32.080797 -1.460015 1.583903 0.068814 -0.030637 1107600.000000 0 0 1
4.881076 -31.677305 0.120348 32.051381 -1.417911 1.567041 0.056842 -0.021971 1286740.000000 0 0 1
5.336976 -30.232105 0.284848 30.700890 -1.396063 1.561518 0.034569 -0.021923 -904887.000000 0 0 1
5.407976 -29.581705 -0.981352 30.087980 -1.389978 1.603418 0.051137 -0.033299 -43262.700000 0 0 1
5.010576 -28.233305 -0.863852 28.687482 -1.395155 1.600913 0.066681 -0.025240 -393988.000000 0 0 1
4.497376 -27.570905 -2.119852 28.015620 -1.409100 1.646536 0.062316 -0.017954 -1086120.000000 0 0 1
3.249176 -27.970005 -2.554752 28.273752 -1.455148 1.661277 0.076523 -0.025229 -770919.000000 0 0 1
2.818076 -27.049305 -3.541552 27.425336 -1.466988 1.700292 0.071436 -0.027441 32777.300000 0 0 1
3.393676 -27.183505 -4.995152 27.846212 -1.446596 1.751156 0.057756 -0.022961 -207542.000000 0 0 1
2.559476 -27.902005 -5.837752 28.620834 -1.479321 1.776206 0.065478 -0.022590 -267736.000000 0 0 1
3.152376 -28.031505 -7.073452 29.081549 -1.458809 1.816489 0.079104 -0.039691 -217026.000000 0 0 1
2.139076 -28.676705 -8.012052 29.851667 -1.496341 1.842523 0.071555 -0.040488 -321672.000000 0 0 1
1.025576 -27.868005 -8.276152 29.089039 -1.534012 1.859293 0.083520 -0.039873 -579846.000000 0 0 1
0.819976 -27.936405 -9.727952 29.593042 -1.541453 1.905749 0.079158 -0.037151 -896026.000000 0 0 1
-0.527024 -27.419005 -10.147852 29.241383 1.551578 1.925207 0.081911 -0.033466 -1587060.000000 0 0 1
-0.646224 -26.106205 -9.776352 27.884200 1.546048 1.929014 0.086569 -0.027630 410235.000000 0 0 1
-2.000724 -25.687905 -9.585352 27.490914 1.493067 1.926952 0.110066 -0.036029 866866.000000 0 0 1
-2.780924 -26.327805 -8.402952 27.775825 1.465560 1.878140 0.121654 -0.031400 -413527.000000 0 0 1
-2.357224 -25.866705 -7.109652 26.929354 1.479918 1.837975 0.128055 -0.038677 -333766.000000 0 0 1
-1.286624 -26.597705 -6.573652 27.428201 1.522460 1.812820 0.108566 -0.037569 -90057.000000 0 0 1
-0.981224 -26.375305 -5.065752 26.875293 1.533611 1.760422 0.132073 -0.038387 -359915.000000 0 0 1
-1.986824 -26.887805 -4.270452 27.297221 1.497037 1.727884 0.142395 -0.040673 -491965.000000 0 0 1
-1.730424 -26.597305 -2.898252 26.810648 1.505828 1.679109 0.139397 -0.031692 -546022.000000 0 0 1
-2.860824 -26.971105 -1.952152 27.192567 1.465121 1.642648 0.126661 -0.034042 -215123.000000 0 0 1
-3.928124 -26.064905 -2.154852 26.447170 1.421216 1.652364 0.123276 -0.028027 -51875.000000 0 0 1
-4.982324 -26.225705 -1.222352 26.722749 1.383055 1.616554 0.131809 -0.034348 -53300.800000 0 0 1
-6.031724 -25.149605 -1.164452 25.888999 1.335409 1.615790 0.125584 -0.025635 -226495.000000 0 0 1
-5.520724 -23.937105 -0.641552 24.573868 1.344125 1.596906 0.096355 -0.024890 88955.000000 0 1 0
-6.585924 -23.051905 -0.385852 23.977356 1.292510 1.586889 0.110224 -0.034838 263492.000000 0 1 0
-6.012124 -21.667105 0.022148 22.485764 1.300129 1.569811 0.078889 -0.039830 72238.900000 0 1 0
-5.262324 -21.686605 1.189848 22.347631 1.332744 1.517528 0.070007 -0.036998 -518923.000000 0 1 0
-4.335924 -20.650005 1.165848 21.132490 1.363831 1.515600 0.039523 -0.019843 -670428.000000 0 1 0
-3.488924 -20.410605 2.401048 20.845393 1.401496 1.455356 0.032302 -0.010910 -786033.000000 0 1 0
-4.173824 -19.989005 3.537048 20.724185 1.364948 1.399284 0.029800 -0.014882 -233395.000000 0 1 0
-3.336224 -19.703405 4.663048 20.520687 1.403065 1.341557 0.046263 -0.021647 -75746.300000 0 1 0
-2.528224 -20.863205 5.260848 21.664297 1.450203 1.325509 0.047128 -0.026793 -36054.500000 0 1 0
-1.312124 -20.998005 4.556948 21.526813 1.508389 1.357495 0.041275 -0.026452 -173880.000000 0 1 0
-0.727324 -22.274505 4.843648 22.806655 1.538155 1.356788 0.051635 -0.028725 -830409.000000 0 1 0
0.081376 -22.988705 3.749648 23.292639 -1.567257 1.409113 0.058026 -0.027751 491404.000000 0 1 0
1.393376 -22.494705 3.559648 22.817194 -1.508933 1.414149 0.066477 -0.028030 402526.000000 0 1 0
2.334476 -22.961505 4.551448 23.524374 -1.469475 1.376090 0.083452 -0.027830 207062.000000 0 1 0
3.613176 -22.041005 4.607248 22.805431 -1.408312 1.367372 0.093377 -0.027781 155265.000000 0 1 0
4.444176 -22.161405 3.499548 22.871935 -1.372885 1.417187 0.079085 -0.014095 -536542.000000 0 1 0
5.480676 -21.227805 3.755448 22.243222 -1.318130 1.401148 0.074868 -0.017029 252148.000000 0 1 0
6.173476 -20.708905 2.456948 21.748727 -1.281077 1.457585 0.061821 -0.013871 -147899.000000 0 1 0
7.002776 -21.594005 1.822548 22.774143 -1.257204 1.490684 0.080149 -0.015405 -500338.000000 0 1 0
6.855176 -21.396405 0.437148 22.471998 -1.260740 1.551342 0.058533 -0.024620 -12571.900000 0 1 0
7.827976 -22.235005 -0.426352 23.576565 -1.232291 1.588881 0.069448 -0.017986 -820057.000000 0 1 0
9.120276 -21.779505 -0.379152 23.615038 -1.174227 1.586853 0.061067 -0.015763 -1431230.000000 0 1 0
10.020176 -22.629305 -1.058952 24.771168 -1.153949 1.613559 0.062631 -0.018313 741072.000000 0 1 0
11.403376 -21.943705 -1.307652 24.764352 -1.091541 1.623625 0.069509 -0.023720 508053.000000 0 1 0
11.415876 -21.119005 -2.442252 24.130876 -1.075237 1.672178 0.055297 -0.012741 -1031730.000000 0 1 0
12.692976 -21.015505 -2.959152 24.728924 -1.027454 1.690747 0.060628 -0.017155 -802149.000000 0 1 0
12.898276 -19.865305 -3.967052 24.015273 -0.994923 1.736746 0.045930 -0.014137 -252665.000000 0 1 0
12.919676 -18.586205 -3.380252 22.886484 -0.963352 1.719035 0.059565 -0.014736 206581.000000 0 1 0
13.097776 -17.551405 -4.366652 22.330947 -0.929698 1.767607 0.069138 -0.016929 -1121430.000000 0 1 0
13.441476 -16.129905 -3.839952 21.344609 -0.876062 1.751684 0.070311 -0.009498 350910.000000 0 1 0
14.755076 -15.871305 -3.369652 21.930917 -0.821829 1.725056 0.068219 -0.008381 -29333.100000 0 1 0
15.708176 -15.937905 -4.375152 22.801438 -0.792657 1.763874 0.068181 -0.008669 -466035.000000 0 1 0
17.158076 -15.554005 -3.917852 23.487788 -0.736401 1.738383 0.078374 -0.005418 586516.000000 0 1 0
17.809976 -16.427905 -3.041852 24.419749 -0.745053 1.695686 0.090483 -0.013312 -200234.000000 0 1 0
19.143276 -16.058605 -2.847852 25.148639 -0.697993 1.684281 0.061318 -0.002430 -308485.000000 0 0 1
20.080676 -17.135705 -2.239952 26.493080 -0.706432 1.655446 0.060995 -0.011716 341640.000000 0 0 1
21.372676 -16.608605 -1.951852 27.137552 -0.660618 1.642783 0.059335 -0.014582 106109.000000 0 0 1
22.174876 -17.602505 -1.361952 28.344809 -0.670951 1.618864 0.062751 -0.011286 -1244290.000000 0 0 1
23.588976 -17.514105 -1.866752 29.439233 -0.638664 1.634249 0.089496 -0.013830 -1295170.000000 0 0 1
24.185376 -16.293905 -1.578852 29.204734 -0.592862 1.624884 0.092354 -0.019403 531536.000000 0 0 1
25.501676 -16.470005 -1.008352 30.374550 -0.573445 1.604000 0.144675 -0.016750 862600.000000 0 0 1
26.075976 -15.068405 -0.682652 30.124398 -0.523985 1.593459 0.128568 -0.023641 -231282.000000 0 0 1
25.433676 -14.392405 0.395748 29.226183 -0.514953 1.557255 0.112264 -0.024975 207075.000000 0 0 1
26.018676 -13.191205 0.871248 29.184558 -0.469224 1.540939 0.073774 -0.017311 131117.000000 0 0 1
25.200676 -12.752605 2.161548 28.326230 -0.468470 1.494413 0.096816 -0.031434 74752.700000 0 0 1
25.322476 -13.500005 3.383448 28.895080 -0.489794 1.453433 0.125875 -0.019475 -383837.000000 0 0 1
26.564276 -13.708605 3.979848 30.156687 -0.476408 1.438438 0.153261 -0.003408 -501603.000000 0 0 1
26.423976 -14.395805 5.370348 30.566425 -0.498843 1.394185 0.143306 0.001579 234502.000000 0 0 1
25.858976 -15.709505 5.369048 30.729495 -0.545921 1.395175 0.143932 -0.011444 406888.000000 0 0 1
25.127276 -15.940305 6.595748 30.479127 -0.565318 1.352669 0.126074 -0.008937 298084.000000 0 0 1
24.390676 -17.270605 6.694248 30.626652 -0.616130 1.350441 0.106867 -0.010215 74067.500000 0 0 1
25.269576 -18.350505 6.941548 31.991836 -0.628088 1.352078 0.102973 -0.009611 35037.100000 0 0 1
24.540276 -19.548805 7.004748 32.147277 -0.672665 1.351139 0.078968 -0.001869 232081.000000 0 0 1
1.973576 23.479335 -2.823052 23.730651 1.486938 1.690041 0.052207 -0.016943 474745.000000 0 1 0
3.282476 23.946135 -2.530352 24.302154 1.434568 1.675106 0.061801 -0.024684 -238462.000000 0 1 0
3.824276 24.526835 -3.637352 25.088265 1.416120 1.716291 0.084981 -0.021972 25156.000000 0 0 1
4.918576 25.550035 -3.200252 26.215230 1.380615 1.693178 0.067036 -0.019162 449358.000000 0 0 1
5.963776 24.911935 -2.468152 25.734469 1.335824 1.666852 0.052219 -0.019586 -41638.700000 0 0 1
6.886376 25.876535 -2.016352 26.852987 1.310700 1.645956 0.044278 -0.022007 -624684.000000 0 0 1
8.053676 25.380635 -1.201752 26.654878 1.263530 1.615897 0.034710 -0.030327 -806606.000000 0 0 1
9.085776 24.941435 -2.028952 26.622230 1.221453 1.647083 0.041923 -0.027525 -914605.000000 0 0 1
10.076376 24.268835 -1.329452 26.311160 1.177257 1.621346 0.031374 -0.022767 -741787.000000 0 0 1
11.281276 23.905435 -2.171752 26.522698 1.129870 1.652771 0.040152 -0.020607 -1091510.000000 0 0 1
12.289976 24.922335 -2.277552 27.881060 1.112659 1.652576 0.046562 -0.013686 224029.000000 0 0 1
13.086376 24.836535 -3.444352 28.283746 1.085861 1.692878 0.078269 -0.024555 362220.000000 0 0 1
13.989776 23.546735 -3.572752 27.621135 1.034706 1.700508 0.083533 -0.024185 -899360.000000 0 0 1
13.413676 22.237935 -3.759852 26.240978 1.028035 1.714573 0.097098 -0.026840 -204210.000000 0 0 1
13.060276 21.964435 -5.125452 26.062952 1.034349 1.768743 0.127509 -0.041777 -345126.000000 0 0 1
12.127876 20.769635 -5.205752 24.608189 1.042282 1.783952 0.129432 -0.045147 -221020.000000 0 1 0
10.790376 21.117635 -4.927952 24.221301 1.098415 1.775682 0.104853 -0.036222 -110520.000000 0 1 0
9.947976 19.963435 -4.896852 22.835939 1.108502 1.786911 0.089774 -0.036167 615424.000000 0 1 0
8.430176 20.254235 -4.723452 22.441321 1.176388 1.782862 0.076166 -0.029910 274112.000000 0 1 0
8.105676 20.853535 -3.495352 22.644853 1.200073 1.725771 0.083868 -0.027269 289494.000000 0 1 0
6.727776 21.213335 -3.512152 22.530063 1.263682 1.727322 0.075476 -0.023303 606679.000000 0 1 0
6.244176 21.861835 -2.197252 22.842011 1.292584 1.667139 0.053958 -0.021095 95686.100000 0 1 0
5.929676 20.992035 -1.134452 21.842929 1.295496 1.622757 0.047444 -0.029407 -253220.000000 0 1 0
5.159376 21.727535 -0.250952 22.333112 1.337656 1.582033 0.058920 -0.024346 -156396.000000 0 1 0
4.748076 20.948635 1.016948 21.504040 1.347909 1.523488 0.033318 -0.023121 166202.000000 0 1 0
3.945676 21.681735 1.953748 22.124265 1.390785 1.482373 0.038338 -0.021827 598703.000000 0 1 0
3.436376 20.775835 2.963548 21.265621 1.406878 1.430983 0.043927 -0.022129 93576.000000 0 1 0
2.473276 21.344035 4.022448 21.860124 1.455434 1.385733 0.031343 -0.022348 -504794.000000 0 1 0
1.216976 21.622935 3.495148 21.937375 1.514574 1.410791 0.032771 -0.018556 -930574.000000 0 1 0
0.256076 21.998835 4.418648 22.439670 1.559156 1.372589 0.034795 -0.026490 -586280.000000 0 1 0
-1.135324 22.156335 3.842648 22.515730 -1.519600 1.399292 0.037457 -0.022340 -69708.000000 0 1 0
-2.212624 22.295235 4.789448 22.910959 -1.471878 1.360197 0.060758 -0.031726 39232.000000 0 1 0
-3.370324 22.498035 4.028148 23.102957 -1.422097 1.395544 0.074811 -0.030406 616750.000000 0 1 0
-4.675824 22.822035 4.867248 23.799133 -1.368711 1.364829 0.086457 -0.041371 794155.000000 0 1 0
-4.944624 24.222835 5.102448 25.243415 -1.369432 1.367264 0.116202 -0.026683 137168.000000 0 0 1
-6.140524 24.344935 5.847648 25.779389 -1.323720 1.341970 0.118230 -0.027004 117341.000000 0 0 1
-6.674424 25.721035 6.143348 27.273803 -1.316903 1.343600 0.129613 -0.035954 -748081.000000 0 0 1
-6.013724 26.344735 7.218548 27.969937 -1.346371 1.309760 0.091979 -0.047779 -595121.000000 0 0 1
-6.631524 27.284135 7.989248 29.192965 -1.332365 1.293589 0.128251 -0.037722 -558010.000000 0 0 1
-6.961524 28.684435 7.346448 30.417592 -1.332706 1.326865 0.138939 -0.044275 560960.000000 0 0 1
-7.955524 28.600635 6.313648 30.350434 -1.299496 1.361241 0.120888 -0.054623 24634.300000 0 0 1
-8.223724 29.880135 5.755948 31.521152 -1.302222 1.387160 0.158377 -0.052075 373148.000000 0 0 1
-9.758624 30.133535 5.751148 32.192179 -1.257609 1.391182 0.168642 -0.054782 497727.000000 0 0 1
-10.345824 30.521635 6.988048 32.976342 -1.243984 1.357266 0.135498 -0.049362 -112889.000000 0 0 1
-11.167024 29.461135 7.458748 32.377366 -1.208486 1.338339 0.122054 -0.037206 -127786.000000 0 0 1
-12.005424 29.875535 8.694948 33.350861 -1.188698 1.307037 0.089570 -0.029992 -602024.000000 0 0 1
-11.263624 30.180535 9.834848 33.681719 -1.213597 1.274486 0.102721 -0.028034 -542721.000000 0 0 1
-12.039724 30.579835 10.933548 34.635585 -1.195720 1.249630 0.093008 -0.022395 -524565.000000 0 0 1
-11.251924 31.184035 12.080648 35.284443 -1.224512 1.221349 0.090305 -0.034624 -221938.000000 0 0 1
-10.768024 32.487935 11.750848 36.186996 -1.250745 1.240075 0.102430 -0.038320 331035.000000 0 0 1
-9.835924 33.013635 12.676048 36.705963 -1.281235 1.218195 0.098723 -0.043143 127867.000000 0 0 1
-9.601724 -33.082505 12.596448 36.678546 1.288321 1.220232 0.108359 -0.044192 228882.000000 0 0 1
-10.725724 -32.295505 12.961248 36.414760 1.250145 1.206883 0.103916 -0.036230 191027.000000 0 0 1
-10.386824 -30.964405 12.968548 35.140628 1.247147 1.192813 0.098502 -0.036935 -117499.000000 0 0 1
-11.497824 -30.115905 13.587648 34.982737 1.206090 1.171891 0.089826 -0.027933 -279380.000000 0 0 1
-11.850224 -30.406405 14.939348 35.890965 1.199176 1.141487 0.078051 -0.034618 642937.000000 0 0 1
-10.744224 -30.157505 15.832648 35.715350 1.228546 1.111518 0.094718 -0.036526 588255.000000 0 0 1
-11.070724 -30.470105 17.324648 36.757743 1.222295 1.080010 0.096588 -0.049613 312030.000000 0 0 1
-11.970524 -29.499305 17.900148 36.522839 1.185309 1.058582 0.093213 -0.047620 603664.000000 0 0 1
-12.381124 -30.019805 19.146348 37.696997 1.179619 1.038050 0.093528 -0.051389 -242666.000000 0 0 1
-12.574824 -28.986305 20.219648 37.512215 1.161479 1.001529 0.114091 -0.056399 -339098.000000 0 0 1
-11.347824 -28.603005 20.785348 37.134024 1.193107 0.976726 0.081887 -0.052300 4154.290000 0 0 1
-11.359724 -27.579105 21.750248 36.915087 1.180077 0.940732 0.086025 -0.047103 79635.700000 0 0 1
-10.056524 -27.637605 22.585948 37.082286 1.221818 0.915901 0.107717 -0.043541 208369.000000 0 0 1
-9.965324 -28.724505 23.469948 38.408897 1.236861 0.913404 0.077999 -0.020157 -1112700.000000 0 0 1
-8.708024 -28.757405 24.005648 38.458928 1.276764 0.896703 0.110990 -0.022451 -1102240.000000 0 0 1
-8.511524 -29.805905 25.126148 39.901896 1.292635 0.889632 0.102510 -0.020836 -243531.000000 0 0 1
-8.345624 -31.177305 24.791148 40.697356 1.309246 0.915797 0.113847 -0.006098 293925.000000 0 0 1
-8.338224 -31.919905 25.994448 42.001401 1.315283 0.903461 0.120365 -0.003344 -196178.000000 0 0 1
-8.526124 -33.419005 25.725048 43.026768 1.320997 0.929937 0.125192 -0.005175 -770240.000000 0 0 1
-7.392924 33.689435 25.168048 42.697354 -1.354777 0.940416 0.133263 -0.011838 -173334.000000 0 0 1
-7.708424 32.375935 24.682748 41.434998 -1.337057 0.932662 0.111302 -0.017216 272727.000000 0 0 1
-8.447624 32.262535 23.295148 40.680431 -1.314705 0.961077 0.118007 -0.012962 346755.000000 0 0 1
-8.957024 30.928035 23.146148 39.654959 -1.288900 0.947532 0.107417 -0.010305 58736.300000 0 0 1
-9.726224 30.718835 22.005948 39.019329 -1.264162 0.971604 0.095106 -0.017140 -198893.000000 0 0 1
-10.502124 29.424835 22.025148 38.225943 -1.227976 0.956745 0.085784 -0.018588 -41959.400000 0 0 1
-9.619624 28.347835 21.807748 37.036668 -1.243647 0.941204 0.063991 -0.012736 121868.000000 0 0 1
-10.060924 27.139335 22.434048 36.620380 -1.215789 0.911436 0.052178 -0.005742 -264858.000000 0 0 1
-9.211524 25.830135 22.240248 35.308309 -1.228237 0.889388 0.066150 -0.020011 703653.000000 0 0 1
-7.900224 25.974235 22.819048 35.465242 -1.275531 0.871839 0.048440 -0.027144 795113.000000 0 0 1
-7.366124 24.641935 22.969648 34.483177 -1.280325 0.841813 0.042248 -0.023110 338565.000000 0 0 1
-5.864024 24.648435 23.358448 34.460836 -1.337232 0.825995 0.041841 -0.027587 230037.000000 0 0 1
-4.987424 25.199535 22.377848 34.068447 -1.375404 0.854163 0.050807 -0.021600 -147587.000000 0 0 1
-3.698024 25.137535 22.956948 34.243138 -1.424732 0.836035 0.075041 -0.026819 -624410.000000 0 0 1
-2.623924 25.626535 22.018548 33.888357 -1.468761 0.863557 0.082233 -0.013053 -681241.000000 0 0 1
-2.392224 24.730735 20.964748 32.509270 -1.474366 0.869923 0.058712 -0.010874 541605.000000 0 0 1
-1.357624 25.191235 20.074648 32.240238 -1.516956 0.898661 0.058691 -0.008131 609314.000000 0 0 1
-0.902824 24.321535 18.867448 30.795012 -1.533693 0.911351 0.045580 -0.014224 -114362.000000 0 0 1
0.001976 23.324535 19.291148 30.268504 1.570712 0.879763 0.051028 -0.010000 -200585.000000 0 0 1
0.359976 22.580835 18.184048 28.994539 1.554856 0.892902 0.050956 -0.013429 -411926.000000 0 0 1
1.462276 21.537635 18.470348 28.410592 1.503006 0.863051 0.049802 -0.004137 250190.000000 0 0 1
2.703076 22.147535 18.800048 29.176390 1.449348 0.870613 0.039955 -0.013570 -255058.000000 0 0 1
3.603276 21.142135 19.245348 28.815914 1.401987 0.839450 0.045308 -0.007196 -776412.000000 0 0 1
5.014576 21.678935 19.179048 29.376148 1.343483 0.859418 0.040227 -0.009971 -1203000.000000 0 0 1
5.957476 20.694035 18.948248 28.683980 1.290492 0.849197 0.056592 -0.019443 -1387380.000000 0 0 1
7.203376 21.210735 18.687548 29.172048 1.243408 0.875520 0.085559 -0.026059 -297356.000000 0 0 1
8.293876 20.135435 18.290348 28.438723 1.180070 0.872192 0.085806 -0.025927 415357.000000 0 0 1
8.627576 19.232235 19.302548 28.581503 1.149107 0.829356 0.090090 -0.027401 44388.300000 0 0 1
9.785776 18.439635 19.078248 28.280048 1.082897 0.830348 0.099144 -0.035794 283547.000000 0 0 1
10.318676 17.736735 20.345948 28.896790 1.043890 0.789655 0.116297 -0.036974 -174260.000000 0 0 1
9.442876 16.783835 20.919148 28.433709 1.058318 0.744072 0.096171 -0.035188 -276853.000000 0 0 1
9.933176 16.239335 22.077148 29.151063 1.021837 0.711572 0.088822 -0.035013 -379252.000000 0 0 1
9.023076 15.141435 22.610348 28.668917 1.033383 0.662152 0.084204 -0.034981 131239.000000 0 0 1
7.893976 15.642535 23.331148 29.177838 1.103437 0.644136 0.073363 -0.021793 -638908.000000 0 0 1
6.920776 14.761635 23.643148 28.719357 1.132390 0.603688 0.076605 -0.022080 -895597.000000 0 0 1
7.256976 13.631035 24.641948 29.080826 1.081577 0.559801 0.086394 -0.021271 -999070.000000 0 0 1
7.330176 14.090435 25.977348 30.448226 1.091101 0.548774 0.100189 -0.029022 -46283.100000 0 0 1
7.616276 13.003535 26.849048 30.789137 1.040952 0.511462 0.112763 -0.033585 -959076.000000 0 0 1
8.554376 13.532435 27.943148 32.204405 1.007080 0.520278 0.091963 -0.033103 887995.000000 0 0 1
9.927376 13.728435 27.521548 32.318081 0.944718 0.551797 0.139951 -0.034720 1169230.000000 0 0 1
10.095576 14.957535 26.861548 32.360335 0.977082 0.591552 0.114737 -0.034051 -509244.000000 0 0 1
11.547076 15.117335 26.311448 32.467847 0.918503 0.625988 0.141094 -0.043792 552103.000000 0 0 1
11.829076 14.409435 25.156048 31.311110 0.883425 0.637775 0.132816 -0.048154 -281366.000000 0 0 1
13.160076 13.972735 25.052248 31.560102 0.815340 0.653773 0.168134 -0.064520 -754486.000000 0 0 1
13.366376 13.085435 23.773648 30.250206 0.774778 0.666645 0.134902 -0.052342 -53917.600000 0 0 1
12.793376 11.804135 23.803348 29.489107 0.745203 0.631418 0.135506 -0.037825 1100590.000000 0 0 1
11.349676 11.751335 23.798048 28.866176 0.802783 0.601608 0.137399 -0.030141 720124.000000 0 0 1
10.868976 10.422035 24.424748 28.693584 0.764409 0.552478 0.142826 -0.027956 -161038.000000 0 0 1
11.174976 9.350335 23.595748 27.732079 0.696734 0.553202 0.134975 -0.024799 242679.000000 0 0 1
10.730576 8.132535 24.193948 27.688093 0.648528 0.507827 0.142950 -0.033269 21775.500000 0 0 1
11.140276 6.902435 23.402348 26.821992 0.554702 0.510488 0.130221 -0.021024 -292612.000000 0 0 1
12.525376 6.660635 23.348648 27.320477 0.488740 0.545976 0.146324 -0.021602 148824.000000 0 0 1
12.918976 5.580235 22.469248 26.512376 0.407735 0.559538 0.158576 -0.033718 87985.200000 0 0 1
12.700876 4.173935 23.104948 26.694056 0.317515 0.524556 0.150110 -0.032351 49803.200000 0 0 1
13.802876 3.732835 23.883448 27.836532 0.264121 0.539454 0.140700 -0.029465 367553.000000 0 0 1
13.443076 2.500335 24.444648 28.009084 0.183893 0.510009 0.122578 -0.024584 1033720.000000 0 0 1
14.733176 1.858335 25.149348 29.206328 0.125470 0.533382 0.078337 -0.020293 768772.000000 0 0 1
15.580276 1.384335 24.155448 28.777544 0.088619 0.574645 0.097411 -0.024114 -302523.000000 0 0 1
16.935876 1.497335 24.540748 29.854886 0.088183 0.605880 0.095606 -0.028618 -12090.300000 0 0 1
17.859376 0.626635 23.651148 29.643326 0.035073 0.647064 0.086693 -0.031102 -140985.000000 0 0 1
17.753476 -0.772165 23.799548 29.701862 -0.043466 0.641362 0.081711 -0.032455 325801.000000 0 0 1
18.751876 -1.378865 22.985948 29.696598 -0.073400 0.685621 0.111466 -0.026322 190132.000000 0 0 1
18.988876 -2.894065 23.209948 30.127308 -0.151245 0.691335 0.114545 -0.021514 21775.600000 0 0 1
17.964876 -3.774065 22.790148 29.263820 -0.207069 0.678074 0.104012 -0.019217 173614.000000 0 0 1
18.395876 -5.116365 22.914748 29.827355 -0.271270 0.694700 0.119245 -0.017496 -28840.600000 0 0 1
17.360576 -6.138165 22.432948 29.022471 -0.339851 0.687317 0.121385 -0.020950 -110606.000000 0 0 1
17.330776 -6.165765 20.995448 27.913819 -0.341806 0.719474 0.119711 -0.022505 320371.000000 0 0 1
16.631476 -7.356365 20.459248 27.373398 -0.416445 0.726636 0.142070 -0.034271 155368.000000 0 0 1
17.113576 -8.772965 20.624748 28.199639 -0.473702 0.750448 0.155154 -0.040209 -164763.000000 0 0 1
17.299276 -9.153765 21.989748 29.438162 -0.486688 0.727287 0.145511 -0.029648 -295786.000000 0 0 1
18.070976 -10.295165 22.042748 30.305665 -0.517848 0.756348 0.129574 -0.032816 -352467.000000 0 0 1
17.758676 -11.241565 23.280748 31.364575 -0.564344 0.734356 0.139567 -0.040653 -284368.000000 0 0 1
16.476276 -11.789865 23.143648 30.758690 -0.621097 0.719058 0.151992 -0.043503 -377240.000000 0 0 1
16.084476 -12.573465 24.202348 31.663165 -0.663491 0.700734 0.162236 -0.033429 -312787.000000 0 0 1
14.872776 -13.390665 23.786148 31.085209 -0.733007 0.699457 0.163677 -0.039467 -527698.000000 0 0 1
15.176076 -14.361165 22.788048 30.916848 -0.757816 0.742064 0.188203 -0.050726 -348261.000000 0 0 1
14.084876 -14.882265 22.106448 30.142339 -0.812919 0.747484 0.181174 -0.046848 -729956.000000 0 0 1
14.552776 -15.785965 20.942848 29.993047 -0.826023 0.797837 0.167605 -0.056757 51744.100000 0 0 1
15.183876 -16.984065 21.371348 31.236886 -0.841302 0.817331 0.192112 -0.059588 224700.000000 0 0 1
15.464376 -17.834065 20.302048 31.134771 -0.856444 0.860485 0.162843 -0.046279 -197781.000000 0 0 1
-24.780524 -31.558105 25.722587 47.661723 0.905124 1.000727 0.054504 -0.019488 -323759.000000 0 0 1
-25.292324 -32.843105 25.419877 48.626550 0.914558 1.020714 0.057807 -0.012933 402540.000000 0 0 1
-26.483964 -33.170805 26.134197 49.846755 0.897025 1.018914 0.058037 -0.025391 209875.000000 0 0 1
-26.366504 -33.684005 27.629497 50.923412 0.906656 0.997303 0.045100 -0.021451 91581.900000 0 0 1
-27.548964 -33.301205 28.334147 51.679199 0.879649 0.990502 0.083547 -0.027588 642485.000000 0 0 1
-27.354634 -33.084805 29.714437 52.209464 0.879924 0.965338 0.058225 -0.025385 -516675.000000 0 0 1
-28.599424 -32.539305 30.399787 52.923346 0.849751 0.958911 0.062400 -0.026255 -474775.000000 0 0 1
-28.918374 -31.207305 30.059857 52.093793 0.823449 0.955705 0.050795 -0.020546 119692.000000 0 0 1
-29.943384 -30.672705 30.862617 52.819714 0.797429 0.946778 0.062300 -0.009067 -225180.000000 0 0 1
-30.163684 -29.173805 30.514107 51.885157 0.768718 0.942078 0.050255 -0.012478 160260.000000 0 0 1
-30.844914 -29.027905 29.239667 51.468302 0.755060 0.966589 0.054822 -0.005564 548061.000000 0 0 1
-31.325064 -27.714905 29.166227 50.990631 0.724326 0.961864 0.047822 -0.004036 -110596.000000 0 0 1
-31.824134 -27.212705 27.776657 50.247881 0.707445 0.985085 0.040204 -0.009171 748192.000000 0 0 1
-30.806444 -26.833005 26.805007 48.862619 0.716571 0.990133 0.046505 -0.004735 824329.000000 0 0 1
-30.108634 -25.616305 27.042127 47.895737 0.704956 0.970843 0.032369 -0.007547 -91335.300000 0 0 1
-28.994174 -25.364905 26.022247 46.488686 0.718732 0.976707 0.035087 0.005694 -495117.000000 0 0 1
-29.508894 -25.268305 24.720147 46.047234 0.708137 1.004105 0.030365 0.013136 -3769.830000 0 0 1
-28.516364 -25.484205 23.726577 45.006424 0.729307 1.015515 0.028561 0.011772 -99106.800000 0 0 1
-29.058464 -25.916205 22.338287 44.889232 0.728302 1.049931 0.030508 0.012685 -57266.500000 0 0 1
-29.766224 -24.898605 21.659187 44.441974 0.696588 1.061734 0.027769 0.011822 94748.200000 0 0 1
-30.133364 -25.376705 20.383287 44.356231 0.699917 1.093324 0.028566 0.012109 -594619.000000 0 0 1
-30.822514 -24.286205 19.604987 43.865735 0.667342 1.107464 0.024956 0.005585 488457.000000 0 0 1
-32.184644 -24.092705 20.012587 44.908946 0.642590 1.108923 0.051842 0.003211 721869.000000 0 0 1
-32.834594 -23.137705 19.182887 44.513449 0.613856 1.125256 0.055812 0.010110 1037510.000000 0 0 1
-34.368014 -22.908505 19.494387 45.672652 0.587932 1.129814 0.076969 0.012170 619195.000000 0 0 1
-35.221859 -23.717705 18.741787 46.415121 0.592636 1.155145 0.053072 0.000408 394951.000000 0 0 1
-36.525394 -23.113805 18.923887 47.185442 0.564199 1.158130 0.066001 -0.004567 827381.000000 0 0 1
-37.635804 -23.621205 17.979987 47.934278 0.560485 1.186295 0.088188 -0.009631 12537.800000 0 0 1
37.568206 -24.964505 18.208387 48.643005 -0.586509 1.187125 0.078198 -0.010916 -519473.000000 0 0 1
36.500736 -25.337705 17.397087 47.717519 -0.606802 1.197609 0.090013 -0.007017 -85617.900000 0 0 1
36.030156 -26.830805 17.524487 48.220036 -0.640085 1.198852 0.091535 0.012945 131178.000000 0 0 1
35.223856 -27.202205 18.638887 48.250265 -0.657600 1.174184 0.097438 -0.000111 -119500.000000 0 0 1
35.760026 -26.968205 19.907587 49.014034 -0.646148 1.152547 0.104658 -0.000829 107040.000000 0 0 1
34.684066 -27.210905 21.040087 48.847754 -0.665240 1.125497 0.094668 -0.005751 999639.000000 0 0 1
33.584266 -26.313405 20.833487 47.479810 -0.664601 1.116549 0.093108 -0.003718 160301.000000 0 0 1
32.834876 -26.015205 21.996887 47.315780 -0.670031 1.087280 0.107851 -0.004519 319213.000000 0 0 1
31.676116 -25.011505 21.751187 45.848292 -0.668368 1.076495 0.117239 0.004890 270214.000000 0 0 1
32.119176 -23.739905 21.219387 45.227060 -0.636501 1.082440 0.105708 0.005920 -18209.400000 0 0 1
32.888626 -22.998305 22.154387 45.841036 -0.610241 1.066391 0.114909 -0.011692 136609.000000 0 0 1
33.410286 -21.656005 21.559887 45.277572 -0.575097 1.074501 0.114246 -0.009666 -115151.000000 0 0 1
32.360096 -20.781005 21.277687 43.951859 -0.570858 1.065447 0.108899 -0.020435 169317.000000 0 0 1
32.878156 -19.568005 20.716487 43.509227 -0.536859 1.074536 0.106929 -0.009576 -33320.800000 0 0 1
31.822626 -18.457005 20.854687 42.287806 -0.525581 1.055077 0.080496 -0.008839 45968.500000 0 0 1
31.581496 -17.972705 22.159887 42.561363 -0.517381 1.023176 0.096700 -0.023689 99050.300000 0 0 1
30.510066 -18.609605 22.818727 42.401366 -0.547703 1.002544 0.095426 -0.021784 -292512.000000 0 0 1
30.222066 -18.099305 24.232697 42.757242 -0.539593 0.968240 0.078262 -0.025369 -181950.000000 0 0 1
29.836466 -16.759705 24.195837 41.911108 -0.511796 0.955362 0.076781 -0.026726 60001.300000 0 0 1
29.664366 -16.401105 25.524557 42.431991 -0.505059 0.925368 0.081467 -0.028722 -81824.200000 0 0 1
29.547366 -14.891005 25.751757 41.927817 -0.466819 0.909434 0.037866 -0.015855 264044.000000 0 0 1
28.318266 -14.307205 25.345727 40.608203 -0.467822 0.896749 0.054511 -0.016724 323649.000000 0 0 1
28.278066 -12.925505 25.839557 40.427718 -0.428731 0.877398 0.038736 -0.012413 145156.000000 0 0 1
29.265166 -11.907805 25.180657 40.401872 -0.386435 0.897899 0.055518 -0.013884 -235560.000000 0 0 1
28.762166 -11.273805 24.013267 39.127968 -0.373562 0.910044 0.044412 -0.008591 659649.000000 0 0 1
29.751766 -10.729405 23.093687 39.161283 -0.346114 0.940100 0.049735 -0.002115 823607.000000 0 0 1
30.701956 -11.789805 22.446887 39.817990 -0.366645 0.971893 0.060543 -0.002437 -196124.000000 0 0 1
30.052366 -12.742305 21.639987 39.163760 -0.401026 0.985374 0.058922 -0.000301 31636.000000 0 0 1
30.278266 -14.073505 22.043787 40.009567 -0.435098 0.987279 0.070582 -0.005037 -123516.000000 0 0 1
29.705766 -15.076405 21.028087 39.394301 -0.469649 1.007726 0.073839 0.001554 -224652.000000 0 0 1
30.274166 -15.026005 19.747287 39.144109 -0.460708 1.042021 0.084271 -0.000875 -123164.000000 0 0 1
29.548966 -15.818905 18.835987 38.447023 -0.491523 1.058798 0.090167 -0.011177 -43502.700000 0 0 1
30.256266 -15.878305 17.445387 38.365398 -0.483285 1.098742 0.116035 -0.011947 353828.000000 0 0 1
29.662766 -16.808105 16.496787 37.875270 -0.515529 1.120141 0.108654 -0.017552 1355920.000000 0 0 1
28.322066 -16.499205 16.025087 36.485156 -0.527495 1.116064 0.107044 -0.022659 1018700.000000 0 0 1
28.272666 -15.500605 14.803087 35.478779 -0.501502 1.140393 0.123208 -0.019075 -111236.000000 0 0 1
28.331866 -16.112405 13.534687 35.291528 -0.517089 1.177201 0.149546 -0.025428 -730499.000000 0 0 1
27.119466 -16.656705 13.171787 34.444263 -0.550793 1.178395 0.165549 -0.048648 -1020840.000000 0 0 1
27.092066 -17.309405 11.811387 34.250612 -0.568540 1.218715 0.147313 -0.035038 -312255.000000 0 0 1
27.069166 -16.351805 10.707887 33.388323 -0.543410 1.244320 0.146737 -0.031674 -153052.000000 0 0 1
27.064166 -16.981705 9.448587 33.318511 -0.560367 1.283267 0.132692 -0.031669 853917.000000 0 0 1
28.448466 -17.537705 8.902187 34.585188 -0.552444 1.310467 0.144475 -0.020613 1096890.000000 0 0 1
29.066066 -18.444705 9.826587 35.799513 -0.565458 1.292738 0.144857 -0.016024 -977689.000000 0 0 1
30.369466 -18.674105 9.420087 36.874987 -0.551302 1.312473 0.127637 -0.003899 -782190.000000 0 0 1
31.177026 -19.571905 10.374787 38.245295 -0.560587 1.296084 0.112312 -0.021945 39929.300000 0 0 1
31.490096 -19.042105 11.679087 38.608665 -0.543869 1.263483 0.124149 -0.036940 156310.000000 0 0 1
31.430056 -20.059605 12.652287 39.374059 -0.568057 1.243657 0.102264 -0.025574 28734.100000 0 0 1
31.496456 -19.539305 14.124887 39.665143 -0.555259 1.206702 0.114236 -0.013589 117801.000000 0 0 1
31.346276 -20.566305 15.082787 40.411043 -0.580652 1.188304 0.115983 -0.012086 109563.000000 0 0 1
31.256856 -20.014905 16.380687 40.569870 -0.569552 1.155168 0.124186 -0.024509 -75052.800000 0 0 1
30.783536 -20.988805 17.454787 41.143962 -0.598420 1.132677 0.117674 -0.018487 451673.000000 0 0 1
29.554466 -21.625605 17.089587 40.412711 -0.631699 1.134179 0.064785 -0.010085 300282.000000 0 0 1
29.127566 -22.520105 18.102887 41.027853 -0.658156 1.113823 0.084799 -0.015826 -486857.000000 0 0 1
27.799666 -23.170305 17.730787 40.299693 -0.694821 1.115227 0.081861 -0.004448 -366055.000000 0 0 1
26.678966 -22.376705 18.072287 39.231259 -0.697920 1.092057 0.090122 0.004867 -285339.000000 0 0 1
25.512166 -22.957105 17.550287 38.547527 -0.732732 1.098099 0.085153 -0.004707 -367734.000000 0 0 1
24.244366 -22.585505 18.354487 37.878510 -0.749990 1.064934 0.067104 -0.002245 -209639.000000 0 0 1
23.750966 -21.318805 17.979487 36.631432 -0.731486 1.057764 0.066259 -0.010448 -583094.000000 0 0 1
22.746566 -20.804805 18.784187 36.098364 -0.740842 1.023522 0.056983 -0.014676 -302363.000000 0 0 1
23.181066 -20.326305 20.203087 36.860348 -0.719877 0.990708 0.034970 -0.010619 -331770.000000 0 0 1
23.388166 -21.387905 21.141187 38.097225 -0.740755 0.982521 0.062471 -0.005115 -107019.000000 0 0 1
23.963466 -20.886205 22.332487 38.848697 -0.716893 0.958366 0.037171 -0.003221 51547.400000 0 0 1
24.274966 -21.977605 23.395937 40.244987 -0.735769 0.950424 0.059140 -0.004250 -103467.000000 0 0 1
23.149166 -22.583505 23.988087 40.265704 -0.773030 0.932604 0.067287 -0.003882 -53854.700000 0 0 1
23.443166 -23.513005 24.999177 41.562029 -0.786885 0.925430 0.070277 0.003834 868540.000000 0 0 1
22.103366 -23.912505 25.760387 41.520648 -0.824693 0.901514 0.083321 -0.008958 633453.000000 0 0 1
21.300966 -24.753605 25.009327 41.133181 -0.860227 0.917246 0.098761 -0.008600 -268661.000000 0 0 1
20.255566 -25.166705 25.883367 41.395648 -0.893102 0.895322 0.101990 -0.011721 230473.000000 0 0 1
19.330166 -26.258205 25.260577 41.246156 -0.936214 0.911660 0.108772 -0.012584 111615.000000 0 0 1
18.611066 -25.877005 24.100067 39.960035 -0.947292 0.923409 0.123245 -0.020496 -115245.000000 0 0 1
17.905066 -26.950305 23.568827 40.029988 -0.984383 0.941249 0.105536 -0.029031 -1070850.000000 0 0 1
16.926166 -26.468705 22.539927 38.666985 -1.001853 0.948473 0.109990 -0.033500 -1278940.000000 0 0 1
15.801166 -25.878505 23.094317 38.114582 -1.022626 0.919877 0.091596 -0.030052 -685227.000000 0 0 1
15.155466 -25.159905 22.047787 36.726202 -1.028639 0.926884 0.064251 -0.028590 137788.000000 0 0 1
13.735466 -24.631705 22.362987 35.992876 -1.062111 0.900374 0.052325 -0.022916 -88626.000000 0 0 1
12.782266 -25.632005 22.307387 36.304346 -1.108202 0.909101 0.056085 -0.025992 -863703.000000 0 0 1
11.463466 -25.180705 22.424487 35.613713 -1.143587 0.889682 0.066614 -0.021380 331323.000000 0 0 1
10.378566 -26.305405 22.423487 36.090189 -1.195005 0.900373 0.065149 -0.028297 270717.000000 0 0 1
10.166266 -27.004005 21.209287 35.810656 -1.210735 0.936933 0.081362 -0.037116 34717.800000 0 0 1
8.906266 -27.629805 21.188487 35.939946 -1.258970 0.940292 0.093253 -0.042988 -282372.000000 0 0 1
8.560166 -28.516005 19.996387 35.864948 -1.279167 0.979369 0.117301 -0.042692 258378.000000 0 0 1
9.352766 -29.706905 20.054387 37.042582 -1.265786 0.998710 0.114074 -0.041095 631469.000000 0 0 1
8.940766 -30.462905 18.937487 36.966935 -1.285316 1.032957 0.114023 -0.036864 200672.000000 0 0 1
9.516166 -31.902705 18.886187 38.275685 -1.280912 1.054773 0.104225 -0.029899 182188.000000 0 0 1
8.863566 -32.675005 19.900987 39.271721 -1.305906 1.039384 0.103045 -0.036778 189583.000000 0 0 1
9.401066 33.728235 19.916487 40.282010 1.298966 1.053622 0.093249 -0.038512 -260886.000000 0 0 1
8.798566 32.703835 20.913287 39.803532 1.307982 1.017596 0.112059 -0.048416 473565.000000 0 0 1
7.653266 31.961035 20.495487 38.731708 1.335766 1.013179 0.112014 -0.043109 286785.000000 0 0 1
7.779466 30.769135 21.294587 38.219356 1.323153 0.979825 0.113056 -0.051878 224758.000000 0 0 1
6.849566 29.610435 20.850187 36.856814 1.343472 0.969505 0.096271 -0.037760 -290216.000000 0 0 1
5.492166 29.875535 20.988887 36.922146 1.388991 0.966159 0.129256 -0.044015 -917136.000000 0 0 1
4.617566 28.944435 20.420587 35.722579 1.412597 0.962289 0.138614 -0.039852 573055.000000 0 0 1
3.163166 28.995535 20.971987 35.924517 1.462135 0.947421 0.127595 -0.033954 339120.000000 0 0 1
2.989966 28.559435 22.315887 36.367294 1.466484 0.910153 0.095775 -0.033624 266195.000000 0 0 1
1.630666 28.725835 22.706017 36.652365 1.514091 0.902695 0.097034 -0.027658 399560.000000 0 0 1
1.295466 28.146435 24.071367 37.058478 1.524803 0.863803 0.094325 -0.029293 -76974.200000 0 0 1
1.576866 29.097735 25.065347 38.437434 1.516657 0.860435 0.103996 -0.036692 191504.000000 0 0 1
1.264466 28.629035 26.371347 38.944428 1.526658 0.826909 0.111008 -0.038502 686387.000000 0 0 1
2.496666 28.012735 27.165937 39.101596 1.481905 0.802720 0.074488 -0.031409 799358.000000 0 0 1
2.984066 26.791935 26.567947 37.849283 1.459874 0.792678 0.082857 -0.034872 318629.000000 0 0 1
3.956766 26.150635 27.356957 38.051476 1.420629 0.768512 0.066969 -0.026338 -91003.000000 0 0 1
4.352266 24.764135 26.709767 36.682643 1.396824 0.755205 0.052527 -0.015581 -256315.000000 0 0 1
3.336866 23.781335 26.728227 35.931667 1.431392 0.731965 0.067654 -0.010240 81391.100000 0 0 1
3.871166 22.582035 26.263397 34.852550 1.401020 0.717339 0.065446 -0.005649 613494.000000 0 0 1
2.726166 21.540535 26.025477 33.893246 1.444906 0.695293 0.077512 0.002731 399271.000000 0 0 1
3.122566 20.229235 26.424397 33.424858 1.417646 0.659071 0.085015 0.004961 -75657.000000 0 0 1
3.764066 19.574635 25.370657 32.264606 1.380822 0.665949 0.079834 0.002474 -904635.000000 0 0 1
4.147666 18.140135 25.600107 31.648588 1.346014 0.628541 0.064826 -0.001742 -45786.100000 0 0 1
5.243066 18.033935 26.499177 32.479516 1.287863 0.616558 0.056987 -0.004779 133691.000000 0 0 1
6.448666 17.989335 25.751597 32.067838 1.226594 0.638426 0.077309 -0.009298 -915258.000000 0 0 1
7.708966 17.732035 26.610997 32.893744 1.160698 0.628350 0.059579 -0.016205 24572.700000 0 0 1
8.228466 18.856035 27.333867 34.211080 1.159323 0.645204 0.061078 -0.014775 231150.000000 0 0 1
8.912166 19.856135 26.591647 34.362894 1.148910 0.685903 0.054314 -0.018199 -361912.000000 0 0 1
9.616566 20.869035 27.461287 35.806665 1.138993 0.696749 0.051113 -0.017477 -97362.100000 0 0 1
10.797166 20.509535 28.139437 36.456107 1.086216 0.689016 0.084262 -0.034816 -72012.700000 0 0 1
11.128666 21.481535 29.141197 37.874964 1.092807 0.692887 0.085345 -0.043322 30516.500000 0 0 1
12.305566 21.084435 30.039947 38.708898 1.042499 0.682422 0.114876 -0.045656 244554.000000 0 0 1
13.578966 21.146035 29.416817 38.689692 0.999958 0.706980 0.115760 -0.044930 -29635.500000 0 0 1
14.587966 20.833835 30.357397 39.603396 0.959932 0.697368 0.116010 -0.023894 506114.000000 0 0 1
16.034666 20.836835 29.791087 39.734029 0.914910 0.723093 0.101379 -0.030090 438864.000000 0 0 1
16.486966 22.116735 29.363687 40.288908 0.930212 0.754188 0.095100 -0.044347 -77505.600000 0 0 1
17.708966 22.041835 28.666447 40.264316 0.893970 0.778516 0.133745 -0.030192 40450.300000 0 0 1
-8.910224 16.902435 4.499048 19.629718 -1.085660 1.339545 0.039018 -0.022068 -32316.100000 0 1 0
-8.654324 18.199535 4.895648 20.738558 -1.126920 1.332482 0.055597 -0.026757 279558.000000 0 1 0
-7.282824 18.377435 5.224648 20.446677 -1.193491 1.312405 0.056320 -0.022085 244723.000000 0 1 0
-7.034724 19.843335 5.712448 21.814613 -1.230107 1.305844 0.070416 -0.020834 -36391.200000 0 1 0
-7.201324 20.988735 4.897148 22.723735 -1.240278 1.353584 0.079373 -0.025415 26479.800000 0 1 0
-8.545324 21.232635 4.511148 23.328048 -1.188170 1.376192 0.082673 -0.028690 209930.000000 0 1 0
-8.715824 22.326935 3.480348 24.219216 -1.198617 1.426595 0.129689 -0.041021 23655.900000 0 1 0
-8.158924 22.115735 2.173948 23.672766 -1.217367 1.478833 0.108598 -0.043496 144645.000000 0 1 0
-8.656224 21.028435 1.319448 22.778636 -1.180293 1.512839 0.118455 -0.043952 21190.500000 0 1 0
-8.025824 21.082435 -0.145452 22.558902 -1.207049 1.577244 0.095120 -0.028566 1994550.000000 0 1 0
-6.600224 20.835535 -0.298752 21.857990 -1.264019 1.584465 0.072782 -0.018227 1915450.000000 0 1 0
-5.699624 21.948335 0.049548 22.676366 -1.316725 1.568611 0.075382 -0.018618 1788940.000000 0 1 0
-4.201824 21.598535 -0.333352 22.005980 -1.378654 1.585945 0.059084 -0.010428 922453.000000 0 1 0
-4.037824 21.445235 -1.760852 21.892984 -1.384690 1.651313 0.051565 -0.023695 193273.000000 0 1 0
-2.692324 21.526835 -2.211252 21.806945 -1.446374 1.672372 0.036752 -0.012264 267648.000000 0 1 0
-2.566424 21.314935 -3.787152 21.800356 -1.450968 1.745402 0.037795 -0.020593 66257.200000 0 1 0
-1.370724 21.842835 -4.324952 22.309046 -1.508125 1.765897 0.056697 -0.017877 22639.600000 0 1 0
-1.507524 22.215835 -5.700052 22.984920 -1.503042 1.821402 0.063171 -0.024528 115863.000000 0 1 0
-0.231524 22.843535 -6.339352 23.707975 -1.560661 1.841483 0.062371 -0.024478 835111.000000 0 1 0
0.899376 21.972835 -6.200252 22.848577 1.529888 1.845605 0.069387 -0.015888 381759.000000 0 1 0
2.074676 22.575635 -6.745752 23.653092 1.479155 1.860007 0.074593 -0.011546 298194.000000 0 1 0
3.255476 21.599435 -6.762852 22.866348 1.421202 1.871043 0.074485 -0.010998 -176129.000000 0 1 0
3.040676 20.684435 -7.779952 22.307380 1.424839 1.927045 0.073862 -0.016784 166917.000000 0 1 0
3.932176 19.586435 -7.700352 21.409948 1.372670 1.938702 0.063946 -0.021495 269822.000000 0 1 0
3.732876 18.666635 -8.905952 21.016508 1.373424 2.008389 0.055797 -0.022605 -70546.300000 0 1 0
4.203176 19.239135 -10.159852 22.159278 1.355706 2.047094 0.069102 -0.024130 383568.000000 0 1 0
3.383676 18.913535 -11.296852 22.288785 1.393767 2.102312 0.064499 -0.027932 -216339.000000 0 1 0
3.970376 19.256635 -12.609652 23.357765 1.367463 2.141053 0.075640 -0.025838 -255046.000000 0 1 0
3.918876 20.648335 -12.920552 24.670873 1.383236 2.122004 0.125085 -0.030040 -105090.000000 0 1 0
4.298976 20.832035 -14.281552 25.620648 1.367289 2.162076 0.140931 -0.031980 117908.000000 0 0 1
4.416176 22.344835 -14.680252 27.098045 1.375673 2.143309 0.129503 -0.030173 775612.000000 0 0 1
3.183276 23.082735 -14.788152 27.597741 1.433754 2.136306 0.155760 -0.036809 581020.000000 0 0 1
3.471776 24.427835 -15.062252 28.907504 1.429618 2.118877 0.139759 -0.035871 -623664.000000 0 0 1
2.249576 25.207835 -15.492452 29.673416 1.481791 2.120106 0.136317 -0.030367 -569976.000000 0 0 1
1.384276 25.583035 -14.456252 29.417531 1.516740 2.084511 0.134517 -0.039087 -297804.000000 0 0 1
1.576176 26.936435 -14.086552 30.438246 1.512348 2.051938 0.097207 -0.029085 -1090240.000000 0 0 1
0.852476 27.394435 -12.777052 30.239624 1.539688 2.007028 0.088157 -0.038027 1651900.000000 0 0 1
-0.606424 27.454335 -12.881752 30.332290 -1.548711 2.009413 0.070031 -0.038179 1600900.000000 0 0 1
-1.256624 26.200635 -13.081652 29.311806 -1.522871 2.033415 0.067740 -0.041560 -1301890.000000 0 0 1
-1.220224 25.172535 -11.884652 27.863783 -1.522360 2.011446 0.103504 -0.048727 -156020.000000 0 0 1
-2.403124 25.145835 -11.081052 27.584012 -1.475518 1.984191 0.087771 -0.037590 323507.000000 0 0 1
-2.522524 23.973435 -10.373152 26.242923 -1.465960 1.977163 0.114819 -0.035110 865422.000000 0 0 1
-3.607524 23.958835 -9.185852 25.911771 -1.421347 1.933181 0.081981 -0.030006 783546.000000 0 0 1
-3.229224 24.428235 -7.858152 25.863432 -1.439366 1.879509 0.102328 -0.033245 -57870.800000 0 0 1
-2.847924 25.775435 -7.772852 27.072143 -1.460753 1.862011 0.099231 -0.035632 -380940.000000 0 0 1
-2.437324 26.231435 -6.364552 27.102329 -1.478146 1.807844 0.090966 -0.039326 -53434.900000 0 0 1
-1.206024 25.826335 -5.823652 26.502245 -1.524133 1.792346 0.086573 -0.037457 -219950.000000 0 0 1
-0.884024 26.353835 -4.542752 26.757106 -1.537264 1.741400 0.091721 -0.040339 8379.160000 0 0 1
-1.696024 25.736735 -3.343752 26.008397 -1.504993 1.699717 0.078819 -0.029718 -29932.100000 0 0 1
-2.989824 26.311935 -3.306552 26.686893 -1.457652 1.695017 0.086093 -0.033565 -73943.700000 0 0 1
-3.762024 25.699035 -2.287452 26.073467 -1.425441 1.658640 0.091651 -0.027992 -102249.000000 0 0 1
-4.849324 24.709735 -2.748052 25.330589 -1.377008 1.679498 0.105854 -0.033192 387424.000000 0 0 1
-6.085624 25.328635 -3.161152 26.240569 -1.334999 1.691558 0.099292 -0.034261 611609.000000 0 0 1
-7.009824 24.329935 -3.564352 25.569278 -1.290278 1.710652 0.064844 -0.033534 -109150.000000 0 0 1
-8.438624 24.811635 -3.797452 26.481092 -1.242961 1.714695 0.066357 -0.027347 -489014.000000 0 0 1
-9.065024 25.232935 -2.593452 26.936994 -1.225902 1.667224 0.101454 -0.038697 -1375010.000000 0 0 1
-10.307924 25.653035 -2.993652 27.808155 -1.188721 1.678659 0.108163 -0.035737 -411127.000000 0 0 1
-11.517624 25.621235 -1.989652 28.161358 -1.148330 1.641507 0.127190 -0.043934 864797.000000 0 0 1
-12.095524 24.372135 -1.595552 27.255246 -1.110125 1.629371 0.137160 -0.035937 142919.000000 0 0 1
-11.252224 23.673935 -0.716052 26.221756 -1.127103 1.598107 0.163221 -0.044084 -90486.900000 0 0 1
-11.843724 22.314335 -0.229152 25.263726 -1.082839 1.579867 0.150919 -0.045765 -64856.000000 0 0 1
-12.837424 22.548835 0.743748 25.957708 -1.053244 1.542140 0.162642 -0.047743 19396.000000 0 0 1
-13.528824 21.340635 1.085448 25.290907 -1.005789 1.527865 0.151404 -0.045135 702603.000000 0 0 1
-14.609724 21.495935 2.252548 26.088182 -0.973859 1.484345 0.166290 -0.053206 442048.000000 0 0 1
-14.174724 21.591935 3.591148 26.077400 -0.989878 1.432646 0.141912 -0.046517 -117688.000000 0 0 1
-13.528524 22.807935 3.972948 26.814309 -1.035429 1.422084 0.156120 -0.047797 153180.000000 0 0 1
-13.031624 22.807135 5.417248 26.820425 -1.051684 1.367415 0.155294 -0.046777 -69820.500000 0 0 1
-11.812624 22.180935 5.748848 25.779473 -1.081443 1.345904 0.133232 -0.040460 76178.000000 0 0 1
-11.822424 21.866835 7.104948 25.853597 -1.075156 1.292399 0.100988 -0.042645 -615933.000000 0 0 1
-10.458924 21.653635 7.733448 25.260151 -1.120833 1.259648 0.087050 -0.036198 -628520.000000 0 0 1
-9.665224 22.792835 7.994348 26.016139 -1.169733 1.258459 0.094357 -0.036668 1466310.000000 0 0 1
-8.388924 22.554935 8.667348 25.577765 -1.214717 1.225089 0.079025 -0.036612 1334340.000000 0 0 1
-8.426924 22.253835 10.202848 25.891009 -1.208809 1.165741 0.056388 -0.033554 -389471.000000 0 0 1
-9.091924 21.058435 10.560448 25.251611 -1.163224 1.139324 0.076433 -0.036462 -141459.000000 0 0 1
-9.012724 20.849135 11.916648 25.649993 -1.162773 1.087628 0.062841 -0.035028 349802.000000 0 0 1
-10.131324 19.921835 12.565448 25.640081 -1.100329 1.058626 0.076223 -0.035777 337739.000000 0 0 1
-10.289824 18.747135 11.817448 24.433330 -1.068818 1.065964 0.088609 -0.045168 -288668.000000 0 1 0
-10.844424 17.706335 12.558848 24.266036 -1.021265 1.026813 0.085185 -0.044058 -183377.000000 0 1 0
-11.130224 16.519735 11.575248 23.038444 -0.977904 1.044387 0.079315 -0.048997 -104715.000000 0 1 0
-11.411724 15.344535 12.294048 22.733804 -0.931340 0.999429 0.068671 -0.042432 91840.200000 0 1 0
-11.727224 14.275835 11.380348 21.698838 -0.883098 1.018706 0.058083 -0.031398 36134.400000 0 1 0
-11.927824 12.963135 12.139248 21.393392 -0.826968 0.967415 0.043800 -0.028734 48517.700000 0 1 0
-13.074024 13.004635 12.968548 22.544043 -0.782737 0.957882 0.055856 -0.019490 88381.300000 0 1 0
-13.580824 11.689935 13.038548 22.160711 -0.710712 0.941763 0.051290 -0.017134 348427.000000 0 1 0
-14.529124 11.505135 14.274148 23.392625 -0.669762 0.914485 0.065602 -0.022681 63504.500000 0 1 0
-15.716824 12.222435 14.277748 24.500216 -0.660973 0.948675 0.084770 -0.025225 -607682.000000 0 1 0
-16.476124 12.158035 15.447348 25.649582 -0.635724 0.924485 0.066920 -0.019268 -239019.000000 0 0 1
-17.456224 13.338735 15.509548 26.892149 -0.652480 0.956074 0.061466 -0.013858 -39582.100000 0 0 1
-18.437524 13.265335 14.473748 26.933266 -0.623677 1.003454 0.056779 -0.011662 83599.600000 0 0 1
-19.396124 14.293335 14.619348 28.182165 -0.635075 1.025414 0.076370 -0.017482 -760284.000000 0 0 1
-20.554324 14.084035 13.677348 28.423760 -0.600731 1.068780 0.082898 -0.014199 -485779.000000 0 0 1
-21.465824 13.126235 14.227148 28.904868 -0.548829 1.056174 0.080363 -0.007745 331303.000000 0 0 1
-22.586024 12.958635 13.368948 29.270864 -0.520891 1.096478 0.066687 -0.007953 359481.000000 0 0 1
-23.678924 11.988635 13.909548 29.964885 -0.468675 1.088071 0.084000 -0.009814 -302557.000000 0 0 1
-24.323124 12.549835 14.982248 31.202251 -0.476336 1.069953 0.102904 -0.015791 748700.000000 0 0 1
-25.435894 11.677835 15.365548 31.928931 -0.430403 1.068725 0.102008 -0.015919 1174490.000000 0 0 1
-26.201924 12.205235 16.659848 33.362541 -0.435927 1.047939 0.104089 -0.021553 665535.000000 0 0 1
-27.142704 13.272335 16.413348 34.384288 -0.454796 1.073160 0.111487 -0.011224 858907.000000 0 0 1
-28.063624 13.502535 17.483248 35.714835 -0.448446 1.059253 0.108273 0.007132 273925.000000 0 0 1
-29.287504 14.292835 17.001848 36.757392 -0.454016 1.089936 0.108325 0.006499 -79283.500000 0 0 1
-28.953864 15.653635 16.824748 36.965317 -0.495629 1.098256 0.108737 0.000341 -258791.000000 0 0 1
-30.108454 16.431235 16.785748 38.187247 -0.499563 1.115683 0.102035 -0.000386 -432446.000000 0 0 1
-29.808174 17.922835 16.419748 38.462493 -0.541355 1.129731 0.125515 -0.005427 -134534.000000 0 0 1
-29.351374 18.775935 17.495048 38.988660 -0.569097 1.105462 0.134170 -0.011189 440054.000000 0 0 1
-30.066514 18.901135 18.749848 40.159743 -0.561215 1.085035 0.123389 -0.017587 -951290.000000 0 0 1
-29.048594 19.160735 19.833248 40.053868 -0.583101 1.052772 0.119225 -0.021762 -294992.000000 0 0 1
-28.565714 18.095735 20.520548 39.554375 -0.564672 1.025357 0.124137 -0.013925 273384.000000 0 0 1
-27.689724 17.194135 19.816148 38.144971 -0.555687 1.024536 0.132597 -0.007567 -41241.400000 0 0 1
-27.103564 16.037235 20.701848 37.687699 -0.534296 0.989270 0.125221 0.000234 -101347.000000 0 0 1
-28.124254 15.135435 20.985648 38.215867 -0.493710 0.989468 0.113706 0.002378 60414.500000 0 0 1
-27.677114 13.864635 21.474548 37.675018 -0.464401 0.964297 0.110252 0.003462 412935.000000 0 0 1
-28.913024 12.933935 21.757948 38.427307 -0.420639 0.968895 0.116062 -0.015518 764767.000000 0 0 1
-29.596754 12.650235 20.530848 38.177376 -0.403918 1.003000 0.124521 -0.018795 181759.000000 0 0 1
-30.773804 11.881635 20.658148 38.922479 -0.368463 1.011310 0.149991 -0.019948 -249872.000000 0 0 1
-31.404884 11.670835 19.252548 38.641115 -0.355808 1.049229 0.156963 -0.022810 -391851.000000 0 0 1
-30.713854 11.015635 18.167748 37.346380 -0.344363 1.062756 0.176810 -0.028295 24670.400000 0 0 1
-30.197884 9.792235 18.505748 36.745922 -0.313571 1.043020 0.188293 -0.027908 -510938.000000 0 0 1
-29.446274 9.277435 17.268848 35.374666 -0.305218 1.060805 0.188090 -0.036514 -326361.000000 0 0 1
-30.211514 8.877935 16.133248 35.381281 -0.285814 1.097320 0.199584 -0.032817 399571.000000 0 0 1
-30.766444 9.925235 15.292248 35.762232 -0.312059 1.128950 0.199319 -0.032356 -39259.000000 0 0 1
-29.784504 10.930235 14.649648 34.945657 -0.351719 1.138219 0.188816 -0.015267 -58139.600000 0 0 1
-29.182164 10.457735 13.445448 33.789688 -0.344103 1.161552 0.194205 -0.025317 100098.000000 0 0 1
-28.252854 11.374635 12.955348 33.097540 -0.382747 1.168612 0.130638 -0.011097 -359067.000000 0 0 1
-27.789354 11.206535 11.469548 32.084033 -0.383320 1.205223 0.168306 -0.000470 -690744.000000 0 0 1
-26.980934 10.126535 11.208648 30.921697 -0.359053 1.199864 0.169101 -0.001947 -52063.500000 0 0 1
-27.573614 8.807935 11.239148 31.051608 -0.309189 1.200437 0.204306 -0.005880 121167.000000 0 0 1
-26.671244 7.726835 10.522448 29.694800 -0.281987 1.208574 0.215387 -0.011759 143564.000000 0 0 1
-26.554864 7.949335 9.145248 29.188839 -0.290865 1.252116 0.204838 -0.010988 291730.000000 0 0 1
-25.956644 6.842635 8.518548 28.162647 -0.257754 1.263506 0.246747 -0.036257 -307345.000000 0 0 1
-25.377484 7.117135 7.120548 27.301511 -0.273427 1.306934 0.227267 -0.026738 -201460.000000 0 0 1
-26.327004 7.541835 6.166148 28.071548 -0.278996 1.349332 0.235931 -0.035706 142024.000000 0 0 1
-25.684644 7.950035 4.974548 27.343192 -0.300172 1.387847 0.233244 -0.035993 438868.000000 0 0 1
-26.683094 8.561635 3.894648 28.292356 -0.310486 1.432701 0.227574 -0.045526 672754.000000 0 0 1
-27.599134 7.717135 3.180248 28.833667 -0.272652 1.460275 0.267134 -0.046960 507203.000000 0 0 1
-27.088634 6.618835 2.373248 27.986343 -0.239644 1.485894 0.270541 -0.047979 26214.600000 0 0 1
-26.134984 7.053935 1.176648 27.095754 -0.263622 1.527357 0.273899 -0.047881 1067900.000000 0 0 1
-24.830024 7.314335 1.730748 25.942727 -0.286473 1.504033 0.239095 -0.043281 727108.000000 0 0 1
-23.875824 7.531035 0.706348 25.045367 -0.305548 1.542590 0.243578 -0.033807 54787.600000 0 0 1
-22.490824 7.953435 1.236248 23.887708 -0.339905 1.519021 0.175767 -0.037033 -157424.000000 0 1 0
-22.596124 9.202835 1.841248 24.467677 -0.386762 1.495473 0.166596 -0.043921 520071.000000 0 1 0
-21.379024 9.584335 2.443348 23.556148 -0.421444 1.466885 0.142700 -0.044281 -83327.900000 0 1 0
-21.576624 10.900535 3.173648 24.381231 -0.467800 1.440258 0.130434 -0.063298 -161467.000000 0 1 0
-21.517724 12.035035 2.342948 24.765781 -0.509961 1.476050 0.207847 -0.054795 148083.000000 0 1 0
-21.798324 13.235935 3.031448 25.681639 -0.545697 1.452481 0.192019 -0.061748 -184686.000000 0 0 1
-20.697224 14.030435 3.821048 25.294834 -0.595732 1.419155 0.159695 -0.042012 288103.000000 0 0 1
-20.034124 13.302035 4.859448 24.534150 -0.586133 1.371409 0.141094 -0.048663 150565.000000 0 1 0
-19.221024 14.145535 5.629048 24.519994 -0.634442 1.339161 0.129966 -0.037437 -443279.000000 0 1 0
-18.449024 13.397835 6.686248 23.760774 -0.628100 1.285545 0.091882 -0.033925 -171394.000000 0 1 0
-17.371824 12.603635 6.202548 22.340624 -0.627650 1.289464 0.080934 -0.030948 407070.000000 0 1 0
-16.909924 11.733235 7.221548 21.812040 -0.606598 1.233348 0.069221 -0.024930 -358510.000000 0 1 0
10.963876 -33.589705 -14.372052 38.144865 -1.255293 1.957109 0.067092 -0.005469 -85153.700000 0 0 1
11.949876 -32.888805 -13.626052 37.551862 -1.222286 1.942131 0.050397 -0.012428 446244.000000 0 0 1
12.647476 -31.967205 -14.502952 37.312149 -1.194055 1.970008 0.051418 -0.014683 129670.000000 0 0 1
13.971176 -31.376605 -13.974352 37.080556 -1.151880 1.957205 0.070846 -0.023671 -257205.000000 0 0 1
14.962476 -32.371205 -13.921552 38.282897 -1.137830 1.942979 0.087107 -0.013989 -388202.000000 0 0 1
16.176476 -31.803705 -13.474452 38.140725 -1.100265 1.931874 0.086301 -0.014270 55460.700000 0 0 1
17.427176 -32.595405 -13.903452 39.490161 -1.079813 1.930582 0.112378 -0.016927 77513.400000 0 0 1
17.664676 -33.736205 -13.102252 40.272091 -1.088438 1.902171 0.111050 -0.021308 -99969.400000 0 0 1
18.730376 33.155435 -13.656152 40.454917 1.056566 1.915125 0.108271 -0.009557 166933.000000 0 0 1
18.852576 31.712235 -13.046152 39.131669 1.034439 1.910695 0.090826 -0.018071 11108.400000 0 0 1
19.523976 31.789535 -11.797452 39.127229 1.020027 1.877078 0.084176 -0.018022 -68630.200000 0 0 1
19.329776 30.572635 -11.045252 37.819622 1.006995 1.867167 0.074556 -0.022273 245973.000000 0 0 1
20.369676 30.427935 -9.893652 37.929768 0.980876 1.834690 0.062031 -0.022017 870626.000000 0 0 1
21.671776 30.032135 -10.338852 38.451097 0.945707 1.843030 0.068061 -0.024878 349275.000000 0 0 1
22.534176 29.939735 -9.216652 38.589163 0.925601 1.811968 0.053436 -0.022636 535767.000000 0 0 1
23.831076 29.143535 -9.552152 38.839534 0.885347 1.819285 0.028634 -0.005651 21319.100000 0 0 1
24.862676 29.785935 -10.239752 40.127386 0.875245 1.828831 0.051775 -0.018036 -163271.000000 0 0 1
26.014776 28.957435 -10.218752 40.245801 0.838877 1.827515 0.044369 0.001086 354496.000000 0 0 1
27.201376 29.500935 -11.057152 41.623078 0.825931 1.839674 0.046218 -0.005942 216732.000000 0 0 1
27.946376 30.563435 -10.457352 42.713928 0.830097 1.818133 0.050750 -0.021512 -51540.100000 0 0 1
29.010576 30.946735 -11.273752 43.890903 0.817679 1.830567 0.047546 -0.011617 -273835.000000 0 0 1
29.507676 32.340935 -11.065252 45.156160 0.831176 1.818362 0.043644 -0.015303 -450423.000000 0 0 1
28.585576 33.311735 -11.522352 45.382501 0.861605 1.827501 0.058449 -0.013441 152251.000000 0 0 1
29.147676 -33.020305 -11.600052 45.546556 -0.847611 1.828319 0.059138 -0.008307 130376.000000 0 0 1
28.041476 -31.949805 -11.722652 44.096882 -0.850455 1.839870 0.052997 -0.010986 198062.000000 0 0 1
27.236976 -31.883605 -10.555652 43.241634 -0.863833 1.817397 0.076411 -0.015522 245780.000000 0 0 1
25.974076 -31.224805 -10.687852 41.998467 -0.876939 1.828108 0.091365 -0.009236 747658.000000 0 0 1
26.063176 -29.693405 -10.677552 40.926734 -0.850415 1.834745 0.069329 -0.013254 -290179.000000 0 0 1
26.768076 -29.032305 -11.712052 41.189523 -0.825953 1.859120 0.049688 -0.009900 -185458.000000 0 0 1
27.277776 -27.824205 -11.178052 40.536555 -0.795315 1.850169 0.037286 -0.009288 -261041.000000 0 0 1
28.145376 -26.979305 -12.149352 40.836893 -0.764248 1.872879 0.055636 -0.014798 437081.000000 0 0 1
29.407476 -27.511305 -12.539452 42.177119 -0.752097 1.872665 0.045098 -0.003485 200193.000000 0 0 1
29.261276 -28.428105 -13.545952 42.986884 -0.770957 1.891378 0.061898 -0.018532 -93342.500000 0 0 1
30.585176 -29.019505 -14.131152 44.466550 -0.759137 1.894197 0.042928 -0.009894 496901.000000 0 0 1
31.113376 -30.000305 -13.256552 45.208369 -0.767187 1.868402 0.056030 -0.023608 -728482.000000 0 0 1
32.205176 -30.676905 -13.740652 46.551599 -0.761099 1.870430 0.066289 -0.017788 -831119.000000 0 0 1
33.076776 -31.349005 -12.662052 47.298634 -0.758587 1.841806 0.081579 -0.021947 488483.000000 0 0 1
34.167276 -32.071305 -13.259552 48.700996 -0.753766 1.846542 0.066215 -0.014656 1197930.000000 0 0 1
35.078976 -32.797305 -12.379652 49.592878 -0.751796 1.823090 0.073961 -0.012943 1148760.000000 0 0 1
34.399576 33.569835 -11.732552 49.476433 0.773191 1.810211 0.052880 -0.010772 69029.100000 0 0 1
33.436076 -33.781605 -10.772952 48.736275 -0.790539 1.793683 0.047024 -0.008815 -290755.000000 0 0 1
33.024276 32.690935 -10.043252 47.541213 0.780326 1.783654 0.044684 -0.015067 -157278.000000 0 0 1
32.485876 32.888935 -8.601452 47.021263 0.791563 1.754759 0.025853 -0.011811 34283.900000 0 0 1
31.328176 33.671335 -8.489652 46.768446 0.821431 1.753334 0.039819 -0.014174 -307757.000000 0 0 1
30.730376 33.791535 -7.211052 46.240925 0.832806 1.727381 0.036703 -0.012397 440744.000000 0 0 1
29.688376 -32.733805 -7.108752 44.759759 -0.834147 1.730292 0.042308 -0.014298 -125729.000000 0 0 1
30.267776 -31.419805 -7.064152 44.195527 -0.804071 1.731323 0.035026 -0.020641 691078.000000 0 0 1
29.427276 -30.286005 -7.488652 42.886904 -0.799778 1.746310 0.025055 -0.004515 322481.000000 0 0 1
28.142476 -29.960005 -6.729952 41.652048 -0.816669 1.733083 0.037843 -0.007552 -275701.000000 0 0 1
27.344076 -29.054005 -7.425652 40.582927 -0.815708 1.754808 0.043920 -0.021830 -474236.000000 0 0 1
26.238276 -28.683905 -6.642552 39.437761 -0.829898 1.740034 0.070388 -0.037716 -71399.000000 0 0 1
25.250076 -27.694105 -7.310952 38.183502 -0.831528 1.763455 0.125512 -0.041233 -238541.000000 0 0 1
24.243676 -28.332005 -8.045652 38.146964 -0.863003 1.783304 0.148888 -0.038042 -451636.000000 0 0 1
23.409976 -27.381105 -8.644752 37.047046 -0.863425 1.806313 0.176632 -0.039241 -301054.000000 0 0 1
22.250976 -28.089605 -9.359452 37.036889 -0.900865 1.826273 0.167393 -0.029888 -186373.000000 0 0 1
22.710676 -28.783305 -10.533852 38.147287 -0.902785 1.850568 0.177001 -0.024789 -22001.100000 0 0 1
21.745276 -29.587305 -11.179052 38.382767 -0.936995 1.866331 0.155043 -0.023017 217914.000000 0 0 1
21.464276 -30.940005 -10.406552 39.067830 -0.964285 1.840423 0.149664 -0.028695 268407.000000 0 0 1
22.433176 -31.863805 -10.803952 40.438531 -0.957369 1.841251 0.125825 -0.020631 -180413.000000 0 0 1
21.980176 -33.140905 -10.442952 41.115726 -0.985174 1.827599 0.097170 -0.025333 -19979.500000 0 0 1
23.091776 33.464435 -10.573852 42.010771 0.966787 1.825226 0.081929 -0.019254 -361554.000000 0 0 1
24.051376 33.765835 -9.636352 42.561245 0.951864 1.799188 0.087985 -0.019888 -214948.000000 0 0 1
25.293776 33.057535 -9.761552 42.753522 0.917673 1.801150 0.089388 -0.025289 844177.000000 0 0 1
26.390476 33.465035 -8.748852 43.507565 0.903046 1.773265 0.078589 -0.022608 -97134.300000 0 0 1
26.263076 33.069035 -7.355552 42.865072 0.899609 1.743248 0.061635 -0.034717 -10578.400000 0 0 1
26.641376 31.715535 -7.159952 42.034545 0.872130 1.741966 0.046693 -0.019467 -133804.000000 0 0 1
26.623176 31.419335 -5.626152 41.564669 0.867843 1.706572 0.041177 -0.016143 -249464.000000 0 0 1
27.594576 32.126135 -4.848452 42.626947 0.861132 1.684784 0.049618 -0.020449 -15788.500000 0 0 1
28.690776 31.347435 -4.436552 42.725932 0.829619 1.674821 0.052341 -0.022443 -91413.100000 0 0 1
28.408276 30.230935 -3.428352 41.625631 0.816471 1.653251 0.064996 -0.006351 -892719.000000 0 0 1
28.093576 30.742635 -2.164052 41.701819 0.830392 1.622713 0.070267 -0.019829 -137941.000000 0 0 1
27.979176 29.658135 -1.246852 40.792081 0.814520 1.601367 0.062418 -0.013885 394247.000000 0 0 1
26.707276 28.745335 -1.361652 39.261011 0.822135 1.605485 0.053989 -0.004823 -485030.000000 0 0 1
25.548276 29.432035 -1.058352 38.988193 0.855920 1.597945 0.042898 -0.003861 -650425.000000 0 0 1
24.384676 28.718435 -1.491252 37.703909 0.866828 1.610358 0.039144 0.004842 1771570.000000 0 0 1
23.036576 29.372935 -0.943852 37.340916 0.905715 1.596076 0.060421 -0.001614 1211860.000000 0 0 1
22.753576 29.095835 0.416548 36.938683 0.907114 1.559519 0.063374 -0.010792 -1016060.000000 0 0 1
21.526176 29.605835 0.759748 36.612278 0.942118 1.550044 0.061466 -0.013291 -925041.000000 0 0 1
20.846176 28.964435 2.014548 35.742971 0.946960 1.514404 0.074116 -0.029711 -189993.000000 0 0 1
20.475476 27.671735 1.701948 34.465441 0.933764 1.521395 0.085404 -0.018535 128200.000000 0 0 1
19.857676 26.944635 2.750848 33.584339 0.935680 1.488796 0.099970 -0.015978 -217981.000000 0 0 1
19.291576 25.578235 2.282248 32.118836 0.924601 1.499680 0.105676 -0.013451 -209220.000000 0 0 1
20.199276 24.603235 1.846048 31.886326 0.883381 1.512869 0.108087 -0.018645 -250635.000000 0 0 1
20.971476 23.985335 2.839248 31.986879 0.852337 1.481916 0.092597 -0.012083 -201030.000000 0 0 1
22.108676 23.184435 2.172448 32.109673 0.809145 1.503087 0.074585 -0.012712 -80923.100000 0 0 1
21.569376 22.050535 1.551748 30.884818 0.796428 1.520532 0.090180 -0.009811 684194.000000 0 0 1
22.607076 21.437135 0.796348 31.165122 0.758842 1.545241 0.071691 -0.017792 187824.000000 0 0 1
22.159976 20.275535 -0.105852 30.036196 0.741020 1.574320 0.090286 -0.021306 -450097.000000 0 0 1
21.957176 20.588335 -1.421452 30.133331 0.753236 1.617986 0.054266 -0.002253 248271.000000 0 0 1
22.870176 19.964035 -2.292652 30.444439 0.717656 1.646174 0.068956 -0.011227 8712.740000 0 0 1
22.709876 20.586735 -3.688952 30.873297 0.736400 1.690569 0.054815 -0.013881 -44200.000000 0 0 1
23.466876 21.759935 -3.784452 32.225938 0.747674 1.688503 0.060515 -0.012060 39297.700000 0 0 1
23.168976 22.446335 -4.979952 32.641068 0.769557 1.723962 0.040234 -0.007867 -93171.500000 0 0 1
24.009876 23.737235 -5.216852 34.163519 0.779688 1.724099 0.034265 0.003741 -169184.000000 0 0 1
23.870576 24.893035 -4.334852 34.760013 0.806363 1.695830 0.031824 0.001081 -203839.000000 0 0 1
23.980576 24.739535 -2.942052 34.579883 0.800975 1.655979 0.033611 0.002222 -195558.000000 0 0 1
22.758176 24.164435 -2.168852 33.264973 0.815359 1.636042 0.042228 -0.008065 -1148330.000000 0 0 1
21.721676 25.124935 -2.190352 33.285000 0.857918 1.636650 0.062378 -0.005944 475507.000000 0 0 1
20.644076 24.729935 -1.319652 32.241108 0.875204 1.611738 0.064263 0.004343 506129.000000 0 0 1
19.701976 23.611335 -1.871852 30.808551 0.875412 1.631591 0.097639 -0.011717 -527560.000000 0 0 1
18.787776 24.109335 -2.864052 30.699240 0.908822 1.664226 0.090588 -0.016990 493530.000000 0 0 1
18.305376 23.086235 -3.742352 29.699600 0.900392 1.697139 0.108762 -0.028324 188911.000000 0 0 1
17.665476 23.596135 -5.041352 29.904211 0.928154 1.740189 0.113262 -0.029458 -158176.000000 0 0 1
17.054076 22.609935 -5.789752 28.906260 0.924566 1.772454 0.117348 -0.037823 -115778.000000 0 0 1
16.542076 23.118035 -6.978752 29.270921 0.949711 1.811534 0.107215 -0.036050 -2501.780000 0 0 1
15.866676 21.961635 -7.825552 28.201136 0.945147 1.851978 0.136492 -0.041836 -145572.000000 0 0 1
16.748476 20.955335 -8.293352 28.078768 0.896515 1.870629 0.136512 -0.042129 127398.000000 0 0 1
16.073976 19.918435 -8.983452 27.125987 0.891808 1.908345 0.172805 -0.057892 -421348.000000 0 0 1
16.786876 18.550435 -9.150452 26.639231 0.835263 1.921433 0.163965 -0.054303 -852219.000000 0 0 1
18.018076 18.638735 -9.775852 27.705970 0.802328 1.931404 0.140345 -0.046755 -582544.000000 0 0 1
18.556376 17.401735 -10.159952 27.393139 0.753298 1.950768 0.128390 -0.047358 -183146.000000 0 0 1
20.045776 17.558735 -10.504752 28.644233 0.719358 1.946290 0.099919 -0.037115 -282414.000000 0 0 1
20.278076 18.129835 -11.811052 29.654548 0.729524 1.980446 0.108467 -0.037822 -150926.000000 0 0 1
21.584176 18.559435 -12.102752 30.932279 0.710192 1.972803 0.092279 -0.020215 -240805.000000 0 0 1
21.808876 19.040635 -13.517852 31.951607 0.717735 2.007630 0.100544 -0.023217 17665.800000 0 0 1
21.976776 17.890235 -14.407052 31.789972 0.683251 2.041142 0.090914 -0.020436 110084.000000 0 0 1
21.934376 18.237135 -15.745052 32.582458 0.693620 2.075145 0.100967 -0.029936 84779.100000 0 0 1
22.196976 17.117535 -16.754652 32.656303 0.656910 2.109543 0.086212 -0.019672 290197.000000 0 0 1
23.534676 16.632635 -16.782352 33.349256 0.615228 2.098129 0.098637 -0.020432 254745.000000 0 0 1
23.767476 15.798635 -17.855552 33.664677 0.586651 2.129862 0.103342 -0.022888 -301396.000000 0 0 1
24.666876 16.387535 -18.951052 35.158903 0.586400 2.140059 0.128753 -0.018705 289877.000000 0 0 1
26.045076 16.576135 -18.634352 36.060412 0.566784 2.113851 0.150598 -0.023917 538387.000000 0 0 1
26.806976 17.024435 -19.748452 37.395811 0.565811 2.127149 0.166722 -0.029556 964298.000000 0 0 1
28.290176 17.351935 -19.329652 38.406499 0.550182 2.098200 0.143639 -0.032507 841077.000000 0 0 1
28.344976 18.435935 -18.412652 38.501261 0.576665 2.069440 0.129155 -0.038181 137446.000000 0 0 1
29.676976 18.490035 -17.929452 39.294650 0.557191 2.044609 0.111770 -0.039372 -67325.300000 0 0 1
29.857276 19.567735 -16.837052 39.469475 0.580145 2.011509 0.115002 -0.044461 189807.000000 0 0 1
29.166376 19.203235 -15.654852 38.268997 0.582260 1.992235 0.090391 -0.036915 427900.000000 0 0 1
27.777076 19.530935 -15.724652 37.420423 0.612825 2.004479 0.096012 -0.032996 592092.000000 0 0 1
26.872176 18.805735 -14.659152 35.925760 0.610606 1.991103 0.074368 -0.017221 416949.000000 0 0 1
27.165576 19.387535 -13.394452 35.961874 0.619848 1.952457 0.060687 -0.023856 646849.000000 0 0 1
26.089276 19.126835 -12.485452 34.675245 0.632617 1.939137 0.059710 -0.021946 604623.000000 0 0 1
26.555276 19.555935 -11.089852 34.793707 0.634756 1.895187 0.055229 -0.020171 2433.910000 0 0 1
26.536176 20.971935 -11.003952 35.567930 0.668807 1.885336 0.052140 -0.014941 -140095.000000 0 0 1
27.031976 21.455735 -9.769352 35.868043 0.670898 1.846651 0.033454 -0.005022 25676.100000 0 0 1
26.242876 21.212135 -8.456252 34.787230 0.679782 1.816341 0.034123 -0.008342 -826288.000000 0 0 1
26.381476 19.863235 -7.967352 33.970709 0.645370 1.807537 0.052923 -0.021128 -4564.770000 0 0 1
25.603676 19.582635 -6.843552 32.952420 0.652929 1.779999 0.063048 -0.024743 -404032.000000 0 0 1
24.093976 19.353035 -7.038352 31.695394 0.676708 1.794725 0.098648 -0.032911 -694256.000000 0 0 1
23.494176 20.511835 -7.513852 32.080674 0.717730 1.807210 0.074690 -0.024605 -1200830.000000 0 0 1
22.267576 20.144235 -8.073052 31.093557 0.735375 1.833443 0.051884 -0.028956 -1137560.000000 0 0 1
21.450176 21.443735 -8.194152 31.417956 0.785248 1.834659 0.103658 -0.033636 -704914.000000 0 0 1
21.737776 22.359035 -9.244752 32.525725 0.799486 1.858998 0.099984 -0.025593 -194797.000000 0 0 1
21.391176 21.969635 -10.556152 32.429610 0.798738 1.902347 0.115279 -0.023198 -371339.000000 0 0 1
19.926676 22.180335 -10.952352 31.764661 0.838869 1.922819 0.111999 -0.034664 -610802.000000 0 0 1
19.632976 23.531035 -10.722052 32.467303 0.875462 1.907356 0.115736 -0.039297 -276423.000000 0 0 1
18.251776 23.738735 -10.891852 31.863573 0.915333 1.919657 0.121838 -0.034082 -200780.000000 0 0 1
17.832976 25.016935 -10.112052 32.343711 0.951507 1.888771 0.096085 -0.035787 -191854.000000 0 0 1
18.359876 26.239535 -10.530052 33.711722 0.960270 1.888468 0.156666 -0.029712 -101923.000000 0 0 1
17.782876 27.313435 -9.823252 34.040427 0.993671 1.863536 0.127838 -0.045203 161200.000000 0 0 1
21.328576 28.632735 32.249917 48.112356 0.930566 0.836178 0.058181 0.012184 868277.000000 0 0 1
19.947076 28.995635 32.200672 47.702369 0.968215 0.829787 0.083266 -0.018463 602857.000000 0 0 1
19.077176 27.956035 32.661775 47.034775 0.971981 0.803186 0.081008 -0.023990 135220.000000 0 0 1
17.626076 28.354735 32.941613 46.902233 1.014626 0.792108 0.133355 -0.042922 -255570.000000 0 0 1
16.877776 28.549835 31.755145 45.916682 1.036896 0.807119 0.110576 -0.040676 -30186.700000 0 0 1
15.544476 28.871935 32.113781 45.896779 1.076907 0.795825 0.160758 -0.052674 -244238.000000 0 0 1
14.618776 29.032435 30.918687 44.861522 1.104327 0.810408 0.150006 -0.049292 -254709.000000 0 0 1
14.100176 27.814635 30.432817 43.573217 1.101617 0.797596 0.141874 -0.050825 -127568.000000 0 0 1
12.697076 27.794235 30.537907 43.200683 1.142282 0.785712 0.144694 -0.034818 -304734.000000 0 0 1
12.074676 26.359135 30.452257 42.046900 1.141241 0.760857 0.097895 -0.032084 55576.000000 0 0 1
12.179776 25.668335 29.203167 40.743531 1.127751 0.771657 0.094937 -0.026895 595695.000000 0 0 1
13.454276 25.029735 29.196997 40.742727 1.077576 0.771854 0.072336 -0.022534 396287.000000 0 0 1
13.549776 24.317935 27.832927 39.365343 1.062448 0.785491 0.094456 -0.023405 -115086.000000 0 0 1
13.241576 25.158635 26.741887 39.031075 1.086313 0.815996 0.080697 -0.025006 346214.000000 0 0 1
13.378276 24.507935 25.437047 37.771160 1.071125 0.831928 0.094263 -0.029272 -464970.000000 0 0 1
12.101076 23.772635 25.046547 36.591034 1.099948 0.816879 0.100826 -0.026442 -665436.000000 0 0 1
12.065476 23.028535 23.834117 35.269736 1.088184 0.828792 0.121137 -0.034502 -555778.000000 0 0 1
10.906376 22.315235 23.568257 34.240057 1.116196 0.811620 0.120123 -0.033072 -931488.000000 0 0 1
11.039276 21.869035 22.119687 33.006073 1.103324 0.836358 0.129894 -0.039486 -415653.000000 0 0 1
10.762976 22.942635 21.203487 33.042307 1.132152 0.874074 0.134319 -0.044551 13414.700000 0 0 1
10.674976 22.531335 19.882487 31.889332 1.128341 0.897605 0.144120 -0.037499 -614969.000000 0 0 1
10.525776 23.672635 18.948687 32.097326 1.152410 0.939303 0.116884 -0.040055 691003.000000 0 0 1
9.200276 24.201135 18.895687 32.052878 1.207511 0.940337 0.110594 -0.036606 326293.000000 0 0 1
8.655876 24.919935 19.972287 33.088058 1.236487 0.922775 0.109996 -0.040511 -225718.000000 0 0 1
7.325976 25.654435 19.712487 33.172309 1.292636 0.934469 0.110452 -0.040566 276077.000000 0 0 1
7.444376 26.453535 18.520087 33.139129 1.296478 0.977788 0.104579 -0.037879 217645.000000 0 0 1
6.135076 26.823335 18.117387 32.944957 1.345942 0.988517 0.096591 -0.043416 -11830.000000 0 0 1
6.173776 27.800535 16.949387 33.140111 1.352269 1.033929 0.113421 -0.042447 97848.000000 0 0 1
6.733976 27.260935 15.758187 32.199774 1.328625 1.059408 0.103597 -0.031674 467129.000000 0 0 1
8.035076 27.835735 15.553987 32.883386 1.289775 1.078099 0.099226 -0.032355 582550.000000 0 0 1
8.757976 27.357435 14.243187 32.062436 1.260974 1.110479 0.086414 -0.026408 273144.000000 0 0 1
8.189176 27.846435 12.993987 31.801419 1.284776 1.149879 0.102499 -0.032231 208407.000000 0 0 1
7.177176 27.004335 12.448987 30.589594 1.311023 1.151664 0.080277 -0.034401 416940.000000 0 0 1
6.499076 27.618435 11.186987 30.498600 1.339684 1.195226 0.084772 -0.045928 -298161.000000 0 0 1
7.345476 27.695535 10.067887 30.370397 1.311543 1.232900 0.067473 -0.037009 -209628.000000 0 0 1
7.749076 29.022235 9.780887 31.591202 1.309878 1.256016 0.072405 -0.036202 -521100.000000 0 0 1
7.532876 29.456635 8.287187 31.513728 1.320434 1.304696 0.062768 -0.022933 1029980.000000 0 0 1
6.155876 29.366835 7.850987 31.015219 1.364168 1.314879 0.055073 -0.032451 741810.000000 0 0 1
5.820576 28.173235 7.141587 29.641399 1.367063 1.327469 0.044253 -0.028419 -1119730.000000 0 0 1
4.315376 28.091235 7.024687 29.276034 1.418368 1.328485 0.064561 -0.037294 -1047580.000000 0 0 1
3.854176 29.153935 6.294387 30.073675 1.439358 1.359938 0.079423 -0.031131 -591534.000000 0 0 1
2.469976 29.046135 6.084187 29.779121 1.485964 1.365037 0.077896 -0.020722 -51301.300000 0 0 1
1.881176 30.032735 5.041187 30.510942 1.508241 1.404810 0.089790 -0.034778 -201834.000000 0 0 1
2.420276 29.768635 3.764087 30.103118 1.489672 1.445428 0.071498 -0.029932 118154.000000 0 0 1
1.752676 30.332835 2.669987 30.500518 1.513079 1.483145 0.054234 -0.037119 -368793.000000 0 0 1
0.764676 29.480035 1.897087 29.550907 1.544863 1.506555 0.105832 -0.046926 -127884.000000 0 0 1
1.393176 28.429235 1.146787 28.486443 1.521830 1.530528 0.100821 -0.046375 305188.000000 0 0 1
0.403076 27.581935 0.595287 27.591303 1.556184 1.549219 0.111170 -0.048643 156735.000000 0 0 1
-0.233224 27.941835 -0.803713 27.954364 -1.562450 1.599551 0.095919 -0.046382 88242.600000 0 0 1
-1.227224 28.933335 -0.728413 28.968509 -1.528406 1.595944 0.102733 -0.051049 -260529.000000 0 0 1
-1.169224 29.793135 -1.866113 29.874410 -1.531572 1.633302 0.106333 -0.048498 -746891.000000 0 0 1
-2.373324 30.756035 -2.059113 30.916117 -1.493783 1.637449 0.143927 -0.043468 635821.000000 0 0 1
-3.596024 30.145135 -2.505913 30.462110 -1.452067 1.653153 0.110210 -0.047569 581826.000000 0 0 1
-3.516624 29.372435 -3.707713 29.813650 -1.451638 1.695482 0.075828 -0.037384 -1309950.000000 0 0 1
-4.847224 28.896535 -4.323913 29.617588 -1.404599 1.717311 0.079567 -0.029188 -306883.000000 0 0 1
-5.622824 29.944835 -4.864113 30.853993 -1.385185 1.729106 0.061209 -0.026933 -288623.000000 0 0 1
-6.567724 29.301435 -5.688013 30.562437 -1.350297 1.757999 0.050102 -0.031122 -201598.000000 0 0 1
-7.215924 30.282835 -6.686113 31.840599 -1.336874 1.782358 0.049127 -0.015305 174217.000000 0 0 1
-8.344224 31.034635 -6.275213 32.743747 -1.308140 1.763635 0.047419 -0.008736 132817.000000 0 0 1
-8.363924 32.283735 -6.892413 34.054370 -1.317294 1.774599 0.061211 -0.017259 333706.000000 0 0 1
-9.475824 33.238635 -6.321413 35.136283 -1.293079 1.751693 0.075404 -0.021056 829499.000000 0 0 1
-10.797924 32.772635 -6.556013 35.122957 -1.252518 1.758557 0.078153 -0.015611 -662639.000000 0 0 1
-11.714924 33.647035 -6.063713 36.140435 -1.235752 1.739376 0.079565 -0.027625 366093.000000 0 0 1
-13.215124 33.224635 -6.313613 36.309470 -1.192230 1.745568 0.115906 -0.025638 1089760.000000 0 0 1
-13.673624 33.365135 -7.659913 36.862915 -1.181855 1.780116 0.110311 -0.026568 -530678.000000 0 0 1
-15.008324 32.994735 -7.780613 37.073444 -1.143900 1.782239 0.150292 -0.029350 -1056380.000000 0 0 1
-15.614324 33.278035 -9.196013 37.891970 -1.132084 1.815934 0.201887 -0.038048 848396.000000 0 0 1
-17.007124 32.957235 -9.307613 38.236805 -1.094402 1.816687 0.244055 -0.047468 513021.000000 0 0 1
-17.841024 -33.688705 -8.866913 39.138895 1.083762 1.799330 0.232205 -0.049244 -736522.000000 0 0 1
-19.367824 33.795035 -9.128113 40.006743 -1.050394 1.800988 0.219807 -0.049291 389589.000000 0 0 1
-20.146124 32.927435 -8.365213 39.497583 -1.021721 1.784203 0.207187 -0.054498 115020.000000 0 0 1
-20.415224 33.397935 -7.089713 39.780240 -1.022130 1.749976 0.166593 -0.050077 -637911.000000 0 0 1
-21.220024 32.601235 -6.066913 39.369244 -0.993791 1.725516 0.167756 -0.048349 -361278.000000 0 0 1
-21.260024 33.200235 -4.801713 39.715245 -1.001229 1.691996 0.150171 -0.047257 589154.000000 0 0 1
-22.391524 32.840135 -4.016713 39.949829 -0.972367 1.671510 0.158083 -0.048127 -144839.000000 0 0 1
-23.548224 33.824135 -4.008213 41.408414 -0.962628 1.667745 0.171770 -0.057798 -622588.000000 0 0 1
-24.020024 -33.670705 -5.317213 41.700728 0.951146 1.698653 0.183667 -0.061258 415476.000000 0 0 1
-25.045894 -32.667805 -5.448013 41.523044 0.916702 1.702380 0.182015 -0.070992 338321.000000 0 0 1
-25.589004 -32.574505 -6.882813 41.991292 0.904927 1.735450 0.210680 -0.057664 -528079.000000 0 0 1
-24.829324 -31.829705 -7.778013 41.111105 0.908328 1.761139 0.238292 -0.058744 -356733.000000 0 0 1
-25.028494 -32.115105 -9.116413 41.724267 0.908782 1.791065 0.200583 -0.046590 762546.000000 0 0 1
-26.250224 -31.413805 -9.870813 42.110977 0.874706 1.807398 0.166350 -0.032593 2004350.000000 0 0 1
-27.557964 -31.902905 -9.386713 43.189664 0.858341 1.789882 0.167726 -0.025534 2119220.000000 0 0 1
-28.708334 -31.325505 -10.022713 43.656735 0.828966 1.802442 0.089294 -0.014077 627158.000000 0 0 1
-28.965414 -29.809105 -9.761113 42.694933 0.799752 1.801461 0.057318 0.004641 -981230.000000 0 0 1
-28.058704 -28.875705 -10.270413 41.552119 0.799747 1.820554 0.077811 0.008622 -459242.000000 0 0 1
-28.116914 -28.718705 -11.687613 41.856005 0.795986 1.853792 0.077278 0.003821 -172739.000000 0 0 1
-26.876864 -28.017105 -12.259613 40.713906 0.806167 1.876659 0.102808 -0.002236 -72574.300000 0 0 1
-25.722394 -28.851605 -12.380413 40.587329 0.842674 1.880768 0.128014 -0.012207 -68363.700000 0 0 1
-24.775224 -28.090005 -13.116113 39.684916 0.848019 1.907636 0.135483 -0.022352 -838322.000000 0 0 1
-23.521624 -28.911805 -13.322713 39.580980 0.887839 1.914094 0.150208 -0.034798 -953800.000000 0 0 1
-23.531524 -30.031405 -14.186213 40.704626 0.906158 1.926784 0.161700 -0.037630 -107592.000000 0 0 1
-24.084224 -31.248805 -13.680113 41.757432 0.914163 1.904568 0.165795 -0.037297 89410.300000 0 0 1
-24.059524 -32.484305 -14.654913 42.998340 0.933306 1.918591 0.175689 -0.033320 80007.600000 0 0 1
-24.600824 -33.592005 -13.948913 43.911223 0.938693 1.894059 0.165941 -0.040421 66813.000000 0 0 1
-24.715124 32.839635 -14.647413 43.632851 -0.925633 1.913141 0.170333 -0.032359 337829.000000 0 0 1
-25.513844 31.808035 -13.705813 43.018097 -0.894764 1.895055 0.157564 -0.031565 424596.000000 0 0 1
-24.882324 31.357135 -12.504513 41.937606 -0.900023 1.873571 0.176176 -0.032903 161199.000000 0 0 1
-24.809224 32.425035 -11.571913 42.435712 -0.917685 1.846987 0.206794 -0.030567 -114313.000000 0 0 1
-24.117024 31.984035 -10.271613 41.353541 -0.924719 1.821809 0.212749 -0.031735 -95243.400000 0 0 1
-24.879324 31.150135 -9.419113 40.963781 -0.896854 1.802810 0.196207 -0.028400 108975.000000 0 0 1
-24.247624 30.916435 -8.165913 40.130479 -0.905705 1.775711 0.169316 -0.027791 86414.500000 0 0 1
-24.945624 29.743835 -7.441913 39.526725 -0.872910 1.760202 0.158343 -0.019504 -81055.500000 0 0 1
-24.538024 28.583035 -8.053613 38.522269 -0.861399 1.781414 0.153862 -0.006816 -58257.200000 0 0 1
-24.942324 27.339435 -7.494613 37.758886 -0.831216 1.770609 0.146275 -0.018837 746220.000000 0 0 1
-23.832224 26.602435 -6.593113 36.319879 -0.840270 1.753337 0.131576 -0.016944 677710.000000 0 0 1
-23.614424 27.303435 -5.392113 36.499226 -0.857722 1.719071 0.138540 -0.019152 -12068.400000 0 0 1
-22.605124 26.596135 -4.657613 35.214193 -0.866337 1.703450 0.111159 -0.016790 193007.000000 0 0 1
-21.315324 27.459335 -4.689413 35.076327 -0.910705 1.704889 0.099277 -0.022191 -316667.000000 0 0 1
-20.594724 27.285135 -5.912213 34.692586 -0.924233 1.742049 0.110728 -0.031215 550710.000000 0 0 1
-19.292324 27.859335 -5.734913 34.368962 -0.965128 1.738444 0.122709 -0.033908 760076.000000 0 0 1
-18.296624 27.503235 -6.878213 33.741728 -0.983773 1.776084 0.143762 -0.035135 49067.000000 0 0 1
-18.710024 27.934235 -8.207213 34.608450 -0.980636 1.810222 0.176758 -0.041632 132167.000000 0 0 1
-18.550924 29.311135 -8.373013 35.684545 -1.006539 1.807644 0.196966 -0.046681 -120903.000000 0 0 1
-18.529724 29.855435 -9.826013 36.486274 -1.015332 1.843470 0.211970 -0.041511 -1105190.000000 0 0 1
-17.342224 29.609635 -10.454713 35.871775 -1.040961 1.866535 0.203681 -0.047772 -957532.000000 0 0 1
-17.262824 30.414735 -11.584313 36.840976 -1.054556 1.890664 0.214890 -0.055151 855017.000000 0 0 1
-15.809724 30.538435 -12.202813 36.489067 -1.093090 1.911790 0.197145 -0.051899 1049560.000000 0 0 1
-15.635924 31.419335 -13.310913 37.534479 -1.109028 1.933316 0.187748 -0.052095 -272023.000000 0 0 1
-15.979824 30.810935 -14.521113 37.623546 -1.092347 1.967043 0.190084 -0.059690 -135779.000000 0 0 1
-15.555624 31.593435 -15.796613 38.596056 -1.113272 1.992462 0.200275 -0.057647 -377457.000000 0 0 1
-14.162824 31.624435 -15.858813 38.107643 -1.149736 2.000013 0.173297 -0.062534 -850316.000000 0 0 1
-13.669124 31.863335 -17.117213 38.666730 -1.165549 2.029388 0.143989 -0.068520 -659930.000000 0 0 1
-12.170924 32.120935 -17.178313 38.405472 -1.208603 2.034527 0.156010 -0.065754 -643613.000000 0 0 1
-11.332524 30.980835 -17.228713 37.216485 -1.220123 2.052097 0.159249 -0.077645 -348513.000000 0 0 1
-10.101224 31.210935 -17.850013 37.346756 -1.257792 2.069120 0.144943 -0.065568 -202396.000000 0 0 1
-10.107724 31.136435 -19.341013 38.022604 -1.256902 2.104437 0.139102 -0.071844 -527241.000000 0 0 1
-10.315324 29.794735 -19.790913 37.226501 -1.237499 2.131326 0.130100 -0.073193 111881.000000 0 0 1
-10.371724 29.671235 -21.186113 37.905227 -1.234518 2.163883 0.101112 -0.075892 35479.200000 0 0 1
-11.822024 29.468235 -21.683613 38.448878 -1.189274 2.169969 0.109764 -0.061785 224417.000000 0 0 1
-12.568024 30.692535 -21.779013 39.677605 -1.182143 2.151843 0.121374 -0.065283 -124668.000000 0 0 1
-13.825724 30.531535 -21.160713 39.637117 -1.145588 2.133957 0.123913 -0.063836 -275813.000000 0 0 1
-14.676224 31.772035 -21.442913 41.044516 -1.138072 2.120495 0.154835 -0.071127 -429074.000000 0 0 1
-15.448624 31.734135 -22.618013 41.920041 -1.117753 2.140700 0.126361 -0.061746 -197724.000000 0 0 1
-16.146324 32.978435 -22.666813 43.151655 -1.115501 2.123843 0.127251 -0.062435 274536.000000 0 0 1
-16.730724 33.177835 -24.087713 44.282093 -1.103735 2.145946 0.113620 -0.048486 116172.000000 0 0 1
-15.656424 33.052035 -25.006813 44.304642 -1.128417 2.170537 0.118847 -0.047304 207871.000000 0 0 1
-15.960524 33.233535 -26.407713 45.349459 -1.123070 2.192371 0.133657 -0.036396 -31643.500000 0 0 1
-16.437924 -33.060105 -26.979813 45.728396 1.109381 2.201857 0.121138 -0.028206 327044.000000 0 0 1
-17.731324 -32.690605 -26.526213 45.680581 1.073808 2.190371 0.111874 -0.029549 199405.000000 0 0 1
-18.387524 -31.980305 -27.570613 46.054095 1.048989 2.212620 0.081318 -0.016714 918542.000000 0 0 1
-19.881424 -31.600005 -27.227713 46.208005 1.009212 2.200917 0.075930 -0.024537 840247.000000 0 0 1
-20.713724 -32.715205 -27.157613 47.295655 1.006356 2.182435 0.081622 -0.027955 224073.000000 0 0 1
-22.080324 -32.336605 -26.974013 47.547809 0.971689 2.174023 0.072085 -0.019527 1258080.000000 0 0 1
-23.241424 -33.366805 -27.043713 48.835129 0.962394 2.157688 0.053217 -0.010499 338365.000000 0 0 1
-23.371624 33.449335 -25.941913 48.353631 -0.960932 2.137085 0.089060 -0.022996 -76749.700000 0 0 1
-24.590524 32.728335 -26.008213 48.500154 -0.926430 2.136784 0.068639 -0.021192 217616.000000 0 0 1
-24.647324 31.427235 -26.870513 48.137160 -0.905723 2.163020 0.080927 -0.021243 -239382.000000 0 0 1
-23.672124 30.417935 -26.645013 46.856984 -0.909472 2.175655 0.086116 -0.045472 -49200.800000 0 0 1
-23.921724 29.642335 -25.493213 45.834712 -0.891794 2.160601 0.073378 -0.038012 -59359.200000 0 0 1
33.044606 10.133035 -26.023562 43.264883 0.297544 2.216166 0.034673 -0.006996 -13937.900000 0 0 1
32.632376 8.789835 -25.851602 42.549248 0.263115 2.223793 0.023641 -0.003168 419966.000000 0 0 1
31.211406 8.712435 -25.809902 41.427158 0.272214 2.243393 0.054038 -0.012565 535245.000000 0 0 1
30.617226 7.291335 -25.634602 40.592005 0.233790 2.254306 0.047148 -0.014799 132741.000000 0 0 1
31.009496 6.823135 -24.362352 40.020847 0.216582 2.225270 0.029405 -0.004951 382307.000000 0 0 1
30.217266 5.684335 -24.024952 39.020419 0.185942 2.234073 0.047134 -0.012087 415155.000000 0 0 1
30.143466 5.477735 -22.515252 38.020661 0.179761 2.204564 0.070820 -0.015748 961760.000000 0 0 1
31.460896 5.138735 -22.027752 38.748115 0.161907 2.175460 0.067445 -0.014500 1060780.000000 0 0 1
31.479616 4.981735 -20.619052 37.959573 0.156951 2.145022 0.067888 -0.016548 -366455.000000 0 0 1
32.843996 4.719835 -19.967552 38.726064 0.142728 2.112516 0.062981 -0.011399 -457024.000000 0 0 1
33.379016 3.402535 -20.131652 39.128242 0.101585 2.111226 0.077770 -0.011756 796349.000000 0 0 1
34.363016 3.116935 -19.109052 39.442211 0.090459 2.076568 0.095704 -0.017710 372385.000000 0 0 1
34.791196 1.606635 -19.015452 39.681179 0.046147 2.070546 0.114531 -0.024462 324585.000000 0 0 1
33.735316 0.728335 -18.615552 38.537524 0.021586 2.074931 0.102680 -0.020520 79428.500000 0 0 1
34.123546 -0.613165 -18.578552 38.858139 -0.017967 2.069300 0.105446 -0.021073 265498.000000 0 0 1
33.005226 -1.559265 -18.046452 37.649046 -0.047208 2.070692 0.102840 -0.020609 413078.000000 0 0 1
33.018736 -1.508865 -16.632852 37.002234 -0.045665 2.037012 0.116925 -0.029061 124737.000000 0 0 1
31.681346 -1.518465 -16.168752 35.601151 -0.047893 2.042230 0.109883 -0.024380 146224.000000 0 0 1
31.433196 -2.223765 -14.809952 34.818466 -0.070628 2.010142 0.115210 -0.036522 -61795.900000 0 0 1
31.019296 -3.581565 -14.812452 34.560571 -0.114953 2.013732 0.110086 -0.039765 215984.000000 0 0 1
30.249266 -3.797265 -13.645452 33.401133 -0.124879 1.991642 0.095269 -0.029383 -51150.300000 0 0 1
29.891366 -5.319265 -13.497752 33.226159 -0.176110 1.989130 0.098295 -0.023790 43664.600000 0 0 1
29.181966 -5.924365 -14.564152 33.148148 -0.200293 2.025689 0.085322 -0.027360 334932.000000 0 0 1
28.981766 -7.321365 -14.318352 33.144537 -0.247443 2.017503 0.086573 -0.029015 -110163.000000 0 0 1
28.226866 -8.043465 -15.456052 33.171416 -0.277600 2.055499 0.078988 -0.026691 147887.000000 0 0 1
26.909166 -7.595565 -15.697852 32.065844 -0.275109 2.082371 0.051946 -0.021986 -128438.000000 0 0 1
26.236266 -8.417765 -16.623152 32.179646 -0.310469 2.113641 0.060046 -0.019640 -107062.000000 0 0 1
24.883466 -7.771965 -16.949852 31.094819 -0.302734 2.147307 0.062562 -0.020030 -398832.000000 0 0 1
24.992566 -6.584465 -17.698452 31.324411 -0.257603 2.171236 0.047180 -0.012313 -203003.000000 0 0 1
23.716966 -6.196165 -18.140652 30.495412 -0.255543 2.207894 0.068122 -0.017406 -72566.900000 0 0 1
23.365166 -6.676365 -19.569152 31.200265 -0.278324 2.248764 0.051653 -0.013682 -107056.000000 0 0 1
24.106066 -5.924865 -20.511052 32.201082 -0.241006 2.261355 0.051360 -0.025277 268371.000000 0 0 1
24.303866 -6.551865 -21.742552 33.261741 -0.263321 2.283234 0.068842 -0.032206 -299193.000000 0 0 1
24.846166 -5.541765 -22.734752 34.130808 -0.219451 2.299773 0.080603 -0.034179 -122291.000000 0 0 1
24.957966 -6.067165 -24.040152 35.180100 -0.238470 2.323131 0.103992 -0.044531 79373.700000 0 0 1
25.328566 -5.098665 -24.983352 35.940235 -0.198646 2.339405 0.105314 -0.044794 -224561.000000 0 0 1
25.273166 -5.585065 -26.436462 36.997464 -0.217492 2.366774 0.139634 -0.048015 -202067.000000 0 0 1
23.995566 -6.011265 -26.860982 36.516227 -0.245464 2.397334 0.155537 -0.043524 -119083.000000 0 0 1
23.829366 -6.008465 -28.290102 37.473593 -0.246997 2.426350 0.147866 -0.047215 406822.000000 0 0 1
22.403466 -6.493865 -28.672982 36.962487 -0.282128 2.458670 0.123796 -0.048406 508002.000000 0 0 1
22.380366 -7.913165 -28.600602 37.168446 -0.339857 2.448832 0.106496 -0.037074 937107.000000 0 0 1
21.027066 -8.407265 -28.598212 36.478450 -0.380360 2.471840 0.111997 -0.052103 764457.000000 0 0 1
20.772866 -9.866865 -28.260552 36.435227 -0.443439 2.458522 0.130918 -0.039541 112872.000000 0 0 1
19.401966 -10.217265 -28.143152 35.677244 -0.484708 2.479693 0.147287 -0.035387 416861.000000 0 0 1
19.252266 -11.461965 -27.480042 35.456721 -0.536998 2.457560 0.139237 -0.042037 -139939.000000 0 0 1
19.443466 -12.776465 -28.312542 36.645415 -0.581356 2.453735 0.115953 -0.029172 4940.120000 0 0 1
18.316966 -13.008865 -29.126752 36.784636 -0.617545 2.484577 0.121520 -0.029246 188514.000000 0 0 1
18.573766 -14.168665 -29.918832 37.958824 -0.651663 2.478662 0.085367 -0.027282 -417958.000000 0 0 1
17.497866 -14.471765 -30.963502 38.397210 -0.691024 2.508835 0.078630 -0.033057 -1386260.000000 0 0 1
16.359466 -14.929565 -30.360472 37.580344 -0.739730 2.511345 0.062526 -0.028316 -1265530.000000 0 0 1
15.542366 -15.454965 -31.374052 38.272081 -0.782579 2.531794 0.057766 -0.028685 357444.000000 0 0 1
14.272166 -16.183865 -30.760802 37.574448 -0.848085 2.529875 0.072405 -0.035728 971846.000000 0 0 1
14.638466 -17.358265 -29.998202 37.622947 -0.870197 2.493668 0.049369 -0.032745 714675.000000 0 0 1
13.512166 -17.727365 -29.196372 36.732359 -0.919520 2.489541 0.051988 -0.027393 547297.000000 0 0 1
13.742966 -19.100465 -28.541442 36.990685 -0.947096 2.452125 0.049651 -0.019939 62326.700000 0 0 1
14.745466 -19.058965 -27.532692 36.588550 -0.912314 2.422638 0.038958 -0.014494 155637.000000 0 0 1
14.678566 -20.220465 -26.748992 36.603771 -0.942881 2.390248 0.038921 -0.010040 139804.000000 0 0 1
15.632866 -20.199265 -25.520652 36.106793 -0.912154 2.355775 0.026988 -0.003493 960678.000000 0 0 1
17.019866 -20.420265 -25.848842 37.078642 -0.875972 2.342191 0.055815 -0.015629 1074660.000000 0 0 1
17.840966 -20.104665 -24.717652 36.516571 -0.844984 2.314324 0.076231 -0.020868 -106935.000000 0 0 1
19.337666 -20.406165 -24.924752 37.571267 -0.812276 2.296149 0.066638 -0.008542 113383.000000 0 0 1
19.835666 -21.775065 -24.842652 38.532641 -0.831973 2.271449 0.076000 -0.010870 462017.000000 0 0 1
19.571366 -22.363165 -23.538952 37.910840 -0.851875 2.240690 0.061104 -0.009662 -648622.000000 0 0 1
20.238766 -23.722565 -23.376852 38.972361 -0.864480 2.214087 0.049398 -0.011251 -427640.000000 0 0 1
21.640566 -23.655265 -23.226152 39.589642 -0.829848 2.197740 0.071494 -0.009877 307499.000000 0 0 1
22.221266 -24.990625 -23.037552 40.608432 -0.843989 2.174031 0.076973 -0.011756 277258.000000 0 0 1
22.237766 -25.361775 -21.553052 40.028389 -0.850935 2.139386 0.095737 -0.012292 -493050.000000 0 0 1
20.937266 -25.683025 -21.092652 39.279598 -0.886845 2.137658 0.080987 -0.011679 196923.000000 0 0 1
20.916266 -25.917285 -19.687852 38.688595 -0.891778 2.104680 0.071015 -0.022475 294294.000000 0 0 1
19.504666 -26.376675 -19.177952 37.999405 -0.934071 2.099820 0.066008 -0.019439 126714.000000 0 0 1
19.320466 -27.716925 -19.563652 39.041578 -0.962044 2.095663 0.070031 -0.015534 -425582.000000 0 0 1
18.215166 -28.369455 -19.028452 38.713050 -1.000016 2.084637 0.061776 -0.011596 133420.000000 0 0 1
16.800066 -27.953715 -19.528952 38.013581 -1.029645 2.110330 0.076536 -0.024920 126641.000000 0 0 1
16.098466 -27.107595 -18.597952 36.604182 -1.034894 2.103754 0.076799 -0.026558 893885.000000 0 0 1
14.874366 -26.597585 -19.185752 36.010712 -1.060889 2.132677 0.060947 -0.013399 963267.000000 0 0 1
13.902566 -25.843755 -18.261852 34.564089 -1.077254 2.127449 0.029731 -0.008926 -530101.000000 0 0 1
13.083966 -26.677465 -17.510652 34.489132 -1.114818 2.103327 0.030600 -0.011894 -495173.000000 0 0 1
12.104666 -25.975415 -16.790152 33.213767 -1.134713 2.100778 0.029535 -0.011499 1411870.000000 0 0 1
10.625966 -26.069195 -17.403852 33.096951 -1.183750 2.124504 0.043006 -0.019223 1094950.000000 0 0 1
10.021066 -27.309375 -17.073452 33.730201 -1.219105 2.101542 0.062665 -0.013410 215942.000000 0 0 1
8.597366 -27.250585 -17.128752 33.315210 -1.265187 2.110803 0.067215 0.000019 823769.000000 0 0 1
7.932666 -27.688345 -18.452952 34.206477 -1.291772 2.140589 0.098477 -0.006000 -186344.000000 0 0 1
8.131966 -26.828545 -19.536352 34.169705 -1.276490 2.179427 0.111597 -0.011568 -20670.200000 0 0 1
7.782466 -27.466345 -20.773352 35.305793 -1.294688 2.199855 0.106865 -0.012275 -53384.200000 0 0 1
7.689566 -26.515045 -21.973152 35.284507 -1.288532 2.243039 0.110572 -0.012914 -170783.000000 0 0 1
6.549166 -25.691665 -21.849052 34.355993 -1.321198 2.260049 0.110827 -0.011745 114150.000000 0 0 1
6.128766 -25.228135 -23.117352 34.762516 -1.332479 2.298301 0.094533 -0.018421 -381913.000000 0 0 1
4.806566 -24.442165 -23.099152 33.971949 -1.376623 2.318488 0.069460 -0.014243 -301153.000000 0 0 1
3.689166 -25.302725 -22.977152 34.377134 -1.426015 2.302831 0.062688 -0.011488 136927.000000 0 0 1
2.685766 -24.757565 -23.834552 34.470802 -1.462736 2.334279 0.060373 -0.020794 21282.800000 0 0 1
1.697266 -25.717275 -24.507752 35.565276 -1.504895 2.331032 0.021700 -0.015802 39645.000000 0 0 1
2.162666 -26.414595 -25.648742 36.881783 -1.489105 2.339816 0.035139 -0.012330 350843.000000 0 0 1
1.100066 -27.214745 -26.128112 37.742956 -1.530397 2.335419 0.051092 -0.020787 371248.000000 0 0 1
1.635266 -28.141855 -27.260212 39.214248 -1.512754 2.339440 0.055239 -0.015713 -195782.000000 0 0 1
2.255366 -27.534145 -28.349532 39.584236 -1.489067 2.369113 0.054020 -0.011763 15184.400000 0 0 1
2.743366 -28.433835 -29.330362 40.942388 -1.474612 2.369398 0.077346 -0.021644 641547.000000 0 0 1
4.187566 -29.029635 -29.131632 41.338933 -1.427533 2.352799 0.102606 -0.025978 359627.000000 0 0 1
4.342166 -29.898705 -28.036882 41.217153 -1.426575 2.318864 0.089766 -0.034851 142333.000000 0 0 1
5.557066 -30.618995 -28.238842 42.021852 -1.391260 2.307708 0.112299 -0.043803 390937.000000 0 0 1
5.772466 -31.660905 -27.103842 42.075557 -1.390456 2.270735 0.136317 -0.061508 -166716.000000 0 0 1
4.809666 -32.700305 -27.144402 42.769865 -1.424760 2.258367 0.117659 -0.066444 134071.000000 0 0 1
5.256566 -33.824835 -26.470612 43.271749 -1.416624 2.229042 0.127663 -0.072373 -468999.000000 0 0 1
4.082066 32.946852 -26.112102 42.237426 1.447526 2.237275 0.153315 -0.070530 -580779.000000 0 0 1
3.657166 32.042125 -27.101992 42.125890 1.457152 2.269672 0.141957 -0.068126 390617.000000 0 0 1
2.317666 31.622045 -26.887652 41.572480 1.497634 2.274132 0.126358 -0.058207 608807.000000 0 0 1
1.331666 32.134079 -28.004352 42.645235 1.529379 2.287207 0.124580 -0.039327 147566.000000 0 0 1
1.224566 31.209215 -29.079482 42.674711 1.531579 2.320500 0.134043 -0.043943 487622.000000 0 0 1
0.188766 31.571205 -30.000642 43.552441 1.564817 2.330683 0.127089 -0.036151 513647.000000 0 0 1
-0.021434 30.467725 -31.022672 43.482053 -1.570093 2.365219 0.118731 -0.033423 -275147.000000 0 0 1
1.131766 30.414285 -31.805442 44.021537 1.533602 2.378204 0.135365 -0.035679 -30319.400000 0 0 1
0.876966 29.582275 -32.949162 44.289133 1.541160 2.409767 0.138907 -0.041743 432827.000000 0 0 1
2.182066 29.238465 -33.751962 44.708435 1.496304 2.426351 0.128093 -0.036871 462649.000000 0 0 1
2.709166 30.298725 33.090071 44.947805 1.481618 0.743375 0.135023 -0.034376 493585.000000 0 0 1
3.740766 29.933705 32.144933 44.083067 1.446472 0.753659 0.098927 -0.037511 58186.900000 0 0 1
3.323666 29.026505 30.962347 42.570550 1.456788 0.756390 0.093900 -0.030636 -323956.000000 0 0 1
3.085466 27.650425 31.168787 41.779892 1.459668 0.728726 0.099040 -0.036206 -129480.000000 0 0 1
4.223266 26.830805 31.110677 41.298938 1.414674 0.717724 0.099778 -0.031747 -517252.000000 0 0 1
3.950966 25.385525 31.462127 40.618967 1.416397 0.684765 0.099724 -0.037161 -501458.000000 0 0 1
3.112066 24.736125 30.566677 39.444678 1.445643 0.684199 0.104394 -0.028709 -34276.000000 0 0 1
3.057366 23.366765 30.853417 38.823788 1.440693 0.652277 0.086480 -0.014338 -380502.000000 0 0 1
2.318166 22.544875 29.852017 37.480505 1.468332 0.649365 0.086444 -0.008834 -708491.000000 0 0 1
0.929766 22.652575 29.867457 37.497582 1.529775 0.649284 0.095649 -0.016591 -663264.000000 0 0 1
0.299666 22.017675 28.766827 36.227036 1.557187 0.653319 0.096034 -0.010745 505327.000000 0 0 1
-1.147134 21.545975 29.063327 36.196988 -1.517605 0.638617 0.092368 -0.008305 792459.000000 0 0 1
-2.160434 22.538375 29.263637 37.000085 -1.475232 0.658506 0.098477 -0.018920 1124910.000000 0 0 1
-3.429934 21.990375 29.612047 37.043412 -1.416069 0.644521 0.070323 -0.023138 496016.000000 0 0 1
-4.523234 22.930115 30.141417 38.141249 -1.376035 0.659567 0.043771 -0.029441 -156880.000000 0 0 1
-4.403934 23.430365 31.470037 39.480880 -1.385006 0.648326 0.065127 -0.030663 -103909.000000 0 0 1
-5.339934 24.456395 31.673142 40.371006 -1.355825 0.668823 0.060714 -0.038142 -125715.000000 0 0 1
-5.149434 25.310405 32.964735 41.878480 -1.370084 0.664618 0.081464 -0.034722 524303.000000 0 0 1
-6.407434 25.812615 33.434291 42.722338 -1.327485 0.671973 0.073840 -0.028084 695635.000000 0 0 1
-6.293134 26.192325 -32.833872 42.470043 -1.335000 2.454521 0.086645 -0.022341 58514.400000 0 0 1
-7.619034 26.565525 -32.141822 42.389545 -1.291492 2.431419 0.073642 -0.014904 -85399.700000 0 0 1
-8.334234 27.693825 -32.637412 43.607431 -1.278476 2.416498 0.082458 -0.013469 106287.000000 0 0 1
-9.661934 27.794175 -32.180522 43.605678 -1.236239 2.400882 0.073695 -0.008857 174598.000000 0 0 1
-9.904434 28.244225 -30.687582 42.866791 -1.233524 2.368683 0.075011 -0.013785 -377694.000000 0 0 1
-9.440334 29.561005 -30.535402 43.536005 -1.261682 2.348132 0.073082 -0.012167 199593.000000 0 0 1
-9.428734 29.884205 -29.178012 42.817323 -1.265173 2.320543 0.082953 -0.018928 -289823.000000 0 0 1
-8.792334 31.219915 -28.771782 43.356703 -1.296281 2.296426 0.065148 -0.020274 -925421.000000 0 0 1
-7.405034 31.191805 -28.884252 43.151631 -1.337708 2.304152 0.061494 -0.019882 -917814.000000 0 0 1
-6.944734 32.482286 -28.685242 43.888169 -1.360167 2.283126 0.067346 -0.018654 -220897.000000 0 0 1
-5.444434 32.518524 -28.269902 43.431367 -1.404909 2.279579 0.074777 -0.020316 4953.070000 0 0 1
-4.941034 33.792295 -27.976532 44.147699 -1.425607 2.257127 0.088388 -0.022810 -88933.300000 0 0 1
-4.933834 -32.805555 -28.949572 44.029818 1.421519 2.288291 0.093441 -0.031441 -252949.000000 0 0 1
-3.871334 -32.974235 -30.092622 44.809076 1.453927 2.307128 0.094111 -0.027909 160841.000000 0 0 1
-4.104534 33.607407 -30.963952 45.881056 -1.449266 2.311591 0.094718 -0.022875 17851.500000 0 0 1
-4.916934 -33.751005 -32.091692 46.831435 1.426131 2.325756 0.115372 -0.023992 28835.700000 0 0 1
-4.321234 -32.802555 -33.164842 46.846424 1.439816 2.357385 0.086748 -0.027344 -179227.000000 0 0 1
-4.153534 -31.408585 -32.823712 45.619591 1.439317 2.373892 0.093088 -0.030473 545539.000000 0 0 1
-3.194934 -30.936675 -33.797362 45.929807 1.467888 2.397715 0.110206 -0.041621 596443.000000 0 0 1
34.740846 18.036435 12.965587 41.235250 0.478866 1.250940 0.087268 -0.031155 -416662.000000 0 0 1
36.074846 17.666035 12.850187 42.173577 0.455378 1.261175 0.101024 -0.039404 -734465.000000 0 0 1
36.295986 16.512435 13.646687 42.146069 0.426953 1.241058 0.110504 -0.015998 511700.000000 0 0 1
-37.783084 16.031535 13.621187 43.244749 -0.401281 1.250362 0.077805 -0.027338 583082.000000 0 0 1
-37.418314 15.587935 12.338487 42.371597 -0.394722 1.275318 0.103979 -0.016812 -105958.000000 0 0 1
-37.606364 14.202135 12.161087 41.997992 -0.361094 1.277026 0.145802 -0.027525 -554288.000000 0 0 1
-36.332614 13.334335 12.038887 40.531446 -0.351745 1.269220 0.170161 -0.019168 222548.000000 0 0 1
-35.722854 12.918935 13.231187 40.225434 -0.347010 1.235630 0.149771 -0.017196 200413.000000 0 0 1
-36.398014 11.769835 13.672887 40.623790 -0.312752 1.227521 0.160365 -0.024451 17758.600000 0 0 1
-35.606634 11.206635 14.876687 40.183789 -0.304919 1.191555 0.191112 -0.036823 88582.700000 0 0 1
-35.808365 11.886035 16.072487 41.010263 -0.320491 1.168085 0.177770 -0.024619 219817.000000 0 0 1
-34.999669 11.471435 17.166087 40.635516 -0.316725 1.134660 0.172041 -0.025262 -8475.420000 0 0 1
-35.038457 12.484235 18.320987 41.463335 -0.342277 1.113125 0.151043 -0.027582 -790746.000000 0 0 1
-36.257144 12.447635 18.969287 42.770995 -0.330707 1.111287 0.164276 -0.042396 -687649.000000 0 0 1
-36.211854 13.109135 20.163487 43.470841 -0.347336 1.088472 0.158417 -0.040573 -442260.000000 0 0 1
-37.470684 13.165735 21.024887 44.938120 -0.337887 1.083925 0.151994 -0.054437 -417786.000000 0 0 1
37.735006 11.846535 21.425787 44.981501 0.304196 1.074327 0.129750 -0.040150 1457640.000000 0 0 1
36.452906 11.935335 22.131987 44.284212 0.316417 1.047461 0.133578 -0.041860 1417030.000000 0 0 1
36.271226 10.669735 23.013037 44.261100 0.286095 1.024018 0.118216 -0.038328 272654.000000 0 0 1
37.229496 10.428035 24.065047 45.540156 0.273103 1.014039 0.114829 -0.025088 80212.000000 0 0 1
36.962046 11.055035 25.284187 46.126963 0.290623 0.990654 0.101044 -0.020637 -650280.000000 0 0 1
-37.381884 11.051335 26.267237 47.005372 -0.287446 0.977842 0.098124 -0.026913 717358.000000 0 0 1
-36.363304 11.945035 25.904587 46.217112 -0.317387 0.975810 0.122912 -0.029643 -54667.900000 0 0 1
-35.568920 11.633835 24.757937 44.871479 -0.316111 0.986333 0.129566 -0.036516 -821765.000000 0 0 1
-34.600896 12.781835 24.319037 44.181590 -0.353859 0.987913 0.136466 -0.044347 837273.000000 0 0 1
-33.619244 13.192235 25.287127 44.087725 -0.373939 0.959946 0.140831 -0.042308 313165.000000 0 0 1
-34.179621 13.945435 26.324907 45.340075 -0.387388 0.951318 0.124424 -0.032850 -440010.000000 0 0 1
-33.189454 14.603535 27.396417 45.446307 -0.414511 0.923752 0.131031 -0.019180 96830.400000 0 0 1
-32.413464 15.642635 26.824897 44.887635 -0.449628 0.930291 0.139135 -0.018146 178730.000000 0 0 1
-31.878224 16.491235 27.845087 45.426104 -0.477407 0.910975 0.137481 -0.019154 148871.000000 0 0 1
-30.990474 17.615635 27.240837 44.864054 -0.516876 0.918282 0.121204 -0.016118 100604.000000 0 0 1
-31.738634 18.498335 26.430797 45.256119 -0.527701 0.947115 0.122883 -0.029648 792152.000000 0 0 1
-30.927154 19.584635 25.966447 44.880989 -0.564510 0.953831 0.119664 -0.031849 478544.000000 0 0 1
-31.843254 20.500235 25.108487 45.438845 -0.571994 0.985343 0.117327 -0.018121 609411.000000 0 0 1
-32.831344 21.182735 25.896687 46.874768 -0.572992 0.985477 0.117295 -0.030048 618621.000000 0 0 1
-33.813394 21.837435 25.131707 47.453366 -0.573433 1.012657 0.125592 -0.030265 -86597.200000 0 0 1
-33.760654 23.364235 25.293767 48.222857 -0.605374 1.018647 0.120433 -0.029216 15850.900000 0 0 1
-34.841735 23.856935 24.519677 48.829442 -0.600399 1.044714 0.135491 -0.033894 252440.000000 0 0 1
-34.822894 25.216535 24.536807 49.503157 -0.626742 1.052200 0.130416 -0.034243 362747.000000 0 0 1
-35.917952 25.902935 23.662227 50.209186 -0.624793 1.080063 0.138169 -0.024442 260151.000000 0 0 1
-35.823879 25.740635 22.264087 49.412753 -0.623056 1.103388 0.147775 -0.032601 -976872.000000 0 0 1
-36.974174 26.080835 21.602687 50.139561 -0.614327 1.125361 0.155146 -0.034119 -884510.000000 0 0 1
-36.834144 25.903135 20.063187 49.297648 -0.612895 1.151650 0.196708 -0.048817 156006.000000 0 0 1
-36.895764 24.547935 19.666987 48.483904 -0.587078 1.153118 0.184072 -0.045784 173283.000000 0 0 1
-36.289334 24.417535 18.380487 47.444432 -0.592276 1.172975 0.187602 -0.048737 240600.000000 0 0 1
-36.824114 23.167135 17.590687 46.927218 -0.561563 1.186561 0.184855 -0.048254 57611.400000 0 0 1
37.483476 23.323035 17.009187 47.310542 0.556599 1.203041 0.164019 -0.053774 -584271.000000 0 0 1
37.460836 22.496635 15.845987 46.481266 0.540815 1.222910 0.156937 -0.047119 328463.000000 0 0 1
36.060116 22.619735 15.166787 45.188669 0.560236 1.228520 0.141964 -0.034215 318742.000000 0 0 1
35.147916 21.715635 15.721087 44.205174 0.553431 1.207199 0.130996 -0.042603 -121428.000000 0 0 1
33.881066 21.899535 15.087787 43.071540 0.573816 1.212909 0.120369 -0.032696 -573466.000000 0 0 1
32.845736 20.845535 15.457387 41.860596 0.565508 1.192585 0.102346 -0.043766 -524080.000000 0 0 1
32.240696 21.079535 16.671987 41.973378 0.579054 1.162328 0.106966 -0.040307 689290.000000 0 0 1
31.004056 21.807235 16.382487 41.293981 0.612982 1.162847 0.102953 -0.032786 694149.000000 0 0 1
30.344066 22.529935 17.651287 41.712447 0.638672 1.133860 0.089640 -0.022859 434676.000000 0 0 1
31.045906 23.624135 18.305287 43.093289 0.650467 1.132074 0.047171 -0.014247 -82019.300000 0 0 1
30.366366 24.133135 19.427687 43.381556 0.671521 1.106456 0.046379 -0.005303 236851.000000 0 0 1
31.412756 24.623635 20.468987 44.856037 0.664830 1.096934 0.046398 -0.007932 759636.000000 0 0 1
32.301556 25.647035 20.035287 45.853829 0.671064 1.118604 0.060474 -0.016273 67115.900000 0 0 1
33.265136 25.970035 20.996887 47.136835 0.662860 1.109125 0.080633 -0.022917 167788.000000 0 0 1
34.245826 27.108635 20.487587 48.243092 0.669591 1.132195 0.097774 -0.026645 295321.000000 0 0 1
35.354506 27.461135 21.272187 49.563706 0.660394 1.127202 0.100564 -0.019709 94102.400000 0 0 1
35.037586 28.187935 22.460487 50.265949 0.677482 1.107574 0.069529 -0.009853 -101018.000000 0 0 1
36.288046 28.297935 23.350627 51.602783 0.662311 1.101222 0.063207 -0.014592 433088.000000 0 0 1
37.299466 29.244335 23.041127 52.700805 0.664934 1.118306 0.096470 -0.017991 210767.000000 0 0 1
-37.604574 29.772235 24.182167 53.714683 -0.669671 1.103811 0.098948 -0.012621 677970.000000 0 0 1
-36.317734 30.630035 23.968427 53.213366 -0.700644 1.103559 0.118603 -0.028334 757660.000000 0 0 1
-35.140370 29.908235 23.639767 51.847726 -0.705137 1.097361 0.120060 -0.029227 222479.000000 0 0 1
-34.003787 30.716335 23.917737 51.689544 -0.734647 1.089736 0.120861 -0.027147 602962.000000 0 0 1
-32.639544 30.102635 23.502357 50.238126 -0.744986 1.083975 0.135893 -0.025397 62525.100000 0 0 1
-32.549504 30.059435 22.010787 49.472362 -0.745647 1.109722 0.116918 -0.024861 34531.200000 0 0 1
-32.842144 28.863735 21.304787 48.637595 -0.721014 1.117389 0.147993 -0.026581 6033.520000 0 0 1
-32.328854 27.508235 21.927787 47.777460 -0.705009 1.093976 0.137121 -0.018650 -415267.000000 0 0 1
-30.935754 27.419735 21.956787 46.807727 -0.725219 1.082542 0.111254 -0.024133 -474976.000000 0 0 1
-30.404874 26.296135 22.643337 46.137445 -0.713061 1.057812 0.102129 -0.029342 36183.900000 0 0 1
-30.056614 26.520035 24.174127 46.809195 -0.722970 1.028108 0.090038 -0.018939 156241.000000 0 0 1
-31.222664 26.789935 24.940637 48.110194 -0.709137 1.025810 0.095869 -0.022671 261284.000000 0 0 1
-30.876624 27.149335 26.255757 48.783369 -0.721251 1.002483 0.106207 -0.026992 -161909.000000 0 0 1
-32.100154 27.468535 27.125757 50.207042 -0.707802 1.000029 0.116615 -0.035976 -233302.000000 0 0 1
-32.796734 26.336535 27.486877 50.247062 -0.676582 0.991979 0.103032 -0.033313 157544.000000 0 0 1
-33.832514 26.544035 28.457927 51.566253 -0.665262 0.986190 0.100561 -0.023247 717462.000000 0 0 1
-34.568755 25.263735 28.941067 51.680175 -0.631116 0.976407 0.091617 -0.024160 271304.000000 0 0 1
-33.795264 24.553135 29.909777 51.376756 -0.628308 0.949407 0.091003 -0.026591 168935.000000 0 0 1
-34.123980 23.128335 30.057647 51.017919 -0.595653 0.940779 0.073342 -0.031028 153651.000000 0 0 1
-33.347624 22.382235 31.195857 50.854793 -0.591120 0.910400 0.078070 -0.035981 807172.000000 0 0 1
-31.963954 22.127135 30.912637 49.667853 -0.605508 0.899007 0.092150 -0.027175 711182.000000 0 0 1
-31.329394 21.373035 31.940309 49.583474 -0.598682 0.870855 0.092178 -0.025699 -80013.900000 0 0 1
-30.378724 22.189535 32.841781 49.938211 -0.630858 0.853104 0.096821 -0.023846 -477237.000000 0 0 1
-31.000154 22.988235 33.794217 51.298320 -0.638073 0.851603 0.100487 -0.026373 17280.300000 0 0 1
-31.364704 22.425735 -32.551942 50.460749 -0.620722 2.271943 0.088544 -0.022614 -633458.000000 0 0 1
-30.290844 22.497535 -31.482182 49.140636 -0.638824 2.266147 0.106596 -0.030632 -432858.000000 0 0 1
-30.116344 23.840435 -31.089342 49.415663 -0.669605 2.251242 0.085425 -0.019975 204026.000000 0 0 1
-29.518984 23.921335 -29.796992 48.285209 -0.681033 2.235853 0.106945 -0.025176 40260.300000 0 0 1
-29.831684 25.336235 -29.273012 48.874977 -0.704091 2.212969 0.077570 -0.017623 -129793.000000 0 0 1
-29.427384 26.450435 -30.023012 49.668679 -0.732172 2.219891 0.087578 -0.019169 412913.000000 0 0 1
-30.380594 26.805135 -31.031802 51.033993 -0.722956 2.224413 0.057332 -0.006430 172083.000000 0 0 1
-30.064554 28.159235 -31.582012 51.906102 -0.752686 2.224896 0.072371 -0.009380 -137540.000000 0 0 1
-30.375914 29.294435 -30.825222 52.259491 -0.767276 2.201668 0.058240 -0.020944 -313.967000 0 0 1
-29.578874 30.361435 -31.283712 52.682038 -0.798453 2.206596 0.062490 -0.027692 -107340.000000 0 0 1
-29.847154 31.709535 -30.603902 53.225427 -0.815644 2.183384 0.052563 -0.017126 -86551.500000 0 0 1
-29.363744 31.659335 -29.282232 52.172714 -0.822999 2.166699 0.047140 -0.018830 247073.000000 0 0 1
-29.772744 32.880735 -28.664832 52.813177 -0.834964 2.144515 0.036065 -0.019102 -402812.000000 0 0 1
-29.222764 33.105035 -27.223162 51.874983 -0.847606 2.123258 0.015989 -0.017575 -233440.000000 0 0 1
-27.880904 33.526735 -27.255512 51.422269 -0.877081 2.129436 0.049418 -0.016418 -82435.700000 0 0 1
-27.566004 -32.733105 -27.451152 50.841976 0.870881 2.141151 0.050286 -0.003191 -406112.000000 0 0 1
-27.933974 -31.657405 -26.357722 49.771756 0.847800 2.128892 0.058487 -0.008422 -561977.000000 0 0 1
-29.292414 -31.366905 -26.317422 50.344165 0.819584 2.120870 0.048779 -0.019086 -837805.000000 0 0 1
-29.568064 -30.422105 -25.314562 49.402449 0.799634 2.108791 0.050928 -0.014253 -257281.000000 0 0 1
-31.056214 -30.136405 -25.095352 50.024674 0.770368 2.096312 0.037893 -0.012521 -149371.000000 0 0 1
-31.581464 -29.269005 -26.098362 50.350651 0.747414 2.115696 0.044704 -0.016873 -149890.000000 0 0 1
-32.986094 -29.242205 -26.090502 51.224050 0.725307 2.105215 0.040259 -0.015561 -295568.000000 0 0 1
-33.649504 -28.304305 -27.096712 51.649343 0.699334 2.123075 0.056566 -0.021198 189530.000000 0 0 1
-35.058653 -28.268505 -26.931962 52.474261 0.678583 2.109754 0.061441 -0.029050 135236.000000 0 0 1
-35.640025 -27.502105 -27.976872 53.002665 0.657222 2.126851 0.071594 -0.033262 686960.000000 0 0 1
-37.172334 -27.624805 -28.216692 54.231854 0.639106 2.117995 0.067146 -0.034285 279280.000000 0 0 1
37.537086 -27.039905 -27.318102 53.725859 -0.624255 2.104206 0.065645 -0.025083 -504246.000000 0 0 1
36.208336 -27.411605 -27.645612 53.166902 -0.647999 2.117621 0.068670 -0.025363 598589.000000 0 0 1
35.115806 -26.811605 -26.689242 51.616835 -0.652098 2.114214 0.066148 -0.021871 199680.000000 0 0 1
35.115896 -27.397505 -25.379462 51.262720 -0.662552 2.088730 0.059614 -0.020785 122792.000000 0 0 1
34.102936 -26.828105 -24.574152 49.866285 -0.666566 2.086102 0.065552 -0.012872 29487.800000 0 0 1
33.909216 -27.538705 -23.226252 49.473973 -0.682094 2.059480 0.068275 -0.008309 -170215.000000 0 0 1
33.300636 -28.778305 -23.393752 49.843664 -0.712679 2.059342 0.073651 -0.013571 -186064.000000 0 0 1
32.772456 -29.380305 -22.244852 49.316018 -0.730875 2.038757 0.084512 -0.014592 232526.000000 0 0 1
33.768706 -29.707605 -21.067852 49.666102 -0.721507 2.008863 0.070138 -0.012960 -1738590.000000 0 0 1
34.802356 -30.535305 -21.360952 50.989206 -0.720183 2.003064 0.061789 -0.019370 -929522.000000 0 0 1
35.848936 -30.566605 -20.439452 51.354014 -0.706031 1.980144 0.037934 -0.016506 -172108.000000 0 0 1
36.773346 -29.342705 -20.497552 51.316887 -0.673480 1.981692 0.032924 -0.011075 -1273270.000000 0 0 1
36.201016 -28.116505 -20.010452 50.014694 -0.660357 1.982413 0.035101 0.001172 152822.000000 0 0 1
36.822946 -26.951205 -20.578052 50.057497 -0.631825 1.994444 0.022299 0.000174 215922.000000 0 0 1
35.991426 -25.644105 -20.269952 48.619685 -0.619070 2.000838 0.024345 0.004659 763795.000000 0 0 1
34.705206 -25.770605 -20.873652 48.002966 -0.638721 2.020658 0.049246 0.003862 390850.000000 0 0 1
33.796066 -24.856605 -20.251952 46.585045 -0.634149 2.020536 0.078830 -0.008682 1059310.000000 0 0 1
32.428186 -24.620005 -21.014552 45.818591 -0.649373 2.047268 0.086862 -0.008256 926882.000000 0 0 1
31.800036 -25.855505 -21.318252 46.197589 -0.682657 2.050434 0.102934 -0.006603 941651.000000 0 0 1
30.507766 -25.654505 -21.961052 45.510056 -0.699197 2.074364 0.093326 -0.008107 1404650.000000 0 0 1
29.793866 -26.967805 -22.320952 45.969140 -0.735651 2.077804 0.095037 -0.007662 -8308.560000 0 0 1
29.205466 -27.746105 -21.328452 45.581887 -0.759779 2.057727 0.099040 -0.008577 -212085.000000 0 0 1
28.648666 -28.931805 -21.868752 46.217288 -0.790315 2.063685 0.092258 -0.007257 286972.000000 0 0 1
27.945366 -29.839705 -20.755752 45.849239 -0.818169 2.040583 0.090382 -0.002929 544273.000000 0 0 1
28.784466 -30.374905 -19.699552 46.252056 -0.812276 2.010772 0.101190 -0.013689 341218.000000 0 0 1
29.557466 -31.505105 -20.144152 47.665525 -0.817283 2.007125 0.107594 -0.009951 132194.000000 0 0 1
30.468566 -32.016905 -19.023752 48.117760 -0.810172 1.977254 0.081925 -0.020081 -351744.000000 0 0 1
29.863566 -32.680205 -17.907152 47.754523 -0.830402 1.955175 0.088759 -0.020573 364374.000000 0 0 1
29.196766 -31.874605 -16.884852 46.406247 -0.829218 1.943193 0.075802 -0.022759 561626.000000 0 0 1
28.588466 -32.667805 -15.662952 46.149907 -0.851895 1.917068 0.073507 -0.019187 195493.000000 0 0 1
27.257066 -33.123405 -15.796952 45.712704 -0.882250 1.923643 0.075447 -0.017680 -3254.820000 0 0 1
26.803066 -33.756205 -14.635252 45.520065 -0.899713 1.898122 0.077181 -0.008978 145127.000000 0 0 1
25.258466 33.727535 -14.625852 44.603276 0.928001 1.904887 0.088167 -0.017588 235385.000000 0 0 1
24.620566 -32.721105 -14.382952 43.401754 -0.925737 1.908574 0.089237 -0.006996 749162.000000 0 0 1
23.208366 -32.877305 -14.142352 42.656202 -0.956116 1.908735 0.104479 -0.007284 996478.000000 0 0 1
-0.368724 -7.322865 -28.866312 29.782953 1.520486 2.892850 0.144941 -0.043240 234870.000000 0 0 1
-0.158624 -8.709665 -28.538332 29.838227 1.552586 2.845333 0.144973 -0.038575 -204404.000000 0 0 1
-0.500924 -9.497865 -29.640822 31.129386 1.518104 2.831094 0.143569 -0.050411 -162454.000000 0 0 1
-0.019024 -10.931165 -29.480112 31.441497 1.569056 2.786511 0.165609 -0.042688 515170.000000 0 0 1
1.375376 -10.925965 -29.158062 31.168268 -1.445574 2.780481 0.107568 -0.045838 205851.000000 0 0 1
1.788476 -12.229065 -28.858672 31.393815 -1.425578 2.736960 0.124720 -0.047427 1282920.000000 0 0 1
3.327776 -12.406665 -28.512042 31.271968 -1.308740 2.718307 0.090810 -0.035958 1306480.000000 0 0 1
4.220276 -12.309565 -29.606752 32.340313 -1.240510 2.727483 0.103966 -0.042511 796506.000000 0 0 1
5.595076 -12.704465 -29.469852 32.575765 -1.155952 2.701367 0.114281 -0.044343 1094850.000000 0 0 1
5.896976 -14.208665 -29.232962 33.033718 -1.177403 2.657168 0.118233 -0.039501 -816466.000000 0 0 1
5.450876 -14.749765 -27.998742 32.112259 -1.216806 2.629869 0.096882 -0.035514 -147524.000000 0 0 1
6.057576 -15.909065 -27.474142 32.320598 -1.206983 2.586878 0.106853 -0.021334 -232391.000000 0 0 1
5.828476 -17.252965 -28.217552 33.583719 -1.245009 2.568476 0.067119 -0.026166 188482.000000 0 0 1
6.503176 -17.388965 -29.482082 34.840502 -1.212918 2.579612 0.103503 -0.042671 258404.000000 0 0 1
6.199576 -18.677065 -29.897182 35.792583 -1.250305 2.559456 0.089588 -0.034320 -17739.700000 0 0 1
6.711276 -19.027465 -31.318022 37.254585 -1.231705 2.569276 0.107839 -0.055514 807158.000000 0 0 1
8.144976 -19.036065 -31.417322 37.626593 -1.166497 2.558886 0.117372 -0.046128 689467.000000 0 0 1
8.512976 -19.567065 -32.669062 39.020615 -1.160430 2.562987 0.119604 -0.042660 136518.000000 0 0 1
10.016476 -19.580065 -33.037122 39.688287 -1.097940 2.554248 0.095407 -0.041438 41742.100000 0 0 1
10.350476 -18.281565 -33.392662 39.451462 -1.055623 2.580030 0.109367 -0.050303 120978.000000 0 0 1
11.562676 -18.050465 33.509927 39.779769 -1.001075 0.569100 0.094777 -0.039298 123225.000000 0 0 1
11.561976 -16.573165 33.135911 38.811567 -0.961661 0.547624 0.104392 -0.037691 -216458.000000 0 0 1
10.645376 -16.383665 32.103324 37.581537 -0.994593 0.546726 0.128239 -0.035619 -219223.000000 0 0 1
10.441476 -15.020065 31.865225 36.742610 -0.963320 0.521134 0.118311 -0.024643 129719.000000 0 0 1
9.235976 -14.828565 30.906667 35.502277 -1.013744 0.514468 0.160865 -0.036980 103874.000000 0 0 1
9.438776 -15.568065 29.719247 34.852386 -1.025764 0.549630 0.157442 -0.036080 588416.000000 0 0 1
8.461776 -15.107565 28.776707 33.584804 -1.060230 0.541693 0.160970 -0.032338 307236.000000 0 0 1
8.622076 -15.946165 27.513507 32.948649 -1.075122 0.582587 0.113298 -0.027593 -350464.000000 0 0 1
8.090576 -17.288265 27.731307 33.665515 -1.133091 0.602837 0.113026 -0.028794 630563.000000 0 0 1
8.340276 -18.190265 26.647007 33.324300 -1.140895 0.644123 0.089241 -0.021875 -69384.600000 0 0 1
8.045676 -19.638565 27.004877 34.346318 -1.181967 0.666076 0.094874 -0.028911 -405579.000000 0 0 1
8.822376 -20.092965 28.063907 35.625054 -1.157062 0.663636 0.114512 -0.027038 33964.500000 0 0 1
8.255076 -21.190565 28.717427 36.631639 -1.199319 0.669791 0.095161 -0.027773 -222353.000000 0 0 1
8.657976 -21.172265 30.212767 37.895074 -1.182615 0.648030 0.112812 -0.036905 -342850.000000 0 0 1
8.203476 -20.204165 31.133877 38.010835 -1.185103 0.610993 0.121158 -0.040183 94179.800000 0 0 1
8.278176 -18.841165 30.758087 37.007805 -1.156820 0.589670 0.122638 -0.034509 -214735.000000 0 0 1
7.541876 -17.998565 31.795384 37.306497 -1.173996 0.550478 0.121205 -0.033952 1130990.000000 0 0 1
6.134176 -18.240365 32.017662 37.355987 -1.246381 0.541191 0.141428 -0.046287 1042730.000000 0 0 1
5.508876 -17.250265 32.829383 37.492503 -1.261683 0.504067 0.147207 -0.045186 791598.000000 0 0 1
4.060976 -17.613465 33.294497 37.884683 -1.344195 0.497375 0.152349 -0.049561 518696.000000 0 0 1
3.929276 -18.641765 -33.305532 38.369429 -1.363059 2.622002 0.129828 -0.045877 -70569.600000 0 0 1
2.974376 -18.270465 -32.330162 37.254478 -1.409415 2.621593 0.132779 -0.059919 -319100.000000 0 0 1
2.396176 -19.400165 -31.490012 37.063849 -1.447906 2.586052 0.097386 -0.034047 -285410.000000 0 0 1
1.340576 -20.075265 -32.198482 37.967824 -1.504118 2.583084 0.094700 -0.028243 324994.000000 0 0 1
0.665876 -21.043565 -31.414772 37.817495 -1.539164 2.551150 0.106376 -0.031663 612589.000000 0 0 1
-0.355324 -20.426365 -30.400372 36.627111 1.553403 2.549898 0.115360 -0.039023 362376.000000 0 0 1
-1.528224 -19.796365 -30.961512 36.781065 1.493752 2.571366 0.134593 -0.048400 814132.000000 0 0 1
-2.236924 -18.945965 -30.040802 35.586559 1.453272 2.575795 0.181055 -0.039893 713896.000000 0 0 1
-1.481424 -17.607765 -29.810242 34.653694 1.486859 2.606522 0.162514 -0.039363 -219984.000000 0 0 1
-2.346124 -16.705465 -29.212792 33.733723 1.431268 2.617907 0.187552 -0.044109 -408777.000000 0 0 1
-1.848924 -15.381765 -29.318212 33.159837 1.451168 2.655464 0.180692 -0.045315 379909.000000 0 0 1
-2.892224 -14.218565 -29.080692 32.499526 1.370122 2.678787 0.176385 -0.030426 537657.000000 0 0 1
-3.052624 -14.081265 -27.696752 31.220356 1.357313 2.661902 0.170105 -0.037795 5191.470000 0 0 1
-4.119824 -13.190665 -27.436402 30.720071 1.268067 2.675008 0.148580 -0.038088 140532.000000 0 0 1
-4.400324 -13.068365 -25.923632 29.362897 1.246005 2.652736 0.158448 -0.038736 -172788.000000 0 0 1
-5.100424 -14.173665 -25.372642 29.507254 1.225372 2.605827 0.176746 -0.034381 105388.000000 0 0 1
-5.243224 -14.110365 -23.945052 28.283552 1.215021 2.580374 0.160475 -0.031058 131794.000000 0 0 1
-6.157624 -13.015965 -23.263752 27.359346 1.128914 2.587358 0.124549 -0.031030 1450120.000000 0 0 1
-7.555224 -13.354165 -23.459852 28.031764 1.055935 2.562396 0.112835 -0.038094 1203710.000000 0 0 1
-8.408224 -12.187065 -23.482452 27.760554 0.966861 2.579033 0.082451 -0.037320 894534.000000 0 0 1
-9.888924 -12.543765 -23.831752 28.689532 0.903197 2.551120 0.093129 -0.046860 364567.000000 0 0 1
-10.544724 -13.109265 -22.742052 28.288601 0.893395 2.504670 0.088513 -0.051840 -1314330.000000 0 0 1
-11.721724 -13.703165 -23.104252 29.308395 0.863174 2.478862 0.071826 -0.046044 -1029470.000000 0 0 1
-12.335024 -14.629565 -22.044652 29.191500 0.870288 2.426715 0.069930 -0.040988 341069.000000 0 0 1
-11.518624 -15.805065 -21.791852 29.280772 0.941006 2.410189 0.091181 -0.048160 457750.000000 0 0 1
-12.268824 -17.000665 -21.471552 30.009568 0.945676 2.368122 0.093862 -0.041955 174380.000000 0 0 1
-12.829524 -17.727165 -22.715152 31.540881 0.944327 2.374860 0.095085 -0.036564 -546912.000000 0 0 1
-13.947124 -17.125465 -23.278452 32.088785 0.887331 2.382468 0.056100 -0.026875 -645855.000000 0 0 1
-14.623824 -17.929765 -24.244452 33.513074 0.886605 2.379558 0.023494 -0.019709 634074.000000 0 0 1
-15.865824 -17.118465 -24.736752 34.009897 0.823357 2.385234 0.023718 -0.015667 937910.000000 0 0 1
-17.022224 -17.107065 -23.872752 33.945781 0.787884 2.350771 0.034084 -0.010922 548403.000000 0 0 1
-18.200924 -16.849365 -24.601752 34.934524 0.746857 2.352127 0.043287 -0.006932 85589.200000 0 0 1
-18.947624 -15.560765 -24.160952 34.422398 0.687566 2.348853 0.049519 -0.010399 -128875.000000 0 0 1
-19.866024 -15.795065 -23.093852 34.314268 0.671733 2.309067 0.048815 -0.005082 237035.000000 0 0 1
-20.491024 -14.533065 -22.920652 34.006592 0.616901 2.310415 0.051205 -0.018837 191871.000000 0 0 1
-21.153224 -14.181965 -21.568652 33.373549 0.590610 2.273496 0.050742 -0.022162 28680.600000 0 0 1
-20.136824 -13.846865 -20.666652 32.005279 0.602382 2.272770 0.056843 -0.015786 51457.200000 0 0 1
-20.436624 -14.072865 -19.334052 31.456425 0.603041 2.232713 0.065600 -0.021584 -405991.000000 0 0 1
-21.140724 -12.913365 -18.651952 31.009362 0.548344 2.216167 0.064510 -0.033513 -787968.000000 0 0 1
-22.456024 -12.722365 -19.072052 32.091662 0.515457 2.207190 0.070359 -0.036928 -784688.000000 0 0 1
-22.974524 -11.680765 -18.308352 31.614313 0.470363 2.188440 0.084174 -0.034481 -613722.000000 0 0 1
-24.392724 -11.454865 -18.834352 32.877830 0.439035 2.180786 0.108073 -0.040066 -586548.000000 0 0 1
-24.571324 -10.823665 -20.082152 33.529010 0.414926 2.212984 0.094529 -0.044094 -495563.000000 0 0 1
-25.937434 -10.535265 -20.111552 34.470521 0.385823 2.193757 0.110081 -0.047324 -412864.000000 0 0 1
-26.307644 -9.628565 -21.321352 35.205134 0.350856 2.221356 0.107622 -0.038379 64240.300000 0 0 1
-26.341734 -10.291465 -22.582452 36.190722 0.372455 2.244628 0.095611 -0.042266 338414.000000 0 0 1
-27.150464 -9.457165 -23.394352 37.065906 0.335181 2.253838 0.082776 -0.027357 -143115.000000 0 0 1
-27.045674 -9.806365 -24.937752 38.072625 0.347842 2.284985 0.076216 -0.024682 1072970.000000 0 0 1
-25.799254 -9.532365 -25.643742 37.604109 0.353924 2.321208 0.042871 -0.024409 983982.000000 0 0 1
-24.943624 -10.650165 -25.694262 37.360480 0.403538 2.329166 0.034922 -0.014094 -326027.000000 0 0 1
-23.891324 -10.494165 -26.787822 37.396661 0.413875 2.369304 0.037028 -0.014086 -409403.000000 0 0 1
-24.504424 -10.262565 -28.072142 38.650125 0.396611 2.383741 0.043110 -0.005603 163752.000000 0 0 1
-23.615124 -10.240965 -29.176882 38.908121 0.409184 2.418695 0.035144 -0.001821 175525.000000 0 0 1
-24.268024 -10.818365 -30.502182 40.451911 0.419345 2.424981 0.034452 -0.008740 -169917.000000 0 0 1
-25.210384 -10.017865 -31.084492 41.257323 0.378238 2.424059 0.036873 -0.014792 -618657.000000 0 0 1
-24.597924 -9.025965 -31.842292 41.236604 0.351686 2.453069 0.037874 -0.020226 -1073800.000000 0 0 1
-25.631014 -8.084065 -32.441242 42.127606 0.305526 2.449749 0.045220 -0.017491 -1213260.000000 0 0 1
-26.562184 -8.605665 -33.367822 43.508834 0.313311 2.444825 0.074635 -0.019709 191265.000000 0 0 1
-27.639744 -9.260265 -32.770942 43.859350 0.323281 2.414609 0.071233 -0.021146 -1190710.000000 0 0 1
-28.695344 -8.317365 -32.128662 43.873138 0.282120 2.392502 0.087413 -0.015485 -1316420.000000 0 0 1
-29.994604 -8.824765 -32.278192 44.938118 0.286138 2.372125 0.086028 -0.016948 -261050.000000 0 0 1
-30.941784 -8.066165 -31.548202 44.919328 0.255013 2.349462 0.087314 -0.010117 908977.000000 0 0 1
-32.416064 -8.474665 -31.903942 46.265351 0.255711 2.331714 0.082011 -0.008451 620213.000000 0 0 1
-32.668784 -9.787665 -31.434262 46.380607 0.291093 2.315489 0.077886 -0.015060 453278.000000 0 0 1
-34.001917 -10.281765 -31.550892 47.511092 0.293646 2.297051 0.063249 -0.014150 267611.000000 0 0 1
-34.179531 -11.761865 -31.087152 47.675915 0.331427 2.281083 0.061495 -0.021992 -406179.000000 0 0 1
-35.470197 -12.226165 -31.377792 48.909915 0.331935 2.267304 0.062749 -0.016066 -377576.000000 0 0 1
-35.449334 -13.597565 -31.391492 49.264336 0.366269 2.261663 0.057291 -0.025423 -406426.000000 0 0 1
-36.821794 -14.209965 -31.170462 50.292796 0.368303 2.239258 0.058818 -0.033290 -542061.000000 0 0 1
-37.242114 -14.116865 -29.841332 49.767118 0.362322 2.213822 0.075420 -0.033682 119509.000000 0 0 1
37.708536 -15.359065 -29.422912 50.234871 -0.386792 2.196548 0.069178 -0.029619 153964.000000 0 0 1
37.579026 -15.475565 -27.877072 49.282932 -0.390649 2.172022 0.076955 -0.018152 -924022.000000 0 0 1
-36.785034 -15.494165 -27.230052 48.318564 0.398655 2.169476 0.093409 -0.036049 -933476.000000 0 0 1
-36.956364 -15.652365 -25.846472 47.736878 0.400630 2.142941 0.091342 -0.033293 222992.000000 0 0 1
-35.708286 -15.208065 -25.008052 46.171091 0.402630 2.143182 0.147956 -0.041112 310912.000000 0 0 1
-34.610121 -16.037465 -25.279602 45.761545 0.433921 2.156061 0.139429 -0.044557 -170884.000000 0 0 1
-33.475504 -15.685165 -24.508452 44.354233 0.438178 2.156231 0.150990 -0.032551 980289.000000 0 0 1
-32.140154 -16.449565 -24.858452 43.835149 0.473049 2.173764 0.139651 -0.045311 842309.000000 0 0 1
-32.002994 -17.691565 -24.195652 43.847607 0.504998 2.155332 0.154983 -0.052240 127357.000000 0 0 1
-32.472834 -18.748765 -25.027052 45.081642 0.523612 2.159339 0.130327 -0.053746 -45112.200000 0 0 1
-32.213314 -20.154265 -24.429552 45.174052 0.559067 2.142169 0.130542 -0.052462 -487163.000000 0 0 1
-30.911914 -20.624965 -24.567552 44.547730 0.588384 2.154944 0.121669 -0.036732 -592384.000000 0 0 1
-30.620724 -21.701265 -23.671952 44.372683 0.616549 2.133506 0.113268 -0.024635 182149.000000 0 0 1
-29.275244 -22.500465 -23.751952 43.902916 0.655289 2.142435 0.106216 -0.028192 773229.000000 0 0 1
-28.105194 -21.850865 -23.266352 42.528642 0.660850 2.149662 0.095544 -0.022421 237901.000000 0 0 1
-27.971274 -21.596765 -21.871952 41.559532 0.657499 2.125016 0.117885 -0.023957 -501752.000000 0 0 1
-27.788084 -22.775165 -20.882252 41.556639 0.686580 2.097285 0.092931 -0.017561 -33421.900000 0 0 1
-27.830274 -22.383565 -19.564552 40.722473 0.677350 2.071948 0.103765 -0.019990 -7221.190000 0 0 1
-27.748524 -23.513765 -18.667652 40.882257 0.702976 2.044988 0.094294 0.011882 17245.800000 0 0 1
-27.836014 -22.981465 -17.244152 40.004402 0.690158 2.016459 0.094094 0.008686 123505.000000 0 0 1
-29.071984 -22.360965 -16.943752 40.401532 0.655650 2.003563 0.105952 0.000377 -109759.000000 0 0 1
-28.940274 -21.210065 -16.147852 39.346657 0.632461 1.993689 0.101990 -0.017635 466752.000000 0 0 1
-30.313294 -20.578065 -15.773752 39.889395 0.596387 1.977340 0.113043 -0.000035 976260.000000 0 0 1
-31.105334 -19.948465 -16.815652 40.598636 0.570249 1.997852 0.125972 -0.006605 -459625.000000 0 0 1
-32.209994 -19.322765 -16.280052 40.937673 0.540346 1.979782 0.134624 -0.008225 -690661.000000 0 0 1
-33.114054 -18.728665 -17.390552 41.829831 0.514727 1.999558 0.152147 -0.050892 -176066.000000 0 0 1
-34.133506 -19.668865 -17.726552 43.199434 0.522761 1.993626 0.103342 -0.035699 -347471.000000 0 0 1
-34.977899 -19.022165 -18.638252 43.962263 0.498097 2.008610 0.098384 -0.033442 -635584.000000 0 0 1
-36.309244 -19.702165 -18.915652 45.434991 0.497160 2.000194 0.065133 -0.017295 -218708.000000 0 0 1
-37.286084 -19.623465 -17.885352 45.773554 0.484461 1.972227 0.054337 -0.008985 77592.000000 0 0 1
-37.137214 -20.588365 -16.825552 45.674420 0.506205 1.948062 0.085540 -0.024035 -458211.000000 0 0 1
-37.546444 -22.049765 -17.123452 46.788249 0.531004 1.945479 0.069050 0.008515 982234.000000 0 0 1
36.591856 -22.215365 -17.134952 46.109575 -0.545633 1.951543 0.060006 -0.013818 959079.000000 0 0 1
36.134986 -23.542765 -16.898452 46.320154 -0.577445 1.944234 0.067481 -0.014180 -141916.000000 0 0 1
34.728546 -23.597165 -16.290652 45.036468 -0.596817 1.940910 0.057061 -0.021492 -672427.000000 0 0 1
33.694286 -23.461065 -17.221652 44.523160 -0.608233 1.967958 0.068540 -0.026149 -537315.000000 0 0 1
32.528506 -23.747565 -16.479452 43.515777 -0.630613 1.959188 0.093793 -0.029325 -401429.000000 0 0 1
31.279296 -24.099865 -17.301652 43.110845 -0.656476 1.983764 0.098626 -0.046253 -200278.000000 0 0 1
30.723676 -22.984365 -17.940752 42.356769 -0.642284 2.008171 0.086202 -0.044557 -327213.000000 0 0 1
29.619066 -23.340865 -18.705352 42.094836 -0.667403 2.031258 0.109430 -0.041167 -701944.000000 0 0 1
35.944916 29.793835 -18.111652 50.077355 0.692101 1.940859 0.051646 -0.009884 -37531.600000 0 0 1
35.203696 30.190035 -19.234952 50.206790 0.708879 1.963962 0.046553 -0.014851 -182885.000000 0 0 1
35.561896 29.411235 -20.333852 50.429502 0.691015 1.985822 0.049553 -0.003956 -392426.000000 0 0 1
34.589176 29.335535 -21.531152 50.205330 0.703398 2.014029 0.076386 -0.017889 -1000930.000000 0 0 1
33.449426 28.537535 -21.343652 48.875418 0.706323 2.022718 0.059494 -0.023489 -58703.900000 0 0 1
32.585516 28.515735 -22.441252 48.770614 0.718889 2.048948 0.088959 -0.016916 290583.000000 0 0 1
31.615256 29.743335 -22.646352 48.959653 0.754900 2.051667 0.080550 -0.016589 -479390.000000 0 0 1
32.243986 30.989935 -22.858952 50.225316 0.765569 2.043312 0.085039 -0.030247 -93547.200000 0 0 1
31.244926 32.001635 -22.857052 50.227431 0.797362 2.043248 0.076811 -0.017751 122569.000000 0 0 1
31.777636 33.446035 -22.551152 51.351824 0.810972 2.025449 0.079285 -0.013014 82582.300000 0 0 1
31.985396 33.752135 -21.194452 51.102612 0.812267 1.998457 0.083587 -0.017524 1336750.000000 0 0 1
33.252946 33.201635 -20.690552 51.343996 0.784626 1.985566 0.078843 -0.020733 1061540.000000 0 0 1
33.443176 33.307435 -19.112652 50.922733 0.783365 1.955545 0.069775 -0.023863 -37278.700000 0 0 1
33.856466 -33.024405 -18.750452 50.876822 -0.772958 1.948241 0.071812 -0.024575 152546.000000 0 0 1
33.746906 -32.797005 -17.342652 50.152415 -0.771124 1.923886 0.058912 -0.039021 -431257.000000 0 0 1
34.008306 -31.356105 -16.906552 49.250398 -0.744845 1.921201 0.063464 -0.007459 464191.000000 0 0 1
35.325186 -30.837205 -17.099052 49.911717 -0.717669 1.920464 0.072453 -0.022977 292091.000000 0 0 1
36.175806 -31.085705 -15.993552 50.307094 -0.709866 1.894330 0.077000 -0.021282 -138570.000000 0 0 1
37.617686 -30.626405 -16.308452 51.176485 -0.683309 1.895123 0.065560 -0.010554 -84403.000000 0 0 1
-37.322784 -31.407805 -17.287552 51.752294 0.699549 1.911387 0.066543 -0.017871 -477962.000000 0 0 1
-36.103574 -30.797505 -17.647552 50.629937 0.706252 1.926830 0.057778 -0.003521 180917.000000 0 0 1
-35.323053 -31.489205 -18.786752 50.913949 0.728079 1.948719 0.066049 -0.017038 -565528.000000 0 0 1
-34.704701 -32.717105 -18.450452 51.139460 0.755927 1.939908 0.058890 -0.018106 -145787.000000 0 0 1
-33.815734 -33.223705 -19.398552 51.221307 0.776567 1.959210 0.071423 -0.018061 698039.000000 0 0 1
-32.450344 -32.463905 -19.585552 49.905148 0.785607 1.974096 0.073348 -0.021360 -862700.000000 0 0 1
-32.448864 -31.338605 -20.456552 49.532893 0.767994 1.996530 0.073844 -0.020392 -233133.000000 0 0 1
-31.219484 -30.741105 -20.789752 48.496242 0.777678 2.013836 0.093111 -0.022468 460238.000000 0 0 1
-30.142494 -31.652505 -21.506352 48.713183 0.809829 2.028054 0.092698 -0.018787 -11281.900000 0 0 1
-30.654484 -32.288705 -22.610352 49.934816 0.811356 2.040697 0.082279 -0.009007 -529505.000000 0 0 1
-29.851374 -33.375105 -22.923252 50.303853 0.841072 2.043950 0.075465 -0.016177 51187.500000 0 0 1
-30.484234 33.275235 -23.945452 51.087322 -0.829144 2.058633 0.059220 -0.026259 -146596.000000 0 0 1
-31.625794 32.551935 -23.509152 51.112616 -0.799828 2.048733 0.069404 -0.042515 222048.000000 0 0 1
-32.317604 31.871735 -24.537852 51.597880 -0.778452 2.066396 0.061995 -0.031246 389696.000000 0 0 1
-33.168274 32.701035 -25.548422 53.124514 -0.778305 2.072495 0.063909 -0.041675 -616676.000000 0 0 1
-32.466504 33.397235 -26.566392 53.621100 -0.799528 2.089145 0.053774 -0.030461 -481225.000000 0 0 1
-33.328634 -33.414505 -27.291882 54.517647 0.786685 2.095095 0.054619 -0.034288 407484.000000 0 0 1
-32.614884 -32.441305 -28.349032 54.035512 0.782730 2.123085 0.047923 -0.029610 47112.400000 0 0 1
-32.346854 -33.012905 -29.586282 54.877308 0.795588 2.140206 0.051724 -0.030137 35356.100000 0 0 1
-33.462144 -33.234205 -30.446172 56.135522 0.781981 2.144051 0.072700 -0.026829 97467.000000 0 0 1
-33.157364 33.539035 -31.682082 56.815772 -0.791121 2.162322 0.095746 -0.021295 -210353.000000 0 0 1
-32.406544 -33.493405 -32.664512 56.911885 0.801889 2.182116 0.075805 -0.032975 -213748.000000 0 0 1
-32.597194 33.427535 33.743507 57.607304 -0.797974 0.944991 0.088654 -0.041191 906463.000000 0 0 1
-31.524754 -33.671205 32.661952 56.518699 0.818309 0.954648 0.084708 -0.040400 1777620.000000 0 0 1
-30.176784 33.505135 32.664494 55.679454 -0.837616 0.943877 0.089484 -0.036526 580996.000000 0 0 1
-30.034384 32.072835 32.438682 54.616839 -0.818208 0.934859 0.093680 -0.041725 -791196.000000 0 0 1
-28.576984 31.621135 32.550635 53.629134 -0.835924 0.918569 0.083069 -0.034857 -735139.000000 0 0 1
-28.176094 31.571135 -33.727022 54.112299 -0.842161 2.243724 0.084622 -0.039919 654135.000000 0 0 1
-26.805944 31.156835 -33.575152 53.071629 -0.860321 2.255752 0.075777 -0.035909 527131.000000 0 0 1
-26.416584 29.680835 33.702807 52.102467 -0.843522 0.867341 0.092927 -0.034030 -630315.000000 0 0 1
-26.629664 28.860635 -32.783612 51.155063 -0.825581 2.266424 0.093060 -0.033370 172697.000000 0 0 1
-26.580484 27.511135 -33.178362 50.637816 -0.802602 2.285256 0.099961 -0.032820 -350119.000000 0 0 1
-26.468334 26.605535 -31.925572 49.271385 -0.787983 2.275691 0.121465 -0.030078 93933.400000 0 0 1
-25.282194 26.687535 -31.148642 48.183522 -0.812433 2.273730 0.115611 -0.028845 158530.000000 0 0 1
-25.225104 27.853935 -30.320782 48.285582 -0.834884 2.249709 0.107828 -0.032480 -509314.000000 0 0 1
-23.951924 27.908435 -29.483042 47.136241 -0.861542 2.246550 0.130473 -0.037531 76259.200000 0 0 1
-22.753024 28.148235 -30.274932 47.186807 -0.890998 2.267375 0.120884 -0.029565 528920.000000 0 0 1
-21.597224 28.085135 -29.478762 46.089178 -0.915251 2.264778 0.092369 -0.031231 9775.410000 0 0 1
-21.297524 29.334835 -28.608362 46.179600 -0.942823 2.238905 0.082702 -0.024784 -662818.000000 0 0 1
-20.765824 30.403835 -29.430712 47.135755 -0.971571 2.245136 0.082960 -0.019091 278497.000000 0 0 1
-20.425924 31.584735 -28.706662 47.316871 -0.996743 2.222686 0.100954 -0.026649 8254.960000 0 0 1
-19.889824 32.784035 -29.503612 48.382447 -1.025470 2.226604 0.102633 -0.022548 -539883.000000 0 0 1
-18.666124 32.478035 -30.084002 48.044710 -1.049164 2.247423 0.090131 -0.020401 -645630.000000 0 0 1
-18.244224 33.498635 -30.964312 49.130427 -1.072088 2.252668 0.093626 -0.011539 -420629.000000 0 0 1
-16.739824 33.545535 -31.246482 48.804377 -1.107935 2.265606 0.077789 -0.002506 -755998.000000 0 0 1
-16.023224 -33.676205 -30.065602 47.903767 1.126693 2.249295 0.083144 -0.010798 -1287420.000000 0 0 1
-14.696624 -33.506105 -30.343532 47.532933 1.157442 2.263173 0.099226 -0.009510 -1012530.000000 0 0 1
-13.839724 32.850535 -30.197482 46.718128 -1.172069 2.273622 0.102630 -0.013591 -788312.000000 0 0 1
-13.601624 32.482935 -28.882472 45.544950 -1.174247 2.257709 0.100006 -0.024263 -88331.200000 0 0 1
-13.258024 31.131635 -28.819332 44.446685 -1.168189 2.276280 0.091362 -0.021204 -277400.000000 0 0 1
-13.052424 30.750335 -27.350262 43.173901 -1.169379 2.256853 0.072714 -0.028574 727669.000000 0 0 1
-11.721124 31.038635 -26.891932 42.707817 -1.209722 2.251928 0.069312 -0.028399 688987.000000 0 0 1
-11.693924 30.757235 -25.490662 41.623662 -1.207474 2.229899 0.047244 -0.027932 -167730.000000 0 0 1
-10.312324 31.154035 -24.981152 41.242889 -1.251137 2.221452 0.062156 -0.033837 382742.000000 0 0 1
-9.244624 30.350935 -25.524772 40.720465 -1.275133 2.248273 0.083786 -0.025812 554402.000000 0 0 1
-7.977924 30.911435 -25.167212 40.651601 -1.318218 2.238386 0.101141 -0.034885 620068.000000 0 0 1
-6.834024 29.988435 -25.684822 40.071439 -1.346734 2.266565 0.094699 -0.035154 -205816.000000 0 0 1
-6.741624 28.740935 -25.028152 38.702703 -1.340396 2.274016 0.101430 -0.043878 1011020.000000 0 0 1
-5.458624 28.144635 -25.330482 38.256377 -1.379226 2.294446 0.109732 -0.050018 879689.000000 0 0 1
-5.044624 26.939835 -24.417552 36.707217 -1.385685 2.298555 0.119936 -0.042956 -331515.000000 0 0 1
-5.933124 25.868235 -24.501352 36.120407 -1.345336 2.316276 0.119963 -0.042726 117368.000000 0 0 1
-5.439724 24.722035 -23.828552 34.764486 -1.354212 2.325988 0.128270 -0.051689 -30189.400000 0 0 1
-6.486924 23.581235 -23.893952 34.191750 -1.302348 2.344546 0.116186 -0.046616 55887.600000 0 0 1
-6.481924 22.853835 -25.160392 34.602867 -1.294429 2.384912 0.127898 -0.048282 299690.000000 0 0 1
-7.243024 21.655035 -25.103552 33.935089 -1.248020 2.403498 0.114052 -0.048855 -241078.000000 0 0 1
-7.157324 20.761535 -26.369192 34.316219 -1.238815 2.447161 0.094560 -0.037439 -668308.000000 0 0 1
-6.002524 20.010935 -26.552492 33.786131 -1.279374 2.474945 0.119733 -0.048200 -869081.000000 0 0 1
-5.811924 18.874935 -25.719612 32.427459 -1.272092 2.486749 0.113583 -0.043688 -548802.000000 0 0 1
-4.545724 18.068535 -26.028602 32.009743 -1.324329 2.520334 0.126056 -0.051833 -176436.000000 0 0 1
-4.545324 17.344635 -27.270622 32.637144 -1.314500 2.559966 0.125418 -0.047963 87527.200000 0 0 1
-3.355924 16.587135 -27.406882 32.210750 -1.371170 2.588419 0.123834 -0.054169 181924.000000 0 0 1
-2.786924 16.299835 -28.832862 33.238314 -1.401455 2.620867 0.117912 -0.044744 74380.100000 0 0 1
-2.069324 17.395735 -29.359462 34.188766 -1.452397 2.603613 0.135340 -0.051062 166533.000000 0 0 1
-2.282624 17.382935 -30.733972 35.382960 -1.440229 2.623185 0.129522 -0.052110 332340.000000 0 0 1
-1.457324 18.600835 -31.282112 36.423693 -1.492609 2.603796 0.143766 -0.035624 819468.000000 0 0 1
-0.037324 18.488535 -31.105092 36.184998 -1.568778 2.605308 0.168364 -0.044787 572174.000000 0 0 1
0.685576 19.612135 -31.569682 37.171907 1.535854 2.585433 0.174883 -0.029196 304993.000000 0 0 1
0.492276 20.972435 -30.838862 37.297731 1.547328 2.544243 0.158498 -0.037927 -135447.000000 0 0 1
1.182676 20.934135 -29.593282 36.268431 1.514361 2.525170 0.193785 -0.063307 -132865.000000 0 0 1
1.332876 22.171735 -28.939732 36.481097 1.510753 2.486974 0.184230 -0.069575 18637.900000 0 0 1
2.508276 22.191535 -27.949432 35.776059 1.458246 2.467435 0.197809 -0.069915 1110490.000000 0 0 1
3.800276 22.375335 -28.598732 36.510069 1.402560 2.470770 0.178359 -0.068378 1113850.000000 0 0 1
4.870176 22.486835 -27.666732 35.983669 1.357511 2.447867 0.147112 -0.065988 305248.000000 0 0 1
5.308676 23.985835 -27.345332 36.759618 1.352982 2.409678 0.146364 -0.063798 -161297.000000 0 0 1
5.907776 24.670335 -28.471842 38.133621 1.335754 2.413783 0.132827 -0.066230 415026.000000 0 0 1
6.291276 25.989135 -28.071752 38.769041 1.333292 2.380491 0.133017 -0.071810 -114585.000000 0 0 1
7.210976 26.673435 -29.105112 40.132005 1.306765 2.382171 0.138797 -0.061986 216589.000000 0 0 1
8.562776 26.253035 -29.119482 40.130876 1.255513 2.382721 0.117984 -0.054402 572659.000000 0 0 1
9.427576 27.163735 -29.798142 41.408658 1.236739 2.374039 0.123794 -0.052294 947879.000000 0 0 1
10.966776 27.022335 -29.589022 41.544999 1.185265 2.363447 0.125767 -0.050944 677986.000000 0 0 1
11.742976 28.023535 -30.205232 42.843576 1.173985 2.353236 0.131248 -0.042763 151523.000000 0 0 1
13.038976 28.113035 -29.629172 42.874765 1.136521 2.333755 0.133485 -0.045647 -376409.000000 0 0 1
13.990776 29.012035 -30.348212 44.254423 1.121457 2.326453 0.139295 -0.039987 -779964.000000 0 0 1
13.572676 30.347035 -30.522512 45.130741 1.150233 2.313542 0.150434 -0.040624 503591.000000 0 0 1
14.504176 31.143435 -31.283442 46.464378 1.134945 2.309430 0.186404 -0.047413 328811.000000 0 0 1
14.166576 32.624535 -31.202742 47.314514 1.161133 2.290917 0.189429 -0.051059 764876.000000 0 0 1
13.068776 32.904435 -32.108452 47.795893 1.192729 2.307409 0.173067 -0.051904 465874.000000 0 0 1
12.136676 33.786035 -31.546042 47.790667 1.225930 2.291732 0.166369 -0.048540 -138690.000000 0 0 1
10.855076 33.782835 -32.423482 48.066566 1.259897 2.311156 0.127864 -0.042519 -41561.600000 0 0 1
10.918576 -33.124405 -33.623972 48.445980 -1.252389 2.337897 0.108627 -0.027955 739702.000000 0 0 1
9.641576 -33.098305 33.316938 47.942425 -1.287339 0.802465 0.111356 -0.035281 922035.000000 0 0 1
9.813676 -32.246905 32.036139 46.502530 -1.275373 0.810810 0.113066 -0.023484 110852.000000 0 0 1
9.807276 -30.915805 32.273389 45.755233 -1.263612 0.787882 0.093466 -0.030941 25034.400000 0 0 1
10.280976 -30.223705 31.142887 44.598769 -1.242912 0.797790 0.110189 -0.030532 -360934.000000 0 0 1
9.920376 -28.685305 31.201957 43.529561 -1.237837 0.771595 0.098782 -0.039751 -229324.000000 0 0 1
8.562876 -28.352705 31.086607 42.936882 -1.277494 0.761202 0.065835 -0.034993 -343774.000000 0 0 1
7.858776 -28.288805 32.322805 43.666699 -1.299824 0.737404 0.073424 -0.035237 -173280.000000 0 0 1
6.327376 -28.161305 32.156432 43.210310 -1.349783 0.731484 0.076035 -0.032651 375220.000000 0 0 1
5.571976 -29.324705 31.768247 43.591361 -1.383025 0.754267 0.118196 -0.038963 328277.000000 0 0 1
5.957776 -29.987505 30.528547 43.205761 -1.374675 0.786136 0.108390 -0.034292 -669702.000000 0 0 1
5.667576 -29.262005 29.163357 41.699973 -1.379481 0.796292 0.101242 -0.045447 670566.000000 0 0 1
4.256376 -29.058005 28.991987 41.267659 -1.425352 0.791843 0.153734 -0.048844 790698.000000 0 0 1
3.985976 -28.690005 27.667537 40.056173 -1.432747 0.808314 0.177111 -0.042933 156984.000000 0 0 1
2.469776 -28.841205 27.316777 39.801020 -1.485371 0.814361 0.150246 -0.043394 582618.000000 0 0 1
1.962676 -30.109805 26.885387 40.413816 -1.505704 0.842965 0.168453 -0.052817 270314.000000 0 0 1
1.988276 -31.117305 27.884577 41.830486 -1.506987 0.841146 0.210712 -0.057932 -799965.000000 0 0 1
2.298676 -32.452705 27.235487 42.429161 -1.500083 0.873816 0.232763 -0.058494 -139915.000000 0 0 1
3.662576 -32.760705 26.999267 42.610312 -1.459461 0.884557 0.183118 -0.050862 491653.000000 0 0 1
4.253476 -32.230205 25.785627 41.494298 -1.439583 0.900235 0.173752 -0.061350 318085.000000 0 0 1
5.801876 -32.141105 25.794727 41.618269 -1.392207 0.902317 0.166268 -0.049242 150584.000000 0 0 1
6.313176 -31.828405 24.516917 40.669187 -1.374987 0.923743 0.111278 -0.051795 205050.000000 0 0 1
7.694076 -31.560705 24.711747 40.816018 -1.331674 0.920475 0.091068 -0.044973 29026.700000 0 0 1
8.535076 -31.325505 23.438637 40.043782 -1.304789 0.945515 0.082846 -0.032176 850639.000000 0 0 1
9.916276 -31.020605 23.695627 40.275218 -1.261395 0.941789 0.070508 -0.016060 1161010.000000 0 0 1
10.774876 -31.185805 22.585617 39.984528 -1.238131 0.970534 0.079110 -0.027769 446986.000000 0 0 1
11.894376 -30.111705 22.409887 39.375043 -1.194600 0.965338 0.035737 -0.020747 172554.000000 0 0 1
12.876576 -30.122205 23.417887 40.268485 -1.166829 0.950171 0.045132 -0.014246 -304697.000000 0 0 1
13.835776 -29.132405 23.196057 39.726349 -1.127407 0.947277 0.046661 -0.009794 -309321.000000 0 0 1
15.025676 -29.212105 24.166497 40.781584 -1.095723 0.936534 0.078517 -0.018439 -513242.000000 0 0 1
14.717376 -28.920005 25.506297 41.273951 -1.100055 0.904631 0.079632 -0.013585 -15391.900000 0 0 1
15.888876 -28.738405 26.266897 42.051185 -1.065745 0.896125 0.084621 -0.014078 -118285.000000 0 0 1
-11.515424 -13.334165 25.528457 31.017851 0.858458 0.604081 0.099290 -0.035433 -1210510.000000 0 0 1
-10.156124 -13.334065 25.354047 30.393616 0.919870 0.584134 0.107786 -0.030091 -1572030.000000 0 0 1
-9.589424 -14.147565 26.342307 31.401080 0.975116 0.575541 0.104221 -0.030519 -206620.000000 0 0 1
-8.059224 -14.320865 26.236157 30.957620 1.058209 0.559565 0.126486 -0.023892 50734.400000 0 0 1
-7.626624 -15.353365 25.367077 30.616659 1.109760 0.594304 0.131833 -0.030261 92798.500000 0 0 1
-7.425424 -14.989465 24.020947 29.271606 1.110855 0.608296 0.153316 -0.040542 -543465.000000 0 0 1
-6.797724 -16.116765 23.233857 29.082147 1.171656 0.645325 0.154688 -0.043512 -57696.700000 0 0 1
-7.575224 -17.290665 22.917627 29.691224 1.157873 0.689026 0.156409 -0.055451 35090.300000 0 0 1
-7.645824 -18.191565 23.968877 31.046719 1.172918 0.688774 0.166195 -0.054291 -567754.000000 0 0 1
-8.448624 -19.479165 23.766897 31.869775 1.161558 0.729136 0.160847 -0.056491 -370435.000000 0 0 1
-9.830724 -19.270565 23.709627 32.095860 1.099068 0.739637 0.126279 -0.049340 -487177.000000 0 0 1
-10.539024 -20.450165 23.325097 32.761875 1.094943 0.778513 0.108383 -0.043534 -67263.000000 0 0 1
-12.032824 -20.226665 23.625457 33.347700 1.034136 0.783485 0.086931 -0.044981 -418010.000000 0 0 1
-12.394224 -20.244765 24.968567 34.451367 1.021441 0.760127 0.097779 -0.045915 -134720.000000 0 0 1
-13.789124 -20.021665 24.970587 34.850212 0.967688 0.772007 0.098386 -0.039580 -231503.000000 0 0 1
-14.376624 -19.882765 26.363937 36.014842 0.944755 0.749500 0.106828 -0.035151 -418287.000000 0 0 1
-14.151724 -20.957365 27.322347 37.228928 0.976866 0.746749 0.089985 -0.035974 456663.000000 0 0 1
-12.883424 -20.837365 27.977647 37.187728 1.017041 0.719196 0.105216 -0.035769 688934.000000 0 0 1
-12.355724 -22.242765 28.403027 38.133141 1.063745 0.730504 0.109505 -0.023251 -14574.900000 0 0 1
-13.213224 -22.771765 29.372777 39.444932 1.045029 0.730782 0.089716 -0.017040 -66394.000000 0 0 1
-12.756824 -24.059765 29.710407 40.302818 1.083271 0.741910 0.083520 -0.021180 372192.000000 0 0 1
-13.827224 -24.915665 30.461777 41.712137 1.064152 0.752056 0.069845 -0.015921 436505.000000 0 0 1
-13.940924 -24.530665 31.792933 42.507570 1.054007 0.725850 0.071986 -0.017611 70647.400000 0 0 1
-15.091724 -25.139655 32.372101 43.677401 1.030145 0.735994 0.070769 -0.018789 288005.000000 0 0 1
-15.066624 -24.828965 -33.694932 44.484032 1.025380 2.430212 0.069843 -0.022082 187574.000000 0 0 1
-15.096324 -23.441865 -33.415792 43.520515 0.998658 2.446223 0.071107 -0.029784 -46667.400000 0 0 1
-16.414524 -22.923465 -33.375242 43.690143 0.949374 2.440143 0.076998 -0.029904 -361134.000000 0 0 1
-16.506424 -21.408265 -33.388682 42.960213 0.913971 2.461000 0.063842 -0.025211 -83810.400000 0 0 1
-16.542524 -20.777165 -32.106562 41.667457 0.898384 2.450489 0.064657 -0.030108 133480.000000 0 0 1
-16.887524 -19.390765 -32.138442 41.159078 0.854290 2.466797 0.058511 -0.034484 -317932.000000 0 0 1
-17.125724 -18.786165 -30.745312 39.893416 0.831602 2.450714 0.065450 -0.021872 436425.000000 0 0 1
-18.272224 -19.419265 -30.143832 40.244660 0.815821 2.417370 0.066089 -0.017759 566601.000000 0 0 1
-18.488924 -19.196565 -28.757082 39.208649 0.804173 2.394161 0.054897 -0.016562 -136187.000000 0 0 1
-17.763224 -20.150165 -27.784082 38.646041 0.848273 2.373069 0.040616 -0.008934 244917.000000 0 0 1
-16.353124 -20.013365 -27.881552 38.017633 0.885709 2.394084 0.034100 -0.014797 69619.700000 0 0 1
-15.701924 -21.087665 -27.261282 37.873705 0.930759 2.374302 0.018741 -0.015997 784305.000000 0 0 1
-14.140124 -21.145065 -27.436292 37.413995 0.981374 2.393983 0.118912 -0.023658 397143.000000 0 0 1
-13.450824 -20.193565 -26.631962 36.027297 0.983190 2.402702 0.115962 -0.029753 312882.000000 0 0 1
-12.055024 -20.426065 -26.772702 35.767657 1.037630 2.416619 0.109079 -0.041389 251008.000000 0 0 1
-11.426724 -21.337765 -25.722872 35.320481 1.079141 2.386591 0.184906 -0.061753 -634082.000000 0 0 1
-11.578424 -22.695265 -26.046412 36.435567 1.099047 2.367223 0.197672 -0.061905 267087.000000 0 0 1
-10.802924 -23.511665 -25.176292 36.101901 1.140094 2.342514 0.268079 -0.064234 285680.000000 0 0 1
-10.885124 -24.985555 -25.507652 37.328330 1.159934 2.323113 0.261425 -0.061915 -311510.000000 0 0 1
-10.043024 -25.305445 -26.590912 38.056596 1.192989 2.344403 0.271468 -0.064745 -22023.200000 0 0 1
-10.197524 -26.559435 -27.176392 39.343988 1.204201 2.333306 0.248032 -0.046269 -66575.900000 0 0 1
-9.829724 -27.802045 -26.331342 39.533742 1.230952 2.299693 0.245792 -0.045378 -15743.900000 0 0 1
-10.893924 -28.026055 -25.410382 39.367815 1.200063 2.272423 0.206566 -0.049015 259469.000000 0 0 1
-10.617024 -28.930875 -24.366952 39.286958 1.219076 2.239832 0.180637 -0.053863 -346078.000000 0 0 1
-11.523524 -28.972635 -23.096252 38.802603 1.192241 2.208341 0.181259 -0.052160 -66720.100000 0 0 1
-11.526724 -27.865045 -22.278852 37.492310 1.178568 2.207098 0.178081 -0.056521 400693.000000 0 0 1
-12.474224 -26.869805 -22.722352 37.334943 1.136158 2.225102 0.166020 -0.059602 260247.000000 0 0 1
-12.286824 -25.544355 -21.917152 35.830736 1.122464 2.228986 0.176966 -0.060064 971.405000 0 0 1
-12.690924 -25.798485 -20.580252 35.357717 1.113629 2.192054 0.115501 -0.041753 227307.000000 0 0 1
-12.730524 -24.650265 -19.756852 34.059287 1.094079 2.189614 0.104954 -0.024937 -163506.000000 0 0 1
-13.332124 -24.909265 -18.330652 33.678329 1.079365 2.146334 0.129459 -0.027412 -145435.000000 0 0 1
-14.671424 -25.334415 -18.397552 34.576772 1.045878 2.131850 0.152388 -0.038942 -379990.000000 0 0 1
-15.069624 -25.722595 -17.136052 34.385894 1.040845 2.092486 0.139409 -0.038612 60942.700000 0 0 1
-16.590124 -25.988265 -17.019152 35.217519 1.002640 2.075169 0.139863 -0.040538 -271610.000000 0 0 1
-17.432524 -24.804465 -16.991752 34.754482 0.958195 2.081634 0.123780 -0.029917 959790.000000 0 0 1
-18.724224 -25.104055 -16.454852 35.377568 0.929947 2.054568 0.133249 -0.027508 767257.000000 0 0 1
-19.737624 -25.964325 -17.283352 36.911167 0.920810 2.058096 0.120994 -0.019529 -953974.000000 0 0 1
-19.535924 -27.342115 -17.508652 37.891905 0.950405 2.051122 0.122730 -0.035806 -187106.000000 0 0 1
-19.806324 -28.220035 -16.429752 38.191591 0.958828 2.015503 0.127067 -0.038375 155279.000000 0 0 1
-21.270024 -28.732005 -16.286852 39.283630 0.933538 1.998296 0.137053 -0.031989 365605.000000 0 0 1
-21.679924 -29.550745 -17.363652 40.555666 0.937841 2.013234 0.108088 -0.027389 -981068.000000 0 0 1
-23.022524 -29.852005 -17.213752 41.442636 0.913851 1.999139 0.119486 -0.022522 -744232.000000 0 0 1
-23.407024 -30.805385 -18.336152 42.814425 0.921030 2.013374 0.095887 -0.031331 73093.800000 0 0 1
-22.905824 -32.150105 -18.223852 43.478901 0.951753 2.003297 0.097456 -0.039896 43203.300000 0 0 1
-23.383124 -32.899095 -19.289352 44.734774 0.952890 2.016612 0.086381 -0.022116 -25150.000000 0 0 1
-22.862224 33.334312 -19.398952 44.834997 -0.969633 2.018253 0.073289 -0.022164 -247591.000000 0 0 1
-23.556924 32.464007 -18.548852 44.191632 -0.943074 2.003952 0.086483 -0.021007 132769.000000 0 0 1
-22.735324 31.400765 -18.071052 42.772256 -0.944119 2.006992 0.081834 -0.027706 17772.800000 0 0 1
-23.509024 30.075295 -17.928052 42.173601 -0.907331 2.009870 0.111695 -0.041026 47191.100000 0 0 1
-24.242924 30.103465 -16.701552 42.105579 -0.892820 1.978671 0.103613 -0.045981 108889.000000 0 0 1
-24.969124 28.889795 -16.460052 41.581375 -0.858065 1.977791 0.109680 -0.031084 4829.020000 0 0 1
-24.178424 27.578895 -16.166952 40.081941 -0.851004 1.985969 0.112950 -0.025652 -168104.000000 0 0 1
-23.404624 27.133005 -17.270752 39.777572 -0.859039 2.019928 0.089352 -0.022478 -92354.100000 0 0 1
-22.882824 25.887015 -16.959852 38.488930 -0.846920 2.027110 0.103455 -0.029350 -553650.000000 0 0 1
-22.044924 25.446065 -18.147252 38.246616 -0.856893 2.065169 0.096429 -0.026940 -801492.000000 0 0 1
-21.566624 24.130255 -18.070652 37.066655 -0.841440 2.080041 0.118490 -0.033789 311117.000000 0 0 1
-20.683424 23.604765 -19.037052 36.706925 -0.851265 2.116036 0.106150 -0.020857 1256780.000000 0 0 1
-19.259524 24.305305 -19.192852 36.469750 -0.900707 2.125002 0.087314 -0.028239 -70621.500000 0 0 1
-18.516924 24.134835 -18.036652 35.365061 -0.916360 2.105997 0.104671 -0.028856 -106930.000000 0 0 1
-17.271824 24.816005 -18.116052 35.246863 -0.962763 2.110610 0.115439 -0.038133 205031.000000 0 0 1
-17.211524 26.203115 -17.463052 35.885902 -0.989620 2.079021 0.129467 -0.054931 -581866.000000 0 0 1
-18.099124 27.137355 -18.003652 37.257829 -0.982601 2.075123 0.096209 -0.042212 -110954.000000 0 0 1
-17.858824 28.374345 -17.317352 37.735020 -1.009039 2.047575 0.119829 -0.056466 -402768.000000 0 0 1
-19.040524 29.342045 -17.463152 39.095509 -0.995183 2.033847 0.103194 -0.047788 -128262.000000 0 0 1
-19.337724 29.814535 -18.790852 40.198883 -0.995406 2.057197 0.086089 -0.047971 511027.000000 0 0 1
-20.066724 28.844775 -19.567252 40.219048 -0.962976 2.078895 0.075644 -0.039922 -374999.000000 0 0 1
-20.386824 29.322265 -21.006952 41.433197 -0.963253 2.102506 0.071721 -0.039506 -91818.700000 0 0 1
-21.170424 30.510185 -21.124152 42.723390 -0.964189 2.087987 0.077836 -0.038763 332839.000000 0 0 1
-21.390824 30.780215 -22.503252 43.719393 -0.963465 2.111478 0.078457 -0.035474 252599.000000 0 0 1
-22.170024 32.117608 -22.661852 45.128818 -0.966626 2.096890 0.079217 -0.042283 -314504.000000 0 0 1
-21.310224 33.204022 -22.469552 45.403893 -1.000210 2.088495 0.055134 -0.038738 -131477.000000 0 0 1
-21.405024 -33.517935 -23.528652 46.208489 1.002467 2.105033 0.068145 -0.028844 396238.000000 0 0 1
-20.226824 -32.438325 -23.587752 44.919388 1.013242 2.123644 0.081679 -0.028625 731534.000000 0 0 1
-20.069124 -31.596615 -22.432052 43.638432 1.004919 2.110688 0.080615 -0.030178 101054.000000 0 0 1
-19.475724 -32.273465 -21.360852 43.326278 1.027837 2.086357 0.086323 -0.041503 -641937.000000 0 0 1
-19.225524 -31.410085 -20.138352 41.973413 1.021541 2.071210 0.112680 -0.045960 -85886.300000 0 0 1
-18.255624 -30.455735 -20.509152 41.005425 1.030807 2.094576 0.102038 -0.042250 54407.000000 0 0 1
-18.014624 -29.498135 -19.499952 39.685196 1.022544 2.084454 0.117038 -0.043258 -55278.600000 0 0 1
-16.728124 -28.656225 -19.651452 38.564089 1.042410 2.105492 0.127361 -0.046791 -666835.000000 0 0 1
-15.569724 -29.399955 -19.567352 38.596048 1.083763 2.102472 0.143349 -0.053974 -1414020.000000 0 0 1
-14.501224 -28.541255 -19.814052 37.649507 1.100706 2.125012 0.129304 -0.050549 -567828.000000 0 0 1
-13.141024 -29.285365 -19.981452 37.809755 1.149005 2.127598 0.174477 -0.061647 3736.950000 0 0 1
-12.594224 -29.746955 -18.793852 37.372512 1.170300 2.097723 0.155841 -0.056329 179789.000000 0 0 1
-11.827124 -28.743855 -18.023352 35.929532 1.180445 2.096279 0.120974 -0.044414 1091850.000000 0 0 1
-10.683024 -29.464145 -17.179652 35.740779 1.222961 2.072219 0.120869 -0.020763 763455.000000 0 0 1
-11.253524 -30.326655 -16.215452 36.184094 1.215469 2.035477 0.146946 -0.034628 -1597.300000 0 0 1
-11.681724 -31.647475 -16.641952 37.616219 1.217190 2.029085 0.151422 -0.034499 73652.600000 0 0 1
-12.697624 -32.235115 -15.643052 38.013647 1.195554 1.994908 0.162514 -0.044191 -221610.000000 0 0 1
-12.104824 -32.455375 -14.370552 37.501879 1.213808 1.964050 0.151285 -0.041443 595230.000000 0 0 1
-13.151724 -32.767425 -13.417952 37.771860 1.189113 1.933964 0.154508 -0.037077 461053.000000 0 0 1
-12.685924 -33.291345 -12.065252 37.614048 1.206725 1.897333 0.131246 -0.032943 -60650.200000 0 0 1
-12.090024 -32.284665 -11.254352 36.264703 1.212480 1.886346 0.112258 -0.020059 45241.500000 0 0 1
-11.731024 -32.896945 -10.025052 36.336312 1.228255 1.850318 0.115989 -0.018534 -382228.000000 0 0 1
-10.495224 -32.258185 -9.372852 35.193616 1.256247 1.840372 0.102720 -0.020756 -376181.000000 0 0 1
-9.321724 -32.719685 -9.993052 35.458898 1.293253 1.856488 0.060042 -0.012285 23083.300000 0 0 1
-8.182824 -32.209265 -9.253152 34.496611 1.322008 1.842355 0.058500 -0.018757 405130.000000 0 0 1
-6.841424 -32.609885 -9.865752 34.749716 1.364000 1.858665 0.045234 -0.021521 -375266.000000 0 0 1
-6.489524 33.783765 -9.463152 35.679237 -1.381018 1.839237 0.030006 -0.007892 -41762.700000 0 0 1
-5.254524 33.467070 -10.099952 35.350585 -1.415062 1.860542 0.024399 -0.000635 449475.000000 0 0 1
-4.442824 32.335469 -9.387252 33.962358 -1.434253 1.850844 0.032748 -0.005791 252390.000000 0 0 1
-3.861324 32.859372 -8.158252 34.076461 -1.453822 1.812555 0.057689 -0.016700 110624.000000 0 0 1
-3.463024 31.828123 -7.259552 32.828692 -1.462419 1.793774 0.067039 -0.032503 -151275.000000 0 0 1
-2.945724 32.460867 -6.003052 33.142447 -1.480297 1.752930 0.086297 -0.036785 -628773.000000 0 0 1
-1.669324 33.035729 -6.133552 33.641737 -1.520308 1.754142 0.081691 -0.036532 -391516.000000 0 0 1
-1.286924 33.678879 -4.993452 34.071361 -1.532603 1.717885 0.090962 -0.043880 481871.000000 0 0 1
-0.197324 32.906450 -4.139352 33.166363 -1.564800 1.695928 0.101015 -0.051466 241815.000000 0 0 1
1.122376 33.001351 -4.607352 33.340315 1.536799 1.709432 0.103207 -0.048429 -321112.000000 0 0 1
1.993576 32.133747 -3.927852 32.434242 1.508836 1.692196 0.095016 -0.050743 146068.000000 0 0 1
3.456776 32.150374 -4.424952 32.637035 1.463689 1.706796 0.095350 -0.042914 214127.000000 0 0 1
4.069376 33.445530 -4.248852 33.959035 1.449720 1.696242 0.092132 -0.039629 609942.000000 0 0 1
5.459876 33.281796 -3.933652 33.955291 1.408195 1.686905 0.092775 -0.034331 998940.000000 0 0 1
6.185676 -33.086305 -3.456652 33.836587 -1.385974 1.673132 0.081724 -0.026525 48535.300000 0 0 1
6.204276 -32.038155 -4.363052 32.923740 -1.379511 1.703707 0.086495 -0.022459 -209253.000000 0 0 1
6.698076 -30.866355 -3.796952 31.812151 -1.357107 1.690437 0.078325 -0.026775 -146599.000000 0 0 1
6.662176 -29.676445 -4.723952 30.779729 -1.349964 1.724881 0.073397 -0.023654 -298028.000000 0 0 1
7.509276 -29.668325 -5.842952 31.156682 -1.322895 1.759448 0.079910 -0.019896 -351141.000000 0 0 1
7.440476 -28.483275 -6.656852 30.182301 -1.315283 1.793180 0.069224 -0.018620 194038.000000 0 0 1
7.794176 -27.062515 -6.030752 28.801022 -1.290379 1.781751 0.067821 -0.016618 69817.100000 0 0 1
6.908976 -26.643555 -5.035852 27.981651 -1.317073 1.751752 0.060946 -0.022866 -293115.000000 0 0 1
7.479376 -25.554435 -4.292452 26.970268 -1.286065 1.730631 0.053898 -0.025622 229170.000000 0 0 1
6.461376 -24.874265 -3.325852 25.914084 -1.316652 1.699493 0.052120 -0.024849 230678.000000 0 0 1
5.372876 -24.220465 -3.934352 25.119272 -1.352499 1.728071 0.045447 -0.024869 -15390.100000 0 0 1
4.545276 -23.626965 -2.923852 24.237201 -1.380742 1.691726 0.047171 -0.022065 477886.000000 0 1 0
3.261476 -22.967965 -3.457952 23.454681 -1.429738 1.718767 0.058726 -0.022077 396424.000000 0 1 0
2.208576 -23.766565 -3.968352 24.196596 -1.478135 1.735545 0.075363 -0.024757 134880.000000 0 1 0
1.004676 -23.055465 -4.146952 23.446984 -1.527247 1.748597 0.094772 -0.029926 322967.000000 0 1 0
-15.733624 22.855635 17.856487 32.996684 -0.967904 0.998980 0.030272 -0.024207 -337502.000000 0 0 1
-15.888524 22.333735 19.138887 33.429597 -0.952451 0.961228 0.049774 -0.024278 -8047.840000 0 0 1
-15.504624 23.342635 20.038287 34.450035 -0.984490 0.950026 0.052216 -0.025241 -936540.000000 0 0 1
-15.536224 22.868135 21.533787 35.043257 -0.974042 0.909055 0.070270 -0.029549 -419451.000000 0 0 1
-14.627824 21.823535 21.985887 34.258126 -0.980298 0.873990 0.062872 -0.025141 2269610.000000 0 0 1
-13.202324 22.139535 21.887687 33.816139 -1.033085 0.866818 0.049984 -0.031462 1512180.000000 0 0 1
-12.641724 23.322735 22.766577 34.958264 -1.074089 0.861566 0.072925 -0.015490 -638303.000000 0 0 1
-12.352124 22.863435 24.113007 35.450652 -1.075464 0.822781 0.061885 -0.017558 163841.000000 0 0 1
-12.221624 23.930535 25.016107 36.712998 -1.098615 0.821127 0.093948 -0.019791 56092.300000 0 0 1
-11.627324 23.467335 26.375707 37.169724 -1.110781 0.781863 0.084286 -0.021518 826904.000000 0 0 1
-10.217924 23.210935 26.348977 36.570782 -1.156105 0.766284 0.051767 -0.019755 532072.000000 0 0 1
-9.834524 22.348835 27.428207 36.721858 -1.156251 0.727382 0.037527 -0.011339 -1697300.000000 0 0 1
-8.357524 22.155635 27.665517 36.415673 -1.210082 0.707922 0.038792 -0.019164 -559345.000000 0 0 1
-7.627924 23.287435 28.148637 37.320713 -1.254255 0.716306 0.036360 -0.028802 98568.100000 0 0 1
-7.427424 24.269135 27.163727 37.175605 -1.273804 0.751469 0.037392 -0.023926 -1540440.000000 0 0 1
-6.571024 25.399635 27.624977 38.098021 -1.317641 0.759613 0.054135 -0.035827 -463745.000000 0 0 1
-5.226024 25.025235 27.787977 37.759044 -1.364925 0.743758 0.060914 -0.040187 -717301.000000 0 0 1
-4.317624 26.039835 27.952337 38.445390 -1.406483 0.756757 0.080994 -0.029509 -86195.100000 0 0 1
-2.851424 25.549035 28.101237 38.086262 -1.459650 0.740945 0.075994 -0.035809 -423765.000000 0 0 1
-2.203824 25.467835 26.873607 37.089867 -1.484478 0.760409 0.078309 -0.039174 -236204.000000 0 0 1
-0.923024 24.901435 27.077767 36.798627 -1.533746 0.743895 0.090371 -0.028533 156245.000000 0 0 1
-0.079724 24.876935 25.794657 35.836191 -1.567592 0.767292 0.089548 -0.032240 -32734.000000 0 0 1
-0.474324 23.878435 24.924707 34.520221 -1.550935 0.764061 0.085835 -0.013227 289036.000000 0 0 1
0.335276 23.901035 23.731227 33.682978 1.556770 0.789012 0.086183 -0.008651 207491.000000 0 0 1
0.049676 22.734635 22.809817 32.204873 1.568611 0.783749 0.053319 -0.009795 85881.500000 0 0 1
0.613376 21.489035 23.248977 31.664962 1.542260 0.746283 0.079261 -0.007432 98119.000000 0 0 1
0.491876 20.519135 22.265087 30.282189 1.546829 0.744756 0.081433 -0.009620 95114.800000 0 0 1
1.418676 19.304835 22.477487 29.663559 1.497440 0.710942 0.087507 -0.002589 -1543690.000000 0 0 1
2.702576 19.336935 22.062587 29.461479 1.431933 0.724453 0.067262 -0.011827 -1815110.000000 0 0 1
3.222476 18.018635 22.157187 28.740155 1.393826 0.690467 0.071548 -0.011879 28691.600000 0 0 1
4.677576 17.929835 21.631587 28.483052 1.315602 0.708322 0.071213 -0.021111 -330779.000000 0 0 1
5.556676 18.654335 22.428887 29.697068 1.281289 0.714752 0.060814 -0.011831 -1297470.000000 0 0 1
6.683576 18.863635 21.619087 29.460004 1.230287 0.746831 0.067514 -0.022131 -521626.000000 0 0 1
7.877376 19.288835 22.547827 30.700435 1.183078 0.745946 0.080567 -0.023045 -304315.000000 0 0 1
7.718776 20.397035 23.505967 32.064763 1.209025 0.747960 0.057663 -0.016250 -16358.400000 0 0 1
7.565476 21.630535 22.864967 32.371642 1.234336 0.786500 0.070692 -0.024744 -945964.000000 0 0 1
6.186776 22.244235 23.205927 32.735260 1.299523 0.782863 0.049700 -0.014818 -47761.900000 0 0 1
5.854576 23.351035 22.496097 32.948768 1.325140 0.819263 0.048374 -0.021605 1059420.000000 0 0 1
4.478576 23.678035 22.808827 33.180560 1.383860 0.812872 0.034039 -0.026569 811359.000000 0 0 1
4.054376 25.131935 22.445487 33.938945 1.410851 0.848181 0.051559 -0.020430 12419.700000 0 0 1
4.100876 25.408135 21.071487 33.262563 1.410776 0.884741 0.055245 -0.028163 243648.000000 0 0 1
3.034976 24.760035 20.384987 32.215185 1.448829 0.885664 0.058546 -0.025797 -108924.000000 0 0 1
2.817276 25.341535 18.942887 31.764185 1.460079 0.931838 0.066171 -0.026899 -476557.000000 0 0 1
1.853876 26.362335 18.943787 32.515791 1.500589 0.948869 0.090901 -0.034351 52986.800000 0 0 1
1.738976 26.981935 17.680587 32.305604 1.506436 0.991672 0.104539 -0.033679 -413929.000000 0 0 1
0.620376 28.003635 17.773687 33.173670 1.548647 1.005369 0.114119 -0.025246 -410062.000000 0 0 1
0.999976 29.175435 18.481787 34.551157 1.536535 1.006394 0.138661 -0.032050 230703.000000 0 0 1
0.050676 30.208435 18.414387 35.378550 1.569119 1.023365 0.109107 -0.028973 -31293.700000 0 0 1
0.771376 31.482135 18.830787 36.692212 1.546299 1.031876 0.122732 -0.027596 68054.900000 0 0 1
1.343476 31.494935 20.129287 37.402193 1.528165 1.002515 0.143215 -0.030205 -68434.600000 0 0 1
1.901276 32.772235 20.368487 38.633011 1.512846 1.015459 0.158143 -0.032052 -90873.700000 0 0 1
2.543476 32.776635 21.772087 39.430963 1.493351 0.985847 0.146855 -0.046903 -242383.000000 0 0 1
1.517376 32.494835 22.695487 39.664870 1.524134 0.961634 0.166724 -0.039747 280092.000000 0 0 1
1.866776 32.357835 24.096337 40.387471 1.513169 0.931502 0.183905 -0.054985 337450.000000 0 0 1
0.531276 32.380035 24.909097 40.855992 1.554390 0.915139 0.198083 -0.039308 889852.000000 0 0 1
-0.152224 33.689935 24.882617 41.882927 -1.566278 0.934651 0.201846 -0.032357 1103720.000000 0 0 1
-1.301524 -33.809405 25.728597 42.505653 1.532319 0.920656 0.191432 -0.025707 362313.000000 0 0 1
-1.087524 -33.738405 27.252957 43.384172 1.538573 0.891588 0.204529 -0.041776 -814105.000000 0 0 1
-0.465224 32.796035 27.825877 43.012507 -1.556612 0.867251 0.202791 -0.054483 265984.000000 0 0 1
-0.022724 33.030735 29.137867 44.045945 -1.570108 0.847935 0.197810 -0.057545 -650831.000000 0 0 1
0.716376 31.815935 29.825527 43.615697 1.548284 0.817803 0.159006 -0.052084 704513.000000 0 0 1
2.100976 31.723935 29.485267 43.361309 1.504666 0.823047 0.142369 -0.048918 535058.000000 0 0 1
2.532476 31.475935 28.162157 42.311405 1.490512 0.842509 0.132948 -0.050512 98978.400000 0 0 1
4.090276 31.634335 27.995627 42.440743 1.442211 0.850456 0.089092 -0.046297 849752.000000 0 0 1
4.751176 30.462735 28.442567 41.946770 1.416076 0.825672 0.070878 -0.039556 112500.000000 0 0 1
6.155376 30.630335 28.344797 42.184519 1.372481 0.833993 0.072169 -0.049728 -74067.700000 0 0 1
7.035176 29.569235 28.998857 42.009131 1.337217 0.808894 0.079341 -0.028137 -110293.000000 0 0 1
7.103176 29.686735 30.377607 43.064560 1.335941 0.787813 0.099282 -0.043247 401154.000000 0 0 1
7.694276 28.476635 30.971347 42.770843 1.306902 0.761035 0.073927 -0.034229 233221.000000 0 0 1
7.679576 28.606035 32.480224 43.957321 1.308520 0.739355 0.112573 -0.047775 208228.000000 0 0 1
6.369076 28.557235 33.051595 44.141689 1.351359 0.724605 0.112244 -0.050238 123667.000000 0 0 1
6.104676 28.168435 -33.204122 43.968642 1.357376 2.426721 0.131790 -0.049955 -292787.000000 0 0 1
6.378476 26.710035 -32.825862 42.797758 1.336382 2.444948 0.108928 -0.043251 -8607.060000 0 0 1
7.697876 26.232535 -33.024302 42.871992 1.285362 2.450108 0.090447 -0.042448 173751.000000 0 0 1
7.790876 24.953035 -32.471632 41.686432 1.268165 2.463785 0.094529 -0.047824 -786774.000000 0 0 1
9.155976 24.372435 -32.728982 41.821451 1.211439 2.469609 0.099670 -0.050016 -1041640.000000 0 0 1
9.392676 24.032135 33.481560 42.270329 1.198213 0.656584 0.076470 -0.032684 491761.000000 0 0 1
10.645476 23.433635 33.152120 41.970519 1.144387 0.660166 0.086630 -0.047813 236842.000000 0 0 1
10.773276 21.938235 33.554847 41.512377 1.114316 0.629521 0.074047 -0.046362 -925221.000000 0 0 1
10.138076 21.059935 32.678120 40.176622 1.122146 0.620889 0.065513 -0.037543 -72397.300000 0 0 1
9.910576 19.771535 33.244621 39.929162 1.106145 0.587029 0.061607 -0.032623 -39112.100000 0 0 1
8.551776 19.738235 -33.649152 39.937404 1.161951 2.572791 0.082851 -0.042130 -596380.000000 0 0 1
8.754876 20.161835 -32.327372 39.092281 1.161134 2.544458 0.088432 -0.043236 -56930.300000 0 0 1
7.553776 20.655335 -31.805622 38.669109 1.220199 2.536602 0.101042 -0.045701 -318291.000000 0 0 1
7.714576 21.260035 -30.397892 37.888463 1.222705 2.501934 0.116893 -0.054488 -263829.000000 0 0 1
8.482476 22.419535 -30.336932 38.664161 1.209090 2.472890 0.124467 -0.054910 -90722.200000 0 0 1
8.653376 22.805935 -28.951202 37.857148 1.208143 2.441447 0.096417 -0.050176 -71728.600000 0 0 1
10.113876 23.131135 -28.549202 38.110324 1.158603 2.417529 0.100562 -0.055995 61058.100000 0 0 1
10.901476 21.987335 -28.504052 37.613376 1.110509 2.430757 0.087812 -0.047694 -603271.000000 0 0 1
12.277376 22.262835 -28.585312 38.255559 1.066822 2.414665 0.094366 -0.048950 224594.000000 0 0 1
13.151576 20.944435 -28.641982 37.841729 1.010095 2.429336 0.102029 -0.057610 51283.400000 0 0 1
12.971076 19.999735 -29.700732 38.083746 0.995432 2.465270 0.089482 -0.050105 57478.000000 0 0 1
11.688676 19.402135 -29.742222 37.385395 1.028583 2.490723 0.099599 -0.042237 -143591.000000 0 0 1
11.563676 18.442335 -30.903382 37.800229 1.010747 2.527931 0.096529 -0.038307 -440681.000000 0 0 1
12.048976 17.126635 -30.723412 37.181010 0.957710 2.543338 0.104440 -0.033164 27639.600000 0 0 1
11.997876 16.143735 -31.763272 37.596205 0.931667 2.577087 0.091257 -0.020107 -475596.000000 0 0 1
13.087976 16.288235 -32.835362 38.919952 0.893911 2.574868 0.077864 -0.006321 -296112.000000 0 0 1
12.940576 17.518035 -33.480142 39.940705 0.934566 2.564855 0.081442 -0.020126 -50266.300000 0 0 1
13.594276 17.643735 32.884506 39.717710 0.914312 0.595344 0.096517 -0.027009 333066.000000 0 0 1
12.788176 17.032835 31.642420 38.143121 0.926786 0.592458 0.115431 -0.038802 -311428.000000 0 0 1
13.198676 17.561335 30.425567 37.527599 0.926287 0.625361 0.104740 -0.029759 -41617.500000 0 0 1
12.360676 17.267035 29.320377 36.202504 0.949509 0.626816 0.091383 -0.027375 1187140.000000 0 0 1
10.841476 17.694335 29.408457 35.992839 1.021084 0.614496 0.068170 -0.026747 814973.000000 0 0 1
10.002076 16.760735 30.057157 35.838477 1.032765 0.575934 0.082912 -0.027149 -882857.000000 0 0 1
8.673276 17.120835 30.192687 35.776348 1.101889 0.566231 0.081461 -0.024026 -481038.000000 0 0 1
7.979576 16.197335 31.198517 36.046841 1.113048 0.524650 0.082980 -0.029256 -221419.000000 0 0 1
8.326176 16.624235 32.465245 37.412331 1.106472 0.520102 0.090579 -0.028926 -50798.200000 0 0 1
8.257976 15.539135 33.392368 37.745319 1.082321 0.484998 0.118468 -0.031202 -71077.700000 0 0 1
8.425676 15.884235 -32.699412 37.316919 1.083092 2.638846 0.128998 -0.028761 272094.000000 0 0 1
7.329276 16.689035 -32.237392 37.033655 1.156987 2.626991 0.121802 -0.029069 778079.000000 0 0 1
7.347676 16.720335 -30.806422 35.813315 1.156754 2.606448 0.122367 -0.043366 231991.000000 0 0 1
6.240776 17.706235 -30.337902 35.676972 1.231930 2.587446 0.128804 -0.047088 -294594.000000 0 0 1
6.119476 17.971135 -28.943652 34.614226 1.242595 2.561073 0.119496 -0.056830 826781.000000 0 0 1
5.101776 18.944635 -28.601572 34.683962 1.307738 2.540351 0.142305 -0.059300 1665410.000000 0 0 1
3.568876 18.611935 -28.718182 34.407484 1.381344 2.558292 0.180941 -0.072014 -176791.000000 0 0 1
3.116676 17.557035 -27.863182 33.080509 1.395109 2.572303 0.185974 -0.066977 308751.000000 0 0 1
1.763176 17.197835 -28.124412 33.012980 1.468630 2.590437 0.183864 -0.063191 756263.000000 0 0 1
0.705476 18.223635 -27.620152 33.097906 1.532104 2.558018 0.179577 -0.069278 -848326.000000 0 0 1
0.450176 18.494035 -26.265372 32.126340 1.546459 2.527966 0.192124 -0.070328 -136974.000000 0 0 1
-0.533124 19.496635 -26.255102 32.706779 -1.543459 2.502675 0.194714 -0.070112 -161014.000000 0 0 1
-0.963024 20.032435 -24.852552 31.935485 -1.522760 2.462609 0.171566 -0.070652 1021160.000000 0 0 1
-1.977724 19.219035 -24.155452 30.931676 -1.468253 2.466949 0.161960 -0.059879 1051590.000000 0 0 1
-2.429124 19.967435 -23.024852 30.573565 -1.449737 2.423553 0.152304 -0.055711 434949.000000 0 0 1
-3.386224 19.190535 -22.030152 29.412085 -1.396141 2.417374 0.118549 -0.049024 1945590.000000 0 0 1
-4.775224 19.241735 -22.476652 29.970769 -1.327541 2.418787 0.110156 -0.036894 1081540.000000 0 0 1
-5.631624 18.455435 -21.709152 29.044888 -1.274624 2.414988 0.097490 -0.037231 655921.000000 0 0 1
-7.171424 18.684335 -21.935252 29.693248 -1.204315 2.401978 0.129688 -0.032071 1010860.000000 0 0 1
-7.733124 19.678335 -21.099152 29.869923 -1.196359 2.355150 0.086523 -0.026574 -12364.800000 0 0 1
-7.526724 21.025735 -21.607352 31.074278 -1.227033 2.339697 0.090419 -0.032953 -282960.000000 0 0 1
-7.984524 22.124535 -20.647952 31.298332 -1.224453 2.291235 0.089183 -0.038554 -75300.600000 0 0 1
-7.205524 22.310835 -19.468352 30.474738 -1.258410 2.263780 0.095063 -0.040460 267052.000000 0 0 1
-7.807524 23.205235 -18.539352 30.710714 -1.246239 2.218902 0.098067 -0.041405 -67185.200000 0 0 1
-6.935124 23.350235 -17.266152 29.857150 -1.282090 2.187430 0.102311 -0.047742 312538.000000 0 0 1
-5.617924 23.844035 -17.493352 30.101768 -1.339405 2.190926 0.103220 -0.047873 -166010.000000 0 0 1
-4.986724 23.809735 -16.232052 29.244665 -1.364340 2.159211 0.101385 -0.038604 -828985.000000 0 0 1
-3.477824 23.945335 -16.298552 29.173912 -1.426565 2.163576 0.100899 -0.038241 -693209.000000 0 0 1
-3.165424 25.252535 -16.786552 30.487682 -1.446096 2.153880 0.074832 -0.039564 473377.000000 0 0 1
-1.845324 25.237135 -17.358752 30.686226 -1.497807 2.172061 0.082823 -0.042150 742311.000000 0 0 1
-1.268824 26.674435 -17.550352 31.955442 -1.523265 2.152219 0.067855 -0.052682 455399.000000 0 0 1
-2.095224 27.498335 -18.379152 33.141237 -1.494749 2.158643 0.065299 -0.050838 227411.000000 0 0 1
-1.411724 28.698235 -18.537252 34.193733 -1.521644 2.143759 0.081701 -0.059520 -519999.000000 0 0 1
-2.184424 29.627235 -19.504652 35.538377 -1.497199 2.151764 0.126633 -0.054762 1263880.000000 0 0 1
-3.357324 30.257635 -18.914652 35.840761 -1.460290 2.126736 0.091597 -0.047931 817213.000000 0 0 1
-4.515324 29.435235 -18.916552 35.279699 -1.418584 2.136711 0.050373 -0.050506 -608990.000000 0 0 1
-5.581024 29.998835 -17.969952 35.411821 -1.386858 2.103027 0.079697 -0.035861 -83710.400000 0 0 1
-6.083724 31.246935 -18.395252 36.766397 -1.378504 2.094774 0.125493 -0.040642 -33936.800000 0 0 1
-6.273124 32.125335 -17.308852 37.026823 -1.377953 2.057221 0.122763 -0.070311 -99273.800000 0 0 1
-6.498424 33.573335 -17.713552 38.511924 -1.379602 2.048735 0.122940 -0.045991 -340506.000000 0 0 1
-7.836224 33.778835 -18.068352 39.100914 -1.342842 2.051153 0.129444 -0.067701 -241609.000000 0 0 1
-8.125824 -32.508805 -18.268152 38.165125 1.325858 2.069925 0.177110 -0.063856 -32030.500000 0 0 1
30.348676 -19.917465 -25.957432 44.626627 -0.580783 2.191562 0.072756 -0.002202 230088.000000 0 0 1
29.863376 -21.138565 -25.467382 44.578556 -0.615970 2.178876 0.078002 -0.005175 -300868.000000 0 0 1
28.496776 -21.386265 -25.724412 43.945238 -0.643808 2.196138 0.056147 -0.004436 294552.000000 0 0 1
28.016176 -22.801365 -25.260762 44.078503 -0.683138 2.181063 0.061281 -0.002589 365662.000000 0 0 1
28.486376 -23.915765 -26.053692 45.411808 -0.698397 2.181838 0.066035 0.012944 -20978.500000 0 0 1
29.809876 -24.409365 -25.888172 46.418135 -0.686121 2.162429 0.065188 0.010056 458681.000000 0 0 1
30.146576 -25.718085 -26.622342 47.738716 -0.706292 2.162370 0.070603 0.011407 -162501.000000 0 0 1
29.668076 -26.793305 -25.906662 47.636447 -0.734526 2.145804 0.086437 0.002446 -542251.000000 0 0 1
29.894376 -28.091785 -26.468142 48.819920 -0.754322 2.143800 0.077311 0.001730 592790.000000 0 0 1
28.791476 -28.526295 -27.509432 48.984359 -0.780772 2.167110 0.088655 -0.008193 -13271.900000 0 0 1
28.766776 -27.867695 -28.760262 49.308097 -0.769524 2.193553 0.057353 -0.014570 370030.000000 0 0 1
29.851376 -28.079755 -29.691492 50.607924 -0.754826 2.197770 0.050113 -0.013624 446829.000000 0 0 1
30.169876 -29.506745 -30.249512 51.922080 -0.774287 2.192713 0.066312 -0.008089 -374344.000000 0 0 1
30.656276 -30.537115 -29.369272 52.296049 -0.783451 2.167110 0.083946 -0.010869 1117100.000000 0 0 1
31.959376 -30.378865 -28.749752 52.638630 -0.760050 2.148584 0.079296 -0.009696 1096300.000000 0 0 1
33.222676 -30.192115 -29.600572 53.772705 -0.737645 2.153730 0.077821 -0.015941 -576670.000000 0 0 1
33.325576 -28.843465 -30.079092 53.360015 -0.713427 2.169656 0.087322 -0.025361 -20087.200000 0 0 1
34.583076 -28.606425 -30.679262 54.364821 -0.691096 2.170408 0.075953 -0.025833 80609.800000 0 0 1
34.793176 -27.187585 -31.380392 54.170646 -0.663300 2.188651 0.065507 -0.012880 -66854.000000 0 0 1
34.623476 -26.050375 -30.494892 52.984390 -0.645029 2.184067 0.059253 -0.006104 1568390.000000 0 0 1
33.218376 -25.722695 -30.203082 51.743054 -0.658905 2.194090 0.067352 -0.003291 1783510.000000 0 0 1
32.982076 -24.332565 -29.503702 50.501084 -0.635616 2.194714 0.067009 -0.005372 -427053.000000 0 0 1
33.652976 -24.275865 -28.259752 50.204123 -0.624917 2.168683 0.068130 -0.011077 166603.000000 0 0 1
33.762676 -22.892165 -27.850512 49.392515 -0.595829 2.169850 0.061995 -0.003593 -365978.000000 0 0 1
34.648776 -22.873265 -26.611502 49.314257 -0.583475 2.140795 0.064843 -0.009419 -292720.000000 0 0 1
34.133576 -23.464265 -25.380282 48.578096 -0.602236 2.120534 0.065005 -0.010001 170098.000000 0 0 1
33.150176 -22.785165 -24.622952 47.163414 -0.602173 2.120081 0.070680 0.000351 48728.200000 0 0 1
33.610576 -21.465165 -23.936652 46.512229 -0.568350 2.111374 0.068852 0.002273 -159792.000000 0 0 1
33.889676 -20.390165 -24.765452 46.664725 -0.541641 2.130235 0.068925 -0.002324 -75765.500000 0 0 1
34.058776 -19.169865 -24.100352 45.916347 -0.512653 2.123365 0.043264 -0.015242 117436.000000 0 0 1
34.301076 -18.027565 -25.097452 46.167510 -0.483893 2.145537 0.039611 -0.028866 492490.000000 0 0 1
33.084276 -17.757065 -25.783312 45.548456 -0.492592 2.172519 0.057756 -0.012373 381577.000000 0 0 1
33.052876 -16.553965 -26.461112 45.461157 -0.464314 2.192056 0.062912 -0.007327 -116787.000000 0 0 1
31.860476 -16.416865 -27.416572 45.125068 -0.475792 2.223792 0.040600 0.002119 -730282.000000 0 0 1
30.612176 -16.430665 -26.815362 43.887762 -0.492603 2.228118 0.042998 0.000516 -185703.000000 0 0 1
29.553976 -16.508365 -27.796812 43.802127 -0.509409 2.258287 0.029369 -0.009236 -320765.000000 0 0 1
28.215876 -16.312965 -27.147712 42.417529 -0.524197 2.265310 0.021140 -0.007063 -1075860.000000 0 0 1
27.779976 -17.307565 -26.272572 41.970548 -0.557176 2.247179 0.049990 0.000006 -93589.800000 0 0 1
27.710176 -16.762965 -24.963152 40.890216 -0.544043 2.227478 0.059143 0.003910 94961.500000 0 0 1
27.141676 -17.858465 -23.984352 40.383715 -0.581959 2.206708 0.068305 0.005077 -45269.100000 0 0 1
27.128276 -17.332065 -22.678552 39.378427 -0.568527 2.184517 0.079312 -0.004376 70831.900000 0 0 1
26.492876 -18.274965 -21.790952 38.867627 -0.603852 2.165961 0.081901 -0.013929 100084.000000 0 0 1
26.309576 -17.621965 -20.409152 37.673079 -0.590164 2.143306 0.096955 -0.018650 -41141.700000 0 0 1
25.292676 -16.644165 -20.243052 36.421543 -0.582022 2.160120 0.103771 -0.025603 -114099.000000 0 0 1
25.424976 -15.392865 -20.897452 36.332811 -0.544397 2.183605 0.096994 -0.016295 -618866.000000 0 0 1
26.628776 -14.554765 -20.486052 36.614358 -0.500214 2.164589 0.086221 -0.017527 -226809.000000 0 0 1
26.494076 -13.902665 -19.295052 35.602235 -0.483248 2.143566 0.095781 -0.027363 -74401.800000 0 0 1
27.526576 -12.952265 -19.191852 35.969441 -0.439800 2.133600 0.079194 -0.022838 -83702.500000 0 0 1
27.620976 -12.260165 -17.824552 35.084820 -0.417746 2.103706 0.092444 -0.020362 -1649.880000 0 0 1
28.095676 -13.034265 -16.750952 35.211553 -0.434373 2.066582 0.090576 -0.017259 166849.000000 0 0 1
27.964876 -12.266865 -15.560952 34.273218 -0.413377 2.042076 0.080699 -0.009634 -281385.000000 0 0 1
28.438976 -13.028665 -14.350552 34.415982 -0.429592 2.000909 0.102902 -0.018616 -357987.000000 0 0 1
27.601676 -14.006265 -13.757252 33.871669 -0.469584 1.989042 0.132952 -0.028726 -134905.000000 0 0 1
28.152176 -14.607665 -12.595652 34.125933 -0.478639 1.948830 0.139863 -0.033145 -279681.000000 0 0 1
27.395076 -15.884565 -12.169352 33.924957 -0.525459 1.937686 0.145179 -0.061048 -796408.000000 0 0 1
26.148876 -15.505065 -11.712652 32.578474 -0.535222 1.938551 0.126763 -0.050296 -637788.000000 0 0 1
25.316576 -16.608065 -11.373452 32.343658 -0.580592 1.930123 0.101942 -0.045544 -78128.700000 0 0 1
23.874576 -16.288465 -10.984152 30.918620 -0.598715 1.933989 0.117357 -0.052496 -314928.000000 0 0 1
23.770276 -15.908265 -9.674352 30.194238 -0.589789 1.896952 0.098120 -0.032341 74888.700000 0 0 1
22.409576 -15.806365 -9.301752 28.957777 -0.614301 1.897811 0.105040 -0.031962 -200435.000000 0 0 1
22.178176 -15.367265 -7.877652 28.108392 -0.605945 1.854861 0.087817 -0.021093 -452042.000000 0 0 1
22.387276 -14.029465 -7.654152 27.506400 -0.559800 1.852787 0.105682 -0.016992 270369.000000 0 0 1
22.218076 -13.599965 -6.319352 26.805525 -0.549278 1.808785 0.096262 -0.015815 -161874.000000 0 0 1
23.036376 -14.312965 -5.194052 27.613652 -0.555949 1.760021 0.087712 -0.016005 -1131300.000000 0 0 1
24.390976 -14.058865 -5.264952 28.640725 -0.522883 1.755675 0.116201 -0.025930 -727251.000000 0 0 1
25.012876 -14.874865 -4.300052 29.417614 -0.536505 1.717495 0.118086 -0.037831 1036780.000000 0 0 1
26.594176 -14.789165 -4.213252 30.720044 -0.507519 1.708380 0.123005 -0.033423 1327700.000000 0 0 1
27.152576 -13.633465 -3.595352 30.595102 -0.465331 1.688582 0.144695 -0.041713 -388881.000000 0 0 1
28.525976 -13.488665 -3.738552 31.775024 -0.441697 1.688726 0.146803 -0.057860 -475937.000000 0 0 1
29.124276 -12.137765 -3.207652 31.714946 -0.394869 1.672110 0.185703 -0.052591 -797983.000000 0 0 1
29.228876 -12.143965 -1.810152 31.702992 -0.393778 1.627925 0.200786 -0.054925 302278.000000 0 0 1
29.741976 -10.998865 -1.155652 31.731620 -0.354212 1.607224 0.199976 -0.044847 492813.000000 0 0 1
31.231076 -10.659265 -1.491452 33.033687 -0.328906 1.615961 0.234873 -0.048158 -151381.000000 0 0 1
31.406676 -10.159365 -2.811652 33.128498 -0.312855 1.655770 0.219920 -0.054258 -172983.000000 0 0 1
32.705576 -10.038865 -3.325852 34.372879 -0.297818 1.667706 0.242589 -0.056235 -405629.000000 0 0 1
32.632976 -9.512265 -4.746352 34.320870 -0.283634 1.709534 0.208067 -0.053824 -307079.000000 0 0 1
32.217476 -10.601365 -5.529952 34.364736 -0.317896 1.732418 0.192609 -0.050245 272332.000000 0 0 1
31.548276 -10.206565 -6.710252 33.830388 -0.312895 1.770470 0.182668 -0.047341 -179574.000000 0 0 1
30.429176 -11.211465 -7.045352 33.185368 -0.353011 1.784727 0.169170 -0.039429 -239914.000000 0 0 1
30.919576 -12.482065 -7.341452 34.142628 -0.383687 1.787512 0.174819 -0.043019 574524.000000 0 0 1
29.846776 -13.419265 -7.257752 33.519870 -0.422526 1.789046 0.167311 -0.041716 514462.000000 0 0 1
30.350676 -14.863465 -7.530352 34.623580 -0.455393 1.790041 0.168105 -0.034402 77510.200000 0 0 1
30.679676 -15.230165 -8.867852 35.381340 -0.460784 1.824134 0.190268 -0.049249 234561.000000 0 0 1
30.570576 -16.663465 -9.036752 35.970739 -0.499059 1.824742 0.168786 -0.041792 -25012.600000 0 0 1
30.787376 -17.146165 -10.479752 36.765183 -0.508142 1.859850 0.145356 -0.047330 -362352.000000 0 0 1
32.104576 -17.041265 -10.952152 37.961271 -0.487987 1.863465 0.158992 -0.036795 -23660.600000 0 0 1
32.297576 -17.536365 -12.288452 38.751304 -0.497424 1.893478 0.138967 -0.029374 -210662.000000 0 0 1
31.743876 -16.670765 -13.447452 38.293890 -0.483576 1.929611 0.137915 -0.033089 -547935.000000 0 0 1
32.493976 -15.579165 -13.824552 38.596465 -0.447071 1.937116 0.127945 -0.035001 -414029.000000 0 0 1
31.891976 -14.817565 -14.834152 38.166876 -0.434943 1.969979 0.110898 -0.027662 -628147.000000 0 0 1
32.775976 -13.726565 -15.508752 38.771182 -0.396607 1.982321 0.102464 -0.019113 438046.000000 0 0 1
33.830876 -14.185965 -16.345752 40.161591 -0.397050 1.989963 0.072162 -0.027870 886555.000000 0 0 1
35.069676 -14.496665 -15.694352 41.065169 -0.391977 1.962952 0.087291 -0.032156 57439.300000 0 0 1
36.104376 -14.945765 -16.735452 42.508554 -0.392483 1.975445 0.093182 -0.036890 6002.790000 0 0 1
37.452076 -15.083565 -16.333752 43.554143 -0.382869 1.955217 0.102132 -0.043214 487052.000000 0 0 1
-37.266514 -15.471165 -17.421052 43.950462 0.393497 1.978366 0.110138 -0.044698 587449.000000 0 0 1
-35.741014 -15.480265 -17.132852 42.551067 0.408731 1.985198 0.134018 -0.051751 517931.000000 0 0 1
-35.178014 -16.405965 -16.171952 42.049737 0.436383 1.965561 0.132576 -0.056023 108172.000000 0 0 1
-35.266814 -15.867965 -14.869152 41.432260 0.422804 1.937863 0.126512 -0.051561 -139254.000000 0 0 1
-34.774014 -16.880465 -13.780652 41.037648 0.451926 1.913256 0.116507 -0.047971 847138.000000 0 0 1
-33.358714 -17.081965 -13.671052 39.893546 0.473256 1.920573 0.138986 -0.048399 595277.000000 0 0 1
-32.977014 -17.559865 -12.407252 39.367147 0.489299 1.891430 0.138217 -0.026716 -43402.300000 0 0 1
-31.532714 -18.093265 -12.335152 38.390549 0.520927 1.897906 0.182295 -0.026945 55949.600000 0 0 1
-30.574314 -17.075865 -12.621552 37.224688 0.509348 1.916718 0.177869 -0.050552 -153858.000000 0 0 1
-29.433814 -17.083765 -11.809252 36.023088 0.525893 1.904796 0.177380 -0.044233 -413175.000000 0 0 1
-29.576514 -16.432465 -10.431152 35.406285 0.507126 1.869847 0.190581 -0.052548 -209781.000000 0 0 1
-30.442714 -17.222365 -9.618252 36.275053 0.514840 1.839154 0.175785 -0.044017 37836.100000 0 0 1
-30.953214 -16.442365 -8.564052 36.080408 0.488295 1.810444 0.189492 -0.045953 -515507.000000 0 0 1
-31.544114 -17.367465 -7.530652 36.788187 0.503286 1.776957 0.169554 -0.025975 -103964.000000 0 0 1
-32.802514 -17.961765 -7.766552 38.196194 0.500978 1.775557 0.131684 -0.019369 -243892.000000 0 0 1
-32.908914 -18.889165 -8.834352 38.959504 0.521070 1.799543 0.126760 -0.013004 -521603.000000 0 0 1
-34.263014 -19.572865 -9.132952 40.502617 0.519014 1.798243 0.090759 -0.003428 592348.000000 0 0 1
-35.238714 -18.715965 -9.761452 41.077248 0.488232 1.810728 0.100976 0.000031 1250010.000000 0 0 1
-36.390714 -19.482065 -10.194952 42.517902 0.491532 1.812936 0.095602 -0.015472 1250320.000000 0 0 1
-37.525014 -18.645165 -10.878952 43.291113 0.461143 1.824817 0.092667 -0.038195 148752.000000 0 0 1
-37.419514 -18.547265 -12.281152 43.532146 0.460168 1.856796 0.085216 -0.041606 -607402.000000 0 0 1
37.170876 -17.706465 -12.732052 43.096381 -0.444552 1.870704 0.099114 -0.041961 -676826.000000 0 0 1
36.709876 -18.025065 -14.200652 43.291760 -0.456433 1.905005 0.094704 -0.048681 384810.000000 0 0 1
35.759376 -19.096365 -14.162852 42.941710 -0.490495 1.906905 0.066577 -0.041593 242788.000000 0 0 1
35.180276 -19.314265 -15.434052 42.998867 -0.502082 1.937929 0.055095 -0.037030 76760.900000 0 0 1
33.944876 -20.243165 -15.485152 42.447971 -0.537734 1.944218 0.080864 -0.045608 -872154.000000 0 0 1
32.841876 -19.707465 -14.814552 41.066336 -0.540472 1.939865 0.099916 -0.040323 89669.600000 0 0 1
31.654276 -20.450965 -15.133252 40.610965 -0.573609 1.952648 0.133799 -0.044090 582662.000000 0 0 1
30.929276 -20.071465 -16.467252 40.381359 -0.575635 1.990832 0.142504 -0.053010 -793789.000000 0 0 1
30.354676 -18.785965 -16.384252 39.278016 -0.554188 2.001087 0.135291 -0.047330 -229993.000000 0 0 1
29.462276 -18.610865 -17.427452 38.962881 -0.563392 2.034522 0.119550 -0.044546 -86297.300000 0 0 1
28.565276 -17.340665 -17.301152 37.629822 -0.545590 2.048535 0.116190 -0.030080 880983.000000 0 0 1
27.493276 -17.406565 -16.340452 36.412623 -0.564418 2.036171 0.145227 -0.039280 262121.000000 0 0 1
26.839976 -16.220865 -16.047752 35.228271 -0.543615 2.043771 0.111657 -0.029928 -1477730.000000 0 0 1
25.501476 -16.521965 -15.382952 34.057830 -0.574885 2.039434 0.105437 -0.025266 720997.000000 0 0 1
24.383076 -16.946265 -16.218852 33.834323 -0.607363 2.070723 0.098758 -0.032548 977187.000000 0 0 1
23.937076 -16.000565 -17.157652 33.516961 -0.589231 2.108203 0.100359 -0.023409 -395296.000000 0 0 1
22.892176 -16.678365 -18.142952 33.636086 -0.629639 2.140508 0.089466 -0.027028 1327120.000000 0 0 1
21.630076 -16.911665 -17.488452 32.553196 -0.663581 2.137942 0.073106 -0.018465 322948.000000 0 0 1
20.635876 -17.367765 -18.362652 32.629214 -0.699615 2.168526 0.065479 -0.026855 -492980.000000 0 0 1
19.221476 -17.500865 -17.842552 31.529384 -0.738578 2.172324 0.060625 -0.019262 -300169.000000 0 0 1
18.434776 -16.308165 -17.892452 30.429214 -0.724265 2.199383 0.064332 -0.020143 347518.000000 0 0 1
17.114676 -16.652865 -17.504852 29.608274 -0.771723 2.203361 0.067673 -0.021154 -160164.000000 0 0 1
16.107976 -15.553565 -17.240952 28.260055 -0.767889 2.226960 0.084811 -0.022668 -282709.000000 0 0 1
15.631876 -14.842865 -18.380952 28.328882 -0.759513 2.276857 0.093170 -0.025641 -237758.000000 0 0 1
14.445576 -14.200065 -17.992252 27.093129 -0.776828 2.297071 0.108295 -0.024430 211276.000000 0 0 1
13.603776 -13.887165 -19.313952 27.403372 -0.795706 2.352940 0.095418 -0.025175 335335.000000 0 0 1
14.070476 -12.844965 -20.143452 27.725982 -0.739898 2.384039 0.119409 -0.030086 -466310.000000 0 0 1
13.241776 -12.686565 -21.269052 28.083200 -0.763988 2.430055 0.130650 -0.024213 228018.000000 0 0 1
13.486876 -11.287865 -21.890852 28.080618 -0.696870 2.464778 0.144929 -0.026941 442625.000000 0 0 1
14.751976 -11.009565 -22.504752 29.073960 -0.641136 2.456012 0.132228 -0.024491 147233.000000 0 0 1
14.883176 -9.681665 -22.945752 29.012947 -0.576734 2.483042 0.121327 -0.037383 -197233.000000 0 0 1
16.332276 -9.354365 -23.320152 29.967930 -0.520144 2.462543 0.106163 -0.030321 -184784.000000 0 0 1
16.607376 -9.649165 -24.629552 31.233414 -0.526344 2.479267 0.143715 -0.029996 -20755.500000 0 0 1
17.933576 -9.233165 -24.875752 32.026044 -0.475460 2.460262 0.129546 -0.035815 -67331.000000 0 0 1
22.080176 5.646235 -7.339452 23.943301 0.250350 1.882347 0.180832 0.022878 -111991.000000 0 1 0
21.703376 7.017135 -7.526552 24.019277 0.312712 1.889520 0.187191 0.006344 592757.000000 0 1 0
21.757376 7.745035 -6.359952 23.954498 0.341986 1.839520 0.196950 0.007499 -264414.000000 0 1 0
21.303976 9.225135 -6.442552 24.092924 0.408647 1.841495 0.156998 0.020628 -376463.000000 0 1 0
19.963976 9.518035 -6.762352 23.127532 0.444884 1.867526 0.058091 -0.013691 333135.000000 0 1 0
19.484076 10.809735 -6.454852 23.197946 0.506520 1.852769 0.055203 -0.009948 -473379.000000 0 1 0
19.347776 11.316635 -5.028852 22.971548 0.529247 1.791500 0.106462 -0.012507 -30598.600000 0 1 0
20.500876 11.491935 -4.183052 23.871498 0.510913 1.746938 0.134638 -0.008712 413350.000000 0 1 0
21.278076 12.606035 -4.535352 25.144344 0.534844 1.752162 0.199006 -0.026505 -15367.400000 0 0 1
22.393176 12.969935 -3.538552 26.118861 0.524979 1.706693 0.175197 -0.038505 -168426.000000 0 0 1
23.417276 12.060835 -3.289652 26.545326 0.475607 1.695042 0.161971 -0.063811 52943.600000 0 0 1
24.178876 12.420735 -2.151152 27.267566 0.474549 1.649769 0.161662 -0.067481 -210397.000000 0 0 1
25.108676 11.373635 -1.581352 27.609887 0.425326 1.628103 0.157365 -0.063391 -812745.000000 0 0 1
26.253576 11.136235 -2.337152 28.613428 0.401176 1.652568 0.128614 -0.043324 -539506.000000 0 0 1
27.006776 10.155735 -1.646452 28.900099 0.359686 1.627798 0.179769 -0.046968 -462545.000000 0 0 1
28.463976 10.073635 -2.103852 30.267181 0.340152 1.640362 0.167921 -0.046819 -529517.000000 0 0 1
29.150976 11.257835 -1.779052 31.299892 0.368545 1.627666 0.142523 -0.057844 372596.000000 0 0 1
30.529076 11.086135 -2.132752 32.549585 0.348327 1.636366 0.129833 -0.052528 851889.000000 0 0 1
31.476476 12.191835 -1.575852 33.791903 0.369538 1.617447 0.098976 -0.047178 -638508.000000 0 0 1
31.511276 12.140335 -0.114052 33.769235 0.367744 1.574174 0.140348 -0.057946 115680.000000 0 0 1
32.496976 13.006135 0.396348 35.005286 0.380701 1.559474 0.123299 -0.053510 -330258.000000 0 0 1
33.940976 12.526335 0.272448 36.179734 0.353555 1.563266 0.128009 -0.055258 -487144.000000 0 0 1
34.971276 13.471835 0.586848 37.480993 0.367705 1.555138 0.126661 -0.065296 482894.000000 0 0 1
35.741876 13.906435 -0.517852 38.355427 0.371057 1.584298 0.134347 -0.042699 -148662.000000 0 0 1
35.189776 15.136035 -1.295652 38.328822 0.406204 1.604606 0.089430 -0.016376 -339725.000000 0 0 1
34.106876 14.841335 -2.129352 37.256923 0.410430 1.627981 0.089108 -0.013894 -598509.000000 0 0 1
33.515976 15.971535 -2.632852 37.220189 0.444700 1.641593 0.064647 0.007070 -708089.000000 0 0 1
32.196176 15.685035 -3.328852 35.967976 0.453332 1.663479 0.080993 -0.014391 -1257600.000000 0 0 1
32.329876 14.788235 -4.413552 35.824464 0.429005 1.694310 0.050848 -0.013054 541244.000000 0 0 1
31.212276 14.828035 -5.310152 34.961042 0.443506 1.723274 0.043805 -0.022533 1353570.000000 0 0 1
29.868776 14.221835 -4.722952 33.417221 0.444381 1.712604 0.065652 -0.035876 -878217.000000 0 0 1
28.800776 14.224635 -5.573252 32.601933 0.458754 1.742589 0.098172 -0.041889 -710797.000000 0 0 1
27.881176 13.290635 -5.012852 31.291047 0.444825 1.731690 0.103477 -0.025572 -386338.000000 0 0 1
26.725476 12.975235 -5.951652 30.299009 0.451981 1.768513 0.091193 -0.024349 -802375.000000 0 0 1
27.138176 12.252035 -7.093552 30.609009 0.424075 1.804670 0.087270 -0.006075 235735.000000 0 0 1
26.149976 12.015535 -8.080552 29.891297 0.430714 1.844533 0.107229 0.002127 -17691.200000 0 0 1
25.706476 13.310935 -8.844252 30.269203 0.477790 1.867309 0.118691 0.005370 -440986.000000 0 0 1
24.892276 14.186735 -8.137252 29.784286 0.518012 1.847521 0.116701 -0.021553 -661680.000000 0 0 1
24.766176 15.375735 -8.880352 30.473551 0.555599 1.866499 0.104261 -0.028293 -1003420.000000 0 0 1
23.550476 16.211635 -8.388852 29.796222 0.602883 1.856196 0.097295 -0.019400 485985.000000 0 0 1
22.270676 15.688535 -8.698252 28.596726 0.613705 1.879863 0.131267 -0.041259 308198.000000 0 0 1
21.937476 14.386335 -8.193152 27.483581 0.580433 1.873509 0.161509 -0.048484 -698998.000000 0 0 1
20.409076 14.072235 -8.406552 26.176865 0.603650 1.897734 0.193974 -0.045285 964357.000000 0 0 1
19.536676 14.528535 -7.393752 25.444599 0.639428 1.865632 0.246167 -0.076092 -193584.000000 0 0 1
18.180376 14.403735 -7.704252 24.440727 0.670009 1.891487 0.247029 -0.075363 -722245.000000 0 1 0
17.324376 14.934035 -6.569652 23.797473 0.711434 1.850494 0.237045 -0.050480 -509274.000000 0 1 0
17.194876 14.037935 -5.511052 22.871359 0.684663 1.814150 0.203562 -0.052103 305430.000000 0 1 0
16.522776 14.639035 -4.442852 22.517602 0.725021 1.769405 0.172913 -0.036280 -118569.000000 0 1 0
16.235976 13.706435 -3.251952 21.495313 0.701118 1.722666 0.120241 -0.020644 85047.900000 0 1 0
17.428576 13.224735 -2.651852 22.038176 0.649107 1.691419 0.114477 -0.020183 469202.000000 0 1 0
17.186776 12.493635 -1.427352 21.295857 0.628574 1.637871 0.101644 -0.016851 54183.400000 0 1 0
17.104076 13.330535 -0.110952 21.685592 0.662039 1.575913 0.113066 -0.015877 -696971.000000 0 1 0
15.938876 14.081635 -0.043752 21.268336 0.723611 1.572853 0.099210 -0.017496 -184583.000000 0 1 0
15.927176 14.840435 1.130748 21.798900 0.750092 1.518901 0.090733 -0.012486 -1199200.000000 0 1 0
14.623076 15.532535 1.328748 21.374273 0.815548 1.508590 0.084197 -0.007732 -1377380.000000 0 1 0
14.571476 16.664035 0.521748 22.142497 0.852291 1.547231 0.097145 -0.008321 -1131270.000000 0 1 0
13.449676 17.367635 0.771248 21.980067 0.911855 1.535701 0.067924 -0.015155 -1550380.000000 0 1 0
13.414076 18.729135 0.204848 23.038227 0.949271 1.561905 0.064318 -0.018570 -465721.000000 0 1 0
13.070476 18.764335 -1.154252 22.896941 0.962383 1.621228 0.067134 -0.025489 -195242.000000 0 1 0
12.802676 20.123235 -1.448452 23.894583 1.004174 1.631452 0.075997 -0.018748 -235951.000000 0 1 0
11.311576 20.491635 -1.446752 23.451054 1.066412 1.632528 0.065944 -0.017680 -194059.000000 0 1 0
10.855376 20.520735 -0.092652 23.215261 1.084222 1.574787 0.048797 -0.015664 -996831.000000 0 1 0
9.466876 20.453735 -0.045252 22.538391 1.137313 1.572804 0.044947 -0.017932 -527381.000000 0 1 0
8.870476 20.339835 1.378648 22.232744 1.159550 1.508747 0.021699 -0.020241 47218.300000 0 1 0
8.887276 21.524835 2.160548 23.387393 1.179232 1.478284 0.025656 -0.013153 -48177.000000 0 1 0
7.854576 21.550735 3.112648 23.147724 1.221290 1.435919 0.023561 -0.021705 -87201.400000 0 1 0
7.532076 23.020135 3.433948 24.463254 1.254580 1.429960 0.029635 -0.018498 -79856.000000 0 1 0
8.107076 23.492035 4.598048 25.273354 1.238494 1.387845 0.041178 -0.025958 -40931.200000 0 0 1
7.908176 24.903135 4.650948 26.539342 1.263311 1.394639 0.039437 -0.025721 -3638.670000 0 0 1
8.154876 25.497535 6.064748 27.448269 1.261248 1.348006 0.047782 -0.032871 136775.000000 0 0 1
7.395776 24.818035 7.078748 26.846621 1.281175 1.303968 0.041315 -0.026750 209058.000000 0 0 1
7.793976 25.166035 8.399348 27.651843 1.270462 1.262166 0.049410 -0.015547 -388905.000000 0 0 1
7.391876 24.243835 9.576748 27.094602 1.274853 1.209533 0.050921 -0.022416 689485.000000 0 0 1
6.002676 24.197535 9.923648 26.833405 1.327635 1.191976 0.060390 -0.023929 717493.000000 0 0 1
5.566576 23.139735 10.735248 26.108996 1.334719 1.147059 0.057937 -0.034891 -637268.000000 0 0 1
4.217276 23.304835 11.413848 26.290239 1.391772 1.121704 0.040311 -0.027792 -317403.000000 0 0 1
3.117676 23.349235 10.511548 25.795335 1.438058 1.151084 0.038390 -0.024174 -652894.000000 0 0 1
1.967676 23.650135 11.210148 26.246296 1.487788 1.129498 0.042834 -0.020094 -438401.000000 0 0 1
0.743676 23.932935 10.279948 26.057931 1.539733 1.165269 0.062400 -0.017907 -53940.800000 0 0 1
0.853776 25.171135 9.562448 26.939848 1.536890 1.207930 0.064944 -0.023866 225196.000000 0 0 1
-0.095224 25.227935 8.515348 26.626470 -1.567022 1.245270 0.061742 -0.021539 1274200.000000 0 0 1
-1.550524 25.724535 8.883248 27.259272 -1.510595 1.238854 0.075405 -0.029109 174097.000000 0 0 1
-2.318724 24.910035 9.669448 26.821345 -1.477980 1.201978 0.065884 -0.023577 218630.000000 0 0 1
-3.653624 25.443935 9.564548 27.426691 -1.428176 1.214579 0.077808 -0.025542 608991.000000 0 0 1
-4.763324 24.509735 10.145248 26.950741 -1.378845 1.184849 0.072449 -0.030116 123255.000000 0 0 1
-4.929324 24.525535 11.547848 27.552729 -1.372451 1.138323 0.049086 -0.017666 243316.000000 0 0 1
-5.654924 25.659535 12.032248 28.899220 -1.353881 1.141367 0.062141 -0.018452 -97477.300000 0 0 1
-5.968624 25.578035 13.558848 29.558463 -1.341549 1.094250 0.031089 -0.011816 93207.800000 0 0 1
-6.979324 24.606035 13.799948 29.062114 -1.294413 1.076010 0.037686 -0.014749 186547.000000 0 0 1
-7.271724 24.539835 15.207148 29.771443 -1.282716 1.034685 0.032275 -0.007840 323794.000000 0 0 1
-8.491524 23.634735 15.537348 29.531608 -1.225877 1.016758 0.039459 -0.009640 742893.000000 0 0 1
-9.773324 24.129635 15.151048 30.121610 -1.185958 1.043735 0.045602 -0.004234 679556.000000 0 0 1
-10.787724 23.140235 15.425048 29.829140 -1.134561 1.027321 0.049481 -0.011384 620815.000000 0 0 1
-12.210824 23.650635 15.107848 30.605618 -1.094194 1.054538 0.052258 -0.013907 19463.000000 0 0 1
-12.627624 24.655835 16.014748 31.997488 -1.097472 1.046620 0.063003 -0.020159 -62538.900000 0 0 1
-13.735424 25.345335 15.484048 32.723136 -1.074169 1.077895 0.047431 -0.015711 -185803.000000 0 0 1
-14.442224 26.380735 16.360148 34.237048 -1.069910 1.072592 0.048469 -0.017772 -931697.000000 0 0 1
-15.541624 25.997135 17.068148 34.766576 -1.031981 1.057633 0.050507 -0.024776 -652179.000000 0 0 1
-16.096324 26.989135 17.954548 36.192138 -1.033028 1.051707 0.055905 -0.029283 -33759.700000 0 0 1
-17.392724 26.556435 18.646848 36.816519 -0.990960 1.039698 0.047167 -0.035444 252967.000000 0 0 1
-18.554024 26.789035 17.871348 37.165701 -0.965056 1.069166 0.040236 -0.035432 12584.600000 0 0 1
-19.728524 26.136135 18.269748 37.497946 -0.924207 1.061893 0.054753 -0.034259 168529.000000 0 0 1
-20.955024 26.335535 17.360648 37.869058 -0.898687 1.094559 0.074954 -0.038435 -194480.000000 0 0 1
-21.564524 27.606835 17.485548 39.152400 -0.907668 1.107832 0.053257 -0.035355 92182.000000 0 0 1
-22.438824 27.842035 16.411148 39.344701 -0.892448 1.140531 0.078937 -0.034625 -494612.000000 0 0 1
-23.413024 29.018935 16.561748 40.799017 -0.891911 1.152795 0.076204 -0.033713 127996.000000 0 0 1
-24.586924 28.740835 17.337548 41.607007 -0.863135 1.140987 0.076163 -0.034663 672094.000000 0 0 1
-25.506934 29.801235 17.064348 42.777439 -0.862886 1.160468 0.081823 -0.030608 916561.000000 0 0 1
-26.972164 29.646835 17.635048 43.788439 -0.832603 1.156296 0.086218 -0.027536 583678.000000 0 0 1
-27.757864 28.892235 16.718648 43.413978 -0.805420 1.175482 0.123894 -0.028358 640476.000000 0 0 1
-29.130804 28.729535 17.099048 44.343741 -0.778463 1.174936 0.164996 -0.029771 812069.000000 0 0 1
-29.525854 27.831435 18.282248 44.503994 -0.755865 1.147465 0.145565 -0.025176 -648609.000000 0 0 1
-29.588144 26.433535 17.920448 43.535417 -0.729147 1.146555 0.177887 -0.038215 194947.000000 0 0 1
-30.055294 25.662635 19.033648 43.865377 -0.706723 1.121968 0.163930 -0.037765 48522.000000 0 0 1
-30.161654 24.170435 18.663648 42.921639 -0.675572 1.120946 0.156201 -0.046132 202148.000000 0 0 1
-31.277764 23.911635 17.814548 43.213689 -0.652712 1.145882 0.178928 -0.044394 155218.000000 0 0 1
-31.050744 22.906635 16.798348 42.083811 -0.635593 1.160191 0.171993 -0.039547 -397529.000000 0 0 1
-31.754544 21.534635 16.970348 41.953359 -0.595917 1.154359 0.158567 -0.029163 -448257.000000 0 0 1
-33.119304 21.520735 16.687048 42.877592 -0.576231 1.171056 0.160048 -0.025880 -565666.000000 0 0 1
-33.560194 20.162835 16.744448 42.581723 -0.541005 1.166653 0.126327 -0.019899 555052.000000 0 0 1
-34.989298 19.857635 16.200248 43.370781 -0.516206 1.187986 0.126301 -0.025584 365372.000000 0 0 1
-35.116682 19.920235 14.772348 42.990922 -0.515997 1.220032 0.112741 -0.026766 -257638.000000 0 0 1
-36.383774 19.543635 14.295048 43.704475 -0.492926 1.237580 0.119575 -0.031340 -68823.300000 0 0 1
-36.559944 19.813935 12.806248 43.511166 -0.496648 1.272051 0.125681 -0.028453 68126.700000 0 0 1
-36.703204 21.189435 12.464648 44.175613 -0.523575 1.284750 0.139164 -0.036426 -119175.000000 0 0 1
-36.991504 21.498235 11.106748 44.203002 -0.526456 1.316807 0.095034 -0.033016 -168539.000000 0 0 1
-35.915252 21.226635 10.048848 42.912175 -0.533790 1.334429 0.115141 -0.032081 -375726.000000 0 0 1
-35.989134 19.942235 9.485448 42.224214 -0.505999 1.344218 0.143675 -0.030319 301036.000000 0 0 1
-34.800824 19.542235 8.801148 40.871219 -0.511664 1.353758 0.155798 -0.027688 810145.000000 0 0 1
-33.843514 18.614635 9.638448 39.809393 -0.502859 1.326251 0.119276 -0.021058 728562.000000 0 0 1
-32.992744 19.193635 10.651048 39.627789 -0.526895 1.298673 0.131460 -0.023329 614159.000000 0 0 1
-32.322624 18.227135 11.447648 38.833351 -0.513462 1.271562 0.122814 -0.024494 185902.000000 0 0 1
-31.759424 18.828535 12.733148 39.055189 -0.535145 1.238696 0.103204 -0.001744 222847.000000 0 0 1
-30.606754 19.630335 12.681648 38.509059 -0.570286 1.235217 0.125962 -0.009641 205448.000000 0 0 1
-31.034264 21.015035 12.885148 39.633121 -0.595229 1.239668 0.157089 -0.017475 1041900.000000 0 0 1
-29.813194 21.941635 13.239848 39.313553 -0.634462 1.227306 0.161811 -0.023091 661803.000000 0 0 1
-29.262444 21.687635 14.527748 39.213513 -0.637808 1.191273 0.147314 -0.020285 -779305.000000 0 0 1
-28.081974 22.409535 14.626148 38.790575 -0.673523 1.184183 0.164408 -0.029135 -692075.000000 0 0 1
-27.395514 22.115435 15.984148 38.666519 -0.679155 1.144628 0.137871 -0.032032 -349175.000000 0 0 1
-26.682544 20.930335 16.127348 37.551677 -0.665169 1.126890 0.142069 -0.027973 -109390.000000 0 0 1
-26.144274 20.833335 17.432248 37.701912 -0.672824 1.090130 0.130850 -0.024776 327922.000000 0 0 1
-25.244204 19.574835 17.694748 36.517778 -0.659572 1.064946 0.128703 -0.026422 282296.000000 0 0 1
-24.625224 19.544435 18.951348 36.708857 -0.670873 1.028317 0.122198 -0.027182 237379.000000 0 0 1
-23.744624 18.427935 19.085548 35.604131 -0.659990 1.005047 0.110924 -0.023756 220010.000000 0 0 1
-23.074024 18.401035 20.470548 35.917294 -0.673201 0.964369 0.104141 -0.024762 -34136.800000 0 0 1
-23.834524 17.761835 21.466748 36.665905 -0.640431 0.945338 0.123766 -0.011653 325389.000000 0 0 1
-23.293624 18.027535 22.770448 37.230072 -0.658639 0.912697 0.122369 -0.016978 367363.000000 0 0 1
-24.134624 17.244535 23.826548 38.046793 -0.620401 0.894071 0.139042 -0.011465 339797.000000 0 0 1
-23.789124 15.873735 23.812448 37.214655 -0.588419 0.876471 0.128837 -0.017266 508729.000000 0 0 1
-24.521724 15.294435 24.897548 38.146069 -0.557671 0.859667 0.142487 -0.021084 380387.000000 0 0 1
21.593376 23.808935 33.394560 46.350145 0.834158 0.766296 0.123101 -0.033003 77384.500000 0 0 1
22.603876 23.252135 32.577295 45.966043 0.799534 0.783107 0.143036 -0.038132 -88248.400000 0 0 1
22.855376 21.838435 32.765467 45.528686 0.762649 0.767475 0.148600 -0.039665 -61906.300000 0 0 1
21.853776 20.773435 32.211125 44.121193 0.760060 0.752386 0.118288 -0.042777 -352072.000000 0 0 1
21.924576 20.458335 30.837357 43.013639 0.750817 0.771421 0.142980 -0.040936 247918.000000 0 0 1
20.967676 19.492335 30.379077 41.743058 0.748950 0.755741 0.154838 -0.049755 221045.000000 0 0 1
21.367476 18.950735 29.020387 40.717100 0.725528 0.777411 0.153096 -0.037376 650324.000000 0 0 1
22.556276 18.146435 29.107197 41.052498 0.677476 0.782683 0.146921 -0.035034 409843.000000 0 0 1
22.844176 17.534435 27.882487 40.084235 0.654650 0.801545 0.128253 -0.039626 -164992.000000 0 0 1
23.956376 16.475835 28.050237 40.400209 0.602452 0.803337 0.146232 -0.037501 809615.000000 0 0 1
25.261176 17.081535 28.104137 41.469849 0.594572 0.826165 0.156804 -0.029184 407097.000000 0 0 1
26.178976 16.257335 28.804307 42.182080 0.555723 0.819131 0.140269 -0.015875 1389400.000000 0 0 1
27.579976 17.025035 28.930497 43.445144 0.553041 0.842085 0.104429 -0.027020 965653.000000 0 0 1
28.312076 17.237035 27.752117 43.230418 0.546882 0.873747 0.109466 -0.012203 819932.000000 0 0 1
29.601376 17.794535 28.119827 44.537755 0.541256 0.887477 0.095993 -0.004189 1003490.000000 0 0 1
30.707276 17.554235 27.089777 44.552710 0.519323 0.917208 0.088831 0.006296 -206604.000000 0 0 1
30.780276 18.488235 26.001027 44.331632 0.540899 0.944051 0.109758 -0.001666 163133.000000 0 0 1
31.698476 18.127535 24.974297 44.239309 0.519482 0.970936 0.100528 -0.002219 -202406.000000 0 0 1
32.044176 19.199235 23.999967 44.400881 0.539794 0.999730 0.117158 -0.014778 784917.000000 0 0 1
30.884876 19.611135 23.225377 43.334632 0.565740 1.005159 0.111359 -0.019214 967778.000000 0 0 1
31.228076 20.617135 22.313087 43.567566 0.583520 1.033111 0.098256 -0.023576 -235352.000000 0 0 1
31.806376 20.190235 20.957287 43.110312 0.565605 1.063139 0.108653 -0.023750 -292680.000000 0 0 1
31.083476 19.171235 20.302487 41.784084 0.552656 1.063415 0.113723 -0.034193 138493.000000 0 0 1
31.623876 18.911335 18.987487 41.451572 0.538954 1.094980 0.120471 -0.035210 1394290.000000 0 0 1
32.956776 18.026435 19.010887 42.101250 0.500516 1.102293 0.150690 -0.050053 1025890.000000 0 0 1
32.653476 16.668135 19.373487 41.465747 0.471977 1.084656 0.163180 -0.047524 517649.000000 0 0 1
33.787076 15.805135 19.322087 42.008473 0.437546 1.092850 0.151180 -0.037790 -380129.000000 0 0 1
33.397676 14.346935 19.650387 41.320419 0.405743 1.075194 0.151035 -0.032843 421396.000000 0 0 1
32.737876 14.085235 20.900187 41.315617 0.406303 1.040410 0.129119 -0.043023 1523250.000000 0 0 1
31.466776 14.724235 21.176287 40.686561 0.437664 1.023391 0.125283 -0.027892 1022120.000000 0 0 1
30.670276 14.307935 22.502177 40.641491 0.436497 0.984025 0.102499 -0.023236 674944.000000 0 0 1
30.157176 12.984035 22.457887 39.779355 0.406558 0.970895 0.103518 -0.019034 -27295.500000 0 0 1
29.212076 12.783435 23.483007 39.600672 0.412501 0.936023 0.092928 -0.008159 4502.630000 0 0 1
28.599676 11.388435 23.570047 38.770930 0.378955 0.917344 0.107706 -0.010555 523138.000000 0 0 1
27.523076 11.241135 22.622817 37.358730 0.387749 0.920331 0.122475 -0.005378 386329.000000 0 0 1
27.223676 9.843435 22.581237 36.714221 0.346950 0.908342 0.111033 -0.003539 264327.000000 0 0 1
26.126476 9.366935 21.588787 35.162593 0.344247 0.909716 0.110462 -0.020189 -86707.900000 0 0 1
24.806876 9.780835 21.831187 34.462248 0.375565 0.884752 0.111925 -0.013582 121438.000000 0 0 1
23.993076 9.166435 20.816587 33.060876 0.364933 0.889701 0.114059 -0.017399 458589.000000 0 0 1
22.457276 9.292135 21.017187 32.130907 0.392320 0.857789 0.087059 -0.015901 345339.000000 0 0 1
21.971776 8.630135 22.175287 32.387984 0.374269 0.816637 0.067562 -0.009181 242299.000000 0 0 1
20.565976 8.480635 22.156987 31.397653 0.391118 0.787401 0.096283 -0.012468 158939.000000 0 0 1
19.913076 7.855935 23.442727 31.745988 0.375766 0.740032 0.088033 -0.013574 37.702900 0 0 1
20.007776 6.460735 23.484007 31.520641 0.312341 0.730208 0.079457 -0.015610 181071.000000 0 0 1
19.747376 5.957535 24.735437 32.207032 0.293004 0.695063 0.088790 -0.024999 -266324.000000 0 0 1
20.046876 4.408735 24.941807 32.301825 0.216475 0.688581 0.075678 -0.025036 -346840.000000 0 0 1
21.353576 3.991035 24.635767 32.845465 0.184771 0.722657 0.070860 -0.023825 -118943.000000 0 0 1
21.540376 2.538735 24.764137 32.919530 0.117318 0.719307 0.069324 -0.031991 -558706.000000 0 0 1
22.982676 2.111835 24.548007 33.693737 0.091631 0.754575 0.069025 -0.022231 -320933.000000 0 0 1
23.853276 2.602735 25.551797 35.052066 0.108684 0.753985 0.067756 -0.033025 714982.000000 0 0 1
25.244976 2.314135 25.378747 35.871226 0.091412 0.784848 0.086967 -0.032454 734695.000000 0 0 1
26.100276 2.902935 26.504737 37.311560 0.110767 0.780783 0.078313 -0.032603 -1039550.000000 0 0 1
26.024076 2.174935 27.689457 38.061646 0.083380 0.756140 0.083259 -0.037235 168768.000000 0 0 1
26.863476 2.665935 28.703627 39.403702 0.098916 0.754740 0.089137 -0.022424 1200770.000000 0 0 1
28.428776 2.795535 28.521887 40.367169 0.098020 0.786169 0.082470 -0.027550 70827.600000 0 0 1
28.763876 3.900135 27.679137 40.108680 0.134770 0.809164 0.090041 -0.022776 108071.000000 0 0 1
30.155876 4.014535 27.407737 40.947251 0.132348 0.837473 0.089546 -0.013531 421674.000000 0 0 1
30.691676 2.984535 26.399847 40.593575 0.096938 0.862757 0.107056 -0.013520 -696797.000000 0 0 1
30.435076 3.336935 25.079877 39.578141 0.109205 0.884495 0.091649 -0.009037 56565.500000 0 0 1
30.544376 2.222735 24.171747 39.015033 0.072643 0.902628 0.111426 0.000837 -315750.000000 0 0 1
30.241676 2.558935 22.670227 37.882005 0.084415 0.929240 0.112040 -0.006701 321557.000000 0 0 1
31.060076 3.576535 22.085287 38.278974 0.114644 0.955799 0.127766 -0.013889 84940.300000 0 0 1
32.438376 3.323035 21.920487 39.291202 0.102085 0.978945 0.113466 -0.014327 129143.000000 0 0 1
33.221676 4.511635 21.294587 39.717679 0.134978 1.004928 0.122623 -0.013779 -168143.000000 0 0 1
32.903976 4.765935 19.912087 38.754058 0.143843 1.031180 0.122767 -0.022898 122093.000000 0 0 1
33.424076 5.983535 19.322487 39.068274 0.177142 1.053442 0.140412 -0.016155 1798620.000000 0 0 1
34.998176 5.943035 18.933487 40.232685 0.168205 1.080826 0.136909 -0.028073 1927070.000000 0 0 1
35.884076 5.934735 20.044887 41.529333 0.163903 1.067098 0.129437 -0.018094 401545.000000 0 0 1
35.964776 7.159535 20.789287 42.153511 0.196502 1.055054 0.130437 -0.021271 -628511.000000 0 0 1
36.600476 7.010235 22.189187 43.371630 0.189242 1.033743 0.145776 -0.029267 -260743.000000 0 0 1
35.815376 6.263435 23.039737 43.044178 0.173130 1.005983 0.158200 -0.017635 43160.200000 0 0 1
36.555976 5.939435 24.232487 44.258668 0.161068 0.991399 0.155112 -0.018468 157747.000000 0 0 1
35.777676 5.152535 25.302837 44.122832 0.143032 0.960069 0.162358 -0.010746 -132154.000000 0 0 1
35.744376 3.829835 24.849907 43.701784 0.106738 0.965964 0.161336 -0.011221 179144.000000 0 0 1
34.954876 3.031535 25.700567 43.491984 0.086511 0.938589 0.145327 -0.014083 29646.100000 0 0 1
35.101976 1.586535 25.384797 43.348053 0.045167 0.945171 0.135424 -0.004801 -130882.000000 0 0 1
34.332376 1.188135 24.295757 42.076211 0.034593 0.955228 0.149554 -0.011166 -175103.000000 0 0 1
34.418876 -0.201365 24.075177 42.003735 -0.005850 0.960430 0.135263 -0.013585 265294.000000 0 0 1
33.417676 -0.751565 22.991327 40.569780 -0.022486 0.968288 0.126066 -0.000082 1714540.000000 0 0 1
32.120976 -1.201365 23.500917 39.818256 -0.037384 0.939484 0.118443 0.000689 977762.000000 0 0 1
31.422176 -1.796065 22.448087 38.658707 -0.057097 0.951241 0.109887 -0.009415 -473472.000000 0 0 1
29.945776 -2.135665 22.635067 37.598628 -0.071197 0.924770 0.099483 0.003446 -414995.000000 0 0 1
29.213076 -0.954965 22.679097 36.995367 -0.032678 0.910912 0.109042 -0.006799 -501685.000000 0 0 1
27.845376 -1.179865 22.949537 36.103162 -0.042347 0.881926 0.108302 -0.006496 335839.000000 0 0 1
26.963076 0.101835 22.963757 35.416832 0.003777 0.865335 0.113835 -0.017007 92096.000000 0 0 1
26.881876 0.622235 21.679087 34.539908 0.023143 0.892261 0.112800 -0.021066 283887.000000 0 0 1
26.213576 1.888535 21.637287 34.042478 0.071920 0.882015 0.102910 -0.016398 -23982.300000 0 0 1
26.494576 2.646035 20.313687 33.490445 0.099541 0.919080 0.101907 -0.023887 -187777.000000 0 0 1
25.787476 2.190635 19.175487 32.210124 0.084746 0.933126 0.101144 -0.027503 -97175.800000 0 0 1
24.626776 2.920435 18.916587 31.190452 0.118037 0.919162 0.097879 -0.025258 -541195.000000 0 0 1
24.302676 2.980935 17.421987 30.050485 0.122049 0.952366 0.110526 -0.031429 -10463.600000 0 0 1
25.287976 3.736735 16.708387 30.538748 0.146706 0.991876 0.114894 -0.026772 374931.000000 0 0 1
24.904076 4.251635 15.492487 29.636237 0.169090 1.020717 0.086977 -0.013648 -519444.000000 0 0 1
24.851476 3.265535 14.275687 28.845360 0.130654 1.053072 0.091689 -0.018591 -421870.000000 0 0 1
23.678276 2.502835 14.219287 27.732888 0.105311 1.032443 0.113523 -0.020213 -142650.000000 0 0 1
23.770076 1.402135 13.395187 27.320570 0.058919 1.058366 0.121101 -0.023804 -191506.000000 0 0 1
22.513176 0.499335 13.229187 26.117117 0.022176 1.039637 0.199977 -0.037307 -88795.800000 0 0 1
21.469276 0.986835 12.414687 24.819914 0.045933 1.046977 0.226987 -0.034978 570659.000000 0 1 0
21.523476 0.612735 11.020887 24.188746 0.028461 1.097727 0.229555 -0.027072 -695092.000000 0 1 0
21.165876 -0.830165 10.577587 23.676335 -0.039202 1.107658 0.236832 -0.022693 -95977.500000 0 1 0
22.027476 -1.851665 11.055087 24.715447 -0.083864 1.107058 0.228040 -0.043079 466452.000000 0 1 0
23.233276 -2.019965 10.327587 25.505380 -0.086725 1.153907 0.239585 -0.029825 -2882.540000 0 0 1
24.360376 -2.670965 11.147187 26.922514 -0.109208 1.143901 0.225153 -0.035449 138246.000000 0 0 1
24.875076 -1.876565 12.262187 27.796621 -0.075297 1.113928 0.201379 -0.042466 -59811.900000 0 0 1
25.586476 -2.672165 13.127087 28.881285 -0.104059 1.098964 0.121484 -0.015287 -324470.000000 0 0 1
25.906576 -2.001365 14.453287 29.733040 -0.077100 1.063173 0.134468 -0.042330 -428846.000000 0 0 1
27.059776 -1.254965 14.268887 30.617112 -0.046344 1.085983 0.090129 -0.030161 -597107.000000 0 0 1
27.324376 -0.471865 15.424587 31.380919 -0.017267 1.056953 0.094043 -0.035047 -442013.000000 0 0 1
28.538476 0.427135 15.294487 32.381297 0.014966 1.078870 0.124321 -0.031083 -408527.000000 0 0 1
29.753176 -0.280365 15.135087 33.382644 -0.009423 1.100240 0.163566 -0.038927 41550.500000 0 0 1
30.824276 0.647535 15.221087 34.383670 0.021004 1.112207 0.170599 -0.040262 -1613890.000000 0 0 1
32.130076 0.047135 15.500387 35.673604 0.001467 1.121307 0.187784 -0.036060 -1733640.000000 0 0 1
32.705376 -0.686765 14.412387 35.746750 -0.020995 1.155807 0.196699 -0.041085 290134.000000 0 0 1
34.027376 -1.030965 14.784087 37.114612 -0.030289 1.161094 0.158084 -0.034557 48589.600000 0 0 1
34.754976 -1.832265 13.689587 37.398801 -0.052671 1.196042 0.138233 -0.043108 -24597.700000 0 0 1
35.172776 -1.082865 12.563387 37.364896 -0.030777 1.227880 0.146456 -0.041560 173070.000000 0 0 1
35.911676 -1.919165 11.688787 37.814804 -0.053390 1.256543 0.146407 -0.043187 68299.700000 0 0 1
35.645976 -1.522765 10.220987 37.113650 -0.042693 1.291794 0.195836 -0.031561 -227388.000000 0 0 1
35.999276 -0.237865 9.778787 37.304546 -0.006607 1.305564 0.151312 -0.025172 718871.000000 0 0 1
34.928676 0.693435 10.021487 36.344511 0.019850 1.291441 0.172007 -0.030609 377242.000000 0 0 1
35.184676 2.086535 9.301287 36.453107 0.059233 1.312786 0.184781 -0.035843 -9908.490000 0 0 1
35.213776 2.085735 7.898087 36.148860 0.059162 1.350532 0.187065 -0.036624 406299.000000 0 0 1
35.727576 3.337335 7.437887 36.645868 0.093140 1.366410 0.188169 -0.033814 25101.600000 0 0 1
35.886976 3.448435 5.920987 36.535255 0.095797 1.408016 0.153491 -0.024793 -121372.000000 0 0 1
36.247176 4.739035 5.524187 36.970703 0.130005 1.420814 0.141652 -0.017268 144894.000000 0 0 1
36.635376 4.754235 4.142987 37.174156 0.129050 1.459116 0.178927 -0.015299 -166139.000000 0 0 1
37.004276 6.146635 3.590687 37.682762 0.164603 1.475364 0.204504 -0.042820 278901.000000 0 0 1
35.956576 7.112935 3.751787 36.844879 0.195299 1.468793 0.192510 -0.045251 258423.000000 0 0 1
36.372076 8.417035 3.385987 37.486521 0.227412 1.480348 0.187122 -0.051371 -683705.000000 0 0 1
35.274376 9.535835 3.357087 36.694465 0.264022 1.479181 0.204453 -0.058047 672235.000000 0 0 1
34.385676 9.463535 2.225887 35.733566 0.268568 1.508465 0.213271 -0.057744 231712.000000 0 0 1
33.448576 8.422035 2.255387 34.566236 0.246663 1.505502 0.243789 -0.036071 -699369.000000 0 0 1
32.358276 8.554235 1.158987 33.489942 0.258448 1.536182 0.247334 -0.046744 438905.000000 0 0 1
32.897776 8.074135 -0.047813 33.874143 0.240674 1.572208 0.272446 -0.041396 1252390.000000 0 0 1
31.778676 7.590635 -0.841813 32.683492 0.234466 1.596556 0.268385 -0.045196 857112.000000 0 0 1
32.031876 7.562335 -2.355613 32.996650 0.231843 1.642247 0.225399 -0.030736 -177777.000000 0 0 1
31.007276 6.870035 -3.074313 31.907678 0.218040 1.667296 0.270357 -0.042695 693521.000000 0 0 1
31.332576 6.635635 -4.449913 32.335177 0.208697 1.708853 0.220053 -0.035074 117182.000000 0 0 1
30.194776 5.858335 -5.210013 31.195974 0.191637 1.738592 0.267177 -0.029052 -52610.400000 0 0 1
30.220576 4.453035 -4.911313 30.939194 0.146298 1.730211 0.273585 -0.027851 1112730.000000 0 0 1
29.159476 3.722835 -5.567013 29.918659 0.126985 1.757959 0.263718 -0.029589 287483.000000 0 0 1
29.133576 2.216035 -5.225113 29.681271 0.075918 1.747759 0.298795 -0.023614 -327384.000000 0 0 1
28.763276 1.945435 -3.889413 29.090175 0.067533 1.704900 0.321533 -0.040815 402153.000000 0 0 1
28.764876 0.555235 -3.710513 29.008521 0.019300 1.699059 0.276441 -0.043914 -61322.200000 0 0 1
28.908676 0.123735 -2.248313 28.996237 0.004280 1.648412 0.279709 -0.039861 871108.000000 0 0 1
30.235276 0.381335 -1.744413 30.287956 0.012612 1.628422 0.267564 -0.038696 954625.000000 0 0 1
30.201776 0.363035 -0.323713 30.205692 0.012020 1.581513 0.275136 -0.028944 -666411.000000 0 0 1
31.529876 0.724935 0.324987 31.539883 0.022988 1.560492 0.301672 -0.028749 -237382.000000 0 0 1
32.485176 -0.270165 -0.056813 32.486349 -0.008316 1.572545 0.260079 -0.032548 160896.000000 0 0 1
33.800876 0.063235 0.327087 33.802517 0.001871 1.561120 0.185165 -0.029659 -97904.400000 0 0 1
-2.985124 -21.156165 -8.601852 23.032285 1.430622 1.953542 0.100352 -0.016471 304434.000000 0 1 0
-3.376424 -21.550765 -7.297152 23.001829 1.415387 1.893616 0.109515 -0.023976 -114810.000000 0 1 0
-2.657724 -22.682965 -6.878152 23.851402 1.454160 1.863326 0.103198 -0.023906 -123595.000000 0 1 0
-3.175824 -23.236065 -5.540652 24.097705 1.434961 1.802796 0.111643 -0.026114 -340444.000000 0 1 0
-2.910024 -22.552865 -4.369452 23.155822 1.442474 1.760632 0.112860 -0.030522 -51478.700000 0 1 0
-3.164824 -23.275065 -3.209752 23.707536 1.435650 1.706603 0.111427 -0.033760 -189083.000000 0 1 0
-2.628624 -22.605165 -1.886852 22.835572 1.455032 1.653518 0.098492 -0.037273 -236640.000000 0 1 0
-1.254024 -22.743065 -1.672752 22.838951 1.515713 1.644103 0.095498 -0.028410 -734240.000000 0 1 0
-0.841824 -22.256965 -0.423452 22.276904 1.532991 1.589806 0.064140 -0.035632 126563.000000 0 1 0
0.649276 -22.131965 -0.039352 22.141522 -1.541468 1.572574 0.059997 -0.037040 20329.200000 0 1 0
1.355976 -21.165365 -0.829552 21.224974 -1.506818 1.609890 0.051435 -0.032018 -451382.000000 0 1 0
2.540976 -20.886965 -0.142052 21.041436 -1.449738 1.577547 0.051092 -0.031557 -302615.000000 0 1 0
3.474976 -19.951765 -0.973552 20.275507 -1.398357 1.618831 0.051921 -0.023955 211961.000000 0 1 0
4.145876 -20.560665 -2.032052 21.072695 -1.371823 1.667377 0.032913 -0.009149 114577.000000 0 1 0
4.963076 -19.633365 -2.799052 20.443479 -1.323196 1.708144 0.035809 0.003460 -394693.000000 0 1 0
5.843476 -20.274065 -3.820052 21.442405 -1.290178 1.749907 0.026098 0.007495 -487566.000000 0 1 0
7.051776 -20.790365 -3.278952 22.197260 -1.243789 1.719058 0.044480 -0.010333 260063.000000 0 1 0
7.880576 -21.394665 -4.270552 23.196396 -1.217875 1.755957 0.032051 -0.003719 537814.000000 0 1 0
9.133976 -20.587665 -4.689952 23.006023 -1.153225 1.776093 0.039819 -0.007445 -109356.000000 0 1 0
8.804876 -19.579465 -5.611752 22.189481 -1.148192 1.826474 0.036530 -0.001165 -3122.140000 0 1 0
9.978076 -18.932165 -6.017952 22.230713 -1.085749 1.844921 0.053027 -0.010164 -499314.000000 0 1 0
9.712176 -17.986365 -7.172652 21.662932 -1.075683 1.908268 0.045399 0.008744 175181.000000 0 1 0
10.777476 -17.042765 -7.342552 21.459797 -1.006909 1.920004 0.058076 -0.017693 579531.000000 0 1 0
10.575276 -16.129865 -8.421952 21.046099 -0.990471 1.982495 0.061385 -0.008951 -457635.000000 0 1 0
11.033376 -16.620265 -9.790652 22.222184 -0.984746 2.027041 0.058272 -0.000267 -652037.000000 0 1 0
10.210576 -17.350465 -10.645752 22.773373 -1.038883 2.057217 0.056046 -0.002004 -584396.000000 0 1 0
9.176076 -16.572165 -11.178852 21.995539 -1.065114 2.103928 0.032631 -0.014806 -471998.000000 0 1 0
8.665676 -16.953565 -12.583152 22.822204 -1.098275 2.154785 0.041907 -0.024900 740913.000000 0 1 0
7.532676 -17.854265 -12.429652 23.021994 -1.171556 2.141119 0.043972 -0.015077 817768.000000 0 1 0
6.989876 -18.201365 -13.669652 23.811918 -1.204132 2.182261 0.047732 -0.013408 -59319.800000 0 1 0
5.952176 -19.329065 -13.480452 24.305632 -1.272072 2.158706 0.057349 -0.004688 -213821.000000 0 1 0
6.482076 -20.592365 -13.220452 25.314880 -1.265835 2.120272 0.066131 -0.000638 -307757.000000 0 0 1
5.433676 -21.445965 -12.866652 25.593065 -1.322652 2.097562 0.111357 -0.010440 11783.900000 0 0 1
5.864676 -22.911065 -12.539052 26.768249 -1.320201 2.058309 0.067783 -0.011019 -401291.000000 0 0 1
6.226176 -23.654965 -13.663552 28.018124 -1.313426 2.080213 0.077100 -0.013993 120917.000000 0 0 1
5.757776 -25.033845 -13.601252 29.066122 -1.344728 2.057757 0.076655 -0.019177 569890.000000 0 0 1
4.268276 -25.330565 -13.912852 29.213407 -1.403861 2.067180 0.094996 -0.026943 216398.000000 0 0 1
3.296176 -24.690865 -13.104552 28.146632 -1.438083 2.055088 0.098788 -0.030483 625936.000000 0 0 1
1.935076 -24.853265 -13.500552 28.349501 -1.493093 2.067145 0.106197 -0.040136 774048.000000 0 0 1
1.156276 -26.164575 -13.214652 29.335115 -1.526633 2.038090 0.095445 -0.030766 -734192.000000 0 0 1
1.443376 -27.304635 -14.022552 30.728788 -1.517984 2.044666 0.096450 -0.028718 -7595.370000 0 0 1
0.802376 -28.520515 -13.659252 31.632874 -1.542670 2.017290 0.072758 -0.023562 738588.000000 0 0 1
-0.734924 -28.745365 -13.879252 31.929136 1.545235 2.020490 0.053008 -0.023738 1072390.000000 0 0 1
-1.615724 -27.950735 -13.080052 30.902134 1.513054 2.007852 0.061767 -0.027920 290259.000000 0 0 1
-2.961824 -28.310955 -13.335252 31.434241 1.466558 2.008904 0.066343 -0.025551 425022.000000 0 0 1
-4.067424 -27.441225 -12.641452 30.485588 1.423645 1.998376 0.059281 -0.020304 558024.000000 0 0 1
-4.387324 -27.645695 -11.253152 30.168966 1.413411 1.953041 0.072011 -0.031871 -177874.000000 0 0 1
-5.089624 -28.821065 -10.972552 31.256279 1.396005 1.929490 0.053668 -0.022389 -1010530.000000 0 0 1
-5.398824 -28.970715 -9.488752 30.959426 1.386555 1.882300 0.064416 -0.018919 -232714.000000 0 0 1
-6.733824 -28.675775 -9.159352 30.847013 1.340149 1.872271 0.080935 -0.016336 -399730.000000 0 0 1
-6.969324 -27.309235 -9.081852 29.611583 1.320929 1.882520 0.090786 -0.022361 -584948.000000 0 0 1
-8.410124 -26.927205 -8.589052 29.488580 1.268068 1.866347 0.095177 -0.018906 862756.000000 0 0 1
-9.454524 -27.083855 -9.533952 30.229447 1.234938 1.891660 0.099149 -0.017948 -48598.300000 0 0 1
-9.755024 -28.423415 -9.886952 31.635468 1.240189 1.888649 0.094800 -0.030115 -876448.000000 0 0 1
-11.062624 -28.577115 -10.708752 32.460908 1.201447 1.906991 0.098611 -0.031501 124843.000000 0 0 1
-11.099124 -27.904235 -11.963852 32.326006 1.192224 1.949913 0.119944 -0.036477 -256659.000000 0 0 1
-11.896824 -28.636675 -12.829452 33.558731 1.177051 1.963079 0.135542 -0.043309 -566678.000000 0 0 1
-12.003824 -27.921685 -14.196052 33.544600 1.164774 2.007770 0.145417 -0.037423 20838.100000 0 0 1
-13.081824 -27.022915 -14.400552 33.297867 1.119949 2.018034 0.127707 -0.050534 643.884000 0 0 1
-13.214724 -25.951595 -13.491452 32.095693 1.099811 2.004628 0.133384 -0.037318 -127485.000000 0 0 1
-14.248424 -24.813965 -13.649552 31.702693 1.049556 2.015897 0.160861 -0.033674 -50422.700000 0 0 1
-13.844524 -23.905265 -14.687452 31.286639 1.045855 2.059462 0.155011 -0.033451 -203700.000000 0 0 1
-14.852824 -22.971765 -14.904952 31.152303 0.996837 2.069690 0.167176 -0.035909 -573929.000000 0 0 1
-14.712624 -22.136665 -16.242152 31.149651 0.984207 2.119314 0.148685 -0.032435 567826.000000 0 0 1
-13.855924 -20.943265 -16.228352 29.899271 0.986314 2.144525 0.133618 -0.026782 839182.000000 0 0 1
-13.856324 -20.282265 -17.484552 30.150913 0.971452 2.189404 0.114406 -0.022560 -97224.400000 0 0 1
-13.833024 -18.727565 -17.544752 29.152917 0.934602 2.216572 0.098399 -0.023195 904788.000000 0 0 1
-12.502024 -18.175965 -17.489152 28.152029 0.968283 2.241120 0.089276 -0.013890 818800.000000 0 0 1
-12.559924 -16.753065 -17.788452 27.474459 0.927481 2.275035 0.087343 -0.015387 787337.000000 0 0 1
-11.137824 -16.103265 -17.809452 26.467770 0.965696 2.308882 0.081958 -0.018615 551558.000000 0 0 1
-10.459724 -16.006565 -16.599952 25.321421 0.991989 2.285733 0.100739 -0.018499 -360768.000000 0 0 1
-9.129724 -15.608265 -16.781052 24.669283 1.041532 2.318887 0.079272 -0.017253 -547751.000000 0 1 0
-8.413324 -15.180765 -15.468952 23.249261 1.064727 2.298762 0.064905 -0.012015 -200157.000000 0 1 0
-8.171624 -16.244065 -14.561152 23.295326 1.104709 2.246014 0.062989 -0.000505 433826.000000 0 1 0
-6.900324 -16.857665 -14.837152 23.493327 1.182274 2.254344 0.055014 0.005335 163005.000000 0 1 0
-6.350224 -17.714965 -13.728452 23.294113 1.226599 2.201054 0.048516 0.004245 -680151.000000 0 1 0
-5.752724 -16.935565 -12.718352 21.946837 1.243342 2.188920 0.040886 0.000470 159657.000000 0 1 0
-5.390324 -17.604065 -11.523552 21.719828 1.273663 2.130051 0.042917 -0.009776 37936.000000 0 1 0
-4.299824 -18.710365 -11.577052 22.418617 1.344909 2.113442 0.061198 -0.010698 496666.000000 0 1 0
-2.988924 -18.221165 -11.901652 21.968019 1.408208 2.143340 0.062192 0.001498 312631.000000 0 1 0
-2.075824 -19.293965 -11.683752 22.651185 1.463619 2.112751 0.067641 0.004002 618527.000000 0 1 0
-0.603824 -18.989165 -12.071852 22.509611 1.539009 2.136841 0.055514 0.014794 -252901.000000 0 1 0
-0.483724 -18.681165 -13.434652 23.015425 1.544908 2.194104 0.062121 0.009221 616728.000000 0 1 0
0.704276 -17.964465 -13.869052 22.706136 -1.531613 2.227875 0.067471 0.000112 1303230.000000 0 1 0
2.029976 -18.767965 -13.910252 23.448932 -1.463053 2.205843 0.085574 -0.013122 -277530.000000 0 1 0
2.137876 -19.773665 -14.937252 24.873476 -1.463097 2.214959 0.108876 -0.007182 -39403.700000 0 1 0
1.311976 -20.918965 -14.750152 25.629892 -1.508161 2.184019 0.111398 -0.010026 -918086.000000 0 0 1
1.407376 -21.906865 -15.956452 27.138530 -1.506641 2.199335 0.126123 -0.014033 832306.000000 0 0 1
2.682476 -22.539565 -16.130352 27.846291 -1.452342 2.188622 0.125426 -0.020283 579203.000000 0 0 1
3.729576 -21.658065 -16.459152 27.456970 -1.400266 2.213613 0.116571 -0.025114 -552910.000000 0 0 1
5.137876 -22.254965 -16.714852 28.303136 -1.343907 2.202556 0.120498 -0.020151 397896.000000 0 0 1
5.288476 -22.743265 -18.059752 29.519125 -1.342327 2.229128 0.111453 -0.020245 573013.000000 0 0 1
6.577976 -23.320965 -18.299352 30.364510 -1.295876 2.217621 0.112854 -0.020948 655781.000000 0 0 1
7.010376 -23.268165 -19.776952 31.331784 -1.278160 2.253909 0.109775 -0.014369 -149148.000000 0 0 1
7.562576 -22.045265 -20.150352 30.809462 -1.240329 2.283698 0.112100 -0.022982 -83389.000000 0 0 1
7.949076 -22.083765 -21.491152 31.823735 -1.225284 2.312193 0.086934 -0.016557 1552.580000 0 0 1
8.117876 -20.615565 -21.927852 31.172618 -1.195669 2.351013 0.075821 -0.020669 312384.000000 0 0 1
6.856176 -19.995465 -22.022352 30.525559 -1.240473 2.376676 0.114126 -0.025253 312394.000000 0 0 1
7.120876 -18.621565 -22.327352 29.932928 -1.205554 2.412700 0.115469 -0.022784 68494.600000 0 0 1
5.787076 -17.913265 -22.578552 29.396706 -1.258319 2.446609 0.114553 -0.028623 -811325.000000 0 0 1
5.119876 -18.415565 -23.687252 30.437346 -1.299626 2.462638 0.102552 -0.026795 111139.000000 0 0 1
4.262576 -17.506265 -24.407752 30.337719 -1.331955 2.505688 0.114237 -0.025431 464075.000000 0 0 1
2.907476 -17.135265 -23.788252 29.461019 -1.402719 2.510610 0.121719 -0.025961 -638125.000000 0 0 1
2.967376 -16.417765 -22.546152 28.047768 -1.391985 2.504533 0.129773 -0.022739 -616251.000000 0 0 1
1.691576 -16.139665 -22.033952 27.365037 -1.466369 2.506786 0.108777 -0.024647 -36268.000000 0 0 1
1.813076 -15.460765 -20.630952 25.844896 -1.454060 2.495197 0.107084 -0.017467 104254.000000 0 0 1
2.202976 -14.090165 -20.789652 25.211019 -1.415703 2.540336 0.095971 -0.017260 -146664.000000 0 0 1
2.471876 -13.494965 -19.553052 23.886107 -1.389634 2.529757 0.091436 -0.017955 706331.000000 0 1 0
3.656576 -12.463665 -19.544452 23.466979 -1.285425 2.555032 0.084814 -0.019490 1071580.000000 0 1 0
4.989176 -12.957865 -19.728752 24.125128 -1.203261 2.528318 0.079464 -0.014731 1910580.000000 0 1 0
6.124376 -12.024265 -19.815752 23.974047 -1.099709 2.543747 0.077266 -0.008910 1706610.000000 0 1 0
6.344776 -11.148665 -18.500252 22.512402 -1.053403 2.535325 0.084098 -0.014873 -980220.000000 0 1 0
5.482876 -10.045365 -18.302352 21.585814 -1.071175 2.582785 0.055145 -0.001304 -167511.000000 0 1 0
5.741276 -8.876165 -19.065952 21.800437 -0.996660 2.635339 0.077177 -0.012806 136137.000000 0 1 0
4.986776 -8.830965 -20.452252 22.828677 -1.056743 2.681253 0.096835 -0.026370 1409680.000000 0 1 0
3.536776 -8.781165 -20.437352 22.523388 -1.187906 2.707813 0.077085 -0.026135 994568.000000 0 1 0
3.061876 -8.803065 -21.768452 23.679834 -1.236066 2.737049 0.080674 -0.034035 451781.000000 0 1 0
1.505476 -8.837665 -21.761452 23.535751 -1.402068 2.750814 0.075463 -0.028778 385881.000000 0 1 0
0.960076 -7.574765 -21.560252 22.872325 -1.444722 2.801234 0.066283 -0.032862 -570062.000000 0 1 0
-0.407724 -7.574265 -21.900052 23.176454 1.517018 2.808167 0.065701 -0.023177 41067.100000 0 1 0
-0.926824 -6.536265 -22.881152 23.814468 1.429938 2.860702 0.072247 -0.022321 -133733.000000 0 1 0
-0.644124 -6.905765 -24.218252 25.191828 1.477792 2.862673 0.075935 -0.019661 -519211.000000 0 0 1
-1.302724 -6.172365 -25.196852 25.974536 1.362791 2.896273 0.099934 -0.032107 -231873.000000 0 0 1
-0.733224 -4.775765 -25.482992 25.937009 1.418456 2.954211 0.093931 -0.031719 54672.900000 0 0 1
-1.316324 -4.121665 -26.633022 26.982192 1.261668 2.980541 0.097665 -0.033364 -3138.930000 0 0 1
-0.762124 -2.847165 -26.978732 27.139255 1.309250 3.032775 0.084960 -0.026637 -384735.000000 0 0 1
-1.371024 -1.734765 -26.090892 26.184418 0.901984 3.057047 0.080962 -0.033920 1106410.000000 0 0 1
-2.802324 -1.597165 -26.072812 26.271572 0.518025 3.018506 0.081706 -0.035167 988236.000000 0 0 1
-3.415824 -0.998565 -27.270412 27.501643 0.284410 3.011826 0.098729 -0.028028 91594.000000 0 0 1
-4.942224 -1.186365 -27.147822 27.619509 0.235589 2.956515 0.117338 -0.035476 12581.300000 0 0 1
-5.645524 -0.257765 -26.343162 26.942542 0.045627 2.930266 0.123525 -0.027192 666376.000000 0 0 1
-7.044724 -0.547665 -26.342562 27.273772 0.077585 2.879527 0.131704 -0.045716 78183.800000 0 0 1
-7.927024 0.347435 -25.450202 26.658417 -0.043801 2.839372 0.122230 -0.029243 -722066.000000 0 0 1
-8.220624 1.676435 -25.787262 27.117743 -0.201172 2.827046 0.145227 -0.038762 303686.000000 0 0 1
-9.034324 1.842235 -26.981442 28.513349 -0.201157 2.812308 0.144219 -0.044825 1212810.000000 0 0 1
-10.524824 1.364435 -26.815422 28.839217 -0.128921 2.764733 0.129989 -0.045369 223701.000000 0 0 1
-11.542024 2.006935 -27.584562 29.969220 -0.172159 2.739975 0.131847 -0.053175 619889.000000 0 0 1
-12.802924 1.442735 -27.224402 30.119170 -0.112215 2.699573 0.062513 -0.034417 -69362.800000 0 0 1
-13.908824 2.263935 -27.928222 31.282045 -0.161355 2.674292 0.038486 -0.029350 -879612.000000 0 0 1
-15.111124 1.517435 -27.833502 31.707294 -0.100083 2.642102 0.018975 -0.026886 -189357.000000 0 0 1
-16.122724 2.162935 -28.581122 32.886183 -0.133358 2.624160 0.012577 -0.022577 394002.000000 0 0 1
-16.987624 3.283035 -27.865822 32.800331 -0.190907 2.585945 0.016147 -0.007734 -246101.000000 0 0 1
-16.394124 4.574835 -27.758162 32.560896 -0.272131 2.591546 0.037365 -0.010654 -13045.600000 0 0 1
-16.210224 5.357735 -28.946082 33.605838 -0.319213 2.608699 0.034070 -0.006308 -442366.000000 0 0 1
-17.432924 5.875035 -29.745282 34.974343 -0.325054 2.587710 0.019548 0.005177 -237616.000000 0 0 1
-18.159024 6.851335 -29.047942 34.935281 -0.360782 2.552560 0.026927 0.008816 202381.000000 0 0 1
-19.108024 7.452235 -29.912662 36.268716 -0.371861 2.540558 0.024161 0.007747 -334615.000000 0 0 1
-19.769224 8.709235 -29.421512 36.500662 -0.414963 2.508251 0.033487 0.005124 -764261.000000 0 0 1
-18.849224 9.721935 -29.125032 36.028832 -0.476187 2.512193 0.039864 0.008335 -72870.100000 0 0 1
-19.440024 10.763135 -28.361422 36.029569 -0.505648 2.477004 0.074867 -0.003398 -11708.100000 0 0 1
-9.070224 24.633035 30.453067 40.205033 -1.217988 0.711407 0.049679 -0.018469 -133751.000000 0 0 1
-9.910424 25.808135 30.481697 41.151066 -1.204155 0.736645 0.052469 -0.017818 527466.000000 0 0 1
-9.600624 26.735035 31.542479 42.448346 -1.226035 0.733136 0.070701 -0.019031 -10282.000000 0 0 1
-8.276224 27.530935 31.409797 42.579615 -1.278775 0.741180 0.074055 -0.025387 -52811.600000 0 0 1
-8.196424 28.516735 30.369677 42.458248 -1.290916 0.773767 0.085899 -0.008139 246107.000000 0 0 1
-6.944424 28.594635 29.710147 41.815918 -1.332551 0.780590 0.097374 -0.006846 55031.300000 0 0 1
-6.876224 29.783335 28.721947 41.943769 -1.343897 0.816505 0.118782 -0.015592 -198858.000000 0 0 1
-6.737124 31.065435 29.380867 43.286089 -1.357235 0.824723 0.114838 -0.019041 365439.000000 0 0 1
-6.459824 32.143635 28.532607 43.463229 -1.372471 0.854657 0.122031 -0.010059 6554.030000 0 0 1
-6.956324 33.463535 29.211987 44.961526 -1.365838 0.863592 0.130517 -0.019369 -116547.000000 0 0 1
-6.112924 -33.745805 30.262547 45.738047 1.391593 0.847780 0.142866 -0.030569 -126560.000000 0 0 1
-6.767324 -33.081805 31.287607 46.033867 1.369017 0.823491 0.135747 -0.032779 53757.800000 0 0 1
-7.837924 -33.808405 32.183410 47.330891 1.342987 0.823080 0.071361 -0.023617 305961.000000 0 0 1
-7.430324 32.898335 33.145161 47.287545 -1.348666 0.794099 0.073759 -0.018884 -226500.000000 0 0 1
-7.163624 31.582335 32.719370 46.036058 -1.347747 0.780256 0.084507 -0.013574 -38808.600000 0 0 1
-6.933124 30.554035 -33.724992 46.032514 -1.347661 2.392980 0.081115 -0.009723 413446.000000 0 0 1
-5.696224 30.763735 -33.039132 45.502072 -1.387710 2.383432 0.091048 -0.015858 302064.000000 0 0 1
-5.731224 30.296635 -31.678382 44.206933 -1.383835 2.369702 0.089520 -0.015472 -498895.000000 0 0 1
-4.363824 29.988635 -31.041272 43.381122 -1.426295 2.368204 0.096101 -0.024599 143177.000000 0 0 1
-3.706424 28.822535 -31.497212 42.854993 -1.442904 2.396421 0.117033 -0.022094 300151.000000 0 0 1
-3.027924 28.919335 -32.742162 43.789787 -1.466474 2.415406 0.118441 -0.028237 -471367.000000 0 0 1
-2.318724 27.592735 -33.160302 43.201170 -1.486959 2.445851 0.117442 -0.029642 -1166740.000000 0 0 1
-1.340924 27.163735 -32.237882 42.177572 -1.521472 2.440809 0.130980 -0.026792 312177.000000 0 0 1
-0.740224 25.893235 -32.546952 41.597015 -1.542217 2.469362 0.139539 -0.029535 531378.000000 0 0 1
-0.040024 25.804735 33.661257 42.414222 -1.569245 0.654042 0.125803 -0.027664 -960675.000000 0 0 1
-0.975624 25.356535 32.725880 41.411218 -1.532339 0.659553 0.128038 -0.030283 -71807.900000 0 0 1
-0.463924 25.116035 31.424777 40.231170 -1.552327 0.674362 0.121861 -0.029713 53061.900000 0 0 1
-0.158524 26.413735 30.614387 40.434530 -1.564795 0.711881 0.109191 -0.028697 244777.000000 0 0 1
-1.358924 27.114435 30.376847 40.740546 -1.520720 0.729336 0.108885 -0.028404 73274.800000 0 0 1
-1.129524 28.185035 29.460137 40.786906 -1.530742 0.763683 0.105838 -0.029010 -637804.000000 0 0 1
-2.239124 29.206835 29.466857 41.549351 -1.494282 0.782432 0.124925 -0.029328 -554213.000000 0 0 1
-2.343024 29.910035 30.682767 42.913077 -1.492620 0.774175 0.132733 -0.038161 189003.000000 0 0 1
-3.185224 31.062335 30.713677 43.798907 -1.468611 0.793657 0.132008 -0.035768 156850.000000 0 0 1
-2.956624 31.705735 32.066172 45.191091 -1.477813 0.781911 0.132898 -0.019108 -104443.000000 0 0 1
-1.648724 32.202635 32.067851 45.476094 -1.519643 0.788150 0.182787 -0.042517 -279837.000000 0 0 1
-1.143124 32.668035 33.353646 46.700888 -1.535818 0.775320 0.150921 -0.032081 478909.000000 0 0 1
0.324876 33.161835 33.319600 47.010729 1.561000 0.783049 0.160274 -0.047643 231681.000000 0 0 1
0.561976 -33.239305 32.730483 46.652457 -1.553891 0.793182 0.184972 -0.050177 -123873.000000 0 0 1
1.913376 -32.991005 32.447405 46.313081 -1.512864 0.794544 0.165666 -0.054871 -167125.000000 0 0 1
2.078376 -31.640305 31.757546 44.877280 -1.505203 0.784625 0.171757 -0.055745 10209.900000 0 0 1
1.867176 -30.637105 32.671346 44.827842 -1.509927 0.754202 0.159911 -0.043509 -42028.800000 0 0 1
2.175676 -29.346105 32.215758 43.632356 -1.496793 0.740182 0.151591 -0.047915 83122.900000 0 0 1
1.587976 -28.311705 33.216440 43.673862 -1.514766 0.706627 0.153208 -0.043034 1912020.000000 0 0 1
0.127776 -28.334105 33.341181 43.754682 -1.566287 0.704396 0.152280 -0.037330 1566970.000000 0 0 1
-0.167424 -27.624305 -33.097272 43.111016 1.564736 2.446075 0.134261 -0.022678 -160584.000000 0 0 1
-1.679424 -27.407905 -32.903882 42.856495 1.509598 2.446148 0.171953 -0.023982 -92051.000000 0 0 1
-1.878524 -26.972705 -31.568652 41.564834 1.501263 2.433346 0.175274 -0.021974 -315941.000000 0 0 1
-3.014324 -26.164705 -31.512262 41.069460 1.456096 2.445404 0.210162 -0.035054 -436658.000000 0 0 1
-3.163224 -25.466505 -30.173792 39.610688 1.447218 2.436820 0.225934 -0.042241 -313765.000000 0 0 1
-3.687124 -26.230905 -29.178272 39.408461 1.431147 2.404471 0.201486 -0.042866 -366236.000000 0 0 1
-3.784424 -25.587405 -27.907812 38.051059 1.423959 2.394151 0.221867 -0.041197 -148885.000000 0 0 1
-2.551424 -25.184605 -27.063392 37.056730 1.469832 2.389591 0.207600 -0.049067 -269859.000000 0 0 1
-1.864224 -24.057405 -27.541222 36.616294 1.493460 2.422126 0.215539 -0.049321 -478322.000000 0 0 1
-0.811224 -23.827105 -26.672482 35.774436 1.536763 2.412192 0.162276 -0.049641 -1068540.000000 0 0 1
0.250776 -22.784105 -27.095232 35.402400 -1.559790 2.442382 0.099801 -0.036545 766515.000000 0 0 1
1.119776 -23.061905 -28.215862 36.458747 -1.522279 2.455792 0.052302 -0.034557 129095.000000 0 0 1
1.961276 -24.177205 -28.142572 37.153576 -1.489853 2.430219 0.035567 -0.021478 -788718.000000 0 0 1
2.778976 -24.399505 -29.412452 38.316457 -1.457390 2.445915 0.037901 -0.026743 -159706.000000 0 0 1
3.761976 -23.399505 -29.575862 37.900144 -1.411389 2.466042 0.077273 -0.029940 75381.000000 0 0 1
4.616676 -23.781205 -30.642362 39.061666 -1.379050 2.472623 0.089487 -0.029081 -52739.000000 0 0 1
5.741576 -22.777305 -31.051092 38.935095 -1.323866 2.493951 0.116003 -0.029778 37357.900000 0 0 1
6.957176 -22.741405 -30.317272 38.531945 -1.273912 2.476418 0.083046 -0.033787 898384.000000 0 0 1
7.901376 -23.791405 -30.608232 39.564208 -1.250147 2.455353 0.090264 -0.027787 247788.000000 0 0 1
8.560776 -23.861405 -31.984922 40.812850 -1.226329 2.471392 0.087298 -0.024482 -934084.000000 0 0 1
7.684276 -24.443805 -32.899272 41.700237 -1.266213 2.479890 0.085804 -0.026478 -298512.000000 0 0 1
7.854176 -24.108305 33.362751 41.904315 -1.255853 0.649866 0.103331 -0.029967 382425.000000 0 0 1
7.039376 -22.818905 32.917254 40.666951 -1.271570 0.627607 0.095826 -0.021256 973235.000000 0 0 1
5.613276 -22.865905 33.060694 40.587781 -1.330070 0.618847 0.105809 -0.024455 664746.000000 0 0 1
5.059376 -21.730705 32.393497 39.333948 -1.342050 0.603154 0.116572 -0.037284 506763.000000 0 0 1
3.553076 -21.424505 32.685793 39.242768 -1.406450 0.586446 0.095835 -0.039343 763720.000000 0 0 1
2.579976 -22.376005 32.340820 39.411553 -1.456002 0.608350 0.098857 -0.034914 -56714.900000 0 0 1
2.461776 -23.414605 33.305846 40.787050 -1.466043 0.615337 0.091648 -0.021862 683659.000000 0 0 1
1.089776 -24.160905 32.976832 40.895090 -1.525722 0.632797 0.109589 -0.021862 1254740.000000 0 0 1
0.942576 -24.779605 31.752879 40.288492 -1.532776 0.663019 0.116043 -0.028574 669232.000000 0 0 1
-0.432324 -25.179505 31.605095 40.411340 1.553628 0.672792 0.132374 -0.036840 879730.000000 0 0 1
-0.731024 -26.065905 30.308237 39.981934 1.542758 0.710481 0.143301 -0.056009 897668.000000 0 0 1
-2.130824 -26.276505 30.058827 39.981599 1.489881 0.719984 0.164962 -0.053002 843765.000000 0 0 1
-2.269724 -27.410305 29.193557 40.109104 1.488179 0.755610 0.184989 -0.065643 -570432.000000 0 0 1
-3.605124 -27.569605 28.503647 39.818814 1.440770 0.772979 0.197728 -0.054052 -339947.000000 0 0 1
-4.662424 -28.012305 29.354377 40.842464 1.405866 0.768834 0.194699 -0.052402 1035760.000000 0 0 1
-5.911124 -28.066605 28.635747 40.530010 1.363219 0.786211 0.144034 -0.037377 1175700.000000 0 0 1
-7.043924 -28.889805 29.327197 41.765084 1.331642 0.792322 0.100102 -0.025640 246520.000000 0 0 1
-8.203524 -29.157605 28.545217 41.620826 1.296535 0.815039 0.089653 -0.018170 1548470.000000 0 0 1
-9.395524 -29.365605 29.372497 42.583544 1.261139 0.809636 0.071178 -0.009738 997696.000000 0 0 1
-9.548024 -30.617605 30.301347 44.122264 1.268506 0.813776 0.040589 -0.001628 -784857.000000 0 0 1
-9.621024 -31.908105 29.741357 44.668105 1.277943 0.842191 0.062244 -0.004831 6114.720000 0 0 1
-10.875124 -32.235605 29.200117 44.833575 1.245423 0.861500 0.054916 -0.000573 -557188.000000 0 0 1
-10.995024 -33.603705 28.495397 45.410210 1.254579 0.892444 0.068399 0.002513 -412883.000000 0 0 1
-10.915724 33.027335 29.501087 45.609999 -1.251593 0.867400 0.064300 0.000460 371974.000000 0 0 1
-10.881824 31.736835 28.979467 44.333400 -1.240481 0.858371 0.067569 -0.008228 -132334.000000 0 0 1
-11.140324 30.534235 29.893117 44.159312 -1.220956 0.827202 0.073109 0.000763 -511183.000000 0 0 1
-12.452624 30.408435 30.330637 44.717875 -1.182117 0.825395 0.059383 0.013472 -580226.000000 0 0 1
-12.957724 29.197635 30.886307 44.433866 -1.153116 0.802227 0.067985 -0.000003 100534.000000 0 0 1
-12.815624 29.068935 32.416581 45.388081 -1.155561 0.775303 0.068002 -0.008573 -470800.000000 0 0 1
-13.704124 29.872735 33.112993 46.654621 -1.140690 0.781657 0.069623 -0.001116 -55387.700000 0 0 1
-13.685324 29.480335 -33.152532 46.427025 -1.136181 2.366103 0.077569 -0.003062 -375977.000000 0 0 1
-14.847724 30.119635 -32.414612 46.672844 -1.112798 2.338531 0.076239 -0.002044 -394688.000000 0 0 1
-15.237924 29.440135 -31.280372 45.578257 -1.093176 2.327186 0.061989 -0.008032 44294.400000 0 0 1
-16.459724 29.897335 -30.717602 45.916710 -1.067537 2.303639 0.070358 -0.012752 331379.000000 0 0 1
-16.676024 29.347235 -29.287342 44.688907 -1.054064 2.285456 0.098194 -0.019495 24472.100000 0 0 1
-16.977024 27.948435 -29.233502 43.862649 -1.024923 2.300271 0.077280 -0.020627 28198.400000 0 0 1
-17.024124 27.513235 -27.868872 42.702142 -1.016696 2.281852 0.078511 -0.019424 -213560.000000 0 0 1
-17.738524 26.154135 -27.649222 41.990159 -0.974831 2.289579 0.056919 -0.026812 404182.000000 0 0 1
-19.154824 26.167835 -27.778562 42.700250 -0.938916 2.279102 0.067207 -0.023278 142560.000000 0 0 1
-19.608824 24.888035 -27.436862 41.913025 -0.903488 2.284469 0.050242 -0.020020 167400.000000 0 0 1
-21.043724 24.580735 -27.946342 42.755688 -0.862768 2.283165 0.076943 -0.018984 120735.000000 0 0 1
-22.072124 25.088235 -27.130942 43.042842 -0.849266 2.252767 0.088960 -0.025747 -313504.000000 0 0 1
-23.290324 24.519735 -27.533522 43.609075 -0.811107 2.254117 0.107479 -0.031371 5147.860000 0 0 1
-24.406924 24.545135 -26.444482 43.559984 -0.788222 2.223180 0.115084 -0.032708 225173.000000 0 0 1
-25.022904 25.823035 -26.282312 44.539138 -0.801133 2.201973 0.085416 -0.027975 999786.000000 0 0 1
-26.257464 25.875335 -25.527852 44.840368 -0.778068 2.176457 0.093248 -0.040731 1124640.000000 0 0 1
-26.083114 25.542935 -24.013052 43.696648 -0.774935 2.152610 0.086116 -0.021801 -495774.000000 0 0 1
-25.921824 24.202535 -23.570052 42.582285 -0.751111 2.157379 0.099542 -0.016305 644352.000000 0 0 1
-27.148474 23.449035 -23.421252 42.842175 -0.712413 2.149199 0.105903 -0.007491 1053610.000000 0 0 1
-28.100664 23.807435 -22.212052 43.009494 -0.702878 2.113491 0.091904 -0.008932 -49851.400000 0 0 1
-27.677014 23.525535 -20.873752 41.894885 -0.704496 2.092365 0.097945 -0.003058 -260314.000000 0 0 1
-26.643744 24.342535 -20.422452 41.467152 -0.740295 2.085753 0.105964 -0.004526 -753468.000000 0 0 1
-25.709164 23.749135 -19.409752 40.021507 -0.745789 2.077140 0.096703 -0.009409 -710508.000000 0 0 1
-26.259444 23.625235 -18.121052 39.699908 -0.732641 2.044798 0.091456 -0.002829 150459.000000 0 0 1
-25.321404 23.283835 -17.131652 38.429207 -0.743502 2.032862 0.120079 -0.019483 -272595.000000 0 0 1
-25.967224 23.404235 -15.730452 38.334085 -0.733532 1.993636 0.115970 -0.026792 -54100.100000 0 0 1
-26.344004 24.666735 -15.368452 39.225549 -0.752529 1.973380 0.119979 -0.026352 -138060.000000 0 0 1
-26.924014 24.669335 -14.116552 39.150424 -0.741725 1.939678 0.090216 -0.031339 -249321.000000 0 0 1
-26.890234 26.076735 -13.412052 39.786479 -0.770041 1.914632 0.086268 -0.025174 155003.000000 0 0 1
-25.564524 26.447235 -13.093852 39.044207 -0.802368 1.912783 0.104524 -0.031200 -68068.800000 0 0 1
-25.610164 27.543635 -12.160852 39.527442 -0.821757 1.883525 0.117357 -0.031612 -185579.000000 0 0 1
-24.254024 28.170835 -11.830652 39.010485 -0.859972 1.878917 0.134336 -0.030233 29296.300000 0 0 1
-23.339824 27.256535 -11.217252 37.596447 -0.862655 1.873770 0.134026 -0.032438 545079.000000 0 0 1
-22.237324 27.926435 -10.611152 37.242193 -0.898326 1.859722 0.130840 -0.034995 262481.000000 0 0 1
-21.256924 27.037735 -9.840852 35.773430 -0.904530 1.849478 0.184445 -0.038453 -246943.000000 0 0 1
-20.436024 26.269135 -10.689052 34.956464 -0.909647 1.881556 0.175194 -0.037780 23647.700000 0 0 1
-19.678024 25.302035 -9.967252 33.567301 -0.909786 1.872276 0.166613 -0.028982 23406.700000 0 0 1
-19.071224 24.306435 -10.993252 32.792773 -0.905506 1.912650 0.148671 -0.040789 -258253.000000 0 0 1
-18.607724 23.120635 -10.414252 31.452628 -0.893129 1.908275 0.098797 -0.032466 -332807.000000 0 0 1
-17.891024 22.445335 -11.359652 30.869459 -0.897830 1.947643 0.128007 -0.028482 -362303.000000 0 0 1
-17.529924 21.032235 -10.833352 29.445113 -0.875972 1.947564 0.091486 -0.013611 557481.000000 0 0 1
-18.653924 20.167035 -10.664352 29.468739 -0.824355 1.941088 0.085073 -0.009182 757260.000000 0 0 1
-18.102024 18.876735 -10.403752 28.146980 -0.806345 1.949399 0.102324 -0.034410 580333.000000 0 0 1
-19.266824 17.783635 -10.188752 28.129679 -0.745388 1.941430 0.099703 -0.018779 676176.000000 0 0 1
-19.767324 17.195635 -11.380352 28.564828 -0.715935 1.980573 0.098163 -0.015850 1215.750000 0 0 1
-20.432824 18.031135 -12.251152 29.878301 -0.723039 1.993289 0.117287 -0.015482 -1217810.000000 0 0 1
-21.206024 17.426535 -13.442152 30.562576 -0.687877 2.026199 0.134263 -0.017379 -413391.000000 0 0 1
-20.458624 16.915835 -14.459152 30.228593 -0.690889 2.069545 0.120541 -0.024191 -32909.900000 0 0 1
-21.349624 16.514335 -15.487052 31.118780 -0.658384 2.091713 0.127976 -0.016756 402891.000000 0 0 1
-20.586024 16.407635 -16.819152 31.239058 -0.672926 2.139335 0.145543 -0.023486 9364.380000 0 0 1
-20.100924 17.637235 -17.309152 31.854763 -0.720207 2.145251 0.129241 -0.024132 346608.000000 0 0 1
-19.404724 17.563535 -18.541952 32.075303 -0.735635 2.187165 0.125364 -0.016706 -343389.000000 0 0 1
-18.451124 18.679535 -18.950052 32.380140 -0.791550 2.195968 0.098160 -0.007737 69762.300000 0 0 1
-17.258324 18.759235 -18.165852 31.301067 -0.827046 2.189966 0.109387 -0.009965 553924.000000 0 0 1
-16.576624 19.948135 -18.487752 31.851366 -0.877445 2.190063 0.117064 -0.010605 -118067.000000 0 0 1
34.287776 30.105135 1.849148 45.666071 0.720534 1.530292 0.102745 -0.029765 -176813.000000 0 0 1
35.493536 29.946535 1.133648 46.452892 0.700836 1.546390 0.113665 -0.028593 -116140.000000 0 0 1
35.684366 31.073035 0.346848 47.318366 0.716432 1.563466 0.095626 -0.020196 -314549.000000 0 0 1
37.010706 31.089535 -0.420752 48.337652 0.698668 1.579501 0.074197 -0.012280 -256327.000000 0 0 1
-37.488634 31.574035 0.368048 49.014823 -0.699966 1.563287 0.052743 -0.009904 -435761.000000 0 0 1
-36.338164 31.538635 -0.416252 48.117782 -0.714806 1.579447 0.058074 -0.005221 -793360.000000 0 0 1
-35.250128 32.511335 0.003448 47.953712 -0.745002 1.570724 0.058838 -0.011497 -528687.000000 0 0 1
-34.600660 32.300835 1.194648 47.349518 -0.751035 1.545563 0.046722 -0.015626 -659960.000000 0 0 1
-33.786034 33.374135 1.473148 47.513147 -0.779265 1.539786 0.055120 -0.006285 -524052.000000 0 0 1
-33.219424 33.274935 2.898448 47.107881 -0.786233 1.509230 0.068087 -0.013309 -359312.000000 0 0 1
-32.668884 -33.148005 3.325748 46.659477 0.792678 1.499459 0.081643 -0.013206 56443.800000 0 0 1
-32.233124 -33.320005 4.650148 46.592069 0.801977 1.470824 0.085177 -0.024113 -446712.000000 0 0 1
-32.186934 -32.087305 5.556248 45.787179 0.783848 1.449147 0.102878 -0.023298 -558983.000000 0 0 1
-33.384164 -31.606805 6.063448 46.370874 0.758057 1.439661 0.086881 -0.023699 -723524.000000 0 0 1
-33.916944 -32.357005 7.132648 47.415288 0.761865 1.419794 0.078643 -0.032037 -739460.000000 0 0 1
-34.972501 -31.602405 8.009948 47.811579 0.734820 1.402471 0.095226 -0.027392 2040050.000000 0 0 1
-36.315534 -31.363605 7.476548 48.563284 0.712361 1.416227 0.067314 -0.021684 1437790.000000 0 0 1
-37.060044 -32.508905 7.196848 49.820381 0.720072 1.425833 0.065053 -0.015487 -1463290.000000 0 0 1
37.013536 -32.329605 6.978648 49.637755 -0.717953 1.429737 0.068509 -0.013491 -160420.000000 0 0 1
36.296286 -32.165005 8.235948 49.191857 -0.725126 1.402579 0.061019 -0.011481 529495.000000 0 0 1
34.916126 -31.948905 8.041648 48.005588 -0.741051 1.402488 0.052954 -0.001016 -49017.100000 0 0 1
33.965576 -32.318405 9.191848 47.776874 -0.760553 1.377198 0.041976 -0.017051 -218752.000000 0 0 1
32.649586 -31.884305 8.917748 46.498716 -0.773540 1.377816 0.049324 -0.023945 612440.000000 0 0 1
31.740956 -32.073105 10.040648 46.227556 -0.790603 1.351851 0.059398 -0.026817 591168.000000 0 0 1
31.780046 -30.813105 11.027048 45.618138 -0.769951 1.326653 0.075208 -0.023603 -346818.000000 0 0 1
31.226066 -29.558205 10.535848 44.269163 -0.757966 1.330495 0.064993 -0.033729 575115.000000 0 0 1
31.902516 -28.964705 9.445448 44.112823 -0.737170 1.355005 0.062425 -0.029283 -605590.000000 0 0 1
30.980036 -27.910705 8.942048 42.646574 -0.733326 1.359551 0.060834 -0.031762 -504613.000000 0 0 1
31.276776 -27.464605 7.634148 42.318098 -0.720592 1.389404 0.071751 -0.033931 -102045.000000 0 0 1
30.747946 -26.148705 7.463548 41.047479 -0.704739 1.387952 0.065128 -0.029016 -6268.820000 0 0 1
31.023336 -25.494705 6.057948 40.609433 -0.687888 1.421062 0.063615 -0.023480 467844.000000 0 0 1
32.355806 -25.082505 5.785548 41.346134 -0.659440 1.430406 0.066721 -0.024304 -29314.400000 0 0 1
32.493966 -24.473305 4.533648 40.931094 -0.645523 1.459806 0.063630 -0.014613 557618.000000 0 0 1
33.986466 -24.099505 4.320248 41.887117 -0.616801 1.467472 0.070184 -0.014356 765543.000000 0 0 1
34.883546 -25.149705 3.940148 43.184421 -0.624656 1.479429 0.071472 -0.010526 -158636.000000 0 0 1
36.226826 -24.736405 4.015848 44.049968 -0.599103 1.479504 0.092151 -0.014687 -363070.000000 0 0 1
37.100156 -25.954905 3.877848 45.443551 -0.610451 1.485359 0.091625 -0.016687 -631794.000000 0 0 1
37.059636 -26.725105 5.037248 45.967616 -0.624772 1.460993 0.074911 -0.009228 -88077.100000 0 0 1
37.324636 -28.096405 4.813848 46.964982 -0.645264 1.468117 0.065438 -0.014569 -1029590.000000 0 0 1
36.712426 -28.893405 5.966048 47.098034 -0.666776 1.443782 0.077115 -0.017441 342395.000000 0 0 1
35.399356 -29.399005 5.826948 46.382855 -0.693061 1.444836 0.071283 -0.014858 338086.000000 0 0 1
34.392606 -28.374905 5.803248 44.962921 -0.689817 1.441368 0.068474 -0.016902 -289732.000000 0 0 1
32.976296 -28.879805 5.443648 44.171399 -0.719269 1.447243 0.053803 -0.012410 -498798.000000 0 0 1
32.763326 -29.277205 4.122548 44.131459 -0.729266 1.477245 0.041180 -0.009578 109376.000000 0 0 1
31.475726 -29.065505 3.567548 42.991305 -0.745608 1.487718 0.045174 -0.009898 416535.000000 0 0 1
30.275766 -29.926005 4.063648 42.763314 -0.779588 1.475626 0.042420 -0.016477 94478.800000 0 0 1
30.366766 -31.278405 3.647248 43.746788 -0.800186 1.487328 0.048088 -0.008422 -618024.000000 0 0 1
29.095066 -31.881705 3.510548 43.304618 -0.831066 1.489641 0.051857 -0.006475 -138436.000000 0 0 1
28.994866 -33.333105 2.918048 44.275424 -0.854889 1.504842 0.056193 -0.010481 -154336.000000 0 0 1
29.046766 -33.229605 1.542648 44.162213 -0.852463 1.535858 0.058339 -0.020007 132262.000000 0 0 1
28.989866 33.176435 0.889748 44.066765 0.852641 1.550604 0.059695 -0.013239 -142819.000000 0 0 1
28.677966 33.399235 -0.589152 44.025921 0.861307 1.584179 0.057807 -0.015033 -67575.100000 0 0 1
29.757766 -33.657805 -1.271952 44.944302 -0.846821 1.599101 0.054488 -0.019182 -176449.000000 0 0 1
29.388766 -33.152405 -2.533652 44.375679 -0.845504 1.627923 0.057864 -0.018663 85914.200000 0 0 1
30.522566 -32.669505 -3.491052 44.845412 -0.819360 1.648722 0.043115 -0.010239 234989.000000 0 0 1
30.922356 -31.322505 -3.334652 44.140812 -0.791827 1.646414 0.030146 -0.001569 -233142.000000 0 0 1
31.829346 -30.864705 -4.280552 44.542793 -0.770013 1.667045 0.026387 0.002448 -473028.000000 0 0 1
32.006156 -29.316605 -4.174652 43.603728 -0.741567 1.666684 0.024928 0.012070 -116081.000000 0 0 1
30.840846 -28.571705 -4.544252 42.286526 -0.747224 1.678468 0.032846 -0.011392 431426.000000 0 0 1
31.037106 -27.165805 -4.449052 41.485865 -0.718982 1.678246 0.037318 -0.012433 -371181.000000 0 0 1
31.992096 -26.429705 -5.369852 41.843265 -0.690473 1.699484 0.068357 -0.012601 -361907.000000 0 0 1
33.338356 -26.825205 -5.224052 43.108332 -0.677561 1.692279 0.067539 -0.010220 -63359.600000 0 0 1
34.169296 -26.403005 -6.332352 43.643535 -0.657879 1.716403 0.079732 -0.012494 379567.000000 0 0 1
34.298296 -27.384305 -7.486352 44.523238 -0.673774 1.739744 0.090038 0.003131 -93503.000000 0 0 1
33.097946 -27.389305 -8.253052 43.746553 -0.691299 1.760590 0.093960 -0.001852 238580.000000 0 0 1
33.162446 -28.346405 -9.352452 44.617652 -0.707259 1.781976 0.075917 0.003025 72031.000000 0 0 1
33.167116 -29.903305 -9.071852 45.569329 -0.733696 1.771213 0.072873 0.003993 181504.000000 0 0 1
34.319906 -30.401605 -8.414952 46.614643 -0.724931 1.752313 0.078696 0.008251 -438367.000000 0 0 1
34.083436 -31.672605 -7.824052 47.181037 -0.748751 1.737396 0.077666 -0.000480 -468447.000000 0 0 1
35.304176 -32.329605 -7.214452 48.411120 -0.741446 1.720378 0.064276 -0.002029 -500521.000000 0 0 1
35.209536 -33.550005 -6.474052 49.063506 -0.761268 1.703135 0.052794 -0.007538 -414338.000000 0 0 1
34.665326 -33.483305 -5.168352 48.471934 -0.768055 1.677625 0.053133 -0.004067 -59576.500000 0 0 1
34.516196 32.842735 -4.394252 47.846865 0.760559 1.662766 0.032814 -0.006120 -56689.800000 0 0 1
33.486126 32.009135 -4.856952 46.577842 0.762851 1.675262 0.049589 -0.023048 -30722.800000 0 0 1
33.725536 30.674635 -4.419352 45.802573 0.738059 1.667434 0.048534 -0.013284 -215960.000000 0 0 1
32.499916 29.846235 -4.735852 44.378717 0.742860 1.677714 0.066253 -0.030603 -374344.000000 0 0 1
32.206496 29.845235 -6.096952 44.330229 0.747363 1.708769 0.042094 -0.010265 363323.000000 0 0 1
30.987786 29.204635 -6.490352 43.072941 0.755783 1.722055 0.028242 -0.003023 261631.000000 0 0 1
30.789226 29.143935 -7.995852 43.142543 0.757953 1.757210 0.028956 -0.003106 -264252.000000 0 0 1
31.395756 28.007835 -8.544652 42.931846 0.728428 1.771163 0.044426 -0.007918 -8736.050000 0 0 1
31.688216 28.021835 -9.981852 43.462669 0.724072 1.802530 0.029553 -0.008962 178591.000000 0 0 1
32.923696 28.757835 -10.538252 44.967072 0.717962 1.807351 0.054653 -0.006224 -175386.000000 0 0 1
34.178296 28.154435 -10.207552 45.442516 0.689057 1.797355 0.052148 -0.012966 137286.000000 0 0 1
35.294366 28.731135 -10.809852 46.776311 0.683245 1.804001 0.065946 -0.008731 -230242.000000 0 0 1
35.680216 30.182935 -10.411952 47.880018 0.702126 1.790007 0.068934 -0.022961 -1490300.000000 0 0 1
36.443076 30.219235 -9.261752 48.239817 0.692304 1.763990 0.062216 -0.014434 -334458.000000 0 0 1
36.354036 31.458335 -8.585152 48.835925 0.713328 1.747510 0.047742 -0.014297 -1030170.000000 0 0 1
37.395016 31.649135 -7.483252 49.558592 0.702369 1.722374 0.055975 -0.013310 181414.000000 0 0 1
-36.822794 31.750335 -7.880452 49.255492 -0.711561 1.731478 0.073315 -0.016164 -4387.420000 0 0 1
-36.198084 30.524835 -8.223052 48.059187 -0.700575 1.742745 0.082518 -0.022783 -1426900.000000 0 0 1
-34.718573 30.689135 -8.516052 47.113963 -0.723871 1.752550 0.123664 -0.023625 -1250500.000000 0 0 1
-33.935364 31.056735 -7.374852 46.588820 -0.741135 1.729762 0.111576 -0.021741 952784.000000 0 0 1
-32.547354 31.246435 -7.710152 45.772442 -0.765008 1.740049 0.125300 -0.027889 879083.000000 0 0 1
-32.227394 32.494935 -8.595252 46.566126 -0.789532 1.756442 0.092685 -0.021360 -746429.000000 0 0 1
-32.344734 33.785135 -7.999152 47.451065 -0.807176 1.740182 0.086443 -0.013750 564588.000000 0 0 1
-31.234344 -33.598405 -7.127852 46.424599 0.821846 1.724942 0.112773 -0.027371 550461.000000 0 0 1
-31.375984 -32.175605 -6.565352 45.418342 0.797980 1.715857 0.097334 -0.022487 397307.000000 0 0 1
-32.458644 -31.914605 -5.668352 45.871950 0.776947 1.694682 0.089422 -0.022581 571.592000 0 0 1
-32.215424 -32.445905 -4.373052 45.931404 0.788963 1.666149 0.109752 -0.030090 510066.000000 0 0 1
-33.403324 -32.459305 -3.323652 46.695130 0.771066 1.642034 0.097073 -0.026192 281076.000000 0 0 1
-33.870274 -31.160405 -2.982952 46.120108 0.743752 1.635519 0.079691 -0.031214 172735.000000 0 0 1
-34.610677 -31.171505 -1.761752 46.611860 0.733165 1.608602 0.091709 -0.029045 -119281.000000 0 0 1
-35.417873 -29.964805 -1.394852 46.414016 0.702188 1.600853 0.107340 -0.022136 188741.000000 0 0 1
-36.314824 -30.129005 -0.286252 47.186919 0.692567 1.576863 0.088267 -0.015579 99814.900000 0 0 1
-37.062764 -28.949305 -0.055652 47.028862 0.663103 1.571980 0.096018 -0.017622 -135483.000000 0 0 1
37.568906 -29.071405 1.143748 47.517128 -0.658570 1.546724 0.086164 -0.009958 -279164.000000 0 0 1
36.329936 -29.688505 0.852048 46.925447 -0.685136 1.552638 0.053004 -0.002891 352404.000000 0 0 1
35.304836 -29.475405 1.836648 46.028298 -0.695652 1.530883 0.054960 -0.000748 1028130.000000 0 0 1
34.480876 -28.130605 1.712948 44.533088 -0.684320 1.532322 0.040844 0.010462 -438060.000000 0 0 1
33.479036 -27.998505 0.733548 43.649745 -0.696486 1.553990 0.041863 0.002498 82231.600000 0 0 1
32.839986 -26.747305 0.888048 42.363565 -0.683504 1.549832 0.042049 0.000886 140262.000000 0 0 1
31.688316 -26.571305 -0.172452 41.354726 -0.697792 1.574966 0.034710 -0.005109 1073060.000000 0 0 1
30.445266 -27.181405 0.229948 40.814163 -0.728821 1.565162 0.035782 0.005092 593617.000000 0 0 1
30.261766 -28.588005 0.125548 41.630088 -0.756965 1.567781 0.037840 -0.000037 -571978.000000 0 0 1
29.766366 -29.141705 -1.233252 41.674889 -0.774795 1.600393 0.034723 -0.009072 -1025250.000000 0 0 1
28.413966 -28.988705 -1.472552 40.618553 -0.795410 1.607057 0.051539 -0.008416 -1028450.000000 0 0 1
28.037766 -29.355405 -2.772452 40.688360 -0.808352 1.638988 0.054962 -0.005762 -30528.400000 0 0 1
26.554466 -29.740005 -2.847952 39.971470 -0.841925 1.642106 0.072402 -0.022979 -66729.000000 0 0 1
25.618166 -28.703005 -2.914052 38.582958 -0.842126 1.646395 0.094286 -0.022312 118491.000000 0 0 1
24.319766 -29.194605 -3.236352 38.134629 -0.876241 1.655765 0.079407 -0.025212 1534310.000000 0 0 1
23.143466 -28.109705 -3.339852 36.564055 -0.881993 1.662266 0.074627 -0.026516 1000630.000000 0 0 1
23.274566 -27.256205 -4.427752 36.113863 -0.864032 1.693711 0.092956 -0.026970 -91406.200000 0 0 1
22.572866 -26.037005 -4.305352 34.727452 -0.856542 1.695092 0.101711 -0.030613 -199097.000000 0 0 1
21.976966 -25.448605 -5.632152 34.093103 -0.858470 1.736756 0.111349 -0.042582 628950.000000 0 0 1
20.647966 -25.844105 -5.966552 33.613331 -0.896700 1.749247 0.108766 -0.038657 123137.000000 0 0 1
20.202666 -25.391405 -7.256552 33.249492 -0.898714 1.790813 0.139467 -0.042448 630760.000000 0 0 1
18.678266 -25.693805 -7.454452 32.628486 -0.942207 1.801297 0.117662 -0.038135 445417.000000 0 0 1
17.965666 -24.872705 -6.563652 31.376713 -0.945257 1.781541 0.090307 -0.034793 -371426.000000 0 0 1
16.585666 -25.177905 -6.653952 30.875335 -0.988302 1.788011 0.074677 -0.031965 253617.000000 0 0 1
15.723566 -24.205005 -5.766452 29.434075 -0.994703 1.767982 0.058528 -0.025588 -8586.110000 0 0 1
15.729566 -24.608505 -4.395052 29.534966 -1.002056 1.720159 0.045776 -0.018448 88806.200000 0 0 1
15.244066 -23.631405 -3.521352 28.341220 -0.997890 1.695367 0.056844 -0.023382 -173660.000000 0 0 1
15.156266 -24.201105 -2.066852 28.630015 -1.011289 1.643051 0.070656 -0.028284 194649.000000 0 0 1
14.410266 -25.396005 -1.997652 29.267788 -1.054675 1.639104 0.054862 -0.019098 771626.000000 0 0 1
15.334966 -26.457005 -2.145052 30.655106 -1.045498 1.640827 0.071810 -0.024374 487916.000000 0 0 1
14.532566 -27.770705 -2.054452 31.410640 -1.088679 1.636249 0.068035 -0.015002 262685.000000 0 0 1
13.686666 -27.938205 -0.935852 31.124652 -1.115269 1.600869 0.086338 -0.026875 294666.000000 0 0 1
12.893966 -29.134905 -1.008752 31.876553 -1.154146 1.602447 0.065173 -0.018415 123069.000000 0 0 1
13.511166 -30.487505 -0.524352 33.351379 -1.153636 1.586519 0.067496 -0.019302 643094.000000 0 0 1
14.606666 -30.977705 -1.344152 34.275059 -1.130190 1.610023 0.061621 -0.017167 568118.000000 0 0 1
15.076766 -32.268405 -0.950852 35.629524 -1.133707 1.597487 0.060596 -0.017781 -485836.000000 0 0 1
16.466666 -32.507005 -1.550652 36.472743 -1.101917 1.613325 0.048129 -0.011956 98519.300000 0 0 1
17.433566 -31.665705 -0.913852 36.159110 -1.067531 1.596072 0.054157 -0.010143 980158.000000 0 0 1
18.737566 -31.653905 -1.535652 36.816088 -1.036316 1.612520 0.059303 -0.018878 1126650.000000 0 0 1
19.679766 -30.569205 -0.908652 36.367501 -0.998808 1.595784 0.065239 -0.019399 80779.300000 0 0 1
19.344166 -29.303105 -1.467252 35.142873 -0.987325 1.612560 0.069934 -0.021341 181888.000000 0 0 1
19.671466 -28.223505 -0.576352 34.407339 -0.962094 1.587548 0.070342 -0.020628 -47520.600000 0 0 1
19.253766 -26.824805 -1.066552 33.036574 -0.948250 1.603086 0.060457 -0.011845 38614.400000 0 0 1
20.039366 -26.341805 -2.122652 33.165834 -0.920455 1.634841 0.055997 -0.015186 -167819.000000 0 0 1
19.179066 -25.899105 -3.111752 32.377202 -0.933384 1.667054 0.064543 -0.016867 -545087.000000 0 0 1
33.652046 -29.224405 13.714748 46.632825 -0.715096 1.272282 0.067241 -0.044442 592642.000000 0 0 1
34.545476 -29.833505 14.690448 47.950362 -0.712337 1.259421 0.083145 -0.035768 405158.000000 0 0 1
33.906356 -30.056905 15.885648 48.014709 -0.725288 1.233593 0.075669 -0.027955 -487107.000000 0 0 1
34.902446 -30.648405 16.861748 49.414816 -0.720592 1.222573 0.076391 -0.017275 -445460.000000 0 0 1
34.348586 -30.739305 18.126548 49.530818 -0.730002 1.196127 0.074987 -0.012982 166068.000000 0 0 1
35.247596 -31.150205 19.141148 50.784957 -0.723767 1.184343 0.054978 -0.014089 -278196.000000 0 0 1
35.853936 -32.549005 19.178948 52.084302 -0.737120 1.193693 0.040080 -0.009827 -318421.000000 0 0 1
36.873016 -32.704005 18.233748 52.551316 -0.725550 1.216457 0.041436 -0.001828 -157260.000000 0 0 1
37.636336 33.785035 18.441248 53.833094 0.731527 1.221152 0.045122 -0.016422 -1069000.000000 0 0 1
-36.851424 33.551935 17.453548 52.805172 -0.738567 1.233934 0.053275 -0.012786 -800206.000000 0 0 1
-35.803938 -33.156205 17.620048 51.881808 0.747022 1.224285 0.070493 -0.017519 288326.000000 0 0 1
-34.767741 -33.297105 16.665048 50.943271 0.763795 1.237532 0.076660 -0.013973 243155.000000 0 0 1
-33.517114 -32.423605 16.989448 49.631930 0.768816 1.221423 0.069333 -0.021319 886370.000000 0 0 1
-32.443364 -32.424005 16.034848 48.590167 0.785100 1.234491 0.079459 -0.026320 275417.000000 0 0 1
-32.673954 -31.620405 14.888348 47.844542 0.769013 1.254360 0.078455 -0.029385 -289956.000000 0 0 1
-31.442484 -31.335705 14.005148 46.547829 0.783697 1.265185 0.071364 -0.029583 -105509.000000 0 0 1
-30.317634 -30.830805 14.666248 45.659570 0.793790 1.243791 0.062600 -0.028725 -434423.000000 0 0 1
-29.285194 -30.627305 13.702348 44.535478 0.807796 1.258050 0.057678 -0.023660 234880.000000 0 0 1
-27.986604 -30.191505 14.406448 43.615625 0.823279 1.234170 0.073645 -0.027446 675874.000000 0 0 1
-26.892024 -29.976105 13.492848 42.471223 0.839577 1.247500 0.082917 -0.023747 -116912.000000 0 0 1
-25.754574 -29.481005 14.142748 41.622651 0.852760 1.224108 0.071433 -0.024761 -199274.000000 0 0 1
-24.488824 -29.579605 13.261448 40.626611 0.879276 1.238280 0.087866 -0.024246 -49066.000000 0 0 1
-24.081224 -30.916905 13.054748 41.306014 0.909053 1.249234 0.092954 -0.021460 588777.000000 0 0 1
-22.811524 -30.973005 12.393348 40.413955 0.935993 1.259114 0.091558 -0.033653 719609.000000 0 0 1
-22.309024 -32.415105 12.104248 41.169703 0.968014 1.272378 0.080023 -0.029624 206773.000000 0 0 1
-22.923224 -32.913205 10.908948 41.566314 0.962440 1.305239 0.075436 -0.027634 318744.000000 0 0 1
-22.704324 33.325335 10.838048 41.755569 -0.972736 1.308230 0.085183 -0.014436 314742.000000 0 0 1
-23.684624 32.638335 9.838048 41.509150 -0.943050 1.331510 0.079124 -0.009631 294257.000000 0 0 1
-23.380724 32.879535 8.518248 41.234484 -0.952658 1.362717 0.080559 -0.016271 -349942.000000 0 0 1
-24.534224 32.676635 7.770848 41.594191 -0.926772 1.382867 0.085222 -0.025316 -707364.000000 0 0 1
-24.276324 32.956535 6.262248 41.408802 -0.935916 1.418984 0.088253 -0.023610 -46178.300000 0 0 1
-23.451924 32.059535 5.479348 40.097753 -0.939233 1.433718 0.085811 -0.029195 1120750.000000 0 0 1
-22.049624 32.065035 5.775848 39.340981 -0.968405 1.423449 0.085779 -0.025761 321340.000000 0 0 1
-21.201824 33.278735 5.323948 39.816278 -1.003544 1.436682 0.094522 -0.026664 -527240.000000 0 0 1
-21.289624 -33.195605 6.127748 39.909217 1.000534 1.416644 0.095136 -0.031651 207810.000000 0 0 1
-20.527324 -33.377105 7.319748 39.862023 1.019412 1.386121 0.091244 -0.034046 -108531.000000 0 0 1
-20.714724 -32.188205 8.287348 39.164531 0.998969 1.357581 0.087354 -0.036549 -98684.700000 0 0 1
-19.872624 -31.096305 7.915148 37.743224 1.002145 1.359518 0.091586 -0.048805 158233.000000 0 0 1
-19.723524 -29.964705 8.797948 36.936497 0.988661 1.330293 0.094812 -0.047866 130519.000000 0 0 1
-19.090324 -30.173305 10.210048 37.136423 1.006687 1.292276 0.087600 -0.039615 257077.000000 0 0 1
-17.698524 -30.408905 10.130748 36.613813 1.043704 1.290446 0.079032 -0.046357 100109.000000 0 0 1
-17.023424 -30.292105 11.380448 36.563960 1.058805 1.254291 0.099362 -0.045149 100719.000000 0 0 1
-15.571524 -30.765205 11.443348 36.330709 1.102248 1.250364 0.101056 -0.042911 409879.000000 0 0 1
-14.565524 -30.103205 10.645248 35.095281 1.120150 1.262617 0.109403 -0.048607 733949.000000 0 0 1
-13.572124 -31.072705 10.297848 35.436721 1.158985 1.275944 0.106456 -0.041482 659126.000000 0 0 1
-12.430424 -30.458905 9.403948 34.215414 1.183323 1.292367 0.115954 -0.034719 748874.000000 0 0 1
-11.538524 -29.636605 10.155348 33.385581 1.199519 1.261715 0.113684 -0.035618 -231239.000000 0 0 1
-10.507524 -29.097705 9.386748 32.329484 1.224257 1.276208 0.127515 -0.035332 -168117.000000 0 0 1
-9.411324 -28.350805 10.167048 31.554873 1.250283 1.242742 0.133391 -0.029597 114034.000000 0 0 1
-9.821224 -27.215205 10.932948 30.929811 1.224468 1.209512 0.099203 -0.033119 167043.000000 0 0 1
-8.853724 -27.058105 11.992048 30.892373 1.254565 1.172132 0.087957 -0.027174 375813.000000 0 0 1
-9.142924 -25.827505 12.911248 30.287843 1.230563 1.130415 0.075492 -0.029041 59336.200000 0 0 1
-8.768024 -24.548105 12.379748 28.857337 1.227742 1.127413 0.059918 -0.027026 -126715.000000 0 0 1
-9.567624 -24.089405 11.307148 28.278799 1.192731 1.159448 0.060132 -0.022890 11078.300000 0 0 1
-9.071124 -22.732505 10.809848 26.756399 1.191120 1.154900 0.060411 -0.020929 -62548.400000 0 0 1
-7.935324 -22.779905 9.971548 26.102207 1.235594 1.178816 0.051439 -0.028926 -269141.000000 0 0 1
-7.546824 -21.474105 9.633548 24.716330 1.232841 1.170420 0.052530 -0.018801 -78440.800000 0 1 0
-6.227024 -21.578905 8.840348 24.136626 1.289858 1.195807 0.051488 -0.025122 189159.000000 0 1 0
-5.075224 -22.054505 9.510948 24.548263 1.344612 1.172945 0.044995 -0.029175 420186.000000 0 1 0
-4.042524 -22.364105 8.544048 24.279538 1.391968 1.211193 0.048438 -0.028635 1295110.000000 0 1 0
-2.916924 -23.281005 9.167148 25.190281 1.446154 1.198328 0.054933 -0.029372 470575.000000 0 0 1
-2.189724 -22.728005 10.236448 25.022829 1.474748 1.149346 0.055969 -0.024068 -208514.000000 0 0 1
-1.206324 -23.658205 10.671548 25.981682 1.519851 1.147538 0.076155 -0.035220 -398767.000000 0 0 1
-0.251724 -23.025405 11.651548 25.806806 1.559864 1.102360 0.085771 -0.031046 -722107.000000 0 0 1
-0.715124 -22.721805 12.972448 26.173961 1.539334 1.052243 0.079255 -0.034273 -351147.000000 0 0 1
0.329176 -22.546705 13.901948 26.490119 -1.556198 1.018319 0.118406 -0.037488 -278854.000000 0 0 1
0.976676 -21.165605 13.916348 25.349585 -1.524685 0.989656 0.097573 -0.033128 -253379.000000 0 0 1
1.892476 -21.038605 12.837548 24.718556 -1.481085 1.024708 0.103613 -0.040811 -166586.000000 0 1 0
2.246576 -19.668205 12.660048 23.498132 -1.457066 1.001822 0.081351 -0.035973 16045.700000 0 1 0
3.758576 -19.420705 12.484148 23.391123 -1.379625 1.007811 0.090120 -0.035769 -63727.300000 0 1 0
4.284876 -19.998905 11.365548 23.398548 -1.359732 1.063590 0.092183 -0.026323 -610344.000000 0 1 0
5.683176 -20.139605 11.300048 23.782205 -1.295759 1.075665 0.128709 -0.026887 158907.000000 0 1 0
6.188076 -20.755605 9.987148 23.850169 -1.281047 1.138733 0.127962 -0.034723 -330231.000000 0 1 0
6.235476 -19.912805 8.846548 22.664121 -1.267329 1.169803 0.108238 -0.033286 -375285.000000 0 1 0
6.394976 -20.586005 7.593948 22.854920 -1.269601 1.232090 0.107661 -0.042272 -594129.000000 0 1 0
7.775476 -21.216805 7.346048 23.760793 -1.219519 1.256480 0.109877 -0.022314 132330.000000 0 1 0
8.815076 -20.302105 6.933548 23.193859 -1.161163 1.267216 0.119685 -0.035973 601640.000000 0 1 0
9.314176 -19.302205 7.822148 22.814798 -1.121210 1.220843 0.115674 -0.023501 -135623.000000 0 1 0
10.169676 -19.777105 9.037248 24.004750 -1.095842 1.184805 0.089399 -0.012910 -99774.100000 0 1 0
9.401176 -20.122705 10.157948 24.423130 -1.133738 1.141848 0.108386 -0.016730 131507.000000 0 1 0
10.224276 -20.040305 11.348148 25.197819 -1.099033 1.103625 0.093288 -0.004372 738976.000000 0 0 1
9.321276 -20.150405 12.593648 25.524987 -1.137526 1.054819 0.122754 -0.022392 123703.000000 0 0 1
9.263576 -21.499505 12.983948 26.769861 -1.163961 1.064409 0.111756 -0.030322 -129116.000000 0 0 1
8.498976 -21.805405 14.129348 27.337644 -1.199145 1.027634 0.153073 -0.027823 10387.800000 0 0 1
8.786276 -23.173505 14.719548 28.824904 -1.208391 1.034851 0.154068 -0.039068 93249.300000 0 0 1
8.428976 -24.285105 13.926848 29.236468 -1.236721 1.074295 0.165633 -0.036201 -137225.000000 0 0 1
8.508776 -25.423405 14.710748 30.580302 -1.247832 1.068941 0.176697 -0.040227 146166.000000 0 0 1
8.718776 -26.743605 13.893348 31.372959 -1.255648 1.112027 0.190415 -0.043118 148654.000000 0 0 1
9.955876 -26.768005 13.203348 31.463852 -1.214718 1.137753 0.151338 -0.034201 -3776.720000 0 0 1
9.952676 -27.730705 12.182148 31.881852 -1.226211 1.178726 0.139205 -0.036064 -635084.000000 0 0 1
11.330176 -27.913305 11.564148 32.268483 -1.185209 1.204272 0.105843 -0.034566 -458671.000000 0 0 1
12.218176 -28.615205 12.449848 33.512871 -1.167248 1.190178 0.080066 -0.027446 -421546.000000 0 0 1
13.366176 -28.862405 11.699048 33.890423 -1.137102 1.218342 0.111677 -0.025419 -718486.000000 0 0 1
14.450876 -29.561405 12.555948 35.218693 -1.116114 1.206263 0.089008 -0.028757 -1019120.000000 0 0 1
15.023676 -28.688205 13.477148 35.076452 -1.088378 1.176431 0.067442 -0.024232 336982.000000 0 0 1
15.962276 -29.334505 14.379248 36.360283 -1.072458 1.164221 0.044617 -0.020154 1215580.000000 0 0 1
17.370176 -29.515405 13.705848 36.888107 -1.038867 1.190116 0.069335 -0.020006 -162070.000000 0 0 1
18.092676 -28.282205 13.562948 36.210242 -1.001682 1.186873 0.063969 -0.019184 516086.000000 0 0 1
19.268776 -28.506705 12.773848 36.702713 -0.976402 1.215322 0.071008 -0.017230 204222.000000 0 0 1
20.221576 -27.285805 12.838348 36.307719 -0.933014 1.209381 0.037628 -0.014013 299994.000000 0 0 1
21.453076 -27.459305 12.134048 36.898279 -0.907582 1.235709 0.047002 -0.020835 388625.000000 0 0 1
22.185976 -26.203805 12.048948 36.387279 -0.868239 1.233295 0.044542 -0.021133 -478326.000000 0 0 1
23.533576 -26.564405 11.459448 37.293642 -0.845823 1.258467 0.060504 -0.016414 -459552.000000 0 0 1
24.294276 -27.520605 12.275748 38.707745 -0.847584 1.248085 0.073528 -0.031555 -252606.000000 0 0 1
25.497676 -27.762505 11.626048 39.446840 -0.827896 1.271627 0.055506 -0.034835 -1597590.000000 0 0 1
26.405176 -28.599005 12.575248 40.905663 -0.825262 1.258315 0.069719 -0.033315 1020560.000000 0 0 1
27.578576 -27.964505 13.194348 41.432864 -0.792346 1.246701 0.073336 -0.039422 1495740.000000 0 0 1
28.567776 -27.816005 12.142648 41.680833 -0.772066 1.275185 0.056843 -0.041091 176051.000000 0 0 1
29.970976 -27.327505 12.673548 42.493185 -0.739296 1.267939 0.089002 -0.054247 691059.000000 0 0 1
30.127476 -25.914005 12.837648 41.761294 -0.710354 1.258331 0.094282 -0.053686 151221.000000 0 0 1
29.383676 -25.367505 13.943648 41.247255 -0.712176 1.225952 0.110090 -0.044016 -264204.000000 0 0 1
30.098276 -25.142305 15.321848 42.104640 -0.695922 1.198346 0.105529 -0.027648 -17991.700000 0 0 1
30.410376 -26.387205 15.960448 43.310639 -0.714683 1.193390 0.102420 -0.027926 39091.600000 0 0 1
31.017376 -26.118205 17.215148 44.052237 -0.699861 1.169307 0.103154 -0.011732 190850.000000 0 0 1
31.419676 -27.463005 17.909648 45.411102 -0.718303 1.165393 0.094491 0.008716 1160320.000000 0 0 1
30.298276 -27.990605 18.651648 45.269675 -0.745829 1.146135 0.090084 -0.006933 819328.000000 0 0 1
30.836776 -28.896305 19.580548 46.575756 -0.752924 1.136908 0.108831 -0.009039 351782.000000 0 0 1
29.747376 -29.854705 20.085648 46.686647 -0.787199 1.126057 0.102731 -0.007146 -384400.000000 0 0 1
28.700276 -29.169405 20.749848 45.881545 -0.793505 1.101512 0.111534 -0.006745 436982.000000 0 0 1
27.578676 -29.959505 21.145448 45.883388 -0.826753 1.091841 0.129961 -0.012668 788752.000000 0 0 1
26.586676 -30.405505 20.052848 45.093933 -0.852304 1.109968 0.136948 -0.018310 -730469.000000 0 0 1
27.100676 -31.498905 19.362648 45.842554 -0.860313 1.134735 0.116343 -0.010977 67941.200000 0 0 1
26.506976 -31.799505 18.070848 45.170608 -0.875921 1.159217 0.128346 -0.010921 185318.000000 0 0 1
26.976376 -30.866105 16.850148 44.321200 -0.852544 1.180803 0.130271 -0.010946 951546.000000 0 0 1
28.329176 -31.089705 16.422248 45.153097 -0.831824 1.198558 0.121091 -0.019472 652130.000000 0 0 1
28.633776 -30.123405 15.446848 44.338671 -0.810745 1.214951 0.115044 -0.038197 577237.000000 0 0 1
30.171476 -30.037905 15.089848 45.169649 -0.783180 1.230177 0.129165 -0.028317 813407.000000 0 0 1
30.737876 -31.052705 14.268248 45.963794 -0.790493 1.255158 0.157055 -0.024502 199768.000000 0 0 1
30.756876 -32.359005 14.763348 47.021772 -0.810777 1.251426 0.170432 -0.034015 -778903.000000 0 0 1
29.656476 -33.199705 14.102448 46.696959 -0.841709 1.264007 0.146804 -0.033644 -248257.000000 0 0 1
29.788076 -33.479805 12.732048 46.586821 -0.843683 1.293977 0.140101 -0.038047 217809.000000 0 0 1
28.837776 33.200735 12.327348 45.671322 0.855609 1.297492 0.116366 -0.044613 -3947.360000 0 0 1
29.190076 32.525835 11.016548 45.070554 0.839396 1.323866 0.115388 -0.048508 -260010.000000 0 0 1
30.329076 31.700635 11.102548 45.255383 0.807506 1.322935 0.093702 -0.036923 80163.100000 0 0 1
30.619076 31.134335 9.810248 44.756179 0.793742 1.349809 0.087354 -0.036391 -111254.000000 0 0 1
32.125776 30.909435 9.549948 45.592326 0.766104 1.359770 0.073305 -0.025700 328439.000000 0 0 1
32.712276 29.948635 10.473448 45.570899 0.741322 1.338896 0.063512 -0.020767 -9612.380000 0 0 1
34.069076 29.657035 10.254748 46.318479 0.716274 1.347550 0.076551 -0.014903 113812.000000 0 0 1
34.679876 28.617735 11.267148 46.353179 0.689917 1.325265 0.073692 -0.018173 49734.700000 0 0 1
34.152376 27.304235 11.235048 45.145679 0.674425 1.319291 0.068621 -0.026806 99034.500000 0 0 1
34.273876 26.694335 12.507148 45.207464 0.661713 1.290478 0.082580 -0.036163 53602.900000 0 0 1
34.031076 25.132135 12.509648 44.116093 0.636104 1.283290 0.079341 -0.038872 -6024.420000 0 0 1
35.077876 24.438535 11.865848 44.367755 0.608504 1.300058 0.089301 -0.023644 -219720.000000 0 0 1
34.975076 23.025535 11.760948 43.494265 0.582217 1.296985 0.084317 -0.028493 -319468.000000 0 0 1
33.817876 22.522635 10.871948 42.060873 0.587539 1.309347 0.081346 -0.027617 -587278.000000 0 0 1
32.625476 22.509035 11.583148 41.294644 0.603930 1.286481 0.093510 -0.037130 -1341530.000000 0 0 1
31.589176 22.226535 10.676648 40.073504 0.613146 1.301113 0.094940 -0.031446 -737010.000000 0 0 1
30.331776 21.815135 11.430048 39.071252 0.623507 1.273911 0.095126 -0.032826 -577561.000000 0 0 1
30.069676 22.865735 12.298848 39.727684 0.650140 1.256046 0.097223 -0.028986 1219260.000000 0 0 1
28.866176 22.548335 13.095548 38.899575 0.663131 1.227439 0.146586 -0.035968 1557060.000000 0 0 1
25.592676 9.247535 25.686617 37.420640 0.346737 0.814229 0.080113 -0.010919 -209240.000000 0 0 1
25.012076 7.977135 25.572927 36.649874 0.308733 0.798526 0.076290 -0.017823 -1167160.000000 0 0 1
23.708776 8.035535 25.986467 36.082854 0.326776 0.766722 0.053391 -0.015864 -1530640.000000 0 0 1
23.156476 6.776035 26.659677 35.956577 0.284672 0.735581 0.056583 -0.020626 -142805.000000 0 0 1
23.580976 6.587835 27.995127 37.191251 0.272425 0.718591 0.048239 -0.008874 757099.000000 0 0 1
24.970076 6.259835 28.139677 38.138323 0.245631 0.740943 0.049262 -0.006241 581090.000000 0 0 1
25.323976 6.156335 29.679357 39.497702 0.238477 0.720585 0.058064 -0.020933 20502.100000 0 0 1
25.099676 7.319835 30.452437 40.136326 0.283761 0.709443 0.093648 -0.024692 -718.338000 0 0 1
25.142376 7.099035 31.819314 41.170428 0.275190 0.687448 0.090198 -0.026865 12813.800000 0 0 1
25.152876 8.341635 32.731661 42.114269 0.320223 0.680576 0.144242 -0.029229 1314690.000000 0 0 1
26.334576 9.197135 32.603331 42.907743 0.335999 0.707718 0.114280 -0.033974 920089.000000 0 0 1
26.461976 9.927435 -33.739222 44.012785 0.358910 2.444291 0.124079 -0.032317 -140991.000000 0 0 1
27.644176 10.886735 -33.718562 44.940659 0.375165 2.419298 0.107225 -0.035347 -402133.000000 0 0 1
27.421576 12.144335 33.289866 44.806728 0.416913 0.733306 0.117426 -0.042757 173428.000000 0 0 1
27.347976 13.124835 -33.341802 45.076034 0.447455 2.403390 0.118932 -0.043092 -273878.000000 0 0 1
26.818976 14.492035 33.735087 45.467930 0.495416 0.734817 0.114178 -0.044159 -772635.000000 0 0 1
27.681176 15.200735 32.865183 45.578834 0.502180 0.765462 0.101341 -0.047564 153370.000000 0 0 1
27.592576 16.600835 32.852203 46.002231 0.541626 0.775396 0.096422 -0.050249 -280393.000000 0 0 1
28.234676 17.336635 -33.547872 47.150987 0.550664 2.362425 0.085503 -0.058292 -259282.000000 0 0 1
27.678976 17.027635 -32.265962 45.794741 0.551509 2.352624 0.107298 -0.062453 446247.000000 0 0 1
28.641276 16.394535 -31.436392 45.577957 0.519885 2.331910 0.103515 -0.059606 -209851.000000 0 0 1
27.977376 15.828335 -30.190762 44.099341 0.514859 2.324862 0.122409 -0.043792 124435.000000 0 0 1
27.022176 14.851035 -30.559322 43.412249 0.502526 2.351716 0.129339 -0.033556 -320321.000000 0 0 1
26.095376 14.596035 -29.556462 42.042803 0.509981 2.350416 0.161465 -0.034300 -420388.000000 0 0 1
25.302276 13.348635 -29.940632 41.410538 0.485457 2.378960 0.156276 -0.029167 152969.000000 0 0 1
24.324676 13.637835 -30.999182 41.696878 0.510989 2.408998 0.160789 -0.031895 1345390.000000 0 0 1
23.518876 12.555535 -31.508872 41.274544 0.490359 2.439353 0.133873 -0.024146 637830.000000 0 0 1
22.562876 11.843935 -30.515782 39.756447 0.483392 2.445835 0.132966 -0.015420 -123767.000000 0 0 1
21.312676 12.495335 -30.323842 39.113922 0.530275 2.457938 0.163897 -0.017541 111351.000000 0 0 1
20.555776 11.766035 -29.425802 37.773765 0.519875 2.463867 0.141831 -0.005352 -147862.000000 0 0 1
19.231976 12.371835 -28.892022 36.846711 0.571647 2.472064 0.123395 0.001377 103664.000000 0 0 1
18.263676 12.468835 -29.898752 37.188292 0.599029 2.504759 0.084303 0.009072 -370953.000000 0 0 1
17.143076 13.190935 -29.438412 36.530890 0.655841 2.507906 0.075169 -0.002964 -264853.000000 0 0 1
16.139276 13.438335 -30.607092 37.119525 0.694334 2.540212 0.060226 -0.000425 471812.000000 0 0 1
15.322676 12.369035 -31.190642 36.886767 0.679138 2.578443 0.058047 0.001932 314223.000000 0 0 1
14.102576 12.417135 -30.478502 35.805125 0.721929 2.589127 0.071369 -0.002455 -705132.000000 0 0 1
12.954876 11.840935 -31.316712 35.899484 0.740504 2.630774 0.076972 -0.005801 -196066.000000 0 0 1
12.482576 12.682835 -32.372252 36.940922 0.793356 2.638976 0.092206 -0.006304 -655280.000000 0 0 1
11.478476 12.050035 -33.048142 37.001871 0.809686 2.675093 0.105238 -0.009920 -950608.000000 0 0 1
11.035976 12.779435 33.268933 37.308560 0.858475 0.469656 0.120529 -0.014984 191044.000000 0 0 1
12.006076 12.843435 32.219043 36.703766 0.819083 0.499519 0.097597 0.000161 246588.000000 0 0 1
11.394376 13.153835 31.005077 35.555168 0.856949 0.511467 0.118506 -0.027144 -122912.000000 0 0 1
12.276276 12.987535 29.737457 34.694371 0.813544 0.541132 0.113213 -0.026185 -218638.000000 0 0 1
12.510276 11.615135 29.441867 34.032953 0.748312 0.525449 0.118494 -0.026187 151908.000000 0 0 1
12.182876 11.227335 28.136557 32.651820 0.744604 0.532157 0.165254 -0.027200 -233307.000000 0 0 1
12.833476 9.896735 27.708227 32.099678 0.656910 0.529235 0.170839 -0.028825 -198790.000000 0 0 1
12.296576 8.686335 28.190277 31.958566 0.615010 0.490519 0.162917 -0.039196 -27428.300000 0 0 1
12.886276 7.609635 27.527587 31.332582 0.533422 0.497955 0.133849 -0.033109 209104.000000 0 0 1
12.098276 6.224335 27.726987 30.885214 0.475165 0.456177 0.142659 -0.036760 1118110.000000 0 0 1
10.871876 6.166635 26.959527 29.716009 0.515960 0.434123 0.140140 -0.036699 931943.000000 0 0 1
9.967276 5.119335 27.329557 29.537415 0.474480 0.389097 0.128449 -0.033241 561405.000000 0 0 1
10.444876 3.725335 26.875257 29.073235 0.342601 0.391341 0.122928 -0.035792 -152038.000000 0 0 1
11.512576 3.139335 27.601937 30.070946 0.266215 0.408056 0.114195 -0.037633 361097.000000 0 0 1
11.533076 1.755735 27.264657 29.655623 0.151075 0.404306 0.088459 -0.028923 -583977.000000 0 0 1
12.173176 0.848135 28.309727 30.827686 0.069560 0.406977 0.063200 -0.024778 169968.000000 0 0 1
11.291876 0.851935 29.419727 31.523842 0.075304 0.367431 0.059179 -0.023678 124255.000000 0 0 1
11.556576 -0.242865 30.216267 32.351758 -0.021012 0.365370 0.051535 -0.025646 -276807.000000 0 0 1
10.562076 -0.329065 31.350617 33.083635 -0.031145 0.325105 0.078228 -0.023375 -160237.000000 0 0 1
10.858576 0.659335 32.340752 34.121366 0.060646 0.324484 0.062619 -0.025125 -154394.000000 0 0 1
9.650976 1.093335 32.894732 34.298690 0.112807 0.287108 0.084571 -0.026391 -360896.000000 0 0 1
9.768876 2.517735 33.551267 35.035089 0.252241 0.292078 0.086250 -0.029684 -154198.000000 0 0 1
9.813476 3.636735 32.629815 34.267112 0.354895 0.310373 0.076777 -0.034239 231450.000000 0 0 1
11.000576 3.817735 31.881659 33.941538 0.334043 0.350180 0.074558 -0.031552 -216726.000000 0 0 1
10.943276 5.155135 31.069067 33.340930 0.440243 0.371291 0.092602 -0.029149 110563.000000 0 0 1
11.130776 6.315335 31.935486 34.404257 0.516086 0.381137 0.093689 -0.032243 41544.700000 0 0 1
11.353976 7.518135 31.166657 34.011699 0.584875 0.411927 0.108292 -0.026003 -365630.000000 0 0 1
11.289376 8.816135 32.034140 35.090745 0.663000 0.420477 0.130818 -0.037043 988285.000000 0 0 1
9.979276 9.125235 32.570491 35.266028 0.740724 0.393519 0.140049 -0.042349 905591.000000 0 0 1
9.497876 8.272435 33.568077 35.853293 0.716547 0.358962 0.132320 -0.042653 -1051210.000000 0 0 1
8.153576 8.743635 -33.518172 35.586511 0.820304 2.798975 0.135651 -0.047866 -732605.000000 0 0 1
7.655576 7.913435 -32.506732 34.320809 0.801959 2.815008 0.136671 -0.039877 74012.800000 0 0 1
6.285076 8.216735 -32.288712 33.905425 0.917820 2.831538 0.114605 -0.038995 452900.000000 0 0 1
5.658276 7.558135 -31.023072 32.427958 0.928170 2.846161 0.114612 -0.034698 -367399.000000 0 0 1
6.207276 8.098535 -29.854752 31.550321 0.916838 2.812260 0.116184 -0.040583 -28029.900000 0 0 1
5.768976 7.692435 -28.563582 30.138561 0.927324 2.816879 0.113748 -0.039446 596936.000000 0 0 1
4.279176 8.002935 -28.167242 29.593104 1.079775 2.829906 0.095208 -0.037867 622455.000000 0 0 1
3.338876 7.111735 -28.673702 29.730557 1.131855 2.874159 0.082788 -0.028722 -487153.000000 0 0 1
2.040276 7.268935 -28.177302 29.171227 1.297153 2.879801 0.104813 -0.023152 -153546.000000 0 0 1
0.886176 6.743435 -29.035832 29.821783 1.440132 2.911499 0.108614 -0.036766 -242151.000000 0 0 1
0.571576 7.492835 -30.242422 31.162050 1.494661 2.898046 0.101714 -0.038008 -207430.000000 0 0 1
-0.120224 6.660935 -31.107562 31.812936 -1.552749 2.930619 0.137725 -0.036391 -674818.000000 0 0 1
-0.407224 7.245635 -32.500212 33.300583 -1.514653 2.921904 0.141439 -0.046201 260523.000000 0 0 1
0.735676 7.781535 -33.173432 34.081815 1.476535 2.910196 0.097363 -0.034191 699128.000000 0 0 1
1.736976 6.875635 -33.675822 34.414422 1.323346 2.934040 0.113856 -0.038553 399010.000000 0 0 1
1.545876 6.329535 32.509460 33.155961 1.331254 0.197800 0.148251 -0.042055 -139534.000000 0 0 1
0.641476 5.262335 32.357880 32.789268 1.449495 0.162390 0.143363 -0.039448 -407658.000000 0 0 1
0.360476 5.027435 30.973937 31.381361 1.499217 0.161315 0.162358 -0.037933 457251.000000 0 0 1
1.374976 4.171835 30.098297 30.417138 1.252423 0.144918 0.176497 -0.042867 561275.000000 0 0 1
1.001676 4.037235 28.733847 29.033371 1.327598 0.143766 0.147809 -0.037515 245510.000000 0 0 1
2.034676 3.402135 27.986887 28.266239 1.031806 0.140707 0.128850 -0.031606 247528.000000 0 0 1
2.015176 3.825635 26.536267 26.886240 1.085974 0.161525 0.127189 -0.025554 -11977.900000 0 0 1
2.462076 5.125135 26.350807 26.957260 1.122958 0.212517 0.120823 -0.023217 -63430.300000 0 0 1
2.279876 5.602635 25.033607 25.754006 1.184331 0.237081 0.096537 -0.019043 -699859.000000 0 0 1
2.737176 7.083935 24.924117 26.055439 1.202076 0.295762 0.090726 -0.009388 724260.000000 0 0 1
4.165476 7.186835 24.883497 26.233380 1.045513 0.322193 0.083437 -0.002270 670901.000000 0 0 1
4.777276 6.981335 23.610417 25.080136 0.970690 0.344042 0.079974 -0.009497 -697165.000000 0 0 1
6.307176 6.952035 23.624187 25.420729 0.833995 0.378208 0.084376 -0.011180 -206903.000000 0 0 1
7.056076 5.959135 24.331777 26.025658 0.701315 0.362777 0.102003 -0.013546 180320.000000 0 0 1
6.810476 4.559335 24.279207 25.625183 0.589933 0.325552 0.100218 -0.019641 -987444.000000 0 0 1
7.118476 3.947135 22.867857 24.273267 0.506285 0.341956 0.093759 -0.021108 -149621.000000 0 1 0
6.195576 4.090335 21.826887 23.054913 0.583514 0.327857 0.070812 -0.016601 -114474.000000 0 1 0
4.913476 3.522935 22.067887 22.881105 0.622041 0.267408 0.066275 -0.016810 465005.000000 0 1 0
3.804576 3.917035 21.028387 21.725815 0.799961 0.254065 0.039807 -0.015423 388946.000000 0 1 0
3.532976 5.269835 21.127987 22.060030 0.980203 0.291723 0.044229 -0.017023 320855.000000 0 1 0
2.195976 5.452235 20.671487 21.490918 1.187908 0.277034 0.036924 -0.006273 188460.000000 0 1 0
1.732376 6.929035 20.669587 21.868802 1.325802 0.332702 0.041276 -0.004784 -93646.300000 0 1 0
2.498876 7.828035 19.911887 21.540793 1.261800 0.391388 0.037257 -0.010885 -263580.000000 0 1 0
1.918776 9.121335 20.062887 22.122385 1.363458 0.434919 0.050840 -0.018459 191990.000000 0 1 0
2.704976 10.357435 19.566487 22.303380 1.315339 0.500614 0.049671 -0.025484 -436920.000000 0 1 0
2.881476 10.423035 18.174587 21.148480 1.301080 0.536740 0.044551 -0.027439 231010.000000 0 1 0
3.832576 11.424035 17.806487 21.500423 1.247112 0.594922 0.046245 -0.027035 1498530.000000 0 1 0
5.383176 11.134935 17.900087 21.757263 1.120477 0.604621 0.044409 -0.029086 649271.000000 0 1 0
5.951676 10.185035 17.047687 20.731161 1.041960 0.605317 0.040342 -0.020818 193267.000000 0 1 0
7.292576 9.949435 17.461887 21.379673 0.938288 0.615037 0.040290 -0.006566 150584.000000 0 1 0
7.494176 8.532135 17.955587 21.245308 0.850074 0.563940 0.050790 -0.005293 -444213.000000 0 1 0
6.840176 8.150935 19.142787 21.901417 0.872612 0.507333 0.055955 -0.014845 -208763.000000 0 1 0
6.898476 6.775035 19.487187 21.754092 0.776371 0.460582 0.055934 -0.021424 206372.000000 0 1 0
8.272276 6.226535 19.987487 22.509996 0.645226 0.477953 0.080266 -0.012297 321153.000000 0 1 0
9.267576 6.333235 18.994487 22.063281 0.599481 0.533742 0.088842 -0.007875 1535990.000000 0 1 0
10.595076 5.735835 19.285387 22.739428 0.496192 0.558401 0.100482 -0.010515 2132080.000000 0 1 0
10.724376 4.195235 19.366787 22.531859 0.372886 0.536449 0.109152 -0.008362 -457076.000000 0 1 0
10.034176 3.561235 20.408787 23.019246 0.341043 0.480862 0.119379 -0.017280 -36154.300000 0 1 0
10.056976 2.164635 20.233087 22.698155 0.212003 0.470376 0.117627 -0.029667 -397934.000000 0 1 0
9.154676 1.453435 21.211787 23.148661 0.157450 0.411982 0.118009 -0.031444 -607869.000000 0 1 0
9.575276 1.401035 22.529757 24.520171 0.145287 0.405702 0.119895 -0.028097 -114222.000000 0 1 0
8.898076 0.388535 23.212597 24.862650 0.043637 0.366372 0.105451 -0.033329 -632860.000000 0 1 0
9.416876 0.199535 24.665987 26.403187 0.021186 0.364773 0.109045 -0.026018 64645.000000 0 0 1
10.742876 -0.225765 24.912577 27.131105 -0.021012 0.407210 0.096015 -0.034502 194393.000000 0 0 1
11.107276 -1.519165 24.375157 26.829606 -0.135929 0.431075 0.089588 -0.036714 208222.000000 0 0 1
12.580176 -1.925665 24.685497 27.773059 -0.151892 0.476013 0.082271 -0.032247 485323.000000 0 0 1
12.658976 -3.310265 24.436667 27.719275 -0.255768 0.491604 0.084320 -0.018683 666235.000000 0 0 1
13.993476 -3.795365 24.636947 28.586734 -0.264852 0.531927 0.087191 -0.017438 607654.000000 0 0 1
14.074476 -5.290765 24.620537 28.848811 -0.359570 0.548259 0.098951 -0.019024 -33118.500000 0 0 1
13.746476 -5.917165 23.379497 27.759311 -0.406477 0.569405 0.113469 -0.030215 254957.000000 0 0 1
13.339076 -7.240565 23.689047 28.134102 -0.497305 0.569808 0.130439 -0.038419 5413.660000 0 0 1
13.091276 -8.116565 22.411387 27.194308 -0.554994 0.602149 0.146468 -0.040975 237093.000000 0 0 1
12.523376 -9.394865 22.727737 27.597980 -0.643620 0.603192 0.145064 -0.038493 -71717.200000 0 0 1
12.709176 -10.354265 21.750687 27.236489 -0.683645 0.645854 0.168341 -0.043645 145472.000000 0 0 1
11.883576 -11.637665 22.041187 27.612833 -0.774944 0.646458 0.160230 -0.042622 419582.000000 0 0 1
10.480176 -11.461865 21.973887 26.908366 -0.830108 0.615267 0.121697 -0.037098 212071.000000 0 0 1
9.751376 -12.685765 21.866787 27.095652 -0.915443 0.631705 0.116769 -0.036138 -72282.400000 0 0 1
8.272676 -12.597865 22.247287 26.871642 -0.989744 0.595426 0.075961 -0.031450 -389979.000000 0 0 1
7.505676 -11.921965 21.294087 25.532461 -1.008920 0.584477 0.067281 -0.032844 -1046340.000000 0 0 1
6.193476 -11.810365 21.738287 25.502882 -1.087812 0.550266 0.038693 -0.033953 -633641.000000 0 0 1
5.497076 -10.521765 21.225887 24.320026 -1.089352 0.509940 0.026534 -0.032878 -64111.600000 0 1 0
5.761376 -9.386865 21.980387 24.585445 -1.020313 0.464511 0.035515 -0.024115 135743.000000 0 1 0
4.941976 -8.244865 21.668987 23.705399 -1.030818 0.417526 0.026889 -0.018446 -252195.000000 0 1 0
5.751776 -6.960465 21.627687 23.436891 -0.880194 0.395497 0.047307 -0.035001 -352001.000000 0 1 0
5.049676 -5.813165 21.205287 22.560060 -0.855567 0.348318 0.040115 -0.033448 -647629.000000 0 1 0
5.832976 -4.688465 21.114187 22.401210 -0.677045 0.340623 0.070254 -0.060062 -1118740.000000 0 1 0
-8.304524 -15.364565 -20.523452 26.948971 1.075277 2.436524 0.097826 -0.033575 256775.000000 0 0 1
-7.586324 -14.817665 -19.432352 25.587728 1.097612 2.433249 0.065103 -0.025777 -285538.000000 0 0 1
-7.050224 -13.587265 -19.704052 24.951334 1.092155 2.481115 0.086929 -0.036695 -56658.300000 0 1 0
-6.212824 -13.180765 -18.451852 23.511754 1.130326 2.473158 0.064817 -0.033252 -25153.100000 0 1 0
-5.274424 -14.140965 -18.059752 23.535953 1.213790 2.445457 0.057831 -0.018311 -491832.000000 0 1 0
-4.632124 -13.772765 -16.891752 22.281762 1.246356 2.431187 0.052003 -0.015480 -21079.000000 0 1 0
-3.530224 -14.711165 -16.328052 22.259518 1.335281 2.394299 0.046673 -0.007867 -94154.700000 0 1 0
-2.358724 -14.671765 -17.090752 22.647695 1.411394 2.425895 0.049076 -0.014035 -649438.000000 0 1 0
-1.389724 -15.465865 -16.474852 22.639458 1.481179 2.385767 0.055312 -0.008243 80518.500000 0 1 0
0.026976 -15.586665 -17.102052 23.139253 -1.569066 2.402519 0.071774 -0.010364 461822.000000 0 1 0
0.111776 -16.352765 -18.250952 24.505564 -1.563961 2.410983 0.104314 -0.026149 -233844.000000 0 1 0
-0.134524 -17.729165 -18.190752 25.401670 1.563209 2.369030 0.101737 -0.020076 -290919.000000 0 0 1
-0.487824 -18.306665 -19.600452 26.824423 1.544155 2.390135 0.112968 -0.041805 -184690.000000 0 0 1
-1.819424 -17.956465 -19.888152 26.856722 1.469817 2.404652 0.145004 -0.041607 -263251.000000 0 0 1
-2.140524 -18.403965 -21.197052 28.153202 1.455009 2.423281 0.160212 -0.048653 476335.000000 0 0 1
-3.473724 -17.762565 -21.718252 28.271150 1.377669 2.446841 0.170179 -0.053073 593440.000000 0 0 1
-3.406524 -16.411565 -21.919552 27.593670 1.366134 2.488764 0.145204 -0.047142 -105146.000000 0 0 1
-3.849224 -15.655865 -20.799252 26.315993 1.329714 2.482202 0.126395 -0.034083 -345533.000000 0 0 1
-2.917124 -14.500065 -20.486852 25.268015 1.372266 2.516283 0.116297 -0.027358 -94773.800000 0 0 1
-2.917924 -13.448065 -21.417752 25.457510 1.357131 2.570505 0.100536 -0.032397 -1022890.000000 0 0 1
-1.945624 -12.554765 -21.149652 24.672157 1.417048 2.600657 0.080679 -0.021241 -783853.000000 0 1 0
-1.868724 -11.583265 -22.313352 25.210114 1.410845 2.657495 0.086780 -0.021836 227676.000000 0 0 1
-2.913324 -10.628465 -22.389352 24.954655 1.303262 2.684187 0.089387 -0.023306 71541.200000 0 1 0
-2.928524 -9.918665 -23.612752 25.778251 1.283699 2.728778 0.110809 -0.021516 -644369.000000 0 0 1
-4.016024 -8.850765 -23.681352 25.598260 1.144829 2.752136 0.092244 -0.018048 -400182.000000 0 0 1
-5.299324 -9.466465 -23.854552 26.205657 1.060461 2.714762 0.108957 -0.022751 555599.000000 0 0 1
-6.118024 -8.261965 -23.704952 25.838247 0.933400 2.732385 0.096173 -0.020558 -638898.000000 0 0 1
-7.590824 -8.538465 -23.345752 25.991347 0.844083 2.686482 0.082595 -0.028813 270875.000000 0 0 1
-8.489924 -8.963365 -24.370452 27.319218 0.812518 2.672685 0.082753 -0.022968 449909.000000 0 0 1
-8.802724 -7.922865 -25.362132 27.991025 0.732841 2.704724 0.075935 -0.025645 -338046.000000 0 0 1
-9.971724 -8.226265 -26.330152 29.332296 0.689776 2.685205 0.057278 -0.025332 160447.000000 0 0 1
-10.420624 -7.015265 -26.947522 29.731671 0.592519 2.705378 0.068851 -0.037459 218129.000000 0 0 1
-11.508124 -7.343965 -27.792292 30.964209 0.568003 2.685004 0.066926 -0.032197 -122399.000000 0 0 1
-12.337424 -6.317765 -28.527322 31.716467 0.473266 2.689302 0.058382 -0.038762 -387998.000000 0 0 1
-11.635924 -5.559065 -29.491552 32.187724 0.445690 2.729379 0.042957 -0.030736 -205296.000000 0 0 1
-12.437824 -4.929365 -30.482962 33.289774 0.377330 2.728006 0.055390 -0.036466 -39300.300000 0 0 1
-11.695424 -3.811465 -31.308282 33.638055 0.315040 2.767228 0.058263 -0.039871 -8335.230000 0 0 1
-10.554724 -4.205365 -32.019242 33.975273 0.379156 2.800614 0.048619 -0.029305 -123183.000000 0 0 1
-9.991924 -3.112565 -32.700212 34.334101 0.301981 2.831850 0.044029 -0.026804 -201255.000000 0 0 1
-8.841324 -3.413765 -33.665502 34.974116 0.368479 2.867176 0.033498 -0.024094 -213396.000000 0 0 1
-7.619724 -3.777565 -33.072122 34.148140 0.460251 2.889890 0.040629 -0.030508 -701634.000000 0 0 1
-6.698924 -4.103265 33.567677 34.474648 0.549579 0.229889 0.031186 -0.027757 -182673.000000 0 0 1
-5.230324 -3.788265 -33.634862 34.249251 0.626842 2.951895 0.081155 -0.038805 335532.000000 0 0 1
-4.935624 -2.380465 -33.570122 34.014410 0.449390 2.979788 0.118648 -0.049963 9289.620000 0 0 1
-3.553624 -2.091565 -33.537102 33.789645 0.531974 3.019255 0.124187 -0.053220 -54927.700000 0 0 1
-3.182824 -0.650265 -33.081862 33.240981 0.201531 3.043709 0.137042 -0.056061 -91247.000000 0 0 1
-3.634524 -0.443565 -31.748752 31.959189 0.121442 3.026773 0.134651 -0.057824 139894.000000 0 0 1
-3.865824 0.900635 -31.389592 31.639567 -0.228891 3.015806 0.162499 -0.059463 -739548.000000 0 0 1
-4.385424 0.980835 -29.907422 30.243146 -0.220037 2.992452 0.181592 -0.065409 748104.000000 0 0 1
-5.605124 0.274935 -29.697762 30.223336 -0.049011 2.954829 0.158330 -0.067103 371595.000000 0 0 1
-6.795224 0.848535 -30.196862 30.963617 -0.124229 2.918586 0.156293 -0.065025 -455936.000000 0 0 1
-7.903724 -0.207965 -30.354812 31.367606 0.026306 2.886786 0.124056 -0.068667 -163448.000000 0 0 1
-8.275124 -0.731965 -29.096132 30.258856 0.088224 2.863476 0.112216 -0.056571 5983.020000 0 0 1
-9.311124 -1.694765 -29.237102 30.730724 0.180044 2.828535 0.074523 -0.043363 155585.000000 0 0 1
-9.742924 -2.392165 -27.931462 29.678504 0.240766 2.796767 0.078127 -0.043259 601093.000000 0 0 1
-10.661624 -1.582565 -27.104382 29.168858 0.147360 2.763102 0.077863 -0.039699 936430.000000 0 0 1
-10.941524 -2.338865 -25.944512 28.254291 0.210591 2.734436 0.071348 -0.032777 -981964.000000 0 0 1
-11.943924 -1.730765 -25.029152 27.786891 0.143906 2.692299 0.071967 -0.025416 -807033.000000 0 0 1
-11.503924 -0.538965 -24.456952 27.032818 0.046816 2.701503 0.090529 -0.024797 463996.000000 0 0 1
-12.529224 0.096335 -23.695652 26.804378 -0.007689 2.655193 0.095168 -0.031575 774357.000000 0 0 1
-11.808724 1.309435 -23.030252 25.914341 -0.110436 2.665313 0.106755 -0.026825 490605.000000 0 0 1
-11.411724 2.394835 -23.845552 26.543794 -0.206856 2.686789 0.078357 -0.027730 -524308.000000 0 0 1
-10.473224 3.146235 -23.167552 25.618795 -0.291831 2.700577 0.087710 -0.023657 -754513.000000 0 0 1
-10.041024 4.399735 -23.981752 26.368623 -0.412978 2.712829 0.110224 -0.036254 320786.000000 0 0 1
-11.099324 5.286535 -24.380152 27.304473 -0.444503 2.674541 0.115238 -0.030522 608504.000000 0 0 1
-11.882124 4.835935 -25.519022 28.562066 -0.386520 2.675784 0.095319 -0.032944 242295.000000 0 0 1
-13.258824 5.532935 -25.560982 29.321896 -0.395332 2.629533 0.083365 -0.015795 72361.300000 0 0 1
-13.154524 6.887635 -25.902752 29.856885 -0.482344 2.621079 0.077407 -0.018746 -43581.300000 0 0 1
-14.462524 7.387435 -26.079842 30.722906 -0.472249 2.584646 0.073225 -0.014137 65141.600000 0 0 1
-14.629924 8.913135 -26.211302 31.313112 -0.547186 2.562704 0.105266 -0.009733 -280011.000000 0 0 1
-14.425124 9.535035 -24.992952 30.391590 -0.584071 2.536350 0.154898 -0.026600 -39333.000000 0 0 1
-15.031124 10.834835 -24.877552 31.019686 -0.624567 2.501420 0.145754 -0.021630 7131.920000 0 0 1
-14.811124 11.593635 -23.569352 30.154537 -0.664143 2.468053 0.153799 -0.026238 30232.300000 0 0 1
-15.617024 11.115135 -22.508352 29.564566 -0.618556 2.436156 0.185394 -0.029725 4160.590000 0 0 1
-15.314624 11.781735 -21.270452 28.736373 -0.655747 2.404153 0.171074 -0.031611 122784.000000 0 0 1
-16.467224 11.758635 -20.218052 28.604276 -0.620102 2.355788 0.171614 -0.034462 1351840.000000 0 0 1
-17.716124 12.398435 -20.592652 29.860334 -0.610618 2.331778 0.148539 -0.030308 1087210.000000 0 0 1
-18.438124 12.711935 -19.404252 29.632460 -0.603602 2.284755 0.131852 -0.022642 -567134.000000 0 0 1
-19.855824 13.209735 -19.651252 30.901821 -0.587044 2.260003 0.115459 -0.024085 -605012.000000 0 0 1
-20.091624 14.429335 -20.392552 32.058310 -0.622821 2.260240 0.105872 -0.023046 233917.000000 0 0 1
-21.479024 14.711535 -20.463252 33.113780 -0.600537 2.236952 0.084647 -0.021611 290009.000000 0 0 1
-21.867624 16.099335 -21.013452 34.335794 -0.634622 2.229381 0.090243 -0.012758 -93009.500000 0 0 1
-21.791624 16.117635 -22.433952 35.184304 -0.636828 2.262191 0.095476 -0.012950 68087.500000 0 0 1
-21.949424 17.407735 -22.998652 36.245613 -0.670510 2.258187 0.091059 0.003330 -133708.000000 0 0 1
-21.643724 17.289835 -24.479252 36.967864 -0.674032 2.294516 0.087872 -0.000363 -240862.000000 0 0 1
-20.317524 16.850235 -24.708652 36.155908 -0.692380 2.323195 0.094318 -0.017222 74633.900000 0 0 1
-20.116124 16.626435 -26.065142 36.884799 -0.690705 2.355568 0.081808 -0.022589 -75641.800000 0 0 1
-19.595324 17.850335 -26.856662 37.734487 -0.738831 2.362750 0.060762 -0.015556 -79472.500000 0 0 1
-20.608624 18.810435 -27.034232 38.850966 -0.739813 2.340391 0.066157 -0.020815 855581.000000 0 0 1
-19.918524 20.054835 -27.170372 39.206799 -0.788808 2.336440 0.044370 -0.017115 11640.800000 0 0 1
-20.963024 21.168935 -27.221092 40.355421 -0.790285 2.311129 0.076780 -0.014730 -131592.000000 0 0 1
-21.696324 21.423835 -26.062702 40.112038 -0.779079 2.278049 0.098307 -0.012410 -416007.000000 0 0 1
-22.962724 20.833235 -26.118432 40.539892 -0.736813 2.270858 0.121563 -0.019089 -931779.000000 0 0 1
-23.903024 21.275835 -25.023852 40.622763 -0.727313 2.234458 0.136277 -0.003064 -218016.000000 0 0 1
-23.427924 20.749135 -23.802352 39.318522 -0.724835 2.221030 0.110674 -0.005097 232247.000000 0 0 1
-24.224524 21.204335 -22.725452 39.406821 -0.719014 2.185465 0.104112 -0.012367 -4127.810000 0 0 1
-23.868224 20.600935 -21.329252 38.066096 -0.712057 2.165570 0.106531 -0.010988 790442.000000 0 0 1
-22.638224 21.101335 -20.745952 37.257886 -0.750275 2.161349 0.112710 -0.013090 1098730.000000 0 0 1
-21.960224 20.235635 -19.848752 35.856733 -0.744550 2.157426 0.107507 -0.013215 348735.000000 0 0 1
-22.803624 19.750735 -18.579852 35.430322 -0.713780 2.122813 0.126120 -0.019552 -411549.000000 0 0 1
-23.686024 18.660035 -18.831752 35.550802 -0.667262 2.129059 0.153762 -0.020494 682039.000000 0 0 1
-24.507124 18.353335 -17.678552 35.354989 -0.642795 2.094430 0.135144 -0.016744 82143.500000 0 0 1
-25.645804 19.310535 -17.345052 36.489106 -0.645400 2.066157 0.104308 -0.016665 -1089020.000000 0 0 1
-26.803664 19.133235 -18.141152 37.598118 -0.619947 2.074305 0.112945 -0.010179 -507336.000000 0 0 1
-27.677544 20.161735 -17.883052 38.630889 -0.629567 2.052084 0.091914 -0.006515 -1228430.000000 0 0 1
-29.097364 19.884835 -18.448252 39.779408 -0.599491 2.053035 0.055582 0.011570 -76826.600000 0 0 1
-29.710764 18.733435 -17.950352 39.444724 -0.562564 2.043254 0.052547 0.012618 -65233.100000 0 0 1
-29.948234 18.632535 -16.539552 38.956705 -0.556553 2.009275 0.052882 0.004629 -774625.000000 0 0 1
-30.804214 17.448035 -16.065452 38.877143 -0.515360 1.996802 0.047324 0.003726 34963.100000 0 0 1
-30.134214 16.244835 -16.314152 37.922514 -0.494423 2.015507 0.074220 -0.014196 718717.000000 0 0 1
-31.051014 15.149735 -16.025252 38.085281 -0.453919 2.005093 0.075553 -0.010480 740516.000000 0 0 1
-30.458454 13.990535 -15.180452 36.795361 -0.430587 1.996064 0.130943 -0.011019 -122875.000000 0 0 1
-30.015294 14.399035 -13.879452 36.067843 -0.447295 1.965804 0.157762 -0.016083 385930.000000 0 0 1
-31.050774 14.538635 -12.919752 36.639357 -0.437903 1.931165 0.122699 -0.004946 62552.500000 0 0 1
-30.402484 15.245035 -11.696052 35.965536 -0.464799 1.902021 0.174658 -0.019973 366164.000000 0 0 1
-30.310364 16.666035 -11.953152 36.597168 -0.502725 1.903515 0.173578 -0.010930 18983.600000 0 0 1
-30.925224 17.427835 -10.938652 37.145027 -0.513185 1.869713 0.104698 -0.008705 -72511.900000 0 0 1
-30.737544 18.966935 -11.080252 37.779799 -0.552870 1.868458 0.190810 -0.013934 -102051.000000 0 0 1
-29.474424 19.487135 -10.751852 36.933622 -0.584176 1.866186 0.125388 -0.028451 -206991.000000 0 0 1
-29.513004 20.889535 -10.791952 37.734021 -0.615947 1.860847 0.087372 -0.030038 -525226.000000 0 0 1
-28.114064 21.481135 -10.802252 36.993627 -0.652446 1.867117 0.151189 -0.035843 -455622.000000 0 0 1
-28.013544 22.850935 -10.378352 37.611622 -0.684247 1.850358 0.153260 -0.037296 -272118.000000 0 0 1
-26.671284 23.231035 -10.203652 36.812401 -0.716567 1.851654 0.138788 -0.019890 -163406.000000 0 0 1
-26.644654 24.654535 -9.489152 37.521030 -0.746623 1.826475 0.167402 -0.012533 254492.000000 0 0 1
-27.051694 24.713435 -8.099052 37.525227 -0.740258 1.788338 0.147044 -0.019456 602870.000000 0 0 1
-28.444564 24.536035 -7.842852 38.374739 -0.711759 1.776622 0.184819 -0.030319 331126.000000 0 0 1
-28.758694 24.277935 -6.349352 38.167983 -0.701114 1.737926 0.185163 -0.027078 -58102.800000 0 0 1
-28.676434 22.876235 -6.133652 37.192495 -0.673359 1.736470 0.208199 -0.043048 170499.000000 0 0 1
-28.792254 22.526735 -4.733252 36.862601 -0.663910 1.699554 0.171355 -0.033076 -461617.000000 0 0 1
-28.967484 21.021035 -4.610952 36.086839 -0.627752 1.698920 0.184300 -0.029126 495867.000000 0 0 1
-27.780254 20.211335 -4.687652 34.672967 -0.628973 1.706408 0.191505 -0.027901 655364.000000 0 0 1
-27.121834 20.229535 -5.975152 34.358848 -0.640857 1.745589 0.187878 -0.027231 -446305.000000 0 0 1
-27.779944 19.523435 -7.168852 34.702770 -0.612595 1.778873 0.201951 -0.030821 -470204.000000 0 0 1
-27.785424 18.118935 -7.109152 33.924411 -0.577852 1.781920 0.190031 -0.030681 140121.000000 0 0 1
-28.259584 17.530135 -8.252052 34.263772 -0.555231 1.814027 0.171038 -0.033284 -394256.000000 0 0 1
-27.936044 16.056035 -8.501752 33.324145 -0.521641 1.828771 0.213375 -0.032138 -225599.000000 0 0 1
-28.660214 15.192135 -7.697052 33.338468 -0.487419 1.803774 0.190345 -0.024641 -125728.000000 0 0 1
-28.724524 13.915935 -8.285452 32.975752 -0.451140 1.824777 0.203380 -0.045741 187389.000000 0 0 1
-29.400224 12.785935 -7.426452 32.909049 -0.410220 1.798423 0.179059 -0.042899 -451692.000000 0 0 1
-30.776824 12.950735 -7.315452 34.182602 -0.398304 1.786476 0.170160 -0.024258 -582440.000000 0 0 1
-31.488694 11.974535 -6.554752 34.320433 -0.363392 1.762964 0.173272 -0.032985 398425.000000 0 0 1
-32.064464 10.727035 -7.214852 34.572435 -0.322841 1.781030 0.134531 -0.019457 262953.000000 0 0 1
-31.030624 9.886635 -7.719052 33.469822 -0.308441 1.803519 0.178389 -0.019822 291884.000000 0 0 1
-31.635694 8.711535 -8.160252 33.812686 -0.268711 1.814540 0.141104 -0.012571 22437.200000 0 0 1
-30.644654 7.593635 -8.582352 32.717196 -0.242904 1.836221 0.204191 -0.020980 -60786.900000 0 0 1
-30.008914 7.771535 -9.832152 32.520807 -0.253407 1.877937 0.210372 -0.040016 -189500.000000 0 0 1
-29.176324 6.694735 -10.049952 31.576556 -0.225553 1.894703 0.228296 -0.046159 -446532.000000 0 0 1
-28.208064 6.761735 -11.262152 31.116748 -0.235270 1.941136 0.221236 -0.042013 315871.000000 0 0 1
-27.147494 7.689935 -10.994452 30.282000 -0.276034 1.942356 0.247391 -0.044820 868311.000000 0 0 1
-26.217864 7.684135 -12.093952 29.877851 -0.285103 1.987534 0.217792 -0.033301 173851.000000 0 0 1
-33.348074 25.234535 -33.470922 53.564712 -0.647776 2.245760 0.076748 0.006487 -182402.000000 0 0 1
-33.876164 26.446535 33.657157 54.587709 -0.662851 0.906417 0.085704 0.001582 -13289.100000 0 0 1
-33.177534 26.914335 32.524330 53.693223 -0.681546 0.920096 0.072902 -0.005975 -184031.000000 0 0 1
-33.748344 28.261735 32.050139 54.450784 -0.697149 0.941461 0.092929 -0.026387 -7674.570000 0 0 1
-33.109724 28.900935 30.938287 53.746586 -0.717630 0.957419 0.108974 -0.031772 158931.000000 0 0 1
-33.482304 30.251035 30.841917 54.657238 -0.734742 0.971237 0.115273 -0.031194 31218.100000 0 0 1
-33.320934 30.859535 29.469057 54.138904 -0.747066 0.995214 0.127227 -0.037143 500388.000000 0 0 1
-31.960014 30.817135 29.052787 53.058484 -0.767195 0.991349 0.116064 -0.032471 315886.000000 0 0 1
-31.754724 31.349335 27.793617 52.570224 -0.778974 1.013734 0.102485 -0.032523 89983.000000 0 0 1
-30.312184 31.535035 27.265757 51.543268 -0.805168 1.013389 0.106650 -0.028202 -263577.000000 0 0 1
-29.665584 30.318735 26.885787 50.220694 -0.796286 1.005871 0.134741 -0.026945 188293.000000 0 0 1
-28.389684 30.484335 26.307327 49.268086 -0.820962 1.007516 0.105320 -0.013954 -144801.000000 0 0 1
-28.366694 31.178035 24.887057 48.950024 -0.832577 1.037450 0.101878 -0.025822 -683300.000000 0 0 1
-28.749644 32.513535 24.885687 50.029686 -0.846759 1.050176 0.077459 -0.025917 -135270.000000 0 0 1
-29.880644 32.678735 24.051937 50.390955 -0.830095 1.073209 0.084610 -0.028539 48020.800000 0 0 1
-30.607414 -33.609505 24.304717 51.547375 0.832113 1.079803 0.088094 -0.022451 -30599.700000 0 0 1
-31.203364 -33.607105 25.554927 52.498969 0.822470 1.062408 0.101905 -0.036120 -120782.000000 0 0 1
-31.053824 -32.358005 26.159247 51.920003 0.805962 1.042761 0.091394 -0.032300 -69302.900000 0 0 1
-31.475524 -32.326005 27.629917 52.906442 0.798727 1.021320 0.101619 -0.027166 1042750.000000 0 0 1
-32.853874 -32.659505 27.910577 54.083460 0.782431 1.028546 0.087223 -0.035445 889433.000000 0 0 1
-33.100214 -32.799505 29.298787 55.044079 0.780835 1.009506 0.089782 -0.034867 331488.000000 0 0 1
-34.625828 -32.892605 29.573557 56.173541 0.759733 1.016356 0.102343 -0.038843 358573.000000 0 0 1
-34.826694 -33.073805 30.920217 57.121231 0.759588 0.998804 0.099131 -0.039192 -108586.000000 0 0 1
-36.186134 -33.255305 31.257647 58.244246 0.743217 1.004317 0.094067 -0.041210 -8523.500000 0 0 1
-36.591594 -33.653505 32.689335 59.498704 0.743596 0.989135 0.123159 -0.030130 33881.600000 0 0 1
-36.395094 32.601435 32.969392 58.944357 -0.730470 0.977218 0.114571 -0.023655 100411.000000 0 0 1
-37.067284 32.170335 -33.442252 59.391062 -0.714789 2.168911 0.122314 -0.021993 367833.000000 0 0 1
-36.535244 30.804235 -32.908022 58.022951 -0.700497 2.173844 0.120457 -0.022178 1048430.000000 0 0 1
-35.224433 30.954135 -32.326212 56.955273 -0.720961 2.174350 0.128186 -0.022668 528771.000000 0 0 1
-34.759659 29.608435 -32.054152 55.788547 -0.705541 2.182869 0.106360 -0.013854 1014810.000000 0 0 1
-33.807704 29.425435 -30.768192 54.364499 -0.716205 2.172395 0.089518 -0.014661 610466.000000 0 0 1
-34.497269 29.571735 -29.559962 54.206461 -0.708671 2.147569 0.115665 -0.020977 -361410.000000 0 0 1
-34.750956 30.924335 -29.259362 54.955015 -0.727198 2.132258 0.106893 -0.021274 -321408.000000 0 0 1
-35.901727 31.124135 -28.287652 55.297713 -0.714239 2.107786 0.096590 -0.025791 -175739.000000 0 0 1
-35.606292 30.872735 -26.909822 54.268521 -0.714314 2.089626 0.077800 -0.041813 426004.000000 0 0 1
-36.826844 30.688935 -26.201372 54.630935 -0.694737 2.071003 0.125165 -0.043945 581565.000000 0 0 1
-36.383044 30.373635 -24.774652 53.479594 -0.695621 2.052460 0.117292 -0.050702 -169356.000000 0 0 1
-36.098234 31.525235 -24.037052 53.616255 -0.717877 2.035677 0.104395 -0.053058 -9550.850000 0 0 1
-36.014264 31.386535 -22.689852 52.886399 -0.716846 2.014215 0.089257 -0.052627 804274.000000 0 0 1
-37.424614 31.083135 -22.007152 53.395484 -0.693095 1.995613 0.067718 -0.039362 802169.000000 0 0 1
37.259806 32.204035 -21.930452 53.910460 0.712744 1.989738 0.065428 -0.045356 -90733.000000 0 0 1
37.559886 33.362835 -21.158852 54.511657 0.726289 1.969423 0.072824 -0.048893 -452565.000000 0 0 1
37.631346 33.143235 -19.596952 53.838952 0.722069 1.943347 0.074053 -0.040338 331498.000000 0 0 1
-36.807384 32.354435 -19.249952 52.651245 -0.721102 1.945087 0.069526 -0.041749 87469.500000 0 0 1
-36.723384 32.145535 -17.862952 51.971410 -0.719024 1.921658 0.061127 -0.027377 49307.500000 0 0 1
-35.369146 31.459635 -17.569452 50.491294 -0.726964 1.926201 0.078079 -0.026799 73322.100000 0 0 1
-35.183379 31.110135 -16.236652 49.692449 -0.724033 1.903652 0.058985 -0.013966 625988.000000 0 0 1
-33.913094 30.441135 -16.094752 48.330132 -0.731500 1.910298 0.083457 -0.016322 701904.000000 0 0 1
-33.599814 30.061835 -14.621352 47.396681 -0.729881 1.884400 0.099301 -0.018774 -54201.500000 0 0 1
-34.548693 29.157635 -14.052652 47.341915 -0.700976 1.872171 0.082729 -0.013261 170742.000000 0 0 1
-34.281100 29.005435 -12.730652 46.675246 -0.702229 1.847046 0.116942 -0.014154 382939.000000 0 0 1
-35.464036 28.411435 -11.882652 46.969191 -0.675432 1.826564 0.114271 -0.023024 350153.000000 0 0 1
-35.068101 28.164435 -10.549252 46.198418 -0.676650 1.801175 0.133607 -0.020348 92171.400000 0 0 1
-35.655034 26.998835 -10.104452 45.851047 -0.648108 1.792996 0.155000 -0.030352 239373.000000 0 0 1
-34.740018 26.451935 -8.957752 44.573704 -0.650773 1.773139 0.182274 -0.029217 511208.000000 0 0 1
-34.687781 27.332435 -7.856852 44.855705 -0.667354 1.746863 0.172027 -0.034786 573867.000000 0 0 1
-33.419084 27.074635 -7.258752 43.618351 -0.680902 1.737989 0.167435 -0.041263 381663.000000 0 0 1
-33.172534 27.721735 -5.839052 43.623459 -0.696124 1.705050 0.174085 -0.043894 -1099360.000000 0 0 1
-32.019914 27.323635 -5.232652 42.417409 -0.706426 1.694472 0.192401 -0.035427 -1081410.000000 0 0 1
-31.977224 27.585935 -3.812852 42.403591 -0.711806 1.660836 0.176531 -0.036738 19908.700000 0 0 1
-30.929704 26.858335 -2.958952 41.070332 -0.715061 1.642905 0.186097 -0.031764 -119606.000000 0 0 1
-31.367374 25.506835 -2.973752 40.538303 -0.682717 1.644219 0.169274 -0.034824 643151.000000 0 0 1
-30.421554 24.599635 -2.389452 39.195950 -0.679978 1.631796 0.168612 -0.041832 269166.000000 0 0 1
-31.157464 23.412035 -1.810552 39.015241 -0.644403 1.617219 0.156075 -0.040378 65461.000000 0 0 1
-31.546894 22.432535 -2.773452 38.808726 -0.618127 1.642322 0.153719 -0.037234 370701.000000 0 0 1
-32.567514 21.553635 -2.272852 39.119918 -0.584635 1.628929 0.132876 -0.040628 386269.000000 0 0 1
-33.109024 20.668235 -3.412752 39.179463 -0.558058 1.658012 0.163511 -0.026930 -542484.000000 0 0 1
-32.157344 19.805035 -3.917752 37.969501 -0.552014 1.674162 0.160073 -0.028874 -529007.000000 0 0 1
-32.555014 19.090235 -5.106552 38.083368 -0.530359 1.705290 0.152693 -0.026455 285454.000000 0 0 1
-31.553324 17.980435 -5.579352 36.742856 -0.517950 1.723235 0.150782 -0.033948 251957.000000 0 0 1
-31.517284 16.916535 -4.669852 36.073756 -0.492605 1.700614 0.188485 -0.034875 120449.000000 0 0 1
-31.033154 15.713035 -5.296152 35.185300 -0.468699 1.721892 0.179126 -0.046073 -309661.000000 0 0 1
-30.698644 14.561535 -4.369252 34.256903 -0.442908 1.698688 0.180048 -0.037404 -411702.000000 0 0 1
-31.677824 13.909935 -3.615152 34.785632 -0.413758 1.674911 0.173373 -0.038160 122415.000000 0 0 1
-31.089624 12.700135 -3.085852 33.725074 -0.387813 1.662425 0.176752 -0.044758 -18877.800000 0 0 1
-32.138034 11.872435 -2.362152 34.342215 -0.353870 1.639633 0.180991 -0.040956 -250417.000000 0 0 1
-33.062444 11.312935 -3.280452 35.097993 -0.329681 1.664398 0.162830 -0.017251 134485.000000 0 0 1
-33.963234 10.449335 -2.602852 35.629548 -0.298475 1.643915 0.162982 -0.017424 -531743.000000 0 0 1
-34.966066 9.831935 -3.555852 36.495710 -0.274107 1.668383 0.112980 -0.018416 -437384.000000 0 0 1
-34.453536 8.936935 -4.535352 35.881533 -0.253797 1.697533 0.104446 -0.016973 905521.000000 0 0 1
-35.541962 8.421935 -5.303052 36.909110 -0.232666 1.714974 0.115682 -0.011271 544092.000000 0 0 1
-34.883032 7.744035 -6.506452 36.319828 -0.218457 1.750912 0.122292 -0.021667 -183718.000000 0 0 1
-34.174355 6.605535 -6.124252 35.341563 -0.190935 1.744963 0.113860 -0.014344 339187.000000 0 0 1
-33.803994 5.822635 -7.262352 35.062157 -0.170573 1.779435 0.105064 -0.017418 -280260.000000 0 0 1
-32.999764 4.516735 -7.014052 34.037953 -0.136027 1.778349 0.125953 -0.025931 263942.000000 0 0 1
-31.650374 4.782435 -6.666152 32.696413 -0.149968 1.776116 0.151441 -0.029690 216356.000000 0 0 1
-30.977064 3.617635 -6.283852 31.814346 -0.116258 1.769620 0.146344 -0.037868 -857994.000000 0 0 1
-29.507664 3.828835 -6.010752 30.356076 -0.129036 1.770122 0.214732 -0.039422 -225274.000000 0 0 1
-28.618744 4.301535 -7.044552 29.785255 -0.149188 1.809570 0.213537 -0.029163 -368978.000000 0 0 1
-27.315324 4.366235 -6.615252 28.442090 -0.158505 1.805533 0.244246 -0.042637 -578236.000000 0 0 1
-26.288144 4.924335 -7.640052 27.815212 -0.185176 1.849045 0.240283 -0.050931 267050.000000 0 0 1
-26.319414 4.136235 -8.812852 28.062187 -0.155880 1.890249 0.222824 -0.057881 451002.000000 0 0 1
-25.203104 4.352235 -9.668952 27.342769 -0.171000 1.932235 0.217867 -0.052039 117824.000000 0 0 1
-25.150684 3.587635 -11.038152 27.699618 -0.141690 1.980671 0.198510 -0.061006 -408553.000000 0 0 1
-26.119484 4.107435 -11.903052 28.996226 -0.155978 1.993802 0.218280 -0.041121 248497.000000 0 0 1
-26.239624 3.418835 -13.171052 29.558128 -0.129563 2.032639 0.204814 -0.045105 342058.000000 0 0 1
-27.299574 4.074035 -14.118452 31.003148 -0.148141 2.043604 0.177356 -0.036483 -252183.000000 0 0 1
-26.792294 5.246735 -14.716652 31.015079 -0.193383 2.065192 0.160524 -0.034010 454537.000000 0 0 1
-27.734994 6.210535 -15.184952 32.223957 -0.220290 2.061483 0.180964 -0.039813 -198317.000000 0 0 1
-28.537804 5.797435 -16.411652 33.426918 -0.200422 2.084000 0.131607 -0.010149 -507144.000000 0 0 1
-29.522564 4.842035 -16.163252 34.004085 -0.162564 2.066138 0.160445 -0.035776 -278816.000000 0 0 1
-30.153684 4.362935 -17.338352 35.055646 -0.143693 2.088165 0.150171 -0.018194 589210.000000 0 0 1
-31.653534 3.939735 -17.185452 36.232685 -0.123828 2.064974 0.158604 -0.027819 668466.000000 0 0 1
-31.924034 2.727135 -16.418052 36.001856 -0.085219 2.044329 0.171116 -0.034936 279498.000000 0 0 1
-31.450744 1.489735 -17.022352 35.792864 -0.047332 2.066419 0.203203 -0.034156 46789.500000 0 0 1
-31.548624 0.321535 -16.023652 35.386106 -0.010191 2.040726 0.188321 -0.035855 -171940.000000 0 0 1
-31.211124 -0.959565 -16.513252 35.323399 0.030735 2.057243 0.180967 -0.022882 272404.000000 0 0 1
-31.576584 -1.989965 -15.587752 35.270648 0.062937 2.028564 0.180140 -0.033505 -1003.650000 0 0 1
-31.538184 -3.393165 -16.169052 35.603495 0.107177 2.042206 0.172606 -0.017687 -6420.690000 0 0 1
-32.536754 -3.638165 -17.147552 36.958289 0.111355 2.053268 0.182808 -0.024959 355526.000000 0 0 1
-32.522634 -4.965165 -17.703052 37.360041 0.151498 2.064454 0.171416 -0.022324 -233496.000000 0 0 1
-33.461544 -5.060865 -18.928252 38.775843 0.150107 2.080760 0.193836 -0.020557 -81507.700000 0 0 1
-33.416484 -6.279465 -19.703552 39.297876 0.185749 2.096001 0.192201 -0.023613 -190459.000000 0 0 1
-34.055213 -6.148165 -20.930252 40.442959 0.178611 2.114753 0.186873 -0.024936 -391118.000000 0 0 1
-33.851024 -7.260365 -21.983452 41.010692 0.211279 2.136538 0.184262 -0.027488 301601.000000 0 0 1
-32.560954 -7.107065 -22.567352 40.249366 0.214899 2.166013 0.182404 -0.028712 169563.000000 0 0 1
-32.445054 -7.997765 -23.678452 40.955035 0.241684 2.187265 0.166688 -0.017147 -12446.700000 0 0 1
-31.067144 -7.921065 -24.364352 40.268255 0.249647 2.220626 0.157144 -0.011651 -144148.000000 0 0 1
-30.926864 -6.679765 -25.073852 40.370636 0.212718 2.240931 0.154333 -0.015518 -50468.300000 0 0 1
-30.910064 -6.774065 -26.501802 41.275483 0.215743 2.267993 0.121113 -0.016330 -935923.000000 0 0 1
-32.203394 -6.856065 -27.271462 42.752741 0.209767 2.262549 0.141156 -0.019946 -938872.000000 0 0 1
-32.828674 -8.086365 -27.034152 43.289219 0.241512 2.245289 0.129481 -0.017314 494653.000000 0 0 1
-34.155386 -8.089465 -27.595072 44.648828 0.232558 2.237052 0.116920 -0.017169 1869490.000000 0 0 1
-35.169768 -9.221565 -27.067312 45.327577 0.256429 2.210738 0.110549 -0.023080 499613.000000 0 0 1
-34.743539 -10.529565 -27.474022 45.528092 0.294267 2.218620 0.112831 -0.006507 71648.500000 0 0 1
-35.671348 -11.542565 -27.145092 46.287492 0.312948 2.197460 0.089179 -0.007160 381832.000000 0 0 1
-36.981654 -11.580965 -27.972712 47.793662 0.303481 2.196023 0.064001 -0.001976 197593.000000 0 0 1
37.686276 -10.485865 -27.794322 47.986801 -0.271377 2.188553 0.058808 -0.013045 112513.000000 0 0 1
36.734936 -10.477565 -28.852232 47.871559 -0.277843 2.217678 0.056436 -0.020395 -72694.400000 0 0 1
35.820736 -9.253265 -28.759712 46.860101 -0.252795 2.231580 0.064463 -0.016298 -354030.000000 0 0 1
34.811826 -9.418265 -27.796452 45.532512 -0.264222 2.227456 0.052156 -0.015952 -427168.000000 0 0 1
33.895296 -8.337165 -27.807792 44.628160 -0.241180 2.243496 0.020595 -0.010796 -560069.000000 0 0 1
32.578396 -8.787665 -27.224712 43.356197 -0.263469 2.249689 0.015079 -0.005852 -889946.000000 0 0 1
32.663706 -9.060465 -25.831322 42.617683 -0.270583 2.221966 0.006691 0.010941 -370283.000000 0 0 1
31.407146 -9.362165 -25.298072 41.401104 -0.289704 2.228180 -0.010383 0.011594 -590438.000000 0 0 1
31.522836 -9.349365 -23.807252 40.594150 -0.288326 2.197490 -0.015277 0.011211 267513.000000 0 0 1
32.307516 -10.474565 -23.379052 41.231931 -0.313521 2.173672 -0.024005 0.010582 294369.000000 0 0 1
32.386546 -10.457365 -21.950852 40.497960 -0.312324 2.143640 0.001538 0.001287 108803.000000 0 0 1
33.279636 -11.552365 -21.312952 41.173210 -0.334116 2.114888 0.039070 0.000154 311706.000000 0 0 1
34.679106 -11.356665 -21.424052 42.315532 -0.316472 2.101677 0.042207 -0.006407 95206.100000 0 0 1
35.333656 -12.369065 -20.656252 42.756774 -0.336732 2.075000 0.075477 -0.011378 369786.000000 0 0 1
36.874936 -12.485665 -20.873252 44.174035 -0.326478 2.062948 0.104716 -0.030994 370106.000000 0 0 1
37.720816 -11.329665 -20.876952 44.576545 -0.291783 2.058207 0.133279 -0.027750 446291.000000 0 0 1
37.549526 -10.387365 -21.949352 44.717315 -0.269882 2.083858 0.130112 -0.017825 -891507.000000 0 0 1
-37.519554 -10.784165 -23.350352 45.489055 0.279883 2.109843 0.095398 -0.018561 -58782.700000 0 0 1
37.553496 -11.989365 -23.931352 46.116369 -0.309032 2.116400 0.095132 -0.011023 -145753.000000 0 0 1
36.235456 -11.925465 -24.408652 45.288048 -0.317945 2.140004 0.114959 -0.008352 -501527.000000 0 0 1
35.873206 -13.214165 -25.162312 45.767270 -0.352934 2.152907 0.077107 -0.018977 -545429.000000 0 0 1
35.779266 -14.418265 -24.394552 45.641389 -0.383071 2.134692 0.073983 -0.028312 810620.000000 0 0 1
34.728286 -14.483065 -23.408852 44.314640 -0.395109 2.127325 0.043724 -0.016127 157871.000000 0 0 1
-31.004924 8.259635 -18.795252 37.185863 -0.260351 2.100689 0.100162 -0.012282 287724.000000 0 0 1
-29.786194 7.576535 -19.024652 36.146350 -0.249082 2.125067 0.090374 -0.014583 -145845.000000 0 0 1
-29.146544 8.069435 -20.147652 36.339575 -0.270092 2.158471 0.114106 -0.029302 237144.000000 0 0 1
-27.761194 7.441335 -20.490952 35.297825 -0.261892 2.190159 0.109217 -0.027761 336724.000000 0 0 1
-26.812464 7.750235 -19.502252 34.048674 -0.281384 2.180684 0.125852 -0.023424 634239.000000 0 0 1
-25.749264 6.778735 -19.384352 32.935224 -0.257419 2.200073 0.151977 -0.038019 1475650.000000 0 0 1
-24.358524 7.254335 -18.827652 31.629789 -0.289451 2.208374 0.103640 -0.032059 744659.000000 0 0 1
-23.625224 8.006335 -19.750452 31.817180 -0.326743 2.240493 0.102091 -0.026985 -548179.000000 0 0 1
-22.358924 8.313335 -19.229552 30.639985 -0.355974 2.249259 0.083635 -0.024377 43934.400000 0 0 1
-21.564824 9.379935 -20.048352 30.902447 -0.410280 2.276754 0.112066 -0.017927 -37075.700000 0 0 1
-21.084324 8.909635 -21.326952 31.285287 -0.399812 2.320870 0.145162 -0.029701 8555.460000 0 0 1
-20.529024 9.945235 -22.053352 31.728518 -0.451128 2.339305 0.126341 -0.025863 77720.900000 0 0 1
-19.359024 9.497635 -22.980352 31.513068 -0.456103 2.387996 0.155393 -0.016033 173418.000000 0 0 1
-19.744924 8.597835 -23.998052 32.244244 -0.410685 2.410220 0.146428 -0.014269 388023.000000 0 0 1
-18.698724 8.351035 -24.932352 32.264597 -0.420031 2.453953 0.117551 -0.007529 214746.000000 0 0 1
-19.159424 7.295535 -25.891512 33.025426 -0.363829 2.471859 0.089770 -0.003323 -45507.600000 0 0 1
-19.351024 6.017035 -25.282052 32.401373 -0.301464 2.465905 0.131913 -0.010007 220905.000000 0 0 1
-20.001124 5.113035 -26.165302 33.328833 -0.250277 2.473597 0.116428 -0.012189 -475953.000000 0 0 1
-20.352124 3.789535 -25.420852 32.783978 -0.184090 2.458152 0.099672 -0.002992 264101.000000 0 0 1
-19.297024 2.881735 -25.139342 31.822414 -0.148240 2.481587 0.091413 -0.007185 -561053.000000 0 0 1
-18.235924 3.292435 -24.369252 30.614531 -0.178622 2.491459 0.086435 -0.014235 -1212800.000000 0 0 1
-17.530124 2.028735 -23.850152 29.669020 -0.115216 2.504576 0.067831 -0.020261 -339281.000000 0 0 1
-18.044424 1.325635 -22.720652 29.044562 -0.073333 2.469096 0.069410 -0.017418 37636.800000 0 0 1
-19.323624 0.735935 -22.872652 29.951665 -0.038066 2.439747 0.064723 -0.011833 142436.000000 0 0 1
-19.807124 -0.082965 -21.604352 29.310017 0.004189 2.399562 0.090004 -0.011243 1491.390000 0 0 1
-19.090024 -1.279665 -21.473052 28.760364 0.066933 2.413762 0.079698 -0.011535 176858.000000 0 0 1
-19.509124 -2.037565 -20.357552 28.269905 0.104064 2.374763 0.084948 -0.006699 -101841.000000 0 0 1
-18.853424 -3.422565 -20.293652 27.910533 0.179580 2.384880 0.058184 -0.021687 -134003.000000 0 0 1
-19.425024 -4.311265 -21.206052 29.079464 0.218404 2.388014 0.065749 -0.027927 327717.000000 0 0 1
-19.369624 -5.620565 -20.727852 28.920874 0.282418 2.369868 0.072569 -0.023705 -232210.000000 0 0 1
-19.481024 -6.774865 -21.773552 29.991610 0.334684 2.383266 0.046247 -0.027769 222377.000000 0 0 1
-18.215324 -7.077365 -22.350852 29.689185 0.370587 2.423144 0.046138 -0.024139 397667.000000 0 0 1
-18.385024 -7.784865 -23.532052 30.860504 0.400544 2.438011 0.060514 -0.036554 -100333.000000 0 0 1
-17.038924 -7.947365 -24.245852 30.681377 0.436428 2.482008 0.063189 -0.038300 -844230.000000 0 0 1
-17.083224 -8.416865 -25.581132 31.891605 0.457789 2.501646 0.076595 -0.064475 820725.000000 0 0 1
-15.805624 -8.640665 -26.229102 31.818935 0.500293 2.539803 0.084688 -0.061269 893308.000000 0 0 1
-14.862824 -9.687865 -25.621712 31.164569 0.577653 2.535960 0.062068 -0.059374 -471636.000000 0 0 1
-14.129024 -9.180365 -24.492652 29.728747 0.576201 2.539004 0.069764 -0.039732 -48715.400000 0 0 1
-13.343724 -10.122165 -23.857552 29.149545 0.648964 2.529511 0.052185 -0.037814 -90879.400000 0 0 1
-12.324324 -9.438965 -22.883852 27.652372 0.653588 2.545534 0.085918 -0.030203 82757.400000 0 0 1
-12.852624 -9.025865 -21.638352 26.737136 0.612240 2.513755 0.078609 -0.033283 -113600.000000 0 0 1
-12.012524 -8.167765 -20.915152 25.464813 0.597134 2.534544 0.081713 -0.027151 -831988.000000 0 0 1
-12.552024 -7.862265 -19.494852 24.483010 0.559587 2.491885 0.065380 -0.018954 115723.000000 0 1 0
-13.672724 -7.020165 -19.398352 24.749185 0.474344 2.471554 0.055274 -0.003214 1209580.000000 0 1 0
-14.964024 -7.616765 -19.676552 25.867041 0.470826 2.435157 0.067601 -0.018614 711383.000000 0 0 1
-16.191224 -6.728265 -19.387052 26.139684 0.393839 2.406355 0.060653 -0.000100 -290233.000000 0 0 1
-16.331724 -6.307565 -18.069652 25.159947 0.368567 2.371996 0.054377 0.002603 400453.000000 0 0 1
-15.705024 -5.057465 -17.913252 24.353857 0.311542 2.397261 0.058814 0.002756 -293953.000000 0 1 0
-15.402324 -4.659165 -16.386752 22.966607 0.293747 2.365282 0.081041 0.006243 -313399.000000 0 1 0
-16.485224 -4.168065 -15.648152 23.108441 0.247646 2.314695 0.114618 -0.003490 -501.230000 0 1 0
-16.516524 -2.756165 -15.660752 22.927084 0.165350 2.322751 0.051287 -0.010567 932101.000000 0 1 0
-17.826224 -2.188065 -14.966752 23.378742 0.122133 2.265537 0.051642 -0.011602 790607.000000 0 1 0
-17.746224 -2.352365 -13.584752 22.472374 0.131788 2.219946 0.089327 -0.017569 870781.000000 0 1 0
-18.781024 -1.749965 -12.828152 22.811197 0.092909 2.168036 0.094316 -0.025511 -86404.100000 0 1 0
-18.151624 -0.615465 -12.015552 21.776909 0.033894 2.155265 0.084765 -0.029002 10501.100000 0 1 0
-17.754324 0.437435 -12.909752 21.956071 -0.024633 2.199357 0.098426 -0.032417 662319.000000 0 1 0
-16.942724 1.414535 -12.274252 20.969360 -0.083296 2.196098 0.091846 -0.027504 -745710.000000 0 1 0
-16.492224 2.466035 -13.346252 21.358774 -0.148427 2.245749 0.096356 -0.024085 468023.000000 0 1 0
-15.617024 2.049035 -14.416552 21.352446 -0.130460 2.311993 0.076581 -0.026254 -189598.000000 0 1 0
-14.368024 1.659135 -13.978852 20.114700 -0.114965 2.339156 0.069552 -0.022973 -1448990.000000 0 1 0
-13.562224 0.778235 -14.979652 20.222006 -0.057320 2.404997 0.057520 -0.023638 -78461.900000 0 1 0
-13.361724 1.475235 -16.196252 21.048291 -0.109962 2.448824 0.063453 -0.028287 211470.000000 0 1 0
-13.043624 0.516135 -17.178752 21.575728 -0.039549 2.491797 0.035701 -0.012538 -314068.000000 0 1 0
-12.432124 1.000935 -18.447852 22.268427 -0.080339 2.547097 0.053038 -0.015773 62711.700000 0 1 0
-11.084124 1.434135 -18.318852 21.459145 -0.128672 2.593772 0.021125 -0.012014 78053.100000 0 1 0
-10.701224 2.203835 -19.439452 22.299448 -0.203103 2.629551 0.028723 -0.013311 549751.000000 0 1 0
-9.215824 2.660135 -19.348552 21.595698 -0.281010 2.681350 0.025818 -0.010736 -350759.000000 0 1 0
-8.303524 1.733335 -19.846452 21.583202 -0.205792 2.737685 0.038645 -0.002862 163189.000000 0 1 0
-6.953324 1.912935 -19.398252 20.695415 -0.268469 2.785658 0.041534 -0.000813 837346.000000 0 1 0
-6.209124 3.024735 -20.176152 21.325556 -0.453310 2.811777 0.047615 -0.002469 -972698.000000 0 1 0
-6.025724 2.662135 -21.550952 22.535302 -0.416010 2.844938 0.045342 -0.001832 76320.600000 0 1 0
-5.665224 3.750135 -22.380052 23.388566 -0.584735 2.846861 0.046373 0.004919 -414323.000000 0 1 0
-5.188724 3.263335 -23.727952 24.506895 -0.561419 2.888790 0.083701 -0.009701 317652.000000 0 1 0
-3.909224 2.640935 -23.699952 24.164939 -0.594138 2.945102 0.098069 -0.015132 -44798.700000 0 1 0
-3.455824 2.218935 -24.940352 25.276225 -0.570791 2.978390 0.141146 -0.023397 353507.000000 0 0 1
-2.034224 1.575435 -24.818052 24.951067 -0.658976 3.038289 0.097818 -0.021451 296402.000000 0 1 0
-1.069524 2.614335 -24.573152 24.734964 -1.182470 3.027146 0.084133 -0.020441 282365.000000 0 1 0
0.291776 2.241735 -24.611752 24.715356 1.441368 3.049997 0.079255 -0.015375 290742.000000 0 1 0
0.885676 1.178535 -23.650452 23.696355 0.926332 3.079339 0.068214 -0.016048 -965909.000000 0 1 0
0.461276 -0.157165 -23.804552 23.809539 -0.328382 3.121124 0.073722 -0.017712 -148267.000000 0 1 0
0.959576 -0.866565 -22.721452 22.758209 -0.734509 3.084750 0.061625 -0.015468 -381928.000000 0 1 0
0.337776 -2.297565 -22.572452 22.691595 -1.424827 3.039073 0.074547 -0.030731 739565.000000 0 1 0
-0.970924 -2.133365 -22.015052 22.139477 1.143698 3.035523 0.071414 -0.025891 -101396.000000 0 1 0
-2.032524 -2.548765 -22.838552 23.070041 0.897609 2.999811 0.082298 -0.025304 223162.000000 0 1 0
-3.098524 -1.390765 -22.830452 23.081694 0.421895 2.993912 0.097713 -0.023707 -697972.000000 0 1 0
-3.745524 -1.201065 -21.526452 21.882862 0.310308 2.960863 0.076374 -0.024543 429244.000000 0 1 0
-4.740424 -0.188865 -21.577352 22.092745 0.039820 2.925168 0.065513 -0.024350 -155818.000000 0 1 0
-6.010024 -0.554965 -22.326052 23.127494 0.092079 2.877565 0.082205 -0.014191 -1046560.000000 0 1 0
-6.894624 -1.534065 -21.760152 22.877793 0.218935 2.827727 0.091358 -0.007727 99898.400000 0 1 0
-8.204824 -1.063465 -21.588152 23.119221 0.128896 2.775617 0.057993 -0.007347 -443118.000000 0 1 0
-9.181324 -2.114565 -21.135852 23.140707 0.226364 2.722264 0.060827 -0.006003 -476422.000000 0 1 0
-9.501424 -3.005065 -22.150152 24.288613 0.306321 2.718823 0.118684 -0.016653 -156068.000000 0 1 0
-9.793924 -4.310765 -21.699152 24.194149 0.414630 2.683451 0.085662 -0.016703 -261446.000000 0 1 0
-10.595924 -5.012565 -22.806252 25.642241 0.441869 2.666831 0.077861 -0.021475 -1562400.000000 0 0 1
-11.934924 -4.820565 -22.761752 26.149142 0.383867 2.626930 0.068893 -0.021376 -1866400.000000 0 0 1
-12.671524 -5.590465 -23.664052 27.419121 0.415498 2.612072 0.061387 -0.036074 15248.500000 0 0 1
-14.182824 -5.426865 -23.397952 27.893862 0.365449 2.565910 0.060268 -0.036462 79652.700000 0 0 1
-14.780224 -4.149965 -23.717052 28.252005 0.273730 2.567126 0.058135 -0.035772 -418730.000000 0 0 1
-16.162724 -4.226565 -23.535652 28.862162 0.255773 2.524303 0.059329 -0.035542 -478294.000000 0 0 1
-16.839624 -2.903065 -23.844352 29.335198 0.170717 2.519780 0.052456 -0.032988 -352131.000000 0 0 1
-16.797924 -2.479665 -25.185362 30.374684 0.146559 2.548393 0.039694 -0.041262 -116542.000000 0 0 1
-17.196324 -1.173165 -25.393112 30.690390 0.068116 2.545252 0.040177 -0.032217 -312076.000000 0 0 1
-18.630024 -1.138165 -25.959332 31.972803 0.061017 2.518229 0.044692 -0.027140 -366497.000000 0 0 1
-18.889824 -1.716865 -27.267462 33.215773 0.090639 2.533815 0.049508 -0.040627 -132629.000000 0 0 1
-18.527724 -0.855565 -28.301832 33.837882 0.046145 2.561469 0.032118 -0.032329 -340847.000000 0 0 1
-18.528124 -1.581765 -29.616852 34.970720 0.085165 2.580932 0.032346 -0.027994 185153.000000 0 0 1
-19.814924 -1.917665 -30.094902 36.083400 0.096478 2.557182 0.037379 -0.032047 197121.000000 0 0 1
-19.726024 -2.625765 -31.351222 37.133675 0.132334 2.576017 0.042792 -0.038811 18943.300000 0 0 1
-21.137724 -2.930865 -31.938012 38.411326 0.137777 2.552552 0.019784 -0.028169 634102.000000 0 0 1
-21.967024 -1.799065 -32.270312 39.078892 0.081716 2.542369 0.015884 -0.030285 723466.000000 0 0 1
-22.944724 -1.528365 -31.261272 38.808032 0.066512 2.507376 0.013182 -0.011050 -97131.600000 0 0 1
-24.032224 -0.600065 -31.816222 39.877059 0.024964 2.494530 0.025901 -0.010473 -562468.000000 0 0 1
-23.540124 0.630735 -32.184152 39.879254 -0.026788 2.509918 0.028408 -0.018620 291819.000000 0 0 1
-24.496424 1.464535 -32.838192 40.994713 -0.059715 2.499818 0.030764 -0.015272 323880.000000 0 0 1
-23.888324 2.881135 -33.180102 40.986243 -0.120029 2.514169 0.036654 -0.015535 -384472.000000 0 0 1
-23.525524 3.666435 -32.056342 39.931217 -0.154606 2.502754 0.032640 -0.014163 1314510.000000 0 0 1
-24.599124 4.200435 -31.209942 39.960243 -0.169124 2.467101 0.035790 -0.018080 1191210.000000 0 0 1
-25.777254 5.029335 -31.854722 41.285401 -0.192687 2.452107 0.044495 -0.022004 514381.000000 0 0 1
-26.796564 4.222435 -32.422562 42.274192 -0.156289 2.444885 0.063280 -0.029358 607408.000000 0 0 1
-27.899054 4.965835 -32.954782 43.463023 -0.176148 2.431384 0.081152 -0.032200 -45347.400000 0 0 1
-28.898134 4.096935 -33.669892 44.559496 -0.140833 2.427391 0.104897 -0.028060 -793116.000000 0 0 1
-28.517174 3.608335 32.685426 43.526847 -0.125863 0.721334 0.102285 -0.021061 -53115.900000 0 0 1
-29.526034 2.913835 31.995428 43.634672 -0.098368 0.747697 0.102998 -0.024823 -153327.000000 0 0 1
-29.652344 1.425635 32.208865 43.803025 -0.048041 0.744670 0.104482 -0.008756 -98443.500000 0 0 1
-29.935794 0.919735 33.502457 44.937872 -0.030714 0.729469 0.116672 -0.005973 159858.000000 0 0 1
-30.012264 -0.498465 33.405539 44.910072 0.016607 0.732011 0.110492 -0.001479 -315694.000000 0 0 1
-29.888214 -1.188565 -32.824452 44.409038 0.039746 2.402587 0.079279 -0.004010 504998.000000 0 0 1
-28.587144 -1.279165 -32.229942 43.100235 0.044716 2.415524 0.101561 -0.013500 812094.000000 0 0 1
-28.145034 -0.125365 -31.561892 42.288434 0.004454 2.413354 0.104180 -0.016565 -457523.000000 0 0 1
-28.268844 -0.222465 -30.060002 41.264764 0.007869 2.386877 0.122056 -0.019855 769500.000000 0 0 1
-27.211144 -1.036265 -29.445222 40.106624 0.038064 2.395245 0.092763 -0.022814 1316660.000000 0 0 1
-27.123144 -0.707365 -28.068162 39.038276 0.026074 2.373146 0.100516 -0.028354 38443.400000 0 0 1
-25.909114 -1.420865 -27.421752 37.752530 0.054785 2.383801 0.087054 -0.026172 -72963.700000 0 0 1
-26.145704 -2.721265 -26.972822 37.663460 0.103707 2.369072 0.072280 -0.022446 47567.300000 0 0 1
-25.159224 -3.188065 -26.073582 36.372819 0.126044 2.370059 0.074294 -0.025049 -375014.000000 0 0 1
-25.587814 -4.590165 -25.493192 36.410283 0.177501 2.346424 0.071300 -0.030352 -533827.000000 0 0 1
-26.628404 -4.388565 -24.622552 36.532198 0.163339 2.310401 0.097691 -0.024241 -806858.000000 0 0 1
-27.014864 -5.591765 -23.938452 36.525610 0.204106 2.285493 0.089922 -0.022492 96212.200000 0 0 1
-28.220604 -5.334465 -23.014852 36.804109 0.186823 2.246355 0.110889 -0.022595 -41095.600000 0 0 1
-28.504484 -6.474965 -22.259052 36.740933 0.223366 2.221615 0.115223 -0.030252 784076.000000 0 0 1
-29.607174 -6.139765 -21.361452 37.021522 0.204476 2.185848 0.152236 -0.027274 872384.000000 0 0 1
-30.174044 -7.340365 -20.522752 37.222805 0.238632 2.154777 0.157758 -0.034178 90563.600000 0 0 1
-29.231444 -8.009865 -19.645452 36.118957 0.267451 2.145886 0.143652 -0.036721 445577.000000 0 0 1
-29.769024 -8.808365 -18.609852 36.195424 0.287682 2.110812 0.150413 -0.038362 -89589.200000 0 0 1
-30.249944 -7.975765 -17.374452 35.784683 0.257795 2.077763 0.151464 -0.039056 268287.000000 0 0 1
-29.185894 -7.418565 -16.602452 34.387395 0.248912 2.074653 0.139295 -0.035632 575009.000000 0 0 1
-29.623794 -6.451165 -15.671252 34.128798 0.214422 2.047868 0.143575 -0.036182 -139669.000000 0 0 1
-28.483974 -5.982365 -14.730752 32.620860 0.207017 2.039326 0.150026 -0.032794 602227.000000 0 0 1
-27.587214 -4.991065 -15.296752 31.936746 0.178983 2.070278 0.161089 -0.023412 -129922.000000 0 0 1
-26.640324 -4.646965 -14.396352 30.635863 0.172696 2.059995 0.138562 -0.037765 -1025000.000000 0 0 1
-14.183924 20.998035 -4.813652 25.792875 -0.976711 1.758524 0.089144 -0.035478 -172881.000000 0 0 1
-14.429024 20.555035 -6.113652 25.847300 -0.958749 1.809589 0.111683 -0.036565 7635.990000 0 0 1
-15.309424 19.458235 -6.070152 25.492119 -0.904166 1.811225 0.089983 -0.050201 -317581.000000 0 0 1
-15.659324 18.845735 -7.441852 25.607759 -0.877483 1.865660 0.111511 -0.050195 112692.000000 0 0 1
-14.519424 18.260835 -8.096452 24.694621 -0.899042 1.904837 0.104832 -0.041980 291129.000000 0 1 0
-14.824824 17.471635 -9.243452 24.707789 -0.867169 1.954234 0.095264 -0.040177 -456498.000000 0 1 0
-15.340524 16.047535 -8.854952 23.901156 -0.807919 1.950324 0.096348 -0.043808 -1065500.000000 0 1 0
-16.642024 16.069335 -8.414252 24.616664 -0.767893 1.919640 0.084740 -0.043477 -1035620.000000 0 1 0
-16.915924 15.267035 -7.269252 23.918045 -0.734208 1.879604 0.101179 -0.024436 -911793.000000 0 1 0
-18.343424 15.347035 -6.790852 24.862187 -0.696693 1.847452 0.111627 -0.029625 -1102350.000000 0 1 0
-19.212424 14.603835 -7.576652 25.294167 -0.649949 1.875008 0.102234 -0.043488 -365407.000000 0 0 1
-20.504124 15.176135 -7.579552 26.611723 -0.637167 1.859615 0.107293 -0.042477 241145.000000 0 0 1
-21.574724 14.388435 -8.390352 27.256078 -0.588172 1.883712 0.105108 -0.032855 100503.000000 0 0 1
-21.832024 13.110835 -7.879252 26.657342 -0.540811 1.870854 0.144252 -0.037295 -58100.600000 0 0 1
-22.807924 12.475835 -8.666752 27.403658 -0.500534 1.892584 0.175379 -0.038567 201583.000000 0 0 1
-23.246924 11.114835 -8.053752 26.996703 -0.445991 1.873732 0.198118 -0.043919 525180.000000 0 0 1
-22.156324 10.199235 -8.170252 25.723144 -0.431412 1.894018 0.181910 -0.036925 511743.000000 0 0 1
-22.255024 9.255135 -7.084952 25.122503 -0.394110 1.856691 0.198710 -0.039614 311509.000000 0 0 1
-20.971724 8.386535 -6.882452 23.611763 -0.380418 1.866574 0.143351 -0.025946 -156890.000000 0 1 0
-20.818624 7.313435 -7.778052 23.396571 -0.337826 1.909690 0.150088 -0.027709 251860.000000 0 1 0
-19.714724 6.510435 -7.443352 22.055829 -0.318957 1.915032 0.092021 -0.019371 -399390.000000 0 1 0
-19.613924 5.183435 -8.319052 21.926711 -0.258367 1.959947 0.088613 -0.027513 -424195.000000 0 1 0
-20.666324 4.265735 -8.133652 22.615255 -0.203551 1.938693 0.125893 -0.035412 325296.000000 0 1 0
-20.770424 3.385835 -9.232752 22.980820 -0.161591 1.984233 0.143084 -0.037112 -53118.800000 0 1 0
-21.720924 2.201335 -9.000152 23.614554 -0.101001 1.961812 0.153673 -0.043011 -130677.000000 0 1 0
-21.122124 1.218835 -8.175352 22.681844 -0.057640 1.939532 0.116175 -0.037018 688733.000000 0 1 0
-21.914424 0.024235 -7.921752 23.302290 -0.001106 1.917666 0.131918 -0.037175 -12533.800000 0 1 0
-21.740924 -1.180265 -8.932452 23.534007 0.054234 1.960112 0.100940 -0.045287 -665845.000000 0 1 0
-20.611824 -1.966065 -8.762252 22.483100 0.095098 1.971131 0.076747 -0.029233 -106055.000000 0 1 0
-20.517724 -3.249465 -9.395352 22.799313 0.157069 1.995542 0.053956 -0.020742 25710.600000 0 1 0
-21.534024 -4.327365 -8.914152 23.704480 0.198313 1.956330 0.068253 -0.020871 360255.000000 0 1 0
-21.101324 -4.669865 -7.626752 22.918134 0.217796 1.910049 0.076227 -0.014407 698738.000000 0 1 0
-22.200224 -5.135865 -6.872352 23.800342 0.227343 1.863717 0.114935 -0.013554 -159938.000000 0 1 0
-22.174724 -6.680365 -6.844152 24.149287 0.292613 1.858144 0.108019 -0.028158 646597.000000 0 1 0
-20.982324 -7.312265 -6.323752 23.102316 0.335335 1.848063 0.074664 -0.025649 1001460.000000 0 1 0
-21.292224 -8.635965 -5.895152 23.721120 0.385318 1.821947 0.102513 -0.032797 71485.700000 0 1 0
-20.128224 -9.506565 -5.324852 22.888299 0.441243 1.805593 0.088585 -0.035369 669094.000000 0 1 0
-19.144024 -9.910465 -6.296552 22.457906 0.477691 1.854977 0.072741 -0.015661 291625.000000 0 1 0
-18.096524 -10.572765 -5.658152 21.709036 0.528753 1.834477 0.067586 -0.010427 82701.100000 0 1 0
-17.335624 -11.667465 -6.544152 21.897021 0.592398 1.874295 0.061476 -0.007202 -418009.000000 0 1 0
-16.467324 -11.201065 -7.510652 21.284889 0.597313 1.931426 0.085361 -0.020385 -155725.000000 0 1 0
-16.906824 -10.960665 -8.837152 22.001639 0.575178 1.984124 0.087473 -0.016147 -379788.000000 0 1 0
-15.799924 -11.288565 -9.851152 21.774170 0.620371 2.040278 0.083176 -0.011032 131479.000000 0 1 0
-15.754324 -12.678665 -9.986452 22.553858 0.677645 2.029496 0.087924 -0.019019 -45999.500000 0 1 0
-14.700324 -13.053465 -10.818552 22.439553 0.726129 2.073869 0.097046 -0.010880 -393648.000000 0 1 0
-15.025324 -14.248565 -11.680252 23.774151 0.758870 2.084379 0.108219 -0.015958 127047.000000 0 1 0
-16.026924 -14.037365 -12.672952 24.789385 0.719318 2.107406 0.124546 -0.028375 261048.000000 0 1 0
-16.195924 -15.210365 -13.470552 25.983051 0.754028 2.115817 0.105420 -0.032131 -469732.000000 0 0 1
-17.068724 -15.055265 -14.669352 27.077523 0.722802 2.143319 0.134678 -0.032007 -421350.000000 0 0 1
-17.441724 -16.312665 -15.285652 28.354328 0.751961 2.140158 0.126022 -0.019874 356638.000000 0 0 1
-17.792424 -16.120465 -16.645552 29.214964 0.736136 2.177012 0.114942 -0.019982 -499962.000000 0 0 1
-18.119624 -17.459265 -17.357052 30.568186 0.766840 2.174644 0.118569 -0.028314 663541.000000 0 0 1
-19.378724 -18.066865 -17.014552 31.487165 0.750379 2.141667 0.078210 -0.015845 -286845.000000 0 0 1
-20.320124 -17.958965 -18.012752 32.555969 0.723793 2.157100 0.063422 -0.009236 -761998.000000 0 0 1
-21.744524 -17.836665 -17.455552 33.100865 0.686987 2.126268 0.061664 -0.012488 -366478.000000 0 0 1
-22.054724 -16.571565 -16.943652 32.374604 0.644386 2.121589 0.053117 -0.001945 161341.000000 0 0 1
-21.543524 -16.455865 -15.643952 31.299395 0.652302 2.094183 0.049254 -0.010412 -591647.000000 0 0 1
-21.640424 -14.962365 -15.087952 30.328644 0.604936 2.091490 0.073592 -0.024434 239990.000000 0 0 1
-22.995224 -14.577465 -14.908452 31.041017 0.564998 2.071773 0.076292 -0.025570 646581.000000 0 0 1
-23.097424 -13.242865 -14.466652 30.300965 0.520592 2.068526 0.089317 -0.033103 491565.000000 0 0 1
-24.571824 -12.753665 -14.248752 31.136112 0.478760 2.046122 0.118579 -0.038902 627162.000000 0 0 1
-25.192364 -13.295765 -13.096952 31.352236 0.485616 2.001748 0.133373 -0.043179 -127069.000000 0 0 1
-26.505164 -12.850965 -12.930452 32.169358 0.451452 1.984441 0.140543 -0.045309 -463248.000000 0 0 1
-27.266874 -13.267765 -11.659452 32.487826 0.452861 1.937871 0.165763 -0.053743 -582862.000000 0 0 1
-28.304774 -12.432465 -11.298652 32.914829 0.413866 1.921192 0.163361 -0.055555 2185.120000 0 0 1
-29.005964 -12.854465 -10.116652 33.300599 0.417156 1.879473 0.178658 -0.054956 262506.000000 0 0 1
-29.785514 -11.757865 -9.422652 33.379794 0.375973 1.856973 0.176215 -0.053373 439523.000000 0 0 1
-28.880754 -10.899465 -8.709952 32.074282 0.360869 1.845805 0.184045 -0.051961 662484.000000 0 0 1
-29.638244 -9.867465 -8.178952 32.290674 0.321388 1.826877 0.214923 -0.049170 361177.000000 0 0 1
-28.681404 -8.703665 -7.709952 30.948669 0.294628 1.822568 0.220507 -0.036780 398786.000000 0 0 1
-28.010064 -9.025865 -6.508952 30.139615 0.311730 1.788471 0.210027 -0.037474 657232.000000 0 0 1
-27.000284 -8.139065 -6.022252 28.836214 0.292781 1.781188 0.194933 -0.033434 364342.000000 0 0 1
-27.567074 -6.704165 -5.601352 28.918239 0.238563 1.765725 0.218594 -0.034354 -5946.040000 0 0 1
-28.623934 -6.717865 -4.641552 29.765808 0.230522 1.727371 0.247556 -0.035437 553200.000000 0 0 1
-28.379804 -7.044565 -3.287152 29.425237 0.243307 1.682742 0.220669 -0.026366 -986583.000000 0 0 1
-27.441624 -6.274065 -2.408852 28.252596 0.224770 1.656161 0.209942 -0.025471 -612887.000000 0 0 1
-28.017874 -4.998365 -2.093852 28.537154 0.176542 1.644235 0.248794 -0.038351 351230.000000 0 0 1
-27.169754 -4.061865 -1.463252 27.510642 0.148400 1.624010 0.201285 -0.036506 -504852.000000 0 0 1
-27.853644 -2.903065 -0.711552 28.013561 0.103851 1.596199 0.223038 -0.046980 -401215.000000 0 0 1
-28.649364 -3.133765 0.417648 28.823272 0.108950 1.556306 0.206098 -0.036853 99587.800000 0 0 1
-27.947374 -3.336165 1.634048 28.193188 0.118811 1.512805 0.193422 -0.038327 -331792.000000 0 0 1
-28.826254 -3.487865 2.870348 29.178023 0.120411 1.472263 0.202747 -0.030770 -197175.000000 0 0 1
-29.701814 -4.596365 2.802948 30.185772 0.153532 1.477806 0.200266 -0.036797 -309806.000000 0 0 1
-30.594934 -4.638765 3.856848 31.184025 0.150473 1.446799 0.239704 -0.050520 -702444.000000 0 0 1
-31.656884 -5.690965 3.573448 32.362246 0.177870 1.460150 0.228818 -0.055384 -628379.000000 0 0 1
-31.150324 -6.984165 3.667248 32.133627 0.220561 1.456422 0.223400 -0.053548 -128726.000000 0 0 1
-32.118734 -7.982165 3.462048 33.276325 0.243586 1.466568 0.283161 -0.071922 -298816.000000 0 0 1
-31.536684 -9.417065 3.580548 33.106856 0.290178 1.462433 0.247415 -0.055298 30470.000000 0 0 1
-31.135804 -9.631365 4.941348 32.963896 0.299998 1.420327 0.202589 -0.047890 85309.600000 0 0 1
-30.604464 -10.933565 4.937648 32.871818 0.343122 1.420016 0.180982 -0.040627 -207188.000000 0 0 1
-30.381854 -11.511565 6.383548 33.110767 0.362182 1.376788 0.157525 -0.048784 -1378560.000000 0 0 1
-29.247734 -11.045465 6.953148 32.027777 0.361094 1.351956 0.114084 -0.035441 -1181250.000000 0 0 1
-28.972914 -11.552565 8.224648 32.257346 0.379417 1.312980 0.136941 -0.049387 -88018.100000 0 0 1
-29.738954 -10.786165 9.332748 32.982525 0.347939 1.283917 0.144002 -0.060443 -437565.000000 0 0 1
-29.310444 -9.451965 9.402848 32.200238 0.311949 1.274467 0.120560 -0.035692 75084.100000 0 0 1
-29.724134 -8.741565 10.535148 32.725043 0.286026 1.243030 0.112108 -0.028237 -734649.000000 0 0 1
-28.969694 -7.473765 10.798348 31.807305 0.252480 1.224419 0.137840 -0.025613 -451389.000000 0 0 1
-28.968484 -6.544365 9.767848 31.263599 0.222184 1.253041 0.137954 -0.024858 654246.000000 0 0 1
-28.223944 -5.353065 10.144848 30.465789 0.187438 1.231322 0.138861 -0.033396 95974.300000 0 0 1
-28.127204 -4.165665 9.151148 29.870318 0.147032 1.259427 0.154851 -0.039389 -618331.000000 0 0 1
-27.281844 -4.409465 8.111048 28.801589 0.160241 1.285316 0.141666 -0.033230 -318462.000000 0 0 1
-27.395674 -3.347465 7.194248 28.521671 0.121587 1.315804 0.151636 -0.047666 -351341.000000 0 0 1
-26.578864 -3.529165 5.933748 27.460889 0.132009 1.352999 0.125822 -0.028852 -1346880.000000 0 0 1
-25.209634 -3.483465 6.118848 26.174424 0.137310 1.334841 0.153699 -0.054471 -682414.000000 0 0 1
-24.597524 -3.900965 4.941648 25.390463 0.157282 1.374920 0.164009 -0.024824 1039940.000000 0 0 1
-23.013124 -3.768165 4.890748 23.826925 0.162300 1.364066 0.161593 -0.027421 1434170.000000 0 1 0
-22.561024 -2.443465 4.668348 23.168164 0.107884 1.367909 0.131002 -0.026434 317995.000000 0 1 0
-21.162124 -2.396465 4.448748 21.757066 0.112763 1.364870 0.126136 -0.027107 63472.300000 0 1 0
-20.600624 -0.950465 4.665248 21.143643 0.046105 1.348320 0.110761 -0.036429 -386797.000000 0 1 0
-20.685024 0.094535 3.680048 21.010043 -0.004570 1.394731 0.118411 -0.032028 465739.000000 0 1 0
-21.974124 0.648335 3.534548 22.266017 -0.029496 1.411380 0.107357 -0.047997 -143001.000000 0 1 0
-22.022724 1.832435 2.507148 22.240593 -0.083015 1.457828 0.145008 -0.039026 -330965.000000 0 1 0
-21.619824 3.054035 3.041948 22.045348 -0.140332 1.432369 0.134404 -0.045960 140295.000000 0 1 0
-21.760224 4.210235 2.218648 22.274556 -0.191122 1.471026 0.158120 -0.037299 -8337.370000 0 1 0
-20.534324 4.449435 1.310148 21.051661 -0.213384 1.508521 0.111046 -0.023416 -340095.000000 0 1 0
-20.775824 5.304135 0.154048 21.442772 -0.249964 1.563612 0.128427 -0.018950 960514.000000 0 1 0
-21.670824 4.714535 -0.830152 22.193256 -0.214214 1.608211 0.168923 -0.028706 147872.000000 0 1 0
-21.068724 3.630235 -1.700552 21.446716 -0.170629 1.650172 0.145042 -0.027924 -531207.000000 0 1 0
-20.852624 2.444935 -0.930252 21.016066 -0.116715 1.615075 0.100125 -0.022584 640040.000000 0 1 0
-20.280524 1.388435 -1.748752 20.403077 -0.068355 1.656612 0.077672 -0.016030 -729611.000000 0 1 0
-19.665424 0.197735 -1.011052 19.692390 -0.010055 1.622161 0.085876 -0.011387 -249768.000000 0 1 0
-20.536224 -0.654865 -0.292052 20.548738 0.031877 1.585009 0.106703 -0.016758 678053.000000 0 1 0
-19.824924 -1.348665 0.738748 19.884473 0.067924 1.533636 0.083876 -0.017664 91776.500000 0 1 0
-19.031324 -2.625365 0.353948 19.214815 0.137084 1.552375 0.038278 -0.011151 -363260.000000 0 1 0
-18.395424 -3.326165 1.345748 18.742093 0.178882 1.498931 0.042008 -0.013483 813908.000000 0 1 0
-17.559724 -4.369965 0.820548 18.113912 0.243908 1.525481 0.016036 -0.008419 54352.300000 0 1 0
-18.420224 -5.599565 0.600448 19.261888 0.295113 1.539618 0.008711 -0.011101 -192351.000000 0 1 0
-18.906524 -6.220465 1.785348 19.983451 0.317856 1.481336 0.022213 -0.012799 1555980.000000 0 1 0
-20.176024 -6.846765 1.470148 21.356767 0.327157 1.501904 0.058357 -0.017256 851163.000000 0 1 0
-21.057624 -7.280665 2.643248 22.436987 0.332883 1.452714 0.090066 -0.019319 -398473.000000 0 1 0
-20.348424 -8.235565 3.357048 22.207041 0.384575 1.419044 0.084075 -0.015212 721103.000000 0 1 0
-20.937024 -8.483565 4.644948 23.063074 0.384976 1.368007 0.078810 -0.022833 -145451.000000 0 1 0
-19.983624 -9.250365 5.553948 22.710368 0.433527 1.323735 0.064365 -0.016314 -513259.000000 0 1 0
-19.754624 -10.542865 5.063648 22.957302 0.490236 1.348399 0.088035 -0.013222 1205220.000000 0 1 0
-18.755824 -11.170265 5.952148 22.627060 0.537150 1.304610 0.102947 -0.023349 678520.000000 0 1 0
-18.302724 -12.567865 5.459148 22.863579 0.601721 1.329697 0.085199 -0.014719 -5003.740000 0 1 0
-19.294224 -13.548765 5.637348 24.240788 0.612213 1.336091 0.118214 -0.018000 145496.000000 0 1 0
-18.830124 -14.731765 4.994648 24.424270 0.663886 1.364848 0.115237 -0.014895 580983.000000 0 1 0
-19.715224 -15.988965 5.281348 25.927393 0.681410 1.365663 0.130302 -0.022046 321649.000000 0 0 1
-18.998124 -17.146065 4.939648 26.063699 0.734202 1.380121 0.124006 -0.025433 711353.000000 0 0 1
-19.815024 -18.333365 5.118448 27.476280 0.746578 1.383416 0.130461 -0.019944 881012.000000 0 0 1
-18.925024 -19.610465 4.868248 27.684413 0.803184 1.394029 0.136856 -0.029022 -47242.700000 0 0 1
-18.715324 -20.173265 3.586748 27.750473 0.822871 1.441184 0.132702 -0.032623 182296.000000 0 0 1
-17.796224 -21.241665 3.572248 27.940560 0.873429 1.442594 0.122756 -0.029908 -219137.000000 0 0 1
-16.306924 -20.856265 3.525148 26.708168 0.907207 1.438422 0.118794 -0.030606 -279555.000000 0 0 1
-15.572424 -22.076265 3.530048 27.245607 0.956461 1.440867 0.102692 -0.035651 927643.000000 0 0 1
-14.145224 -21.962465 3.722948 26.387451 0.998606 1.429236 0.097646 -0.028351 1106420.000000 0 0 1
-13.436724 -23.319565 4.050448 27.216793 1.048061 1.421420 0.114480 -0.031199 -45897.700000 0 0 1
-13.516324 -24.247765 3.000848 27.922217 1.062270 1.463117 0.107124 -0.036917 182217.000000 0 0 1
-12.870524 -25.489295 3.271348 28.741195 1.103206 1.456728 0.093990 -0.035597 73952.400000 0 0 1
19.777876 19.232935 -24.343552 36.792372 0.771430 2.293809 0.074105 -0.007190 185128.000000 0 0 1
18.723876 19.440735 -25.284182 36.983990 0.804179 2.323551 0.056925 -0.010584 930992.000000 0 0 1
19.283076 19.372635 -26.645812 38.172441 0.787715 2.343450 0.072808 -0.015197 -130751.000000 0 0 1
18.183876 19.765135 -27.589312 38.503039 0.827042 2.369638 0.065862 -0.020256 -418138.000000 0 0 1
18.044676 21.103435 -27.899582 39.361808 0.863373 2.358589 0.063517 -0.017342 28061.300000 0 0 1
17.054376 21.274435 -28.871992 39.712029 0.895058 2.384788 0.061808 -0.019930 -469269.000000 0 0 1
16.673976 22.710035 -29.330422 40.669900 0.937476 2.376304 0.080579 -0.029722 -127429.000000 0 0 1
15.816276 23.431935 -28.429552 40.093012 0.977055 2.359003 0.074048 -0.026646 713603.000000 0 0 1
15.508476 24.752935 -28.866752 41.067140 1.011097 2.350285 0.082388 -0.025963 -63503.600000 0 0 1
14.786476 25.646135 -27.814562 40.620364 1.047792 2.325049 0.085012 -0.033513 -314405.000000 0 0 1
13.515776 25.167635 -27.492262 39.647327 1.077965 2.337022 0.092202 -0.043046 -456014.000000 0 0 1
12.901376 25.913135 -26.473942 39.227613 1.108854 2.311599 0.086938 -0.040073 -541730.000000 0 0 1
11.570476 25.341835 -25.885112 38.027931 1.142487 2.319496 0.108989 -0.041327 487028.000000 0 0 1
10.906376 26.223135 -25.042752 37.864776 1.176653 2.293445 0.095026 -0.049722 -21763.300000 0 0 1
10.319276 27.389335 -25.680312 38.937662 1.210481 2.290981 0.113469 -0.053980 -653764.000000 0 0 1
9.758376 28.314935 -24.641752 38.783726 1.238907 2.259275 0.135879 -0.056788 132730.000000 0 0 1
10.819576 28.883235 -23.868952 39.000402 1.212379 2.229406 0.126619 -0.049217 293979.000000 0 0 1
10.407776 29.844435 -22.944752 39.057313 1.235250 2.198717 0.152950 -0.056605 -565877.000000 0 0 1
11.398176 30.202135 -21.851752 38.981873 1.209926 2.165860 0.125107 -0.051789 667176.000000 0 0 1
12.648676 30.777335 -22.291752 40.051911 1.180866 2.161050 0.122308 -0.062456 1025230.000000 0 0 1
13.473076 31.248335 -21.232752 40.109998 1.163719 2.128646 0.090855 -0.043487 395979.000000 0 0 1
14.782076 31.890635 -21.750652 41.335375 1.136753 2.124921 0.094102 -0.038566 -139094.000000 0 0 1
15.843276 31.051735 -22.084252 41.266619 1.099005 2.135494 0.084880 -0.038053 -771152.000000 0 0 1
16.851476 31.811535 -22.687252 42.551820 1.083650 2.133137 0.073303 -0.027623 -23229.900000 0 0 1
18.089476 30.930035 -23.025652 42.591981 1.041590 2.141958 0.035320 -0.014948 396847.000000 0 0 1
18.843876 30.476135 -21.897852 41.992885 1.017018 2.119364 0.043019 -0.007726 -458873.000000 0 0 1
20.072276 30.035435 -22.370452 42.490713 0.981673 2.125250 0.038848 -0.001833 -224546.000000 0 0 1
21.074476 29.425935 -21.343052 42.018389 0.949289 2.103594 0.054104 -0.000194 353000.000000 0 0 1
21.721976 30.345035 -20.473152 42.565424 0.949523 2.072569 0.051131 0.005049 -182328.000000 0 0 1
22.613176 29.650535 -19.672952 42.160823 0.919244 2.056258 0.075478 -0.005917 -88964.400000 0 0 1
23.449376 30.474735 -18.653452 42.737969 0.914951 2.022458 0.083102 -0.013497 240313.000000 0 0 1
24.423276 31.362335 -19.206252 44.147169 0.909151 2.020891 0.080352 -0.012559 165315.000000 0 0 1
25.118876 32.001835 -18.175652 44.558161 0.905318 1.990958 0.096554 -0.008841 -622880.000000 0 0 1
26.440476 32.603635 -18.597052 45.912374 0.889404 1.987836 0.084887 -0.008397 -11740.100000 0 0 1
27.381776 31.636335 -19.129652 46.006118 0.857363 1.999626 0.085038 -0.012622 505194.000000 0 0 1
28.658776 32.260235 -19.209252 47.233924 0.844448 1.989617 0.086403 -0.014458 350552.000000 0 0 1
29.812876 31.268735 -19.437852 47.374797 0.809228 1.993579 0.095261 -0.017703 -7029.430000 0 0 1
30.126476 30.387435 -18.375352 46.568813 0.789711 1.976412 0.083546 -0.010718 52818.600000 0 0 1
31.367876 29.767535 -18.654452 47.096054 0.759227 1.978055 0.063996 -0.014000 79849.400000 0 0 1
31.921476 28.660735 -17.773252 46.436051 0.731627 1.963564 0.056898 -0.012243 -89722.600000 0 0 1
32.449076 29.145535 -16.540252 46.647451 0.731816 1.933261 0.044431 0.001450 189605.000000 0 0 1
32.734076 28.113135 -15.594852 45.881014 0.709600 1.917604 0.053245 0.001090 -329921.000000 0 0 1
33.076276 28.707335 -14.211352 46.044692 0.714802 1.884562 0.053190 0.002474 -140489.000000 0 0 1
34.311876 29.384435 -14.142852 47.336773 0.708194 1.874201 0.042157 0.000576 -193399.000000 0 0 1
34.444376 30.678035 -14.691152 48.408541 0.727628 1.879142 0.051446 -0.010832 -699767.000000 0 0 1
35.871476 31.212135 -14.757052 49.786853 0.716054 1.871722 0.058757 -0.018557 -430202.000000 0 0 1
36.454476 31.442735 -13.541052 50.009344 0.711718 1.844990 0.059999 -0.016060 180855.000000 0 0 1
-37.714414 31.679435 -13.701652 51.124347 -0.698649 1.842119 0.063919 -0.027584 863336.000000 0 0 1
-36.964414 31.970435 -12.360852 50.410984 -0.713080 1.818524 0.064374 -0.017539 134582.000000 0 0 1
-37.325214 33.239935 -11.774752 51.348901 -0.727569 1.802164 0.075368 -0.022516 1022520.000000 0 0 1
-36.344914 33.575335 -10.769852 50.638381 -0.745808 1.785115 0.058595 -0.010643 667715.000000 0 0 1
-36.936414 -32.929205 -9.918652 50.467919 0.728105 1.768618 0.061289 -0.003466 378466.000000 0 0 1
-36.024114 -32.298505 -9.017552 49.216323 0.730922 1.755060 0.059590 -0.001936 185926.000000 0 0 1
-35.855514 -33.002705 -7.826252 49.356323 0.743992 1.730035 0.060584 -0.004919 141651.000000 0 0 1
-35.573414 -32.038705 -6.622352 48.330135 0.733166 1.708252 0.085789 -0.008655 193458.000000 0 0 1
-36.739414 -31.302505 -6.268852 48.671654 0.705662 1.699954 0.072274 0.003061 -70071.200000 0 0 1
-36.520614 -30.278205 -5.336452 47.738901 0.692218 1.682815 0.103065 -0.002955 -182035.000000 0 0 1
-37.781414 -29.483705 -4.934852 48.177556 0.662660 1.673407 0.084795 -0.000911 -456326.000000 0 0 1
36.975476 -30.298305 -4.152452 47.983497 -0.686468 1.657444 0.055769 -0.001303 647095.000000 0 0 1
35.644676 -29.772205 -3.923352 46.608152 -0.695868 1.655073 0.050001 0.003723 794666.000000 0 0 1
35.553476 -28.670305 -2.829252 45.760689 -0.678631 1.632663 0.049604 0.000555 -465982.000000 0 0 1
35.997376 -27.385705 -3.250452 45.347032 -0.650358 1.642537 0.093926 -0.006406 192753.000000 0 0 1
35.248076 -26.414405 -2.553952 44.121087 -0.643108 1.628714 0.090302 -0.004428 -190284.000000 0 0 1
35.607176 -24.971905 -2.798052 43.580914 -0.611609 1.635044 0.114600 -0.015659 -202648.000000 0 0 1
35.230676 -24.651705 -4.135952 43.197375 -0.610540 1.666689 0.107913 -0.021478 331588.000000 0 0 1
35.268676 -23.271605 -4.382352 42.481197 -0.583260 1.674140 0.117970 -0.025181 -373182.000000 0 0 1
35.076476 -22.930105 -5.872052 42.315835 -0.578984 1.710013 0.115093 -0.025892 -358578.000000 0 0 1
36.209676 -23.178005 -6.670552 43.506974 -0.569388 1.724725 0.108798 -0.025158 95722.000000 0 0 1
36.093476 -22.635705 -7.942652 43.338203 -0.560138 1.755109 0.079026 -0.026657 -286886.000000 0 0 1
37.401776 -22.555805 -8.745552 44.543707 -0.542672 1.768417 0.076862 -0.027838 -91556.000000 0 0 1
-37.756714 -23.783505 -9.351252 45.592439 0.562126 1.777368 0.063754 -0.002868 716209.000000 0 0 1
-36.464114 -23.586605 -9.965252 44.556322 0.574154 1.796359 0.083659 -0.004901 943952.000000 0 0 1
-35.924014 -24.908505 -10.611452 44.984123 0.606260 1.808934 0.080557 -0.000791 -71620.200000 0 0 1
-35.255914 -25.887405 -9.804752 44.824886 0.633358 1.791314 0.100365 0.003259 -51359.100000 0 0 1
-36.060914 -26.717605 -8.994452 45.772482 0.637653 1.768587 0.088899 -0.002955 69086.700000 0 0 1
-35.180814 -27.813905 -8.333952 45.615324 0.668982 1.754529 0.088058 -0.001472 79713.000000 0 0 1
-34.681114 -28.725805 -9.284152 45.979855 0.691751 1.774112 0.089907 -0.001008 196323.000000 0 0 1
-33.757314 -29.632005 -8.664152 45.745814 0.720411 1.761345 0.090089 -0.013802 236582.000000 0 0 1
-33.099414 -30.582705 -9.668852 46.090777 0.745899 1.782145 0.076247 -0.009833 -8505.510000 0 0 1
-32.529414 -29.956105 -10.812452 45.524061 0.744239 1.810599 0.054624 0.015960 162236.000000 0 0 1
-32.261214 -30.981305 -11.771952 46.251552 0.765163 1.828148 0.052638 0.012703 -139164.000000 0 0 1
-32.271614 -30.476505 -13.225552 46.316192 0.756798 1.860376 0.030911 0.020575 -65227.300000 0 0 1
-31.214414 -29.541405 -13.442652 45.030425 0.757869 1.873942 0.032713 0.024510 186899.000000 0 0 1
-31.306014 -29.037205 -14.734852 45.170141 0.747817 1.903085 0.025302 0.036280 533796.000000 0 0 1
-30.260414 -27.899205 -15.007252 43.809541 0.744822 1.920433 0.048595 0.013425 818894.000000 0 0 1
-28.940114 -28.369805 -15.235352 43.295404 0.775447 1.930389 0.074971 0.002392 -250422.000000 0 0 1
-28.095614 -27.396505 -15.750052 42.284704 0.772800 1.952472 0.093305 0.011515 312002.000000 0 0 1
-26.778114 -28.021105 -16.327052 42.057370 0.808077 1.969484 0.107719 -0.003050 232631.000000 0 0 1
-26.922014 -28.668305 -17.609952 43.090335 0.816801 1.991798 0.112250 -0.008540 -158344.000000 0 0 1
-27.165614 -27.866205 -18.707852 43.179621 0.798128 2.018899 0.084380 -0.000546 -446442.000000 0 0 1
-25.983114 -27.084005 -19.279652 42.194437 0.806140 2.045330 0.086831 -0.006465 -181239.000000 0 0 1
-25.581814 -25.996505 -18.492252 40.892675 0.793438 2.040043 0.094149 -0.001672 277852.000000 0 0 1
-24.157814 -26.057805 -18.364652 39.998370 0.823217 2.047818 0.090145 -0.016111 663437.000000 0 0 1
-23.569914 -25.009605 -17.403852 38.521621 0.815025 2.039572 0.102326 -0.009858 -94840.800000 0 0 1
-24.084714 -25.087505 -16.103052 38.324465 0.805789 2.004436 0.117107 -0.019916 33257.100000 0 0 1
-23.439814 -24.153605 -15.244552 36.948855 0.800395 1.996087 0.128045 -0.024262 -9858.580000 0 0 1
-24.053614 -24.032905 -13.834852 36.709127 0.784967 1.957219 0.118850 -0.016471 457017.000000 0 0 1
-25.401214 -23.570605 -13.940752 37.351568 0.748035 1.953285 0.091550 0.005624 330402.000000 0 0 1
-26.027714 -23.608705 -12.694352 37.362540 0.736702 1.917460 0.093649 -0.002178 2929.190000 0 0 1
-27.570814 -23.615505 -12.668752 38.449176 0.708279 1.906563 0.090717 0.021374 -601046.000000 0 0 1
-28.175314 -24.816105 -13.086152 39.760970 0.722091 1.906168 0.094792 0.014083 -223708.000000 0 0 1
-29.531314 -24.935205 -12.769552 40.705337 0.701213 1.889891 0.067079 0.022559 -164536.000000 0 0 1
-30.615714 -24.034505 -13.406952 41.167047 0.665551 1.902519 0.078678 0.022837 -885545.000000 0 0 1
-30.728014 -22.687005 -12.977252 40.340056 0.635982 1.898317 0.096100 0.019220 225027.000000 0 0 1
-31.252714 -22.353405 -11.664852 40.155643 0.620886 1.865536 0.102214 0.019064 96587.100000 0 0 1
-32.678014 -22.862105 -11.237052 41.434283 0.610469 1.845438 0.069538 0.021647 963407.000000 0 0 1
-33.817514 -22.112505 -11.682952 42.060415 0.579096 1.852264 0.082568 0.000464 479837.000000 0 0 1
-34.040214 -22.008605 -13.078152 42.592874 0.573944 1.882888 0.085841 0.006893 -2007740.000000 0 0 1
-35.459514 -21.639205 -13.377352 43.641561 0.547923 1.882339 0.055837 -0.009930 -1068240.000000 0 0 1
-36.320014 -22.752105 -13.191252 44.842066 0.559630 1.869385 0.070277 -0.002595 389025.000000 0 0 1
-37.680114 -22.293205 -13.268052 45.747341 0.534253 1.865053 0.082470 -0.024489 570478.000000 0 0 1
36.878976 -23.372805 -12.853452 45.514372 -0.564881 1.857096 0.080438 -0.007794 -393637.000000 0 0 1
36.868776 -24.516905 -13.724052 46.354448 -0.586832 1.871369 0.079317 -0.004533 -170567.000000 0 0 1
36.104576 -25.581405 -13.246852 46.189044 -0.616432 1.861677 0.087437 -0.016428 -51772.700000 0 0 1
35.861676 -26.790805 -14.151452 46.947530 -0.641617 1.876990 0.077990 -0.021431 915709.000000 0 0 1
34.857676 -26.629905 -15.202852 46.425597 -0.652376 1.904418 0.076601 -0.029651 660967.000000 0 0 1
34.917076 -27.670605 -16.135352 47.383691 -0.670130 1.918272 0.065938 -0.018889 385736.000000 0 0 1
33.819076 -27.579305 -17.247652 46.923655 -0.684118 1.947189 0.060960 -0.026975 116166.000000 0 0 1
32.479776 -27.722205 -16.857752 45.909044 -0.706535 1.946792 0.108146 -0.032370 -543881.000000 0 0 1
31.749876 -27.775805 -18.064152 45.889689 -0.718735 1.975387 0.113147 -0.032930 404879.000000 0 0 1
30.229676 -28.050405 -17.871352 44.944897 -0.748023 1.979727 0.106410 -0.037500 621184.000000 0 0 1
29.570076 -27.202505 -16.954952 43.610045 -0.743720 1.970109 0.095442 -0.039621 255527.000000 0 0 1
28.149976 -27.244205 -17.046752 42.723057 -0.769048 1.981229 0.113018 -0.033307 629934.000000 0 0 1
27.460676 -26.201205 -16.124652 41.238286 -0.761932 1.972527 0.106398 -0.043227 -128286.000000 0 0 1
27.301876 -24.909205 -16.652552 40.536014 -0.739603 1.994137 0.117152 -0.054648 -85190.600000 0 0 1
27.067376 -23.993105 -15.558852 39.374989 -0.725262 1.977023 0.117750 -0.056715 -320848.000000 0 0 1
26.557476 -22.620505 -15.865252 38.323530 -0.705513 1.997621 0.125488 -0.059946 594983.000000 0 0 1
25.150876 -22.429705 -16.044352 37.323979 -0.728270 2.015142 0.118928 -0.068643 440475.000000 0 0 1
24.978476 -21.001705 -16.200052 36.434016 -0.699124 2.031570 0.136291 -0.062583 316241.000000 0 0 1
23.489576 -20.564405 -16.295052 35.216241 -0.719096 2.051851 0.113271 -0.061293 114148.000000 0 0 1
22.964576 -20.320405 -15.013952 34.142486 -0.724386 2.026110 0.115997 -0.056363 -421238.000000 0 0 1
21.644676 -19.876905 -15.140852 33.057960 -0.742849 2.046551 0.102856 -0.052038 -391941.000000 0 0 1
21.345076 -18.609905 -14.357452 31.750232 -0.717048 2.040027 0.082021 -0.045477 12853.600000 0 0 1
20.981976 -18.795405 -12.974152 31.013532 -0.730483 2.002412 0.085315 -0.050322 317779.000000 0 0 1
20.389976 -17.639005 -12.353452 29.656254 -0.713185 2.000449 0.074575 -0.052186 104591.000000 0 0 1
19.566576 -17.859405 -11.045752 28.702228 -0.739815 1.965830 0.083566 -0.037953 -10060.200000 0 0 1
20.416076 -18.163305 -9.961052 29.085123 -0.727071 1.920351 0.097282 -0.047957 -294680.000000 0 0 1
19.746676 -18.571905 -8.783152 28.495449 -0.754750 1.884128 0.082690 -0.040574 137409.000000 0 0 1
20.624776 -19.373805 -7.733852 29.334931 -0.754133 1.837590 0.088221 -0.037702 365010.000000 0 0 1
21.518576 -18.495905 -7.020952 29.230829 -0.710002 1.813358 0.088840 -0.040597 322766.000000 0 0 1
22.321276 -19.240305 -6.109552 30.095769 -0.711403 1.775221 0.096429 -0.029095 -85766.400000 0 0 1
23.629776 -18.522205 -5.750352 30.569673 -0.664816 1.760030 0.104339 -0.029269 -303825.000000 0 0 1
24.520976 -18.380705 -6.826052 31.396235 -0.643239 1.789963 0.098725 -0.051443 -211818.000000 0 0 1
25.336676 -17.263605 -6.717252 31.386313 -0.598112 1.786483 0.102770 -0.043668 -717002.000000 0 0 1
26.360576 -17.098405 -7.857352 32.387859 -0.575415 1.815843 0.129348 -0.050839 -161009.000000 0 0 1
27.370776 -18.085105 -7.760752 33.711417 -0.583892 1.803091 0.156635 -0.065076 -99204.300000 0 0 1
27.106976 -19.325905 -8.388052 34.331300 -0.619364 1.817622 0.163688 -0.077795 -299765.000000 0 0 1
28.159676 -20.468005 -8.221852 35.770175 -0.628523 1.802722 0.161144 -0.074663 66394.600000 0 0 1
29.310776 -20.338905 -9.010952 36.796602 -0.606624 1.818198 0.141122 -0.045383 -682118.000000 0 0 1
30.247676 -21.266005 -8.565252 37.954294 -0.612778 1.798430 0.124554 -0.047490 -228102.000000 0 0 1
-31.320024 30.048735 4.154648 43.601967 -0.764686 1.475366 0.091230 -0.025237 384489.000000 0 0 1
-30.673374 30.769035 3.120848 43.558341 -0.786955 1.499087 0.096651 -0.025599 121138.000000 0 0 1
-29.520074 31.437235 3.618848 43.276213 -0.816839 1.487076 0.084348 -0.016145 285688.000000 0 0 1
-29.010134 32.576135 2.717248 43.705559 -0.843236 1.508585 0.094019 -0.020171 -303267.000000 0 0 1
-28.207294 32.181435 1.597648 42.823460 -0.851113 1.533480 0.108617 -0.022343 421231.000000 0 0 1
-27.614534 33.231535 0.852248 43.216013 -0.877452 1.551074 0.114758 -0.040444 493953.000000 0 0 1
-26.389054 -33.753305 1.561848 42.873152 0.907239 1.534359 0.129207 -0.031406 541425.000000 0 0 1
-25.130344 33.229135 1.540248 41.690310 -0.923292 1.533843 0.115251 -0.039093 415727.000000 0 0 1
-24.140224 -33.820705 2.321548 41.617065 0.950888 1.514984 0.109145 -0.035127 482290.000000 0 0 1
-22.674024 33.408535 2.033748 40.427438 -0.974516 1.520469 0.103835 -0.043181 461108.000000 0 0 1
-22.217624 -33.775305 0.773948 40.435047 0.988953 1.551655 0.128263 -0.046750 -442827.000000 0 0 1
-20.839124 33.691935 0.661948 39.621380 -1.016871 1.554089 0.122545 -0.045857 -708122.000000 0 0 1
-20.116324 -33.279305 -0.524752 38.890282 1.027097 1.584290 0.129381 -0.042064 -4889.290000 0 0 1
-20.015124 -31.878705 -0.546452 37.645128 1.010148 1.585313 0.135060 -0.045534 635400.000000 0 0 1
-19.148224 -31.381005 0.500948 36.765105 1.022921 1.557170 0.135476 -0.033908 141462.000000 0 0 1
-18.682324 -29.880805 0.300248 35.241764 1.012033 1.562277 0.146064 -0.046808 596638.000000 0 0 1
-17.529724 -29.682405 -0.540452 34.476492 1.037335 1.586473 0.141246 -0.035081 780026.000000 0 0 1
-17.277024 -28.270605 -0.536752 33.136246 1.022233 1.586995 0.118395 -0.034799 178565.000000 0 0 1
-16.277824 -27.793605 -1.651752 32.251827 1.040982 1.622033 0.105638 -0.032038 -77266.200000 0 0 1
-16.653724 -28.022205 -2.979652 32.733298 1.034575 1.661951 0.108450 -0.032081 232779.000000 0 0 1
-15.737724 -27.547005 -3.975152 31.973665 1.051744 1.695445 0.093119 -0.018488 -67004.100000 0 0 1
-16.335324 -27.736805 -5.316252 32.625691 1.038549 1.734473 0.134956 -0.029291 792882.000000 0 0 1
-17.494824 -26.873405 -5.503652 32.535196 0.993712 1.740774 0.128619 -0.023405 759856.000000 0 0 1
-17.769724 -26.641505 -6.855552 32.749526 0.982567 1.781689 0.140920 -0.031478 31587.100000 0 0 1
-18.554324 -25.324105 -7.058252 32.177510 0.938476 1.791948 0.125288 -0.023208 127343.000000 0 0 1
-17.736024 -24.206205 -6.775952 30.763947 0.938456 1.792873 0.077452 -0.007848 -33571.200000 0 0 1
-18.372424 -22.967105 -6.907552 30.211722 0.896089 1.801475 0.060108 -0.004111 -506038.000000 0 0 1
-17.381624 -21.843305 -6.782952 28.727326 0.898657 1.809162 0.080135 0.000344 32591.800000 0 0 1
-16.334924 -21.911705 -7.756452 28.409771 0.930189 1.847328 0.097278 -0.007481 -17213.800000 0 0 1
-15.314124 -20.989105 -7.428752 27.023162 0.940465 1.849285 0.122152 -0.029703 -202180.000000 0 0 1
-14.236624 -20.980505 -8.488952 26.738088 0.974602 1.893873 0.117450 -0.028483 -362209.000000 0 0 1
-14.683124 -20.347905 -9.636852 26.879365 0.945718 1.937481 0.129640 -0.024825 108994.000000 0 0 1
-13.597924 -20.333505 -10.539852 26.635380 0.981356 1.977636 0.120212 -0.023516 369055.000000 0 0 1
-13.985424 -19.390305 -11.695352 26.614982 0.945945 2.025757 0.138178 -0.023823 175817.000000 0 0 1
-15.125024 -19.903805 -12.355852 27.885388 0.920985 2.029844 0.123134 -0.004708 -275585.000000 0 0 1
-15.570624 -18.950605 -13.306852 27.904159 0.882997 2.067895 0.135936 -0.029772 930392.000000 0 0 1
-16.869824 -19.360405 -14.112852 29.301687 0.854033 2.073321 0.147008 -0.027528 379320.000000 0 0 1
-18.048824 -19.261905 -13.390052 29.598556 0.817900 2.040238 0.138107 -0.025715 -1101610.000000 0 0 1
-19.134224 -19.567005 -14.180652 30.823321 0.796580 2.048862 0.106600 -0.018600 218731.000000 0 0 1
-20.576224 -19.221905 -13.643152 31.288947 0.751382 2.021987 0.077432 -0.006158 960846.000000 0 0 1
-21.568824 -19.845805 -14.433852 32.671184 0.743818 2.028391 0.082632 -0.011064 814759.000000 0 0 1
-22.888724 -19.458705 -13.977952 33.134846 0.704577 2.006282 0.062489 -0.005995 1018620.000000 0 0 1
-24.068324 -20.147105 -14.698352 34.658788 0.696945 2.008750 0.071226 -0.012249 -110272.000000 0 0 1
-24.180024 -19.640805 -16.037352 35.037572 0.682180 2.046224 0.084002 -0.018987 399422.000000 0 0 1
-24.817724 -20.639605 -16.858652 36.416025 0.693743 2.052112 0.102447 -0.025457 93135.100000 0 0 1
-25.198964 -20.033105 -18.271152 37.015511 0.671683 2.087030 0.103246 -0.011036 -424665.000000 0 0 1
-24.096224 -19.792105 -19.070652 36.551952 0.687641 2.119687 0.088423 -0.011925 -337600.000000 0 0 1
-24.480224 -19.626105 -20.428252 37.440337 0.675784 2.147927 0.100195 -0.018195 165932.000000 0 0 1
-23.500124 -18.763705 -21.307552 36.855722 0.673796 2.187236 0.070627 -0.010330 102178.000000 0 0 1
-22.272924 -19.418905 -21.494952 36.540525 0.717050 2.199689 0.050952 0.003040 -485943.000000 0 0 1
-21.362324 -18.584405 -22.155452 35.952650 0.715969 2.234755 0.042232 0.000521 318377.000000 0 0 1
-19.923024 -19.178005 -22.255552 35.496934 0.766347 2.248455 0.047058 0.007079 320865.000000 0 0 1
-19.932924 -20.358705 -23.011252 36.623982 0.795965 2.250177 0.030595 0.020701 -87593.200000 0 0 1
-18.695724 -21.026405 -22.947752 36.307563 0.844006 2.254976 0.027914 0.015859 -221623.000000 0 0 1
-18.675424 -22.357305 -23.663152 37.530858 0.874889 2.252992 0.034240 0.009658 -373712.000000 0 0 1
-18.753224 -22.401505 -25.089552 38.509693 0.873815 2.280373 0.030058 0.006866 230452.000000 0 0 1
-18.980524 -23.685505 -25.576992 39.691888 0.895229 2.271020 0.033459 -0.004640 -166598.000000 0 0 1
-18.944724 -23.646505 -27.100912 40.651189 0.895346 2.300528 0.046282 -0.003234 505956.000000 0 0 1
-17.633924 -23.694505 -27.680242 40.479385 0.931005 2.323769 0.044083 -0.004055 583006.000000 0 0 1
-17.707924 -23.654005 -29.099132 41.470978 0.928177 2.348541 0.066077 -0.012671 482870.000000 0 0 1
-16.299724 -23.539505 -29.765992 41.301375 0.965161 2.375611 0.037925 -0.021362 683464.000000 0 0 1
-15.382424 -24.561005 -29.381292 41.268902 1.011267 2.363064 0.045722 -0.021448 449970.000000 0 0 1
-14.064524 -24.177905 -29.782722 40.858199 1.043934 2.387552 0.067002 -0.025031 677752.000000 0 0 1
-13.100224 -25.404305 -29.659442 41.190740 1.094692 2.374672 0.106759 -0.030339 -726729.000000 0 0 1
-13.469224 -26.536005 -30.435942 42.566725 1.101101 2.367445 0.073934 -0.022870 -30850.800000 0 0 1
-12.753824 -27.726805 -30.225152 42.953411 1.139673 2.351350 0.094546 -0.023395 -28113.100000 0 0 1
-11.355324 -27.732905 -30.900232 43.045113 1.182167 2.371515 0.109927 -0.022574 186274.000000 0 0 1
-10.495924 -26.751405 -30.353512 41.798777 1.196902 2.383548 0.171756 -0.037762 141903.000000 0 0 1
-9.251524 -26.608205 -31.035962 41.914415 1.236177 2.404551 0.142217 -0.030082 434131.000000 0 0 1
-8.276524 -25.528905 -30.507622 40.631771 1.257286 2.420117 0.226260 -0.042022 -29593.900000 0 0 1
-8.606224 -24.158705 -30.624072 39.944260 1.228576 2.444435 0.237374 -0.040986 -388445.000000 0 0 1
-9.358324 -23.799905 -29.517842 39.055303 1.196158 2.427665 0.219467 -0.028961 -369602.000000 0 0 1
-9.648424 -22.354005 -29.434372 38.199161 1.163332 2.450500 0.222129 -0.039711 69168.500000 0 0 1
-10.462024 -21.826705 -30.485002 38.925497 1.123827 2.470532 0.190876 -0.038823 206344.000000 0 0 1
-10.544824 -20.400505 -30.465342 38.151160 1.093728 2.495667 0.179165 -0.036792 303400.000000 0 0 1
-11.515524 -19.935205 -31.592882 39.091302 1.046975 2.511855 0.151754 -0.035958 199557.000000 0 0 1
-12.123924 -18.694905 -31.366582 38.475336 0.995466 2.523938 0.128061 -0.030312 -25334.000000 0 0 1
-12.896424 -18.258805 -32.458032 39.410983 0.955846 2.538488 0.117518 -0.028911 -191426.000000 0 0 1
-13.818824 -17.050405 -32.041552 38.837318 0.889704 2.541033 0.124647 -0.028614 24925.500000 0 0 1
-13.360024 -15.671605 -32.065712 38.109045 0.864853 2.570702 0.135146 -0.030741 -831241.000000 0 0 1
-12.341724 -15.236905 -31.255322 36.896837 0.889994 2.581301 0.104926 -0.027750 -538843.000000 0 0 1
-12.041124 -13.720905 -31.511472 36.417369 0.850510 2.616519 0.089378 -0.025011 -48055.500000 0 0 1
-11.306224 -13.374305 -32.701142 37.095383 0.868997 2.649915 0.092655 -0.028263 -17288.000000 0 0 1
-11.878124 -13.562205 33.634037 38.161128 0.851499 0.492044 0.099197 -0.028743 -438083.000000 0 0 1
-12.416624 -12.192005 33.154822 37.444089 0.776271 0.483338 0.090248 -0.023110 307025.000000 0 0 1
-13.611524 -11.701505 33.744027 38.221175 0.710085 0.488874 0.078746 -0.015848 489329.000000 0 0 1
-14.290924 -10.704705 32.907159 37.439316 0.642897 0.497147 0.078269 -0.027315 834531.000000 0 0 1
-15.515124 -10.018705 33.509447 38.261947 0.573373 0.503725 0.083261 -0.025388 391848.000000 0 0 1
-14.963724 -9.017805 -33.243352 37.554684 0.542362 2.657717 0.071886 -0.023170 -239925.000000 0 0 1
-15.905524 -8.561705 -32.357682 37.058171 0.493804 2.632443 0.082212 -0.031419 -395582.000000 0 0 1
-15.366124 -7.536805 -31.289302 35.664290 0.456004 2.641063 0.075760 -0.040679 -81192.700000 0 0 1
-15.125124 -6.210505 -31.694242 35.663212 0.389618 2.665319 0.077991 -0.041165 -392095.000000 0 0 1
-16.251124 -5.397605 -31.710322 36.038558 0.320674 2.646448 0.080392 -0.036915 -284714.000000 0 0 1
-16.830324 -4.857505 -30.351482 35.043796 0.280981 2.618146 0.083978 -0.050317 -180064.000000 0 0 1
-17.207424 -5.798505 -29.338712 34.503306 0.325026 2.587382 0.084480 -0.049845 5032.980000 0 0 1
-17.180624 -5.190705 -28.049572 33.300086 0.293406 2.572383 0.073270 -0.049615 -355698.000000 0 0 1
-15.817324 -4.798905 -27.465792 32.055997 0.294569 2.599841 0.070992 -0.053935 -161306.000000 0 0 1
-15.336324 -3.554105 -28.054822 32.169979 0.227724 2.630235 0.073711 -0.052690 -591968.000000 0 0 1
-14.171224 -3.039505 -27.503772 31.088899 0.211283 2.656607 0.065971 -0.050430 -662420.000000 0 0 1
-13.843124 -1.732405 -28.293462 31.546050 0.124498 2.683492 0.039804 -0.036516 -188348.000000 0 0 1
-13.668924 -1.855405 -29.677282 32.726489 0.134914 2.706492 0.050085 -0.041681 41648.300000 0 0 1
-13.885424 -0.688405 -30.416942 33.443523 0.049537 2.712880 0.056632 -0.042449 -48191.500000 0 0 1
-14.155324 -1.035405 -31.921022 34.934180 0.073016 2.723211 0.061993 -0.040580 -41227.000000 0 0 1
-15.428824 -1.594405 -32.204502 35.745219 0.102974 2.692740 0.041084 -0.039421 438874.000000 0 0 1
-15.591424 -1.859405 -33.617102 37.103361 0.118698 2.704625 0.050508 -0.041264 599290.000000 0 0 1
-17.099524 -1.674405 33.589507 37.728668 0.097610 0.472812 0.040864 -0.038100 645255.000000 0 0 1
-17.127724 -1.785405 32.175767 36.494200 0.103866 0.491411 0.066320 -0.041282 1018020.000000 0 0 1
-18.446824 -1.730405 31.605928 36.636243 0.093531 0.530220 0.059236 -0.037808 472472.000000 0 0 1
-18.383024 -1.959405 30.065857 35.294909 0.106187 0.551295 0.085870 -0.037353 -139797.000000 0 0 1
-17.728224 -0.871405 29.479157 34.410318 0.049114 0.541968 0.089362 -0.021705 33175.800000 0 0 1
-17.933524 -0.882405 28.079437 33.329337 0.049165 0.568918 0.104282 -0.030384 -178156.000000 0 0 1
-17.200724 0.243595 27.338007 32.300014 -0.014161 0.561650 0.087249 -0.031122 -281131.000000 0 0 1
-17.430224 1.579595 27.704497 32.769605 -0.090377 0.563421 0.075311 -0.027828 983690.000000 0 0 1
-18.762724 2.090595 27.421907 33.292212 -0.110965 0.602938 0.082213 -0.032851 1037520.000000 0 0 1
-18.977324 2.921595 26.136557 32.431376 -0.152753 0.633597 0.093622 -0.032547 -271483.000000 0 0 1
-18.604324 4.298595 26.296307 32.497609 -0.227069 0.628047 0.079384 -0.028626 133848.000000 0 0 1
-18.845224 5.009595 25.116097 31.797120 -0.259820 0.660173 0.087553 -0.025849 -820973.000000 0 0 1
-18.507124 6.522595 25.154677 31.903224 -0.338844 0.662482 0.077681 -0.026797 -255678.000000 0 0 1
-17.166224 6.928595 25.155837 31.233009 -0.383621 0.634405 0.069004 -0.024830 -382421.000000 0 0 1
-16.538324 6.681595 23.897297 29.820139 -0.383956 0.641196 0.064840 -0.027606 -632599.000000 0 0 1
-15.401024 7.688595 23.629197 29.234312 -0.463028 0.629589 0.046105 -0.021159 -415788.000000 0 0 1
-14.202024 7.363595 24.250007 29.051383 -0.478329 0.583157 0.048441 -0.021173 181354.000000 0 0 1
-13.101524 8.185595 23.818497 28.389694 -0.558442 0.575383 0.052977 -0.021502 -98939.900000 0 0 1
-11.776824 7.929595 24.518097 28.332122 -0.592596 0.524885 0.044174 -0.016356 -569760.000000 0 0 1
-10.784124 8.681595 23.819397 27.550519 -0.677803 0.526499 0.030857 -0.015920 685892.000000 0 0 1
-9.578124 8.853595 24.576877 27.823542 -0.746110 0.487915 0.042066 -0.016054 382153.000000 0 0 1
-9.638624 10.138595 25.464567 29.054060 -0.810673 0.502347 0.048687 -0.025234 -326214.000000 0 0 1
-10.612724 10.094595 26.546067 30.318715 -0.760382 0.504188 0.044437 -0.022946 897935.000000 0 0 1
-10.798024 11.312595 27.269387 31.435515 -0.808667 0.520701 0.071213 -0.027471 -272896.000000 0 0 1
-11.390224 12.495595 26.426337 31.372415 -0.831642 0.569180 0.049047 -0.025250 3572.370000 0 0 1
-12.759724 12.480595 26.058947 31.585512 -0.774340 0.600544 0.046848 -0.028881 291068.000000 0 0 1
-13.006324 11.698595 24.889147 30.421888 -0.732514 0.612640 0.041820 -0.023407 -336854.000000 0 0 1
-14.495524 11.531595 24.538637 30.744798 -0.672008 0.646596 0.027112 -0.024252 31531.100000 0 0 1
-15.291724 12.703595 24.313177 31.406190 -0.693212 0.685421 0.036816 -0.026706 984059.000000 0 0 1
-16.576924 12.491595 23.698397 31.503149 -0.645771 0.719319 0.042356 -0.013984 635501.000000 0 0 1
-16.630824 11.978595 22.216187 30.226314 -0.624197 0.745137 0.038539 -0.006423 -557877.000000 0 0 1
-16.173024 10.660595 22.033287 29.337361 -0.582787 0.721173 0.040753 -0.007643 115174.000000 0 0 1
-15.987624 10.426595 20.663587 28.130088 -0.577897 0.745760 0.057969 -0.014691 -431940.000000 0 0 1
-16.391724 9.018595 20.304787 27.609927 -0.502991 0.744516 0.071398 -0.021125 355414.000000 0 0 1
-17.778724 8.853595 20.554287 28.582301 -0.462037 0.768252 0.084586 -0.011841 57231.000000 0 0 1
-18.364024 7.581595 20.427687 28.495761 -0.391535 0.771497 0.082856 -0.014977 255515.000000 0 0 1
-19.896824 7.570595 20.636787 29.649191 -0.363577 0.800940 0.108896 -0.017071 182911.000000 0 0 1
-20.229424 7.938595 21.977687 30.907437 -0.373962 0.779762 0.092672 -0.024869 189678.000000 0 0 1
-21.640124 7.837595 22.107987 31.913727 -0.347483 0.805512 0.094151 -0.022917 303718.000000 0 0 1
-22.140624 8.388595 23.521017 33.373852 -0.362166 0.788692 0.099230 -0.021965 -404329.000000 0 0 1
-22.145124 9.800595 23.689557 33.877032 -0.416651 0.796405 0.089508 -0.019032 1101030.000000 0 0 1
-20.938624 10.582595 23.457097 33.176087 -0.467966 0.785481 0.086696 -0.016358 984790.000000 0 0 1
-19.767324 10.438595 24.464137 33.139182 -0.485853 0.740363 0.077054 -0.020769 -228403.000000 0 0 1
-19.961724 10.886595 25.808167 34.395492 -0.499284 0.722227 0.074173 -0.024062 42830.200000 0 0 1
-19.687124 9.860595 26.775857 34.666421 -0.464340 0.688207 0.059744 -0.020778 119753.000000 0 0 1
-33.241094 -14.349765 20.002787 41.364207 0.407521 1.066059 0.116539 -0.009351 -760985.000000 0 0 1
-32.049384 -15.074165 20.010287 40.679295 0.439641 1.056522 0.101665 0.001945 -264458.000000 0 0 1
-31.927414 -15.989165 18.908487 40.404753 0.464285 1.083796 0.083476 0.014432 30577.900000 0 0 1
-31.486914 -15.382665 17.567487 39.200367 0.454439 1.106106 0.088740 0.015387 -211589.000000 0 0 1
-32.427804 -14.508765 16.949287 39.361721 0.420704 1.125635 0.078853 0.004178 -249877.000000 0 0 1
-32.014904 -14.089265 15.680887 38.332124 0.414578 1.149351 0.076316 -0.002238 -784343.000000 0 0 1
-32.962734 -13.071165 14.902487 38.464026 0.377523 1.172944 0.073388 -0.003110 479196.000000 0 0 1
-34.291908 -13.488965 14.658087 39.657870 0.374767 1.192203 0.094222 -0.003672 699591.000000 0 0 1
-35.133282 -13.656865 15.806787 40.874344 0.370741 1.173728 0.095571 -0.004136 -1003480.000000 0 0 1
-35.790995 -12.425865 16.417787 41.290934 0.334159 1.161883 0.092171 -0.010405 240515.000000 0 0 1
-36.869114 -12.726165 17.335087 42.682457 0.332367 1.152569 0.069753 -0.003062 719633.000000 0 0 1
-37.499434 -11.523265 17.725987 43.048854 0.298133 1.146407 0.065511 -0.004341 265252.000000 0 0 1
37.040806 -11.570565 18.886887 43.158009 -0.302770 1.117844 0.057039 0.012366 477886.000000 0 0 1
37.700196 -12.069365 20.027987 44.363212 -0.309831 1.102401 0.057521 0.013845 122293.000000 0 0 1
36.975096 -11.591965 21.124987 44.133847 -0.303802 1.071672 0.051058 0.006381 -796898.000000 0 0 1
37.630266 -11.947765 22.486487 45.435978 -0.307437 1.053071 0.054072 -0.003298 609103.000000 0 0 1
-36.710644 -11.276665 22.764027 44.643426 0.298028 1.035719 0.068560 0.000221 1512030.000000 0 0 1
-35.553905 -11.830065 22.063887 43.483856 0.321213 1.038627 0.071152 0.001001 296778.000000 0 0 1
-34.247345 -11.035865 22.169887 42.263162 0.311734 1.018589 0.091846 -0.006755 -94792.600000 0 0 1
-34.328295 -9.888265 21.397787 41.642225 0.280458 1.031132 0.101376 -0.006490 -401429.000000 0 0 1
-33.084674 -9.313765 21.127387 40.344868 0.274411 1.019643 0.126932 -0.017772 -953052.000000 0 0 1
-33.241374 -7.945065 20.447487 39.827287 0.234610 1.031650 0.115769 -0.009107 134856.000000 0 0 1
-33.645084 -8.011465 19.076587 39.497993 0.233764 1.066746 0.118393 -0.016396 1229530.000000 0 0 1
-35.058704 -8.135365 18.795687 40.602644 0.228014 1.089512 0.099871 -0.012752 732217.000000 0 0 1
-35.336168 -8.211765 17.272487 40.179804 0.228337 1.126437 0.106898 -0.018798 885868.000000 0 0 1
-36.762364 -8.257465 17.059587 41.360448 0.220950 1.145642 0.031020 -0.016534 1013770.000000 0 0 1
-37.109894 -8.456365 15.704987 41.174033 0.224048 1.179454 0.059686 -0.020160 294874.000000 0 0 1
36.924316 -8.523765 15.519787 40.950256 -0.226870 1.182090 0.087387 -0.032777 357625.000000 0 0 1
36.273046 -9.718065 15.936387 40.793910 -0.261767 1.169452 0.092455 -0.013783 791980.000000 0 0 1
34.854886 -9.489865 15.940987 39.484626 -0.265824 1.155210 0.091772 -0.011728 869983.000000 0 0 1
33.931996 -10.703265 16.146887 39.072525 -0.305555 1.144771 0.088358 -0.004633 80083.000000 0 0 1
33.790286 -11.095765 17.497587 39.636662 -0.317278 1.113583 0.051827 -0.006507 -361.235000 0 0 1
32.712746 -11.991265 17.628987 39.047348 -0.351353 1.102376 0.078951 -0.003509 -110927.000000 0 0 1
32.598166 -12.719265 18.997287 39.816040 -0.372015 1.073414 0.060907 0.010766 302986.000000 0 0 1
33.661436 -13.627465 19.286587 41.119004 -0.384671 1.082589 0.067795 0.015580 155841.000000 0 0 1
33.796086 -13.811465 20.657587 41.948396 -0.387959 1.055891 0.077267 0.013424 -137523.000000 0 0 1
34.232276 -15.181465 21.093387 42.979723 -0.417422 1.057817 0.074687 0.003507 126227.000000 0 0 1
34.404696 -15.065065 22.481787 43.772937 -0.412728 1.031421 0.070076 -0.013829 -115238.000000 0 0 1
34.757626 -16.328965 23.032377 44.779661 -0.439193 1.030548 0.087531 -0.016030 5479.940000 0 0 1
35.173966 -16.205365 24.483187 45.817553 -0.431733 1.007043 0.102410 -0.015355 124148.000000 0 0 1
36.484406 -15.674765 24.470197 46.643335 -0.405785 1.018523 0.087950 -0.001363 17418.300000 0 0 1
36.956136 -15.242365 25.715927 47.533089 -0.391188 0.999157 0.102124 -0.006205 216574.000000 0 0 1
-37.421854 -14.243465 25.683247 47.569955 0.363688 1.000472 0.086635 0.001062 -201892.000000 0 0 1
-36.208404 -14.800665 25.284377 46.576904 0.388038 0.996967 0.056138 -0.002232 -584213.000000 0 0 1
-35.231056 -13.771465 25.268117 45.490200 0.372628 0.981877 0.068673 -0.006471 89486.300000 0 0 1
-33.793374 -14.298265 25.129327 44.473763 0.400267 0.970318 0.072539 -0.007077 -267837.000000 0 0 1
-33.376254 -14.641865 23.797227 43.527768 0.413410 0.992362 0.064712 -0.001035 -383610.000000 0 0 1
-31.999704 -14.753665 23.579107 42.398420 0.432010 0.981072 0.072215 -0.001445 -12815.700000 0 0 1
-31.325714 -16.118365 24.080797 42.673023 0.475213 0.971200 0.069899 0.002913 -310859.000000 0 0 1
-31.079174 -16.127165 25.432607 43.276068 0.478658 0.942604 0.071890 -0.004614 77902.500000 0 0 1
-30.797344 -17.422965 25.915837 43.859625 0.514839 0.938645 0.065971 -0.007464 -278543.000000 0 0 1
-30.599734 -17.477465 27.445817 44.666301 0.518947 0.909090 0.055824 -0.013618 -148282.000000 0 0 1
-29.393884 -16.841565 27.787227 43.815166 0.520301 0.883833 0.057063 -0.010613 -125190.000000 0 0 1
-28.937134 -17.190765 29.116307 44.504376 0.536050 0.857626 0.062542 -0.015095 225148.000000 0 0 1
-27.646794 -16.418265 29.445917 43.600077 0.535891 0.829338 0.049356 -0.013231 -164403.000000 0 0 1
-27.828914 -15.117465 30.007897 43.628662 0.497630 0.812339 0.069269 -0.019723 39706.500000 0 0 1
-26.788194 -14.225265 29.648657 42.414719 0.488160 0.796773 0.045894 -0.016582 -744788.000000 0 0 1
-26.727634 -13.014065 30.552877 42.628754 0.453124 0.771709 0.054663 -0.012130 98416.700000 0 0 1
-25.875484 -13.156565 31.686876 42.973178 0.470390 0.741637 0.050066 -0.013627 242706.000000 0 0 1
-25.601814 -11.848665 32.264388 42.858307 0.433452 0.718468 0.049777 -0.011466 -64954.400000 0 0 1
-24.824524 -12.051865 33.603357 43.482066 0.451966 0.687540 0.063270 -0.020092 263425.000000 0 0 1
-23.482324 -12.485565 33.457801 42.740301 0.488685 0.671617 0.024602 -0.021666 -257495.000000 0 0 1
-23.338124 -13.909765 33.420919 43.070958 0.537481 0.682576 0.028938 -0.023512 -298329.000000 0 0 1
-23.489624 -14.669965 -32.816322 42.940439 0.558261 2.440641 0.029850 -0.023283 -12597.100000 0 0 1
-22.416224 -14.438265 -31.905962 41.580536 0.572216 2.445462 0.013764 -0.019278 116824.000000 0 0 1
-22.538824 -15.068365 -30.667502 40.933481 0.589306 2.417655 0.023920 -0.015445 104114.000000 0 0 1
-21.228624 -15.186365 -29.830202 39.637370 0.620968 2.422764 0.022048 -0.014654 517914.000000 0 0 1
-20.780724 -14.061065 -29.080602 38.408768 0.594875 2.429712 0.025724 -0.013148 473100.000000 0 0 1
-21.678924 -13.733265 -28.018232 37.994732 0.564677 2.400045 0.035720 -0.009523 378969.000000 0 0 1
-21.003924 -12.648065 -27.136262 36.572053 0.542018 2.406837 0.031263 -0.020187 -723722.000000 0 0 1
-19.819224 -12.939065 -26.486002 35.520830 0.578379 2.412302 0.033948 -0.019687 -607380.000000 0 0 1
-19.423724 -11.783465 -25.814622 34.387873 0.545297 2.419902 0.034674 -0.025125 -470351.000000 0 0 1
-18.094424 -11.845765 -25.079252 33.116449 0.579647 2.429973 0.054203 -0.040791 -815945.000000 0 0 1
-18.116124 -12.590065 -23.859752 32.496022 0.607338 2.395337 0.065567 -0.040752 882042.000000 0 0 1
-16.836124 -12.608265 -23.189152 31.307510 0.642785 2.404893 0.064709 -0.045509 1454930.000000 0 0 1
-15.679324 -13.529965 -23.759952 31.518827 0.711946 2.424674 0.046455 -0.036512 642050.000000 0 0 1
-14.749624 -12.857765 -24.627252 31.454333 0.716978 2.470194 0.052208 -0.043230 441145.000000 0 0 1
-14.260624 -13.673465 -25.648342 32.375399 0.764382 2.485230 0.069773 -0.039666 -79455.400000 0 0 1
-13.236724 -13.137465 -26.689072 32.559337 0.781635 2.531693 0.084046 -0.043296 533933.000000 0 0 1
-13.827824 -12.170865 -27.525122 33.120553 0.721752 2.551805 0.095894 -0.046013 -124715.000000 0 0 1
-12.786824 -11.574865 -28.221372 33.074555 0.735691 2.593012 0.092163 -0.044802 -302473.000000 0 0 1
-13.316824 -10.600565 -29.312432 33.895847 0.672314 2.615507 0.070012 -0.036377 197741.000000 0 0 1
-12.349124 -9.740665 -29.899062 33.783655 0.667858 2.657324 0.064272 -0.028807 225248.000000 0 0 1
-12.085824 -9.970065 -31.300962 35.003136 0.689764 2.677511 0.068102 -0.018844 285379.000000 0 0 1
-11.285124 -8.872365 -32.096212 35.160201 0.666270 2.721023 0.040633 -0.017910 -55482.900000 0 0 1
-10.006724 -8.612665 -31.599302 34.246582 0.710666 2.745821 0.045787 -0.019388 -664889.000000 0 0 1
-9.674324 -7.302865 -31.961402 34.182680 0.646611 2.779105 0.034787 -0.020793 118098.000000 0 0 1
-8.135324 -7.101665 -31.802462 33.585916 0.717663 2.814246 0.056558 -0.022048 369835.000000 0 0 1
-7.591924 -7.055565 -30.452922 32.168288 0.748797 2.813551 0.056577 -0.019475 125007.000000 0 0 1
-8.028424 -5.925165 -29.695342 31.326929 0.635792 2.817429 0.059457 -0.021997 52507.100000 0 0 1
-7.240124 -4.617565 -30.052582 31.255383 0.567733 2.863268 0.059079 -0.029841 590368.000000 0 0 1
-5.872024 -4.535365 -29.658882 30.572855 0.657664 2.896460 0.096150 -0.040325 400375.000000 0 0 1
-5.275224 -3.436665 -30.331972 30.978495 0.577410 2.936932 0.112487 -0.049120 296032.000000 0 0 1
-3.808624 -3.243165 -29.839912 30.256306 0.705383 2.975497 0.110465 -0.036264 201181.000000 0 0 1
-2.879324 -4.052365 -30.530982 30.933041 0.953039 2.980186 0.125845 -0.036720 -437078.000000 0 0 1
-1.523824 -3.835265 -30.306782 30.586473 1.192603 3.006254 0.145234 -0.035997 -103922.000000 0 0 1
-0.890024 -2.685865 -31.205342 31.333359 1.250811 3.051167 0.142657 -0.035363 674539.000000 0 0 1
0.564776 -2.680865 -31.128262 31.248595 -1.363163 3.053805 0.132501 -0.028971 1336240.000000 0 0 1
1.041776 -1.530765 -31.764052 31.817975 -0.973238 3.083365 0.104184 -0.022821 -48778.200000 0 0 1
1.437276 -0.327065 -30.892902 30.928047 -0.223749 3.093915 0.100725 -0.036475 55692.800000 0 0 1
0.294376 0.125335 -30.196372 30.198067 0.402519 3.130998 0.108903 -0.029647 75866.000000 0 0 1
0.682676 1.340135 -29.491052 29.529378 1.099651 3.090638 0.132642 -0.047110 986408.000000 0 0 1
-0.417324 1.963335 -28.494092 28.564700 -1.361355 3.071266 0.112832 -0.035622 705805.000000 0 0 1
-1.351924 2.722935 -29.227872 29.385550 -1.109956 3.037952 0.099576 -0.054078 -129237.000000 0 0 1
-1.963724 3.701635 -28.354362 28.662312 -1.083046 2.994873 0.147629 -0.049461 157998.000000 0 0 1
-3.341724 4.165335 -28.862962 29.352814 -0.894673 2.958644 0.183444 -0.058024 22042.700000 0 0 1
-3.126424 4.821435 -30.128652 30.671753 -0.995517 2.953128 0.184454 -0.059860 478278.000000 0 0 1
-4.346324 5.338935 -30.648742 31.412420 -0.887528 2.920638 0.207672 -0.056593 80078.800000 0 0 1
-4.141224 5.867535 -32.096162 32.889836 -0.956198 2.921461 0.211821 -0.053954 17362.500000 0 0 1
-3.764024 5.039535 -33.174932 33.765972 -0.929283 2.954214 0.229338 -0.054321 874394.000000 0 0 1
-2.541324 4.278735 -33.080152 33.452389 -1.034842 2.992274 0.199507 -0.054702 448960.000000 0 0 1
-2.209624 3.470035 33.198707 33.452619 -1.003776 0.123287 0.167332 -0.053700 -416848.000000 0 0 1
-3.089124 2.444535 32.851715 33.087062 -0.669436 0.119343 0.161976 -0.062036 -234772.000000 0 0 1
-2.884324 1.915235 31.568791 31.758086 -0.586165 0.109238 0.154853 -0.047107 -47709.600000 0 0 1
-2.982624 2.869435 30.291217 30.572660 -0.766059 0.135793 0.147203 -0.042527 -465042.000000 0 0 1
-4.225224 3.470435 30.137457 30.629443 -0.687631 0.179475 0.128563 -0.042454 -743134.000000 0 0 1
-4.121024 4.463135 29.175807 29.801513 -0.825231 0.205279 0.114475 -0.045247 729879.000000 0 0 1
-5.296024 5.522135 29.036787 30.027935 -0.806296 0.257646 0.122433 -0.034761 734516.000000 0 0 1
-5.137124 6.372435 27.958337 29.131883 -0.892318 0.284806 0.112016 -0.022097 -532180.000000 0 0 1
-6.316024 7.093835 27.796807 29.374771 -0.843336 0.329261 0.098728 -0.014160 -482667.000000 0 0 1
-6.325224 7.747135 26.337597 28.172604 -0.886099 0.362916 0.083655 -0.018474 -257261.000000 0 0 1
-5.445424 8.823335 26.169707 28.148845 -1.017853 0.377225 0.100220 -0.014387 -169908.000000 0 0 1
-5.302124 9.164735 24.796407 26.962320 -1.046309 0.403560 0.082600 -0.016878 -111999.000000 0 0 1
-4.459424 10.442235 24.760247 27.239614 -1.167185 0.429967 0.075018 -0.017208 -579127.000000 0 0 1
-4.612324 11.282835 23.643027 26.600162 -1.182734 0.476010 0.083988 -0.018290 33425.500000 0 0 1
-4.166324 12.586435 23.826337 27.266664 -1.251132 0.507779 0.088017 -0.004344 -236545.000000 0 0 1
-2.630124 12.866635 23.782247 27.167317 -1.369160 0.504535 0.081079 -0.002176 206023.000000 0 0 1
-1.822924 12.454935 24.863587 27.868377 -1.425467 0.468649 0.084118 -0.002264 36333.400000 0 0 1
-2.054424 13.094635 26.088297 29.262423 -1.415174 0.470087 0.096124 0.003347 -1108590.000000 0 0 1
-1.181124 12.618035 27.223207 30.028534 -1.477462 0.435693 0.085744 0.000921 740119.000000 0 0 1
0.180876 13.086335 27.109757 30.103552 1.556975 0.449763 0.082896 0.001650 554983.000000 0 0 1
0.961976 12.549535 28.154637 30.839906 1.494292 0.420393 0.083319 -0.002846 288654.000000 0 0 1
2.492376 12.710335 27.960837 30.815142 1.377163 0.433804 0.084001 -0.010300 333860.000000 0 0 1
2.963776 13.994835 28.268857 31.682293 1.362103 0.468469 0.081852 -0.003271 -561294.000000 0 0 1
4.326076 14.143335 28.022507 31.686113 1.273959 0.485636 0.090475 -0.012368 -511273.000000 0 0 1
5.005476 15.502135 28.371527 32.715662 1.258475 0.521214 0.090396 -0.013732 -184176.000000 0 0 1
5.019076 15.909335 29.697917 34.062653 1.265199 0.511806 0.097369 -0.006380 199876.000000 0 0 1
3.957276 16.770535 30.072187 34.659015 1.339069 0.520323 0.076651 -0.003250 2155.880000 0 0 1
4.003176 18.207835 29.589067 34.972326 1.354380 0.562225 0.083772 -0.000481 642285.000000 0 0 1
5.179876 18.918535 30.028127 35.866844 1.303547 0.578632 0.117656 -0.002886 543250.000000 0 0 1
5.383576 20.098835 29.278437 35.918978 1.309085 0.617852 0.083660 -0.005868 338623.000000 0 0 1
6.522376 20.998735 29.862437 37.084409 1.269636 0.634689 0.089378 -0.001593 -2887.430000 0 0 1
6.263176 21.522235 31.137187 38.366110 1.287608 0.623944 0.096268 -0.023462 -502755.000000 0 0 1
7.224576 22.373835 31.669051 39.442513 1.258462 0.638624 0.067145 -0.020683 -759457.000000 0 0 1
7.222776 23.835935 31.057197 39.810423 1.276571 0.675927 0.056981 -0.008844 -385197.000000 0 0 1
7.609376 23.869035 29.712677 38.864851 1.262185 0.700511 0.039122 -0.009406 123313.000000 0 0 1
7.626376 25.163835 29.177077 39.276991 1.276526 0.733473 0.041833 -0.016231 147617.000000 0 0 1
8.266976 25.170035 27.754547 38.369108 1.253452 0.762145 0.070009 -0.012248 200702.000000 0 0 1
7.410176 24.598935 26.794057 37.120612 1.278203 0.764381 0.051413 -0.014806 65649.200000 0 0 1
8.166076 24.442235 25.630147 36.345730 1.248359 0.788125 0.069584 -0.019232 -112644.000000 0 0 1
30.246566 2.261435 7.332848 31.204799 0.074628 1.333587 0.204184 -0.004059 33900.900000 0 0 1
30.161266 3.443135 8.073148 31.412304 0.113665 1.310874 0.199171 -0.023766 -1082350.000000 0 0 1
28.955966 3.497535 8.722248 30.442706 0.120206 1.280210 0.173541 -0.010895 -989670.000000 0 0 1
28.870966 4.579535 9.854948 30.848417 0.157310 1.245633 0.159169 -0.026608 -226930.000000 0 0 1
28.712566 5.972035 9.608848 30.861086 0.205070 1.254175 0.173928 -0.033423 -440245.000000 0 0 1
29.613866 6.619735 8.753748 31.582116 0.219920 1.289944 0.207458 -0.047089 -282048.000000 0 0 1
29.248166 8.065935 8.309948 31.457428 0.269087 1.303458 0.243204 -0.056509 275795.000000 0 0 1
28.205766 8.093835 7.350648 30.250742 0.279448 1.325349 0.182085 -0.053314 -76570.200000 0 0 1
28.074466 9.431635 6.835548 30.395001 0.324104 1.343966 0.215544 -0.072949 -197042.000000 0 0 1
26.994866 9.479735 5.748748 29.182808 0.337715 1.372509 0.178850 -0.053994 1221120.000000 0 0 1
25.684566 9.835735 6.270948 28.209278 0.365716 1.346623 0.150991 -0.037016 698748.000000 0 0 1
24.684266 9.787835 5.305148 27.078761 0.377504 1.373605 0.187595 -0.048225 -637631.000000 0 0 1
23.422966 10.518435 5.692448 26.299748 0.422076 1.352625 0.105086 -0.035480 -482910.000000 0 0 1
23.731666 11.848535 5.801448 27.152100 0.463064 1.355471 0.097130 -0.029294 545283.000000 0 0 1
22.577666 12.518735 6.290848 26.571498 0.506272 1.331775 0.098313 -0.017956 206539.000000 0 0 1
22.722066 14.053335 6.240948 27.436070 0.553903 1.341315 0.097274 -0.010674 -78490.500000 0 0 1
22.576066 14.566235 4.955648 27.320549 0.572998 1.388398 0.104714 -0.028683 259797.000000 0 0 1
22.603266 16.009735 5.032048 28.152100 0.616270 1.391086 0.131168 -0.016214 -482881.000000 0 0 1
22.143866 16.767335 3.780148 28.031836 0.648093 1.435532 0.127130 -0.037809 199251.000000 0 0 1
20.724266 16.700435 3.705948 26.872547 0.678292 1.432447 0.132530 -0.017216 458218.000000 0 0 1
20.196566 17.676835 2.817348 26.987205 0.718966 1.466210 0.143138 -0.023304 797437.000000 0 0 1
18.634566 17.631535 2.690748 25.794538 0.757748 1.466292 0.114669 -0.017489 1165820.000000 0 0 1
17.864166 18.245935 3.774048 25.812516 0.795970 1.424060 0.116631 -0.029481 643950.000000 0 0 1
16.490966 18.087935 3.474348 24.722387 0.831549 1.429795 0.083223 -0.030855 -362072.000000 0 1 0
15.594966 19.108735 4.127548 25.007666 0.886305 1.404986 0.121076 -0.038000 -210334.000000 0 0 1
14.225066 18.845235 3.927648 23.935785 0.924207 1.405960 0.115040 -0.035333 220337.000000 0 1 0
13.343066 19.905935 4.256548 24.339307 0.980278 1.395009 0.079123 -0.038076 27725.000000 0 1 0
11.854566 19.545735 4.206648 23.243545 1.025608 1.388812 0.054048 -0.031793 -266435.000000 0 1 0
11.359966 18.774935 5.288648 22.572479 1.026664 1.334302 0.042547 -0.043282 381516.000000 0 1 0
9.945766 18.984735 5.288048 22.074915 1.088226 1.328894 0.031965 -0.026108 407703.000000 0 1 0
9.236866 18.621735 6.569848 21.800266 1.110333 1.264672 0.020475 -0.016482 -610228.000000 0 1 0
9.408566 19.533635 7.635048 22.986474 1.121928 1.232210 0.041613 -0.023887 94474.500000 0 1 0
8.671066 19.072435 8.791148 22.720683 1.144092 1.173504 0.043312 -0.009316 339574.000000 0 1 0
7.468066 20.010035 9.083048 23.209379 1.213591 1.168695 0.049420 -0.012535 845127.000000 0 1 0
6.480466 20.125035 8.039148 22.619491 1.259271 1.207446 0.038428 -0.019005 517715.000000 0 1 0
6.637966 21.389135 7.458548 23.604822 1.269878 1.249312 0.041794 -0.015383 47528.800000 0 1 0
5.507066 21.677835 6.409448 23.266657 1.322018 1.291710 0.037351 -0.008430 281127.000000 0 1 0
4.153366 21.766735 6.769948 23.170529 1.382250 1.274292 0.039086 -0.013590 18052.500000 0 1 0
3.795266 22.863635 7.627848 24.399465 1.406301 1.252843 0.045255 -0.024011 -616824.000000 0 1 0
3.728866 24.204935 6.859548 25.432985 1.417944 1.297704 0.071923 -0.025189 -328192.000000 0 0 1
2.715666 24.226435 5.888348 25.079227 1.459167 1.333794 0.036318 -0.017287 80369.500000 0 0 1
2.858766 25.370835 5.053448 26.026701 1.458590 1.375391 0.056473 -0.022100 561133.000000 0 0 1
1.519366 25.559135 4.257048 25.955738 1.511421 1.406040 0.057493 -0.021677 907588.000000 0 0 1
0.441966 26.092535 5.034348 26.577441 1.553860 1.380223 0.063963 -0.025263 583161.000000 0 0 1
-0.664034 26.422335 4.171748 26.757881 -1.545670 1.414250 0.080082 -0.023077 -99838.700000 0 0 1
-1.801734 26.971035 5.009548 27.491427 -1.504093 1.387550 0.102558 -0.025426 -1277980.000000 0 0 1
-2.894134 27.162135 4.192248 27.635711 -1.464647 1.418512 0.132280 -0.036216 -629464.000000 0 0 1
-3.960134 27.735235 4.945148 28.449612 -1.428971 1.396088 0.138220 -0.042458 89773.700000 0 0 1
-5.011334 28.443535 4.047248 29.163820 -1.396401 1.431571 0.156073 -0.052713 87180.100000 0 0 1
-4.476534 29.569435 3.409048 30.100041 -1.420547 1.457296 0.160862 -0.054718 298834.000000 0 0 1
-5.329334 29.880535 2.312248 30.440018 -1.394297 1.494762 0.174629 -0.067099 -159185.000000 0 0 1
-4.581134 30.489535 1.070948 30.850372 -1.421659 1.536075 0.157765 -0.060450 204413.000000 0 0 1
-3.920334 31.751135 1.107548 32.011408 -1.447947 1.536191 0.162379 -0.060990 271174.000000 0 0 1
-2.730534 31.600435 1.878048 31.773737 -1.484602 1.511655 0.170048 -0.054162 -700875.000000 0 0 1
-1.835434 32.810735 1.654548 32.903658 -1.514915 1.520490 0.171641 -0.059899 -1087360.000000 0 0 1
-1.258834 33.036435 0.397448 33.062799 -1.532710 1.558775 0.133288 -0.053190 -97373.400000 0 0 1
-0.414334 -33.525605 0.248548 33.529086 1.558438 1.563383 0.117927 -0.052201 1271800.000000 0 0 1
1.018566 -33.693305 0.942548 33.721872 -1.540575 1.542842 0.078681 -0.040527 486808.000000 0 0 1
0.968966 -33.566105 2.360348 33.662940 -1.541937 1.500622 0.086329 -0.043647 138380.000000 0 0 1
2.197566 -33.812905 3.023748 34.018890 -1.505896 1.481794 0.049903 -0.031663 107993.000000 0 0 1
2.044266 -33.702405 4.536748 34.067774 -1.510214 1.437231 0.050276 -0.034737 -226543.000000 0 0 1
1.105366 33.132235 5.162448 33.550227 1.537446 1.416310 0.111872 -0.052807 -304460.000000 0 0 1
0.637966 33.607835 6.411748 34.219937 1.551816 1.382314 0.125266 -0.033546 58339.300000 0 0 1
1.544266 33.543835 7.697548 34.450339 1.524792 1.345455 0.090072 -0.024567 10.049200 0 0 1
1.650266 32.231035 8.220548 33.303760 1.519640 1.321383 0.103940 -0.028707 33952.100000 0 0 1
2.546866 32.182735 9.302648 33.596938 1.491823 1.290241 0.111860 -0.027168 -260524.000000 0 0 1
3.062966 30.727135 9.488248 32.304263 1.471442 1.272685 0.107768 -0.025742 208768.000000 0 0 1
2.348666 29.839335 10.351548 31.671070 1.492248 1.237832 0.134541 -0.032917 556038.000000 0 0 1
3.104766 28.637535 10.295748 30.590038 1.462802 1.227522 0.100007 -0.037500 317166.000000 0 0 1
2.566966 27.589235 11.320348 29.931680 1.478021 1.182938 0.094117 -0.037203 -249167.000000 0 0 1
3.050366 27.952035 12.631648 30.824982 1.462098 1.148577 0.103653 -0.037859 175451.000000 0 0 1
2.881966 26.931735 13.624348 30.319085 1.464192 1.104741 0.108997 -0.030217 -40520.300000 0 0 1
1.404766 26.522435 13.950248 30.000372 1.517881 1.087159 0.096890 -0.031153 639745.000000 0 0 1
0.563666 27.486435 14.600048 31.128496 1.550292 1.082610 0.102412 -0.029190 339244.000000 0 0 1
0.101266 28.454035 13.700348 31.580720 1.567237 1.122068 0.126810 -0.032775 -983470.000000 0 0 1
-0.701634 29.549435 14.401848 32.879699 -1.547056 1.117405 0.135377 -0.032562 749465.000000 0 0 1
-1.977534 29.283635 15.008448 32.965064 -1.503368 1.098106 0.111882 -0.030600 595072.000000 0 0 1
-2.566134 30.515235 15.322148 34.242267 -1.486900 1.106870 0.123772 -0.029538 -634798.000000 0 0 1
-3.973734 30.409535 15.881548 34.536270 -1.440859 1.092969 0.102191 -0.019236 -335900.000000 0 0 1
-4.923534 29.789635 15.036948 33.730896 -1.407000 1.108738 0.085433 -0.025656 388769.000000 0 0 1
-6.210334 29.784635 15.649248 34.213911 -1.365234 1.095734 0.079334 -0.021932 489764.000000 0 0 1
-7.249234 28.874935 14.883248 33.283995 -1.324824 1.107209 0.065417 -0.025572 -94345.000000 0 0 1
-8.502134 28.953635 15.481348 33.915651 -1.285179 1.096777 0.063866 -0.023557 -351246.000000 0 0 1
-9.500634 28.137735 14.848748 33.203607 -1.245168 1.107161 0.070854 -0.023451 308211.000000 0 0 1
-10.523134 27.752935 15.918448 33.680243 -1.208373 1.078518 0.065412 -0.023150 -446394.000000 0 0 1
-11.178634 28.837835 16.507148 35.058074 -1.200992 1.080541 0.061386 -0.030809 -193070.000000 0 0 1
-11.551634 28.650435 17.831348 35.668539 -1.187541 1.047292 0.078519 -0.026773 -163658.000000 0 0 1
-12.383034 29.861435 18.318448 37.156566 -1.177696 1.055254 0.083256 -0.029740 -681193.000000 0 0 1
-13.738634 29.780935 17.979148 37.401924 -1.138566 1.069342 0.091289 -0.028674 -446067.000000 0 0 1
-14.428734 30.920935 18.397048 38.765242 -1.134197 1.076314 0.078701 -0.028561 11600.200000 0 0 1
-15.414434 30.603935 19.545248 39.448984 -1.104213 1.052436 0.074945 -0.026315 54328.500000 0 0 1
-14.754834 30.487635 20.774948 39.734110 -1.120062 1.020606 0.074585 -0.022227 369090.000000 0 0 1
-15.752834 30.142735 21.718048 40.353561 -1.089226 1.002503 0.077580 -0.021238 243564.000000 0 0 1
-15.315134 30.141735 23.198248 41.002881 -1.100687 0.969428 0.069491 -0.008635 -332490.000000 0 0 1
-14.228734 29.269035 23.457248 40.117026 -1.118301 0.946261 0.061544 -0.010590 444525.000000 0 0 1
-14.024034 28.973935 24.861648 40.672644 -1.120012 0.913142 0.062994 -0.003832 41936.700000 0 0 1
-13.505734 30.169935 25.759448 41.906789 -1.149894 0.908811 0.055392 0.001554 125234.000000 0 0 1
-14.529134 31.117535 26.057048 43.108775 -1.133968 0.921723 0.062361 0.001257 671687.000000 0 0 1
-13.920434 32.267835 26.596448 44.072244 -1.163515 0.922946 0.062308 0.005364 525371.000000 0 0 1
-14.964834 33.296135 27.229548 45.541488 -1.148403 0.929910 0.080683 -0.002416 399347.000000 0 0 1
-15.753934 32.805935 28.257848 46.075176 -1.123101 0.910566 0.066889 -0.003614 233360.000000 0 0 1
-15.009534 32.626335 29.491148 46.470331 -1.139622 0.883276 0.076682 0.005087 -185344.000000 0 0 1
-15.660534 31.856735 30.670448 46.912475 -1.113897 0.858227 0.075136 0.001559 473156.000000 0 0 1
-16.853234 32.587435 31.073448 48.078390 -1.093507 0.868060 0.070837 -0.007841 619416.000000 0 0 1
-17.375934 31.958935 32.229648 48.600893 -1.072806 0.845778 0.059418 -0.009453 535016.000000 0 0 1
-18.862234 32.396235 32.432348 49.569720 -1.043541 0.857570 0.061554 -0.010863 397545.000000 0 0 1
-19.138334 33.724335 32.818648 50.800298 -1.054622 0.868421 0.073691 -0.013401 236767.000000 0 0 1
-20.518734 -33.703905 32.564648 51.160805 1.023936 0.880824 0.069395 -0.007643 -3682.950000 0 0 1
-20.849734 -32.251305 32.717648 50.450992 0.996902 0.865179 0.072313 -0.013284 -381512.000000 0 0 1
-20.718934 -31.658105 -33.643391 50.629908 0.991293 2.297616 0.082946 -0.014841 306642.000000 0 0 1
-21.660934 -32.074405 -32.653691 50.638198 0.976817 2.271614 0.069245 -0.015484 147295.000000 0 0 1
-21.445234 -31.456005 -31.248891 49.253137 0.972422 2.258099 0.081191 -0.024625 57.824500 0 0 1
-21.503134 -30.083005 -31.420291 48.524289 0.950211 2.275118 0.088929 -0.023246 61076.300000 0 0 1
-21.073734 -29.501405 -30.215591 47.195520 0.950518 2.265583 0.078266 -0.012671 -66640.400000 0 0 1
-21.212734 -27.957305 -30.168891 46.279077 0.921716 2.280871 0.092075 -0.023519 -239770.000000 0 0 1
-22.508534 -27.556405 -29.821191 46.425133 0.885885 2.268357 0.085392 -0.016354 -475933.000000 0 0 1
-22.606334 -26.178805 -30.015391 45.796287 0.858496 2.285523 0.085344 -0.017744 374118.000000 0 0 1
-23.821634 -25.502305 -29.311991 45.574452 0.819459 2.269424 0.086024 -0.014824 314415.000000 0 0 1
-23.936534 -25.714305 -27.892991 44.857576 0.821188 2.241851 0.079133 -0.014283 286749.000000 0 0 1
-23.192134 -24.789105 -27.065991 43.415927 0.818669 2.243895 0.079283 -0.014698 73552.700000 0 0 1
-23.150734 -25.169805 -25.623591 42.732236 0.827159 2.213837 0.077544 -0.013153 435495.000000 0 0 1
-24.357234 -25.023405 -24.866291 42.869314 0.798888 2.189585 0.071695 -0.014195 458915.000000 0 0 1
-24.149734 -25.570605 -23.567991 42.338112 0.813968 2.161158 0.073704 -0.006243 480912.000000 0 0 1
-25.489234 -25.502405 -22.740091 42.628458 0.785656 2.133469 0.072600 -0.001893 320185.000000 0 0 1
-26.533734 -26.288605 -23.168291 43.953379 0.780758 2.125993 0.078583 -0.008527 -606406.000000 0 0 1
-26.410734 -27.661605 -22.839591 44.545911 0.808527 2.109147 0.079243 -0.010735 -406333.000000 0 0 1
-27.827934 -28.282605 -22.695491 45.709791 0.793501 2.090373 0.072218 -0.012026 138291.000000 0 0 1
-28.568634 -27.772305 -21.663691 45.351773 0.771265 2.068810 0.075663 -0.001032 650391.000000 0 0 1
-29.810434 -27.155805 -22.114791 45.990909 0.738832 2.072422 0.075824 -0.006467 1207870.000000 0 0 1
-30.503834 -26.348105 -20.993191 45.446899 0.712431 2.050964 0.085023 -0.000553 25355.000000 0 0 1
-30.830134 -27.054205 -19.856191 45.570775 0.720258 2.021637 0.088483 0.010922 27616.300000 0 0 1
-31.738034 -26.353305 -19.035591 45.432953 0.692968 2.003120 0.080157 0.012531 -533040.000000 0 0 1
-32.385834 -27.253005 -17.979291 45.987210 0.699545 1.972474 0.063112 0.008667 408671.000000 0 0 1
-33.466434 -28.127305 -18.397391 47.430070 0.698931 1.969132 0.058324 0.013140 2064700.000000 0 0 1
-34.768934 -27.545805 -18.671091 48.127537 0.670000 1.969203 0.048966 0.020770 1058930.000000 0 0 1
-35.647234 -26.991305 -17.553891 48.035351 0.648079 1.944898 0.060513 0.020991 -660001.000000 0 0 1
-35.083234 -25.809105 -17.001091 46.754468 0.634256 1.942953 0.054865 0.028209 -229007.000000 0 0 1
-35.617034 -25.306105 -15.835591 46.472982 0.617742 1.918509 0.055049 0.021351 -402237.000000 0 0 1
-35.212534 -25.915605 -14.484091 46.057899 0.634466 1.890701 0.075323 0.028205 39472.400000 0 0 1
-35.701834 -27.246705 -14.269591 47.123509 0.651879 1.878439 0.074876 0.014542 258699.000000 0 0 1
-35.312134 -27.774105 -12.961391 46.758372 0.666474 1.851674 0.074727 0.007689 93115.300000 0 0 1
-35.837034 -29.184605 -12.577391 47.898068 0.683442 1.836498 0.097465 0.004175 -52254.500000 0 0 1
-35.462834 -30.152105 -13.532991 48.475807 0.704636 1.853726 0.089730 0.000954 212020.000000 0 0 1
-35.927634 -31.446205 -13.115891 49.514496 0.718980 1.838886 0.059582 -0.009583 -291715.000000 0 0 1
-35.555734 -32.502005 -14.172391 50.214014 0.740559 1.856924 0.052127 0.001495 -1609730.000000 0 0 1
-34.206734 -32.711405 -14.152191 49.400619 0.763056 1.861345 0.036540 0.003829 -1491850.000000 0 0 1
-33.959434 -33.593405 -15.238991 50.139674 0.779980 1.879612 0.070576 -0.023205 -869216.000000 0 0 1
-32.480734 33.807335 -15.380391 49.340556 -0.805408 1.887798 0.065049 -0.008679 -741313.000000 0 0 1
-32.024234 32.969235 -16.427891 48.809811 -0.799937 1.914068 0.084864 -0.016057 -463311.000000 0 0 1
-30.618434 32.942635 -16.515791 47.911137 -0.821948 1.922734 0.093546 -0.017398 -178289.000000 0 0 1
9.978376 19.255035 -9.339652 23.612570 1.092678 1.977449 0.104626 -0.050217 -1928300.000000 0 1 0
8.606676 19.342335 -9.233752 23.096817 1.152137 1.982078 0.088813 -0.043693 -1048130.000000 0 1 0
8.006876 19.488435 -10.508952 23.544580 1.180969 2.033471 0.091746 -0.042599 100729.000000 0 1 0
7.966176 18.259835 -11.430852 22.968367 1.159421 2.091716 0.088380 -0.036606 -943380.000000 0 1 0
9.251176 17.940835 -11.880352 23.422224 1.094708 2.102759 0.112390 -0.045114 -302055.000000 0 1 0
9.209576 16.921335 -12.858452 23.162203 1.072372 2.159337 0.104105 -0.043336 -419691.000000 0 1 0
10.608176 16.481035 -13.270352 23.669815 0.998891 2.165960 0.127655 -0.044995 -363552.000000 0 1 0
10.435076 15.482335 -14.202952 23.458844 0.977735 2.221117 0.133684 -0.047526 -124868.000000 0 1 0
11.688076 15.076135 -14.675752 24.068208 0.911318 2.226550 0.167215 -0.061563 -546145.000000 0 1 0
11.634776 13.960035 -15.748052 24.046865 0.875998 2.284833 0.152478 -0.047124 -243865.000000 0 1 0
11.582776 12.614035 -15.216652 22.908973 0.827992 2.297249 0.153694 -0.031475 1043630.000000 0 1 0
12.733876 12.157535 -14.457552 22.781090 0.762248 2.258325 0.183077 -0.035720 797851.000000 0 1 0
13.863876 11.549435 -15.316552 23.668402 0.694577 2.274611 0.195639 -0.039095 260634.000000 0 1 0
14.685676 12.449935 -16.065852 25.075517 0.703192 2.266204 0.167390 -0.036104 156039.000000 0 0 1
15.602076 11.754135 -16.856352 25.801571 0.645654 2.282741 0.160250 -0.037055 -181692.000000 0 0 1
16.319376 12.596835 -17.921252 27.316177 0.657367 2.286392 0.117876 -0.031176 1299.840000 0 0 1
17.250976 13.508735 -17.396752 27.977295 0.664333 2.241857 0.086574 -0.023684 -433507.000000 0 0 1
18.027576 14.065635 -18.394352 29.346001 0.662569 2.248248 0.045662 -0.011487 -9619.470000 0 0 1
19.169076 15.015335 -17.888852 30.214645 0.664481 2.204408 0.056525 -0.008641 11179.000000 0 0 1
18.835776 16.266635 -17.297252 30.308164 0.712339 2.178170 0.060953 -0.020295 -92292.400000 0 0 1
18.118876 17.146735 -18.119052 30.831870 0.757839 2.198976 0.059048 -0.011882 -99422.700000 0 0 1
17.900776 18.559335 -17.498752 31.162365 0.803459 2.167036 0.062528 -0.008485 -171063.000000 0 0 1
19.071376 19.326835 -17.461352 32.282236 0.792051 2.142299 0.079645 -0.018341 -263390.000000 0 0 1
18.728176 20.656735 -17.049452 32.682244 0.834326 2.119607 0.066769 -0.012179 -608487.000000 0 0 1
19.661376 21.819235 -17.344852 34.110007 0.837372 2.104235 0.075756 -0.015824 -630289.000000 0 0 1
20.860576 21.715935 -16.613452 34.391165 0.805485 2.074958 0.093544 -0.025735 -523393.000000 0 0 1
20.857776 22.322135 -15.293152 34.164382 0.819298 2.034914 0.089418 -0.019341 1011750.000000 0 0 1
22.261276 22.991135 -14.924552 35.311456 0.801525 2.007169 0.089156 -0.028516 1071330.000000 0 0 1
23.062576 22.170435 -14.139052 34.976040 0.765677 1.986955 0.095273 -0.028030 -300822.000000 0 0 1
24.187876 22.855535 -13.608552 35.953046 0.757084 1.958981 0.076533 -0.027282 -457445.000000 0 0 1
25.520476 22.280835 -14.054752 36.677873 0.717729 1.964048 0.074357 -0.021464 -748217.000000 0 0 1
25.937776 22.655135 -15.299052 37.684006 0.717947 1.988850 0.107198 -0.023714 4975.080000 0 0 1
26.907076 23.694735 -15.269552 38.969096 0.722001 1.973424 0.087376 -0.016077 -50692.600000 0 0 1
27.446876 24.073435 -16.684652 40.140240 0.720014 1.999464 0.107439 -0.024819 -130942.000000 0 0 1
28.275176 23.155835 -17.338052 40.451036 0.686187 2.013759 0.113069 -0.031266 111802.000000 0 0 1
28.003476 23.293535 -18.709652 40.949170 0.693838 2.045303 0.107346 -0.030711 -950450.000000 0 0 1
28.749076 22.298335 -19.654352 41.352372 0.659697 2.066089 0.105709 -0.038084 953347.000000 0 0 1
30.108076 22.717735 -19.849852 42.621688 0.646400 2.055246 0.098116 -0.034185 511765.000000 0 0 1
30.959676 21.730535 -20.398952 42.974817 0.611999 2.065388 0.115694 -0.026548 911959.000000 0 0 1
32.484376 22.045735 -20.224252 44.161855 0.596257 2.046493 0.127239 -0.017626 640614.000000 0 0 1
32.926776 23.061835 -21.095652 45.398759 0.610993 2.054063 0.110349 -0.017570 -1135210.000000 0 0 1
34.298276 23.206035 -21.061552 46.459453 0.594844 2.041296 0.083742 -0.011745 -707249.000000 0 0 1
34.778276 24.567935 -21.712152 47.796751 0.615019 2.042338 0.071162 -0.009238 -70900.600000 0 0 1
34.712276 24.814135 -23.122252 48.531659 0.620624 2.067393 0.086401 -0.014023 -189479.000000 0 0 1
33.435476 24.779535 -23.708252 47.896113 0.637790 2.088623 0.102435 -0.022439 -464196.000000 0 0 1
33.420776 25.150135 -25.238482 48.851392 0.645118 2.113716 0.100463 -0.033386 -393096.000000 0 0 1
33.024776 26.458035 -25.411592 49.360029 0.675446 2.111595 0.108473 -0.030146 1282560.000000 0 0 1
31.615176 26.693535 -25.715122 48.716852 0.701191 2.126862 0.089142 -0.022479 1514260.000000 0 0 1
31.148376 26.313035 -27.170202 48.998133 0.701447 2.158576 0.097580 -0.024037 -425409.000000 0 0 1
31.023276 24.988235 -27.487252 48.398394 0.678066 2.174794 0.093523 -0.039624 31528.100000 0 0 1
30.675776 24.872635 -28.860782 48.914169 0.681306 2.201891 0.100960 -0.042888 -288184.000000 0 0 1
30.019276 23.541435 -29.280002 48.090275 0.665039 2.225413 0.103440 -0.054649 -292933.000000 0 0 1
28.733776 23.497835 -28.725322 46.935298 0.685487 2.229408 0.108788 -0.044777 -387358.000000 0 0 1
28.011576 22.342735 -29.184042 46.212060 0.673291 2.254314 0.124650 -0.060482 306579.000000 0 0 1
26.518876 22.500635 -28.787592 45.147035 0.703609 2.262228 0.110669 -0.045316 -215.942000 0 0 1
26.233676 22.512635 -27.413432 44.119392 0.709211 2.241256 0.120075 -0.025335 395964.000000 0 0 1
24.869476 22.759535 -27.108782 43.259373 0.741128 2.248052 0.102337 -0.022260 143748.000000 0 0 1
24.659076 22.905535 -25.595332 42.283029 0.748548 2.220981 0.111932 -0.022834 -293271.000000 0 0 1
24.840376 21.756835 -24.783652 41.287208 0.719320 2.214640 0.114808 -0.028629 189153.000000 0 0 1
25.027576 22.224835 -23.472252 40.881162 0.726153 2.182372 0.128274 -0.027249 -68133.500000 0 0 1
25.721076 21.139335 -22.537252 40.204141 0.687934 2.165871 0.122532 -0.029360 889783.000000 0 0 1
27.031476 20.882935 -23.078652 41.224044 0.657772 2.164983 0.125234 -0.030729 624791.000000 0 0 1
27.739076 19.945135 -22.328152 40.814349 0.623382 2.149652 0.147740 -0.036873 82712.500000 0 0 1
29.020076 19.386735 -22.979152 41.785784 0.588957 2.153074 0.169209 -0.040306 556503.000000 0 0 1
29.944176 18.841435 -22.022152 41.672875 0.561627 2.127574 0.152975 -0.032040 490530.000000 0 0 1
31.110576 18.323535 -22.657852 42.626261 0.532278 2.131222 0.134093 -0.020738 523897.000000 0 0 1
32.183776 17.701635 -21.727152 42.675666 0.502857 2.104962 0.095744 -0.008571 -179022.000000 0 0 1
32.982476 18.697635 -21.231952 43.453896 0.515723 2.081291 0.088503 -0.009376 66695.700000 0 0 1
34.195376 18.194535 -20.644452 43.892576 0.488978 2.060473 0.086280 -0.011914 936407.000000 0 0 1
34.959676 19.266535 -19.836352 44.574198 0.503693 2.031991 0.053744 -0.021218 251909.000000 0 0 1
34.383676 19.354935 -18.535252 43.593649 0.512701 2.009960 0.080582 -0.029179 279287.000000 0 0 1
35.031476 20.359035 -17.783852 44.248842 0.526454 1.984393 0.062329 -0.026989 -126249.000000 0 0 1
34.530576 20.460635 -16.314852 43.326350 0.534914 1.956874 0.069493 -0.031641 -161404.000000 0 0 1
34.668976 19.217135 -15.601052 42.598462 0.506141 1.945756 0.070535 -0.036119 188239.000000 0 0 1
34.425376 19.535235 -14.266752 42.074602 0.516154 1.916738 0.082974 -0.038168 -259766.000000 0 0 1
34.860276 18.341035 -13.339052 41.588011 0.484332 1.897310 0.077553 -0.032806 417009.000000 0 0 1
36.289376 18.298335 -13.319752 42.768723 0.467029 1.887501 0.043950 -0.025870 366033.000000 0 0 1
36.766576 17.429935 -12.292152 42.505067 0.442689 1.864180 0.026338 -0.015822 -15303.900000 0 0 1
36.618676 17.753235 -10.738352 42.088205 0.451425 1.828788 0.051032 -0.020457 -532391.000000 0 0 1
37.262376 18.964535 -10.356352 43.074264 0.470779 1.813605 0.034595 -0.009260 47803.900000 0 0 1
36.806476 19.481035 -9.108652 42.628569 0.486799 1.786131 0.035138 -0.004079 -199341.000000 0 0 1
35.576376 20.413835 -9.240352 42.045062 0.520934 1.792378 0.041071 -0.003643 285314.000000 0 0 1
34.440176 19.696435 -9.717252 40.847279 0.519504 1.810992 0.067284 -0.028452 17479.500000 0 0 1
33.272976 20.521135 -9.612152 40.256693 0.552645 1.811897 0.046777 -0.009567 234087.000000 0 0 1
31.991076 19.713435 -9.851452 38.847131 0.552258 1.827192 0.039992 -0.012572 -217138.000000 0 0 1
31.620276 19.567735 -11.214152 38.839352 0.554154 1.863698 0.063036 -0.029957 33626.200000 0 0 1
30.409676 18.825635 -11.265052 37.497391 0.554322 1.875932 0.057558 -0.030629 327344.000000 0 0 1
30.130576 18.226835 -12.682752 37.428883 0.544035 1.916490 0.082630 -0.024835 95518.600000 0 0 1
31.222776 17.360235 -13.027452 38.025702 0.507447 1.920475 0.093413 -0.024816 395670.000000 0 0 1
31.056676 16.568535 -14.204952 37.958057 0.490082 1.954360 0.091433 -0.023648 -223963.000000 0 0 1
32.374376 16.005835 -14.771152 39.018891 0.459156 1.959041 0.100868 -0.031124 -258926.000000 0 0 1
32.943276 15.112635 -13.889752 38.814641 0.430104 1.936759 0.090190 -0.032284 81355.400000 0 0 1
34.096176 14.506635 -14.465552 39.777429 0.402262 1.942993 0.087067 -0.032191 449292.000000 0 0 1
34.956676 13.507935 -13.646852 39.883205 0.368744 1.920022 0.076931 -0.043661 150079.000000 0 0 1
35.601676 14.153335 -12.581952 40.324952 0.378390 1.888109 0.053855 -0.027990 14008.300000 0 0 1
36.377876 13.287635 -11.773352 40.478672 0.350210 1.865915 0.046302 -0.019609 206859.000000 0 0 1
37.568876 13.927735 -11.039852 41.560565 0.355018 1.839657 0.073841 -0.014384 1101860.000000 0 0 1
-36.803814 14.300035 -11.780252 41.204200 -0.370595 1.860741 0.056760 -0.022912 1188070.000000 0 0 1
-35.863814 14.748435 -10.805152 40.255196 -0.390154 1.842545 0.041283 -0.009980 931247.000000 0 0 1
-34.327214 14.818935 -11.221152 39.036812 -0.407529 1.862360 0.085879 -0.027710 1203700.000000 0 0 1
-33.654814 13.617935 -11.525552 38.091115 -0.384496 1.878193 0.106636 -0.030097 -169943.000000 0 0 1
-33.728814 12.575535 -10.555752 37.512676 -0.356878 1.856040 0.117650 -0.022075 -495698.000000 0 0 1
-32.686414 11.453035 -10.890452 36.306688 -0.337023 1.875444 0.161379 -0.029677 292405.000000 0 0 1
-32.859114 10.780835 -12.100152 36.638251 -0.317027 1.907375 0.142396 -0.021231 -78266.100000 0 0 1
-32.074614 9.611935 -12.092952 35.600697 -0.291158 1.917376 0.196683 -0.040877 -234342.000000 0 0 1
-32.082914 8.848935 -13.444552 35.893913 -0.269123 1.954722 0.193353 -0.045250 78880.900000 0 0 1
-33.311114 8.213535 -13.763352 36.966503 -0.241748 1.952303 0.152195 -0.043732 169218.000000 0 0 1
-33.180814 7.449035 -14.971252 37.156331 -0.220837 1.985508 0.166773 -0.049358 -641373.000000 0 0 1
-34.419514 7.042535 -15.759252 38.505250 -0.201823 1.992456 0.169537 -0.047322 -704515.000000 0 0 1
-35.222014 6.190335 -14.994652 38.778217 -0.173975 1.967822 0.167775 -0.052506 -267566.000000 0 0 1
-36.194214 5.501335 -15.713952 39.839856 -0.150840 1.976242 0.112860 -0.053202 -254176.000000 0 0 1
-37.309214 4.888235 -14.838652 40.448213 -0.130277 1.946423 0.107624 -0.046477 208849.000000 0 0 1
37.321076 4.070335 -15.527452 40.626741 0.108633 1.962970 0.116674 -0.039499 339509.000000 0 0 1
36.320276 3.606935 -14.642052 39.326354 0.098985 1.952306 0.132142 -0.032016 -421908.000000 0 0 1
35.483276 2.475735 -15.128852 38.653257 0.069659 1.972948 0.136566 -0.022994 -799654.000000 0 0 1
36.211276 1.309035 -15.443252 39.388629 0.036134 1.973681 0.150326 -0.032877 79749.200000 0 0 1
35.629676 0.014435 -15.081752 38.690222 0.000405 1.971219 0.139412 -0.036709 177752.000000 0 0 1
35.214376 -0.189765 -13.599552 37.749650 -0.005389 1.939339 0.141711 -0.049272 -393528.000000 0 0 1
36.306676 -0.306265 -12.731552 38.475459 -0.008435 1.908054 0.176988 -0.047974 -159546.000000 0 0 1
36.054376 -0.195065 -11.339552 37.796051 -0.005410 1.875509 0.164546 -0.043448 -431133.000000 0 0 1
36.192076 1.194335 -10.696652 37.758590 0.032988 1.858020 0.147272 -0.039529 -531654.000000 0 0 1
35.256476 2.058835 -11.247052 37.064188 0.058330 1.879105 0.133711 -0.025548 -10352.900000 0 0 1
35.061876 3.296635 -10.530752 36.757308 0.093748 1.861362 0.132623 -0.024948 -457036.000000 0 0 1
33.874276 4.064635 -11.106952 35.879691 0.119421 1.885528 0.131389 -0.022668 -313442.000000 0 0 1
34.114676 4.658935 -12.400952 36.596453 0.135727 1.916498 0.117032 -0.021904 -198590.000000 0 0 1
33.046476 5.467035 -12.744752 35.838342 0.163950 1.934371 0.114172 -0.020935 -597401.000000 0 0 1
33.253676 6.047735 -14.182252 36.654035 0.179900 1.968088 0.079059 -0.017346 -199616.000000 0 0 1
33.134976 5.142235 -15.329452 36.869517 0.153962 1.999592 0.073872 -0.012486 146001.000000 0 0 1
33.334276 5.704435 -16.622952 37.683379 0.169486 2.027644 0.064947 -0.012671 123109.000000 0 0 1
32.306776 6.849835 -17.131452 37.203960 0.208931 2.049325 0.084628 -0.017009 1193330.000000 0 0 1
31.118576 6.479535 -17.805652 36.433383 0.205288 2.081416 0.062841 -0.013623 619357.000000 0 0 1
30.127276 5.731435 -17.125452 35.125250 0.187994 2.080082 0.066015 -0.007168 117563.000000 0 0 1
28.675676 5.881435 -17.670752 34.192706 0.202296 2.113904 0.068753 -0.013129 311701.000000 0 0 1
28.557376 5.131935 -18.864552 34.608262 0.177808 2.147291 0.072215 -0.014155 951479.000000 0 0 1
27.322176 5.387135 -19.568652 34.036079 0.194674 2.183325 0.073902 -0.015853 613912.000000 0 0 1
26.847876 4.224835 -20.450052 34.012678 0.156082 2.215858 0.064008 -0.000746 -199642.000000 0 0 1
26.086576 3.334435 -19.678552 32.846207 0.127132 2.213188 0.069756 -0.008988 -15578.100000 0 0 1
25.594276 2.236535 -20.388452 32.798750 0.087163 2.241609 0.072496 -0.012913 -708889.000000 0 0 1
24.635276 1.406735 -19.589752 31.506096 0.057041 2.241805 0.076540 -0.012759 75590.100000 0 0 1
23.384176 2.080135 -19.393552 30.450887 0.088721 2.261241 0.087173 -0.026967 -131360.000000 0 0 1
22.505076 1.312835 -18.675752 29.274318 0.058269 2.262638 0.104214 -0.036883 -589091.000000 0 0 1
21.097176 1.927335 -18.526052 28.142851 0.091102 2.289336 0.125790 -0.048121 -927687.000000 0 0 1
20.426376 1.889835 -19.794152 28.506433 0.092257 2.338347 0.120578 -0.039514 173014.000000 0 0 1
19.278676 2.710035 -19.807152 27.772917 0.139657 2.364824 0.124463 -0.036223 477913.000000 0 0 1
18.010976 2.214335 -19.033952 26.298096 0.122330 2.380056 0.174610 -0.040768 -435526.000000 0 0 1
18.067376 2.384335 -17.622852 25.351135 0.131211 2.339425 0.173867 -0.046294 -54566.100000 0 0 1
16.933176 1.878135 -16.943652 24.028050 0.110463 2.353447 0.150503 -0.039143 -15922.200000 0 1 0
15.942676 2.943435 -16.469652 23.110217 0.182570 2.364074 0.148898 -0.028273 -368662.000000 0 1 0
15.308576 3.563635 -17.554552 23.562985 0.228714 2.411339 0.142751 -0.022682 561404.000000 0 1 0
14.219276 4.377935 -17.100052 22.666404 0.298677 2.425571 0.143664 -0.032337 353729.000000 0 1 0
-20.610324 -21.820065 -16.965152 34.477777 0.813902 2.085251 0.104947 -0.027628 66879.500000 0 0 1
-20.428124 -22.499765 -18.223252 35.434935 0.833619 2.110957 0.101312 -0.026508 290850.000000 0 0 1
-21.502524 -22.293265 -19.124452 36.401825 0.803451 2.123947 0.103425 -0.011629 155828.000000 0 0 1
-21.215924 -23.069565 -20.437952 37.416977 0.827230 2.148643 0.076046 -0.005897 55840.800000 0 0 1
-21.398124 -24.447765 -20.226652 38.271274 0.851820 2.127638 0.069709 -0.009607 173698.000000 0 0 1
-20.827124 -25.237825 -21.253152 39.018116 0.880857 2.146827 0.057224 -0.014581 63580.100000 0 0 1
-20.782924 -26.711415 -20.846952 39.749529 0.909581 2.122875 0.054845 0.006161 -563817.000000 0 0 1
-21.990224 -27.325065 -21.134052 40.949692 0.893157 2.113085 0.069172 0.019500 -692370.000000 0 0 1
-21.869324 -28.697445 -21.200552 41.848227 0.919618 2.102040 0.095670 -0.016437 382364.000000 0 0 1
-23.165524 -29.474125 -21.632152 43.281815 0.904674 2.094162 0.097308 -0.019601 280465.000000 0 0 1
-23.590424 -29.171645 -22.932152 43.970178 0.890787 2.119450 0.074175 -0.020213 -146161.000000 0 0 1
-22.833224 -29.712725 -23.981752 44.489623 0.915581 2.140095 0.071145 -0.024053 -992165.000000 0 0 1
-23.367224 -29.046635 -25.277002 45.040659 0.893334 2.166636 0.065472 -0.014688 -488016.000000 0 0 1
-24.613824 -29.550315 -25.630892 46.216924 0.876287 2.158652 0.069236 -0.012575 -145889.000000 0 0 1
-25.221054 -28.736935 -26.690502 46.629346 0.850466 2.180223 0.061169 -0.010501 166032.000000 0 0 1
-24.809924 -28.931265 -28.177492 47.397484 0.861937 2.207432 0.065519 -0.024855 -184043.000000 0 0 1
-25.374844 -30.174585 -28.567142 48.687472 0.871589 2.197830 0.053747 -0.014253 488878.000000 0 0 1
-24.971164 -30.353495 -29.892372 49.380640 0.882379 2.220997 0.090220 -0.017327 3822.370000 0 0 1
-25.458464 -31.700145 -30.444902 50.792959 0.894167 2.213538 0.059961 -0.017059 124504.000000 0 0 1
-24.611624 -32.800855 -30.197602 50.926646 0.927081 2.205530 0.059588 -0.026149 -41749.300000 0 0 1
-25.372584 33.745125 -30.509962 52.089915 -0.926087 2.196561 0.056397 -0.024123 -217903.000000 0 0 1
-24.591124 32.438377 -30.586182 50.916463 -0.922139 2.215189 0.068674 -0.021610 -227216.000000 0 0 1
-23.905724 32.299917 -31.806752 51.248783 -0.933650 2.240348 0.085524 -0.032642 -27402.800000 0 0 1
-23.101024 31.131085 -31.744202 50.104851 -0.932398 2.256936 0.092389 -0.028879 128002.000000 0 0 1
-21.722824 31.233205 -32.440072 49.997524 -0.963094 2.276847 0.094735 -0.023327 54390.200000 0 0 1
-21.822724 31.040645 33.734327 50.771624 -0.958035 0.844062 0.082944 -0.013916 178144.000000 0 0 1
-21.714424 29.732225 33.262795 49.617890 -0.940001 0.836077 0.072218 -0.007052 -222676.000000 0 0 1
-22.055124 29.618975 31.788285 48.725838 -0.930742 0.860062 0.071711 -0.006245 -158807.000000 0 0 1
-21.174524 30.330905 30.927197 48.216344 -0.961335 0.874441 0.064801 -0.003747 411520.000000 0 0 1
-21.480824 30.267245 29.549377 47.441518 -0.953586 0.898404 0.066994 0.000598 -420791.000000 0 0 1
-20.942824 31.559415 28.891807 47.637539 -0.984920 0.919155 0.055077 -0.013984 -157973.000000 0 0 1
-21.809524 32.663610 28.960457 48.798308 -0.982078 0.935430 0.039980 -0.008780 266172.000000 0 0 1
-21.163224 -33.758815 28.552227 49.018051 1.010836 0.949015 0.051969 -0.020333 195958.000000 0 0 1
-22.080224 -32.491945 28.616067 48.601873 0.973921 0.941241 0.063705 -0.023785 114190.000000 0 0 1
-22.355224 -32.107265 29.949217 49.270561 0.962580 0.917443 0.055518 -0.016533 -55942.700000 0 0 1
-23.406824 -31.178375 30.084417 49.244722 0.926822 0.913579 0.068296 -0.018454 -197666.000000 0 0 1
-23.110524 -29.686925 29.793597 47.990294 0.909319 0.901001 0.075912 -0.021892 -588596.000000 0 0 1
-22.820424 -29.440885 28.406117 46.844903 0.911407 0.919288 0.077529 -0.012704 -26078.800000 0 0 1
-23.113324 -28.134255 27.980517 45.920272 0.883060 0.915583 0.070955 -0.023576 834709.000000 0 0 1
-24.614224 -27.946225 27.522147 46.306804 0.848707 0.934347 0.067297 -0.017748 -289406.000000 0 0 1
-25.473254 -28.080955 28.611387 47.497770 0.834052 0.924325 0.079548 -0.011882 -592723.000000 0 0 1
-26.508974 -29.011295 28.506897 48.549193 0.830438 0.943231 0.069741 -0.010046 1140080.000000 0 0 1
-27.674074 -28.701695 27.426657 48.392801 0.803624 0.968240 0.051511 -0.006731 479207.000000 0 0 1
-27.120964 -28.960785 26.149097 47.518934 0.818192 0.988087 0.056675 -0.011165 405902.000000 0 0 1
-28.108634 -29.284395 25.186677 47.770700 0.805881 1.015446 0.057100 -0.008259 241968.000000 0 0 1
-27.398294 -29.593815 23.826567 46.841923 0.823902 1.037170 0.044226 -0.010017 425660.000000 0 0 1
-26.661094 -28.449745 23.303237 45.422933 0.817842 1.032088 0.031309 -0.007992 820086.000000 0 0 1
-26.128954 -28.555285 21.969787 44.506158 0.829739 1.054532 0.052542 -0.012426 507936.000000 0 0 1
-24.914024 -29.479885 21.645087 44.252480 0.869143 1.059708 0.054711 -0.013909 -182611.000000 0 0 1
-25.315794 -30.825065 21.542387 45.333746 0.883218 1.075610 0.048599 -0.021579 -682194.000000 0 0 1
-24.289624 -31.643705 21.217687 45.182963 0.916128 1.081964 0.056208 -0.015463 -808175.000000 0 0 1
-23.523624 -32.294055 22.432487 45.820120 0.941250 1.059191 0.046971 -0.013604 27477.300000 0 0 1
-22.655724 -31.414645 23.090347 45.092415 0.945994 1.033207 0.077845 -0.019684 -47344.000000 0 0 1
-21.623224 -32.114055 23.750737 45.419972 0.978198 1.020530 0.085022 -0.022253 -270448.000000 0 0 1
-20.937124 -31.320735 24.854847 45.134411 0.981543 0.987612 0.092269 -0.023342 -346489.000000 0 0 1
-19.773324 -30.653225 24.365357 43.866561 0.997898 0.981901 0.100088 -0.019357 514654.000000 0 0 1
-19.130424 -29.812725 25.328527 43.546596 1.000288 0.950051 0.108806 -0.019451 344771.000000 0 0 1
-18.175324 -30.553325 26.358707 44.256407 1.034156 0.932795 0.101345 -0.017219 93848.900000 0 0 1
-18.829224 -31.474495 27.248057 45.690701 1.031674 0.931839 0.092979 -0.014482 -146720.000000 0 0 1
-17.928524 -31.962285 28.166147 46.220683 1.059602 0.915513 0.093085 -0.011301 -686003.000000 0 0 1
-18.032124 -31.440565 29.613917 46.804388 1.050067 0.885740 0.102978 -0.013809 -68260.900000 0 0 1
-17.817324 -30.030645 29.673927 45.823996 1.035314 0.866414 0.112726 -0.012353 151384.000000 0 0 1
-18.050624 -29.532805 30.939837 46.425049 1.022178 0.841363 0.110615 -0.010190 -325564.000000 0 0 1
-17.777424 -28.033215 31.054427 45.456302 1.005640 0.818700 0.111032 -0.014954 -43630.400000 0 0 1
-18.734024 -27.099445 30.581967 44.951088 0.965929 0.822572 0.120224 -0.016387 -68384.600000 0 0 1
-18.933724 -26.944735 29.150797 43.980378 0.958269 0.846226 0.114534 -0.016926 18801.500000 0 0 1
-17.765024 -26.664935 28.141127 42.644318 0.983095 0.850106 0.106393 -0.012109 82669.200000 0 0 1
-17.352324 -25.347225 28.143627 41.661118 0.970491 0.829104 0.099010 -0.009885 452540.000000 0 0 1
-16.277124 -25.217405 27.199757 40.505420 0.997611 0.834553 0.082100 -0.006859 479818.000000 0 0 1
-16.183724 -23.780865 26.560037 39.151987 0.973254 0.825237 0.092091 -0.006293 -13243.600000 0 0 1
-17.271324 -23.630265 25.663977 38.927212 0.939633 0.850934 0.107595 -0.016475 307072.000000 0 0 1
-17.087124 -22.535265 24.801647 37.615551 0.922043 0.850848 0.107670 -0.026328 32432.700000 0 0 1
-17.698024 -21.203965 25.341467 37.483572 0.875278 0.828382 0.100425 -0.023949 -434922.000000 0 0 1
-17.463024 -20.153365 24.439577 36.171927 0.856797 0.828950 0.101277 -0.026648 250915.000000 0 0 1
-18.080824 -18.927665 24.807597 36.063688 0.808277 0.812228 0.099982 -0.018208 -4383.520000 0 0 1
-17.530724 -17.785765 23.903697 34.569444 0.792620 0.807276 0.094955 -0.027196 6948.890000 0 0 1
-16.147924 -17.584965 24.050867 33.888504 0.827973 0.781716 0.093319 -0.030298 -133877.000000 0 0 1
-15.649424 -16.369865 23.426877 32.583670 0.807895 0.768468 0.093340 -0.023506 4550.770000 0 0 1
-14.149424 -16.097965 23.601567 31.880788 0.849729 0.737270 0.089270 -0.029832 -705827.000000 0 0 1
-13.358824 -17.009565 22.905027 31.502758 0.905039 0.756737 0.074607 -0.033813 -662831.000000 0 0 1
-12.023824 -16.594065 22.962257 30.776624 0.943760 0.728620 0.076169 -0.032851 -632871.000000 0 0 1
-11.383724 -15.805665 21.784687 29.222950 0.946621 0.729564 0.101116 -0.033178 -239039.000000 0 0 1
-11.059524 -16.565565 20.668687 28.704105 0.982133 0.766907 0.126134 -0.038431 402266.000000 0 0 1
-9.779424 -17.192765 20.793387 28.698315 1.053626 0.760414 0.114719 -0.041767 -49576.200000 0 0 1
-9.533124 -18.372665 19.801987 28.645313 1.092163 0.807535 0.113485 -0.035562 59343.800000 0 0 1
-9.365124 -17.933965 18.454587 27.384383 1.089547 0.831309 0.109136 -0.033980 -191269.000000 0 0 1
-8.995624 -19.022865 17.602087 27.433996 1.129075 0.874193 0.098687 -0.032723 26035.000000 0 0 1
-8.536624 -18.662965 16.170087 26.127609 1.141797 0.903469 0.088953 -0.030675 235146.000000 0 0 1
-7.202924 -18.202265 16.223787 25.424709 1.193989 0.878754 0.094057 -0.032265 -50109.000000 0 0 1
-6.778224 -17.613765 14.936287 24.068272 1.203440 0.901314 0.096183 -0.039515 686954.000000 0 1 0
-5.646724 -16.547265 14.948187 23.003169 1.241939 0.863433 0.086264 -0.034639 487110.000000 0 1 0
-6.127624 -15.422265 15.617687 22.788291 1.192600 0.815728 0.101459 -0.037956 196547.000000 0 1 0
-5.055124 -14.526465 15.783487 22.038397 1.235910 0.772481 0.068202 -0.020481 -597878.000000 0 1 0
-5.365324 -13.507265 16.917587 22.303311 1.192691 0.709752 0.055272 -0.008329 -40269.200000 0 1 0
-5.124024 -13.895365 18.293187 23.536727 1.217509 0.680563 0.074689 -0.008205 64848.900000 0 1 0
-5.910624 -14.964565 18.835487 24.771945 1.194630 0.706936 0.110502 -0.026655 31990.000000 0 1 0
-7.315424 -14.608665 19.347587 25.323066 1.106541 0.701259 0.154190 -0.034068 -277074.000000 0 0 1
-7.286824 -13.589865 20.369387 25.547880 1.078613 0.647984 0.141428 -0.037577 -275024.000000 0 0 1
-8.518124 -13.025865 20.770187 25.954427 0.991657 0.643074 0.143635 -0.031501 -12015.500000 0 0 1
-8.384124 -11.904165 21.865087 26.269464 0.957189 0.587483 0.142355 -0.024448 -377997.000000 0 0 1
-7.710624 -10.755965 21.452887 25.206564 0.948838 0.552751 0.109935 -0.019738 57284.900000 0 0 1
-7.407824 -9.917365 22.551337 25.725334 0.929247 0.502004 0.104622 -0.022010 799309.000000 0 0 1
-5.936924 -10.095365 23.083777 25.884826 1.039185 0.469515 0.109038 -0.020990 651229.000000 0 0 1
-5.838724 -11.261565 23.842487 27.006994 1.092486 0.488950 0.127682 -0.013370 333221.000000 0 0 1
-4.455324 -11.491165 24.075167 27.046450 1.200923 0.473141 0.107649 -0.007821 244506.000000 0 0 1
-4.271224 -12.636865 25.073127 28.400624 1.244854 0.488927 0.122929 -0.014773 1460590.000000 0 0 1
-2.867024 -12.977265 25.322497 28.598219 1.353362 0.483320 0.113054 -0.014236 1729430.000000 0 0 1
-2.703324 -14.164365 26.080327 29.801354 1.382210 0.505073 0.120054 -0.010174 -59926.600000 0 0 1
-2.723524 -15.474965 25.237517 29.729184 1.396585 0.556869 0.132581 -0.041214 -303214.000000 0 0 1
-1.484524 -15.940165 24.750527 29.476792 1.477933 0.574137 0.147299 -0.043322 -260440.000000 0 0 1
-1.547724 -17.200565 24.142017 29.683192 1.481057 0.620956 0.156483 -0.041590 53974.800000 0 0 1
-0.186424 -17.991165 24.149297 30.114869 1.560435 0.640318 0.154058 -0.051372 823295.000000 0 0 1
0.287476 -18.278565 25.442137 31.328756 -1.555070 0.623051 0.141023 -0.046302 19686.800000 0 0 1
0.880076 -17.178665 26.167257 31.314636 -1.519610 0.581529 0.152244 -0.046221 -358961.000000 0 0 1
1.644776 -17.650765 27.444737 32.672135 -1.477880 0.573505 0.116386 -0.025905 597886.000000 0 0 1
2.839576 -18.447365 27.238027 33.019367 -1.418067 0.600752 0.113369 -0.035808 1679350.000000 0 0 1
3.812176 -18.484165 28.334547 34.044730 -1.367408 0.587599 0.111340 -0.035208 1307790.000000 0 0 1
4.598276 -17.169965 28.591777 33.666624 -1.309127 0.556211 0.145459 -0.037099 -450870.000000 0 0 1
3.786176 -16.140865 29.134897 33.521708 -1.340391 0.517345 0.143418 -0.041340 -392429.000000 0 0 1
4.518976 -15.089165 29.625947 33.552955 -1.279812 0.488664 0.173805 -0.053994 -456332.000000 0 0 1
3.648276 -14.106465 30.397927 33.709587 -1.317717 0.446974 0.168269 -0.054846 2163.010000 0 0 1
3.163076 -14.482465 31.660107 34.958679 -1.355766 0.437901 0.166096 -0.059493 -497036.000000 0 0 1
2.315376 -13.490165 32.145619 34.938322 -1.400818 0.402543 0.155692 -0.056181 -92318.400000 0 0 1
1.401776 -14.085865 33.260550 36.147486 -1.471606 0.402372 0.149063 -0.055982 -211442.000000 0 0 1
2.098376 -14.441465 -33.219312 36.283354 -1.426504 2.727676 0.161466 -0.059729 -420035.000000 0 0 1
1.271876 -15.088665 -32.253662 35.631225 -1.486702 2.702665 0.149626 -0.068498 288228.000000 0 0 1
2.022976 -15.339565 -30.900782 34.557966 -1.439673 2.677376 0.134750 -0.044948 8364.210000 0 0 1
1.392476 -16.090065 -29.890932 33.974946 -1.484469 2.646224 0.122294 -0.042055 -497735.000000 0 0 1
2.109476 -16.066265 -28.675232 32.936965 -1.440245 2.627236 0.107297 -0.037769 50279.700000 0 0 1
1.777776 -17.302565 -27.817902 32.808153 -1.468409 2.582800 0.121259 -0.038330 62838.800000 0 0 1
2.510676 -18.413765 -28.307152 33.862443 -1.435284 2.560649 0.112058 -0.028663 154740.000000 0 0 1
2.411276 -19.542165 -27.443092 33.776231 -1.448028 2.519219 0.098872 -0.040361 -922465.000000 0 0 1
3.267976 -20.776165 -27.777182 34.841075 -1.414780 2.493529 0.079952 -0.037438 38129.000000 0 0 1
4.655676 -20.690465 -27.497182 34.725577 -1.349467 2.484616 0.089837 -0.031138 319935.000000 0 0 1
4.998276 -20.619965 -26.078522 33.619266 -1.332983 2.458623 0.102644 -0.036272 -1902910.000000 0 0 1
6.365076 -21.136265 -25.707582 33.884150 -1.278290 2.432097 0.074431 -0.029351 -817571.000000 0 0 1
6.449376 -22.556365 -25.630412 34.746252 -1.292304 2.400373 0.081808 -0.022227 317204.000000 0 0 1
6.744876 -23.191165 -26.895742 36.148367 -1.287766 2.409889 0.074557 -0.015887 10637.200000 0 0 1
5.851876 -24.470665 -27.079612 36.964351 -1.336066 2.392912 0.066841 -0.012088 128413.000000 0 0 1
6.167476 -25.527725 -26.274852 37.149298 -1.333740 2.356436 0.083645 -0.016264 3959.680000 0 0 1
5.429676 -26.678465 -26.634872 38.087246 -1.370016 2.345231 0.104388 -0.021356 -101434.000000 0 0 1
5.795776 -27.789355 -25.709912 38.299332 -1.365183 2.306743 0.132106 -0.027798 373478.000000 0 0 1
7.092876 -28.334925 -25.935382 39.061757 -1.325514 2.296896 0.154135 -0.032993 310407.000000 0 0 1
7.397676 -29.458495 -25.176372 39.450960 -1.324762 2.262914 0.167472 -0.042476 -868952.000000 0 0 1
8.873476 -29.811565 -25.249352 40.062423 -1.281495 2.252672 0.162275 -0.046113 -323627.000000 0 0 1
9.393376 -30.166895 -26.576932 41.286927 -1.268932 2.270137 0.167553 -0.041418 702948.000000 0 0 1
10.805376 -30.035235 -26.710602 41.621241 -1.225456 2.267580 0.198072 -0.050043 535610.000000 0 0 1
11.239276 -29.875705 -28.162962 42.567963 -1.210973 2.293747 0.181887 -0.048013 -19279.100000 0 0 1
11.056576 -30.985895 -28.985612 43.846770 -1.228053 2.293035 0.191271 -0.063044 12478.200000 0 0 1
11.410176 -30.691985 -30.288952 44.605052 -1.214866 2.317261 0.175313 -0.051243 -76516.300000 0 0 1
-36.261844 -5.181465 -4.460852 36.900788 0.141930 1.691980 0.244754 -0.040631 -223372.000000 0 0 1
-35.408661 -4.287765 -3.813152 35.870578 0.120507 1.677301 0.246998 -0.063765 655362.000000 0 0 1
-34.476804 -3.531665 -4.618852 34.963645 0.102080 1.703288 0.239884 -0.060661 478913.000000 0 0 1
-35.115294 -2.296265 -5.319652 35.590103 0.065299 1.720829 0.241831 -0.043190 -457001.000000 0 0 1
-35.745445 -1.468465 -4.402052 36.045406 0.041058 1.693227 0.188900 -0.033960 -132569.000000 0 0 1
-36.544994 -0.547465 -5.085452 36.901194 0.014979 1.709049 0.164315 -0.034704 -259337.000000 0 0 1
-37.699884 0.040135 -4.260552 37.939889 -0.001065 1.683331 0.170793 -0.031059 -241195.000000 0 0 1
-37.192794 0.752035 -3.156052 37.334035 -0.020217 1.655433 0.151186 -0.023229 103824.000000 0 0 1
37.438366 1.466135 -2.337552 37.539911 0.039141 1.633105 0.161669 -0.022471 -380985.000000 0 0 1
-37.450384 2.461335 -1.344652 37.555260 -0.065628 1.606609 0.149433 -0.025279 238959.000000 0 0 1
-36.883064 3.656635 -1.867052 37.110878 -0.098818 1.621128 0.166989 -0.043175 582905.000000 0 0 1
-35.769081 3.466035 -2.740952 36.040996 -0.096599 1.646921 0.119117 -0.013002 -468345.000000 0 0 1
-34.977856 4.761835 -2.974552 35.425604 -0.135307 1.654861 0.103169 -0.013783 -149929.000000 0 0 1
-34.053671 5.060735 -1.938652 34.482197 -0.147531 1.627048 0.096792 -0.032402 244253.000000 0 0 1
-33.655164 6.390535 -2.210452 34.327760 -0.187649 1.635233 0.130315 -0.048561 -344006.000000 0 0 1
-33.102584 7.084835 -0.966652 33.866065 -0.210846 1.599344 0.148363 -0.047975 421008.000000 0 0 1
-31.729104 6.820635 -0.616252 32.459773 -0.211742 1.589783 0.188389 -0.042052 1099340.000000 0 0 1
-31.340764 7.422735 0.635148 32.214033 -0.232555 1.551079 0.212537 -0.053571 52775.400000 0 0 1
-31.511214 8.988035 0.874048 32.779649 -0.277855 1.544129 0.234943 -0.063347 206781.000000 0 0 1
-32.911634 9.256835 0.950748 34.201880 -0.274180 1.542995 0.196535 -0.059469 436837.000000 0 0 1
-33.153674 10.553835 1.500648 34.825300 -0.308188 1.527692 0.218619 -0.053128 1900850.000000 0 0 1
-34.717601 10.930735 1.530948 36.429886 -0.305022 1.528759 0.204848 -0.047096 1676790.000000 0 0 1
-35.311793 11.121735 0.244548 37.022635 -0.305123 1.564191 0.158991 -0.034169 1869030.000000 0 0 1
-36.698834 11.597235 0.303348 38.488860 -0.306080 1.562915 0.152786 -0.015744 1919530.000000 0 0 1
37.759266 10.525235 0.365148 39.200460 0.271845 1.561481 0.158989 -0.050919 -81017.100000 0 0 1
37.556456 9.806335 -0.845652 38.824821 0.255407 1.592579 0.162955 -0.041696 687489.000000 0 0 1
36.378766 8.968435 -0.675952 37.474049 0.241710 1.588835 0.172848 -0.040195 1062130.000000 0 0 1
36.030876 8.232835 -1.985652 37.012787 0.224637 1.624470 0.162853 -0.054918 36103.700000 0 0 1
35.365226 9.099535 -2.873252 36.629992 0.251839 1.649317 0.144188 -0.054774 -64096.500000 0 0 1
35.168226 8.462435 -4.119052 36.405817 0.236138 1.684182 0.136416 -0.058337 -277427.000000 0 0 1
34.344536 9.256535 -5.135252 35.938856 0.263264 1.714176 0.118036 -0.055694 -166437.000000 0 0 1
32.957676 9.302835 -4.875352 34.590753 0.275109 1.712211 0.156889 -0.049096 51876.100000 0 0 1
32.300386 10.044735 -5.879452 34.333360 0.301498 1.742891 0.133448 -0.028979 -544347.000000 0 0 1
30.801036 10.266535 -5.675752 32.959364 0.321737 1.743864 0.174480 -0.037324 -451784.000000 0 0 1
30.010266 9.092735 -5.727152 31.876232 0.294195 1.751446 0.210568 -0.030520 -35167.300000 0 0 1
28.685766 9.507435 -6.012252 30.812524 0.320040 1.767180 0.210684 -0.020789 -322781.000000 0 0 1
27.824466 8.241435 -6.142552 29.662318 0.287961 1.779388 0.241872 -0.011232 -696972.000000 0 0 1
27.961366 7.567435 -7.377852 29.892085 0.264307 1.820190 0.244546 -0.004608 12527.200000 0 0 1
27.074366 6.512735 -7.591252 28.862850 0.236065 1.836938 0.270016 -0.002947 -332559.000000 0 0 1
27.483066 5.617435 -8.821252 29.405594 0.201619 1.875474 0.270316 -0.022530 202031.000000 0 0 1
28.622266 4.846335 -8.459652 30.237175 0.167730 1.854358 0.257885 -0.024284 519417.000000 0 0 1
28.872566 3.963435 -9.571252 30.674790 0.136421 1.888118 0.237176 -0.020614 38278.200000 0 0 1
29.820766 2.787235 -9.193152 31.329871 0.093195 1.868610 0.214186 -0.025223 -217507.000000 0 0 1
31.165356 3.118535 -8.912052 32.564234 0.099732 1.848009 0.178695 -0.015586 767351.000000 0 0 1
31.871156 2.308235 -7.933252 32.924687 0.072298 1.814142 0.157657 -0.015003 206826.000000 0 0 1
31.832346 0.779935 -8.046752 32.842910 0.024496 1.818324 0.147268 -0.023647 -875794.000000 0 0 1
30.620546 0.219035 -7.584552 31.546652 0.007153 1.813598 0.192591 -0.025571 256643.000000 0 0 1
30.675326 -1.185865 -7.368752 31.570245 -0.038639 1.806377 0.174241 -0.029673 -425426.000000 0 0 1
30.736856 -2.068865 -8.652752 31.998510 -0.067208 1.844616 0.163620 -0.016717 95962.900000 0 0 1
31.962706 -2.145765 -9.384052 33.380822 -0.067033 1.855758 0.150315 -0.016532 450993.000000 0 0 1
32.000496 -3.217165 -10.350052 33.786173 -0.100198 1.882142 0.120053 -0.033860 516326.000000 0 0 1
33.264216 -3.146365 -11.290152 35.268615 -0.094307 1.896651 0.134897 -0.033485 980774.000000 0 0 1
34.487416 -3.418365 -10.610752 36.244381 -0.098796 1.867904 0.168942 -0.029074 474932.000000 0 0 1
35.541826 -3.727965 -11.516752 37.546700 -0.104507 1.882553 0.180874 -0.049844 766349.000000 0 0 1
36.833736 -4.256265 -10.789652 38.616790 -0.115043 1.853969 0.202166 -0.044188 199999.000000 0 0 1
36.566676 -5.396265 -9.994252 38.290032 -0.146516 1.834869 0.204197 -0.040870 484401.000000 0 0 1
37.742266 -6.036965 -9.532052 39.392684 -0.158609 1.815197 0.223833 -0.040201 156079.000000 0 0 1
37.368416 -7.214165 -8.600452 39.018078 -0.190709 1.793044 0.228725 -0.038952 -149944.000000 0 0 1
36.879166 -6.799665 -7.365252 38.217211 -0.182329 1.764731 0.234585 -0.041034 362176.000000 0 0 1
36.410736 -7.904265 -6.625552 37.843322 -0.213769 1.746782 0.240497 -0.045569 -366661.000000 0 0 1
35.921746 -7.651865 -5.147352 37.086630 -0.209878 1.710038 0.233135 -0.044606 -238668.000000 0 0 1
36.912766 -7.367865 -4.143652 37.868292 -0.197013 1.680439 0.268405 -0.043842 791296.000000 0 0 1
37.388706 -8.569765 -3.437552 38.511985 -0.225315 1.660175 0.290501 -0.049722 247806.000000 0 0 1
-37.071924 -9.424365 -4.071752 38.467199 0.248945 1.676845 0.279872 -0.048266 -40094.100000 0 0 1
-37.718194 -10.238865 -5.095852 39.414011 0.265069 1.700450 0.237821 -0.044137 765393.000000 0 0 1
-36.776094 -10.899565 -5.918352 38.811191 0.288129 1.723884 0.203614 -0.038754 -359880.000000 0 0 1
-37.398264 -11.506865 -7.167252 39.779487 0.298492 1.751960 0.183633 -0.042551 -122074.000000 0 0 1
-37.510244 -10.582465 -8.255552 39.839191 0.274975 1.779531 0.184183 -0.053122 172762.000000 0 0 1
37.664576 -11.297465 -9.396952 40.429639 -0.291410 1.805369 0.182938 -0.035517 -137120.000000 0 0 1
37.563636 -10.488065 -10.740852 40.452344 -0.272274 1.839538 0.172486 -0.036995 416081.000000 0 0 1
36.426536 -9.628965 -10.937252 39.233059 -0.258428 1.853316 0.175643 -0.039102 733450.000000 0 0 1
36.491006 -8.882065 -12.107452 39.459789 -0.238761 1.882657 0.175362 -0.041692 109626.000000 0 0 1
35.373116 -7.797165 -12.268752 38.243632 -0.216957 1.897376 0.174614 -0.042260 111267.000000 0 0 1
35.611056 -6.927365 -13.352452 38.657776 -0.192129 1.923463 0.174114 -0.044147 667948.000000 0 0 1
34.418556 -6.408465 -13.906252 37.670801 -0.184084 1.948893 0.156827 -0.043323 199499.000000 0 0 1
34.894996 -5.552665 -15.077652 38.416512 -0.157802 1.974121 0.150783 -0.045157 -88674.000000 0 0 1
35.519286 -4.366065 -14.658952 38.672562 -0.122307 1.959569 0.156603 -0.027927 321857.000000 0 0 1
36.193846 -3.872565 -15.835452 39.695752 -0.106590 1.981136 0.163889 -0.037896 -52015.500000 0 0 1
37.695786 -3.602565 -15.672852 40.982789 -0.095280 1.963216 0.171127 -0.036783 -721017.000000 0 0 1
-37.265934 -3.223265 -16.880052 41.037488 0.086279 1.994712 0.183073 -0.033186 203829.000000 0 0 1
-35.969674 -2.665465 -16.726952 39.758183 0.073968 2.005032 0.203656 -0.030299 156341.000000 0 0 1
-35.909553 -1.236065 -16.325852 39.465901 0.034408 1.997278 0.198264 -0.034812 -301229.000000 0 0 1
-36.285534 -0.244165 -17.321552 40.208653 0.006729 2.016166 0.172610 -0.025201 167488.000000 0 0 1
-35.961172 1.022535 -16.851752 39.726981 -0.028427 2.008863 0.171069 -0.035505 327461.000000 0 0 1
-36.384204 2.145235 -17.857352 40.586911 -0.058892 2.026371 0.142716 -0.033118 665052.000000 0 0 1
-35.416249 2.177835 -18.911652 40.208261 -0.061415 2.060475 0.134583 -0.027421 532433.000000 0 0 1
-35.499858 3.451235 -19.580452 40.688390 -0.096914 2.072853 0.116278 -0.021414 -361238.000000 0 0 1
-34.584889 3.615735 -20.791552 40.515142 -0.104168 2.109682 0.111700 -0.013656 -629820.000000 0 0 1
-33.253624 3.756835 -20.373152 39.178855 -0.112498 2.117652 0.116104 -0.014090 -456702.000000 0 0 1
-32.453574 4.139235 -21.458352 39.125805 -0.126858 2.151300 0.106860 -0.011689 -891381.000000 0 0 1
-31.032514 4.484735 -21.050452 37.765743 -0.143524 2.162042 0.115317 -0.017184 -1042520.000000 0 0 1
-30.283894 3.391135 -20.680352 36.827856 -0.111514 2.167043 0.120706 -0.005527 -2078120.000000 0 0 1
-28.979474 3.730835 -20.865052 35.903753 -0.128036 2.190923 0.097606 -0.003940 -1985620.000000 0 0 1
-27.996834 2.776535 -20.243052 34.659963 -0.098850 2.194502 0.126683 -0.007872 -361265.000000 0 0 1
-27.430854 3.225635 -19.003252 33.525812 -0.117054 2.173443 0.117343 -0.001516 269851.000000 0 0 1
-26.791724 2.217435 -18.245352 32.490096 -0.082577 2.167074 0.112951 -0.001159 146491.000000 0 0 1
-25.880494 2.706135 -17.084052 31.128572 -0.104184 2.151751 0.118554 -0.015471 -559187.000000 0 0 1
-24.743524 3.376035 -17.452652 30.466944 -0.135604 2.180762 0.117109 -0.017080 -385894.000000 0 0 1
-23.817624 3.550135 -16.381752 29.124637 -0.147966 2.168167 0.138976 -0.032317 655962.000000 0 0 1
-22.619524 4.514035 -16.625952 28.433109 -0.196976 2.195355 0.139538 -0.036746 907994.000000 0 0 1
-21.398324 3.877335 -17.005552 27.606354 -0.179253 2.234453 0.158054 -0.042750 1292210.000000 0 0 1
-20.309924 4.802935 -17.196052 27.041919 -0.232216 2.259975 0.141171 -0.043973 1404370.000000 0 0 1
-18.943124 4.278835 -17.775652 26.327252 -0.222150 2.312006 0.152417 -0.046799 522074.000000 0 0 1
-18.359124 3.344735 -16.937952 25.201962 -0.180207 2.307822 0.143440 -0.041864 -352101.000000 0 0 1
-17.349224 2.642235 -17.605852 24.858459 -0.151136 2.357804 0.123012 -0.037526 -975999.000000 0 1 0
-17.320024 1.134335 -17.174452 24.417857 -0.065399 2.350904 0.119759 -0.032810 1239030.000000 0 1 0
-18.462124 0.296835 -17.544252 25.470354 -0.016077 2.330644 0.103055 -0.027280 1268800.000000 0 0 1
-19.717624 0.705035 -17.031752 26.064580 -0.035741 2.282922 0.123181 -0.026984 317263.000000 0 0 1
-20.953224 -0.178565 -17.441352 27.262983 0.008522 2.264963 0.106398 -0.012281 411630.000000 0 0 1
-20.890324 -1.348365 -16.687452 26.771156 0.064456 2.243799 0.095488 -0.022197 470462.000000 0 0 1
-21.789424 -2.372065 -17.103252 27.801563 0.108436 2.233424 0.094510 -0.017313 -40293.800000 0 0 1
-21.980124 -3.559865 -16.126352 27.492867 0.160564 2.197607 0.113106 -0.029143 -73406.200000 0 0 1
-22.582724 -3.178465 -14.899352 27.241012 0.139829 2.149508 0.106344 -0.022969 358198.000000 0 0 1
-22.642624 -4.297065 -14.041052 26.987114 0.187547 2.117984 0.102380 -0.037428 -134449.000000 0 0 1
-23.086924 -3.948265 -12.580052 26.586699 0.169379 2.063683 0.117702 -0.038498 -471376.000000 0 0 1
-24.286824 -3.240065 -12.505052 27.508620 0.132625 2.042704 0.108863 -0.033703 -14748.900000 0 0 1
-24.453224 -2.779665 -11.216652 27.046257 0.113187 1.998433 0.131454 -0.044615 -253966.000000 0 0 1
-25.649124 -1.795465 -11.158852 28.028936 0.069887 1.980262 0.166703 -0.049645 -119403.000000 0 0 1
-25.887764 -1.320865 -9.846852 27.728713 0.050979 1.933832 0.175136 -0.059913 419747.000000 0 0 1
-26.460944 -0.044965 -9.819152 28.224091 0.001699 1.926126 0.193029 -0.059209 -311986.000000 0 0 1
-26.725584 0.500335 -8.414752 28.023477 -0.018719 1.875777 0.224865 -0.055882 -220573.000000 0 0 1
-25.514234 0.815235 -7.780852 26.686746 -0.031941 1.866656 0.202447 -0.050375 314350.000000 0 0 1
-25.750624 1.094735 -6.446752 26.567907 -0.042487 1.815895 0.204641 -0.049211 361238.000000 0 0 1
-24.401524 1.427235 -5.747052 25.109759 -0.058423 1.801720 0.155791 -0.044758 269142.000000 0 0 1
-23.900024 2.744135 -5.916852 24.773990 -0.114317 1.811960 0.186566 -0.039021 -547801.000000 0 1 0
-22.613224 2.829135 -5.412152 23.423350 -0.124463 1.803961 0.178671 -0.031891 -744918.000000 0 1 0
-22.142224 4.307835 -5.443752 23.204956 -0.192153 1.807598 0.164959 -0.035827 -378060.000000 0 1 0
-22.694024 5.038335 -4.369852 23.653735 -0.218468 1.756606 0.180589 -0.038113 615193.000000 0 1 0
-22.717424 6.408335 -4.604952 24.048985 -0.274945 1.763468 0.189162 -0.034834 -695893.000000 0 1 0
-23.096124 7.407735 -3.467952 24.501677 -0.310370 1.712813 0.193487 -0.038942 -191778.000000 0 1 0
-22.234824 7.307035 -2.349252 23.522312 -0.317512 1.670836 0.157679 -0.036793 575812.000000 0 1 0
-20.930324 7.831535 -2.503952 22.487356 -0.358044 1.682377 0.166672 -0.035940 -347544.000000 0 1 0
-20.607224 9.354735 -2.485852 22.767262 -0.426137 1.680200 0.155242 -0.038600 -503899.000000 0 1 0
-20.801524 9.973135 -3.751652 23.371815 -0.447067 1.732014 0.148917 -0.028855 214014.000000 0 1 0
-20.111024 11.147935 -3.709352 23.291394 -0.506154 1.730736 0.125119 -0.027709 -426877.000000 0 1 0
-19.849624 11.733135 -5.110452 23.617594 -0.533851 1.788905 0.099916 -0.029408 111870.000000 0 1 0
-18.898924 11.039235 -5.902952 22.668897 -0.528661 1.834231 0.087885 -0.022041 192585.000000 0 1 0
-19.057924 11.538635 -7.250752 23.428999 -0.544418 1.885440 0.097020 -0.022992 82819.300000 0 1 0
-17.807924 11.423635 -8.178852 22.682928 -0.570371 1.939678 0.082713 -0.008035 5630.040000 0 1 0
-17.409524 10.121535 -8.504752 21.860188 -0.526615 1.970399 0.067242 -0.009136 189408.000000 0 1 0
-18.205424 9.452535 -9.455652 22.587546 -0.478901 2.002724 0.087648 -0.009738 -184908.000000 0 1 0
-18.173524 9.959835 -10.920652 23.425113 -0.501338 2.055780 0.085215 -0.011560 -496304.000000 0 1 0
-16.951324 9.708435 -11.529352 22.683189 -0.520122 2.103980 0.065045 -0.016527 -334752.000000 0 1 0
-16.914424 10.350035 -12.761052 23.581039 -0.549128 2.142609 0.065724 -0.021853 558392.000000 0 1 0
-15.763324 9.811735 -13.690052 23.068811 -0.556757 2.206128 0.047695 -0.017637 78211.200000 0 1 0
-15.914824 8.554635 -14.316852 23.052888 -0.493216 2.240870 0.064399 -0.036486 121866.000000 0 1 0
-15.803824 7.400535 -13.480552 22.051169 -0.437947 2.228537 0.063525 -0.029130 -240656.000000 0 1 0
-15.639224 6.162335 -14.345652 22.098811 -0.375350 2.277275 0.066120 -0.032709 169249.000000 0 1 0
-14.402424 6.078835 -15.059152 21.706223 -0.399387 2.337509 0.051159 -0.038074 996018.000000 0 1 0
-14.522124 5.062035 -16.039552 22.221240 -0.335404 2.377213 0.057199 -0.029706 -55894.900000 0 1 0
33.104656 -15.820465 27.741287 45.997656 -0.445806 0.923412 0.072801 -0.015179 27924.600000 0 0 1
32.618096 -14.542465 28.094377 45.439163 -0.419389 0.904237 0.087615 -0.012181 -235888.000000 0 0 1
31.669916 -14.607765 29.143687 45.450246 -0.432170 0.874707 0.087476 -0.013064 -28866.100000 0 0 1
32.165086 -14.670165 30.605687 46.760182 -0.427907 0.857243 0.090679 -0.019366 -264329.000000 0 0 1
32.644776 -13.420365 30.999577 46.976179 -0.390041 0.850111 0.076221 -0.020534 -67258.200000 0 0 1
32.980586 -13.302365 32.355769 48.078766 -0.383382 0.832574 0.070523 -0.026880 -525711.000000 0 0 1
33.367696 -11.886465 32.676972 48.192071 -0.342211 0.825680 0.071859 -0.020307 -72053.400000 0 0 1
33.696556 -11.734665 -33.562452 48.985696 -0.335111 2.325603 0.057517 -0.041968 135639.000000 0 0 1
34.037596 -10.411965 -33.220782 48.688677 -0.296857 2.321714 0.086041 -0.032739 -117993.000000 0 0 1
33.445856 -10.121865 -31.845382 47.277963 -0.293872 2.309835 0.090734 -0.028889 -1088970.000000 0 0 1
32.087946 -9.907965 -31.885432 46.308582 -0.299488 2.330274 0.122338 -0.031970 -1127600.000000 0 0 1
31.695176 -9.847065 -30.522402 45.090641 -0.301226 2.314356 0.090587 -0.023592 466429.000000 0 0 1
30.176766 -10.002465 -30.165432 43.825104 -0.320066 2.329959 0.103604 -0.011936 629850.000000 0 0 1
29.934566 -9.807165 -28.789222 42.674091 -0.316600 2.311260 0.085300 -0.015767 120994.000000 0 0 1
28.663966 -10.294265 -28.399372 41.642756 -0.344791 2.321258 0.118426 -0.017997 -505349.000000 0 0 1
28.358466 -10.310965 -26.856042 40.395118 -0.348733 2.298068 0.117395 -0.014750 -1133790.000000 0 0 1
27.655066 -9.184565 -26.309772 39.260196 -0.320650 2.305192 0.102245 -0.018067 1594990.000000 0 0 1
26.335566 -8.853365 -26.829262 38.623223 -0.324306 2.338717 0.098144 -0.019797 1671860.000000 0 0 1
25.224766 -9.991165 -26.903382 38.208692 -0.377127 2.351975 0.107540 -0.009815 -418563.000000 0 0 1
25.582866 -11.112265 -27.662832 39.283555 -0.409775 2.352069 0.102151 -0.014839 -387187.000000 0 0 1
24.878566 -12.274265 -27.271342 38.901500 -0.458327 2.347645 0.124116 -0.027212 495552.000000 0 0 1
25.646566 -13.510465 -27.870872 40.212740 -0.484853 2.336557 0.096068 -0.007470 582611.000000 0 0 1
25.392766 -13.559965 -29.269882 41.053516 -0.490483 2.364520 0.099251 -0.018738 417955.000000 0 0 1
26.418066 -14.325065 -29.895432 42.389368 -0.496870 2.353583 0.098262 -0.014749 189046.000000 0 0 1
26.318966 -14.386765 -31.449912 43.459912 -0.500253 2.379878 0.110455 -0.024999 485521.000000 0 0 1
25.164166 -15.118865 -31.920472 43.367405 -0.541014 2.398009 0.110586 -0.024787 591345.000000 0 0 1
25.106966 -15.558665 -33.251502 44.475770 -0.554775 2.415285 0.091835 -0.027178 108406.000000 0 0 1
25.449966 -14.587165 33.162205 44.274349 -0.520458 0.724220 0.071832 -0.022412 303087.000000 0 0 1
24.440466 -13.608865 33.249346 43.451773 -0.508062 0.699443 0.091889 -0.026197 122547.000000 0 0 1
24.550166 -12.660265 32.198165 42.423046 -0.476120 0.709054 0.071377 -0.023432 221398.000000 0 0 1
23.641666 -11.331665 32.384864 41.666706 -0.446958 0.680535 0.084627 -0.028351 1359410.000000 0 0 1
22.222166 -11.406265 32.267653 40.805992 -0.474218 0.658750 0.075556 -0.021766 637143.000000 0 0 1
21.752866 -11.727965 30.963267 39.616363 -0.494472 0.673605 0.059115 -0.008066 -340992.000000 0 0 1
20.222666 -11.914865 30.797967 38.722539 -0.532428 0.651212 0.072147 -0.005760 450725.000000 0 0 1
19.480666 -10.720865 30.953077 38.112023 -0.503099 0.622951 0.079484 -0.019231 -775834.000000 0 0 1
18.375766 -10.840165 31.773588 38.271907 -0.532972 0.591318 0.071487 -0.010230 -515509.000000 0 0 1
17.470466 -9.595965 31.829959 37.555905 -0.502281 0.559472 0.075966 -0.016620 -1272460.000000 0 0 1
16.558466 -9.517765 30.776257 36.220832 -0.521682 0.555411 0.104496 -0.023625 -155896.000000 0 0 1
15.639166 -8.435465 30.806237 35.563532 -0.494654 0.523187 0.100996 -0.018356 200127.000000 0 0 1
14.676766 -8.427565 31.989902 36.190954 -0.521241 0.486617 0.105542 -0.023634 -2122020.000000 0 0 1
13.763366 -9.462365 31.985848 36.084083 -0.602290 0.481232 0.112828 -0.024096 -1006940.000000 0 0 1
12.747266 -9.443365 32.892449 36.518258 -0.637597 0.449390 0.115481 -0.023344 -532544.000000 0 0 1
11.448366 -8.703965 32.537353 35.573915 -0.650048 0.416178 0.146241 -0.027620 -387291.000000 0 0 1
11.738566 -7.340765 32.734109 35.541563 -0.558854 0.400133 0.135917 -0.032173 248677.000000 0 0 1
10.717966 -6.609365 32.094414 34.476223 -0.552581 0.373888 0.160037 -0.028515 20003.900000 0 0 1
10.936066 -5.089965 32.013946 34.211081 -0.435611 0.360340 0.143442 -0.026593 14104.600000 0 0 1
10.978566 -4.503565 33.307785 35.358444 -0.389281 0.342245 0.124053 -0.036855 32257.700000 0 0 1
11.505366 -3.242465 33.206733 35.292693 -0.274697 0.345532 0.082556 -0.033201 -274028.000000 0 0 1
11.518066 -2.481965 -33.036842 35.075047 -0.212239 2.799010 0.082924 -0.042109 657874.000000 0 0 1
10.158066 -2.081565 -32.823722 34.422608 -0.202119 2.835610 0.099600 -0.024850 681056.000000 0 0 1
10.048766 -1.387165 -31.591382 33.180074 -0.137176 2.830890 0.111346 -0.017344 -424372.000000 0 0 1
8.610166 -1.063965 -31.182472 32.366858 -0.122948 2.870233 0.120687 -0.012689 -407732.000000 0 0 1
8.046566 -0.158465 -32.070662 33.065083 -0.019691 2.895720 0.107505 -0.015530 -971347.000000 0 0 1
6.680966 -0.006865 -31.880902 32.573413 -0.001028 2.935022 0.125150 -0.018403 -746328.000000 0 0 1
5.943166 0.767335 -32.974172 33.514266 0.128402 2.961822 0.152392 -0.024699 -49347.500000 0 0 1
6.306966 2.118835 -32.927932 33.593392 0.324105 2.942219 0.124267 -0.027173 183548.000000 0 0 1
5.569466 2.879835 33.706987 34.285177 0.477215 0.183912 0.146233 -0.028439 19105.000000 0 0 1
6.212266 4.242635 33.459119 34.294385 0.599188 0.221157 0.120549 -0.030779 57558.700000 0 0 1
5.539266 5.115635 32.592595 33.453407 0.745660 0.227345 0.133758 -0.040905 -67678.700000 0 0 1
6.448866 6.105435 32.155066 33.358844 0.758049 0.269462 0.126216 -0.041015 -52814.600000 0 0 1
5.831866 7.277335 31.381307 32.737696 0.895218 0.288864 0.142544 -0.040522 826441.000000 0 0 1
4.689966 7.833735 32.130494 33.402572 1.031342 0.276866 0.153811 -0.048736 1305030.000000 0 0 1
4.303366 9.139635 31.726193 33.295694 1.130742 0.308264 0.160872 -0.049868 141169.000000 0 0 1
3.702066 9.474635 30.278787 31.941806 1.198303 0.324105 0.147771 -0.044854 -70240.100000 0 0 1
2.508866 8.769935 30.068477 31.421641 1.292163 0.294542 0.137079 -0.038083 -436677.000000 0 0 1
2.226866 8.748035 28.706187 30.092063 1.321534 0.304672 0.099461 -0.021840 944865.000000 0 0 1
1.012966 7.796035 28.301537 29.373139 1.441587 0.270948 0.107300 -0.024859 988719.000000 0 0 1
-0.251634 8.261835 28.692527 29.859376 -1.540348 0.280483 0.105861 -0.012844 -185312.000000 0 0 1
-1.255334 8.110635 27.695517 28.885982 -1.417238 0.288093 0.108066 -0.015359 474165.000000 0 0 1
-2.677034 8.489035 28.144617 29.518633 -1.265315 0.306311 0.100487 -0.012872 -247881.000000 0 0 1
-2.836034 9.874035 28.412087 30.212354 -1.291104 0.346954 0.106163 -0.005742 1141340.000000 0 0 1
-4.228734 10.104435 28.766777 30.781639 -1.174442 0.363823 0.099209 -0.002460 1003660.000000 0 0 1
-4.421334 11.468435 29.484127 31.943496 -1.202833 0.394968 0.094739 0.000253 -124296.000000 0 0 1
-4.470734 12.701835 28.681847 31.685524 -1.232363 0.438938 0.069995 -0.000846 86814.100000 0 0 1
-5.744334 12.777335 28.081037 31.381560 -1.148298 0.462755 0.067054 -0.006870 -111854.000000 0 0 1
-5.948534 14.177035 27.391047 31.410872 -1.173517 0.511473 0.044750 0.000815 122839.000000 0 0 1
-5.171834 14.513235 26.242017 30.430664 -1.228473 0.530895 0.043692 0.006458 88450.700000 0 0 1
-5.446534 15.870335 25.878057 30.841630 -1.240201 0.575238 0.042122 0.008870 572881.000000 0 0 1
-4.265434 16.511935 25.049817 30.303981 -1.317998 0.597725 0.071943 0.004877 471611.000000 0 0 1
-4.222834 16.093235 23.720197 28.973648 -1.314183 0.611685 0.072751 0.000048 -466701.000000 0 0 1
-3.319634 16.816535 22.940797 28.637318 -1.375899 0.641698 0.090693 -0.001580 -237838.000000 0 0 1
-3.291034 16.349635 21.516687 27.223323 -1.372160 0.659372 0.088655 -0.001773 -487984.000000 0 0 1
-2.467934 15.245935 21.339487 26.342038 -1.410313 0.626486 0.072413 -0.010165 -235403.000000 0 0 1
-2.388434 14.981435 19.961587 25.072155 -1.412701 0.649865 0.070457 -0.021364 10457.900000 0 0 1
-1.366634 13.905835 19.491987 23.982859 -1.472833 0.621945 0.065914 -0.028967 -136131.000000 0 1 0
-1.846334 12.608135 19.685987 23.450205 -1.425390 0.574470 0.069162 -0.025839 167085.000000 0 1 0
-1.121234 11.602535 18.952687 22.250401 -1.474458 0.551402 0.065066 -0.034699 -233109.000000 0 1 0
-1.872134 10.243535 18.855587 21.539918 -1.390029 0.504578 0.045294 -0.028720 -425207.000000 0 1 0
-1.979234 9.645035 20.156587 22.432835 -1.368399 0.454386 0.062200 -0.027944 717721.000000 0 1 0
-3.025534 10.178035 20.986287 23.519577 -1.281854 0.468404 0.074082 -0.020307 791572.000000 0 1 0
-4.554534 10.140535 20.690287 23.487491 -1.148657 0.493022 0.051611 -0.015171 362259.000000 0 1 0
-5.157134 8.877235 20.733887 23.136452 -1.044510 0.459765 0.038623 -0.019206 202403.000000 0 1 0
-6.558934 8.973835 20.916387 23.686380 -0.939635 0.488462 0.030894 -0.010768 91792.800000 0 1 0
-7.356234 7.695935 21.063187 23.600836 -0.807963 0.467991 0.027523 -0.010353 -423998.000000 0 1 0
-7.187934 6.988235 22.279387 24.430983 -0.771312 0.422829 0.031555 -0.015768 82692.000000 0 1 0
-7.876634 5.768835 22.236987 24.285890 -0.632141 0.413714 0.030243 -0.019966 -57531.100000 0 1 0
-7.834434 5.120535 23.611167 25.398533 -0.578897 0.377396 0.040689 -0.025399 -5643.870000 0 0 1
-8.759834 5.624035 24.562017 26.676903 -0.570749 0.400869 0.036463 -0.022724 219420.000000 0 0 1
-8.885634 4.792535 25.693727 27.605987 -0.494636 0.374392 0.046124 -0.015981 -458008.000000 0 0 1
-9.878134 5.377335 26.689447 28.962387 -0.498509 0.398817 0.051460 -0.016338 -449265.000000 0 0 1
-9.552834 6.621335 27.345097 29.712843 -0.606099 0.401918 0.055097 -0.021537 -386225.000000 0 0 1
-10.483734 6.930335 28.327317 30.989920 -0.584108 0.417559 0.062243 -0.021829 -316778.000000 0 0 1
-10.038334 8.086135 29.255927 31.969720 -0.678101 0.415007 0.087531 -0.018600 461122.000000 0 0 1
-9.009934 7.678835 30.170537 32.409948 -0.705806 0.373917 0.096460 -0.016296 173029.000000 0 0 1
-8.539734 8.713035 30.917017 33.237118 -0.795443 0.375851 0.110436 -0.025862 138729.000000 0 0 1
-7.445434 8.362935 31.971125 33.875154 -0.843372 0.336873 0.142599 -0.032198 648685.000000 0 0 1
-6.148034 8.102135 31.484707 33.086700 -0.921676 0.312454 0.122886 -0.029210 -412704.000000 0 0 1
-5.236234 7.829035 32.508166 33.845129 -0.981303 0.282011 0.148221 -0.034257 2041640.000000 0 0 1
-3.690834 7.714435 32.058947 33.179977 -1.124551 0.260685 0.121261 -0.026835 2171260.000000 0 0 1
-3.082834 8.943935 31.798761 33.176182 -1.238865 0.289167 0.110167 -0.027100 -630756.000000 0 0 1
-1.696634 8.923835 31.587106 32.867289 -1.382915 0.280020 0.097977 -0.022695 26717.200000 0 0 1
-1.150534 10.307335 31.125257 32.807721 -1.459634 0.321643 0.094120 -0.018949 -242132.000000 0 0 1
-1.165334 11.362635 32.052922 34.027302 -1.468595 0.342326 0.100219 -0.030058 120688.000000 0 0 1
-1.278434 12.629835 31.415007 33.882884 -1.469917 0.384024 0.099082 -0.020066 -200486.000000 0 0 1
-1.425934 13.805935 32.457261 35.300296 -1.467877 0.404088 0.095935 -0.030772 -421226.000000 0 0 1
-0.247234 14.053735 33.148725 36.005647 -1.553206 0.401045 0.130648 -0.037934 -550048.000000 0 0 1
-0.470934 15.016935 -33.432772 36.653518 -1.539446 2.719247 0.144289 -0.037751 -535672.000000 0 0 1
0.793366 15.367135 -32.667322 36.110001 1.519215 2.701381 0.129261 -0.041402 -637696.000000 0 0 1
1.603066 16.205935 -33.461622 37.214007 1.472199 2.688659 0.138967 -0.038065 160319.000000 0 0 1
2.847266 16.447935 -32.817032 36.818461 1.399387 2.671045 0.144901 -0.039272 -66836.100000 0 0 1
3.789366 17.282235 -33.640982 38.009875 1.354948 2.657417 0.138479 -0.026459 -126465.000000 0 0 1
3.446766 18.659235 -33.643782 38.625785 1.388134 2.628069 0.122695 -0.021509 275499.000000 0 0 1
4.565966 19.366135 33.457351 38.926721 1.339254 0.536514 0.104420 -0.005256 403310.000000 0 0 1
4.194066 20.848235 33.364331 39.565360 1.372275 0.567456 0.109336 -0.019793 -29748.300000 0 0 1
4.333066 21.402935 -32.934722 39.516541 1.371044 2.556103 0.137793 -0.042647 -35717.900000 0 0 1
3.890366 22.731335 -32.959872 40.226878 1.401293 2.531072 0.122230 -0.038919 -24750.300000 0 0 1
4.096366 23.525135 -31.619952 39.623649 1.398398 2.494777 0.148123 -0.044072 -95072.500000 0 0 1
3.603866 24.823935 -31.743372 40.458093 1.426627 2.472845 0.146158 -0.047964 131382.000000 0 0 1
3.356366 25.293635 -30.471532 39.743520 1.438871 2.444488 0.156514 -0.053972 -151181.000000 0 0 1
3.096066 26.828035 -30.375912 40.645112 1.455900 2.414853 0.158086 -0.058349 -168400.000000 0 0 1
4.248166 27.627535 -30.437972 41.325509 1.418226 2.398740 0.134190 -0.053037 -66393.300000 0 0 1
3.878666 28.948135 -30.124622 41.958687 1.437603 2.371662 0.132537 -0.052802 451822.000000 0 0 1
5.099966 29.913735 -29.868602 42.579039 1.401931 2.348277 0.172278 -0.060282 294606.000000 0 0 1
5.818966 29.594835 -28.758052 41.674215 1.376652 2.332380 0.147100 -0.069094 -783354.000000 0 0 1
6.588066 30.645935 -28.282862 42.219619 1.359045 2.304868 0.177391 -0.076107 -864583.000000 0 0 1
7.720866 30.233235 -27.322832 41.475263 1.320764 2.289985 0.175972 -0.078358 -522201.000000 0 0 1
8.837666 29.735235 -28.041422 41.816383 1.281899 2.305793 0.173849 -0.074065 -564650.000000 0 0 1
9.998066 30.472435 -27.904622 42.511158 1.253761 2.286842 0.183278 -0.075194 -713195.000000 0 0 1
9.998566 31.786235 -28.744262 44.006461 1.266039 2.282577 0.205718 -0.074029 -1062870.000000 0 0 1
9.233566 32.770935 -28.050602 44.113821 1.296156 2.259930 0.202310 -0.075272 223534.000000 0 0 1
9.058566 -33.676505 -28.794502 45.224860 -1.308028 2.261003 0.184920 -0.066929 -322177.000000 0 0 1
7.841466 -33.574805 -29.713852 45.515592 -1.341357 2.282108 0.151060 -0.047298 -287723.000000 0 0 1
7.950066 33.190535 -30.746852 45.936740 1.335698 2.304103 0.132932 -0.043048 290626.000000 0 0 1
6.695266 33.183535 -31.410582 46.180063 1.371705 2.318799 0.123539 -0.039208 260759.000000 0 0 1
6.598466 32.291935 -32.681142 46.415147 1.369233 2.351958 0.136253 -0.059516 -27727.600000 0 0 1
6.485666 33.063935 33.736817 47.680819 1.377100 0.784764 0.138614 -0.050491 141682.000000 0 0 1
6.529666 32.222135 32.587015 46.290561 1.370858 0.789829 0.139538 -0.048568 -100732.000000 0 0 1
6.081166 32.893035 31.248747 45.775720 1.387983 0.819415 0.119444 -0.052520 223710.000000 0 0 1
7.082866 33.792235 30.791427 46.262232 1.364187 0.842520 0.125729 -0.051343 343540.000000 0 0 1
6.888866 -33.449405 29.470757 45.109253 -1.367687 0.858835 0.102499 -0.055384 -37649.300000 0 0 1
19.102176 -22.023765 28.878197 41.035224 -0.856319 0.790146 0.107764 -0.004863 -686621.000000 0 0 1
18.380676 -20.826665 28.982227 40.144349 -0.847703 0.764179 0.110136 -0.005257 -167124.000000 0 0 1
16.995776 -21.054165 29.126567 39.755392 -0.891656 0.748597 0.100228 -0.007009 203225.000000 0 0 1
16.491976 -21.454365 30.550487 40.811853 -0.915434 0.724895 0.086235 -0.009819 -724542.000000 0 0 1
16.706676 -22.770865 30.976487 41.918589 -0.937818 0.739259 0.124205 -0.013902 -4520.150000 0 0 1
16.517576 -22.949765 32.361368 42.974180 -0.946953 0.718123 0.099624 -0.015813 -154963.000000 0 0 1
17.399876 -23.997165 33.062007 44.404008 -0.943435 0.730902 0.102232 -0.023965 -215985.000000 0 0 1
17.145876 -25.327495 32.708223 44.780475 -0.975697 0.751870 0.122320 -0.030525 -87922.900000 0 0 1
17.865576 -26.165855 33.611147 46.190259 -0.971720 0.755881 0.114422 -0.027366 173033.000000 0 0 1
17.586276 -27.714545 33.448413 46.863306 -1.005359 0.775967 0.117050 -0.016402 504815.000000 0 0 1
18.374176 -28.273915 32.390224 46.756296 -0.994517 0.805507 0.117427 -0.023030 656348.000000 0 0 1
17.778876 -29.539175 32.047813 47.071367 -1.029000 0.821895 0.114382 -0.028237 608008.000000 0 0 1
18.541276 -30.184715 30.843607 46.970459 -1.019957 0.854415 0.118461 -0.027532 745777.000000 0 0 1
19.816976 -30.760635 31.098087 48.021039 -0.998487 0.866375 0.100348 -0.028607 223875.000000 0 0 1
20.404076 -31.151125 29.880707 47.744901 -0.990912 0.894587 0.076996 -0.021301 -909442.000000 0 0 1
21.736276 -31.882965 29.872157 48.798923 -0.972423 0.912022 0.067951 -0.018122 -435621.000000 0 0 1
22.750176 -30.915195 30.119027 48.790118 -0.936387 0.905467 0.060814 -0.018668 -761107.000000 0 0 1
24.000976 -31.301595 29.672817 49.359019 -0.916652 0.925841 0.056717 -0.019890 -482065.000000 0 0 1
25.018776 -30.144155 29.978567 49.328731 -0.878046 0.917597 0.060668 -0.020503 -386091.000000 0 0 1
26.332776 -30.395145 29.614777 49.943117 -0.856888 0.936054 0.059192 -0.021969 -858362.000000 0 0 1
27.015676 -29.170725 29.464257 49.486568 -0.823735 0.933034 0.063055 -0.021402 -180527.000000 0 0 1
28.303176 -29.278465 28.636747 49.783145 -0.802334 0.957911 0.078638 -0.024237 -180802.000000 0 0 1
29.281376 -30.095425 29.249187 51.172732 -0.799107 0.962369 0.088429 -0.021670 -628515.000000 0 0 1
30.437276 -30.097125 28.471877 51.409265 -0.779779 0.983842 0.092194 -0.040959 -300635.000000 0 0 1
31.454576 -31.133045 28.996127 52.909661 -0.780261 0.990788 0.085689 -0.036366 46609.900000 0 0 1
30.983376 -32.408095 28.636557 53.200626 -0.807869 1.002408 0.073855 -0.031595 1076120.000000 0 0 1
31.926376 -33.471715 29.063347 54.628997 -0.809023 1.009820 0.082071 -0.030274 387747.000000 0 0 1
31.196576 32.830948 29.333347 53.958713 0.810919 0.996045 0.073086 -0.018126 197798.000000 0 0 1
30.457576 32.795371 30.582107 54.207615 0.822341 0.971373 0.092440 -0.014450 764940.000000 0 0 1
29.391676 33.714445 30.862007 54.341493 0.853791 0.966811 0.088371 -0.010476 653892.000000 0 0 1
28.063176 33.491383 30.063927 53.038234 0.873356 0.968137 0.092633 -0.011773 184007.000000 0 0 1
27.680676 32.138749 30.072017 51.994665 0.859786 0.954070 0.082119 -0.001944 622646.000000 0 0 1
26.243976 32.030784 30.023027 51.147821 0.884376 0.943466 0.084590 -0.006954 1292630.000000 0 0 1
25.731376 30.567535 29.869327 49.886417 0.871089 0.928861 0.100669 -0.018128 469396.000000 0 0 1
24.951876 30.326115 28.678247 48.628297 0.882316 0.940054 0.112214 -0.035570 412063.000000 0 0 1
24.747476 28.955215 28.591117 47.626610 0.863591 0.926898 0.139276 -0.052766 60318.500000 0 0 1
24.035276 28.583755 27.243597 46.227039 0.871626 0.940551 0.144423 -0.055031 -556999.000000 0 0 1
22.696576 28.923565 27.185857 45.725026 0.905449 0.934089 0.135070 -0.055109 -883799.000000 0 0 1
22.102376 28.558645 25.986547 44.490582 0.912155 0.947037 0.152191 -0.044914 159221.000000 0 0 1
20.832576 29.389865 25.671257 44.235436 0.954165 0.951660 0.134761 -0.041163 61859.400000 0 0 1
21.069376 30.612495 25.051727 44.817770 0.967993 0.977655 0.120730 -0.038874 295772.000000 0 0 1
19.862876 31.374495 24.936287 44.729310 1.006401 0.979433 0.094599 -0.038516 -157646.000000 0 0 1
20.044076 32.858773 24.543547 45.649202 1.023051 1.003142 0.096728 -0.031976 -141045.000000 0 0 1
20.507776 33.203994 23.241497 45.422916 1.017515 1.033670 0.094183 -0.034804 1100040.000000 0 0 1
21.947176 33.145720 23.108997 45.981986 0.985933 1.044232 0.099497 -0.029258 1010200.000000 0 0 1
22.242976 33.242496 21.550387 45.433828 0.981102 1.076600 0.101908 -0.029264 -67147.200000 0 0 1
22.157776 -33.071985 21.019187 45.016991 -0.980499 1.084995 0.098207 -0.021089 188371.000000 0 0 1
22.387076 -33.078775 19.627187 44.504078 -0.975824 1.114062 0.107802 -0.023913 -130845.000000 0 0 1
22.164076 -31.690395 19.025487 43.098684 -0.960477 1.113593 0.110412 -0.017751 132073.000000 0 0 1
22.912076 -30.624085 19.639687 42.994361 -0.928466 1.096405 0.104518 -0.009468 239755.000000 0 0 1
22.624576 -29.331035 19.098787 41.676669 -0.913769 1.094759 0.107353 -0.017311 -136422.000000 0 0 1
23.121976 -28.917485 17.710687 41.042845 -0.896309 1.124623 0.096141 -0.020345 4785.200000 0 0 1
22.577176 -29.631115 16.553187 40.764443 -0.919696 1.152648 0.101801 -0.024099 269383.000000 0 0 1
22.997776 -29.019905 15.354187 40.084955 -0.900656 1.177710 0.099901 -0.018260 -114125.000000 0 0 1
22.634676 -29.692395 13.981387 39.867857 -0.919466 1.212485 0.105921 -0.028544 -178260.000000 0 0 1
23.274776 -30.976705 13.652487 41.081162 -0.926423 1.232024 0.093070 -0.023513 440187.000000 0 0 1
23.281576 -31.292345 12.255787 40.883333 -0.931145 1.266340 0.085918 -0.024990 171578.000000 0 0 1
21.910876 -31.634875 11.591487 40.189730 -0.965042 1.278221 0.093872 -0.017358 523849.000000 0 0 1
21.269276 -32.836775 12.062187 40.940594 -0.996020 1.271732 0.101522 -0.030441 -356658.000000 0 0 1
19.974776 -32.888295 11.536287 40.171103 -1.024988 1.279516 0.092175 -0.028304 117970.000000 0 0 1
18.919876 -33.564875 12.483587 40.501882 -1.057510 1.257472 0.078718 -0.024389 215960.000000 0 0 1
18.676876 -32.716895 13.607187 40.054668 -1.052076 1.224182 0.076478 -0.019481 261893.000000 0 0 1
19.471176 -33.161845 14.723387 41.177819 -1.039874 1.205146 0.055392 -0.018287 -475820.000000 0 0 1
19.276576 -32.158845 15.925687 40.735798 -1.030805 1.169132 0.060665 -0.019694 125256.000000 0 0 1
17.941676 -31.870785 16.308187 40.045070 -1.058065 1.151360 0.084245 -0.034544 202711.000000 0 0 1
17.136076 -32.945295 16.770687 40.746699 -1.091169 1.146605 0.074409 -0.026763 -990811.000000 0 0 1
17.583176 -33.648315 18.083387 42.052183 -1.089266 1.126279 0.051314 -0.023474 -2738.180000 0 0 1
18.568576 32.992266 17.797087 41.833216 1.058167 1.131360 0.049771 -0.026997 310286.000000 0 0 1
19.140376 32.491224 18.950487 42.203727 1.038435 1.105124 0.043791 -0.021494 186459.000000 0 0 1
19.981576 31.191915 18.704887 41.497852 1.001057 1.103198 0.074646 -0.030932 -30664.600000 0 0 1
19.186476 30.060575 18.584487 40.213706 1.002718 1.090386 0.056320 -0.033414 -474431.000000 0 0 1
19.976476 28.945315 18.291487 39.641763 0.966715 1.091202 0.063114 -0.036085 -228271.000000 0 0 1
19.283976 27.598525 18.247487 38.295184 0.960922 1.074132 0.070678 -0.039930 -108072.000000 0 0 1
18.687976 27.153485 19.446987 38.271889 0.968010 1.037787 0.080557 -0.049141 -114073.000000 0 0 1
18.205476 25.859425 19.272487 37.034821 0.957379 1.023491 0.091664 -0.051937 -389976.000000 0 0 1
17.747576 25.144905 20.572387 37.019803 0.956180 0.981576 0.106659 -0.049546 366762.000000 0 0 1
16.446176 25.329955 21.130387 36.858874 0.994929 0.960295 0.107710 -0.046099 191863.000000 0 0 1
15.619576 24.271085 20.680587 35.506949 0.998971 0.949072 0.099985 -0.046415 -328037.000000 0 0 1
14.213676 24.407195 21.306387 35.379399 1.043451 0.924510 0.108176 -0.052464 -134473.000000 0 0 1
13.566776 25.568165 20.888487 35.694781 1.082960 0.945673 0.108895 -0.048557 124323.000000 0 0 1
12.325776 25.785365 21.576387 35.809919 1.124891 0.924135 0.105869 -0.047777 383062.000000 0 0 1
11.703676 27.088835 20.972787 36.202746 1.162971 0.952908 0.092607 -0.048565 -540300.000000 0 0 1
12.305676 28.284625 21.302587 37.486663 1.160431 0.966393 0.086664 -0.044777 -506455.000000 0 0 1
12.026476 29.221425 20.267687 37.540737 1.180361 1.000496 0.086848 -0.044379 -78944.500000 0 0 1
12.535676 30.685525 20.474187 38.960710 1.182966 1.017484 0.079221 -0.045987 -153880.000000 0 0 1
11.865176 31.455775 21.459187 39.884143 1.210097 1.002688 0.077049 -0.044993 -12671.900000 0 0 1
12.239276 31.033055 22.782817 40.396870 1.195131 0.971605 0.076626 -0.036626 294100.000000 0 0 1
11.605176 31.917823 23.938127 41.550710 1.222061 0.956825 0.078414 -0.034024 1111010.000000 0 0 1
10.195176 31.761247 24.143167 41.177797 1.260192 0.944294 0.066975 -0.037303 392580.000000 0 0 1
9.948276 32.067568 25.489147 42.154404 1.269982 0.921455 0.074299 -0.030016 -1341500.000000 0 0 1
8.625176 31.748875 26.120917 42.008178 1.305530 0.899750 0.139810 -0.045900 -1632210.000000 0 0 1
7.500076 32.518144 25.797337 42.180368 1.344118 0.912720 0.116730 -0.039502 269490.000000 0 0 1
6.858376 32.249077 24.515077 41.085634 1.361249 0.931436 0.116704 -0.054480 -65180.100000 0 0 1
5.904276 31.058755 24.554107 40.030125 1.382938 0.910450 0.102727 -0.042597 -526557.000000 0 0 1
6.687976 29.873315 24.575857 39.257060 1.350550 0.894352 0.082855 -0.047170 -335339.000000 0 0 1
5.981176 28.676835 24.415037 38.134360 1.365173 0.875989 0.079976 -0.043289 -815992.000000 0 0 1
6.884676 27.446605 24.556647 37.466569 1.325028 0.856047 0.064548 -0.046174 -273891.000000 0 0 1
7.763176 27.219355 23.417687 36.736198 1.292965 0.879605 0.063173 -0.040160 1011440.000000 0 0 1
8.929976 28.046135 23.319587 37.551742 1.262543 0.900780 0.095270 -0.048618 644093.000000 0 0 1
10.038776 27.856685 24.463437 38.408745 1.224911 0.880295 0.095871 -0.051199 -290643.000000 0 0 1
9.659676 28.208165 25.778967 39.415290 1.240870 0.857890 0.100220 -0.043034 -349016.000000 0 0 1
10.581576 27.726535 26.718917 39.932831 1.206216 0.837804 0.099102 -0.025931 175129.000000 0 0 1
11.837876 28.620425 26.930097 41.042590 1.178607 0.855091 0.083693 -0.028517 9440.090000 0 0 1
11.549676 29.852565 27.531227 42.220127 1.201642 0.860461 0.106733 -0.041857 559562.000000 0 0 1
12.774076 30.574475 27.740867 43.214942 1.175038 0.873787 0.097200 -0.025174 242354.000000 0 0 1
12.681076 31.935538 28.479247 44.629091 1.192807 0.878727 0.078114 -0.027000 -97202.400000 0 0 1
12.352576 31.905526 29.867047 45.415738 1.201407 0.853119 0.107769 -0.046687 439695.000000 0 0 1
11.005776 31.534515 30.137497 44.986903 1.235006 0.836699 0.141440 -0.053152 11730.100000 0 0 1
10.701576 31.335445 31.646303 45.803082 1.241699 0.808034 0.175404 -0.049164 92684.600000 0 0 1
11.166776 30.087745 32.221343 45.477294 1.215414 0.783405 0.154255 -0.054978 299327.000000 0 0 1
11.160176 30.062195 33.599817 46.446020 1.215329 0.762058 0.185466 -0.048149 -66419.400000 0 0 1
11.348876 28.615165 -33.435822 45.448639 1.193221 2.397472 0.142581 -0.048012 275570.000000 0 0 1
12.635976 28.097465 -33.736882 45.687117 1.148176 2.401540 0.160745 -0.042394 390538.000000 0 0 1
12.595576 26.722105 -33.299672 44.515026 1.130327 2.415922 0.154070 -0.045115 88629.200000 0 0 1
13.854476 25.966635 -33.789312 44.809934 1.080671 2.425016 0.155035 -0.049018 124982.000000 0 0 1
13.813376 24.588585 -33.492782 43.785549 1.058954 2.441725 0.120838 -0.043445 8913.360000 0 0 1
13.894076 24.233005 -32.092022 42.546231 1.050200 2.425362 0.111926 -0.041934 -298088.000000 0 0 1
13.758376 22.729945 -31.869772 41.492477 1.026491 2.446642 0.108533 -0.058023 -1274120.000000 0 0 1
14.858976 22.107075 -32.353992 41.908146 0.979016 2.452812 0.089138 -0.037451 -940276.000000 0 0 1
14.799976 20.713075 -32.266342 41.099727 0.950390 2.473612 0.091387 -0.036897 291757.000000 0 0 1
16.118576 20.055475 -32.774832 41.667975 0.893804 2.476033 0.108302 -0.050035 313647.000000 0 0 1
17.288576 20.420075 -32.101042 41.789367 0.868253 2.446763 0.117460 -0.052137 106123.000000 0 0 1
18.454676 20.037675 -32.825222 42.656520 0.826500 2.448892 0.117458 -0.052836 1278580.000000 0 0 1
19.830576 20.085775 -32.042212 42.701211 0.791791 2.419436 0.107160 -0.047176 612905.000000 0 0 1
20.586876 21.245675 -32.327962 43.821174 0.801145 2.400490 0.106739 -0.038256 598028.000000 0 0 1
21.636776 21.416175 -31.329332 43.684433 0.780274 2.370535 0.093855 -0.029939 704072.000000 0 0 1
21.254176 21.853075 -29.888332 42.692028 0.799291 2.346322 0.084299 -0.025402 -93042.200000 0 0 1
20.669876 23.155885 -29.940272 43.126079 0.842062 2.338173 0.066179 -0.014139 212976.000000 0 0 1
20.137276 23.672955 -28.684032 42.292935 0.865928 2.316138 0.067101 -0.007833 -488661.000000 0 0 1
21.148576 24.114305 -27.610002 42.321084 0.850827 2.281535 0.058967 0.000274 445996.000000 0 0 1
22.150776 25.048935 -28.018552 43.625053 0.846723 2.268237 0.065205 0.001101 440548.000000 0 0 1
21.538076 26.332745 -28.256742 44.223813 0.885224 2.263927 0.045501 0.008428 -405095.000000 0 0 1
22.359676 27.373465 -29.039892 45.744694 0.885873 2.258579 0.045381 0.005297 -499816.000000 0 0 1
22.473576 27.223225 -30.441892 46.614100 0.880681 2.282417 0.048274 0.009642 163505.000000 0 0 1
23.155776 26.088655 -30.934432 46.623459 0.844885 2.296277 0.056596 0.007220 191941.000000 0 0 1
24.579176 25.650765 -30.474162 46.805685 0.806729 2.279800 0.086777 -0.005770 18586.200000 0 0 1
25.602076 26.533755 -30.900072 48.107389 0.803266 2.268311 0.079121 0.000253 -762860.000000 0 0 1
26.804576 25.989125 -30.481432 48.197900 0.769953 2.255473 0.093769 -0.022805 -615650.000000 0 0 1
28.032076 26.875075 -30.828192 49.582702 0.764329 2.241775 0.072850 -0.005402 89313.000000 0 0 1
28.129276 28.023495 -29.961012 49.741679 0.783514 2.217216 0.048661 0.001431 -952817.000000 0 0 1
29.308676 28.689545 -30.180312 50.920916 0.774724 2.205191 0.047555 -0.005202 -733495.000000 0 0 1
29.440776 30.111915 -29.536272 51.438099 0.796667 2.182435 0.035550 0.008859 -296636.000000 0 0 1
29.842176 30.145245 -28.205382 50.939521 0.790450 2.157601 0.057356 -0.002601 -695588.000000 0 0 1
28.822176 30.035725 -27.268272 49.763654 0.806014 2.150715 0.046324 -0.006615 -623014.000000 0 0 1
29.188176 30.318285 -25.754612 49.340126 0.804387 2.119968 0.071825 -0.014111 -91840.600000 0 0 1
29.500176 29.237475 -24.839852 48.395336 0.780926 2.109786 0.057990 -0.003602 -491758.000000 0 0 1
28.419676 28.461545 -24.458452 47.073914 0.786134 2.117150 0.064933 -0.003309 -783275.000000 0 0 1
27.727576 28.763175 -23.122752 46.160593 0.803728 2.095457 0.071197 -0.004354 -49508.200000 0 0 1
27.264876 30.100465 -23.194452 46.769585 0.834788 2.089702 0.082120 -0.004055 880968.000000 0 0 1
26.216776 30.460085 -22.252152 45.937940 0.860127 2.076469 0.062223 0.001543 964458.000000 0 0 1
4.001076 -26.152555 -19.676452 32.971617 -1.418984 2.210265 0.109084 -0.020626 -4995.950000 0 0 1
3.776276 -27.213005 -18.724252 33.247639 -1.432910 2.169020 0.124661 -0.009941 165896.000000 0 0 1
3.316976 -26.761085 -17.482652 32.137223 -1.447478 2.145993 0.118042 -0.011360 -338460.000000 0 0 1
3.224276 -27.865675 -16.395952 32.491830 -1.455601 2.099735 0.104181 -0.015355 -110050.000000 0 0 1
4.473376 -28.434245 -16.047252 32.954995 -1.414752 2.079384 0.097200 -0.012991 -92688.000000 0 0 1
4.412076 -29.297535 -14.950252 33.186172 -1.421324 2.038118 0.092014 -0.017279 -278418.000000 0 0 1
5.742676 -29.981715 -14.602952 33.839736 -1.381549 2.016987 0.116480 -0.015172 40558.100000 0 0 1
6.708776 -29.059985 -14.085452 32.983183 -1.343912 2.012024 0.088513 -0.009401 515142.000000 0 0 1
8.060676 -29.496465 -14.257152 33.738440 -1.304034 2.007085 0.083166 -0.011924 849639.000000 0 0 1
8.664376 -30.378995 -13.142252 34.215107 -1.292963 1.965036 0.084380 -0.015467 -546491.000000 0 0 1
8.940576 -29.577645 -11.997552 33.146828 -1.277254 1.941157 0.071636 -0.012167 -153619.000000 0 0 1
8.923676 -30.297465 -10.774752 33.371599 -1.284360 1.899559 0.075866 -0.014912 259342.000000 0 0 1
10.110576 -31.274705 -10.459852 34.492599 -1.258118 1.878897 0.073853 -0.012275 213684.000000 0 0 1
11.269876 -30.539765 -10.123352 34.090609 -1.217276 1.872298 0.051890 -0.011263 -250041.000000 0 0 1
12.357976 -31.445525 -10.212052 35.296269 -1.196342 1.864317 0.054790 -0.011555 151792.000000 0 0 1
13.575976 -31.226285 -9.289952 35.294351 -1.160687 1.837148 0.056538 -0.004355 -464179.000000 0 0 1
14.493676 -30.299395 -9.745552 34.972786 -1.124619 1.853196 0.073022 -0.020223 -153411.000000 0 0 1
15.398476 -30.023735 -8.657152 34.835097 -1.096900 1.821946 0.065682 -0.012865 -345531.000000 0 0 1
16.588176 -29.212555 -9.128452 34.811917 -1.054357 1.836120 0.084852 -0.018900 -626074.000000 0 0 1
16.374576 -27.816755 -9.232752 33.572940 -1.038758 1.849392 0.109424 -0.022384 210415.000000 0 0 1
15.938676 -27.359885 -10.539852 33.372042 -1.043302 1.892126 0.088270 -0.021044 -60113.200000 0 0 1
15.784976 -25.858945 -10.630552 32.106995 -1.022746 1.908263 0.079679 -0.023674 -309492.000000 0 0 1
14.749176 -25.443105 -9.749352 30.982893 -1.045443 1.890904 0.046180 -0.020012 437013.000000 0 0 1
14.082576 -24.227065 -10.036952 29.765920 -1.044259 1.914733 0.020839 -0.014783 520591.000000 0 0 1
13.331176 -24.028665 -11.418552 29.757021 -1.064273 1.964624 0.000775 -0.006744 332834.000000 0 0 1
14.300976 -23.876365 -12.459452 30.493223 -1.031142 1.991713 0.003109 -0.009211 373200.000000 0 0 1
13.676276 -24.026865 -13.707352 30.858099 -1.053326 2.031084 0.009012 -0.008996 -221352.000000 0 0 1
14.396176 -23.137665 -14.787052 31.004166 -1.014216 2.067963 0.014920 -0.009916 485970.000000 0 0 1
15.493676 -23.851265 -15.336752 32.313353 -0.994705 2.065335 0.027451 -0.015266 186736.000000 0 0 1
16.086376 -23.231265 -16.473552 32.708425 -0.965159 2.098613 0.022990 -0.024240 395468.000000 0 0 1
17.279876 -23.973065 -17.195652 34.190531 -0.946244 2.097789 0.043674 -0.030096 1400640.000000 0 0 1
18.514276 -24.077765 -16.480352 34.556029 -0.915286 2.067940 0.092494 -0.040942 -304899.000000 0 0 1
19.390476 -23.049565 -16.684752 34.433326 -0.871403 2.076648 0.103416 -0.050030 -291547.000000 0 0 1
20.818176 -23.435865 -16.170552 35.272127 -0.844481 2.047048 0.106650 -0.045134 406741.000000 0 0 1
21.532376 -24.362265 -16.929852 36.657646 -0.846981 2.050861 0.116546 -0.041505 -619301.000000 0 0 1
22.853376 -24.479665 -16.497852 37.332424 -0.819743 2.028531 0.127586 -0.032128 -338223.000000 0 0 1
23.722876 -25.577865 -17.094352 38.848666 -0.823006 2.026422 0.122790 -0.021578 -328877.000000 0 0 1
23.746876 -25.332745 -18.476952 39.332681 -0.817699 2.059816 0.143708 -0.025976 -181935.000000 0 0 1
24.662676 -26.141505 -19.211352 40.751710 -0.814498 2.061702 0.117437 -0.024284 -553987.000000 0 0 1
25.857576 -25.292415 -19.639152 41.158435 -0.774350 2.068216 0.112252 -0.018954 -543387.000000 0 0 1
25.555576 -24.176165 -20.472452 40.702527 -0.757668 2.097837 0.110071 -0.009747 -276537.000000 0 0 1
26.072376 -23.009865 -19.914152 40.072386 -0.723083 2.090882 0.114875 -0.013895 -525138.000000 0 0 1
25.224976 -21.780765 -20.238752 38.991130 -0.712257 2.116548 0.143746 -0.037614 -431285.000000 0 0 1
25.245176 -21.265565 -21.595152 39.444819 -0.700043 2.150143 0.121906 -0.016991 38189.400000 0 0 1
24.883876 -22.214465 -22.584952 40.283617 -0.728781 2.165965 0.088916 -0.010987 -340016.000000 0 0 1
24.228976 -21.548665 -23.815452 40.231380 -0.726914 2.204287 0.082666 -0.006337 599699.000000 0 0 1
25.111776 -20.809565 -24.701152 40.911932 -0.691984 2.219011 0.062576 0.002672 250064.000000 0 0 1
24.311676 -19.997365 -25.528372 40.529618 -0.688335 2.252182 0.049519 0.001819 -110174.000000 0 0 1
24.913476 -19.297565 -26.745892 41.333038 -0.659050 2.274548 0.058125 0.000524 -436660.000000 0 0 1
23.946476 -18.584565 -27.457362 40.898979 -0.659989 2.306820 0.057561 -0.003185 -306701.000000 0 0 1
24.518676 -18.127765 -28.633692 41.829052 -0.636647 2.324770 0.071457 -0.003053 -341728.000000 0 0 1
23.812876 -17.032965 -29.454972 41.530354 -0.620910 2.359215 0.109270 -0.014088 -630698.000000 0 0 1
22.642776 -17.486965 -30.084882 41.516134 -0.657620 2.381330 0.092179 -0.018524 179411.000000 0 0 1
22.104976 -16.451765 -30.968192 41.452617 -0.639815 2.414446 0.108778 -0.025183 -262199.000000 0 0 1
20.771976 -16.838165 -31.596462 41.392453 -0.681183 2.439262 0.088240 -0.023068 -530252.000000 0 0 1
20.861676 -17.753365 -32.684772 42.646052 -0.705077 2.444045 0.077515 -0.018151 339684.000000 0 0 1
19.675476 -18.524765 -32.818472 42.512861 -0.755284 2.452724 0.077288 -0.023949 214113.000000 0 0 1
19.678776 -19.345265 33.451433 43.364639 -0.776852 0.689760 0.096727 -0.010891 -305214.000000 0 0 1
20.614376 -20.365165 33.522837 44.311094 -0.779317 0.712800 0.088681 -0.004514 -280370.000000 0 0 1
20.769576 -21.105665 32.320129 43.833950 -0.793424 0.741686 0.086804 -0.007648 -202180.000000 0 0 1
21.655376 -22.287365 32.672338 45.090616 -0.799779 0.760353 0.075842 -0.009429 -259188.000000 0 0 1
21.060676 -23.317665 33.474055 45.910543 -0.836212 0.753769 0.080456 -0.014699 22063.800000 0 0 1
20.865776 -22.967265 -32.772362 45.132068 -0.833305 2.383493 0.083502 -0.014032 -218394.000000 0 0 1
19.878676 -23.867065 -32.003002 44.598102 -0.876319 2.371127 0.084918 -0.020521 -362452.000000 0 0 1
20.196276 -25.271075 -31.869352 45.411148 -0.896552 2.348712 0.093771 -0.033700 -289299.000000 0 0 1
21.278576 -25.591625 -31.036962 45.508264 -0.877161 2.321300 0.088334 -0.026623 -65588.900000 0 0 1
21.550576 -27.105255 -30.842462 46.372186 -0.899069 2.298433 0.072805 -0.026665 409447.000000 0 0 1
20.423076 -27.758655 -30.259932 45.861841 -0.936486 2.291357 0.083310 -0.030446 417241.000000 0 0 1
20.659276 -29.163465 -30.244062 46.818977 -0.954458 2.273101 0.078639 -0.022445 505066.000000 0 0 1
19.478376 -29.927705 -29.529422 46.336394 -0.993825 2.261764 0.103135 -0.024415 1348830.000000 0 0 1
18.195576 -30.126235 -30.119022 46.323045 -1.027457 2.278638 0.113906 -0.027042 431390.000000 0 0 1
18.186276 -30.714585 -31.454272 47.576229 -1.036202 2.293126 0.126826 -0.035838 513808.000000 0 0 1
16.716276 -31.112645 -31.886392 47.583322 -1.077770 2.305163 0.161406 -0.048584 929237.000000 0 0 1
15.921176 -30.094665 -32.370292 46.978809 -1.084190 2.330960 0.170911 -0.043814 -869884.000000 0 0 1
14.802576 -30.615235 -33.009962 47.392683 -1.120433 2.341333 0.128780 -0.029445 101584.000000 0 0 1
13.752176 -29.612645 -33.638612 46.878431 -1.136030 2.371105 0.127812 -0.025696 370516.000000 0 0 1
12.905976 -29.103025 -32.644842 45.598640 -1.153396 2.368733 0.134365 -0.034810 -591518.000000 0 0 1
12.114376 -28.135615 -33.267592 45.222822 -1.164217 2.397403 0.117298 -0.035376 -125659.000000 0 0 1
11.047876 -27.439655 -32.380522 43.857592 -1.188030 2.401358 0.125802 -0.037568 320801.000000 0 0 1
9.973276 -28.301955 -32.067632 43.918104 -1.231995 2.389365 0.129947 -0.040299 -109958.000000 0 0 1
9.082776 -27.697045 -31.151652 42.662027 -1.253914 2.389405 0.098899 -0.039478 518309.000000 0 0 1
8.012076 -28.702105 -30.558632 42.682949 -1.298580 2.368773 0.093119 -0.038492 1124050.000000 0 0 1
6.851276 -28.903895 -31.381392 43.210726 -1.338055 2.383634 0.082204 -0.032427 556821.000000 0 0 1
6.980276 -30.168845 -32.059542 44.572387 -1.343424 2.373546 0.099893 -0.032345 -97265.700000 0 0 1
5.624376 -30.703215 -32.544602 45.094036 -1.389620 2.377059 0.128724 -0.035884 21089.200000 0 0 1
4.740276 -30.987485 -31.482372 44.427854 -1.418999 2.358334 0.144482 -0.052628 -593621.000000 0 0 1
3.698176 -31.782185 -31.908052 45.187471 -1.454957 2.354809 0.177613 -0.063165 -947053.000000 0 0 1
2.780476 -32.337175 -30.760872 44.717504 -1.485023 2.329379 0.162198 -0.063653 1027550.000000 0 0 1
1.776776 -31.486045 -30.160502 43.636955 -1.514426 2.333901 0.130266 -0.052667 1012420.000000 0 0 1
0.665876 -31.195535 -31.021112 43.999025 -1.549454 2.353277 0.107697 -0.011529 237493.000000 0 0 1
-0.243524 -30.040875 -30.490022 42.803679 1.562690 2.363598 0.074809 0.000305 239459.000000 0 0 1
-1.113224 -30.367995 -29.409412 42.289099 1.534155 2.339824 0.052508 -0.002085 242146.000000 0 0 1
-1.880224 -29.265765 -29.007322 41.248575 1.506638 2.350730 0.113828 -0.013007 61985.000000 0 0 1
-2.650824 -29.425895 -27.716332 40.510557 1.480954 2.324269 0.117426 -0.019266 123918.000000 0 0 1
-1.740124 -29.265895 -26.640902 39.613865 1.511407 2.308398 0.090738 -0.016343 266901.000000 0 0 1
-2.389324 -29.236565 -25.423742 38.818195 1.489254 2.284905 0.110625 -0.025176 39147.400000 0 0 1
-1.395024 -29.756815 -24.343752 38.471189 1.523950 2.255933 0.064855 -0.022176 598060.000000 0 0 1
-1.967324 -29.940115 -23.041452 37.831063 1.505182 2.225673 0.105062 -0.032430 238111.000000 0 0 1
-0.916924 -30.397325 -22.205152 37.655104 1.540641 2.201482 0.086476 -0.024654 519860.000000 0 0 1
-1.318724 -30.485355 -20.659352 36.849759 1.527566 2.165952 0.049935 -0.014882 146912.000000 0 0 1
-1.330124 -29.318245 -19.895652 35.456532 1.525459 2.166544 0.030978 -0.003913 415921.000000 0 0 1
-0.036624 -28.860035 -19.482552 34.820580 1.569527 2.164594 0.069650 -0.014514 218323.000000 0 0 1
0.063476 -27.426355 -18.944452 33.333185 -1.568482 2.175278 0.079105 -0.016986 -308430.000000 0 0 1
-0.691024 -27.201925 -17.773952 32.501317 1.545398 2.149416 0.070671 -0.017327 15726.500000 0 0 1
-0.706424 -25.891535 -17.301952 31.148486 1.543519 2.159721 0.086491 -0.023038 33561.100000 0 0 1
-1.729424 -25.807835 -16.145552 30.491213 1.503885 2.128825 0.079618 -0.019921 -140570.000000 0 0 1
-1.782324 -24.519365 -15.550552 29.089441 1.498233 2.134804 0.082667 -0.017410 -6662.180000 0 0 1
-2.588824 -24.603465 -14.402352 28.626216 1.465960 2.097999 0.082337 -0.015986 -195463.000000 0 0 1
-2.282224 -23.536565 -13.374952 27.167403 1.474133 2.085545 0.086922 -0.015830 -273312.000000 0 0 1
-1.090124 -23.839765 -12.707352 27.037003 1.525101 2.060085 0.095611 -0.020590 -436977.000000 0 0 1
-0.770124 -22.695565 -11.907852 25.641347 1.536877 2.053754 0.103462 -0.022856 -834351.000000 0 0 1
0.387976 -22.737765 -10.968252 25.247951 -1.553735 2.020192 0.107970 -0.028082 -777752.000000 0 0 1
0.555676 -21.434865 -10.497452 23.873808 -1.544878 2.026067 0.085519 -0.017060 -388136.000000 0 1 0
1.838376 -21.422065 -9.931452 23.683712 -1.485189 2.003511 0.063520 -0.010785 -172673.000000 0 1 0
2.215176 -19.990765 -9.652352 22.309316 -1.460437 2.018238 0.064212 -0.009445 -449543.000000 0 1 0
2.752776 -19.310265 -10.768552 22.280615 -1.429195 2.075234 0.061803 0.002174 177977.000000 0 1 0
3.528976 -18.140965 -10.513552 21.262245 -1.378665 2.088022 0.041476 0.001541 1110590.000000 0 1 0
5.043476 -18.396165 -10.186852 21.624696 -1.303212 2.061305 0.061870 -0.014812 450267.000000 0 1 0
5.168476 -19.060865 -8.928952 21.673853 -1.306007 1.995410 0.054511 -0.004211 -504642.000000 0 1 0
6.447476 -19.582065 -8.757852 22.399267 -1.252722 1.972501 0.049640 0.003139 -493899.000000 0 1 0
6.383076 -20.684865 -7.642752 22.956893 -1.271480 1.910192 0.042356 -0.004339 -216499.000000 0 1 0
5.619676 -21.777465 -8.048252 23.887509 -1.318256 1.914443 0.079412 -0.022670 -37902.900000 0 1 0
5.517976 -22.672765 -6.958352 24.349969 -1.332063 1.860600 0.076949 -0.021325 -7916.350000 0 1 0
4.463376 -23.738765 -7.320052 25.239529 -1.384946 1.865048 0.086913 -0.022351 159001.000000 0 0 1
4.871676 -24.579665 -8.382252 26.422629 -1.375133 1.893612 0.078366 -0.024987 -673754.000000 0 0 1
3.756176 -25.140065 -8.965952 26.954035 -1.422483 1.909896 0.077468 -0.024300 -617570.000000 0 0 1
4.045176 -25.975775 -10.245652 28.214849 -1.416308 1.942421 0.067438 -0.025994 -124296.000000 0 0 1
4.702476 -27.189785 -9.983752 29.344045 -1.399540 1.917959 0.071476 -0.030560 -183398.000000 0 0 1
5.031276 -27.917265 -11.137352 30.475039 -1.392489 1.944921 0.090310 -0.024244 139453.000000 0 0 1
4.972476 -29.449555 -10.994452 31.825772 -1.403527 1.923523 0.101005 -0.028216 -147849.000000 0 0 1
3.684276 -29.968095 -11.157852 32.189412 -1.448470 1.924773 0.111217 -0.024027 -339785.000000 0 0 1
3.775976 -31.386205 -11.214452 33.542746 -1.451065 1.911694 0.109426 -0.019382 595239.000000 0 0 1
2.437976 -32.110175 -11.602752 34.229095 -1.495016 1.916622 0.095196 -0.023639 388500.000000 0 0 1
2.088676 -31.790425 -12.933752 34.384235 -1.505189 1.956438 0.092941 -0.023513 355202.000000 0 0 1
1.285176 -32.843625 -13.468552 35.521223 -1.531686 1.959695 0.083978 -0.020102 -50158.500000 0 0 1
0.822276 -32.599205 -14.906152 35.854953 -1.545578 1.999547 0.080384 -0.015340 368364.000000 0 0 1
-0.166624 -31.565575 -15.044752 34.967955 1.565518 2.015559 0.076138 -0.017314 416146.000000 0 0 1
-0.647724 -31.539285 -16.381252 35.545625 1.550262 2.049751 0.054400 -0.017773 218571.000000 0 0 1
-1.860524 -30.635535 -16.712252 34.947059 1.510140 2.069419 0.056570 -0.007415 240509.000000 0 0 1
-3.077424 -31.077535 -16.153152 35.159750 1.472094 2.048140 0.057228 -0.011655 91184.900000 0 0 1
-4.186024 -30.710935 -16.988452 35.345323 1.435327 2.072183 0.066291 -0.003264 1291560.000000 0 0 1
-5.531924 -30.612135 -16.185652 35.066798 1.392016 2.050556 0.064220 -0.006478 -522350.000000 0 0 1
-5.651624 -29.335495 -15.537052 33.673611 1.380473 2.050370 0.060691 -0.003275 869624.000000 0 0 1
-7.000424 -28.986735 -15.163252 33.453863 1.333829 2.041214 0.075822 -0.011522 1253030.000000 0 0 1
-7.765624 -29.995315 -14.219152 34.091174 1.317464 2.001040 0.065444 -0.021066 -370807.000000 0 0 1
-8.066324 -31.271055 -14.743652 35.500982 1.318351 1.999072 0.066517 -0.020628 -504858.000000 0 0 1
-8.843324 -31.936915 -13.787452 35.892405 1.300665 1.965065 0.069425 -0.010668 110470.000000 0 0 1
-9.090024 -33.435305 -14.128952 37.418918 1.305343 1.957987 0.104334 -0.025123 140678.000000 0 0 1
-7.928124 33.501553 -13.776752 37.081102 -1.338422 1.951453 0.088630 -0.021776 248711.000000 0 0 1
-8.252824 32.131203 -13.898952 35.968099 -1.319383 1.967548 0.116455 -0.036654 89806.400000 0 0 1
-8.430324 -21.843365 -3.770252 23.715349 1.202465 1.730453 0.140017 -0.033035 -76122.500000 0 1 0
-8.037824 -20.757065 -4.576652 22.724615 1.201344 1.773579 0.113773 -0.035223 -114742.000000 0 1 0
-6.723324 -21.063465 -5.002052 22.669212 1.261825 1.793281 0.118144 -0.030795 196003.000000 0 1 0
-6.368824 -19.901865 -5.929852 21.721172 1.261083 1.847305 0.105745 -0.038723 -271599.000000 0 1 0
-7.203424 -19.908965 -7.054252 22.316332 1.223632 1.892415 0.104741 -0.044370 -167097.000000 0 1 0
-7.144524 -18.708065 -7.852852 21.510537 1.205994 1.944504 0.070886 -0.049719 -445894.000000 0 1 0
-8.157824 -18.840565 -8.986652 22.411535 1.162175 1.983386 0.082023 -0.056095 -119046.000000 0 1 0
-7.740124 -19.757465 -10.001052 23.458218 1.197416 2.011233 0.113261 -0.034559 -560008.000000 0 1 0
-8.615224 -19.933665 -11.058052 24.369112 1.162848 2.041791 0.109517 -0.033477 -219308.000000 0 1 0
-8.062824 -20.939265 -12.145552 25.514239 1.203237 2.066932 0.103183 -0.021961 -444385.000000 0 0 1
-6.972724 -20.570865 -12.907752 25.266369 1.243989 2.106989 0.095109 -0.006294 -695694.000000 0 0 1
-6.750324 -21.550465 -13.942152 26.540027 1.267243 2.123894 0.079296 -0.004202 847374.000000 0 0 1
-5.649224 -21.167165 -15.024652 26.565067 1.309989 2.171932 0.072862 0.009657 473954.000000 0 0 1
-4.305424 -21.158565 -14.605152 26.067835 1.370053 2.165514 0.061317 0.001174 -142536.000000 0 0 1
-3.417324 -20.559865 -15.512852 25.981430 1.406089 2.210646 0.065351 0.006341 79995.900000 0 0 1
-3.282324 -19.011165 -15.494752 24.744401 1.399829 2.247456 0.071118 0.008962 -700684.000000 0 1 0
-4.311524 -18.341265 -16.180952 24.835749 1.339916 2.280381 0.074568 0.004093 -99923.700000 0 1 0
-4.098724 -18.176165 -17.550652 25.596834 1.349006 2.326302 0.117965 -0.017578 -685156.000000 0 0 1
-5.418024 -17.796965 -18.240252 26.053670 1.275275 2.346338 0.110553 -0.016142 -514139.000000 0 0 1
-6.262624 -18.876865 -18.083952 26.880956 1.250461 2.308705 0.081284 -0.006373 -1190180.000000 0 0 1
-7.557824 -18.598865 -18.522652 27.315328 1.184820 2.315977 0.076785 -0.016634 -517840.000000 0 0 1
-8.545924 -19.652965 -18.025752 28.003564 1.160619 2.270113 0.102628 -0.019034 -239027.000000 0 0 1
-8.327324 -20.867265 -18.685552 29.222199 1.191099 2.264553 0.114846 -0.011732 356667.000000 0 0 1
-9.277324 -21.860865 -18.310052 29.987067 1.169451 2.227612 0.136220 -0.009859 171300.000000 0 0 1
-8.945324 -23.206565 -18.908052 31.242246 1.202882 2.220823 0.153165 -0.023108 -592307.000000 0 0 1
-8.957824 -23.092065 -20.328352 32.042596 1.200749 2.258050 0.152333 -0.026693 585901.000000 0 0 1
-8.211024 -24.123565 -21.038852 33.045432 1.242723 2.260961 0.178486 -0.049358 -241982.000000 0 0 1
-6.695024 -24.114665 -20.938552 32.630712 1.299984 2.267486 0.178498 -0.034283 -995065.000000 0 0 1
-6.005024 -22.986465 -21.512252 32.050193 1.315266 2.306630 0.213045 -0.055832 274654.000000 0 0 1
-6.069524 -21.701965 -20.946552 30.766417 1.298088 2.319685 0.176996 -0.052117 -470332.000000 0 0 1
-5.098424 -21.529865 -19.734652 29.647690 1.338273 2.299146 0.172913 -0.032672 -897976.000000 0 0 1
-3.784224 -21.848965 -19.949652 29.827609 1.399298 2.303433 0.148889 -0.034426 -1275270.000000 0 0 1
-3.069924 -21.898965 -18.738652 28.984930 1.431518 2.273779 0.087872 -0.029177 -147933.000000 0 0 1
-1.679724 -22.516865 -18.892352 29.440646 1.496336 2.267522 0.110906 -0.027973 85186.500000 0 0 1
-0.695324 -21.746665 -19.578052 29.269456 1.538833 2.303511 0.140501 -0.039913 -562262.000000 0 0 1
0.559076 -22.317265 -19.489452 29.634635 -1.545750 2.288502 0.104161 -0.038920 -157322.000000 0 0 1
1.710576 -21.560065 -20.216552 29.605260 -1.491622 2.322481 0.097452 -0.037059 450003.000000 0 0 1
1.606676 -21.670865 -21.569352 30.617719 -1.496792 2.352476 0.089969 -0.047675 -462227.000000 0 0 1
2.650276 -21.014665 -22.227252 30.703271 -1.445343 2.380289 0.081604 -0.041316 -670068.000000 0 0 1
2.491576 -21.183365 -23.779752 31.944006 -1.453715 2.410462 0.125601 -0.053172 -19089.100000 0 0 1
1.653176 -20.306565 -24.482052 31.850596 -1.489565 2.447529 0.142727 -0.055342 874671.000000 0 0 1
0.257376 -20.257165 -24.088552 31.475027 -1.558092 2.442339 0.169488 -0.053564 829291.000000 0 0 1
-0.567724 -19.181465 -24.842352 31.390976 1.541207 2.483868 0.195887 -0.058728 83845.500000 0 0 1
-0.293224 -17.867565 -24.419752 30.259877 1.554387 2.509852 0.132502 -0.042601 -128802.000000 0 0 1
-1.159124 -16.998065 -25.107912 30.342792 1.502710 2.545393 0.169755 -0.049740 213230.000000 0 0 1
-0.742324 -15.494365 -24.904152 29.340129 1.522924 2.584524 0.145238 -0.030563 1285350.000000 0 0 1
0.566076 -15.178965 -25.457402 29.644573 -1.533520 2.603630 0.135363 -0.031164 686792.000000 0 0 1
1.089676 -13.935465 -25.007152 28.648599 -1.492761 2.631896 0.111993 -0.029650 139689.000000 0 0 1
0.336076 -12.639765 -25.363742 28.340713 -1.544214 2.679133 0.123052 -0.028215 -85028.400000 0 0 1
1.085576 -11.460865 -25.035052 27.555103 -1.476358 2.710584 0.093252 -0.020628 40739.800000 0 0 1
0.614976 -10.246165 -25.596632 27.578065 -1.510848 2.760213 0.092401 -0.023077 -193071.000000 0 0 1
1.582976 -9.056165 -25.288352 26.907632 -1.397749 2.792902 0.088875 -0.024167 536969.000000 0 0 1
2.871076 -9.109965 -25.871602 27.578512 -1.265492 2.787921 0.087496 -0.027544 -267831.000000 0 0 1
2.997376 -9.032065 -27.286892 28.898736 -1.250373 2.806028 0.102327 -0.034825 -406603.000000 0 0 1
4.426976 -8.790365 -27.840752 29.529241 -1.104259 2.801788 0.124883 -0.036328 365484.000000 0 0 1
4.909076 -7.507465 -27.401482 28.832313 -0.991690 2.825232 0.115697 -0.042480 168430.000000 0 0 1
5.997176 -7.022965 -28.177882 29.652676 -0.864021 2.824880 0.141402 -0.042746 -406658.000000 0 0 1
7.334576 -6.802265 -27.429972 29.197092 -0.747762 2.791894 0.154877 -0.039011 28099.100000 0 0 1
7.952976 -8.007165 -27.124832 29.378921 -0.788793 2.747318 0.118768 -0.039558 49733.100000 0 0 1
8.629076 -8.707165 -28.151802 30.705042 -0.789903 2.730904 0.117315 -0.045096 -792207.000000 0 0 1
9.018676 -10.140665 -27.769942 30.908563 -0.843892 2.687033 0.119967 -0.034939 304412.000000 0 0 1
7.938276 -11.092565 -27.662752 30.842974 -0.949651 2.683483 0.121887 -0.041829 410146.000000 0 0 1
8.182176 -12.232965 -26.840142 30.610238 -0.981275 2.640037 0.121457 -0.035690 386780.000000 0 0 1
9.284276 -13.292065 -27.296142 31.748325 -0.961089 2.605608 0.111333 -0.036384 562091.000000 0 0 1
9.046076 -13.878065 -28.520852 32.982892 -0.993139 2.615382 0.133234 -0.047603 -200724.000000 0 0 1
10.100276 -14.757865 -28.791162 33.893084 -0.970617 2.585777 0.114767 -0.047565 211846.000000 0 0 1
9.625676 -15.587665 -29.996202 35.148272 -1.017595 2.593306 0.121392 -0.049519 206665.000000 0 0 1
9.307876 -14.833565 -31.179572 35.760829 -1.010410 2.629849 0.145978 -0.055764 271804.000000 0 0 1
8.663376 -15.628865 -32.161802 36.792622 -1.064643 2.634453 0.163340 -0.051849 -916217.000000 0 0 1
7.483376 -14.884865 -32.718102 36.715587 -1.104951 2.670610 0.164654 -0.051169 -951906.000000 0 0 1
7.793676 -13.765865 -33.487212 37.035574 -1.055631 2.700277 0.166910 -0.046892 -234821.000000 0 0 1
6.640376 -13.049965 33.747057 36.786683 -1.100100 0.409370 0.204410 -0.062298 -105644.000000 0 0 1
6.789576 -11.846165 32.826899 35.553274 -1.050357 0.394170 0.210156 -0.050820 -169401.000000 0 0 1
7.302976 -12.107665 31.545958 34.569878 -1.028049 0.421375 0.194886 -0.041231 231204.000000 0 0 1
7.255876 -10.955365 30.698977 33.393038 -0.985814 0.404441 0.195641 -0.040852 -106998.000000 0 0 1
7.802176 -11.279565 29.288537 32.340701 -0.965657 0.437946 0.188538 -0.031976 416460.000000 0 0 1
6.883876 -11.961065 28.402627 31.577905 -1.048569 0.452296 0.181806 -0.030402 830019.000000 0 0 1
7.304276 -11.743765 27.035727 30.367730 -1.014378 0.472841 0.139043 -0.028938 150894.000000 0 0 1
6.546176 -12.583365 25.947457 29.571338 -1.091100 0.500270 0.119167 -0.043601 -413257.000000 0 0 1
6.982376 -13.917965 25.909517 30.228569 -1.105805 0.541144 0.113621 -0.035740 -206874.000000 0 0 1
6.328476 -14.739265 25.010607 29.712388 -1.165237 0.570267 0.075414 -0.031955 582188.000000 0 0 1
4.783476 -15.021965 25.148467 29.681416 -1.262516 0.559953 0.089483 -0.036595 861533.000000 0 0 1
4.034076 -13.844465 24.855117 28.735341 -1.287261 0.525712 0.076976 -0.042653 84142.700000 0 0 1
2.642876 -14.045965 25.072957 28.860477 -1.384812 0.518094 0.083883 -0.044304 562340.000000 0 0 1
1.759176 -12.803865 24.829097 27.991387 -1.434257 0.479932 0.105034 -0.039335 -194053.000000 0 0 1
1.861276 -12.212865 23.530737 26.576569 -1.419557 0.483455 0.054367 -0.029581 265568.000000 0 0 1
0.923976 -11.151065 23.296547 25.844324 -1.488125 0.447762 0.057422 -0.023136 120825.000000 0 0 1
-0.487424 -11.543565 22.880497 25.632180 1.528597 0.467612 0.085623 -0.018307 -680402.000000 0 0 1
-0.574624 -12.111765 21.562787 24.738206 1.523388 0.512260 0.071865 -0.023129 748559.000000 0 1 0
-1.738824 -12.986165 21.448787 25.133931 1.437690 0.548362 0.096982 -0.026600 1154600.000000 0 0 1
-2.018424 -13.629465 20.086887 24.358148 1.423772 0.601218 0.116543 -0.031775 416953.000000 0 1 0
-1.156024 -14.772565 19.968587 24.865831 1.492701 0.638395 0.132731 -0.035075 -21854.500000 0 1 0
-1.260024 -15.556865 18.771887 24.412854 1.489978 0.693623 0.132901 -0.033543 -55297.700000 0 1 0
-2.489624 -16.478965 18.670587 25.026892 1.420851 0.728730 0.118177 -0.038942 27103.400000 0 0 1
-2.311424 -17.335265 17.561487 24.784268 1.438242 0.783321 0.089105 -0.039639 -317047.000000 0 1 0
-3.338424 -18.314665 17.508687 25.556333 1.390494 0.816053 0.103020 -0.033532 -19713.800000 0 0 1
-3.032524 -19.597565 16.769187 25.970491 1.417274 0.868855 0.098608 -0.041010 -408284.000000 0 0 1
-2.227924 -20.466865 17.485987 27.011404 1.462368 0.866686 0.103454 -0.039792 -517550.000000 0 0 1
-2.202624 -21.792865 17.014987 27.736083 1.470068 0.910361 0.093630 -0.055526 -459235.000000 0 0 1
-1.133724 -22.652065 17.658887 28.744350 1.520789 0.909243 0.116031 -0.043170 -40722.500000 0 0 1
0.139476 -22.488365 17.054187 28.223949 -1.564594 0.921978 0.117376 -0.047934 -198914.000000 0 0 1
1.142076 -23.172465 17.777687 29.228644 -1.521550 0.916970 0.149074 -0.033314 433058.000000 0 0 1
2.516176 -23.214965 17.051887 28.914228 -1.462832 0.940059 0.147930 -0.040782 440778.000000 0 0 1
3.217576 -21.967265 17.104887 28.026607 -1.425359 0.914346 0.142024 -0.050072 -141531.000000 0 0 1
4.287976 -21.927865 16.187487 27.590809 -1.377684 0.943820 0.142904 -0.042306 627671.000000 0 0 1
5.371376 -20.834465 16.570687 27.157214 -1.318479 0.914513 0.123030 -0.029330 170951.000000 0 0 1
6.276676 -21.237965 17.602287 28.289368 -1.283436 0.899218 0.129559 -0.016959 58309.000000 0 0 1
7.143776 -20.270965 18.104787 28.102115 -1.231972 0.870754 0.127189 -0.018449 909987.000000 0 0 1
8.093776 -19.347265 17.227387 27.140537 -1.174578 0.883115 0.108581 -0.016476 177282.000000 0 0 1
7.300376 -18.488265 16.428087 25.787468 -1.194724 0.880122 0.094889 -0.012875 572717.000000 0 0 1
8.122276 -17.673865 15.563987 24.911334 -1.140017 0.895953 0.120029 -0.023583 28179.200000 0 1 0
7.263776 -16.691165 14.843087 23.487756 -1.160329 0.886730 0.071805 -0.011223 -478483.000000 0 1 0
6.378176 -17.257965 13.914287 23.067854 -1.216787 0.923302 0.077121 -0.015420 377667.000000 0 1 0
5.613276 -16.316765 13.150887 21.695426 -1.239460 0.919573 0.046027 -0.015751 224129.000000 0 1 0
5.976776 -16.571665 11.683487 21.138728 -1.224655 0.985189 0.040337 -0.017145 -458662.000000 0 1 0
7.246376 -16.099265 11.369087 20.998868 -1.147854 0.998678 0.044635 -0.017169 -735247.000000 0 1 0
7.755876 -16.501465 10.160887 20.873322 -1.131426 1.062387 0.040841 -0.013288 -11557.100000 0 1 0
9.166976 -15.875765 10.121487 20.940818 -1.047146 1.066333 0.043889 -0.014785 -45948.500000 0 1 0
10.077076 -16.291965 9.154987 21.231801 -1.016863 1.124983 0.058832 -0.012949 -767231.000000 0 1 0
11.370376 -15.842765 9.441587 21.666154 -0.948289 1.119896 0.056684 0.001535 -76959.500000 0 1 0
12.459176 -16.478865 8.553987 22.359668 -0.923422 1.178227 0.073958 -0.013909 20562.900000 0 1 0
12.864376 -17.785465 8.973287 23.713600 -0.944598 1.182726 0.084279 -0.022176 -13486.200000 0 1 0
13.825976 -18.391765 8.141487 24.406934 -0.926177 1.230706 0.099805 -0.019384 82569.500000 0 1 0
14.380676 -19.719365 8.706887 25.912682 -0.940697 1.228120 0.091701 -0.016801 -280135.000000 0 0 1
13.416576 -20.748565 8.755487 26.213852 -0.996796 1.230250 0.086808 -0.020452 -160539.000000 0 0 1
13.932176 -22.011565 9.073887 27.585321 -1.006502 1.235617 0.059508 -0.011642 260696.000000 0 0 1
12.904676 -22.901065 9.867587 28.077726 -1.057650 1.211689 0.068462 -0.020400 509382.000000 0 0 1
12.869176 -22.468165 11.237287 28.226065 -1.050637 1.161333 0.089756 -0.024316 -717496.000000 0 0 1
12.041076 -23.115665 12.126187 28.746581 -1.090565 1.135333 0.121740 -0.030985 -643521.000000 0 0 1
12.461176 -24.536665 12.550987 30.246588 -1.100881 1.142902 0.096377 -0.029366 61290.300000 0 0 1
13.484376 -24.570465 13.527287 31.121112 -1.068872 1.121129 0.073849 -0.028966 -53286.300000 0 0 1
13.641976 -25.808305 14.225187 32.473498 -1.084540 1.117362 0.075263 -0.042255 314839.000000 0 0 1
14.935376 -25.962085 15.076387 33.531966 -1.048754 1.104465 0.059296 -0.034840 206112.000000 0 0 1
14.732476 -25.441515 16.400087 33.664215 -1.045907 1.061954 0.059877 -0.027278 -93926.700000 0 0 1
15.795176 -25.736265 17.236987 34.770054 -1.020341 1.052107 0.066642 -0.031068 -865220.000000 0 0 1
15.574576 -25.034625 18.616587 34.869430 -1.014270 1.007597 0.082240 -0.025973 64262.900000 0 0 1
15.989376 -23.684765 18.736387 34.171339 -0.976984 0.990458 0.082810 -0.030570 -714254.000000 0 0 1
17.364476 -23.645765 18.960987 34.930878 -0.937381 0.997012 0.094345 -0.033893 -769092.000000 0 0 1
17.880176 -22.238665 19.305587 34.452353 -0.893613 0.975981 0.110815 -0.038315 -198538.000000 0 0 1
18.001276 -21.388965 18.159887 33.336395 -0.871190 0.994709 0.088799 -0.032615 246058.000000 0 0 1
16.806176 -20.685865 17.853787 32.079749 -0.888511 0.980576 0.097306 -0.028543 -313813.000000 0 0 1
16.975076 -19.696365 16.717487 30.912366 -0.859470 0.999405 0.082819 -0.029064 318653.000000 0 0 1
17.876376 -18.661665 17.074487 30.973548 -0.806887 0.986922 0.083791 -0.038283 729475.000000 0 0 1
19.275176 -18.871165 16.871787 31.816827 -0.774807 1.011867 0.079929 -0.034077 533633.000000 0 0 1
20.124576 -17.556765 16.959187 31.636254 -0.717358 1.005024 0.090292 -0.034347 -8685.170000 0 0 1
20.361376 -17.124265 18.250587 32.263137 -0.699256 0.969540 0.087702 -0.028832 141176.000000 0 0 1
20.798776 -15.782665 18.328787 31.900251 -0.649126 0.958723 0.078346 -0.029793 -204440.000000 0 0 1
21.281776 -15.464165 19.782787 32.915240 -0.628382 0.926017 0.066745 -0.022664 395201.000000 0 0 1
22.406476 -16.324165 20.086887 34.234654 -0.629629 0.943768 0.059046 -0.023201 485969.000000 0 0 1
22.643376 -16.471465 21.488487 35.295704 -0.628899 0.916233 0.039902 -0.012455 -92562.800000 0 0 1
35.737656 -1.286865 -7.959452 36.635897 -0.035993 1.789801 0.170466 -0.025773 -364249.000000 0 0 1
37.017596 -1.123165 -8.501952 37.997988 -0.030332 1.796454 0.182432 -0.024828 102393.000000 0 0 1
-37.754934 -2.287965 -8.184552 38.699570 0.060526 1.783895 0.208525 -0.035812 -406164.000000 0 0 1
-36.426324 -2.297165 -8.892952 37.566457 0.062980 1.809791 0.194894 -0.041520 -783185.000000 0 0 1
-35.472062 -3.280865 -8.518752 36.627864 0.092229 1.805522 0.225562 -0.034535 -168896.000000 0 0 1
-34.231361 -2.836265 -8.995452 35.507022 0.082667 1.826931 0.264236 -0.041476 -218213.000000 0 0 1
-33.071024 -3.829065 -8.686352 34.406498 0.115270 1.826021 0.253373 -0.037648 37142.900000 0 0 1
-32.699604 -3.822965 -7.306152 33.723271 0.116383 1.789178 0.262339 -0.042450 335599.000000 0 0 1
-31.410964 -4.386965 -7.156552 32.513234 0.138766 1.792726 0.262132 -0.047419 191547.000000 0 0 1
-30.809304 -4.296565 -5.704052 31.626095 0.138563 1.752148 0.269351 -0.064303 -4074.820000 0 0 1
-30.439954 -2.966865 -5.318252 31.043146 0.097159 1.742964 0.239545 -0.059303 377874.000000 0 0 1
-30.067614 -2.873765 -4.004352 30.468915 0.095287 1.702602 0.242542 -0.059047 -278127.000000 0 0 1
-29.810434 -1.449465 -3.467352 30.046389 0.048584 1.686454 0.229825 -0.053537 -507609.000000 0 0 1
-28.617594 -0.764365 -3.761752 28.873894 0.026703 1.701450 0.213313 -0.042774 170619.000000 0 0 1
-28.562174 0.508335 -3.114952 28.736025 -0.017796 1.679409 0.238986 -0.060357 245415.000000 0 0 1
-27.106744 0.910335 -2.700852 27.256172 -0.033571 1.670051 0.255820 -0.036809 305389.000000 0 0 1
-26.703534 0.081935 -1.668252 26.755719 -0.003068 1.633188 0.238244 -0.038727 677626.000000 0 0 1
-25.335494 0.425935 -1.410352 25.378294 -0.016810 1.626398 0.215154 -0.036496 690502.000000 0 0 1
-24.721524 -0.169665 -0.098252 24.722302 0.006863 1.574771 0.194059 -0.036020 42759.300000 0 1 0
-24.456224 -1.577065 -0.173152 24.507632 0.064396 1.577862 0.170680 -0.031001 545674.000000 0 1 0
-23.749624 -2.087965 0.976648 23.861226 0.087690 1.529855 0.139581 -0.026505 109344.000000 0 1 0
-23.481424 -3.639865 0.926548 23.779916 0.153786 1.531823 0.113241 -0.009366 -352811.000000 0 1 0
-24.589124 -4.454865 1.183848 25.017441 0.179228 1.523458 0.120215 -0.023088 -63862.400000 0 0 1
-24.237324 -5.843765 1.268748 24.964118 0.236591 1.519952 0.080289 -0.007863 -321799.000000 0 1 0
-25.397364 -6.824865 1.550448 26.344046 0.262522 1.511908 0.128750 -0.017260 -60655.000000 0 0 1
-25.847194 -6.568765 2.870548 26.822867 0.248870 1.463572 0.130289 -0.026681 662630.000000 0 0 1
-27.133524 -7.179865 3.023448 28.229769 0.258683 1.463489 0.171333 -0.025557 538648.000000 0 0 1
-27.519664 -7.405765 4.542748 28.858514 0.262880 1.412724 0.151199 -0.034219 102835.000000 0 0 1
-26.702184 -8.364365 5.187348 28.458352 0.303565 1.387493 0.158395 -0.022904 49985.000000 0 0 1
-27.058894 -8.520665 6.571348 29.119892 0.305064 1.343170 0.120285 -0.025575 -367395.000000 0 0 1
-26.643314 -7.470065 7.630048 28.703409 0.273355 1.301738 0.110949 -0.012238 -651575.000000 0 0 1
-25.263724 -7.555865 7.837448 27.509497 0.290612 1.281895 0.139145 -0.021932 -612046.000000 0 0 1
-24.813624 -6.358865 8.412748 26.961555 0.250866 1.253470 0.126195 -0.035660 -1335190.000000 0 0 1
-23.497324 -5.897465 7.871748 25.472902 0.245905 1.256629 0.168353 -0.045919 -1245560.000000 0 0 1
-22.381524 -6.431265 8.553648 24.808440 0.279809 1.218784 0.164271 -0.050597 -85901.800000 0 1 0
-21.243824 -5.941065 7.865448 23.419257 0.272694 1.228285 0.151224 -0.042259 -477744.000000 0 1 0
-19.898424 -6.298765 8.474748 22.526497 0.306567 1.185091 0.180592 -0.055413 -473309.000000 0 1 0
-19.692924 -5.520565 9.636948 22.608818 0.273317 1.130456 0.152978 -0.044552 775107.000000 0 1 0
-18.411524 -5.798065 10.218848 21.840940 0.305083 1.083911 0.139033 -0.060526 185259.000000 0 1 0
-17.903924 -4.767165 11.243848 21.672575 0.260226 1.025343 0.110384 -0.045926 -227024.000000 0 1 0
-18.558324 -4.806465 12.490948 22.880937 0.253424 0.993321 0.101553 -0.042977 378692.000000 0 1 0
-19.430924 -3.678965 12.677948 23.490976 0.187121 1.000722 0.138340 -0.035882 998578.000000 0 1 0
-20.587724 -4.005565 13.721948 25.063735 0.192160 0.991444 0.137456 -0.036383 654349.000000 0 0 1
-20.153624 -4.115665 15.026348 25.473484 0.201445 0.939884 0.130275 -0.037107 -416387.000000 0 0 1
-21.318724 -4.307465 15.735148 26.844686 0.199367 0.944491 0.114867 -0.018482 -387747.000000 0 0 1
-21.050924 -4.929865 17.160148 27.602820 0.230042 0.899909 0.103713 -0.013022 -701429.000000 0 0 1
-22.197624 -4.803665 17.915448 28.927029 0.213118 0.902904 0.096233 -0.007523 -210581.000000 0 0 1
-22.004724 -5.227965 19.280448 29.719946 0.233259 0.864872 0.102331 -0.001811 -268111.000000 0 0 1
-23.113024 -4.838865 20.283648 31.129614 0.206376 0.861122 0.121046 -0.012215 -345050.000000 0 0 1
-23.291724 -3.484865 20.481348 31.211125 0.148516 0.854999 0.126871 -0.016214 241278.000000 0 0 1
-23.995424 -3.365165 21.693748 32.522660 0.139333 0.840575 0.125334 -0.021391 -308017.000000 0 0 1
-24.002124 -1.917465 22.251048 32.785481 0.079718 0.824824 0.107516 -0.012977 244521.000000 0 0 1
-24.886924 -1.037665 21.544848 32.933512 0.041671 0.857682 0.116578 -0.017724 233826.000000 0 0 1
-24.917424 0.243835 22.087248 33.298409 -0.009785 0.845560 0.109954 -0.023089 -148055.000000 0 0 1
-26.023264 1.206935 21.574548 33.824963 -0.046346 0.879120 0.117602 -0.027385 -272646.000000 0 0 1
-27.249284 0.938035 22.168748 35.140529 -0.034411 0.888135 0.115572 -0.027171 -265715.000000 0 0 1
-28.345874 1.737435 21.707348 35.745157 -0.061218 0.918163 0.085492 -0.019494 404257.000000 0 0 1
-29.473844 1.695235 22.756448 37.275156 -0.057453 0.914106 0.069194 -0.017201 -373898.000000 0 0 1
-29.142994 2.482835 23.902048 37.772827 -0.084990 0.885653 0.068518 -0.015769 -77811.500000 0 0 1
-30.098674 2.353135 24.910148 39.140553 -0.078022 0.880938 0.068655 -0.018029 -502917.000000 0 0 1
-29.813674 3.237335 26.174648 39.805122 -0.108162 0.853208 0.098723 -0.027220 -1208190.000000 0 0 1
-28.612684 2.904635 26.709548 39.249491 -0.101169 0.822342 0.077355 -0.027532 -1336640.000000 0 0 1
-28.205344 3.800635 27.696048 39.712181 -0.133942 0.799006 0.076866 -0.029743 749286.000000 0 0 1
-26.928204 3.363235 28.540748 39.382913 -0.124253 0.760199 0.096214 -0.028537 800926.000000 0 0 1
-27.055374 2.210435 29.380948 40.001493 -0.081519 0.745872 0.090791 -0.026725 335187.000000 0 0 1
-25.834294 2.001435 30.069548 39.693756 -0.077318 0.711262 0.073729 -0.033477 296399.000000 0 0 1
-25.955054 0.836635 31.109148 40.523375 -0.032223 0.695577 0.073281 -0.028125 -59625.000000 0 0 1
-26.177334 -0.414965 30.514748 40.206652 0.015851 0.709101 0.069664 -0.027972 -70146.300000 0 0 1
-26.545964 -1.433565 31.417748 41.156023 0.053951 0.702264 0.092656 -0.024116 -469714.000000 0 0 1
-27.376494 -2.571065 30.736948 41.241275 0.093640 0.729818 0.077114 -0.017504 1193080.000000 0 0 1
-28.775404 -2.267165 30.545848 42.026334 0.078626 0.757106 0.091007 -0.019622 1181040.000000 0 0 1
-28.879634 -1.478265 29.297048 41.164737 0.051142 0.778877 0.077553 -0.015459 -1331020.000000 0 0 1
-30.337664 -1.408865 28.908648 41.929330 0.046406 0.810051 0.079486 -0.019948 -551827.000000 0 0 1
-31.204524 -0.797165 29.813248 43.164657 0.025541 0.808358 0.100035 -0.008771 -587955.000000 0 0 1
-32.526124 -0.631165 29.353148 43.817285 0.019402 0.836724 0.099855 -0.019079 196885.000000 0 0 1
-33.402384 -0.230065 30.559148 45.272881 0.006888 0.829833 0.123421 -0.020722 -165324.000000 0 0 1
-33.851014 -1.258765 31.399348 46.188686 0.037168 0.823298 0.123330 -0.020230 -160563.000000 0 0 1
-34.702944 -0.786065 32.417448 47.495296 0.022647 0.819564 0.144110 -0.022872 -58913.300000 0 0 1
-35.185413 -1.954665 33.287548 48.475714 0.055496 0.813877 0.141703 -0.026180 -293849.000000 0 0 1
-36.187174 -2.714265 32.688548 48.840762 0.074866 0.837546 0.093317 -0.031801 -405802.000000 0 0 1
-36.290854 -4.014865 33.278548 49.402500 0.110182 0.831699 0.090721 -0.025386 -514534.000000 0 0 1
-37.470634 -4.860465 32.818548 50.047274 0.128994 0.855619 0.080408 -0.020226 -748318.000000 0 0 1
36.911656 -4.333465 33.318248 49.913474 -0.116866 0.839923 0.071603 -0.031776 -80740.600000 0 0 1
35.772536 -5.044165 32.794648 48.791463 -0.140083 0.833702 0.066003 -0.030403 1093230.000000 0 0 1
34.379776 -4.643765 33.421548 48.171915 -0.134260 0.804048 0.082608 -0.030813 645721.000000 0 0 1
34.025746 -5.106465 -32.851291 47.571364 -0.148965 2.333071 0.077825 -0.036208 118964.000000 0 0 1
33.762716 -6.488865 -32.741691 47.476780 -0.189875 2.331782 0.074490 -0.033517 20099.800000 0 0 1
32.379286 -6.998965 -33.256491 46.940365 -0.212880 2.358144 0.086449 -0.033048 599916.000000 0 0 1
31.319296 -6.749065 -32.335191 45.519367 -0.212247 2.360808 0.111544 -0.041656 920135.000000 0 0 1
30.018366 -7.050965 -32.856891 45.059890 -0.230706 2.387923 0.117301 -0.038748 476766.000000 0 0 1
28.857766 -6.726965 -31.895291 43.535414 -0.229018 2.392972 0.113665 -0.042679 -459941.000000 0 0 1
27.651266 -7.092065 -32.493991 43.252160 -0.251070 2.420778 0.093209 -0.042377 -1004770.000000 0 0 1
26.568066 -6.627465 -31.747291 41.924645 -0.244463 2.429883 0.107429 -0.046653 -694883.000000 0 0 1
25.203666 -7.008665 -32.348491 41.602536 -0.271228 2.461573 0.111912 -0.050449 -39030.100000 0 0 1
24.807966 -8.387965 -32.260091 41.551253 -0.326049 2.459718 0.115245 -0.054326 103327.000000 0 0 1
24.501866 -8.844765 -30.956891 40.458626 -0.346426 2.442070 0.127155 -0.055050 -525789.000000 0 0 1
24.218566 -10.388765 -30.820991 40.551188 -0.405219 2.434189 0.123914 -0.044462 101363.000000 0 0 1
23.065666 -10.805065 -31.518791 40.524172 -0.438089 2.461918 0.134516 -0.057330 -10502.500000 0 0 1
22.985466 -12.237165 -31.424491 40.811499 -0.489220 2.449624 0.119614 -0.038370 -82778.100000 0 0 1
21.884566 -12.845165 -32.357491 41.121037 -0.530769 2.476540 0.099368 -0.031604 793444.000000 0 0 1
20.533766 -12.569665 -32.028291 40.067985 -0.549303 2.497007 0.083317 -0.031127 37032.000000 0 0 1
20.058666 -11.297265 -32.406691 39.751376 -0.512930 2.523930 0.083576 -0.039690 -761339.000000 0 0 1
18.697466 -10.888365 -31.853091 38.506767 -0.527336 2.544916 0.074801 -0.044342 -635287.000000 0 0 1
17.606066 -11.376865 -32.535091 38.703214 -0.573692 2.569242 0.051842 -0.024881 -86916.200000 0 0 1
16.354566 -10.936165 -31.961191 37.531177 -0.589403 2.589808 0.090221 -0.034331 906175.000000 0 0 1
15.133766 -11.214765 -32.845091 37.862935 -0.637744 2.620897 0.084338 -0.025956 -679690.000000 0 0 1
14.916366 -12.601765 -32.945591 38.297708 -0.701484 2.606555 0.102427 -0.023969 656707.000000 0 0 1
13.675466 -12.986565 -33.566891 38.502018 -0.759566 2.629705 0.095518 -0.023927 712709.000000 0 0 1
12.472066 -13.096465 -32.626991 37.304026 -0.809814 2.635456 0.087624 -0.024631 -466483.000000 0 0 1
12.021766 -11.890865 -32.131591 36.309154 -0.779924 2.657171 0.170591 -0.029169 -411365.000000 0 0 1
10.991166 -12.007965 -31.166191 35.161462 -0.829580 2.660249 0.160712 -0.038133 422985.000000 0 0 1
9.740666 -11.190465 -31.550391 34.864513 -0.854553 2.702042 0.166324 -0.035466 -140285.000000 0 0 1
10.137666 -9.870765 -31.673391 34.690171 -0.772060 2.721464 0.162486 -0.035117 -266485.000000 0 0 1
9.155366 -9.029865 -32.177691 34.652027 -0.778497 2.761404 0.146777 -0.033304 -494421.000000 0 0 1
9.583966 -7.536365 -32.144691 34.379214 -0.666363 2.779066 0.164322 -0.030293 -122151.000000 0 0 1
9.320566 -6.854365 -30.940891 33.033226 -0.634093 2.783764 0.170940 -0.042106 146840.000000 0 0 1
9.766366 -5.552265 -31.010491 32.982724 -0.516942 2.794025 0.135490 -0.041651 -247136.000000 0 0 1
9.622566 -4.725965 -29.721391 31.595721 -0.456529 2.795419 0.127865 -0.031344 -274422.000000 0 0 1
8.264566 -4.494265 -29.455491 30.921310 -0.498070 2.832451 0.151970 -0.036692 -277219.000000 0 0 1
8.221066 -3.371765 -28.567891 29.917873 -0.389215 2.840042 0.145755 -0.030280 675269.000000 0 0 1
6.781466 -2.826665 -28.304091 29.242091 -0.394924 2.887624 0.129701 -0.030524 24297.300000 0 0 1
6.095366 -2.332965 -29.431891 30.146848 -0.365543 2.923372 0.117353 -0.022137 669771.000000 0 0 1
4.839466 -1.671665 -29.190591 29.636219 -0.332592 2.967958 0.126116 -0.030005 894733.000000 0 0 1
3.651366 -2.665165 -29.190591 29.538554 -0.630518 2.987949 0.125280 -0.036563 -556806.000000 0 0 1
3.692966 -3.501165 -28.075891 28.533346 -0.758744 2.962287 0.130526 -0.033519 -401712.000000 0 0 1
2.535566 -4.274965 -27.937491 28.376184 -1.035451 2.965525 0.116118 -0.032253 -137326.000000 0 0 1
2.755566 -5.335565 -26.823491 27.487471 -1.094074 2.921349 0.090204 -0.033481 -77626.200000 0 0 1
2.938766 -4.773465 -25.532291 26.140394 -1.018952 2.925474 0.096763 -0.035512 119335.000000 0 0 1
3.358366 -5.764265 -24.569491 25.459090 -1.043256 2.876460 0.095153 -0.044099 -66107.000000 0 0 1
3.238266 -5.137365 -23.146491 23.929875 -1.008369 2.885012 0.110012 -0.044730 -149254.000000 0 1 0
4.155366 -4.094065 -22.925091 23.655617 -0.777967 2.892426 0.109075 -0.042677 -161846.000000 0 1 0
3.938066 -3.435365 -21.700291 22.320679 -0.717326 2.905271 0.095978 -0.034603 -682633.000000 0 1 0
4.953266 -2.368565 -21.394291 22.087567 -0.446042 2.890383 0.100393 -0.033349 41470.600000 0 1 0
6.247266 -2.901965 -21.100091 22.196026 -0.434861 2.826039 0.103767 -0.031994 654121.000000 0 1 0
7.129266 -1.890265 -20.597891 21.878589 -0.259178 2.797742 0.114799 -0.026347 649540.000000 0 1 0
8.595666 -2.308065 -20.314791 22.178895 -0.262327 2.728669 0.127832 -0.031189 -111193.000000 0 1 0
9.365266 -2.480365 -21.476291 23.560380 -0.258903 2.717816 0.134283 -0.044102 210709.000000 0 1 0
10.699566 -2.933265 -21.370491 24.078676 -0.267574 2.662748 0.121629 -0.039156 1118200.000000 0 1 0
11.804966 -2.045565 -20.691191 23.909557 -0.171576 2.616733 0.115730 -0.037047 -158087.000000 0 1 0
11.586866 -1.902565 -19.297491 22.589121 -0.162748 2.594965 0.115920 -0.028201 361186.000000 0 1 0
12.672066 -1.368065 -18.534191 22.493757 -0.107543 2.539179 0.121226 -0.029341 247992.000000 0 1 0
12.900766 0.172235 -18.622591 22.655249 0.013350 2.535709 0.104761 -0.029356 -51373.200000 0 1 0
13.260166 0.581935 -19.918791 23.935933 0.043858 2.553808 0.105240 -0.036603 123836.000000 0 1 0
13.371266 1.966235 -19.980991 24.122538 0.146003 2.546885 0.127962 -0.044016 -84768.600000 0 1 0
13.888266 2.559535 -21.293891 25.551222 0.182250 2.555993 0.123812 -0.047411 558882.000000 0 0 1
15.313266 2.465135 -21.463491 26.481209 0.159611 2.515832 0.136119 -0.050456 853454.000000 0 0 1
15.701166 3.137635 -22.595091 27.693131 0.197236 2.525097 0.128388 -0.048302 -790308.000000 0 0 1
17.163666 2.975235 -22.965791 28.824833 0.171639 2.492672 0.110451 -0.041329 -670976.000000 0 0 1
17.383566 1.689135 -23.494891 29.275441 0.096864 2.502347 0.092928 -0.032600 -701430.000000 0 0 1
18.696466 1.443035 -23.844191 30.334562 0.077030 2.475174 0.096923 -0.031750 -943483.000000 0 0 1
10.822176 26.689635 3.021548 28.958347 1.185573 1.466265 0.049758 -0.014815 38962.000000 0 0 1
10.435576 27.145335 4.291448 29.397057 1.203781 1.424291 0.058118 -0.016621 -261888.000000 0 0 1
11.551076 27.539135 5.022848 30.283004 1.173643 1.404163 0.059140 -0.011330 -673429.000000 0 0 1
11.238576 27.992635 6.494648 30.855691 1.189012 1.358726 0.055430 -0.024259 -34264.900000 0 0 1
10.990576 26.991435 7.446748 30.079634 1.184109 1.320627 0.051412 -0.027783 95774.300000 0 0 1
10.811676 27.469535 8.742848 30.788067 1.195830 1.282866 0.052796 -0.025681 -921410.000000 0 0 1
10.736576 26.508535 9.895148 30.263682 1.185967 1.237707 0.060559 -0.023142 -939424.000000 0 0 1
11.881776 25.873235 10.349648 30.293829 1.140293 1.222133 0.073718 -0.019182 -469089.000000 0 0 1
12.474676 24.950535 9.422748 29.443759 1.107168 1.245040 0.073437 -0.029202 -387508.000000 0 0 1
13.849476 24.448535 9.883148 29.786162 1.055393 1.232582 0.081577 -0.028520 316333.000000 0 0 1
14.901176 25.448235 9.802048 31.076323 1.041071 1.249899 0.098594 -0.028656 1019810.000000 0 0 1
16.008676 24.995435 10.606748 31.520669 1.001154 1.227597 0.104528 -0.032003 54109.700000 0 0 1
17.043976 26.078335 10.839348 32.985878 0.991917 1.235969 0.099866 -0.035730 -753518.000000 0 0 1
17.837176 26.484535 9.724848 33.379157 0.978082 1.275164 0.091836 -0.045666 134158.000000 0 0 1
19.188376 26.104835 9.809048 33.850755 0.936932 1.276806 0.099866 -0.049793 490432.000000 0 0 1
20.161576 26.851135 10.805948 35.273802 0.926742 1.259445 0.093770 -0.054558 -167111.000000 0 0 1
20.351176 28.206835 10.460148 36.320939 0.945787 1.278667 0.098347 -0.062306 446107.000000 0 0 1
19.308176 29.074935 10.940548 36.576674 0.984584 1.267034 0.086602 -0.045467 427625.000000 0 0 1
19.720276 30.530535 11.082148 37.997590 0.997295 1.274841 0.080066 -0.040055 -744614.000000 0 0 1
20.160976 31.373335 9.975848 38.603998 0.999630 1.309415 0.099817 -0.056096 158084.000000 0 0 1
19.295576 31.522835 8.863248 38.007441 1.021517 1.335432 0.120071 -0.060471 360447.000000 0 0 1
17.801176 31.874335 9.091348 37.623234 1.061466 1.326739 0.108615 -0.048268 -193732.000000 0 0 1
17.509676 33.186035 9.628148 38.737616 1.085296 1.319616 0.096623 -0.040641 -677508.000000 0 0 1
16.153776 33.493135 9.604648 38.405518 1.121408 1.318028 0.106155 -0.029636 -400033.000000 0 0 1
15.950976 -32.631605 9.902648 37.647280 -1.116133 1.304627 0.101490 -0.038634 -73862.200000 0 0 1
16.580276 -31.837205 8.903848 36.983668 -1.090661 1.327657 0.112172 -0.039844 77952.000000 0 0 1
16.711176 -30.485105 9.264648 35.978309 -1.069355 1.310356 0.105791 -0.019904 -164264.000000 0 0 1
17.626276 -29.788305 8.260548 35.584623 -1.036489 1.336521 0.088826 -0.016615 -144115.000000 0 0 1
16.976876 -29.631005 7.034248 34.866767 -1.050509 1.367656 0.097705 -0.028389 70918.900000 0 0 1
17.785476 -28.979405 6.072348 34.539868 -1.020344 1.394071 0.086992 -0.017533 189231.000000 0 0 1
17.226476 -29.174905 4.651348 34.198854 -1.037425 1.434365 0.102794 -0.022422 149087.000000 0 0 1
17.567876 -30.452805 4.104548 35.395634 -1.047544 1.454573 0.097439 -0.032076 9287.280000 0 0 1
17.368776 -30.568205 2.710548 35.262396 -1.054089 1.493852 0.092956 -0.026665 -26153.300000 0 0 1
17.607076 -32.041705 2.186548 36.625960 -1.068333 1.511061 0.092209 -0.027369 364884.000000 0 0 1
18.939876 -32.489805 2.428648 37.685603 -1.043009 1.506307 0.091211 -0.022852 228391.000000 0 0 1
19.144276 -33.725605 1.861948 38.825077 -1.054505 1.522821 0.096162 -0.025486 434395.000000 0 0 1
20.579376 33.309135 1.947948 39.202088 1.017370 1.521086 0.096145 -0.028359 632389.000000 0 0 1
20.989176 32.833935 3.220448 39.102226 1.002014 1.488343 0.098783 -0.053784 -244056.000000 0 0 1
22.331276 32.425535 3.226348 39.503298 0.967699 1.489032 0.072189 -0.038598 -236903.000000 0 0 1
22.848476 32.247735 4.656748 39.795158 0.954369 1.453510 0.068411 -0.030781 -654595.000000 0 0 1
22.243476 31.200935 5.324448 38.686177 0.951458 1.432726 0.078687 -0.040971 -604465.000000 0 0 1
22.934376 29.999635 5.502048 38.160663 0.918087 1.426111 0.061036 -0.047273 -312911.000000 0 0 1
22.179476 28.985835 6.391748 37.053505 0.917649 1.397429 0.078697 -0.054907 -335223.000000 0 0 1
20.986076 28.598035 5.789148 35.941302 0.937725 1.409019 0.078961 -0.046129 -1165350.000000 0 0 1
20.070176 28.226335 6.755548 35.287043 0.952696 1.378162 0.088649 -0.053502 400671.000000 0 0 1
18.577676 28.401335 6.270048 34.512018 0.991535 1.388105 0.106134 -0.047676 625073.000000 0 0 1
18.208376 29.769735 6.270548 35.455632 1.021862 1.393005 0.104402 -0.058096 -116.805000 0 0 1
18.515476 30.465935 5.019948 36.002721 1.024702 1.430908 0.105971 -0.054145 -178799.000000 0 0 1
18.502776 31.963435 5.184448 37.294670 1.046056 1.431332 0.115412 -0.054737 1293270.000000 0 0 1
17.212776 32.546035 5.539848 37.231894 1.084317 1.421449 0.115342 -0.052292 981472.000000 0 0 1
17.253876 -33.727805 5.369048 38.263399 -1.097942 1.430014 0.118247 -0.050609 -81594.300000 0 0 1
15.885076 -33.068705 5.646548 37.118168 -1.122979 1.418080 0.117823 -0.046506 120352.000000 0 0 1
14.983276 -33.258705 4.576748 36.763931 -1.147521 1.445982 0.102918 -0.034256 -348711.000000 0 0 1
13.905376 -32.361305 4.659048 35.529147 -1.164959 1.439284 0.088311 -0.026346 -161270.000000 0 0 1
13.121776 -32.195505 3.355548 34.928373 -1.183785 1.474579 0.077727 -0.020092 -1058660.000000 0 0 1
12.093876 -31.317105 3.499148 33.753029 -1.202265 1.466941 0.075826 -0.026201 -1102600.000000 0 0 1
11.405876 -31.179705 2.318648 33.281288 -1.220106 1.501072 0.064349 -0.012367 -891651.000000 0 0 1
10.395476 -30.002805 2.233948 31.831191 -1.237258 1.500557 0.072223 -0.017902 -145783.000000 0 0 1
9.832476 -29.676105 1.012048 31.278955 -1.250853 1.538435 0.071832 -0.009379 603251.000000 0 0 1
8.819276 -30.648905 0.646548 31.899107 -1.290614 1.550526 0.054660 -0.011061 -398055.000000 0 0 1
9.191776 -31.230105 -0.789752 32.564273 -1.284555 1.595051 0.067692 -0.015291 929166.000000 0 0 1
10.374876 -32.065605 -0.729552 33.710137 -1.257875 1.592440 0.067132 -0.021961 647959.000000 0 0 1
10.566076 -32.680305 -1.992352 34.403688 -1.258088 1.628740 0.069585 -0.012558 -500107.000000 0 0 1
11.774876 -33.593105 -2.015252 35.653971 -1.233663 1.627349 0.063897 -0.017338 -582396.000000 0 0 1
11.742476 33.081835 -0.973952 35.117547 1.229716 1.598534 0.067076 -0.019803 -158788.000000 0 0 1
12.887776 32.291235 -1.107752 34.785712 1.191057 1.602647 0.079543 -0.021258 -248246.000000 0 0 1
13.031776 31.451335 0.211048 34.044944 1.177983 1.564597 0.071117 -0.023529 -224140.000000 0 0 1
13.347576 32.058635 1.496648 34.758507 1.176276 1.527725 0.073270 -0.022100 -84182.400000 0 0 1
14.538276 32.768935 1.686348 35.888833 1.153227 1.523791 0.084112 -0.021097 945292.000000 0 0 1
15.912876 31.953435 1.706848 35.737305 1.108748 1.523017 0.092185 -0.027115 688094.000000 0 0 1
16.386476 31.479135 0.488148 35.492123 1.090844 1.557042 0.099484 -0.032585 -226795.000000 0 0 1
17.388476 30.531035 0.693148 35.142334 1.053079 1.551071 0.097673 -0.027040 -415687.000000 0 0 1
18.026676 29.907535 -0.553652 34.924608 1.028359 1.586650 0.089792 -0.022629 799038.000000 0 0 1
19.054876 30.621835 -1.313352 36.090303 1.014167 1.607195 0.069422 -0.015802 835717.000000 0 0 1
18.605276 31.854935 -1.907452 36.939566 1.042178 1.622456 0.068335 -0.016540 498506.000000 0 0 1
19.848976 32.705635 -2.343952 38.329290 1.025320 1.631988 0.068098 -0.015993 515756.000000 0 0 1
20.738276 33.103735 -1.337252 39.086079 1.011145 1.605016 0.069888 -0.021034 -542693.000000 0 0 1
21.644076 -33.708705 -1.966452 40.107477 -1.000001 1.619846 0.076776 -0.024930 -1349790.000000 0 0 1
22.805476 -33.047505 -1.128952 40.168418 -0.966758 1.598905 0.079365 -0.026251 280775.000000 0 0 1
23.781276 33.668135 -0.708152 41.226131 0.955826 1.587974 0.070167 -0.022566 531538.000000 0 0 1
24.504576 32.834035 -1.643852 41.003053 0.929657 1.610898 0.071439 -0.017255 -289902.000000 0 0 1
25.227776 33.555835 -2.827252 42.076455 0.926135 1.638040 0.066196 -0.021129 -528010.000000 0 0 1
24.364876 -33.612405 -3.833152 41.690934 -0.943568 1.662868 0.068599 -0.032778 210453.000000 0 0 1
25.147976 -32.872005 -4.771552 41.662418 -0.917747 1.685577 0.069403 -0.028226 539843.000000 0 0 1
24.255276 -32.386005 -5.970852 40.900156 -0.927972 1.717306 0.074023 -0.030950 125192.000000 0 0 1
23.314076 -31.440905 -5.511352 39.527859 -0.932744 1.710682 0.092456 -0.031431 -281778.000000 0 0 1
22.655176 -30.916905 -6.630852 38.898332 -0.938410 1.742099 0.099763 -0.031550 232378.000000 0 0 1
21.590476 -29.829905 -6.277652 37.354796 -0.944284 1.739652 0.119201 -0.035907 638921.000000 0 0 1
20.369476 -30.206105 -5.678152 36.872289 -0.977494 1.725407 0.096200 -0.028773 24927.500000 0 0 1
19.547576 -29.064105 -5.447452 35.447209 -0.978720 1.725086 0.100942 -0.037096 277757.000000 0 0 1
18.248676 -29.227105 -4.655452 34.769398 -1.012647 1.705095 0.075330 -0.020429 -132347.000000 0 0 1
17.197776 -29.843905 -5.361152 34.859204 -1.048017 1.725204 0.070588 -0.021397 -423318.000000 0 0 1
16.158076 -30.064405 -4.423152 34.416800 -1.077640 1.699670 0.042318 -0.012415 436460.000000 0 0 1
14.979576 -30.936905 -4.960852 34.728804 -1.119870 1.714132 0.032160 -0.007136 410867.000000 0 0 1
15.320276 -32.320805 -4.982452 36.113295 -1.128159 1.709205 0.033310 -0.002189 80130.400000 0 0 1
14.163476 -33.076205 -5.291852 36.368160 -1.166212 1.716823 0.047403 -0.005294 269015.000000 0 0 1
14.489076 33.048135 -5.366252 36.481628 1.157611 1.718427 0.047828 -0.005647 107754.000000 0 0 1
14.708176 32.413635 -4.111452 35.831246 1.144816 1.685795 0.053046 -0.015730 -196954.000000 0 0 1
15.124576 31.091835 -4.148752 34.823371 1.118049 1.690217 0.067766 -0.023281 -375547.000000 0 0 1
14.091076 30.072035 -4.618652 33.529355 1.132601 1.708985 0.069325 -0.028553 -414168.000000 0 0 1
13.072176 29.736135 -3.715852 32.694450 1.156620 1.684696 0.066074 -0.026835 -235475.000000 0 0 1
13.421876 28.809335 -2.676652 31.894968 1.134810 1.654816 0.067470 -0.023234 320302.000000 0 0 1
12.124776 28.126335 -2.116052 30.701443 1.163785 1.639775 0.062011 -0.015335 556291.000000 0 0 1
11.193376 29.004435 -1.572752 31.129126 1.202487 1.621341 0.051145 -0.020145 -626865.000000 0 0 1
10.295276 28.309835 -0.758752 30.133290 1.222001 1.595979 0.049490 -0.014972 -202833.000000 0 0 1
9.221676 29.199835 -0.078552 30.621493 1.264896 1.573362 0.048802 -0.011099 147323.000000 0 0 1
8.372476 28.425235 0.734248 29.641718 1.284353 1.546023 0.043577 -0.013806 -565080.000000 0 0 1
7.178676 29.118935 0.944348 30.005625 1.329087 1.539319 0.041825 -0.014179 -490060.000000 0 0 1
6.176476 28.372935 1.842348 29.095817 1.356451 1.507434 0.029284 -0.022427 -208372.000000 0 0 1
5.630176 27.317335 1.182348 27.916547 1.367540 1.528431 0.044321 -0.028067 -568178.000000 0 0 1
4.387276 26.899335 1.669948 27.305881 1.409120 1.509601 0.045143 -0.026065 -47490.200000 0 0 1
3.721376 25.764735 0.835448 26.045502 1.427352 1.538714 0.052545 -0.028485 -42366.600000 0 0 1
2.493776 25.257935 1.308948 25.414475 1.472383 1.519269 0.068803 -0.026266 -52923.400000 0 0 1
2.135076 24.059435 0.683048 24.163640 1.482286 1.542525 0.061303 -0.024263 -644475.000000 0 1 0
0.662076 23.710935 0.841148 23.735086 1.542881 1.535350 0.057736 -0.021492 -943571.000000 0 1 0
-0.203324 24.382135 -0.046452 24.383027 -1.562457 1.572701 0.069342 -0.035184 31447.500000 0 1 0
-1.542624 23.946235 0.135448 23.996254 -1.506465 1.565152 0.060147 -0.026755 -115095.000000 0 1 0
-2.354124 24.873835 1.068948 25.007843 -1.476435 1.528039 0.090755 -0.042363 -1140390.000000 0 0 1
-3.721424 24.624935 0.950648 24.922684 -1.420807 1.532643 0.098675 -0.026620 -306990.000000 0 1 0
-4.498524 25.371235 1.893848 25.836465 -1.395312 1.497429 0.108994 -0.031654 185628.000000 0 0 1
-5.921124 25.663635 1.380048 26.373972 -1.344044 1.518446 0.121884 -0.045767 -142524.000000 0 0 1
-6.035324 26.704835 0.432248 27.381749 -1.348529 1.555010 0.134709 -0.048627 195420.000000 0 0 1
-7.277624 26.590935 -0.254352 27.570026 -1.303650 1.580022 0.137585 -0.044035 251359.000000 0 0 1
-7.485324 27.644635 -1.330652 28.671006 -1.306367 1.617224 0.141967 -0.042222 -164253.000000 0 0 1
-7.722024 28.919235 -0.840252 29.944245 -1.309864 1.598861 0.162578 -0.050702 -101871.000000 0 0 1
-7.617024 29.880535 -1.936352 30.896843 -1.321196 1.633509 0.153373 -0.049131 -144102.000000 0 0 1
-7.502924 31.276635 -1.340652 32.191911 -1.335356 1.612454 0.130053 -0.050996 -448140.000000 0 0 1
-7.680224 32.419835 -2.168452 33.387628 -1.338186 1.635790 0.112887 -0.034819 -387862.000000 0 0 1
-6.916424 32.542335 -3.343452 33.436794 -1.361376 1.670957 0.088769 -0.033686 -177927.000000 0 0 1
-5.401324 32.782435 -3.167352 33.375058 -1.407501 1.665841 0.128224 -0.043935 -431494.000000 0 0 1
-5.019224 -33.585105 -2.660352 34.062140 1.422446 1.648979 0.138266 -0.048063 155999.000000 0 0 1
-4.562924 -33.732505 -1.310652 34.064938 1.436345 1.609281 0.162592 -0.056613 -301769.000000 0 0 1
-4.296324 -32.404305 -0.632552 32.693998 1.438980 1.590145 0.165912 -0.053585 -198896.000000 0 0 1
-5.355724 -31.477605 -0.509352 31.934039 1.402266 1.586747 0.152560 -0.045553 -127516.000000 0 0 1
-5.421024 -30.628105 -1.610352 31.145811 1.395616 1.622523 0.162810 -0.041225 -262925.000000 0 0 1
-6.812824 -30.001705 -1.758352 30.815721 1.347502 1.627888 0.173043 -0.043007 -466355.000000 0 0 1
-7.036024 -29.076305 -0.697652 29.923634 1.333375 1.594113 0.156694 -0.030786 652447.000000 0 0 1
-8.390924 -28.584205 -0.662852 29.797714 1.285266 1.593043 0.119268 -0.028486 1038040.000000 0 0 1
-8.674924 -27.994305 0.724848 29.316562 1.270299 1.546069 0.120520 -0.028135 106548.000000 0 0 1
-7.792824 -26.920305 1.045948 28.045052 1.289021 1.533492 0.135024 -0.036416 23764.500000 0 0 1
-7.675324 -26.504905 2.410348 27.698924 1.288925 1.483667 0.130555 -0.020533 -316877.000000 0 0 1
-8.683624 -25.454405 2.863848 27.046879 1.242032 1.464713 0.110257 -0.016505 -149525.000000 0 0 1
-8.412024 -24.090805 2.524148 25.641770 1.234852 1.472198 0.106111 -0.026852 162408.000000 0 0 1
-9.320524 -23.191305 3.186548 25.196486 1.188655 1.443989 0.101837 -0.032301 -344293.000000 0 0 1
-8.561624 -21.958005 3.507848 23.827723 1.199019 1.423042 0.065667 -0.004313 64057.000000 0 1 0
-7.758924 -22.019405 4.677748 23.810427 1.232014 1.373052 0.058466 -0.006461 -119227.000000 0 1 0
-6.950524 -20.883505 4.834448 22.534473 1.249505 1.354580 0.038709 -0.004414 82987.000000 0 1 0
-7.775124 -19.627705 5.343448 21.777323 1.193631 1.322898 0.045302 -0.018237 410382.000000 0 1 0
-7.930424 -19.832405 6.720348 22.391494 1.190400 1.265968 0.040575 -0.018582 -134050.000000 0 1 0
-8.917224 -19.053205 7.332248 22.277867 1.133061 1.235417 0.033071 -0.011335 -433936.000000 0 1 0
-27.811904 27.793135 -4.886252 39.621154 -0.785061 1.694435 0.220117 -0.033774 170655.000000 0 0 1
-27.268144 29.003535 -4.274652 40.037849 -0.816228 1.677765 0.189300 -0.051749 469516.000000 0 0 1
-25.895914 28.752335 -3.991952 38.900268 -0.837620 1.673597 0.172463 -0.036717 115937.000000 0 0 1
-25.184764 29.855535 -3.180352 39.188518 -0.870056 1.652041 0.141711 -0.042159 -663568.000000 0 0 1
-25.649454 30.109835 -1.909252 39.599772 -0.865222 1.619029 0.114833 -0.049384 -172276.000000 0 0 1
-24.926524 31.121135 -1.281752 39.893603 -0.895475 1.602931 0.106601 -0.056019 -280298.000000 0 0 1
-23.544324 30.829735 -0.689052 38.797971 -0.918592 1.588557 0.087750 -0.042997 -289403.000000 0 0 1
-22.577924 30.446435 -1.663352 37.940938 -0.932717 1.614651 0.094781 -0.045275 -396183.000000 0 0 1
-21.299124 30.536835 -1.094152 37.247123 -0.961757 1.600176 0.072142 -0.033450 -388879.000000 0 0 1
-20.250424 29.821235 -1.977952 36.101219 -0.974262 1.625613 0.097120 -0.035978 1366290.000000 0 0 1
-18.929624 29.722435 -1.356752 35.264637 -1.003700 1.609279 0.096998 -0.031616 901289.000000 0 0 1
-18.029924 28.911835 -2.000352 34.131712 -1.013192 1.629437 0.104718 -0.028993 -51573.100000 0 0 1
-16.590624 29.080435 -1.439752 33.511094 -1.052344 1.613773 0.131148 -0.032983 197121.000000 0 0 1
-16.397024 28.470135 -0.192252 32.854953 -1.048258 1.576648 0.116840 -0.037625 -494441.000000 0 0 1
-15.107524 28.725235 0.263548 32.456831 -1.086619 1.562676 0.132027 -0.044034 -576819.000000 0 0 1
-14.679424 28.049035 1.544448 31.695728 -1.088645 1.522050 0.126969 -0.036874 -58404.000000 0 0 1
-15.406024 28.463435 2.698248 32.477581 -1.074691 1.487620 0.113586 -0.036934 86834.800000 0 0 1
-14.973724 27.811535 3.869048 31.822373 -1.076903 1.448912 0.122017 -0.039732 222783.000000 0 0 1
-13.854324 28.467335 4.741448 32.012697 -1.117866 1.422138 0.118927 -0.036124 270457.000000 0 0 1
-14.075424 29.715135 5.450248 33.328847 -1.128427 1.406529 0.100270 -0.031618 -210913.000000 0 0 1
-14.093924 30.817035 4.607648 34.198812 -1.141854 1.435654 0.111028 -0.030644 30470.600000 0 0 1
-13.861224 32.127035 5.389748 35.402391 -1.163475 1.417960 0.117900 -0.032866 -119985.000000 0 0 1
-14.979724 32.466835 6.160348 36.282742 -1.138515 1.400183 0.115414 -0.037825 17500.700000 0 0 1
-14.670824 33.625435 6.949848 37.339033 -1.159392 1.383576 0.108212 -0.042593 648547.000000 0 0 1
-15.914524 -33.510305 7.758748 37.900011 1.127418 1.364623 0.097814 -0.037886 582444.000000 0 0 1
-16.245324 33.369935 8.877248 38.161088 -1.117744 1.336020 0.084907 -0.040259 1098270.000000 0 0 1
-17.404124 -33.727005 9.590148 39.145694 1.094408 1.323291 0.089046 -0.035202 594427.000000 0 0 1
-17.611424 33.135235 10.920648 39.081538 -1.082266 1.287593 0.078967 -0.026047 428317.000000 0 0 1
-16.726124 33.407135 12.008348 39.242838 -1.106609 1.259807 0.084663 -0.029757 1496380.000000 0 0 1
-15.319924 33.081435 11.842048 38.331652 -1.137104 1.256722 0.095927 -0.032827 1210090.000000 0 0 1
-14.470724 33.226435 13.151848 38.553456 -1.160050 1.222675 0.091900 -0.028620 -196223.000000 0 0 1
-14.722424 32.452235 14.321248 38.405670 -1.144899 1.188670 0.071292 -0.026258 -63175.600000 0 0 1
-14.477524 31.067735 14.324348 37.148214 -1.134718 1.174938 0.067747 -0.021687 -340391.000000 0 0 1
-15.502724 30.099735 13.679448 36.516514 -1.095185 1.186820 0.075246 -0.027950 -180680.000000 0 0 1
-15.334324 29.987835 12.315248 35.861917 -1.098109 1.220254 0.086786 -0.019556 639240.000000 0 0 1
-16.410924 29.299035 11.672248 35.552683 -1.060218 1.236284 0.068924 -0.013238 424883.000000 0 0 1
-16.102724 29.135035 10.169348 34.807523 -1.065888 1.274312 0.073776 -0.012101 519313.000000 0 0 1
-15.041524 28.224035 9.874748 33.471693 -1.081151 1.271322 0.055432 -0.001656 450899.000000 0 0 1
-15.033924 27.982335 8.498848 32.882524 -1.077783 1.309368 0.061798 -0.009665 -511071.000000 0 0 1
-14.325124 26.739135 8.002648 31.372486 -1.078970 1.312861 0.075332 -0.014631 144415.000000 0 0 1
-12.914524 26.893135 8.057348 30.902209 -1.123100 1.307011 0.083774 -0.018547 521145.000000 0 0 1
-12.199324 25.658935 7.810648 29.465415 -1.126988 1.302511 0.096780 -0.026535 629951.000000 0 0 1
-10.937024 25.880035 6.921748 28.936228 -1.170956 1.329247 0.135841 -0.036844 172153.000000 0 0 1
-11.254724 26.216535 5.588948 29.072528 -1.165290 1.377351 0.140346 -0.037573 511482.000000 0 0 1
-10.129724 25.962235 4.757148 28.271530 -1.198791 1.401726 0.147732 -0.032847 54583.200000 0 0 1
-10.259724 26.489935 3.300448 28.598454 -1.201280 1.455132 0.148546 -0.040244 -180282.000000 0 0 1
-10.183124 27.852035 3.161348 29.823246 -1.220279 1.464594 0.149385 -0.031472 48643.200000 0 0 1
-10.341124 28.204435 1.800848 30.094386 -1.219367 1.510921 0.154186 -0.038085 67575.400000 0 0 1
-9.891424 29.614735 1.492748 31.258616 -1.248443 1.523023 0.162606 -0.041502 -45508.200000 0 0 1
-10.814624 30.547535 1.993348 32.466620 -1.230539 1.509361 0.136087 -0.038979 -318105.000000 0 0 1
-10.490724 31.849835 1.754248 33.578932 -1.252607 1.518530 0.130907 -0.037737 -21676.000000 0 0 1
-11.338224 32.931735 2.519248 34.919924 -1.239213 1.498590 0.126441 -0.039390 465854.000000 0 0 1
-12.689324 33.193135 2.210148 35.604605 -1.205652 1.508682 0.130202 -0.036367 -99976.700000 0 0 1
-12.900924 -33.733605 1.020648 36.130758 1.205523 1.542544 0.119376 -0.029879 -1333660.000000 0 0 1
-14.336924 -33.552105 0.605248 36.491882 1.166976 1.554210 0.128184 -0.030034 -842617.000000 0 0 1
-14.867224 32.844135 0.233048 36.053098 -1.145733 1.564332 0.119264 -0.023603 155095.000000 0 0 1
-15.503424 32.746835 -1.038252 36.246232 -1.128627 1.599445 0.124280 -0.032429 259131.000000 0 0 1
-14.447024 32.692835 -2.203152 35.810499 -1.154697 1.632358 0.125282 -0.028883 424082.000000 0 0 1
-13.851524 31.426135 -2.398552 34.427020 -1.155649 1.640523 0.124664 -0.028911 -181028.000000 0 0 1
-12.512224 31.437835 -1.974152 33.893812 -1.192016 1.629075 0.125323 -0.025642 -600283.000000 0 0 1
-11.947724 29.972135 -1.968352 32.325708 -1.191473 1.631725 0.090951 -0.024602 78023.400000 0 0 1
-11.942724 29.386135 -3.265452 31.887878 -1.184779 1.673380 0.091426 -0.035857 -407668.000000 0 0 1
-10.784324 29.718535 -3.955352 31.861227 -1.222692 1.695261 0.079522 -0.025609 -541092.000000 0 0 1
-10.821224 29.059535 -5.367652 31.470099 -1.214324 1.742198 0.078137 -0.018802 -53276.100000 0 0 1
-11.117224 27.729235 -5.465252 30.370580 -1.189496 1.751734 0.073469 -0.018954 -40817.500000 0 0 1
-10.868024 27.084635 -6.722252 29.947956 -1.189203 1.797190 0.064817 -0.016078 -144613.000000 0 0 1
-11.463424 25.692335 -6.937052 28.976350 -1.151123 1.812548 0.092822 -0.020084 -152695.000000 0 0 1
-10.925624 24.724535 -6.095752 27.709747 -1.154704 1.792596 0.063187 -0.016541 153224.000000 0 0 1
-11.439824 23.432135 -6.442852 26.859726 -1.116624 1.813029 0.087375 -0.022256 -120815.000000 0 0 1
-10.777424 22.366235 -5.619952 25.455553 -1.121765 1.793405 0.086399 -0.028409 -1378960.000000 0 0 1
-9.420824 22.158835 -5.752352 24.755917 -1.168799 1.805302 0.087572 -0.029939 -896263.000000 0 1 0
-8.899824 20.954535 -5.206152 23.353874 -1.169162 1.795610 0.091613 -0.026934 -181698.000000 0 1 0
-8.764624 20.814035 -3.686052 22.882956 -1.172240 1.732584 0.101317 -0.037995 -406679.000000 0 1 0
-9.942424 20.536535 -2.980752 23.010562 -1.119922 1.700700 0.118015 -0.040080 -389194.000000 0 1 0
-10.508224 19.251935 -3.178752 22.162226 -1.071163 1.714724 0.107438 -0.041629 767916.000000 0 1 0
-11.922424 19.091035 -2.478852 22.644128 -1.012554 1.680486 0.097406 -0.044758 726506.000000 0 1 0
-12.005124 19.145535 -1.037752 22.621924 -1.010727 1.616686 0.108974 -0.043933 61271.600000 0 1 0
-11.493624 17.965235 -0.447352 21.331976 -1.001646 1.591769 0.081730 -0.037084 -294503.000000 0 1 0
-11.363924 18.057535 1.099048 21.364018 -1.009098 1.519330 0.085351 -0.035547 -698188.000000 0 1 0
-12.539724 18.305635 1.796848 22.261393 -0.970195 1.489993 0.102235 -0.034376 -391284.000000 0 1 0
-12.306524 18.520735 3.184248 22.463473 -0.984314 1.428565 0.098855 -0.025336 -73714.200000 0 1 0
-13.583124 18.318735 4.015748 23.156069 -0.932765 1.396494 0.105376 -0.037116 -4649.340000 0 1 0
-13.826124 16.933035 4.289448 22.277539 -0.886064 1.377040 0.070059 -0.037525 -2468.330000 0 1 0
-15.099324 16.872035 4.874948 23.160749 -0.840788 1.358727 0.094232 -0.042882 -275565.000000 0 1 0
-15.461024 15.548835 5.527648 22.613368 -0.788230 1.323853 0.066341 -0.036962 -545763.000000 0 1 0
-14.742324 15.246935 6.694748 22.240162 -0.802223 1.265034 0.068408 -0.022934 -370034.000000 0 1 0
-15.234224 15.847535 7.858348 23.344798 -0.805128 1.227470 0.067420 -0.024794 -1673010.000000 0 1 0
-14.236824 15.840535 9.012548 23.126516 -0.838667 1.170484 0.061103 -0.016666 150834.000000 0 1 0
-13.135524 16.707735 8.818148 23.009784 -0.904530 1.177500 0.067659 -0.031575 390675.000000 0 1 0
-12.212924 16.347135 7.765248 21.833081 -0.929155 1.207172 0.062181 -0.031780 -614182.000000 0 1 0
-11.026924 17.375035 7.633848 21.949044 -1.005294 1.215574 0.075318 -0.034546 808913.000000 0 1 0
-10.070924 17.252935 8.694748 21.787288 -1.042432 1.160289 0.070876 -0.034821 425016.000000 0 1 0
-9.170824 18.360335 8.626348 22.262520 -1.107556 1.172897 0.068323 -0.037289 -526150.000000 0 1 0
-7.920624 18.325435 9.474548 22.098075 -1.162826 1.127688 0.063330 -0.037091 -702247.000000 0 1 0
-6.986324 17.444935 8.849348 20.771265 -1.189877 1.130687 0.054189 -0.033646 656777.000000 0 1 0
-5.675224 17.493435 9.450248 20.676935 -1.257089 1.096129 0.049250 -0.036806 1191810.000000 0 1 0
-4.693324 18.548635 8.872448 21.090270 -1.322970 1.136591 0.037944 -0.037280 -712146.000000 0 1 0
-4.886324 19.770535 9.400048 22.430139 -1.328500 1.138363 0.044468 -0.040799 -254645.000000 0 1 0
-4.526124 20.792035 8.553948 22.933917 -1.356455 1.188575 0.048843 -0.037759 554078.000000 0 1 0
-3.083124 21.384335 8.565948 23.241577 -1.427606 1.193335 0.048624 -0.030470 1319850.000000 0 1 0
-1.934824 20.630235 8.114348 22.252928 -1.477284 1.197548 0.040108 -0.016583 491453.000000 0 1 0
-0.822324 21.471135 8.048748 22.944895 -1.532516 1.212386 0.036710 -0.012882 -307094.000000 0 1 0
0.541476 20.791135 7.910048 22.251592 1.544759 1.207366 0.028704 0.004036 76716.100000 0 1 0
0.888476 19.870335 8.919548 21.798577 1.526112 1.149241 0.024697 -0.015966 5168.060000 0 1 0
2.290476 19.622535 8.991848 21.705840 1.454595 1.143667 0.019627 -0.007571 571837.000000 0 1 0
2.708176 18.882835 10.300748 21.679508 1.428348 1.075676 0.006883 -0.028078 1074770.000000 0 1 0
4.135376 18.730135 10.488448 21.861538 1.353495 1.070407 0.030768 -0.009849 1306870.000000 0 1 0
4.530576 18.019035 11.696148 21.954763 1.324470 1.008963 0.022683 -0.020155 -742275.000000 0 1 0
5.993476 18.151435 12.010048 22.575155 1.251875 1.009832 0.046638 -0.021945 -592629.000000 0 1 0
6.928976 17.424135 11.213748 21.848554 1.192304 1.031830 0.039587 -0.022872 632611.000000 0 1 0
7.894576 16.720935 12.036848 22.063538 1.129686 0.993746 0.047084 -0.021190 71450.600000 0 1 0
9.069676 16.112535 11.285148 21.661657 1.058106 1.022805 0.060765 -0.031774 -657961.000000 0 1 0
10.031876 17.066335 11.005948 22.650148 1.039383 1.063392 0.075461 -0.039929 -479883.000000 0 1 0
11.137676 16.544935 10.293148 22.443966 0.978300 1.094360 0.076123 -0.043039 -257673.000000 0 1 0
11.996176 17.600535 9.673748 23.393770 0.972540 1.144482 0.074111 -0.034201 201182.000000 0 1 0
13.099876 17.081735 8.914548 23.299390 0.916571 1.178178 0.090793 -0.032068 820538.000000 0 1 0
14.253076 17.926735 8.907248 24.573503 0.899066 1.199876 0.105138 -0.028335 314149.000000 0 1 0
15.204276 17.602035 7.783648 24.527267 0.858357 1.247866 0.104543 -0.024521 -536312.000000 0 1 0
15.772976 16.327435 7.823748 24.012141 0.802669 1.238912 0.129215 -0.044974 1051810.000000 0 1 0
16.887276 16.235535 6.879548 24.415177 0.765724 1.285154 0.124110 -0.033023 2318490.000000 0 1 0
18.367076 16.336135 7.483948 25.694907 0.726942 1.275251 0.125936 -0.030758 1204440.000000 0 0 1
18.810476 15.152735 8.119248 25.482574 0.678115 1.246523 0.142014 -0.026915 106251.000000 0 0 1
19.761276 15.350135 9.126348 26.635031 0.660420 1.221066 0.130606 -0.024048 -273875.000000 0 0 1
20.271076 14.144535 9.980648 26.657039 0.609227 1.187036 0.127942 -0.023115 605227.000000 0 0 1
21.194176 13.237935 9.314448 26.668239 0.558313 1.214003 0.156068 -0.031651 881617.000000 0 0 1
21.398776 12.196235 10.254948 26.679950 0.518031 1.176272 0.143766 -0.032009 -505541.000000 0 0 1
22.249076 11.024735 9.823448 26.703301 0.460053 1.194075 0.117812 -0.018785 -507282.000000 0 0 1
23.634776 11.226935 10.065448 28.034977 0.443463 1.203566 0.112730 -0.022472 1629320.000000 0 0 1
24.553976 10.255835 9.436548 28.233461 0.395659 1.230005 0.126953 -0.025977 751602.000000 0 0 1
24.443976 8.787935 9.791448 27.759831 0.345125 1.210320 0.129597 -0.035149 72750.900000 0 0 1
23.150576 8.263635 9.421648 26.324974 0.342854 1.204781 0.124769 -0.033273 1141280.000000 0 0 1
22.842876 6.884335 9.594848 25.714824 0.292720 1.188421 0.110198 -0.035782 -567442.000000 0 0 1
23.778676 5.846335 8.980348 26.081635 0.241083 1.219285 0.116498 -0.042452 -277376.000000 0 0 1
23.616276 5.853535 7.601348 25.490642 0.242964 1.267988 0.102078 -0.029707 844325.000000 0 0 1
24.815276 5.490335 6.913148 26.338817 0.217741 1.305215 0.133477 -0.036184 629956.000000 0 0 1
24.426776 5.258535 5.394248 25.562032 0.212041 1.358172 0.148211 -0.041718 -171692.000000 0 0 1
23.697076 4.056735 5.189048 24.595421 0.169548 1.358223 0.138788 -0.033212 372934.000000 0 1 0
23.466476 3.883635 3.802948 24.087767 0.164011 1.412254 0.171760 -0.033019 -409449.000000 0 1 0
22.480476 2.732535 3.569048 22.925458 0.120958 1.414480 0.167256 -0.024409 -257649.000000 0 1 0
22.914476 1.486835 4.128248 23.330802 0.064795 1.392916 0.177035 -0.024956 859251.000000 0 1 0
22.061476 0.449735 3.618348 22.360756 0.020383 1.408265 0.176096 -0.018029 283830.000000 0 1 0
22.726176 -0.947265 3.752448 23.053356 -0.041658 1.407297 0.196394 -0.025978 -117023.000000 0 1 0
22.897976 -1.508365 5.078048 23.502745 -0.065778 1.353017 0.191541 -0.023059 532810.000000 0 1 0
23.282476 -2.875265 5.128148 24.013303 -0.122873 1.355584 0.198018 -0.028793 -75022.200000 0 1 0
22.890676 -3.349865 6.566848 24.048454 -0.145310 1.294216 0.206188 -0.038275 81493.000000 0 1 0
23.193776 -4.745765 6.704148 24.605266 -0.201828 1.294839 0.198545 -0.037109 499687.000000 0 1 0
23.228376 -5.182165 8.050648 25.124196 -0.219502 1.244609 0.231042 -0.047891 -158245.000000 0 0 1
22.889876 -6.626265 8.312148 25.237781 -0.281782 1.235178 0.230038 -0.049718 296915.000000 0 0 1
21.493576 -6.890365 8.325848 24.057653 -0.310227 1.217408 0.236334 -0.060476 757959.000000 0 1 0
21.298776 -8.160065 8.893848 24.481116 -0.365874 1.198995 0.229742 -0.052592 -219521.000000 0 1 0
-28.033394 -32.493405 5.252148 43.235143 0.858952 1.449017 0.086847 -0.031297 192052.000000 0 0 1
-28.700484 -33.691805 5.634448 44.616169 0.865227 1.444171 0.093203 -0.036630 161157.000000 0 0 1
-28.785904 33.766335 7.024648 44.923706 -0.864851 1.413784 0.088355 -0.026160 317154.000000 0 0 1
-29.603754 32.461735 7.440748 44.559076 -0.831413 1.403024 0.106095 -0.035103 178210.000000 0 0 1
-30.994684 32.620035 7.391548 45.600133 -0.810943 1.407983 0.094773 -0.032902 -305714.000000 0 0 1
-31.763154 31.468535 7.716848 45.373080 -0.780739 1.399890 0.110014 -0.042027 328306.000000 0 0 1
-33.284654 31.658735 7.622948 46.564504 -0.760367 1.406349 0.097865 -0.036175 -226131.000000 0 0 1
-33.817604 31.680935 6.353748 46.772664 -0.752788 1.434532 0.088882 -0.029933 -941962.000000 0 0 1
-35.165310 32.005435 6.365648 47.973622 -0.738390 1.437713 0.075564 -0.021501 -965008.000000 0 0 1
-35.787701 31.748335 5.019748 48.103162 -0.725659 1.466252 0.070792 -0.011737 -515247.000000 0 0 1
-35.657497 30.393035 4.646248 47.082707 -0.705863 1.471953 0.077876 -0.019824 108592.000000 0 0 1
-36.334874 30.120135 3.463548 47.322741 -0.692151 1.497541 0.084860 -0.002505 -260811.000000 0 0 1
-35.886490 28.764035 2.886848 46.081925 -0.675672 1.508109 0.088554 -0.018016 -52093.800000 0 0 1
-36.422694 27.599735 3.463448 45.829614 -0.648450 1.495152 0.123731 -0.034938 289738.000000 0 0 1
-35.623102 26.489135 3.105848 44.500854 -0.639389 1.500947 0.107245 -0.035803 -163229.000000 0 0 1
-36.129744 25.214135 3.772348 44.219245 -0.609300 1.485382 0.128468 -0.035911 -65565.900000 0 0 1
-37.393824 24.800535 3.288248 44.990857 -0.585616 1.497644 0.149244 -0.034513 -317166.000000 0 0 1
37.580536 23.985835 4.242248 44.784078 0.568072 1.475927 0.151428 -0.035690 334302.000000 0 0 1
36.026706 23.879935 4.011748 43.408167 0.585349 1.478245 0.168041 -0.037212 720886.000000 0 0 1
35.560756 22.977335 3.015348 42.445466 0.573659 1.499696 0.156467 -0.051380 201254.000000 0 0 1
35.817566 21.661635 3.401748 41.996385 0.543924 1.489707 0.140808 -0.049048 -591957.000000 0 0 1
35.041836 20.659335 2.414348 40.750061 0.532709 1.511514 0.159349 -0.040178 1338240.000000 0 0 1
33.601636 20.641035 2.567848 39.518554 0.550858 1.505772 0.151455 -0.052087 1333290.000000 0 0 1
33.170196 19.773735 3.605148 38.784785 0.537569 1.477709 0.130370 -0.044324 -340803.000000 0 0 1
33.554816 18.257335 3.465348 38.357067 0.498306 1.480329 0.147372 -0.051800 -568228.000000 0 0 1
32.831656 17.663935 2.398848 37.358890 0.493595 1.506541 0.119082 -0.054806 142543.000000 0 0 1
32.948106 16.266835 2.309448 36.817403 0.458604 1.508028 0.117216 -0.045627 -603805.000000 0 0 1
32.161696 15.353335 3.213548 35.783047 0.445388 1.480869 0.137312 -0.050471 160704.000000 0 0 1
30.770716 15.307935 2.841648 34.485429 0.461633 1.488301 0.124081 -0.049348 341927.000000 0 0 1
30.138766 14.619435 3.864648 33.719558 0.451633 1.455932 0.125315 -0.057264 -100187.000000 0 0 1
28.615166 14.925535 3.917248 32.510677 0.480774 1.450012 0.122250 -0.047583 222533.000000 0 0 1
28.001166 14.564735 2.711648 31.678855 0.479635 1.485093 0.125257 -0.049428 446188.000000 0 0 1
26.586866 14.831135 2.688748 30.562287 0.508840 1.482706 0.093035 -0.032887 935915.000000 0 0 1
25.850466 14.176535 1.486048 29.519977 0.501618 1.520435 0.099317 -0.035575 -81810.600000 0 0 1
26.251066 14.508935 0.138348 29.994113 0.504913 1.566184 0.106206 -0.040879 679930.000000 0 0 1
27.539266 13.995335 -0.219052 30.892208 0.470183 1.577887 0.113410 -0.041143 -27478.300000 0 0 1
28.287066 14.710535 -1.370252 31.912937 0.479554 1.613747 0.128801 -0.038996 -13045.500000 0 0 1
28.636566 16.069235 -1.200252 32.858999 0.511359 1.607332 0.073331 -0.034858 642381.000000 0 0 1
29.428266 16.355735 -0.022852 33.667988 0.507272 1.571475 0.087170 -0.034071 -202247.000000 0 0 1
29.830666 17.849435 0.173648 34.763502 0.539212 1.565801 0.087737 -0.030501 -597164.000000 0 0 1
30.828406 18.222435 -0.682052 35.817774 0.533844 1.589840 0.111587 -0.027409 -651907.000000 0 0 1
31.389386 19.495435 -0.498852 36.954220 0.555778 1.584296 0.099094 -0.017965 -205044.000000 0 0 1
32.366076 19.753935 -1.627652 37.952998 0.547979 1.613695 0.080355 -0.014230 -433971.000000 0 0 1
32.932406 21.042535 -1.725752 39.119175 0.568576 1.614926 0.064637 -0.006560 669767.000000 0 0 1
32.051786 22.045335 -2.277252 38.967931 0.602494 1.629269 0.082646 -0.007439 69320.400000 0 0 1
32.835266 23.375835 -2.539252 40.386039 0.618676 1.633712 0.093546 -0.014554 184367.000000 0 0 1
33.087186 24.235935 -1.423652 41.038630 0.632198 1.605494 0.102491 -0.017881 215566.000000 0 0 1
34.149616 23.722035 -0.641452 41.585366 0.607126 1.586222 0.128155 -0.009555 -388291.000000 0 0 1
34.729516 24.761635 0.333448 42.654297 0.619388 1.562979 0.147725 -0.038649 11327.900000 0 0 1
35.366216 25.902135 -0.218752 43.837628 0.632140 1.575786 0.160349 -0.031023 580885.000000 0 0 1
36.497416 26.271735 0.591348 44.973493 0.623907 1.557647 0.158344 -0.037078 1203960.000000 0 0 1
37.320546 27.527735 0.112148 46.374690 0.635520 1.568378 0.118093 -0.035414 470376.000000 0 0 1
37.760606 27.570735 -1.253952 46.771585 0.630673 1.597610 0.105653 -0.030482 491882.000000 0 0 1
36.668586 27.854735 -2.106052 46.096712 0.649639 1.616500 0.092595 -0.025968 247257.000000 0 0 1
37.044596 27.493135 -3.556652 46.269043 0.638467 1.647741 0.095722 -0.025049 424768.000000 0 0 1
-37.611214 28.326435 -4.292552 47.280190 -0.645506 1.661711 0.097862 -0.025160 428405.000000 0 0 1
-37.417304 27.810135 -5.617852 46.957625 -0.639162 1.690720 0.103057 -0.027309 -86169.700000 0 0 1
36.961816 27.852235 -6.601952 46.749423 0.645763 1.712490 0.071903 -0.011639 337479.000000 0 0 1
35.921006 26.950435 -6.262352 45.341611 0.643674 1.709354 0.078648 -0.006425 361333.000000 0 0 1
34.744916 27.140535 -7.066552 44.651472 0.663133 1.729725 0.059148 -0.006193 598488.000000 0 0 1
33.551816 26.263635 -6.637952 43.122677 0.664151 1.725343 0.060821 0.000614 -299213.000000 0 0 1
33.610706 24.803635 -6.749952 42.313848 0.635756 1.731002 0.050678 0.001808 781248.000000 0 0 1
34.682566 24.114635 -6.008952 42.667359 0.607562 1.712099 0.063627 -0.003947 936255.000000 0 0 1
34.847726 22.615535 -6.233952 42.008196 0.575659 1.719745 0.068930 -0.002810 57741.000000 0 0 1
33.757166 21.795535 -5.878252 40.609672 0.573316 1.716057 0.054273 0.004282 165068.000000 0 0 1
34.196456 20.428835 -5.949952 40.275760 0.538503 1.719069 0.062186 -0.004736 -173735.000000 0 0 1
33.203786 19.418635 -5.379952 38.839653 0.529192 1.709760 0.082064 -0.008373 -410526.000000 0 0 1
32.098046 19.329435 -6.246652 37.985948 0.542035 1.735993 0.051851 -0.012598 261470.000000 0 0 1
30.957116 18.719235 -5.621752 36.610885 0.543856 1.724960 0.074846 -0.020964 1676260.000000 0 0 1
29.641466 18.671335 -6.500352 35.629901 0.562119 1.754265 0.035139 -0.026160 1083260.000000 0 0 1
29.730666 17.523135 -7.318952 35.278036 0.532586 1.779779 0.033706 -0.020417 606510.000000 0 0 1
28.466366 17.426135 -7.975752 34.316421 0.549317 1.805359 0.057861 -0.027354 367748.000000 0 0 1
28.463166 16.275935 -8.988552 33.997822 0.519445 1.838364 0.067575 -0.024090 9848.220000 0 0 1
27.809266 16.519535 -10.256152 33.932859 0.536018 1.877847 0.065203 -0.021504 157990.000000 0 0 1
28.033766 15.485335 -11.210952 33.931889 0.504670 1.907519 0.070171 -0.012643 -171714.000000 0 0 1
27.328966 15.608835 -12.598152 33.900170 0.518933 1.951555 0.079785 -0.004573 48693.000000 0 0 1
25.914266 15.482835 -12.401952 32.635498 0.538553 1.960608 0.064104 -0.005375 545058.000000 0 0 1
25.252266 15.597935 -13.655752 32.671885 0.553321 2.002002 0.056939 -0.013898 -212214.000000 0 0 1
25.184766 14.272235 -14.461152 32.358832 0.515575 2.034093 0.058257 -0.012164 -640636.000000 0 0 1
26.386866 13.820335 -15.042152 33.369667 0.482473 2.038428 0.084782 -0.015761 -65165.900000 0 0 1
26.733766 14.498735 -16.236752 34.475204 0.496942 2.061185 0.101243 -0.017798 -152050.000000 0 0 1
28.145466 14.138735 -16.773252 35.684913 0.465522 2.060130 0.125971 -0.011803 229769.000000 0 0 1
28.326866 12.762535 -17.119252 35.473404 0.423307 2.074410 0.124497 -0.022889 549596.000000 0 0 1
29.702966 12.376135 -17.227752 36.499730 0.394788 2.062351 0.122515 -0.004741 898299.000000 0 0 1
29.766966 10.863235 -17.621052 36.257187 0.349924 2.078305 0.095687 -0.004312 -165022.000000 0 0 1
29.340066 10.633135 -18.960252 36.515670 0.347687 2.116753 0.104820 -0.010447 -13615.100000 0 0 1
29.518866 9.363335 -19.513652 36.603526 0.307159 2.133067 0.101130 -0.017136 -974940.000000 0 0 1
30.863916 9.008135 -20.084752 37.909432 0.283978 2.129171 0.099581 -0.018902 -1162820.000000 0 0 1
31.369896 9.956035 -21.057652 39.071955 0.307320 2.139981 0.095123 -0.020844 563741.000000 0 0 1
31.972166 9.286835 -22.221852 40.028432 0.282687 2.159342 0.057105 -0.013045 993429.000000 0 0 1
33.459376 8.783735 -22.085752 41.042225 0.256726 2.139005 0.053926 -0.008819 926510.000000 0 0 1
34.434286 9.826135 -22.167252 42.114843 0.277971 2.125101 0.051811 -0.011033 -402644.000000 0 0 1
35.728346 9.355535 -22.307752 43.147150 0.256102 2.114157 0.020484 -0.008880 -926196.000000 0 0 1
36.781496 10.413635 -22.074052 44.142791 0.275901 2.094465 0.049224 -0.010429 -647753.000000 0 0 1
36.704516 11.006935 -20.768252 43.585484 0.291346 2.067460 0.036780 -0.011354 156363.000000 0 0 1
-37.717214 11.766435 -20.500352 44.511815 -0.302397 2.049422 0.014896 -0.006463 -133274.000000 0 0 1
37.692346 12.458535 -19.133752 44.068452 0.319227 2.019927 0.032419 -0.012050 -161078.000000 0 0 1
37.737856 11.586235 -18.019952 43.394761 0.297884 1.999021 0.025867 -0.009120 242795.000000 0 0 1
37.530986 12.260935 -16.823752 42.917876 0.315758 1.973600 0.034528 -0.011626 94638.500000 0 0 1
-37.541154 11.462435 -15.555452 42.222006 -0.296339 1.948106 0.041084 -0.010736 -634530.000000 0 0 1
37.157356 10.422335 -15.243752 41.492965 0.273465 1.946989 0.019508 -0.013794 -82749.300000 0 0 1
37.587676 9.570935 -14.200452 41.304830 0.249331 1.921753 0.022174 -0.024880 -255325.000000 0 0 1
36.720516 8.297635 -13.982152 40.159029 0.222235 1.926414 0.074816 -0.024499 -136274.000000 0 0 1
35.508126 8.536635 -13.320752 38.873430 0.235936 1.920554 0.083295 -0.021695 251148.000000 0 0 1
35.625376 8.266535 -11.941152 38.471991 0.228006 1.886395 0.087738 -0.020895 -379442.000000 0 0 1
34.496806 9.030235 -11.221552 37.383124 0.256025 1.875674 0.116466 -0.022719 -103483.000000 0 0 1
34.635126 10.432135 -11.193752 37.864514 0.292558 1.870908 0.118587 -0.035126 -26035.100000 0 0 1
33.916236 10.976935 -10.112552 37.054930 0.313009 1.847210 0.113148 -0.018489 -374927.000000 0 0 1
34.479116 10.704235 -8.690652 37.133778 0.301021 1.807024 0.128182 -0.021144 -68275.300000 0 0 1
35.613436 11.406835 -8.236752 38.291994 0.309971 1.787594 0.114952 -0.027086 -113216.000000 0 0 1
35.331646 12.734935 -7.720152 38.341942 0.345945 1.773532 0.111091 -0.024346 -325869.000000 0 0 1
35.070736 12.712835 -6.217252 37.818341 0.347759 1.735944 0.089444 -0.025231 84820.500000 0 0 1
36.265126 12.522835 -5.481352 38.755980 0.332494 1.712705 0.109770 -0.024152 357422.000000 0 0 1
36.055056 12.820735 -4.146752 38.490698 0.341644 1.678740 0.110725 -0.027544 590530.000000 0 0 1
37.418126 12.536735 -3.433652 39.611562 0.323290 1.657588 0.123247 -0.025225 801768.000000 0 0 1
-37.236584 13.616735 -3.632352 39.814227 -0.350576 1.662156 0.123781 -0.016963 833534.000000 0 0 1
-36.038594 13.471535 -2.845752 38.579280 -0.357726 1.644627 0.146052 -0.028345 682632.000000 0 0 1
-35.133333 14.707035 -2.745252 38.186181 -0.396443 1.642750 0.133217 -0.027633 131839.000000 0 0 1
-35.644321 15.727035 -1.949952 39.008455 -0.415530 1.620805 0.161402 -0.026725 372494.000000 0 0 1
-34.799046 16.839635 -2.206852 38.722308 -0.450694 1.627819 0.146148 -0.028872 445927.000000 0 0 1
-35.201262 18.070135 -1.327052 39.590652 -0.474261 1.604322 0.156966 -0.019245 341269.000000 0 0 1
-36.395464 18.736035 -1.708652 40.970579 -0.475410 1.612513 0.140133 -0.016494 308697.000000 0 0 1
-36.951774 19.361535 -0.559252 41.720683 -0.482637 1.584201 0.135957 -0.024911 567837.000000 0 0 1
37.614766 20.526735 -0.948152 42.861596 0.499543 1.592919 0.132562 -0.024354 622397.000000 0 0 1
-37.299474 21.573835 -1.604152 43.119073 -0.524382 1.608008 0.121388 -0.018594 475876.000000 0 0 1
37.361906 22.184835 -2.521952 43.525155 0.535835 1.628771 0.098990 -0.007538 262265.000000 0 0 1
-37.654184 23.514835 -3.034952 44.497146 -0.558236 1.639055 0.130505 -0.022675 -572857.000000 0 0 1
-36.477604 23.361735 -3.748652 43.479175 -0.569626 1.657121 0.146119 -0.019700 -512018.000000 0 0 1
-35.842473 24.531935 -4.226652 43.639011 -0.600205 1.667803 0.158879 -0.027155 346453.000000 0 0 1
-34.359450 24.388035 -4.650452 42.390739 -0.617267 1.680722 0.170433 -0.045863 251163.000000 0 0 1
-34.135172 23.469735 -5.677952 41.812409 -0.602323 1.707013 0.138522 -0.026055 -955095.000000 0 0 1
-32.861564 23.726135 -6.159852 40.997020 -0.625341 1.721619 0.172896 -0.027431 -606643.000000 0 0 1
-32.553064 22.913035 -7.446552 40.498893 -0.613317 1.755719 0.168865 -0.035507 5696.220000 0 0 1
-33.392824 23.307735 -8.498552 41.599959 -0.609373 1.776537 0.157810 -0.042120 199554.000000 0 0 1
-33.077374 22.475635 -9.613552 41.130126 -0.596826 1.806714 0.115969 -0.031620 -69716.100000 0 0 1
-34.104774 22.645735 -10.734152 42.322417 -0.586158 1.827225 0.105825 -0.022421 -222519.000000 0 0 1
-34.079269 23.881635 -11.325552 43.127685 -0.611241 1.836517 0.118185 -0.023666 87869.000000 0 0 1
-34.282890 23.836235 -12.713852 43.647734 -0.607552 1.866364 0.069834 -0.017909 -513102.000000 0 0 1
-34.343280 25.259835 -13.381252 44.683085 -0.634163 1.874934 0.074444 -0.014583 -468973.000000 0 0 1
-33.193444 26.009535 -13.196152 44.186413 -0.664645 1.874071 0.083725 -0.014394 -314588.000000 0 0 1
-32.159424 25.683435 -14.129252 43.514402 -0.673904 1.901494 0.095261 -0.019828 1015670.000000 0 0 1
-30.687524 26.079535 -13.685552 42.534229 -0.704402 1.898378 0.101141 -0.025643 803513.000000 0 0 1
-30.068354 25.291935 -12.638252 41.273639 -0.699333 1.882002 0.091768 -0.033496 155917.000000 0 0 1
-30.689384 25.191335 -11.348152 41.294336 -0.687325 1.849190 0.130073 -0.032587 -344259.000000 0 0 1
-30.749914 26.484335 -10.553852 41.932815 -0.711007 1.825217 0.139166 -0.028593 42880.100000 0 0 1
-29.532594 27.094635 -10.209952 41.358633 -0.742372 1.820239 0.137570 -0.022634 -450548.000000 0 0 1
-29.850494 28.420635 -9.778552 42.360413 -0.760865 1.803739 0.124115 -0.024980 -36253.500000 0 0 1
-28.720734 29.312335 -9.267052 42.071033 -0.795592 1.792889 0.143215 -0.015458 -302573.000000 0 0 1
-29.120314 30.637835 -8.966052 43.209486 -0.810787 1.779817 0.119118 -0.024708 846018.000000 0 0 1
-28.011844 31.596335 -8.876252 43.148345 -0.845460 1.777990 0.167188 -0.012335 772910.000000 0 0 1
36.313266 -24.486365 33.259076 54.994559 -0.593275 0.921319 0.080741 -0.015519 -244833.000000 0 0 1
35.681586 -23.259165 33.369454 54.108084 -0.577677 0.906229 0.080016 -0.016777 -1531.490000 0 0 1
34.759026 -23.276065 -33.154372 53.377687 -0.590059 2.240977 0.059920 -0.008407 149535.000000 0 0 1
34.049466 -21.933665 -32.916372 52.191372 -0.572266 2.253233 0.049217 -0.003585 -144497.000000 0 0 1
33.312836 -21.473465 33.596917 51.957748 -0.572570 0.867651 0.038921 -0.008673 -66290.600000 0 0 1
32.888626 -20.131665 -33.723982 51.227459 -0.549281 2.289379 0.043451 -0.009440 242280.000000 0 0 1
32.745396 -19.294665 32.561638 50.048030 -0.532465 0.862412 0.049273 -0.020804 446490.000000 0 0 1
34.010566 -18.879865 32.047934 50.400774 -0.506764 0.881672 0.082281 -0.031547 496265.000000 0 0 1
33.834726 -18.441565 30.674687 49.252578 -0.499034 0.898475 0.092516 -0.033568 -785841.000000 0 0 1
35.107866 -18.366765 29.877647 49.624330 -0.481998 0.924697 0.085115 -0.035535 -471300.000000 0 0 1
35.938066 -17.242165 30.206507 50.012697 -0.447337 0.922315 0.085710 -0.033710 658472.000000 0 0 1
37.179696 -17.294465 29.518147 50.524740 -0.435388 0.946863 0.098748 -0.027225 117173.000000 0 0 1
-37.423624 -16.190865 29.939887 50.587238 0.408322 0.937448 0.087326 -0.022468 91508.400000 0 0 1
-36.034694 -16.419665 29.714947 49.508410 0.427553 0.927045 0.088480 -0.015418 259138.000000 0 0 1
-35.346117 -15.288965 30.183407 48.929935 0.408248 0.906037 0.085806 -0.016386 -361083.000000 0 0 1
-33.872574 -15.710665 30.328197 48.103803 0.434284 0.888633 0.094301 -0.024072 75546.200000 0 0 1
-33.022904 -14.672365 30.847667 47.511778 0.418111 0.864181 0.084142 -0.019924 -675601.000000 0 0 1
-31.794064 -15.152665 31.218667 47.064540 0.444743 0.845555 0.082690 -0.022030 -1019960.000000 0 0 1
-30.830994 -14.073065 31.737275 46.431197 0.428212 0.818204 0.074917 -0.019799 -100414.000000 0 0 1
-31.121614 -13.449465 32.988412 47.304105 0.407918 0.799076 0.093038 -0.027676 45368.900000 0 0 1
-30.085034 -12.593365 33.368308 46.659898 0.396431 0.773974 0.083462 -0.021174 -164094.000000 0 0 1
-30.407134 -12.139865 -32.778682 46.329387 0.379854 2.356770 0.081729 -0.022897 -45724.300000 0 0 1
-30.340544 -13.152465 -31.760022 45.850136 0.409044 2.336011 0.093269 -0.018952 167013.000000 0 0 1
-30.556174 -12.521565 -30.479282 44.938358 0.388916 2.316170 0.109128 -0.019270 -261049.000000 0 0 1
-30.645614 -13.585065 -29.353472 44.557087 0.417265 2.289997 0.111714 -0.014387 -16306.200000 0 0 1
-31.951474 -14.107565 -29.361832 45.629347 0.415789 2.269840 0.102806 -0.019397 -86286.300000 0 0 1
-32.266614 -14.992565 -28.240712 45.425205 0.434967 2.241704 0.118410 -0.024513 1055080.000000 0 0 1
-33.591074 -15.824365 -28.463692 46.786243 0.440252 2.224811 0.106591 -0.025184 773132.000000 0 0 1
-33.444154 -16.950265 -29.279402 47.572117 0.469091 2.233784 0.101097 -0.025582 -257186.000000 0 0 1
-34.623916 -17.696065 -29.362052 48.724700 0.472483 2.217565 0.095665 -0.028260 -404869.000000 0 0 1
-34.402996 -19.123465 -29.891232 49.424273 0.507336 2.220297 0.086829 -0.024000 492189.000000 0 0 1
-35.596423 -19.895965 -30.053122 50.657131 0.509675 2.205905 0.064289 -0.021129 394491.000000 0 0 1
-35.260164 -21.195065 -30.494842 51.209817 0.541232 2.208670 0.067850 -0.029472 -283348.000000 0 0 1
-36.450884 -22.095865 -30.811762 52.595236 0.544953 2.196698 0.089109 -0.026277 -337083.000000 0 0 1
-37.258294 -22.498565 -29.710872 52.698215 0.543248 2.169767 0.064511 -0.026073 139572.000000 0 0 1
37.278436 -23.389265 -30.118852 53.328086 -0.560338 2.170968 0.070815 -0.018686 193954.000000 0 0 1
37.688356 -24.864565 -30.456232 54.463206 -0.583193 2.164226 0.060371 -0.007595 -153364.000000 0 0 1
-37.185944 -25.011235 -31.693362 54.889211 0.592098 2.186344 0.073880 -0.011857 -134722.000000 0 0 1
-36.409194 -26.205785 -31.639792 54.894891 0.623863 2.185076 0.057648 -0.009418 85965.800000 0 0 1
-36.681684 -27.244415 -32.772952 56.230512 0.638829 2.193006 0.074016 -0.015161 -756746.000000 0 0 1
37.653136 -27.834965 -32.626332 57.070320 -0.636584 2.179356 0.089035 -0.013877 -1158830.000000 0 0 1
37.336426 -28.992515 -33.440662 57.903821 -0.660260 2.186485 0.087965 -0.019336 344078.000000 0 0 1
-37.522124 -30.311095 -32.986802 58.436302 0.679491 2.170614 0.084911 -0.022678 372157.000000 0 0 1
37.508506 -30.741255 -31.764222 57.973085 -0.686567 2.150664 0.093310 -0.028384 225548.000000 0 0 1
-37.301304 -31.858775 -31.328222 58.205037 0.706865 2.139143 0.093092 -0.032005 223469.000000 0 0 1
37.751116 -32.370405 -29.973642 58.063836 -0.708814 2.113226 0.091678 -0.037528 6583.630000 0 0 1
36.490866 -33.003685 -29.939662 57.595224 -0.735261 2.117447 0.117349 -0.029821 20185.700000 0 0 1
36.008916 -33.243405 -28.679112 56.782545 -0.745486 2.100258 0.127222 -0.033668 207128.000000 0 0 1
34.680386 33.624633 -28.601432 56.137216 0.769943 2.105390 0.128674 -0.039103 78225.100000 0 0 1
33.526056 -33.509925 -29.207002 55.677288 -0.785158 2.123014 0.131994 -0.032122 -1203940.000000 0 0 1
32.436676 33.475294 -28.711952 54.745862 0.801155 2.122876 0.105082 -0.025471 -1787890.000000 0 0 1
31.223866 -33.820445 -29.493672 54.668354 -0.825297 2.140642 0.062951 -0.002995 -1194580.000000 0 0 1
31.104186 33.150977 -30.708072 54.858393 0.817242 2.164904 0.077754 0.006309 104970.000000 0 0 1
29.918466 33.575508 -31.372792 54.833214 0.842931 2.179921 0.058073 0.014298 255568.000000 0 0 1
29.818666 33.007532 -32.797892 55.266190 0.836112 2.206139 0.056280 0.003768 149313.000000 0 0 1
29.709466 31.612995 -32.716412 54.335968 0.816430 2.216942 0.042116 0.015598 -85194.200000 0 0 1
29.532166 31.034515 33.606727 54.449078 0.810198 0.905600 0.054305 0.006345 162955.000000 0 0 1
29.446766 29.488915 33.510707 53.475935 0.786113 0.893549 0.066021 -0.006541 841656.000000 0 0 1
30.719616 28.871875 33.768087 54.014477 0.754401 0.895450 0.075764 -0.004575 387884.000000 0 0 1
30.637886 27.509845 -33.738062 53.232776 0.731655 2.257231 0.073536 -0.011906 272467.000000 0 0 1
31.924146 26.738345 -33.332832 53.340115 0.697227 2.245814 0.092623 -0.021299 191829.000000 0 0 1
32.251816 26.839555 -31.997732 52.767378 0.694062 2.222312 0.101372 -0.014863 -120655.000000 0 0 1
33.485376 26.169615 -31.779492 53.066517 0.663373 2.212875 0.114787 -0.014862 250997.000000 0 0 1
34.161756 26.571265 -30.399112 52.888219 0.661062 2.183132 0.121908 -0.025908 -271304.000000 0 0 1
34.691726 27.886585 -30.448232 53.928400 0.677078 2.170751 0.090925 -0.018641 189957.000000 0 0 1
33.858276 29.070015 -30.398372 53.995459 0.709454 2.168784 0.126020 -0.023306 306283.000000 0 0 1
33.082756 29.350515 -29.051722 52.914308 0.725690 2.152004 0.138324 -0.017190 47102.300000 0 0 1
33.827756 29.880205 -27.949252 53.087705 0.723514 2.125243 0.105187 -0.020750 11204.900000 0 0 1
33.085046 29.881455 -26.755752 51.994152 0.734564 2.111328 0.114031 -0.022055 -133443.000000 0 0 1
33.976536 30.324825 -25.561982 52.224658 0.728669 2.082269 0.125764 -0.030298 150510.000000 0 0 1
34.412666 31.696072 -25.717772 53.387979 0.744328 2.073407 0.130102 -0.034726 120186.000000 0 0 1
35.071056 32.131300 -24.536452 53.520434 0.741681 2.047047 0.106251 -0.044932 243148.000000 0 0 1
35.500866 33.652293 -24.542452 54.727692 0.758673 2.035823 0.112078 -0.036268 732444.000000 0 0 1
34.327646 -33.187405 -24.603952 53.713551 -0.768511 2.046606 0.109636 -0.025610 769394.000000 0 0 1
34.688576 -31.879365 -24.284552 53.003119 -0.743223 2.046734 0.094854 -0.028555 -470451.000000 0 0 1
34.983516 -30.957475 -25.555952 53.247707 -0.724419 2.071388 0.089068 -0.033149 1190480.000000 0 0 1
36.278886 -31.159165 -26.180682 54.520448 -0.709626 2.071678 0.113814 -0.038131 903617.000000 0 0 1
37.337276 -30.492765 -25.513032 54.541687 -0.684832 2.057564 0.114288 -0.033268 107347.000000 0 0 1
-36.840804 -30.908685 -26.099452 54.715382 0.698061 2.068039 0.079691 -0.025796 54324.000000 0 0 1
-36.548564 -32.212225 -25.853092 55.152582 0.722417 2.058678 0.070990 -0.031055 -74633.500000 0 0 1
-36.094714 -32.637395 -24.530252 54.495515 0.735139 2.037711 0.076292 -0.024794 -129842.000000 0 0 1
-34.743795 -32.141485 -23.991352 53.064030 0.746511 2.039938 0.058967 -0.023716 -279878.000000 0 0 1
-34.843351 -30.742005 -23.729452 52.174868 0.722945 2.042951 0.037868 -0.022458 -206506.000000 0 0 1
-34.867707 -30.437145 -22.353152 51.398834 0.717658 2.020719 0.043785 -0.025589 -181304.000000 0 0 1
-34.716324 -28.936205 -22.024652 50.275366 0.694839 2.024258 0.057038 -0.006830 502928.000000 0 0 1
-35.855519 -28.103905 -22.265652 50.707070 0.664791 2.025397 0.038511 -0.005927 23318.400000 0 0 1
-35.926699 -27.768925 -23.612752 51.180103 0.658017 2.050330 0.052973 -0.014295 -857025.000000 0 0 1
-37.212244 -27.050305 -23.891652 51.838993 0.628565 2.049785 0.058315 -0.008391 -783181.000000 0 0 1
-37.444514 -25.737545 -23.317652 51.070792 0.602187 2.044938 0.053871 -0.005195 -245539.000000 0 0 1
37.289116 -24.811765 -24.027352 50.827310 -0.587117 2.063177 0.057831 -0.007208 166734.000000 0 0 1
-37.744894 -24.286765 -25.394492 51.569412 0.571753 2.085680 0.058171 -0.018568 -599659.000000 0 0 1
-36.703014 -23.383565 -25.308382 50.342989 0.567255 2.097538 0.054676 -0.018468 -766040.000000 0 0 1
-36.263034 -23.010565 -26.586292 50.510639 0.565434 2.125099 0.061137 -0.027435 254283.000000 0 0 1
-35.020204 -22.058665 -26.537502 49.165418 0.562104 2.140948 0.077762 -0.035526 33339.700000 0 0 1
-35.100907 -20.743965 -25.990502 48.351752 0.533761 2.138301 0.081894 -0.024090 -399016.000000 0 0 1
-36.055764 -19.822265 -26.478552 48.929071 0.502664 2.142615 0.088284 -0.022727 -141148.000000 0 0 1
-37.338364 -19.687265 -25.637832 49.386641 0.485222 2.116623 0.075114 -0.019823 -165898.000000 0 0 1
-37.307914 -19.080065 -24.350052 48.464981 0.472743 2.097198 0.065663 -0.032036 -473445.000000 0 0 1
-36.484254 -19.695765 -23.384752 47.601162 0.495012 2.084337 0.051501 -0.030508 -36169.700000 0 0 1
-37.032974 -20.974365 -22.705252 48.237886 0.515324 2.060873 0.057957 -0.013872 132537.000000 0 0 1
37.587166 -20.744065 -21.701852 48.104902 -0.504295 2.038834 0.053584 -0.016631 -215122.000000 0 0 1
37.033236 -21.929865 -21.090352 47.928931 -0.534640 2.026433 0.056914 -0.008886 915696.000000 0 0 1
35.880766 -21.533465 -20.083952 46.416426 -0.540522 2.018271 0.053196 -0.016162 1056870.000000 0 0 1
34.639036 -21.088365 -20.635752 45.501826 -0.546868 2.041501 0.066318 -0.013383 123471.000000 0 0 1
33.623246 -21.135765 -19.677152 44.321930 -0.561188 2.030809 0.072240 -0.015393 233069.000000 0 0 1
32.290216 -20.526065 -20.192152 43.263153 -0.566239 2.056385 0.075924 -0.012197 128231.000000 0 0 1
31.645836 -21.244965 -21.246552 43.637409 -0.591228 2.079320 0.079301 -0.009201 841238.000000 0 0 1
30.301166 -20.874365 -21.577152 42.655284 -0.603235 2.101163 0.108410 -0.011395 850896.000000 0 0 1
30.077166 -19.622965 -22.374052 42.311876 -0.578075 2.127969 0.100583 -0.007776 -511032.000000 0 0 1
30.508466 -18.479765 -21.649652 41.725000 -0.544619 2.116319 0.093647 -0.015691 -65579.300000 0 0 1
30.622546 -17.396465 -22.560652 41.825355 -0.516628 2.140522 0.077793 -0.006686 41702.300000 0 0 1
31.466156 -16.248165 -21.911552 41.644182 -0.476657 2.124876 0.066953 -0.012177 -60934.100000 0 0 1
30.812716 -15.647965 -20.820152 40.345520 -0.469901 2.113025 0.056891 -0.018785 358901.000000 0 0 1
31.739396 -15.039965 -19.922752 40.379522 -0.442516 2.086776 0.044945 -0.014065 445938.000000 0 0 1
32.672926 -15.963665 -19.102252 41.076206 -0.454478 2.054481 0.065097 -0.020081 239145.000000 0 0 1
33.785096 -16.434565 -19.849552 42.491556 -0.452744 2.056851 0.055544 -0.020631 94535.400000 0 0 1
34.624386 -17.283365 -19.038452 43.128012 -0.462981 2.028000 0.054562 -0.020030 -481675.000000 0 0 1
35.810596 -17.766665 -19.809952 44.614878 -0.460546 2.030878 0.050164 -0.028648 -1109420.000000 0 0 1
36.739846 -16.775665 -20.068252 45.099600 -0.428335 2.031944 0.057552 -0.036515 -488196.000000 0 0 1
37.715126 -17.154165 -20.997752 46.449991 -0.426868 2.039859 0.073832 -0.040528 -227931.000000 0 0 1
-36.987824 -16.052365 -21.575152 45.730348 0.409461 2.062117 0.094995 -0.047287 -221507.000000 0 0 1
-36.113134 -15.378665 -20.691152 44.370999 0.402588 2.055924 0.127947 -0.049378 -454987.000000 0 0 1
-35.631812 -14.238765 -21.381052 43.926277 0.380169 2.079160 0.153289 -0.048654 -1534150.000000 0 0 1
-34.268107 -13.852965 -20.832652 42.428849 0.384167 2.084036 0.159485 -0.053026 -79223.800000 0 0 1
-33.151934 -14.669765 -21.191452 41.992028 0.416600 2.099778 0.180534 -0.062321 481491.000000 0 0 1
-33.176044 -15.915165 -20.539452 42.140378 0.447291 2.079912 0.158977 -0.059797 -1391610.000000 0 0 1
-31.983564 -16.791865 -20.928652 41.748336 0.483459 2.095903 0.125467 -0.064988 -121261.000000 0 0 1
-31.961194 -18.003365 -20.173952 41.864393 0.512988 2.073605 0.136516 -0.066569 -328340.000000 0 0 1
-30.912484 -18.790265 -20.626952 41.642849 0.546174 2.089011 0.130648 -0.059392 -509027.000000 0 0 1
-31.015484 -20.150665 -19.973252 42.034990 0.576162 2.065940 0.117465 -0.019069 -110136.000000 0 0 1
-32.105234 -20.928965 -20.407752 43.419396 0.577700 2.060104 0.113490 -0.027565 62807.300000 0 0 1
-32.105414 -22.144365 -19.674952 43.683341 0.603806 2.038009 0.101506 -0.001904 -171875.000000 0 0 1
-33.135164 -23.050765 -20.319852 45.190411 0.607806 2.037169 0.073250 -0.011595 -425311.000000 0 0 1
-32.854104 -23.478465 -21.589352 45.790071 0.620476 2.061771 0.070332 -0.018653 166921.000000 0 0 1
-33.860984 -24.308765 -22.165652 47.210152 0.622638 2.059532 0.064930 -0.012830 349251.000000 0 0 1
-33.515644 -24.577465 -23.637752 47.813110 0.632736 2.087915 0.060525 -0.015050 602941.000000 0 0 1
-32.222184 -25.123805 -23.886152 47.328881 0.662243 2.099813 0.068635 -0.024434 233766.000000 0 0 1
-32.044084 -25.335565 -25.259542 48.028727 0.669012 2.124599 0.065872 -0.017168 -690532.000000 0 0 1
-30.696774 -25.978315 -25.464022 47.598122 0.702335 2.135280 0.076864 -0.028822 -665317.000000 0 0 1
-29.646314 -25.063345 -25.659342 46.534686 0.701824 2.154841 0.082138 -0.022615 782181.000000 0 0 1
-28.348234 -25.689185 -25.868622 46.181622 0.736230 2.165363 0.071563 -0.017095 1308560.000000 0 0 1
-27.246364 -24.637065 -26.003642 45.005985 0.735149 2.186805 0.075339 -0.021875 -449176.000000 0 0 1
-27.501234 -23.931065 -27.223982 45.498999 0.716094 2.212227 0.076588 -0.026664 -46770.500000 0 0 1
-26.625934 -22.847665 -27.381002 44.504780 0.709177 2.233483 0.090592 -0.015494 -94020.700000 0 0 1
-26.744234 -22.206765 -28.769412 45.122872 0.692968 2.262148 0.064473 -0.015396 -18782.600000 0 0 1
-26.073444 -22.931865 -29.788342 45.749757 0.721379 2.279849 0.075325 -0.013750 266667.000000 0 0 1
-25.901214 -22.189865 -30.947272 46.054279 0.708377 2.307667 0.066287 -0.007716 -397024.000000 0 0 1
-25.175794 -23.008865 -31.999592 46.767535 0.740457 2.324339 0.070285 -0.021032 155288.000000 0 0 1
-26.030654 -23.924165 -32.676552 48.142680 0.743255 2.316847 0.048111 -0.019619 331765.000000 0 0 1
-25.229754 -24.772165 -33.483752 48.696635 0.776247 2.328973 0.079606 -0.014336 266830.000000 0 0 1
-20.420624 -14.398865 -11.512652 27.511277 0.614150 2.002557 0.072346 -0.009724 -83001.400000 0 0 1
-20.732624 -14.256065 -10.186452 27.144813 0.602365 1.955477 0.086762 -0.013774 85071.700000 0 0 1
-19.770624 -14.766765 -9.268352 26.359766 0.641517 1.930086 0.080156 -0.019550 -7026.620000 0 0 1
-20.096024 -14.366565 -7.818752 25.911026 0.620653 1.877328 0.118223 -0.037385 418362.000000 0 0 1
-21.287224 -15.001065 -7.328452 27.053356 0.613872 1.845113 0.140174 -0.036096 373109.000000 0 0 1
-21.654924 -14.264265 -6.224552 26.667397 0.582472 1.806384 0.129825 -0.039972 181153.000000 0 0 1
-22.976824 -14.856665 -5.620252 27.932815 0.573977 1.773385 0.140068 -0.042280 128544.000000 0 0 1
-22.929024 -16.128665 -5.003352 28.476438 0.613016 1.747415 0.112634 -0.039070 152240.000000 0 0 1
-22.400924 -16.168765 -3.711852 27.874867 0.625201 1.704354 0.121513 -0.041082 -269733.000000 0 0 1
-22.232324 -17.589165 -3.149352 28.523208 0.669323 1.681436 0.087199 -0.027112 -627268.000000 0 0 1
-23.441924 -18.241565 -2.946152 29.848925 0.661281 1.669659 0.091398 -0.018160 -308112.000000 0 0 1
-23.353724 -19.268765 -2.003552 30.342972 0.689850 1.636875 0.076628 -0.015222 -1307340.000000 0 0 1
-24.524024 -20.155165 -1.914352 31.801308 0.687925 1.631030 0.081409 -0.030965 -1278080.000000 0 0 1
-24.641524 -21.121465 -2.956752 32.589314 0.708630 1.661649 0.067116 -0.030408 -20055.300000 0 0 1
-25.745444 -22.000565 -2.893052 33.988564 0.707125 1.656018 0.082741 -0.025528 448.001000 0 0 1
-25.763984 -23.001265 -4.069452 34.776451 0.728805 1.688082 0.096233 -0.029134 -745185.000000 0 0 1
-24.619324 -23.783165 -3.983052 34.461787 0.768125 1.686634 0.101908 -0.030893 -735696.000000 0 0 1
-24.357024 -24.459465 -5.160552 34.902168 0.787497 1.719198 0.104197 -0.036672 -1359890.000000 0 0 1
-22.922624 -24.393265 -5.576352 33.934846 0.816469 1.735870 0.092545 -0.027445 -1131880.000000 0 0 1
-22.488224 -23.153065 -6.051352 32.839055 0.799964 1.756128 0.060719 -0.015781 190735.000000 0 0 1
-22.022724 -22.294965 -4.993152 31.733223 0.791541 1.728801 0.056933 -0.014292 -540689.000000 0 0 1
-22.015124 -20.822365 -5.367352 30.774097 0.757562 1.746104 0.062815 0.003032 134350.000000 0 0 1
-20.943124 -20.455865 -6.239952 29.933157 0.773629 1.780799 0.046189 0.004880 440139.000000 0 0 1
-21.008524 -19.087165 -6.740652 29.173864 0.737515 1.803954 0.035537 -0.000621 396186.000000 0 0 1
-19.769624 -18.756965 -7.656352 28.306916 0.759120 1.844684 0.046079 -0.002367 485009.000000 0 0 1
-19.759324 -19.644565 -8.788052 29.215915 0.782486 1.876324 0.038632 -0.002398 410930.000000 0 0 1
-18.535324 -19.710865 -9.534352 28.687633 0.816125 1.909591 0.080466 -0.003287 474133.000000 0 0 1
-18.157024 -18.466365 -10.357852 27.892100 0.793844 1.951264 0.085500 -0.008205 -10381.900000 0 0 1
-17.711524 -17.271765 -9.701552 26.573146 0.772828 1.944524 0.102562 -0.013724 1507780.000000 0 0 1
-16.334024 -17.337565 -9.214152 25.540010 0.815193 1.939893 0.129135 -0.017150 1331490.000000 0 0 1
-15.945124 -16.068765 -8.413752 24.150433 0.789260 1.926648 0.109373 -0.021768 213592.000000 0 1 0
-16.625424 -16.212465 -7.156252 24.299397 0.772823 1.869732 0.095440 -0.018757 481708.000000 0 1 0
-16.432724 -15.055265 -6.329752 23.168107 0.741680 1.847524 0.090972 -0.023036 451756.000000 0 1 0
-17.296824 -15.200365 -4.988152 23.560834 0.720975 1.784124 0.102685 -0.030145 522837.000000 0 1 0
-17.521524 -14.045165 -4.193852 22.844230 0.675713 1.755428 0.084146 -0.024340 -123769.000000 0 1 0
-18.186624 -14.327165 -3.041652 23.351073 0.667249 1.701425 0.073295 -0.020155 -73319.600000 0 1 0
-19.244324 -13.268165 -2.612352 23.520472 0.603616 1.682093 0.100013 -0.012368 -104339.000000 0 1 0
-20.473724 -13.246265 -3.289652 24.606071 0.574255 1.704891 0.129150 -0.030571 328300.000000 0 1 0
-21.277824 -12.218365 -2.715452 24.686189 0.521255 1.681018 0.139857 -0.015417 198473.000000 0 1 0
-22.772524 -12.159165 -3.127452 26.004117 0.490430 1.691356 0.131653 -0.008702 196784.000000 0 0 1
-23.134124 -11.786365 -4.466452 26.344929 0.471203 1.741157 0.164442 -0.034863 614752.000000 0 0 1
-24.547224 -11.627865 -4.481752 27.529249 0.442382 1.734324 0.167844 -0.025359 153522.000000 0 0 1
-25.146014 -11.191765 -5.811552 28.130975 0.418748 1.778884 0.190778 -0.039464 -166788.000000 0 0 1
-25.098724 -12.327665 -6.641752 28.740740 0.456556 1.803996 0.183686 -0.046185 257659.000000 0 0 1
-25.495364 -11.895565 -7.929152 29.229942 0.436554 1.845507 0.197838 -0.049275 -150836.000000 0 0 1
-24.439124 -12.225465 -8.990552 28.767391 0.463841 1.888647 0.185939 -0.057465 -278930.000000 0 0 1
-23.375824 -11.334665 -8.959452 27.480458 0.451485 1.902897 0.181432 -0.048131 209966.000000 0 0 1
-22.244824 -11.606965 -9.777852 26.928799 0.480922 1.942389 0.146315 -0.047512 -771253.000000 0 0 1
-21.123924 -10.644665 -9.615852 25.534167 0.466775 1.956906 0.143828 -0.040102 -1143140.000000 0 0 1
-21.260124 -9.299365 -10.026452 25.278465 0.412334 1.978650 0.140726 -0.042011 1062200.000000 0 0 1
-20.045324 -8.602165 -9.673652 23.861932 0.405368 1.988214 0.135884 -0.026967 672550.000000 0 1 0
-19.775324 -7.200365 -10.304952 23.432899 0.349188 2.026133 0.115312 -0.031446 -227808.000000 0 1 0
-19.402724 -7.337565 -11.661652 23.797052 0.361549 2.082939 0.120702 -0.024603 494018.000000 0 1 0
-19.170724 -6.091865 -12.260052 23.557087 0.307678 2.118163 0.114870 -0.036642 -279947.000000 0 1 0
-18.730524 -6.185365 -13.691752 24.011567 0.318954 2.177564 0.142596 -0.021490 -498633.000000 0 1 0
-19.749924 -6.484565 -14.572852 25.386554 0.317244 2.182225 0.149457 -0.037490 58049.200000 0 0 1
-19.210924 -6.285265 -15.841452 25.681039 0.316195 2.235536 0.148296 -0.039965 -156816.000000 0 0 1
-19.806924 -7.234765 -16.862252 26.999845 0.350208 2.245328 0.116092 -0.036516 -532517.000000 0 0 1
-21.135024 -6.957665 -17.205652 28.127083 0.318027 2.229018 0.109488 -0.039256 -63466.000000 0 0 1
-21.560824 -7.849565 -18.175152 29.271504 0.349150 2.240707 0.113016 -0.046045 -86170.500000 0 0 1
-22.957924 -7.623765 -18.815352 30.646461 0.320618 2.231850 0.104377 -0.042395 -500876.000000 0 0 1
-23.064124 -6.503265 -19.717352 31.032567 0.274829 2.259292 0.105017 -0.036239 1046300.000000 0 0 1
-24.356024 -6.408765 -20.330852 32.367140 0.257296 2.249947 0.091374 -0.035168 934017.000000 0 0 1
-25.609604 -6.060265 -19.501652 32.755046 0.232366 2.208533 0.128037 -0.035132 -277738.000000 0 0 1
-25.555884 -4.687465 -19.249952 32.336298 0.181404 2.208441 0.122857 -0.025081 89728.100000 0 0 1
-26.584714 -4.419665 -18.341552 32.598972 0.164742 2.168375 0.137775 -0.022142 -384707.000000 0 0 1
-26.898114 -2.939065 -18.034452 32.517505 0.108835 2.158688 0.134499 -0.019327 45661.200000 0 0 1
-27.319964 -1.994065 -19.011552 33.343603 0.072860 2.177510 0.139668 -0.017381 1574330.000000 0 0 1
-28.690264 -2.139465 -19.490552 34.750398 0.074433 2.166236 0.154276 -0.016066 1527510.000000 0 0 1
-29.224224 -0.893765 -20.338352 35.616045 0.030573 2.178574 0.151625 -0.014574 107160.000000 0 0 1
-28.659884 -0.755165 -21.647752 35.924705 0.026343 2.217535 0.142269 -0.008452 74030.200000 0 0 1
-29.162374 -1.609365 -22.689952 36.984700 0.055130 2.231276 0.144752 -0.007758 204769.000000 0 0 1
-28.321424 -1.465465 -24.024752 37.167719 0.051698 2.273637 0.143294 -0.013407 -197548.000000 0 0 1
-28.436854 -0.213665 -24.686652 37.658082 0.007514 2.285703 0.141877 -0.019073 363222.000000 0 0 1
-27.800594 0.944735 -24.071752 36.786068 -0.033969 2.284147 0.131217 -0.010756 726884.000000 0 0 1
-26.297344 0.840935 -23.663552 35.386737 -0.031967 2.303272 0.128033 -0.011144 246613.000000 0 0 1
-25.346484 0.667435 -24.695852 35.394559 -0.026326 2.343020 0.107492 -0.014717 957061.000000 0 0 1
-24.015724 0.749435 -24.141852 34.060911 -0.031196 2.358570 0.094567 -0.014246 1316750.000000 0 0 1
-22.818124 0.304435 -25.035352 33.875187 -0.013341 2.402451 0.080567 -0.015893 257755.000000 0 0 1
-22.717124 1.087335 -26.201042 34.695023 -0.047828 2.426727 0.057437 -0.016500 302578.000000 0 0 1
-22.050924 0.255635 -27.170142 34.993217 -0.011592 2.459794 0.036206 -0.018456 8898.470000 0 0 1
-21.956224 1.006535 -28.442972 35.945675 -0.045811 2.483690 0.028636 -0.002287 -10849.300000 0 0 1
-21.002824 2.068735 -28.389982 35.374982 -0.098181 2.502344 0.031322 -0.001581 371163.000000 0 0 1
-20.994024 2.873835 -29.530022 36.345979 -0.136043 2.519173 0.020234 0.001974 120475.000000 0 0 1
-20.363924 2.325435 -30.846272 37.034977 -0.113701 2.555116 0.004864 0.005319 450792.000000 0 0 1
-18.953824 2.114335 -30.861772 36.279014 -0.111093 2.588071 -0.007223 0.009300 457675.000000 0 0 1
-18.524324 1.658035 -32.152242 37.143860 -0.089268 2.617171 -0.002527 0.004091 -400626.000000 0 0 1
-17.002624 1.538835 -32.191812 36.438578 -0.090260 2.653980 0.009202 -0.014124 -563924.000000 0 0 1
-16.422024 2.785135 -32.473912 36.496504 -0.167999 2.667662 0.018916 -0.006039 -828898.000000 0 0 1
-15.035824 2.680635 -32.583502 35.985364 -0.176430 2.703271 0.045544 -0.023060 -256601.000000 0 0 1
-14.350524 4.106435 -32.793192 36.030456 -0.278705 2.714447 0.058407 -0.022086 82889.800000 0 0 1
-14.535724 4.926935 -31.658192 35.182426 -0.326800 2.690175 0.057559 -0.031632 272386.000000 0 0 1
-14.123424 6.240135 -32.087712 35.609432 -0.416038 2.693099 0.088740 -0.023965 -188051.000000 0 0 1
-13.740924 7.301435 -31.010072 34.695079 -0.488423 2.676520 0.096797 -0.032596 -176799.000000 0 0 1
-12.436224 7.109135 -30.488002 33.685572 -0.519311 2.702355 0.154471 -0.048854 381947.000000 0 0 1
-12.452424 6.267535 -29.325452 32.470402 -0.466299 2.697833 0.137032 -0.047558 102053.000000 0 0 1
-11.015124 5.698335 -29.081622 31.615577 -0.477407 2.738497 0.178597 -0.058460 378437.000000 0 0 1
-10.501024 4.881335 -30.135462 32.283819 -0.435129 2.774721 0.145459 -0.061138 138084.000000 0 0 1
-11.183324 3.672235 -30.377482 32.578267 -0.317274 2.771922 0.144759 -0.057544 -161178.000000 0 0 1
-10.427024 2.765735 -31.393352 33.195100 -0.259276 2.810607 0.124744 -0.055870 799257.000000 0 0 1
-11.258824 1.590935 -31.598032 33.581659 -0.140376 2.796166 0.124914 -0.050656 884123.000000 0 0 1
-10.730824 0.818035 -32.650922 34.378808 -0.076085 2.823200 0.107652 -0.041137 16294.900000 0 0 1
-11.183124 1.355335 33.490775 35.334561 -0.120606 0.324472 0.111393 -0.041596 -234926.000000 0 0 1
-12.553524 1.430035 33.251248 35.570795 -0.113426 0.363127 0.078783 -0.037235 -676422.000000 0 0 1
-12.857524 1.339735 31.859784 34.382505 -0.103824 0.385454 0.069061 -0.026223 708005.000000 0 0 1
-14.352024 1.118535 31.433077 34.572678 -0.077778 0.429466 0.066737 -0.021919 637994.000000 0 0 1
-15.207724 2.238135 31.450807 35.006248 -0.146122 0.454606 0.059708 -0.014227 -1125580.000000 0 0 1
-16.374224 1.752635 30.903497 35.017326 -0.106630 0.489602 0.039200 -0.015191 -276389.000000 0 0 1
-17.428824 2.898035 30.534017 35.277312 -0.164771 0.524564 0.038494 -0.005004 493843.000000 0 0 1
-18.085224 3.601935 31.585183 36.574213 -0.196592 0.528446 0.023798 -0.004237 806991.000000 0 0 1
-17.266524 4.596335 32.256741 36.874876 -0.260166 0.505852 0.022037 -0.000473 208537.000000 0 0 1
-17.953224 5.130135 33.542737 38.389475 -0.278333 0.507940 0.008849 0.002086 -277184.000000 0 0 1
-19.163024 5.813935 33.411173 38.952918 -0.294567 0.539954 0.001503 0.000666 -490701.000000 0 0 1
-20.031024 5.332835 -33.179622 39.122479 -0.260194 2.583178 -0.004958 0.008522 327914.000000 0 0 1
-21.393824 6.076435 -33.097392 39.875508 -0.276740 2.549936 0.003702 0.002115 128837.000000 0 0 1
-21.308424 7.477735 -32.737532 39.770736 -0.337502 2.537744 0.000620 -0.004757 26833.200000 0 0 1
-21.127924 8.392435 -33.781422 40.718627 -0.378108 2.549242 -0.001242 -0.009552 -202299.000000 0 0 1
-21.216024 9.876735 -33.344572 40.737330 -0.435695 2.529637 0.017107 -0.013691 -198224.000000 0 0 1
-20.126024 10.190035 -32.474742 39.541150 -0.468684 2.534464 0.016443 -0.009118 423934.000000 0 0 1
-19.888924 11.579535 -32.207312 39.584920 -0.527236 2.521158 0.041320 -0.022832 416042.000000 0 0 1
-19.174924 12.338335 -33.442612 40.476172 -0.571765 2.543178 0.023439 -0.028658 28537.700000 0 0 1
-19.998424 12.385735 33.013898 40.537154 -0.554516 0.619083 0.033721 -0.028219 -260741.000000 0 0 1
-19.278124 12.633935 31.853533 39.318062 -0.580128 0.626388 0.029563 -0.023102 -134077.000000 0 0 1
-19.973124 11.935035 30.650167 38.481210 -0.538620 0.649317 0.031373 -0.023910 -123883.000000 0 0 1
-19.875024 10.486135 30.650117 38.005333 -0.485486 0.632641 0.033855 -0.022626 -921071.000000 0 0 1
-18.662224 9.939635 30.316167 36.961398 -0.489392 0.609016 0.033153 -0.025298 -872689.000000 0 0 1
-18.683524 8.415535 30.385977 36.649733 -0.423208 0.593316 0.032563 -0.010510 -104908.000000 0 0 1
-19.375924 7.825735 29.323737 36.007640 -0.383855 0.619144 0.042211 -0.018381 -13370.300000 0 0 1
-19.664324 6.477635 29.581927 36.107282 -0.318216 0.610644 0.037556 -0.013030 41428.700000 0 0 1
-20.364924 5.730435 28.395627 35.410163 -0.274295 0.640317 0.056020 -0.022683 -209048.000000 0 0 1
-21.694624 6.102935 28.143857 36.055225 -0.274224 0.675209 0.076056 -0.030821 -364220.000000 0 0 1
-22.290624 5.105135 27.286527 35.601810 -0.225143 0.697522 0.081568 -0.031557 1080260.000000 0 0 1
-23.838324 5.396535 27.160717 36.538923 -0.222628 0.732752 0.097993 -0.034016 784630.000000 0 0 1
-24.148024 6.306135 26.164537 36.159057 -0.255440 0.761799 0.104605 -0.036592 12870.100000 0 0 1
-25.540394 6.341435 25.958117 36.964164 -0.243369 0.792242 0.106376 -0.036056 -391700.000000 0 0 1
-25.968234 7.154935 24.706667 36.550810 -0.268856 0.828538 0.106315 -0.033950 -266807.000000 0 0 1
-26.012194 6.455835 23.447567 35.610398 -0.243270 0.852043 0.096295 -0.024624 70500.500000 0 0 1
-26.961024 5.442735 23.386137 36.103069 -0.199197 0.866155 0.087397 -0.022340 -633259.000000 0 0 1
-27.045374 4.843335 21.976187 35.183277 -0.177203 0.896151 0.099008 -0.017844 -182938.000000 0 0 1
-27.602594 5.647535 20.963287 35.117763 -0.201816 0.931112 0.087665 -0.012802 64206.900000 0 0 1
-27.681984 4.982035 19.725487 34.354152 -0.178068 0.959193 0.095997 -0.018900 99887.300000 0 0 1
-28.626264 5.734435 18.736587 34.690149 -0.197704 1.000225 0.120206 -0.024682 -109533.000000 0 0 1
-29.994914 5.504235 18.880187 35.867157 -0.181486 1.016445 0.128399 -0.024018 -392055.000000 0 0 1
-30.760964 6.025735 17.832487 36.063056 -0.193440 1.053559 0.144078 -0.023875 896548.000000 0 0 1
-32.299794 6.123235 18.178487 37.566316 -0.187352 1.065686 0.150388 -0.022272 1008290.000000 0 0 1
-32.711664 7.212535 19.006487 38.513896 -0.217016 1.054691 0.167772 -0.030578 -50439.600000 0 0 1
-34.044202 7.002135 19.402087 39.805510 -0.202849 1.061661 0.183016 -0.026420 -182738.000000 0 0 1
-34.706583 8.298935 19.865687 40.841949 -0.234710 1.062827 0.181918 -0.020743 -286251.000000 0 0 1
-34.256480 8.646535 21.135087 41.169903 -0.247242 1.031698 0.152866 -0.011883 228438.000000 0 0 1
-35.038953 9.715335 21.654887 42.320800 -0.270478 1.033652 0.149492 -0.014150 395044.000000 0 0 1
-0.042024 32.732235 12.290948 34.963815 -1.569512 1.211588 0.156753 -0.031275 -20214.500000 0 0 1
-0.484624 32.753835 13.575548 35.459048 -1.556001 1.177915 0.157116 -0.034069 -449467.000000 0 0 1
-0.213524 -33.648205 14.166348 36.509351 1.564451 1.172314 0.149517 -0.035339 -19990.800000 0 0 1
-0.412724 -33.712905 15.689348 37.187175 1.558555 1.135254 0.156421 -0.040089 1086820.000000 0 0 1
-1.716024 33.562335 16.192848 37.303933 -1.519711 1.121781 0.141335 -0.035049 815744.000000 0 0 1
-1.689624 33.753535 17.576448 38.093142 -1.520780 1.091216 0.134363 -0.042257 -561554.000000 0 0 1
-3.048924 -33.532305 18.146448 38.249248 1.480121 1.076484 0.140030 -0.036319 -229153.000000 0 0 1
-3.984324 33.042035 18.133848 37.901021 -1.450792 1.071904 0.135579 -0.035780 -201209.000000 0 0 1
-5.024324 33.296135 19.025648 38.676242 -1.421028 1.056502 0.110698 -0.028236 -300941.000000 0 0 1
-6.101324 32.175735 19.027148 37.875275 -1.383396 1.044466 0.105407 -0.031519 -150902.000000 0 0 1
-7.079424 32.381635 18.062948 37.748624 -1.355558 1.071844 0.100689 -0.036507 -246344.000000 0 0 1
-8.150124 31.448035 18.170048 37.223032 -1.317214 1.060839 0.088294 -0.036280 389947.000000 0 0 1
-9.246624 31.619335 17.103248 37.118776 -1.286294 1.091933 0.087813 -0.048828 150288.000000 0 0 1
-10.115424 32.749135 17.160748 38.331696 -1.271216 1.106615 0.090911 -0.040046 440819.000000 0 0 1
-11.009524 32.764435 16.039648 38.104962 -1.246629 1.136322 0.090141 -0.041955 798230.000000 0 0 1
-12.057924 -33.709905 16.026248 39.224888 1.227281 1.149906 0.092792 -0.047236 853077.000000 0 0 1
-13.132424 33.740435 16.971648 39.986427 -1.199618 1.132458 0.089758 -0.042840 664558.000000 0 0 1
-14.127624 -32.910405 16.752348 39.538914 1.165310 1.133278 0.076322 -0.039665 493504.000000 0 0 1
-15.410324 -33.207405 17.583248 40.612565 1.136309 1.123032 0.098524 -0.034863 137294.000000 0 0 1
-15.178224 -33.188005 18.967448 41.128898 1.141855 1.091482 0.095868 -0.028973 212809.000000 0 0 1
-16.378624 -33.219705 19.734348 41.967280 1.112733 1.081243 0.100821 -0.028041 300187.000000 0 0 1
-16.211124 -32.690005 21.185248 42.193029 1.110430 1.044767 0.101790 -0.026561 -157242.000000 0 0 1
-16.119824 -31.269705 21.242648 41.096147 1.094818 1.027569 0.105804 -0.024803 34463.700000 0 0 1
-15.990824 -30.776905 22.552948 41.371002 1.091614 0.994241 0.104698 -0.021781 91745.500000 0 0 1
-15.823724 -29.259605 22.577348 40.202629 1.075040 0.974492 0.118925 -0.032322 -93429.300000 0 0 1
-15.766224 -28.737805 23.879148 40.554272 1.069011 0.941199 0.120397 -0.023735 150.109000 0 0 1
-15.572224 -27.356405 24.001448 39.584550 1.053305 0.919354 0.101482 -0.023142 11301.500000 0 0 1
-16.805924 -26.512105 23.609748 39.277869 1.005825 0.925925 0.117535 -0.020841 -103953.000000 0 0 1
-17.926024 -26.676305 24.438348 40.375741 0.979122 0.920687 0.124356 -0.013348 30787.000000 0 0 1
-19.011524 -25.892805 23.970648 40.080761 0.937458 0.929720 0.119020 -0.008305 -198146.000000 0 0 1
-20.132824 -25.676905 25.049448 41.135252 0.905837 0.916056 0.106352 -0.011651 262894.000000 0 0 1
-20.864824 -26.808105 25.491248 42.471392 0.909426 0.927048 0.111042 -0.013422 441794.000000 0 0 1
-21.594324 -27.522805 24.499648 42.708926 0.905518 0.959851 0.091109 -0.012358 -245021.000000 0 0 1
-23.031724 -26.999505 24.158248 42.930811 0.864539 0.973118 0.058310 -0.002797 213154.000000 0 0 1
-23.168824 -25.718105 23.594748 41.891855 0.837497 0.972507 0.074330 -0.009285 147033.000000 0 0 1
-24.551024 -25.462405 23.426748 42.425221 0.803619 0.985809 0.062501 -0.004261 104584.000000 0 0 1
-24.902224 -24.029105 22.956948 41.527583 0.767556 0.985061 0.060350 -0.001158 -189648.000000 0 0 1
-25.339974 -23.307505 24.032148 41.986882 0.743643 0.961400 0.048524 -0.005461 -332742.000000 0 0 1
-26.070974 -22.216505 23.636248 41.616595 0.705744 0.966780 0.034899 -0.000512 -105722.000000 0 0 1
-26.604134 -21.230805 24.662648 42.033002 0.673536 0.943763 0.037317 0.005320 232885.000000 0 0 1
-27.640784 -21.698805 25.501748 43.418778 0.665545 0.943023 0.022616 0.002581 109819.000000 0 0 1
-28.251514 -20.661805 26.243148 43.746555 0.631459 0.927432 0.024161 0.000295 2203.210000 0 0 1
-29.369924 -21.243805 27.201348 45.318926 0.626205 0.927020 0.031401 -0.000366 1388560.000000 0 0 1
-30.704704 -21.385605 26.679348 45.955528 0.608368 0.951396 0.037545 -0.005649 976060.000000 0 0 1
-30.954824 -22.317805 25.660048 45.986124 0.624668 0.978828 0.029334 -0.003396 -808077.000000 0 0 1
-32.466984 -22.571805 25.511148 47.057519 0.607513 0.997830 0.051485 -0.005542 91435.700000 0 0 1
-32.963764 -23.203305 24.303848 47.071012 0.613341 1.028244 0.036618 -0.008798 174158.000000 0 0 1
-32.554684 -24.564205 24.127748 47.385186 0.646408 1.036561 0.029848 -0.004966 -365598.000000 0 0 1
-33.169264 -25.183605 22.831448 47.494095 0.649392 1.069319 0.029872 0.001416 -78516.200000 0 0 1
-34.506855 -25.597805 22.920548 48.696224 0.638244 1.080730 0.043484 -0.006149 -396962.000000 0 0 1
-34.862991 -26.053405 21.650548 48.610228 0.641776 1.109186 0.035103 0.000949 1170780.000000 0 0 1
-36.266534 -26.815805 21.511248 49.970818 0.636688 1.125776 0.049526 -0.011360 1178650.000000 0 0 1
-36.409344 -27.979905 22.266248 51.032355 0.655225 1.119296 0.048245 -0.008931 382638.000000 0 0 1
-35.534648 -29.052705 21.874548 50.845518 0.685374 1.126064 0.035356 -0.003226 -66728.100000 0 0 1
-36.057044 -29.951105 20.774148 51.271282 0.693158 1.153620 0.047949 -0.007911 -227021.000000 0 0 1
-36.115444 -29.315505 19.542448 50.454251 0.681844 1.173062 0.041761 -0.009701 155808.000000 0 0 1
-36.755834 -30.118705 18.611648 51.034510 0.686475 1.197499 0.045722 -0.009043 -619045.000000 0 0 1
-36.878024 -29.586305 17.194148 50.308815 0.676126 1.221994 0.056722 -0.006151 -3879.790000 0 0 1
-35.647826 -29.406705 16.499348 49.068832 0.689754 1.227865 0.064671 -0.018213 231135.000000 0 0 1
-35.709592 -28.801405 15.220748 48.335981 0.678719 1.250451 0.054707 -0.021335 -96056.400000 0 0 1
-36.465724 -29.598105 14.134148 49.046621 0.681816 1.278473 0.053748 -0.027513 191421.000000 0 0 1
-35.740180 -30.767505 13.721248 49.114891 0.710769 1.287658 0.070840 -0.034132 54502.500000 0 0 1
-36.271244 -31.469405 12.624948 49.651948 0.714631 1.313705 0.077187 -0.029620 -38700.700000 0 0 1
-36.567684 -30.755005 11.258748 49.089971 0.699271 1.339387 0.083302 -0.032953 355587.000000 0 0 1
37.735396 -30.136305 11.431348 49.626935 -0.673900 1.338363 0.084360 -0.036258 126169.000000 0 0 1
37.435666 -29.477205 10.224448 48.732679 -0.667017 1.359419 0.072822 -0.028000 738292.000000 0 0 1
36.056556 -28.719205 10.298248 47.232636 -0.672606 1.350998 0.110834 -0.023054 611266.000000 0 0 1
36.154276 -27.589905 9.449048 46.450178 -0.651843 1.365943 0.116486 -0.060103 -259865.000000 0 0 1
35.017266 -26.787205 9.401348 45.079359 -0.653014 1.360703 0.113699 -0.053641 -584290.000000 0 0 1
35.070266 -25.608405 8.410748 44.231828 -0.630710 1.379480 0.104541 -0.046181 -17421.200000 0 0 1
35.865286 -24.501605 8.754748 44.309062 -0.599332 1.371904 0.106528 -0.047459 -37940.400000 0 0 1
36.118186 -23.683005 7.631848 43.859471 -0.580378 1.395899 0.097031 -0.037752 34669.700000 0 0 1
36.779706 -22.311305 8.035748 43.762019 -0.545273 1.386125 0.116630 -0.031559 45792.100000 0 0 1
35.987096 -21.442705 8.812148 42.807880 -0.537358 1.363461 0.084326 -0.040831 -82166.600000 0 0 1
36.360866 -20.106505 8.587348 42.427899 -0.505121 1.366990 0.103504 -0.027051 232433.000000 0 0 1
35.505456 -19.186105 9.472748 41.454517 -0.495420 1.340250 0.082821 -0.015623 251662.000000 0 0 1
35.989676 -19.208705 10.803048 42.201149 -0.490265 1.311925 0.064085 -0.027547 68876.100000 0 0 1
35.325726 -18.268805 11.620648 41.433025 -0.477276 1.286514 0.073810 -0.015844 119581.000000 0 0 1
35.843436 -18.295505 13.129148 42.330272 -0.471955 1.255435 0.065191 -0.024706 809937.000000 0 0 1
37.097446 -17.594505 13.240148 43.140336 -0.442859 1.258853 0.051057 -0.015944 710503.000000 0 0 1
37.548486 -17.901805 14.575648 44.077352 -0.444887 1.233769 0.049797 0.001646 322433.000000 0 0 1
-36.698634 -17.103005 14.849748 43.125602 0.436112 1.219264 0.073718 -0.019838 381255.000000 0 0 1
-35.636252 -17.436205 13.985748 42.066196 0.455037 1.231875 0.062886 -0.011654 -268507.000000 0 0 1
-34.454847 -16.816205 14.408248 40.957525 0.454054 1.211319 0.063948 -0.010451 -548677.000000 0 0 1
-33.277474 -17.022305 13.461148 39.728474 0.472826 1.225125 0.076421 -0.010248 -584145.000000 0 0 1
-32.702694 -18.303405 13.332748 39.777418 0.510253 1.228996 0.082703 -0.018050 -229546.000000 0 0 1
-31.583524 -18.189205 12.509148 38.533686 0.522516 1.240177 0.083220 -0.013736 -179200.000000 0 0 1
-30.899124 -19.555905 12.187148 38.544985 0.564257 1.249096 0.060872 -0.004627 340853.000000 0 0 1
-31.654884 -20.380105 11.303048 39.308260 0.572020 1.279130 0.078048 -0.008250 94750.800000 0 0 1
-30.788834 -21.260405 10.544848 38.873525 0.604337 1.296094 0.069607 -0.010437 154941.000000 0 0 1
-31.435414 -22.202805 9.451148 39.629207 0.614941 1.329986 0.074679 -0.010914 276124.000000 0 0 1
-32.136794 -23.285005 10.045148 40.937391 0.627019 1.322886 0.077080 -0.009276 -328679.000000 0 0 1
-33.496194 -23.002405 10.270948 41.911789 0.601755 1.323214 0.090889 -0.018812 -650898.000000 0 0 1
-34.337181 -24.271805 10.439848 43.326123 0.615320 1.327442 0.123862 -0.031424 -438059.000000 0 0 1
-34.408674 -25.080005 9.296648 43.582005 0.629851 1.355831 0.118591 -0.026884 -153074.000000 0 0 1
-35.093814 -26.318405 9.452748 44.873029 0.643465 1.358551 0.117946 -0.027339 75560.700000 0 0 1
-35.115635 -27.102905 8.131948 45.097715 0.657319 1.389486 0.117627 -0.024661 -282149.000000 0 0 1
-33.888244 -27.463205 7.574048 44.271966 0.681053 1.398871 0.108927 -0.028151 -642729.000000 0 0 1
-34.062832 -28.020205 6.333548 44.559200 0.688372 1.428175 0.103597 -0.025121 44224.000000 0 0 1
-32.754994 -28.475505 5.663448 43.770066 0.715620 1.441042 0.111009 -0.022489 179606.000000 0 0 1
-32.158724 -27.526205 4.795448 42.601313 0.707937 1.457992 0.109790 -0.018036 401891.000000 0 0 1
-30.923544 -27.953205 4.201048 41.896254 0.734991 1.470355 0.116188 -0.027835 797710.000000 0 0 1
-30.128484 -26.771505 3.607848 40.465487 0.726469 1.481519 0.104281 -0.026766 222979.000000 0 0 1
-30.748604 -26.260505 2.451348 40.510491 0.706834 1.510248 0.107410 -0.025528 -205080.000000 0 0 1
-30.061694 -25.094305 2.070048 39.213706 0.695580 1.517983 0.103360 -0.035231 56575.200000 0 0 1
-30.404694 -24.481605 0.697548 39.042041 0.677899 1.552929 0.118755 -0.034453 -251281.000000 0 0 1
-30.129244 -25.293405 -0.438152 39.341069 0.698365 1.581934 0.114965 -0.037450 -188295.000000 0 0 1
-30.361764 -24.628705 -1.679252 39.130931 0.681518 1.613723 0.114815 -0.037464 -365832.000000 0 0 1
-31.810594 -24.403105 -2.118052 40.148619 0.654379 1.623576 0.138194 -0.027206 -430298.000000 0 0 1
-32.340014 -23.251705 -1.496952 39.859242 0.623349 1.608361 0.136187 -0.015599 -256242.000000 0 0 1
-33.613984 -23.019305 -2.060452 40.792570 0.600461 1.621328 0.150927 -0.015055 62671.700000 0 0 1
-34.388368 -21.759605 -1.643452 40.727647 0.564161 1.611160 0.145753 -0.016524 -79923.900000 0 0 1
-34.725934 -21.640905 -0.274252 40.918144 0.557298 1.577499 0.153339 -0.028326 -5756.200000 0 0 1
-35.539556 -20.553005 -0.024652 41.054679 0.524321 1.571397 0.155478 -0.030226 -379493.000000 0 0 1
-35.744091 -20.243705 1.513248 41.106418 0.515310 1.533975 0.151977 -0.033601 -373037.000000 0 0 1
-36.618574 -21.108605 2.155148 42.321837 0.522920 1.519851 0.133542 -0.029522 -250359.000000 0 0 1
-36.951044 -20.602405 3.395448 42.442524 0.508629 1.490710 0.132146 -0.023300 -911366.000000 0 0 1
37.401146 -21.386305 3.910748 43.260995 -0.519433 1.480274 0.158566 -0.018131 1298360.000000 0 0 1
36.089246 -21.188305 3.329448 41.981700 -0.530887 1.491406 0.107073 -0.014049 1057310.000000 0 0 1
35.517446 -19.925205 3.464348 40.871805 -0.511248 1.485933 0.089124 -0.024363 -1165190.000000 0 0 1
34.321336 -19.696805 2.547948 39.653629 -0.521003 1.506497 0.070326 -0.008528 43215.000000 0 0 1
33.245166 -20.558605 2.959448 39.200199 -0.553835 1.495229 0.065954 -0.009601 71193.700000 0 0 1
32.089876 -20.159805 2.217448 37.961756 -0.560918 1.512350 0.090295 -0.016077 1153800.000000 0 0 1
30.813096 -20.998005 2.649748 37.381603 -0.598177 1.499853 0.079089 -0.001475 745992.000000 0 0 1
30.567166 -22.129705 1.889848 37.784216 -0.626633 1.520759 0.064573 -0.009212 243268.000000 0 0 1
29.405266 -22.793305 2.402048 37.282358 -0.659400 1.506323 0.063170 -0.005938 290752.000000 0 0 1
29.016466 -23.978505 1.538348 37.673472 -0.690618 1.529951 0.055784 -0.000973 -10012.700000 0 0 1
28.309366 -23.695405 0.341848 36.918955 -0.696908 1.561537 0.063955 -0.008938 121623.000000 0 0 1
28.039566 -24.771505 -0.487452 37.417674 -0.723595 1.583824 0.050455 -0.011916 282691.000000 0 0 1
27.046766 -24.343005 -1.657952 36.426065 -0.732834 1.616328 0.056504 -0.023180 325370.000000 0 0 1
27.461266 -23.398305 -2.651352 36.175012 -0.705682 1.644154 0.058800 -0.028273 169775.000000 0 0 1
28.157166 -23.959605 -3.801152 37.166348 -0.705030 1.673249 0.063297 -0.033556 -461603.000000 0 0 1
27.268766 -24.730605 -4.824452 37.127668 -0.736625 1.701107 0.067787 -0.034876 187441.000000 0 0 1
26.596966 -23.923205 -5.787052 36.238216 -0.732523 1.731178 0.067983 -0.045836 589058.000000 0 0 1
25.495466 -23.185805 -5.251852 34.859465 -0.737989 1.722030 0.080843 -0.044303 -534925.000000 0 0 1
24.857366 -22.333805 -6.393252 34.022950 -0.731974 1.759830 0.096383 -0.045183 -179307.000000 0 0 1
24.269266 -23.168805 -7.398952 34.358918 -0.762204 1.787839 0.111354 -0.058084 170571.000000 0 0 1
23.153666 -22.609105 -8.051452 33.348010 -0.773499 1.814643 0.112463 -0.061720 -136404.000000 0 0 1
23.241966 -21.325205 -8.917252 32.779120 -0.742416 1.846309 0.108076 -0.055642 -567652.000000 0 0 1
24.056066 -21.589005 -10.070652 33.855538 -0.731402 1.872827 0.115475 -0.056822 237186.000000 0 0 1
24.074666 -20.401805 -10.879252 33.379354 -0.703005 1.902789 0.112302 -0.053643 -654674.000000 0 0 1
24.972566 -20.412905 -12.060252 34.434945 -0.685269 1.928616 0.090960 -0.042812 -60842.800000 0 0 1
26.352166 -20.227605 -11.755852 35.239079 -0.654663 1.910919 0.133533 -0.050085 -12458.300000 0 0 1
27.055666 -19.818805 -12.878752 35.925706 -0.632219 1.937439 0.134640 -0.056688 -411445.000000 0 0 1
28.582366 -19.942805 -12.827952 37.137898 -0.609202 1.923476 0.117560 -0.044890 -175594.000000 0 0 1
29.202666 -21.143005 -13.225152 38.402174 -0.626659 1.922380 0.099830 -0.041989 164554.000000 0 0 1
29.275166 -22.205005 -12.219252 38.722186 -0.648914 1.891845 0.125027 -0.046807 -270556.000000 0 0 1
29.583466 -23.564005 -12.963852 39.981311 -0.672619 1.901013 0.087647 -0.039498 -90947.900000 0 0 1
30.941276 -23.757905 -13.303852 41.216417 -0.654820 1.899462 0.067592 -0.038077 219480.000000 0 0 1
31.211836 -25.097005 -13.510252 42.267780 -0.677228 1.896140 0.060471 -0.034391 -124318.000000 0 0 1
-3.843524 -9.086865 -27.259482 28.990052 1.170641 2.794321 0.105057 -0.024099 155578.000000 0 0 1
-3.802024 -7.761165 -26.710072 28.073457 1.115279 2.828661 0.097140 -0.017967 43599.700000 0 0 1
-4.695124 -6.911765 -27.405572 28.651039 0.974102 2.845657 0.091392 -0.014475 85166.200000 0 0 1
-4.695024 -5.530465 -26.711132 27.678762 0.866919 2.876395 0.095148 -0.025585 -48901.000000 0 0 1
-5.341724 -5.498365 -25.446312 26.575944 0.799847 2.848982 0.085697 -0.020307 269123.000000 0 0 1
-5.228224 -4.212865 -24.772352 25.666164 0.678263 2.876910 0.092941 -0.029941 -61593.900000 0 0 1
-5.795024 -4.235165 -23.373652 24.450900 0.631118 2.843650 0.083349 -0.030282 -134458.000000 0 1 0
-5.025924 -5.058065 -22.533552 23.634824 0.788585 2.835123 0.070415 -0.031554 244449.000000 0 1 0
-5.561524 -5.098865 -21.259252 22.558474 0.742026 2.800550 0.059092 -0.024147 -317432.000000 0 1 0
-4.952724 -6.166865 -20.340952 21.824620 0.894157 2.770740 0.048906 -0.026968 -836211.000000 0 1 0
-5.334524 -7.477165 -20.600552 22.555440 0.951106 2.722183 0.045191 -0.022307 448643.000000 0 1 0
-4.705524 -8.436465 -19.731552 21.969298 1.062015 2.686322 0.053502 -0.029938 -935854.000000 0 1 0
-5.359324 -9.818065 -19.881452 22.812034 1.071134 2.629117 0.060945 -0.027206 403321.000000 0 1 0
-6.528024 -10.051265 -19.101952 22.550556 0.994792 2.581249 0.061707 -0.022354 -302547.000000 0 1 0
-7.672524 -9.443165 -19.632452 23.097060 0.888483 2.586778 0.051009 -0.021726 -869475.000000 0 1 0
-8.855724 -9.659965 -18.627952 22.775850 0.828807 2.528516 0.044570 -0.011877 -99486.300000 0 1 0
-9.228224 -10.988265 -18.603652 23.494637 0.872239 2.484588 0.047844 -0.017786 -162487.000000 0 1 0
-9.807224 -11.274665 -17.341252 22.891455 0.854893 2.430337 0.052702 -0.022228 -206897.000000 0 1 0
-10.881424 -12.375665 -17.563052 24.083672 0.849559 2.388024 0.072552 -0.016865 -77778.900000 0 1 0
-12.088024 -11.927665 -18.131552 24.842357 0.778721 2.388920 0.091791 -0.035417 -95380.500000 0 1 0
-12.127024 -12.046965 -19.509952 25.939011 0.782086 2.422111 0.100092 -0.043478 505310.000000 0 0 1
-13.526424 -11.761665 -20.264452 27.054555 0.715725 2.417381 0.097169 -0.044930 1771050.000000 0 0 1
-14.531724 -12.746765 -20.078352 27.870975 0.720057 2.375180 0.092169 -0.047252 36120.700000 0 0 1
-15.039824 -13.030865 -18.780252 27.362339 0.713952 2.327260 0.092062 -0.036861 -1017220.000000 0 0 1
-16.314424 -13.857065 -18.830252 28.508895 0.704131 2.292287 0.085878 -0.026883 -505869.000000 0 0 1
-16.018024 -15.181865 -19.130752 29.207050 0.758605 2.284985 0.100715 -0.032094 225315.000000 0 0 1
-16.677324 -15.633965 -20.322552 30.586927 0.753119 2.297513 0.084704 -0.018391 468604.000000 0 0 1
-16.027124 -16.971065 -20.848052 31.297396 0.813996 2.299801 0.043725 -0.002002 -25901.700000 0 0 1
-16.305724 -18.015065 -19.919352 31.419736 0.835162 2.257480 0.068358 -0.003303 148163.000000 0 0 1
-16.312524 -19.249165 -20.666752 32.615080 0.867790 2.257067 0.057129 -0.001572 -169073.000000 0 0 1
-16.820924 -20.463365 -19.845552 33.098923 0.882783 2.213776 0.078025 -0.009102 -102951.000000 0 0 1
-16.525224 -21.688665 -20.481752 34.102542 0.919704 2.215039 0.064740 -0.009730 381166.000000 0 0 1
-17.257924 -22.750465 -19.873352 34.790368 0.921830 2.178802 0.075664 -0.003294 174887.000000 0 0 1
-16.752524 -24.144265 -20.377452 35.760777 0.964209 2.177092 0.083023 -0.007548 -162602.000000 0 0 1
-17.154924 -24.547965 -21.669252 36.965531 0.960854 2.197159 0.039494 -0.008912 109960.000000 0 0 1
-16.616124 -25.798475 -22.093352 37.812340 0.998598 2.194801 0.044456 -0.013849 -18777.000000 0 0 1
-17.224724 -26.216535 -23.447952 39.163813 0.989504 2.212692 0.040121 -0.019323 380171.000000 0 0 1
-18.504224 -26.840995 -23.506652 40.192139 0.967219 2.195500 0.057904 -0.018828 332409.000000 0 0 1
-18.349024 -28.229125 -23.665952 41.153948 0.994419 2.183473 0.070998 -0.021222 256369.000000 0 0 1
-19.524124 -28.967585 -24.400452 42.610966 0.977735 2.180510 0.073279 -0.021770 -362321.000000 0 0 1
-19.458324 -28.957665 -25.835792 43.412681 0.979140 2.208212 0.069723 -0.022451 60761.300000 0 0 1
-19.573424 -27.692975 -26.508792 43.043418 0.955520 2.234276 0.061940 -0.024351 -264175.000000 0 0 1
-18.348224 -27.278665 -27.331712 42.752840 0.978682 2.264378 0.069786 -0.028371 -110368.000000 0 0 1
-18.235824 -27.987325 -28.539602 43.935686 0.993315 2.277824 0.078694 -0.022837 825587.000000 0 0 1
-16.978224 -27.602875 -29.136872 43.579079 1.019356 2.303118 0.067268 -0.011569 770050.000000 0 0 1
-16.929824 -27.833575 -30.654642 44.732918 1.024331 2.325787 0.082329 -0.016134 -113457.000000 0 0 1
-16.900324 -29.141965 -31.000092 45.780790 1.045264 2.314668 0.078924 -0.014620 96.686400 0 0 1
-17.415624 -29.392025 -32.240972 46.975263 1.035888 2.327240 0.076996 -0.010684 -185354.000000 0 0 1
-17.221424 -30.832555 -32.796432 48.195745 1.061415 2.319219 0.078994 -0.013091 -336036.000000 0 0 1
-15.952924 -31.109055 -33.302542 48.283832 1.096956 2.331905 0.084722 -0.014324 -683733.000000 0 0 1
-16.043124 -32.174095 33.363211 49.047509 1.108241 0.822730 0.075199 -0.011169 891248.000000 0 0 1
-14.703424 -32.725515 32.721629 48.557750 1.148528 0.831362 0.066677 -0.014819 1057210.000000 0 0 1
-13.872124 -33.554895 33.525937 49.420191 1.178778 0.825234 0.070427 -0.014765 185786.000000 0 0 1
-12.877924 33.459496 32.734366 48.548095 -1.203391 0.830825 0.067181 -0.016210 3094.800000 0 0 1
-11.868024 32.651592 33.597667 48.329905 -1.222168 0.802135 0.063673 -0.015673 -212880.000000 0 0 1
-11.007124 33.525401 -33.333682 48.541154 -1.253563 2.327749 0.066569 -0.018333 -306892.000000 0 0 1
-10.263624 32.814687 -32.365492 47.219389 -1.267661 2.325988 0.065962 -0.020712 220965.000000 0 0 1
-9.424224 33.744425 -31.434342 47.070374 -1.298453 2.302067 0.054158 -0.024163 139271.000000 0 0 1
-10.237424 -33.094025 -30.652662 46.255865 1.270790 2.295183 0.071148 -0.026167 -289761.000000 0 0 1
-9.387624 -32.406055 -29.815492 45.024920 1.288827 2.294547 0.089832 -0.030436 -606193.000000 0 0 1
-10.064724 -31.314485 -28.919822 43.797851 1.259817 2.292018 0.107670 -0.030665 70464.900000 0 0 1
-10.473724 -31.712585 -27.601282 43.326870 1.251805 2.261458 0.125381 -0.039205 375930.000000 0 0 1
-11.324324 -32.865305 -27.427322 44.278963 1.238969 2.238801 0.099721 -0.033945 55199.700000 0 0 1
-11.806124 -33.004865 -25.965762 43.622545 1.227271 2.208357 0.109176 -0.036359 591065.000000 0 0 1
-10.678824 -32.754475 -25.119682 42.636737 1.255636 2.200810 0.116458 -0.054703 519868.000000 0 0 1
-11.074924 -32.870975 -23.752152 42.039501 1.245820 2.171225 0.113959 -0.062894 378572.000000 0 0 1
-9.876524 -32.765255 -22.776952 41.108359 1.278026 2.158043 0.127217 -0.072745 283651.000000 0 0 1
-9.047424 33.755425 -22.765652 41.708027 -1.308923 2.148180 0.110081 -0.057265 -113790.000000 0 0 1
-8.013624 -33.793985 -21.805452 41.008893 1.337965 2.131432 0.124739 -0.058507 137099.000000 0 0 1
-7.269324 32.509745 -21.534052 39.666636 -1.350811 2.144654 0.132437 -0.055995 189479.000000 0 0 1
-6.346824 32.053285 -22.512652 39.680156 -1.375316 2.174084 0.106781 -0.064548 -18201.000000 0 0 1
-5.761424 30.846365 -22.106652 38.384845 -1.386146 2.184527 0.088850 -0.053021 -625451.000000 0 0 1
-4.304324 30.701245 -22.535752 38.326933 -1.431504 2.199365 0.100095 -0.060249 -545855.000000 0 0 1
-4.033924 31.137565 -23.857452 39.433469 -1.441962 2.220569 0.119971 -0.056267 -478218.000000 0 0 1
-2.809124 30.554655 -24.214852 39.087558 -1.479116 2.238906 0.108881 -0.060245 -228623.000000 0 0 1
-2.398924 30.761425 -25.730352 40.175504 -1.492969 2.265879 0.112605 -0.025071 -44503.800000 0 0 1
-1.646724 31.936734 -26.062532 41.254360 -1.519280 2.254608 0.122374 -0.050709 636738.000000 0 0 1
-2.381624 33.167063 -25.933312 42.169454 -1.499112 2.233155 0.121034 -0.040710 438399.000000 0 0 1
-1.526824 -33.296075 -26.483322 42.571424 1.524972 2.242208 0.056266 -0.014971 395039.000000 0 0 1
-0.312924 -33.004605 -25.823212 41.907519 1.561315 2.234699 0.110752 -0.036717 -92290.500000 0 0 1
0.386276 -32.068805 -26.612722 41.674866 -1.558752 2.263448 0.061927 -0.016614 905006.000000 0 0 1
1.805776 -31.656495 -26.039162 41.029653 -1.513815 2.258342 0.083694 -0.014613 947027.000000 0 0 1
1.726976 -30.885835 -24.858152 39.684316 -1.514940 2.247719 0.065793 -0.013289 536679.000000 0 0 1
3.020576 -30.349525 -24.567952 39.163782 -1.471597 2.248894 0.057791 -0.018876 332676.000000 0 0 1
3.182776 -29.606165 -23.214152 37.756482 -1.463704 2.232978 0.072166 -0.017883 -171463.000000 0 0 1
3.131776 -30.384525 -22.074952 37.687277 -1.468088 2.196589 0.087065 -0.020832 456744.000000 0 0 1
3.365276 -29.697135 -20.849552 36.441031 -1.457958 2.179915 0.087224 -0.014966 -323444.000000 0 0 1
3.586676 -30.545785 -19.547252 36.441793 -1.453912 2.136958 0.086302 -0.010266 285188.000000 0 0 1
2.415476 -31.147435 -18.974752 36.551860 -1.493401 2.116616 0.089797 -0.014396 540484.000000 0 0 1
2.038776 -32.424955 -19.416952 37.849073 -1.508002 2.109484 0.098007 -0.015982 -276934.000000 0 0 1
2.651276 -33.630775 -18.635152 38.539943 -1.492124 2.075477 0.070126 -0.022171 1181190.000000 0 0 1
4.035976 33.729305 -18.928752 38.887694 1.451705 2.079167 0.080311 -0.016015 792137.000000 0 0 1
4.511076 32.754386 -18.041852 37.665741 1.433933 2.070310 0.087019 -0.033114 1549440.000000 0 0 1
5.851876 32.094905 -18.629152 37.568240 1.390447 2.089638 0.098600 -0.031223 839248.000000 0 0 1
7.031776 32.787890 -18.542152 38.318442 1.359534 2.075898 0.130812 -0.032268 -688574.000000 0 0 1
8.124076 32.120204 -19.146052 38.265904 1.323064 2.094790 0.118082 -0.046312 -517894.000000 0 0 1
9.354476 32.890034 -19.479352 39.353598 1.293697 2.088611 0.122251 -0.053910 -854541.000000 0 0 1
10.202776 33.055866 -18.372252 39.170481 1.271420 2.058992 0.107534 -0.040951 -765634.000000 0 0 1
11.468276 33.491344 -18.739152 40.054304 1.240886 2.057646 0.107347 -0.032523 -754219.000000 0 0 1
12.504976 33.566140 -17.623552 39.920543 1.214178 2.028028 0.079431 -0.023175 -329878.000000 0 0 1
12.999876 32.311475 -17.202952 38.845460 1.188283 2.029578 0.075078 -0.024442 357647.000000 0 0 1
13.919076 32.564643 -16.120952 38.911203 1.166870 1.997971 0.059092 -0.023823 665633.000000 0 0 1
14.989776 31.457695 -15.805952 38.263665 1.126120 1.996630 0.062965 -0.022841 799925.000000 0 0 1
14.539576 30.407445 -14.959252 36.875347 1.124774 1.988509 0.072804 -0.018192 288487.000000 0 0 1
15.661176 29.546965 -14.753452 36.550785 1.083404 1.986291 0.084344 -0.020161 618388.000000 0 0 1
15.352276 28.337725 -13.806852 35.062062 1.074301 1.975540 0.085260 -0.026746 -339582.000000 0 0 1
15.280376 28.630315 -12.444152 34.756895 1.080543 1.936958 0.087205 -0.024348 -59202.000000 0 0 1
14.039276 28.550515 -11.757352 33.918557 1.113783 1.924777 0.103005 -0.026037 156809.000000 0 0 1
13.469576 27.155255 -11.565052 32.443609 1.110337 1.935279 0.098216 -0.027499 -587673.000000 0 0 1
12.908876 26.620985 -12.800252 32.236041 1.119291 1.979128 0.075962 -0.024717 223911.000000 0 0 1
12.479276 25.247965 -12.817852 30.943325 1.111744 1.997900 0.094941 -0.024521 34842.800000 0 0 1
11.462976 24.833945 -11.751952 29.769666 1.138350 1.976606 0.097949 -0.029537 312288.000000 0 0 1
10.293476 25.695445 -11.642252 30.029212 1.189777 1.968929 0.089004 -0.018746 1052020.000000 0 0 1
9.708476 25.730765 -10.348752 29.384068 1.210002 1.930705 0.078418 -0.009551 -439528.000000 0 0 1
8.603676 26.761475 -10.218652 29.910209 1.259738 1.919462 0.080360 -0.012568 -536579.000000 0 0 1
9.048876 28.085075 -10.394452 31.284153 1.259103 1.909494 0.079996 -0.017068 -471108.000000 0 0 1
8.115676 29.089965 -10.122452 31.852069 1.298729 1.894200 0.075281 -0.024554 -328277.000000 0 0 1
8.636176 30.510905 -10.339352 33.352677 1.294960 1.885990 0.090097 -0.024050 173572.000000 0 0 1
9.707176 30.970065 -9.521152 33.823461 1.267058 1.856149 0.068639 -0.021411 48389.300000 0 0 1
10.255376 32.224808 -9.982152 35.259812 1.262686 1.857824 0.089373 -0.020799 310702.000000 0 0 1
11.327676 32.227038 -11.105352 35.919731 1.232789 1.885118 0.069406 -0.021097 411663.000000 0 0 1
12.669476 32.195495 -10.605052 36.187465 1.195891 1.868221 0.061347 -0.017371 -43442.700000 0 0 1
13.504076 32.592516 -11.654152 37.154427 1.177997 1.889850 0.075628 -0.010720 512672.000000 0 0 1
15.029876 32.551873 -11.278152 37.586145 1.138238 1.875553 0.088317 -0.022712 700488.000000 0 0 1
15.356376 33.357964 -10.184652 38.109043 1.139368 1.841335 0.085977 -0.014527 -656296.000000 0 0 1
16.751476 33.433348 -10.250952 38.774769 1.106316 1.838349 0.082830 -0.020329 -296791.000000 0 0 1
17.339176 -33.206745 -9.218052 38.578587 -1.089580 1.812073 0.087065 -0.022268 112421.000000 0 0 1
17.214476 -33.697905 -7.912452 38.658684 -1.098509 1.776928 0.070188 -0.019691 159388.000000 0 0 1
17.871176 -32.816565 -7.007152 38.018496 -1.072125 1.756165 0.063762 -0.019737 -774062.000000 0 0 1
18.272976 -33.358705 -5.632552 38.450364 -1.069665 1.717814 0.068193 -0.018305 -478314.000000 0 0 1
19.231776 33.308882 -5.612052 38.869499 1.047178 1.715685 0.068836 -0.029578 -1138450.000000 0 0 1
20.537476 33.795595 -5.788752 39.967985 1.024737 1.716142 0.083181 -0.032818 -1555090.000000 0 0 1
21.309776 32.955357 -6.804852 39.830492 0.996797 1.742484 0.068665 -0.027479 -148184.000000 0 0 1
21.679776 31.676535 -6.340752 38.905278 0.970609 1.734506 0.071414 -0.015396 -96669.700000 0 0 1
22.676976 31.690784 -5.323252 39.330497 0.949697 1.706560 0.062439 -0.015771 -485053.000000 0 0 1
23.041876 30.267205 -4.899152 38.354054 0.920114 1.698881 0.039794 -0.013101 -293760.000000 0 0 1
23.602376 29.440885 -5.903652 38.192813 0.895028 1.725994 0.041016 -0.012468 -175371.000000 0 0 1
24.038476 28.255465 -5.324452 37.477585 0.865864 1.713349 0.046540 -0.007245 -637313.000000 0 0 1
25.174776 27.634895 -6.158452 37.886453 0.831949 1.734071 0.023379 0.001006 -1459350.000000 0 0 1
26.316676 28.427695 -6.065252 39.210822 0.823940 1.726103 0.037492 -0.002050 -873982.000000 0 0 1
27.437876 27.927205 -6.737252 39.726016 0.794236 1.741213 0.016784 0.000081 -353013.000000 0 0 1
28.102276 26.724245 -6.077952 39.253849 0.760269 1.726259 0.012959 0.015614 -1472120.000000 0 0 1
28.873976 27.093295 -4.945052 39.902464 0.753592 1.695044 0.042055 0.004727 -201692.000000 0 0 1
29.373976 25.941645 -4.343752 39.429273 0.723428 1.681186 0.054363 0.001097 220280.000000 0 0 1
30.731176 26.226495 -3.630352 40.563699 0.706474 1.660414 0.058182 -0.008744 101083.000000 0 0 1
30.650876 27.063145 -2.567052 40.969254 0.723314 1.633495 0.071839 -0.023988 -639356.000000 0 0 1
31.895876 27.302345 -1.988752 42.032369 0.707958 1.618129 0.084722 -0.042840 -424643.000000 0 0 1
31.974576 28.343455 -0.894952 42.737874 0.725271 1.591738 0.096251 -0.029585 50323.700000 0 0 1
31.940976 29.653135 -1.459852 43.608090 0.748271 1.604279 0.068931 -0.018304 18699.100000 0 0 1
31.804176 30.662935 -0.512952 44.181266 0.767131 1.582407 0.086812 -0.025056 -248898.000000 0 0 1
34.322246 22.392535 18.924387 45.139502 0.578075 1.138186 0.137721 -0.030630 81707.000000 0 0 1
34.677776 22.033835 20.225387 45.794151 0.566034 1.113350 0.137190 -0.039101 466068.000000 0 0 1
35.586816 23.003035 20.780587 47.195274 0.573835 1.114852 0.147972 -0.032043 402949.000000 0 0 1
35.649796 23.026135 22.344387 47.962303 0.573486 1.086174 0.110507 -0.018115 573910.000000 0 0 1
34.421496 23.529235 22.902247 47.570760 0.599609 1.068505 0.095881 -0.013151 856021.000000 0 0 1
34.293306 23.400935 24.291597 48.101105 0.598800 1.041401 0.088919 -0.010081 -213018.000000 0 0 1
33.132326 24.165335 24.953677 48.004171 0.630159 1.024152 0.082233 -0.011012 -57900.400000 0 0 1
33.204606 25.551935 24.869207 48.722938 0.655883 1.035122 0.066554 -0.014943 -732546.000000 0 0 1
32.007386 26.068335 25.297417 48.414772 0.683489 1.020999 0.062109 -0.014594 -811281.000000 0 0 1
31.832286 27.599235 25.498117 49.245976 0.714293 1.026553 0.059862 -0.013711 -153674.000000 0 0 1
31.954906 28.446335 24.381467 49.241912 0.727376 1.052804 0.054682 -0.018002 253559.000000 0 0 1
31.642436 29.770535 24.742407 49.997152 0.754927 1.053104 0.066503 -0.026038 -29545.000000 0 0 1
31.663746 30.732735 23.490427 49.988939 0.770478 1.081605 0.070535 -0.020341 1276620.000000 0 0 1
33.053086 30.848435 23.101357 50.772090 0.750911 1.098423 0.046027 -0.021219 1057170.000000 0 0 1
33.140406 31.661635 21.953687 50.820370 0.762582 1.124103 0.064036 -0.018396 1045580.000000 0 0 1
34.654306 32.021635 21.706787 51.937372 0.745934 1.139618 0.031055 -0.029870 940136.000000 0 0 1
35.144646 33.015335 22.582277 53.245824 0.754168 1.132813 0.046422 -0.018226 -523211.000000 0 0 1
36.492176 33.208735 22.253887 54.127022 0.738325 1.147090 0.039001 -0.013142 -298686.000000 0 0 1
37.065136 -33.230805 23.087157 54.873742 -0.730907 1.136544 0.040813 -0.011291 -365094.000000 0 0 1
36.498306 -31.963205 22.726697 53.574953 -0.719252 1.132714 0.043068 -0.008112 87394.500000 0 0 1
36.855686 -30.968005 23.609307 53.616773 -0.698807 1.114825 0.048657 -0.007037 -895940.000000 0 0 1
36.107706 -29.655205 23.317487 52.219755 -0.687594 1.107917 0.054621 -0.007189 795856.000000 0 0 1
34.703456 -29.684605 23.593697 51.402025 -0.707609 1.093923 0.056365 -0.006154 868169.000000 0 0 1
33.854216 -30.230505 22.596977 50.701230 -0.728913 1.108853 0.063707 -0.001542 -431759.000000 0 0 1
33.227176 -31.674205 22.779267 51.246419 -0.761475 1.110175 0.060152 -0.004843 213890.000000 0 0 1
32.136696 -31.648005 23.699077 50.951052 -0.777737 1.087010 0.097238 -0.019370 156787.000000 0 0 1
31.506056 -32.906905 23.816597 51.407453 -0.807143 1.089091 0.101739 -0.023013 -125701.000000 0 0 1
30.343466 -32.986205 24.816517 51.231584 -0.827104 1.065121 0.097010 -0.027386 -198913.000000 0 0 1
29.996666 33.321435 25.074337 51.369645 0.837859 1.060867 0.115044 -0.041003 239716.000000 0 0 1
29.160666 33.255035 26.247897 51.431449 0.850903 1.035208 0.118068 -0.035652 -289512.000000 0 0 1
28.795466 31.796435 26.598647 50.474550 0.834885 1.015763 0.116754 -0.028777 67093.500000 0 0 1
27.932666 31.203135 25.685607 49.128605 0.840646 1.020636 0.102615 -0.029201 190986.000000 0 0 1
26.533266 31.507635 25.752667 48.579266 0.870894 1.012058 0.095508 -0.033661 408466.000000 0 0 1
25.913566 31.166735 24.369507 47.294304 0.877171 1.029469 0.136198 -0.040273 -73311.700000 0 0 1
26.149366 32.010435 23.273567 47.435390 0.885834 1.057975 0.132003 -0.043796 -609090.000000 0 0 1
27.427866 31.956635 22.728467 47.854964 0.861513 1.075895 0.117753 -0.036133 -507033.000000 0 0 1
27.607766 32.934235 21.470487 48.039925 0.873152 1.107466 0.128594 -0.031444 542642.000000 0 0 1
28.966666 32.931435 21.035587 48.641989 0.849364 1.123580 0.121002 -0.022958 420289.000000 0 0 1
29.209566 33.687335 19.831487 48.798803 0.856470 1.152294 0.115946 -0.025328 1051440.000000 0 0 1
30.729896 -33.679705 19.493987 49.584923 -0.831164 1.166748 0.114618 -0.031523 1509430.000000 0 0 1
31.398786 32.838335 18.889987 49.204386 0.807804 1.176771 0.105981 -0.034136 207881.000000 0 0 1
32.560856 33.226535 18.180587 49.947429 0.795516 1.198243 0.091202 -0.027288 445601.000000 0 0 1
33.445336 32.064635 17.590487 49.559626 0.764325 1.207951 0.067755 -0.023254 241286.000000 0 0 1
34.261766 31.402735 18.535987 50.035819 0.741886 1.191298 0.047274 -0.021513 -116932.000000 0 0 1
35.118016 30.510735 17.871787 49.835537 0.715311 1.204012 0.063235 -0.023053 325754.000000 0 0 1
36.252076 29.870035 18.732787 50.570241 0.689177 1.191323 0.078444 -0.034469 228736.000000 0 0 1
37.228886 30.785535 19.126887 51.957453 0.690945 1.193804 0.075559 -0.031749 -387146.000000 0 0 1
-37.344984 30.241035 19.935387 52.024876 -0.680673 1.177549 0.108638 -0.029166 232422.000000 0 0 1
-36.269584 31.219735 20.489987 52.057604 -0.710713 1.166250 0.127122 -0.032858 -41109.800000 0 0 1
-35.376834 31.662035 19.499987 51.324988 -0.730042 1.181074 0.133059 -0.035933 -652159.000000 0 0 1
-34.242315 32.325235 19.954187 51.143197 -0.756607 1.169988 0.122113 -0.024656 -391949.000000 0 0 1
-34.342775 33.712235 20.622887 52.356895 -0.776133 1.165936 0.092274 -0.021823 -419955.000000 0 0 1
-34.899260 33.598835 21.949687 53.184855 -0.766416 1.145374 0.083013 -0.019903 335011.000000 0 0 1
-34.812646 -32.802605 22.645747 52.922217 0.755679 1.128621 0.061104 -0.018292 -185201.000000 0 0 1
-34.727320 -33.059405 24.179117 53.698610 0.760798 1.103724 0.080056 -0.029746 -837992.000000 0 0 1
-35.895963 -33.458405 24.789437 54.977279 0.750266 1.103019 0.068438 -0.021280 -1016930.000000 0 0 1
-35.704544 -33.709905 26.161307 55.637992 0.756671 1.081272 0.080315 -0.021655 1547090.000000 0 0 1
-37.141254 33.634735 26.775067 56.812608 -0.735895 1.080046 0.066573 -0.028559 1280320.000000 0 0 1
-37.086504 32.964335 28.045707 56.996648 -0.726621 1.056343 0.093405 -0.027204 586554.000000 0 0 1
37.173826 32.738635 28.615017 57.206038 0.722044 1.046955 0.090088 -0.031688 705506.000000 0 0 1
37.181836 31.611935 29.617467 57.087632 0.704609 1.025341 0.102734 -0.025476 -116804.000000 0 0 1
37.073446 30.253535 29.118797 56.014472 0.684447 1.024128 0.087757 -0.026454 350127.000000 0 0 1
-37.349544 29.783635 28.406607 55.578671 -0.673172 1.034325 0.083367 -0.024160 125903.000000 0 0 1
-37.496614 28.279035 27.994397 54.675279 -0.646168 1.033271 0.091560 -0.016816 -778474.000000 0 0 1
37.002156 28.100035 27.123647 53.800221 0.649500 1.042393 0.085603 -0.017675 -164124.000000 0 0 1
36.746696 26.773335 26.821597 52.787586 0.629658 1.037814 0.093940 -0.021112 266914.000000 0 0 1
36.125686 25.800535 27.861717 52.411908 0.620185 1.010318 0.088877 -0.025824 59969.600000 0 0 1
37.193576 25.237835 28.633667 53.293501 0.596187 1.003585 0.075329 -0.021126 576393.000000 0 0 1
36.971966 23.876335 29.062557 52.741235 0.573414 0.987186 0.085159 -0.016347 287532.000000 0 0 1
37.643946 22.847935 28.055987 52.213343 0.545513 1.003524 0.090238 -0.011174 324420.000000 0 0 1
36.988256 22.905235 26.759427 51.076881 0.554459 1.019367 0.101356 -0.017474 541581.000000 0 0 1
37.572676 22.116335 25.682687 50.600777 0.532016 1.038451 0.095513 -0.032382 40169.400000 0 0 1
37.212026 20.588835 25.822177 49.753591 0.505361 1.025114 0.094876 -0.029763 -221052.000000 0 0 1
35.864836 20.266835 25.494387 48.445793 0.514354 1.016617 0.115815 -0.012178 644533.000000 0 0 1
35.425366 18.962435 25.920527 47.816359 0.491470 0.997880 0.103012 -0.005428 -157202.000000 0 0 1
35.457266 18.764935 27.488017 48.630562 0.486755 0.970070 0.088654 0.003001 20345.100000 0 0 1
34.360916 19.325635 28.235007 48.490910 0.512337 0.949273 0.082428 -0.010012 649553.000000 0 0 1
34.210176 20.765535 28.298917 49.014001 0.545550 0.955300 0.087885 -0.023651 -89139.400000 0 0 1
33.124616 21.246135 29.349667 49.092172 0.570306 0.929982 0.087650 -0.022782 962314.000000 0 0 1
31.751956 21.066635 29.008597 47.890380 0.585790 0.920114 0.103226 -0.027948 547035.000000 0 0 1
31.174056 21.887735 28.039957 47.298350 0.612143 0.936226 0.096878 -0.012810 -396541.000000 0 0 1
31.002206 23.428435 28.377597 48.117734 0.647141 0.940043 0.108265 -0.009962 -721016.000000 0 0 1
32.211846 24.137835 28.285387 49.196557 0.643083 0.958258 0.089538 -0.019020 -266548.000000 0 0 1
32.211466 25.432535 28.839677 50.160935 0.668336 0.958262 0.077374 -0.014117 -26326.300000 0 0 1
32.468206 25.287935 30.395787 51.162173 0.661712 0.934642 0.081954 -0.023415 -80889.000000 0 0 1
33.752156 24.772935 30.688677 51.910512 0.633160 0.938270 0.054822 -0.012451 110585.000000 0 0 1
34.280046 24.679435 32.018070 53.003329 0.623981 0.922190 0.067902 -0.008021 -6696.910000 0 0 1
33.809826 23.509435 32.854807 52.680511 0.607594 0.897378 0.075539 -0.009373 -433876.000000 0 0 1
34.189276 23.464035 -33.421832 53.258674 0.601471 2.249183 0.088758 -0.026486 -41592.100000 0 0 1
33.533216 22.473635 -32.692662 51.945654 0.590438 2.251529 0.073772 -0.029917 -330251.000000 0 0 1
34.181556 22.290135 -31.341392 51.453977 0.577857 2.225741 0.085764 -0.035740 -134374.000000 0 0 1
33.591706 23.199935 -30.412012 50.907074 0.604420 2.211054 0.068189 -0.041085 215304.000000 0 0 1
34.055406 23.039235 -29.105432 50.375621 0.594795 2.186788 0.091120 -0.052109 -254543.000000 0 0 1
35.461636 23.512135 -28.692542 51.318711 0.585481 2.164102 0.094660 -0.021870 -179345.000000 0 0 1
35.976626 23.058035 -27.442342 50.784572 0.569964 2.141670 0.083293 -0.023844 -655512.000000 0 0 1
37.056446 23.798435 -27.005052 51.660609 0.570887 2.120858 0.089357 -0.014235 -527850.000000 0 0 1
-37.693174 23.090035 -25.901132 51.232741 -0.549617 2.100825 0.064973 -0.006769 -416487.000000 0 0 1
-36.868774 22.061535 -26.414232 50.435399 -0.539227 2.122013 0.047442 -0.000009 -32392.800000 0 0 1
-37.027194 20.854335 -25.703832 49.664911 -0.512934 2.114776 0.024838 0.007546 -495770.000000 0 0 1
-36.038604 19.732735 -26.036462 48.642154 -0.500956 2.135618 0.030309 0.015991 -884557.000000 0 0 1
-34.811060 19.914435 -25.422462 47.483641 -0.519631 2.135771 0.039422 0.015960 -692042.000000 0 0 1
-34.009498 18.730435 -25.373422 46.381954 -0.503412 2.149637 0.020269 0.003038 697641.000000 0 0 1
-32.644794 19.009935 -24.673552 45.120332 -0.527323 2.149380 0.028835 0.001725 338030.000000 0 0 1
-32.794354 19.324435 -23.321352 44.640664 -0.532486 2.120488 0.038826 0.009248 -103955.000000 0 0 1
-31.551594 19.608335 -22.741052 43.556232 -0.556056 2.120117 0.052663 0.008575 72612.900000 0 0 1
-31.757154 19.831335 -21.246852 43.049128 -0.558217 2.086962 0.044243 0.013939 361125.000000 0 0 1
-32.395464 18.783535 -20.499152 42.690778 -0.525449 2.071653 0.031281 0.014906 161565.000000 0 0 1
-32.901724 19.324435 -19.294052 42.757662 -0.531057 2.038953 0.031090 0.012386 -702517.000000 0 0 1
-33.755064 18.305735 -18.535152 42.638670 -0.496921 2.020505 0.021252 0.006064 339994.000000 0 0 1
-34.706142 18.748435 -17.591152 43.191073 -0.495292 1.990278 0.022357 -0.000405 1069400.000000 0 0 1
-35.768183 19.655135 -17.995752 44.604197 -0.502470 1.986085 0.020946 0.003231 100786.000000 0 0 1
-36.933884 19.657635 -17.005152 45.163144 -0.489105 1.956841 0.021461 -0.002760 -602197.000000 0 0 1
-36.589344 20.321235 -15.861952 44.758622 -0.506969 1.933057 0.026782 -0.002510 100743.000000 0 0 1
-37.652904 20.379435 -14.931452 45.343256 -0.496096 1.906357 0.043070 -0.007515 -886079.000000 0 0 1
-37.418974 21.301435 -13.735052 45.194938 -0.517516 1.879587 0.045426 -0.013079 -180975.000000 0 0 1
37.772586 22.629735 -13.967452 46.194836 0.539761 1.877963 0.064766 -0.015954 1025830.000000 0 0 1
36.370806 22.883135 -13.747952 45.116289 0.561587 1.880443 0.060602 -0.008290 885274.000000 0 0 1
35.919876 24.360635 -14.069352 45.624825 0.595940 1.884276 0.074371 -0.015804 5875.190000 0 0 1
36.251626 25.305535 -13.005152 46.083451 0.609418 1.856892 0.073169 -0.015573 66726.500000 0 0 1
36.155656 26.645935 -13.478252 46.892436 0.635115 1.862338 0.061332 -0.002218 210850.000000 0 0 1
37.371836 27.185035 -14.307452 48.377509 0.628893 1.871033 0.087765 -0.002127 212512.000000 0 0 1
37.703966 26.726035 -15.596852 48.776344 0.616633 1.896275 0.083101 -0.001379 482903.000000 0 0 1
-36.727114 27.492235 -16.015552 48.592199 -0.642575 1.906667 0.088664 -0.008543 63179.300000 0 0 1
-36.394634 27.313435 -17.536152 48.765867 -0.643808 1.938634 0.087679 -0.012233 -246027.000000 0 0 1
-35.748858 26.152635 -18.013652 47.816659 -0.631598 1.957053 0.082872 -0.010687 1014490.000000 0 0 1
-34.334035 26.160835 -17.766952 46.678473 -0.651106 1.961267 0.092910 -0.002687 486404.000000 0 0 1
-33.523544 25.078635 -18.447152 45.750009 -0.642278 1.985825 0.079721 -0.001601 -190928.000000 0 0 1
-33.653504 25.107935 -19.854152 46.445173 -0.640982 2.012494 0.062216 0.006522 18219.900000 0 0 1
-32.623874 24.381735 -20.452152 45.574957 -0.641809 2.036172 0.051944 0.012473 -247040.000000 0 0 1
-32.817604 24.137135 -21.997952 46.298016 -0.634152 2.065917 0.049980 0.009212 -515667.000000 0 0 1
-34.014783 23.475635 -22.282752 46.953508 -0.604091 2.065272 0.055630 0.010643 -103461.000000 0 0 1
-34.123445 23.215735 -23.701052 47.593274 -0.597413 2.092078 0.041753 0.006174 178152.000000 0 0 1
-34.680350 24.393535 -24.658352 49.049012 -0.612992 2.097549 0.041382 0.000673 309586.000000 0 0 1
-33.757434 25.504335 -24.744552 49.013552 -0.647023 2.100006 0.039879 -0.001327 641266.000000 0 0 1
-34.418189 26.587335 -25.463282 50.397191 -0.657733 2.100470 0.069476 -0.009878 270685.000000 0 0 1
-33.711894 27.930235 -25.546412 50.687365 -0.691878 2.099020 0.065043 -0.014672 -526747.000000 0 0 1
-32.618894 27.886035 -26.413882 50.391630 -0.707334 2.122539 0.044017 -0.017963 -710166.000000 0 0 1
-32.057474 29.137935 -26.743152 50.910677 -0.737726 2.123859 0.053790 -0.017778 -1017300.000000 0 0 1
-30.815204 29.025035 -27.545902 50.505506 -0.755491 2.147667 0.056457 -0.020251 -1419730.000000 0 0 1
-29.851654 28.233835 -26.823642 49.069119 -0.757553 2.149155 0.056742 -0.022168 -908375.000000 0 0 1
-28.609084 28.262735 -27.405272 48.665294 -0.779308 2.168974 0.069763 -0.025122 -302316.000000 0 0 1
-27.713994 29.565135 -27.207812 48.810119 -0.817705 2.162073 0.055784 -0.034935 -617967.000000 0 0 1
-27.228654 29.724735 -25.864982 47.895269 -0.829197 2.141272 0.054910 -0.034396 188812.000000 0 0 1
-28.205304 30.095135 -24.877252 48.167769 -0.817802 2.113521 0.057744 -0.029197 219735.000000 0 0 1
-27.596384 30.585435 -23.501652 47.427385 -0.836727 2.089240 0.039101 -0.023172 226949.000000 0 0 1
-26.881814 31.815635 -23.561252 47.853936 -0.869256 2.085593 0.038619 -0.026835 226067.000000 0 0 1
-26.288614 32.105235 -22.320452 47.117300 -0.884681 2.064307 0.053457 -0.009137 -293366.000000 0 0 1
-25.583624 33.480635 -22.441352 47.739805 -0.918312 2.060174 0.046848 0.004163 -484684.000000 0 0 1
-26.356554 -33.017005 -22.347152 47.793156 0.897110 2.057348 0.038166 -0.013275 -200690.000000 0 0 1
-25.570894 -31.892705 -22.614852 46.716665 0.894972 2.076114 0.055028 -0.013061 -233357.000000 0 0 1
17.716676 8.614035 -25.064752 31.879837 0.452555 2.475474 0.088583 -0.021828 -1518720.000000 0 0 1
16.419176 8.207235 -24.957252 30.980840 0.463533 2.507434 0.074741 -0.024199 -1268110.000000 0 0 1
16.365176 6.804035 -25.081052 30.711122 0.394021 2.526425 0.073019 -0.029519 -203243.000000 0 0 1
15.011776 6.072435 -25.107692 29.876815 0.384389 2.568769 0.092639 -0.029091 -298090.000000 0 0 1
14.266376 6.277635 -23.940552 28.567257 0.414532 2.564480 0.116775 -0.046995 642303.000000 0 0 1
12.951876 5.741535 -24.156852 28.004817 0.417266 2.611176 0.121892 -0.038848 877997.000000 0 0 1
11.909376 5.902435 -22.994452 26.559683 0.460131 2.617474 0.127575 -0.044973 208094.000000 0 0 1
12.021876 4.997435 -21.910952 25.487049 0.393963 2.605458 0.112229 -0.037800 -214486.000000 0 0 1
11.458576 5.322635 -20.655652 24.213330 0.434856 2.592636 0.124991 -0.033792 -266052.000000 0 1 0
12.154876 6.337735 -19.722052 24.018060 0.480632 2.534192 0.139210 -0.046640 -13501.000000 0 1 0
11.477276 6.468535 -18.457152 22.676778 0.513221 2.521669 0.125477 -0.036033 -20733.700000 0 1 0
11.699276 7.696735 -17.701652 22.571249 0.581896 2.472293 0.125300 -0.039685 779930.000000 0 1 0
13.176476 8.158535 -17.431252 23.324445 0.554399 2.414843 0.125510 -0.029540 805668.000000 0 1 0
13.876376 7.416135 -16.463052 22.772460 0.490821 2.378840 0.158397 -0.029160 663885.000000 0 1 0
15.199176 7.903135 -16.224852 23.594921 0.479497 2.329032 0.137180 -0.025835 384390.000000 0 1 0
15.756776 7.583835 -14.836452 22.932746 0.448581 2.274381 0.134727 -0.030611 -879239.000000 0 1 0
16.848976 8.334635 -14.481652 23.729146 0.459372 2.227222 0.109620 -0.033572 -474237.000000 0 1 0
17.166476 8.027635 -13.107652 23.042165 0.437422 2.175909 0.087085 -0.037200 466310.000000 0 1 0
18.036776 9.151335 -12.424452 23.736875 0.469527 2.121661 0.127593 -0.040066 270172.000000 0 1 0
17.278776 10.311235 -12.267952 23.566508 0.538032 2.118311 0.164607 -0.042562 313692.000000 0 1 0
18.095776 11.347335 -11.818352 24.410911 0.560087 2.076179 0.218135 -0.063060 -503084.000000 0 1 0
17.327676 12.615335 -11.538152 24.341815 0.629301 2.064630 0.233618 -0.061544 -606333.000000 0 1 0
16.484976 12.573635 -10.384552 23.188136 0.651601 2.035143 0.257629 -0.051425 798076.000000 0 1 0
15.530576 13.617135 -10.227452 23.048339 0.719846 2.030563 0.137636 -0.040187 -133375.000000 0 1 0
14.371076 13.700935 -11.208452 22.800720 0.761530 2.084703 0.110699 -0.056584 -775236.000000 0 1 0
13.382576 14.665235 -10.845052 22.622502 0.831097 2.070758 0.145832 -0.058876 260944.000000 0 1 0
13.699176 16.058135 -11.190852 23.890715 0.864506 2.058296 0.180018 -0.054348 -156531.000000 0 1 0
13.094076 17.034935 -10.131052 23.754621 0.915459 2.011402 0.174799 -0.047922 255595.000000 0 1 0
13.730376 16.866535 -8.890852 23.495754 0.887541 1.958866 0.188387 -0.039861 275648.000000 0 1 0
12.966476 17.487335 -7.880552 23.152526 0.932772 1.918112 0.174051 -0.023866 -96508.800000 0 1 0
13.544876 17.212035 -6.504852 22.847996 0.904068 1.859491 0.159999 -0.022087 -259877.000000 0 1 0
14.321576 18.272935 -6.050552 23.992017 0.906037 1.825739 0.192033 -0.019433 64715.600000 0 1 0
14.940776 17.908935 -4.804652 23.812631 0.875509 1.773960 0.193405 -0.017085 -187386.000000 0 1 0
16.205076 18.712435 -4.443252 25.149596 0.857083 1.748401 0.178580 -0.022816 -409585.000000 0 0 1
17.326976 18.371435 -5.209252 25.785074 0.814648 1.774222 0.194178 -0.044206 -427799.000000 0 0 1
18.103676 19.501435 -5.376452 27.146920 0.822550 1.770165 0.114425 -0.038039 103590.000000 0 0 1
19.488476 19.297335 -6.112352 28.098909 0.780470 1.790079 0.128753 -0.021836 404914.000000 0 0 1
20.423876 18.699635 -5.243352 28.183396 0.741355 1.757931 0.120095 -0.033997 16290.000000 0 0 1
20.577176 17.343635 -5.677752 27.503794 0.700333 1.778727 0.166134 -0.053813 -388895.000000 0 0 1
21.630876 16.572335 -4.854452 27.678562 0.653753 1.747095 0.160508 -0.058048 59365.800000 0 0 1
22.962476 16.979935 -5.054752 29.002483 0.636724 1.745978 0.095459 -0.057337 3220.300000 0 0 1
23.872276 16.210735 -4.282752 29.172169 0.596534 1.718138 0.095686 -0.062691 843370.000000 0 0 1
25.388476 16.554935 -4.465852 30.636325 0.577825 1.717087 0.086720 -0.052948 622031.000000 0 0 1
25.750076 17.723435 -3.843352 31.495363 0.602821 1.693130 0.077722 -0.047806 15770.500000 0 0 1
27.128276 17.700435 -3.526952 32.583556 0.578111 1.679252 0.071628 -0.034267 -206590.000000 0 0 1
27.635876 18.907335 -2.849652 33.605795 0.600015 1.655695 0.081300 -0.026952 -485971.000000 0 0 1
27.777776 20.018235 -3.737952 34.442805 0.624455 1.679537 0.066478 -0.031099 248599.000000 0 0 1
27.787076 21.262535 -3.013752 35.118367 0.653155 1.656719 0.091281 -0.010457 -173956.000000 0 0 1
27.535876 22.467035 -3.964952 35.759096 0.684372 1.681904 0.060358 -0.010906 243185.000000 0 0 1
28.629576 22.936835 -4.754452 36.991294 0.675447 1.699682 0.048375 0.001272 301775.000000 0 0 1
28.963876 22.171735 -5.916452 36.952623 0.653345 1.731598 0.034241 0.001696 87725.300000 0 0 1
29.996076 22.891635 -6.782452 38.337882 0.651867 1.748645 0.032040 0.004555 119137.000000 0 0 1
29.343976 23.865635 -7.571552 38.574160 0.682802 1.768365 0.014317 0.011653 1109490.000000 0 0 1
30.302076 24.630135 -8.370552 39.936518 0.682509 1.781959 0.015158 0.012018 862670.000000 0 0 1
31.255276 24.046435 -9.484152 40.559493 0.655774 1.806815 0.021829 -0.001237 314857.000000 0 0 1
30.729876 23.691435 -10.732852 40.259203 0.656780 1.840653 0.025322 0.004348 -28157.900000 0 0 1
31.769276 23.150535 -11.548752 40.970817 0.629735 1.856547 0.026306 -0.004984 254431.000000 0 0 1
31.334976 22.505535 -12.871852 40.670190 0.622852 1.892827 0.038956 -0.004114 -18349.500000 0 0 1
31.059176 23.421535 -13.944852 41.324322 0.646116 1.915002 0.042093 -0.012096 103814.000000 0 0 1
31.002476 22.829935 -15.214452 41.398538 0.634734 1.947129 0.056744 -0.020544 -65811.700000 0 0 1
31.508576 23.737435 -16.360552 42.707421 0.645651 1.963930 0.062711 -0.012999 -855032.000000 0 0 1
32.871676 23.981335 -16.277252 43.824655 0.630280 1.951332 0.052833 -0.004188 -946927.000000 0 0 1
33.209976 24.850635 -17.343052 44.958181 0.642405 1.966827 0.065701 -0.008185 680115.000000 0 0 1
34.734076 25.175435 -17.479452 46.322670 0.627180 1.957720 0.062989 -0.004955 743111.000000 0 0 1
35.529976 24.031535 -17.685052 46.396712 0.594693 1.961858 0.068721 0.001274 -15063.600000 0 0 1
36.916076 24.335935 -17.596452 47.588544 0.582832 1.949550 0.057957 0.006173 568721.000000 0 0 1
-37.681614 23.112135 -17.697152 47.615796 -0.550180 1.951599 0.047358 -0.001482 224679.000000 0 0 1
-37.741414 22.466135 -18.952452 47.836566 -0.536930 1.978162 0.039683 0.004600 948147.000000 0 0 1
-36.677114 22.916635 -19.841852 47.582370 -0.558471 2.000939 0.061200 0.014107 767360.000000 0 0 1
-36.758514 22.021835 -21.104552 47.765591 -0.539754 2.028440 0.054334 0.007777 63199.100000 0 0 1
-36.259514 20.698835 -20.942752 46.709667 -0.518712 2.035726 0.038301 0.007331 162149.000000 0 0 1
-36.352214 19.996435 -22.154052 47.033423 -0.502901 2.061252 0.027281 0.010259 175331.000000 0 0 1
-36.123514 18.499035 -22.098552 46.211130 -0.473285 2.069410 0.027712 0.003605 364174.000000 0 0 1
-37.269014 17.817535 -21.595752 46.613522 -0.445958 2.052505 0.022231 -0.001667 250065.000000 0 0 1
-37.127114 16.420235 -21.538652 45.956069 -0.416408 2.058591 0.022207 -0.006013 -540819.000000 0 0 1
37.130076 15.659135 -21.293852 45.577178 0.399104 2.056922 0.024283 -0.005522 -192151.000000 0 0 1
36.398576 15.787535 -22.534652 45.627986 0.409251 2.087340 0.036448 0.005387 278599.000000 0 0 1
35.328476 14.856335 -22.649652 44.517621 0.398070 2.104563 0.061131 0.005435 -99417.200000 0 0 1
35.679776 13.576535 -23.341152 44.745704 0.363593 2.119568 0.035706 0.000422 -531427.000000 0 0 1
35.904276 13.773635 -24.704052 45.706895 0.366307 2.141814 0.040033 -0.003818 111580.000000 0 0 1
36.338576 12.551335 -25.249592 45.995326 0.332571 2.151916 0.029541 0.005114 -176310.000000 0 0 1
36.421776 12.559935 -26.766412 46.912030 0.332077 2.177991 0.028505 0.004692 17279.900000 0 0 1
35.136376 12.466435 -27.346492 46.236431 0.340946 2.203651 0.016961 0.003362 148957.000000 0 0 1
34.720076 13.617635 -28.098012 46.694988 0.373775 2.216468 0.027798 0.000137 -352179.000000 0 0 1
35.202976 13.769135 -29.548642 47.978754 0.372841 2.234285 0.037927 -0.016251 -281925.000000 0 0 1
36.580676 13.990935 -29.737222 49.175141 0.365302 2.220211 0.038269 -0.002897 -312979.000000 0 0 1
36.920876 14.019935 -31.075482 50.253310 0.362910 2.237472 0.059571 -0.017837 1103960.000000 0 0 1
-37.082614 14.187435 -31.329212 50.575914 -0.365408 2.238837 0.073810 -0.017828 1913390.000000 0 0 1
-36.165514 13.177535 -30.885232 49.350678 -0.349417 2.246994 0.089185 -0.012381 488686.000000 0 0 1
-36.042314 13.015935 -29.480802 48.348533 -0.346555 2.226549 0.071511 -0.007356 -685691.000000 0 0 1
-35.029614 11.923235 -29.106232 47.078765 -0.328075 2.237305 0.072941 -0.012423 101156.000000 0 0 1
-35.454814 10.591635 -29.453432 47.294093 -0.290297 2.243077 0.079999 -0.012220 544078.000000 0 0 1
-34.405714 9.653435 -29.228382 46.165358 -0.273543 2.256378 0.080847 -0.013079 323614.000000 0 0 1
-34.666714 8.273335 -29.868182 46.500940 -0.234271 2.268309 0.092894 -0.014763 -545752.000000 0 0 1
-34.834514 8.241735 -31.264392 47.527169 -0.232325 2.288719 0.100801 -0.020766 183622.000000 0 0 1
-35.259014 7.017835 -31.894682 48.059534 -0.196469 2.296483 0.109453 -0.023115 -485946.000000 0 0 1
-36.610914 6.448535 -31.509932 48.732109 -0.174349 2.273908 0.116214 -0.006999 -977669.000000 0 0 1
-36.603114 5.956435 -30.161952 47.801783 -0.161316 2.253612 0.108701 -0.011909 206996.000000 0 0 1
37.660076 5.727635 -29.667532 48.283015 0.150931 2.232486 0.081832 -0.002963 -61484.600000 0 0 1
37.647976 5.055635 -28.277642 47.355618 0.133488 2.210720 0.081816 -0.010698 -140057.000000 0 0 1
-37.606714 3.703935 -28.380442 47.259217 -0.098175 2.214957 0.098956 -0.006894 154391.000000 0 0 1
-37.566914 3.070935 -27.078362 46.410574 -0.081564 2.193770 0.105970 -0.009094 210071.000000 0 0 1
-36.728014 1.719735 -27.177212 45.722045 -0.046789 2.207316 0.141879 -0.019555 669065.000000 0 0 1
-35.476714 1.857435 -26.495902 44.317944 -0.052309 2.211624 0.144147 -0.022454 82952.900000 0 0 1
-34.846614 0.610835 -26.426872 43.738304 -0.017527 2.219563 0.160763 -0.028396 -156586.000000 0 0 1
-33.571514 0.561235 -25.555322 42.195213 -0.016716 2.221373 0.154961 -0.026031 -205944.000000 0 0 1
-33.732814 0.813635 -24.200752 41.523983 -0.024115 2.192983 0.152594 -0.019203 -448684.000000 0 0 1
-32.523414 0.760735 -23.508752 40.137421 -0.023386 2.196548 0.168695 -0.008977 -346363.000000 0 0 1
-32.728614 0.370035 -22.022552 39.449866 -0.011306 2.163061 0.153622 0.000798 -363839.000000 0 0 1
-32.982014 -1.009565 -21.882852 39.594087 0.030600 2.156373 0.170156 -0.013585 303255.000000 0 0 1
-33.547814 -1.405765 -20.620752 39.403647 0.041879 2.121540 0.175125 -0.017842 710654.000000 0 0 1
-35.068514 -1.119665 -20.418452 40.595166 0.031917 2.097837 0.172431 -0.016749 191972.000000 0 0 1
-35.973214 -2.110965 -20.865352 41.640019 0.058614 2.095653 0.158290 -0.021052 -182451.000000 0 0 1
-37.271414 -1.759265 -20.471252 42.559670 0.047166 2.072593 0.156088 -0.023803 329795.000000 0 0 1
37.297276 -2.934765 -20.159652 42.498367 -0.078524 2.065037 0.147169 -0.026654 870733.000000 0 0 1
36.687976 -3.743265 -21.209852 42.542654 -0.101678 2.092727 0.122298 -0.019913 123325.000000 0 0 1
37.657976 -4.445165 -21.867852 43.773115 -0.117497 2.093902 0.119682 -0.018026 -444210.000000 0 0 1
36.975176 -5.257665 -23.002052 43.862296 -0.141248 2.122824 0.112184 -0.021796 -387571.000000 0 0 1
36.234176 -6.331665 -22.419652 43.077213 -0.172996 2.118177 0.124138 -0.018696 374018.000000 0 0 1
35.657576 -7.224165 -23.402452 43.258826 -0.199893 2.142406 0.117487 -0.019529 -80452.300000 0 0 1
34.367076 -6.740565 -24.063352 42.492070 -0.193676 2.172809 0.078449 -0.014961 -830205.000000 0 0 1
34.601076 -5.649165 -24.928652 43.018429 -0.161838 2.188896 0.081393 -0.023687 1040960.000000 0 0 1
33.324376 -5.026565 -25.227402 42.097532 -0.149709 2.213374 0.045880 -0.018534 1134680.000000 0 0 1
33.438176 -3.772865 -26.080622 42.573994 -0.112356 2.230136 0.083211 -0.051417 -69700.800000 0 0 1
33.682776 -4.099065 -27.423982 43.628047 -0.121101 2.250530 0.082077 -0.052487 175355.000000 0 0 1
33.149976 -3.128265 -28.292142 43.693847 -0.094088 2.275107 0.085376 -0.053851 -80607.100000 0 0 1
32.854576 -3.659665 -29.689222 44.432715 -0.110933 2.302561 0.101163 -0.052979 16347.700000 0 0 1
32.140576 -2.666365 -30.377902 44.305113 -0.082770 2.326296 0.098491 -0.059602 -258370.000000 0 0 1
31.468976 -3.263565 -31.437832 44.601396 -0.103338 2.353025 0.107918 -0.060589 -466948.000000 0 0 1
30.957776 -2.176265 -32.452592 44.903126 -0.070182 2.378533 0.110264 -0.049855 -332353.000000 0 0 1
30.070676 -1.189865 -31.851172 43.819613 -0.039548 2.384550 0.104345 -0.046455 1263660.000000 0 0 1
28.707576 -1.534465 -31.561942 42.692337 -0.053401 2.402809 0.118372 -0.055945 765965.000000 0 0 1
27.856676 -1.986665 -32.775272 43.059954 -0.071197 2.435887 0.103518 -0.049045 -1420340.000000 0 0 1
28.146776 -3.264365 -33.247062 43.683683 -0.115461 2.435783 0.105509 -0.053480 -401257.000000 0 0 1
27.622476 -3.545565 33.082285 43.243610 -0.127660 0.699722 0.093818 -0.039676 128131.000000 0 0 1
28.440376 -4.654765 32.267674 43.263433 -0.162229 0.728999 0.058218 -0.042505 1990020.000000 0 0 1
29.810876 -4.270365 31.925021 43.887713 -0.142281 0.756234 0.065201 -0.034877 1361600.000000 0 0 1
29.968576 -3.720065 30.617857 43.004739 -0.123500 0.778504 0.085056 -0.044112 -295381.000000 0 0 1
30.769476 -2.402565 30.741597 43.561207 -0.077925 0.787371 0.070338 -0.040910 156026.000000 0 0 1
32.090776 -2.591165 31.231927 44.854936 -0.080570 0.800584 0.078132 -0.041019 -55860.100000 0 0 1
32.575376 -1.299765 31.597955 45.401270 -0.039879 0.801025 0.080643 -0.035495 -200788.000000 0 0 1
34.067176 -1.372865 31.946458 46.722943 -0.040277 0.817917 0.079754 -0.038317 -445686.000000 0 0 1
34.962376 -1.519565 30.870467 46.665432 -0.043436 0.847942 0.099536 -0.035754 -281822.000000 0 0 1
36.270076 -1.478465 31.415967 48.006950 -0.040740 0.857401 0.096077 -0.029510 -165754.000000 0 0 1
37.279176 -2.039965 30.400527 48.146552 -0.054667 0.887418 0.100921 -0.028232 -331548.000000 0 0 1
37.581276 -1.255065 29.274087 47.653957 -0.033384 0.909291 0.111233 -0.021965 243451.000000 0 0 1
-37.109314 -1.974865 28.407267 46.775786 0.053167 0.918130 0.112708 -0.018444 259185.000000 0 0 1
-36.865914 -1.312665 27.023567 45.728458 0.035591 0.938551 0.115619 -0.013648 139698.000000 0 0 1
37.624576 -1.337665 26.125797 45.825270 -0.035538 0.964147 0.120753 -0.029941 -231958.000000 0 0 1
-37.447514 -1.033065 24.866827 44.963793 0.027580 0.984786 0.132686 -0.025327 180928.000000 0 0 1
-27.314474 15.191335 12.183848 33.545541 -0.507564 1.199093 0.118313 -0.002588 -265403.000000 0 0 1
-28.489224 14.478935 12.466748 34.302992 -0.470206 1.198849 0.106953 0.008037 -410098.000000 0 0 1
-29.522624 15.349335 12.823548 35.659933 -0.479455 1.202950 0.122850 -0.005536 -115866.000000 0 0 1
-30.792314 14.514835 13.194548 36.509494 -0.440489 1.201027 0.131340 -0.001227 357809.000000 0 0 1
-31.802664 15.364235 13.713548 37.888396 -0.450046 1.200442 0.124025 -0.004489 -531638.000000 0 0 1
-32.948324 14.668635 14.104948 38.726096 -0.418856 1.197998 0.137142 -0.010958 271418.000000 0 0 1
-33.844984 15.588435 15.020348 40.175778 -0.431620 1.187623 0.118748 -0.008607 311378.000000 0 0 1
-33.312064 15.638535 16.331548 40.261357 -0.438915 1.153119 0.104978 -0.001955 -31991.800000 0 0 1
-34.256463 16.061135 17.265448 41.587991 -0.438418 1.142684 0.104091 -0.016149 -394761.000000 0 0 1
-33.606114 16.471635 18.569348 41.779258 -0.455727 1.110221 0.139054 -0.008012 -100996.000000 0 0 1
-32.934914 15.363235 19.126948 41.067965 -0.436468 1.086327 0.139277 -0.015270 261088.000000 0 0 1
-31.925404 15.700735 20.083448 40.854491 -0.457062 1.056888 0.128506 -0.011136 478752.000000 0 0 1
-32.450364 15.922535 21.527348 42.071130 -0.456159 1.033646 0.130157 -0.026091 2532.340000 0 0 1
-33.374374 16.996035 21.663148 43.266685 -0.471023 1.046402 0.134024 -0.029728 173180.000000 0 0 1
-33.699184 17.395635 23.005948 44.356699 -0.476526 1.025516 0.136881 -0.035673 -713734.000000 0 0 1
-34.702182 16.525635 23.785348 45.200452 -0.444438 1.016648 0.123835 -0.036927 861151.000000 0 0 1
-36.042154 16.354635 23.300148 45.928291 -0.425980 1.038729 0.132832 -0.031149 597934.000000 0 0 1
-36.913964 17.431935 23.307648 47.008080 -0.441187 1.052015 0.126457 -0.037765 -1178670.000000 0 0 1
37.235376 16.993435 22.957248 46.928513 0.428146 1.059628 0.108823 -0.039399 -582993.000000 0 0 1
36.712146 16.317335 24.090648 46.844385 0.418243 1.030640 0.109134 -0.034811 -366974.000000 0 0 1
35.567606 15.575435 23.756148 45.519263 0.412755 1.021729 0.114535 -0.034593 -94012.400000 0 0 1
35.007406 14.778835 24.941448 45.453364 0.399465 0.989957 0.081591 -0.020534 -301651.000000 0 0 1
34.473016 15.652335 25.916548 45.880844 0.426213 0.970525 0.090002 -0.026303 52345.400000 0 0 1
34.467206 15.112635 27.281548 46.482931 0.413219 0.943553 0.088973 -0.014724 -95520.000000 0 0 1
33.529976 13.919735 27.598348 45.603587 0.393492 0.920805 0.093089 -0.011787 -142349.000000 0 0 1
33.909956 12.667035 27.011348 45.165826 0.357498 0.929733 0.080999 -0.021074 65179.700000 0 0 1
32.989906 11.627535 27.299748 44.371271 0.338862 0.908084 0.073489 -0.014660 -3049.280000 0 0 1
33.598966 10.239435 26.957248 44.276741 0.295813 0.916205 0.081857 -0.022980 438935.000000 0 0 1
34.725716 9.939135 27.786348 45.571295 0.278766 0.915072 0.071584 -0.017047 242764.000000 0 0 1
35.022516 8.568035 27.591948 45.401580 0.239931 0.917596 0.093219 -0.011929 878531.000000 0 0 1
36.277296 7.998835 28.385848 46.752325 0.217019 0.918323 0.106703 -0.018882 296778.000000 0 0 1
37.522856 8.519035 28.068848 47.627711 0.223251 0.940556 0.108787 -0.021359 -846932.000000 0 0 1
-37.024804 7.692535 28.533148 47.372479 -0.204853 0.924398 0.111875 -0.024113 305053.000000 0 0 1
-35.596434 8.293435 28.659448 46.446218 -0.228902 0.905813 0.130585 -0.028868 254146.000000 0 0 1
-34.952311 8.570735 27.462848 45.269521 -0.240468 0.918954 0.116516 -0.026628 316234.000000 0 0 1
-33.765594 9.322035 27.795748 44.717103 -0.269371 0.900024 0.118787 -0.019199 732019.000000 0 0 1
-33.087144 10.015635 26.580748 43.607433 -0.293936 0.915308 0.123580 -0.025975 -178011.000000 0 0 1
-32.411084 9.122335 25.705948 42.361435 -0.274360 0.918737 0.112969 -0.027247 752289.000000 0 0 1
-31.661134 9.891835 24.700448 41.356837 -0.302820 0.930726 0.109047 -0.025693 595914.000000 0 0 1
-30.848644 9.025135 23.724448 39.949235 -0.284619 0.934942 0.114654 -0.026546 1544790.000000 0 0 1
-29.630224 9.650135 23.189948 38.843905 -0.314852 0.931036 0.113830 -0.031094 1880500.000000 0 0 1
-28.776194 8.641035 22.592048 37.591721 -0.291717 0.926064 0.090827 -0.020524 750692.000000 0 0 1
-27.591834 9.214035 21.765648 36.331133 -0.322297 0.928431 0.097935 -0.019449 -264208.000000 0 0 1
-26.476804 9.735435 22.462848 36.060774 -0.352353 0.898331 0.100624 -0.021351 1159820.000000 0 0 1
-25.448254 10.373035 21.658948 34.990335 -0.387052 0.903330 0.082153 -0.006484 974086.000000 0 0 1
-24.802724 9.660635 20.405548 33.539371 -0.371421 0.916746 0.072361 -0.006009 -1277250.000000 0 0 1
-25.523124 9.586635 19.250648 33.375454 -0.359302 0.956002 0.072504 -0.011337 -418031.000000 0 0 1
-24.963904 8.791835 18.237548 32.141889 -0.338617 0.967442 0.075948 -0.021426 -304668.000000 0 0 1
-24.782024 7.239335 18.422548 31.716667 -0.284212 0.951027 0.071781 -0.011331 -452365.000000 0 0 1
-23.623524 6.872235 19.141048 31.171754 -0.283093 0.909613 0.086713 -0.010556 348525.000000 0 0 1
-23.523424 5.495635 19.478548 31.031715 -0.229508 0.892204 0.096830 -0.013712 -255509.000000 0 0 1
-23.640324 4.404135 18.339548 30.242360 -0.184186 0.919247 0.104684 -0.020432 -500814.000000 0 0 1
-24.935524 4.267935 17.787048 30.925309 -0.169516 0.957995 0.121645 -0.021775 487775.000000 0 0 1
-25.024774 3.185935 16.825648 30.323126 -0.126630 0.982580 0.127832 -0.021388 -198128.000000 0 0 1
-24.946224 1.720435 17.363948 30.443073 -0.068857 0.963835 0.127965 -0.013671 650094.000000 0 0 1
-23.641024 1.222235 17.724748 29.572937 -0.051654 0.928099 0.108006 -0.015268 1173170.000000 0 0 1
-23.800324 0.014235 18.445948 30.111603 -0.000598 0.911468 0.122561 -0.025992 -202232.000000 0 0 1
-22.539124 -0.837565 18.709048 29.304302 0.037143 0.878326 0.117525 -0.011565 322907.000000 0 0 1
-21.524924 -0.236465 19.546948 29.076820 0.010985 0.833550 0.110559 -0.009113 228581.000000 0 0 1
-20.542424 -1.194465 19.752048 28.522997 0.058081 0.805854 0.106826 -0.005585 -58251.100000 0 0 1
-19.411824 -0.799565 20.729948 28.411071 0.041166 0.752996 0.111323 -0.010710 469219.000000 0 0 1
-19.957224 -0.855065 22.031448 29.738975 0.042819 0.736495 0.120620 -0.016070 337513.000000 0 0 1
-18.941724 -0.629765 23.007048 29.807881 0.033235 0.689059 0.128971 -0.021473 -555484.000000 0 0 1
-19.417524 -0.786465 24.449248 31.231787 0.040481 0.671592 0.128594 -0.017647 161549.000000 0 0 1
-20.240024 0.254335 24.982648 32.153631 -0.012565 0.680946 0.128422 -0.034169 95281.700000 0 0 1
-21.596624 0.053335 24.629148 32.756861 -0.002470 0.719891 0.126359 -0.030241 -978170.000000 0 0 1
-22.482224 1.087735 25.251948 33.827422 -0.048344 0.728020 0.106125 -0.033268 -552712.000000 0 0 1
-22.209724 2.441835 24.819848 33.395498 -0.109505 0.732942 0.101662 -0.033357 501668.000000 0 0 1
-23.344024 2.976235 24.162348 33.728630 -0.126810 0.772203 0.098810 -0.027783 -381572.000000 0 0 1
-22.900624 4.114335 23.256348 32.897174 -0.177764 0.785633 0.112190 -0.028271 -19072.600000 0 0 1
-22.237224 3.854335 22.048748 31.551503 -0.171623 0.797053 0.126336 -0.027609 1156460.000000 0 0 1
-20.849624 3.514135 22.219348 30.671736 -0.166977 0.760598 0.111526 -0.021574 191981.000000 0 0 1
-20.248424 2.755135 21.012948 29.310978 -0.135236 0.771455 0.104054 -0.021107 -237398.000000 0 0 1
-19.705524 3.565035 20.014148 28.312246 -0.178980 0.785680 0.100463 -0.007832 146761.000000 0 0 1
-19.437324 2.733035 18.943148 27.278598 -0.139692 0.803165 0.111572 -0.013245 18790.000000 0 0 1
-18.949124 3.543035 17.698548 26.169849 -0.184842 0.828075 0.092051 -0.008329 1082680.000000 0 0 1
-17.583524 4.022235 17.820048 25.355726 -0.224881 0.791468 0.098990 -0.023777 1296180.000000 0 0 1
-17.247524 4.644835 16.565448 24.361151 -0.263063 0.823041 0.098012 -0.017137 -563487.000000 0 1 0
-15.793024 5.064435 16.369048 23.302658 -0.310316 0.791957 0.093242 -0.017559 -441610.000000 0 1 0
-15.399224 6.116435 17.283648 23.943086 -0.378083 0.764305 0.090842 -0.023255 381919.000000 0 1 0
-15.956524 7.475235 17.082948 24.542146 -0.438111 0.800893 0.101047 -0.029050 -80273.300000 0 1 0
-15.466824 8.386235 15.854348 23.683580 -0.496841 0.837364 0.060156 -0.024192 -92884.400000 0 1 0
-15.818624 7.941635 14.563948 22.921759 -0.465281 0.882300 0.085019 -0.020117 -17231.000000 0 1 0
-17.197424 8.024035 14.324148 23.776412 -0.436559 0.924227 0.073107 -0.018770 -454744.000000 0 1 0
-17.588824 7.236235 13.078548 23.081990 -0.390305 0.968407 0.069821 -0.018023 -214189.000000 0 1 0
-17.441324 5.820335 13.312748 22.700338 -0.322089 0.944120 0.072926 -0.020499 606703.000000 0 1 0
-17.865224 5.122635 12.098648 22.176224 -0.279246 0.993729 0.052780 -0.030822 166545.000000 0 1 0
-17.460024 3.663235 12.124448 21.570210 -0.206807 0.973883 0.059605 -0.024803 -195507.000000 0 1 0
-18.076924 2.923735 13.167848 22.554725 -0.160350 0.947373 0.077859 -0.028151 372485.000000 0 1 0
-17.652224 1.574435 13.259848 22.133762 -0.088956 0.928447 0.063158 -0.024030 -822366.000000 0 1 0
-18.494724 0.881535 14.266848 23.374663 -0.047628 0.914287 0.076056 -0.031201 -613423.000000 0 1 0
-19.764824 0.533335 13.765148 24.091742 -0.026978 0.962630 0.095393 -0.031409 64323.700000 0 1 0
-20.572424 -0.013965 14.779048 25.330715 0.000679 0.947834 0.108093 -0.029498 212596.000000 0 0 1
-22.077624 -0.153365 14.405548 26.362186 0.006947 0.992680 0.117663 -0.024148 161433.000000 0 0 1
-22.298124 -1.022465 13.401048 26.035358 0.045822 1.030110 0.136194 -0.035949 -101516.000000 0 0 1
-23.664724 -1.045965 13.086148 27.062160 0.044171 1.066080 0.178074 -0.033920 -265240.000000 0 0 1
-24.002524 -2.145765 12.017348 26.928463 0.089160 1.108204 0.177045 -0.047031 -52145.500000 0 0 1
-23.758124 -3.466665 12.594648 27.112569 0.144892 1.087691 0.144664 -0.038607 464809.000000 0 0 1
-23.995924 -4.414865 11.554348 26.996266 0.181949 1.128520 0.156616 -0.048543 -162033.000000 0 0 1
-24.053424 -5.815765 12.144348 27.565840 0.237232 1.114576 0.138074 -0.045740 422830.000000 0 0 1
-25.223654 -6.245365 12.867148 28.996566 0.242718 1.111020 0.131772 -0.037944 730159.000000 0 0 1
-25.260544 -7.653165 13.105648 29.469035 0.294179 1.109928 0.140067 -0.044056 -84108.800000 0 0 1
-26.312494 -7.970765 14.185948 30.937381 0.294140 1.094448 0.152599 -0.033787 953859.000000 0 0 1
-27.655214 -7.564365 13.810248 31.823787 0.266993 1.121913 0.132838 -0.039620 1000710.000000 0 0 1
-28.473924 -7.835165 14.922348 33.088225 0.268524 1.102926 0.130983 -0.020021 -1830100.000000 0 0 1
-29.769774 -7.028265 14.998548 34.067469 0.231842 1.114908 0.130822 -0.031583 -659415.000000 0 0 1
-30.726874 -7.324765 13.987448 34.546225 0.234016 1.153937 0.124401 -0.023518 584246.000000 0 0 1
-31.293374 -8.630265 14.000748 35.352195 0.269097 1.163600 0.123869 -0.036510 -897286.000000 0 0 1
-31.856544 -9.241365 15.335848 36.543542 0.282343 1.137726 0.115505 -0.032097 -240269.000000 0 0 1
-30.805954 -9.706565 16.199248 36.133639 0.305240 1.105917 0.112696 -0.013562 786992.000000 0 0 1
-31.314074 -10.492365 17.272748 37.269408 0.323312 1.088904 0.120706 -0.006160 1194780.000000 0 0 1
-30.113564 -10.781765 18.285248 36.843229 0.343817 1.051466 0.153331 -0.009774 1848550.000000 0 0 1
-28.973064 -11.474565 17.764448 35.870318 0.377090 1.052684 0.152974 -0.010269 446595.000000 0 0 1
-27.814574 -11.218165 18.521148 35.249549 0.383365 1.017577 0.151499 -0.018837 953687.000000 0 0 1
-26.558824 -12.134565 18.184448 34.399026 0.428572 1.013807 0.140407 -0.015063 633875.000000 0 0 1
-26.089544 -11.927565 16.911948 33.300828 0.428807 1.038105 0.131603 -0.012362 174848.000000 0 0 1
-25.190254 -12.993165 16.575148 32.834536 0.476209 1.041636 0.112718 -0.019255 -81264.600000 0 0 1
-24.614824 -12.889465 15.145948 31.645341 0.482385 1.071719 0.104380 -0.018335 -413421.000000 0 0 1
-23.750624 -11.797065 14.989448 30.462213 0.461009 1.056334 0.106064 -0.026951 -164837.000000 0 0 1
-23.176124 -11.818865 13.681548 29.393929 0.471583 1.086648 0.095012 -0.023719 1290420.000000 0 0 1
-21.807724 -11.042265 13.412548 27.881982 0.468712 1.068948 0.121407 -0.039800 929789.000000 0 0 1
-21.903724 -9.616565 13.537948 27.486860 0.413701 1.055808 0.123340 -0.050612 219303.000000 0 0 1
-20.689724 -8.895065 13.394248 26.202915 0.406036 1.034246 0.136327 -0.053721 176439.000000 0 0 1
-19.996824 -8.828265 12.025048 24.948207 0.415749 1.067860 0.151884 -0.043989 -373589.000000 0 1 0
-19.272524 -9.970465 11.676548 24.641066 0.477424 1.077121 0.137600 -0.048668 242196.000000 0 1 0
-18.729724 -9.979165 10.370748 23.620727 0.489541 1.116252 0.133258 -0.037858 -287090.000000 0 1 0
-18.097924 -11.376965 9.982548 23.592827 0.561208 1.133913 0.091706 -0.023670 761597.000000 0 1 0
-16.681024 -11.534665 10.059248 22.638320 0.604988 1.110352 0.105277 -0.030311 1015570.000000 0 1 0
-16.058324 -11.467965 11.356048 22.767166 0.620156 1.048593 0.109163 -0.024646 -178156.000000 0 1 0
-14.578624 -11.886065 11.274948 21.930328 0.684005 1.030808 0.107892 -0.026332 -33709.900000 0 1 0
-14.251424 -13.231865 10.911048 22.298796 0.748318 1.059497 0.100405 -0.027151 978039.000000 0 1 0
-12.848324 -13.520965 11.019348 21.663840 0.810901 1.037178 0.096842 -0.024915 895123.000000 0 1 0
-12.431024 -14.997765 10.783048 22.265162 0.878705 1.065232 0.106139 -0.025611 -62720.200000 0 1 0
-12.792924 -15.568365 9.551048 22.299225 0.882948 1.128171 0.097967 -0.028774 158073.000000 0 1 0
-12.672824 -16.961665 9.653348 23.269845 0.929125 1.143025 0.094744 -0.021571 -116671.000000 0 1 0
-13.049924 -17.692065 8.397148 23.533418 0.935269 1.205937 0.087724 -0.016176 -86909.900000 0 1 0
-12.142524 -17.627665 7.302948 22.616554 0.967604 1.242001 0.080974 -0.022917 -80518.300000 0 1 0
-12.518624 -18.441365 6.207748 23.137330 0.974417 1.299168 0.058274 -0.019148 65279.900000 0 1 0
-11.676024 -18.334865 4.880148 22.278076 1.003742 1.349949 0.060255 -0.016499 -73173.900000 0 1 0
-12.099924 -19.188465 3.880548 23.014430 1.008192 1.401373 0.081422 -0.022444 -1870.690000 0 1 0
-11.430524 -18.995665 2.654248 22.327947 1.029096 1.451639 0.092009 -0.030244 59869.100000 0 1 0
-11.826024 -20.107865 1.674448 23.387707 1.039151 1.499140 0.112106 -0.033906 -315539.000000 0 1 0
-11.416324 -21.365665 2.010548 24.307744 1.080063 1.487989 0.097540 -0.039874 -746689.000000 0 1 0
-11.645024 -22.230065 0.965948 25.114049 1.088258 1.532324 0.102157 -0.043711 -314784.000000 0 0 1
-10.747824 -22.176965 -0.329752 24.646343 1.119513 1.584176 0.113529 -0.043732 74717.200000 0 1 0
-10.964524 -21.108165 -1.279852 23.820442 1.091714 1.624551 0.127698 -0.056362 -969697.000000 0 1 0
-11.998824 -21.154465 -2.155452 24.415756 1.054843 1.659193 0.124038 -0.048383 -874429.000000 0 1 0
-13.124624 -20.105465 -2.050952 24.097549 0.992463 1.656010 0.129103 -0.046389 493171.000000 0 1 0
-13.997824 -20.362965 -0.923852 24.727372 0.968566 1.608167 0.124878 -0.040026 811788.000000 0 1 0
-15.176524 -19.566865 -0.991252 24.782487 0.911097 1.610805 0.140251 -0.020646 343791.000000 0 1 0
27.205976 -19.709265 -4.030452 33.835851 -0.626945 1.690198 0.118570 -0.034608 -250458.000000 0 0 1
25.922976 -19.767665 -3.454152 32.782502 -0.651487 1.676358 0.105392 -0.027259 37766.600000 0 0 1
25.773576 -20.755265 -2.488052 33.185066 -0.677960 1.645842 0.081574 -0.027598 -11383.300000 0 0 1
24.316076 -20.974665 -1.993052 32.174219 -0.711755 1.632782 0.059711 -0.021440 137922.000000 0 0 1
23.502876 -21.570265 -2.963952 32.038204 -0.742547 1.663442 0.075220 -0.021232 -687080.000000 0 0 1
22.475876 -22.282165 -2.354752 31.736489 -0.781070 1.645062 0.053595 -0.013681 -348674.000000 0 0 1
21.455876 -22.934165 -3.302152 31.579024 -0.818688 1.675556 0.067316 -0.027263 252961.000000 0 0 1
20.504776 -22.024865 -3.826852 30.334556 -0.821125 1.697288 0.084459 -0.037175 440850.000000 0 0 1
19.467576 -22.605465 -4.620252 30.188413 -0.859842 1.724447 0.087811 -0.036505 913431.000000 0 0 1
18.486276 -21.668765 -5.439852 28.997754 -0.864488 1.759510 0.073503 -0.019522 506912.000000 0 0 1
17.450176 -21.010765 -4.745352 27.721458 -0.877712 1.742823 0.067040 -0.013804 456013.000000 0 0 1
17.938676 -20.107465 -3.757152 27.207029 -0.842341 1.709334 0.070622 -0.021354 -765456.000000 0 0 1
16.816776 -19.710265 -2.829452 26.063467 -0.864448 1.679571 0.082156 -0.006774 -407988.000000 0 0 1
16.412476 -20.675365 -1.863952 26.463454 -0.899836 1.641290 0.088685 -0.019781 280116.000000 0 0 1
15.845276 -19.953965 -0.763352 25.491492 -0.899668 1.600746 0.104428 -0.015580 -223363.000000 0 0 1
15.563376 -20.827765 0.420448 26.003677 -0.929063 1.554627 0.112238 -0.015383 -58330.000000 0 0 1
14.605076 -21.856165 0.232648 26.287912 -0.981708 1.561946 0.109977 -0.025409 -54571.200000 0 0 1
13.972276 -22.032465 1.466648 26.130539 -1.005632 1.514639 0.105720 -0.023371 -333967.000000 0 0 1
12.982876 -23.192165 1.516848 26.622029 -1.060463 1.513788 0.101945 -0.033417 -317237.000000 0 0 1
13.555876 -24.484665 1.647748 28.035257 -1.065157 1.511988 0.112186 -0.030798 157610.000000 0 0 1
12.610376 -25.515585 1.408548 28.496503 -1.111781 1.521347 0.090417 -0.026389 104122.000000 0 0 1
12.939476 -26.857145 2.054348 29.882380 -1.121823 1.501994 0.094509 -0.023287 -31617.300000 0 0 1
12.605276 -26.896295 3.450848 29.903378 -1.132532 1.455139 0.106271 -0.029545 229396.000000 0 0 1
12.965676 -28.149255 4.003848 31.249322 -1.139159 1.442317 0.091396 -0.022637 -256023.000000 0 0 1
12.424376 -28.349875 5.409248 31.421975 -1.157755 1.397786 0.093553 -0.021732 -257146.000000 0 0 1
12.835076 -29.517725 6.047548 32.750696 -1.160632 1.385076 0.083048 -0.027220 -125084.000000 0 0 1
12.477876 -29.631755 7.437048 33.000727 -1.172235 1.343484 0.080864 -0.027168 -6694.160000 0 0 1
13.120876 -30.864575 8.179248 34.520711 -1.168832 1.331584 0.086922 -0.026156 110914.000000 0 0 1
12.740876 -31.002375 9.540948 34.849776 -1.180874 1.293482 0.073968 -0.023322 360506.000000 0 0 1
11.797776 -32.052965 9.817748 35.538265 -1.218114 1.290897 0.071076 -0.020649 465019.000000 0 0 1
11.579676 -32.357505 11.306348 36.179145 -1.227131 1.252962 0.066626 -0.016309 1079630.000000 0 0 1
12.729076 -33.040595 11.921748 37.360920 -1.203065 1.246020 0.057394 -0.024022 1282510.000000 0 0 1
12.541576 -33.361555 13.279348 38.034531 -1.211211 1.214144 0.065559 -0.017764 228086.000000 0 0 1
11.449976 33.216462 13.542248 37.654054 1.238844 1.202904 0.061062 -0.014218 45532.300000 0 0 1
11.811176 31.969173 12.988548 36.472377 1.216896 1.206684 0.069560 -0.022829 917814.000000 0 0 1
10.709576 31.008545 12.955548 35.271392 1.238248 1.194681 0.058382 -0.019872 787826.000000 0 0 1
10.898476 29.926655 11.823748 33.973261 1.221552 1.215326 0.070075 -0.025098 31930.700000 0 0 1
10.543476 30.335305 10.491448 33.785590 1.236293 1.255046 0.072508 -0.025494 412069.000000 0 0 1
11.549976 31.191975 9.917148 34.708660 1.216164 1.281033 0.055747 -0.019636 285392.000000 0 0 1
11.223376 31.738180 8.557048 34.734699 1.230897 1.321879 0.054461 -0.017410 -42394.400000 0 0 1
10.032676 32.501761 8.633948 35.093648 1.271394 1.322218 0.052543 -0.015711 100525.000000 0 0 1
9.501776 32.619620 7.289848 34.748601 1.287349 1.359438 0.052167 -0.020362 161381.000000 0 0 1
9.809776 -33.670625 6.605348 35.687159 -1.287298 1.384633 0.053205 -0.009150 -37315.200000 0 0 1
9.045076 -32.611725 7.133048 34.586390 -1.300241 1.363067 0.049449 -0.009339 -12700.600000 0 0 1
9.390876 -31.362155 6.537148 33.384242 -1.279859 1.373707 0.066805 -0.026391 141194.000000 0 0 1
8.497076 -30.172515 7.002348 32.118746 -1.296289 1.351017 0.058002 -0.020123 15145.100000 0 0 1
8.920176 -29.778955 8.271048 32.167778 -1.279756 1.310753 0.072390 -0.017082 -31043.200000 0 0 1
8.394776 -28.550425 8.720548 31.010434 -1.284823 1.285738 0.095187 -0.015818 -123942.000000 0 0 1
8.959276 -27.236775 8.047848 29.780504 -1.253005 1.297155 0.110842 -0.028103 542257.000000 0 0 1
10.068576 -26.643905 8.737148 29.792812 -1.209491 1.273158 0.106104 -0.025317 449496.000000 0 0 1
10.914376 -25.679565 8.139648 29.065745 -1.168907 1.286958 0.092745 -0.034465 -106930.000000 0 0 1
10.301076 -24.528665 7.328648 27.594866 -1.173202 1.301991 0.119524 -0.039570 -586190.000000 0 0 1
9.909676 -24.965865 6.066948 27.537319 -1.192940 1.348657 0.117048 -0.037253 -798489.000000 0 0 1
8.920976 -24.111965 5.594948 26.311102 -1.216433 1.356514 0.116302 -0.034937 -201762.000000 0 0 1
8.445776 -24.592965 4.209248 26.341276 -1.239993 1.410312 0.108462 -0.030986 193062.000000 0 0 1
7.624776 -25.760865 4.160048 27.185757 -1.283029 1.417170 0.083196 -0.032112 -86802.900000 0 0 1
8.276176 -26.977085 4.440148 28.565243 -1.273126 1.414725 0.086915 -0.025890 -201768.000000 0 0 1
7.525376 -28.163595 3.792348 29.397300 -1.309694 1.441433 0.080694 -0.027106 229371.000000 0 0 1
6.408676 -28.535165 4.591048 29.604130 -1.349873 1.415087 0.070303 -0.022150 -264665.000000 0 0 1
5.508876 -29.383355 3.949748 30.155095 -1.385465 1.439438 0.049659 -0.016011 -159529.000000 0 0 1
5.724676 -30.895835 4.146948 31.694191 -1.387585 1.439578 0.041694 -0.007593 -50823.500000 0 0 1
6.708176 -31.432875 3.278548 32.307493 -1.360538 1.469142 0.041843 -0.009193 19307.300000 0 0 1
6.863276 -32.844085 3.591048 33.745134 -1.364795 1.464178 0.042553 -0.016570 -32997.200000 0 0 1
7.865376 -33.641685 2.733448 34.656873 -1.341123 1.491843 0.045967 -0.016412 69769.600000 0 0 1
7.515176 -33.697745 1.363948 34.552514 -1.351370 1.531311 0.054703 -0.018807 -197269.000000 0 0 1
8.351276 32.969551 0.801948 34.020262 1.322712 1.547221 0.045925 -0.016979 -792810.000000 0 0 1
7.893376 32.666623 -0.663252 33.613295 1.333707 1.590529 0.066236 -0.017123 501359.000000 0 0 1
6.663576 31.993728 -0.786152 32.689752 1.365454 1.594848 0.048553 -0.015625 -962404.000000 0 0 1
5.514676 32.606991 -0.327552 33.071662 1.403256 1.580701 0.056169 -0.029488 -1383280.000000 0 0 1
4.441376 31.528695 0.003648 31.839982 1.430849 1.570682 0.056755 -0.031261 -26336.700000 0 0 1
4.197476 30.782895 -1.174552 31.089950 1.435275 1.608584 0.067328 -0.032815 472315.000000 0 0 1
3.245476 29.711705 -0.988752 29.904785 1.461995 1.603866 0.070911 -0.040384 245489.000000 0 0 1
3.330776 28.707025 -2.172252 28.981132 1.455286 1.645821 0.077734 -0.034464 -370582.000000 0 0 1
2.551376 29.105715 -3.237752 29.396177 1.483361 1.681162 0.093471 -0.041966 -277054.000000 0 0 1
2.679176 28.302325 -4.364052 28.761859 1.476415 1.723115 0.097332 -0.043675 -164991.000000 0 0 1
1.994276 28.973925 -5.572252 29.572207 1.502075 1.760358 0.112690 -0.046729 -1349730.000000 0 0 1
0.628676 29.104835 -5.482352 29.623349 1.549199 1.756938 0.111263 -0.048766 -1092150.000000 0 0 1
0.084776 30.022845 -6.413252 30.700297 1.567973 1.781245 0.102558 -0.036501 -103917.000000 0 0 1
-0.039924 29.549015 -7.885952 30.583233 -1.569445 1.831595 0.094231 -0.034887 -133683.000000 0 0 1
-1.330924 29.032395 -8.221752 30.203452 -1.524986 1.846488 0.076424 -0.030467 473870.000000 0 0 1
-1.603324 28.849995 -9.620952 30.454155 -1.515279 1.892218 0.082415 -0.027092 -117616.000000 0 0 1
-1.571024 30.076425 -10.647252 31.944067 -1.518609 1.910608 0.063649 -0.021195 809989.000000 0 0 1
-0.276824 30.711905 -10.849752 32.573223 -1.561783 1.910373 0.070597 -0.024449 923191.000000 0 0 1
-0.368424 32.034315 -11.350752 33.987831 -1.559296 1.911303 0.055338 -0.021437 278419.000000 0 0 1
-0.706524 33.068162 -10.210652 34.615891 -1.549434 1.870221 0.055417 -0.027182 747956.000000 0 0 1
0.523176 33.391977 -9.535952 34.730854 1.555130 1.848936 0.060387 -0.032440 695206.000000 0 0 1
0.336076 -33.365435 -8.417552 34.412503 -1.560724 1.817911 0.078984 -0.033387 -1106310.000000 0 0 1
1.498976 -33.174105 -7.498752 34.044081 -1.525642 1.792883 0.095351 -0.035453 -228910.000000 0 0 1
2.659176 -32.521205 -8.021952 33.601365 -1.489210 1.811863 0.093501 -0.029128 637974.000000 0 0 1
3.539176 -32.077425 -6.971752 33.016546 -1.460908 1.783557 0.098014 -0.031544 -60465.800000 0 0 1
4.845376 -31.441695 -7.498352 32.684601 -1.417892 1.802273 0.079712 -0.030629 196671.000000 0 0 1
5.747276 -32.282025 -8.177752 33.794022 -1.394609 1.815211 0.098330 -0.020830 315339.000000 0 0 1
6.510176 -33.185745 -7.348852 34.607538 -1.377082 1.784774 0.109962 -0.022041 -688318.000000 0 0 1
6.864976 33.212395 -8.148552 34.879650 1.366968 1.806594 0.109677 -0.021540 -13611.000000 0 0 1
5.911976 32.213503 -8.424852 33.817737 1.389291 1.822573 0.108577 -0.024014 -172435.000000 0 0 1
4.737976 32.554777 -9.163352 34.150094 1.426272 1.842451 0.112820 -0.031786 463131.000000 0 0 1
3.844676 31.313045 -9.359252 32.907202 1.448626 1.859191 0.095904 -0.042117 -170073.000000 0 0 1
4.419576 30.360735 -10.220252 32.338219 1.426243 1.892352 0.094957 -0.033123 -293136.000000 0 0 1
3.753176 29.137045 -10.279552 31.124314 1.442691 1.907390 0.074030 -0.033106 -112542.000000 0 0 1
4.518576 28.165955 -11.178252 30.638079 1.411725 1.944266 0.083409 -0.026892 13638.100000 0 0 1
4.387576 28.578885 -12.551052 31.520349 1.418461 1.980338 0.084053 -0.022565 105977.000000 0 0 1
5.441376 28.056315 -13.331352 31.535541 1.379230 2.007264 0.085742 -0.024200 109321.000000 0 0 1
5.395476 28.577825 -14.748852 32.608770 1.384193 2.040136 0.082531 -0.017435 420302.000000 0 0 1
4.385976 27.935935 -15.547752 32.270510 1.415066 2.073498 0.082156 -0.019277 466573.000000 0 0 1
4.398876 28.590535 -16.755452 33.429238 1.418136 2.095806 0.108138 -0.020442 137712.000000 0 0 1
3.274076 28.124825 -17.706352 33.395213 1.454906 2.129640 0.098190 -0.026393 -41508.300000 0 0 1
3.546476 26.884745 -18.292652 32.710673 1.439640 2.164248 0.117059 -0.017783 -254793.000000 0 0 1
2.563476 26.363275 -19.159052 32.690411 1.473864 2.197003 0.123304 -0.033429 -149900.000000 0 0 1
3.021876 25.237245 -20.118752 32.416268 1.451625 2.240352 0.141912 -0.029896 12874.500000 0 0 1
3.161776 23.996315 -19.472352 31.064328 1.439790 2.248287 0.141510 -0.032507 -23665.100000 0 0 1
4.121676 23.214305 -20.137052 31.006338 1.395079 2.277657 0.143777 -0.025204 31953.300000 0 0 1
4.712976 22.027575 -19.341252 29.690238 1.360016 2.280270 0.139253 -0.030573 144793.000000 0 0 1
3.813176 20.985675 -19.000452 28.564944 1.391054 2.298513 0.157505 -0.027367 -161279.000000 0 0 1
4.428076 19.950375 -18.206552 27.369762 1.352383 2.298567 0.150831 -0.024982 290860.000000 0 0 1
3.486976 18.822675 -17.733252 26.094450 1.387619 2.317986 0.141707 -0.032947 48966.000000 0 0 1
2.564976 19.090275 -16.691952 25.488016 1.437236 2.284839 0.129571 -0.031073 2827.790000 0 0 1
1.776076 17.948675 -16.415252 24.387904 1.472164 2.309175 0.088158 -0.020980 318448.000000 0 1 0
2.469476 16.886575 -15.456352 23.025063 1.425587 2.306736 0.077445 -0.018669 64188.300000 0 1 0
3.585676 16.149075 -15.884152 22.933730 1.352305 2.335899 0.096819 -0.030968 -505667.000000 0 1 0
3.411276 15.026375 -16.705552 22.726729 1.347561 2.396554 0.097814 -0.037178 -191748.000000 0 1 0
3.336376 15.170675 -18.197052 23.925164 1.354320 2.435006 0.106254 -0.038562 1128460.000000 0 1 0
4.625476 15.479975 -18.803252 24.790864 1.280437 2.431766 0.118805 -0.044152 739705.000000 0 1 0
4.597076 15.923475 -20.167352 26.103874 1.289740 2.453692 0.121476 -0.038955 -413736.000000 0 0 1
4.740876 14.814475 -21.250052 26.334564 1.261078 2.509726 0.109170 -0.052714 24117.800000 0 0 1
3.728876 13.850875 -21.430952 25.788310 1.307815 2.551760 0.100196 -0.048399 532252.000000 0 0 1
2.570676 14.346675 -22.156952 26.521048 1.393495 2.559743 0.105864 -0.047420 1094420.000000 0 0 1
1.608576 13.253475 -22.697952 26.333232 1.450017 2.609901 0.100991 -0.034664 410772.000000 0 0 1
0.742076 12.611775 -21.763552 25.164652 1.512024 2.615640 0.095653 -0.023313 85429.300000 0 0 1
0.226576 11.428975 -22.284352 25.045262 1.550974 2.667622 0.059278 -0.015360 -391483.000000 0 0 1
-0.417924 10.629175 -21.173452 23.695339 -1.531498 2.676033 0.033331 -0.012258 -1007890.000000 0 1 0
-1.617324 11.245275 -20.782252 23.684888 -1.427953 2.641312 0.039958 -0.006372 -422725.000000 0 1 0
-2.205824 10.647675 -19.636052 22.445783 -1.366521 2.635863 0.031430 0.002732 945710.000000 0 1 0
-3.247424 9.494075 -20.037252 22.409254 -1.241224 2.677327 0.031123 -0.001060 660291.000000 0 1 0
-2.564824 8.427275 -20.622952 22.425508 -1.275355 2.737909 0.022897 -0.002649 102786.000000 0 1 0
-3.561624 7.440175 -20.826552 22.400594 -1.124332 2.764481 0.032597 -0.002125 367660.000000 0 1 0
-3.056824 6.241875 -21.644652 22.733150 -1.115400 2.830888 0.043212 -0.008169 18067.700000 0 1 0
-2.266724 5.328175 -20.893052 21.680570 -1.168568 2.871238 0.039201 -0.004617 232774.000000 0 1 0
-2.016524 4.184575 -21.738152 22.228906 -1.121738 2.931074 0.056692 -0.002333 -675880.000000 0 1 0
-1.055624 3.107075 -21.237052 21.489082 -1.243283 2.988287 0.045801 0.005456 -606255.000000 0 1 0
0.265276 3.565075 -21.097452 21.398192 1.496524 2.973739 0.041789 0.000371 -919737.000000 0 1 0
0.816576 2.562075 -20.339752 20.516738 1.262258 3.010148 0.039893 0.004837 981673.000000 0 1 0
2.403976 2.631175 -20.274952 20.585817 0.830490 2.967586 0.034321 -0.004396 1046540.000000 0 1 0
3.084676 1.980175 -21.291852 21.605075 0.570688 2.971106 0.053508 -0.014450 -250885.000000 0 1 0
4.472476 2.195575 -21.110452 21.690430 0.456348 2.909822 0.074504 -0.020445 135903.000000 0 1 0
5.291976 1.267475 -22.090752 22.751106 0.235081 2.900070 0.085480 -0.025877 866055.000000 0 1 0
6.723476 1.311075 -22.002052 23.043748 0.192583 2.839765 0.083831 -0.028606 837975.000000 0 1 0
7.242776 0.491875 -23.061552 24.177157 0.067808 2.836626 0.084388 -0.029615 -24187.800000 0 1 0
8.782776 0.425375 -23.002452 24.625817 0.048395 2.776466 0.089806 -0.035090 -233252.000000 0 1 0
9.391176 1.607375 -23.438452 25.300966 0.169515 2.755495 0.084390 -0.041771 299876.000000 0 0 1
10.770276 1.557375 -23.083652 25.520173 0.143604 2.701062 0.098878 -0.040593 105654.000000 0 0 1
12.789776 -20.141465 22.487687 32.786477 -1.005040 0.814980 0.095736 -0.009973 -227367.000000 0 0 1
12.537476 -21.472865 22.235287 33.356862 -1.042318 0.841174 0.092429 -0.003102 373776.000000 0 0 1
11.528176 -21.668265 21.208087 32.437563 -1.081854 0.858184 0.089941 0.007340 577381.000000 0 0 1
11.726576 -21.093365 19.794987 31.213525 -1.063407 0.883849 0.120288 -0.022154 -199642.000000 0 0 1
11.707976 -19.630965 19.695387 30.172169 -1.033026 0.859565 0.153023 -0.028719 -55995.700000 0 0 1
11.868776 -19.312465 18.337887 29.156770 -1.019736 0.890606 0.146164 -0.030017 -28821.500000 0 0 1
11.982176 -17.817365 18.098587 28.081843 -0.978766 0.870435 0.165191 -0.039540 -138529.000000 0 0 1
10.785476 -17.105765 18.273287 27.255214 -1.008240 0.835980 0.187242 -0.043479 -411822.000000 0 0 1
10.815476 -15.769965 17.780687 26.111667 -0.969646 0.821740 0.199106 -0.044036 458761.000000 0 0 1
9.691776 -14.906165 18.438087 25.614202 -0.994291 0.767227 0.155735 -0.039688 862135.000000 0 0 1
8.371276 -15.312965 18.101487 25.144164 -1.070506 0.767126 0.118628 -0.029716 335664.000000 0 0 1
7.388476 -14.442565 18.678687 24.740061 -1.097931 0.715146 0.082379 -0.026950 1514260.000000 0 1 0
5.915676 -14.896465 18.313387 24.336804 -1.192776 0.718950 0.021282 -0.009608 925652.000000 0 1 0
5.575576 -14.705665 16.944487 23.118375 -1.208397 0.748156 0.015028 -0.012216 405510.000000 0 1 0
4.228376 -15.017965 16.590887 22.774459 -1.296347 0.754686 -0.006038 -0.006815 540155.000000 0 1 0
3.718176 -16.488965 16.478587 23.606242 -1.349011 0.798111 -0.009774 -0.001535 -322685.000000 0 1 0
2.342576 -16.565565 16.231787 23.310438 -1.430315 0.800523 0.003214 0.003698 -597242.000000 0 1 0
1.789976 -17.841965 16.208487 24.171363 -1.470807 0.835825 0.029725 -0.012302 221337.000000 0 1 0
0.291776 -17.882365 15.855787 23.901257 -1.554481 0.845460 0.038494 -0.001845 -371451.000000 0 1 0
0.101076 -17.403965 14.558287 22.690349 -1.564989 0.874205 0.037965 -0.010837 1234720.000000 0 1 0
-1.269024 -17.485065 14.071587 22.479935 1.498346 0.894432 0.042057 -0.011579 1283000.000000 0 1 0
-1.678124 -18.815565 13.358587 23.136409 1.481844 0.955276 0.033994 0.005858 176492.000000 0 1 0
-3.074624 -18.985165 13.130587 23.287381 1.410242 0.971756 0.038919 -0.007764 433766.000000 0 1 0
-3.339124 -20.175465 12.412287 23.922040 1.406779 1.025275 0.055076 -0.015714 -235694.000000 0 1 0
-4.824924 -20.500465 12.275987 24.377219 1.339646 1.043054 0.051312 -0.016641 -176504.000000 0 1 0
-5.430824 -20.919165 13.490087 25.477201 1.316794 1.012789 0.055672 -0.026309 98385.600000 0 0 1
-6.819324 -21.134565 13.310987 25.891223 1.258680 1.030824 0.064398 -0.025689 85588.000000 0 0 1
-7.494624 -22.097365 14.318587 27.376721 1.243808 1.020405 0.060431 -0.026045 -1106680.000000 0 0 1
-8.761924 -21.649465 14.574387 27.529682 1.186229 1.012896 0.059601 -0.025521 -1629160.000000 0 0 1
-9.448624 -22.460165 15.456187 28.855316 1.172587 1.005526 0.059660 -0.020839 -335852.000000 0 0 1
-10.932324 -22.099965 15.575287 29.163569 1.111417 1.007393 0.080545 -0.022323 -230555.000000 0 0 1
-11.176524 -20.865765 16.193687 28.679790 1.079045 0.970802 0.080488 -0.021390 -346773.000000 0 0 1
-12.490024 -20.387565 15.992887 28.765013 1.021142 0.981250 0.087152 -0.020271 -159845.000000 0 0 1
-12.799324 -19.048365 16.783687 28.431586 0.979153 0.939343 0.099668 -0.022021 -127945.000000 0 0 1
-12.933024 -19.324265 18.138387 29.490531 0.980998 0.908337 0.091904 -0.027802 -3498.330000 0 0 1
-13.417924 -18.230565 18.908487 29.494492 0.936307 0.874885 0.107544 -0.026587 -7954.610000 0 0 1
-13.940224 -18.676765 20.283087 30.895874 0.929607 0.854629 0.093909 -0.036644 -138019.000000 0 0 1
-15.202724 -19.295965 20.218987 31.816105 0.903495 0.882146 0.086589 -0.026918 -51915.100000 0 0 1
-15.621124 -19.907065 21.428987 33.158894 0.905453 0.868134 0.095670 -0.021484 182456.000000 0 0 1
-17.060024 -20.464165 21.263787 34.087756 0.875869 0.897207 0.112543 -0.032313 -482815.000000 0 0 1
-17.176824 -21.654665 20.530987 34.430934 0.900206 0.931919 0.123935 -0.036648 429831.000000 0 0 1
-18.510724 -21.895265 20.109187 35.020408 0.868966 0.959153 0.106443 -0.032143 445302.000000 0 0 1
-19.552424 -22.426465 21.126987 36.491002 0.853755 0.953338 0.107414 -0.036382 -188781.000000 0 0 1
-20.011224 -21.381265 21.979287 36.615525 0.818485 0.926955 0.116928 -0.031654 121974.000000 0 0 1
-21.017424 -21.735265 22.920097 37.940542 0.802187 0.922153 0.091518 -0.039501 -730.378000 0 0 1
-21.526924 -20.527565 23.659777 38.007558 0.761639 0.898861 0.086557 -0.019188 -129279.000000 0 0 1
-22.732624 -20.111765 23.034037 38.102784 0.724303 0.921628 0.075940 -0.005999 224912.000000 0 0 1
-23.052324 -18.883965 23.670787 38.056799 0.686326 0.899520 0.080258 -0.011273 -65334.200000 0 0 1
-23.917624 -17.982565 22.780907 37.608445 0.644687 0.920102 0.082535 -0.010667 -25762.800000 0 0 1
-23.229924 -17.454165 21.636787 36.227446 0.644374 0.930730 0.092757 -0.004434 59066.400000 0 0 1
-24.037624 -16.568565 20.871387 35.887874 0.603493 0.950136 0.088108 -0.009835 -400271.000000 0 0 1
-23.429024 -15.970465 19.625387 34.483775 0.598306 0.965362 0.094462 -0.000749 -168494.000000 0 0 1
-22.378724 -15.036665 19.855487 33.483563 0.591629 0.936027 0.104480 -0.004733 80726.300000 0 0 1
-21.992824 -14.564465 18.603887 32.278671 0.584930 0.956538 0.095906 -0.009127 -298504.000000 0 0 1
-20.845024 -13.557365 18.544987 31.019893 0.576648 0.929990 0.087341 -0.015291 -24782.400000 0 0 1
-20.431524 -13.447365 17.145587 29.870554 0.582095 0.959418 0.085758 -0.016768 -288367.000000 0 0 1
-19.469224 -12.480365 16.889587 28.636836 0.570044 0.940003 0.087270 -0.029145 -603594.000000 0 0 1
-18.684724 -12.792165 15.550887 27.469774 0.600337 0.969018 0.082017 -0.034437 292273.000000 0 0 1
-18.192124 -11.615565 14.889187 26.221416 0.568244 0.966935 0.083093 -0.033132 240662.000000 0 0 1
-16.979724 -11.096265 15.383087 25.457366 0.578832 0.921949 0.093249 -0.048019 -417694.000000 0 0 1
-16.636624 -9.772065 14.692287 24.251471 0.531090 0.919987 0.103177 -0.057114 -197355.000000 0 1 0
-17.419124 -8.717365 15.150187 24.676842 0.464006 0.909749 0.119316 -0.049737 181882.000000 0 1 0
-17.024124 -7.536965 14.487387 23.590486 0.416786 0.909526 0.120070 -0.051257 -621812.000000 0 1 0
-17.263924 -6.200265 15.249987 23.854737 0.344799 0.877228 0.124969 -0.043238 1392.100000 0 1 0
-16.494524 -6.075965 16.406587 24.045016 0.352939 0.819854 0.112114 -0.033226 672210.000000 0 1 0
-15.082424 -5.934065 16.200587 22.916188 0.374841 0.785621 0.104613 -0.034861 219551.000000 0 1 0
-14.181824 -6.010465 17.451087 23.276389 0.400866 0.723137 0.086460 -0.031595 75701.600000 0 1 0
-14.279324 -7.220865 18.190187 24.226492 0.468187 0.721465 0.069706 -0.035302 66102.000000 0 1 0
-13.905824 -8.387065 17.483187 23.861614 0.542720 0.748529 0.100367 -0.036406 -542309.000000 0 1 0
-14.112624 -9.710365 18.279587 25.051959 0.602669 0.752962 0.090958 -0.029388 190704.000000 0 0 1
-15.432524 -10.126165 18.526387 26.152037 0.580692 0.783552 0.096617 -0.028266 -436824.000000 0 0 1
-16.169324 -9.500565 19.511887 27.063287 0.531228 0.765592 0.070875 -0.026951 -1376310.000000 0 0 1
-17.578724 -10.068865 19.691287 28.251378 0.520170 0.799587 0.064934 -0.018854 175450.000000 0 0 1
-18.626124 -9.892065 18.746887 28.217570 0.488206 0.844147 0.065441 -0.023163 411726.000000 0 0 1
-18.865524 -8.640165 18.301787 27.667958 0.429476 0.848006 0.078264 -0.025119 -1053190.000000 0 0 1
-20.032824 -8.713465 17.304587 27.869109 0.410276 0.900876 0.107947 -0.026491 -82824.500000 0 0 1
-21.298924 -8.904265 17.889287 29.205423 0.395979 0.911535 0.110676 -0.025423 334673.000000 0 0 1
-22.329624 -8.865265 16.864887 29.353526 0.377933 0.958750 0.131148 -0.034667 664994.000000 0 0 1
-23.761624 -9.025065 17.408587 30.807880 0.362987 0.970279 0.142977 -0.028086 -199196.000000 0 0 1
-24.201424 -8.016065 18.298487 31.381537 0.319850 0.948260 0.148468 -0.024483 20038.400000 0 0 1
-25.591704 -8.122865 18.443587 32.574256 0.307345 0.968906 0.151408 -0.020804 -657882.000000 0 0 1
-26.165944 -6.966865 19.188987 33.187514 0.260220 0.954277 0.152520 -0.019553 -422817.000000 0 0 1
-26.107084 -7.034365 20.605287 33.994706 0.263192 0.919608 0.165289 -0.024731 257117.000000 0 0 1
-26.859784 -5.967565 21.136787 34.696161 0.218624 0.915749 0.147745 -0.023091 -720351.000000 0 0 1
-26.930544 -5.947265 22.690397 35.713839 0.217349 0.882349 0.138377 -0.024336 796762.000000 0 0 1
-25.754744 -5.731065 23.525017 35.349376 0.218957 0.842633 0.135104 -0.030068 621692.000000 0 0 1
-24.764824 -6.712365 23.366327 34.703568 0.264685 0.832117 0.148660 -0.026615 -741465.000000 0 0 1
-23.680624 -6.560565 24.452027 34.665756 0.270265 0.787858 0.145034 -0.019837 -323901.000000 0 0 1
-23.035024 -5.338965 24.451627 34.014688 0.227754 0.768643 0.125155 -0.020500 -12882.300000 0 0 1
-22.447424 -4.990465 25.694567 34.481914 0.218760 0.730021 0.121937 -0.030315 255670.000000 0 0 1
-21.549024 -3.723265 25.678597 33.728527 0.171092 0.705432 0.109519 -0.030757 1743.110000 0 0 1
-20.787324 -3.431365 26.816077 34.102626 0.163595 0.665943 0.104539 -0.032973 -245147.000000 0 0 1
-21.488524 -3.180165 27.996087 35.435167 0.146927 0.659881 0.096476 -0.033013 -455838.000000 0 0 1
-22.199324 -1.848665 28.199467 35.936576 0.083084 0.668583 0.101709 -0.039454 1228400.000000 0 0 1
-23.449124 -1.749065 27.453327 36.147003 0.074452 0.708266 0.115083 -0.040215 868759.000000 0 0 1
-24.294124 -0.774165 28.051647 37.117364 0.031856 0.713989 0.093182 -0.039994 934374.000000 0 0 1
-25.713114 -0.690065 27.378557 37.566286 0.026831 0.754219 0.099122 -0.036293 258403.000000 0 0 1
-25.671834 0.072335 26.141757 36.639320 -0.002818 0.776331 0.110489 -0.040313 932039.000000 0 0 1
-26.927604 0.288135 25.456247 37.056705 -0.010700 0.813507 0.094874 -0.031390 955416.000000 0 0 1
-27.743374 -0.961965 24.921607 37.305585 0.034660 0.839225 0.089582 -0.029062 506082.000000 0 0 1
-28.621614 -1.555065 25.912337 38.640190 0.054278 0.835771 0.077191 -0.024025 252401.000000 0 0 1
-28.997224 -2.868765 25.667097 38.831285 0.098612 0.848659 0.067882 -0.021065 -66870.200000 0 0 1
-27.933424 -4.004165 25.738667 38.194090 0.142377 0.831333 0.082162 -0.030258 73348.400000 0 0 1
-27.473294 -4.220965 27.059567 38.791992 0.152447 0.798816 0.080118 -0.028148 -283374.000000 0 0 1
-26.668204 -5.369365 27.039067 38.355369 0.198683 0.788427 0.099448 -0.037467 -224951.000000 0 0 1
-26.288134 -5.654165 28.516857 39.194984 0.211857 0.756032 0.073689 -0.026396 -517472.000000 0 0 1
-27.328484 -6.236465 29.234717 40.501954 0.224362 0.764382 0.088132 -0.024929 -246652.000000 0 0 1
-26.951324 -6.695865 30.497967 41.247236 0.243513 0.738626 0.086014 -0.016871 -29186.700000 0 0 1
-28.150664 -7.283565 31.288707 42.714089 0.253183 0.748787 0.076612 -0.018139 200668.000000 0 0 1
-28.741294 -8.456465 30.782647 42.955153 0.286152 0.771848 0.085562 -0.022512 555921.000000 0 0 1
-30.045584 -8.738865 31.294257 44.254214 0.283045 0.785341 0.095689 -0.017212 147339.000000 0 0 1
-30.943414 -9.197065 30.173937 44.187638 0.288906 0.819127 0.078505 -0.020036 -959318.000000 0 0 1
-30.634634 -10.481465 29.750317 43.970710 0.329659 0.827669 0.078477 -0.018810 401074.000000 0 0 1
-31.644964 -11.106265 28.958417 44.309624 0.337534 0.858535 0.069188 -0.014679 216896.000000 0 0 1
-31.130414 -12.390265 28.295657 43.855052 0.378791 0.869500 0.068723 -0.008812 555173.000000 0 0 1
-30.245694 -12.091765 27.174807 42.420313 0.380321 0.875506 0.082173 -0.011058 73698.100000 0 0 1
-29.420614 -13.207965 26.910957 42.002649 0.421969 0.875391 0.091974 -0.009417 -651538.000000 0 0 1
-28.223254 -12.672865 26.112217 40.484583 0.422040 0.869784 0.110096 -0.011838 -790195.000000 0 0 1
-27.270564 -11.939965 26.852907 40.091459 0.412690 0.836869 0.092406 -0.022880 -121347.000000 0 0 1
-27.577054 -10.701965 27.485757 40.379361 0.370184 0.822095 0.099536 -0.032149 -1275340.000000 0 0 1
-27.613214 -9.401265 26.621417 39.491433 0.328153 0.831042 0.114004 -0.029032 441056.000000 0 0 1
-26.418534 -8.936665 25.972437 38.109978 0.326189 0.820968 0.106648 -0.032570 524615.000000 0 0 1
-25.852564 -9.751565 24.959507 37.234730 0.360697 0.836145 0.100438 -0.027771 -161893.000000 0 0 1
-26.605284 -9.742365 23.614597 36.883655 0.351017 0.875978 0.123169 -0.016839 1048710.000000 0 0 1
-27.942114 -10.312365 23.593607 37.996907 0.353554 0.900861 0.116583 -0.011502 584267.000000 0 0 1
-28.514054 -10.232265 22.362887 37.654339 0.344537 0.934899 0.144653 -0.006791 511534.000000 0 0 1
-29.927144 -10.940865 22.311487 38.899087 0.350490 0.959935 0.142776 -0.013453 1299530.000000 0 0 1
-30.998564 -10.360065 23.069067 40.005297 0.322540 0.956174 0.132310 -0.012976 284153.000000 0 0 1
-30.856184 -10.444865 24.523297 40.774887 0.326395 0.925505 0.132888 -0.012603 228603.000000 0 0 1
-32.285794 -10.282065 25.176147 42.212934 0.308315 0.931777 0.085200 -0.010612 911688.000000 0 0 1
-32.822944 -8.945665 25.106547 42.281312 0.266081 0.935026 0.084941 -0.024601 122400.000000 0 0 1
-34.205192 -8.798065 25.368667 43.485290 0.251757 0.947906 0.075190 -0.008527 437414.000000 0 0 1
-34.789799 -9.056865 26.772207 44.823075 0.254678 0.930683 0.050229 -0.004621 -268695.000000 0 0 1
-35.017729 -10.415165 27.079607 45.475511 0.289093 0.932937 0.053059 -0.011647 537306.000000 0 0 1
-35.839512 -10.555565 28.257377 46.844103 0.286425 0.923262 0.069191 -0.013147 -394132.000000 0 0 1
-36.282024 -11.968265 28.714157 47.792546 0.318628 0.926284 0.083138 -0.010182 1742960.000000 0 0 1
-37.593854 -12.485665 28.305077 48.686416 0.320658 0.950378 0.075931 -0.014429 1534040.000000 0 0 1
36.840006 -11.815665 28.797137 48.229359 -0.310364 0.930931 0.079331 -0.006336 955928.000000 0 0 1
35.488756 -12.339965 28.105197 46.921516 -0.334638 0.928566 0.085899 -0.012800 1274180.000000 0 0 1
35.467276 -12.084865 26.700367 46.009578 -0.328395 0.951672 0.081591 -0.005501 -728245.000000 0 0 1
34.269146 -12.297765 26.034957 44.759674 -0.344544 0.950027 0.081099 0.000445 -588010.000000 0 0 1
34.248646 -11.664765 24.618057 43.761687 -0.328268 0.973332 0.072262 -0.003158 -193469.000000 0 0 1
33.892126 -10.341065 24.565427 43.116981 -0.296145 0.964608 0.080202 -0.012746 77649.700000 0 0 1
34.114826 -9.761065 23.274797 42.436021 -0.278678 0.990265 0.069154 -0.007950 -495489.000000 0 0 1
33.796336 -8.280165 23.143077 41.789418 -0.240269 0.983872 0.084665 -0.007811 194038.000000 0 0 1
32.389216 -8.084965 23.006567 40.542941 -0.244620 0.967376 0.078155 -0.011786 307057.000000 0 0 1
31.968626 -6.750365 22.711227 39.791460 -0.208099 0.963370 0.085782 -0.007624 -1382530.000000 0 0 1
30.488666 -6.577665 22.758737 38.610679 -0.212485 0.940429 0.072525 -0.004304 -1510460.000000 0 0 1
30.018966 -7.265665 21.652087 37.719240 -0.237469 0.959374 0.078366 -0.006864 -110570.000000 0 0 1
28.602466 -7.273165 21.587687 36.565397 -0.249007 0.939260 0.073536 -0.020164 -172348.000000 0 0 1
16.023876 -17.078165 25.007357 34.260710 -0.817237 0.752601 0.125223 -0.014436 -331191.000000 0 0 1
15.334676 -18.252865 25.213097 34.698986 -0.872064 0.757402 0.131639 -0.008515 303453.000000 0 0 1
16.176976 -19.418665 25.220877 35.705346 -0.876217 0.786452 0.110494 -0.009180 -677855.000000 0 0 1
15.303876 -20.648465 25.180567 35.980949 -0.932975 0.795636 0.098370 -0.018088 336790.000000 0 0 1
14.512576 -20.984765 26.364677 36.688846 -0.965746 0.769006 0.092349 -0.019743 -392170.000000 0 0 1
13.320476 -20.315365 26.364117 35.849907 -0.990435 0.744536 0.103300 -0.016646 -1636890.000000 0 0 1
12.412376 -20.611165 27.581517 36.600919 -1.028749 0.717314 0.101615 -0.018228 -112346.000000 0 0 1
12.997176 -20.352665 28.825757 37.604279 -1.002478 0.697337 0.097892 -0.022936 31732.200000 0 0 1
12.222676 -19.503965 29.688797 37.566250 -1.010992 0.659490 0.095722 -0.028260 321663.000000 0 0 1
12.002576 -17.990665 29.307287 36.423110 -0.982455 0.635737 0.100909 -0.019544 -816827.000000 0 0 1
13.183076 -17.310065 29.321417 36.512701 -0.919922 0.638405 0.087250 -0.008775 -1422600.000000 0 0 1
12.994376 -15.933865 28.867857 35.441431 -0.886664 0.618890 0.098841 -0.008997 531102.000000 0 0 1
14.245676 -14.993465 28.789897 35.448575 -0.810968 0.622952 0.093340 -0.009819 506831.000000 0 0 1
13.839676 -13.647165 28.565887 34.551290 -0.778395 0.597459 0.127433 -0.016414 273231.000000 0 0 1
14.807176 -12.707665 29.012247 34.963520 -0.709241 0.592072 0.120267 -0.014129 239309.000000 0 0 1
14.250876 -11.237165 28.966577 34.182217 -0.667704 0.559696 0.114394 -0.015566 77453.600000 0 0 1
14.259976 -10.513565 27.725727 32.902856 -0.635309 0.568603 0.152861 -0.017073 483559.000000 0 0 1
15.557876 -10.177965 27.220947 32.963896 -0.579322 0.599211 0.144639 -0.022420 350867.000000 0 0 1
15.693576 -8.893865 26.324917 31.912230 -0.515589 0.600742 0.139450 -0.014904 27947.400000 0 0 1
16.040876 -7.742965 27.111107 32.438794 -0.449714 0.581277 0.134274 -0.024887 -266122.000000 0 0 1
17.391376 -7.387065 27.034717 32.983399 -0.401663 0.610003 0.130387 -0.029170 -778596.000000 0 0 1
17.939376 -6.178765 27.794757 33.653334 -0.331699 0.598975 0.112426 -0.031348 385117.000000 0 0 1
19.351476 -6.115165 27.585877 34.246978 -0.306075 0.634281 0.100914 -0.042385 374583.000000 0 0 1
19.848876 -4.830665 27.342947 34.131363 -0.238731 0.641650 0.103346 -0.044428 -936879.000000 0 0 1
21.350176 -4.821465 27.133477 34.861184 -0.222102 0.678796 0.106547 -0.047422 -1519380.000000 0 0 1
21.735376 -5.677165 26.061087 34.406933 -0.255487 0.711418 0.115313 -0.038884 150841.000000 0 0 1
23.066776 -5.475965 25.647947 34.926774 -0.233082 0.746110 0.108468 -0.031880 5847.470000 0 0 1
24.288876 -5.754265 26.535177 36.430436 -0.232621 0.754843 0.095568 -0.043581 -1004710.000000 0 0 1
24.680076 -4.689765 27.303627 37.102400 -0.187783 0.743803 0.110871 -0.042171 -5760.550000 0 0 1
25.525276 -5.152465 28.346177 38.491471 -0.199181 0.743022 0.095718 -0.048929 -94339.800000 0 0 1
26.326276 -4.046065 29.076407 39.431978 -0.152496 0.741611 0.113660 -0.049213 -98426.200000 0 0 1
27.233676 -3.305465 28.291037 39.407892 -0.120783 0.770011 0.089279 -0.038995 111101.000000 0 0 1
27.282576 -1.978165 28.678117 39.631887 -0.072380 0.761775 0.075408 -0.046778 -410895.000000 0 0 1
28.109976 -1.069065 27.735177 39.503844 -0.038013 0.792471 0.077518 -0.038000 1021920.000000 0 0 1
29.514776 -1.342965 27.825387 40.585437 -0.045470 0.815368 0.091701 -0.032018 505678.000000 0 0 1
30.287376 -0.849965 26.750667 40.418384 -0.028056 0.847520 0.088820 -0.017628 126383.000000 0 0 1
31.794076 -0.777065 27.042307 41.746299 -0.024436 0.866133 0.098627 -0.021556 -188180.000000 0 0 1
32.069976 0.258235 28.015997 42.584576 0.008052 0.852782 0.086087 -0.014811 -422185.000000 0 0 1
33.417676 0.232235 28.388287 43.848487 0.006949 0.866605 0.103639 -0.024026 -234350.000000 0 0 1
33.694376 1.388435 29.410377 44.746050 0.041183 0.853601 0.124203 -0.029883 116834.000000 0 0 1
33.588176 2.657635 28.786907 44.316076 0.078960 0.863762 0.115244 -0.025690 217440.000000 0 0 1
34.037576 3.703735 29.685377 45.315514 0.108387 0.856505 0.104479 -0.022934 247187.000000 0 0 1
33.982676 5.061335 28.982687 44.949255 0.147852 0.870052 0.104159 -0.021870 -94397.500000 0 0 1
34.248176 6.219035 29.782727 45.810750 0.179630 0.863047 0.117568 -0.025652 -84025.100000 0 0 1
33.128576 6.694635 30.498347 45.524388 0.199395 0.836676 0.103031 -0.021704 -342369.000000 0 0 1
33.502876 7.559735 31.734195 46.761645 0.221928 0.824891 0.095951 -0.022436 -171091.000000 0 0 1
33.794076 6.721435 32.833879 47.594967 0.196332 0.809500 0.099500 -0.018281 128360.000000 0 0 1
33.941976 7.569735 -33.623132 48.372240 0.219429 2.339343 0.105645 -0.027089 -423024.000000 0 0 1
34.298276 6.742835 -32.375442 47.644588 0.194118 2.317904 0.099561 -0.018621 295377.000000 0 0 1
33.290976 5.841535 -31.868852 46.454669 0.173701 2.326802 0.069665 -0.011843 496533.000000 0 0 1
33.272876 4.555735 -32.467652 46.711748 0.136074 2.339305 0.092724 -0.020757 102271.000000 0 0 1
33.896876 3.523235 -31.480412 46.394264 0.103568 2.316571 0.093266 -0.025974 94358.100000 0 0 1
33.884176 2.252735 -32.065692 46.705682 0.066386 2.327527 0.100814 -0.030509 73979.300000 0 0 1
34.270976 1.288735 -31.162932 46.338849 0.037587 2.308380 0.081156 -0.030177 -28082.100000 0 0 1
34.188476 -0.098865 -31.822392 46.706812 -0.002892 2.320364 0.075350 -0.044553 -482228.000000 0 0 1
35.260376 -0.313465 -32.720602 48.104367 -0.008890 2.318832 0.083089 -0.035695 224112.000000 0 0 1
35.935676 -1.583765 -32.558282 48.517242 -0.044044 2.306442 0.081207 -0.033347 937523.000000 0 0 1
36.945176 -1.644665 -31.328842 48.468002 -0.044487 2.273629 0.083637 -0.034812 -212579.000000 0 0 1
36.339476 -1.387765 -30.122582 47.221323 -0.038170 2.262567 0.068573 -0.041799 -498527.000000 0 0 1
37.294376 -1.339365 -29.125332 47.338666 -0.035898 2.233505 0.087151 -0.043248 -195773.000000 0 0 1
36.487276 -1.165365 -27.803292 45.887933 -0.031928 2.221687 0.088333 -0.044068 279630.000000 0 0 1
36.076676 0.106835 -27.436962 45.324660 0.002961 2.220993 0.077127 -0.034422 63607.200000 0 0 1
35.003676 0.016535 -26.532642 43.923100 0.000472 2.219395 0.085632 -0.030491 -251086.000000 0 0 1
34.363876 1.372635 -26.168822 43.215360 0.039923 2.221246 0.061069 -0.016668 92440.900000 0 0 1
33.605276 1.960035 -27.231542 43.297958 0.058259 2.250977 0.089234 -0.031778 396272.000000 0 0 1
32.810376 3.043935 -26.761282 42.449411 0.092509 2.252900 0.072082 -0.015676 148101.000000 0 0 1
31.946676 3.512635 -27.957262 42.597385 0.109513 2.286719 0.088686 -0.019909 -247901.000000 0 0 1
30.924376 4.400835 -27.592772 41.677877 0.141360 2.294345 0.065233 -0.021755 61089.300000 0 0 1
30.336776 5.022835 -28.739682 42.089407 0.164081 2.322418 0.086110 -0.025428 320602.000000 0 0 1
29.068376 5.891635 -28.503352 41.135421 0.199973 2.336320 0.086289 -0.020905 474647.000000 0 0 1
27.888876 5.130435 -28.244002 40.022923 0.181926 2.354201 0.096952 -0.025050 487351.000000 0 0 1
26.886276 5.950535 -27.692372 39.053145 0.217811 2.359010 0.112497 -0.034547 1284190.000000 0 0 1
25.434676 5.303135 -27.523392 37.849479 0.205555 2.385001 0.116823 -0.031264 1476430.000000 0 0 1
24.670376 5.043535 -28.685712 38.169815 0.201658 2.421173 0.123098 -0.026951 428400.000000 0 0 1
23.341476 4.695035 -28.325542 37.002759 0.198497 2.442611 0.118483 -0.020855 603345.000000 0 0 1
22.396876 4.237335 -29.482532 37.266536 0.186983 2.483444 0.105425 -0.017344 97335.100000 0 0 1
22.714076 2.999435 -30.069562 37.803497 0.131292 2.490492 0.093740 -0.026280 -180866.000000 0 0 1
21.897976 2.567635 -31.127982 38.145319 0.116721 2.525317 0.057173 -0.022911 -477367.000000 0 0 1
21.858376 3.387435 -32.365402 39.201818 0.153749 2.542078 0.073227 -0.020837 -232270.000000 0 0 1
23.053576 3.336835 -33.092572 40.468755 0.143744 2.528255 0.082209 -0.025042 -468184.000000 0 0 1
22.985176 3.912035 33.278479 40.633478 0.168583 0.611145 0.060190 -0.031807 -309227.000000 0 0 1
24.291876 3.748635 32.485342 40.736285 0.153109 0.647731 0.058358 -0.023412 81913.600000 0 0 1
24.716876 2.379235 32.484395 40.887903 0.095964 0.652655 0.099212 -0.036948 -411277.000000 0 0 1
26.103676 2.284435 32.263123 41.563562 0.087292 0.682123 0.098036 -0.034944 -288369.000000 0 0 1
26.519576 0.822235 32.328687 41.822338 0.030995 0.687239 0.085288 -0.038783 -1062870.000000 0 0 1
26.323976 0.071735 31.105437 40.749295 0.002725 0.702334 0.088572 -0.038335 1452400.000000 0 0 1
24.966276 -0.148665 30.607937 39.499150 -0.005955 0.684238 0.089395 -0.050261 1257720.000000 0 0 1
24.108876 -1.125365 31.488527 39.674068 -0.046645 0.653961 0.089280 -0.058728 -257145.000000 0 0 1
24.385176 -2.477365 31.217867 39.690419 -0.101246 0.665620 0.081692 -0.058864 -33916.100000 0 0 1
23.727776 -3.345565 32.098344 40.056259 -0.140074 0.641279 0.111273 -0.060445 -108937.000000 0 0 1
23.667276 -4.837965 31.757140 39.900649 -0.201638 0.650295 0.107673 -0.061046 -648249.000000 0 0 1
24.863276 -5.494765 32.018588 40.909228 -0.217503 0.671846 0.093259 -0.044729 -764885.000000 0 0 1
24.788576 -6.888365 31.813631 40.914914 -0.271046 0.680027 0.097972 -0.045045 -619769.000000 0 0 1
26.129176 -7.564765 31.564387 41.668574 -0.281809 0.711305 0.074657 -0.039759 -421599.000000 0 0 1
26.722676 -7.217065 30.371097 41.092469 -0.263780 0.739076 0.082549 -0.038968 -452668.000000 0 0 1
27.920476 -7.886765 30.061107 41.778274 -0.275300 0.767658 0.073205 -0.030165 -186888.000000 0 0 1
28.302776 -7.706765 28.579457 40.953959 -0.265852 0.798414 0.066570 -0.026960 -818647.000000 0 0 1
27.476176 -8.175865 27.589647 39.786601 -0.289219 0.804543 0.056720 -0.018009 -647292.000000 0 0 1
27.891476 -7.677465 26.361527 39.138319 -0.268610 0.831798 0.068252 -0.017644 -226648.000000 0 0 1
27.158876 -8.455565 25.287637 38.060028 -0.301825 0.844086 0.051904 -0.012195 -262675.000000 0 0 1
25.799676 -8.164765 25.083897 36.898354 -0.306496 0.823292 0.052277 -0.020786 -533670.000000 0 0 1
25.216476 -9.291865 24.521417 36.380068 -0.353046 0.831140 0.061878 -0.030941 -148914.000000 0 0 1
23.815876 -9.023565 23.939217 34.952922 -0.362176 0.816331 0.072179 -0.025102 -153142.000000 0 0 1
22.808776 -8.923465 24.914497 34.937096 -0.372923 0.776851 0.063872 -0.016990 -749555.000000 0 0 1
21.568876 -8.725265 24.313957 33.652863 -0.384406 0.763395 0.095228 -0.016050 -765579.000000 0 0 1
20.446576 -8.695565 25.335117 33.697826 -0.402110 0.719960 0.108371 -0.028785 -524230.000000 0 0 1
19.769376 -9.885265 25.760117 33.943045 -0.463671 0.709141 0.121925 -0.021752 540989.000000 0 0 1
20.385676 -10.609265 26.807527 35.309713 -0.479856 0.708696 0.091635 -0.015929 617512.000000 0 0 1
19.324576 -11.647565 27.360217 35.463876 -0.542427 0.689608 0.093221 -0.016563 736399.000000 0 0 1
19.325676 -12.884365 26.591007 35.306802 -0.588023 0.717972 0.123540 -0.021585 355061.000000 0 0 1
18.379076 -13.831965 27.057307 35.513541 -0.645159 0.704575 0.105516 -0.013275 206868.000000 0 0 1
19.048576 -14.882265 27.966177 36.965350 -0.663221 0.712773 0.108146 0.003124 -115686.000000 0 0 1
18.141976 -15.950365 28.220837 37.147827 -0.721202 0.707960 0.099381 0.007915 86594.300000 0 0 1
18.699276 -17.210165 28.490447 38.177982 -0.743953 0.728381 0.091230 0.008331 -322034.000000 0 0 1
19.030776 -17.975465 27.221597 37.766429 -0.756889 0.765858 0.095834 -0.005987 243302.000000 0 0 1
20.213876 -17.470265 26.607877 37.706632 -0.712721 0.787449 0.092534 -0.006289 510692.000000 0 0 1
20.566576 -18.172765 25.399297 37.394622 -0.723684 0.824093 0.079458 0.004752 -523133.000000 0 0 1
21.851276 -17.736165 24.709007 37.451099 -0.681820 0.850287 0.072790 -0.013210 227936.000000 0 0 1
22.991976 -17.904765 25.590917 38.782813 -0.661642 0.850175 0.056618 -0.003776 856852.000000 0 0 1
24.162976 -17.438265 24.927167 38.849790 -0.625138 0.874176 0.028290 -0.003595 -1087340.000000 0 0 1
25.300876 -17.245065 25.908727 40.109709 -0.598270 0.868534 0.041821 -0.006256 -461233.000000 0 0 1
25.826776 -18.380965 26.577417 41.367153 -0.618536 0.873071 0.048108 -0.008601 -216425.000000 0 0 1
26.640876 -19.167565 25.763907 41.724222 -0.623680 0.905260 0.037356 -0.020838 -927087.000000 0 0 1
27.216276 -20.435065 26.365397 43.051733 -0.644038 0.911688 0.044707 -0.029144 -254693.000000 0 0 1
28.322476 -20.222265 27.229927 44.187912 -0.620061 0.906849 0.033751 -0.016162 300823.000000 0 0 1
29.031676 -21.434165 27.490877 45.365295 -0.635973 0.919788 0.048808 -0.028311 148958.000000 0 0 1
28.287276 -22.446665 28.403007 45.942938 -0.670780 0.904316 0.053597 -0.021389 -140267.000000 0 0 1
27.951476 -22.029265 29.742077 46.380650 -0.667458 0.874657 0.068531 -0.015063 19100.100000 0 0 1
27.419376 -23.044665 30.565567 47.086438 -0.698925 0.864346 0.071025 -0.013759 -184874.000000 0 0 1
26.777876 -22.611565 31.937396 47.416609 -0.701241 0.831797 0.072457 -0.017527 136753.000000 0 0 1
26.375176 -23.789865 32.606480 48.216078 -0.733908 0.828126 0.068815 -0.018527 2384.940000 0 0 1
26.127676 -23.625365 -33.578772 48.665668 -0.735146 2.332270 0.074114 -0.012331 -354270.000000 0 0 1
25.755376 -25.003105 -32.869542 48.671361 -0.770579 2.312217 0.068999 -0.014110 863755.000000 0 0 1
24.425276 -25.525775 -32.993132 48.339487 -0.807426 2.322015 0.081074 -0.016707 523417.000000 0 0 1
23.963576 -25.760075 33.267594 48.420732 -0.821512 0.813371 0.079782 -0.025071 -120545.000000 0 0 1
22.670676 -26.608905 33.222273 48.225645 -0.865145 0.810837 0.095443 -0.024872 287745.000000 0 0 1
22.873676 -27.958305 33.594817 49.330352 -0.885095 0.821645 0.084350 -0.024001 350291.000000 0 0 1
21.615876 -28.615105 33.457594 49.045703 -0.923848 0.820068 0.107252 -0.020065 398392.000000 0 0 1
21.661776 -30.141555 33.536467 50.024399 -0.947651 0.836046 0.071311 -0.020528 -75571.800000 0 0 1
22.067876 -30.723445 -32.798002 50.066257 -0.947910 2.285101 0.045672 -0.018287 -217311.000000 0 0 1
23.200976 -31.496205 -33.031922 51.199649 -0.935909 2.272028 0.026682 -0.002183 -503427.000000 0 0 1
23.922976 -32.050085 -31.756312 51.068386 -0.929587 2.241885 0.022526 0.002511 -1046140.000000 0 0 1
25.027476 -32.790725 -32.168732 52.310931 -0.918870 2.233122 0.012747 0.012758 -132518.000000 0 0 1
25.644776 -33.460185 -31.047392 52.356270 -0.916865 2.205579 0.010760 0.022538 35473.600000 0 0 1
26.731576 -32.681935 -30.298752 51.968263 -0.885217 2.193242 0.018267 0.012174 -753577.000000 0 0 1
26.957576 -33.189175 -28.991442 51.659810 -0.888636 2.166630 0.035990 0.015654 -479380.000000 0 0 1
27.830876 -32.320205 -28.355862 51.217265 -0.859894 2.157524 0.040220 0.006821 -655324.000000 0 0 1
27.955376 -32.612145 -26.853702 50.657441 -0.862133 2.129519 0.047613 0.004168 -135764.000000 0 0 1
28.827376 -33.609025 -26.380392 51.541335 -0.861833 2.108110 0.043245 0.016188 -56096.300000 0 0 1
30.076376 -33.069605 -25.982352 51.703673 -0.832764 2.097312 0.044700 -0.000678 210282.000000 0 0 1
-28.277234 -30.458005 8.679548 42.457350 0.822510 1.364915 0.082825 -0.017079 -12832.100000 0 0 1
-28.131544 -31.550405 9.483048 43.321358 0.842620 1.350109 0.087324 -0.023363 -1400930.000000 0 0 1
-26.805214 -31.653505 9.774348 42.614572 0.868144 1.339370 0.080798 -0.023289 -1431780.000000 0 0 1
-26.528584 -32.589405 10.980848 43.432869 0.887562 1.315199 0.088249 -0.027158 -76797.900000 0 0 1
-26.747044 33.695935 10.786648 44.352815 -0.899862 1.325132 0.100020 -0.014678 504019.000000 0 0 1
-28.100194 33.248035 10.892048 44.874151 -0.869114 1.325623 0.082900 -0.029302 374299.000000 0 0 1
-28.015604 31.702335 10.801348 43.664416 -0.847056 1.320829 0.098603 -0.022423 259357.000000 0 0 1
-27.601184 31.331135 9.458848 42.812792 -0.848606 1.348023 0.125795 -0.038865 73015.400000 0 0 1
-27.569384 29.923035 9.313748 41.739728 -0.826314 1.345763 0.138883 -0.038053 -110447.000000 0 0 1
-27.094054 29.358635 7.952848 40.734077 -0.825491 1.374296 0.114337 -0.028589 798496.000000 0 0 1
-25.655764 29.197135 7.911048 39.664538 -0.849870 1.370001 0.099362 -0.020980 1087260.000000 0 0 1
-25.168304 29.230035 6.623448 39.137048 -0.859926 1.400741 0.087209 -0.019394 -815842.000000 0 0 1
-23.830224 28.534335 6.460748 37.733660 -0.874992 1.398729 0.097842 -0.015479 -752598.000000 0 0 1
-23.769324 27.122235 6.576748 36.658560 -0.851187 1.390414 0.102375 -0.014396 2137.990000 0 0 1
-24.416624 26.414135 5.559948 36.397680 -0.824675 1.417440 0.074847 -0.020832 -547570.000000 0 0 1
-24.713724 24.971935 6.009648 35.643815 -0.790595 1.401384 0.098421 -0.012109 -554788.000000 0 0 1
-25.896764 24.912135 6.771748 36.566562 -0.766022 1.384531 0.107220 -0.013381 190204.000000 0 0 1
-26.405984 23.645035 7.087348 36.146842 -0.730291 1.373447 0.104453 -0.016387 18031.100000 0 0 1
-26.710034 22.605535 5.936148 35.491886 -0.702360 1.402753 0.101745 -0.030352 -1024310.000000 0 0 1
-27.904544 22.969635 5.313248 36.530786 -0.688698 1.424833 0.110804 -0.035780 -319348.000000 0 0 1
-28.029144 22.596035 3.948248 36.218813 -0.678487 1.461568 0.096711 -0.028822 -194317.000000 0 0 1
-27.486254 23.595035 2.930448 36.342914 -0.709368 1.490075 0.084150 -0.027214 -1130950.000000 0 0 1
-26.121724 23.785435 2.966248 35.452645 -0.738620 1.487031 0.083316 -0.029613 -700201.000000 0 0 1
-25.656354 24.454735 1.756948 35.487596 -0.761424 1.521267 0.080694 -0.037757 -216230.000000 0 0 1
-24.364924 25.255635 1.808948 35.139279 -0.803347 1.519294 0.061387 -0.031638 -365811.000000 0 0 1
-24.114324 25.816135 0.554948 35.331026 -0.819469 1.555089 0.063431 -0.033981 -147953.000000 0 0 1
-22.989624 26.668335 0.539148 35.213827 -0.859344 1.555485 0.079976 -0.037435 -237208.000000 0 0 1
-22.392624 26.933435 -0.881652 35.037364 -0.877196 1.595962 0.091218 -0.031195 262750.000000 0 0 1
-21.953324 25.814435 -1.704552 33.929913 -0.866054 1.621055 0.083901 -0.027804 119021.000000 0 0 1
-21.037024 24.936635 -1.109752 32.643892 -0.870018 1.604799 0.074084 -0.038367 -396302.000000 0 0 1
-20.400624 23.917235 -2.074252 31.504319 -0.864582 1.636684 0.078637 -0.037363 178130.000000 0 0 1
-21.423324 23.143835 -2.680152 31.650895 -0.823984 1.655576 0.087210 -0.029182 226213.000000 0 0 1
-20.875624 22.084435 -3.366552 30.575278 -0.813529 1.681127 0.094708 -0.022575 -528654.000000 0 0 1
-21.873824 21.436135 -4.303652 30.927229 -0.775293 1.710404 0.086483 -0.013242 -458449.000000 0 0 1
-22.207124 22.239235 -5.367652 31.883407 -0.786121 1.739954 0.081415 -0.015513 -534969.000000 0 0 1
-23.392724 21.772035 -5.918752 32.500349 -0.749530 1.753932 0.106377 -0.006309 -433603.000000 0 0 1
-23.776224 22.455535 -7.217652 33.491109 -0.756839 1.788010 0.122877 -0.010616 52550.800000 0 0 1
-23.128224 21.791835 -8.270052 32.835843 -0.755657 1.825399 0.104690 -0.021217 80816.800000 0 0 1
-22.572624 22.654535 -9.201252 33.277836 -0.787209 1.850944 0.109247 -0.026169 -122406.000000 0 0 1
-22.235324 21.851435 -10.519152 32.902088 -0.776691 1.896221 0.106070 -0.022022 46456.700000 0 0 1
-23.416324 21.346135 -11.100652 33.573892 -0.739183 1.907771 0.097751 -0.021671 -21867.000000 0 0 1
-23.266224 20.974235 -12.471152 33.715951 -0.733637 1.949686 0.075176 -0.014554 -770594.000000 0 0 1
-24.533524 20.694535 -13.241952 34.720410 -0.700720 1.962094 0.065615 -0.026172 -441100.000000 0 0 1
-25.002934 19.322435 -13.138352 34.221623 -0.657938 1.964834 0.100150 -0.020824 1810230.000000 0 0 1
-26.391064 19.202235 -13.593752 35.355398 -0.629013 1.965450 0.109378 -0.034588 1741090.000000 0 0 1
-26.907214 17.781235 -13.745452 35.058636 -0.583955 1.973677 0.178984 -0.034422 27984.400000 0 0 1
-26.231544 17.227735 -14.823552 34.707729 -0.581110 2.012076 0.159886 -0.029824 20640.700000 0 0 1
-26.946054 16.073035 -15.205452 34.866001 -0.537834 2.022069 0.163435 -0.037165 124311.000000 0 0 1
-26.387294 15.323435 -16.467352 34.673774 -0.526117 2.065672 0.164760 -0.025918 135197.000000 0 0 1
-25.214764 14.614335 -16.106852 33.298556 -0.525280 2.075685 0.160526 -0.019370 -13031.300000 0 0 1
-24.582724 14.301335 -17.323252 33.300654 -0.526902 2.117890 0.155555 -0.031814 -154727.000000 0 0 1
-23.620824 13.111635 -17.324252 32.093426 -0.506741 2.141004 0.166434 -0.031020 125996.000000 0 0 1
-22.390924 13.274935 -16.646652 30.898032 -0.535161 2.139762 0.145717 -0.035764 -254269.000000 0 0 1
-21.701924 12.080935 -16.658052 29.906742 -0.507954 2.161565 0.143278 -0.030400 -1072130.000000 0 0 1
-20.457524 12.146735 -15.795352 28.557777 -0.535814 2.156879 0.132991 -0.035759 -833263.000000 0 0 1
-19.540424 13.066435 -16.345252 28.630878 -0.589400 2.178393 0.113026 -0.026075 646955.000000 0 0 1
-18.445524 13.268135 -15.413552 27.456481 -0.623572 2.166850 0.096645 -0.015602 774073.000000 0 0 1
-17.525024 14.471735 -15.746252 27.649630 -0.690261 2.176684 0.083362 -0.006056 -82009.500000 0 0 1
-16.792224 14.337435 -16.931152 27.824535 -0.706704 2.224962 0.113080 -0.018526 146965.000000 0 0 1
-15.961424 15.470335 -17.127852 28.061747 -0.769775 2.227315 0.103996 -0.008793 -362113.000000 0 0 1
-15.176924 15.428235 -18.411452 28.413923 -0.793609 2.275716 0.124758 -0.015350 -106123.000000 0 0 1
-14.119424 14.484335 -18.296652 27.274926 -0.798155 2.306115 0.117764 -0.014133 -159123.000000 0 0 1
-13.210224 14.662835 -19.363552 27.648796 -0.837466 2.346670 0.144143 -0.026413 534407.000000 0 0 1
-12.088124 13.573835 -19.323252 26.528472 -0.843229 2.386775 0.129255 -0.027094 710796.000000 0 0 1
-12.633124 12.322935 -19.735952 26.475618 -0.772969 2.411989 0.143555 -0.026358 189420.000000 0 0 1
-11.582724 11.392735 -19.640452 25.489238 -0.777129 2.450483 0.106461 -0.012788 164727.000000 0 0 1
-11.893124 10.158435 -20.545952 25.822013 -0.706895 2.490919 0.125529 -0.023613 24329.300000 0 0 1
-11.728724 10.404835 -21.925252 26.954410 -0.725656 2.520804 0.141005 -0.041207 -118955.000000 0 0 1
-11.763024 9.193835 -22.674152 27.147974 -0.663413 2.559304 0.129467 -0.014617 45841.200000 0 0 1
-11.474024 9.305435 -24.258352 28.402676 -0.681412 2.594589 0.117683 -0.022984 -415045.000000 0 0 1
-10.114824 9.395835 -24.632552 28.237457 -0.748564 2.630757 0.117173 -0.024755 -278704.000000 0 0 1
-9.903824 8.478535 -25.735422 28.849319 -0.708017 2.672687 0.095986 -0.028242 -391740.000000 0 0 1
-9.550524 9.180235 -27.071502 30.138936 -0.765632 2.686507 0.138918 -0.038352 106656.000000 0 0 1
-8.236824 9.700335 -27.185702 30.016731 -0.866809 2.703789 0.125448 -0.042925 64948.900000 0 0 1
-7.936224 10.802835 -26.368602 29.580197 -0.937197 2.671282 0.100199 -0.035130 349921.000000 0 0 1
-6.456824 11.262035 -26.645362 29.639489 -1.050221 2.688236 0.083745 -0.041389 698523.000000 0 0 1
-6.352824 12.020135 -27.848012 30.989575 -1.084598 2.687422 0.107193 -0.056631 466106.000000 0 0 1
-5.029324 12.517935 -27.958982 31.043477 -1.188765 2.692035 0.106794 -0.053838 167083.000000 0 0 1
-4.406124 12.802735 -29.375792 32.345960 -1.239338 2.709700 0.119638 -0.051937 293675.000000 0 0 1
-3.015624 13.023835 -29.220522 32.133365 -1.343260 2.712519 0.132263 -0.062432 197379.000000 0 0 1
-2.315724 13.030435 -30.456852 33.208051 -1.394916 2.731673 0.134652 -0.062238 547552.000000 0 0 1
-0.800724 12.708035 -30.308902 32.874988 -1.507870 2.743867 0.151753 -0.072784 -266839.000000 0 0 1
-0.564324 11.488535 -29.605292 31.761269 -1.521715 2.771018 0.123160 -0.049428 215967.000000 0 0 1
0.783776 11.061135 -29.697382 31.700118 1.500056 2.784229 0.123286 -0.054377 411948.000000 0 0 1
1.366276 10.563635 -31.060592 32.836222 1.442173 2.811230 0.134727 -0.053646 -365688.000000 0 0 1
1.482076 11.608135 -32.030172 34.100986 1.443808 2.791305 0.142428 -0.060610 68915.300000 0 0 1
1.767876 10.952135 -33.251362 35.053213 1.410758 2.819568 0.156027 -0.051101 -3700.050000 0 0 1
2.008276 11.834735 33.113984 35.222579 1.402704 0.347770 0.152352 -0.052868 -324227.000000 0 0 1
3.344176 12.282335 33.083470 35.447923 1.304965 0.367307 0.160643 -0.057321 -229662.000000 0 0 1
3.523776 13.185135 32.015669 34.803274 1.309646 0.402961 0.150785 -0.048225 544395.000000 0 0 1
5.030176 13.451435 31.686826 34.789348 1.212946 0.425531 0.145156 -0.045567 674037.000000 0 0 1
5.597476 12.194435 31.166957 33.932510 1.140468 0.406530 0.138199 -0.053114 588743.000000 0 0 1
7.007076 12.381035 31.045917 34.150229 1.055788 0.429682 0.119519 -0.036447 598781.000000 0 0 1
7.833676 11.075135 30.954717 33.796740 0.955174 0.413031 0.114796 -0.035785 23144.100000 0 0 1
7.628176 10.475835 29.670897 32.377374 0.941414 0.411784 0.112308 -0.038592 -26859.400000 0 0 1
8.566176 9.482835 29.354367 32.015346 0.836142 0.410593 0.120274 -0.028913 -268206.000000 0 0 1
8.158176 8.605235 28.139177 30.535540 0.812061 0.398814 0.103040 -0.025060 303511.000000 0 0 1
7.074776 7.762235 28.498477 30.372158 0.831699 0.353088 0.103245 -0.028507 11448.300000 0 0 1
6.393476 7.268735 27.358687 29.020834 0.849375 0.340087 0.111626 -0.031408 379956.000000 0 0 1
5.527876 6.013335 27.730367 28.908319 0.827436 0.286453 0.137208 -0.035335 344128.000000 0 0 1
6.321076 4.939835 28.253367 29.370236 0.663350 0.276661 0.108308 -0.027718 186112.000000 0 0 1
5.617176 4.117235 29.156587 29.976839 0.632514 0.234472 0.127471 -0.037571 -372984.000000 0 0 1
6.474676 3.034635 29.816137 30.661580 0.438290 0.235376 0.134816 -0.027777 53864.700000 0 0 1
6.729976 1.922235 28.938197 29.772585 0.278215 0.237307 0.132718 -0.022630 238170.000000 0 0 1
8.103976 1.580135 28.988197 30.141115 0.192567 0.277478 0.123324 -0.020766 -42678.500000 0 0 1
8.306976 0.389635 28.046267 29.253218 0.046870 0.288255 0.112989 -0.031114 -550089.000000 0 0 1
8.328876 -0.864665 28.715957 29.911938 -0.103445 0.283735 0.081238 -0.026525 103732.000000 0 0 1
8.533276 -1.959965 27.872837 29.215635 -0.225769 0.304362 0.104146 -0.021143 -693173.000000 0 0 1
8.947176 -3.197765 28.687607 30.220134 -0.343256 0.319833 0.086454 -0.011060 693423.000000 0 0 1
10.267276 -3.153765 29.249087 31.158824 -0.298019 0.351929 0.068256 -0.020067 689256.000000 0 0 1
11.242776 -3.585165 28.314257 30.674918 -0.308692 0.394880 0.087168 -0.019597 446314.000000 0 0 1
12.717976 -3.633465 28.868377 31.754247 -0.278282 0.429633 0.064494 -0.019688 920718.000000 0 0 1
13.658276 -4.343665 28.100307 31.544305 -0.307910 0.471649 0.091408 -0.027077 95628.200000 0 0 1
13.969676 -5.608965 28.762127 32.463399 -0.381807 0.482180 0.110454 -0.026898 -227543.000000 0 0 1
13.146076 -6.856065 28.403047 32.039944 -0.480722 0.481095 0.122332 -0.020524 -881822.000000 0 0 1
11.795476 -6.867965 28.709927 31.789340 -0.527269 0.443790 0.112634 -0.017966 -844122.000000 0 0 1
11.150776 -8.044965 28.318817 31.480417 -0.624991 0.452014 0.134349 -0.014665 -789965.000000 0 0 1
9.660776 -7.894065 28.133657 30.775794 -0.685096 0.417393 0.155293 -0.017290 -857748.000000 0 0 1
8.934876 -7.618165 29.330217 31.593197 -0.706020 0.380790 0.190159 -0.024505 -859390.000000 0 0 1
7.636376 -7.323565 28.964887 30.836886 -0.764491 0.350231 0.206966 -0.031821 -1023140.000000 0 0 1
6.781376 -6.716065 30.078917 31.556835 -0.780559 0.307258 0.192946 -0.040295 -117710.000000 0 0 1
6.458376 -7.711965 31.034267 32.623776 -0.873634 0.313443 0.211578 -0.047908 159241.000000 0 0 1
5.816676 -7.309965 32.289888 33.614077 -0.898671 0.281621 0.213185 -0.039873 -6415.680000 0 0 1
6.495376 -6.356065 33.295986 34.513942 -0.774558 0.266452 0.201149 -0.029567 -237311.000000 0 0 1
6.648976 -5.032265 32.837997 33.880181 -0.647870 0.248676 0.193871 -0.023194 -21836.400000 0 0 1
6.991376 -3.967665 33.735007 34.679568 -0.516186 0.233929 0.160696 -0.017421 159170.000000 0 0 1
7.326676 -2.762865 32.872610 33.792338 -0.360608 0.233844 0.139266 -0.029027 384931.000000 0 0 1
6.129976 -2.257565 32.281231 32.935560 -0.352869 0.199665 0.170674 -0.036182 429310.000000 0 0 1
6.363476 -1.256065 31.335677 31.999941 -0.194881 0.204110 0.130967 -0.025382 391390.000000 0 0 1
5.003776 -0.739765 30.772087 31.185035 -0.146778 0.162918 0.173309 -0.033813 965823.000000 0 0 1
4.116776 -0.286465 31.784502 32.051279 -0.069473 0.129112 0.164119 -0.032163 223932.000000 0 0 1
2.818676 0.126135 31.395127 31.521657 0.044720 0.089630 0.169107 -0.040410 261086.000000 0 0 1
1.960776 0.588935 32.560843 32.625144 0.291785 0.062794 0.147465 -0.044788 -3946.610000 0 0 1
2.473376 1.744435 33.260084 33.397513 0.614264 0.090750 0.140106 -0.035501 -403654.000000 0 0 1
1.540676 2.234135 -33.408302 33.518348 0.967079 3.060538 0.113355 -0.038024 -275495.000000 0 0 1
1.946876 3.345835 -32.485332 32.715160 1.043807 3.022989 0.106505 -0.030333 -660994.000000 0 0 1
2.866576 2.985035 -31.524862 31.795355 0.805639 3.011060 0.095753 -0.012423 -489670.000000 0 0 1
2.876776 4.037635 -30.545272 30.944983 0.951737 2.980691 0.086603 -0.012620 -132645.000000 0 0 1
3.948976 3.887735 -29.444622 29.961553 0.777584 2.955566 0.085046 -0.009667 -127257.000000 0 0 1
3.537776 3.111235 -28.358692 28.747366 0.721335 2.976966 0.080377 -0.015003 45056.600000 0 0 1
4.580476 2.927035 -27.445862 27.978985 0.568621 2.946066 0.089851 -0.016202 -131374.000000 0 0 1
4.137476 2.022535 -26.211152 26.612663 0.454674 2.967666 0.073529 -0.020497 78976.200000 0 0 1
4.271276 0.666735 -26.515802 26.865891 0.154848 2.979980 0.093350 -0.023367 248209.000000 0 0 1
3.801176 -0.134365 -25.418192 25.701196 -0.035334 2.993056 0.104594 -0.021659 -161071.000000 0 0 1
4.351576 -1.576665 -25.454592 25.871960 -0.347608 2.961728 0.112431 -0.031743 18345.700000 0 0 1
5.665676 -1.647165 -24.946952 25.635199 -0.282928 2.909348 0.098723 -0.040573 -183093.000000 0 0 1
6.103876 -2.999665 -24.845752 25.759788 -0.456773 2.874404 0.112726 -0.043962 466467.000000 0 0 1
7.606376 -3.108465 -24.413052 25.758816 -0.387954 2.816920 0.136515 -0.052029 1300860.000000 0 0 1
8.551476 -2.757265 -25.427352 26.968138 -0.311907 2.801928 0.130983 -0.045329 107131.000000 0 0 1
9.902376 -2.878165 -25.027752 27.068972 -0.282861 2.750759 0.119744 -0.036575 305766.000000 0 0 1
-30.675724 -3.772065 17.579787 35.556679 0.122352 1.053634 0.152013 -0.021668 375486.000000 0 0 1
-32.089564 -3.828165 17.558587 36.779056 0.118735 1.073095 0.127505 -0.010806 -37525.500000 0 0 1
-32.685184 -4.932665 18.189387 37.729382 0.149784 1.067745 0.134551 -0.026290 -521521.000000 0 0 1
-34.088215 -4.678365 18.721187 39.171117 0.136391 1.072496 0.134249 -0.023191 -122056.000000 0 0 1
-35.055054 -4.793465 17.653287 39.540772 0.135898 1.107994 0.122213 -0.022093 810749.000000 0 0 1
-36.379584 -4.541665 18.135287 40.902195 0.124198 1.111428 0.104444 -0.015059 400861.000000 0 0 1
-37.413184 -4.677365 17.014187 41.365525 0.124374 1.146902 0.097278 -0.021272 267643.000000 0 0 1
36.796976 -4.687765 17.424887 40.983158 -0.126713 1.131645 0.095962 -0.015984 -54761.700000 0 0 1
35.941116 -4.304165 16.396287 39.738242 -0.119188 1.145482 0.093679 -0.028397 210186.000000 0 0 1
34.482996 -4.799365 16.614687 38.576661 -0.138292 1.125536 0.083866 -0.020756 186512.000000 0 0 1
33.776036 -4.067265 17.572087 38.290227 -0.119842 1.094019 0.094162 -0.026561 63045.700000 0 0 1
32.652086 -4.756565 18.067687 37.619476 -0.144657 1.069828 0.110113 -0.032445 -99501.200000 0 0 1
31.838636 -4.023865 19.138987 37.365640 -0.125717 1.033042 0.111905 -0.032839 -298309.000000 0 0 1
30.908826 -3.037265 18.804087 36.306669 -0.097951 1.026374 0.126935 -0.029385 25028.500000 0 0 1
31.420496 -1.716765 18.670287 36.589267 -0.054584 1.035301 0.146620 -0.031090 -309042.000000 0 0 1
30.305866 -0.670265 18.598687 35.564110 -0.022113 1.020474 0.139837 -0.018287 -109005.000000 0 0 1
30.851546 0.652335 18.744187 36.105235 0.021141 1.024935 0.154068 -0.022830 250692.000000 0 0 1
29.873966 1.661135 18.942287 35.412194 0.055548 1.006397 0.127598 -0.027620 -111702.000000 0 0 1
30.270066 3.042735 18.413987 35.561356 0.100183 1.026509 0.136571 -0.026867 31953.000000 0 0 1
30.182466 3.267835 17.024787 34.806657 0.107849 1.059711 0.142416 -0.020978 29889.300000 0 0 1
29.027066 4.022135 16.717387 33.737504 0.137688 1.052370 0.148686 -0.024797 161984.000000 0 0 1
28.912466 4.244335 15.136987 32.910081 0.145758 1.092858 0.149528 -0.022334 -77678.200000 0 0 1
28.233066 5.426835 14.760887 32.317802 0.189899 1.096467 0.185039 -0.036593 120303.000000 0 0 1
27.941266 5.280635 13.376787 31.425115 0.186787 1.131092 0.143077 -0.028113 -318811.000000 0 0 1
27.364366 6.593035 12.821287 30.929954 0.236429 1.143374 0.158387 -0.020190 -778131.000000 0 0 1
26.066866 6.771035 13.266187 30.021994 0.254140 1.113100 0.094863 -0.022115 -885178.000000 0 0 1
25.531066 8.045235 13.040787 29.776220 0.305266 1.117468 0.138644 -0.031042 -1848190.000000 0 0 1
24.247466 8.326535 13.717387 29.076408 0.330781 1.079499 0.117727 -0.031857 -550143.000000 0 0 1
23.073566 7.695535 13.149887 27.650140 0.321920 1.075172 0.111384 -0.016878 1233520.000000 0 0 1
22.936866 6.322335 13.424287 27.318185 0.268962 1.057094 0.114502 -0.020186 -1374090.000000 0 0 1
21.539766 5.712835 13.220787 25.911141 0.259254 1.035338 0.128995 -0.027056 -515517.000000 0 0 1
21.109966 5.573935 11.881787 24.857117 0.258151 1.072416 0.127059 -0.040517 606771.000000 0 1 0
20.348866 4.367735 11.796287 23.922915 0.211435 1.055152 0.132132 -0.034794 -98506.700000 0 1 0
19.930466 4.115635 10.338587 22.826483 0.203637 1.100758 0.148008 -0.034901 888011.000000 0 1 0
21.107566 3.867235 9.522987 23.477055 0.181206 1.153129 0.156836 -0.037217 1491400.000000 0 1 0
20.705766 3.350735 8.262787 22.543953 0.160435 1.195531 0.172552 -0.037197 -254510.000000 0 1 0
21.845266 2.648435 7.532487 23.258723 0.120647 1.240994 0.174393 -0.033634 -1102790.000000 0 1 0
22.303566 1.400535 8.058687 23.756115 0.062712 1.224703 0.189732 -0.028382 469634.000000 0 1 0
23.181866 0.778735 7.160287 24.274988 0.033580 1.271377 0.183631 -0.016575 238941.000000 0 1 0
24.676266 1.248235 7.145487 25.720307 0.050541 1.289277 0.160548 -0.019466 -32050.400000 0 0 1
25.469966 0.876635 8.239387 26.783860 0.034405 1.258100 0.158004 -0.007133 149226.000000 0 0 1
25.324866 1.612135 9.435487 27.073534 0.063572 1.214812 0.153871 -0.014233 -544052.000000 0 0 1
26.180666 1.019635 10.572687 28.253294 0.038926 1.187251 0.131042 -0.011690 213186.000000 0 0 1
27.545366 1.435235 10.471387 29.503509 0.052057 1.207968 0.159386 -0.026770 368522.000000 0 0 1
28.225766 0.749935 11.527987 30.498373 0.026563 1.183175 0.129837 -0.018079 216275.000000 0 0 1
29.773566 0.707235 11.501787 31.925797 0.023749 1.202243 0.192587 -0.021143 301012.000000 0 0 1
30.288066 2.015635 11.658787 32.517027 0.066451 1.204089 0.190343 -0.023130 -970195.000000 0 0 1
31.652456 2.194835 11.638987 33.795877 0.069231 1.219207 0.179951 -0.027848 -1113750.000000 0 0 1
32.116616 3.664935 11.740087 34.390964 0.113622 1.222421 0.182691 -0.039717 47694.000000 0 0 1
33.502016 3.783935 11.474187 35.614045 0.112470 1.242763 0.178671 -0.046150 317978.000000 0 0 1
34.057116 4.986235 12.009787 36.455242 0.145375 1.235087 0.163453 -0.047987 507174.000000 0 0 1
35.543486 5.190135 11.597787 37.746332 0.144997 1.258488 0.189980 -0.044134 899639.000000 0 0 1
36.514316 4.328235 12.236387 38.752523 0.117985 1.249542 0.187175 -0.044963 -76345.900000 0 0 1
-37.749554 4.608235 11.875287 39.840772 -0.121473 1.268128 0.182724 -0.036808 -778305.000000 0 0 1
-36.802824 3.657835 12.628687 39.080831 -0.099065 1.241748 0.169708 -0.026158 -982231.000000 0 0 1
-36.711934 2.281835 12.193387 38.751149 -0.062075 1.250699 0.148343 -0.024728 381481.000000 0 0 1
-37.736724 1.366435 12.597287 39.807275 -0.036194 1.248804 0.156599 -0.024009 192096.000000 0 0 1
37.596526 1.136835 14.083687 40.163931 0.030229 1.212526 0.156902 -0.019779 457675.000000 0 0 1
-36.931464 0.286535 14.630987 39.725067 -0.007758 1.193610 0.136354 -0.014817 879580.000000 0 0 1
-37.063724 0.006035 16.056187 40.392089 -0.000163 1.161997 0.149446 -0.020280 112064.000000 0 0 1
-35.957333 -0.998465 16.492987 39.572028 0.027761 1.140892 0.119929 -0.017084 -706286.000000 0 0 1
-34.682705 -0.454065 16.524287 38.420675 0.013091 1.126206 0.120020 -0.017258 -542729.000000 0 0 1
-33.778204 -1.173265 17.374787 38.002985 0.034720 1.095957 0.133159 -0.012904 257131.000000 0 0 1
-33.940984 -0.963665 18.928887 38.874437 0.028385 1.062232 0.101161 -0.012919 -335456.000000 0 0 1
-35.059210 -1.651765 19.462887 40.133284 0.047079 1.064483 0.109385 -0.018553 187681.000000 0 0 1
-35.253111 -1.296265 20.833187 40.969304 0.036754 1.037346 0.104375 -0.022046 78896.900000 0 0 1
-35.886601 -2.437565 21.610087 41.961718 0.067820 1.029794 0.100286 -0.020211 199474.000000 0 0 1
-34.949928 -3.481165 21.880887 41.381025 0.099277 1.013650 0.112758 -0.023507 562421.000000 0 0 1
-35.535403 -4.623965 22.497017 42.311485 0.129396 1.010190 0.104810 -0.020857 91215.800000 0 0 1
-35.820537 -4.610965 24.000277 43.363409 0.128020 0.984273 0.101492 -0.029737 -168281.000000 0 0 1
-34.617047 -4.666365 24.711607 42.787597 0.133992 0.955083 0.112121 -0.029589 -618010.000000 0 0 1
-34.658741 -4.600465 26.104847 43.633195 0.131965 0.929444 0.108152 -0.038535 -388001.000000 0 0 1
-33.460764 -3.797665 26.580437 42.901802 0.113012 0.902608 0.100728 -0.030233 -612078.000000 0 0 1
-33.566404 -2.394865 26.343947 42.736898 0.071226 0.906606 0.096432 -0.027195 -214693.000000 0 0 1
-33.125664 -1.942665 25.098157 41.605301 0.058578 0.923234 0.089212 -0.025983 -342089.000000 0 0 1
-32.964194 -0.462165 25.058167 41.409702 0.014019 0.920870 0.084845 -0.021997 323649.000000 0 0 1
-34.176436 0.264935 24.953017 42.317278 -0.007752 0.940152 0.107514 -0.025439 165692.000000 0 0 1
-33.873324 1.519835 24.429027 41.791020 -0.044838 0.946468 0.109029 -0.010801 600254.000000 0 0 1
-35.155456 2.393835 24.151177 42.719035 -0.067988 0.969940 0.145133 -0.007169 793490.000000 0 0 1
-35.952510 1.856535 23.107847 42.778526 -0.051593 1.000152 0.157327 -0.003291 -276789.000000 0 0 1
-36.904174 2.755735 22.557137 43.339781 -0.074534 1.023393 0.160938 -0.005463 411436.000000 0 0 1
-36.425474 4.049935 21.711887 42.598394 -0.110729 1.035974 0.162901 -0.000647 356189.000000 0 0 1
-35.708217 3.750935 20.491487 41.340626 -0.104660 1.052185 0.143037 -0.012304 242472.000000 0 0 1
-36.649884 3.376135 19.504787 41.653920 -0.091859 1.083478 0.191388 -0.023659 426963.000000 0 0 1
-35.953354 2.689935 18.301987 40.433182 -0.074678 1.101064 0.172803 -0.021681 327707.000000 0 0 1
-35.189044 3.544535 17.440287 39.433440 -0.100390 1.112667 0.172159 -0.029673 261149.000000 0 0 1
-34.764571 2.910035 16.283787 38.499421 -0.083512 1.134085 0.174453 -0.020893 -101648.000000 0 0 1
-33.819394 3.735435 15.372387 37.336513 -0.110007 1.146450 0.164979 -0.027354 234442.000000 0 0 1
-34.505031 4.858535 14.823187 37.867261 -0.139887 1.168588 0.190419 -0.035078 240781.000000 0 0 1
-33.787274 5.436135 13.754687 36.882555 -0.159526 1.188629 0.205012 -0.030063 -588917.000000 0 0 1
-34.261260 6.770735 13.302087 37.371411 -0.195107 1.206874 0.226377 -0.039628 -411042.000000 0 0 1
-33.393704 7.357235 12.377187 36.365687 -0.216854 1.223504 0.250765 -0.037313 111114.000000 0 0 1
-33.654774 8.727735 12.230587 36.856539 -0.253742 1.232540 0.229901 -0.042335 -67889.200000 0 0 1
-32.754604 9.327335 11.151387 35.835970 -0.277421 1.254363 0.248575 -0.035937 -3286.890000 0 0 1
-33.016374 10.698535 10.998387 36.407474 -0.313361 1.263910 0.217390 -0.018038 -35144.300000 0 0 1
-32.294144 11.259735 9.946387 35.617748 -0.335482 1.287780 0.218420 -0.023768 -157666.000000 0 0 1
-32.466264 12.796535 9.742787 36.231637 -0.375452 1.298543 0.180864 -0.014632 266003.000000 0 0 1
-31.572864 13.342635 8.769787 35.380515 -0.399835 1.320315 0.183817 -0.012445 296882.000000 0 0 1
-31.604414 14.785935 8.832287 35.992668 -0.437593 1.322873 0.151450 -0.009108 8503.180000 0 0 1
-30.571464 15.461035 7.918987 35.162031 -0.468224 1.343633 0.149583 -0.012716 405729.000000 0 0 1
-29.196904 15.243035 8.179287 33.936854 -0.481153 1.327385 0.178374 -0.012449 91690.400000 0 0 1
-28.330214 16.079435 7.480787 33.423217 -0.516234 1.345064 0.132598 -0.022871 -515145.000000 0 0 1
-26.951224 16.125835 8.148987 32.447142 -0.539194 1.316932 0.136146 -0.008578 -671243.000000 0 0 1
-26.929364 16.739435 9.416587 33.076751 -0.556154 1.282114 0.130183 -0.012351 192316.000000 0 0 1
-27.188954 18.147335 9.395187 34.012271 -0.588546 1.290928 0.120203 -0.021864 -190343.000000 0 0 1
-27.319114 18.754735 10.823587 34.860065 -0.601612 1.255091 0.136064 -0.009433 40089.600000 0 0 1
-26.066604 18.774035 11.471387 34.110482 -0.624177 1.227810 0.122113 -0.008714 63325.200000 0 0 1
-26.066694 19.369535 12.746087 34.887163 -0.639055 1.196786 0.115373 -0.016575 29627.300000 0 0 1
-26.423284 18.426635 13.959687 35.108456 -0.608954 1.161879 0.109030 -0.012729 378952.000000 0 0 1
-25.354914 17.538635 14.292487 33.981621 -0.605151 1.136696 0.110332 -0.014908 257097.000000 0 0 1
-25.714274 16.638135 15.351387 34.259547 -0.574291 1.106168 0.118726 -0.012183 -254128.000000 0 0 1
-24.644224 15.641635 15.778587 33.180753 -0.565543 1.075225 0.107966 -0.010649 -420788.000000 0 0 1
-23.518524 16.208235 16.446287 32.959190 -0.603420 1.048364 0.109870 -0.011533 43289.300000 0 0 1
-22.469724 15.292435 16.594087 31.845107 -0.597573 1.022672 0.095948 -0.028263 -458289.000000 0 0 1
-22.761724 14.095635 17.549087 32.011771 -0.554468 0.990577 0.104373 -0.016788 -795391.000000 0 0 1
-22.788224 14.390035 18.925887 32.932742 -0.563237 0.958580 0.108398 -0.010321 180172.000000 0 0 1
-23.084324 13.269635 19.766187 33.161294 -0.521709 0.932209 0.100173 -0.014776 -116943.000000 0 0 1
-22.643824 13.460935 21.282887 33.865924 -0.536339 0.891243 0.099381 -0.010878 409492.000000 0 0 1
-21.272224 13.654935 21.599687 33.249230 -0.570670 0.863699 0.104174 -0.009280 442541.000000 0 0 1
-20.940324 15.075835 21.736487 33.738003 -0.623985 0.870724 0.094838 -0.001529 -775735.000000 0 0 1
-19.562724 15.390935 22.304687 33.422749 -0.666608 0.840151 0.089553 -0.011133 -13481.200000 0 0 1
-18.416624 14.862835 21.676387 32.092704 -0.679015 0.829248 0.061796 -0.012034 303436.000000 0 0 1
-18.064024 15.528835 20.441387 31.389552 -0.710073 0.861610 0.050802 -0.014382 -1617510.000000 0 0 1
-16.992224 14.777835 19.587887 29.846364 -0.715810 0.854904 0.048077 -0.009095 1226810.000000 0 0 1
-15.701624 14.568735 20.159787 29.414385 -0.747990 0.815682 0.044448 -0.007480 960334.000000 0 0 1
-15.094524 15.596835 20.995887 30.198232 -0.801763 0.802003 0.031754 -0.006094 -1296080.000000 0 0 1
-14.142224 14.980435 22.056387 30.181123 -0.814172 0.751302 0.010115 -0.011423 141863.000000 0 0 1
-12.933124 14.576535 21.413787 28.953262 -0.845067 0.738323 0.031059 -0.002654 -172262.000000 0 0 1
-12.100924 14.018335 22.392587 29.058115 -0.858677 0.690992 0.045754 -0.010663 -2194.760000 0 0 1
-10.761224 13.461835 21.846887 27.826452 -0.896429 0.667919 0.041304 -0.010581 -368326.000000 0 0 1
-10.064524 12.740835 22.815267 28.002856 -0.902218 0.618502 0.035926 -0.010959 341645.000000 0 0 1
-8.823824 12.095235 22.586297 27.097886 -0.940526 0.585370 0.041709 0.003389 470579.000000 0 0 1
-7.594324 13.015135 22.678027 27.227935 -1.042598 0.586477 0.044427 0.010957 -660823.000000 0 0 1
-7.611824 13.900935 21.528787 26.733211 -1.069816 0.634581 0.039029 0.005924 -105523.000000 0 0 1
-6.647724 14.930335 21.538087 27.036944 -1.151900 0.649119 0.047093 0.003546 -207773.000000 0 0 1
-7.136624 16.114635 22.421187 28.518810 -1.153891 0.666178 0.051325 -0.008546 505939.000000 0 0 1
-8.324724 16.786935 21.985587 28.887164 -1.110430 0.705812 0.023991 -0.003439 335371.000000 0 0 1
-8.025124 17.789435 21.043987 28.700453 -1.147014 0.747739 0.038171 -0.000276 -327639.000000 0 0 1
-8.940024 17.773135 19.765587 28.044372 -1.104745 0.788659 0.038961 -0.000117 1266560.000000 0 0 1
-10.251424 18.316335 19.861887 28.897654 -1.060546 0.813006 0.031106 -0.001428 1196250.000000 0 0 1
-11.229024 17.652335 20.740487 29.459527 -1.004240 0.789735 0.034739 -0.006270 32400.900000 0 0 1
-12.505724 18.457935 20.911887 30.567884 -0.975314 0.817409 0.028143 -0.007444 -202265.000000 0 0 1
-13.332324 18.397835 19.744887 30.101358 -0.943706 0.855360 0.036760 -0.006320 -168852.000000 0 0 1
-14.560024 19.040635 19.950787 31.186119 -0.917965 0.876646 0.027758 -0.010874 -189176.000000 0 0 1
-15.362824 19.255235 18.667987 30.907510 -0.897367 0.922292 0.056482 -0.012967 -281783.000000 0 0 1
-16.044224 18.157635 18.138687 30.267620 -0.847112 0.928199 0.057832 -0.010289 86140.200000 0 0 1
-16.810324 18.433835 16.987087 30.182021 -0.831430 0.973001 0.067592 -0.020140 -644550.000000 0 0 1
-17.617824 17.222635 16.407687 29.600998 -0.774056 0.983281 0.055160 -0.019072 306790.000000 0 0 1
-18.746124 16.762335 17.105887 30.413885 -0.729588 0.973466 0.052330 -0.016740 -551963.000000 0 0 1
-19.838924 17.621635 17.013987 31.521115 -0.726277 1.000639 0.070895 -0.021022 -1161390.000000 0 0 1
35.698286 -9.151365 11.815148 38.700295 -0.250949 1.260544 0.094448 -0.052065 -1231910.000000 0 0 1
34.353776 -9.314665 11.541248 37.418516 -0.264774 1.257247 0.094629 -0.042301 -832532.000000 0 0 1
34.079936 -10.633365 12.009948 37.666289 -0.302441 1.246279 0.113107 -0.036489 33116.500000 0 0 1
32.572666 -10.940665 12.101148 36.429583 -0.324045 1.232183 0.122183 -0.029546 -153998.000000 0 0 1
31.794936 -10.197865 13.020548 35.839211 -0.310373 1.198984 0.130105 -0.022451 1393110.000000 0 0 1
30.372866 -10.267965 12.761048 34.507773 -0.326002 1.192000 0.130000 -0.025191 1532450.000000 0 0 1
29.583166 -11.318865 13.640048 34.486683 -0.365427 1.164166 0.108404 -0.010670 -486933.000000 0 0 1
29.640466 -11.040965 15.007748 35.009893 -0.356574 1.127774 0.118532 -0.012704 390649.000000 0 0 1
28.624366 -11.640465 15.822048 34.715875 -0.386237 1.097572 0.114083 -0.012685 128579.000000 0 0 1
27.243766 -10.997165 15.737248 33.328987 -0.383656 1.079035 0.103247 -0.024420 -876678.000000 0 0 1
27.120366 -9.613665 15.936348 32.892309 -0.340662 1.065004 0.103040 -0.014761 -162204.000000 0 0 1
25.995866 -9.013365 15.310448 31.487071 -0.333752 1.063008 0.115820 -0.028499 64936.100000 0 0 1
25.857366 -7.568765 15.801348 31.234151 -0.284757 1.040372 0.141258 -0.056465 1228100.000000 0 0 1
27.106166 -6.864765 15.536148 31.988140 -0.248040 1.063650 0.117972 -0.049069 1127040.000000 0 0 1
27.087766 -5.642165 16.271548 32.098978 -0.205356 1.039191 0.140664 -0.055368 -140089.000000 0 0 1
28.412766 -4.890065 16.113848 33.028080 -0.170438 1.061133 0.134370 -0.049849 -238135.000000 0 0 1
28.704866 -4.501665 14.774948 32.596524 -0.155559 1.100369 0.161156 -0.048629 208013.000000 0 0 1
29.805166 -3.607065 14.690148 33.423933 -0.120436 1.115743 0.150920 -0.041179 168609.000000 0 0 1
30.127866 -3.084865 13.283048 33.070290 -0.102037 1.157466 0.167730 -0.047222 385570.000000 0 0 1
30.878886 -3.965865 12.424848 33.520300 -0.127734 1.191070 0.148732 -0.046483 348100.000000 0 0 1
31.176566 -3.347665 11.223248 33.303850 -0.106968 1.227072 0.152415 -0.045317 58440.700000 0 0 1
31.503356 -4.394765 10.108748 33.376072 -0.138607 1.263089 0.161583 -0.041493 126212.000000 0 0 1
32.831506 -4.859465 10.207948 34.723542 -0.146945 1.272411 0.149155 -0.045333 186639.000000 0 0 1
33.255456 -5.464465 8.981548 34.877700 -0.162862 1.310346 0.150363 -0.049038 164696.000000 0 0 1
34.667436 -6.102365 9.015448 36.336597 -0.174241 1.320068 0.123868 -0.054779 556533.000000 0 0 1
35.781026 -5.226565 8.904648 37.240993 -0.145045 1.329348 0.127002 -0.051109 -131108.000000 0 0 1
37.003186 -5.895965 8.935348 38.520626 -0.158008 1.336701 0.143967 -0.056341 136072.000000 0 0 1
-37.359294 -5.043165 8.402048 38.623112 0.134180 1.351504 0.151253 -0.053604 352594.000000 0 0 1
-37.353354 -4.731565 7.003648 38.297674 0.125999 1.386887 0.171388 -0.047359 -456409.000000 0 0 1
-36.234214 -3.967665 6.700248 37.061489 0.109066 1.389009 0.168161 -0.027261 -408549.000000 0 0 1
-36.250554 -3.400765 5.262448 36.788058 0.093539 1.427256 0.172394 -0.041770 118250.000000 0 0 1
-35.599768 -4.227765 4.284248 36.105017 0.118205 1.451855 0.214961 -0.064322 290872.000000 0 0 1
-35.723679 -3.672965 2.979148 36.035361 0.102456 1.488029 0.238305 -0.055638 32529.300000 0 0 1
-35.086869 -4.611965 1.931848 35.441369 0.130695 1.516261 0.307721 -0.069982 242679.000000 0 0 1
-35.827102 -5.821465 1.656848 36.334775 0.161080 1.525181 0.287277 -0.060513 862415.000000 0 0 1
-36.854454 -5.759765 0.648848 37.307462 0.155030 1.553404 0.256065 -0.057437 343372.000000 0 0 1
-36.247714 -5.834865 -0.799252 36.723034 0.159603 1.592562 0.294714 -0.059319 -955384.000000 0 0 1
-35.704300 -7.145365 -1.013252 36.426364 0.197517 1.598616 0.313144 -0.075928 94806.200000 0 0 1
-34.614371 -7.205965 -1.869452 35.405868 0.205247 1.623622 0.277872 -0.065489 662221.000000 0 0 1
-33.292744 -6.394665 -1.482752 33.933716 0.189763 1.614506 0.273195 -0.067180 206794.000000 0 0 1
-32.385324 -7.041565 -0.620652 33.147822 0.214098 1.589521 0.296994 -0.064915 -364696.000000 0 0 1
-31.148364 -6.398665 -0.579252 31.804073 0.202607 1.589010 0.274369 -0.065042 -577756.000000 0 0 1
-30.144424 -7.105265 0.328048 30.972225 0.231482 1.560204 0.245177 -0.053260 -472496.000000 0 0 1
-29.425884 -8.120765 -0.352152 30.527913 0.269271 1.582332 0.213011 -0.030902 460301.000000 0 0 1
-29.033504 -9.156965 0.549148 30.448250 0.305518 1.552760 0.261359 -0.047801 -189340.000000 0 0 1
-28.797414 -10.470965 -0.202952 30.642672 0.348746 1.577420 0.195967 -0.030823 35591.500000 0 0 1
-27.690424 -10.526565 -1.090052 29.643825 0.363280 1.607576 0.177668 -0.027016 132719.000000 0 0 1
-27.299424 -11.813965 -1.446852 29.781231 0.408421 1.619398 0.152293 -0.013477 -483050.000000 0 0 1
-28.180594 -12.796265 -2.225552 31.029718 0.426242 1.642581 0.157750 -0.016208 -22935.400000 0 0 1
-29.317314 -13.336365 -1.535052 32.244688 0.426919 1.618421 0.199489 -0.032230 762132.000000 0 0 1
-29.805704 -14.370565 -2.330352 33.171127 0.449259 1.641107 0.168000 -0.020392 -182947.000000 0 0 1
-30.703664 -15.421565 -1.616152 34.396971 0.465463 1.617799 0.192989 -0.020935 -16820.800000 0 0 1
-30.011634 -16.120265 -0.611252 34.072493 0.492912 1.588737 0.162801 -0.016118 98379.000000 0 0 1
-30.827744 -16.870465 0.241748 35.142863 0.500729 1.563917 0.171177 -0.021091 -234884.000000 0 0 1
-31.236594 -18.269065 -0.162252 36.187151 0.529213 1.575280 0.178175 -0.020213 -520350.000000 0 0 1
-30.299724 -19.242165 0.166148 35.893757 0.565801 1.566167 0.174791 -0.026399 -266781.000000 0 0 1
-30.683444 -20.577665 -0.073952 36.944817 0.590751 1.572798 0.158219 -0.021963 -267910.000000 0 0 1
-31.677604 -21.122465 0.959448 38.086082 0.588091 1.545602 0.149974 -0.026609 -269144.000000 0 0 1
-31.103154 -21.197165 2.259448 37.707176 0.598210 1.510840 0.141113 -0.024648 7862.090000 0 0 1
-31.931364 -21.834865 3.194348 38.814652 0.599775 1.488406 0.122642 -0.016967 23018.400000 0 0 1
-31.147714 -22.021965 4.499948 38.410891 0.615420 1.453374 0.118992 -0.017454 295054.000000 0 0 1
-30.566704 -20.806665 5.021648 37.315649 0.597653 1.435815 0.119106 -0.017414 137052.000000 0 0 1
-29.945254 -20.969265 6.256648 37.088731 0.610896 1.401292 0.109421 -0.020397 134037.000000 0 0 1
-29.437514 -19.597165 6.932848 36.037210 0.587347 1.377209 0.128739 -0.020123 147551.000000 0 0 1
-28.710944 -19.771965 8.134148 35.796833 0.603072 1.341563 0.115970 -0.028662 -117884.000000 0 0 1
-28.437604 -18.450265 8.554148 34.961165 0.575530 1.323611 0.121745 -0.024839 159121.000000 0 0 1
-27.368074 -18.392065 9.683848 34.366502 0.591704 1.285146 0.131388 -0.020017 -25146.800000 0 0 1
-27.822504 -18.879765 10.925048 35.353839 0.596204 1.256634 0.111476 -0.019544 -389298.000000 0 0 1
-26.802604 -19.179465 11.823848 35.014781 0.621107 1.226344 0.112633 -0.012560 -313374.000000 0 0 1
-26.262734 -17.935865 12.605848 34.210143 0.599184 1.193420 0.092374 -0.017812 -851913.000000 0 0 1
-25.293204 -17.224465 11.847748 32.814593 0.597855 1.201401 0.103744 -0.013732 486863.000000 0 0 1
-24.631324 -16.205465 12.605448 32.065816 0.581923 1.166783 0.102667 -0.005020 617990.000000 0 0 1
-23.876824 -16.497365 13.966648 32.207655 0.604617 1.122264 0.091507 -0.015753 -177666.000000 0 0 1
-24.764324 -16.899465 15.000548 33.524321 0.598824 1.106881 0.089867 -0.018474 324780.000000 0 0 1
-24.071124 -17.570765 16.040448 33.844450 0.630546 1.077029 0.098370 -0.012642 307536.000000 0 0 1
-25.094204 -18.111165 17.074548 35.345064 0.625160 1.066626 0.089029 -0.006057 297780.000000 0 0 1
-25.768524 -17.052565 17.752448 35.636445 0.584598 1.049327 0.111846 -0.001717 -701070.000000 0 0 1
-26.854024 -17.540565 18.444348 37.000054 0.578609 1.048934 0.083646 0.007656 -873418.000000 0 0 1
-27.724524 -16.388465 19.007348 37.396662 0.533863 1.037629 0.091586 0.007843 -221785.000000 0 0 1
-27.161434 -15.897165 20.191748 37.392112 0.529529 1.000359 0.103585 0.001056 -54136.700000 0 0 1
-27.827934 -14.784465 20.687248 37.695312 0.488358 0.989866 0.104388 -0.004675 -72954.500000 0 0 1
-27.014604 -13.954165 21.750748 37.384524 0.476793 0.949842 0.105611 -0.007525 -561946.000000 0 0 1
-26.023244 -13.202165 21.186948 36.060965 0.469488 0.942792 0.111009 -0.011363 -316104.000000 0 0 1
-24.955624 -12.977565 22.105748 35.775194 0.479539 0.904718 0.118701 -0.016470 176238.000000 0 0 1
-23.759124 -12.255865 21.449648 34.275204 0.476238 0.894631 0.117732 -0.015075 -119004.000000 0 0 1
-23.882224 -10.830965 21.461648 33.886174 0.425774 0.884928 0.146506 -0.008465 1042020.000000 0 0 1
-22.715424 -10.249265 20.840448 32.486339 0.423854 0.874326 0.123289 -0.013925 292025.000000 0 0 1
-22.362124 -8.929065 21.462148 32.255490 0.379898 0.842794 0.132714 -0.015459 -4594.900000 0 0 1
-21.881024 -9.079465 22.808448 32.885274 0.393325 0.804355 0.130159 -0.018938 1278530.000000 0 0 1
-20.485824 -9.392765 23.012948 32.210073 0.429901 0.774938 0.091179 -0.005950 960903.000000 0 0 1
-20.134024 -9.623165 24.539348 33.168718 0.445857 0.737973 0.076339 -0.017188 -22055.200000 0 0 1
-20.657624 -10.835865 25.056948 34.234545 0.483091 0.749661 0.084423 -0.011870 100565.000000 0 0 1
-19.939724 -11.191065 26.240448 34.805081 0.511435 0.716779 0.092369 -0.013074 -880369.000000 0 0 1
-20.339224 -12.517765 26.922048 35.988542 0.551702 0.725643 0.083772 -0.035214 610146.000000 0 0 1
-21.631124 -12.404465 27.521348 37.137594 0.520672 0.736142 0.077344 -0.022302 106135.000000 0 0 1
-22.745424 -12.450565 26.647448 37.181412 0.500835 0.771756 0.077349 -0.017934 -112398.000000 0 0 1
-24.044224 -12.888165 27.410848 38.672783 0.492046 0.783016 0.068957 -0.018165 297787.000000 0 0 1
-23.978224 -14.154465 28.058148 39.529278 0.533260 0.781573 0.060260 -0.015734 234713.000000 0 0 1
-23.118524 -14.155265 29.230648 39.865630 0.549408 0.747737 0.062060 -0.017165 -21547.000000 0 0 1
-23.467224 -15.270965 30.142148 41.139544 0.576892 0.748544 0.046066 -0.020840 -820822.000000 0 0 1
-23.182324 -16.611265 29.770948 41.226977 0.621746 0.763930 0.049133 -0.015862 -216154.000000 0 0 1
-23.223124 -17.538365 30.881048 42.432851 0.646828 0.755742 0.053468 -0.015850 147915.000000 0 0 1
-24.601424 -17.778265 31.572648 43.796448 0.625767 0.765703 0.043474 -0.015183 92827.400000 0 0 1
-25.168184 -16.711965 32.263348 44.200123 0.586162 0.752565 0.042840 -0.009584 13075.400000 0 0 1
-26.468094 -17.102865 32.701248 45.414091 0.573677 0.766896 0.051679 -0.014465 180442.000000 0 0 1
-27.184304 -15.974265 33.482248 45.991570 0.531273 0.755384 0.053966 -0.016268 -155046.000000 0 0 1
-26.732584 -15.694765 -32.847691 45.165557 0.530882 2.385137 0.059149 -0.019834 -203574.000000 0 0 1
-27.573284 -14.717465 -32.247791 44.908906 0.490288 2.371823 0.061711 -0.014317 -86982.300000 0 0 1
-27.049914 -14.070065 -30.944791 43.442429 0.479639 2.363591 0.056990 -0.011173 -323674.000000 0 0 1
-27.129584 -14.893865 -29.820691 42.978078 0.502067 2.337629 0.083033 -0.008476 239211.000000 0 0 1
-26.565934 -14.282665 -28.642791 41.595106 0.493297 2.330366 0.086835 -0.006879 -10.121600 0 0 1
-26.702484 -15.086965 -27.312991 41.068706 0.514288 2.298365 0.088193 -0.010416 33748.600000 0 0 1
-27.956614 -15.069365 -26.655491 41.462914 0.494379 2.269043 0.102492 -0.019624 51093.000000 0 0 1
-28.095084 -14.005865 -25.695591 40.567985 0.462460 2.256730 0.123474 -0.025093 -228482.000000 0 0 1
-27.274564 -14.011665 -24.387091 39.178550 0.474568 2.242679 0.112910 -0.033382 168244.000000 0 0 1
-25.908284 -13.681865 -24.601491 38.257888 0.485865 2.269262 0.075033 -0.026595 1092860.000000 0 0 1
-24.949324 -14.039765 -23.584191 37.091749 0.512565 2.259885 0.067639 -0.019617 570813.000000 0 0 1
-24.324724 -15.446165 -23.746191 37.338423 0.565757 2.260064 0.056996 -0.008447 -815361.000000 0 0 1
-23.616724 -15.506865 -24.931191 37.679926 0.581005 2.293823 0.044616 -0.001798 -258264.000000 0 0 1
-23.263824 -16.832065 -25.196091 38.201661 0.626344 2.291023 0.059525 -0.002135 -90082.300000 0 0 1
-22.657424 -17.161665 -26.591591 38.922928 0.648246 2.322913 0.041779 0.000876 274806.000000 0 0 1
-23.514324 -17.051865 -27.707491 40.142180 0.627419 2.332608 0.052501 0.000574 125980.000000 0 0 1
-24.432924 -18.064965 -28.043891 41.349372 0.636663 2.316131 0.071280 0.007419 -43516.100000 0 0 1
-24.945824 -17.891065 -29.450991 42.541100 0.622174 2.335461 0.065150 -0.005946 30194.700000 0 0 1
-23.970924 -18.278365 -30.401491 42.813018 0.651467 2.360435 0.062128 -0.011352 427686.000000 0 0 1
-24.539724 -18.209065 -31.653391 43.996651 0.638377 2.373806 0.050053 -0.012264 678548.000000 0 0 1
-23.468424 -18.745165 -32.733091 44.425256 0.673972 2.399140 0.057203 -0.015972 858211.000000 0 0 1
-22.419424 -17.776665 -32.890791 43.594088 0.670405 2.425655 0.052885 -0.014623 900507.000000 0 0 1
-21.088824 -18.060065 -32.456291 42.712004 0.708187 2.433935 0.061336 -0.023480 616293.000000 0 0 1
-20.399224 -19.259665 -33.106491 43.394732 0.756672 2.438606 0.067762 -0.020457 -1328130.000000 0 0 1
-20.163224 -18.938965 33.113248 43.147737 0.754099 0.695960 0.069166 -0.022262 -43900.400000 0 0 1
-19.948624 -20.091265 32.291148 42.945603 0.788961 0.719845 0.078950 -0.026488 -95312.000000 0 0 1
-21.196524 -20.615665 31.549848 43.239926 0.771507 0.752992 0.075625 -0.025616 429340.000000 0 0 1
-22.170524 -21.176365 32.457848 44.648432 0.762467 0.756905 0.076393 -0.024853 320448.000000 0 0 1
-23.350324 -21.697765 31.867648 45.073026 0.748730 0.785517 0.075259 -0.012283 214459.000000 0 0 1
-23.344924 -22.895565 30.916048 44.999938 0.775681 0.813411 0.082173 -0.011624 -596108.000000 0 0 1
-23.011924 -24.066565 31.654048 45.942649 0.807796 0.810701 0.083367 -0.008483 37141.400000 0 0 1
-23.103324 -25.249405 30.903348 46.111961 0.829753 0.836344 0.085979 -0.002083 83682.500000 0 0 1
-22.483224 -26.486545 31.680148 47.017701 0.866968 0.831468 0.103331 -0.003644 73555.100000 0 0 1
-23.119024 -26.641825 32.918048 48.248047 0.856075 0.819937 0.090759 -0.005981 -299582.000000 0 0 1
-22.731924 -27.835705 33.583148 49.187343 0.885987 0.819263 0.086397 -0.017757 -241348.000000 0 0 1
-23.861324 -28.793675 -33.546691 50.237625 0.878799 2.301992 0.086104 -0.017676 -282092.000000 0 0 1
-24.543224 -29.461205 32.973648 50.572660 0.876214 0.860570 0.073305 -0.019810 732886.000000 0 0 1
-25.802004 -28.925025 32.567048 50.626210 0.842402 0.872016 0.072541 -0.013829 608833.000000 0 0 1
-26.998014 -28.967495 33.566948 51.910968 0.820575 0.867644 0.051894 -0.021298 -661532.000000 0 0 1
-27.894974 -27.917115 33.392548 51.696781 0.785795 0.868554 0.056825 -0.011474 -860062.000000 0 0 1
-28.862194 -27.916975 -33.245191 52.130859 0.768752 2.262338 0.047240 -0.002962 -94060.500000 0 0 1
-30.009774 -26.849185 -33.433191 52.337783 0.729869 2.263729 0.041370 -0.012377 362152.000000 0 0 1
-30.901174 -27.110575 33.111848 52.785039 0.720149 0.892720 0.052146 -0.007449 -616609.000000 0 0 1
-31.849014 -26.100495 33.109348 52.837718 0.686523 0.893584 0.046490 -0.012409 -467734.000000 0 0 1
