# x y z rho theta phi s1 s2 stress_xx np intf bulk
-0.772176 -10.744329 -14.455801 18.027952 1.499051 2.501189 -0.000149 0.004359 380208.000000 1 0 0
2.078724 -13.491129 -13.134501 18.943251 -1.417918 2.336938 0.013733 0.010470 718387.000000 1 0 0
2.142224 -11.192529 -14.775901 18.659825 -1.381686 2.484639 0.005183 0.010729 -211656.000000 1 0 0
-5.668676 -6.308829 -16.401101 18.464325 0.838794 2.664337 0.020270 -0.004843 774360.000000 1 0 0
4.401224 -14.166829 -11.493001 18.765897 -1.269579 2.229941 0.005051 0.003992 1117040.000000 1 0 0
14.068724 -10.620429 -7.888801 19.312061 -0.646627 1.991596 0.046924 -0.009819 -1099320.000000 1 0 0
7.050324 10.786171 -10.826601 16.830444 0.991863 2.269564 0.041564 -0.019123 -791891.000000 1 0 0
5.690624 -4.316129 -12.575501 14.462206 -0.648896 2.625071 0.001320 -0.000840 1391360.000000 1 0 0
13.699924 0.488171 -10.068601 17.008908 0.035618 2.204285 0.036713 -0.004425 1123350.000000 1 0 0
14.177124 5.034371 -10.456401 18.321356 0.341216 2.178181 0.036462 -0.002493 41259.400000 1 0 0
4.182324 4.328371 -13.478801 14.761596 0.802557 2.721618 0.004647 0.000974 3307200.000000 1 0 0
10.272024 -5.076929 -13.700601 17.860464 -0.459036 2.445091 0.040410 0.000940 334197.000000 1 0 0
2.517224 -7.563929 -12.043801 14.443081 -1.249532 2.556897 -0.000863 0.001295 1282300.000000 1 0 0
-5.545176 -2.044029 -15.123101 16.236847 0.353160 2.769054 0.009789 -0.006251 -24799.500000 1 0 0
10.681124 0.106471 -9.761901 14.470400 0.009968 2.311235 0.015332 -0.000536 2064380.000000 1 0 0
-1.765476 -9.492229 -16.937301 19.495935 1.386906 2.623491 0.010747 -0.008249 926258.000000 1 0 0
8.620524 1.671671 -17.976501 20.006562 0.191540 2.687206 0.038533 -0.005069 314113.000000 1 0 0
16.308724 -5.951829 -8.868201 19.494711 -0.349929 2.043060 0.084851 -0.011884 -1262660.000000 1 0 0
10.173224 7.588871 -9.920001 16.108752 0.640914 2.234215 0.036819 -0.006829 1593730.000000 1 0 0
13.760124 -2.349529 -10.664301 17.566691 -0.169118 2.223171 0.052682 -0.006394 -611657.000000 1 0 0
7.161624 -1.888729 -13.639901 15.521052 -0.257858 2.644138 0.011692 -0.004710 1656760.000000 1 0 0
-2.850276 6.560771 -13.776901 15.523234 -1.160955 2.662692 0.003997 -0.006110 1375350.000000 1 0 0
11.305124 1.702071 -13.963201 18.046436 0.149435 2.455516 0.042515 -0.002281 775944.000000 1 0 0
-2.328276 10.697271 -12.847901 16.879604 -1.356487 2.435880 0.001869 -0.004208 -330631.000000 1 0 0
2.798124 -1.070829 -15.222501 15.514532 -0.365500 2.947261 0.007563 -0.007538 102607.000000 1 0 0
-9.044476 0.436671 -15.248001 17.734000 -0.048243 2.605708 0.021453 0.003101 -719366.000000 1 0 0
2.410624 -1.821029 -17.962401 18.214695 -0.646960 2.974960 0.021910 -0.018498 1775820.000000 1 0 0
1.005824 7.857371 -13.169401 15.368249 1.443478 2.600066 0.006421 -0.003718 -114886.000000 1 0 0
9.394024 -9.219129 -9.954101 16.502247 -0.776002 2.218299 0.025403 0.002035 -203896.000000 1 0 0
3.951224 7.342471 -13.538301 15.899989 1.077110 2.589571 0.004346 -0.000524 2372390.000000 1 0 0
-2.734776 9.051271 -15.432901 18.099142 -1.277375 2.591903 0.000549 -0.007133 -571852.000000 1 0 0
5.525224 -7.725029 -15.340601 18.042678 -0.949917 2.587237 0.012273 -0.001316 436121.000000 1 0 0
4.292024 7.255471 -16.439801 18.475129 1.036608 2.667778 0.013296 0.001526 -416807.000000 1 0 0
-0.302576 5.056071 -13.493101 14.412466 -1.511024 2.782484 0.005511 -0.005809 1623000.000000 1 0 0
8.911624 4.237071 -16.631101 19.338132 0.443819 2.606097 0.039150 -0.003527 -1220070.000000 1 0 0
5.266224 0.306871 -14.324301 15.264760 0.058206 2.788739 0.004825 -0.002892 593771.000000 1 0 0
6.276824 7.878571 -11.526201 15.307636 0.898073 2.423361 0.011944 -0.004633 -812124.000000 1 0 0
2.771524 -8.407929 -15.085601 17.491426 -1.252380 2.610900 0.005997 -0.000513 833378.000000 1 0 0
3.997424 11.464571 -13.844301 18.414137 1.235301 2.421629 0.028611 -0.018213 -944942.000000 1 0 0
0.619424 -4.540329 -13.753601 14.496890 -1.435206 2.819983 0.004264 -0.002250 940547.000000 1 0 0
8.452424 -0.049129 -11.691501 14.426957 -0.005812 2.515618 0.006933 -0.001865 -657459.000000 1 0 0
-0.976776 -5.068429 -16.208101 17.010162 1.380413 2.833284 0.009957 -0.012734 324063.000000 1 0 0
4.490524 0.900971 -11.597001 12.468640 0.198009 2.765464 0.002519 -0.002575 735468.000000 1 0 0
-2.964476 -7.147429 -15.537201 17.357375 1.177630 2.679531 0.002705 -0.005340 1643180.000000 1 0 0
11.379324 -3.776729 -11.422801 16.559984 -0.320455 2.331986 0.034196 0.000703 610148.000000 1 0 0
6.460324 -7.169429 -12.578901 15.854503 -0.837378 2.487164 0.009107 0.003002 -341622.000000 1 0 0
3.411024 -4.013629 -14.606801 15.527490 -0.866383 2.795502 0.008456 -0.005739 3431840.000000 1 0 0
-0.588576 -1.510329 -18.273601 18.345354 1.199200 3.053119 0.026398 -0.020886 1567770.000000 1 0 0
14.929124 2.910271 -8.595901 17.471060 0.192525 2.085191 0.025154 -0.003129 -94911.800000 1 0 0
6.991924 4.420971 -14.407901 16.613838 0.563829 2.620394 0.010566 0.003597 2890850.000000 1 0 0
10.144424 -9.811229 -14.015601 19.889862 -0.768703 2.352741 0.068890 -0.012060 129533.000000 1 0 0
8.834124 -3.318829 -15.513601 18.158419 -0.359369 2.595090 0.055778 -0.013409 -13207.000000 1 0 0
-5.280976 -2.052329 -18.034501 18.903544 0.370664 2.837194 0.008731 -0.001737 1744850.000000 1 0 0
4.951224 -9.155829 -11.190001 15.282668 -1.075065 2.392346 -0.002843 0.004358 1593140.000000 1 0 0
-2.419476 3.908771 -17.235301 17.837824 -1.016533 2.880941 0.004630 0.000193 869430.000000 1 0 0
9.181824 9.762071 -14.445401 19.704658 0.816018 2.393659 0.076837 -0.014817 -214390.000000 1 0 0
9.783124 10.117271 -11.545501 18.203497 0.802188 2.257830 0.053160 -0.020987 -97867.300000 1 0 0
11.954524 -5.988629 -9.652501 16.490758 -0.464408 2.196081 0.033234 -0.000616 -881883.000000 1 0 0
8.131624 7.057571 -13.690101 17.416988 0.714804 2.475141 0.025128 -0.001958 -617364.000000 1 0 0
4.153624 -4.105129 -17.466001 18.416456 -0.779526 2.818919 0.032464 -0.020343 -677986.000000 1 0 0
9.378424 -7.554929 -12.412101 17.294278 -0.678125 2.371290 0.032375 -0.000537 -321936.000000 1 0 0
11.990524 -8.720529 -8.861401 17.272658 -0.628804 2.109508 0.037854 -0.006423 1051290.000000 1 0 0
-2.953876 -2.588629 -13.854801 14.400760 0.719594 2.865354 0.005109 -0.008512 -3009940.000000 1 0 0
-0.395976 6.091071 -17.588801 18.617837 -1.505878 2.807562 0.017692 -0.004675 1561290.000000 1 0 0
1.026524 -8.473429 -17.506301 19.476224 -1.450238 2.687946 0.012768 -0.009226 1949800.000000 1 0 0
0.052924 8.515471 -15.996201 18.121658 1.564581 2.652398 0.005440 -0.004567 -329303.000000 1 0 0
1.765224 3.414071 -15.004901 15.489317 1.093607 2.890839 0.014064 -0.003921 1694000.000000 1 0 0
-1.916776 -0.446229 -15.678201 15.801238 0.228728 3.016719 0.009069 -0.012998 895914.000000 1 0 0
13.998224 -4.304829 -8.387601 16.877017 -0.298348 2.090916 0.045997 -0.006670 116255.000000 1 0 0
0.540024 0.650171 -14.600301 14.624744 0.877680 3.083769 0.008096 -0.006920 1938290.000000 1 0 0
8.868324 2.767471 -12.588001 15.644930 0.302486 2.505808 0.011015 0.004445 2266390.000000 1 0 0
5.843424 1.048771 -17.171001 18.168346 0.177588 2.808713 0.023610 -0.003962 508753.000000 1 0 0
15.410424 1.564071 -12.326801 19.795897 0.101148 2.242978 0.075011 -0.017979 -50964.000000 1 0 0
8.742324 -11.240829 -11.984701 18.612295 -0.909783 2.270398 0.041627 -0.002195 510960.000000 1 0 0
-4.568876 0.753271 -15.110901 15.804473 -0.163400 2.844240 0.007369 -0.006168 837767.000000 1 0 0
2.391724 5.137071 -17.337001 18.239557 1.135061 2.825691 0.019806 -0.003500 2062410.000000 1 0 0
5.857524 -11.735729 -12.445801 18.081368 -1.107854 2.329969 0.010191 0.002723 202813.000000 1 0 0
12.862624 7.195571 -8.729301 17.129625 0.510044 2.105519 0.027418 -0.010475 34613.800000 1 0 0
-4.943176 3.545771 -15.770401 16.903048 -0.622247 2.773434 0.005565 -0.000696 -456275.000000 1 0 0
-0.667676 -4.343629 -19.011101 19.512428 1.418276 2.914421 0.023291 -0.022539 -1646210.000000 1 0 0
9.840924 4.444571 -10.287401 14.914041 0.424218 2.331981 0.008813 -0.000009 627558.000000 1 0 0
13.342824 3.595871 -12.841501 18.864395 0.263244 2.319551 0.059167 -0.006781 -880464.000000 1 0 0
-6.021076 5.899771 -17.134401 19.095768 -0.775223 2.684383 0.008713 0.000542 -288530.000000 1 0 0
-10.038276 3.238871 -15.422201 18.684259 -0.312107 2.541727 0.024809 -0.001391 360746.000000 1 0 0
10.765324 13.491971 -8.385201 19.189505 0.897334 2.023021 0.095095 -0.022115 119479.000000 1 0 0
7.316824 13.365071 -12.367401 19.624313 1.069906 2.252618 0.082044 -0.033702 -1020130.000000 1 0 0
5.292024 15.224471 -11.234301 19.646871 1.236261 2.179508 0.052912 -0.025634 887594.000000 1 0 0
14.533424 9.508771 -9.687201 19.886654 0.579371 2.079586 0.107868 -0.023867 568007.000000 1 0 0
8.412024 -17.119629 -2.031001 19.182513 -1.114079 1.676873 0.019507 -0.004221 304263.000000 1 0 0
0.807624 -15.963529 0.019399 15.983957 -1.520248 1.569583 0.016366 -0.010133 2315830.000000 1 0 0
-9.239976 -11.746129 7.725699 16.823648 0.904255 1.093683 0.032289 -0.006936 745865.000000 1 0 0
2.086824 -15.881329 -2.647601 16.235185 -1.440144 1.734606 0.013446 -0.008086 1338490.000000 1 0 0
-1.323876 -11.084029 -9.505201 14.661418 1.451920 2.276164 -0.000141 0.000021 1396940.000000 1 0 0
-4.782976 -12.695829 -12.983601 18.778573 1.210505 2.334228 0.008078 -0.003720 853006.000000 1 0 0
-8.171976 -18.012329 -1.600601 19.844070 1.144880 1.651543 0.051445 -0.015985 -1130520.000000 1 0 0
-11.469176 -7.131629 -8.806101 16.122950 0.556301 2.148598 0.016888 -0.008288 1877010.000000 1 0 0
-13.583176 -11.535429 -4.561701 18.395051 0.704055 1.821396 0.026122 -0.000991 -583293.000000 1 0 0
-5.676876 -13.540129 9.783399 17.643041 1.173795 0.983012 0.028633 -0.009553 873086.000000 1 0 0
0.131424 -13.976529 -3.674901 14.452181 -1.561393 1.827900 0.008141 -0.003859 1725490.000000 1 0 0
-14.764076 -11.543929 2.030299 18.851057 0.663602 1.462885 0.015171 0.002513 -606446.000000 1 0 0
-3.890776 -16.529529 -7.447901 18.542780 1.339621 1.984126 0.025626 -0.009357 1321960.000000 1 0 0
0.509924 -15.255929 -9.232801 17.839507 -1.537384 2.114779 0.007060 0.004773 -306681.000000 1 0 0
4.559424 -14.138829 -2.515501 15.067268 -1.258850 1.738533 0.013603 -0.003376 1701890.000000 1 0 0
-3.397576 -18.076729 -2.371901 18.545554 1.385011 1.699044 0.036613 -0.025656 2699350.000000 1 0 0
-0.880676 -13.493129 0.659399 13.537907 1.505620 1.522069 0.016484 -0.005785 3563460.000000 1 0 0
-8.524776 -11.382529 -10.469801 17.659289 0.927977 2.205424 0.020756 -0.013662 830541.000000 1 0 0
-3.716276 -14.126129 -0.367301 14.611404 1.313547 1.595937 0.010681 -0.004522 5379380.000000 1 0 0
-1.570276 -14.937629 -7.246601 16.676683 1.466059 2.020318 0.008773 0.000687 -406847.000000 1 0 0
-14.158976 -7.926229 -1.836401 16.330158 0.510338 1.683489 0.008986 0.000322 722766.000000 1 0 0
-10.788576 -7.344429 -11.701401 17.528742 0.597696 2.301717 0.030399 -0.011541 -340697.000000 1 0 0
-9.660276 -14.706429 6.974899 18.927472 0.989604 1.193394 0.028186 -0.004292 1422630.000000 1 0 0
-2.375076 -14.304329 -12.414501 19.088600 1.406258 2.278857 0.019500 -0.000309 -30735.400000 1 0 0
2.455424 -17.799429 -4.834701 18.607072 -1.433712 1.833644 0.027509 -0.007552 -268364.000000 1 0 0
-6.608776 -9.719029 -9.230801 14.944669 0.973631 2.236567 0.009553 -0.010754 736273.000000 1 0 0
-11.109076 -15.425329 0.616099 19.019251 0.946652 1.538397 0.039661 -0.003576 283448.000000 1 0 0
-12.680876 -10.881629 4.134199 17.213543 0.709185 1.328254 0.022973 -0.002801 2597490.000000 1 0 0
-16.924676 -8.942229 -1.659601 19.213599 0.486073 1.657280 0.009645 -0.000731 -384844.000000 1 0 0
-1.075276 -19.131629 -3.783401 19.531758 1.514651 1.765734 0.049471 -0.020621 -188859.000000 1 0 0
3.222124 -14.342029 -8.761301 17.112460 -1.349803 2.108289 0.011191 0.003366 319734.000000 1 0 0
-4.312876 -8.011629 -12.968001 15.841595 1.076959 2.529773 0.007744 -0.004904 78328.500000 1 0 0
5.691224 -16.493829 1.377499 17.502398 -1.238537 1.492011 0.024476 -0.004442 5200880.000000 1 0 0
-2.833176 -13.823529 -3.158301 14.460003 1.368643 1.790988 0.008826 -0.003076 -645250.000000 1 0 0
-0.352676 -13.938529 3.684399 14.421573 1.545500 1.312454 0.016606 -0.004448 -2579630.000000 1 0 0
1.303824 -16.132029 7.017899 17.640670 -1.490150 1.161651 0.021428 -0.007513 1231950.000000 1 0 0
-5.568976 -10.316729 -14.436201 18.597104 1.075818 2.459509 0.016035 -0.012731 -454926.000000 1 0 0
-0.169276 -17.272429 -5.899601 18.252965 1.560996 1.899919 0.027825 -0.007359 2193870.000000 1 0 0
-6.558876 -13.409329 -1.204101 14.975941 1.115884 1.651286 0.013569 -0.001906 2726640.000000 1 0 0
-1.672076 -17.691629 0.025399 17.770487 1.476564 1.569367 0.027664 -0.017075 2211040.000000 1 0 0
-9.522776 -9.795529 -4.866001 14.502193 0.799516 1.912970 0.013894 -0.001577 2536220.000000 1 0 0
-0.723776 -16.621729 4.859899 17.332753 1.527280 1.286598 0.033355 -0.013883 1291780.000000 1 0 0
-6.830776 -9.959829 -6.293001 13.618353 0.969642 2.051155 0.011254 -0.007831 3135890.000000 1 0 0
-6.037576 -14.641229 -8.494801 17.971632 1.179673 2.063124 0.018046 -0.008343 797887.000000 1 0 0
-5.794776 -12.276029 -10.237701 17.002671 1.129766 2.216954 0.014252 -0.009822 921056.000000 1 0 0
-10.712976 -12.229729 -8.678801 18.429750 0.851413 2.061121 0.036196 -0.017560 -645174.000000 1 0 0
4.076924 -17.051229 6.690399 18.765052 -1.336104 1.206240 0.035483 -0.013025 897781.000000 1 0 0
-6.670376 -14.351729 -4.040301 16.333709 1.135721 1.820751 0.027393 -0.012833 -1545970.000000 1 0 0
-2.849476 -12.275229 -7.145701 14.486608 1.342704 2.086633 0.007283 -0.003506 1096770.000000 1 0 0
-7.131476 -12.865229 4.485599 15.378318 1.064641 1.274810 0.015926 -0.002406 4557520.000000 1 0 0
2.716724 -16.308729 2.429299 16.710976 -1.405731 1.424908 0.026536 -0.011775 3539840.000000 1 0 0
-6.321576 -12.058029 7.325299 15.460219 1.087927 1.077177 0.016607 0.000262 1488050.000000 1 0 0
-11.320476 -12.937129 -0.856101 17.212071 0.851945 1.620555 0.030181 0.005945 1573580.000000 1 0 0
-14.278876 -8.550229 4.710199 17.296782 0.539539 1.294997 0.023042 -0.003442 14121.900000 1 0 0
-7.988276 -15.573429 4.599199 18.096875 1.096848 1.313835 0.023140 0.004937 889315.000000 1 0 0
-16.423076 -9.183229 1.195499 18.854133 0.509853 1.507346 0.000795 0.009584 -866497.000000 1 0 0
-6.703876 -17.048729 2.360499 18.470871 1.196150 1.442650 0.029642 -0.007600 1846700.000000 1 0 0
-11.594376 -15.015929 -4.537001 19.506205 0.913277 1.805539 0.057862 -0.002707 1101920.000000 1 0 0
-10.144576 -10.075629 -12.487301 18.983240 0.781988 2.288699 0.024676 -0.011086 -1621350.000000 1 0 0
-4.305776 -16.022129 -4.461401 17.180000 1.308260 1.833493 0.016540 -0.014924 584790.000000 1 0 0
-11.893676 -8.281129 0.133699 14.493257 0.608214 1.561571 -0.000449 0.001752 1178010.000000 1 0 0
-9.632076 -11.176929 3.533799 15.171960 0.859502 1.335721 0.012233 0.002535 1904800.000000 1 0 0
-14.232776 -13.154329 -0.340601 19.383609 0.746041 1.588369 0.025415 0.017034 -905016.000000 1 0 0
5.600824 -14.974329 -7.120401 17.501425 -1.212878 1.989796 0.009818 -0.008339 -449280.000000 1 0 0
-7.505076 -10.562029 -1.268201 13.018869 0.953011 1.668364 0.009393 0.001760 2164870.000000 1 0 0
-11.723776 -8.272629 -6.011701 15.557116 0.614493 1.967552 0.014622 -0.005060 33404.800000 1 0 0
-14.484376 -6.744629 -9.263801 18.469033 0.435791 2.096227 0.035166 -0.012987 2098610.000000 1 0 0
-3.936876 -16.391029 1.520599 16.925633 1.335077 1.480835 0.029162 -0.014195 2112190.000000 1 0 0
-8.091376 -15.574129 0.174899 17.551480 1.091640 1.560831 0.034483 -0.007442 2072270.000000 1 0 0
1.122424 -18.560429 3.644599 18.948152 -1.510396 1.377244 0.036804 -0.013463 286901.000000 1 0 0
-14.201376 -8.711329 -4.618401 17.288607 0.550225 1.841216 0.016069 -0.004913 -834791.000000 1 0 0
-3.137876 -14.567929 11.160999 18.618236 1.358642 0.927963 0.009187 -0.010570 2196310.000000 1 0 0
-10.883476 -12.166029 -3.718501 16.741850 0.840984 1.794772 0.028524 -0.006260 740025.000000 1 0 0
-10.026976 -10.700729 0.568899 14.675472 0.817892 1.532021 0.007069 0.006506 1164310.000000 1 0 0
-0.047676 -13.181629 -11.193401 17.293057 1.567180 2.274803 0.009764 -0.001819 193237.000000 1 0 0
-5.815476 -12.671429 -6.276101 15.289680 1.140530 1.993776 0.007486 -0.010169 2137520.000000 1 0 0
1.892424 -15.897429 9.918399 18.833060 -1.452314 1.016143 0.013959 -0.005756 565371.000000 1 0 0
-8.890276 -15.703229 -5.322601 18.813784 1.055644 1.857623 0.053982 -0.016243 244649.000000 1 0 0
-3.222176 -15.475929 5.889299 16.869222 1.365523 1.214170 0.020211 -0.007306 -1307300.000000 1 0 0
-17.450876 -5.584929 -6.501701 19.442135 0.309737 1.911779 0.030615 -0.011964 -506163.000000 1 0 0
18.907724 5.486371 -3.000401 19.914937 0.282410 1.722033 0.026012 0.005653 -1163930.000000 1 0 0
12.838724 -12.515329 -5.876001 18.867795 -0.772644 1.887494 0.035249 -0.001407 593378.000000 1 0 0
11.020224 -13.442429 -1.647001 17.460150 -0.884093 1.665266 0.020398 -0.005398 1987810.000000 1 0 0
18.689324 -2.933729 4.528799 19.452702 -0.155703 1.335829 0.071962 -0.020813 -220455.000000 1 0 0
8.821824 -16.683529 4.963899 19.514226 -1.084395 1.313597 0.041517 -0.024537 -1347590.000000 1 0 0
18.092424 -1.106629 6.696299 19.323583 -0.061089 1.216922 0.104852 -0.029704 -822722.000000 1 0 0
18.010924 -4.213929 -4.998201 19.160705 -0.229831 1.834706 0.101444 -0.015388 94260.200000 1 0 0
5.160924 -11.857629 14.886299 19.719037 -1.160284 0.715264 -0.004381 0.004687 420368.000000 1 0 0
15.988824 -8.837729 -0.807901 18.286625 -0.504948 1.614991 0.044665 -0.012585 -910829.000000 1 0 0
13.896124 -12.435229 -1.311401 18.693768 -0.729974 1.641006 0.032737 -0.001889 1704000.000000 1 0 0
11.349124 -1.783429 13.779299 17.940243 -0.155868 0.694980 0.038188 -0.007554 -892243.000000 1 0 0
16.978124 -6.070929 -1.416701 18.086457 -0.343406 1.649206 0.061669 -0.015921 -948142.000000 1 0 0
17.798424 3.624571 -0.953301 18.188739 0.200898 1.623232 0.018389 0.005186 1019770.000000 1 0 0
9.723724 -10.939529 9.624799 17.517445 -0.844169 0.989101 0.032219 -0.012326 1046090.000000 1 0 0
9.172724 -11.053529 4.360599 15.011136 -0.878120 1.276056 0.008545 -0.009010 -777509.000000 1 0 0
14.090624 -10.063129 6.828699 18.612990 -0.620174 1.195145 0.051275 -0.015675 -932516.000000 1 0 0
16.286724 -0.510329 -4.746401 16.971922 -0.031324 1.854238 0.043861 -0.001850 -586097.000000 1 0 0
15.795624 -0.465229 -1.785401 15.903014 -0.029445 1.683302 0.037324 0.001251 1056390.000000 1 0 0
12.930624 -5.171029 -0.259501 13.928673 -0.380425 1.589428 0.014330 -0.009602 1234000.000000 1 0 0
14.311324 -7.471929 1.085099 16.180889 -0.481170 1.503685 0.034702 -0.012187 2354270.000000 1 0 0
15.594624 2.423971 3.567799 16.180146 0.154202 1.348464 0.020770 -0.008074 1987540.000000 1 0 0
15.909524 -7.078629 5.000999 18.117118 -0.418630 1.291128 0.058457 -0.019465 -2534640.000000 1 0 0
13.677924 -12.136329 3.420899 18.603189 -0.725750 1.385856 0.028439 -0.005235 602113.000000 1 0 0
13.921024 -0.946229 9.156699 16.689380 -0.067867 0.990043 0.058570 -0.015352 2008000.000000 1 0 0
14.240824 -2.817829 -1.545401 14.598956 -0.195346 1.676852 0.012978 -0.006803 337809.000000 1 0 0
14.980624 1.798971 9.151399 17.646629 0.119514 1.025593 0.072107 -0.013606 -1080230.000000 1 0 0
14.345824 -9.947829 -2.954401 17.705662 -0.606303 1.738442 0.036747 -0.014230 994952.000000 1 0 0
7.280424 -12.565429 6.144599 15.768661 -1.045661 1.170521 -0.001740 -0.004837 -242209.000000 1 0 0
12.450324 -4.560929 6.994699 14.991280 -0.351148 1.085371 0.021495 -0.008405 1903700.000000 1 0 0
14.944524 -8.825329 -5.693501 18.265848 -0.533434 1.887780 0.057009 -0.012007 -1291760.000000 1 0 0
14.316624 -4.519029 4.620599 15.707874 -0.305751 1.272222 0.032170 -0.015092 271318.000000 1 0 0
17.254824 -4.195629 0.970299 17.784087 -0.238528 1.516209 0.050127 -0.016799 -346836.000000 1 0 0
10.321524 -14.476329 1.078199 17.811807 -0.951403 1.510226 0.028145 -0.005855 -276283.000000 1 0 0
16.368124 -2.534229 8.652699 18.687082 -0.153607 1.089384 0.098749 -0.022127 220860.000000 1 0 0
16.082724 -2.638429 3.158299 16.600909 -0.162605 1.379381 0.037588 -0.012075 540638.000000 1 0 0
7.934824 -15.122029 2.757399 17.298568 -1.087569 1.410713 0.013983 -0.006271 2565950.000000 1 0 0
16.661424 -6.928729 7.850199 19.678312 -0.394099 1.160451 0.086032 -0.023472 277091.000000 1 0 0
10.331924 -8.540929 5.177699 14.370271 -0.690784 1.202200 0.010176 -0.007401 1491080.000000 1 0 0
10.953424 -11.839729 2.209299 16.279978 -0.824263 1.434670 0.017173 -0.006183 367530.000000 1 0 0
12.361624 -7.192529 12.168699 18.778165 -0.526962 0.865809 0.057301 -0.018634 150452.000000 1 0 0
15.303524 -9.895829 4.301899 18.725160 -0.574008 1.338987 0.044947 -0.009592 758369.000000 1 0 0
7.316124 -10.172029 7.811799 14.765502 -0.947274 1.013307 0.006172 -0.004907 1791090.000000 1 0 0
15.233624 -3.399129 -4.312701 16.193109 -0.219537 1.840379 0.052194 -0.002967 65598.500000 1 0 0
11.849724 -8.863929 9.805799 17.752152 -0.642238 0.985589 0.047699 -0.016387 -1671650.000000 1 0 0
16.973824 -6.582529 2.441399 18.368474 -0.369949 1.437489 0.056571 -0.016592 2059680.000000 1 0 0
17.720424 3.887771 2.042999 18.256562 0.215973 1.458657 0.029774 0.003975 848402.000000 1 0 0
14.698724 -4.904829 8.866299 17.852762 -0.322072 1.051079 0.070746 -0.016564 474846.000000 1 0 0
12.693624 -12.577929 6.178599 18.907868 -0.780820 1.237908 0.034936 -0.011754 -546689.000000 1 0 0
18.190424 0.668671 -0.688701 18.215734 0.036743 1.608613 0.039032 -0.000640 -592302.000000 1 0 0
11.573924 -2.112829 10.907299 16.043346 -0.180563 0.823219 0.021824 -0.004580 1864740.000000 1 0 0
5.851624 -12.478229 10.617599 17.397733 -1.132299 0.914374 -0.001556 -0.000931 -1578990.000000 1 0 0
10.779624 -5.029129 11.080499 16.256380 -0.436523 0.820837 0.028741 -0.005679 368578.000000 1 0 0
17.840224 1.283571 5.085299 18.595199 0.071824 1.293794 0.058489 -0.015493 -245406.000000 1 0 0
12.376924 -7.649929 7.174799 16.223052 -0.553608 1.112680 0.033894 -0.015075 -1098040.000000 1 0 0
10.595824 -7.948329 14.374999 19.547072 -0.643589 0.744533 0.062749 -0.014929 -376555.000000 1 0 0
14.200724 -0.315429 3.634999 14.661967 -0.022209 1.320263 0.009660 -0.005696 1978130.000000 1 0 0
11.671824 -7.692029 2.581599 14.214902 -0.582694 1.388171 0.013399 -0.004949 764859.000000 1 0 0
9.390924 6.073871 3.494199 11.717116 0.574109 1.267976 0.006568 -0.000887 2299900.000000 1 0 0
-4.028476 14.753271 -9.920001 18.228934 -1.304238 2.146219 -0.004257 -0.002332 169865.000000 1 0 0
8.903024 -6.400829 9.291299 14.372289 -0.623331 0.867844 0.010444 -0.004813 -132350.000000 1 0 0
5.822424 -10.673729 -8.624801 14.906921 -1.071421 2.187779 0.003122 0.002189 386295.000000 1 0 0
5.481024 1.020371 0.515999 5.599021 0.184057 1.478507 -0.000613 0.001251 3441020.000000 1 0 0
-0.558176 9.897171 10.837899 14.687601 -1.514459 0.740851 -0.006609 -0.001601 709205.000000 1 0 0
-6.325976 -5.192729 1.115899 8.260002 0.687331 1.435285 0.009689 -0.004157 1978830.000000 1 0 0
-1.038576 3.956371 -10.811501 11.559414 -1.314081 2.779897 0.009685 -0.005621 1188530.000000 1 0 0
11.112924 5.780571 1.225099 12.586221 0.479650 1.473305 0.010053 0.000807 1330830.000000 1 0 0
-10.168276 -1.744029 -13.617501 17.084256 0.169864 2.493239 0.023975 -0.003815 1981750.000000 1 0 0
7.451824 10.946171 -6.015301 14.544146 0.973093 1.997189 0.012802 -0.003113 346131.000000 1 0 0
-12.439176 -2.961329 -9.569901 15.971398 0.233714 2.213285 0.020861 -0.006766 516294.000000 1 0 0
-3.982376 -8.719729 2.460899 9.896919 1.142378 1.319507 0.014139 -0.002592 -213743.000000 1 0 0
8.053924 -6.759529 -5.983501 12.097901 -0.698240 2.088159 0.002061 -0.005143 922913.000000 1 0 0
14.374024 3.253771 -4.374701 15.373276 0.222613 1.859349 0.019562 0.004101 1617200.000000 1 0 0
-2.587276 -4.855829 9.873799 11.303317 1.081240 0.508386 0.003647 -0.000946 1446820.000000 1 0 0
3.532724 -2.070429 -4.625201 6.177322 -0.530115 2.416954 0.002370 -0.003102 -2842990.000000 1 0 0
-3.956576 8.319671 -3.402501 9.820816 -1.126884 1.924589 0.002671 -0.001344 789406.000000 1 0 0
5.749324 0.139571 11.710899 13.046815 0.024271 0.456488 0.005018 -0.003745 2420420.000000 1 0 0
7.111624 4.741071 12.397799 15.058499 0.588001 0.603580 0.011125 -0.002535 245229.000000 1 0 0
1.213724 -14.544829 12.447299 19.182295 -1.487542 0.864665 -0.011301 -0.001406 -1113650.000000 1 0 0
3.037524 8.687271 -9.108801 12.948571 1.234431 2.351050 0.007522 -0.002525 1744040.000000 1 0 0
-4.427776 -8.947029 -4.624001 11.001632 1.111247 2.004574 0.012887 -0.004669 2203700.000000 1 0 0
5.742424 -6.647829 -4.109601 9.698345 -0.858342 2.008369 0.000839 -0.005217 905149.000000 1 0 0
-3.099376 3.470671 8.592599 9.771614 -0.841851 0.496316 0.001357 0.000828 2844590.000000 1 0 0
-3.806676 3.104671 -11.140601 12.175498 -0.684173 2.726308 0.003454 -0.006542 1137910.000000 1 0 0
3.126224 -6.147629 8.588699 11.015097 -1.100352 0.676577 0.001231 0.001033 1192890.000000 1 0 0
-5.172676 -8.673829 10.528699 14.589222 1.033062 0.764575 0.007646 -0.002419 1184920.000000 1 0 0
-13.263476 -2.463729 6.563099 15.002134 0.183660 1.118005 0.024220 -0.004759 271173.000000 1 0 0
3.898324 -6.013229 -8.398001 11.040031 -0.995623 2.435166 0.001740 -0.001878 3718130.000000 1 0 0
2.865824 -0.448229 12.434299 12.768150 -0.155148 0.229181 -0.001043 -0.000985 321777.000000 1 0 0
1.455224 -1.478029 -7.630401 7.907292 -0.793172 2.876174 0.005543 -0.006522 -50622.500000 1 0 0
3.651424 -3.478629 3.401299 6.082976 -0.761168 0.977436 0.000430 -0.003270 842512.000000 1 0 0
1.564824 0.421671 -11.800801 11.911565 0.263216 3.005113 0.007409 -0.006564 168726.000000 1 0 0
4.046024 3.566871 -10.657601 11.944762 0.722541 2.673079 0.002006 -0.001746 2955950.000000 1 0 0
2.853624 3.274471 3.276799 5.440841 0.853965 0.924468 -0.004111 0.002014 -1828780.000000 1 0 0
-5.375276 0.808571 2.623899 6.035911 -0.149305 1.121075 0.009897 -0.003235 1482610.000000 1 0 0
-9.435176 -9.354629 5.760799 14.481658 0.781111 1.161679 0.013322 0.000991 -735257.000000 1 0 0
-2.978476 3.761071 -0.583401 4.832942 -0.901000 1.691805 0.006580 -0.004952 -1051830.000000 1 0 0
-15.889976 -6.322329 4.984199 17.813068 0.378679 1.287205 0.043877 -0.014821 1097630.000000 1 0 0
0.990224 6.674771 -8.100101 10.542521 1.423517 2.447019 0.007258 -0.002288 -44720.100000 1 0 0
-1.602776 6.529071 -9.460101 11.605652 -1.330074 2.523748 0.006501 -0.003990 -208101.000000 1 0 0
2.097524 -0.400929 5.219999 5.639924 -0.188866 0.388326 0.002979 0.000988 2928320.000000 1 0 0
-3.411376 -0.622929 -6.281601 7.175238 0.180614 2.637174 0.010180 -0.006365 749321.000000 1 0 0
1.986724 -1.278129 -2.442901 3.398301 -0.571675 2.372956 0.003727 -0.002516 67456.000000 1 0 0
2.411524 -8.655729 -7.616001 11.778818 -1.299082 2.273895 -0.001698 0.000462 2932910.000000 1 0 0
-2.476076 13.973871 -5.551201 15.238630 -1.395423 1.943661 0.003114 -0.000427 2775110.000000 1 0 0
6.847624 -5.089329 -8.174101 11.815547 -0.639151 2.334788 0.000851 -0.002058 3728420.000000 1 0 0
-14.228576 -5.079529 -2.160101 15.261717 0.342893 1.712810 0.003417 -0.005004 278076.000000 1 0 0
-2.758476 6.853271 -6.825401 10.057962 -1.188132 2.316660 0.004746 -0.001933 -1235110.000000 1 0 0
-5.702676 -1.135429 -8.106101 9.975900 0.196534 2.519341 0.008228 -0.008900 141595.000000 1 0 0
-5.774476 -10.608029 3.538599 12.585568 1.072302 1.285790 0.010401 -0.001234 -2364130.000000 1 0 0
8.172324 -7.475329 6.661099 12.924305 -0.740884 1.029330 0.004007 -0.004897 943302.000000 1 0 0
8.767524 -6.000329 13.247699 16.981607 -0.600166 0.675938 0.025773 -0.005634 836404.000000 1 0 0
-4.645076 9.509471 -0.824101 10.615362 -1.116417 1.648507 0.003144 -0.001015 1433850.000000 1 0 0
2.686524 6.607771 12.067999 14.018440 1.184639 0.533827 0.003107 -0.000324 668471.000000 1 0 0
6.076424 -2.788629 11.033999 12.901493 -0.430252 0.544764 0.005581 -0.002265 -1187900.000000 1 0 0
-9.798076 -6.525129 -1.050301 11.818745 0.587513 1.659781 0.006653 -0.003652 -522549.000000 1 0 0
0.925724 -13.303129 6.302799 14.749762 -1.501321 1.129275 0.009313 -0.003562 1991550.000000 1 0 0
-0.509076 -3.195629 8.771599 9.349447 1.412820 0.353420 0.001902 -0.001721 730695.000000 1 0 0
4.287324 0.785871 3.360199 5.503606 0.181289 0.914048 -0.004821 0.003258 2006650.000000 1 0 0
-10.168676 5.545671 8.192099 14.186857 -0.499280 0.955203 0.008429 -0.006062 -441201.000000 1 0 0
9.457424 7.939371 0.009899 12.348141 0.698358 1.569995 0.005562 -0.001987 -152870.000000 1 0 0
4.298624 2.895071 8.198399 9.699142 0.592710 0.563725 -0.006034 0.001104 3113790.000000 1 0 0
1.311524 2.640171 -9.776101 10.210913 1.109746 2.848715 0.009212 -0.005835 1903010.000000 1 0 0
-1.391376 -10.119829 3.060399 10.663625 1.434163 1.279709 0.012345 -0.005014 -1408900.000000 1 0 0
-9.906276 9.556671 8.939999 16.413039 -0.767438 0.994778 0.022108 -0.016518 387358.000000 1 0 0
9.830924 -1.997329 -7.701001 12.646810 -0.200440 2.225505 0.008826 0.000503 1983360.000000 1 0 0
-5.182376 -1.869929 6.736899 8.702842 0.346285 0.685499 0.006061 -0.001700 298908.000000 1 0 0
3.083024 -7.705129 -4.953701 9.665051 -1.190181 2.108934 -0.001558 -0.003121 357651.000000 1 0 0
-5.150176 4.890471 -13.129201 14.927054 -0.759539 2.645728 -0.000419 -0.006708 3274900.000000 1 0 0
-5.580476 9.642771 5.424599 12.391570 -1.046170 1.117685 0.003497 -0.005268 1207360.000000 1 0 0
-0.544276 -1.720929 -9.433401 9.604524 1.264482 2.952542 0.006806 -0.007737 544673.000000 1 0 0
-16.833576 0.213171 6.247299 17.956711 -0.012663 1.215457 0.036589 -0.016153 -577747.000000 1 0 0
-5.937076 -2.975929 4.108499 7.809276 0.464643 1.016782 0.003325 -0.002501 2897920.000000 1 0 0
0.924124 -5.665029 -5.092401 7.673272 -1.409093 2.296490 0.006894 -0.005144 109243.000000 1 0 0
-7.026576 1.361171 -8.403601 11.038390 -0.191348 2.436122 0.006304 -0.003167 -472519.000000 1 0 0
8.103624 1.927871 4.705399 9.566932 0.233561 1.056595 -0.004903 0.002277 -372114.000000 1 0 0
0.541924 -8.045229 -0.505701 8.079302 -1.503538 1.633429 0.008325 -0.002412 -7689.010000 1 0 0
5.444924 5.473271 -3.396901 8.434621 0.787994 1.985297 0.000698 -0.000718 1537350.000000 1 0 0
-0.663076 -0.485029 -1.202501 1.456342 0.631545 2.542238 0.007362 -0.002423 285224.000000 1 0 0
9.083624 6.456771 -6.331501 12.817567 0.617947 2.087447 0.006829 -0.004073 480158.000000 1 0 0
-15.040076 -6.969629 2.490299 16.762494 0.433944 1.421681 0.009460 -0.001998 1387770.000000 1 0 0
-6.401976 6.848971 8.862999 12.901413 -0.819118 0.813473 0.004577 -0.002761 608125.000000 1 0 0
-9.521676 -3.223729 -9.631001 13.921599 0.326454 2.334779 0.009661 -0.003655 -483650.000000 1 0 0
14.913924 3.410071 -1.367501 15.359811 0.224786 1.659945 0.007822 0.007337 952181.000000 1 0 0
12.027324 1.720271 -5.793901 13.460503 0.142067 2.015773 0.012008 0.002055 1478570.000000 1 0 0
1.544924 -9.373929 12.773999 15.919560 -1.407454 0.639475 -0.011307 0.002446 -547344.000000 1 0 0
-3.582776 6.364771 7.805499 10.689827 -1.058098 0.752211 0.000667 0.000354 -178794.000000 1 0 0
-4.089676 13.017271 -12.359201 18.409906 -1.266388 2.306804 -0.003070 -0.006671 1356340.000000 1 0 0
-10.289276 7.753771 6.442399 14.404675 -0.645787 1.107115 0.012009 -0.010289 -41678.200000 1 0 0
8.029424 -9.402829 -7.271401 14.344271 -0.864021 2.102404 0.007269 -0.000834 972226.000000 1 0 0
5.888724 -3.878529 -0.359601 7.060409 -0.582423 1.621750 0.001214 -0.002551 -2024090.000000 1 0 0
-1.663976 -4.442029 4.196299 6.333195 1.212378 0.846527 0.007526 -0.002391 515634.000000 1 0 0
9.912924 -2.078629 -2.710001 10.484792 -0.206694 1.832234 0.002757 -0.001406 -1340140.000000 1 0 0
13.685724 7.048171 1.396499 15.457231 0.475577 1.480327 0.008507 0.003018 -624407.000000 1 0 0
5.483924 -3.755829 -3.294901 7.418629 -0.600506 2.031009 -0.000020 -0.004383 -2385100.000000 1 0 0
-12.310376 -5.881729 1.963799 13.783925 0.445719 1.427840 0.004857 -0.000813 1837670.000000 1 0 0
3.785224 -5.821529 -0.369001 6.953725 -0.994273 1.623886 0.002839 -0.002058 -1104010.000000 1 0 0
-5.166376 3.647371 -8.682901 10.741858 -0.614730 2.512096 0.006358 -0.004662 265879.000000 1 0 0
-1.683476 -9.264829 7.280699 11.902929 1.391051 0.912623 0.006859 -0.000916 3378010.000000 1 0 0
-7.404076 -7.387229 2.645599 10.788451 0.784259 1.323044 0.011802 -0.003077 -2756110.000000 1 0 0
-5.781376 13.083971 -8.399901 16.588337 -1.154726 2.101771 0.000608 -0.008125 1755130.000000 1 0 0
9.212524 -13.878229 -4.196301 17.178032 -0.984773 1.817577 0.020501 -0.001429 1725230.000000 1 0 0
-6.583176 -5.193129 -6.728401 10.750729 0.667904 2.247024 0.008046 -0.004131 -220622.000000 1 0 0
3.417224 0.265171 -6.337301 7.204798 0.077443 2.645805 0.001673 -0.003906 2042900.000000 1 0 0
-3.577476 5.753771 4.870399 8.344160 -1.014529 0.947531 0.003931 0.000251 -635236.000000 1 0 0
-2.652876 -10.814229 -2.866001 11.497794 1.330233 1.822718 0.013156 -0.002959 2228880.000000 1 0 0
-12.579876 -0.423829 1.739899 12.706697 0.033678 1.433437 0.005965 -0.007266 659092.000000 1 0 0
8.348224 -12.014129 -6.076201 15.841476 -0.963523 1.964447 0.018966 -0.007679 204138.000000 1 0 0
6.088424 3.908171 0.947499 7.296607 0.570661 1.440574 -0.000020 0.001368 -1620170.000000 1 0 0
3.395724 -4.800329 -10.939201 12.419349 -0.955125 2.648386 0.000938 -0.001183 920916.000000 1 0 0
-7.679876 4.231571 8.588999 12.274265 -0.503607 0.795739 0.005623 0.000138 1108140.000000 1 0 0
8.266024 8.757571 4.030099 12.698973 0.814265 1.247856 0.009893 -0.000716 1141160.000000 1 0 0
0.209224 10.586671 -6.365801 12.354950 1.551036 2.112087 0.003043 0.000834 2275200.000000 1 0 0
5.495424 8.063771 3.201299 10.269976 0.972598 1.253800 0.003238 0.000399 2923390.000000 1 0 0
8.095324 6.713671 -3.765101 11.170660 0.692369 1.914581 0.003248 -0.001926 -676444.000000 1 0 0
10.547524 2.556771 -8.322201 13.676490 0.237818 2.224971 0.008157 -0.001059 111099.000000 1 0 0
3.254824 -12.475029 -0.241301 12.894900 -1.315579 1.589510 0.006434 -0.004653 -2324630.000000 1 0 0
0.710524 2.094471 5.154699 5.609151 1.243741 0.405310 0.002981 0.001370 198175.000000 1 0 0
-4.824176 13.465771 1.477699 14.379960 -1.226787 1.467854 0.007437 -0.001774 900211.000000 1 0 0
8.239924 4.124271 -8.061001 12.242782 0.464066 2.289526 0.000203 0.000484 2019830.000000 1 0 0
-13.857176 -0.674329 -3.536101 14.317124 0.048624 1.820363 0.010451 -0.009389 625230.000000 1 0 0
-8.660376 -0.000329 -0.463801 8.672786 0.000038 1.624300 0.002895 -0.004715 -116718.000000 1 0 0
1.879824 -3.889629 -1.149101 4.470278 -1.120605 1.830768 0.004616 -0.002454 -2368550.000000 1 0 0
8.092324 -5.709529 -0.228101 9.906385 -0.614440 1.593824 0.000521 -0.004271 2612370.000000 1 0 0
-2.294476 -1.231629 7.416399 7.860312 0.492637 0.337683 0.006644 -0.001607 1602860.000000 1 0 0
-5.842176 8.703571 -11.538101 15.588808 -0.979635 2.404094 0.000958 -0.006067 -159428.000000 1 0 0
-6.265176 9.180071 -8.707301 14.118896 -0.971929 2.235356 0.002046 0.002024 -925687.000000 1 0 0
-1.665276 13.911171 -8.437401 16.354925 -1.451655 2.112847 0.006965 -0.002584 -913754.000000 1 0 0
-1.458476 7.195571 9.665499 12.137762 -1.370815 0.649616 -0.006955 -0.000774 -199824.000000 1 0 0
9.965624 2.374171 -4.026901 11.007556 0.233876 1.945321 0.003831 0.001163 -1275370.000000 1 0 0
-3.066176 -7.578929 -7.025601 10.779641 1.186360 2.280682 0.009304 -0.003322 1627680.000000 1 0 0
-5.576676 -5.156129 -1.577001 7.757055 0.746235 1.775522 0.013530 -0.004420 -371823.000000 1 0 0
5.730424 7.360471 -8.649201 12.720966 0.909278 2.318446 0.000845 0.001837 -134162.000000 1 0 0
-9.558176 5.135571 -7.443601 13.158268 -0.493037 2.172075 0.006602 0.001206 -103057.000000 1 0 0
-0.425776 6.149771 -5.343901 8.158324 -1.501672 2.285011 0.003278 -0.002546 -1324510.000000 1 0 0
-8.270476 2.736271 -6.244401 10.718232 -0.319512 2.192716 0.007184 -0.001719 1482970.000000 1 0 0
3.695124 1.350971 -2.064901 4.443296 0.350512 2.054118 -0.002440 -0.000023 2836840.000000 1 0 0
-6.837776 12.478971 -3.431901 14.637549 -1.069533 1.807458 0.007897 0.000455 201141.000000 1 0 0
-6.533976 3.104371 -2.273801 7.582884 -0.443540 1.875342 0.007379 -0.003545 -918544.000000 1 0 0
12.126824 4.013171 -0.945101 12.808537 0.319589 1.644650 0.003909 -0.000223 576540.000000 1 0 0
2.219424 12.322371 -5.552401 13.696563 1.392594 1.988198 0.010782 -0.002387 -138215.000000 1 0 0
-9.148076 -1.550629 -4.278201 10.217374 0.167907 2.002830 0.005626 -0.003293 -1376370.000000 1 0 0
-1.111176 5.758771 3.360799 6.759669 -1.380185 1.050446 0.001119 0.001441 2096770.000000 1 0 0
11.563024 2.587271 12.110299 16.942752 0.220128 0.774490 0.052515 -0.004002 1296080.000000 1 0 0
-7.037976 -2.415129 -5.755301 9.406882 0.330565 2.229153 0.009573 -0.005171 -88682.100000 1 0 0
7.476724 -7.335629 10.879999 15.102557 -0.775873 0.766406 0.010987 -0.003204 79087.500000 1 0 0
-5.532776 -2.021929 -10.920401 12.407859 0.350368 2.646911 0.007993 -0.007351 65010.800000 1 0 0
0.781224 -6.110729 4.441599 7.594677 -1.443641 0.946125 0.003930 -0.002976 821321.000000 1 0 0
-4.803376 -9.396929 7.433899 12.908817 1.098257 0.957119 0.001094 -0.000375 2825300.000000 1 0 0
-8.767976 9.390971 1.557999 12.941990 -0.819693 1.450120 0.011665 -0.007423 973117.000000 1 0 0
-8.215176 7.198071 -9.052401 14.186166 -0.719505 2.262843 0.007262 0.002299 -1372550.000000 1 0 0
-1.203776 -10.613929 -0.163501 10.683225 1.457864 1.586101 0.011917 -0.002936 234595.000000 1 0 0
-3.897876 10.317971 7.697099 13.449881 -1.209595 0.961513 0.003422 -0.005969 1813690.000000 1 0 0
-7.422676 12.057871 2.035999 14.305022 -1.018994 1.427984 0.009571 -0.006876 3910730.000000 1 0 0
-8.254176 -8.267129 -2.832001 12.020693 0.786182 1.808626 0.013743 -0.003292 1285480.000000 1 0 0
5.406624 4.529571 -8.072801 10.720015 0.697358 2.423495 0.000977 0.001468 849780.000000 1 0 0
-8.943776 -0.213029 -10.189401 13.559513 0.023814 2.421065 0.010501 -0.005342 -1462600.000000 1 0 0
-15.285076 -2.351529 -1.482601 15.535808 0.152648 1.666373 0.012743 -0.010886 -1077730.000000 1 0 0
-7.188176 -5.804029 8.789999 12.752282 0.679262 0.810290 0.003905 0.000500 -1894530.000000 1 0 0
8.136824 3.415371 -0.979801 8.878777 0.397409 1.681375 0.003124 0.001413 861014.000000 1 0 0
11.886124 7.236271 -5.870901 15.103346 0.546865 1.970033 0.007565 -0.003206 381377.000000 1 0 0
3.750724 13.342971 -9.612301 16.867102 1.296767 2.177162 0.014681 -0.011041 940771.000000 1 0 0
-9.704176 5.407671 -0.476601 11.119401 -0.508394 1.613672 0.007031 -0.005163 1092240.000000 1 0 0
11.367124 -1.236229 -5.207101 12.563983 -0.108329 1.998131 0.013466 -0.002141 228120.000000 1 0 0
10.587524 1.659971 -1.262001 10.790914 0.155520 1.688015 0.003669 0.000248 167945.000000 1 0 0
14.607424 4.987271 4.761399 16.153038 0.329011 1.271584 0.012903 -0.007433 1594480.000000 1 0 0
0.886224 -0.809229 10.282299 10.352097 -0.740016 0.116190 0.003210 -0.001295 3288590.000000 1 0 0
-7.938776 1.314571 -12.545601 14.904508 -0.164100 2.571280 0.006596 -0.004816 465818.000000 1 0 0
3.162124 -11.606229 -7.776201 14.323857 -1.304802 2.144664 -0.002368 -0.000011 1460590.000000 1 0 0
2.870824 4.943471 -6.779601 8.868062 1.044666 2.441056 0.003766 0.000128 -1861270.000000 1 0 0
6.527924 7.982871 0.503099 10.324395 0.885331 1.522048 0.007926 -0.003364 738055.000000 1 0 0
-9.103776 -5.404329 6.755999 12.559022 0.535727 1.002805 0.004819 0.000214 -2051790.000000 1 0 0
-0.349976 -6.873729 -11.835701 13.691400 1.519925 2.614876 0.000760 -0.000184 2488800.000000 1 0 0
6.391524 -13.346529 -4.622601 15.503221 -1.124179 1.873572 0.007849 -0.005067 2672230.000000 1 0 0
-3.254076 -0.330229 10.045299 10.564379 0.101135 0.314778 0.005161 0.000082 430899.000000 1 0 0
8.637324 8.514171 6.930599 13.968811 0.778218 1.051640 0.004701 0.001027 750094.000000 1 0 0
-7.885476 5.619871 -2.625101 10.032688 -0.619190 1.835533 0.008425 -0.005263 550060.000000 1 0 0
-5.404076 5.715771 -6.447301 10.170632 -0.813421 2.257399 0.006585 -0.001411 -1108860.000000 1 0 0
3.342324 -13.527529 2.570999 14.169517 -1.328572 1.388340 0.014154 -0.007104 -1467840.000000 1 0 0
-11.266876 -7.046229 6.564299 14.821668 0.558882 1.111982 0.018949 -0.000969 -832128.000000 1 0 0
-12.902276 -3.725229 -6.736801 15.024331 0.281082 2.035763 0.010322 -0.006408 1177410.000000 1 0 0
6.110224 0.354171 -7.329401 9.548843 0.057899 2.445837 -0.000844 0.000700 126348.000000 1 0 0
-1.378976 2.074471 -2.540201 3.557756 -0.984132 2.365976 0.006131 -0.002956 3080730.000000 1 0 0
7.547224 0.939771 -5.005801 9.105043 0.123881 2.152901 0.000937 0.001066 247062.000000 1 0 0
3.737124 -4.477029 10.851199 12.319026 -0.875233 0.493144 0.001111 0.001234 -231722.000000 1 0 0
6.039124 -2.576429 2.070599 6.884504 -0.403244 1.265304 -0.000214 -0.001558 -1522230.000000 1 0 0
-6.258076 7.839671 1.081799 10.089313 -0.897119 1.463368 0.005009 -0.003632 1288420.000000 1 0 0
6.075124 -3.350429 7.973799 10.569484 -0.503994 0.716031 0.004929 -0.002487 917.097000 1 0 0
6.768124 -2.291329 -7.845701 10.611914 -0.326436 2.402870 0.001042 -0.001154 660395.000000 1 0 0
12.070024 -8.134329 -5.874201 15.695829 -0.593013 1.954387 0.025860 -0.009794 -440837.000000 1 0 0
5.508024 -9.615029 9.986399 14.916946 -1.050575 0.837306 -0.004140 -0.000157 2176330.000000 1 0 0
-6.634776 7.547871 -4.478801 11.002284 -0.849691 1.990050 0.005995 -0.001397 2500080.000000 1 0 0
-1.456276 -7.510429 9.821299 12.449305 1.379273 0.661774 -0.000607 -0.000923 -446722.000000 1 0 0
10.094124 -9.213829 0.744699 13.687241 -0.739837 1.516361 0.006865 -0.004680 2278000.000000 1 0 0
10.972124 6.064971 9.866199 15.953472 0.504961 0.904046 0.004447 -0.006384 2130850.000000 1 0 0
-15.287476 -4.258629 -4.940901 16.620931 0.271682 1.872628 0.013943 -0.009558 1845590.000000 1 0 0
-4.752776 -4.558529 7.861799 10.255581 0.764540 0.697287 0.004034 -0.002188 -608082.000000 1 0 0
2.906724 10.833571 -11.100101 15.780607 1.308663 2.350968 0.003262 -0.005227 -163950.000000 1 0 0
9.912724 -1.365929 1.492499 10.117086 -0.136933 1.422733 0.002889 -0.002102 25210.900000 1 0 0
-1.585376 -2.709929 0.613499 3.198986 1.041461 1.377822 0.010254 -0.005054 1470940.000000 1 0 0
1.554824 2.883571 0.763899 3.363927 1.076282 1.341712 0.001088 0.000172 -779548.000000 1 0 0
-8.952276 -2.395529 4.305999 10.218778 0.261463 1.135829 0.003358 -0.002469 3057900.000000 1 0 0
9.887224 4.886571 -2.699901 11.354525 0.459022 1.810878 0.003279 0.000022 1050700.000000 1 0 0
2.673024 8.507571 2.464099 9.251790 1.266369 1.301205 -0.002220 -0.000356 1128990.000000 1 0 0
-8.173576 -0.127029 2.414199 8.523604 0.015540 1.283629 0.002534 -0.004973 2019590.000000 1 0 0
6.844524 2.080471 13.645899 15.407350 0.295087 0.482851 0.015119 -0.006283 -1684840.000000 1 0 0
6.919824 4.271971 3.687199 8.929118 0.553081 1.145115 -0.001713 0.002074 568759.000000 1 0 0
-0.282976 3.377071 7.658199 8.374527 -1.487198 0.416616 0.000182 0.002098 1670220.000000 1 0 0
2.604624 -10.175829 9.251099 13.996942 -1.320214 0.848729 -0.004711 -0.002670 2333470.000000 1 0 0
1.398524 -4.568429 6.899799 8.392475 -1.273727 0.605634 0.001499 -0.001508 717238.000000 1 0 0
-0.139376 10.775571 -1.995201 10.959616 -1.557863 1.753867 0.001543 -0.001503 1923610.000000 1 0 0
8.712824 5.551871 7.979299 13.053957 0.567329 0.913151 -0.000293 0.000368 -306209.000000 1 0 0
2.641824 11.409171 -2.921101 12.069849 1.343254 1.815240 0.007211 -0.004105 1778470.000000 1 0 0
1.540324 2.391571 -6.794601 7.366058 0.998605 2.745098 0.004037 -0.003110 2087350.000000 1 0 0
-13.583976 -2.156829 3.603699 14.218402 0.157463 1.314548 0.007250 -0.007613 1460920.000000 1 0 0
-0.939676 -10.680329 -5.362701 11.987951 1.483040 2.034586 0.004829 -0.002478 1753430.000000 1 0 0
-5.653676 2.892871 0.464299 6.367757 -0.472948 1.497817 0.008983 -0.004264 2136960.000000 1 0 0
3.750324 7.228271 -5.039801 9.576661 1.092190 2.124991 0.003554 -0.001422 -1469980.000000 1 0 0
2.909624 9.670671 -6.487101 12.002928 1.278541 2.141780 0.006473 -0.001416 1411260.000000 1 0 0
-12.214076 1.624571 -2.532601 12.579227 -0.132232 1.773514 0.009718 -0.007756 601880.000000 1 0 0
-2.558776 9.530171 -5.694601 11.392979 -1.308490 2.094204 0.002433 -0.000581 1487360.000000 1 0 0
-1.303376 3.309471 1.727099 3.954018 -1.195618 1.118763 0.003100 -0.001215 -262433.000000 1 0 0
12.804124 3.748471 9.711899 16.502049 0.284797 0.941561 0.040490 -0.007136 11850.000000 1 0 0
-2.623576 -9.583729 11.665099 15.323366 1.303590 0.705539 -0.002824 -0.005609 1722250.000000 1 0 0
-0.538776 -8.935229 -7.559901 11.716685 1.510571 2.272114 0.001427 -0.000753 1459820.000000 1 0 0
2.379024 7.658971 -0.488201 8.034795 1.269626 1.631595 -0.001061 0.000903 2078860.000000 1 0 0
-11.803776 -1.386129 -5.491701 13.092336 0.116896 2.003646 0.010671 -0.004214 317082.000000 1 0 0
-6.264176 -7.164129 -10.907601 14.475510 0.852317 2.424198 0.009064 -0.006795 1435950.000000 1 0 0
-4.773976 -2.362829 -1.350201 5.495166 0.459591 1.819045 0.010443 -0.004502 -2582910.000000 1 0 0
-10.512076 3.773271 4.468199 12.029385 -0.344622 1.190236 0.007740 -0.007818 2729920.000000 1 0 0
6.744424 9.393171 -3.607501 12.113339 0.948083 1.873196 0.005081 -0.000993 354883.000000 1 0 0
1.237824 -2.648129 -11.502301 11.867928 -1.133540 2.892725 0.005530 -0.005254 -1004750.000000 1 0 0
1.267024 8.879171 7.491399 11.686150 1.429057 0.874932 -0.007477 0.003572 938425.000000 1 0 0
10.304624 0.456571 10.451099 14.683978 0.044278 0.778831 0.009416 -0.002256 471073.000000 1 0 0
-5.273976 -0.858629 -3.880301 6.603696 0.161389 2.198880 0.008312 -0.005080 923427.000000 1 0 0
11.759124 5.631771 5.385299 14.106569 0.446648 1.179098 0.006040 0.000179 1637540.000000 1 0 0
9.915524 -3.481229 3.569599 11.098586 -0.337644 1.243350 0.007776 -0.005448 -2500060.000000 1 0 0
7.315324 -1.696329 -3.473201 8.273731 -0.227860 2.004006 -0.000063 -0.000568 -2992480.000000 1 0 0
2.380424 9.277271 10.377399 14.121777 1.319628 0.745350 -0.004493 0.001441 1461370.000000 1 0 0
2.402924 -10.786329 6.377999 12.759225 -1.351601 1.047344 -0.001231 -0.001563 1061910.000000 1 0 0
5.991424 -7.627429 -1.320001 9.788628 -0.904953 1.706059 -0.001526 -0.005691 35428.200000 1 0 0
-0.262276 -5.578329 -2.248301 6.020083 1.523814 1.953540 0.010070 -0.003667 1189080.000000 1 0 0
7.678424 -5.098929 2.725899 9.611857 -0.586195 1.283253 -0.000965 -0.004597 1509100.000000 1 0 0
-2.668076 -12.426229 4.719299 13.557344 1.359294 1.215254 0.012511 -0.003041 -250587.000000 1 0 0
4.813324 -10.262429 -1.120601 11.390403 -1.132235 1.669337 -0.000127 -0.004696 1172340.000000 1 0 0
1.014224 0.099871 1.072999 1.479849 0.098154 0.759655 0.001074 -0.000100 -2374800.000000 1 0 0
-1.520976 8.578471 2.458199 9.052418 -1.395318 1.295791 -0.001328 0.001832 589664.000000 1 0 0
-7.556576 0.590871 -3.049001 8.169906 -0.078034 1.953251 0.005809 -0.003330 -1037920.000000 1 0 0
4.408624 -6.371429 12.902099 15.049759 -0.965503 0.540802 0.003994 -0.001264 -954294.000000 1 0 0
-5.040176 13.049171 8.337899 16.285110 -1.202204 1.033290 0.009328 -0.014144 2913260.000000 1 0 0
0.657624 6.132971 8.106199 10.186082 1.463977 0.650450 -0.006065 0.004700 -671983.000000 1 0 0
7.986424 -0.579529 -0.838201 8.051174 -0.072437 1.675094 0.000803 -0.000766 3238160.000000 1 0 0
2.453924 -9.159329 -2.470801 9.798975 -1.309029 1.825697 0.000604 -0.003126 1433100.000000 1 0 0
-7.036676 12.177771 4.923699 14.901534 -1.046838 1.234052 0.007113 -0.008041 189594.000000 1 0 0
-15.018776 0.198671 0.112599 15.020512 -0.013227 1.563300 0.012406 -0.012131 925292.000000 1 0 0
6.920424 -0.486729 3.929299 7.972990 -0.070217 1.055461 -0.001873 0.002635 1206720.000000 1 0 0
-4.218576 -5.091429 5.126299 8.366479 0.878879 0.911300 0.008009 -0.003613 -530835.000000 1 0 0
2.954724 5.125571 6.826899 9.033738 1.047860 0.714057 -0.006046 0.003408 46515.200000 1 0 0
2.129424 -7.235229 1.803299 7.754668 -1.284565 1.336104 0.001619 -0.004312 2395780.000000 1 0 0
-2.437376 6.358171 -1.669801 7.011089 -1.204729 1.811273 0.002060 -0.000207 1888890.000000 1 0 0
2.599124 -3.878529 -6.637501 8.115100 -0.980399 2.528582 0.003915 -0.005720 -62642.300000 1 0 0
-5.085176 0.857471 -12.180801 13.227478 -0.167050 2.741105 0.003128 -0.002828 432424.000000 1 0 0
-7.508776 6.335071 -11.837401 15.383072 -0.700819 2.448867 0.008554 -0.003599 2557450.000000 1 0 0
-1.136276 11.123371 -9.055601 14.388343 -1.468997 2.251539 0.005473 -0.000238 1401820.000000 1 0 0
4.588724 5.874671 -0.686701 7.485968 0.907684 1.662657 -0.000890 -0.000042 2611290.000000 1 0 0
-2.571076 13.447271 3.536199 14.140164 -1.381880 1.318031 0.003026 -0.000846 745312.000000 1 0 0
1.325124 -7.843629 10.269599 12.990117 -1.403434 0.659057 -0.000234 -0.001201 -80655.400000 1 0 0
13.003624 -0.314329 -1.212901 13.063850 -0.024168 1.663774 0.009449 -0.002516 1057360.000000 1 0 0
-0.963576 3.077071 -5.413401 6.300933 -1.267322 2.604389 0.003580 -0.004951 1399000.000000 1 0 0
6.658524 1.166671 7.236199 9.902507 0.173454 0.751385 -0.004433 0.001343 1450520.000000 1 0 0
5.504824 -6.129529 6.921399 10.760111 -0.839041 0.872066 0.000922 -0.000856 188179.000000 1 0 0
12.154024 -4.890229 2.647599 13.365793 -0.382535 1.371390 0.012503 -0.007243 -885983.000000 1 0 0
4.307124 -9.246929 13.820899 17.177726 -1.134890 0.635824 -0.006247 0.002944 -905782.000000 1 0 0
-2.807176 -4.413829 -1.362401 5.405391 1.004329 1.825589 0.014328 -0.005437 2040300.000000 1 0 0
-9.369276 -5.180529 -7.509001 13.076938 0.505088 2.182444 0.009821 -0.005137 661338.000000 1 0 0
-10.658576 -3.153329 7.860199 13.613649 0.287644 0.955285 0.009376 -0.001126 -248939.000000 1 0 0
12.037524 -0.562029 1.526599 12.146949 -0.046656 1.444786 0.006343 -0.005289 67616.200000 1 0 0
-7.629376 4.735071 4.374099 9.988043 -0.555456 1.117498 0.008003 -0.005884 2468320.000000 1 0 0
-1.023676 10.721671 6.899399 12.790772 -1.475608 1.001067 -0.004424 0.001732 848143.000000 1 0 0
7.469324 -9.969929 1.937599 12.607322 -0.927817 1.416496 0.000190 -0.005533 2875550.000000 1 0 0
-4.284776 -1.767929 1.677899 4.929525 0.391327 1.223478 0.009676 -0.003115 1631880.000000 1 0 0
6.778124 -14.857529 -0.903301 16.355583 -1.142792 1.626053 0.018226 -0.006649 -1542190.000000 1 0 0
-10.484176 1.729671 2.354299 10.883585 -0.163506 1.352756 0.000988 -0.004534 1084750.000000 1 0 0
-3.001376 8.262671 -11.316601 14.329879 -1.222371 2.481150 0.000023 -0.001392 -1204100.000000 1 0 0
-1.355676 -5.244629 -6.885201 8.760707 1.317845 2.474976 0.005188 -0.006190 -131511.000000 1 0 0
12.861024 -0.406729 6.347399 14.347852 -0.031614 1.112530 0.018332 -0.005941 3197630.000000 1 0 0
5.979124 -13.192729 3.670399 14.942217 -1.145273 1.322617 0.002884 -0.002955 947957.000000 1 0 0
-5.558376 3.459171 -4.900901 8.178034 -0.556681 2.213393 0.008196 -0.003529 2076630.000000 1 0 0
-4.364176 8.108671 3.316299 9.787462 -1.077049 1.225122 0.003663 -0.001994 -432766.000000 1 0 0
14.087524 6.223271 -4.104201 15.938379 0.415978 1.831235 0.020096 0.004082 -1757380.000000 1 0 0
-6.700176 -8.480729 5.418099 12.090116 0.902154 1.106110 0.012489 -0.001638 -983249.000000 1 0 0
1.823324 11.350171 2.567499 11.778920 1.411514 1.351058 -0.000759 -0.001537 1963930.000000 1 0 0
-7.408676 7.320871 5.996199 12.018237 -0.779437 1.048438 0.005209 -0.006540 -353580.000000 1 0 0
-17.535476 -3.932529 5.265299 18.726480 0.220611 1.285785 0.054566 -0.014752 -133849.000000 1 0 0
7.507824 -13.187729 -8.543401 17.414744 -1.053253 2.083557 0.023111 -0.007536 -798459.000000 1 0 0
-2.300076 12.798671 -2.826801 13.307409 -1.392982 1.784850 0.001902 -0.000119 814315.000000 1 0 0
-5.521776 14.009571 -5.672801 16.091574 -1.195349 1.931072 0.004401 0.003535 3114580.000000 1 0 0
-5.647976 2.466771 7.368999 9.606599 -0.411783 0.696524 0.006038 0.000609 1827110.000000 1 0 0
-7.372376 5.177471 1.462399 9.126705 -0.612254 1.409870 0.010544 -0.006255 2092960.000000 1 0 0
10.679624 -5.748929 -4.923101 13.089747 -0.493822 1.956384 0.011205 -0.007364 2668910.000000 1 0 0
-9.538476 -0.759229 6.794999 11.735883 0.079429 0.953303 0.004239 -0.001390 867731.000000 1 0 0
-11.334676 -4.596429 -2.553101 12.494813 0.385255 1.776578 0.002500 -0.003676 -650709.000000 1 0 0
6.503824 -4.283829 13.569599 15.645605 -0.582441 0.521023 0.008269 -0.004847 908023.000000 1 0 0
0.212924 10.207471 -11.614101 15.463672 1.549940 2.420458 0.004105 -0.001308 -2389980.000000 1 0 0
-11.821676 -3.150629 1.478699 12.323353 0.260459 1.450515 0.002031 -0.004812 4333520.000000 1 0 0
5.277524 5.854771 5.313699 9.506104 0.837205 0.977644 -0.002642 0.003175 -4548860.000000 1 0 0
-7.156476 0.019171 8.063699 10.781408 -0.002679 0.725864 0.004265 0.000359 416443.000000 1 0 0
1.727524 2.061271 9.583499 9.953725 0.873259 0.273597 -0.002992 -0.000587 2475280.000000 1 0 0
10.510024 -4.963129 -1.943101 11.784265 -0.441184 1.736442 0.004094 -0.005826 1340760.000000 1 0 0
-9.669276 -2.417429 -1.700301 10.110879 0.244989 1.739765 0.003952 -0.005248 -1873310.000000 1 0 0
-2.031676 -5.254429 -9.891001 11.382822 1.201843 2.623855 0.009055 -0.006080 223572.000000 1 0 0
7.678624 -1.578929 6.565599 10.225526 -0.202800 0.873589 0.000058 -0.001504 1796130.000000 1 0 0
1.486024 -11.817829 -2.602301 12.191855 -1.445709 1.785897 0.004735 -0.002837 -3497040.000000 1 0 0
-0.753676 -1.477929 4.752699 5.033930 1.099217 0.335843 0.009248 -0.002923 2118080.000000 1 0 0
7.590924 1.616671 9.930599 12.603672 0.209839 0.663384 0.001069 -0.000085 892754.000000 1 0 0
-3.938776 10.667271 -7.838901 13.811336 -1.217086 2.174348 0.002505 0.001151 2455410.000000 1 0 0
-9.496376 12.628771 6.347799 17.028258 -0.926040 1.188793 0.025639 -0.012242 1001220.000000 1 0 0
-2.620076 -2.464929 -11.020301 11.592571 0.754897 2.826071 0.009871 -0.009127 -2007040.000000 1 0 0
1.180324 -11.928529 11.143499 16.366446 -1.472168 0.821840 -0.013182 0.005906 1943560.000000 1 0 0
1.374124 3.400171 -2.065001 4.208754 1.186731 2.083625 0.000573 -0.000959 2840200.000000 1 0 0
-1.951876 -9.428729 -12.072801 15.442256 1.366666 2.468348 0.000509 -0.001733 -222926.000000 1 0 0
1.337124 -2.777829 1.589599 3.468582 -1.122175 1.094732 0.007271 -0.002339 3412810.000000 1 0 0
-1.073576 -2.294729 -6.615301 7.083823 1.133203 2.775855 0.008101 -0.008007 -378533.000000 1 0 0
1.877324 5.885571 4.005599 7.362684 1.262027 0.995551 -0.006947 0.003528 -459107.000000 1 0 0
-10.973976 8.531071 3.569099 14.350811 -0.660802 1.319455 0.013292 -0.011621 2179950.000000 1 0 0
-16.383476 -1.492429 3.929899 16.914187 0.090843 1.336310 0.028193 -0.013571 839772.000000 1 0 0
-12.222676 0.279871 6.712099 13.947200 -0.022894 1.068715 0.003404 -0.000014 -45233.200000 1 0 0
-5.166776 3.038171 4.603599 7.557723 -0.531565 0.915839 0.006055 -0.001241 2069560.000000 1 0 0
5.130624 -6.042829 4.066799 8.909430 -0.866858 1.096784 0.000896 -0.004488 1603170.000000 1 0 0
9.991324 3.429671 6.263399 12.280854 0.330662 1.035596 -0.005327 0.002616 1832510.000000 1 0 0
-12.158776 5.785171 3.108999 13.819186 -0.444103 1.343877 0.008170 -0.009571 358133.000000 1 0 0
-4.935176 12.345271 -1.272301 13.355914 -1.190495 1.666202 0.003739 -0.001051 1542030.000000 1 0 0
-1.676176 -12.194929 10.305899 16.054202 1.434204 0.873765 0.002802 -0.000529 2032110.000000 1 0 0
5.119924 6.355271 13.793599 16.027054 0.892639 0.534262 0.011705 -0.007280 1622650.000000 1 0 0
12.882624 -3.749529 -5.822001 14.625891 -0.283229 1.980199 0.008991 -0.004398 2321570.000000 1 0 0
3.579824 -2.517429 6.398199 7.751745 -0.612888 0.599907 -0.000353 0.000678 1197690.000000 1 0 0
7.218324 -11.752329 -0.622401 13.806116 -1.019998 1.615893 0.003570 -0.003321 -482038.000000 1 0 0
-6.092376 -6.619629 -4.099701 9.886560 0.826851 1.998381 0.014004 -0.005367 480905.000000 1 0 0
0.349224 -8.822229 5.080899 10.186718 -1.531232 1.048609 0.007902 -0.003313 1842310.000000 1 0 0
-10.296576 2.521871 -0.365601 10.607213 -0.240195 1.605270 0.003302 -0.003937 -782985.000000 1 0 0
-1.786176 8.959571 -0.340301 9.142218 -1.374017 1.608028 0.001373 0.000617 -440135.000000 1 0 0
-3.543476 2.291171 -6.560001 7.799955 -0.573973 2.569982 0.010906 -0.006985 73371.700000 1 0 0
-12.722176 3.109671 6.327399 14.545095 -0.239729 1.120736 0.006225 -0.010460 195164.000000 1 0 0
11.307724 1.651971 7.952399 13.922438 0.145066 0.962838 0.007447 -0.004940 -2183460.000000 1 0 0
6.030124 2.681971 -3.241701 7.352822 0.418490 2.027373 -0.001175 0.000750 797818.000000 1 0 0
10.513024 -2.375729 6.269799 12.469088 -0.222247 1.043930 0.008205 -0.003429 3187670.000000 1 0 0
-0.836476 11.089671 3.996699 11.817534 -1.495511 1.225792 -0.000175 0.000848 1500280.000000 1 0 0
-1.576976 -12.188829 7.448999 14.371569 1.442132 1.025917 0.010189 0.000109 -811475.000000 1 0 0
8.106724 8.701671 -7.750801 14.195527 0.820779 2.148382 0.011476 -0.003495 856227.000000 1 0 0
-4.760976 -5.971029 -8.723201 11.593718 0.897676 2.422506 0.010244 -0.006618 -309455.000000 1 0 0
-8.600976 -5.340629 -11.621701 15.413080 0.555669 2.424950 0.013471 -0.004164 1293980.000000 1 0 0
6.102424 -0.676629 -9.961801 11.701918 -0.110428 2.589248 0.001418 0.001416 -1869190.000000 1 0 0
-11.211476 -5.471229 -5.295401 13.552594 0.454004 1.972220 0.004298 -0.006188 102299.000000 1 0 0
3.926424 8.927871 -2.772801 10.139631 1.156462 1.847786 0.005910 -0.002876 1992100.000000 1 0 0
11.671024 -10.378929 -4.060401 16.137591 -0.726867 1.825141 0.019792 -0.007492 1006350.000000 1 0 0
4.081124 -11.215529 4.106099 12.621558 -1.221809 1.239442 0.000879 -0.004172 -718875.000000 1 0 0
-0.949576 0.831671 3.162199 3.404831 -0.719302 0.379800 0.006160 -0.001468 -1255280.000000 1 0 0
-10.615576 -5.101029 4.542599 12.623238 0.447945 1.202678 0.010398 -0.001990 3242880.000000 1 0 0
4.653824 -8.654729 2.815999 10.222146 -1.077430 1.291707 -0.000748 -0.004863 3527640.000000 1 0 0
-3.681776 -5.797929 2.677699 7.371670 1.005027 1.199051 0.011665 -0.003270 1240220.000000 1 0 0
9.998324 5.041671 12.322899 16.650489 0.467043 0.737589 0.022739 -0.003031 331204.000000 1 0 0
1.641324 -12.336229 -5.321001 13.534753 -1.438524 1.974836 -0.001904 -0.001166 425819.000000 1 0 0
9.849624 -10.625029 -1.744101 14.592746 -0.823252 1.690601 0.006771 -0.004972 2885210.000000 1 0 0
9.571824 -4.498829 -9.248001 14.049370 -0.439367 2.289288 0.017116 -0.000332 3032260.000000 1 0 0
-7.444076 -3.079429 -13.089101 15.369506 0.392239 2.589880 0.010181 -0.004095 2343280.000000 1 0 0
0.436424 6.240771 -2.531901 6.748942 1.500979 1.955361 -0.000245 -0.001590 2526130.000000 1 0 0
-6.052276 -9.523929 1.059199 11.333894 1.004696 1.477206 0.012653 -0.001958 482044.000000 1 0 0
-8.993076 -4.058429 0.585799 9.883796 0.423921 1.511493 0.000173 -0.002998 3901560.000000 1 0 0
1.836524 3.859771 11.998099 12.736759 1.126686 0.342239 -0.002695 -0.005328 726198.000000 1 0 0
6.595324 4.407471 9.579999 12.437865 0.589113 0.691597 -0.005428 0.003012 1000870.000000 1 0 0
-8.347376 9.870371 -3.667401 13.436991 -0.868804 1.847237 0.002816 -0.001929 2186720.000000 1 0 0
16.467124 2.139871 -6.158301 17.710729 0.129224 1.925930 0.043827 0.002183 696001.000000 1 0 0
-10.983776 2.607771 -5.047901 12.366289 -0.233104 1.991276 0.007913 -0.001636 2236470.000000 1 0 0
-13.784376 4.036271 1.397299 14.430972 -0.284852 1.473818 0.009466 -0.007023 168913.000000 1 0 0
-17.586476 10.337771 3.223199 20.652909 -0.531419 1.414091 0.065516 -0.020308 -1055440.000000 1 0 0
-14.387676 2.799771 -1.208801 14.707315 -0.192193 1.653080 0.016316 -0.008422 3400.850000 1 0 0
-14.473176 5.097671 5.037899 16.150526 -0.338647 1.253568 0.006795 -0.010716 1042810.000000 1 0 0
-17.686876 7.463671 3.025299 19.434104 -0.399318 1.414491 0.044181 -0.012960 -1761790.000000 1 0 0
-14.857576 12.496871 -3.488501 19.725338 -0.699311 1.748585 0.056499 -0.023463 -490431.000000 1 0 0
-8.530776 12.482571 -9.619201 17.919758 -0.971288 2.137428 0.015134 -0.012606 2665530.000000 1 0 0
-12.496976 8.893471 -9.686101 18.140804 -0.618502 2.134050 0.017095 -0.001565 -1199440.000000 1 0 0
-13.912376 -3.539329 -12.110601 18.781579 0.249117 2.271575 0.030803 -0.005952 -1617580.000000 1 0 0
-14.874376 5.667571 -7.616801 17.646078 -0.364046 2.017109 0.034427 -0.000138 1312920.000000 1 0 0
-10.903476 13.741971 -8.383601 19.442539 -0.900066 2.016617 0.026631 -0.014797 769558.000000 1 0 0
-10.883076 13.419371 3.864499 17.704666 -0.889386 1.350749 0.030753 -0.011973 -21093.800000 1 0 0
-15.277676 3.256271 2.943999 15.895842 -0.209997 1.384515 0.008690 -0.007232 1239220.000000 1 0 0
-11.192376 9.563871 -12.320201 19.196985 -0.707100 2.267611 0.027195 -0.008271 -913174.000000 1 0 0
-13.122476 11.663771 -8.761201 19.621457 -0.726615 2.033659 0.034954 -0.025936 98768.000000 1 0 0
-8.884376 14.632371 -3.376601 17.448205 -1.025120 1.765546 0.019316 -0.015385 2300570.000000 1 0 0
-16.764476 8.164771 -4.022701 19.075986 -0.453216 1.783269 0.043904 -0.011693 -568919.000000 1 0 0
-16.945376 6.651971 0.278299 18.206370 -0.374071 1.555510 0.029273 -0.007611 574050.000000 1 0 0
-10.497676 2.765471 -12.476101 16.537899 -0.257584 2.425528 0.018948 -0.007135 562724.000000 1 0 0
-16.934276 0.856071 2.199399 17.097950 -0.050510 1.441804 0.026149 -0.015226 1031380.000000 1 0 0
-12.636376 1.170871 -6.912601 14.451055 -0.092395 2.069566 0.015653 -0.005152 2580020.000000 1 0 0
-12.358876 8.958271 -5.396201 16.189855 -0.627207 1.910606 0.019457 -0.003126 -895930.000000 1 0 0
-9.577076 13.861471 1.219199 16.892223 -0.966195 1.498558 0.027486 -0.006792 -856433.000000 1 0 0
-12.290376 11.064271 2.734999 16.761612 -0.732947 1.406893 0.026176 -0.010753 1356100.000000 1 0 0
-12.610876 6.744571 -3.644801 14.758320 -0.491115 1.820344 0.007004 0.000267 1243650.000000 1 0 0
-16.059176 3.522371 -9.258401 18.868551 -0.215918 2.083665 0.057700 -0.009269 -1460550.000000 1 0 0
-15.145276 5.865471 -4.697401 16.907061 -0.369493 1.852338 0.024419 -0.001589 1705390.000000 1 0 0
-17.784676 5.093371 7.494999 19.960264 -0.278925 1.185864 0.008910 -0.013518 -193521.000000 1 0 0
-15.684276 10.075271 -2.100801 18.759556 -0.571000 1.683017 0.039537 -0.010500 -747620.000000 1 0 0
-8.869676 9.928471 -8.332001 15.705665 -0.841663 2.129998 0.008203 -0.002412 568217.000000 1 0 0
-17.049076 4.118971 -1.376601 17.593520 -0.237053 1.649121 0.027638 -0.008661 187096.000000 1 0 0
-10.201976 5.308971 -4.559601 12.371558 -0.479824 1.948251 0.007155 -0.000729 58925.000000 1 0 0
-18.219476 2.818471 5.916599 19.362314 -0.153479 1.260256 0.045583 -0.018699 -150620.000000 1 0 0
-10.404376 10.039971 -5.753601 15.561362 -0.767576 1.949522 0.006383 -0.007559 -372700.000000 1 0 0
-15.393076 0.353071 -5.921801 16.496641 -0.022933 1.937961 0.028155 -0.008734 865365.000000 1 0 0
-16.507376 -4.231829 -8.857501 19.205654 0.250955 2.050135 0.039481 -0.018750 287946.000000 1 0 0
-10.045276 9.612471 -1.123901 13.948846 -0.763385 1.651457 0.005365 -0.002001 1054100.000000 1 0 0
-17.369076 -3.076929 -3.196501 17.926793 0.175331 1.750064 0.034945 -0.015067 -127528.000000 1 0 0
-12.034976 5.068971 -11.563001 17.442422 -0.398636 2.295514 0.023885 -0.001873 1299440.000000 1 0 0
-16.538776 7.072671 5.761099 18.887669 -0.404106 1.260838 0.032568 -0.010690 -948269.000000 1 0 0
-12.165376 5.989371 -8.797301 16.163584 -0.457492 2.146311 0.017112 0.001465 2034400.000000 1 0 0
-14.551876 8.311471 -0.095701 16.758484 -0.518945 1.576507 0.031666 -0.009009 1314940.000000 1 0 0
-15.063876 11.793371 3.868499 19.518433 -0.664221 1.371278 0.043211 -0.012403 2209500.000000 1 0 0
-17.380376 3.997371 -4.174301 18.316146 -0.226062 1.800720 0.043078 -0.007562 -334950.000000 1 0 0
-13.902876 13.420671 -0.875201 19.343483 -0.767752 1.616057 0.050797 -0.012181 -279864.000000 1 0 0
-10.146376 6.922971 -12.981401 17.871576 -0.598754 2.383824 0.012428 -0.008654 1363580.000000 1 0 0
-15.855776 -1.246429 -8.345701 17.961345 0.078449 2.054033 0.026866 -0.009964 -447194.000000 1 0 0
-11.571476 11.891471 -0.060801 16.592463 -0.799036 1.574461 0.031661 -0.008262 26377.000000 1 0 0
-11.941576 7.326671 -0.946301 14.041966 -0.550318 1.638238 0.008554 -0.002113 2451240.000000 1 0 0
-11.479376 0.168271 -11.652601 16.358102 -0.014658 2.363629 0.022278 -0.009209 -37424.400000 1 0 0
-19.159376 -1.382929 -4.653001 19.764731 0.072055 1.808446 0.050041 -0.026476 991267.000000 1 0 0
-18.046476 1.294571 -5.065301 18.788520 -0.071613 1.843769 0.034248 -0.015671 161119.000000 1 0 0
-13.257576 -0.162229 -9.423501 16.266284 0.012236 2.188699 0.023029 -0.008560 -1920590.000000 1 0 0
-6.186976 11.028471 -13.197601 18.277924 -1.059547 2.377559 -0.002303 -0.011374 -718593.000000 1 0 0
16.317924 5.635471 7.032599 18.641101 0.332530 1.183957 0.045106 -0.019583 198945.000000 1 0 0
14.854124 10.244171 -5.524001 18.870682 0.603747 1.867876 0.058140 -0.016987 220755.000000 1 0 0
2.451324 17.021171 4.385299 17.747115 1.427764 1.321111 0.011956 -0.008331 1835640.000000 1 0 0
-4.017576 18.137671 -5.870301 19.482722 -1.352811 1.876860 0.016203 -0.014791 2044030.000000 1 0 0
5.490724 14.567371 5.573599 16.535458 1.210344 1.226994 0.007229 -0.005034 -937381.000000 1 0 0
9.952424 6.070671 15.163199 19.126589 0.547717 0.655438 0.040691 -0.006225 -1110420.000000 1 0 0
4.669324 12.742271 -1.166601 13.620904 1.219548 1.656549 0.004859 -0.007751 1641820.000000 1 0 0
3.456524 13.826571 12.947499 19.255113 1.325826 0.833325 0.028198 -0.015143 -1340990.000000 1 0 0
-0.761876 12.441371 9.182099 15.481573 -1.509635 0.935894 -0.002068 -0.001636 1089080.000000 1 0 0
-7.722576 13.965671 8.273099 17.975603 -1.065677 1.092530 0.018642 -0.021688 1429840.000000 1 0 0
11.450524 12.821871 -4.173301 17.689865 0.841836 1.808956 0.057205 -0.011977 -450155.000000 1 0 0
-5.759076 16.181671 0.875099 17.198233 -1.228874 1.519891 0.015660 -0.004901 837201.000000 1 0 0
3.222224 10.652971 6.654499 12.967300 1.277073 1.031916 -0.005428 0.007289 1545090.000000 1 0 0
-1.140876 15.641671 2.492399 15.880035 -1.497987 1.413193 0.008177 -0.003952 -1976740.000000 1 0 0
9.839824 8.835871 9.492099 16.278658 0.731693 0.948256 0.016925 -0.002249 572372.000000 1 0 0
7.297724 12.253071 6.183499 15.544459 1.033631 1.161685 0.012004 -0.002776 1489670.000000 1 0 0
11.902724 14.036071 -1.542601 18.467966 0.867459 1.654422 0.046945 -0.003400 -2166550.000000 1 0 0
9.694224 15.881871 -1.131701 18.641152 1.022768 1.631543 0.034087 -0.004825 1138110.000000 1 0 0
10.181224 13.702471 3.014799 17.335053 0.931777 1.395994 0.028137 -0.010395 3445730.000000 1 0 0
-5.963176 14.591371 6.189799 16.934615 -1.182831 1.196614 0.006102 -0.012267 103045.000000 1 0 0
-1.027176 18.173171 -6.242901 19.243000 -1.514335 1.901200 0.022884 -0.006956 1910390.000000 1 0 0
-3.491276 15.778071 5.417699 17.043708 -1.353031 1.247313 0.007512 -0.005932 1887850.000000 1 0 0
6.998524 12.356871 10.674799 17.765780 1.055474 0.926216 0.022004 -0.003324 3068410.000000 1 0 0
1.511824 14.675871 6.136599 15.978881 1.468144 1.176624 0.000196 -0.001503 -30653.100000 1 0 0
17.522824 7.662471 -1.557901 19.188275 0.412230 1.652076 0.025683 0.007145 311752.000000 1 0 0
2.155824 16.291271 -3.350201 16.771313 1.439231 1.771907 0.008951 -0.005615 2027940.000000 1 0 0
6.790824 11.114671 0.513099 13.035125 1.022344 1.531423 0.013974 -0.007057 574337.000000 1 0 0
12.834124 9.296371 3.191099 16.165407 0.626881 1.372088 0.022221 0.001609 -402794.000000 1 0 0
6.045124 14.283471 -3.469201 15.893283 1.170430 1.790849 0.011029 -0.003363 1722840.000000 1 0 0
3.078824 16.532071 1.530499 16.885821 1.386672 1.480034 0.013373 -0.017725 183468.000000 1 0 0
2.839224 19.011071 -2.552401 19.390636 1.422546 1.702810 0.018531 -0.011812 -615012.000000 1 0 0
3.910224 11.971071 10.702299 16.526815 1.255082 0.866403 0.015783 -0.005847 3083140.000000 1 0 0
8.067424 11.560571 3.320999 14.483065 0.961522 1.339436 0.008999 -0.001439 1227660.000000 1 0 0
0.825624 12.629271 0.130299 12.656900 1.505515 1.560501 0.001609 -0.003701 -1626790.000000 1 0 0
12.038224 9.886471 -4.634401 16.252348 0.687569 1.859962 0.036016 -0.006715 841711.000000 1 0 0
-1.029476 16.353471 9.968299 19.179750 -1.507928 1.024261 0.004602 -0.010479 185763.000000 1 0 0
8.226224 14.754871 -8.033601 18.706035 1.062193 2.014697 0.055952 -0.010068 1176400.000000 1 0 0
14.569324 7.545771 -1.413401 16.468199 0.477882 1.656728 0.023843 0.004161 1204520.000000 1 0 0
12.576624 8.315871 5.962499 16.213469 0.584220 1.194208 0.014922 -0.000424 -2251050.000000 1 0 0
-2.981276 14.295171 10.124999 17.769511 -1.365192 0.964539 0.007616 -0.015051 1779690.000000 1 0 0
-4.615576 17.086271 -3.054401 17.960333 -1.306960 1.741691 0.018277 -0.013724 50048.300000 1 0 0
-7.070076 16.446571 -1.723901 17.984646 -1.164798 1.666798 0.019425 -0.008870 23730.500000 1 0 0
8.341024 11.252471 -1.890001 14.133750 0.932911 1.704921 0.013118 -0.005192 371513.000000 1 0 0
8.613724 12.951171 -4.104201 16.086440 0.983884 1.828783 0.033402 -0.003446 2453240.000000 1 0 0
2.538324 14.822271 -7.345701 16.736252 1.401191 2.025181 0.009617 -0.004728 -339572.000000 1 0 0
11.357924 11.285371 9.666699 18.703131 0.782194 1.027630 0.037521 -0.011749 1251010.000000 1 0 0
8.524024 15.552271 1.500299 17.798400 1.069422 1.486402 0.016900 -0.014683 106188.000000 1 0 0
6.013224 9.960771 7.691699 13.947690 1.027668 0.986674 0.004139 0.008268 4430760.000000 1 0 0
14.636324 11.355371 2.526999 18.696314 0.659831 1.435221 0.037852 0.001461 1892040.000000 1 0 0
12.233224 12.604971 1.118999 17.600831 0.800364 1.507177 0.039379 -0.003896 2783550.000000 1 0 0
5.276624 15.928171 8.152299 18.655010 1.250898 1.118532 0.019256 -0.004058 -503530.000000 1 0 0
11.651724 14.983371 5.174899 19.673426 0.909837 1.304624 0.048165 -0.012505 -78490.800000 1 0 0
5.962924 16.686871 1.697499 17.801394 1.227596 1.475294 0.007956 -0.023922 -1072570.000000 1 0 0
-0.638976 16.139371 -4.232401 16.697329 -1.531226 1.827070 0.010827 -0.003892 939804.000000 1 0 0
16.122924 6.352271 2.605499 17.523945 0.375315 1.421561 0.004544 0.003470 522557.000000 1 0 0
7.759224 16.685371 -3.207301 18.678703 1.135513 1.743360 0.033672 -0.007788 463473.000000 1 0 0
14.882024 8.107671 7.485999 18.526985 0.498839 1.154846 0.039948 -0.012105 432272.000000 1 0 0
2.059224 12.919471 8.543899 15.625343 1.412737 0.992262 0.003478 0.000408 538707.000000 1 0 0
15.963224 7.498471 -5.978601 18.622440 0.439143 1.897627 0.025633 0.000436 -1132070.000000 1 0 0
-2.895476 17.022471 0.630899 17.278493 -1.402312 1.534275 0.008468 -0.005523 1726270.000000 1 0 0
-2.928076 18.633571 4.509599 19.393816 -1.414931 1.336121 0.016122 -0.008828 3304680.000000 1 0 0
-0.738476 19.057371 0.786699 19.087892 -1.532066 1.529570 0.018928 -0.014767 -667103.000000 1 0 0
6.995824 16.789171 -6.113001 19.188189 1.175988 1.895029 0.037035 -0.004494 -773676.000000 1 0 0
11.047824 10.072371 0.793799 14.971212 0.739245 1.517750 0.018650 -0.001877 -1583760.000000 1 0 0
9.061524 8.757771 14.305199 19.064325 0.768353 0.722183 0.040548 -0.015004 527123.000000 1 0 0
6.404324 12.425371 -8.350901 16.283205 1.094886 2.109302 0.031791 -0.013353 1223260.000000 1 0 0
6.304024 9.012971 13.312699 17.268536 0.960447 0.690508 0.025301 -0.014626 833083.000000 1 0 0
16.862124 9.333471 2.812399 19.477025 0.505539 1.425894 0.036490 0.003753 -1393190.000000 1 0 0
2.623824 14.779671 -0.807701 15.032482 1.395098 1.624553 0.006294 -0.009292 3153500.000000 1 0 0
9.116724 12.947371 8.319199 17.887374 0.957299 1.087063 0.027205 -0.007618 2445350.000000 1 0 0
7.149524 9.409171 10.478799 15.794095 0.921023 0.845358 0.014909 -0.004257 -215811.000000 1 0 0
4.344024 15.844671 -5.355501 17.280207 1.303208 1.885906 0.022150 -0.003790 1038040.000000 1 0 0
0.182624 16.209871 -8.072301 18.109537 1.559531 2.032807 0.011215 -0.007190 393347.000000 1 0 0
-2.420276 15.625271 -2.023501 15.940558 -1.417123 1.698080 0.003657 -0.004698 -1219280.000000 1 0 0
13.338824 10.440171 7.651599 18.586780 0.664097 1.146512 0.042375 -0.010121 1769850.000000 1 0 0
-0.944676 15.934771 7.032499 17.443205 -1.511582 1.155823 0.007713 -0.006127 1569910.000000 1 0 0
13.409424 13.235271 6.648499 19.979680 0.778862 1.231564 0.049544 -0.012849 477988.000000 1 0 0
5.480224 17.373271 4.470199 18.757561 1.265235 1.330166 0.013836 -0.018261 1761040.000000 1 0 0
10.797424 9.485871 -1.917601 14.499770 0.720826 1.703435 0.014365 -0.001255 129148.000000 1 0 0
3.275024 12.847271 4.645999 14.048611 1.321193 1.233742 -0.003455 0.001333 497812.000000 1 0 0
-0.119776 18.188271 3.589199 18.539415 -1.564211 1.375968 0.010383 -0.008763 2833690.000000 1 0 0
-7.769776 15.960771 -5.688001 18.640520 -1.117761 1.880884 0.033713 -0.021072 -474844.000000 1 0 0
-12.382476 -9.148829 8.356599 17.517406 0.636329 1.073506 0.029562 -0.006750 -46543.700000 1 0 0
-13.265376 -11.701429 6.878799 18.979239 0.722839 1.199914 0.038744 -0.006208 -368694.000000 1 0 0
-6.602376 -12.422429 12.333399 18.708844 1.082277 0.851004 0.040209 -0.008071 -454212.000000 1 0 0
-1.867576 -10.720329 14.376399 18.030367 1.398318 0.647915 -0.002125 -0.001375 1049510.000000 1 0 0
-8.902676 2.851871 11.012999 14.445655 -0.310010 0.703822 0.012116 -0.001065 2179420.000000 1 0 0
0.575024 10.042371 15.085599 18.131607 1.513599 0.588083 0.008350 -0.014855 -150669.000000 1 0 0
1.047324 -6.744329 16.573999 17.924294 -1.416737 0.390637 0.006333 -0.016464 2692800.000000 1 0 0
6.124724 2.504971 17.619599 18.821196 0.388235 0.359260 0.032358 -0.019024 902267.000000 1 0 0
-5.095876 -2.815429 17.603299 18.541055 0.504754 0.319404 0.034765 -0.019458 563814.000000 1 0 0
-4.317876 8.248671 12.907599 15.915110 -1.088555 0.624889 -0.005047 -0.000835 -527093.000000 1 0 0
0.133724 -4.831729 18.637399 19.253990 -1.543127 0.253758 0.024029 -0.018788 1354200.000000 1 0 0
-11.731576 2.077771 11.161599 16.325694 -0.175292 0.817999 0.022197 -0.004987 -90224.900000 1 0 0
-3.367476 -5.880729 14.341599 15.862041 1.050746 0.441420 0.013093 -0.011547 1727240.000000 1 0 0
-7.507976 -2.169229 14.629799 16.586328 0.281264 0.490623 0.026205 -0.008418 1074500.000000 1 0 0
-6.095876 -1.196629 10.578399 12.267606 0.193837 0.530995 0.009675 -0.003157 372135.000000 1 0 0
-3.958676 2.436371 11.104299 12.037960 -0.551703 0.396443 0.002355 0.004595 668856.000000 1 0 0
-6.455976 6.438071 13.531699 16.316717 -0.784010 0.592916 -0.003488 0.001843 254136.000000 1 0 0
-8.945276 5.516471 12.464099 16.303471 -0.552602 0.700522 0.009056 -0.006312 -925501.000000 1 0 0
-12.400876 -2.184929 15.776399 20.185401 0.174402 0.673610 0.043843 -0.006007 885969.000000 1 0 0
-3.457776 -7.453029 16.936999 18.824606 1.136409 0.451654 0.030031 -0.013757 -2080470.000000 1 0 0
-0.485676 -5.234129 14.437399 15.364585 1.478271 0.349178 0.009947 -0.006462 1689510.000000 1 0 0
-14.414176 -2.114129 13.671899 19.978960 0.145632 0.817133 0.049352 -0.009361 -923315.000000 1 0 0
-6.467976 1.437971 12.088599 13.785380 -0.218764 0.501392 0.010446 -0.001237 3188500.000000 1 0 0
2.198724 -2.078629 14.648499 14.957728 -0.757328 0.203692 0.004174 -0.002023 1141850.000000 1 0 0
-12.534876 3.998871 9.123399 16.010949 -0.308813 0.964506 0.009311 -0.006668 -902673.000000 1 0 0
-9.129176 -3.054229 12.629199 15.879762 0.322851 0.651291 0.015489 -0.002059 312323.000000 1 0 0
-7.116276 -7.144829 15.300099 18.324382 0.787400 0.582739 0.032970 -0.014311 -921048.000000 1 0 0
-3.385876 5.935771 19.434899 20.601282 -1.052412 0.338111 0.044333 -0.016903 -1342080.000000 1 0 0
0.490624 5.615771 16.231099 17.182147 1.483652 0.334273 0.006654 -0.010323 1503040.000000 1 0 0
3.490924 1.630571 16.752499 17.189867 0.436974 0.226062 0.016688 -0.008816 2055930.000000 1 0 0
-11.628376 11.524371 7.817899 18.142486 -0.780906 1.125288 0.030842 -0.014671 564535.000000 1 0 0
0.519024 -9.430629 15.505699 18.155794 -1.515816 0.547102 -0.012095 0.004893 1593070.000000 1 0 0
-2.487776 -3.622229 18.735699 19.244116 0.968979 0.230376 0.037160 -0.025243 1976390.000000 1 0 0
-12.910976 2.460571 13.771599 19.036928 -0.188321 0.762060 0.023805 -0.009392 222885.000000 1 0 0
-5.429776 -0.453529 15.765399 16.680406 0.083333 0.332759 0.024859 -0.003970 2988810.000000 1 0 0
-4.534676 -5.925029 11.696299 13.873452 0.917548 0.567829 0.006642 -0.001211 360541.000000 1 0 0
2.433824 1.901871 13.973299 14.310615 0.663317 0.217551 0.004433 -0.005431 547307.000000 1 0 0
0.038724 3.390971 14.289199 14.686095 1.559377 0.233015 0.005793 -0.005435 -380879.000000 1 0 0
-13.134676 7.058471 11.967199 19.119508 -0.493112 0.894491 0.039928 -0.017568 1720840.000000 1 0 0
0.891124 1.650271 18.145899 18.242564 1.075673 0.102991 0.015968 -0.008598 993731.000000 1 0 0
-2.050376 6.488571 12.385499 14.131744 -1.264728 0.502397 -0.007432 -0.000906 -688346.000000 1 0 0
-13.591276 -2.642529 10.923699 17.636126 0.192032 0.902827 0.043968 -0.007610 -900477.000000 1 0 0
-2.575476 3.699471 13.397199 14.135208 -0.962643 0.324566 -0.000585 -0.000592 -471152.000000 1 0 0
3.446824 6.210471 16.291799 17.772824 1.064121 0.411132 0.015744 -0.009436 1537650.000000 1 0 0
-3.765076 12.340971 12.214599 17.767155 -1.274679 0.812780 0.007081 -0.016862 859151.000000 1 0 0
3.712324 -1.359929 17.151399 17.601172 -0.351146 0.226553 0.017189 -0.011842 -136223.000000 1 0 0
-15.938176 0.379771 8.982399 18.298993 -0.023823 1.057710 0.039001 -0.012592 -162485.000000 1 0 0
-4.695876 4.759171 15.095199 16.509573 -0.792092 0.416946 0.006954 -0.005733 395812.000000 1 0 0
-8.082776 -8.130229 10.520599 15.560041 0.788325 0.828300 0.019163 -0.005318 3590150.000000 1 0 0
-2.684776 -0.306229 14.681099 14.927708 0.113570 0.182021 0.018225 -0.002227 2376540.000000 1 0 0
-1.843676 0.978971 17.207699 17.333852 -0.488130 0.120720 0.024399 -0.011244 2350400.000000 1 0 0
-0.720376 -2.364929 14.467099 14.676811 1.275118 0.169250 0.010469 -0.002319 -285469.000000 1 0 0
5.134724 -8.225729 16.455299 19.099866 -1.012753 0.532501 0.003109 -0.008535 2486510.000000 1 0 0
-4.497476 9.989471 10.510099 15.181535 -1.147758 0.806132 0.002544 -0.009400 -1437790.000000 1 0 0
-6.262376 2.188471 15.151299 16.539910 -0.336197 0.412691 0.012045 0.000950 -560472.000000 1 0 0
-4.979076 6.897371 17.272099 19.253320 -0.945536 0.457641 0.015402 -0.004706 -82815.400000 1 0 0
-3.980676 9.181471 15.655299 18.580462 -1.161702 0.568763 0.005303 -0.007525 -137872.000000 1 0 0
-4.571076 -9.797829 18.214199 21.181342 1.134273 0.535689 0.046632 -0.021463 -143745.000000 1 0 0
-6.883976 -4.134929 11.200299 13.781635 0.540905 0.622030 0.009786 0.000251 389174.000000 1 0 0
-2.267076 -0.828429 19.564299 19.712629 0.350343 0.122752 0.036961 -0.011510 -466859.000000 1 0 0
-5.770376 -4.453129 15.307399 16.954175 0.657259 0.444400 0.023916 -0.011085 179748.000000 1 0 0
-13.061676 0.059171 9.626299 16.225798 -0.004530 0.935680 0.021871 -0.004123 48049.300000 1 0 0
-14.488076 8.785071 10.222599 19.788465 -0.545087 1.027928 0.039740 -0.019962 43133.000000 1 0 0
-8.398176 10.434971 12.738699 18.484924 -0.893129 0.810495 0.017174 -0.022756 895319.000000 1 0 0
-10.491276 7.202071 10.645099 16.590805 -0.601596 0.874179 0.022288 -0.011081 -702992.000000 1 0 0
-9.895276 -6.544229 14.867599 19.020750 0.584312 0.673487 0.044584 -0.013625 537100.000000 1 0 0
-0.649776 -13.441229 14.409199 19.715828 1.522492 0.751238 -0.009730 -0.006673 1311350.000000 1 0 0
3.896724 -5.633829 16.917299 18.251562 -0.965686 0.384740 0.013316 -0.014627 1766580.000000 1 0 0
-7.284876 9.312071 10.231699 15.635592 -0.906939 0.857427 0.007790 -0.009557 2151190.000000 1 0 0
-10.360876 -6.667529 11.857899 17.100101 0.571813 0.804543 0.039685 -0.014152 1188420.000000 1 0 0
-11.062276 -3.901629 10.698399 15.876158 0.339075 0.831368 0.029439 -0.001771 913706.000000 1 0 0
-10.100476 -10.264529 9.945299 17.501118 0.793454 0.966399 0.034775 -0.009294 1577510.000000 1 0 0
-9.878876 -3.644329 15.318499 18.588430 0.353413 0.602206 0.038018 -0.014266 3011900.000000 1 0 0
5.581224 -3.238429 16.080499 17.326856 -0.525761 0.381606 0.017541 -0.009779 915438.000000 1 0 0
-11.501776 0.544371 15.393599 19.223685 -0.047294 0.642230 0.032429 -0.000952 -519705.000000 1 0 0
-3.224376 3.038171 18.911699 19.423683 -0.755674 0.230110 0.039332 -0.010879 -1052210.000000 1 0 0
0.425124 7.330271 13.826799 15.655478 1.512865 0.488170 -0.001126 -0.008519 -200325.000000 1 0 0
-13.148376 -7.187429 12.351599 19.419086 0.500260 0.881422 0.042303 -0.023575 14225.000000 1 0 0
-1.506076 -1.024329 12.170799 12.306334 0.597266 0.148551 0.009236 0.000532 347479.000000 1 0 0
2.058424 -4.723729 13.152799 14.126105 -1.159845 0.373383 0.005801 -0.001672 1765770.000000 1 0 0
-14.665576 -4.008829 8.635199 17.484750 0.266831 1.054261 0.046484 -0.016412 -587627.000000 1 0 0
8.134824 1.026271 16.010899 17.988260 0.125495 0.473287 0.033996 -0.014576 157094.000000 1 0 0
-1.299576 11.352971 13.266299 17.509242 -1.456822 0.711054 0.004151 -0.011623 1606310.000000 1 0 0
2.792724 -12.271129 -13.842301 18.707999 -1.347023 2.403738 0.010512 0.011475 -238008.000000 1 0 0
0.794624 -10.673829 -14.102201 17.704071 -1.496487 2.492366 0.000070 0.009641 -1121530.000000 1 0 0
3.219524 -14.416529 -12.510001 19.357215 -1.351080 2.273484 0.016841 0.007993 -605440.000000 1 0 0
-5.273376 -10.298329 -15.988501 19.735659 1.097546 2.515175 0.014684 -0.014817 215517.000000 1 0 0
-1.135076 -12.068129 -15.322701 19.537484 1.477017 2.472318 0.009159 0.006597 52915.300000 1 0 0
5.676724 -15.075829 -11.935301 20.048871 -1.210672 2.208448 0.021477 -0.002161 1041780.000000 1 0 0
1.962624 -11.976529 -16.172701 20.219926 -1.408367 2.497825 0.012739 0.011475 -640716.000000 1 0 0
1.135224 -14.374229 -14.132101 20.189687 -1.491984 2.346147 0.026802 0.012923 -16748.400000 1 0 0
-1.263176 -10.601529 -15.919301 19.167999 1.452205 2.550827 0.006951 -0.005959 -271630.000000 1 0 0
-6.177776 -5.738529 -15.002601 17.209697 0.748554 2.629565 0.019139 -0.003141 -116066.000000 1 0 0
-6.309376 -7.719929 -16.779201 19.517866 0.885605 2.605447 0.015046 0.006984 246505.000000 1 0 0
4.939224 -12.651729 -11.495201 17.793308 -1.198594 2.273182 0.004773 0.006673 295748.000000 1 0 0
-1.692876 -15.488529 -13.252401 20.454498 1.461930 2.275616 0.025948 0.001296 59564.900000 1 0 0
15.736624 -7.420129 -8.744301 19.472094 -0.440605 2.036519 0.066504 -0.004958 365799.000000 1 0 0
19.220724 -3.627629 -4.079301 19.980907 -0.186541 1.776402 0.102937 -0.021814 1161590.000000 1 0 0
14.939924 -11.542629 -8.853101 20.852123 -0.657811 2.009279 0.055456 -0.014775 71863.800000 1 0 0
17.950524 -3.551529 -6.475201 19.410382 -0.195328 1.910910 0.110321 -0.011295 559658.000000 1 0 0
9.931524 -9.561229 -15.550501 20.781491 -0.766404 2.416271 0.103420 -0.009910 -64389.000000 1 0 0
1.283524 1.914571 -15.270001 15.442990 0.980215 2.991774 0.009577 -0.008130 341241.000000 1 0 0
4.834824 -4.428429 -13.920401 15.387140 -0.741554 2.701419 0.005486 -0.002208 680038.000000 1 0 0
13.060624 -5.549829 -8.622501 16.605060 -0.401810 2.116792 0.035503 -0.002013 -1601290.000000 1 0 0
3.002824 0.928371 -12.165401 12.564864 0.299845 2.888761 0.006611 -0.005285 -3118810.000000 1 0 0
0.527224 6.320871 -12.958601 14.427637 1.487579 2.686406 0.007533 -0.004563 535373.000000 1 0 0
3.141724 -1.158429 -16.746001 17.077498 -0.353257 2.944238 0.016070 -0.010023 -259452.000000 1 0 0
13.158724 4.275371 -11.445001 17.956026 0.314148 2.261903 0.033041 -0.003787 922763.000000 1 0 0
-3.929476 9.302471 -16.469101 19.318593 -1.171120 2.591546 0.002300 -0.006992 -363804.000000 1 0 0
-0.331776 -5.041929 -17.606201 18.316917 1.505088 2.862112 0.011900 -0.015535 -133091.000000 1 0 0
-0.577176 -8.562429 -17.507101 19.497356 1.503490 2.685821 0.012601 -0.012057 -393772.000000 1 0 0
5.443024 -10.209129 -12.305401 16.890107 -1.080980 2.387009 -0.000018 0.004905 460263.000000 1 0 0
1.632124 -9.842129 -18.050301 20.623886 -1.406461 2.636673 0.027431 -0.005135 -582109.000000 1 0 0
10.651624 9.268071 -14.885301 20.516492 0.716053 2.382598 0.074911 -0.016504 -87690.100000 1 0 0
11.007724 -3.830029 -12.971501 17.438433 -0.334839 2.409602 0.036901 0.001033 707288.000000 1 0 0
4.909324 7.423171 -12.231001 15.126213 0.986483 2.512559 -0.001368 -0.001581 99737.400000 1 0 0
9.696624 -6.019929 -12.589001 16.992558 -0.555593 2.405137 0.027553 0.002988 -1003530.000000 1 0 0
-3.324576 0.239871 -15.972601 16.316688 -0.072026 2.935862 0.009576 -0.007237 -2062010.000000 1 0 0
-0.733476 10.700271 -12.788201 16.690472 -1.502356 2.443699 -0.001156 -0.004178 -1229790.000000 1 0 0
6.594024 -5.614429 -12.444601 15.161499 -0.705331 2.533611 0.008361 0.001009 256897.000000 1 0 0
17.784624 -5.893929 -8.239201 20.467430 -0.320015 1.985099 0.097881 -0.017297 282983.000000 1 0 0
13.073924 4.730271 -13.909201 19.666439 0.347157 2.356405 0.063298 -0.010627 398678.000000 1 0 0
14.269324 0.685271 -11.579101 18.389094 0.047987 2.251927 0.049755 -0.004589 884155.000000 1 0 0
15.124224 6.034771 -11.277901 19.807869 0.379656 2.176529 0.059555 -0.008637 192196.000000 1 0 0
8.166224 1.544371 -11.767901 14.406797 0.186909 2.526690 0.000157 0.003380 1033030.000000 1 0 0
9.906124 1.325971 -9.071101 13.497199 0.133063 2.307801 0.003943 -0.000453 389329.000000 1 0 0
-0.226276 -5.772829 -13.026101 14.249774 1.531620 2.724145 -0.000205 -0.003917 909730.000000 1 0 0
10.520924 -5.759629 -9.053101 15.027369 -0.500880 2.217352 0.018355 -0.003520 -1536740.000000 1 0 0
10.153824 8.548171 -11.213601 17.375737 0.699754 2.272290 0.049639 -0.021110 1093030.000000 1 0 0
8.211024 8.490371 -14.370701 18.601730 0.802123 2.453638 0.048012 -0.017576 527406.000000 1 0 0
8.611124 10.670271 -10.621701 17.344356 0.891789 2.229890 0.064779 -0.021171 -1769120.000000 1 0 0
7.023224 1.821471 -17.922901 19.335817 0.253759 2.756937 0.027880 -0.001521 -403059.000000 1 0 0
12.249424 2.448071 -12.871801 17.936686 0.197253 2.371181 0.045693 -0.005860 -672950.000000 1 0 0
2.828924 -0.957229 -19.268701 19.498768 -0.326279 2.987825 0.031156 -0.021606 -100901.000000 1 0 0
10.136324 -2.370029 -15.621601 18.772227 -0.229689 2.553798 0.054756 -0.006893 120666.000000 1 0 0
8.241824 -0.857629 -13.048901 15.457588 -0.103685 2.575820 0.008767 -0.003757 686181.000000 1 0 0
0.532324 4.342771 -14.631601 15.271764 1.448828 2.851027 0.007309 -0.005158 -339238.000000 1 0 0
4.011524 -7.719029 -15.789801 18.027577 -1.091519 2.638031 0.017482 -0.008380 -1778230.000000 1 0 0
11.349924 -5.772329 -14.714101 19.458811 -0.470487 2.428231 0.079844 0.000949 395766.000000 1 0 0
-5.825776 4.354171 -16.815901 18.321381 -0.641834 2.733374 0.012367 -0.001353 196079.000000 1 0 0
11.522024 7.906771 -9.154001 16.705383 0.601425 2.150728 0.044961 -0.013575 -1442150.000000 1 0 0
9.607724 6.522871 -13.486801 17.797472 0.596437 2.430720 0.032778 0.003421 -732424.000000 1 0 0
12.118624 0.687171 -10.164001 15.831619 0.056643 2.267909 0.023447 0.000773 -1127870.000000 1 0 0
5.508524 -7.473429 -13.805201 16.636693 -0.935615 2.549553 0.007701 0.002576 -975165.000000 1 0 0
8.590524 -10.292529 -10.730701 17.172105 -0.875289 2.245789 0.023794 0.001255 -446289.000000 1 0 0
10.197524 4.568771 -15.772701 19.329803 0.421212 2.525216 0.062781 -0.010907 -1143960.000000 1 0 0
9.883024 -0.308629 -11.090401 14.858210 -0.031218 2.413456 0.010798 0.000375 -1065850.000000 1 0 0
-1.784176 5.390771 -13.996401 15.104401 -1.251176 2.756181 0.003209 -0.007051 -89121.100000 1 0 0
1.278124 -0.691429 -14.994401 15.064652 -0.495885 3.044981 0.010520 -0.006930 -1549240.000000 1 0 0
11.458824 -10.776729 -13.922601 21.006698 -0.754732 2.295308 0.108158 -0.022430 558498.000000 1 0 0
9.393624 -7.878429 -10.847801 16.370235 -0.697897 2.295153 0.024848 -0.000358 -235215.000000 1 0 0
13.981524 -1.078829 -9.719501 17.062110 -0.077008 2.176881 0.034946 -0.001446 999054.000000 1 0 0
3.932524 11.159771 -12.276501 17.050446 1.231999 2.374614 0.018186 -0.013328 -497150.000000 1 0 0
-1.326176 2.788971 -16.998001 17.276259 -1.126934 2.961872 0.004253 -0.007388 -485714.000000 1 0 0
5.955924 -0.372829 -17.872101 18.842081 -0.062516 2.819328 0.013766 0.000190 165594.000000 1 0 0
6.467924 -6.614829 -16.037501 18.514628 -0.796627 2.618357 0.032898 -0.005373 410576.000000 1 0 0
-1.743476 -5.176229 -19.850501 20.588235 1.245908 2.873082 0.027745 -0.022193 -631975.000000 1 0 0
-0.066676 -4.236429 -15.182601 15.762714 1.555059 2.869450 0.002783 -0.008133 73600.100000 1 0 0
0.550224 0.778971 -13.009401 13.044311 0.955823 3.068415 0.007574 -0.007605 1105360.000000 1 0 0
15.901024 0.692171 -13.578601 20.921283 0.043503 2.277109 0.109509 -0.027041 654139.000000 1 0 0
-0.129376 6.965571 -16.293901 17.720810 -1.552225 2.737548 0.008257 -0.003742 -119410.000000 1 0 0
-4.838376 -0.492629 -18.164301 18.804106 0.101467 2.879984 0.010290 -0.008415 -506011.000000 1 0 0
10.390524 -8.455329 -13.171601 18.786875 -0.683071 2.347744 0.041446 -0.011004 -397515.000000 1 0 0
4.235124 8.569071 -17.337901 19.798183 1.111772 2.637746 0.032435 -0.017916 -383906.000000 1 0 0
9.086124 0.707771 -16.773401 19.089410 0.077739 2.643878 0.039103 -0.009931 -215929.000000 1 0 0
3.304624 4.890371 -18.615401 19.528682 0.976538 2.834558 0.028367 -0.004016 -853263.000000 1 0 0
1.418924 -8.313329 -15.988901 18.076773 -1.401745 2.656217 0.004543 -0.005163 924641.000000 1 0 0
4.591224 7.707971 -14.970701 17.453196 1.033584 2.601698 0.009805 -0.001253 406737.000000 1 0 0
-5.651976 -0.410329 -15.182201 16.205321 0.072472 2.784352 0.007413 -0.005699 -594015.000000 1 0 0
2.891124 3.466571 -13.889101 14.604206 0.875664 2.827361 0.009764 -0.003554 123334.000000 1 0 0
-2.412776 -10.168529 -18.215701 21.000767 1.337826 2.620715 0.020667 -0.006871 -518711.000000 1 0 0
6.153124 -9.212629 -15.515601 19.064819 -0.981940 2.521516 0.015929 -0.000163 320276.000000 1 0 0
-1.823876 5.403271 -17.343401 18.256928 -1.245255 2.823913 0.008523 -0.003491 439540.000000 1 0 0
9.965124 -12.249529 -11.700201 19.653228 -0.887871 2.208475 0.064656 -0.008516 108322.000000 1 0 0
10.939324 3.658771 -9.405301 14.883384 0.322765 2.254841 0.011917 -0.001264 -1018730.000000 1 0 0
4.868924 -0.460429 -10.869501 11.919080 -0.094284 2.718787 0.003858 -0.002967 -827031.000000 1 0 0
6.359724 9.497071 -11.496701 16.211557 0.980730 2.359112 0.026511 -0.012017 263549.000000 1 0 0
10.894924 -9.601329 -9.556101 17.384014 -0.722368 2.152809 0.043223 -0.003271 -1245960.000000 1 0 0
3.156124 -2.451129 -14.527801 15.067387 -0.660325 2.873163 0.006875 -0.005249 -343618.000000 1 0 0
9.023824 -4.525729 -14.497401 17.665963 -0.464872 2.533327 0.035387 -0.013696 -382138.000000 1 0 0
-4.052676 -6.398029 -16.438301 18.099080 1.006161 2.709854 0.007335 -0.008416 -204357.000000 1 0 0
5.858624 -7.843429 -11.241001 14.906474 -0.929252 2.425082 0.002340 0.003411 163708.000000 1 0 0
5.473124 6.373171 -17.056401 19.012975 0.861230 2.683941 0.022087 -0.001024 -1366570.000000 1 0 0
9.251924 1.067871 -19.376301 21.498360 0.114913 2.693539 0.073514 -0.018646 584816.000000 1 0 0
13.192324 5.845271 -9.454101 17.250642 0.417085 2.150820 0.024606 -0.004429 1319380.000000 1 0 0
-1.401076 -0.717429 -17.185401 17.257338 0.473246 3.050254 0.014857 -0.015064 -67768.700000 1 0 0
-0.510676 -0.564129 -19.564201 19.578994 0.835090 3.102718 0.028929 -0.020357 -72775.300000 1 0 0
2.952724 6.396671 -16.539501 17.977516 1.138335 2.738903 0.014430 -0.001319 -691275.000000 1 0 0
7.758324 3.756371 -15.646601 17.863875 0.450906 2.638052 0.019804 0.000322 -234294.000000 1 0 0
3.085524 -9.974129 -14.953601 18.237705 -1.270781 2.532081 0.008907 0.006637 -366421.000000 1 0 0
8.890824 -10.549429 -13.385101 19.222334 -0.870510 2.341069 0.049952 -0.004231 -585849.000000 1 0 0
3.727524 0.116971 -14.684501 15.150666 0.031370 2.892885 0.009160 -0.005653 -1873330.000000 1 0 0
-1.252976 -2.886429 -18.760701 19.022758 1.161250 2.975414 0.031339 -0.018434 58911.100000 1 0 0
9.243624 10.418171 -13.007201 19.057024 0.845065 2.322030 0.076756 -0.026407 -118456.000000 1 0 0
4.645424 2.132071 -10.602201 11.769977 0.430281 2.692367 0.000655 -0.001269 45374.500000 1 0 0
-0.380276 7.017571 -18.910001 20.173722 -1.516660 2.785764 0.019494 -0.002521 91034.500000 1 0 0
0.852624 -1.791029 -17.605601 17.716996 -1.126489 3.029396 0.026793 -0.018229 -1135970.000000 1 0 0
-4.457376 -2.344429 -14.042801 14.918606 0.484204 2.797241 0.005769 -0.008630 -5037820.000000 1 0 0
10.062024 6.036971 -10.407301 15.684428 0.540402 2.296342 0.019539 0.000608 166472.000000 1 0 0
8.469624 5.607171 -17.350901 20.105439 0.584788 2.611965 0.061947 -0.013139 -347642.000000 1 0 0
11.416524 0.120771 -13.759901 17.879779 0.010578 2.448978 0.036845 0.005269 560265.000000 1 0 0
6.734424 12.046871 -11.800901 18.158767 1.061055 2.278214 0.059002 -0.028394 -534709.000000 1 0 0
-1.031076 0.608971 -14.928201 14.976153 -0.533492 3.061548 0.010162 -0.008657 -161446.000000 1 0 0
-4.372976 -2.986529 -19.020801 19.744192 0.599192 2.870063 0.019981 -0.008115 186895.000000 1 0 0
5.796624 -12.188329 -13.991501 19.440121 -1.126868 2.374199 0.020548 0.003900 111711.000000 1 0 0
2.157524 -4.805029 -14.025201 14.981638 -1.148763 2.782339 0.003000 -0.002305 -1408040.000000 1 0 0
11.859024 1.885571 -15.446201 19.564687 0.157679 2.480780 0.078506 -0.006168 366762.000000 1 0 0
9.794124 2.185071 -13.758101 17.028939 0.219505 2.511418 0.023121 -0.001862 -20190.600000 1 0 0
-2.245176 -4.090929 -16.443601 17.092938 1.068861 2.865073 0.005334 -0.011186 -1340510.000000 1 0 0
-2.884776 10.034971 -14.201501 17.626832 -1.290872 2.507611 0.001791 -0.010091 156434.000000 1 0 0
3.620924 5.811971 -13.652601 15.273625 1.013628 2.676696 0.003593 0.001169 364617.000000 1 0 0
-5.132876 -2.645229 -16.574501 17.551573 0.475852 2.806353 0.010299 -0.004868 291977.000000 1 0 0
-4.400276 6.191571 -13.623401 15.597917 -0.952933 2.632961 0.000995 -0.004647 -419107.000000 1 0 0
5.781324 -1.176029 -14.108401 15.292277 -0.200681 2.745520 0.005749 -0.002784 -577063.000000 1 0 0
6.754024 -3.117829 -12.657301 14.681450 -0.432479 2.610253 0.006502 -0.001468 977546.000000 1 0 0
3.008724 -3.280529 -18.170901 18.708178 -0.828589 2.901354 0.025296 -0.023342 -378277.000000 1 0 0
7.370924 -11.992629 -12.056201 18.533906 -1.019695 2.279031 0.028279 -0.002836 -2143270.000000 1 0 0
-6.058476 -5.281929 -17.536601 19.290834 0.717029 2.711828 0.029991 -0.009650 212904.000000 1 0 0
0.442424 8.631671 -11.873601 14.686180 1.519585 2.512375 0.008219 -0.001842 81677.500000 1 0 0
0.346924 8.537471 -14.455801 16.792229 1.530183 2.607759 0.000869 -0.004481 -110973.000000 1 0 0
7.628424 -2.412429 -15.044001 17.039209 -0.306290 2.652810 0.016047 -0.009198 -523443.000000 1 0 0
14.356124 1.464871 -9.025801 17.020847 0.101686 2.129726 0.032684 -0.002081 220146.000000 1 0 0
2.838424 10.688571 -14.702501 18.397438 1.311230 2.496693 0.013744 -0.007775 825867.000000 1 0 0
6.050024 0.984871 -15.571801 16.734807 0.161372 2.766582 0.010977 -0.002570 628757.000000 1 0 0
16.396324 -5.538329 -10.417901 20.200129 -0.325746 2.112661 0.105151 -0.014450 341190.000000 1 0 0
4.889324 -4.269729 -11.200201 12.945292 -0.717853 2.616335 0.000084 0.001066 -907138.000000 1 0 0
8.568924 -3.926029 -16.994801 19.433564 -0.429628 2.635216 0.045115 -0.017576 -20620.700000 1 0 0
13.393224 -9.541429 -8.839801 18.669746 -0.619004 2.064037 0.060468 -0.009216 547641.000000 1 0 0
2.411224 -7.755129 -13.633201 15.868844 -1.269352 2.604339 0.000587 0.001263 316399.000000 1 0 0
-6.849476 -2.097229 -18.554901 19.889646 0.297124 2.773159 0.021214 -0.006563 1464310.000000 1 0 0
-1.543776 -6.459329 -15.663401 17.013180 1.336198 2.740571 0.000838 -0.009180 -444526.000000 1 0 0
1.642224 -7.250529 -18.343001 19.792240 -1.348057 2.756537 0.029517 -0.018927 -149287.000000 1 0 0
5.412424 11.064671 -14.455401 18.991574 1.115856 2.435878 0.045493 -0.026917 -997280.000000 1 0 0
5.525024 -3.324429 -17.316201 18.477785 -0.541671 2.785127 0.028875 -0.015981 -1125290.000000 1 0 0
3.696724 13.072471 -14.040201 19.536697 1.295205 2.372667 0.042163 -0.024319 234890.000000 1 0 0
8.645624 10.840671 -15.578101 20.855316 0.897571 2.414275 0.084519 -0.027061 347616.000000 1 0 0
2.503924 3.916071 -16.359101 17.006629 1.001911 2.864756 0.016566 -0.001781 747696.000000 1 0 0
16.635224 1.828971 -11.329101 20.209511 0.109506 2.165886 0.086766 -0.018489 -321467.000000 1 0 0
9.999824 -3.716729 -10.570101 15.017909 -0.355856 2.351575 0.025036 -0.001447 297395.000000 1 0 0
14.603424 -2.237229 -12.006801 19.037554 -0.152017 2.253239 0.091005 -0.010803 365137.000000 1 0 0
-2.790076 -8.638129 -16.070501 18.457053 1.258379 2.627414 0.005253 -0.001608 -270416.000000 1 0 0
14.112524 8.145071 -9.026101 18.627292 0.523450 2.076660 0.065835 -0.013434 344314.000000 1 0 0
-8.249876 -0.122229 -16.513101 18.459629 0.014815 2.678225 0.014198 -0.000017 -679607.000000 1 0 0
-3.442876 3.875071 -16.006201 16.824626 -0.844389 2.828402 0.001396 -0.003033 -2410610.000000 1 0 0
15.080824 3.884871 -9.807701 18.404197 0.252122 2.132827 0.025289 -0.002707 190292.000000 1 0 0
5.354924 1.131071 -12.937901 14.047911 0.208161 2.741395 0.002343 -0.001697 153963.000000 1 0 0
7.901524 -7.715929 -12.940201 17.012303 -0.773515 2.435091 0.030507 0.001120 -2428370.000000 1 0 0
3.226724 -6.147729 -11.827601 13.714899 -1.087456 2.610769 0.002721 -0.000358 -1021390.000000 1 0 0
-3.260676 3.619771 -18.584301 19.212261 -0.837542 2.885214 0.008359 -0.000343 -59737.800000 1 0 0
0.863524 5.160571 -17.867501 18.617861 1.405001 2.856718 0.021512 -0.011314 90906.000000 1 0 0
6.392224 7.170471 -10.085901 13.928445 0.842717 2.380558 0.001795 0.001461 117321.000000 1 0 0
9.774924 3.759371 -11.742501 15.734305 0.367155 2.413281 0.021953 0.002106 19180.200000 1 0 0
4.405324 1.674371 -17.546601 18.168478 0.363216 2.879198 0.019166 -0.003872 -196931.000000 1 0 0
2.569624 8.117371 -13.263201 15.760938 1.264218 2.570894 0.003989 -0.002155 -582268.000000 1 0 0
14.291524 -3.531329 -9.772201 17.669575 -0.242240 2.156820 0.061836 -0.006131 12956.800000 1 0 0
-1.366376 9.222271 -16.190301 18.682695 -1.423706 2.619131 0.004037 -0.004679 -1670090.000000 1 0 0
-5.288676 1.977771 -15.879401 16.853398 -0.357862 2.799956 0.010925 -0.003602 995819.000000 1 0 0
4.633624 4.214571 -11.976901 13.515888 0.738073 2.659734 0.000096 0.000090 510340.000000 1 0 0
9.260624 3.089071 -17.659301 20.178019 0.321964 2.636594 0.050096 -0.004496 665371.000000 1 0 0
-4.396576 14.222471 -13.365601 20.006195 -1.270986 2.302413 0.007517 -0.008311 -282188.000000 1 0 0
15.401224 -4.955429 -7.977901 18.038872 -0.311295 2.028915 0.059703 -0.007179 131309.000000 1 0 0
1.163024 9.205071 -16.928201 19.304143 1.445116 2.640214 0.010842 -0.003817 -187981.000000 1 0 0
0.497624 -3.246029 -12.793501 13.208255 -1.418678 2.890328 0.004171 -0.003533 335850.000000 1 0 0
7.644324 3.706671 -13.107301 15.619745 0.451488 2.566514 0.007750 0.004957 1127010.000000 1 0 0
-2.825976 7.514971 -15.030101 17.040096 -1.211109 2.650978 0.000549 -0.005910 -62925.000000 1 0 0
12.101724 -5.113729 -10.964001 17.111729 -0.399804 2.266245 0.048789 -0.001906 -1549740.000000 1 0 0
0.608324 -4.265029 -19.991201 20.450150 -1.429121 2.929334 0.039332 -0.026806 -588297.000000 1 0 0
3.586024 -4.543829 -16.068201 17.079023 -0.902671 2.795823 0.019253 -0.014926 568003.000000 1 0 0
-5.592776 4.040771 -14.375201 15.945324 -0.625666 2.694091 0.002360 -0.003601 491497.000000 1 0 0
12.236624 -7.533829 -9.912701 17.457239 -0.551868 2.174661 0.031580 -0.000022 151135.000000 1 0 0
-2.022776 -1.828529 -14.908001 15.155317 0.735004 2.960687 0.006583 -0.008046 429102.000000 1 0 0
7.231124 5.990271 -14.511301 17.284396 0.691820 2.567271 0.017651 0.006471 367394.000000 1 0 0
4.409524 -5.407929 -18.387701 19.667159 -0.886747 2.778899 0.037634 -0.021840 24781.400000 1 0 0
7.478224 7.256571 -12.264801 16.093695 0.770356 2.437327 0.019013 -0.007036 -1614820.000000 1 0 0
12.185724 -2.517529 -10.971701 16.589396 -0.203730 2.293438 0.027973 -0.004766 -658052.000000 1 0 0
7.508524 -0.739129 -10.642501 13.045577 -0.098123 2.524897 -0.000957 0.001171 -1973290.000000 1 0 0
5.416824 4.126571 -14.530101 16.046632 0.651014 2.703335 0.002722 0.002509 717721.000000 1 0 0
14.771924 2.937071 -12.914501 19.839871 0.196268 2.279614 0.062979 -0.017516 -466274.000000 1 0 0
-6.249776 6.796971 -15.807801 18.306968 -0.827315 2.612936 0.006338 0.000746 617025.000000 1 0 0
-11.049476 3.886771 -16.510301 20.243219 -0.338242 2.524556 0.045534 -0.016572 346214.000000 1 0 0
-4.812876 6.508671 -18.000101 19.736520 -0.934078 2.718979 0.010591 0.010213 -334859.000000 1 0 0
-9.915076 1.701871 -15.708001 18.653321 -0.169988 2.571965 0.039620 -0.006915 399336.000000 1 0 0
-7.427276 6.004671 -17.958501 20.340311 -0.679880 2.652803 0.021547 -0.000849 925340.000000 1 0 0
-8.551176 3.875871 -15.391401 18.028871 -0.425558 2.593862 0.009882 -0.003358 112380.000000 1 0 0
8.894924 13.449471 -12.168301 20.200879 0.986477 2.217257 0.122218 -0.041740 -1095370.000000 1 0 0
14.399824 9.323771 -11.298701 20.541380 0.574610 2.153215 0.104934 -0.018603 376919.000000 1 0 0
8.542424 15.863771 -9.198601 20.229842 1.076836 2.042837 0.083293 -0.023899 -205847.000000 1 0 0
7.068224 13.512071 -13.928201 20.652618 1.088836 2.310953 0.096708 -0.035157 -31468.500000 1 0 0
4.596824 16.001271 -12.425101 20.773892 1.291051 2.211939 0.077400 -0.037190 91096.600000 1 0 0
11.074024 11.022171 -11.321701 19.295160 0.783051 2.197853 0.113288 -0.036302 30957.700000 1 0 0
16.072024 9.803571 -9.241401 20.971969 0.547724 2.027124 0.100685 -0.020539 996919.000000 1 0 0
13.577824 10.724971 -9.190401 19.591983 0.668545 2.059056 0.125767 -0.027874 -6035.530000 1 0 0
10.509524 11.941571 -8.443801 18.009692 0.849097 2.058782 0.064621 -0.009189 286763.000000 1 0 0
5.480024 16.127271 -9.930201 19.716197 1.243238 2.098623 0.056162 -0.027112 -180147.000000 1 0 0
6.713824 14.605171 -11.610201 19.828848 1.139915 2.196319 0.065056 -0.020091 -656029.000000 1 0 0
10.862824 14.109371 -9.875601 20.361798 0.914680 2.077167 0.116301 -0.022964 -604092.000000 1 0 0
8.321424 -18.462229 -1.182801 20.285439 -1.147338 1.629137 0.039545 -0.002382 -300190.000000 1 0 0
7.464924 -17.227129 -3.355301 19.072418 -1.161897 1.747641 0.028833 -0.010392 198796.000000 1 0 0
4.585124 -18.308229 5.802999 19.745618 -1.325403 1.272504 0.040828 -0.001359 311384.000000 1 0 0
9.939924 -16.905229 -2.507401 19.770582 -1.039262 1.697964 0.038594 -0.003938 -278967.000000 1 0 0
-9.735776 -12.237029 -9.906701 18.511427 0.898744 2.135502 0.033774 -0.014814 -462187.000000 1 0 0
-5.154476 -7.022329 -12.086401 14.898416 0.937606 2.517090 0.005976 -0.005813 348689.000000 1 0 0
-10.944476 -9.571729 -5.598001 15.580024 0.718587 1.938321 0.014994 -0.001662 -16526.100000 1 0 0
-4.532076 -11.401629 -13.891201 18.533815 1.192452 2.418111 0.008410 -0.009843 289861.000000 1 0 0
-2.925776 -15.530729 7.478999 17.484254 1.384592 1.128787 0.018253 -0.001103 234744.000000 1 0 0
-4.839376 -12.167929 -11.494601 17.424233 1.192261 2.291203 0.010456 -0.004933 458104.000000 1 0 0
-14.377576 -12.807029 -3.954501 19.656367 0.727689 1.773360 0.047915 -0.004510 87390.900000 1 0 0
-3.228476 -12.264029 -3.204301 13.080405 1.313389 1.818285 0.013493 -0.002939 706242.000000 1 0 0
-2.304076 -17.373929 -1.436501 17.584815 1.438949 1.652577 0.019722 -0.017622 -252355.000000 1 0 0
-5.788976 -12.178229 3.828899 14.017203 1.127059 1.294123 0.012849 -0.001189 1774070.000000 1 0 0
-8.954576 -10.919729 -11.883101 18.456245 0.883957 2.270319 0.021393 -0.010020 -240577.000000 1 0 0
-9.769476 -11.901729 -7.434801 17.098832 0.883474 2.020627 0.032275 -0.012947 125091.000000 1 0 0
-11.084576 -15.072429 6.315099 19.746554 0.936691 1.245270 0.050415 -0.015825 -264598.000000 1 0 0
-9.588976 -15.847029 0.726499 18.536574 1.026638 1.531594 0.035687 0.001174 -635971.000000 1 0 0
-14.830576 -7.816429 -8.117901 18.626402 0.485051 2.021754 0.023879 -0.011269 -177939.000000 1 0 0
-2.283376 -16.578329 5.125499 17.502158 1.433925 1.273591 0.027284 -0.007978 -569197.000000 1 0 0
4.427324 -15.600229 5.998599 17.290215 -1.294269 1.216494 0.024322 -0.011383 -784543.000000 1 0 0
3.910024 -14.780429 -10.123401 18.336647 -1.312180 2.155660 0.000492 0.005099 57608.000000 1 0 0
-7.672676 -14.029429 -0.204201 15.991764 1.070337 1.583566 0.017908 -0.000732 1338820.000000 1 0 0
3.151224 -14.919129 9.737099 18.092035 -1.362636 1.002499 0.014225 -0.007566 -283544.000000 1 0 0
2.476324 -17.364629 10.251499 20.316391 -1.429144 1.041886 0.035835 -0.009325 -409300.000000 1 0 0
-8.094076 -17.056829 -5.649901 19.707127 1.127727 1.861570 0.063298 -0.018974 -273652.000000 1 0 0
-6.492676 -9.289329 -7.685301 13.693441 0.960783 2.166679 0.010156 -0.010120 299013.000000 1 0 0
-6.057176 -13.059629 -4.744601 15.157656 1.136518 1.889164 0.010597 -0.008760 81122.900000 1 0 0
2.447624 -19.385929 -4.836401 20.129478 -1.445203 1.813435 0.033229 -0.011152 -24506.900000 1 0 0
-5.453876 -12.942229 8.342399 16.335289 1.171978 1.034800 0.017896 -0.004018 1188210.000000 1 0 0
2.275724 -17.422629 3.501199 17.916063 -1.440913 1.374108 0.030835 -0.013939 525830.000000 1 0 0
-17.544276 -10.202829 -2.451901 20.442875 0.526741 1.691025 0.034705 -0.006018 632606.000000 1 0 0
-3.679876 -15.294929 2.640999 15.951527 1.334689 1.404466 0.020859 -0.008163 105652.000000 1 0 0
-10.195176 -10.485629 -14.023201 20.261791 0.799442 2.335192 0.032683 -0.020141 -89270.000000 1 0 0
5.991124 -14.514429 -5.647201 16.686914 -1.179330 1.916035 0.001176 -0.007652 317855.000000 1 0 0
-7.333176 -12.406829 -10.645001 17.917056 1.036977 2.206976 0.017573 -0.012328 -1463760.000000 1 0 0
-7.094176 -14.377329 4.086899 16.545019 1.112420 1.321196 0.014664 0.001483 594158.000000 1 0 0
3.229624 -14.843629 -3.033101 15.490755 -1.356559 1.767870 0.009239 -0.007583 -809678.000000 1 0 0
-7.657076 -11.534829 8.006199 15.993196 0.984766 1.046504 0.021238 -0.006368 -689411.000000 1 0 0
-12.884176 -12.584129 -0.895601 18.032315 0.773618 1.620483 0.027185 0.014592 -1327290.000000 1 0 0
-1.839676 -13.597929 4.080299 14.315618 1.436322 1.281765 0.011055 -0.002809 -2717450.000000 1 0 0
-3.030276 -13.923629 5.329899 15.213738 1.356503 1.212868 0.015807 -0.002110 -220033.000000 1 0 0
-14.509376 -10.258729 -4.469201 18.323134 0.615436 1.817192 0.021855 -0.005807 788766.000000 1 0 0
-6.256376 -8.686629 -10.394901 14.921586 0.946621 2.341493 0.009983 -0.007568 263500.000000 1 0 0
0.903424 -19.402229 2.278599 19.556448 -1.524267 1.454017 0.044368 -0.016687 14724.100000 1 0 0
6.361924 -14.187329 -8.236401 17.595246 -1.149255 2.057940 0.015456 -0.004471 -2753350.000000 1 0 0
-3.807076 -16.771129 -5.822501 18.156710 1.347577 1.897244 0.018724 -0.012029 -300989.000000 1 0 0
-3.570276 -13.694029 -13.249001 19.385802 1.315756 2.323259 0.017988 -0.001395 -882581.000000 1 0 0
-8.189676 -14.631229 -4.332201 17.317956 1.060506 1.823638 0.032579 -0.014678 -1571470.000000 1 0 0
-4.411076 -14.475929 10.115099 18.202344 1.275017 0.981588 0.025117 -0.002812 1055190.000000 1 0 0
-0.228476 -12.109029 -10.049801 15.737830 1.551930 2.263443 0.004615 0.001573 674941.000000 1 0 0
2.492924 -17.156029 6.831999 18.633846 -1.426497 1.195396 0.030457 -0.015942 -1719320.000000 1 0 0
-2.598176 -19.099829 -3.325101 19.560426 1.435595 1.741617 0.041547 -0.025986 -289467.000000 1 0 0
0.682224 -15.357429 -3.130801 15.688147 -1.526402 1.771710 0.010156 -0.006744 -880640.000000 1 0 0
6.218124 -17.873129 0.696199 18.936697 -1.235990 1.534023 0.024137 -0.004002 -356269.000000 1 0 0
-7.179276 -16.769529 3.935699 18.661426 1.166291 1.358301 0.026258 -0.003327 641759.000000 1 0 0
-5.279676 -13.663929 -9.536701 17.479319 1.202073 2.147900 0.011241 -0.004945 458479.000000 1 0 0
5.757524 -15.147629 -2.068701 16.336440 -1.207567 1.697768 0.015306 -0.005955 -181415.000000 1 0 0
-8.984376 -10.461029 -0.602401 13.802718 0.861191 1.614454 0.006768 0.002598 307301.000000 1 0 0
-7.114776 -18.406329 -2.735501 19.922247 1.201947 1.708540 0.048772 -0.027543 -445990.000000 1 0 0
7.943824 -15.888829 -1.119201 17.799209 -1.107178 1.633717 0.013968 -0.003634 -1149330.000000 1 0 0
-8.119776 -10.218429 -9.502401 16.144431 0.899344 2.200106 0.017835 -0.011702 -143683.000000 1 0 0
-9.251176 -15.102829 -6.781801 18.965034 1.021203 1.936488 0.054924 -0.017648 2355.540000 1 0 0
-11.493776 -10.581129 -11.829501 19.596027 0.744079 2.218891 0.038388 -0.007875 -1039880.000000 1 0 0
6.720024 -16.180929 2.573199 17.708827 -1.177166 1.424974 0.021268 -0.005876 331559.000000 1 0 0
-2.242476 -11.254829 -6.114401 13.003298 1.374126 2.060335 0.009953 -0.003339 62951.100000 1 0 0
-12.381076 -15.424729 -3.194201 20.035374 0.894425 1.730908 0.046642 -0.004153 -69101.700000 1 0 0
-0.052676 -19.281429 -2.544301 19.448644 1.568064 1.701994 0.056641 -0.030857 -207046.000000 1 0 0
-5.835676 -15.591329 -4.584401 17.267350 1.212648 1.839514 0.026024 -0.014849 -2274540.000000 1 0 0
2.000624 -15.966129 -1.057501 16.125696 -1.446142 1.636422 0.012333 -0.009502 674751.000000 1 0 0
-13.328676 -11.834629 5.279999 18.590063 0.726094 1.282809 0.035450 -0.006407 583557.000000 1 0 0
1.918924 -15.203529 -8.560201 17.552966 -1.445244 2.080225 0.011900 0.004024 -2938760.000000 1 0 0
-12.059176 -16.668429 0.238899 20.574676 0.944489 1.559185 0.077086 -0.016637 464256.000000 1 0 0
-7.704676 -16.554929 -1.039901 18.289590 1.135209 1.627685 0.041650 -0.012387 667991.000000 1 0 0
-3.017676 -14.487229 -1.728101 14.898742 1.365434 1.687048 0.010541 -0.004850 71805.900000 1 0 0
-1.809876 -10.539829 -13.267101 17.040528 1.400737 2.463167 0.003878 -0.000513 -333730.000000 1 0 0
1.451124 -19.451329 4.941799 20.121663 -1.496331 1.322662 0.056020 -0.020492 -111984.000000 1 0 0
-17.423776 -9.355129 2.447399 19.927272 0.492744 1.447669 0.032314 -0.000675 58789.900000 1 0 0
-2.705576 -15.626629 -8.059001 17.789299 1.399357 2.040952 0.008072 -0.002713 -1193180.000000 1 0 0
-10.661776 -12.160629 0.380699 16.177122 0.850979 1.547261 0.012808 0.008511 422208.000000 1 0 0
-6.849676 -11.484629 -6.499601 14.868072 1.033012 2.023225 0.012919 -0.007023 225242.000000 1 0 0
-2.158376 -13.606929 -6.600801 15.276704 1.413484 2.017597 0.005033 -0.001105 472133.000000 1 0 0
-14.285876 -14.692529 -0.795401 20.508274 0.799430 1.609590 0.051343 0.006413 -257963.000000 1 0 0
-9.654276 -11.321929 -4.349401 15.501884 0.864733 1.855187 0.019824 -0.002506 1190770.000000 1 0 0
9.452424 -15.202829 -5.099401 18.613926 -1.014534 1.848301 0.025953 -0.003162 82759.500000 1 0 0
-5.625876 -10.968929 -9.361701 15.479319 1.096888 2.220296 0.012914 -0.010757 -675821.000000 1 0 0
-10.350576 -16.013829 -4.736901 19.647274 0.996990 1.814292 0.061652 -0.009633 -59548.100000 1 0 0
2.307724 -17.281129 -3.330001 17.749702 -1.438042 1.759524 0.018810 -0.009498 192537.000000 1 0 0
-0.413476 -14.512629 -8.194301 16.671350 1.542313 2.084631 0.003959 0.002556 -1675260.000000 1 0 0
-0.699776 -18.282029 -7.049701 19.606646 1.532538 1.938589 0.027379 -0.005141 -43634.600000 1 0 0
-1.720176 -9.939129 -10.600501 14.632700 1.399423 2.381017 0.002969 -0.001650 271479.000000 1 0 0
-5.126276 -17.331929 2.162299 18.203022 1.283224 1.451727 0.033556 -0.012988 848355.000000 1 0 0
0.217624 -12.779229 -2.673801 13.057766 -1.553768 1.777022 0.005749 -0.004579 -1488880.000000 1 0 0
2.799024 -14.903429 3.171899 15.492181 -1.385148 1.364596 0.022690 -0.006544 -391167.000000 1 0 0
-9.485976 -13.113429 6.917699 17.601145 0.944552 1.166877 0.025545 -0.007680 -603303.000000 1 0 0
-0.735976 -17.758829 -4.503401 18.335711 1.529377 1.818943 0.033369 -0.016230 -441278.000000 1 0 0
-9.529476 -17.774729 -2.399201 20.310294 1.078668 1.689200 0.063821 -0.013812 -810749.000000 1 0 0
1.449524 -16.095629 1.452099 16.225874 -1.480982 1.481184 0.020185 -0.015105 231335.000000 1 0 0
-0.256276 -17.910529 4.082699 18.371749 1.556489 1.346698 0.042587 -0.015792 -623447.000000 1 0 0
-17.350576 -9.126929 -0.107701 19.604971 0.484254 1.576290 0.006689 0.001145 1115930.000000 1 0 0
-14.816376 -7.475629 -10.692001 19.741553 0.467282 2.143134 0.045047 -0.017852 726439.000000 1 0 0
2.803224 -12.809029 -8.767801 15.773510 -1.355346 2.160189 -0.001868 0.003497 556095.000000 1 0 0
-11.749176 -14.751029 1.905999 18.954388 0.898194 1.470069 0.037285 -0.001693 147918.000000 1 0 0
-2.010176 -15.621229 10.700899 19.041346 1.442817 0.974016 0.014340 -0.003177 -1740.240000 1 0 0
-7.123076 -15.892329 1.346299 17.467594 1.149433 1.493646 0.028611 -0.006856 -1434090.000000 1 0 0
-12.662176 -15.198429 -5.763801 20.604474 0.876182 1.854315 0.062084 -0.005062 958932.000000 1 0 0
0.914624 -13.710829 -5.068401 14.646230 -1.504187 1.924159 0.001019 -0.000772 387348.000000 1 0 0
6.049624 -16.484329 -7.346501 19.034236 -1.219064 1.967047 0.032174 -0.015543 23112.100000 1 0 0
-6.726476 -12.864329 6.002199 15.708686 1.089014 1.178735 0.019893 -0.003279 -200735.000000 1 0 0
-2.523176 -13.549729 0.625199 13.796827 1.386689 1.525466 0.014761 -0.005272 3021750.000000 1 0 0
-4.253576 -15.534129 0.216799 16.107423 1.303526 1.557336 0.020162 -0.011536 195560.000000 1 0 0
-17.594876 -7.563229 -2.102701 19.266640 0.405975 1.680151 0.009787 -0.002263 249272.000000 1 0 0
1.271724 -12.764529 -11.971301 17.546012 -1.471494 2.321674 0.008850 0.004613 -450532.000000 1 0 0
1.454024 -17.187429 -5.921801 18.237040 -1.486399 1.901504 0.030300 -0.001849 188909.000000 1 0 0
-12.893976 -6.461929 -9.109801 17.058710 0.464574 2.134152 0.022340 -0.006846 736224.000000 1 0 0
-11.391376 -13.653829 -8.455801 19.689872 0.875488 2.014679 0.047387 -0.015392 -76616.700000 1 0 0
-4.339976 -9.877229 3.608499 11.376129 1.156799 1.248022 0.011807 -0.001618 -2898210.000000 1 0 0
-6.933976 -14.548329 9.662399 18.790845 1.126030 1.030713 0.032158 -0.005284 -613060.000000 1 0 0
-5.309876 -15.957429 -7.950801 18.602407 1.249569 2.012419 0.019881 -0.011736 -291539.000000 1 0 0
-0.250176 -13.405829 2.172899 13.583090 1.552137 1.410135 0.015710 -0.007115 754852.000000 1 0 0
-11.069076 -13.500629 -4.564801 18.045188 0.884042 1.826540 0.049211 -0.003240 -677532.000000 1 0 0
-9.714376 -10.584329 6.750699 15.873533 0.828230 1.131525 0.028203 -0.003294 -760487.000000 1 0 0
-15.632076 -8.070729 -4.744901 18.221211 0.476597 1.834238 0.027536 -0.007637 -972850.000000 1 0 0
-14.540976 -7.108729 5.513799 17.099005 0.454709 1.242466 0.029773 -0.006059 651762.000000 1 0 0
-1.649876 -19.300729 0.185199 19.372004 1.485521 1.561236 0.038308 -0.019012 -577643.000000 1 0 0
-15.505276 -12.483529 -1.021301 19.932263 0.677852 1.622057 0.036794 0.017063 -16628.400000 1 0 0
-4.373276 -12.183529 -6.799101 14.621617 1.226171 2.054435 0.008704 -0.007276 -1887220.000000 1 0 0
-7.442276 -18.381529 1.980599 19.929647 1.186092 1.471252 0.041535 -0.011613 -354969.000000 1 0 0
-2.510776 -11.812329 -8.666101 14.863930 1.361358 2.193248 0.003896 -0.000588 479892.000000 1 0 0
-0.673676 -20.415629 -4.674501 20.954778 1.537810 1.795765 0.055659 -0.012326 -162717.000000 1 0 0
-5.334576 -8.905229 -13.774101 17.247801 1.031084 2.495762 0.008433 -0.008407 106046.000000 1 0 0
-8.426676 -19.182229 -0.547501 20.958686 1.156879 1.596922 0.057900 -0.012293 -28338.200000 1 0 0
-17.078676 -7.097329 5.759599 19.370757 0.393854 1.268896 0.050761 -0.015094 -192329.000000 1 0 0
-3.625176 -14.600029 -4.259801 15.634854 1.327419 1.846740 0.010695 -0.007988 -3543410.000000 1 0 0
-2.822576 -14.888429 -11.018301 18.735933 1.383438 2.199484 0.015586 0.000203 -631796.000000 1 0 0
-0.022376 -16.613129 6.295699 17.766046 1.569449 1.208559 0.039386 -0.013464 -969795.000000 1 0 0
-11.191776 -11.429529 3.788799 16.439129 0.795908 1.338231 0.020022 -0.001291 321838.000000 1 0 0
-0.090776 -14.645229 -0.161601 14.646402 1.564598 1.581830 0.020152 -0.007781 973728.000000 1 0 0
-7.305276 -9.539229 -2.469001 12.266210 0.917251 1.773466 0.013752 0.001348 495127.000000 1 0 0
-11.180976 -14.483929 -0.666901 18.309647 0.913390 1.607228 0.041250 -0.002006 -136403.000000 1 0 0
0.363424 -14.611329 -10.645901 18.081986 -1.545929 2.200317 0.010999 0.002180 -173744.000000 1 0 0
-1.453176 -14.117829 -3.879101 14.712995 1.468226 1.837602 0.004667 -0.000827 -1516340.000000 1 0 0
-11.497376 -8.155429 -7.626501 16.026983 0.616960 2.066731 0.017757 -0.007745 787205.000000 1 0 0
-0.153076 -17.216829 -0.019001 17.217520 1.561906 1.571900 0.026345 -0.018727 -629566.000000 1 0 0
-12.893376 -9.358029 4.668099 16.601295 0.627833 1.285764 0.020850 -0.001545 -600054.000000 1 0 0
4.072624 -16.741329 1.626799 17.306208 -1.332164 1.476656 0.022551 -0.011202 3145530.000000 1 0 0
-3.665976 -17.886829 -8.243901 20.033470 1.368642 1.994903 0.050928 -0.011615 -182796.000000 1 0 0
-13.517076 -10.967829 2.775199 17.626864 0.681657 1.412697 0.017531 -0.000211 -1150170.000000 1 0 0
-8.659376 -12.289729 4.202799 15.610437 0.956988 1.298203 0.018668 -0.003761 2251280.000000 1 0 0
-8.334976 -9.500329 -5.891901 13.944266 0.850645 2.007034 0.012896 -0.005849 466884.000000 1 0 0
3.908424 -17.373629 -5.392801 18.606479 -1.349517 1.864850 0.005476 0.001919 -622954.000000 1 0 0
-2.452876 -13.147329 11.303699 17.511210 1.386349 0.869103 -0.001846 -0.000882 225419.000000 1 0 0
0.125324 -16.780229 -9.434201 19.250868 -1.563328 2.082962 0.023133 0.001897 -219615.000000 1 0 0
-7.105076 -10.640329 -14.125401 19.058480 0.982044 2.405594 0.016225 -0.014732 -1254930.000000 1 0 0
-4.392576 -19.001729 -1.434901 19.555546 1.343620 1.644238 0.046474 -0.024945 19320.100000 1 0 0
-2.554776 -17.135929 1.245799 17.370059 1.422798 1.499014 0.034939 -0.020660 -43025.500000 1 0 0
4.107924 -14.717929 -7.504901 17.023983 -1.298613 2.027334 0.013788 -0.001561 -2364200.000000 1 0 0
-0.917376 -15.872629 -6.118101 17.035642 1.513064 1.938138 0.010302 -0.002069 17552.300000 1 0 0
-9.662276 -15.209029 8.508199 19.926454 1.004825 1.129646 0.049420 -0.014379 -188230.000000 1 0 0
-7.166576 -12.056629 -1.738201 14.133062 1.034498 1.694097 0.011396 -0.001044 697823.000000 1 0 0
-7.412676 -15.119029 -9.229501 19.201992 1.114949 2.072196 0.031570 -0.010349 511577.000000 1 0 0
-5.067776 -13.225529 -0.594801 14.175710 1.204872 1.612768 0.012149 -0.001417 2298390.000000 1 0 0
-6.431776 -13.811129 -7.184601 16.844391 1.134967 2.011447 0.012993 -0.012074 558389.000000 1 0 0
5.887324 -15.280229 0.352399 16.378955 -1.203035 1.549279 0.015620 -0.001683 183728.000000 1 0 0
-14.330476 -12.792629 1.144099 19.243774 0.728760 1.511308 0.006760 0.002953 748961.000000 1 0 0
0.946324 -15.398729 11.114799 19.014603 -1.509419 0.946483 0.004496 -0.002706 130289.000000 1 0 0
-9.300876 -10.819529 1.984499 14.405094 0.860734 1.432593 0.010359 0.004914 -373187.000000 1 0 0
-9.550876 -8.865829 -3.559401 13.508941 0.748218 1.837429 0.007366 0.000027 -180319.000000 1 0 0
-12.137976 -7.316429 -12.558501 18.936117 0.542455 2.295887 0.037659 -0.007268 -606862.000000 1 0 0
-13.296976 -8.485129 -0.571901 15.783981 0.567982 1.607037 0.004409 0.000913 -822789.000000 1 0 0
-11.212876 -9.638229 0.626099 14.799190 0.710023 1.528477 0.000598 0.006271 380370.000000 1 0 0
-15.848676 -12.011329 3.097299 20.125750 0.648523 1.416285 0.041975 -0.002835 -320217.000000 1 0 0
-10.496276 -12.570029 -2.204501 16.523839 0.875061 1.704609 0.033758 -0.002490 950569.000000 1 0 0
-3.407276 -8.904229 -12.022901 15.344216 1.205329 2.471149 0.006515 -0.002390 -2479040.000000 1 0 0
-0.238076 -15.481229 3.864099 15.957957 1.555419 1.326223 0.025026 -0.010067 -537079.000000 1 0 0
-15.667376 -7.722429 1.199599 17.508330 0.457950 1.502227 0.001560 0.000484 663482.000000 1 0 0
-6.174176 -13.403729 -13.368701 19.912372 1.139137 2.306861 0.015371 -0.004665 -266885.000000 1 0 0
-15.348276 -10.346229 1.124799 18.543980 0.593129 1.510103 0.012287 0.005662 -100234.000000 1 0 0
-9.887676 -8.501229 -12.377101 17.978589 0.710145 2.330126 0.017987 -0.012767 463995.000000 1 0 0
-13.255876 -11.806729 -6.069501 18.760488 0.727641 1.900250 0.035402 -0.004367 -142939.000000 1 0 0
-12.232976 -11.365929 -3.736001 17.111041 0.748674 1.790908 0.020380 0.001680 -2076930.000000 1 0 0
-11.823276 -11.071929 -8.883001 18.473905 0.752593 2.072409 0.033959 -0.018473 677859.000000 1 0 0
-13.290276 -8.450429 -5.884001 16.812574 0.566353 1.928342 0.011569 -0.006590 -1610240.000000 1 0 0
-13.473476 -8.192629 -3.264001 16.103025 0.546322 1.774905 0.007319 -0.002777 406850.000000 1 0 0
-4.301076 -16.995029 -3.180101 17.816939 1.322922 1.750245 0.023409 -0.020898 540444.000000 1 0 0
-15.339776 -8.941429 -1.732901 17.839866 0.527745 1.668086 0.012345 -0.000377 -2774970.000000 1 0 0
-9.367376 -15.503629 3.763599 18.500673 1.027290 1.365936 0.024519 -0.007382 -567086.000000 1 0 0
4.739324 -17.241229 8.152799 19.651700 -1.302539 1.143002 0.035980 -0.020176 -251276.000000 1 0 0
-8.475776 -15.516529 6.142299 18.717085 1.070843 1.236436 0.027987 0.001020 1376200.000000 1 0 0
0.994624 -15.936129 8.562999 18.118345 -1.508464 1.078541 0.017262 -0.007066 814882.000000 1 0 0
-11.072376 -7.807529 -10.212301 16.966028 0.614165 2.216708 0.023396 -0.007726 841767.000000 1 0 0
-4.728876 -15.885129 5.680599 17.520525 1.281458 1.240604 0.027156 -0.012456 -1719120.000000 1 0 0
-1.309976 -13.188129 -12.123701 17.961818 1.471791 2.311721 0.008423 -0.002180 -1688660.000000 1 0 0
-6.384776 -14.398129 -2.445001 15.938930 1.153407 1.724802 0.020452 -0.005824 251718.000000 1 0 0
-17.626476 -7.053829 -7.159201 20.290473 0.380665 1.931396 0.041541 -0.016300 -26768.600000 1 0 0
-17.543876 -4.037629 -10.097001 20.640723 0.226206 2.081944 0.059604 -0.024619 1332160.000000 1 0 0
-15.425176 -5.455329 -9.151101 18.746714 0.339935 2.080759 0.032437 -0.015585 1399870.000000 1 0 0
-16.070876 -5.527129 -5.688401 17.921498 0.331250 1.893790 0.020018 -0.012206 847513.000000 1 0 0
-15.242176 -4.386729 -12.305001 20.074371 0.280229 2.230611 0.044341 -0.013810 -742208.000000 1 0 0
-18.637776 -5.327329 -5.479701 20.143839 0.278411 1.846297 0.043517 -0.018087 -510561.000000 1 0 0
-17.465176 -4.463429 -7.627301 19.573714 0.250206 1.971070 0.038017 -0.019235 562692.000000 1 0 0
12.338924 -7.758329 8.748199 16.999168 -0.561305 1.030226 0.043957 -0.015362 269152.000000 1 0 0
16.092824 -3.401029 1.796099 16.546056 -0.208274 1.462031 0.035334 -0.013107 817694.000000 1 0 0
12.085424 -2.056529 12.419899 17.451094 -0.168552 0.778885 0.053120 -0.007354 293427.000000 1 0 0
9.769224 -9.978229 5.400499 14.972247 -0.795982 1.201777 0.006716 -0.006991 -123336.000000 1 0 0
16.932824 -2.015429 7.242099 18.526481 -0.118468 1.169181 0.089954 -0.027621 -161032.000000 1 0 0
5.197324 -12.867329 9.207999 16.654356 -1.186918 0.984970 0.000822 0.000675 -209657.000000 1 0 0
15.062124 -8.882029 -2.069301 17.607954 -0.532806 1.688589 0.030754 -0.014336 -456709.000000 1 0 0
11.191524 -8.468029 6.514099 15.472273 -0.647741 1.136229 0.020733 -0.013088 -2215660.000000 1 0 0
20.049524 -3.062029 3.689799 20.614899 -0.151552 1.390840 0.109795 -0.024391 439189.000000 1 0 0
13.682824 -8.475429 6.773799 17.462444 -0.554577 1.172437 0.045012 -0.016752 -1497570.000000 1 0 0
8.335924 -10.982229 8.798999 16.356019 -0.921536 1.002773 0.012641 -0.007116 544866.000000 1 0 0
16.777724 -0.025229 -0.589101 16.788082 -0.001504 1.605894 0.035169 0.001436 -1048870.000000 1 0 0
12.471624 -12.309529 2.412699 17.688613 -0.778857 1.433971 0.020393 -0.006236 -989285.000000 1 0 0
10.388124 -11.773829 3.719499 16.136011 -0.847843 1.338195 0.016966 -0.004858 -1325320.000000 1 0 0
16.476624 2.897071 2.311499 16.888316 0.174050 1.433496 0.013741 -0.000747 -63592.000000 1 0 0
18.464024 -3.249229 0.501799 18.754453 -0.174193 1.544037 0.071238 -0.014738 180174.000000 1 0 0
13.410224 -11.483529 -0.108201 17.655516 -0.708155 1.576925 0.030313 -0.003974 -154164.000000 1 0 0
16.946924 -7.574329 -0.884501 18.583623 -0.420310 1.618410 0.054309 -0.016481 12306.200000 1 0 0
10.295124 -5.788929 9.811499 15.354700 -0.512236 0.877612 0.020545 -0.005449 -22308.200000 1 0 0
11.222624 -13.216429 6.254099 18.431903 -0.866801 1.224615 0.035224 -0.010111 -493746.000000 1 0 0
12.877324 -1.821429 9.991099 16.400157 -0.140513 0.915735 0.042800 -0.010647 689568.000000 1 0 0
15.626924 -2.019629 -1.469701 15.825286 -0.128528 1.663801 0.032497 -0.004660 -478050.000000 1 0 0
10.628424 -12.222229 9.245799 18.650230 -0.855034 1.052101 0.056407 -0.021801 491850.000000 1 0 0
14.573224 1.199571 3.201899 14.968968 0.082128 1.355228 0.013742 -0.004903 1636020.000000 1 0 0
14.890424 -5.908729 5.195099 16.841225 -0.377757 1.257207 0.049803 -0.018951 -1107450.000000 1 0 0
14.376224 -3.466829 -2.976401 15.084883 -0.236632 1.769410 0.020943 -0.007395 670355.000000 1 0 0
14.037324 0.603571 9.654199 17.047414 0.042971 0.968769 0.060867 -0.008879 360035.000000 1 0 0
15.380524 -3.391429 4.379299 16.347495 -0.217029 1.299596 0.043427 -0.016182 -1158820.000000 1 0 0
18.584824 4.763571 -4.409201 19.685740 0.250913 1.796692 0.030020 0.004223 632811.000000 1 0 0
18.298924 -5.772629 -5.143001 19.865154 -0.305582 1.832675 0.110804 -0.015947 585977.000000 1 0 0
17.374824 0.012571 5.884299 18.344200 0.000724 1.244252 0.079383 -0.017216 447390.000000 1 0 0
17.023024 -6.602529 4.013799 18.694580 -0.369996 1.354408 0.065070 -0.022805 -496132.000000 1 0 0
9.723124 -6.645829 14.366899 18.577244 -0.599571 0.686672 0.042701 -0.007482 -582159.000000 1 0 0
8.565724 -12.221729 5.295899 15.836314 -0.959493 1.229812 0.008047 -0.007793 -1925220.000000 1 0 0
16.822724 -10.177829 -0.700701 19.674431 -0.544091 1.606419 0.046861 -0.007297 -498356.000000 1 0 0
15.019924 -8.752229 0.443399 17.389544 -0.527608 1.545296 0.043097 -0.013868 203588.000000 1 0 0
10.150524 -12.955929 1.471499 16.524362 -0.906219 1.481628 0.018797 -0.006843 -252453.000000 1 0 0
17.096824 -8.145629 8.815099 20.889199 -0.444623 1.135154 0.098860 -0.021761 607585.000000 1 0 0
19.043024 -0.225329 -1.714001 19.121332 -0.011832 1.660555 0.075426 -0.007828 -1044730.000000 1 0 0
13.511024 -1.125629 7.615299 15.550164 -0.083120 1.059022 0.036647 -0.011441 133568.000000 1 0 0
12.771224 -9.652329 -3.129701 16.311550 -0.647195 1.763864 0.022181 -0.010756 -500155.000000 1 0 0
8.931124 -15.166529 1.489799 17.663751 -1.038600 1.486354 0.021100 -0.003247 -30545.600000 1 0 0
11.587924 -8.177529 11.193499 18.067828 -0.614537 0.902657 0.065117 -0.017218 24960.400000 1 0 0
13.999024 -3.981329 -0.424201 14.560344 -0.277085 1.599934 0.018102 -0.010965 -772400.000000 1 0 0
7.286024 -13.192929 10.772999 18.525578 -1.066214 0.950200 0.020929 -0.002932 -34794.800000 1 0 0
15.442924 -6.606429 1.863699 16.899769 -0.404237 1.460292 0.035995 -0.016593 1163010.000000 1 0 0
15.855224 -6.059129 -2.569301 17.166901 -0.365027 1.721027 0.061267 -0.013687 26278.300000 1 0 0
11.242324 -8.584629 3.833799 14.655502 -0.652148 1.306122 0.015426 -0.009674 647688.000000 1 0 0
10.587824 -14.452729 -0.464001 17.922017 -0.938536 1.596689 0.024927 -0.008605 391105.000000 1 0 0
13.323324 -12.920629 4.753499 19.158533 -0.770055 1.320063 0.027035 -0.005101 407229.000000 1 0 0
12.842924 -11.031229 6.565699 18.158665 -0.709658 1.200841 0.036096 -0.013220 -89049.500000 1 0 0
10.906724 -10.443129 1.453499 15.169978 -0.763687 1.474835 0.009578 -0.007393 600307.000000 1 0 0
13.960924 -7.409829 11.964499 19.823275 -0.487948 0.922840 0.076575 -0.027020 739206.000000 1 0 0
15.338124 -1.819129 -4.818601 16.179809 -0.118050 1.873200 0.042649 0.000314 -195452.000000 1 0 0
13.026024 -11.470029 -7.076701 18.743494 -0.721963 1.957951 0.042631 -0.001449 -392421.000000 1 0 0
17.831924 -5.367129 1.895099 18.718307 -0.292360 1.469379 0.080842 -0.014588 863558.000000 1 0 0
10.619524 -9.706429 9.212199 17.083725 -0.740506 1.001264 0.034665 -0.011835 -736802.000000 1 0 0
16.369324 1.910671 9.946299 19.249268 0.116197 1.027792 0.098586 -0.015332 122500.000000 1 0 0
18.262924 3.806071 0.560599 18.663731 0.205463 1.540755 0.020365 0.008601 677262.000000 1 0 0
13.290024 -4.038729 5.729599 15.025458 -0.295023 1.179566 0.025243 -0.014853 -1276220.000000 1 0 0
12.185524 -6.125429 6.711799 15.200531 -0.465790 1.113471 0.022510 -0.010769 -118768.000000 1 0 0
16.746124 -10.191529 3.622099 19.935384 -0.546712 1.388090 0.055633 -0.011664 786172.000000 1 0 0
16.157424 -7.813129 -5.608301 18.803201 -0.450412 1.873669 0.066416 -0.014485 -371553.000000 1 0 0
14.010224 -0.251429 5.202899 14.947233 -0.017944 1.215269 0.021826 -0.011096 977683.000000 1 0 0
18.281424 -4.347529 5.082299 19.466413 -0.233474 1.306655 0.094429 -0.027054 178410.000000 1 0 0
13.603424 -13.325029 7.290799 20.390324 -0.775060 1.205141 0.073105 -0.019188 328278.000000 1 0 0
15.026724 -13.429529 -0.776201 20.168222 -0.729329 1.609292 0.042498 0.000409 173877.000000 1 0 0
17.928724 -5.887329 7.856699 20.440830 -0.317281 1.176279 0.114301 -0.028569 1204180.000000 1 0 0
14.246524 3.241071 9.244899 17.289770 0.223692 1.006640 0.048158 -0.012991 -351233.000000 1 0 0
18.936524 3.525571 3.039999 19.500339 0.184071 1.414263 0.057315 -0.006280 -115161.000000 1 0 0
14.775124 -10.407829 8.234999 19.860574 -0.613683 1.143249 0.057244 -0.021232 -615162.000000 1 0 0
14.929924 -4.795529 10.424699 18.830138 -0.310793 0.984094 0.090835 -0.018310 99237.600000 1 0 0
17.811924 -7.908529 2.020899 19.593201 -0.417855 1.467470 0.085575 -0.018473 447562.000000 1 0 0
18.469524 -5.813729 -1.955401 19.461407 -0.304955 1.671442 0.081147 -0.015165 -11702.400000 1 0 0
14.324024 -13.005729 -5.401201 20.087300 -0.737199 1.843033 0.051317 -0.000673 606120.000000 1 0 0
15.428324 -1.498029 9.373899 18.114836 -0.096793 1.026904 0.107465 -0.022126 310219.000000 1 0 0
12.931724 -9.993529 10.125899 19.225867 -0.657929 1.016105 0.051802 -0.030817 -2084030.000000 1 0 0
16.540124 2.190871 4.810999 17.364370 0.131691 1.290062 0.036852 -0.011797 -376991.000000 1 0 0
14.967124 2.324571 -0.157501 15.147384 0.154081 1.581194 0.007246 0.004840 -1030030.000000 1 0 0
15.087624 -9.817229 -6.972201 19.303522 -0.576854 1.940338 0.059846 -0.013596 652921.000000 1 0 0
16.392624 -0.078229 -3.230301 16.708055 -0.004772 1.765359 0.045912 0.003185 145349.000000 1 0 0
12.106724 2.563971 13.664299 18.435287 0.208697 0.735935 0.075555 -0.009412 -3146.720000 1 0 0
17.533224 -3.011429 9.652799 20.240039 -0.170096 1.073654 0.095812 -0.024361 -136347.000000 1 0 0
7.970524 -17.949029 4.490999 20.146116 -1.152889 1.345986 0.046304 -0.020584 -367041.000000 1 0 0
6.832424 -11.110329 6.568099 14.603471 -1.019448 1.104296 0.004411 -0.007028 -186557.000000 1 0 0
17.983024 2.088271 -1.363601 18.155149 0.115607 1.645975 0.027057 0.004211 140696.000000 1 0 0
17.514324 -2.266029 3.664399 18.036470 -0.128667 1.366206 0.040924 -0.015599 -1823950.000000 1 0 0
12.606624 -13.320629 -1.822401 18.430607 -0.812930 1.669837 0.024596 0.000552 724092.000000 1 0 0
15.100224 -8.310429 4.338699 17.773697 -0.503113 1.324197 0.044071 -0.011750 64981.300000 1 0 0
11.998024 -2.762429 14.889699 19.320630 -0.226297 0.690915 0.060457 -0.014843 -7624.240000 1 0 0
11.990424 -13.784529 -6.377401 19.350834 -0.854893 1.906642 0.026105 -0.010557 -355943.000000 1 0 0
10.602324 -11.932429 -1.275001 16.013050 -0.844354 1.650503 0.015588 -0.008480 -770203.000000 1 0 0
13.181624 -7.917229 2.132299 15.523673 -0.540880 1.433003 0.027440 -0.009613 -417787.000000 1 0 0
8.746624 -7.830029 10.052599 15.455340 -0.730160 0.862647 0.017547 -0.005201 -1223980.000000 1 0 0
15.555824 -3.788829 8.172699 17.975870 -0.238912 1.098819 0.088801 -0.025294 -1208300.000000 1 0 0
10.244024 -17.227529 5.421299 20.763388 -1.034334 1.306636 0.057580 -0.018531 -1059090.000000 1 0 0
15.282724 -6.351429 8.416299 18.567079 -0.393878 1.100342 0.071438 -0.014547 100291.000000 1 0 0
16.679524 -4.870629 -0.393301 17.380571 -0.284113 1.593427 0.051112 -0.015149 -442186.000000 1 0 0
14.073424 -10.607029 3.530599 17.973187 -0.645860 1.373074 0.036599 -0.009781 977631.000000 1 0 0
14.986124 -9.828329 -4.441301 18.463616 -0.580462 1.813722 0.049982 -0.016736 575919.000000 1 0 0
13.573424 -6.639929 -0.060001 15.110596 -0.454959 1.574767 0.023590 -0.010649 290344.000000 1 0 0
17.797624 -0.954429 -5.025101 18.518045 -0.053575 1.845605 0.080989 -0.004592 -245265.000000 1 0 0
14.358724 0.198271 -1.843201 14.477903 0.013808 1.698454 0.015523 0.002747 -2118520.000000 1 0 0
4.943724 -12.965629 11.820799 18.228528 -1.206519 0.865213 -0.002823 0.001305 -362091.000000 1 0 0
11.977024 -7.552829 13.675799 19.685574 -0.562623 0.802777 0.069466 -0.016941 13934.300000 1 0 0
12.068024 -5.681429 11.709399 17.748968 -0.440003 0.850346 0.045347 -0.010549 -541106.000000 1 0 0
13.239024 -4.511529 8.393799 16.312006 -0.328433 1.030281 0.038217 -0.013202 -1406720.000000 1 0 0
15.382524 -1.208029 3.045199 15.727512 -0.078372 1.375943 0.030638 -0.007157 27138.500000 1 0 0
15.223824 -10.367529 5.811499 19.313829 -0.597865 1.265162 0.052330 -0.014129 -619780.000000 1 0 0
13.640124 -7.938829 -5.786101 16.809431 -0.527094 1.922202 0.042648 -0.010147 -2332180.000000 1 0 0
9.806224 -2.213529 13.742599 17.027060 -0.222006 0.631567 0.029775 -0.000671 -378976.000000 1 0 0
9.929124 -9.220229 13.661299 19.241394 -0.748396 0.781305 0.077648 -0.013390 -315814.000000 1 0 0
20.349824 6.137371 -3.153801 21.487884 0.292918 1.718100 0.109080 -0.007258 -488322.000000 1 0 0
11.063524 -3.551329 10.518599 15.673367 -0.310605 0.835087 0.020721 -0.002580 622670.000000 1 0 0
10.306824 -13.877629 -3.023901 17.548880 -0.931988 1.743974 0.021264 -0.004354 624874.000000 1 0 0
14.926724 -12.887529 2.743999 19.910425 -0.712214 1.432539 0.036263 0.002160 229193.000000 1 0 0
11.318924 -0.271929 14.224599 18.180517 -0.024020 0.672272 0.050558 -0.011312 348060.000000 1 0 0
19.038824 -2.008329 5.750499 19.989459 -0.105097 1.278996 0.116107 -0.024795 1232110.000000 1 0 0
19.012924 -0.499829 7.869599 20.583287 -0.026283 1.178480 0.123023 -0.028426 320304.000000 1 0 0
18.876224 0.742271 0.783299 18.907046 0.039303 1.529356 0.064492 -0.010834 238764.000000 1 0 0
18.548724 0.737471 3.729999 18.934411 0.039738 1.372504 0.056609 -0.018919 423270.000000 1 0 0
16.650324 -4.055029 -4.196301 17.643285 -0.238890 1.810939 0.069163 -0.010749 -2138890.000000 1 0 0
10.799524 -8.367129 15.925799 20.982604 -0.659165 0.709020 0.091534 -0.021931 11663.900000 1 0 0
16.559624 -7.526629 6.379099 19.276001 -0.426604 1.233502 0.066918 -0.016956 258341.000000 1 0 0
18.882224 2.113871 5.955299 19.911616 0.111486 1.267061 0.070800 -0.020752 -310858.000000 1 0 0
15.322924 1.643471 7.633599 17.197815 0.106847 1.110883 0.066220 -0.015472 85549.800000 1 0 0
8.935724 -15.533929 3.894099 18.338869 -1.048782 1.356826 0.026018 -0.018967 211829.000000 1 0 0
11.509124 -15.179029 1.872599 19.140781 -0.922052 1.472807 0.032879 -0.004908 -212138.000000 1 0 0
8.175224 -15.950529 6.251599 18.982522 -1.097170 1.235198 0.034448 -0.016727 -8536.090000 1 0 0
14.541924 -11.490829 -2.468801 18.697639 -0.668728 1.703221 0.034811 -0.007043 757524.000000 1 0 0
13.649324 -4.769929 3.198799 14.808396 -0.336196 1.353068 0.024572 -0.007932 -1396450.000000 1 0 0
-1.137676 10.273571 -5.539201 11.727034 -1.460508 2.062745 0.002820 0.000382 295066.000000 1 0 0
8.273124 -1.765629 -7.999501 11.642768 -0.210263 2.328257 0.000782 -0.000191 -2226980.000000 1 0 0
2.817924 -9.992629 7.663399 12.904302 -1.295934 0.934943 0.000841 -0.002408 767836.000000 1 0 0
-6.248676 1.303771 8.244899 10.427086 -0.205697 0.658813 0.003719 0.001068 -175510.000000 1 0 0
7.409424 -6.282229 -7.316301 12.161177 -0.703256 2.216313 -0.000401 -0.002438 -69016.900000 1 0 0
-11.434876 -4.498729 -4.095501 12.952531 0.374823 1.892510 0.001627 -0.004859 -41460.600000 1 0 0
2.134324 -3.277729 2.904299 4.871735 -0.993606 0.932095 0.003860 -0.001617 580777.000000 1 0 0
-3.701076 -4.182529 8.979999 10.575060 0.846393 0.556389 0.003680 -0.002231 -1744850.000000 1 0 0
-4.859676 -1.126729 -2.341101 5.510601 0.227827 2.009577 0.009568 -0.004274 -15047.200000 1 0 0
5.112924 -5.293829 -3.590001 8.188695 -0.802780 2.024624 0.002188 -0.003883 158935.000000 1 0 0
2.682924 14.213671 -8.836601 16.950282 1.384235 2.119199 0.017336 -0.010247 -422789.000000 1 0 0
5.441024 -5.463129 13.688999 15.711118 -0.787425 0.512964 0.009186 -0.005098 -1262890.000000 1 0 0
-4.724176 -0.931529 9.901399 11.010145 0.194686 0.452635 0.010065 -0.001346 -3356930.000000 1 0 0
-1.012476 11.888871 -2.650001 12.222637 -1.485840 1.789343 -0.002286 -0.000759 -371572.000000 1 0 0
3.074924 9.348571 -10.560801 14.435424 1.253024 2.391447 0.006012 -0.002829 -534306.000000 1 0 0
-10.727076 2.739871 1.140199 11.130009 -0.250070 1.468173 0.002116 -0.004871 18802.600000 1 0 0
5.596924 -8.974129 -0.619101 10.594519 -1.013152 1.629266 -0.000135 -0.005907 546722.000000 1 0 0
-6.994376 5.447771 9.296499 12.846182 -0.661729 0.761679 0.006611 -0.001837 113528.000000 1 0 0
-5.509976 -1.895429 5.193099 7.805175 0.331319 0.842847 0.006389 -0.003645 749098.000000 1 0 0
6.627224 -3.758629 -7.262701 10.525883 -0.515915 2.332265 0.000868 -0.002810 473085.000000 1 0 0
6.333524 5.015171 11.043899 13.683318 0.669749 0.631561 0.004742 -0.002795 87001.600000 1 0 0
3.799324 -9.877629 3.340899 11.097929 -1.203602 1.265015 -0.002095 -0.003422 1159220.000000 1 0 0
-6.593676 6.509871 -5.737901 10.898554 -0.779003 2.125255 0.004951 -0.003179 -427951.000000 1 0 0
-11.017876 8.396671 5.198899 14.796156 -0.651197 1.211764 0.014767 -0.009637 -114945.000000 1 0 0
-9.171576 -5.512729 5.108999 11.857902 0.541203 1.125360 0.004947 -0.001007 -973687.000000 1 0 0
3.258424 9.783271 -7.991301 13.045712 1.249291 2.230094 0.008073 -0.002828 811674.000000 1 0 0
-8.097076 -8.512729 6.060499 13.219638 0.810418 1.094550 0.008116 -0.000912 -2855740.000000 1 0 0
-7.855276 -5.700429 -7.520301 12.278240 0.627755 2.230003 0.007991 -0.005972 -1317870.000000 1 0 0
9.261024 -1.531529 6.849899 11.620382 -0.163890 0.940390 0.001258 -0.002512 737020.000000 1 0 0
-4.035876 -0.456629 -4.812301 6.297225 0.112663 2.440587 0.009810 -0.005837 -263443.000000 1 0 0
9.030624 1.196271 -4.531601 10.174411 0.131701 2.032408 0.002548 0.001458 -2777010.000000 1 0 0
-1.898676 -10.691929 10.816299 15.326925 1.395048 0.787378 -0.004935 -0.000555 -222181.000000 1 0 0
-12.852376 0.185371 -2.609901 13.116002 -0.014422 1.771119 0.009921 -0.007517 -201362.000000 1 0 0
-9.790876 -5.158229 -5.992801 12.585000 0.484889 2.067109 0.008955 -0.004991 -284775.000000 1 0 0
-5.512776 8.262071 -0.250301 9.935550 -0.982398 1.595991 0.004331 -0.000609 594974.000000 1 0 0
6.317624 9.601071 0.339399 11.498180 0.988809 1.541274 0.012553 -0.006058 415696.000000 1 0 0
-0.485376 -12.070529 -0.029101 12.080319 1.530606 1.573205 0.012655 -0.002587 -571165.000000 1 0 0
6.224924 4.653271 2.328499 8.113231 0.641914 1.279702 0.001032 0.000760 208740.000000 1 0 0
3.382724 -7.569629 -8.345201 11.763693 -1.150539 2.359447 0.000226 -0.002583 556911.000000 1 0 0
-6.562176 -9.888929 4.696399 12.763590 0.984928 1.193990 0.011390 -0.000288 -3071460.000000 1 0 0
-0.062476 6.535571 -9.231501 11.310977 -1.561237 2.525520 0.008892 -0.002985 -3240790.000000 1 0 0
-17.433076 -2.614929 4.330599 18.152247 0.148888 1.329902 0.052486 -0.015584 682082.000000 1 0 0
-8.293476 0.869971 -9.216001 12.428727 -0.104516 2.406112 0.007559 -0.003808 202556.000000 1 0 0
-10.062976 -5.896829 -11.818101 16.604324 0.530056 2.362780 0.019017 -0.003797 -1023470.000000 1 0 0
2.110924 9.565471 6.277799 11.634647 1.353596 1.000861 -0.006243 0.005403 -264261.000000 1 0 0
-11.376176 1.654871 -1.169401 11.555236 -0.144455 1.672171 0.004122 -0.006702 -1515760.000000 1 0 0
-6.043276 -5.442829 -3.085601 8.698649 0.733170 1.933413 0.013753 -0.005651 607870.000000 1 0 0
-6.964176 -8.261129 1.383999 10.893183 0.870377 1.443400 0.012985 -0.000316 -382393.000000 1 0 0
-0.102176 10.932471 -7.874601 13.473630 -1.561451 2.194993 0.008465 0.000529 587175.000000 1 0 0
-2.800976 9.031371 -4.196901 10.345294 -1.270064 1.988521 0.002631 -0.003273 -548282.000000 1 0 0
3.410624 -4.747429 9.337699 11.016491 -0.947818 0.559330 0.004058 -0.001640 -704702.000000 1 0 0
-9.004976 1.564671 -0.427201 9.149879 -0.172039 1.617503 0.002041 -0.004369 -1294190.000000 1 0 0
2.403424 3.603171 -10.507901 11.365530 0.982542 2.750626 0.007779 -0.003665 2163820.000000 1 0 0
-13.753576 0.440071 1.058699 13.801281 -0.031986 1.494011 0.010355 -0.009425 173933.000000 1 0 0
9.451124 -12.533129 -5.029701 16.483354 -0.924682 1.880880 0.030503 -0.007856 -1293230.000000 1 0 0
-4.819676 9.406771 -8.196201 13.375138 -1.097308 2.230387 0.000874 -0.000669 -2346360.000000 1 0 0
-2.337776 7.147171 8.328399 11.220939 -1.254674 0.734420 0.000210 0.000075 -2023750.000000 1 0 0
-10.689776 -1.371129 -4.370801 11.629927 0.127569 1.956082 0.004924 -0.005744 -3680290.000000 1 0 0
2.644824 -7.127129 9.755599 12.367812 -1.215456 0.661959 -0.001083 -0.000550 -827260.000000 1 0 0
-16.248276 -6.420029 3.400699 17.798539 0.376293 1.378548 0.036613 -0.005707 180375.000000 1 0 0
-10.780276 -0.016929 6.141099 12.406761 0.001570 1.052984 0.006014 -0.001933 -1807170.000000 1 0 0
-8.373976 9.897371 9.183599 15.887728 -0.868582 0.954483 0.011723 -0.014129 -192013.000000 1 0 0
0.312424 -6.029029 -3.669901 7.065053 -1.519023 2.116997 0.007791 -0.003913 11457.500000 1 0 0
4.948424 1.502271 -3.057301 6.007563 0.294743 2.104713 -0.002975 0.000960 320114.000000 1 0 0
0.378324 5.358171 3.785899 6.571618 1.500306 0.956849 -0.000358 0.002829 -721083.000000 1 0 0
5.993224 -11.251729 -1.517101 12.838292 -1.081372 1.689243 -0.001824 -0.005643 -1974720.000000 1 0 0
6.251424 -13.447929 5.219499 15.721650 -1.135653 1.232379 0.003246 -0.006875 330962.000000 1 0 0
8.149624 -8.363629 -6.063101 13.157806 -0.798357 2.049691 0.002448 -0.003979 620722.000000 1 0 0
-13.077476 -1.510929 -4.555501 13.930393 0.115027 1.903944 0.009325 -0.005619 -2401770.000000 1 0 0
-6.762676 -1.567129 -7.043701 9.889560 0.227713 2.363475 0.008275 -0.004992 -899907.000000 1 0 0
-5.750976 13.037071 -4.422101 14.919582 -1.155347 1.871713 0.002627 0.000257 118240.000000 1 0 0
-4.333976 6.838871 -6.778701 10.559559 -1.005946 2.267834 0.006422 -0.001440 -2110920.000000 1 0 0
-9.412976 -3.684229 -8.081201 12.941540 0.373070 2.245209 0.007706 -0.003384 535901.000000 1 0 0
-2.357176 -6.332829 9.249899 11.455201 1.214469 0.630921 -0.000100 0.000194 -720133.000000 1 0 0
7.571524 -5.938829 10.079199 13.935133 -0.665134 0.762236 0.011911 -0.002796 192911.000000 1 0 0
9.666624 -5.121729 12.261799 16.432512 -0.487231 0.728474 0.025118 -0.001116 -147875.000000 1 0 0
-6.427676 2.709971 -9.001201 11.387738 -0.398996 2.482306 0.005305 -0.003921 58433.700000 1 0 0
7.272624 5.479071 8.664199 12.568995 0.645663 0.810231 -0.003208 0.002043 -588497.000000 1 0 0
12.658224 3.373971 11.255099 17.271120 0.260488 0.861010 0.050310 -0.006251 -301495.000000 1 0 0
-7.498676 -7.354229 -3.887101 11.199302 0.775673 1.925257 0.014015 -0.006338 -294809.000000 1 0 0
2.276624 1.288871 -5.901801 6.455653 0.515145 2.724342 0.003217 -0.002376 219059.000000 1 0 0
12.766924 6.897771 -7.150401 16.177201 0.495353 2.028629 0.014019 -0.003395 338225.000000 1 0 0
0.932524 -7.893929 1.012199 8.013006 -1.453209 1.444138 0.000943 -0.003382 223383.000000 1 0 0
-10.285476 -6.123129 -8.473201 14.665567 0.536970 2.186780 0.012327 -0.005553 261802.000000 1 0 0
-6.779576 0.233871 3.157499 7.482456 -0.034483 1.135160 0.007633 -0.004446 275242.000000 1 0 0
10.730724 -7.872829 1.323899 13.374700 -0.632969 1.471649 0.006118 -0.005561 -223179.000000 1 0 0
6.214224 1.069971 10.506199 12.253230 0.170509 0.540556 0.002920 -0.000466 -484287.000000 1 0 0
-12.863576 5.265971 1.766199 14.011477 -0.388558 1.444406 0.007950 -0.006759 -122471.000000 1 0 0
2.107424 7.413171 3.536099 8.479407 1.293822 1.140630 -0.006260 0.002851 376478.000000 1 0 0
10.258124 -9.401529 -0.827401 13.939242 -0.741854 1.630189 0.003636 -0.004051 711049.000000 1 0 0
6.787124 -11.857929 -9.091801 16.411471 -1.050941 2.157946 0.006202 -0.002662 -252010.000000 1 0 0
10.226424 3.511671 12.032599 16.176991 0.330776 0.732044 0.015136 -0.004119 22514.100000 1 0 0
-11.033976 -3.157629 -1.894901 11.632278 0.278724 1.734426 0.000156 -0.005222 -1247240.000000 1 0 0
12.299924 1.039871 6.834499 14.109566 0.084342 1.065133 0.012053 -0.005798 155748.000000 1 0 0
-9.535876 9.139771 2.958999 13.536027 -0.764192 1.350415 0.011913 -0.007917 2555170.000000 1 0 0
-6.775076 7.685571 -8.644501 13.405113 -0.848279 2.271644 0.002732 -0.001404 -2017420.000000 1 0 0
8.473724 5.483871 12.094499 15.752897 0.574377 0.695453 0.014299 -0.001360 -1858640.000000 1 0 0
1.274124 4.863571 -2.708801 5.710982 1.314581 2.064981 -0.000512 -0.001129 253769.000000 1 0 0
1.242524 0.511871 9.403299 9.498837 0.390775 0.141949 0.001046 -0.002009 778314.000000 1 0 0
2.537924 12.583071 -4.007601 13.447513 1.371773 1.873412 0.009872 -0.003591 482659.000000 1 0 0
1.972924 0.649471 13.079299 13.243199 0.318019 0.157491 0.004839 -0.003940 -291603.000000 1 0 0
-12.319476 -1.782129 0.818499 12.474590 0.143663 1.505136 0.002338 -0.005907 -339306.000000 1 0 0
3.304324 8.730571 -1.255001 9.418941 1.208980 1.704436 0.003316 -0.001186 163687.000000 1 0 0
3.667624 -2.991529 -5.884301 7.551537 -0.684216 2.464215 0.002217 -0.003711 -663347.000000 1 0 0
-7.684376 -7.218929 9.248299 14.024750 0.754177 0.850740 0.006150 0.001200 -237927.000000 1 0 0
-7.106976 10.901571 -3.573401 13.495279 -0.993071 1.838781 0.005914 -0.000574 898560.000000 1 0 0
0.406724 0.399371 2.493399 2.557726 0.776276 0.224749 0.004494 -0.001122 -2366440.000000 1 0 0
-7.040276 4.535771 -1.900701 8.587861 -0.572330 1.793968 0.009494 -0.004961 -1293230.000000 1 0 0
-6.905876 -3.955429 -5.811601 9.854504 0.520151 2.201534 0.007537 -0.003497 42291.800000 1 0 0
2.988324 -5.996929 13.486199 15.058911 -1.108502 0.461102 -0.000966 -0.001755 -1055310.000000 1 0 0
-5.397576 -0.677129 -11.801901 12.995276 0.124799 2.709684 0.005944 -0.007789 -572121.000000 1 0 0
11.864824 2.443371 -0.785601 12.139246 0.203095 1.635557 0.001692 -0.000691 -1508660.000000 1 0 0
6.046924 -10.901829 10.814799 16.503789 -1.064374 0.856227 -0.001242 -0.003356 665883.000000 1 0 0
-8.192876 6.391371 -10.413101 14.710728 -0.662497 2.357257 0.006629 -0.001021 212719.000000 1 0 0
2.842524 7.956271 11.150999 13.990246 1.227661 0.648393 -0.000160 0.001054 916024.000000 1 0 0
-6.310076 -10.082129 -0.361001 11.899441 1.011574 1.601139 0.015578 0.000840 -25480.400000 1 0 0
11.390324 4.247871 6.132999 13.616078 0.356961 1.103557 0.006474 -0.003001 919099.000000 1 0 0
-7.883676 10.704971 1.420799 13.370393 -0.936024 1.464331 0.008204 -0.003134 645299.000000 1 0 0
4.326024 -2.748529 -3.551801 6.235719 -0.566006 2.176803 0.001139 -0.003793 -5862790.000000 1 0 0
6.395424 6.482971 6.222699 11.029612 0.792196 0.971355 -0.000777 0.002614 -4691800.000000 1 0 0
-0.438376 10.230571 -10.150701 14.418512 -1.527973 2.351817 0.005416 -0.002440 -263691.000000 1 0 0
14.121224 6.406471 -2.487301 15.704729 0.425907 1.729845 0.017365 0.006453 681221.000000 1 0 0
1.313024 9.412871 -6.299301 11.402077 1.432198 2.156120 0.007020 -0.001379 763120.000000 1 0 0
0.631424 7.417771 7.155999 10.326197 1.485878 0.805162 -0.006914 0.004689 372327.000000 1 0 0
12.433224 6.283371 1.926799 14.063370 0.467934 1.433356 0.011313 0.000269 -2275570.000000 1 0 0
-6.791976 6.676371 -3.136401 10.027057 -0.776815 1.888929 0.006838 -0.004634 554724.000000 1 0 0
1.044624 9.858071 11.035399 14.834178 1.465224 0.731883 -0.006584 -0.001045 -282062.000000 1 0 0
-3.673376 13.611771 -10.946401 17.849305 -1.307208 2.230987 -0.001999 -0.001851 -263636.000000 1 0 0
-10.137776 -5.575829 -2.267601 11.790097 0.502847 1.764333 0.002588 -0.002098 -514024.000000 1 0 0
-4.091076 3.854471 -12.521601 13.725317 -0.755629 2.719661 0.000903 -0.007396 -477875.000000 1 0 0
-3.110976 8.464471 2.427199 9.338990 -1.218588 1.307878 0.001542 0.001371 -2370430.000000 1 0 0
7.084224 9.013371 7.010999 13.438051 0.904670 1.021922 0.007335 0.004000 496350.000000 1 0 0
-1.400676 -2.234729 -8.180801 8.595430 1.010921 2.829724 0.007313 -0.008827 -1410220.000000 1 0 0
0.846924 -1.367829 4.845899 5.105974 -1.016397 0.320543 0.007372 -0.000629 -100785.000000 1 0 0
2.765324 -8.852929 -6.040901 11.068598 -1.268037 2.148103 -0.002063 -0.003374 480994.000000 1 0 0
5.169024 3.981171 8.976099 11.096796 0.656303 0.628533 -0.002097 0.002686 -137905.000000 1 0 0
6.040424 -7.654129 -2.917201 10.177548 -0.902693 1.861505 0.000151 -0.006410 643835.000000 1 0 0
1.872624 2.269671 -8.340601 8.844419 0.880958 2.802436 0.004810 -0.005364 -16491.500000 1 0 0
-5.402776 10.911371 -0.657401 12.193448 -1.111035 1.624737 0.004409 -0.002321 818972.000000 1 0 0
-5.397776 3.284471 -3.359201 7.155974 -0.546636 2.059437 0.008041 -0.002377 -64845.600000 1 0 0
2.000924 13.706871 -6.345801 15.236509 1.425841 2.000374 0.005417 -0.002117 604684.000000 1 0 0
-5.259076 -2.661429 2.670599 6.470949 0.468487 1.145374 0.005350 -0.003933 925378.000000 1 0 0
10.463324 -3.354729 -1.959401 11.161300 -0.310263 1.747264 0.002814 -0.003506 13259.900000 1 0 0
2.395024 -3.297629 7.078599 8.168051 -0.942645 0.522408 0.001923 -0.000773 -848794.000000 1 0 0
-2.922876 9.844571 -11.628601 15.513966 -1.282184 2.418189 -0.000341 -0.001921 -2556810.000000 1 0 0
0.447824 -2.025729 9.263399 9.492876 -1.353227 0.220325 0.003430 -0.002129 -140436.000000 1 0 0
9.519924 2.577771 4.958599 11.039093 0.264435 1.104943 -0.002228 0.000418 -923044.000000 1 0 0
13.461224 2.138671 -5.112901 14.557480 0.157560 1.929672 0.015857 0.000899 163839.000000 1 0 0
-6.508876 3.813471 7.588999 10.700511 -0.529978 0.782407 0.005015 -0.000936 279366.000000 1 0 0
10.605424 0.105071 1.720599 10.744605 0.009907 1.409968 0.000777 -0.001667 839402.000000 1 0 0
15.348524 6.922071 -4.684901 17.476858 0.423679 1.842178 0.019623 0.006368 -1297080.000000 1 0 0
7.972124 -4.869929 -9.323201 13.198221 -0.548374 2.355193 0.004297 0.000185 2262360.000000 1 0 0
4.409324 5.621571 -2.216501 7.480446 0.905666 1.871619 0.000123 -0.001411 -40564.300000 1 0 0
-1.475976 -10.531729 1.466499 10.735289 1.431558 1.433762 0.010750 -0.003240 -403480.000000 1 0 0
-2.817676 12.210371 -12.862901 17.957914 -1.344005 2.369254 -0.000328 -0.006106 -226855.000000 1 0 0
8.382224 4.280071 -9.644501 13.475797 0.472102 2.368409 0.004159 0.001650 -810662.000000 1 0 0
4.200724 7.647471 -8.883901 12.452052 1.068494 2.365204 0.005402 -0.002270 -2145570.000000 1 0 0
-1.767776 -5.074429 -2.352401 5.865889 1.235575 1.983438 0.012982 -0.005254 -661891.000000 1 0 0
-3.268376 -9.355129 6.967599 12.113965 1.234685 0.957983 0.005737 -0.000982 371539.000000 1 0 0
1.078324 7.276571 -1.446201 7.496850 1.423676 1.764921 -0.000955 -0.000563 1518820.000000 1 0 0
0.487624 -0.801929 -2.208301 2.399471 -1.024468 2.739715 0.005296 -0.002526 -1955940.000000 1 0 0
4.374324 -6.771129 7.775499 11.200057 -0.997220 0.803436 -0.002135 -0.000911 -953093.000000 1 0 0
-14.040176 3.964671 6.022699 15.783474 -0.275215 1.179288 0.006422 -0.007361 -7543.240000 1 0 0
4.200924 6.371071 12.493099 14.639530 0.987859 0.548359 0.007789 -0.001942 -999868.000000 1 0 0
8.233424 10.201171 -7.218701 14.965387 0.891738 2.074143 0.028351 -0.008662 -202231.000000 1 0 0
12.323024 5.290571 9.376199 16.363379 0.405527 0.960636 0.018388 -0.006497 1284620.000000 1 0 0
7.477024 4.027771 0.276599 8.497373 0.494116 1.538239 0.005363 0.001675 -2650960.000000 1 0 0
-10.950176 -7.580429 -0.941001 13.351207 0.605516 1.641335 0.003426 -0.001652 -1606080.000000 1 0 0
10.546124 6.845571 0.190299 12.574530 0.575748 1.555662 0.007613 -0.000420 -1046270.000000 1 0 0
14.640624 3.604271 4.005999 15.600855 0.241383 1.311107 0.013297 -0.006470 338484.000000 1 0 0
2.161124 5.651071 8.129699 10.133956 1.205530 0.639786 -0.009752 0.004969 -844562.000000 1 0 0
4.137724 0.186471 11.756099 12.464405 0.045036 0.338741 -0.000036 -0.001970 -967141.000000 1 0 0
-1.397676 -1.768029 -0.662701 2.349169 0.901858 1.856779 0.010324 -0.004719 -1320310.000000 1 0 0
3.079824 -5.194629 -9.462501 11.225347 -1.035624 2.573555 0.000299 -0.001658 159558.000000 1 0 0
-4.041276 -5.466529 -1.282701 6.918104 0.934194 1.757288 0.013511 -0.005092 -646079.000000 1 0 0
-1.323376 -8.664429 8.711799 12.357957 1.419231 0.788437 0.002458 -0.001062 -445625.000000 1 0 0
3.846224 8.507971 -5.935901 11.064083 1.146220 2.137083 0.008655 -0.001807 -121826.000000 1 0 0
-14.296476 -1.881129 -2.598401 14.651947 0.130828 1.749081 0.007618 -0.010765 -945295.000000 1 0 0
8.834224 -10.668229 -6.810901 15.435122 -0.879162 2.027799 0.004799 -0.001665 79406.200000 1 0 0
14.910824 6.045671 1.564299 16.165700 0.385200 1.473878 -0.000439 0.003861 -27857.100000 1 0 0
-5.795076 0.395271 -8.519401 10.311127 -0.068103 2.543185 0.008333 -0.006902 -688160.000000 1 0 0
-8.132976 -4.556329 -13.005401 16.001434 0.510663 2.519678 0.015203 -0.002757 1153040.000000 1 0 0
0.832624 -10.577829 11.985999 16.007745 -1.492244 0.724603 -0.010795 0.002447 -666085.000000 1 0 0
0.387124 11.731171 3.185099 12.162035 1.537809 1.305818 -0.001174 0.000238 -278496.000000 1 0 0
5.152624 -13.139429 -3.612201 14.568532 -1.197076 1.821355 0.006884 -0.007815 749794.000000 1 0 0
-7.486276 1.533271 -6.915701 10.306414 -0.202017 2.306366 0.005784 -0.003031 675365.000000 1 0 0
1.563724 2.758271 3.987099 5.094139 1.055054 0.671831 0.000637 0.000826 -2393160.000000 1 0 0
17.382924 5.399271 2.382599 18.357423 0.301160 1.440640 0.014116 0.002970 286012.000000 1 0 0
2.663824 -7.976529 -3.484401 9.102858 -1.248484 1.963601 0.000204 -0.002295 38516.300000 1 0 0
-0.397676 -9.327529 -0.677001 9.360517 1.528188 1.643185 0.011385 -0.002280 -1126580.000000 1 0 0
0.714324 11.857371 -5.576401 13.122643 1.510626 2.009697 0.005279 -0.000773 -1490040.000000 1 0 0
6.131524 -4.896629 7.761999 11.037264 -0.673886 0.790832 0.002579 -0.000466 -311802.000000 1 0 0
-6.034276 -1.959429 -9.404501 11.344447 0.313975 2.548106 0.008015 -0.006190 -471095.000000 1 0 0
2.178624 -1.155129 11.192999 11.461412 -0.487523 0.216845 -0.001652 -0.001480 -13121.900000 1 0 0
18.077824 2.143871 -6.018201 19.173488 0.118040 1.890075 0.062697 -0.000337 411526.000000 1 0 0
-8.900876 4.734971 7.700099 12.686097 -0.488893 0.918552 0.008593 -0.003596 -1476410.000000 1 0 0
11.542324 -7.063829 -4.863601 14.379762 -0.549192 1.915827 0.012082 -0.008725 -344209.000000 1 0 0
10.818224 0.515871 8.924899 14.034027 0.047649 0.881561 0.001041 -0.002872 -42515.000000 1 0 0
-8.519176 -7.395829 -1.470401 11.377026 0.714931 1.700402 0.011763 -0.005152 -385475.000000 1 0 0
10.258824 -10.364229 -3.275801 14.946290 -0.790509 1.791762 0.010368 -0.004252 755925.000000 1 0 0
7.654624 -13.881929 -3.814801 16.305028 -1.066872 1.806950 0.014099 -0.007160 -1353020.000000 1 0 0
1.706824 -1.147129 -11.718201 11.897285 -0.591744 2.967866 0.006159 -0.007013 209603.000000 1 0 0
-11.734476 -2.657029 -6.426301 13.640200 0.222674 2.061367 0.009366 -0.004119 526605.000000 1 0 0
2.783424 -12.195729 -6.371601 14.038538 -1.346410 2.041894 -0.001549 -0.001907 -171853.000000 1 0 0
-5.568976 1.503271 1.205399 5.892903 -0.263653 1.364791 0.007918 -0.003807 647632.000000 1 0 0
0.104124 6.829371 -4.003801 7.917169 1.555551 2.101002 0.002746 -0.002034 915307.000000 1 0 0
5.546224 -11.652829 3.688799 13.422230 -1.126569 1.292386 -0.002057 -0.005923 -3039450.000000 1 0 0
-4.477976 -9.280429 1.051899 10.357853 1.121232 1.469065 0.014799 -0.001901 -521532.000000 1 0 0
7.078024 -6.297429 -4.828001 10.633232 -0.727104 2.042100 0.000734 -0.005171 -1495080.000000 1 0 0
-6.976976 -5.955429 2.248399 9.444608 0.706571 1.330427 0.008823 -0.002075 -293453.000000 1 0 0
-6.279076 -0.774629 7.028199 9.456343 0.122747 0.732917 0.005361 -0.000685 -866924.000000 1 0 0
4.177224 -4.991529 3.260599 7.279840 -0.873979 1.106387 -0.000801 -0.002677 -511317.000000 1 0 0
-2.609276 10.559471 -8.741501 13.954375 -1.328546 2.247767 0.001398 0.000065 194879.000000 1 0 0
-2.352876 -4.934229 2.788099 6.136459 1.125842 1.099154 0.009254 -0.003845 -642212.000000 1 0 0
15.107324 4.927871 6.283399 17.087898 0.315309 1.194251 0.028408 -0.010832 -475451.000000 1 0 0
6.839124 0.227871 0.068799 6.843265 0.033306 1.560743 -0.000197 -0.000557 3106920.000000 1 0 0
-9.763076 9.247571 0.379799 13.452861 -0.758288 1.542561 0.005105 -0.004979 -2185850.000000 1 0 0
7.063324 10.589371 -2.581701 12.988091 0.982549 1.770904 0.005023 -0.001784 -277923.000000 1 0 0
1.458024 -4.251529 -5.528801 7.125235 -1.240424 2.459010 0.006756 -0.004934 -558773.000000 1 0 0
0.857524 -8.203629 -7.807401 11.357393 -1.466645 2.328739 0.000498 -0.000117 671817.000000 1 0 0
-10.428776 0.235371 -10.456101 14.769726 -0.022566 2.357376 0.014923 -0.006775 -3838920.000000 1 0 0
6.055324 -2.577629 0.488899 6.599254 -0.402446 1.496644 0.001190 -0.001119 -272877.000000 1 0 0
-3.329076 5.266171 -0.906301 6.295767 -1.007063 1.715252 0.006162 -0.003605 1204190.000000 1 0 0
-0.283176 4.515771 -5.090101 6.810397 -1.508170 2.414939 0.002708 -0.003760 -656316.000000 1 0 0
3.914824 -9.689329 10.036399 14.489246 -1.186817 0.805599 -0.003019 -0.002137 -1166720.000000 1 0 0
7.398524 -13.336529 -0.852701 15.275086 -1.064309 1.626648 0.008977 -0.006374 539235.000000 1 0 0
13.044224 -0.106729 0.352699 13.049428 -0.008182 1.543765 0.005639 -0.003187 835390.000000 1 0 0
9.297324 2.388271 -0.597301 9.617736 0.251441 1.632940 0.005015 0.000199 615520.000000 1 0 0
-0.787676 -5.762629 4.449999 7.323306 1.434951 0.917699 0.005304 -0.002576 -272910.000000 1 0 0
11.419424 -3.652029 3.268299 12.426679 -0.309529 1.304659 0.011168 -0.004719 -3246490.000000 1 0 0
1.581824 -8.143629 11.780199 14.408121 -1.378945 0.613552 -0.005331 0.002696 460485.000000 1 0 0
9.433224 -6.011729 -5.890101 12.641989 -0.567391 2.055466 0.001136 -0.004352 -1740620.000000 1 0 0
3.153624 6.331971 -0.108101 7.074665 1.108712 1.586077 -0.002797 0.001269 -138897.000000 1 0 0
6.333124 -1.303829 11.478299 13.174209 -0.203038 0.513011 0.004121 -0.001239 224786.000000 1 0 0
-4.886876 -7.614329 -3.847101 9.831569 1.000207 1.972841 0.014527 -0.004819 167142.000000 1 0 0
-3.439076 -8.621729 -5.869201 10.982211 1.191252 2.134627 0.012423 -0.003974 -381940.000000 1 0 0
9.972824 5.324771 2.227599 11.522700 0.490420 1.376249 0.003423 -0.001488 -96997.100000 1 0 0
8.867124 -1.468329 0.238199 8.991030 -0.164103 1.544300 -0.000789 -0.000566 990259.000000 1 0 0
-3.836876 9.644271 9.128999 13.822887 -1.192154 0.849410 0.000887 -0.004808 22059.500000 1 0 0
-14.347076 -3.596329 -5.998701 15.961096 0.245606 1.956091 0.014557 -0.007593 151857.000000 1 0 0
10.611324 6.274571 -5.997301 13.709051 0.534005 2.023580 0.005456 -0.002846 -1681320.000000 1 0 0
-1.755876 4.526871 2.624399 5.519342 -1.200783 1.075274 0.002427 0.000459 14456.700000 1 0 0
6.852024 -3.754629 2.727699 8.275737 -0.501275 1.234914 0.000036 -0.001789 -2092470.000000 1 0 0
8.272824 -11.020429 -1.569601 13.869143 -0.926860 1.684211 0.008353 -0.006037 -33700.100000 1 0 0
4.528624 0.501571 1.763999 4.885868 0.110306 1.201412 -0.001690 0.001731 640490.000000 1 0 0
-10.847276 2.363771 3.764899 11.722852 -0.214560 1.243843 0.004611 -0.006305 139820.000000 1 0 0
-0.829476 -3.024429 4.323099 5.340823 1.303120 0.627591 0.008365 -0.003188 891032.000000 1 0 0
8.608424 -8.807729 -8.625301 15.035853 -0.796841 2.181750 0.011514 -0.001591 -455239.000000 1 0 0
12.030224 -4.787129 1.022099 12.987979 -0.378716 1.492019 0.009239 -0.006010 410031.000000 1 0 0
2.948124 4.884571 3.375299 6.628960 1.027764 1.036571 -0.004814 0.000626 -599426.000000 1 0 0
6.197324 7.420971 1.909599 9.855162 0.875011 1.375796 0.004096 -0.001353 -145618.000000 1 0 0
-1.761876 -1.289529 -10.333101 10.561253 0.631821 2.933357 0.009399 -0.008268 620041.000000 1 0 0
-0.827476 -8.525029 6.148299 10.543359 1.474035 0.948203 0.006294 -0.002805 431732.000000 1 0 0
-4.272176 -0.315129 2.333299 4.878020 0.073630 1.072045 0.008682 -0.003006 704319.000000 1 0 0
-8.515976 6.160271 -7.948701 13.177732 -0.626244 2.218293 0.005151 0.000347 -1248800.000000 1 0 0
6.420324 11.171971 -9.375901 15.935527 1.049201 2.199831 0.020631 -0.011711 254025.000000 1 0 0
-11.230576 -5.740729 3.209299 13.014661 0.472543 1.321635 0.004796 -0.000580 1421810.000000 1 0 0
1.554324 -6.331029 3.055299 7.199493 -1.330049 1.132523 0.001978 -0.003713 699644.000000 1 0 0
10.054124 2.285871 7.289299 12.627134 0.223556 0.955412 0.000407 -0.001729 -2122100.000000 1 0 0
-4.100876 -2.585629 -10.496801 11.562244 0.562549 2.708928 0.007972 -0.007909 -2202290.000000 1 0 0
-8.203776 11.774171 5.928099 15.526603 -0.962248 1.179050 0.015679 -0.009580 50149.200000 1 0 0
6.920824 6.028571 -2.998401 9.655666 0.716604 1.886550 0.005708 -0.000989 -1882860.000000 1 0 0
3.902824 -9.845029 -2.343501 10.846595 -1.193375 1.788572 -0.001795 -0.004430 -1343520.000000 1 0 0
8.509824 -13.028929 -7.332501 17.202781 -0.992211 2.011128 0.020655 -0.006830 465901.000000 1 0 0
-1.078276 9.542171 3.648299 10.272575 -1.458273 1.207722 -0.000371 0.001311 26151.100000 1 0 0
0.546924 -13.127029 4.738999 13.966966 -1.529156 1.224623 0.011782 -0.004172 -1036770.000000 1 0 0
-11.258376 -7.062429 -5.088801 14.231121 0.560255 1.936474 0.007902 -0.004741 3757.510000 1 0 0
3.611124 10.318571 -3.417501 11.453927 1.234154 1.873780 0.009104 -0.003398 -1052250.000000 1 0 0
11.645624 -8.167129 -7.407801 16.037396 -0.611601 2.050942 0.031095 -0.005797 -74197.900000 1 0 0
11.550624 -4.634129 -5.719201 13.696764 -0.381542 2.001553 0.012359 -0.009112 527993.000000 1 0 0
1.312424 -10.243229 -2.715401 10.677996 -1.443365 1.827919 0.002523 -0.000851 -888459.000000 1 0 0
2.339624 -11.993029 -3.949701 12.841601 -1.378134 1.883435 0.001435 -0.002042 -1635890.000000 1 0 0
-7.677676 -5.626529 7.304399 11.998282 0.632430 0.916266 0.004010 0.002568 -3150170.000000 1 0 0
-7.185576 -0.798029 9.439699 11.890217 0.110607 0.653592 0.007010 -0.000273 554531.000000 1 0 0
16.254424 2.604571 -7.709401 18.177595 0.158887 2.008781 0.050260 -0.003612 640389.000000 1 0 0
-1.997576 6.318671 -5.566901 8.654842 -1.264600 2.269483 0.002922 -0.002309 -562694.000000 1 0 0
7.700524 1.334771 8.388799 11.465236 0.171630 0.750024 -0.000186 -0.000514 -1259960.000000 1 0 0
7.937224 8.335471 -3.723601 12.097306 0.809867 1.883681 0.006302 0.000340 -212948.000000 1 0 0
8.144624 0.554171 3.970999 9.078042 0.067937 1.118059 0.001853 0.001283 606794.000000 1 0 0
-7.082076 5.858171 5.416199 10.668138 -0.691097 1.038285 0.006646 -0.008826 238600.000000 1 0 0
-6.072176 -2.047529 -4.530201 7.847701 0.325225 2.186171 0.008155 -0.004838 -1167440.000000 1 0 0
-15.143876 -2.229229 3.186399 15.635203 0.146154 1.365562 0.016600 -0.009689 718187.000000 1 0 0
1.033624 1.275371 -10.554801 10.681703 0.889716 2.987295 0.007177 -0.007322 613602.000000 1 0 0
1.368124 -9.156729 9.439899 13.222297 -1.422482 0.775690 -0.000968 -0.002426 -275135.000000 1 0 0
-0.110976 -6.685129 -1.054001 6.768617 1.554197 1.727151 0.008381 -0.002695 515550.000000 1 0 0
-0.429076 -10.273429 -8.446201 13.306606 1.529055 2.258465 -0.000196 0.001233 46515.200000 1 0 0
-4.336576 6.562971 3.743899 8.711788 -0.986891 1.126579 0.004912 -0.002587 -183827.000000 1 0 0
10.728224 -1.074429 -8.676301 13.839342 -0.099817 2.248403 0.019296 0.000273 534866.000000 1 0 0
3.001524 -1.051229 6.324199 7.078822 -0.336881 0.465946 0.000376 0.001875 155656.000000 1 0 0
1.905724 -12.236729 6.903799 14.178567 -1.416299 1.062239 0.002526 -0.002050 -225570.000000 1 0 0
2.989124 -4.971529 -1.442801 5.977678 -1.029459 1.814568 0.004987 -0.004161 -1849000.000000 1 0 0
-0.988476 9.467471 -1.650301 9.660931 -1.466766 1.742460 0.002017 -0.001674 339601.000000 1 0 0
4.543024 -2.537329 2.515999 5.779910 -0.509354 1.120424 0.000686 -0.001048 -2531520.000000 1 0 0
17.776724 6.597871 -2.746701 19.159546 0.355393 1.714651 0.018564 0.005361 657638.000000 1 0 0
-7.114076 3.482871 -5.410201 9.592223 -0.455273 2.170042 0.007939 -0.004135 760388.000000 1 0 0
-13.877176 -5.854829 2.369899 15.247014 0.399245 1.414730 0.002299 -0.000624 967217.000000 1 0 0
6.674924 -5.988529 3.578799 9.655304 -0.731248 1.191081 -0.000182 -0.004409 739738.000000 1 0 0
-4.725176 1.917871 3.602199 6.243505 -0.385568 0.955805 0.008404 -0.002903 573455.000000 1 0 0
6.872024 -12.040329 -5.456801 14.898688 -1.052161 1.945783 0.012215 -0.006583 -442901.000000 1 0 0
3.033524 -12.218229 3.468599 13.058276 -1.327438 1.301945 0.008906 -0.007021 -1242710.000000 1 0 0
3.208724 11.176971 -6.092101 13.127615 1.291231 2.053378 0.007893 -0.002842 -1119660.000000 1 0 0
-5.568576 -8.310529 6.531599 11.947205 0.980446 0.992372 0.007163 0.000383 -238214.000000 1 0 0
-3.911176 6.525871 6.250599 9.846536 -1.030867 0.883044 0.006360 -0.001723 516434.000000 1 0 0
4.253424 4.249371 -7.046701 9.263086 0.784921 2.435232 0.002548 0.001250 -2555780.000000 1 0 0
-0.282876 -2.943729 1.577599 3.351772 1.474996 1.080739 0.007484 -0.002779 1187920.000000 1 0 0
-13.238576 -0.890029 6.492199 14.771618 0.067129 1.115749 0.013638 -0.003893 -388420.000000 1 0 0
-0.611276 -9.292929 -6.037001 11.098539 1.505112 2.145928 0.003495 -0.002023 -187321.000000 1 0 0
2.131224 -1.800429 -3.948401 4.834618 -0.701459 2.526454 0.003024 -0.004043 -1364430.000000 1 0 0
11.363424 -1.905929 1.041999 11.569172 -0.166178 1.480607 0.006386 -0.006172 258772.000000 1 0 0
0.501824 -4.285929 -1.760401 4.660475 -1.454241 1.958140 0.007474 -0.004605 -2387000.000000 1 0 0
1.104124 -7.315829 -11.329701 13.531540 -1.421004 2.563088 -0.002545 0.000549 -652584.000000 1 0 0
-4.465776 4.085771 -10.048001 11.730260 -0.740990 2.599417 0.003607 -0.005880 126045.000000 1 0 0
-1.020276 5.726371 -2.050801 6.167501 -1.394475 1.909768 0.001842 -0.001505 -600504.000000 1 0 0
-11.349576 1.628471 -3.853401 12.096011 -0.142510 1.895015 0.007876 -0.005208 -335331.000000 1 0 0
-1.761976 -11.179529 4.187999 12.067550 1.414475 1.216376 0.015396 -0.002534 -44149.400000 1 0 0
-3.566576 -5.514729 -9.649201 11.672179 0.996719 2.543984 0.006315 -0.003143 -1998750.000000 1 0 0
-12.915776 -3.787629 -8.308701 15.817645 0.285258 2.123841 0.019958 -0.005396 460850.000000 1 0 0
11.457924 4.495971 0.398999 12.314909 0.373929 1.538391 0.008786 -0.000019 46804.000000 1 0 0
-8.812076 -2.505229 -3.036501 9.651383 0.276987 1.890851 0.008916 -0.005701 112412.000000 1 0 0
-2.581976 -6.195729 -6.434401 9.298127 1.175947 2.335067 0.008011 -0.005560 54327.100000 1 0 0
-0.029676 2.611071 -1.893001 3.225217 -1.559432 2.198067 0.003384 -0.001413 -951028.000000 1 0 0
8.057424 6.059771 -5.192601 11.340459 0.644826 2.046409 0.004937 -0.001886 -414657.000000 1 0 0
-9.843376 -0.994229 -0.893501 9.933724 0.100663 1.660864 0.002690 -0.004469 -289797.000000 1 0 0
6.193824 0.543671 -8.897701 10.854866 0.087552 2.531678 0.001169 0.000540 341603.000000 1 0 0
-4.122076 2.541071 7.799599 9.180539 -0.552430 0.555608 0.002236 0.000900 -1078910.000000 1 0 0
-10.162976 -3.261329 1.406199 10.765674 0.310522 1.439803 0.002604 -0.003614 3021750.000000 1 0 0
-1.839576 -8.132429 -7.966301 11.531799 1.348338 2.333407 0.004422 -0.004332 332411.000000 1 0 0
-9.351576 -9.822729 4.249399 14.212507 0.809965 1.267162 0.007968 0.000659 -597718.000000 1 0 0
-1.034376 -10.716729 7.298899 13.007388 1.474575 0.975040 0.009257 -0.001895 2009.080000 1 0 0
9.371824 3.841171 -3.806801 10.820232 0.388981 1.930314 0.003944 -0.000787 -845266.000000 1 0 0
12.861824 -0.826429 2.875599 13.205248 -0.064166 1.351276 0.007947 -0.005029 309844.000000 1 0 0
6.564624 11.982971 -6.813201 15.267796 1.069621 2.033363 0.013693 -0.003739 -160459.000000 1 0 0
-11.820076 -0.108529 -6.449601 13.465635 0.009181 2.070274 0.013875 -0.003456 396797.000000 1 0 0
-7.639176 -6.653329 -11.514901 15.336777 0.716531 2.420074 0.012509 -0.005372 -1084870.000000 1 0 0
4.233024 5.937071 6.467599 9.746648 0.951411 0.845213 -0.006555 0.005532 -3370600.000000 1 0 0
-4.273976 -1.452829 -7.408301 8.675281 0.327671 2.594336 0.008007 -0.008470 264835.000000 1 0 0
9.720124 9.202171 0.923099 13.416888 0.758032 1.501941 0.015028 -0.003611 -1334500.000000 1 0 0
-8.975076 3.979471 4.910299 10.977213 -0.417345 1.107033 0.008777 -0.007438 964620.000000 1 0 0
-6.958076 7.765571 -12.161901 16.019699 -0.840187 2.432855 0.003217 -0.004289 -805469.000000 1 0 0
11.199824 -3.546629 7.188899 13.772978 -0.306678 1.021653 0.013836 -0.005779 494012.000000 1 0 0
11.942124 6.885571 6.349799 15.177133 0.523020 1.139136 0.012870 -0.003093 104654.000000 1 0 0
-10.097976 -0.644329 -14.773501 17.906440 0.063721 2.541066 0.024349 0.001299 64302.700000 1 0 0
1.777424 -13.082329 12.083099 17.897146 -1.435759 0.829640 -0.013221 0.005031 36103.500000 1 0 0
2.906124 3.055371 12.918699 13.589468 0.810428 0.315503 -0.000197 -0.004889 -365942.000000 1 0 0
-2.547876 -1.353229 11.004399 11.376278 0.488233 0.256393 0.008754 -0.000320 -610451.000000 1 0 0
2.536324 -10.173729 -8.143201 13.275896 -1.326475 2.231132 -0.006282 0.003389 -833419.000000 1 0 0
13.868424 3.656971 -7.632601 16.246945 0.257822 2.059846 0.018628 -0.001097 -1615840.000000 1 0 0
7.333824 -1.550729 5.010299 9.016254 -0.208379 0.981596 -0.003551 -0.000223 456662.000000 1 0 0
-1.174976 8.681871 10.041999 13.326560 -1.436277 0.717377 -0.007257 -0.002341 -178363.000000 1 0 0
-12.352776 -4.601929 0.945999 13.216041 0.356614 1.499155 0.003798 -0.003758 420636.000000 1 0 0
-4.862976 4.828871 -5.253901 8.635392 -0.781879 2.224858 0.008232 -0.003701 -308869.000000 1 0 0
-11.275976 0.411971 1.961799 11.452773 -0.036519 1.398653 0.001295 -0.005291 -2519070.000000 1 0 0
-1.175776 2.177371 -4.136401 4.820084 -1.075665 2.602470 0.005042 -0.003511 865222.000000 1 0 0
3.042924 -9.752629 13.105899 16.617393 -1.268357 0.662128 -0.009832 0.003401 -3575470.000000 1 0 0
9.013224 4.668671 -1.404401 10.247295 0.477928 1.708280 0.004647 -0.001219 -1288640.000000 1 0 0
4.077224 2.342371 3.704699 5.986256 0.521459 0.903496 -0.004754 0.002468 -234349.000000 1 0 0
-5.561376 -3.242429 7.442599 9.840454 0.527845 0.713116 0.005493 -0.002134 49519.900000 1 0 0
1.931624 -5.846429 7.612299 9.790761 -1.251694 0.680118 0.000776 -0.001012 -812825.000000 1 0 0
-5.931076 -6.208129 -9.710001 12.961583 0.808217 2.417555 0.009366 -0.007143 -1089990.000000 1 0 0
-11.731876 -5.781129 5.576099 14.217990 0.457848 1.167789 0.013173 -0.000533 -1279340.000000 1 0 0
10.538124 6.213671 4.550799 13.052645 0.532765 1.214666 0.004773 -0.001021 -1526420.000000 1 0 0
1.749124 -3.672829 0.430799 4.090806 -1.126342 1.465292 0.000991 -0.003703 -486461.000000 1 0 0
8.818724 4.385171 6.847999 11.995612 0.461451 0.963225 -0.000939 0.002940 454503.000000 1 0 0
-7.809576 12.003771 3.530099 14.749291 -0.994004 1.329110 0.014210 -0.006865 111093.000000 1 0 0
-6.255176 13.265471 -6.871601 16.196260 -1.130176 2.008953 0.009699 -0.005928 533126.000000 1 0 0
4.576324 -6.957529 -1.050601 8.393671 -0.988991 1.696291 0.002928 -0.007417 -439401.000000 1 0 0
-2.020876 -8.131829 11.202199 13.989276 1.327216 0.642216 -0.000317 -0.003239 -206030.000000 1 0 0
11.619824 8.845571 -5.801801 15.713858 0.650661 1.948961 0.023582 -0.006591 321837.000000 1 0 0
-3.439976 -3.016229 -1.859101 4.938352 0.719858 1.956770 0.013186 -0.005172 -3393680.000000 1 0 0
-2.040376 6.016971 4.656299 7.877068 -1.243862 0.938349 0.002393 0.001650 -1163540.000000 1 0 0
0.422424 -11.456329 -5.765801 12.832396 -1.533940 2.036796 -0.002881 -0.003338 -52644.100000 1 0 0
-8.783376 6.259371 -1.502101 10.889615 -0.619158 1.709176 0.007685 -0.004359 -253772.000000 1 0 0
2.990324 -0.063529 3.859899 4.883124 -0.021242 0.659242 -0.001824 0.001114 1010270.000000 1 0 0
-10.078976 3.946971 -1.001601 10.870489 -0.373248 1.663067 0.008890 -0.005138 -17585.000000 1 0 0
6.403224 5.422371 13.650899 16.023434 0.702644 0.551130 0.021619 -0.002070 67400.000000 1 0 0
-8.761676 -1.598729 5.686399 10.566836 0.180483 1.002572 0.003781 -0.002710 -238984.000000 1 0 0
12.983124 -1.836029 -1.596001 13.209078 -0.140485 1.691918 0.009919 -0.005783 -1826990.000000 1 0 0
5.000724 -5.523529 5.573499 9.304865 -0.835034 0.928560 0.002717 -0.003554 71924.200000 1 0 0
-9.100876 -1.267429 3.114699 9.702250 0.138375 1.243981 -0.000325 -0.004453 627480.000000 1 0 0
2.020724 5.484071 5.533599 8.048545 1.217761 0.812717 -0.002925 0.002278 -799791.000000 1 0 0
9.310524 3.065471 -7.484101 12.332670 0.318069 2.222890 0.002561 -0.001633 -940706.000000 1 0 0
2.381224 -2.470229 -1.516101 3.751110 -0.803742 1.986872 0.003118 -0.001961 -86220.300000 1 0 0
-6.303076 0.366471 -3.956901 7.451183 -0.058076 2.130628 0.003880 -0.001634 -1891360.000000 1 0 0
-4.018976 4.188371 4.849899 7.564135 -0.806035 0.874774 0.005850 -0.000936 1188840.000000 1 0 0
-6.437876 1.706271 -12.279701 13.969562 -0.259080 2.644626 0.003656 -0.002317 -2540090.000000 1 0 0
0.003024 3.090471 6.089399 6.828748 1.569818 0.469643 0.001363 0.002100 847316.000000 1 0 0
-8.824676 9.447971 -2.150301 13.105833 -0.819496 1.735614 0.004753 -0.000272 281984.000000 1 0 0
-1.442476 -3.816529 -6.192001 7.415356 1.209438 2.558973 0.009572 -0.005628 195867.000000 1 0 0
-3.337376 6.917571 -2.857401 8.194852 -1.121288 1.926961 0.003871 0.002660 999347.000000 1 0 0
7.030224 -0.412529 -4.315501 8.259406 -0.058612 2.120571 -0.000763 0.000204 -251532.000000 1 0 0
-5.326476 -10.864629 6.961899 13.959926 1.114972 1.048691 0.007253 0.000035 528045.000000 1 0 0
9.805824 8.334071 -1.501001 12.956232 0.704442 1.686909 0.007261 -0.000043 25966.200000 1 0 0
13.792624 4.707271 -4.614201 15.286783 0.328893 1.877421 0.009099 0.000325 769826.000000 1 0 0
4.759424 1.023271 -6.847001 8.401228 0.211775 2.523526 -0.000834 -0.001389 -239919.000000 1 0 0
9.105024 -4.799129 3.343799 10.821927 -0.485081 1.256672 0.002711 -0.003078 -2106070.000000 1 0 0
-8.816176 -3.302229 -0.764901 9.445356 0.358389 1.651867 0.001548 -0.003960 -150561.000000 1 0 0
-8.629376 -4.326729 -10.386901 14.180071 0.464763 2.392783 0.008290 -0.006591 28483.800000 1 0 0
10.320724 -1.120529 10.707999 14.914228 -0.108147 0.769912 0.012475 -0.004364 1105210.000000 1 0 0
2.113024 -11.569929 9.867099 15.352126 -1.390156 0.872755 -0.011889 -0.001347 346809.000000 1 0 0
-6.513576 -10.588429 2.159399 12.617626 1.019304 1.398808 0.016485 0.000008 -1528360.000000 1 0 0
-3.691976 -1.422229 6.729599 7.806467 0.367702 0.531487 0.008365 -0.001014 -3014980.000000 1 0 0
4.683124 -7.594029 4.000299 9.777695 -1.018199 1.149301 -0.002504 -0.004143 262174.000000 1 0 0
11.551324 -9.537329 -5.429101 15.933263 -0.690186 1.918500 0.022448 -0.007861 312719.000000 1 0 0
11.309724 1.172671 11.432499 16.124114 0.103318 0.782673 0.036730 -0.004377 -443922.000000 1 0 0
-10.174376 -3.503329 4.441899 11.641379 0.331613 1.179312 0.011261 -0.002223 974507.000000 1 0 0
2.156224 8.777471 8.858099 12.655403 1.329912 0.795474 -0.006528 0.003674 35593.300000 1 0 0
6.661124 8.757171 4.108599 11.744752 0.920515 1.213413 0.004897 0.000188 462343.000000 1 0 0
-4.138376 3.414671 0.422599 5.381888 -0.689874 1.492193 0.009006 -0.003807 -1256730.000000 1 0 0
5.003324 6.922471 4.169199 9.504530 0.944954 1.116696 0.000133 0.001277 -1075870.000000 1 0 0
-8.196476 13.161471 1.174699 15.549484 -1.013807 1.495178 0.011511 -0.003702 -1538350.000000 1 0 0
8.901424 8.179671 -9.060001 15.107150 0.743169 2.213943 0.016754 -0.010175 344461.000000 1 0 0
7.142624 1.950071 5.981299 9.518183 0.266523 0.891292 -0.004958 0.002757 -1094980.000000 1 0 0
11.635624 -6.276529 3.230099 13.609413 -0.494687 1.331167 0.010826 -0.004364 -99207.200000 1 0 0
11.402024 4.677871 -2.204101 12.519852 0.389326 1.747767 0.005395 0.001095 54026.800000 1 0 0
-3.976376 14.406271 -5.898501 16.066877 -1.301485 1.946709 -0.001413 0.001318 -152774.000000 1 0 0
7.218724 -3.038829 6.976999 10.489184 -0.398448 0.843087 0.001721 -0.001581 -1311640.000000 1 0 0
-8.016376 -0.564829 0.894599 8.085890 0.070343 1.459932 0.004474 -0.005888 423705.000000 1 0 0
-3.168576 1.096771 10.705099 11.217929 -0.333232 0.303538 0.004863 0.002482 -34064.900000 1 0 0
7.048524 -1.322729 -1.933801 7.427711 -0.185503 1.834180 0.001821 -0.000359 -1194910.000000 1 0 0
-7.814876 5.434171 2.958699 9.967768 -0.607607 1.269429 0.009647 -0.007070 790489.000000 1 0 0
9.428624 -2.201529 2.785199 10.074871 -0.229384 1.290698 0.000201 -0.002803 -1477930.000000 1 0 0
0.267524 3.390071 1.542499 3.734094 1.492045 1.144957 0.001343 0.000397 -3387360.000000 1 0 0
-7.549376 -3.084229 3.961399 9.066324 0.387847 1.118607 0.003525 -0.001788 656451.000000 1 0 0
-2.290876 8.368271 -6.754801 10.995609 -1.303586 2.232318 0.002621 -0.001950 -581073.000000 1 0 0
4.460624 9.725671 7.173599 12.882017 1.140777 0.980185 -0.005118 0.010020 2190220.000000 1 0 0
-11.815676 -3.083429 6.809699 13.981764 0.255268 1.062097 0.019335 -0.006073 -1793420.000000 1 0 0
-4.767476 2.279871 -5.553201 7.665812 -0.446067 2.380976 0.008522 -0.004998 -1012640.000000 1 0 0
-2.700976 2.882171 -1.952501 4.406182 -0.817841 2.029881 0.007123 -0.002031 2117580.000000 1 0 0
2.251924 5.270871 11.300799 12.671279 1.167030 0.469392 -0.001645 -0.004280 182231.000000 1 0 0
-0.627176 1.587271 4.499899 4.812678 -1.194497 0.362511 0.006021 -0.001313 -363884.000000 1 0 0
5.168524 1.667971 7.612599 9.351333 0.312166 0.619678 -0.005557 0.001359 502531.000000 1 0 0
3.477924 -8.153429 1.921299 9.070047 -1.167605 1.357350 0.001592 -0.005613 1624040.000000 1 0 0
5.059624 6.437371 -4.615501 9.399063 0.904665 2.084102 0.005819 -0.001012 -2268030.000000 1 0 0
-4.042076 2.868271 -7.924601 9.346906 -0.617142 2.582679 0.009930 -0.008423 -650541.000000 1 0 0
-8.737176 -2.135129 -12.955401 15.771475 0.239676 2.534737 0.016310 -0.003984 702647.000000 1 0 0
-7.771376 8.254471 1.112399 11.391576 -0.815534 1.472989 0.008806 -0.005039 -1885500.000000 1 0 0
7.427424 0.869771 -6.571201 9.955090 0.116572 2.291728 -0.000942 0.000929 512631.000000 1 0 0
9.078424 8.810671 5.400999 13.755599 0.770432 1.167296 0.009742 0.001888 488803.000000 1 0 0
9.407324 -1.108729 -1.491301 9.589109 -0.117317 1.726950 0.001468 -0.001004 -397994.000000 1 0 0
5.514224 0.222671 4.256499 6.969508 0.040359 0.913812 -0.004281 0.003263 -789945.000000 1 0 0
-4.349976 -7.315629 -7.898801 11.611708 1.034347 2.318892 0.010032 -0.006901 -954257.000000 1 0 0
-2.086876 7.425071 -0.555201 7.732721 -1.296807 1.642657 0.003379 -0.000441 231217.000000 1 0 0
13.319324 -3.414729 -7.291901 15.563952 -0.250969 2.058402 0.025948 -0.003954 667061.000000 1 0 0
-4.829976 -5.109229 1.691299 7.231416 0.813487 1.334728 0.012974 -0.005429 1083100.000000 1 0 0
-8.929876 1.297371 2.395799 9.336257 -0.144275 1.311281 0.003208 -0.005174 -127964.000000 1 0 0
-1.089876 11.199171 10.077999 15.105473 -1.473784 0.840386 -0.007209 -0.005129 199313.000000 1 0 0
-8.569276 0.368971 7.437499 11.352754 -0.043031 0.856445 0.003592 -0.001728 -391069.000000 1 0 0
-6.160976 12.956871 -2.098201 14.499675 -1.126941 1.716013 0.004531 -0.000062 313766.000000 1 0 0
-13.099976 -0.695329 3.271699 13.520239 0.053029 1.326385 0.007447 -0.006887 660906.000000 1 0 0
-6.642576 12.802271 8.617499 16.801287 -1.092175 1.032228 0.012602 -0.016825 1906410.000000 1 0 0
-8.036276 0.791271 -14.048801 16.204217 -0.098146 2.619915 0.009160 -0.002013 -76382.400000 1 0 0
7.462224 2.831771 3.531299 8.727760 0.362693 1.154249 -0.000805 0.000411 -532379.000000 1 0 0
-1.558776 0.519471 -2.065001 2.638913 -0.321681 2.469499 0.007913 -0.004205 485600.000000 1 0 0
-6.287476 9.564071 -10.250801 15.364984 -0.989233 2.301177 -0.000989 -0.002613 -397272.000000 1 0 0
-10.031176 13.608271 5.235799 17.698111 -0.935578 1.270462 0.020512 -0.011644 797158.000000 1 0 0
-5.535776 8.441471 2.355499 10.365887 -0.990366 1.341558 0.005125 -0.003879 -1814750.000000 1 0 0
-2.402476 -10.743029 -1.285301 11.083166 1.350785 1.687027 0.012805 -0.002221 462035.000000 1 0 0
-2.302076 -12.358929 8.849799 15.374057 1.386639 0.957419 0.006216 0.001966 457340.000000 1 0 0
-14.759676 -6.470929 -1.635801 16.198666 0.413182 1.671952 0.008100 -0.002463 144799.000000 1 0 0
-2.786576 -9.418929 3.244599 10.344498 1.283153 1.251757 0.010009 -0.002593 -1126690.000000 1 0 0
4.713124 -2.597029 7.547199 9.269213 -0.503626 0.619408 -0.001704 0.002350 -748562.000000 1 0 0
-15.034876 -1.366429 -0.272701 15.099304 0.090635 1.588858 0.011420 -0.013503 40682.600000 1 0 0
5.533924 8.762971 -2.822701 10.741584 1.007528 1.836701 0.006684 -0.001424 -1019090.000000 1 0 0
-5.650976 -5.657129 8.573099 11.723253 0.785942 0.750585 0.005167 0.001931 -3453600.000000 1 0 0
3.453124 3.623371 7.006199 8.610442 0.809452 0.620331 -0.004053 0.002405 439537.000000 1 0 0
3.308524 2.279071 9.315199 10.144626 0.603202 0.407184 -0.001270 -0.001692 514192.000000 1 0 0
9.931624 -3.272529 5.098299 11.633540 -0.318302 1.117155 0.008012 -0.004430 14220.400000 1 0 0
6.496224 10.041671 -5.075201 12.992065 0.996585 1.972121 0.007099 -0.001752 399902.000000 1 0 0
-4.582176 12.037371 -8.306601 15.326260 -1.207071 2.143593 -0.001696 -0.005430 -866456.000000 1 0 0
-3.373776 -7.276229 2.130399 8.298462 1.136632 1.311167 0.013718 -0.004034 984745.000000 1 0 0
-7.462376 -4.023529 1.175899 8.559122 0.494495 1.432975 0.005463 -0.003002 3178520.000000 1 0 0
-2.099876 -3.964329 -10.889701 11.777562 1.083678 2.750818 0.009481 -0.005889 -940413.000000 1 0 0
-5.192476 8.257271 -4.416201 10.707341 -1.009443 1.995934 0.004730 -0.001969 -577823.000000 1 0 0
-10.989276 -3.323829 -10.156501 15.328618 0.293713 2.295060 0.019569 -0.002670 -1681390.000000 1 0 0
4.764024 -11.434129 -7.703801 14.587110 -1.176020 2.127186 0.002365 -0.001779 -784410.000000 1 0 0
-9.407276 -3.995229 7.377999 12.605299 0.401613 0.945535 0.004951 -0.000599 -505915.000000 1 0 0
-5.819976 -9.628529 -5.094501 12.350491 1.027110 1.995986 0.013813 -0.005493 555975.000000 1 0 0
4.804824 4.404771 -9.595801 11.600334 0.741987 2.544903 0.000931 0.001481 543874.000000 1 0 0
-3.444376 -7.165329 -13.969201 16.073090 1.122707 2.624186 0.004786 -0.003575 -267921.000000 1 0 0
0.642624 -0.853429 -8.847101 8.911369 -0.925384 3.021421 0.006876 -0.009177 -37796.500000 1 0 0
-7.727576 2.186271 -2.844301 8.519698 -0.275713 1.911181 0.007379 -0.004494 -130335.000000 1 0 0
-2.351276 7.514471 -12.560101 14.824031 -1.267547 2.581639 0.003142 -0.005387 -113390.000000 1 0 0
-9.899276 8.894371 7.492499 15.272296 -0.731979 1.058025 0.018531 -0.013104 -70868.400000 1 0 0
-10.780876 -3.101729 -14.192501 18.090746 0.280141 2.472713 0.033812 0.001209 -280888.000000 1 0 0
-3.290076 4.781071 7.791099 9.715167 -0.968070 0.640240 0.002268 -0.000164 -104664.000000 1 0 0
8.739524 -2.321829 -3.691701 9.767233 -0.259672 1.958397 0.002049 -0.000169 -4870700.000000 1 0 0
1.921624 -8.413629 -1.172601 8.709580 -1.346254 1.705840 0.003101 -0.003086 -1100260.000000 1 0 0
-13.657876 -2.746829 5.094299 14.833561 0.198469 1.220229 0.024577 -0.009777 209570.000000 1 0 0
7.124824 2.793171 -2.056701 7.924326 0.373620 1.833345 0.001838 -0.000116 277884.000000 1 0 0
-11.055076 4.455271 8.841999 14.840656 -0.383096 0.932540 0.009854 -0.004118 -2873100.000000 1 0 0
-1.656976 -2.580429 7.901699 8.475909 0.999972 0.370203 0.004929 -0.002182 -1019430.000000 1 0 0
3.075224 11.973671 -9.969001 15.881020 1.319398 2.249431 0.007139 -0.007799 702925.000000 1 0 0
3.536624 -5.105229 -7.118401 9.446836 -0.964956 2.424200 0.001631 -0.004367 459763.000000 1 0 0
8.301724 -13.912829 -9.716601 18.891738 -1.032810 2.111023 0.029501 -0.005861 136107.000000 1 0 0
-6.307176 -5.844829 -0.328101 8.605239 0.747370 1.608934 0.012912 -0.004174 -237605.000000 1 0 0
-1.253176 -3.984329 9.977299 10.816276 1.266067 0.396460 0.000861 -0.000414 484418.000000 1 0 0
2.789624 3.204371 1.686399 4.570989 0.854482 1.192933 -0.003909 0.001679 -759171.000000 1 0 0
-9.112876 13.431371 7.685799 17.958779 -0.974662 1.128552 0.026756 -0.021193 -161349.000000 1 0 0
3.985724 -11.094829 0.003699 11.789031 -1.225912 1.570483 0.002839 -0.003847 -155421.000000 1 0 0
-12.440376 -1.466429 -9.024701 15.438866 0.117335 2.195115 0.019059 -0.005544 58564.700000 1 0 0
-4.301776 1.020571 -13.581201 14.282712 -0.232938 2.826875 0.002175 -0.004591 136785.000000 1 0 0
3.990024 -3.026129 4.908099 7.011932 -0.648870 0.795449 -0.000953 0.000828 -98073.000000 1 0 0
1.810224 -1.244429 1.148199 2.478685 -0.602250 1.089161 0.001484 -0.000454 339715.000000 1 0 0
8.152024 -8.883229 7.391799 14.142346 -0.828295 1.020815 0.008278 -0.007145 -781277.000000 1 0 0
-0.049476 2.314571 -6.513701 6.912886 -1.549424 2.800097 0.004474 -0.006816 599749.000000 1 0 0
-3.766476 -9.790729 -3.424701 11.035093 1.203550 1.886354 0.015720 -0.003493 353194.000000 1 0 0
-9.441476 2.219871 -5.340501 11.072048 -0.230925 2.074121 0.006256 -0.002325 -360139.000000 1 0 0
9.044124 -7.553629 5.290799 12.916890 -0.695837 1.148777 0.004042 -0.006446 1432310.000000 1 0 0
-5.542276 -4.371329 4.701499 8.481122 0.667828 0.983216 0.004977 -0.003186 -1323390.000000 1 0 0
-0.093276 -12.525629 10.325599 16.233240 1.563350 0.881392 -0.000476 0.001330 37295.000000 1 0 0
-14.389576 -8.222629 3.218999 16.882934 0.519147 1.378956 0.015309 -0.002143 -1613380.000000 1 0 0
10.954024 -1.291529 -3.650101 11.618173 -0.117363 1.890380 0.011297 0.000119 -460624.000000 1 0 0
-13.684076 3.031471 2.651699 14.264475 -0.218012 1.383813 0.006385 -0.008331 105840.000000 1 0 0
-6.264876 6.233071 1.027999 8.897001 -0.782853 1.454993 0.009084 -0.004036 444270.000000 1 0 0
7.311224 -7.024129 -0.746101 10.166074 -0.765374 1.644254 0.003918 -0.007753 -557136.000000 1 0 0
-6.719976 7.848871 10.038199 14.405842 -0.862731 0.799850 0.003850 -0.005352 -45626.700000 1 0 0
-12.657876 -5.063929 -1.899601 13.764944 0.380559 1.709241 -0.003060 -0.004644 -2976690.000000 1 0 0
-9.533376 -5.587329 0.227299 11.052383 0.530122 1.550229 0.005400 -0.003454 -468552.000000 1 0 0
-1.751776 1.842371 2.201499 3.362982 -0.810599 0.857107 0.008043 -0.001515 83131.100000 1 0 0
-7.163676 7.381771 7.580299 12.777704 -0.800391 0.935713 0.004968 -0.007078 -173670.000000 1 0 0
5.644124 7.109571 -0.506301 9.091671 0.899800 1.626514 0.004043 -0.002563 -729914.000000 1 0 0
0.030524 -4.128329 7.585099 8.635842 -1.563403 0.498443 0.003605 -0.001220 -650606.000000 1 0 0
6.315624 0.646971 13.069299 14.529703 0.102084 0.452199 0.007756 -0.005532 287065.000000 1 0 0
5.692524 6.064571 -7.763401 11.377796 0.817032 2.321740 -0.002044 -0.000586 -446979.000000 1 0 0
9.768524 5.298671 9.148299 14.394143 0.497007 0.882067 -0.001154 -0.003336 -1600330.000000 1 0 0
-1.307576 -5.095029 -8.465901 9.966973 1.319580 2.585635 0.008454 -0.005841 515947.000000 1 0 0
9.977124 -3.559929 -8.050601 13.305197 -0.342728 2.220652 0.011856 -0.003956 558538.000000 1 0 0
7.990824 -5.819529 1.338699 9.975586 -0.629452 1.436193 -0.002735 -0.004912 998497.000000 1 0 0
15.817924 3.188371 -5.083401 16.917843 0.198902 1.875988 0.025480 0.005410 113748.000000 1 0 0
-6.886576 3.715871 1.137999 7.907444 -0.494809 1.426380 0.009123 -0.005236 1205740.000000 1 0 0
-1.678976 3.649171 0.260899 4.025354 -1.139577 1.505937 0.006105 -0.005403 -2027680.000000 1 0 0
-2.489176 10.127071 6.944599 12.529207 -1.329780 0.983307 0.001334 -0.001116 -571736.000000 1 0 0
5.486324 -5.772229 -8.708201 11.800472 -0.810787 2.400829 0.000071 -0.002168 934351.000000 1 0 0
-1.249276 -0.955029 6.230099 6.425489 0.652695 0.247240 0.006615 -0.001692 664218.000000 1 0 0
-5.662376 4.929371 -7.810501 10.833518 -0.716303 2.375979 0.006460 -0.003870 158894.000000 1 0 0
6.749024 -1.217229 2.531699 7.310299 -0.178438 1.217151 -0.003533 0.001202 -1194670.000000 1 0 0
8.800724 7.505171 3.195799 11.999728 0.706112 1.301220 0.007969 -0.000733 -188861.000000 1 0 0
-5.374476 -4.936829 -7.729101 10.629970 0.742980 2.384891 0.008090 -0.007112 358121.000000 1 0 0
-2.216976 7.862971 -10.035501 12.940347 -1.295979 2.458335 0.002180 -0.003218 -449599.000000 1 0 0
-2.780376 -2.245429 1.585999 3.909966 0.679357 1.153128 0.008226 -0.002600 -598397.000000 1 0 0
5.969724 -2.117929 -9.226401 11.191502 -0.340925 2.539958 -0.000244 -0.000630 1101390.000000 1 0 0
1.202524 -7.489429 5.102399 9.141777 -1.411592 0.978653 0.001755 -0.002147 569240.000000 1 0 0
1.900024 11.874471 1.068599 12.072906 1.412132 1.482168 0.001060 -0.004141 423884.000000 1 0 0
-1.023076 7.081171 2.535699 7.590747 -1.427311 1.230198 0.000388 0.001329 395352.000000 1 0 0
8.808124 8.010571 -6.535101 13.581600 0.738013 2.072789 0.011462 -0.004971 -494656.000000 1 0 0
3.793424 -10.973629 5.631599 12.904476 -1.237970 1.119195 0.004617 -0.001157 45802.600000 1 0 0
7.920824 -7.146229 12.428999 16.379501 -0.734033 0.709306 0.022217 -0.005794 671043.000000 1 0 0
-8.744776 -0.083529 -3.836701 9.549783 0.009552 1.984232 0.005523 -0.005710 -1270200.000000 1 0 0
-3.331776 -4.934329 11.283999 12.758408 0.976893 0.485512 0.005289 -0.002216 514358.000000 1 0 0
-8.211676 0.085571 -11.555601 14.176419 -0.010420 2.523747 0.006264 -0.006202 -1399410.000000 1 0 0
1.376324 -4.941929 5.363699 7.422008 -1.299180 0.763132 0.003105 -0.002447 -401838.000000 1 0 0
6.711924 3.723471 -7.771701 10.923072 0.506486 2.362418 -0.000854 0.000767 -775497.000000 1 0 0
16.313224 4.119671 -1.305801 16.875962 0.247364 1.648250 0.011332 0.010346 -1309490.000000 1 0 0
7.970224 7.433571 0.146299 10.899718 0.750573 1.557374 0.006828 -0.002726 -2026010.000000 1 0 0
5.260224 -10.533329 13.974199 18.272909 -1.107638 0.700144 -0.005740 -0.000581 138795.000000 1 0 0
-4.999176 -9.339229 9.054199 13.935260 1.079319 0.863563 -0.000742 -0.000351 733086.000000 1 0 0
-12.497276 -3.071829 2.933599 13.199395 0.241022 1.346672 0.008019 -0.004691 -730493.000000 1 0 0
-2.086676 -1.356329 -5.839401 6.347633 0.576372 2.738707 0.009524 -0.006970 -826710.000000 1 0 0
-2.437676 12.869071 -4.395001 13.815617 -1.383593 1.894540 0.001866 0.002509 492040.000000 1 0 0
3.905724 -0.592029 -5.087201 6.440869 -0.150435 2.481330 0.002145 -0.002306 -193739.000000 1 0 0
-8.930776 3.701071 -7.367301 12.154579 -0.392873 2.221987 0.003884 -0.001072 122000.000000 1 0 0
-4.523576 7.849471 -11.124401 14.346750 -1.047993 2.458137 0.002260 -0.004769 -835864.000000 1 0 0
-10.137576 -6.435529 7.451599 14.131978 0.565629 1.015393 0.008088 0.001365 -1867920.000000 1 0 0
8.159224 5.218971 4.074599 10.507757 0.569058 1.172585 0.000897 0.000855 -514432.000000 1 0 0
-6.701976 -7.544829 4.123399 10.901529 0.844490 1.182902 0.012084 -0.001961 -395470.000000 1 0 0
-4.045276 11.891671 7.967999 14.874983 -1.242899 1.005502 0.002987 -0.010387 -528670.000000 1 0 0
-7.344676 9.955671 -7.830201 14.641437 -0.935189 2.135064 0.003830 -0.002305 -763507.000000 1 0 0
13.080624 5.418071 4.575699 14.879357 0.392692 1.258211 0.004796 -0.002780 -1181900.000000 1 0 0
5.392924 3.964671 -3.824801 7.709173 0.633937 2.089939 0.001376 0.000362 152841.000000 1 0 0
-2.896676 -4.225529 5.089999 7.221767 0.969856 0.788636 0.006980 -0.003206 -2655150.000000 1 0 0
12.474024 -2.359029 -5.192101 13.715838 -0.186908 1.959023 0.009333 -0.004813 -1897190.000000 1 0 0
-5.159476 9.722071 6.918999 13.000439 -1.082894 1.009584 0.002313 -0.003711 -203392.000000 1 0 0
1.711024 3.722971 -0.561501 4.135626 1.140000 1.706989 0.000382 0.000483 619472.000000 1 0 0
-0.058376 9.714971 7.693899 12.392746 -1.564788 0.900984 -0.005979 0.001636 -865582.000000 1 0 0
-5.683176 2.225071 5.825499 8.437172 -0.373174 0.808677 0.006391 -0.001648 510558.000000 1 0 0
8.869324 1.100671 10.739999 13.972257 0.123467 0.694043 0.010734 -0.002704 -831374.000000 1 0 0
0.336024 -2.877029 -10.215101 10.617838 -1.454527 2.865287 0.005519 -0.006925 -1702260.000000 1 0 0
1.234424 10.591171 -2.780601 11.019458 1.454768 1.825889 0.005389 -0.001973 -62526.500000 1 0 0
2.376124 -4.257829 11.660199 12.638644 -1.061786 0.396073 0.003825 -0.000895 -356696.000000 1 0 0
6.537124 -3.052629 9.517199 11.942764 -0.436875 0.648649 0.006612 -0.000589 190829.000000 1 0 0
-10.581776 -8.230129 5.746299 14.585231 0.661035 1.165838 0.008833 0.000933 -1093280.000000 1 0 0
-2.983076 0.825971 -6.782601 7.455511 -0.270119 2.713462 0.010877 -0.006911 727606.000000 1 0 0
11.069524 2.739971 -5.046801 12.470446 0.242647 1.987448 0.006295 -0.000219 -2186060.000000 1 0 0
-2.057576 -4.166229 0.044999 4.646838 1.112065 1.561112 0.011139 -0.004114 1071160.000000 1 0 0
-1.373576 -6.453229 -10.644201 12.523174 1.361075 2.586706 0.005661 -0.003014 950432.000000 1 0 0
0.355024 6.782871 -6.600301 9.470869 1.518503 2.341870 0.005598 -0.000990 -2480640.000000 1 0 0
2.149824 3.687971 -6.105201 7.449587 1.043024 2.531396 0.001446 -0.001573 -1481020.000000 1 0 0
1.704924 -14.655829 6.533699 16.136583 -1.454986 1.153927 0.011481 -0.005165 -266779.000000 1 0 0
-1.689076 5.364671 -10.510701 11.920885 -1.265770 2.650260 0.005295 -0.003915 -166793.000000 1 0 0
13.707524 4.319171 -0.845001 14.396718 0.305247 1.629524 0.004093 0.004172 62939.300000 1 0 0
-2.421476 3.269771 -6.009501 7.257344 -0.933361 2.546431 0.007901 -0.004329 -1229080.000000 1 0 0
5.704124 7.786171 14.170699 17.145559 0.938527 0.597946 0.025991 -0.013227 742300.000000 1 0 0
15.958224 0.624771 -5.841501 17.005246 0.039130 1.921450 0.038257 -0.001178 345413.000000 1 0 0
6.128124 -8.201429 10.515999 14.676634 -0.929088 0.772006 0.002188 0.001990 1620950.000000 1 0 0
-0.043176 -5.971229 -6.335301 8.705945 1.563566 2.385756 0.005578 -0.005201 -920587.000000 1 0 0
8.674424 5.591571 -7.597101 12.815118 0.572573 2.205356 0.002685 -0.000100 -125512.000000 1 0 0
-15.982776 -0.624129 5.236799 16.830410 0.039030 1.254392 0.025816 -0.016928 -672720.000000 1 0 0
-0.355676 4.035571 -12.257701 12.909825 -1.482888 2.822391 0.006587 -0.006242 566795.000000 1 0 0
-11.413976 3.805771 5.776699 13.346647 -0.321838 1.123177 0.007062 -0.008152 -1261600.000000 1 0 0
5.098024 -9.822829 -9.742101 14.744028 -1.092066 2.292612 -0.004263 0.002032 -165524.000000 1 0 0
1.466024 11.095471 -11.723801 16.208214 1.439429 2.379401 0.003614 -0.002497 -3056030.000000 1 0 0
5.988424 2.330471 1.187399 6.534695 0.371129 1.388074 -0.000186 0.002056 -794271.000000 1 0 0
5.816224 4.439471 4.830199 8.767451 0.651953 0.987325 -0.002947 0.001684 -213171.000000 1 0 0
0.387924 -1.709029 -6.403801 6.639272 -1.347593 2.874467 0.007412 -0.006852 -871008.000000 1 0 0
12.755924 6.829671 -4.586301 15.178675 0.491574 1.877748 0.009708 -0.001815 -1368670.000000 1 0 0
7.314624 3.184871 12.628699 14.937576 0.410656 0.563424 0.010429 -0.002324 -274208.000000 1 0 0
-2.464076 -0.228729 8.623099 8.971166 0.092560 0.279471 0.003281 -0.000362 974702.000000 1 0 0
2.210224 -15.274629 13.420799 20.452805 -1.427095 0.855046 -0.007064 0.001037 -708606.000000 1 0 0
18.915224 4.374271 -1.815901 19.499166 0.227262 1.664059 0.019439 0.006157 980327.000000 1 0 0
-0.412976 -13.232129 7.264799 15.100897 1.539596 1.068906 0.004665 -0.000699 -199748.000000 1 0 0
4.445924 1.557071 -0.647101 4.754940 0.336875 1.707310 -0.001840 0.000529 1459790.000000 1 0 0
2.772724 -0.630729 -7.458701 7.982358 -0.223670 2.777362 0.000937 -0.005048 -271626.000000 1 0 0
7.248524 -11.267029 0.947499 13.430741 -0.999118 1.500191 -0.000837 -0.003434 505675.000000 1 0 0
-11.897576 -7.248129 1.305799 13.992598 0.547164 1.477340 0.004121 0.000664 30250.800000 1 0 0
0.036924 -6.972129 9.990299 12.182694 -1.565500 0.609315 -0.000804 -0.001122 -1342230.000000 1 0 0
-4.798776 -7.101629 10.669799 13.685978 0.976546 0.676745 0.004333 0.001716 -1198150.000000 1 0 0
11.818924 0.698971 -1.757201 11.969264 0.059071 1.718138 0.004282 -0.000006 1404190.000000 1 0 0
6.474524 -9.700029 -7.576301 13.907205 -0.982234 2.146917 -0.000836 -0.001804 -252260.000000 1 0 0
-10.931476 4.883771 3.426099 12.453374 -0.420158 1.292088 0.006406 -0.009333 -733731.000000 1 0 0
6.047724 -9.152729 2.095599 11.168659 -0.986897 1.382045 -0.002860 -0.005606 2901450.000000 1 0 0
11.603024 -1.299929 5.823999 13.047565 -0.111568 1.108095 0.012076 -0.005954 528932.000000 1 0 0
-6.544076 3.631971 4.065799 8.517445 -0.506675 1.073160 0.005165 -0.003830 -940477.000000 1 0 0
9.510924 6.344771 -3.185801 11.868577 0.588305 1.842552 0.005264 -0.000702 -771832.000000 1 0 0
-2.346276 6.679971 10.828899 12.938009 -1.233017 0.579049 -0.008430 -0.001259 -238851.000000 1 0 0
1.913924 9.803971 2.903899 10.402576 1.378002 1.287886 -0.004058 0.000560 -329575.000000 1 0 0
2.886724 6.021271 -5.632401 8.735721 1.123747 2.271499 0.001840 -0.000250 -1778070.000000 1 0 0
12.021924 0.142571 -5.581601 13.255235 0.011859 2.005439 0.011989 -0.000888 240564.000000 1 0 0
-2.646676 -12.475829 6.314499 14.231096 1.361751 1.111061 0.012901 -0.000521 -25546.800000 1 0 0
10.820324 1.830071 -2.810101 11.328073 0.167547 1.821479 0.003070 0.000791 615245.000000 1 0 0
-8.855876 5.425071 0.888399 10.423396 -0.549630 1.485462 0.007630 -0.006977 783393.000000 1 0 0
1.267124 -10.050729 5.518699 11.535978 -1.445385 1.071976 0.002656 -0.002537 -420677.000000 1 0 0
9.590724 -5.631529 -0.797401 11.150424 -0.530943 1.642370 0.003839 -0.004931 -168388.000000 1 0 0
-7.790376 8.680371 -4.543601 12.517312 -0.839381 1.942266 0.002506 -0.001794 83166.900000 1 0 0
-7.536976 -0.068829 -1.596101 7.704432 0.009132 1.779474 0.004251 -0.003625 -1203340.000000 1 0 0
4.228924 8.865771 2.678199 10.181279 1.125722 1.304613 0.002101 -0.002309 -369177.000000 1 0 0
-1.318376 -10.570929 -3.801901 11.310928 1.446720 1.913597 0.009870 -0.001947 271932.000000 1 0 0
3.153024 7.875271 -3.694701 9.252690 1.189971 1.981562 0.005252 -0.002274 -29004.700000 1 0 0
-4.366776 1.620271 -11.015901 11.960104 -0.355299 2.741575 0.003079 -0.006153 -618582.000000 1 0 0
1.274424 2.798371 10.902099 11.327436 1.143447 0.274906 -0.001963 -0.001872 544212.000000 1 0 0
2.116124 5.547471 -8.091301 10.036014 1.206376 2.508542 0.006221 -0.000897 6837.760000 1 0 0
15.567224 6.023771 4.033699 17.172508 0.369208 1.333688 0.013840 -0.004522 -188473.000000 1 0 0
-4.378276 9.082971 4.598099 11.082066 -1.121627 1.142949 0.003615 -0.002335 -745787.000000 1 0 0
-0.946376 -8.211129 -12.406101 14.907367 1.456047 2.553883 -0.000789 -0.001381 67946.600000 1 0 0
14.250424 -4.332829 -5.172201 15.767044 -0.295167 1.905023 0.029287 -0.003339 1636460.000000 1 0 0
-6.119376 -6.323829 -5.688701 10.478496 0.801828 2.144674 0.010409 -0.004178 588401.000000 1 0 0
-8.932076 2.585671 -12.202501 15.341731 -0.281779 2.490430 0.013753 -0.005622 494726.000000 1 0 0
10.438524 5.395871 13.807199 18.130553 0.477091 0.705106 0.026214 -0.008182 707553.000000 1 0 0
-0.386276 11.099671 5.499599 12.393446 -1.536010 1.111017 -0.002299 0.001974 394064.000000 1 0 0
0.283624 11.338771 -0.555001 11.355888 1.545788 1.619689 0.001278 -0.002164 100542.000000 1 0 0
-1.490076 -0.595529 3.619399 3.959170 0.380216 0.417313 0.008755 -0.002327 190200.000000 1 0 0
-4.810376 6.787371 8.711399 12.045605 -0.954239 0.762370 0.002628 -0.001988 -1073960.000000 1 0 0
3.410824 -8.704729 -11.343101 14.699387 -1.197348 2.452262 -0.004497 0.004357 474074.000000 1 0 0
6.750424 -3.813029 12.044499 14.324014 -0.514179 0.571925 0.014131 -0.001471 -414006.000000 1 0 0
-2.597776 -1.937529 -12.490301 12.903878 0.640834 2.887729 0.006850 -0.009654 670458.000000 1 0 0
-16.141776 -4.769729 5.320599 17.652649 0.287314 1.264630 0.040104 -0.014217 1242040.000000 1 0 0
-8.947876 7.361771 5.704899 12.915341 -0.688454 1.113287 0.010497 -0.008262 -3747380.000000 1 0 0
-12.766476 1.575971 5.921699 14.160971 -0.122825 1.139366 0.003055 -0.007211 226953.000000 1 0 0
-3.466076 3.608471 10.102599 11.273742 -0.805523 0.459853 0.001555 0.002192 588786.000000 1 0 0
2.047024 -12.125229 -1.172701 12.352599 -1.403550 1.665875 0.012398 -0.003363 -3413890.000000 1 0 0
10.174224 -5.312929 -3.473801 11.992054 -0.481246 1.864684 0.012443 -0.005722 430845.000000 1 0 0
2.873324 -13.257429 1.060399 13.606611 -1.357364 1.492785 0.005193 -0.003721 290052.000000 1 0 0
10.102024 -1.601529 -6.176501 11.948429 -0.157227 2.114057 0.009295 0.000049 943078.000000 1 0 0
12.019324 -5.286229 -1.574801 13.224537 -0.414348 1.690161 0.012093 -0.008886 -1199430.000000 1 0 0
1.541924 0.937871 5.869999 6.141174 0.546461 0.298281 0.001917 0.000073 202808.000000 1 0 0
-10.707876 11.644671 6.557599 17.124809 -0.827284 1.177831 0.028480 -0.013363 -777981.000000 1 0 0
4.864424 -13.890129 2.819699 14.984959 -1.233937 1.381499 0.006552 -0.007300 -3562240.000000 1 0 0
5.375924 -3.422129 -1.762301 6.611901 -0.566873 1.840592 0.000788 -0.003019 -1590170.000000 1 0 0
1.983324 -2.982929 -7.859601 8.637405 -0.984024 2.713958 0.003693 -0.005660 47729.000000 1 0 0
-2.857976 14.810771 -8.899501 17.513654 -1.380173 2.103828 0.004557 -0.003365 -3002530.000000 1 0 0
-2.288476 6.058371 -8.092201 10.364589 -1.209628 2.466669 0.006782 -0.004869 -340760.000000 1 0 0
2.548824 -3.514929 -11.397501 12.196485 -0.943395 2.777622 0.000324 -0.001897 -1581970.000000 1 0 0
14.675024 2.871971 -2.840701 15.220846 0.193262 1.758529 0.019540 0.006663 627768.000000 1 0 0
-3.431176 13.220871 2.175299 13.830991 -1.316871 1.412863 0.003536 -0.001190 -1008670.000000 1 0 0
7.879624 -4.975329 14.059399 16.867397 -0.563200 0.585338 0.018944 -0.006238 -229898.000000 1 0 0
-11.434676 7.201071 2.850599 13.810617 -0.562013 1.362896 0.010753 -0.008710 1276370.000000 1 0 0
-2.185176 11.960371 3.993599 12.797433 -1.390088 1.253433 0.000352 -0.001128 286425.000000 1 0 0
1.833924 1.327771 0.593799 2.340695 0.626656 1.314308 -0.001191 0.000044 -1393760.000000 1 0 0
-6.815576 8.618671 5.239999 12.173379 -0.901695 1.125808 0.004169 -0.006826 -561060.000000 1 0 0
-1.005676 9.122771 1.042899 9.237098 -1.461002 1.457652 -0.002207 0.000749 354424.000000 1 0 0
5.024724 13.157271 -8.671101 16.539336 1.205993 2.122656 0.022643 -0.013628 -1304020.000000 1 0 0
8.902924 6.942771 7.157599 13.367698 0.662321 1.005768 -0.002957 0.001257 -1316960.000000 1 0 0
7.386024 -13.596929 2.972499 15.756446 -1.073179 1.381006 0.009404 -0.005571 640756.000000 1 0 0
4.122924 -13.317729 -1.204001 13.993214 -1.270572 1.656945 0.000966 0.000283 -2552480.000000 1 0 0
12.142024 -11.793229 -4.641701 17.551478 -0.770827 1.838442 0.025391 -0.003659 -1036900.000000 1 0 0
3.088724 -0.187629 -2.123201 3.752786 -0.060672 2.172159 0.000656 0.000207 735394.000000 1 0 0
-13.631776 -3.175929 -10.609101 17.563167 0.228897 2.219375 0.024830 -0.008528 426979.000000 1 0 0
-6.568176 13.711871 5.012099 16.008669 -1.124078 1.252355 0.015431 -0.008317 111985.000000 1 0 0
7.337424 -4.369829 -0.651901 8.564939 -0.537144 1.646983 -0.000887 -0.002753 -2085930.000000 1 0 0
11.753224 2.018671 -7.368101 14.017925 0.170095 2.124240 0.014340 -0.001833 -280747.000000 1 0 0
-7.506376 -4.680429 9.836099 13.228792 0.557539 0.732452 0.010232 -0.000868 319564.000000 1 0 0
1.033124 2.878471 8.449299 8.985744 1.226202 0.347284 -0.002424 0.000263 -929098.000000 1 0 0
1.616724 7.984071 -8.738701 11.946718 1.371004 2.391276 0.007619 -0.002135 491615.000000 1 0 0
-8.585376 -2.079529 -5.652401 10.487266 0.237641 2.140019 0.008085 -0.004500 -1038530.000000 1 0 0
6.749824 -0.425329 7.216799 9.890562 -0.062930 0.752964 -0.001419 0.001727 404625.000000 1 0 0
-10.938076 6.460271 7.086399 14.546259 -0.533496 1.061958 0.013661 -0.009856 578936.000000 1 0 0
-5.851376 11.127071 4.917699 13.499410 -1.086669 1.197926 0.005370 -0.005544 -517281.000000 1 0 0
6.088424 -1.208229 -6.925201 9.299846 -0.195902 2.410818 0.000696 -0.000571 -1068950.000000 1 0 0
4.497424 -5.764429 11.436699 13.574003 -0.908244 0.568807 0.004225 -0.001161 -1354900.000000 1 0 0
-9.001376 -7.356429 2.761999 11.948659 0.685175 1.337531 0.008316 -0.000537 -1247020.000000 1 0 0
-1.319976 12.673671 -9.431701 15.853115 -1.467019 2.207991 0.010256 -0.000909 676406.000000 1 0 0
-4.484776 9.371071 -2.370801 10.656026 -1.124434 1.795158 0.002915 -0.002501 539389.000000 1 0 0
-3.203576 9.607571 -0.161001 10.128881 -1.248947 1.586692 0.002482 -0.001190 -2124650.000000 1 0 0
-3.602976 10.598371 -6.256501 12.823834 -1.243098 2.080457 0.004515 0.002957 125033.000000 1 0 0
4.887524 -4.911329 0.278099 6.934435 -0.787827 1.530681 0.000770 -0.004274 -1692300.000000 1 0 0
-2.237476 2.933871 -10.852201 11.462293 -0.919257 2.813858 0.007977 -0.006196 -762237.000000 1 0 0
-3.649476 12.269771 -2.222001 12.992430 -1.281693 1.742664 0.001962 -0.000933 -1253590.000000 1 0 0
-0.160176 0.261371 0.076699 0.315997 -1.020998 1.325626 0.002865 -0.001682 -2150610.000000 1 0 0
-4.824276 -1.757629 0.159899 5.136970 0.349384 1.539664 0.009101 -0.003284 246372.000000 1 0 0
2.599924 2.436071 -2.495301 4.349779 0.752873 2.181765 -0.006092 -0.000496 890657.000000 1 0 0
5.974324 -9.715429 8.508099 14.229190 -1.019470 0.929877 -0.000318 -0.000964 -468642.000000 1 0 0
-4.255976 -5.452929 6.664099 9.605102 0.908063 0.804033 0.006526 -0.002601 -48394.900000 1 0 0
-6.391776 5.206171 -12.074901 14.620610 -0.683527 2.542561 0.001081 -0.003311 1552250.000000 1 0 0
-12.877076 3.102771 7.894399 15.419721 -0.236446 1.033322 0.008709 -0.008881 638226.000000 1 0 0
4.593224 -7.264429 -5.049901 9.968507 -1.006972 2.102016 0.000723 -0.004367 -707919.000000 1 0 0
-5.932776 2.462471 -0.976201 6.497273 -0.393423 1.721615 0.007714 -0.003192 -583013.000000 1 0 0
-6.873176 -2.687729 -14.533501 16.299910 0.372764 2.671731 0.009686 -0.004244 -321820.000000 1 0 0
2.871524 -6.185429 0.871599 6.874945 -1.136164 1.443675 0.002561 -0.003368 99767.500000 1 0 0
4.739724 -7.926129 12.978999 15.929310 -1.031858 0.618434 -0.000389 -0.001010 -445098.000000 1 0 0
-10.026876 -1.708929 7.998299 12.939531 0.168813 0.904436 0.012106 -0.000850 -20465.500000 1 0 0
-4.555476 13.346071 -0.100101 14.102482 -1.241862 1.577894 0.005507 0.000701 599182.000000 1 0 0
6.750124 2.222471 -4.544801 8.435566 0.318070 2.139769 0.000382 0.001404 -1603200.000000 1 0 0
4.993424 4.483871 -0.000801 6.711139 0.731684 1.570916 -0.003794 0.000878 -1239750.000000 1 0 0
-5.779476 12.284271 1.995599 13.721810 -1.131044 1.424846 0.005135 -0.002529 2009830.000000 1 0 0
6.605924 -7.202029 6.589399 11.786757 -0.828542 0.977555 0.000599 -0.003048 -1613860.000000 1 0 0
-0.294976 4.971171 7.598299 9.084806 -1.511529 0.580161 -0.003736 0.002418 -695859.000000 1 0 0
-5.823776 -3.534229 -1.512401 6.978144 0.545450 1.789264 0.011107 -0.005279 -1238090.000000 1 0 0
2.193824 -6.508929 -5.302901 8.677545 -1.245706 2.228254 0.003219 -0.003505 -2997460.000000 1 0 0
-14.430476 -4.913729 -3.757801 15.700459 0.328196 1.812486 0.007233 -0.007842 -252459.000000 1 0 0
-12.345276 -5.154129 -6.331101 14.800463 0.395499 2.012814 0.011059 -0.011087 -1708290.000000 1 0 0
-14.849876 -3.882529 -1.266301 15.401180 0.255728 1.653110 0.005382 -0.009959 262658.000000 1 0 0
11.862824 2.862071 8.855299 15.077612 0.236740 0.943060 0.010613 -0.003758 -1855500.000000 1 0 0
8.787924 -6.468129 7.706899 13.358915 -0.634497 0.955855 0.007167 -0.006498 -116534.000000 1 0 0
-8.893676 -1.722529 -9.657101 13.241003 0.191312 2.388143 0.008653 -0.005699 105289.000000 1 0 0
-8.835876 5.104271 -3.770701 10.878624 -0.523843 1.924757 0.008652 -0.005217 -981140.000000 1 0 0
-4.024376 -6.398929 4.215299 8.655093 1.009387 1.062109 0.013783 -0.002995 -948317.000000 1 0 0
-0.241176 -9.144429 3.621699 9.838468 1.544428 1.193814 0.007174 -0.004039 266708.000000 1 0 0
8.068524 -10.487529 3.327599 13.644129 -0.915029 1.324426 0.002475 -0.007618 -396164.000000 1 0 0
-0.021276 6.511471 9.494499 11.512829 -1.567529 0.601145 -0.007318 0.000846 122510.000000 1 0 0
-0.030876 3.488671 -9.645501 10.257069 -1.561946 2.794530 0.009514 -0.005737 -380519.000000 1 0 0
4.558524 -3.133129 11.026399 12.336050 -0.602160 0.464969 0.004451 -0.002967 -3215190.000000 1 0 0
8.525224 -9.071229 1.130699 12.499805 -0.816417 1.480215 0.001324 -0.005846 297689.000000 1 0 0
-0.284276 -0.389629 11.365199 11.375429 0.940476 0.042412 0.005972 0.001087 -840741.000000 1 0 0
10.912524 5.895071 11.390499 16.839790 0.495297 0.827927 0.024055 -0.005245 -362102.000000 1 0 0
-6.318676 -3.007829 -11.930401 13.831383 0.444282 2.611105 0.006085 -0.005953 384179.000000 1 0 0
-1.640476 2.820971 8.319599 8.936709 -1.044069 0.373800 0.002504 0.001067 616822.000000 1 0 0
-1.838276 13.436271 -6.899301 15.215551 -1.434826 2.041415 0.004417 -0.002084 498474.000000 1 0 0
7.563724 3.175871 9.773399 12.759914 0.397528 0.698286 0.000406 -0.000217 -147512.000000 1 0 0
6.543924 8.464271 -7.839101 13.263421 0.912660 2.203133 0.005713 -0.001896 -739844.000000 1 0 0
6.692024 -3.030229 -3.972301 8.351326 -0.425190 2.066498 0.000267 -0.000877 -2558670.000000 1 0 0
2.022324 8.190571 1.012799 8.497118 1.328729 1.451319 -0.001976 0.001652 881746.000000 1 0 0
-17.728976 6.156971 6.290499 19.793818 -0.334252 1.247387 0.029338 -0.011316 181005.000000 1 0 0
-14.871876 2.712571 -9.948901 18.097275 -0.180413 2.152856 0.050430 -0.010040 -918308.000000 1 0 0
-18.327676 -0.045629 -4.268401 18.818210 0.002490 1.799611 0.050626 -0.022308 587556.000000 1 0 0
-13.029976 7.881971 0.125099 15.228965 -0.544022 1.562582 0.012234 -0.005151 85964.400000 1 0 0
-12.700576 -4.391929 -12.657701 18.461069 0.332933 2.326283 0.036728 -0.003253 -915771.000000 1 0 0
-17.300176 -0.660929 -8.663401 19.359427 0.038185 2.034767 0.041692 -0.017414 -564766.000000 1 0 0
-16.732076 -2.203329 -2.078601 17.004046 0.130930 1.693344 0.032567 -0.016687 -1357980.000000 1 0 0
-15.386176 4.187071 1.638199 16.029649 -0.265698 1.468420 0.011576 -0.006933 -64875.700000 1 0 0
-13.235376 5.800271 4.275599 15.069806 -0.413031 1.283125 0.007772 -0.008320 51770.900000 1 0 0
-10.034776 14.096471 2.722899 17.516318 -0.952152 1.414714 0.031200 -0.007532 -25968.700000 1 0 0
-11.852476 2.455171 -6.408101 13.695722 -0.204255 2.057699 0.012354 -0.000675 450268.000000 1 0 0
-16.072076 10.575771 3.619199 19.576955 -0.581994 1.384856 0.044316 -0.011546 -904182.000000 1 0 0
-12.764276 1.043871 -8.481901 15.360958 -0.081599 2.155764 0.023508 -0.006098 700483.000000 1 0 0
-12.300876 14.197371 3.961199 19.198124 -0.856847 1.362971 0.057910 -0.017164 590059.000000 1 0 0
-10.643776 11.076571 -1.082801 15.399768 -0.805321 1.641167 0.011466 -0.003992 289657.000000 1 0 0
-16.852876 5.479271 8.736099 19.757562 -0.314344 1.112785 0.010314 -0.018331 40326.700000 1 0 0
-11.982376 12.757671 -9.099301 19.726449 -0.816726 2.050227 0.034678 -0.011425 850159.000000 1 0 0
-17.223576 -0.513029 2.950399 17.481980 0.029778 1.401217 0.032763 -0.014425 1271250.000000 1 0 0
-13.103476 14.805871 -0.881501 19.791209 -0.846320 1.615351 0.053316 -0.016243 250878.000000 1 0 0
-16.560976 4.579071 -10.372601 20.070492 -0.269758 2.113915 0.071428 -0.009297 508776.000000 1 0 0
-11.925876 7.600871 -8.903801 16.711595 -0.567426 2.132693 0.013225 0.001100 -326090.000000 1 0 0
-14.902476 13.263871 -2.084901 20.058935 -0.727288 1.674923 0.070555 -0.025776 -3473.610000 1 0 0
-11.893376 10.507771 -5.431201 16.773896 -0.723623 1.900528 0.024295 -0.010794 -112794.000000 1 0 0
-17.732476 2.720271 -1.026801 17.969276 -0.152219 1.627969 0.047557 -0.013270 -105213.000000 1 0 0
-9.446276 15.289671 0.622299 17.983143 -1.017376 1.536185 0.036545 -0.011868 236997.000000 1 0 0
-8.196576 13.207071 -3.699801 15.978082 -1.015353 1.804472 0.009863 -0.007770 -1368060.000000 1 0 0
-18.066176 11.439271 2.195899 21.495711 -0.564465 1.468463 0.112636 -0.014018 -60444.200000 1 0 0
-8.149276 15.709271 -7.225501 19.115432 -1.092257 1.958424 0.047924 -0.028695 -180733.000000 1 0 0
-6.290876 15.415971 -5.395701 17.502596 -1.183348 1.884181 0.005024 -0.005619 -360189.000000 1 0 0
-17.377376 5.218571 -0.262701 18.145955 -0.291740 1.585274 0.048688 -0.008770 533994.000000 1 0 0
-5.414876 12.099671 -12.294401 18.079691 -1.150005 2.318575 -0.008149 -0.007373 199449.000000 1 0 0
-11.124476 3.757671 -11.422901 16.381597 -0.325751 2.342421 0.016661 -0.004073 450443.000000 1 0 0
-11.948776 10.992671 1.204499 16.280752 -0.743746 1.496746 0.022450 -0.007317 419712.000000 1 0 0
-12.924676 0.108771 -10.953501 16.942203 -0.008416 2.273812 0.025373 -0.011238 507374.000000 1 0 0
-14.124876 -2.193429 -13.006301 19.325814 0.154058 2.309056 0.045570 -0.007991 340481.000000 1 0 0
-18.838876 -2.518429 -3.580201 19.340723 0.132895 1.756982 0.049734 -0.020728 1493230.000000 1 0 0
-18.404976 4.644071 -5.180801 19.676159 -0.247168 1.837241 0.074462 -0.013046 -447852.000000 1 0 0
-8.224176 15.446971 -2.144301 17.630769 -1.081555 1.692721 0.027115 -0.010836 -94050.400000 1 0 0
-16.363976 8.927071 -5.378101 19.400935 -0.499406 1.851684 0.054973 -0.010791 -82341.100000 1 0 0
-18.361776 1.601971 1.957099 18.535138 -0.087025 1.465011 0.067366 -0.020235 691260.000000 1 0 0
-15.770576 -2.823029 -8.575901 18.172139 0.177130 2.062270 0.028325 -0.012772 -117371.000000 1 0 0
-9.856476 10.531971 -7.160101 16.104023 -0.818517 2.031541 0.011188 -0.007171 698804.000000 1 0 0
-13.870176 11.969971 -7.398801 19.758650 -0.711993 1.954609 0.044742 -0.028324 266616.000000 1 0 0
-11.048076 6.523871 -4.010201 13.442566 -0.533404 1.873729 0.007309 -0.002161 272101.000000 1 0 0
-13.162076 4.951171 -12.746201 18.979462 -0.359796 2.307134 0.047757 -0.011552 831272.000000 1 0 0
-17.898976 8.942871 2.507099 20.165163 -0.463352 1.446146 0.056459 -0.023467 874627.000000 1 0 0
-13.515976 8.788971 -6.510301 17.387111 -0.576562 1.954581 0.021122 -0.001255 -310920.000000 1 0 0
-15.822176 6.928971 -3.696001 17.663870 -0.412769 1.781595 0.021974 -0.000059 -1122200.000000 1 0 0
-14.787976 -0.463229 -9.285101 17.467453 0.031314 2.131244 0.031561 -0.013352 -1367580.000000 1 0 0
-10.015376 5.699471 -6.028901 13.005359 -0.517368 2.052817 0.006806 -0.000374 452591.000000 1 0 0
-12.897576 12.191671 -0.834601 17.767410 -0.757270 1.617787 0.034971 -0.012386 -1345940.000000 1 0 0
-10.654676 3.369671 -13.952201 17.875702 -0.306309 2.466281 0.024568 -0.006015 423015.000000 1 0 0
-11.012376 6.298571 -11.803001 17.327875 -0.519542 2.320138 0.013682 -0.006518 -134557.000000 1 0 0
-5.856576 11.364871 -14.705701 19.486339 -1.094966 2.425943 0.011076 -0.023581 -157433.000000 1 0 0
-15.668976 13.214871 3.516999 20.797089 -0.700637 1.400870 0.053178 -0.018180 83425.500000 1 0 0
-14.977076 10.914271 -3.258901 18.816337 -0.629750 1.744869 0.048396 -0.015067 582530.000000 1 0 0
-18.272876 7.647171 -4.217801 20.252581 -0.396351 1.780592 0.060959 -0.011412 -67803.200000 1 0 0
-4.079876 16.194971 -10.546401 19.752191 -1.324009 2.134045 0.010589 -0.007353 -206805.000000 1 0 0
-15.894976 4.417671 -4.642801 17.138310 -0.271087 1.845126 0.031394 -0.000758 557884.000000 1 0 0
-18.854276 -1.998529 -6.049801 19.901706 0.105604 1.879668 0.052324 -0.021407 276704.000000 1 0 0
-10.886676 8.522171 -5.875701 15.022349 -0.664169 1.972656 0.005886 -0.001007 508700.000000 1 0 0
-11.203776 13.910471 -6.801501 19.112462 -0.892759 1.934638 0.030307 -0.009654 414467.000000 1 0 0
-9.542576 10.488371 -4.483801 14.871824 -0.832580 1.877058 -0.000716 -0.003148 -1237300.000000 1 0 0
-10.992576 6.255771 -0.217201 12.649845 -0.517382 1.587967 0.009747 -0.003917 -1512710.000000 1 0 0
-14.572476 9.191871 -1.415001 17.287272 -0.562737 1.652740 0.036316 -0.009075 -114424.000000 1 0 0
-18.578676 3.660771 4.603799 19.487519 -0.194549 1.332298 0.043037 -0.015375 227658.000000 1 0 0
-14.758676 13.389071 0.498399 19.933242 -0.736779 1.545790 0.047954 -0.002700 60685.000000 1 0 0
-17.221876 2.450171 -8.940201 19.558209 -0.141322 2.045536 0.076805 -0.012900 234507.000000 1 0 0
-9.259876 8.406971 -8.813601 15.300393 -0.737158 2.184669 0.009744 0.002062 -1838040.000000 1 0 0
-17.714076 4.626071 -2.764301 18.515679 -0.255447 1.720652 0.046589 -0.005498 1116400.000000 1 0 0
-13.602676 5.713871 -4.338701 15.378733 -0.397675 1.856803 0.015213 0.001675 -1007680.000000 1 0 0
-12.131376 9.525971 3.220499 15.757094 -0.665672 1.364962 0.018220 -0.009420 -14621.400000 1 0 0
-17.564776 2.446771 -4.057301 18.192573 -0.138409 1.795707 0.041919 -0.010731 1020260.000000 1 0 0
-11.370376 1.455371 -12.491601 16.954163 -0.127305 2.399102 0.026426 -0.006235 132261.000000 1 0 0
-11.149376 11.940271 3.446299 16.695976 -0.819638 1.362887 0.026363 -0.010451 433428.000000 1 0 0
-15.973976 12.978871 -4.550401 21.079021 -0.682317 1.788383 0.062564 -0.024483 471243.000000 1 0 0
-11.086776 4.030471 -4.399101 12.590210 -0.348685 1.927734 0.007088 -0.003274 -389182.000000 1 0 0
-11.069576 15.216771 -8.968401 20.845092 -0.941878 2.015555 0.041319 -0.019339 406469.000000 1 0 0
-15.469776 7.055771 -0.245601 17.004652 -0.427915 1.585240 0.028202 -0.004668 -336907.000000 1 0 0
-12.847476 8.296871 -4.019001 15.812908 -0.573415 1.827775 0.013308 -0.004150 642329.000000 1 0 0
-19.378576 1.707771 -5.863901 20.318243 -0.087900 1.863563 0.090043 -0.025216 535860.000000 1 0 0
-12.564976 10.152271 -8.759501 18.375965 -0.679589 2.067673 0.020206 -0.011189 578547.000000 1 0 0
-16.581476 10.982271 -1.121601 19.920181 -0.584989 1.627131 0.044504 -0.014845 464466.000000 1 0 0
-10.804676 6.540571 -14.359001 19.123310 -0.544341 2.420165 0.032287 -0.017296 -351956.000000 1 0 0
-13.393676 12.729871 -4.107301 18.929080 -0.759993 1.789520 0.037527 -0.025476 32056.100000 1 0 0
-18.033076 7.655371 -0.344401 19.593752 -0.401463 1.588374 0.066893 -0.014105 71653.200000 1 0 0
-12.750876 6.545771 -2.080101 14.483051 -0.474277 1.714918 0.006834 -0.000347 527121.000000 1 0 0
-13.893776 8.682271 -10.477701 19.447392 -0.558530 2.139775 0.029899 -0.007146 -349956.000000 1 0 0
-14.950376 1.296571 -1.026901 15.041587 -0.086509 1.639120 0.010288 -0.008649 -1157020.000000 1 0 0
-13.443276 2.669271 -2.511201 13.933872 -0.196009 1.752009 0.015090 -0.006624 537122.000000 1 0 0
-11.471376 9.413071 -10.767401 18.333993 -0.687159 2.198505 0.022637 -0.005086 -562575.000000 1 0 0
-15.641576 4.312871 -7.925601 18.057544 -0.269046 2.025179 0.043825 -0.004862 607557.000000 1 0 0
-18.511476 10.388471 4.534199 21.706083 -0.511394 1.360356 0.101638 -0.039876 529146.000000 1 0 0
-15.313676 6.265871 -6.222801 17.677473 -0.388385 1.930523 0.028755 0.001917 679118.000000 1 0 0
-7.755876 11.037371 -12.837401 18.621923 -0.958266 2.331416 0.010502 -0.019806 -521686.000000 1 0 0
-16.790276 9.171771 -2.794801 19.335089 -0.499963 1.715850 0.044896 -0.013874 619104.000000 1 0 0
-20.753976 -0.974229 -4.570201 21.273537 0.046907 1.787314 0.082130 -0.036764 1940760.000000 1 0 0
-15.487976 4.283671 4.144699 16.595353 -0.269835 1.318374 0.014601 -0.010244 -372343.000000 1 0 0
-6.938676 12.498771 -9.353101 17.083471 -1.064009 2.150163 0.006311 -0.009323 381269.000000 1 0 0
-17.330376 1.546471 5.534099 18.258142 -0.088999 1.262849 0.036211 -0.019148 258777.000000 1 0 0
-10.429776 14.265671 -2.997501 17.924135 -0.939495 1.738818 0.037965 -0.020352 962039.000000 1 0 0
-10.078776 8.514171 -12.758001 18.353185 -0.701446 2.339409 0.008801 -0.008264 -121984.000000 1 0 0
-13.806976 11.591071 2.878899 18.255782 -0.698371 1.412437 0.040327 -0.012226 726384.000000 1 0 0
-16.959676 6.710471 1.849199 18.332500 -0.376770 1.469754 0.027346 -0.007250 636007.000000 1 0 0
-9.384576 13.336271 -8.554901 18.415013 -0.957599 2.053935 0.030529 -0.020229 -621310.000000 1 0 0
-5.585376 9.617471 -12.831101 16.980263 -1.044649 2.427439 -0.001170 -0.010694 -626013.000000 1 0 0
-15.970376 1.847071 3.001599 16.354637 -0.115144 1.386218 0.012322 -0.011473 -615875.000000 1 0 0
-18.752676 -4.794629 4.702699 19.919003 0.250315 1.332455 0.066434 -0.010138 57733.100000 1 0 0
-5.319376 14.470071 -9.014001 17.858637 -1.218518 2.099879 -0.001464 -0.006343 -256155.000000 1 0 0
-15.471876 -0.976829 -6.814701 16.934382 0.063052 1.984953 0.031031 -0.010197 1048700.000000 1 0 0
-9.000476 10.936071 -9.584401 17.101665 -0.882183 2.165709 0.008318 -0.009959 393507.000000 1 0 0
-16.819876 1.060071 -6.046001 17.904918 -0.062942 1.915240 0.035956 -0.010441 -56367.900000 1 0 0
-11.132176 8.554771 -1.577201 14.127880 -0.655219 1.682667 0.010255 -0.006391 -1135350.000000 1 0 0
-10.811676 11.101671 -12.679901 20.022970 -0.798631 2.256565 0.031761 -0.004437 -256397.000000 1 0 0
-14.285576 11.874071 -9.840901 21.021764 -0.693474 2.057969 0.067783 -0.018541 61096.600000 1 0 0
-13.252776 5.555571 -7.700201 16.303175 -0.396948 2.062709 0.018882 0.004837 1019570.000000 1 0 0
-8.906176 15.399971 -4.766101 18.417242 -1.046467 1.832560 0.028985 -0.021510 -67173.200000 1 0 0
-8.705476 6.178471 -12.921801 16.761019 -0.617221 2.451118 0.010924 -0.005423 888621.000000 1 0 0
-16.609676 7.402571 4.208499 18.665231 -0.419254 1.343368 0.036882 -0.008707 548412.000000 1 0 0
-12.717076 5.367171 -10.125801 17.119065 -0.399365 2.203705 0.022712 -0.000637 616393.000000 1 0 0
-12.505376 9.168071 -13.118501 20.310909 -0.632617 2.272978 0.051307 -0.018957 -1428150.000000 1 0 0
-10.835076 5.146971 -8.399001 14.643544 -0.443472 2.181646 0.008898 0.002134 -44212.000000 1 0 0
-17.667776 -4.540929 -2.577601 18.423202 0.251572 1.711167 0.022209 -0.012631 363497.000000 1 0 0
-8.722776 13.154671 -11.040001 19.261719 -0.985272 2.181150 0.035395 -0.014468 145399.000000 1 0 0
-15.168276 6.317371 5.873799 17.449564 -0.394637 1.227476 0.021880 -0.014512 -967447.000000 1 0 0
-16.434476 -3.229029 -4.483201 17.338331 0.194008 1.832340 0.024333 -0.012827 -148873.000000 1 0 0
-11.155876 -1.177529 -12.442001 16.752418 0.105163 2.407888 0.023100 -0.005762 733384.000000 1 0 0
-15.381276 6.738671 -8.711201 18.917673 -0.412921 2.049332 0.027123 0.001980 4289.470000 1 0 0
-14.973576 9.220771 1.196499 17.625612 -0.551958 1.502860 0.037846 -0.012972 -74957.500000 1 0 0
-19.301176 5.086071 8.060799 21.526263 -0.257654 1.186978 0.050585 -0.022689 157973.000000 1 0 0
-16.428476 0.556771 0.743099 16.454695 -0.033878 1.525621 0.027762 -0.013687 -284550.000000 1 0 0
-17.362276 3.679971 6.936899 19.055481 -0.208861 1.198198 0.013469 -0.015952 466403.000000 1 0 0
-15.472276 3.899071 -1.480901 16.024579 -0.246864 1.663343 0.016304 -0.007115 -1883200.000000 1 0 0
-10.739176 13.156371 0.400699 16.987659 -0.886212 1.547206 0.029392 -0.013879 -209405.000000 1 0 0
-13.515876 3.362171 -0.019201 13.927794 -0.243809 1.572175 0.014247 -0.007423 -658718.000000 1 0 0
-15.038676 0.033571 -4.369001 15.660494 -0.002232 1.853531 0.019238 -0.008229 485071.000000 1 0 0
-19.056376 6.695571 3.343899 20.473343 -0.337882 1.406732 0.046165 -0.010313 291570.000000 1 0 0
-14.195176 1.243971 -6.424501 15.630889 -0.087410 1.994361 0.024890 -0.004966 973379.000000 1 0 0
-14.490876 11.849371 5.386699 19.478439 -0.685448 1.290597 0.044824 -0.015275 655818.000000 1 0 0
17.626924 5.213671 6.140099 19.380187 0.287580 1.248418 0.040219 -0.019930 455558.000000 1 0 0
18.623824 7.543171 -0.412101 20.097664 0.384833 1.591303 0.034621 0.003161 82917.900000 1 0 0
16.527524 5.069171 8.540899 19.282181 0.297602 1.111918 0.063157 -0.011874 345443.000000 1 0 0
11.722424 12.334771 10.805999 20.157664 0.810846 1.005017 0.042780 -0.016398 731134.000000 1 0 0
-2.236276 16.195371 -0.577601 16.359236 -1.433583 1.606111 0.004506 -0.007424 127950.000000 1 0 0
15.343024 12.578171 3.239699 20.102598 0.686696 1.408932 0.056718 -0.004594 301490.000000 1 0 0
13.621424 11.679171 6.691999 19.150172 0.708781 1.213814 0.045840 -0.005434 789268.000000 1 0 0
-0.509976 15.863571 8.551899 18.029086 -1.538660 1.076583 0.005639 -0.003858 132279.000000 1 0 0
0.755224 12.904871 9.443299 16.008809 1.512341 0.939884 -0.000866 -0.001594 -918830.000000 1 0 0
0.798424 15.581771 -3.874101 16.075999 1.519600 1.814179 0.009052 -0.002924 -163993.000000 1 0 0
5.259224 10.244571 13.518999 17.758773 1.096512 0.705546 0.031214 -0.018762 817319.000000 1 0 0
-1.444976 16.502771 -2.916501 16.820683 -1.483459 1.745065 0.006950 -0.001172 -1025580.000000 1 0 0
8.645824 10.105271 3.292699 13.700681 0.863074 1.328089 0.011712 -0.002479 379041.000000 1 0 0
12.657124 13.575371 -4.891201 19.194201 0.820388 1.828465 0.080964 -0.021756 399769.000000 1 0 0
2.505824 11.589271 7.741899 14.160768 1.357855 0.992361 0.001709 0.002599 356739.000000 1 0 0
-0.385776 14.833671 -8.533801 17.117604 -1.544795 2.092709 0.012352 -0.006780 -1952330.000000 1 0 0
2.306924 15.879771 0.284499 16.048987 1.426531 1.553068 0.008961 -0.014141 -1070530.000000 1 0 0
1.907824 13.509471 5.070299 14.555189 1.430503 1.214986 -0.002644 0.002047 -362256.000000 1 0 0
17.569624 9.134271 -2.202101 19.924253 0.479433 1.681546 0.027521 0.000258 471409.000000 1 0 0
-7.172676 15.000871 7.188599 18.114893 -1.124781 1.162732 0.019993 -0.016996 -135987.000000 1 0 0
8.524224 15.746371 -0.062001 17.905710 1.074622 1.574259 0.020260 -0.012690 -599164.000000 1 0 0
15.835924 10.353471 2.116299 19.038109 0.579039 1.459405 0.037967 0.003564 401839.000000 1 0 0
14.167924 7.412171 8.715299 18.210623 0.482008 1.071756 0.037476 -0.010656 -814280.000000 1 0 0
4.081224 18.526371 -1.687301 19.045467 1.353967 1.659506 0.021952 -0.020005 -679247.000000 1 0 0
-0.432176 17.521071 -4.924401 18.205066 -1.546135 1.844705 0.019315 -0.007441 266327.000000 1 0 0
1.310424 13.784071 -0.833501 13.871285 1.476013 1.630921 0.001321 -0.006364 1067110.000000 1 0 0
10.375424 14.692071 4.267499 18.485614 0.955927 1.337840 0.031076 -0.015222 -272689.000000 1 0 0
-1.450676 15.172171 -5.221401 16.110936 -1.475472 1.900846 0.006414 -0.003287 573219.000000 1 0 0
15.187224 8.858771 -6.316401 18.682252 0.528053 1.915690 0.047524 -0.009444 721040.000000 1 0 0
-2.206776 18.450371 0.693499 18.594811 -1.451756 1.533492 0.012712 -0.012569 -703192.000000 1 0 0
-3.865776 19.299171 3.347999 19.965253 -1.373105 1.402309 0.035284 -0.015425 535477.000000 1 0 0
1.855924 17.790971 -2.826401 18.109435 1.466854 1.727510 0.010866 -0.007465 -289822.000000 1 0 0
3.008624 12.186871 3.229599 12.961557 1.328762 1.318976 -0.000139 0.000046 372067.000000 1 0 0
-2.520976 16.200171 1.932799 16.508682 -1.416420 1.453449 0.008752 -0.007587 -952275.000000 1 0 0
11.825424 12.811971 -2.593501 17.627068 0.825419 1.718464 0.038374 -0.001036 516353.000000 1 0 0
7.237424 11.678771 4.720799 14.527902 1.016012 1.239841 0.006007 -0.001541 151208.000000 1 0 0
7.015724 15.544771 1.925399 17.162968 1.146842 1.458376 0.009889 -0.015994 -2190460.000000 1 0 0
5.441524 12.313971 10.242499 16.916053 1.154700 0.920415 0.015410 0.002533 1311690.000000 1 0 0
-1.274776 14.201171 3.157799 14.603767 -1.481271 1.352843 0.003189 -0.002086 -1752520.000000 1 0 0
4.593724 15.954171 1.597499 16.679025 1.290447 1.474870 0.007425 -0.019605 -1758360.000000 1 0 0
7.165324 13.298171 11.969199 19.272907 1.076577 0.900731 0.031948 -0.008975 -19986.500000 1 0 0
0.655524 16.972571 -9.402001 19.413797 1.532193 2.076353 0.020689 -0.014896 342425.000000 1 0 0
9.789824 9.690571 15.395899 20.658692 0.780303 0.729886 0.044837 -0.023049 -190263.000000 1 0 0
13.577924 7.546371 -0.123101 15.534571 0.507272 1.578721 0.008756 0.004622 438124.000000 1 0 0
12.397324 13.601471 -0.083001 18.403819 0.831681 1.575306 0.042517 -0.005313 358403.000000 1 0 0
9.399324 12.408271 3.507999 15.956771 0.922509 1.349142 0.016283 -0.003016 -78349.100000 1 0 0
-0.531876 13.049071 0.806399 13.084778 -1.530059 1.509128 0.001919 -0.004939 -1039600.000000 1 0 0
16.082024 7.383171 -0.928901 17.720203 0.430391 1.623241 0.017728 0.007815 -956783.000000 1 0 0
-4.191076 18.379571 -2.270901 18.987647 -1.346601 1.690682 0.023930 -0.013227 -309255.000000 1 0 0
11.590424 9.221871 -3.249801 15.163840 0.672080 1.786784 0.019738 -0.003109 -10992.700000 1 0 0
14.760124 9.704171 7.804299 19.311636 0.581601 1.154775 0.043437 -0.008806 -77736.900000 1 0 0
4.492924 13.862871 4.533699 15.261717 1.257381 1.269180 0.003530 0.001597 -485573.000000 1 0 0
2.169024 16.084571 5.667899 17.191369 1.436754 1.234816 0.003178 0.000446 336052.000000 1 0 0
6.277224 18.432371 5.344899 20.192172 1.242561 1.302902 0.031361 -0.022875 -484946.000000 1 0 0
10.678924 17.055471 -0.615701 20.132253 1.011386 1.601384 0.054021 -0.012127 -476006.000000 1 0 0
10.074924 13.599471 -4.353801 17.475849 0.933189 1.822581 0.052979 -0.009269 37386.400000 1 0 0
16.701624 7.816771 2.343799 18.588694 0.437742 1.444372 0.014150 0.004389 85753.700000 1 0 0
4.013724 13.981771 -0.502801 14.555161 1.291245 1.605348 0.003568 -0.009407 953862.000000 1 0 0
5.604224 13.183071 -2.395401 14.523727 1.168834 1.736484 0.006743 -0.005800 -126216.000000 1 0 0
-6.196576 16.918371 -2.956601 18.258431 -1.219707 1.733443 0.017965 -0.009709 -1247610.000000 1 0 0
18.326224 9.742371 2.288499 20.880650 0.488613 1.460977 0.046413 -0.006709 232151.000000 1 0 0
7.939124 12.897271 9.480799 17.867704 1.019010 1.011475 0.032473 -0.003742 1492140.000000 1 0 0
-2.491576 15.716071 6.706999 17.268083 -1.413568 1.171897 0.006588 -0.006741 128410.000000 1 0 0
11.301224 15.996171 6.376399 20.597418 0.955724 1.256053 0.050181 -0.016566 -161101.000000 1 0 0
13.723124 11.928771 1.331099 18.231608 0.715562 1.497721 0.045910 -0.003235 1795190.000000 1 0 0
17.532024 7.778971 -5.734501 20.019210 0.417603 1.861316 0.044360 0.010146 232203.000000 1 0 0
9.538024 9.280071 8.000399 15.527396 0.771691 1.029504 0.016784 0.000841 -512101.000000 1 0 0
-1.949976 14.129871 -2.014901 14.405398 -1.433659 1.711128 0.001113 -0.002326 445553.000000 1 0 0
11.085124 11.630571 0.724299 16.083370 0.809405 1.525747 0.022623 -0.000230 -863190.000000 1 0 0
11.732924 9.778771 -0.617301 15.286168 0.694805 1.611190 0.019419 0.000929 -1287540.000000 1 0 0
0.083724 15.885671 11.032899 19.341314 1.565526 0.963765 0.010987 -0.016777 137806.000000 1 0 0
2.081824 20.218871 -1.778401 20.403418 1.468193 1.658069 0.029156 -0.017214 -129283.000000 1 0 0
9.375924 14.273171 1.755199 17.167181 0.989592 1.468376 0.020190 -0.010985 -605038.000000 1 0 0
8.525224 11.673771 -5.095001 15.326951 0.940030 1.909666 0.026279 -0.004043 -1037610.000000 1 0 0
10.520524 10.053371 10.240299 17.793691 0.762696 0.957579 0.016376 -0.006393 224136.000000 1 0 0
-5.056776 15.795271 5.776599 17.562194 -1.260962 1.235634 0.007488 -0.010210 19317.200000 1 0 0
14.427024 9.016971 -1.989001 17.128950 0.558603 1.687178 0.032153 -0.002523 -228255.000000 1 0 0
12.214124 9.458971 6.977599 16.951220 0.658953 1.146556 0.022118 -0.002739 -1003450.000000 1 0 0
3.136124 12.979971 9.720599 16.516809 1.333727 0.941560 0.007675 -0.005439 -584951.000000 1 0 0
8.551624 12.640671 -2.565001 15.475661 0.976005 1.737309 0.024077 -0.003117 -706102.000000 1 0 0
9.251324 16.854071 2.120099 19.342739 1.068792 1.460969 0.019350 -0.016904 -360898.000000 1 0 0
9.607724 14.187771 -7.509501 18.708122 0.975548 1.983845 0.079954 -0.023962 -607333.000000 1 0 0
6.380724 11.430771 7.256599 14.967779 1.061675 1.064645 0.007214 0.003143 24055.800000 1 0 0
5.511124 16.869271 -5.615701 18.613997 1.255031 1.877264 0.041732 -0.004066 -2589250.000000 1 0 0
-4.102576 17.153271 -4.597401 18.226407 -1.336035 1.825789 0.010755 -0.010421 187012.000000 1 0 0
0.069024 18.522771 -0.446101 18.528271 1.567070 1.594875 0.017573 -0.015633 -817084.000000 1 0 0
6.636824 15.601671 -2.770301 17.179469 1.168594 1.732760 0.021898 -0.003910 600897.000000 1 0 0
-0.748676 20.645671 0.732899 20.672237 -1.534549 1.535336 0.023491 -0.014682 14611.700000 1 0 0
-1.319776 18.945071 4.270199 19.465152 -1.501245 1.349621 0.012775 -0.006801 1221050.000000 1 0 0
7.265724 13.741671 -4.373701 16.147865 1.084425 1.845076 0.025479 -0.002427 -69703.600000 1 0 0
-0.888376 12.076871 7.692899 14.346453 -1.497368 1.004840 -0.002763 0.003516 82189.900000 1 0 0
7.558224 10.870271 10.914799 17.158741 0.963224 0.881354 0.022749 -0.006955 413490.000000 1 0 0
1.465324 16.017371 -7.179301 17.613793 1.479567 1.990616 0.011900 -0.006851 -585450.000000 1 0 0
8.901724 7.273471 14.881899 18.804654 0.685073 0.657710 0.040226 -0.007466 704328.000000 1 0 0
11.391524 11.345671 -4.852301 16.793925 0.783381 1.863907 0.049856 -0.009900 -391740.000000 1 0 0
-3.243876 17.063571 4.521899 17.948141 -1.382933 1.316109 0.007653 -0.006350 -557764.000000 1 0 0
3.913924 15.304971 -6.746601 17.177822 1.320433 1.974417 0.027717 -0.008721 -1147260.000000 1 0 0
-4.406176 14.136571 9.384599 17.530765 -1.268653 1.005908 0.010031 -0.016004 585560.000000 1 0 0
6.074924 17.459971 0.336499 18.489687 1.235963 1.552596 0.010535 -0.031225 -611761.000000 1 0 0
9.744124 10.594971 -2.274401 14.573067 0.827207 1.727506 0.024284 -0.005157 -746470.000000 1 0 0
7.361024 18.108371 -2.594101 19.718700 1.184700 1.702734 0.039575 -0.007231 95915.300000 1 0 0
3.483724 10.428671 10.440899 15.162648 1.248399 0.811249 0.004546 -0.000436 235101.000000 1 0 0
0.068924 18.739371 2.096799 18.856440 1.567118 1.459368 0.016262 -0.012207 194670.000000 1 0 0
-0.979576 17.135371 -7.438601 18.705969 -1.513692 1.979761 0.019885 -0.003504 493061.000000 1 0 0
9.993324 8.825271 13.002999 18.623370 0.723409 0.797904 0.033119 -0.014063 -47824.600000 1 0 0
3.613324 11.560471 5.454299 13.283448 1.267858 1.147675 -0.003290 0.002683 229103.000000 1 0 0
13.175124 13.817871 8.111299 20.743930 0.809205 1.169056 0.055997 -0.020592 -13293.500000 1 0 0
-0.520576 17.478371 6.724599 18.734585 -1.541021 1.203664 0.010321 -0.004201 -188521.000000 1 0 0
12.167824 13.555071 5.659999 19.074367 0.839276 1.269526 0.040295 -0.011404 -30188.600000 1 0 0
4.839624 14.593871 -4.486301 16.016552 1.250588 1.854699 0.015641 -0.003413 -102451.000000 1 0 0
3.894324 17.664471 4.701099 18.689559 1.353806 1.316529 0.013254 -0.010988 727087.000000 1 0 0
7.109024 11.702271 2.004299 13.838302 1.024887 1.425448 0.013169 -0.003777 1005310.000000 1 0 0
6.368224 8.854471 11.723299 16.012235 0.947294 0.749329 0.015078 -0.005111 292205.000000 1 0 0
-5.415676 14.928771 1.782799 15.980492 -1.222793 1.459003 0.013147 -0.002502 265997.000000 1 0 0
6.788824 13.731971 5.896999 16.414316 1.111654 1.203322 0.012455 -0.003556 -629860.000000 1 0 0
5.953124 15.869671 4.859399 17.632354 1.211915 1.291587 0.009649 -0.013498 643400.000000 1 0 0
1.335024 18.168271 4.337899 18.726605 1.497447 1.337029 0.016638 -0.008515 1219500.000000 1 0 0
7.211124 18.047871 -7.064401 20.679258 1.190673 1.919434 0.045225 -0.009042 310660.000000 1 0 0
-2.528576 18.721471 -6.084901 19.847246 -1.436546 1.882401 0.019762 -0.003925 -400821.000000 1 0 0
13.615224 10.113071 -4.587001 17.569551 0.638862 1.834934 0.038548 -0.006997 -2093560.000000 1 0 0
-1.211676 17.931871 10.043499 20.588638 -1.503328 1.061208 0.017312 -0.006655 255066.000000 1 0 0
3.475424 11.761771 -1.627501 12.372008 1.283487 1.702726 0.006658 -0.005326 344264.000000 1 0 0
4.242024 14.000671 -10.966901 18.283503 1.276601 2.214079 0.031714 -0.023791 800823.000000 1 0 0
11.654824 13.273971 2.464999 17.835623 0.850258 1.432146 0.037355 -0.011636 1085960.000000 1 0 0
15.894024 6.395771 -7.120301 18.553290 0.382574 1.964678 0.020313 -0.002218 246771.000000 1 0 0
2.449024 16.195071 2.987599 16.649438 1.420713 1.390378 0.008912 -0.009669 -163001.000000 1 0 0
13.714124 10.605471 3.590799 17.704436 0.658263 1.366560 0.034542 0.003749 -79514.200000 1 0 0
-5.058176 19.405571 -5.776501 20.869339 -1.315814 1.851252 0.019394 -0.016960 757542.000000 1 0 0
5.576924 12.032071 -0.022401 13.261724 1.136769 1.572485 0.008889 -0.008163 937667.000000 1 0 0
4.951824 15.301971 9.616999 18.739198 1.257825 1.031885 0.024002 -0.009075 49966.700000 1 0 0
7.711524 9.459871 13.853899 18.463133 0.886866 0.722198 0.030720 -0.020230 -2176100.000000 1 0 0
-4.921976 13.676071 6.950099 16.111010 -1.225332 1.124765 0.003908 -0.009030 -1430560.000000 1 0 0
-4.492276 17.139371 0.620899 17.729188 -1.314460 1.535768 0.015941 -0.006914 -355226.000000 1 0 0
-0.575476 16.643071 3.594899 17.036616 -1.536233 1.358188 0.009417 -0.009087 -1635800.000000 1 0 0
7.903524 16.856671 -4.824501 19.232495 1.132364 1.824356 0.042261 -0.007976 -68239.300000 1 0 0
3.129524 16.516371 -4.619101 17.433317 1.383536 1.838957 0.010328 -0.002245 -601884.000000 1 0 0
9.621824 14.462971 8.175299 19.198764 0.983759 1.130924 0.038285 -0.010341 211085.000000 1 0 0
12.814124 10.951871 9.072299 19.142933 0.707200 1.077054 0.042424 -0.015047 864625.000000 1 0 0
3.691724 12.428271 12.217899 17.814820 1.282055 0.815056 0.021990 -0.009385 626587.000000 1 0 0
-3.300576 19.349471 5.904899 20.497894 -1.401845 1.278582 0.031341 -0.010127 133436.000000 1 0 0
-2.504376 15.791871 10.230399 18.981996 -1.413520 1.001603 0.009302 -0.015991 31140.300000 1 0 0
2.160024 14.137371 7.535399 16.165185 1.419181 1.085862 0.004811 -0.002028 24588.600000 1 0 0
4.492424 17.290371 7.836899 19.507839 1.316595 1.157390 0.022866 -0.004846 352844.000000 1 0 0
-1.910376 13.495471 9.329599 16.517224 -1.430174 0.970556 0.000583 -0.007178 -2173100.000000 1 0 0
5.859624 17.716371 2.940499 18.890514 1.251376 1.414501 0.004143 -0.022453 510767.000000 1 0 0
7.266124 15.446071 -6.961801 18.434868 1.131092 1.958046 0.032314 -0.002698 -188703.000000 1 0 0
10.861124 7.584271 9.414399 16.251649 0.609581 0.952940 0.011128 -0.003201 503426.000000 1 0 0
9.150824 16.178571 -2.598801 18.767992 1.056045 1.709713 0.044521 -0.012722 -198836.000000 1 0 0
14.687224 11.522671 -6.514501 19.771829 0.665241 1.906553 0.093540 -0.015623 428479.000000 1 0 0
11.228224 6.556671 15.960899 20.586725 0.528531 0.683606 0.063709 -0.020675 -803593.000000 1 0 0
8.456324 8.572871 10.200299 15.781307 0.792242 0.868001 0.012776 -0.001651 -1885280.000000 1 0 0
16.840324 9.536571 4.417999 19.850981 0.515267 1.346359 0.058950 0.003064 333930.000000 1 0 0
-3.333076 14.362871 4.597799 15.444780 -1.342770 1.268521 0.003362 -0.004067 -1294520.000000 1 0 0
4.572124 14.921271 12.590399 20.051603 1.273463 0.891944 0.026165 -0.006461 -410073.000000 1 0 0
16.115724 10.702371 -4.597501 19.884525 0.586220 1.804118 0.061114 -0.020311 721740.000000 1 0 0
14.756724 13.909171 6.058599 21.164418 0.755840 1.280472 0.058257 -0.010806 -82493.200000 1 0 0
6.173524 9.505871 9.201699 14.599495 0.994813 0.888889 0.004517 0.001576 798783.000000 1 0 0
10.432524 12.116171 8.639199 18.173468 0.859927 1.075407 0.034945 -0.010770 307688.000000 1 0 0
8.086324 11.285271 -0.346701 13.887627 0.949057 1.595764 0.011379 -0.008118 -1173470.000000 1 0 0
7.506224 13.478971 -8.805901 17.764289 1.062683 2.089446 0.051970 -0.016829 -927629.000000 1 0 0
2.840024 15.379371 -2.271501 15.803497 1.388189 1.715030 0.008726 -0.007684 256056.000000 1 0 0
12.203224 13.685071 -7.706901 19.889600 0.842576 1.968697 0.097290 -0.030510 -307986.000000 1 0 0
-8.014976 14.653271 9.660199 19.294498 -1.070278 1.046422 0.031807 -0.029187 276993.000000 1 0 0
11.681924 9.600771 2.161399 15.274613 0.687922 1.428817 0.026513 -0.000644 -1624520.000000 1 0 0
12.171024 8.706871 4.476199 15.619853 0.620972 1.280150 0.014585 0.001484 157308.000000 1 0 0
14.073924 7.915871 6.102999 17.262183 0.512351 1.209436 0.018117 -0.004361 -3523860.000000 1 0 0
16.238524 7.254071 7.201299 19.187755 0.420123 1.186068 0.053730 -0.013135 622455.000000 1 0 0
13.788924 8.228171 2.487499 16.248843 0.538007 1.417104 0.013386 0.004223 -2341990.000000 1 0 0
-4.413576 17.187371 -7.130201 19.123942 -1.319436 1.952866 0.008463 -0.019054 146474.000000 1 0 0
3.431424 19.507171 -3.941201 20.194986 1.396672 1.767214 0.034013 -0.014373 298908.000000 1 0 0
-0.043976 14.887471 6.237099 16.141256 -1.567842 1.174063 0.002907 -0.001744 -1458170.000000 1 0 0
6.881924 16.100271 8.106899 19.295114 1.166860 1.137182 0.032916 -0.008888 -102100.000000 1 0 0
12.824524 15.225271 -2.142101 20.021636 0.870779 1.677991 0.076577 -0.013382 -70253.700000 1 0 0
12.681824 15.747671 4.184899 20.647789 0.892823 1.366702 0.051174 -0.011126 -81496.900000 1 0 0
3.048224 18.094571 1.330599 18.397708 1.403903 1.498409 0.018905 -0.022268 -534716.000000 1 0 0
10.473724 14.503971 -1.274901 17.935703 0.945373 1.641938 0.041549 0.000158 -3404650.000000 1 0 0
-6.233176 15.746971 -0.559401 16.944985 -1.193887 1.603815 0.013138 -0.008057 -530771.000000 1 0 0
-3.914876 15.759671 -2.431601 16.419688 -1.327314 1.719434 0.010930 -0.008460 -2277010.000000 1 0 0
-6.847176 17.067671 1.625399 18.461612 -1.189275 1.482640 0.028281 -0.010231 -525912.000000 1 0 0
-0.158176 19.490271 -6.616901 20.583466 -1.562681 1.898074 0.029348 -0.009233 60165.400000 1 0 0
4.856024 14.922471 6.982599 17.176082 1.256187 1.152143 0.013320 -0.002024 -556604.000000 1 0 0
8.754924 12.484371 6.820099 16.703951 0.959218 1.150213 0.024457 -0.003390 -207959.000000 1 0 0
-7.770276 17.564271 -5.514101 19.982145 -1.154288 1.850376 0.043433 -0.021571 265434.000000 1 0 0
-7.848076 17.740671 -1.246001 19.439039 -1.154299 1.634938 0.061175 -0.019484 2629.300000 1 0 0
-13.708776 -9.202529 9.265999 18.933457 0.591195 1.059397 0.048393 -0.017866 -78929.100000 1 0 0
-12.669476 -12.978529 7.582599 19.658424 0.797447 1.174811 0.050200 -0.011439 -127457.000000 1 0 0
-3.707176 -14.988229 12.567799 19.908283 1.328324 0.887587 0.020334 -0.015083 29053.400000 1 0 0
-2.004076 -14.134129 14.955399 20.674958 1.429945 0.762143 0.027063 -0.004910 -285127.000000 1 0 0
-7.258776 -13.852029 12.683599 20.135596 1.088116 0.889360 0.053903 -0.011286 -9709.950000 1 0 0
-10.002076 -11.633729 9.132099 17.854422 0.860670 1.033895 0.039291 -0.008108 416303.000000 1 0 0
-10.571676 -10.620529 11.459899 18.864921 0.787703 0.917923 0.056908 -0.016736 307624.000000 1 0 0
-5.946176 -12.413629 10.876699 17.543026 1.124086 0.902052 0.031101 -0.004622 642702.000000 1 0 0
-12.411876 -10.406229 7.343599 17.784058 0.697726 1.145126 0.024238 -0.005461 -633966.000000 1 0 0
-7.631576 -11.229029 12.524899 18.471739 0.973873 0.825680 0.039161 -0.015938 -598085.000000 1 0 0
-14.786076 -11.550929 7.417899 20.176155 0.663174 1.194308 0.047136 -0.004060 524169.000000 1 0 0
-11.102376 -9.206729 9.319999 17.172332 0.692328 0.997108 0.029820 -0.005465 -789132.000000 1 0 0
-5.411276 -12.238629 13.424199 18.954553 1.154492 0.783807 0.036272 -0.005671 -34578.500000 1 0 0
3.696824 -12.527729 14.658399 19.633623 -1.283849 0.727865 -0.018090 0.004017 323454.000000 1 0 0
6.317024 -12.927129 14.563499 20.472200 -1.116258 0.779338 0.017489 0.007407 205925.000000 1 0 0
6.677524 -8.577229 16.009599 19.351110 -0.909292 0.596473 0.014884 -0.007796 1051860.000000 1 0 0
0.671024 -1.616229 14.455199 14.560743 -1.177273 0.120477 0.006211 -0.003581 -1776110.000000 1 0 0
-0.081476 -6.312529 15.530699 16.764763 1.557890 0.386088 0.009649 -0.012488 -186550.000000 1 0 0
-1.370776 -4.572029 18.080899 18.700304 1.279507 0.258098 0.026500 -0.031418 140981.000000 1 0 0
-5.252276 12.617671 12.758599 18.696895 -1.176349 0.819767 0.009977 -0.020481 -154988.000000 1 0 0
-4.015576 8.913771 11.538199 15.123168 -1.147534 0.702934 -0.001917 0.001451 -431489.000000 1 0 0
-0.627776 -3.799229 15.092399 15.575903 1.407038 0.249815 0.010265 -0.006690 105417.000000 1 0 0
-4.390176 9.263671 14.150399 17.473495 -1.128235 0.626950 -0.004060 -0.007175 230895.000000 1 0 0
-13.605276 -2.569529 16.756899 21.737058 0.186664 0.690558 0.056623 -0.006961 -323017.000000 1 0 0
-0.220076 0.945071 17.228199 17.255505 -1.342007 0.056264 0.016829 -0.008356 609848.000000 1 0 0
-3.258076 -7.062929 15.404299 17.256664 1.138591 0.467588 0.019434 -0.014006 401022.000000 1 0 0
-7.406076 5.662371 12.541899 15.627272 -0.652753 0.639214 0.005135 -0.000416 -2981110.000000 1 0 0
-9.926876 10.042871 13.190399 19.323270 -0.791207 0.819458 0.032992 -0.025091 1572680.000000 1 0 0
-5.527476 2.218571 11.055899 12.558183 -0.381688 0.494146 0.006169 0.002721 -1352310.000000 1 0 0
-7.215376 -7.356829 16.865099 19.764011 0.795105 0.548469 0.039347 -0.016786 23984.400000 1 0 0
-4.755976 2.603571 18.897499 19.659943 -0.500869 0.279410 0.019421 0.001467 -1196710.000000 1 0 0
0.879024 -8.307429 16.591499 18.575896 -1.465377 0.466443 0.002572 -0.004544 571810.000000 1 0 0
-15.207476 -3.450029 13.915099 20.899761 0.223088 0.842228 0.068709 -0.018389 -115768.000000 1 0 0
-14.401476 2.519971 13.146999 19.662053 -0.173226 0.838407 0.030334 -0.003992 215508.000000 1 0 0
-5.526276 1.067571 16.059399 17.017160 -0.190830 0.337100 0.020298 -0.003566 612761.000000 1 0 0
4.285724 5.718271 15.045899 16.656684 0.927629 0.443408 0.011960 -0.009639 555077.000000 1 0 0
-1.006676 -11.989129 13.893699 18.378996 1.487027 0.713684 -0.010765 -0.001549 221654.000000 1 0 0
-5.902476 -3.961229 16.841499 18.280226 0.591075 0.399396 0.032224 -0.016653 -108480.000000 1 0 0
-12.974976 -1.497029 9.925099 16.404227 0.114870 0.920989 0.025258 -0.000207 -407409.000000 1 0 0
-14.594976 10.365571 9.985299 20.497916 -0.617549 1.061988 0.043105 -0.016668 497710.000000 1 0 0
-3.547576 -3.225329 17.578299 18.220446 0.737855 0.266279 0.028741 -0.022513 -834253.000000 1 0 0
-7.954876 9.319971 11.689499 16.934766 -0.864256 0.808939 0.008422 -0.014074 -42484.800000 1 0 0
-3.943176 10.657771 16.249999 19.829251 -1.216433 0.610265 -0.007128 -0.010852 121854.000000 1 0 0
-12.277676 12.902471 8.293999 19.647023 -0.810206 1.134980 0.044786 -0.019228 210528.000000 1 0 0
-12.596776 3.239271 10.518599 16.727599 -0.251697 0.890765 0.017542 -0.003483 289007.000000 1 0 0
-10.150476 -3.464429 13.760699 17.446812 0.328910 0.662068 0.031307 -0.005410 -1234490.000000 1 0 0
-4.398376 -6.367629 17.622399 19.246853 0.966312 0.413801 0.032689 -0.018201 -890832.000000 1 0 0
1.097124 -3.663429 18.134399 18.533236 -1.279816 0.207835 0.017517 -0.012648 -677671.000000 1 0 0
-5.934176 1.866771 13.595799 14.951422 -0.304778 0.429122 0.010584 0.001072 -534620.000000 1 0 0
-10.538776 8.710871 10.126099 17.014198 -0.690724 0.933337 0.029001 -0.020028 26563.100000 1 0 0
4.604524 2.658071 17.198299 18.001347 0.523541 0.299820 0.018295 -0.013306 -1834410.000000 1 0 0
0.513024 -5.119829 13.211199 14.177857 -1.470926 0.371403 0.006176 -0.002961 -991201.000000 1 0 0
-4.269276 5.639871 20.745499 21.918271 -0.922842 0.328605 0.063735 -0.017550 -300086.000000 1 0 0
-10.697576 10.905071 8.981999 17.721033 -0.795003 1.039263 0.029094 -0.019606 163671.000000 1 0 0
0.657724 4.178971 13.035799 13.705052 1.414688 0.313800 0.002390 -0.005318 -2061370.000000 1 0 0
-3.201076 7.144771 13.205099 15.351524 -1.149581 0.535171 -0.005411 0.000994 -1722200.000000 1 0 0
0.670624 8.863471 14.002099 16.585223 1.495279 0.565629 0.000629 -0.009159 94393.000000 1 0 0
-4.179376 -6.553829 13.138499 15.265648 1.003117 0.534236 0.014075 -0.006051 304819.000000 1 0 0
-5.065576 8.302771 16.478999 19.135137 -1.022979 0.533189 0.010533 -0.003199 672600.000000 1 0 0
1.537924 -10.657129 15.819599 19.136335 -1.427476 0.597617 -0.014783 0.003768 62263.300000 1 0 0
-15.293876 -0.913329 14.190599 20.883245 0.059648 0.823687 0.054912 -0.007409 260731.000000 1 0 0
-13.647576 -5.250429 8.433699 16.880480 0.367261 1.047645 0.046836 -0.015004 -80440.900000 1 0 0
-14.338876 -1.908229 12.114099 18.867859 0.132303 0.873628 0.048574 -0.007026 601820.000000 1 0 0
9.473924 1.494171 16.728899 19.283253 0.156426 0.520571 0.047661 -0.014874 -671565.000000 1 0 0
5.079224 -6.632929 16.666999 18.643581 -0.917286 0.464645 0.009858 -0.018914 -686734.000000 1 0 0
-6.107476 -2.731129 11.009999 12.883338 0.420505 0.546031 0.011084 -0.002796 605561.000000 1 0 0
0.656424 -6.240929 18.024499 19.085666 -1.466001 0.335032 0.018686 -0.018751 -4880.270000 1 0 0
-8.408976 11.894471 12.030299 18.892258 -0.955411 0.880475 0.018561 -0.019564 129844.000000 1 0 0
-6.650076 -5.707529 14.955099 17.333620 0.709273 0.530054 0.032698 -0.012241 -1119860.000000 1 0 0
-4.130676 -8.863529 16.969999 19.585849 1.134692 0.522765 0.036201 -0.018079 140990.000000 1 0 0
2.555424 -6.220529 16.232599 17.570499 -1.181010 0.392762 0.009684 -0.014643 641139.000000 1 0 0
2.064924 5.370571 16.318699 17.303378 1.203733 0.338983 0.010799 -0.003570 -573438.000000 1 0 0
0.798524 -8.835329 14.041999 16.609588 -1.480663 0.563454 -0.007084 0.000716 -575052.000000 1 0 0
-9.996276 -2.855329 11.320299 15.369697 0.278230 0.742865 0.010362 -0.001917 188095.000000 1 0 0
-1.184576 10.089371 12.295099 15.948921 -1.453923 0.690536 -0.010596 -0.007137 -405204.000000 1 0 0
-12.477176 -3.607929 11.436099 17.305532 0.281485 0.848866 0.037516 -0.002000 -969120.000000 1 0 0
-1.977676 6.442271 19.956299 21.063426 -1.272944 0.325664 0.041272 -0.020679 -1243610.000000 1 0 0
0.386524 -13.401929 15.660099 20.615523 -1.541963 0.708058 -0.010082 -0.008217 -196401.000000 1 0 0
4.038224 -8.703429 15.312799 18.070383 -1.136377 0.559732 -0.006707 -0.001984 818174.000000 1 0 0
4.359224 -4.268829 16.225999 17.335189 -0.774922 0.359664 0.016738 -0.008088 -587918.000000 1 0 0
8.048124 1.687171 14.580599 16.739556 0.206643 0.513508 0.014612 -0.006297 -488953.000000 1 0 0
-6.331176 -0.122129 11.735599 13.335029 0.019288 0.494812 0.010300 0.000960 383995.000000 1 0 0
-3.349376 -10.842029 18.315699 21.546061 1.271172 0.554675 0.052886 -0.020752 483705.000000 1 0 0
3.250724 -1.403529 13.669099 14.120247 -0.407581 0.253464 0.002284 -0.001215 311321.000000 1 0 0
-2.483176 8.635071 15.843699 18.214099 -1.290783 0.515880 0.007048 -0.007919 -944802.000000 1 0 0
-3.291476 4.164171 14.758899 15.684363 -0.901920 0.345239 0.007160 -0.003671 -1518210.000000 1 0 0
-4.644376 -8.963529 19.562399 22.013690 1.092741 0.476410 0.063975 -0.023600 121237.000000 1 0 0
-5.619876 -2.859929 19.100499 20.114454 0.470739 0.318869 0.034373 -0.022113 -1175540.000000 1 0 0
-6.681576 -8.705329 11.090099 15.601811 0.916172 0.780131 0.016020 -0.006715 151474.000000 1 0 0
-11.752076 2.409271 12.684099 17.458586 -0.202206 0.757545 0.028451 -0.008768 -282937.000000 1 0 0
-11.678376 -7.557729 11.779599 18.228074 0.574373 0.868157 0.042626 -0.014513 32071.600000 1 0 0
-11.039576 -7.395629 15.619299 20.506830 0.590251 0.704920 0.059071 -0.024658 60166.600000 1 0 0
-0.101776 5.799071 17.701499 18.627470 -1.553248 0.316630 0.017791 -0.010991 -254196.000000 1 0 0
-2.224376 0.010571 13.182099 13.368459 -0.004752 0.167169 0.011967 0.000498 330364.000000 1 0 0
-6.038076 -10.430929 17.997599 21.660476 1.046064 0.590081 0.076295 -0.023753 418070.000000 1 0 0
0.318224 2.768371 19.120699 19.322688 1.456349 0.144719 0.029477 -0.015794 -812328.000000 1 0 0
-0.688076 10.936371 14.669899 18.310751 -1.507963 0.641560 0.013949 -0.014124 -63716.400000 1 0 0
-12.938476 -2.217329 14.287399 19.402332 0.169726 0.743099 0.043268 -0.009105 -9757.740000 1 0 0
-13.820076 8.422971 11.623799 19.926205 -0.547356 0.947959 0.044833 -0.021122 -48276.800000 1 0 0
-18.123776 -0.630429 6.769199 19.356930 0.034771 1.213541 0.069291 -0.021988 252617.000000 1 0 0
-2.056676 -7.555429 17.680299 19.336685 1.305024 0.416922 0.029211 -0.016217 -1746140.000000 1 0 0
5.755124 2.756371 14.528099 15.867725 0.446660 0.413860 0.018308 -0.008226 -3450400.000000 1 0 0
-14.063776 -6.565429 11.209999 19.145723 0.436763 0.945288 0.047616 -0.024794 297234.000000 1 0 0
3.184524 7.803271 16.151799 18.218476 1.183326 0.480938 0.022643 -0.020959 -309878.000000 1 0 0
1.034024 2.220071 14.706499 14.909025 1.134912 0.165015 0.006653 -0.008257 -614122.000000 1 0 0
-14.501776 0.651771 9.569399 17.386768 -0.044914 0.987972 0.027676 -0.007460 -2880180.000000 1 0 0
-9.616176 -5.173829 15.635599 19.071216 0.493610 0.609642 0.041631 -0.012569 -156940.000000 1 0 0
-2.436976 -0.170229 18.144199 18.307916 0.069739 0.133834 0.028492 -0.013228 37189.200000 1 0 0
6.840224 3.904371 17.252799 18.965544 0.518669 0.428255 0.040554 -0.018738 -553883.000000 1 0 0
-4.227576 -0.778729 14.718299 15.333204 0.182160 0.284161 0.021188 -0.002977 692180.000000 1 0 0
4.815924 -8.912029 17.837399 20.513171 -1.075365 0.516489 0.004664 -0.004642 -293219.000000 1 0 0
1.862924 6.877171 13.381499 15.160161 1.306260 0.489272 0.001993 -0.002444 -1939140.000000 1 0 0
-3.708876 -0.783229 20.289699 20.640763 0.208119 0.184698 0.043903 -0.012463 -561335.000000 1 0 0
-10.658576 1.578071 16.283899 19.525904 -0.146989 0.584544 0.026003 -0.003047 -48963.900000 1 0 0
-4.010176 7.058171 18.542699 20.241813 -1.054117 0.412655 0.029091 -0.009424 -385407.000000 1 0 0
-12.830276 1.226971 14.750899 19.588529 -0.095341 0.718130 0.038613 -0.008972 1128740.000000 1 0 0
-16.149676 -4.574629 8.417399 18.777430 0.276033 1.105965 0.065636 -0.023475 -1146600.000000 1 0 0
-2.399876 0.918571 15.717999 15.926665 -0.365555 0.162052 0.020537 -0.004557 15104.000000 1 0 0
-13.795476 -8.573729 12.847899 20.709720 0.556070 0.901569 0.063448 -0.033919 519574.000000 1 0 0
5.989024 -3.141029 14.569599 16.062618 -0.483027 0.434573 0.007376 -0.007141 581001.000000 1 0 0
-15.882476 0.579071 7.436699 17.546876 -0.036444 1.133139 0.036945 -0.012763 258007.000000 1 0 0
-14.267676 5.889871 11.985999 19.542807 -0.391502 0.910539 0.046190 -0.024965 307415.000000 1 0 0
0.581824 9.506671 16.612399 19.149076 1.509671 0.520582 0.017884 -0.016710 -281984.000000 1 0 0
-10.555576 -5.412629 10.864599 16.085902 0.473815 0.829274 0.033987 -0.009347 392859.000000 1 0 0
-3.252676 -11.149429 15.094399 19.045486 1.286939 0.655826 0.018729 -0.004003 -355716.000000 1 0 0
-3.464676 2.702571 12.620299 13.363376 -0.662449 0.335048 0.002557 0.002009 -1657970.000000 1 0 0
-12.360376 -7.776329 7.505999 16.419202 0.561566 1.096011 0.032824 -0.005715 325697.000000 1 0 0
-8.243076 -1.882029 13.208899 15.683282 0.224469 0.569394 0.020158 -0.002942 -293082.000000 1 0 0
-9.822876 6.456371 9.448599 15.081434 -0.581475 0.893735 0.010506 -0.007380 -835078.000000 1 0 0
-18.064576 -3.486529 6.742999 19.594714 0.190659 1.219491 0.072037 -0.018543 345595.000000 1 0 0
-1.217876 -0.092829 20.469699 20.506107 0.076075 0.059598 0.038204 -0.010980 -1656890.000000 1 0 0
-2.586476 2.630371 20.305899 20.638271 -0.793812 0.179711 0.042088 -0.008822 -988965.000000 1 0 0
-3.850576 11.338371 10.962699 16.234727 -1.243411 0.829476 0.002788 -0.015180 -620353.000000 1 0 0
-4.249376 -4.655229 14.869499 16.150243 0.830945 0.400931 0.016161 -0.010953 -116280.000000 1 0 0
-0.151076 -14.415029 13.229399 19.566116 1.560316 0.828288 -0.005533 -0.007669 -1113760.000000 1 0 0
-12.189376 0.393171 8.338499 14.773829 -0.032244 0.971078 0.009819 -0.001898 -445621.000000 1 0 0
-7.827176 2.183671 15.351499 17.369560 -0.272068 0.486839 0.012489 0.001502 -1573430.000000 1 0 0
3.461424 -1.972129 18.601199 19.023022 -0.517876 0.210982 0.020034 -0.008631 -317881.000000 1 0 0
-2.158876 4.912871 12.509499 13.611929 -1.156765 0.405234 -0.005187 0.001587 -237682.000000 1 0 0
-10.242976 -6.197229 13.360499 17.939541 0.544104 0.730634 0.029220 -0.014688 -572766.000000 1 0 0
2.383024 -3.661529 14.325999 14.977311 -0.993839 0.295991 0.006434 -0.003408 -581955.000000 1 0 0
6.830124 1.271471 16.905399 18.277302 0.184050 0.389920 0.028136 -0.013265 -695773.000000 1 0 0
-1.902476 -5.542729 13.819299 15.010473 1.240158 0.401070 0.008453 -0.007956 -1627860.000000 1 0 0
-12.754576 3.810671 14.627399 19.777796 -0.290327 0.738340 0.011719 -0.001870 88725.400000 1 0 0
-13.171376 -6.122629 13.540599 19.857481 0.435129 0.820454 0.037882 -0.029100 -537631.000000 1 0 0
-9.578576 6.903471 11.926099 16.782099 -0.624497 0.780383 0.019201 -0.005373 -8099.090000 1 0 0
-1.087776 -2.394029 12.910199 13.175275 1.144314 0.200933 0.007556 -0.001731 454827.000000 1 0 0
-0.001476 6.795471 15.288599 16.730801 -1.570579 0.418254 0.007177 -0.007281 333158.000000 1 0 0
-16.513376 -1.079129 9.293399 18.979551 0.065256 1.059104 0.056128 -0.013567 103855.000000 1 0 0
-1.302476 2.849071 13.787399 14.138813 -1.142006 0.223420 0.004107 0.000269 -3406150.000000 1 0 0
-11.202876 -3.166629 16.149199 19.908003 0.275476 0.624610 0.040567 -0.015777 853052.000000 1 0 0
-5.208976 -1.317229 17.119499 17.942847 0.247684 0.304114 0.038861 -0.008254 326073.000000 1 0 0
-11.943476 6.651871 10.968999 17.527491 -0.508160 0.894618 0.032532 -0.011080 -1135580.000000 1 0 0
-3.143576 4.583371 18.622699 19.434358 -0.969620 0.290028 0.044072 -0.014883 265611.000000 1 0 0
5.116524 -1.802329 16.578699 17.443637 -0.338684 0.316228 0.018159 -0.007662 -658581.000000 1 0 0
-8.083776 -4.195229 12.275899 15.285453 0.478707 0.638300 0.020644 -0.005893 -825348.000000 1 0 0
-11.876276 -0.732429 16.250899 20.141353 0.061594 0.632009 0.053655 -0.003965 787293.000000 1 0 0
2.122624 2.223471 17.368199 17.638132 0.808598 0.175175 0.012346 -0.012804 -1366260.000000 1 0 0
-8.982076 -7.422229 11.603499 16.444098 0.690596 0.787480 0.025366 -0.009464 -340155.000000 1 0 0
-7.170576 7.006971 14.857199 17.923481 -0.773859 0.593615 -0.001339 -0.002968 -773930.000000 1 0 0
-5.650176 3.576971 15.659799 17.027875 -0.564383 0.403591 0.005266 -0.001351 452398.000000 1 0 0
-9.439876 4.230571 11.600599 15.542937 -0.421322 0.728223 0.011552 -0.005853 364240.000000 1 0 0
-10.498076 0.111171 14.273399 17.718687 -0.010589 0.634183 0.024632 0.003777 -705233.000000 1 0 0
8.168724 -0.548529 15.710499 17.715776 -0.067049 0.480404 0.022728 -0.010479 149383.000000 1 0 0
-8.574676 -7.473729 14.794699 18.661854 0.716904 0.655444 0.042690 -0.012371 -1304330.000000 1 0 0
-0.167776 4.259571 15.650599 16.220769 -1.531429 0.265927 0.006976 -0.009290 446046.000000 1 0 0
-8.098876 3.088471 9.647299 12.969226 -0.364322 0.731968 0.003799 0.002499 -93273.700000 1 0 0
-2.262976 -9.710429 13.198699 16.541437 1.341837 0.646964 -0.001737 -0.002325 664112.000000 1 0 0
-6.044876 10.326371 10.318399 15.800121 -1.041194 0.859181 0.008888 -0.010703 -1185930.000000 1 0 0
-8.551676 -2.807729 15.704199 18.100728 0.317236 0.520440 0.032575 -0.011350 139506.000000 1 0 0
4.313724 5.954071 17.609299 19.082626 0.943816 0.395531 0.022537 -0.010478 -12495.300000 1 0 0
-6.900876 -0.810729 15.183299 16.697663 0.116946 0.429181 0.023904 -0.001762 841818.000000 1 0 0
-1.021176 -9.934229 15.501999 18.440273 1.468362 0.572296 -0.008139 -0.000574 586199.000000 1 0 0
-4.398776 5.839271 16.233299 17.803548 -0.925181 0.423147 0.013229 -0.004676 173653.000000 1 0 0
3.859724 0.181871 17.334299 17.759743 0.047085 0.219325 0.021951 -0.013839 -223472.000000 1 0 0
1.323024 0.575371 19.277799 19.331709 0.410218 0.074699 0.013081 -0.007700 -599078.000000 1 0 0
-6.472876 6.465071 17.724199 19.945989 -0.784795 0.476491 0.009838 -0.009363 -30280.300000 1 0 0
-12.433476 0.693571 10.925199 16.565999 -0.055725 0.850649 0.028483 -0.002973 -275974.000000 1 0 0
-5.366376 5.355871 13.803499 15.748649 -0.784418 0.502279 0.000815 -0.000075 -1804590.000000 1 0 0
-8.677976 -9.503729 9.924799 16.252069 0.830784 0.913878 0.026019 -0.008672 -149255.000000 1 0 0
6.881424 -3.696929 16.959899 18.672425 -0.492989 0.431628 0.019998 -0.009758 125074.000000 1 0 0
-17.006076 1.454871 9.515499 19.541443 -0.085342 1.062214 0.055428 -0.017281 194470.000000 1 0 0
-4.238776 -9.580429 11.472299 15.535942 1.154246 0.740048 0.008094 -0.005375 1095000.000000 1 0 0
-11.253576 -3.777329 9.160299 14.994074 0.323839 0.913564 0.019882 -0.000259 -887896.000000 1 0 0
3.788124 -5.303629 18.484499 19.599874 -0.950570 0.338985 0.017735 -0.016137 -189520.000000 1 0 0
2.493924 -1.683429 16.172199 16.449730 -0.593758 0.183952 0.007891 -0.009297 -193312.000000 1 0 0
-3.088976 -4.460329 19.980699 20.704218 0.965092 0.265145 0.042880 -0.027877 -983911.000000 1 0 0
-6.349276 -3.226629 14.430599 16.092440 0.470177 0.458468 0.024790 -0.005526 -712258.000000 1 0 0
-9.639076 5.160871 13.869099 17.660642 -0.491574 0.667598 0.021437 -0.006013 615364.000000 1 0 0
-5.885076 -5.095129 11.881499 14.204382 0.713579 0.579992 0.007383 0.000536 -1305250.000000 1 0 0
6.242824 2.279471 19.184599 20.303145 0.350094 0.333484 0.046329 -0.025737 105792.000000 1 0 0
-2.843976 11.781571 13.455399 18.109152 -1.333936 0.733230 0.006192 -0.022906 198010.000000 1 0 0
3.440024 1.487471 15.141099 15.598052 0.408123 0.242651 0.008710 -0.006762 -1219770.000000 1 0 0
-5.717176 7.585771 12.767199 15.913246 -0.924950 0.639658 -0.005731 -0.003621 -1956220.000000 1 0 0
-1.821476 -1.536829 15.215999 15.401501 0.700841 0.155362 0.016705 -0.005747 -504089.000000 1 0 0
-7.273376 10.368371 13.904099 18.807687 -0.959067 0.738800 0.019493 -0.026669 572298.000000 1 0 0
-10.248976 2.081971 10.640399 14.919591 -0.200412 0.776768 0.013741 -0.000317 -1544440.000000 1 0 0
-13.572676 5.206871 9.071999 17.135641 -0.366314 1.012876 0.016156 -0.010667 -363979.000000 1 0 0
0.145724 -4.917229 20.206599 20.796803 -1.541170 0.238809 0.025497 -0.022462 -436434.000000 1 0 0
-14.444876 -2.880329 7.546899 16.550118 0.196820 1.097298 0.035679 -0.008953 426132.000000 1 0 0
-2.426476 2.341571 17.724999 18.042903 -0.767593 0.187996 0.026592 -0.009449 -153886.000000 1 0 0
-6.163776 -8.295829 14.698399 17.968190 0.931792 0.612830 0.019939 -0.008606 -258706.000000 1 0 0
-8.029376 1.904071 11.979699 14.546805 -0.232837 0.603194 0.007622 -0.001808 1505250.000000 1 0 0
-14.641176 -3.515429 10.105399 18.133983 0.235645 0.979710 0.043192 -0.013727 435905.000000 1 0 0
-0.625176 7.032171 12.737799 14.563441 -1.482127 0.506099 -0.004209 -0.003043 -2615270.000000 1 0 0
-1.828876 -2.328329 19.367899 19.592892 0.904967 0.151693 0.032717 -0.016860 -153406.000000 1 0 0
-12.901776 10.553971 7.454499 18.259564 -0.685635 1.150258 0.036873 -0.013776 1052040.000000 1 0 0
-19.580076 2.305471 6.656599 20.808769 -0.117206 1.245179 0.075443 -0.023192 1170650.000000 1 0 0
-16.475376 8.424371 6.666999 19.668678 -0.472671 1.224979 0.045811 -0.008947 504394.000000 1 0 0
-12.497476 7.144171 13.475799 19.718601 -0.519312 0.818379 0.041907 -0.015940 615999.000000 1 0 0
-16.012876 8.237871 10.445299 20.817756 -0.475143 1.045176 0.033927 -0.011097 706617.000000 1 0 0
1.888624 10.927171 14.850899 18.534270 1.399650 0.641386 0.022939 -0.027276 -361084.000000 1 0 0
1.975224 14.328571 12.731099 19.268896 1.433808 0.849036 0.014981 -0.014494 -1658890.000000 1 0 0
-3.232776 13.695771 11.564499 18.214352 -1.338997 0.882903 0.002670 -0.019491 171484.000000 1 0 0
9.242024 4.979371 16.103099 19.222876 0.494184 0.577729 0.042305 0.007389 -238205.000000 1 0 0
-0.434576 12.631771 12.736499 17.943492 -1.536407 0.781566 0.003306 -0.016730 -44072.000000 1 0 0
3.596824 13.575071 14.503799 20.188608 1.311790 0.769275 0.033372 -0.015611 411910.000000 1 0 0
-2.893576 -4.177429 -13.709001 14.620547 0.965007 2.786612 0.002413 -0.008814 -354254.000000 1 0 0
5.345824 -11.600429 16.427899 20.809221 -1.138973 0.660879 -0.006799 -0.000857 317899.000000 1 0 0
7.689924 -13.485329 7.476499 17.230411 -1.052544 1.121965 -0.005515 -0.004897 87330.500000 1 0 0
-0.085576 15.669771 1.345399 15.727656 -1.565335 1.485148 0.006749 -0.006189 -4074820.000000 1 0 0
-13.781176 8.147171 8.918199 18.325705 -0.533910 1.062546 0.030098 -0.013624 665286.000000 1 0 0
-15.470876 -9.586229 5.118899 18.906266 0.554729 1.296623 0.030739 -0.002302 -291505.000000 1 0 0
9.468724 -10.969429 11.181899 18.303551 -0.858693 0.913582 0.046927 -0.014280 -63224.300000 1 0 0
-5.877476 -10.839929 -16.482601 20.584579 1.073957 2.499302 0.027335 -0.014013 34059.300000 1 0 0
-1.929676 -12.468529 -14.989901 19.592983 1.417251 2.441938 0.017883 0.001278 74311.400000 1 0 0
5.373824 -15.860029 -12.377701 20.823688 -1.244109 2.207322 0.034351 -0.006298 305871.000000 1 0 0
1.039824 -12.081529 -16.372401 20.374005 -1.484941 2.504103 0.023457 0.002888 -3508.270000 1 0 0
0.508224 -13.934429 -14.694101 20.256930 -1.534340 2.382392 0.032712 0.009609 326758.000000 1 0 0
-6.856176 -6.337329 -14.713501 17.425728 0.746093 2.576157 0.023287 0.001472 7572.700000 1 0 0
-5.633076 -8.234129 -17.204301 19.887694 0.970812 2.616092 -0.001931 -0.004552 -16319.700000 1 0 0
-2.255776 -16.253329 -13.226901 21.076293 1.432889 2.249228 0.027572 -0.005832 341401.000000 1 0 0
16.394524 -8.096029 -8.857901 20.317198 -0.458696 2.021924 0.099984 -0.013381 4203.110000 1 0 0
19.123324 -2.713629 -3.839101 19.692740 -0.140960 1.767003 0.105510 -0.019693 64256.500000 1 0 0
15.671924 -11.129329 -9.295501 21.351288 -0.617502 2.021235 0.068733 -0.022164 203730.000000 1 0 0
18.801524 -3.376329 -6.859301 20.296476 -0.177684 1.915540 0.219660 -0.009326 -299403.000000 1 0 0
8.993324 -9.592429 -15.696201 20.475969 -0.817622 2.444274 0.080031 -0.008572 272388.000000 1 0 0
-4.584576 9.893371 -16.116701 19.458807 -1.136856 2.546769 0.004880 -0.003148 299044.000000 1 0 0
2.547724 -9.675129 -18.240501 20.804204 -1.313314 2.639900 0.034381 -0.003568 287767.000000 1 0 0
10.979324 8.525171 -14.392101 20.008915 0.660231 2.373568 0.098069 -0.049797 328052.000000 1 0 0
17.800324 -6.370229 -7.417301 20.308809 -0.343670 1.944672 0.063751 -0.023770 142063.000000 1 0 0
12.442024 5.410771 -13.708901 19.287674 0.410208 2.361374 0.069305 -0.010551 59357.100000 1 0 0
16.016724 6.142571 -10.970501 20.362184 0.366210 2.139771 0.050659 -0.013366 250038.000000 1 0 0
3.409424 -0.222229 -19.109801 19.412832 -0.065089 2.964671 0.035634 -0.019818 213044.000000 1 0 0
10.161824 -1.750229 -14.902101 18.121771 -0.170562 2.536293 0.042616 -0.000655 184597.000000 1 0 0
12.255324 -5.599429 -14.484301 19.782355 -0.428575 2.392318 0.084371 0.004269 551710.000000 1 0 0
9.542624 5.835871 -12.833801 17.024263 0.548875 2.424704 0.033760 -0.006304 437237.000000 1 0 0
10.768024 5.175971 -16.229101 20.152537 0.448072 2.507000 0.076403 -0.024007 415758.000000 1 0 0
11.658624 -11.190829 -14.753901 21.882316 -0.764928 2.310729 0.114007 -0.006838 246229.000000 1 0 0
-1.363976 2.036171 -17.576401 17.746444 -0.980577 3.003049 0.003564 -0.010182 318403.000000 1 0 0
6.281524 -1.033729 -17.272301 18.408110 -0.163105 2.788473 0.021037 0.003898 60319.900000 1 0 0
6.268024 -5.724629 -15.773001 17.912204 -0.740118 2.647866 0.004269 -0.008749 267517.000000 1 0 0
-2.290976 -4.582929 -20.351201 20.986262 1.107234 2.894957 0.038929 -0.031923 395414.000000 1 0 0
16.388624 -0.100029 -13.385701 21.160671 -0.006103 2.255669 0.113093 -0.018524 9225.090000 1 0 0
-3.951276 -0.519529 -18.503201 18.927518 0.130734 2.929450 0.013164 -0.012048 161444.000000 1 0 0
3.408524 8.712471 -17.783601 20.094319 1.197879 2.657304 0.037102 -0.026102 -119016.000000 1 0 0
9.658424 -0.009529 -17.019301 19.568900 -0.000987 2.625414 0.066907 -0.019394 -43081.200000 1 0 0
4.134724 4.489271 -18.386601 19.373089 0.826487 2.821097 0.026716 -0.005177 409504.000000 1 0 0
-2.898076 -10.895029 -17.842701 21.105982 1.310817 2.578084 0.030107 -0.023312 170724.000000 1 0 0
5.494624 -9.727429 -15.967101 19.487485 -1.056617 2.531075 0.010223 -0.005476 24823.400000 1 0 0
9.717624 -13.154529 -11.551301 20.022647 -0.934548 2.185739 0.034593 0.033635 229521.000000 1 0 0
6.236224 6.922071 -17.194001 19.556054 0.837474 2.645011 0.046638 -0.010337 413989.000000 1 0 0
8.822724 1.211671 -20.211501 22.086498 0.136481 2.726569 0.075729 -0.019903 121577.000000 1 0 0
-1.143776 -0.879929 -20.198201 20.249687 0.655751 3.070268 0.037532 -0.021687 171221.000000 1 0 0
-1.130276 6.841471 -19.465901 20.664088 -1.407066 2.799384 0.010689 -0.008033 -111337.000000 1 0 0
8.642524 5.767171 -18.271201 21.018808 0.588442 2.624538 0.074319 -0.018538 162603.000000 1 0 0
11.881224 -0.059229 -12.951101 17.575495 -0.004985 2.399246 0.017756 -0.003970 -10220.800000 1 0 0
-4.373676 -2.756929 -19.942601 20.601869 0.562434 2.887929 0.021173 -0.014867 345414.000000 1 0 0
5.890824 -11.391929 -14.500801 19.358489 -1.093558 2.417449 0.018367 -0.003054 139271.000000 1 0 0
11.174224 1.969271 -16.099401 19.695990 0.174442 2.527671 0.060134 -0.000793 -243135.000000 1 0 0
-2.965576 -4.312029 -17.022001 17.808334 0.968343 2.843317 0.010927 -0.012501 388177.000000 1 0 0
-6.562376 -4.540129 -17.223001 18.981815 0.605230 2.707714 0.018338 -0.016820 -17419.300000 1 0 0
3.198424 10.290971 -15.486601 18.867136 1.269462 2.533649 0.012483 -0.017745 301873.000000 1 0 0
16.952524 -6.078129 -10.967301 21.085858 -0.344261 2.117795 0.119396 -0.013412 -24656.800000 1 0 0
9.332224 -3.855029 -17.556001 20.252526 -0.391738 2.619655 0.043289 -0.023364 245611.000000 1 0 0
-7.204176 -1.268229 -18.853801 20.223114 0.174255 2.771489 0.018321 -0.002183 613227.000000 1 0 0
1.744024 -7.495829 -19.255101 20.736152 -1.342197 2.761355 0.038913 -0.024661 239380.000000 1 0 0
5.752124 10.261271 -14.078801 18.346478 1.059877 2.445548 0.041021 -0.023643 431168.000000 1 0 0
5.886624 -3.322829 -18.194701 19.409809 -0.513885 2.785876 0.039230 -0.019323 344477.000000 1 0 0
4.317824 13.470571 -14.638801 20.356679 1.260606 2.373325 0.051072 -0.029630 205502.000000 1 0 0
9.406724 11.284871 -15.933101 21.672528 0.875919 2.396721 0.121352 -0.028220 268151.000000 1 0 0
17.334924 1.246371 -11.600501 20.895566 0.071776 2.159358 0.119945 -0.009469 -218825.000000 1 0 0
14.456424 -3.078129 -12.423601 19.308261 -0.209792 2.269773 0.105661 -0.010520 -19105.800000 1 0 0
-7.806876 0.569771 -16.989901 18.706381 -0.072854 2.709857 -0.000764 -0.016683 460166.000000 1 0 0
-3.478776 4.415371 -19.055401 19.867201 -0.903490 2.854738 0.017262 -0.002548 138695.000000 1 0 0
3.913624 1.979171 -16.793101 17.356319 0.468208 2.886143 0.016351 -0.008148 415600.000000 1 0 0
-5.118576 14.120071 -13.974501 20.514943 -1.223026 2.320178 0.014715 -0.012609 298322.000000 1 0 0
0.949724 9.408771 -17.831201 20.183624 1.470197 2.653969 0.013326 -0.007164 186589.000000 1 0 0
0.961324 -5.142929 -20.075101 20.745687 -1.386007 2.886643 0.034398 -0.008431 424957.000000 1 0 0
3.646724 -5.779329 -18.815201 20.017768 -1.007898 2.793207 0.033261 -0.000322 122439.000000 1 0 0
-6.229476 7.739071 -15.928301 18.772596 -0.893051 2.583916 0.003737 -0.001848 63501.100000 1 0 0
-11.890776 3.445671 -16.502401 20.629892 -0.282052 2.497969 0.075791 -0.027021 279990.000000 1 0 0
-4.063176 6.754871 -17.471101 19.167082 -1.029262 2.717751 0.005308 0.012455 349984.000000 1 0 0
-8.127476 5.692171 -17.397701 20.028397 -0.610969 2.623271 0.025121 -0.010266 332424.000000 1 0 0
-8.640676 4.805371 -15.216601 18.146565 -0.507540 2.565392 0.009341 -0.009814 609290.000000 1 0 0
9.359024 13.660371 -12.969901 21.033673 0.970125 2.235245 0.127320 -0.051797 363393.000000 1 0 0
15.113824 9.650971 -11.833201 21.484729 0.568286 2.154086 0.175594 -0.031470 104924.000000 1 0 0
8.350624 15.606971 -10.092901 20.375896 1.079498 2.089017 0.084287 -0.030509 -10127.700000 1 0 0
7.106224 12.710571 -14.436601 20.505426 1.061009 2.351864 0.135326 -0.063049 -113831.000000 1 0 0
4.064824 15.385271 -12.915101 20.494614 1.312496 2.252569 0.061084 -0.036310 167692.000000 1 0 0
10.706824 11.896171 -11.259901 19.568862 0.837969 2.183888 0.111311 -0.036060 279179.000000 1 0 0
16.125224 10.667771 -8.850501 21.263950 0.584457 2.000081 0.105146 -0.048929 367409.000000 1 0 0
12.764324 10.740671 -9.680901 19.287556 0.699515 2.096619 0.104221 -0.043280 -518.890000 1 0 0
10.505024 11.565271 -7.571601 17.362033 0.833401 2.022058 0.064909 -0.017465 128734.000000 1 0 0
5.718724 17.025271 -10.128001 20.618925 1.246741 2.084262 0.078738 -0.019998 142113.000000 1 0 0
11.661324 13.906871 -10.348801 20.892229 0.872999 2.089025 0.155408 -0.049647 -201128.000000 1 0 0
8.106424 -19.311929 -1.549301 21.001549 -1.173370 1.644634 0.022836 -0.001443 199409.000000 1 0 0
7.844624 -17.041229 -4.206101 19.225839 -1.139384 1.791353 0.035413 -0.007495 79550.900000 1 0 0
3.844424 -18.738029 5.391699 19.873695 -1.368438 1.296055 0.051422 -0.018446 73293.000000 1 0 0
10.377024 -17.734229 -2.662701 20.718964 -1.041374 1.699668 0.036273 -0.000196 664176.000000 1 0 0
-3.288976 -14.750529 7.881499 17.044456 1.351412 1.090087 0.035218 -0.031943 113675.000000 1 0 0
-15.278176 -12.937129 -4.227601 20.461294 0.702617 1.778910 0.049086 0.002256 270505.000000 1 0 0
-9.468776 -12.657629 -6.944201 17.265434 0.928532 1.984718 0.036695 -0.012194 244603.000000 1 0 0
-11.794776 -15.307529 6.900499 20.519602 0.914290 1.227824 0.056475 -0.014776 333065.000000 1 0 0
-14.426976 -8.665829 -8.252401 18.743968 0.540911 2.026695 0.026540 -0.009995 -154155.000000 1 0 0
4.842424 -15.048029 6.650699 17.150045 -1.259463 1.172558 0.026522 -0.018746 244997.000000 1 0 0
2.840424 -14.110329 9.347699 17.162426 -1.372150 0.994812 0.003816 -0.002825 494670.000000 1 0 0
3.267224 -17.630529 9.797299 20.432753 -1.387559 1.070723 0.030984 -0.005924 -201967.000000 1 0 0
-8.264876 -17.804629 -5.089501 20.278461 1.136198 1.824489 0.057055 -0.017092 84335.300000 1 0 0
2.374024 -19.714729 -3.948201 20.245859 -1.450955 1.767067 0.044295 -0.013966 98571.500000 1 0 0
-16.888276 -10.558729 -3.039701 20.147962 0.558751 1.722243 -0.061150 -0.012367 -15819.500000 1 0 0
-4.393576 -14.678129 2.753599 15.567058 1.279956 1.392974 0.018832 -0.002952 171324.000000 1 0 0
-11.102876 -10.294129 -14.227801 20.776748 0.747619 2.325118 0.054210 -0.022046 189125.000000 1 0 0
0.929624 -20.318229 2.528899 20.496096 -1.525075 1.447097 0.057346 -0.014792 234480.000000 1 0 0
7.002424 -18.183529 1.133299 19.518172 -1.203203 1.512700 0.036680 -0.005170 337426.000000 1 0 0
-6.651976 -17.628229 -3.023501 19.082578 1.209969 1.729910 0.011929 -0.061229 -61474.000000 1 0 0
-9.059476 -15.723429 -7.475001 19.625900 1.048078 1.961538 0.063085 -0.015972 -43190.200000 1 0 0
-11.713776 -11.474229 -12.067101 20.358914 0.775068 2.205226 0.025160 -0.005216 292217.000000 1 0 0
-13.322376 -15.352029 -3.300001 20.592729 0.856063 1.731741 0.057230 0.002078 144815.000000 1 0 0
0.483224 -20.064629 -2.499901 20.225537 -1.546718 1.694714 0.081254 -0.030397 341909.000000 1 0 0
-12.025376 -16.894529 -0.683201 20.748531 0.952201 1.603730 0.067482 -0.008453 250461.000000 1 0 0
0.734024 -19.649329 5.532599 20.426565 -1.533457 1.296517 0.069496 -0.033173 63876.000000 1 0 0
-18.233776 -8.896629 2.257299 20.413622 0.453937 1.459992 0.055435 0.005136 -32969.800000 1 0 0
-15.102476 -15.032129 -0.448601 21.313163 0.783064 1.591846 0.068789 -0.002707 124170.000000 1 0 0
10.339324 -15.518729 -4.972401 19.299154 -0.983084 1.831384 0.027140 0.002192 -37386.200000 1 0 0
-0.231676 -19.108329 -7.024001 20.359727 1.558673 1.923030 0.042774 -0.009311 343670.000000 1 0 0
-10.046176 -18.571229 -2.432001 21.253960 1.074925 1.685473 0.063272 0.036992 378242.000000 1 0 0
-15.285376 -6.913829 -11.297701 20.225770 0.424779 2.163469 0.075438 -0.022446 3469.780000 1 0 0
-12.251576 -15.307229 2.489699 19.763880 0.895825 1.444489 0.052529 -0.011931 280721.000000 1 0 0
-2.423576 -16.310229 10.194099 19.385999 1.423283 1.017084 0.029296 -0.016991 529388.000000 1 0 0
-12.343576 -14.774929 -6.552301 20.337036 0.874816 1.898834 0.047673 -0.000765 267258.000000 1 0 0
5.293924 -17.045929 -7.473201 19.350402 -1.269672 1.967309 0.025447 -0.008213 166785.000000 1 0 0
-17.909576 -7.657229 -2.994101 19.706615 0.404028 1.723321 0.031346 -0.007827 -39736.700000 1 0 0
-12.310176 -13.586729 -8.687601 20.288273 0.834652 2.013305 0.067296 -0.035486 84972.700000 1 0 0
-7.753776 -14.096529 9.824899 18.851043 1.067916 1.022556 0.049581 -0.009825 370459.000000 1 0 0
-15.990476 -8.145629 -5.621501 18.805527 0.471143 1.874366 0.043148 -0.006959 211846.000000 1 0 0
-1.060476 -19.576329 0.877499 19.624660 1.516678 1.526067 0.037916 -0.015119 -14352.600000 1 0 0
-15.335876 -11.732029 -1.577301 19.373112 0.653036 1.652304 0.034642 0.015219 292272.000000 1 0 0
-7.253076 -19.186129 2.448899 20.657003 1.209365 1.451966 0.047225 -0.015992 224912.000000 1 0 0
-0.856676 -21.197729 -4.167101 21.620415 1.530405 1.764749 0.048140 -0.018271 325287.000000 1 0 0
-8.959776 -19.779629 -1.058801 21.740109 1.145467 1.619518 0.052203 -0.013052 176677.000000 1 0 0
-17.883276 -7.147129 5.256899 19.963166 0.380208 1.304324 0.061922 -0.007063 119827.000000 1 0 0
-2.993376 -15.822329 -10.984101 19.492482 1.383819 2.169418 0.020236 0.008659 70175.400000 1 0 0
-2.785476 -18.227129 -8.351101 20.241739 1.419149 1.996068 0.030760 -0.000875 74077.100000 1 0 0
4.560224 -17.164129 -4.734101 18.379736 -1.311112 1.831305 0.012514 -0.016334 667272.000000 1 0 0
0.867524 -17.357329 -9.570001 19.839717 -1.520858 2.074150 0.034183 0.001453 -204753.000000 1 0 0
-7.673776 -9.950329 -14.446301 19.146579 0.913860 2.425705 0.012313 -0.018321 391302.000000 1 0 0
-4.816276 -19.661929 -1.970801 20.338929 1.330572 1.667847 0.056816 -0.025108 389699.000000 1 0 0
-10.550676 -15.051429 8.805399 20.381298 0.959416 1.124050 0.061343 -0.039981 244480.000000 1 0 0
-7.438176 -15.072229 -10.178001 19.649179 1.112361 2.115291 0.031279 -0.012720 298117.000000 1 0 0
-12.828876 -7.897829 -12.263201 19.425289 0.551832 2.254026 0.047507 -0.023732 305572.000000 1 0 0
-15.748176 -12.899129 3.419999 20.641922 0.686272 1.404347 0.051672 -0.005543 126882.000000 1 0 0
-6.430276 -14.095029 -12.769501 20.076813 1.142791 2.260142 0.013318 -0.005248 536986.000000 1 0 0
-13.808776 -11.335029 -6.681301 19.073672 0.687330 1.928676 0.040470 -0.016847 269148.000000 1 0 0
-11.490576 -10.223229 -9.150301 17.896249 0.727098 2.107490 0.019676 -0.007723 71470.600000 1 0 0
-9.638876 -14.597529 3.675899 17.874787 0.987208 1.363671 0.017903 -0.009408 389626.000000 1 0 0
5.184624 -18.079929 8.182399 20.511358 -1.291529 1.160457 0.048871 -0.027040 162995.000000 1 0 0
-4.862476 -16.785629 5.409099 18.293697 1.288833 1.270628 0.027504 0.003780 486965.000000 1 0 0
-18.198976 -7.623029 -6.658501 20.824239 0.396668 1.896259 0.046214 -0.025301 -19544.300000 1 0 0
-17.216876 -4.442629 -10.891601 20.851492 0.252531 2.120391 0.066067 -0.008876 -209109.000000 1 0 0
-15.939176 -3.977629 -12.804301 20.828561 0.244556 2.232862 0.051075 -0.014942 329130.000000 1 0 0
-18.953276 -4.459229 -5.702001 20.288524 0.231072 1.855680 0.027190 -0.020154 122741.000000 1 0 0
5.518724 -13.669329 8.812999 17.174860 -1.187078 1.031965 0.018819 -0.002726 170228.000000 1 0 0
20.048224 -3.740629 3.024999 20.617328 -0.184461 1.423544 0.093970 -0.013854 -97726.300000 1 0 0
18.335124 -2.329029 0.699399 18.495684 -0.126349 1.532973 0.066791 -0.023132 262691.000000 1 0 0
14.161924 -11.337429 0.454099 18.146724 -0.675081 1.545770 0.028543 -0.001980 140309.000000 1 0 0
11.062824 -13.982929 5.716099 18.723840 -0.901465 1.260559 0.022394 0.002054 544546.000000 1 0 0
10.551224 -12.519329 8.346699 18.377413 -0.870500 1.099342 0.062223 -0.032825 -22657.700000 1 0 0
17.765324 5.117271 -4.734501 19.084253 0.280456 1.821498 0.017784 0.006098 -99127.000000 1 0 0
19.038924 -6.049929 -4.615801 20.503363 -0.307675 1.797867 0.105314 -0.020041 17269.200000 1 0 0
17.532324 -10.066929 -0.078901 20.217114 -0.521227 1.574699 0.054941 -0.007141 203528.000000 1 0 0
17.981924 -8.468529 8.693299 21.694217 -0.440136 1.158494 0.143664 -0.027361 -129981.000000 1 0 0
19.534824 0.286271 -2.345601 19.677224 0.014653 1.690284 0.075090 -0.005357 -56150.800000 1 0 0
7.367824 -13.494329 11.670199 19.302210 -1.071034 0.921527 0.023475 -0.000438 244058.000000 1 0 0
16.178024 -6.278829 -3.435401 17.690510 -0.370213 1.766233 0.063248 -0.012961 217056.000000 1 0 0
14.361224 -6.989429 11.212599 19.514591 -0.452941 0.958711 0.092867 -0.055729 432519.000000 1 0 0
17.146524 2.240871 9.510999 19.735347 0.129953 1.067944 0.166797 -0.033197 505204.000000 1 0 0
16.621124 -10.200929 2.680399 19.685153 -0.550456 1.434209 0.035283 -0.010929 321821.000000 1 0 0
15.898824 -6.899029 -5.613401 18.217560 -0.409413 1.884024 0.064063 -0.015577 153081.000000 1 0 0
18.857524 -4.573929 5.802899 20.253412 -0.237957 1.280209 0.185512 -0.030471 -51148.700000 1 0 0
13.582124 -12.931229 8.154999 20.449812 -0.760853 1.160609 0.084231 -0.030396 213810.000000 1 0 0
15.375224 -14.051429 -1.404101 20.876103 -0.740442 1.638106 0.048068 -0.001192 306804.000000 1 0 0
18.793924 -6.233029 7.671399 21.234703 -0.320236 1.201170 0.148873 -0.038424 286445.000000 1 0 0
19.748824 3.929771 2.758399 20.324073 0.196422 1.434655 0.078290 -0.002541 113884.000000 1 0 0
15.649924 -10.063029 8.370599 20.402245 -0.571444 1.148037 0.087789 -0.041204 245838.000000 1 0 0
14.436324 -4.120129 10.874899 18.537701 -0.278009 0.943897 0.083709 -0.012236 -42359.900000 1 0 0
18.712824 -7.678029 1.826699 20.309081 -0.389361 1.480730 0.090576 -0.019007 23132.100000 1 0 0
19.092824 -6.022329 -1.269401 20.060303 -0.305546 1.634118 0.085629 -0.020501 175019.000000 1 0 0
14.854824 -13.232729 -6.155701 20.824591 -0.727711 1.870877 0.073189 -0.010368 514985.000000 1 0 0
13.802724 -9.698029 10.363399 19.798157 -0.612480 1.019898 0.059801 -0.020324 346591.000000 1 0 0
14.544724 2.635671 0.634499 14.795214 0.179266 1.527898 0.002990 0.001134 -73236.900000 1 0 0
13.032424 2.757171 13.755399 19.148292 0.208488 0.769352 0.076551 -0.017198 16083.800000 1 0 0
18.399824 -2.823729 9.311999 20.814426 -0.152277 1.106960 0.132335 -0.031723 168510.000000 1 0 0
7.729524 -18.574629 5.164099 20.770900 -1.176460 1.319539 0.060236 -0.024543 363756.000000 1 0 0
12.910324 -2.962129 14.715499 19.798904 -0.225535 0.732884 0.080796 -0.009017 346251.000000 1 0 0
11.249224 -13.545529 -6.921401 18.919096 -0.877747 1.945334 0.033161 -0.013232 191205.000000 1 0 0
10.691824 -17.728729 4.749899 21.241104 -1.028116 1.345271 0.044626 -0.012931 505315.000000 1 0 0
18.442324 -0.258229 -5.071001 19.128541 -0.014001 1.839105 0.106596 -0.009908 329972.000000 1 0 0
4.412824 -13.728129 11.622599 18.520782 -1.259784 0.892402 -0.001135 -0.004242 96227.900000 1 0 0
9.548424 -2.791229 14.451299 17.544327 -0.284399 0.602887 0.036729 -0.002504 337826.000000 1 0 0
8.980824 -9.268429 13.633499 18.773153 -0.801157 0.757984 0.059084 -0.027549 266530.000000 1 0 0
21.037224 5.481671 -3.162501 21.968499 0.254902 1.715254 0.134861 -0.007557 444422.000000 1 0 0
14.691624 -13.478529 2.038399 20.041698 -0.742362 1.468912 0.033776 -0.000918 245161.000000 1 0 0
11.342424 -0.234029 15.173599 18.945804 -0.020630 0.642008 0.055984 -0.011321 44923.700000 1 0 0
19.836724 -0.184629 7.516799 21.213957 -0.009307 1.208596 0.161876 -0.037472 130132.000000 1 0 0
19.760324 1.085971 0.731299 19.803650 0.054902 1.533860 0.079243 -0.014603 225414.000000 1 0 0
17.950124 0.317771 3.123399 18.222611 0.017701 1.398543 0.048697 -0.007034 39030.800000 1 0 0
9.980024 -8.555429 16.367699 20.992804 -0.708691 0.676639 0.056923 -0.012114 156703.000000 1 0 0
19.444324 2.641671 5.400499 20.352532 0.135031 1.302232 0.083268 -0.025243 150848.000000 1 0 0
15.025224 2.349771 7.072299 16.771887 0.155132 1.135504 0.051758 -0.017370 55607.900000 1 0 0
11.459624 -16.111129 1.695999 19.843585 -0.952536 1.485224 0.015939 -0.000413 243534.000000 1 0 0
8.744424 -15.944729 7.012199 19.490261 -1.069166 1.202765 0.035308 -0.014159 124349.000000 1 0 0
6.147824 6.964771 7.003099 11.633881 0.847620 0.924846 0.001386 0.001393 -984870.000000 1 0 0
18.544524 1.948571 -6.822201 19.855446 0.104691 1.921537 0.081862 -0.004901 199646.000000 1 0 0
14.121124 4.510671 -7.301201 16.524522 0.309183 2.028445 0.016743 -0.002937 248182.000000 1 0 0
-10.546776 -3.903129 -13.739201 17.754845 0.354448 2.455659 0.028818 -0.005389 -251890.000000 1 0 0
7.712624 -14.476429 -10.204201 19.317797 -1.081277 2.127309 0.026081 -0.002472 71295.200000 1 0 0
1.770224 -16.000529 13.847299 21.234366 -1.460609 0.860422 -0.008538 -0.007579 297924.000000 1 0 0
-9.420676 -7.226129 1.919499 12.027075 0.654324 1.410513 0.010987 0.007887 190169.000000 1 0 0
-14.004776 2.984171 -9.671601 17.279435 -0.209943 2.164841 0.041813 -0.005014 358504.000000 1 0 0
-12.993176 -5.176929 -13.105701 19.167227 0.379156 2.323693 0.045727 -0.005798 138133.000000 1 0 0
-17.972176 -1.331329 -8.701501 20.012188 0.073942 2.020624 0.076606 -0.029715 390329.000000 1 0 0
-12.246176 15.099771 4.252999 19.901254 -0.889374 1.355430 0.064480 -0.020682 484059.000000 1 0 0
-17.274576 6.265571 9.062199 20.488821 -0.347948 1.112635 0.022704 -0.019935 326779.000000 1 0 0
-13.658176 15.487771 -0.521201 20.656439 -0.848089 1.596031 0.076906 -0.021804 272843.000000 1 0 0
-15.958976 5.249371 -10.673901 19.904194 -0.317781 2.136801 0.048147 -0.007645 -135438.000000 1 0 0
-18.043976 2.631671 -0.133701 18.235367 -0.144826 1.578128 0.060594 -0.015083 -106755.000000 1 0 0
-9.953876 15.380071 -0.175601 18.320946 -0.996397 1.580381 0.038191 -0.014621 93995.300000 1 0 0
-18.983276 11.343371 1.966999 22.201484 -0.538613 1.482082 0.163481 -0.045145 89950.700000 1 0 0
-8.561576 16.481771 -7.593801 20.065273 -1.091704 1.958923 0.059817 -0.029960 35764.000000 1 0 0
-15.042576 -1.948429 -13.026201 19.993933 0.128810 2.280366 0.049116 -0.017037 197590.000000 1 0 0
-19.327676 4.683771 -4.957901 20.495793 -0.237752 1.815118 0.117356 -0.017655 127100.000000 1 0 0
-16.789776 9.759671 -5.545501 20.196542 -0.526546 1.848946 0.056123 0.006569 8158.910000 1 0 0
-19.099976 1.266871 2.452299 19.298389 -0.066231 1.443379 0.081471 -0.028061 162972.000000 1 0 0
-14.289476 12.820271 -7.338801 20.552529 -0.731256 1.935931 0.050401 0.006396 41356.900000 1 0 0
-12.897276 4.636471 -13.602601 19.309773 -0.345106 2.352432 0.055292 -0.022855 -68274.500000 1 0 0
-14.137776 9.501871 -6.423101 18.204903 -0.591748 1.931382 0.031349 -0.008335 267332.000000 1 0 0
-6.589576 11.520671 -15.289601 20.246488 -1.051236 2.426714 0.024553 -0.030668 -345142.000000 1 0 0
-14.990676 13.756771 3.131299 20.585775 -0.742502 1.418094 0.064158 -0.023149 97727.300000 1 0 0
-18.705976 8.102271 -4.930401 20.973058 -0.408743 1.808100 0.085560 -0.017844 267551.000000 1 0 0
-4.829276 16.213471 -11.129901 20.250265 -1.281308 2.152703 0.005684 -0.003950 116684.000000 1 0 0
-19.579976 -1.973029 -6.662401 20.776330 0.100429 1.897236 0.060194 -0.023758 -296002.000000 1 0 0
-10.483376 13.922971 -6.182301 18.492461 -0.925406 1.911674 0.026670 -0.024838 -78410.700000 1 0 0
-19.319176 3.322971 4.113799 20.029878 -0.170337 1.363941 0.077205 -0.019325 4891.780000 1 0 0
-15.087776 12.560071 0.825499 19.648863 -0.694227 1.528771 0.042182 -0.010955 81746.600000 1 0 0
-17.505176 2.550071 -8.039001 19.430892 -0.144658 1.997336 0.052354 -0.018910 213205.000000 1 0 0
-16.277776 13.863271 -4.383001 21.825832 -0.705462 1.772988 0.048580 0.013790 93746.600000 1 0 0
-10.618176 15.886371 -8.468101 20.900506 -0.981607 1.987953 0.046562 -0.024702 42771.600000 1 0 0
-19.469976 1.375871 -6.749301 20.652507 -0.070549 1.903715 0.098709 -0.029066 248012.000000 1 0 0
-17.324376 10.505371 -0.770901 20.275382 -0.545107 1.608827 0.064156 -0.011355 90159.000000 1 0 0
-11.592676 7.038571 -14.542501 19.885068 -0.545665 2.391063 0.039378 -0.017682 274008.000000 1 0 0
-13.261176 12.525771 -5.025601 18.921162 -0.756887 1.839630 0.048960 -0.020858 373572.000000 1 0 0
-18.908076 7.287771 -0.303401 20.266203 -0.367885 1.585768 0.080730 -0.017921 10420.800000 1 0 0
-14.681576 8.887471 -9.988001 19.856887 -0.544343 2.097862 0.040342 -0.013209 495842.000000 1 0 0
-18.728776 11.272771 4.804799 22.381432 -0.541812 1.354434 0.101534 -0.039771 18241.600000 1 0 0
-8.191376 11.455371 -13.571001 19.557511 -0.950029 2.337691 0.012067 -0.028104 288978.000000 1 0 0
-21.421576 -1.443129 -5.056901 22.057624 0.067266 1.802112 0.099708 -0.039018 420077.000000 1 0 0
-10.667276 13.362571 -3.172101 17.389977 -0.897096 1.754233 0.029205 -0.010040 427768.000000 1 0 0
-18.671876 -4.957329 3.770199 19.683202 0.259510 1.378061 0.050966 -0.011847 -59459.700000 1 0 0
-11.162276 11.353371 -13.526201 20.891471 -0.793885 2.275031 0.044115 -0.007078 126341.000000 1 0 0
-14.955076 11.205171 -9.923701 21.158686 -0.643024 2.058969 0.061828 -0.025728 317740.000000 1 0 0
-12.885076 9.879871 -13.620001 21.192958 -0.654147 2.268770 0.075689 -0.024382 80240.500000 1 0 0
-18.407876 -5.026029 -2.923201 19.304299 0.266540 1.722809 0.028872 -0.011136 -330075.000000 1 0 0
-9.367476 12.691371 -11.561701 19.557439 -0.934956 2.203301 0.036477 -0.010994 44690.700000 1 0 0
-15.757176 7.550671 -8.392101 19.383719 -0.446861 2.018555 0.034361 -0.000057 -231738.000000 1 0 0
-14.895776 8.736571 2.010099 17.385405 -0.530444 1.454917 0.038873 -0.010838 -17585.300000 1 0 0
-19.678476 5.956771 8.016599 22.067881 -0.293937 1.199021 0.061837 -0.020050 249305.000000 1 0 0
-18.957976 5.845371 3.756299 20.191161 -0.299084 1.383669 0.044567 -0.010715 136850.000000 1 0 0
-14.979376 12.468671 5.916199 20.367888 -0.694181 1.276081 0.074490 -0.021534 151179.000000 1 0 0
18.043824 5.909271 5.645299 19.808293 0.316487 1.281793 0.034105 -0.015911 846.642000 1 0 0
18.571124 8.298671 0.161399 20.341599 0.420239 1.562862 0.046240 0.011751 62596.000000 1 0 0
15.826024 5.241371 9.157899 19.021097 0.319817 1.068476 0.039551 0.002565 -98616.200000 1 0 0
12.191524 13.063271 10.416499 20.682983 0.819903 1.043005 0.060132 -0.023523 114180.000000 1 0 0
15.550724 12.421671 4.153399 20.331593 0.673999 1.365065 0.052696 -0.002631 150172.000000 1 0 0
5.302224 10.631571 14.385499 18.657076 1.108170 0.690311 0.037223 -0.011166 232749.000000 1 0 0
12.270024 14.329671 -5.319901 19.600875 0.862675 1.845655 0.056155 0.011963 351441.000000 1 0 0
17.642824 9.022071 -3.142601 20.063473 0.472705 1.728077 0.027448 -0.010035 -115711.000000 1 0 0
14.578324 7.715071 9.516799 19.042566 0.486746 1.047469 0.049152 -0.011193 173197.000000 1 0 0
4.778924 19.169271 -1.638801 19.823843 1.326475 1.653559 0.024422 -0.018250 402741.000000 1 0 0
-4.779176 19.407271 3.585899 20.306190 -1.329344 1.393274 0.033743 -0.007204 389441.000000 1 0 0
7.992724 13.208171 12.427299 19.818607 1.026610 0.893033 0.073754 -0.006511 -150152.000000 1 0 0
-0.070676 17.080771 -10.004701 19.795246 -1.566659 2.100653 0.021066 -0.004557 120070.000000 1 0 0
10.736324 9.608871 15.392799 21.084054 0.730039 0.752374 0.055342 -0.026731 337557.000000 1 0 0
-1.286276 12.472871 0.769099 12.562585 -1.468034 1.509537 -0.004545 -0.000765 452928.000000 1 0 0
-4.503176 19.231171 -2.553501 19.915745 -1.340780 1.699365 0.029119 -0.003286 54252.700000 1 0 0
5.764524 18.774671 6.067699 20.555656 1.272896 1.271148 0.030389 -0.008825 176246.000000 1 0 0
11.332124 17.404871 -1.210501 20.804132 0.993656 1.629015 0.062484 -0.010536 468818.000000 1 0 0
18.754724 10.349571 2.880399 21.613653 0.504253 1.437131 0.053585 -0.004027 237249.000000 1 0 0
11.730924 16.833071 6.508799 21.525133 0.962156 1.263606 0.058233 -0.002308 -104684.000000 1 0 0
17.896824 8.067571 -6.562801 20.699091 0.423504 1.893422 0.036037 0.020025 270510.000000 1 0 0
0.736324 15.271771 10.717199 18.671570 1.522619 0.959432 0.003598 -0.020631 327136.000000 1 0 0
1.161024 20.410371 -1.912401 20.532620 1.513974 1.664071 0.024050 -0.009336 389568.000000 1 0 0
14.001524 9.650971 -1.423801 17.064910 0.603495 1.654328 0.027121 -0.008014 -344492.000000 1 0 0
10.172624 16.908971 1.894899 19.823880 1.029193 1.475063 0.049423 -0.028334 259652.000000 1 0 0
0.384424 17.627371 -0.411501 17.636364 1.548991 1.594131 0.011390 -0.012231 71190.400000 1 0 0
0.074924 20.933171 1.109099 20.962666 1.567217 1.517863 0.027440 -0.017148 253861.000000 1 0 0
6.547124 18.284371 0.334399 19.424080 1.226948 1.553580 0.018472 -0.006317 34869.700000 1 0 0
6.907424 17.938071 -1.776901 19.303997 1.203226 1.662975 0.029026 -0.020592 2230.420000 1 0 0
10.573924 9.569571 12.896999 19.228030 0.735579 0.835591 0.047973 -0.007444 129306.000000 1 0 0
12.884324 14.720571 8.166299 21.198808 0.851819 1.175345 0.062626 -0.018377 248815.000000 1 0 0
0.369924 17.705771 6.965099 19.030076 1.549906 1.196084 0.009243 -0.002770 227677.000000 1 0 0
7.029924 17.870371 -7.979901 20.795404 1.196006 1.964633 0.047560 -0.016735 66630.900000 1 0 0
-0.809776 18.498871 9.395799 20.764032 -1.527050 1.101226 0.026745 -0.011188 8574.580000 1 0 0
16.059124 6.727871 -7.994901 19.159284 0.396730 2.001253 0.054131 0.000033 -234399.000000 1 0 0
-4.982276 19.973071 -6.534601 21.597399 -1.326336 1.878178 0.003570 -0.009457 324441.000000 1 0 0
4.201024 15.720171 10.021799 19.110438 1.309661 1.018768 0.024596 -0.003705 94153.900000 1 0 0
9.058224 14.898071 7.546299 18.998699 1.024506 1.162332 0.033112 -0.007249 188316.000000 1 0 0
-2.534976 19.318171 6.466399 20.528813 -1.440319 1.250349 0.028327 -0.012497 88310.900000 1 0 0
4.749924 17.967771 8.451099 20.416260 1.312351 1.144019 0.025743 -0.005389 41972.400000 1 0 0
15.081924 12.338071 -6.228601 20.456977 0.685663 1.880182 0.091626 -0.011848 128306.000000 1 0 0
11.997024 6.771171 15.445799 20.696620 0.513835 0.728317 0.077858 -0.026633 329800.000000 1 0 0
17.658624 9.340071 4.858699 20.558962 0.486518 1.332209 0.062799 -0.005858 95206.600000 1 0 0
5.473124 14.702671 12.797399 20.245914 1.214436 0.886539 0.031319 -0.018687 87427.200000 1 0 0
15.937924 10.838771 -3.674301 19.621337 0.597219 1.759169 0.061381 -0.019352 66183.200000 1 0 0
15.481424 13.781871 6.659599 21.770731 0.727385 1.259916 0.065090 0.002602 307275.000000 1 0 0
12.862924 13.426071 -8.339601 20.378007 0.806816 1.992423 0.161938 -0.056331 238086.000000 1 0 0
-8.403376 15.513571 9.552999 20.063584 -1.074364 1.074541 0.046886 -0.026240 150443.000000 1 0 0
-3.891576 17.379771 -7.900201 19.483685 -1.350516 1.988298 -0.006747 0.023007 136538.000000 1 0 0
2.776224 19.475471 -4.628301 20.209467 1.429200 1.801864 0.033128 -0.020821 132806.000000 1 0 0
7.083724 16.616771 8.878199 20.127560 1.167825 1.113976 0.033677 -0.007773 468181.000000 1 0 0
13.568624 15.389471 -1.574801 20.577254 0.848194 1.647402 0.092819 -0.021778 189921.000000 1 0 0
12.692124 16.674271 4.394299 21.411007 0.920178 1.364092 0.062837 -0.022842 334703.000000 1 0 0
2.559624 18.369771 0.563799 18.555809 1.432349 1.540408 0.017234 -0.026348 -58697.000000 1 0 0
-7.748876 16.971771 1.342399 18.705297 -1.142489 1.498969 0.045052 -0.015560 285139.000000 1 0 0
0.211224 19.846071 -5.817201 20.682142 1.560154 1.855910 0.036523 -0.006319 178992.000000 1 0 0
-7.316776 17.967771 -6.244901 20.380746 -1.184084 1.882218 0.045813 -0.029377 -17749.100000 1 0 0
-7.271676 18.357671 -0.810601 19.762045 -1.193647 1.611826 0.058494 -0.020152 128048.000000 1 0 0
-14.483176 -9.542929 8.833599 19.464386 0.582605 1.099733 0.052706 -0.011256 451842.000000 1 0 0
-13.356276 -13.633929 7.617199 20.549838 0.795685 1.191067 0.054950 -0.010946 55210.100000 1 0 0
-3.249376 -15.680429 13.030099 20.645042 1.366463 0.887763 0.023364 -0.005776 -29795.400000 1 0 0
-1.880576 -15.008229 15.306499 21.519117 1.446143 0.779454 0.022605 -0.004334 532282.000000 1 0 0
-6.989676 -14.204329 13.523799 20.820943 1.113504 0.863832 0.030496 -0.005252 25063.900000 1 0 0
-9.965576 -11.250729 11.831099 19.127637 0.845898 0.903920 0.055112 -0.012832 -103091.000000 1 0 0
-7.297176 -10.479929 13.003999 18.225852 0.962558 0.776327 0.037004 -0.013527 314775.000000 1 0 0
-15.043076 -12.113629 8.138899 20.958908 0.677942 1.171981 0.038859 0.007577 235546.000000 1 0 0
-4.695976 -12.863729 13.432099 19.181997 1.220772 0.795056 0.032669 -0.003839 450933.000000 1 0 0
3.154924 -12.172429 13.963799 18.791202 -1.317191 0.733101 -0.018871 -0.001106 432217.000000 1 0 0
6.248124 -13.641629 15.185799 21.348105 -1.141294 0.779391 0.014835 0.011964 320556.000000 1 0 0
7.154424 -8.988129 16.721099 20.287124 -0.898508 0.601969 0.041730 -0.013139 441836.000000 1 0 0
-5.225076 13.254871 13.462799 19.602040 -1.195300 0.813711 0.007318 -0.016782 264679.000000 1 0 0
-13.840676 -1.878429 17.364699 22.285098 0.134894 0.677397 0.071675 -0.018558 193808.000000 1 0 0
-10.376676 10.637271 13.779299 20.265636 -0.797799 0.823123 0.034493 0.019640 402866.000000 1 0 0
-7.382276 -8.259629 17.108999 20.382279 0.841429 0.574608 0.055275 -0.015149 184565.000000 1 0 0
-5.162276 3.146771 18.232499 19.208729 -0.547427 0.320183 0.028912 -0.001638 493171.000000 1 0 0
-16.155376 -3.449629 13.851899 21.558553 0.210369 0.873008 0.093327 -0.030403 136568.000000 1 0 0
-14.565476 3.448471 13.030099 19.845113 -0.232476 0.854508 0.029158 0.010623 280125.000000 1 0 0
-14.609876 10.601371 9.065099 20.199345 -0.627721 1.105395 0.017800 -0.013310 -254117.000000 1 0 0
-3.323776 11.278071 15.883999 19.762181 -1.284199 0.637212 -0.036816 -0.007475 137719.000000 1 0 0
-12.979376 13.271071 7.770399 20.123733 -0.796510 1.174363 0.048711 -0.030129 115134.000000 1 0 0
-4.300576 -6.358429 18.567299 20.091520 0.976114 0.392028 0.043523 -0.018100 162308.000000 1 0 0
1.185424 -3.016029 18.823999 19.100906 -1.196303 0.170483 0.023762 -0.002023 176929.000000 1 0 0
-4.640476 6.447371 21.081099 22.528101 -0.946940 0.360363 0.048727 -0.013137 111943.000000 1 0 0
2.097524 -10.375929 16.533899 19.632354 -1.371332 0.569490 -0.009411 -0.001750 291823.000000 1 0 0
-15.350776 -0.168929 13.603199 20.511506 0.011004 0.845712 0.047534 -0.012491 50992.700000 1 0 0
-14.113576 -6.012629 8.756999 17.664364 0.402732 1.052105 0.045899 -0.003381 293493.000000 1 0 0
10.039224 1.925671 16.098999 19.070186 0.189513 0.565730 0.047519 -0.013102 369042.000000 1 0 0
-7.673276 12.249871 11.545699 18.499775 -1.011193 0.896818 0.019655 -0.024425 74723.100000 1 0 0
-1.796276 7.366671 19.833399 21.233421 -1.331625 0.365164 0.051441 -0.030211 554082.000000 1 0 0
1.302024 -13.196429 15.511699 20.407200 -1.472450 0.707315 -0.017142 -0.012065 536442.000000 1 0 0
-3.256876 -11.341829 17.513099 21.117598 1.291164 0.592919 0.046524 -0.025095 413642.000000 1 0 0
-2.214676 8.593271 16.753999 18.959050 -1.318563 0.487100 0.014769 -0.018533 621075.000000 1 0 0
-5.185576 -9.325429 20.254299 22.893022 1.063306 0.484867 0.109531 -0.027810 204446.000000 1 0 0
-6.537576 -3.104829 19.122199 20.445986 0.443384 0.361819 0.037504 -0.020937 330182.000000 1 0 0
-10.864276 -7.908729 16.399299 21.201827 0.629244 0.686475 0.079417 -0.021571 95229.300000 1 0 0
-1.016376 6.049271 17.643199 18.679111 -1.404335 0.334600 0.031433 -0.024250 -161909.000000 1 0 0
-6.382076 -10.809529 18.798199 22.604183 1.037457 0.588769 0.103324 -0.025967 425097.000000 1 0 0
0.321124 3.680571 18.855499 19.214046 1.483768 0.193489 0.026232 -0.011634 168845.000000 1 0 0
-18.402476 -0.393829 7.645999 19.931571 0.021398 1.177091 0.058575 -0.019963 -78079.800000 1 0 0
-1.680376 -8.418529 17.553799 19.540500 1.373781 0.454845 0.025058 -0.012721 223020.000000 1 0 0
5.003924 3.132971 14.084999 15.272261 0.559392 0.396909 0.023704 -0.015407 -659309.000000 1 0 0
-14.281976 -7.213929 10.550999 19.166095 0.467725 0.987829 0.072792 -0.006524 117059.000000 1 0 0
3.727924 8.321571 16.733599 19.056739 1.149621 0.498933 0.035768 -0.016344 208682.000000 1 0 0
6.301424 4.458771 16.700699 18.398422 0.615796 0.432968 0.043301 -0.048748 215698.000000 1 0 0
5.191724 -9.770329 17.994399 21.123724 -1.082364 0.551275 0.005996 0.001232 368213.000000 1 0 0
-4.338176 -0.232329 19.839199 20.309298 0.053503 0.215577 0.036702 -0.014604 716467.000000 1 0 0
-11.048576 2.130771 16.950899 20.345618 -0.190516 0.586022 0.040246 -0.008533 81424.000000 1 0 0
-16.868876 -4.073029 8.782999 19.449668 0.236918 1.102266 0.066768 -0.024971 394335.000000 1 0 0
-13.110176 -8.955329 13.383899 20.765437 0.599281 0.870391 0.057945 -0.035680 222573.000000 1 0 0
-15.092176 6.249571 12.291299 20.442772 -0.392597 0.925727 0.058940 -0.035051 239675.000000 1 0 0
1.437024 9.351571 16.995899 19.451928 1.418322 0.507960 0.025955 -0.023574 140046.000000 1 0 0
-3.840376 -10.430229 14.894899 18.584837 1.218004 0.641073 0.029669 -0.011360 383645.000000 1 0 0
-18.946476 -3.135429 6.782199 20.366592 0.164002 1.231306 0.144947 -0.020719 -192319.000000 1 0 0
-0.523476 -0.554929 20.924399 20.938301 0.814556 0.036442 0.040396 -0.016795 496869.000000 1 0 0
-1.665376 2.398271 20.290599 20.499600 -0.963834 0.142918 0.040898 -0.019341 -132996.000000 1 0 0
-8.079176 1.719771 16.141399 18.132166 -0.209734 0.472995 0.010106 0.007403 492213.000000 1 0 0
3.695124 -2.892529 18.626599 19.208614 -0.664162 0.246795 0.039115 -0.009336 93121.900000 1 0 0
-12.422376 4.533271 14.107799 19.336389 -0.349911 0.753062 0.013269 -0.006957 149241.000000 1 0 0
-13.349676 -5.232929 13.259499 19.529764 0.373582 0.824481 0.040421 -0.019428 -10685.800000 1 0 0
-17.394976 -1.034129 9.644299 19.916503 0.059380 1.065306 0.066582 -0.025451 246726.000000 1 0 0
-7.611176 7.846671 14.798999 18.398658 -0.800632 0.636212 0.007857 -0.005930 154745.000000 1 0 0
-9.643976 0.523571 14.328099 17.279318 -0.054237 0.593112 0.023890 0.006146 208163.000000 1 0 0
7.762524 -0.786329 14.885299 16.806166 -0.100954 0.482787 0.023644 -0.009938 235059.000000 1 0 0
4.148924 6.552471 18.328499 19.901817 1.006333 0.400295 0.029611 -0.009543 86876.300000 1 0 0
2.136724 0.724571 19.744699 19.873191 0.326935 0.113777 0.025051 -0.018681 300711.000000 1 0 0
-7.136776 6.921871 17.220999 19.884886 -0.770113 0.523580 0.006884 -0.019053 542377.000000 1 0 0
7.510024 -2.985829 16.917299 18.748617 -0.378418 0.445669 0.013755 0.002510 335741.000000 1 0 0
-16.682576 2.346771 9.565699 19.373132 -0.139755 1.054387 0.045312 -0.011242 349287.000000 1 0 0
4.389424 -5.854129 18.972299 20.334355 -0.927423 0.368088 0.035678 -0.027715 182611.000000 1 0 0
-3.880576 -4.076529 20.339199 21.103554 0.810019 0.269963 0.045596 -0.026315 243173.000000 1 0 0
-9.843876 5.931571 14.385299 18.412557 -0.542303 0.674088 0.023297 -0.004941 -62169.700000 1 0 0
6.613624 3.055271 19.588499 20.899378 0.432760 0.356062 0.058400 -0.031801 127869.000000 1 0 0
-6.941176 11.245071 14.057499 19.293647 -1.017779 0.754509 0.011572 -0.030203 189910.000000 1 0 0
-14.438776 4.929671 8.797099 17.611611 -0.329010 1.047768 0.019623 -0.017530 64507.800000 1 0 0
0.626624 -5.693629 20.468199 21.254582 -1.461180 0.272869 0.030798 -0.019211 168808.000000 1 0 0
-6.049076 -8.287929 13.755399 17.160772 0.940306 0.640896 0.014425 -0.002933 360263.000000 1 0 0
-12.799876 9.929771 6.745599 17.548227 -0.659792 1.176235 0.017982 -0.026273 126816.000000 1 0 0
-19.437576 2.322271 7.595699 20.997784 -0.118910 1.200665 0.045925 -0.022873 107647.000000 1 0 0
-16.005676 9.034471 6.110499 19.368570 -0.513873 1.249828 0.041819 -0.020208 67719.800000 1 0 0
-13.213076 7.095871 14.098799 20.584287 -0.492834 0.816288 0.053627 -0.021425 220908.000000 1 0 0
-16.675676 8.818771 10.799899 21.736759 -0.486453 1.050832 0.045210 -0.016599 633607.000000 1 0 0
2.019524 11.050271 13.917999 17.885683 1.390033 0.679059 0.013164 -0.064161 338348.000000 1 0 0
1.421124 14.352071 13.502399 19.756425 1.472099 0.818327 0.025441 -0.028576 492342.000000 1 0 0
8.954524 5.427171 16.889999 19.872337 0.544879 0.554953 0.045403 -0.000704 117642.000000 1 0 0
-0.538476 13.435171 13.232799 18.865332 -1.530738 0.793388 0.004198 -0.004818 59400.100000 1 0 0
3.723424 12.659371 14.722699 19.770722 1.284739 0.730753 0.034562 -0.017430 -60071.700000 1 0 0
-3.665076 -4.631529 -13.390901 14.635575 0.901363 2.726194 0.001453 -0.009868 146033.000000 1 0 0
4.957124 -12.298329 16.941999 21.514026 -1.187644 0.664077 -0.024304 0.018271 144637.000000 1 0 0
8.625824 -13.500729 7.638699 17.748923 -1.002253 1.125888 0.013424 -0.008720 162460.000000 1 0 0
-0.386976 15.391971 0.488399 15.404579 -1.545660 1.539086 0.007104 -0.006291 -642784.000000 1 0 0
-14.395076 7.701571 8.346399 18.335615 -0.491265 1.098198 0.037301 -0.012765 42707.700000 1 0 0
-16.108976 -9.788329 4.444799 19.366639 0.546012 1.339224 0.037454 -0.002516 234580.000000 1 0 0
8.548024 -10.956429 11.415699 17.984166 -0.908256 0.883093 0.008897 -0.002235 -100697.000000 1 0 0
-26.394386 5.822571 30.969845 41.105927 -0.217121 0.717555 0.063721 -0.038101 518116.000000 0 0 1
-25.053986 5.445671 30.623125 39.939120 -0.214028 0.697041 0.050778 -0.036830 248482.000000 0 0 1
-24.150376 5.722071 31.631527 40.206172 -0.232645 0.665298 0.037717 -0.036202 -96279.400000 0 0 1
-22.773876 5.061371 31.353625 39.080900 -0.218690 0.639700 0.045888 -0.034432 103764.000000 0 0 1
-22.837476 3.681371 31.455255 39.045305 -0.159824 0.634093 0.018387 -0.032779 -47884.900000 0 0 1
-21.614876 3.275571 30.886125 37.840256 -0.150398 0.615952 0.032272 -0.035411 27109.000000 0 0 1
-21.110776 1.993671 31.605224 38.059556 -0.094159 0.590944 0.028519 -0.040125 -57273.900000 0 0 1
-21.743576 0.777071 31.202875 38.039537 -0.035723 0.608905 0.031335 -0.036757 161144.000000 0 0 1
-21.829076 -0.018129 32.317068 38.998741 0.000830 0.594070 0.031419 -0.031488 -376065.000000 0 0 1
-22.500276 -1.364129 32.124090 39.243858 0.060553 0.611868 0.042109 -0.035450 -728846.000000 0 0 1
-21.745576 -2.281529 31.403245 38.265379 0.104537 0.608214 0.065105 -0.046089 -181492.000000 0 0 1
-21.962276 -3.591729 31.803631 38.816402 0.162106 0.610546 0.066246 -0.046306 -455747.000000 0 0 1
-23.324276 -4.250029 31.425855 39.365835 0.180237 0.646325 0.051037 -0.034553 623261.000000 0 0 1
-24.460076 -3.905429 32.214577 40.636519 0.158329 0.655490 0.036064 -0.029500 444098.000000 0 0 1
-24.436376 -4.510329 33.472853 41.688265 0.182520 0.638598 0.033065 -0.023888 -964454.000000 0 0 1
-25.741996 -4.273529 -33.402051 42.386441 0.164513 2.478409 0.037186 -0.021532 -284221.000000 0 0 1
-25.836916 -4.730029 -32.077581 41.459505 0.181067 2.455471 0.038148 -0.014594 -331746.000000 0 0 1
-27.069036 -4.244529 -31.634781 41.851022 0.155537 2.427809 0.050846 -0.012882 -554772.000000 0 0 1
-27.329436 -4.630629 -30.159231 40.962422 0.167843 2.398332 0.038610 0.001072 -403731.000000 0 0 1
-27.544446 -6.022429 -29.920811 41.112298 0.215257 2.385879 0.032466 -0.002738 500166.000000 0 0 1
-27.016586 -6.486829 -28.666021 39.921368 0.235645 2.371810 0.022971 0.003338 -68242.600000 0 0 1
-27.172066 -8.054129 -28.571321 40.243142 0.288162 2.360248 0.025802 -0.003450 646789.000000 0 0 1
-28.522416 -8.536129 -28.502331 41.216217 0.290794 2.334404 0.041576 -0.005956 500527.000000 0 0 1
-28.666016 -9.857829 -27.979751 41.252681 0.331217 2.316179 0.056610 -0.005932 991277.000000 0 0 1
-30.179116 -10.250929 -27.742321 42.255141 0.327442 2.287023 0.123081 -0.010388 1249720.000000 0 0 1
-30.360856 -11.328529 -26.785051 42.042313 0.357130 2.261523 0.145532 -0.017790 -259929.000000 0 0 1
-31.646276 -11.374829 -26.211511 42.637035 0.345057 2.232877 0.144097 -0.018466 -111613.000000 0 0 1
-31.629976 -12.316729 -25.029901 42.174081 0.371336 2.206185 0.144901 -0.027931 28518.900000 0 0 1
-31.078966 -11.555229 -23.948201 40.901611 0.355964 2.196302 0.160297 -0.024911 388501.000000 0 0 1
-30.905426 -12.344729 -22.719701 40.295440 0.380020 2.169810 0.182929 -0.034070 -339155.000000 0 0 1
-30.350686 -11.463529 -21.601801 38.977101 0.361138 2.158219 0.198016 -0.037491 24488.800000 0 0 1
-30.148906 -12.077029 -20.336801 38.319663 0.381006 2.130240 0.214081 -0.038070 235277.000000 0 0 1
-28.965886 -12.865029 -20.230401 37.600540 0.417974 2.138900 0.219812 -0.043445 43931.700000 0 0 1
-28.829476 -13.297129 -18.766601 36.880043 0.432157 2.104651 0.182268 -0.044473 61768.100000 0 0 1
-28.297626 -12.199629 -18.028601 35.701779 0.407042 2.100152 0.154200 -0.040719 183027.000000 0 0 1
-28.151716 -12.552429 -16.653201 35.034435 0.419427 2.066145 0.159375 -0.044501 -6513.800000 0 0 1
-27.605576 -11.380029 -15.791301 33.777774 0.391010 2.057263 0.145589 -0.041048 120469.000000 0 0 1
-26.243056 -11.035229 -15.940801 32.627954 0.398054 2.081238 0.117467 -0.035283 206330.000000 0 0 1
-25.994536 -9.683229 -15.494601 31.773628 0.356586 2.080199 0.110470 -0.040275 -65777.600000 0 0 1
-24.552376 -9.149629 -15.616001 30.502366 0.356715 2.108262 0.113220 -0.039348 24756.900000 0 0 1
-23.603876 -9.729929 -14.757501 29.488952 0.390994 2.094905 0.118993 -0.043479 669751.000000 0 0 1
-22.391676 -8.952129 -14.785901 28.286934 0.380332 2.120825 0.117203 -0.055053 416560.000000 0 0 1
-21.294976 -9.349229 -13.807101 27.046628 0.413698 2.106554 0.094754 -0.038953 73669.500000 0 0 1
-20.546176 -10.529429 -14.224401 27.117297 0.473579 2.122984 0.104973 -0.031802 391419.000000 0 0 1
-19.505976 -10.849429 -13.341601 26.003683 0.507599 2.109549 0.119712 -0.030388 -195191.000000 0 0 1
-18.397176 -11.821329 -13.785801 25.850497 0.571129 2.133281 0.106768 -0.032783 242852.000000 0 0 1
-17.615676 -11.293229 -14.845901 25.656380 0.570086 2.187861 0.108053 -0.040571 614719.000000 0 0 1
-18.342076 -11.431929 -16.085101 26.941626 0.557349 2.210597 0.101468 -0.043130 -93543.500000 0 0 1
-17.953876 -10.430329 -17.221801 26.976357 0.526295 2.263219 0.116042 -0.045423 -388226.000000 0 0 1
-18.638876 -10.627029 -18.402401 28.266407 0.518185 2.279743 0.068370 -0.027364 48027.000000 0 0 1
-18.020576 -10.037929 -19.544001 28.416001 0.508221 2.329225 0.073140 -0.030308 -395907.000000 0 0 1
-18.688276 -10.366429 -20.877901 29.876433 0.506446 2.344527 0.073208 -0.026446 -416565.000000 0 0 1
-19.915276 -9.710329 -21.029201 30.547274 0.453664 2.330098 0.064764 -0.036091 -464825.000000 0 0 1
-20.880776 -10.651629 -21.430501 31.760516 0.471708 2.311426 0.059038 -0.018179 -202677.000000 0 0 1
-22.152676 -10.061829 -22.052201 32.837189 0.426344 2.307111 0.041643 -0.021168 -54482.100000 0 0 1
-21.768876 -9.127229 -23.049701 32.992105 0.397015 2.344295 0.045279 -0.027259 -480076.000000 0 0 1
-22.849876 -8.649729 -23.767801 34.085818 0.361876 2.342410 0.044887 -0.029774 -721385.000000 0 0 1
-22.539276 -7.632029 -24.855701 34.410357 0.326492 2.377965 0.037975 -0.033592 -257509.000000 0 0 1
-21.800376 -8.317829 -25.833201 34.810874 0.364497 2.406996 0.047040 -0.034250 153377.000000 0 0 1
-21.164076 -7.396729 -26.731101 34.888128 0.336224 2.443695 0.041596 -0.042433 -21654.600000 0 0 1
-19.921076 -7.990529 -27.436241 34.834539 0.381462 2.477727 0.067512 -0.046665 -186388.000000 0 0 1
-20.127476 -8.899529 -28.517341 36.021599 0.416314 2.484339 0.061994 -0.034348 499759.000000 0 0 1
-18.916276 -9.509929 -28.978701 35.889126 0.465836 2.510614 0.051265 -0.034075 336366.000000 0 0 1
-19.139576 -10.778029 -29.774941 37.000491 0.512866 2.505996 0.051949 -0.032420 -188137.000000 0 0 1
-19.733776 -10.531229 -31.032351 38.253568 0.490216 2.517045 0.051739 -0.025269 266860.000000 0 0 1
-19.777076 -11.755829 -31.689971 39.161033 0.536304 2.513623 0.042462 -0.019778 -16917.600000 0 0 1
-20.550576 -11.553729 -33.033851 40.583865 0.512169 2.521742 0.051394 -0.016566 -46288.000000 0 0 1
-19.996976 -10.635129 33.726165 40.625598 0.488792 0.591383 0.048657 -0.014482 -236357.000000 0 0 1
-20.417876 -10.764829 32.366676 39.753904 0.485190 0.619488 0.057569 -0.016271 -250921.000000 0 0 1
-20.064276 -12.013729 31.569804 39.288133 0.539509 0.637568 0.073002 -0.021386 452309.000000 0 0 1
-18.685276 -11.939829 31.184795 38.264742 0.568601 0.618111 0.069735 -0.018318 786447.000000 0 0 1
-18.281676 -12.636929 30.030185 37.359385 0.604819 0.637109 0.062479 -0.016550 103663.000000 0 0 1
-18.134476 -14.219629 30.136875 37.937953 0.664984 0.652822 0.068564 -0.018957 -313953.000000 0 0 1
-19.433976 -14.793729 30.196895 38.837949 0.650650 0.680100 0.076591 -0.020326 278860.000000 0 0 1
-19.457776 -16.147129 30.546535 39.653822 0.692682 0.691438 0.086833 -0.027501 -60053.900000 0 0 1
-19.626876 -16.349529 32.083410 41.010566 0.694552 0.672414 0.052846 -0.027589 -52920.100000 0 0 1
-18.476476 -15.989529 32.809775 40.908759 0.713366 0.640121 0.064496 -0.024412 21040.500000 0 0 1
-18.891676 -15.418729 -33.607221 41.522017 0.684520 2.513897 0.058073 -0.021721 57358.000000 0 0 1
-17.702276 -14.937029 -32.769571 40.128919 0.700879 2.526305 0.058648 -0.024920 -653706.000000 0 0 1
-17.090276 -13.803529 -33.282681 39.879215 0.679408 2.558179 0.053992 -0.024314 -441564.000000 0 0 1
-15.898676 -13.526529 -32.577091 38.691106 0.704956 2.571737 0.056659 -0.028649 -85621.700000 0 0 1
-15.982176 -12.951629 -31.163501 37.340841 0.681038 2.558146 0.074645 -0.031828 -509850.000000 0 0 1
-16.378076 -13.986329 -30.280591 37.158753 0.706792 2.523349 0.052047 -0.034781 -134951.000000 0 0 1
-16.636776 -13.625029 -28.947411 36.060731 0.686202 2.502673 0.046894 -0.034363 -241211.000000 0 0 1
-17.018776 -14.886029 -28.112571 36.076990 0.718650 2.464246 0.055273 -0.016017 -376434.000000 0 0 1
-16.017676 -15.695729 -27.589201 35.553985 0.775247 2.459065 0.077404 -0.031199 -469660.000000 0 0 1
-15.274576 -16.459429 -28.508431 36.289890 0.822718 2.474421 0.091857 -0.034340 -546800.000000 0 0 1
-13.912976 -16.996629 -28.055821 35.631241 0.884833 2.477366 0.141992 -0.034813 -397239.000000 0 0 1
-12.972276 -15.935629 -27.966671 34.703874 0.887551 2.507933 0.121321 -0.042553 -102008.000000 0 0 1
-11.762576 -16.468729 -27.473051 34.122511 0.950579 2.506691 0.152606 -0.050991 98444.100000 0 0 1
-10.429276 -15.799929 -27.857291 33.681392 0.987365 2.544694 0.138739 -0.057128 205086.000000 0 0 1
-10.263576 -14.488229 -27.407241 32.655882 0.954450 2.566743 0.120312 -0.049440 57056.900000 0 0 1
-8.923576 -14.085229 -27.667951 32.303860 1.006078 2.599228 0.157696 -0.051399 491251.000000 0 0 1
-8.758476 -12.586829 -27.552711 31.532381 0.962865 2.633740 0.117243 -0.059214 -115473.000000 0 0 1
-9.400876 -11.811029 -28.524401 32.272563 0.898536 2.654846 0.144720 -0.059892 110173.000000 0 0 1
-8.766376 -10.556829 -28.755011 31.861366 0.877793 2.696345 0.107276 -0.050408 451543.000000 0 0 1
-7.758876 -10.513829 -29.960821 32.686259 0.935040 2.730334 0.102676 -0.040286 -149549.000000 0 0 1
-6.496176 -11.142929 -29.748611 32.424451 1.042981 2.732481 0.097167 -0.041578 489730.000000 0 0 1
-5.509776 -10.858729 -30.697891 33.024690 1.101242 2.763970 0.101538 -0.034740 -252934.000000 0 0 1
-5.207376 -9.333029 -31.023441 32.812743 1.061869 2.809829 0.096774 -0.032594 -1405300.000000 0 0 1
-3.934676 -8.983529 -31.543251 33.032743 1.157977 2.840148 0.110663 -0.045970 282403.000000 0 0 1
-3.958476 -7.585929 -31.777541 32.909390 1.089847 2.878565 0.118903 -0.045969 924587.000000 0 0 1
-2.581976 -6.973129 -32.266681 33.112382 1.216175 2.915099 0.120143 -0.051900 816771.000000 0 0 1
-2.234476 -7.154429 -33.626901 34.452100 1.268075 2.922283 0.136084 -0.054973 40261.000000 0 0 1
-1.241576 -6.209229 33.624215 34.215258 1.373443 0.186141 0.154839 -0.050626 -174239.000000 0 0 1
-0.283076 -6.714229 32.568365 33.254464 1.528661 0.203485 0.143219 -0.040902 -486690.000000 0 0 1
-0.803276 -6.849429 31.279455 32.030677 1.454053 0.217004 0.143715 -0.039487 12222.000000 0 0 1
0.141624 -7.498429 30.447705 31.357762 -1.551911 0.241509 0.121380 -0.040832 -70790.100000 0 0 1
-0.048776 -7.160529 28.938565 29.811342 1.563985 0.242572 0.112318 -0.026771 130605.000000 0 0 1
0.358624 -5.814029 28.648545 29.234751 -1.509192 0.200594 0.109153 -0.036976 113572.000000 0 0 1
0.308024 -5.562729 27.252205 27.815850 -1.515480 0.201654 0.099100 -0.028321 302792.000000 0 0 1
-0.711176 -4.387129 26.947345 27.311391 1.410089 0.163457 0.088211 -0.013531 1015730.000000 0 0 1
-2.045276 -4.710529 27.299325 27.778146 1.161166 0.185941 0.056131 0.003155 -149947.000000 0 0 1
-2.998276 -3.983129 26.564125 27.027906 0.925542 0.185519 0.045807 -0.009783 -523153.000000 0 0 1
-4.454076 -4.234429 26.912355 27.605145 0.760123 0.224509 0.048444 -0.007768 -549216.000000 0 0 1
-4.814176 -5.502729 26.487895 27.478444 0.852040 0.269321 0.051901 -0.000671 484827.000000 0 0 1
-6.206876 -5.712529 26.793545 28.090076 0.743948 0.305010 0.047894 -0.007991 1256190.000000 0 0 1
-6.597376 -7.185829 26.522105 28.259221 0.828066 0.352452 0.065526 -0.007050 311163.000000 0 0 1
-5.986076 -7.920729 27.574065 29.306998 0.923627 0.345608 0.069342 -0.007472 -38254.100000 0 0 1
-6.272476 -9.301329 27.522095 29.720774 0.977484 0.387062 0.080644 -0.012696 116847.000000 0 0 1
-5.609676 -10.033529 28.700325 30.916805 1.060999 0.380960 0.075129 -0.017246 53268.300000 0 0 1
-5.690576 -11.419529 28.572665 31.291940 1.108494 0.419973 0.106133 -0.017568 165203.000000 0 0 1
-5.122976 -12.074529 29.711215 32.477614 1.169536 0.415731 0.112279 -0.023495 96319.300000 0 0 1
-5.263176 -13.663429 29.591115 33.015518 1.203112 0.459490 0.139923 -0.037214 201263.000000 0 0 1
-6.650876 -13.947429 29.524255 33.323364 1.125837 0.482166 0.147057 -0.036300 205377.000000 0 0 1
-6.814076 -15.377929 29.505835 33.963313 1.153689 0.518111 0.167199 -0.042903 182662.000000 0 0 1
-6.835176 -16.146729 30.857355 35.491025 1.170353 0.516726 0.165946 -0.037268 -867553.000000 0 0 1
-8.110976 -16.080929 31.376635 36.178411 1.103647 0.521094 0.169559 -0.041242 -887174.000000 0 0 1
-8.139376 -16.446029 32.733627 37.526146 1.111226 0.510933 0.185881 -0.040372 -768315.000000 0 0 1
-9.580576 -16.456229 33.227266 38.296816 1.043579 0.520391 0.193858 -0.033724 -178312.000000 0 0 1
-10.368776 -17.589629 32.953721 38.766665 1.038146 0.554710 0.181520 -0.031205 176996.000000 0 0 1
-10.945476 -17.534629 31.647164 37.799599 1.012758 0.578588 0.164709 -0.041687 -583683.000000 0 0 1
-11.650776 -18.835229 31.219485 38.277444 1.016839 0.617013 0.154154 -0.038250 -26790.000000 0 0 1
-12.712176 -19.198229 32.072639 39.481965 0.985925 0.622649 0.147842 -0.041147 -72588.200000 0 0 1
-13.030476 -20.558129 32.075452 40.264930 1.005868 0.649130 0.132718 -0.034975 -236958.000000 0 0 1
-12.210776 -21.489529 33.003028 41.232303 1.054072 0.642806 0.119465 -0.023142 -830204.000000 0 0 1
-10.943776 -21.746729 32.469636 40.582800 1.104562 0.643362 0.129271 -0.033284 -435696.000000 0 0 1
-10.048376 -22.312029 33.414164 41.416215 1.147646 0.632098 0.128304 -0.033268 197326.000000 0 0 1
-10.397076 -23.733129 -33.744911 42.545030 1.157897 2.486773 0.110370 -0.016137 -483815.000000 0 0 1
-10.239876 -24.681829 32.844668 42.341705 1.177533 0.682965 0.116594 -0.024744 -424755.000000 0 0 1
-10.657476 -25.963019 33.236357 43.500754 1.181282 0.701243 0.117675 -0.033622 -686861.000000 0 0 1
-10.174976 -27.044209 32.210267 43.271477 1.210943 0.731196 0.079611 -0.026007 53734.200000 0 0 1
-8.828976 -27.154529 31.817404 42.751216 1.256439 0.731392 0.109103 -0.030554 172190.000000 0 0 1
-7.920476 -27.558539 32.851821 43.605609 1.290934 0.717601 0.093263 -0.036095 759296.000000 0 0 1
-6.399176 -27.251839 32.605701 42.973758 1.340158 0.709427 0.107698 -0.034249 921539.000000 0 0 1
-6.047776 -25.933149 32.611840 42.102683 1.341685 0.684748 0.121801 -0.036583 183710.000000 0 0 1
-4.672276 -25.663849 32.336411 41.546441 1.390712 0.678811 0.192521 -0.020918 624645.000000 0 0 1
-4.380176 -24.210429 32.692188 40.915889 1.391811 0.645150 0.200609 -0.035082 -34915.600000 0 0 1
-4.261176 -24.093229 -33.558581 41.530948 1.395745 2.511610 0.183147 -0.038950 39537.700000 0 0 1
-3.691676 -22.839429 -33.225671 40.487198 1.410546 2.533338 0.156903 -0.028708 24981.600000 0 0 1
34.708048 -16.099829 1.664699 38.296531 -0.434324 1.527314 0.209911 -0.060107 -349331.000000 0 0 1
35.638128 -15.933029 2.674899 39.129179 -0.420421 1.502382 0.183201 -0.051222 -167193.000000 0 0 1
35.138048 -16.492629 3.929199 39.014457 -0.438842 1.469914 0.148925 -0.046550 -18731.200000 0 0 1
36.079798 -16.435529 5.122199 39.976435 -0.427445 1.442313 0.105350 -0.024929 -242200.000000 0 0 1
37.119998 -17.373429 5.206399 41.313882 -0.437750 1.444440 0.117185 -0.031457 -153594.000000 0 0 1
-37.669186 -17.303029 6.451199 41.952119 0.430595 1.416408 0.109942 -0.020007 222566.000000 0 0 1
-36.385726 -18.183729 6.526999 41.196732 0.463447 1.411691 0.128140 -0.024917 281931.000000 0 0 1
-36.546666 -19.578029 6.658199 41.991542 0.491798 1.411564 0.079784 -0.020423 33118.200000 0 0 1
-35.296230 -20.060329 7.104899 41.215534 0.516816 1.397547 0.057664 -0.008976 130056.000000 0 0 1
-35.191515 -21.597629 7.262799 41.924319 0.550444 1.396682 0.091831 -0.005860 -241789.000000 0 0 1
-34.673112 -22.209929 6.077099 41.622551 0.569705 1.424268 0.113341 -0.017181 298653.000000 0 0 1
-34.908342 -23.592029 6.106299 42.573032 0.594318 1.426869 0.119809 -0.017856 -187821.000000 0 0 1
-34.208432 -24.388429 5.017599 42.310620 0.619355 1.451927 0.127152 -0.020556 -230574.000000 0 0 1
-34.723729 -24.126529 3.706099 42.444810 0.607237 1.483369 0.123042 -0.021532 428801.000000 0 0 1
-34.142657 -25.036649 2.750399 42.427815 0.632724 1.505925 0.116264 -0.018475 179880.000000 0 0 1
-34.771270 -24.827629 1.378999 42.747561 0.620078 1.538532 0.106972 -0.016699 -761701.000000 0 0 1
-36.034476 -25.372399 1.155899 44.086031 0.613482 1.544574 0.095147 -0.014896 -426924.000000 0 0 1
-36.544906 -24.778029 -0.028901 44.152935 0.595819 1.571451 0.092158 -0.014011 -184914.000000 0 0 1
-37.505226 -23.564729 0.129999 44.293965 0.560973 1.567861 0.102576 -0.023881 -129169.000000 0 0 1
36.582678 -23.969429 0.370699 43.737436 -0.580031 1.562321 0.083332 -0.012874 -74850.100000 0 0 1
35.840818 -22.816229 0.742299 42.493477 -0.566897 1.553327 0.086820 -0.022510 848586.000000 0 0 1
34.310238 -23.172329 0.639999 41.407232 -0.594008 1.555339 0.089365 -0.015512 857501.000000 0 0 1
33.831428 -23.308129 -0.692601 41.089099 -0.603271 1.587653 0.102395 -0.023276 -46984.900000 0 0 1
32.421848 -23.156529 -0.693701 39.848241 -0.620210 1.588206 0.102599 -0.020252 215984.000000 0 0 1
31.953668 -23.143829 -2.154601 39.513492 -0.626845 1.625352 0.109416 -0.020306 -187811.000000 0 0 1
32.212418 -21.912729 -2.826201 39.061426 -0.597353 1.643212 0.150914 -0.025759 -4367.390000 0 0 1
31.644748 -21.720429 -4.096001 38.599797 -0.601529 1.677111 0.152528 -0.044247 -35132.900000 0 0 1
31.750518 -20.180429 -4.533301 37.893217 -0.566181 1.690717 0.163518 -0.047738 571789.000000 0 0 1
30.748988 -19.373629 -3.881301 36.549997 -0.562228 1.677188 0.189366 -0.046625 302594.000000 0 0 1
30.651208 -18.088929 -4.496601 35.873741 -0.533148 1.696472 0.184845 -0.046633 -56023.800000 0 0 1
29.601398 -17.254229 -3.722901 34.464637 -0.527740 1.679028 0.190248 -0.025156 -154636.000000 0 0 1
29.796298 -16.762529 -2.378201 34.270360 -0.512443 1.640247 0.171841 -0.027113 -280870.000000 0 0 1
30.239498 -17.669429 -1.385901 35.050773 -0.528807 1.610346 0.150495 -0.018688 -90594.300000 0 0 1
29.404598 -18.939729 -1.009301 34.990890 -0.572222 1.599645 0.143672 -0.025067 358950.000000 0 0 1
28.154098 -18.627929 -0.406901 33.761199 -0.584516 1.582849 0.130555 0.004659 124198.000000 0 0 1
27.566598 -19.803529 0.103699 33.942714 -0.622961 1.567741 0.110595 -0.001464 47382.400000 0 0 1
26.543398 -19.482829 1.232299 32.949221 -0.633182 1.533388 0.110848 0.000858 -280190.000000 0 0 1
25.957698 -20.647029 1.750699 33.213956 -0.671936 1.518062 0.093339 -0.000126 138730.000000 0 0 1
24.998698 -20.498929 2.793699 32.449126 -0.686818 1.484595 0.069875 0.011336 1437670.000000 0 0 1
23.524698 -20.122229 2.332399 31.044413 -0.707601 1.495594 0.043692 0.000567 512205.000000 0 0 1
23.333198 -18.767929 1.900199 30.004734 -0.677384 1.507424 0.098377 -0.020280 249297.000000 0 0 1
23.536698 -17.771929 2.945599 29.639402 -0.646740 1.471251 0.109314 -0.012599 -594513.000000 0 0 1
23.138298 -16.455729 2.269799 28.483747 -0.618197 1.491024 0.100967 0.001214 -964928.000000 0 0 1
21.804898 -16.416029 1.929099 27.361670 -0.645329 1.500234 0.076158 -0.003942 -1273090.000000 0 0 1
21.620298 -15.136929 1.372599 26.428166 -0.610810 1.518836 0.088574 -0.013371 -646785.000000 0 0 1
20.285898 -14.821029 0.737599 25.134132 -0.630974 1.541446 0.054249 -0.005906 -631961.000000 0 0 1
19.254298 -14.694229 1.699499 24.280376 -0.651874 1.500744 0.055340 -0.012072 602337.000000 0 1 0
18.337198 -13.578629 1.477899 22.865174 -0.637391 1.506116 0.069232 -0.015888 269117.000000 0 1 0
18.736098 -12.197829 1.980399 22.444384 -0.577101 1.482446 0.075985 -0.014812 -725352.000000 0 1 0
19.728398 -11.579929 1.208299 22.907737 -0.530782 1.518026 0.084655 -0.017047 219013.000000 0 1 0
20.091098 -10.328729 1.749699 22.658250 -0.474860 1.493498 0.098695 -0.018060 -357633.000000 0 1 0
20.994998 -9.493629 0.857399 23.057625 -0.424670 1.533603 0.107191 -0.019444 -32984.100000 0 1 0
20.299698 -9.007029 -0.301701 22.210253 -0.417605 1.584381 0.111962 -0.020226 1227610.000000 0 1 0
21.243198 -8.460529 -1.235901 22.899377 -0.379014 1.624794 0.108987 -0.011334 312349.000000 0 1 0
20.647198 -8.343429 -2.686101 22.430665 -0.384032 1.690836 0.121606 -0.015542 -184713.000000 0 1 0
21.435698 -7.575329 -3.580201 23.015052 -0.339699 1.726990 0.137799 -0.021213 724150.000000 0 1 0
22.513798 -8.263229 -4.217901 24.350416 -0.351765 1.744891 0.130148 -0.020131 -50493.400000 0 1 0
22.075098 -9.343629 -5.211901 24.531149 -0.400401 1.784889 0.110891 -0.021550 -426095.000000 0 1 0
21.605498 -8.862529 -6.434501 24.222815 -0.389267 1.839662 0.123689 -0.036473 1501990.000000 0 1 0
20.170198 -8.628929 -6.512901 22.884781 -0.404245 1.859381 0.117168 -0.020388 1287310.000000 0 1 0
19.572798 -8.590729 -7.971001 22.812977 -0.413595 1.927734 0.123512 -0.017062 -363051.000000 0 1 0
19.485498 -9.826729 -8.640001 23.471235 -0.467090 1.947772 0.114856 -0.019123 1201000.000000 0 1 0
20.703198 -10.364529 -9.218801 24.920517 -0.464147 1.949728 0.111506 -0.015205 694644.000000 0 1 0
20.532498 -11.790829 -9.789001 25.620922 -0.521272 1.962832 0.083441 -0.016951 119865.000000 0 0 1
19.606798 -11.897929 -10.870301 25.380124 -0.545424 2.013407 0.116408 -0.016081 230257.000000 0 0 1
19.679698 -13.248729 -11.387301 26.315204 -0.592525 2.018312 0.114256 -0.015151 -33107.500000 0 0 1
18.578698 -13.648629 -12.388801 26.171272 -0.633597 2.063914 0.125208 -0.019944 -72735.200000 0 0 1
18.433598 -15.060029 -12.345401 26.814379 -0.685014 2.049245 0.113679 -0.023721 229168.000000 0 0 1
17.723498 -15.413129 -13.514801 27.098649 -0.715788 2.092925 0.108301 -0.021706 -292487.000000 0 0 1
17.530098 -16.958629 -13.667901 27.959094 -0.768830 2.081571 0.077141 -0.030326 -948571.000000 0 0 1
16.635798 -17.479329 -12.745101 27.289454 -0.810119 2.056730 0.071426 -0.022469 -101736.000000 0 0 1
16.727098 -18.894029 -12.613801 28.211489 -0.846156 2.034335 0.063230 -0.021209 -909849.000000 0 0 1
15.705498 -19.647329 -11.754701 27.764243 -0.896439 2.007964 0.049424 -0.019670 919981.000000 0 0 1
14.445698 -19.723329 -12.506301 27.460799 -0.938644 2.043645 0.036535 -0.024520 477786.000000 0 0 1
13.446898 -20.148729 -11.640301 26.875397 -0.982299 2.018749 0.029429 -0.008911 -96856.700000 0 0 1
12.024198 -20.065729 -12.266201 26.413529 -1.030935 2.053743 0.039524 -0.019456 161275.000000 0 0 1
11.060298 -20.663529 -11.450601 26.085013 -1.079343 2.025251 0.055273 -0.024544 -624864.000000 0 0 1
9.803698 -20.745229 -12.090001 25.935403 -1.129328 2.055740 0.046676 -0.025117 209253.000000 0 0 1
8.717498 -21.365729 -11.181501 25.642057 -1.183401 2.022013 0.049342 -0.015353 -86158.700000 0 0 1
9.095198 -22.653629 -10.779901 26.685498 -1.189006 1.986639 0.064320 -0.019355 18770.900000 0 0 1
8.311398 -23.203329 -9.710001 26.490714 -1.226836 1.946088 0.067407 -0.023239 242941.000000 0 0 1
8.383698 -24.780329 -9.625101 27.874606 -1.244564 1.923355 0.075801 -0.017507 718813.000000 0 0 1
9.544798 -25.335389 -8.991701 28.527807 -1.210503 1.891454 0.063073 -0.007575 106006.000000 0 0 1
9.792998 -26.676539 -9.445601 29.945950 -1.218968 1.891697 0.062598 -0.007428 -845812.000000 0 0 1
11.200798 -27.022469 -9.058301 30.622288 -1.177853 1.871097 0.050158 0.004645 -863979.000000 0 0 1
11.350598 -27.159639 -7.602501 30.401975 -1.174936 1.823545 0.050434 -0.009798 121362.000000 0 0 1
12.726998 -27.388809 -7.330301 31.078234 -1.135803 1.808906 0.044835 0.001475 219492.000000 0 0 1
13.106298 -27.636499 -5.839601 31.139237 -1.127969 1.759445 0.044903 -0.011801 43697.200000 0 0 1
12.608698 -28.851579 -5.282701 31.926475 -1.158789 1.737025 0.042813 -0.012048 598426.000000 0 0 1
11.203398 -28.841699 -4.992701 31.341455 -1.200291 1.730778 0.055646 -0.019924 509844.000000 0 0 1
10.614198 -30.016169 -4.225601 32.116776 -1.230904 1.702749 0.064703 -0.028412 -82841.900000 0 0 1
10.664198 -31.322779 -4.810601 33.436260 -1.242644 1.715171 0.066353 -0.020674 45726.200000 0 0 1
9.981198 -31.560259 -6.060101 33.651138 -1.264491 1.751870 0.077810 -0.016626 206119.000000 0 0 1
10.119698 -33.050899 -6.434201 35.159197 -1.273675 1.754835 0.075949 -0.014718 315692.000000 0 0 1
9.444798 33.793018 -5.489001 35.514806 1.298261 1.725974 0.081023 -0.016256 378951.000000 0 0 1
9.939898 32.448484 -5.570801 34.390980 1.273544 1.733498 0.080909 -0.016964 201496.000000 0 0 1
9.400898 31.507608 -4.462801 33.181664 1.280836 1.705701 0.065604 -0.013673 310378.000000 0 0 1
8.006198 31.292238 -4.536001 32.617153 1.320317 1.710316 0.061444 -0.018744 -463241.000000 0 0 1
7.719098 30.209568 -3.643301 31.392294 1.320631 1.687116 0.049936 -0.014166 802457.000000 0 0 1
6.236798 29.659448 -3.650001 30.527087 1.363536 1.690649 0.050103 -0.018845 910574.000000 0 0 1
6.002698 28.828218 -4.829601 29.839966 1.365507 1.733361 0.068004 -0.027427 -71987.900000 0 0 1
5.645098 29.657568 -5.942501 30.769332 1.382704 1.765148 0.063674 -0.030702 -522275.000000 0 0 1
5.912298 29.066848 -7.364801 30.562677 1.370130 1.814165 0.069219 -0.036750 -9721.240000 0 0 1
5.186698 27.896458 -7.755101 29.415231 1.386969 1.837593 0.083794 -0.041696 -17480.800000 0 0 1
5.480698 26.715998 -7.082101 28.176919 1.368457 1.824865 0.073388 -0.039788 -357731.000000 0 0 1
4.572498 25.481648 -7.389901 26.922719 1.393243 1.848851 0.075640 -0.037575 -183676.000000 0 0 1
3.216498 25.547828 -7.042701 26.695262 1.445554 1.837775 0.075582 -0.038838 -60284.800000 0 0 1
2.326398 26.204998 -7.980001 27.491717 1.482252 1.865305 0.081604 -0.039736 400410.000000 0 0 1
1.900298 25.420248 -9.294001 27.132612 1.496180 1.920415 0.091961 -0.042514 101002.000000 0 0 1
2.925998 25.101518 -10.267101 27.277482 1.454753 1.956698 0.081379 -0.040415 225576.000000 0 0 1
2.498398 24.500708 -11.465701 27.165953 1.469175 2.006514 0.100833 -0.042421 -428112.000000 0 0 1
2.050798 23.051408 -11.336801 25.770065 1.482064 2.026307 0.105578 -0.037420 -715242.000000 0 0 1
0.910298 22.780778 -10.615901 25.149351 1.530859 2.006573 0.116691 -0.034296 -831501.000000 0 0 1
0.938598 21.397198 -10.294301 23.763285 1.526959 2.018839 0.076070 -0.030147 -139025.000000 0 1 0
-0.247002 20.907298 -9.447701 22.944175 -1.558983 1.995191 0.080892 -0.022628 -533210.000000 0 1 0
-1.513902 20.992998 -10.000201 23.302401 -1.498806 2.014347 0.082308 -0.026109 -919726.000000 0 1 0
-2.439502 20.278398 -9.214301 22.406873 -1.451071 1.994596 0.061196 -0.021279 -985735.000000 0 1 0
-3.737202 20.074198 -9.924401 22.703168 -1.386734 2.023210 0.045387 -0.029095 -1154580.000000 0 1 0
-4.690202 19.391498 -9.164601 21.954911 -1.333485 2.001410 0.035674 -0.032370 -407020.000000 0 1 0
-5.802402 19.038898 -9.955801 22.254561 -1.274973 2.034608 0.043954 -0.031750 -1061550.000000 0 1 0
-6.730902 18.045298 -9.252601 21.366994 -1.213780 2.018651 0.041207 -0.031898 -608183.000000 0 1 0
-7.744702 18.632398 -8.469501 21.883307 -1.176865 1.968205 0.064599 -0.027602 -209864.000000 0 1 0
-8.890902 18.892998 -9.268501 22.845101 -1.130950 1.988553 0.070879 -0.028719 -1717750.000000 0 1 0
-10.024802 19.177498 -8.363301 23.199524 -1.089124 1.939594 0.085079 -0.036090 -1388930.000000 0 1 0
-10.404502 18.046598 -7.685701 22.203679 -1.047809 1.924256 0.083865 -0.037045 -900308.000000 0 1 0
-11.449802 18.443598 -6.854901 22.765192 -1.015222 1.876656 0.104134 -0.032878 -294843.000000 0 1 0
-11.953702 17.144498 -6.069301 21.763759 -0.961930 1.853416 0.084896 -0.037051 317452.000000 0 1 0
-13.016602 17.347698 -5.137101 22.288211 -0.927080 1.803373 0.101331 -0.033647 260134.000000 0 1 0
-13.396002 16.087898 -4.668901 21.449288 -0.876446 1.790225 0.087902 -0.033256 -287257.000000 0 1 0
-14.602702 16.216098 -3.733301 22.139067 -0.837701 1.740235 0.082706 -0.040105 -1123500.000000 0 1 0
-15.831202 16.311298 -4.363701 23.145783 -0.800334 1.760463 0.121767 -0.056834 -1247150.000000 0 1 0
-16.670702 16.799998 -3.381401 23.907867 -0.789261 1.712707 0.134469 -0.047027 -485054.000000 0 1 0
-18.130802 17.040598 -3.834301 25.175580 -0.754411 1.723694 0.148592 -0.047674 -25162.200000 0 0 1
-18.342402 17.983198 -4.817701 26.135213 -0.775510 1.756194 0.133997 -0.045869 1362890.000000 0 0 1
-19.747402 18.248898 -5.121001 27.371643 -0.745980 1.758997 0.109537 -0.041661 1521290.000000 0 0 1
-19.913802 19.143398 -6.364501 28.346712 -0.765676 1.797250 0.115524 -0.027155 -22421.300000 0 0 1
-19.502102 20.493298 -6.133401 28.946949 -0.810176 1.784299 0.119423 -0.045361 50001.600000 0 0 1
-19.298902 21.097398 -7.306501 29.511570 -0.829890 1.820979 0.116042 -0.031801 -55793.800000 0 0 1
-19.000302 22.610398 -7.145701 30.385895 -0.871940 1.808185 0.133147 -0.032661 317447.000000 0 0 1
-17.712902 22.973538 -6.658701 29.763546 -0.913982 1.796426 0.118178 -0.037114 240246.000000 0 0 1
-17.670802 23.856578 -5.536701 30.200143 -0.933267 1.755173 0.131462 -0.043295 1525960.000000 0 0 1
-16.180002 24.314238 -5.150501 29.656404 -0.983634 1.745354 0.097993 -0.039713 1332060.000000 0 0 1
-16.121102 25.185608 -3.983101 30.167365 -1.001418 1.703216 0.091979 -0.043379 -389020.000000 0 0 1
-14.916102 25.841828 -3.712301 30.067779 -1.047304 1.694577 0.110488 -0.047002 -61223.800000 0 0 1
-14.476802 27.005438 -4.660401 30.993400 -1.078711 1.721736 0.119046 -0.037141 99059.600000 0 0 1
-15.327202 28.119928 -4.451001 32.333650 -1.071750 1.708893 0.128535 -0.036318 70880.400000 0 0 1
-14.981302 29.237698 -5.196601 33.260894 -1.097281 1.727677 0.098873 -0.036454 -181435.000000 0 0 1
-15.769902 30.524368 -4.799001 34.690882 -1.093931 1.709577 0.095259 -0.033385 1001800.000000 0 0 1
-17.157402 30.349268 -5.155301 35.242469 -1.056258 1.717604 0.134104 -0.028449 628911.000000 0 0 1
-17.952002 31.383898 -4.675801 36.456639 -1.051210 1.699407 0.133077 -0.028691 -424530.000000 0 0 1
12.884424 -9.093229 18.129615 24.028694 -0.614577 0.715907 0.152705 -0.033089 -214996.000000 0 1 0
13.761024 -10.016429 18.714215 25.296571 -0.629196 0.738034 0.162870 -0.039276 -181465.000000 0 0 1
14.222524 -10.980829 17.785915 25.282357 -0.657479 0.790498 0.186377 -0.038611 -339439.000000 0 0 1
14.822324 -12.146229 18.542815 26.665862 -0.686492 0.801853 0.229478 -0.063825 113026.000000 0 0 1
16.155124 -11.904329 19.039915 27.662601 -0.635049 0.811666 0.211895 -0.057236 979086.000000 0 0 1
16.564624 -12.989129 19.852615 28.934937 -0.665001 0.814665 0.194788 -0.052988 2604.070000 0 0 1
17.106124 -14.284729 19.115215 29.360934 -0.695759 0.861839 0.185424 -0.054280 -241356.000000 0 0 1
16.136624 -14.751229 18.175015 28.430979 -0.740576 0.877250 0.205647 -0.063645 329835.000000 0 0 1
16.602124 -15.810129 17.420215 28.793308 -0.760968 0.921019 0.209052 -0.061836 -733047.000000 0 0 1
15.910824 -15.947229 16.095515 27.686351 -0.786541 0.950407 0.197824 -0.063135 422635.000000 0 0 1
14.508624 -16.189729 16.296715 27.169660 -0.840106 0.927529 0.251441 -0.062628 956257.000000 0 0 1
13.721324 -16.003229 15.111015 25.936863 -0.862016 0.948863 0.267064 -0.062894 287615.000000 0 0 1
13.196124 -17.360429 14.504115 26.189531 -0.920846 0.983859 0.193513 -0.038567 648211.000000 0 0 1
14.246224 -18.200829 13.971015 27.007672 -0.906679 1.027106 0.194250 -0.039269 937734.000000 0 0 1
13.636024 -19.364129 13.514715 27.268263 -0.957264 1.052247 0.157121 -0.034585 190517.000000 0 0 1
14.697024 -20.277129 12.838015 28.142124 -0.943614 1.097093 0.154910 -0.025845 89435.500000 0 0 1
15.638424 -20.788429 13.767215 29.432216 -0.925847 1.084042 0.130829 -0.023264 83513.000000 0 0 1
15.957724 -22.115729 13.350415 30.364256 -0.945750 1.115559 0.082985 -0.023918 135217.000000 0 0 1
16.944824 -22.711629 14.383415 31.777788 -0.929805 1.101090 0.081064 -0.028381 -541206.000000 0 0 1
18.277424 -22.372129 14.386215 32.272892 -0.885791 1.108765 0.060892 -0.028055 -653014.000000 0 0 1
19.022924 -22.898129 15.477615 33.552236 -0.877577 1.091338 0.071687 -0.035725 841233.000000 0 0 1
20.426724 -22.235429 15.753215 34.056265 -0.827769 1.089911 0.043609 -0.031261 262066.000000 0 0 1
21.342624 -22.722929 14.839715 34.526168 -0.816712 1.126513 0.037323 -0.032199 -1604970.000000 0 0 1
22.543524 -22.050229 14.993215 34.917325 -0.774337 1.126977 0.043837 -0.024031 -613585.000000 0 0 1
23.685324 -22.774229 14.240415 35.811304 -0.765790 1.161841 0.042756 -0.026642 -152684.000000 0 0 1
24.069724 -23.920529 14.908515 37.064905 -0.782289 1.156848 0.041486 -0.022431 -801460.000000 0 0 1
25.128524 -24.463929 14.217515 37.842625 -0.771998 1.185643 0.064539 -0.024723 -669197.000000 0 0 1
25.496424 -25.793089 14.931915 39.221336 -0.791182 1.180233 0.077601 -0.020828 -277905.000000 0 0 1
26.129324 -25.664289 16.167715 40.034889 -0.776420 1.155085 0.088503 -0.015510 116948.000000 0 0 1
26.517524 -26.887519 16.744015 41.309561 -0.792326 1.153456 0.103856 -0.008626 274524.000000 0 0 1
27.193124 -26.832429 18.132715 42.287594 -0.778722 1.127638 0.093106 0.000892 1020430.000000 0 0 1
26.156224 -26.605559 19.104415 41.916375 -0.793914 1.097554 0.100879 0.002834 721273.000000 0 0 1
26.740724 -26.120229 20.276715 42.526202 -0.773660 1.073780 0.101141 0.001744 289039.000000 0 0 1
25.640924 -25.840009 21.324215 42.188686 -0.789265 1.040894 0.086524 -0.008729 398049.000000 0 0 1
24.812324 -26.960769 21.549915 42.508039 -0.826872 1.039141 0.089765 -0.010681 -284789.000000 0 0 1
23.888424 -26.807329 22.593395 42.423475 -0.842912 1.009164 0.087989 -0.005827 -234328.000000 0 0 1
23.249124 -28.156299 22.901175 43.101772 -0.880570 1.010629 0.109734 -0.011227 -323146.000000 0 0 1
24.132724 -29.193039 23.301925 44.470233 -0.880009 1.019268 0.100054 -0.014351 -29062.700000 0 0 1
23.968924 -30.405969 22.602945 44.832192 -0.903232 1.042378 0.107229 -0.018037 -456400.000000 0 0 1
24.800124 -31.608759 23.032955 46.310656 -0.905519 1.050246 0.086291 -0.001805 -474484.000000 0 0 1
24.618924 -31.950589 24.381325 47.131524 -0.914284 1.027099 0.081942 -0.006119 672519.000000 0 0 1
25.806324 -31.973759 25.191955 48.196704 -0.891735 1.020793 0.090758 -0.012705 295539.000000 0 0 1
25.381824 -32.146079 26.691395 48.888015 -0.902443 0.993250 0.080304 -0.025274 296472.000000 0 0 1
24.846724 -33.361059 27.196275 49.698666 -0.930643 0.991753 0.078499 -0.020432 1245620.000000 0 0 1
23.530924 -33.695569 26.677175 48.997627 -0.961186 0.995053 0.078568 -0.016195 695737.000000 0 0 1
22.896324 32.875770 27.436875 48.557595 0.962457 0.970317 0.111390 -0.027261 -200494.000000 0 0 1
22.583324 33.108406 28.802065 49.353136 0.972183 0.947652 0.095684 -0.020291 291182.000000 0 0 1
21.821824 32.059403 29.358275 48.640577 0.973163 0.922818 0.096487 -0.031581 -55772.000000 0 0 1
21.557924 32.327333 30.826615 49.599202 0.982657 0.900122 0.075646 -0.033324 -540894.000000 0 0 1
22.770024 32.303561 31.519875 50.551920 0.956805 0.897566 0.067416 -0.010173 -360254.000000 0 0 1
22.759624 32.632641 32.917867 51.637930 0.961784 0.879580 0.053259 -0.007970 918039.000000 0 0 1
24.091624 32.174760 33.660525 52.427593 0.928080 0.873642 0.025247 0.005131 1036820.000000 0 0 1
24.069024 30.715318 33.704165 51.562772 0.906126 0.858395 0.040616 0.005306 115802.000000 0 0 1
25.031224 30.232358 -33.028161 51.297340 0.879237 2.270325 0.038033 0.020789 -170066.000000 0 0 1
25.124824 28.696428 -33.046371 50.465874 0.851661 2.284749 0.060164 -0.006424 -51407.300000 0 0 1
25.514924 28.163168 33.352441 50.562444 0.834694 0.850472 0.078442 -0.009598 270882.000000 0 0 1
24.933624 26.885248 33.211998 49.472609 0.823043 0.834807 0.093975 -0.022048 -124093.000000 0 0 1
25.509424 26.000378 32.092862 48.545877 0.794929 0.848535 0.147824 -0.033867 819346.000000 0 0 1
26.897424 25.670658 32.295392 49.248822 0.762066 0.855608 0.130464 -0.037925 1137470.000000 0 0 1
27.411424 24.979068 31.147575 48.430481 0.739004 0.872205 0.176788 -0.050458 703278.000000 0 0 1
28.876424 24.483268 31.434155 49.207565 0.703252 0.877849 0.134823 -0.038717 475059.000000 0 0 1
28.904824 23.459408 32.416415 49.362503 0.681779 0.854360 0.152674 -0.042441 -226011.000000 0 0 1
29.750724 23.648568 33.480349 50.648733 0.671618 0.848605 0.144319 -0.048683 -1092990.000000 0 0 1
29.228524 22.901918 -32.882821 49.599238 0.664628 2.295576 0.144900 -0.052972 -119013.000000 0 0 1
28.115424 23.506248 -32.215741 48.794208 0.696347 2.291931 0.155507 -0.061545 1198240.000000 0 0 1
26.812224 23.236918 -32.749801 48.284565 0.714083 2.316197 0.146013 -0.046047 435098.000000 0 0 1
26.329724 21.746398 -32.816091 47.360913 0.690351 2.336291 0.135785 -0.046660 -772362.000000 0 0 1
25.943324 21.148998 -31.566281 46.008329 0.683941 2.326910 0.116633 -0.065816 292179.000000 0 0 1
25.677624 19.787198 -31.698181 45.339258 0.656556 2.344981 0.144858 -0.064992 -430699.000000 0 0 1
25.526124 19.151398 -30.326341 44.023244 0.643672 2.330727 0.154107 -0.063678 -34843.700000 0 0 1
24.277524 19.437498 -29.719911 43.017295 0.675130 2.333506 0.126222 -0.052235 373602.000000 0 0 1
24.037624 18.683298 -28.543771 41.732720 0.660716 2.323982 0.124599 -0.046340 1010550.000000 0 0 1
22.790524 19.164798 -27.659311 40.641542 0.699194 2.319333 0.102227 -0.036403 1048850.000000 0 0 1
22.617024 18.534198 -26.411331 39.403105 0.686507 2.305390 0.102200 -0.026921 -31362.800000 0 0 1
23.530224 19.094498 -25.507421 39.609340 0.681707 2.270479 0.091318 -0.015472 -91183.000000 0 0 1
23.860124 18.201998 -24.293301 38.610656 0.651683 2.251302 0.116866 -0.010521 -82591.700000 0 0 1
24.689524 17.140398 -24.703801 38.905573 0.606848 2.258764 0.153307 -0.028231 56815.500000 0 0 1
24.707224 16.156698 -23.656301 37.829967 0.579130 2.246354 0.161990 -0.023874 -42623.400000 0 0 1
25.833824 15.079298 -23.786701 38.217520 0.528351 2.242606 0.186648 -0.017500 -689423.000000 0 0 1
27.033924 15.595898 -23.358801 38.983313 0.523262 2.213298 0.174710 -0.026216 -882839.000000 0 0 1
28.017024 14.654998 -22.919001 39.051290 0.481937 2.198015 0.170633 -0.032887 216618.000000 0 0 1
27.896724 13.825998 -21.586801 37.886349 0.460132 2.177032 0.160586 -0.021268 -427413.000000 0 0 1
26.746624 13.009898 -21.646501 36.786008 0.452719 2.199929 0.177592 -0.017679 -153138.000000 0 0 1
26.366824 12.530698 -20.396301 35.612314 0.443648 2.180631 0.132810 -0.023517 -139096.000000 0 0 1
24.905924 12.044498 -20.364701 34.352526 0.450442 2.205346 0.150131 -0.024932 143830.000000 0 0 1
23.967824 13.111898 -20.378901 34.083399 0.500585 2.211691 0.162414 -0.024219 -330352.000000 0 0 1
22.679924 12.689698 -20.730801 33.244150 0.510117 2.244126 0.155888 -0.024747 -279113.000000 0 0 1
21.628324 13.787198 -20.634101 32.918648 0.567509 2.248263 0.147420 -0.025766 -516624.000000 0 0 1
21.799424 14.811198 -21.627401 34.092975 0.596787 2.257984 0.133304 -0.015298 277108.000000 0 0 1
21.095524 16.054098 -21.438801 34.093656 0.650516 2.250832 0.084623 -0.016070 89417.300000 0 0 1
19.744824 16.166298 -22.166001 33.801463 0.686077 2.285999 0.078106 -0.008409 394678.000000 0 0 1
18.703424 15.325098 -21.661601 32.463852 0.686443 2.301311 0.055880 -0.012327 1026870.000000 0 0 1
17.560924 15.241398 -22.537401 32.382414 0.714803 2.340575 0.052646 -0.014384 717647.000000 0 0 1
16.608624 14.139698 -22.032101 31.003080 0.705275 2.361207 0.040953 -0.010499 945357.000000 0 0 1
15.286624 14.193798 -22.591201 30.749100 0.748346 2.396013 0.055990 -0.016863 485455.000000 0 0 1
14.304924 13.432698 -21.925801 29.424632 0.753963 2.411558 0.075384 -0.026752 -385846.000000 0 0 1
13.043624 13.421198 -22.778101 29.480614 0.799664 2.453796 0.074843 -0.029399 -730227.000000 0 0 1
12.513924 14.729998 -22.835301 29.916920 0.866561 2.439187 0.093537 -0.024768 45837.900000 0 0 1
11.902524 15.000798 -24.096901 30.779127 0.900056 2.470106 0.081839 -0.025734 -385120.000000 0 0 1
11.605624 16.536598 -24.237901 31.553533 0.958854 2.446746 0.085861 -0.028981 835730.000000 0 0 1
12.696724 17.509998 -24.269901 32.508998 0.943414 2.413672 0.074639 -0.012934 902559.000000 0 0 1
13.797324 17.334298 -25.161841 33.525547 0.898527 2.419656 0.076912 -0.016838 -37119.700000 0 0 1
13.606424 17.158198 -26.675951 34.512967 0.900339 2.454235 0.111750 -0.017490 -216228.000000 0 0 1
14.767724 17.115898 -27.507991 35.605185 0.858914 2.453697 0.082488 -0.021223 339734.000000 0 0 1
14.368324 16.927198 -28.843531 36.399561 0.866982 2.485553 0.108805 -0.031050 -486505.000000 0 0 1
15.449224 17.241398 -29.852771 37.777404 0.840166 2.481978 0.090520 -0.035344 -91499.800000 0 0 1
16.555524 16.354298 -29.835361 37.837775 0.779284 2.479174 0.063986 -0.029496 201079.000000 0 0 1
17.605324 16.847898 -30.649481 39.155968 0.763418 2.469875 0.067797 -0.022963 1331920.000000 0 0 1
19.024424 16.154798 -30.445911 39.368258 0.704007 2.454923 0.087684 -0.024493 1753710.000000 0 0 1
20.083324 16.718198 -31.248301 40.734437 0.694212 2.445140 0.109248 -0.038265 19968.900000 0 0 1
21.275724 16.003198 -31.085411 40.927516 0.644896 2.433377 0.132818 -0.036761 -489246.000000 0 0 1
22.459024 16.926598 -31.408841 42.159611 0.645843 2.411329 0.162635 -0.041785 -420426.000000 0 0 1
22.496124 17.003798 -32.816131 43.267808 0.647238 2.431716 0.146345 -0.040323 491072.000000 0 0 1
23.733524 17.565698 -33.255231 44.471837 0.637149 2.415511 0.157557 -0.045696 164579.000000 0 0 1
23.753924 17.921498 32.919706 44.374949 0.646352 0.734966 0.125557 -0.039968 -411813.000000 0 0 1
24.926424 18.605598 32.632446 45.081830 0.641206 0.761431 0.136724 -0.036674 -463399.000000 0 0 1
24.817924 19.182298 31.345915 44.344744 0.658010 0.785735 0.135244 -0.036664 -26350.300000 0 0 1
25.952424 20.196398 31.118245 45.274364 0.661312 0.812995 0.171013 -0.035579 -161214.000000 0 0 1
27.232124 19.601598 31.131325 45.770850 0.623889 0.822821 0.138209 -0.030108 -473056.000000 0 0 1
28.148124 20.677098 31.255315 46.869543 0.633560 0.840812 0.114630 -0.037268 -871073.000000 0 0 1
29.563824 20.162398 31.394825 47.604381 0.598540 0.850650 0.132141 -0.031122 -1114920.000000 0 0 1
29.870224 19.770398 32.699790 48.501291 0.584679 0.830909 0.101430 -0.039875 -328539.000000 0 0 1
31.238124 19.768398 33.000980 49.554765 0.564210 0.842030 0.079439 -0.034548 -288611.000000 0 0 1
31.423624 19.203498 -33.232791 49.604807 0.548553 2.304939 0.077624 -0.027169 -199986.000000 0 0 1
31.201724 20.136298 -32.170541 49.132085 0.573105 2.284683 0.063846 -0.043734 399439.000000 0 0 1
30.582524 19.588098 -30.968541 47.728764 0.569668 2.276861 0.078706 -0.056708 654221.000000 0 0 1
31.446124 19.893198 -29.659391 47.584425 0.564054 2.243753 0.099911 -0.059728 537882.000000 0 0 1
32.690924 19.224098 -29.684171 48.160279 0.531591 2.234911 0.104991 -0.060859 -345154.000000 0 0 1
33.450524 19.586698 -28.563991 48.150575 0.529721 2.205852 0.122072 -0.066491 -410886.000000 0 0 1
34.913824 19.125698 -28.652831 49.048468 0.501150 2.194658 0.063476 -0.042474 -331447.000000 0 0 1
35.606624 19.990798 -29.520451 50.387704 0.511580 2.196745 0.051591 -0.044686 -536328.000000 0 0 1
36.947824 20.005598 -29.097281 51.107900 0.496259 2.176487 0.032057 -0.014513 318622.000000 0 0 1
-37.503649 21.056798 -29.750391 52.297210 -0.511599 2.175929 0.034443 -0.008281 571195.000000 0 0 1
-36.945749 20.607298 -30.971181 52.429602 -0.508790 2.202746 0.027407 -0.012100 -508695.000000 0 0 1
-35.806149 21.361398 -31.259671 52.111003 -0.537904 2.214131 0.021461 -0.011056 -345050.000000 0 0 1
-34.983349 20.695398 -32.395091 51.976689 -0.534204 2.243703 0.028195 -0.024139 -290948.000000 0 0 1
-34.498549 19.483598 -31.841211 50.829354 -0.514109 2.247766 0.038074 -0.022257 565518.000000 0 0 1
-33.567649 18.893698 -32.789531 50.585692 -0.512659 2.276012 0.045422 -0.023671 509527.000000 0 0 1
-32.697849 17.699098 -32.301881 49.252603 -0.496133 2.286093 0.031533 -0.013054 422398.000000 0 0 1
-33.437549 16.494098 -32.136641 49.222847 -0.458258 2.282178 0.043710 -0.008774 936948.000000 0 0 1
-32.528949 15.408898 -32.366941 48.406462 -0.442385 2.303187 0.042612 -0.006464 764859.000000 0 0 1
-33.430749 14.150598 -32.604291 48.794408 -0.400414 2.302579 0.055653 0.000812 -3592.190000 0 0 1
-32.814449 12.937398 -32.845481 48.197406 -0.375548 2.320577 0.068524 -0.009581 -87809.300000 0 0 1
-33.823149 11.927598 -32.993991 48.732704 -0.339030 2.314529 0.081490 -0.014333 253588.000000 0 0 1
-33.412849 10.469398 -33.277431 48.305426 -0.303645 2.330762 0.088038 -0.017933 14379.400000 0 0 1
-32.662449 10.152898 33.181768 47.654451 -0.301375 0.800568 0.071700 -0.021473 322771.000000 0 0 1
-32.951249 8.831698 32.718307 47.268080 -0.261868 0.806283 0.116277 -0.035871 393159.000000 0 0 1
-31.802149 8.153598 31.900140 45.776378 -0.250979 0.799774 0.136605 -0.034116 714670.000000 0 0 1
-30.629549 7.787398 32.625052 45.422537 -0.248970 0.769502 0.077476 -0.020021 532646.000000 0 0 1
-29.725449 7.142098 31.703790 44.042505 -0.235799 0.767217 0.078296 -0.027899 98423.600000 0 0 1
22.203224 -4.133029 -31.587041 38.830481 -0.184039 2.520873 0.066117 -0.040636 1205910.000000 0 0 1
23.495924 -4.006529 -32.254871 40.105953 -0.168896 2.505194 0.055441 -0.042878 1823130.000000 0 0 1
24.397324 -3.005229 -31.746301 40.150821 -0.122561 2.482709 0.065371 -0.043340 215184.000000 0 0 1
24.059624 -1.589229 -32.170501 40.203635 -0.065958 2.498406 0.059875 -0.031651 -867308.000000 0 0 1
25.002324 -0.733829 -31.640271 40.333131 -0.029342 2.472643 0.075372 -0.029438 -174802.000000 0 0 1
24.825924 0.530771 -32.098551 40.582326 0.021376 2.483155 0.060162 -0.026824 288160.000000 0 0 1
25.937624 1.497071 -31.560081 40.878360 0.057654 2.452855 0.073709 -0.029404 846100.000000 0 0 1
27.259424 1.359271 -32.075971 42.116407 0.049823 2.436579 0.091985 -0.039684 89472.800000 0 0 1
28.078524 2.196971 -31.296851 42.103718 0.078085 2.408827 0.108108 -0.042895 -233142.000000 0 0 1
29.603124 1.992371 -31.459511 43.243674 0.067201 2.385459 0.102454 -0.046445 236023.000000 0 0 1
30.088224 2.585871 -32.684721 44.500325 0.085732 2.395700 0.096844 -0.043274 220884.000000 0 0 1
30.273924 1.608871 -33.685081 45.318690 0.053094 2.408776 0.078584 -0.038646 -241766.000000 0 0 1
30.867324 2.120071 32.632962 44.968841 0.068576 0.758775 0.080822 -0.043625 -373244.000000 0 0 1
30.025424 2.934571 31.891386 43.899867 0.097427 0.757643 0.078935 -0.031689 -59554.700000 0 0 1
30.264324 4.242071 32.216391 44.405184 0.139260 0.759022 0.083943 -0.031695 -516564.000000 0 0 1
29.394624 5.257771 31.549455 43.440261 0.176997 0.757913 0.083384 -0.019412 -745855.000000 0 0 1
29.750024 6.547971 31.861601 44.080625 0.216645 0.762947 0.104010 -0.024083 -63727.400000 0 0 1
28.927524 7.532371 31.266335 43.256468 0.254731 0.762932 0.099510 -0.020511 -15682.700000 0 0 1
29.355924 9.042971 31.460485 43.969396 0.298822 0.773444 0.089538 -0.017443 -907503.000000 0 0 1
30.558324 9.371071 30.891045 44.450926 0.297557 0.802450 0.077087 -0.018999 -933278.000000 0 0 1
30.971324 10.690371 31.251215 45.278532 0.332365 0.809032 0.075909 -0.011720 102641.000000 0 0 1
32.388624 10.995671 30.718175 45.973189 0.327283 0.839042 0.074905 -0.009544 -303346.000000 0 0 1
33.495524 10.569471 31.560716 47.220151 0.305660 0.838776 0.093315 -0.027691 429255.000000 0 0 1
34.717124 10.879371 30.965555 47.775570 0.303679 0.865649 0.106887 -0.024513 -414861.000000 0 0 1
35.025024 12.455571 30.854415 48.310336 0.341672 0.878026 0.115228 -0.018871 -1328710.000000 0 0 1
35.587224 12.917571 32.074165 49.619213 0.348194 0.867932 0.113626 -0.015832 31360.500000 0 0 1
35.916124 14.298371 32.193639 50.307473 0.378871 0.876379 0.128553 -0.010442 -353728.000000 0 0 1
34.788224 15.330171 32.153466 49.790362 0.415069 0.868756 0.121665 -0.019858 -1099300.000000 0 0 1
34.345524 15.639071 30.813075 48.720029 0.427290 0.886082 0.106139 -0.027943 346721.000000 0 0 1
33.240424 16.526071 30.831645 48.255851 0.461379 0.877702 0.088084 -0.024313 272444.000000 0 0 1
31.858324 15.963571 31.225505 47.379538 0.464511 0.851241 0.084372 -0.017715 -583588.000000 0 0 1
31.389124 15.025271 30.220885 46.090539 0.446445 0.855707 0.067991 -0.015352 161281.000000 0 0 1
30.177624 14.408171 30.613335 45.337189 0.445442 0.829511 0.065526 -0.013524 95304.000000 0 0 1
29.330024 13.871471 29.440655 43.811188 0.441770 0.833904 0.069384 -0.014373 -85683.600000 0 0 1
29.789224 12.681271 28.828965 43.351145 0.402463 0.843288 0.064257 -0.015541 604609.000000 0 0 1
28.871524 12.258171 27.780165 41.899466 0.401512 0.845951 0.074554 -0.022021 662139.000000 0 0 1
28.730424 10.678371 27.652725 41.281208 0.355852 0.836773 0.067667 -0.006356 -307064.000000 0 0 1
29.884224 9.979171 27.270745 41.669465 0.322285 0.857336 0.068212 -0.006439 -286463.000000 0 0 1
29.538924 8.620671 27.054655 40.973386 0.283955 0.849581 0.078080 -0.003884 248591.000000 0 0 1
30.626524 7.665771 26.481965 41.207312 0.245260 0.872842 0.075266 -0.010141 120451.000000 0 0 1
30.979324 8.048471 25.154915 40.709534 0.254182 0.904712 0.066751 -0.000718 -268367.000000 0 0 1
32.024224 7.284271 24.637145 41.056065 0.223656 0.927188 0.078279 0.003984 -231227.000000 0 0 1
32.311324 7.770171 23.219985 40.540905 0.235997 0.960934 0.092999 0.004849 38404.100000 0 0 1
32.881224 9.108571 23.160935 41.237967 0.270238 0.974428 0.104460 -0.004728 550030.000000 0 0 1
32.058224 10.178671 22.630305 40.539682 0.307439 0.978550 0.091728 -0.006898 229293.000000 0 0 1
31.661324 10.108071 21.123315 39.380287 0.309028 1.004639 0.094632 0.008844 -162096.000000 0 0 1
32.721624 10.360971 20.250715 39.851548 0.306652 1.037756 0.113390 -0.008090 -53240.200000 0 0 1
32.337324 10.147271 18.921515 38.816149 0.304064 1.061612 0.131022 -0.025021 -83816.900000 0 0 1
33.268724 10.895571 17.871715 39.305467 0.316493 1.098775 0.154272 -0.052736 915255.000000 0 0 1
34.593824 10.486771 17.613515 40.211205 0.294335 1.117396 0.163510 -0.042366 53926.000000 0 0 1
35.518024 10.579771 18.652215 41.489357 0.289502 1.104517 0.159582 -0.028677 -151441.000000 0 0 1
36.940324 10.093371 18.201415 42.399944 0.266724 1.127102 0.196376 -0.029410 329555.000000 0 0 1
37.031524 8.712671 18.054415 42.109457 0.231075 1.127688 0.182614 -0.020305 241477.000000 0 0 1
-37.649649 8.297271 16.927015 42.105399 -0.216914 1.157080 0.196100 -0.021948 -242796.000000 0 0 1
-37.503149 6.787471 16.827615 41.662028 -0.179046 1.155012 0.196413 -0.022890 219720.000000 0 0 1
36.776624 6.114171 16.329515 40.700814 0.164745 1.157960 0.179612 -0.023979 458985.000000 0 0 1
37.135824 4.844171 15.853115 40.667637 0.129712 1.170359 0.187379 -0.035093 -832332.000000 0 0 1
35.960624 3.908971 15.735815 39.446957 0.108276 1.160468 0.171793 -0.031303 -711682.000000 0 0 1
35.350624 3.580871 16.957815 39.370761 0.100951 1.125505 0.166251 -0.025334 282989.000000 0 0 1
34.152124 2.851271 16.737815 38.139898 0.083294 1.116474 0.151375 -0.024146 249061.000000 0 0 1
33.763924 2.002271 17.936715 38.284951 0.059233 1.083198 0.129048 -0.027346 -538028.000000 0 0 1
34.620924 0.926471 18.117415 39.085899 0.026754 1.088823 0.142712 -0.023906 -183437.000000 0 0 1
34.346624 0.284571 19.322615 39.409834 0.008285 1.058363 0.129947 -0.018570 113946.000000 0 0 1
35.211124 -1.000229 19.426415 40.226973 -0.028399 1.066810 0.118178 -0.026736 210480.000000 0 0 1
35.077424 -1.726329 20.627115 40.729397 -0.049175 1.039742 0.123212 -0.015521 -48052.800000 0 0 1
35.766224 -2.937129 20.516515 41.337355 -0.081936 1.051443 0.101960 -0.013165 -122215.000000 0 0 1
35.326024 -3.877129 21.628615 41.602369 -0.109315 1.024075 0.104327 -0.012728 -10874.300000 0 0 1
35.675224 -3.445329 22.928725 42.547836 -0.096276 1.001674 0.112736 -0.026116 16997.600000 0 0 1
35.073224 -4.179129 23.925475 42.661746 -0.118595 0.975423 0.094015 -0.025144 -207182.000000 0 0 1
35.369324 -3.734729 25.322445 43.659633 -0.105202 0.952072 0.078742 -0.024037 493040.000000 0 0 1
34.324024 -4.100029 26.242885 43.400898 -0.118887 0.921455 0.074232 -0.021682 544601.000000 0 0 1
34.558124 -3.501929 27.528215 44.320764 -0.100990 0.900634 0.086943 -0.024564 -105081.000000 0 0 1
33.589124 -3.950529 28.628775 44.310752 -0.117075 0.868345 0.064028 -0.029072 -171764.000000 0 0 1
33.763424 -5.275929 29.044595 44.848554 -0.155008 0.866346 0.062919 -0.033970 134052.000000 0 0 1
32.804224 -5.667629 30.014665 44.823200 -0.171082 0.837095 0.075527 -0.044027 31792.400000 0 0 1
32.949124 -7.154229 30.368665 45.377127 -0.213811 0.837597 0.062888 -0.035424 -176799.000000 0 0 1
34.093824 -7.367929 31.152545 46.767043 -0.212834 0.841799 0.054339 -0.037279 -223418.000000 0 0 1
34.682424 -8.621629 30.817505 47.190271 -0.243649 0.859194 0.051114 -0.028008 537428.000000 0 0 1
36.112124 -8.828529 31.424235 48.677623 -0.239772 0.869042 0.071502 -0.028044 685393.000000 0 0 1
36.061224 -8.981729 32.833523 49.589551 -0.244102 0.847171 0.067117 -0.030973 -845936.000000 0 0 1
37.356924 -8.937229 33.325564 50.852798 -0.234825 0.856172 0.075562 -0.026981 -875143.000000 0 0 1
37.541824 -9.305829 -32.810781 50.720157 -0.242981 2.274306 0.082785 -0.033070 -241408.000000 0 0 1
37.095224 -8.452229 -31.745391 49.550638 -0.224028 2.266161 0.076070 -0.030431 140843.000000 0 0 1
37.608524 -7.134929 -31.807061 49.769443 -0.187488 2.264108 0.081894 -0.033618 -141503.000000 0 0 1
37.148324 -6.106229 -30.739411 48.602422 -0.162917 2.255530 0.089521 -0.033217 -102663.000000 0 0 1
37.660324 -6.248229 -29.445961 48.212084 -0.164412 2.227815 0.078278 -0.020276 214923.000000 0 0 1
36.899024 -5.407429 -28.593981 46.993553 -0.145511 2.224923 0.101805 -0.034620 146840.000000 0 0 1
37.531924 -5.263429 -27.186951 46.642034 -0.139330 2.193071 0.097340 -0.028765 88626.800000 0 0 1
-36.704549 -4.514329 -27.181101 45.895701 0.122376 2.204628 0.091200 -0.025395 8161.230000 0 0 1
-36.220849 -4.273329 -25.855691 44.707136 0.117437 2.187482 0.095884 -0.024805 -618216.000000 0 0 1
-34.723349 -4.128629 -25.675311 43.381772 0.118345 2.204143 0.106479 -0.014017 -1441860.000000 0 0 1
-34.360049 -3.789429 -24.345101 42.280689 0.109842 2.184375 0.127894 -0.025567 2129720.000000 0 0 1
-32.933249 -3.925729 -24.022401 40.952240 0.118643 2.197645 0.149109 -0.027755 2743180.000000 0 0 1
-31.840149 -3.064529 -24.825401 40.490579 0.095952 2.230795 0.131351 -0.022035 245731.000000 0 0 1
-31.647749 -3.488029 -26.149631 41.201330 0.109771 2.258390 0.128205 -0.021446 -123994.000000 0 0 1
-30.863549 -2.618729 -26.920951 41.038446 0.084646 2.286294 0.127816 -0.013416 58100.200000 0 0 1
-30.424449 -3.240929 -28.270671 41.657911 0.106124 2.316704 0.111711 -0.015853 837177.000000 0 0 1
-31.486349 -3.202129 -29.253041 43.097381 0.101351 2.316877 0.120053 -0.021675 601666.000000 0 0 1
-31.044649 -4.088229 -30.270131 43.551862 0.130935 2.339267 0.096239 -0.010194 -707549.000000 0 0 1
-32.202549 -4.506429 -31.242211 45.093102 0.139037 2.336214 0.089646 -0.021166 132721.000000 0 0 1
-33.134449 -5.368129 -30.583481 45.409887 0.160615 2.309728 0.083155 -0.019568 640369.000000 0 0 1
-34.011649 -4.729629 -29.629221 45.354740 0.138173 2.282701 0.099203 -0.024423 -214547.000000 0 0 1
-35.186349 -3.829829 -30.185921 46.518132 0.108417 2.276943 0.131793 -0.029874 -173465.000000 0 0 1
-34.875649 -2.537929 -30.735261 46.555432 0.072643 2.291863 0.144613 -0.021985 -86087.700000 0 0 1
-34.460449 -1.526029 -29.823071 45.598979 0.044255 2.283695 0.151677 -0.017238 28376.700000 0 0 1
-34.189249 -0.175529 -30.506331 45.821085 0.005134 2.299322 0.142070 -0.017669 -279255.000000 0 0 1
-35.362449 0.318471 -31.072941 47.075810 -0.009006 2.291697 0.167413 -0.016696 -350631.000000 0 0 1
-35.244149 1.678971 -31.405151 47.236136 -0.047602 2.298095 0.175338 -0.007200 86328.300000 0 0 1
-36.572849 2.349371 -31.824981 48.537844 -0.064150 2.285871 0.146029 -0.010023 134798.000000 0 0 1
-37.078149 1.934071 -33.103431 49.743009 -0.052115 2.298945 0.146915 -0.014652 43507.900000 0 0 1
37.089324 2.518171 -33.318771 49.920934 0.067791 2.301550 0.114154 -0.018663 18353.200000 0 0 1
36.351924 2.037571 32.995274 49.135550 0.055993 0.834544 0.082057 -0.016199 211753.000000 0 0 1
36.922524 2.535171 31.797799 48.793442 0.068554 0.860997 0.107485 -0.014633 -253736.000000 0 0 1
-37.518649 1.695271 31.332475 48.910602 -0.045154 0.875508 0.099200 -0.011373 -659037.000000 0 0 1
-37.131549 1.899371 29.850325 47.680200 -0.051108 0.894315 0.126558 -0.013580 147006.000000 0 0 1
-36.343849 3.050871 29.523115 46.923315 -0.083748 0.890301 0.138574 -0.020143 381306.000000 0 0 1
-36.158149 3.145971 28.111145 45.908010 -0.086787 0.911784 0.133825 -0.013372 190673.000000 0 0 1
-35.303649 4.420671 27.824335 45.167285 -0.124570 0.907105 0.131860 -0.011731 -207132.000000 0 0 1
-35.022149 4.609871 26.464635 44.138178 -0.130875 0.927813 0.137756 -0.007219 117202.000000 0 0 1
-34.452249 5.856571 26.214465 43.685868 -0.168381 0.927211 0.134498 -0.008757 303636.000000 0 0 1
-33.556449 6.008871 24.908195 42.220374 -0.177190 0.939791 0.126566 -0.007847 829251.000000 0 0 1
-32.396749 5.149771 24.860665 41.159716 -0.157641 0.922280 0.114546 0.003441 1009320.000000 0 0 1
-31.482549 5.544271 23.843455 39.879822 -0.174319 0.929939 0.108854 -0.004662 131359.000000 0 0 1
-31.923249 5.214471 22.405015 39.348053 -0.161914 0.965013 0.134930 -0.016025 -215649.000000 0 0 1
-32.034949 3.815171 22.162215 39.140226 -0.118536 0.968876 0.112420 -0.006619 -188837.000000 0 0 1
-32.751849 3.576271 20.994715 39.067268 -0.108762 1.003446 0.145379 -0.016080 -70609.500000 0 0 1
-32.741049 2.130871 20.546415 38.712687 -0.064991 1.011322 0.122193 -0.002605 724424.000000 0 0 1
-31.508849 1.772571 19.886915 37.301997 -0.056197 1.008497 0.114629 0.000862 749553.000000 0 0 1
-31.427849 1.951771 18.447215 36.494094 -0.062024 1.040852 0.127003 -0.007578 -308998.000000 0 0 1
-30.135149 1.390371 17.840715 35.047846 -0.046105 1.036729 0.122629 -0.014389 -652345.000000 0 0 1
-30.069649 -0.011729 17.898815 34.993593 0.000390 1.033880 0.131432 -0.006502 766034.000000 0 0 1
-28.853349 -0.538729 17.327315 33.660687 0.018669 1.030064 0.142500 -0.014792 697396.000000 0 0 1
-28.676949 -0.301629 15.778615 32.732600 0.010518 1.067808 0.158742 -0.012007 -386045.000000 0 0 1
-28.366449 1.032071 15.517215 32.349723 -0.036367 1.070517 0.166720 -0.020407 -190.751000 0 0 1
-28.093349 1.075971 14.130215 31.465171 -0.038281 1.105067 0.194264 -0.028542 -159471.000000 0 0 1
-27.477449 2.353071 13.587015 30.743359 -0.085428 1.113025 0.186792 -0.033286 673274.000000 0 0 1
-26.070149 2.476571 13.833715 29.616849 -0.094712 1.084800 0.167141 -0.042213 601728.000000 0 0 1
-25.588149 3.734071 13.388915 29.119748 -0.144907 1.093040 0.164273 -0.044873 615922.000000 0 0 1
-24.052949 3.741971 13.082015 27.634866 -0.154335 1.077663 0.138759 -0.042344 431009.000000 0 0 1
-23.310849 3.818271 14.271315 27.597923 -0.162356 1.027319 0.117645 -0.032112 84870.800000 0 0 1
-21.921949 3.824071 13.978015 26.278894 -0.172703 1.009941 0.092809 -0.032290 327136.000000 0 0 1
-21.023549 4.492571 15.058215 26.247336 -0.210526 0.959775 0.078381 -0.037815 -158822.000000 0 0 1
-21.226949 5.854571 15.279415 26.801491 -0.269118 0.964174 0.065367 -0.024190 266644.000000 0 0 1
-20.473849 6.334871 16.386415 26.978208 -0.300070 0.918020 0.058622 -0.016947 -54497.400000 0 0 1
-20.771949 7.801771 16.741915 27.796281 -0.359289 0.924407 0.049439 -0.022735 -155073.000000 0 0 1
-20.341449 8.711771 15.738715 27.154680 -0.404643 0.952565 0.052466 -0.019997 335138.000000 0 0 1
-20.952149 9.948971 15.800815 28.064931 -0.443320 0.972774 0.053931 -0.012756 -203348.000000 0 0 1
-20.219449 10.994971 16.716615 28.445751 -0.498057 0.942625 0.070381 -0.015335 -55040.700000 0 0 1
-20.309249 10.737471 18.097715 29.245276 -0.486342 0.903550 0.066251 -0.019814 330710.000000 0 0 1
-19.740549 11.749871 18.882215 29.736960 -0.536894 0.882821 0.088071 -0.007081 -282354.000000 0 0 1
-12.774976 -32.947156 -20.288301 40.747150 1.200902 2.091980 0.139892 -0.053406 1037980.000000 0 0 1
-13.889776 -33.482256 -19.503201 41.162631 1.177563 2.064407 0.177650 -0.052549 1324340.000000 0 0 1
-15.045176 -32.639056 -19.543701 40.909920 1.138869 2.068860 0.154759 -0.062686 -93823.700000 0 0 1
-16.209576 -33.303356 -18.828201 41.549549 1.117825 2.041093 0.150788 -0.054891 -1449240.000000 0 0 1
-16.678276 33.329071 -19.590401 42.104343 -1.106819 2.054750 0.145736 -0.055371 115449.000000 0 0 1
-17.439976 32.358171 -18.901701 41.333743 -1.076463 2.045747 0.156039 -0.045427 404040.000000 0 0 1
-18.814176 32.677171 -18.256401 41.893518 -1.048392 2.021702 0.142898 -0.039371 -275016.000000 0 0 1
-18.696776 33.512671 -17.098301 42.012146 -1.061907 1.989947 0.161254 -0.040086 571403.000000 0 0 1
-19.980476 -33.849056 -16.596001 42.666207 1.037553 1.970313 0.133175 -0.031301 260554.000000 0 0 1
-20.271476 33.268171 -15.200301 41.818095 -1.023541 1.942804 0.139460 -0.036126 -280449.000000 0 0 1
-20.365576 31.848171 -15.110801 40.711165 -1.001868 1.951066 0.137248 -0.036662 182786.000000 0 0 1
-21.050876 31.431671 -13.964501 40.324888 -0.980673 1.924420 0.157676 -0.031570 81327.900000 0 0 1
-21.085176 29.923071 -13.896201 39.154555 -0.956959 1.933610 0.155278 -0.042378 114648.000000 0 0 1
-19.850276 29.410171 -13.435901 37.940941 -0.977084 1.932776 0.168462 -0.058994 212968.000000 0 0 1
-19.901176 27.962471 -13.475401 36.871981 -0.952254 1.944928 0.178251 -0.069452 737878.000000 0 0 1
-18.590676 27.302571 -12.879001 35.452959 -0.972996 1.942572 0.181008 -0.062128 1496330.000000 0 0 1
-17.432976 27.539571 -13.705701 35.357925 -1.006454 1.968853 0.189081 -0.064565 216097.000000 0 0 1
-16.344476 26.713571 -13.382001 34.056346 -1.021715 1.974620 0.186735 -0.073623 -311378.000000 0 0 1
-15.036976 27.227571 -13.965101 34.095092 -1.066212 1.992804 0.157989 -0.070263 -510454.000000 0 0 1
-15.074776 27.356771 -15.374801 34.814168 -1.067152 2.028205 0.139742 -0.069992 -26417.600000 0 0 1
-13.849476 27.853771 -15.885701 34.928442 -1.109375 2.042952 0.161243 -0.067148 88913.400000 0 0 1
-13.901276 28.072671 -17.411001 35.839410 -1.111005 2.078081 0.180152 -0.082621 74436.400000 0 0 1
-13.535076 26.929771 -18.170901 35.193643 -1.105066 2.113335 0.149585 -0.070456 8959.770000 0 0 1
-13.969076 27.016371 -19.481501 36.118531 -1.093594 2.140493 0.122869 -0.065950 53127.300000 0 0 1
-13.381776 25.908471 -20.444101 35.612948 -1.094034 2.182257 0.085097 -0.038444 -475718.000000 0 0 1
-12.057876 26.131471 -20.789101 35.502575 -1.138477 2.196374 0.072330 -0.034000 -992898.000000 0 0 1
-11.394776 25.002971 -21.315701 34.775689 -1.143182 2.230583 0.069618 -0.037361 1083990.000000 0 0 1
-10.041276 25.439671 -22.001901 35.101107 -1.194859 2.248255 0.092860 -0.037099 834503.000000 0 0 1
-10.336476 26.044171 -23.236701 36.401729 -1.192980 2.263137 0.077011 -0.029812 1017890.000000 0 0 1
-9.098476 26.272771 -23.934201 36.686329 -1.237414 2.281545 0.063479 -0.031823 551028.000000 0 0 1
-9.346976 26.884471 -25.322151 38.096615 -1.236197 2.297865 0.061983 -0.019971 -273047.000000 0 0 1
-10.147076 26.028871 -26.060711 38.205051 -1.199080 2.321464 0.060862 -0.023553 -561653.000000 0 0 1
-10.591476 26.675971 -27.214271 39.552539 -1.192843 2.329600 0.074629 -0.017198 463874.000000 0 0 1
-11.995476 26.224571 -27.735481 40.010954 -1.141794 2.336712 0.064577 -0.016647 374477.000000 0 0 1
-12.367476 26.922371 -28.924441 41.405215 -1.140173 2.344193 0.075135 -0.010529 1290170.000000 0 0 1
-13.712776 26.454171 -29.259061 41.760700 -1.092569 2.347085 0.062379 -0.008492 1286010.000000 0 0 1
-14.027176 26.829771 -30.721831 43.132693 -1.089059 2.363514 0.055513 -0.013749 142442.000000 0 0 1
-13.173276 26.282071 -31.744201 43.266347 -1.106168 2.394537 0.061956 -0.016990 388128.000000 0 0 1
-13.309076 24.896771 -31.784251 42.511402 -1.079876 2.415334 0.046919 -0.023264 49463.600000 0 0 1
-12.455776 24.275271 -32.906341 42.746490 -1.096719 2.449327 0.042320 -0.015378 254977.000000 0 0 1
-13.023876 24.489271 33.448681 43.452963 -1.082018 0.692319 0.043414 -0.010987 15804.900000 0 0 1
-12.271276 23.736971 32.545414 42.109761 -1.093666 0.687443 0.038700 -0.012679 -484314.000000 0 0 1
-12.790976 23.771571 31.078365 41.165051 -1.077152 0.715188 0.053883 -0.005660 -27568.900000 0 0 1
-13.978576 22.988071 30.960785 41.017340 -1.024457 0.715414 0.064740 -0.015177 39302.100000 0 0 1
-14.362276 22.932771 29.618715 40.118016 -1.011279 0.740265 0.080634 -0.012379 596301.000000 0 0 1
-15.641076 22.060671 29.355115 39.912896 -0.954054 0.744422 0.068319 -0.012121 716568.000000 0 0 1
-15.366976 20.702771 29.621855 39.270892 -0.932263 0.716216 0.046660 -0.016798 -987481.000000 0 0 1
-16.554276 20.027971 29.696845 39.459679 -0.880070 0.718814 0.051194 -0.018116 -815255.000000 0 0 1
-16.340776 18.494071 29.801035 38.693065 -0.847134 0.691656 0.046569 -0.025825 -24703.000000 0 0 1
-15.827976 17.917871 28.608525 37.283007 -0.847250 0.696123 0.050412 -0.028014 50694.600000 0 0 1
-15.390676 16.614571 28.838755 36.668661 -0.823620 0.665726 0.046146 -0.036038 -298837.000000 0 0 1
-14.847676 15.948771 27.613855 35.175869 -0.821137 0.668064 0.055361 -0.027452 1700170.000000 0 0 1
-13.527876 16.463871 27.189115 34.544326 -0.882981 0.664737 0.027848 -0.026427 1703540.000000 0 0 1
-13.141576 15.861271 25.971585 33.148215 -0.878898 0.670520 0.023774 -0.018779 378294.000000 0 0 1
-11.954276 16.542771 25.204735 32.432186 -0.945044 0.680669 0.036744 -0.014455 302816.000000 0 0 1
-12.184076 17.586971 24.267515 32.352211 -0.964926 0.722577 0.035865 -0.011598 -208790.000000 0 0 1
-12.754276 18.827271 24.730635 33.596756 -0.975375 0.743503 0.035771 -0.013475 337812.000000 0 0 1
-11.836276 19.795471 25.576035 34.439682 -1.031901 0.733803 0.036567 -0.019208 264694.000000 0 0 1
-11.508676 19.338971 26.887085 35.062241 -1.033985 0.696895 0.043507 -0.021351 -523208.000000 0 0 1
-12.518076 19.579771 27.811475 36.242900 -1.001953 0.696077 0.053737 -0.021331 -576612.000000 0 0 1
-12.169276 19.289771 29.260425 37.099313 -1.007989 0.662096 0.049608 -0.024349 -511583.000000 0 0 1
-11.224576 20.188171 29.731915 37.650234 -1.063360 0.660497 0.047533 -0.022497 -498956.000000 0 0 1
-10.875576 19.901071 31.064155 38.461832 -1.070658 0.630620 0.031598 -0.019809 30725.100000 0 0 1
-9.754376 20.785471 31.652639 39.103366 -1.132019 0.627563 0.021336 -0.018576 467372.000000 0 0 1
-8.416376 20.355471 31.413995 38.366909 -1.178732 0.611516 0.027905 -0.017997 330389.000000 0 0 1
-7.535076 21.298671 32.001777 39.173007 -1.230757 0.614721 0.035792 -0.020810 -238597.000000 0 0 1
-6.413776 20.668271 32.833113 39.323368 -1.269899 0.582751 0.047095 -0.014591 -571906.000000 0 0 1
-6.898276 19.758771 -33.780401 39.738026 -1.234901 2.586929 0.039214 -0.020973 536847.000000 0 0 1
-5.877576 19.157871 -32.957401 38.571495 -1.273116 2.595287 0.032581 -0.017898 373330.000000 0 0 1
-4.940976 18.190471 -33.692661 38.607018 -1.305571 2.631518 0.029332 -0.015395 -294499.000000 0 0 1
-5.531976 16.908071 33.661395 38.073287 -1.254594 0.486187 0.032377 -0.015333 357404.000000 0 0 1
-5.004576 16.154071 32.542094 36.674074 -1.270371 0.479269 0.044962 -0.010932 -199711.000000 0 0 1
-5.548276 14.688571 32.511905 36.104867 -1.209637 0.449912 0.069792 -0.022032 -200740.000000 0 0 1
-4.913376 13.865971 33.440062 36.532782 -1.230254 0.414435 0.076344 -0.024299 -307040.000000 0 0 1
-5.480276 12.577671 33.399066 36.107186 -1.159885 0.389767 0.085493 -0.032115 67071.800000 0 0 1
-4.586176 11.323271 33.753505 35.896359 -1.185968 0.347273 0.097003 -0.041641 90481.400000 0 0 1
-4.400276 11.109971 -32.489341 34.617209 -1.193686 2.789148 0.123572 -0.054836 134778.000000 0 0 1
-3.288976 10.246471 -32.307241 34.052391 -1.260199 2.820056 0.138124 -0.049546 -29918.200000 0 0 1
-3.284076 9.641471 -30.865881 32.503011 -1.242502 2.822854 0.152544 -0.050695 130608.000000 0 0 1
-4.240476 8.618871 -30.542491 32.017344 -1.113570 2.836889 0.156914 -0.048813 477106.000000 0 0 1
-5.409976 9.214071 -29.981491 31.828552 -1.039884 2.799243 0.171846 -0.064833 495466.000000 0 0 1
-6.515976 8.210571 -29.531941 31.336990 -0.899965 2.800527 0.171016 -0.056037 115994.000000 0 0 1
-5.982776 7.360471 -28.548531 30.083031 -0.888284 2.820817 0.169500 -0.035489 115670.000000 0 0 1
-6.839876 6.289571 -28.223881 29.714139 -0.743509 2.823542 0.183395 -0.053394 -268651.000000 0 0 1
-6.382176 5.478071 -26.935871 28.218479 -0.709315 2.838933 0.163559 -0.046364 31131.400000 0 0 1
-6.497976 6.048571 -25.658011 27.150367 -0.749594 2.808494 0.133883 -0.031527 64440.700000 0 0 1
-5.617176 7.131571 -25.480171 27.049049 -0.903632 2.799333 0.115691 -0.031769 -481792.000000 0 0 1
-6.035676 8.177971 -24.425301 26.455697 -0.934993 2.747259 0.070876 -0.007169 -188772.000000 0 0 1
-6.148776 7.844671 -23.002601 25.069223 -0.906002 2.732704 0.053326 0.003804 -676477.000000 0 0 1
-7.455176 7.601271 -22.603001 24.985088 -0.795101 2.701377 0.066450 0.000734 -710411.000000 0 1 0
-7.597676 7.647871 -21.074901 23.672052 -0.788691 2.668770 0.057917 -0.004870 -39583.500000 0 1 0
-7.347776 8.979771 -20.651501 23.687773 -0.885021 2.629704 0.041191 0.000031 224219.000000 0 1 0
-6.957676 9.105071 -19.328701 22.470208 -0.918298 2.606443 0.030868 -0.000082 -355236.000000 0 1 0
-8.185576 9.225371 -18.417801 22.165886 -0.845048 2.551533 0.036000 -0.003766 -704639.000000 0 1 0
-7.924976 9.433971 -17.057901 21.042268 -0.872109 2.516057 0.023918 -0.002875 -72445.700000 0 1 0
-9.063076 9.656271 -16.251501 20.964117 -0.817076 2.457837 0.032834 -0.007741 178657.000000 0 1 0
-9.643376 11.058371 -16.513101 22.089924 -0.853644 2.415147 0.057609 -0.018208 452650.000000 0 1 0
-8.690876 11.960271 -15.875101 21.693276 -0.942410 2.391753 0.038253 -0.027866 860327.000000 0 1 0
-9.024176 13.329471 -16.155301 22.805795 -0.975668 2.358005 0.068250 -0.028037 450716.000000 0 1 0
-7.840276 14.306571 -15.854701 22.749054 -1.069475 2.341916 0.059290 -0.026305 200705.000000 0 1 0
-7.427276 14.465071 -14.474301 21.769430 -1.096437 2.298144 0.054527 -0.018338 311762.000000 0 1 0
-8.318876 15.172771 -13.626001 22.024636 -1.069277 2.237846 0.055853 -0.027912 -1000330.000000 0 1 0
-7.547876 15.758771 -12.461601 21.461612 -1.124119 2.190318 0.033098 -0.025411 50824.200000 0 1 0
-6.993176 17.065771 -12.686001 22.384809 -1.181889 2.173320 0.042143 -0.028222 548948.000000 0 1 0
-6.099176 17.244471 -13.798601 22.912292 -1.230839 2.217095 0.054703 -0.021303 -318606.000000 0 1 0
-6.098576 18.725271 -14.302801 24.339238 -1.255943 2.198940 0.095178 -0.017037 344068.000000 0 1 0
-5.480876 19.633771 -13.368501 24.377075 -1.298571 2.151252 0.085636 -0.027142 151244.000000 0 1 0
-5.516476 20.931071 -13.858701 25.702234 -1.313102 2.140286 0.095418 -0.023742 5243.710000 0 0 1
-5.150276 21.965471 -12.737701 25.908614 -1.340485 2.084768 0.099317 -0.021624 -519207.000000 0 0 1
-5.298076 23.350771 -13.126001 27.306044 -1.347683 2.072249 0.089277 -0.023823 994543.000000 0 0 1
-6.631776 23.895171 -13.156201 28.072144 -1.300074 2.058566 0.073374 -0.021319 1188770.000000 0 0 1
-7.603976 23.849571 -11.938101 27.733387 -1.262154 2.015798 0.042281 -0.018344 54434.600000 0 0 1
-7.924076 22.533671 -11.419401 26.475650 -1.232648 2.016748 0.048017 -0.015088 123301.000000 0 0 1
-8.764276 22.430271 -10.276601 26.182783 -1.198303 1.974139 0.069818 -0.017074 284265.000000 0 0 1
-8.048476 22.724971 -8.935101 25.710665 -1.230412 1.925727 0.072795 -0.017249 13591.400000 0 0 1
-7.471676 24.005571 -8.839901 26.650276 -1.269053 1.908902 0.064490 -0.008209 -129497.000000 0 0 1
-7.027176 24.268471 -7.536901 26.365598 -1.288945 1.860701 0.060206 -0.016060 -25937.300000 0 0 1
-7.064576 25.809871 -7.307401 27.739066 -1.303624 1.837376 0.067575 -0.005848 374499.000000 0 0 1
-6.252776 26.773471 -8.029301 28.642375 -1.341365 1.854934 0.054878 -0.009459 27300.900000 0 0 1
-6.314076 26.796671 -9.440101 29.104031 -1.339388 1.901128 0.058542 -0.003989 14863.700000 0 0 1
-5.647776 28.091671 -9.962401 30.336262 -1.372393 1.905404 0.057833 -0.007568 206232.000000 0 0 1
-6.481876 29.230371 -9.930301 31.544257 -1.352576 1.891048 0.059824 -0.009664 -193705.000000 0 0 1
-7.202876 29.477071 -11.114001 32.315633 -1.331137 1.921885 0.065208 -0.007509 -415912.000000 0 0 1
-8.354376 30.443071 -10.908901 33.400304 -1.302964 1.903512 0.071096 -0.011666 -138999.000000 0 0 1
-9.401276 29.960571 -10.069001 32.975818 -1.266738 1.881097 0.081355 -0.014651 462597.000000 0 0 1
-10.364976 30.995971 -9.789201 34.117611 -1.248088 1.861812 0.072786 -0.023250 -149196.000000 0 0 1
-11.449876 30.529571 -8.858001 33.787846 -1.211989 1.836062 0.092953 -0.026137 -675483.000000 0 0 1
-12.307276 29.655171 -9.538401 33.494467 -1.177415 1.859568 0.108106 -0.037017 628020.000000 0 0 1
-13.590176 29.608571 -8.845001 33.757879 -1.140488 1.835904 0.123722 -0.034454 1773130.000000 0 0 1
-14.636776 28.597871 -9.427101 33.480497 -1.097743 1.856226 0.140823 -0.046411 87817.700000 0 0 1
-14.570476 27.315071 -8.781401 32.179572 -1.080770 1.847189 0.131892 -0.039366 -62285.000000 0 0 1
-15.444276 26.473971 -9.496601 32.087104 -1.042690 1.871260 0.157823 -0.048763 49141.300000 0 0 1
-15.525476 25.041971 -8.954701 30.794925 -1.015816 1.865843 0.148368 -0.045192 81708.400000 0 0 1
-14.349576 24.303071 -9.155701 29.671138 -1.037434 1.884488 0.130545 -0.036589 314596.000000 0 0 1
-14.717376 22.984271 -8.718901 28.651302 -1.001253 1.880011 0.139013 -0.036259 104048.000000 0 0 1
-13.617476 21.986771 -9.070501 27.406710 -1.016271 1.908116 0.126996 -0.028721 -320608.000000 0 0 1
-13.524676 21.628671 -10.448501 27.566056 -1.011972 1.959550 0.117558 -0.027704 249446.000000 0 0 1
-13.124176 20.274671 -10.638701 26.391063 -0.996308 1.985717 0.114204 -0.027350 -135593.000000 0 0 1
-13.329276 19.821771 -12.170701 26.808546 -0.978796 2.042030 0.114671 -0.018412 401563.000000 0 0 1
-14.704476 19.659171 -12.475101 27.537842 -0.928596 2.040943 0.133378 -0.013154 -72658.000000 0 0 1
-14.887476 19.171971 -13.810001 27.927004 -0.910535 2.088060 0.130249 -0.006188 739167.000000 0 0 1
-16.353376 18.861271 -14.255901 28.747368 -0.856496 2.089671 0.139731 -0.008291 571114.000000 0 0 1
-17.179376 19.936171 -14.521801 30.057687 -0.859538 2.075024 0.139803 -0.016993 190122.000000 0 0 1
-18.506076 19.580271 -14.925301 30.799780 -0.813595 2.076692 0.140722 -0.016998 106679.000000 0 0 1
-19.172576 20.823271 -15.530801 32.286252 -0.826646 2.072631 0.146278 -0.025135 -370970.000000 0 0 1
-19.405576 21.904171 -14.676001 32.737655 -0.845809 2.035649 0.147211 -0.051161 239635.000000 0 0 1
-19.975876 22.980571 -15.356701 34.102354 -0.855232 2.037911 0.156736 -0.044191 -10531.600000 0 0 1
-20.686876 24.075671 -14.481901 34.889973 -0.860960 1.998820 0.151661 -0.041018 850483.000000 0 0 1
-21.958876 23.642571 -13.964201 35.159100 -0.822303 1.979229 0.175559 -0.049390 699530.000000 0 0 1
-22.667076 24.732271 -13.431701 36.137130 -0.828941 1.951622 0.177895 -0.058370 -25111.600000 0 0 1
-26.528306 -0.590729 3.178099 26.724526 0.022264 1.451594 0.205001 -0.051500 -63118.900000 0 0 1
-26.832946 0.077571 4.419199 27.194527 -0.002891 1.407569 0.198551 -0.047806 -858499.000000 0 0 1
-28.199616 -0.014729 4.567399 28.567108 0.000522 1.410224 0.212633 -0.048813 -1073930.000000 0 0 1
-28.675816 0.626871 5.883899 29.279953 -0.021857 1.368465 0.226471 -0.036992 -228795.000000 0 0 1
-28.959316 2.004071 5.818499 29.605965 -0.069093 1.372977 0.242480 -0.042681 2304.240000 0 0 1
-29.446866 2.523871 7.019299 30.376938 -0.085500 1.337616 0.268279 -0.039520 -556611.000000 0 0 1
-28.395806 2.934971 8.035599 29.656478 -0.102994 1.296410 0.267431 -0.038544 -552678.000000 0 0 1
-27.801506 1.900671 8.753999 29.209053 -0.068260 1.266416 0.237529 -0.042453 492817.000000 0 0 1
-26.831186 2.417871 9.672499 28.623694 -0.089871 1.226091 0.220555 -0.048310 155149.000000 0 0 1
-25.872616 1.355271 10.268499 27.868819 -0.052335 1.193446 0.196916 -0.045195 450132.000000 0 0 1
-24.876776 0.906571 9.321399 26.581278 -0.036426 1.212504 0.195791 -0.040255 934647.000000 0 0 1
-25.269736 -0.336629 8.729299 26.737119 0.013321 1.238213 0.170752 -0.034151 -318050.000000 0 0 1
-24.102276 -1.033929 8.013699 25.420623 0.042871 1.250083 0.153271 -0.036264 -205492.000000 0 0 1
-23.147576 -1.437229 8.975099 24.868218 0.062010 1.201557 0.148877 -0.053156 -63191.300000 0 1 0
-22.024576 -1.983829 8.346799 23.636551 0.089831 1.209881 0.164013 -0.043003 -409987.000000 0 1 0
-20.742876 -2.294729 9.124399 22.776903 0.110179 1.158626 0.131124 -0.032830 -134243.000000 0 1 0
-20.069576 -1.174729 9.659099 22.303947 0.058466 1.122904 0.110473 -0.028686 781434.000000 0 1 0
-20.755676 -0.486729 10.726099 23.368444 0.023446 1.093928 0.124002 -0.031167 -522038.000000 0 1 0
-20.219276 0.933271 10.876399 22.977949 -0.046125 1.077717 0.088848 -0.027667 -399956.000000 0 1 0
-20.431276 1.890071 9.863199 22.766029 -0.092246 1.122710 0.089706 -0.024600 269137.000000 0 1 0
-21.795176 2.230871 9.749599 23.980433 -0.102001 1.152105 0.117049 -0.036270 -315568.000000 0 1 0
-22.085776 3.710171 9.444999 24.305449 -0.166435 1.171689 0.104135 -0.035328 -339462.000000 0 1 0
-21.853076 4.677271 10.518099 24.699477 -0.210851 1.130903 0.075488 -0.033896 529954.000000 0 1 0
-22.120976 6.002571 10.138599 25.063113 -0.264972 1.154339 0.057158 -0.027412 -256634.000000 0 0 1
-22.326876 6.909071 11.349999 25.981669 -0.300105 1.118706 0.064802 -0.036304 -367485.000000 0 0 1
-23.388976 6.557671 12.189399 27.177724 -0.273356 1.105702 0.077349 -0.034928 -166704.000000 0 0 1
-23.549776 7.472771 13.228099 28.025289 -0.307268 1.079232 0.097376 -0.026031 -452203.000000 0 0 1
-24.601576 7.047571 14.244199 29.288274 -0.278997 1.062895 0.125681 -0.031794 -609297.000000 0 0 1
-25.877166 7.251271 13.713299 30.170568 -0.273212 1.098957 0.147243 -0.038699 -296354.000000 0 0 1
-26.909646 6.865371 14.620699 31.385143 -0.249798 1.086204 0.158371 -0.039818 665311.000000 0 0 1
-28.335416 6.944771 14.009099 32.363258 -0.240354 1.123122 0.186078 -0.030357 194124.000000 0 0 1
-28.768066 5.873671 13.194399 32.189964 -0.201405 1.148461 0.205740 -0.028084 210207.000000 0 0 1
-30.081336 6.025871 12.693299 33.201170 -0.197703 1.178496 0.231414 -0.030836 125413.000000 0 0 1
-30.544146 4.918271 11.610799 33.044589 -0.159651 1.211765 0.247538 -0.031682 3101.080000 0 0 1
-30.808366 3.643271 12.095399 33.297560 -0.117709 1.199041 0.239809 -0.032221 480889.000000 0 0 1
-31.414176 2.845871 11.064799 33.427222 -0.090345 1.233421 0.218092 -0.022042 938982.000000 0 0 1
-32.659856 1.957271 11.472399 34.671502 -0.059857 1.233551 0.171113 -0.014182 850622.000000 0 0 1
-32.267096 0.894971 12.323099 34.551776 -0.027729 1.206110 0.161256 -0.010089 643274.000000 0 0 1
-33.466756 0.221371 12.727799 35.806000 -0.006615 1.207384 0.138552 -0.014151 570587.000000 0 0 1
-33.318616 -0.925329 13.818099 36.082215 0.027765 1.177796 0.133386 -0.017595 -59125.500000 0 0 1
-32.894116 -2.190529 13.360699 35.571471 0.066495 1.185751 0.139885 -0.012889 163634.000000 0 0 1
-32.953416 -3.126529 14.404799 36.099876 0.094594 1.160342 0.123645 -0.012022 -118374.000000 0 0 1
-33.106616 -4.608929 13.944899 36.218095 0.138326 1.175561 0.123665 -0.009583 83006.100000 0 0 1
-34.333544 -4.835129 13.285799 37.130623 0.139908 1.204872 0.117666 -0.023619 -40152.100000 0 0 1
-34.296846 -6.130029 12.673999 37.073995 0.176867 1.221904 0.134019 -0.022258 -783840.000000 0 0 1
-35.561914 -6.548029 11.883899 38.062494 0.182091 1.253267 0.136929 -0.016464 884177.000000 0 0 1
-36.791736 -6.666729 12.619899 39.463134 0.179257 1.245289 0.112178 -0.026172 928199.000000 0 0 1
-37.321736 -5.443929 13.102899 39.927863 0.144843 1.236437 0.113870 -0.036286 -354821.000000 0 0 1
36.609628 -5.145229 12.779199 39.115805 -0.139629 1.237985 0.121699 -0.033995 753750.000000 0 0 1
35.608128 -5.793029 13.548499 38.536474 -0.161275 1.211542 0.113093 -0.031134 404167.000000 0 0 1
34.375258 -5.705929 12.820499 37.129250 -0.164490 1.218245 0.132322 -0.028026 312730.000000 0 0 1
33.399588 -6.812329 13.222899 36.562076 -0.201205 1.200753 0.121147 -0.022090 -289630.000000 0 0 1
32.811228 -6.621629 14.501399 36.478942 -0.199135 1.161975 0.113737 -0.012356 686556.000000 0 0 1
31.792508 -7.641629 14.666699 35.836715 -0.235885 1.149148 0.099701 -0.015406 503123.000000 0 0 1
31.144778 -7.730429 16.056099 35.882517 -0.243293 1.106870 0.084944 -0.010640 161033.000000 0 0 1
32.009538 -8.182729 17.104499 37.203917 -0.250274 1.093083 0.061960 -0.004216 522081.000000 0 0 1
31.331868 -8.298329 18.394499 37.268027 -0.258908 1.054603 0.048875 -0.010079 65747.400000 0 0 1
32.289218 -8.823029 19.493099 38.735260 -0.266739 1.043453 0.043569 -0.004664 626045.000000 0 0 1
33.327078 -7.906429 19.896099 39.611368 -0.232931 1.044560 0.049170 -0.004541 -102192.000000 0 0 1
34.543178 -8.307729 19.339399 40.450734 -0.236020 1.072309 0.030537 0.011548 -1355280.000000 0 0 1
35.740928 -7.529929 19.810999 41.552250 -0.207644 1.073816 0.024923 -0.000234 -633294.000000 0 0 1
36.102628 -8.077729 21.046299 42.562850 -0.220118 1.053565 0.031137 -0.001680 -338683.000000 0 0 1
37.451938 -7.879029 21.389399 43.843280 -0.207353 1.061159 0.041175 -0.002267 -145004.000000 0 0 1
-37.646046 -8.448229 22.773399 44.802065 0.220755 1.037574 0.041152 -0.001236 32433.700000 0 0 1
37.162228 -7.695829 23.851499 44.823554 -0.204201 1.009694 0.050882 -0.004221 437821.000000 0 0 1
37.214658 -8.513029 25.016699 45.642499 -0.224885 0.990704 0.048513 -0.011868 -370400.000000 0 0 1
36.583738 -7.917029 26.298699 45.745719 -0.213122 0.958328 0.064392 -0.016532 -399391.000000 0 0 1
37.446798 -7.353529 27.209799 46.869076 -0.193905 0.951393 0.068985 -0.026897 -385608.000000 0 0 1
36.733008 -7.015929 28.401999 46.959671 -0.188725 0.921260 0.078456 -0.029901 -641692.000000 0 0 1
37.345728 -5.956329 29.384599 47.891919 -0.158159 0.910234 0.101113 -0.033296 218909.000000 0 0 1
-37.014926 -6.329429 30.216999 48.199932 0.169359 0.893216 0.099433 -0.035883 486603.000000 0 0 1
-35.773596 -6.542129 29.512699 46.835339 0.180877 0.889066 0.100473 -0.042002 794017.000000 0 0 1
-34.644489 -7.150129 30.425199 46.658951 0.203528 0.860476 0.102116 -0.035540 309217.000000 0 0 1
-34.988455 -8.490529 30.739899 47.341551 0.238065 0.864104 0.091817 -0.031400 398271.000000 0 0 1
-34.319664 -9.025829 31.897699 47.715491 0.257169 0.838609 0.076746 -0.026583 -81918.000000 0 0 1
-34.478737 -10.552529 31.973599 48.191806 0.297006 0.845355 0.082168 -0.026656 456334.000000 0 0 1
-35.801718 -10.908729 32.382399 49.491243 0.295762 0.857532 0.071702 -0.029452 428027.000000 0 0 1
-35.921095 -12.267429 32.633299 50.057438 0.329092 0.860686 0.065336 -0.018580 -1270030.000000 0 0 1
-37.288046 -12.696529 33.033599 51.408354 0.328185 0.872945 0.064817 -0.020937 -1193880.000000 0 0 1
-37.410826 -14.056329 33.053199 51.861973 0.359410 0.879768 0.058034 -0.029053 -692690.000000 0 0 1
36.690528 -14.361529 33.294999 51.584933 -0.373091 0.869197 0.048586 -0.025588 -902344.000000 0 0 1
36.428918 -15.905029 33.366799 51.897777 -0.411659 0.872475 0.045861 -0.009372 -123167.000000 0 0 1
36.812278 -16.670829 -33.133417 52.257858 -0.425230 2.257559 0.059437 -0.020578 174181.000000 0 0 1
36.507758 -18.034929 -33.422217 52.679404 -0.458838 2.258087 0.060379 -0.039213 -308836.000000 0 0 1
36.771478 -18.959329 -32.176017 52.410818 -0.476049 2.231813 0.055857 -0.017661 384618.000000 0 0 1
35.798618 -18.868429 -31.126517 51.053097 -0.485069 2.226465 0.058320 -0.019798 -41891.300000 0 0 1
36.157838 -19.601229 -29.973217 50.891956 -0.496759 2.200565 0.049537 -0.018038 -1124330.000000 0 0 1
35.177488 -19.437329 -28.774917 49.429356 -0.504799 2.192157 0.040639 -0.020184 1394430.000000 0 0 1
33.900078 -20.108829 -28.924417 48.889694 -0.535389 2.203871 0.051148 -0.008609 764444.000000 0 0 1
33.088908 -19.494929 -29.885317 48.662720 -0.532417 2.232082 0.046933 -0.007228 -1192090.000000 0 0 1
31.625698 -20.017929 -29.923417 47.919862 -0.564306 2.245220 0.042476 -0.004784 421040.000000 0 0 1
30.753458 -19.250729 -30.711217 47.534667 -0.559296 2.273234 0.037735 -0.001596 210650.000000 0 0 1
29.398498 -19.664429 -30.710317 46.841061 -0.589542 2.285811 0.048958 -0.008867 437121.000000 0 0 1
28.560598 -18.917629 -31.736117 46.698668 -0.585021 2.318005 0.055490 -0.001323 79558.100000 0 0 1
29.038998 -19.363629 -32.974417 48.015890 -0.588105 2.327791 0.053638 -0.008292 35443.400000 0 0 1
28.106598 -19.022029 33.681799 47.815082 -0.594973 0.789194 0.080328 -0.013378 43134.300000 0 0 1
28.598498 -19.415229 32.264699 47.284628 -0.596417 0.819823 0.083965 -0.008323 737776.000000 0 0 1
29.624498 -18.532829 31.732199 47.201791 -0.559024 0.833530 0.055357 -0.007411 828174.000000 0 0 1
29.633698 -18.615929 30.322499 46.305106 -0.560898 0.856824 0.054046 -0.015654 342061.000000 0 0 1
28.406198 -17.943229 29.626899 44.795365 -0.563378 0.848135 0.044335 -0.001944 291103.000000 0 0 1
28.417598 -16.561329 29.984999 44.507726 -0.527665 0.831588 0.058311 -0.012690 380352.000000 0 0 1
27.428498 -15.791129 29.307899 43.135081 -0.522375 0.823791 0.045621 -0.009788 235113.000000 0 0 1
27.146698 -14.452429 29.984399 42.952068 -0.489217 0.798070 0.061476 -0.013480 44141.800000 0 0 1
28.320098 -13.682229 29.815899 43.338426 -0.450059 0.812097 0.064515 -0.007942 291211.000000 0 0 1
28.129598 -12.392929 30.372099 43.212537 -0.414981 0.791395 0.086396 -0.020268 412458.000000 0 0 1
29.387198 -11.459329 30.480399 43.863178 -0.371807 0.802519 0.068300 -0.022156 402753.000000 0 0 1
29.942998 -11.137229 29.233599 43.303860 -0.356092 0.829722 0.059853 -0.017028 668830.000000 0 0 1
31.327198 -10.767829 29.373799 44.273689 -0.331071 0.845363 0.053278 -0.016125 899754.000000 0 0 1
31.928398 -10.114029 28.069899 43.699376 -0.306772 0.873248 0.053711 -0.014260 -198386.000000 0 0 1
31.552358 -8.773429 27.861599 42.997594 -0.271208 0.865866 0.054520 -0.017759 49699.300000 0 0 1
32.026578 -8.261329 26.625599 42.460261 -0.252449 0.893009 0.056589 -0.013094 -114171.000000 0 0 1
31.853038 -6.749029 26.446499 41.947381 -0.208792 0.888640 0.063183 -0.017799 -471691.000000 0 0 1
30.520678 -6.354329 26.581199 40.968884 -0.205265 0.864771 0.070957 -0.017308 -643821.000000 0 0 1
30.410398 -4.994229 26.355499 40.550548 -0.162775 0.863288 0.091767 -0.020419 352781.000000 0 0 1
28.954398 -4.504629 26.123799 39.256869 -0.154339 0.842689 0.089953 -0.016927 187588.000000 0 0 1
28.487798 -4.856029 24.818899 38.093483 -0.168837 0.861202 0.095623 -0.016556 -221914.000000 0 0 1
27.112698 -4.575029 24.791099 37.021992 -0.167166 0.837084 0.107922 -0.022882 -331628.000000 0 0 1
26.389098 -4.983429 23.463099 35.661409 -0.186646 0.852715 0.114266 -0.021257 -176254.000000 0 0 1
26.745298 -4.187029 22.355099 35.108299 -0.155291 0.880524 0.126009 -0.017170 22530.100000 0 0 1
26.254698 -4.621529 21.109999 34.004408 -0.174242 0.901031 0.139848 -0.015305 22707.600000 0 0 1
26.586098 -3.648129 19.965899 33.447968 -0.136368 0.931135 0.162680 -0.018655 188386.000000 0 0 1
25.647598 -2.594229 19.944799 32.593317 -0.100806 0.912299 0.159444 -0.016074 119752.000000 0 0 1
26.086898 -1.610929 19.042799 32.338051 -0.061674 0.941140 0.151169 -0.029237 -459701.000000 0 0 1
24.992598 -0.667429 18.580799 31.149984 -0.026699 0.931670 0.123993 -0.033972 -18802.700000 0 0 1
24.076998 -1.336029 17.695299 29.910039 -0.055433 0.937733 0.140593 -0.035560 600493.000000 0 0 1
22.954898 -0.568929 17.279299 28.737175 -0.024780 0.925685 0.141148 -0.036622 -222124.000000 0 0 1
21.791098 -1.330629 16.728799 27.504095 -0.060987 0.916968 0.162493 -0.034676 -876328.000000 0 0 1
21.998398 -1.895729 15.449899 26.948519 -0.085963 0.960254 0.176797 -0.044408 273283.000000 0 0 1
20.850198 -2.548329 14.907699 25.757799 -0.121618 0.953584 0.183396 -0.046102 34884.100000 0 0 1
21.000498 -3.031029 13.448699 25.121217 -0.143341 1.005872 0.198250 -0.063844 -126431.000000 0 0 1
19.890198 -3.775029 12.974099 24.045750 -0.187563 1.000883 0.203325 -0.061594 618538.000000 0 1 0
20.076698 -4.333929 11.692199 23.633964 -0.212606 1.053284 0.192581 -0.054555 -165392.000000 0 1 0
19.030698 -5.424729 11.381499 22.828352 -0.277687 1.048850 0.177126 -0.055446 -98314.500000 0 1 0
19.256698 -6.650829 12.124899 23.707955 -0.332551 1.033951 0.194933 -0.058729 828535.000000 0 1 0
18.096198 -7.474329 12.185299 23.061212 -0.391691 1.014094 0.169293 -0.039581 75009.400000 0 1 0
18.374998 -8.901029 12.599899 23.992214 -0.451098 1.017886 0.190140 -0.054699 -385020.000000 0 1 0
19.121398 -9.539729 11.586799 24.308192 -0.462770 1.073942 0.168678 -0.057753 436358.000000 0 1 0
18.806498 -10.901729 11.429799 24.559568 -0.525343 1.086720 0.187342 -0.057068 -90719.000000 0 1 0
19.332298 -11.569829 10.129799 24.702460 -0.539295 1.148263 0.169523 -0.052388 80634.800000 0 1 0
18.607198 -11.101729 8.988499 23.457820 -0.537942 1.177563 0.149944 -0.041168 631597.000000 0 1 0
19.255498 -11.410329 7.764299 23.690803 -0.534942 1.236891 0.155635 -0.056950 60134.700000 0 1 0
18.695398 -10.606329 6.565099 22.474711 -0.516046 1.274363 0.124075 -0.042011 -210124.000000 0 1 0
19.158898 -9.288129 6.527299 22.269673 -0.451409 1.273326 0.122468 -0.034562 536475.000000 0 1 0
19.493398 -8.915729 5.191999 22.055377 -0.428967 1.333159 0.091542 -0.035306 -57847.700000 0 1 0
20.267198 -7.535029 4.978999 22.188430 -0.355949 1.344473 0.144300 -0.037451 299287.000000 0 1 0
20.849798 -7.385229 3.673199 22.422044 -0.340421 1.406234 0.130572 -0.024200 754195.000000 0 1 0
21.552198 -6.149829 3.657699 22.708950 -0.277959 1.409023 0.173878 -0.025137 -203816.000000 0 1 0
22.215498 -5.728829 2.344099 23.061714 -0.252377 1.468976 0.178606 -0.029965 -179615.000000 0 1 0
21.287898 -5.396929 1.324599 22.001273 -0.248290 1.510554 0.148798 -0.042232 402449.000000 0 1 0
21.843498 -4.907029 0.124299 22.388229 -0.220976 1.565244 0.155762 -0.028713 12561.600000 0 1 0
-25.231656 -15.542029 -0.450501 29.637713 0.552082 1.585997 0.134938 -0.009288 329593.000000 0 0 1
-24.257876 -14.536129 -0.826601 28.291816 0.539856 1.600017 0.101532 0.002155 1051060.000000 0 0 1
-23.000976 -14.659229 -0.159101 27.275689 0.567417 1.576629 0.113567 0.012621 520732.000000 0 0 1
-22.930376 -14.182629 1.269599 26.991869 0.553918 1.523743 0.135764 -0.013218 -793143.000000 0 0 1
-23.616976 -14.973729 2.178399 28.048521 0.565062 1.493053 0.129633 0.002668 -72254.000000 0 0 1
-23.240376 -14.604529 3.518999 27.672923 0.561049 1.443287 0.123723 -0.000409 283246.000000 0 0 1
-24.028576 -15.425629 4.574599 28.917978 0.570710 1.411937 0.145103 0.000899 -257732.000000 0 0 1
-23.620476 -16.761629 4.678799 29.338886 0.617155 1.410638 0.170834 -0.027446 118904.000000 0 0 1
-24.205276 -17.497629 5.739699 30.413920 0.625920 1.380938 0.182044 -0.032033 -183169.000000 0 0 1
-24.339576 -19.022429 5.487199 31.374784 0.663385 1.395000 0.157757 -0.028870 25565.100000 0 0 1
-25.001276 -19.689629 6.537099 32.488135 0.667100 1.368198 0.169137 -0.037980 40218.400000 0 0 1
-25.204476 -21.040229 6.126499 33.398964 0.695592 1.386318 0.165864 -0.044828 -125554.000000 0 0 1
-25.803926 -21.950829 7.185699 34.631138 0.704887 1.361785 0.166071 -0.045770 -343348.000000 0 0 1
-24.942376 -22.248729 8.260599 34.429138 0.728380 1.328502 0.159444 -0.041121 -630885.000000 0 0 1
-25.539126 -22.819229 9.445899 35.527302 0.729213 1.301683 0.163341 -0.037228 372691.000000 0 0 1
-24.570376 -22.936929 10.681399 35.268943 0.751029 1.263109 0.138187 -0.040544 370016.000000 0 0 1
-24.004376 -21.738029 11.153699 34.251379 0.735893 1.239105 0.138732 -0.031989 46432.500000 0 0 1
-23.275076 -22.051029 12.328599 34.350711 0.758399 1.203703 0.128120 -0.032368 -113565.000000 0 0 1
-23.871176 -21.263529 13.494999 34.699938 0.727688 1.171353 0.107714 -0.016416 760672.000000 0 0 1
-25.191476 -21.759429 13.779599 36.027219 0.712429 1.178320 0.115231 -0.019828 386469.000000 0 0 1
-25.622506 -21.379329 15.043299 36.604499 0.695365 1.147280 0.103368 -0.006690 -412661.000000 0 0 1
-26.992356 -22.009429 15.345199 38.058867 0.684058 1.155789 0.088540 -0.006525 -582851.000000 0 0 1
-27.974596 -21.488729 14.464399 38.125612 0.655017 1.181662 0.091110 -0.001977 -98721.800000 0 0 1
-28.529486 -22.425629 13.590899 38.749876 0.666177 1.212442 0.090383 -0.006374 381784.000000 0 0 1
-29.565976 -23.513329 14.081199 40.315056 0.671858 1.213995 0.081702 -0.007932 167855.000000 0 0 1
-29.071816 -24.233529 15.224499 40.794850 0.694881 1.188344 0.069494 -0.004975 202222.000000 0 0 1
-29.938396 -25.285549 15.701999 42.216339 0.701343 1.189697 0.055334 -0.005940 110978.000000 0 0 1
-29.889556 -26.675179 14.987899 42.773681 0.728633 1.212798 0.063516 -0.010385 22059.700000 0 0 1
-30.513416 -26.681629 13.740399 42.799257 0.718503 1.243966 0.067627 -0.025582 359967.000000 0 0 1
-31.902406 -26.998019 13.767599 44.002310 0.702324 1.252569 0.083679 -0.037254 476011.000000 0 0 1
-32.552186 -27.446319 12.405399 44.349060 0.700503 1.287292 0.102074 -0.044399 433447.000000 0 0 1
-31.955446 -28.683549 11.940399 44.569828 0.731493 1.299580 0.101305 -0.050089 318129.000000 0 0 1
-32.610126 -29.105169 10.777099 45.018630 0.728667 1.329057 0.103762 -0.040218 -2657.600000 0 0 1
-32.006996 -30.371279 10.129799 45.271130 0.759182 1.345127 0.102178 -0.050619 -178309.000000 0 0 1
-32.253586 -31.566809 10.862899 46.419390 0.774637 1.334590 0.092411 -0.045139 20356.300000 0 0 1
-31.623766 -32.674409 10.273299 46.617810 0.801737 1.348600 0.103680 -0.042886 -366563.000000 0 0 1
-31.747516 33.759558 11.027499 47.636312 -0.816103 1.337184 0.095056 -0.044221 1089130.000000 0 0 1
-33.105776 33.251013 11.112499 48.219393 -0.787587 1.338249 0.082185 -0.031037 1085960.000000 0 0 1
-33.153156 31.965451 11.694199 47.515009 -0.767161 1.322125 0.103455 -0.028801 344323.000000 0 0 1
-34.581549 31.628968 12.275899 48.445566 -0.740834 1.314607 0.112906 -0.020688 973507.000000 0 0 1
-35.633568 31.482578 11.349199 48.884642 -0.723629 1.336496 0.073047 -0.022070 210952.000000 0 0 1
-36.149596 32.660869 10.777699 49.896738 -0.734741 1.353080 0.083015 -0.024719 -1269540.000000 0 0 1
-37.560836 32.585716 10.222399 50.765566 -0.714592 1.368045 0.067035 -0.014846 -618955.000000 0 0 1
37.655288 31.877355 9.021899 50.154573 0.702492 1.389930 0.046212 -0.012667 561255.000000 0 0 1
36.277838 31.722038 8.673099 48.965211 0.718501 1.392729 0.040588 -0.009941 360906.000000 0 0 1
36.034238 31.219898 7.246499 48.225098 0.713936 1.419961 0.048351 -0.013448 -83491.700000 0 0 1
36.378168 29.887978 7.020299 47.601964 0.687768 1.422777 0.058544 -0.014858 109763.000000 0 0 1
36.082648 29.454178 5.691899 46.924448 0.684600 1.449198 0.085213 -0.022250 84445.900000 0 0 1
36.103698 27.925548 5.485599 45.971785 0.658361 1.451186 0.102370 -0.021023 534834.000000 0 0 1
35.117318 27.208448 6.271799 44.864921 0.659177 1.430544 0.095100 -0.020184 598535.000000 0 0 1
35.580068 26.677058 7.507799 45.099598 0.643357 1.403546 0.081050 -0.020499 -335259.000000 0 0 1
34.609568 25.625878 8.056999 43.811221 0.637347 1.385841 0.066228 -0.010120 -292848.000000 0 0 1
34.741438 24.421198 7.404799 43.106769 0.612697 1.398162 0.078870 -0.017912 -21496.900000 0 0 1
33.666678 23.531428 7.612299 41.774639 0.610023 1.387550 0.080338 -0.018824 -528450.000000 0 0 1
33.824588 22.094298 6.950099 40.994691 0.578623 1.400437 0.087254 -0.020289 1256530.000000 0 0 1
35.009538 21.404298 7.425999 41.700806 0.548749 1.391763 0.087284 -0.019082 1177850.000000 0 0 1
36.289898 21.778398 6.948099 42.889759 0.540510 1.408080 0.089523 -0.023885 525225.000000 0 0 1
37.371928 20.650598 6.877399 43.248200 0.504814 1.411097 0.071407 -0.019911 389435.000000 0 0 1
37.025258 19.746198 5.855399 42.368240 0.489945 1.432150 0.093841 -0.029625 581718.000000 0 0 1
-37.612346 18.523098 5.936799 42.344295 -0.457609 1.430130 0.101565 -0.032615 138180.000000 0 0 1
37.407468 17.351798 5.021899 41.540619 0.434319 1.449609 0.110783 -0.040366 -233053.000000 0 0 1
37.656888 17.547798 3.638499 41.703778 0.436073 1.483439 0.123460 -0.037782 153928.000000 0 0 1
37.058208 16.581498 2.798199 40.695046 0.420727 1.501982 0.122996 -0.040715 -327732.000000 0 0 1
-37.381056 16.175198 1.668299 40.764734 -0.408384 1.529860 0.134544 -0.030127 -178526.000000 0 0 1
-36.330236 15.319698 1.930899 39.475404 -0.399054 1.521863 0.142881 -0.044178 -280334.000000 0 0 1
-35.167665 16.029098 2.314299 38.717601 -0.427659 1.510987 0.147978 -0.042816 -881729.000000 0 0 1
-33.860056 15.257998 2.221999 37.205472 -0.423369 1.511038 0.144031 -0.038712 -380231.000000 0 0 1
-33.657216 14.411498 3.371699 36.767755 -0.404565 1.478965 0.166932 -0.047328 -918961.000000 0 0 1
-32.331146 14.052598 3.399799 35.416622 -0.410012 1.474654 0.168755 -0.054580 -1162740.000000 0 0 1
-31.867756 13.274498 4.610999 34.828544 -0.394691 1.438015 0.196995 -0.047984 -178046.000000 0 0 1
-32.330026 11.929598 4.643699 34.772256 -0.353495 1.436850 0.223190 -0.056194 145560.000000 0 0 1
-31.788576 11.182998 5.712599 34.179040 -0.338271 1.402871 0.207100 -0.034053 -185299.000000 0 0 1
-32.213016 9.743698 5.846999 34.158534 -0.293728 1.398777 0.236133 -0.053977 -1121300.000000 0 0 1
-33.366516 9.414598 6.499699 35.273292 -0.275008 1.385470 0.241592 -0.045693 -1064180.000000 0 0 1
-33.533286 8.026798 6.482599 35.084681 -0.234947 1.384958 0.267280 -0.049274 688632.000000 0 0 1
-34.995423 7.497398 6.210999 36.324470 -0.211049 1.398965 0.249034 -0.036063 1281190.000000 0 0 1
-35.912234 7.615298 7.311299 37.431756 -0.208958 1.374209 0.236361 -0.031184 -389130.000000 0 0 1
-37.131156 7.007198 7.070899 38.442440 -0.186521 1.385808 0.184780 -0.033311 -412291.000000 0 0 1
37.658898 6.317298 8.301299 39.077006 0.166203 1.356731 0.174296 -0.033048 -73670.500000 0 0 1
37.052538 7.214498 9.239699 38.862728 0.192304 1.330745 0.186853 -0.032830 92829.300000 0 0 1
-37.498516 7.810898 10.157499 39.627309 -0.205362 1.311577 0.197722 -0.032629 -185260.000000 0 0 1
37.191558 8.660598 11.239499 39.806335 0.228787 1.284549 0.167811 -0.027231 -265225.000000 0 0 1
36.618928 7.896598 12.232499 39.407311 0.212390 1.255170 0.161148 -0.028708 314508.000000 0 0 1
35.872608 8.729198 13.103999 39.175984 0.238700 1.229732 0.171471 -0.028247 -35926.100000 0 0 1
35.145078 8.056898 14.303799 38.790318 0.225353 1.193136 0.177167 -0.041846 535339.000000 0 0 1
33.821338 7.527498 14.117499 37.414568 0.218997 1.183889 0.182094 -0.051590 948442.000000 0 0 1
33.365838 6.798698 15.258399 37.313807 0.201010 1.149525 0.179289 -0.043918 436559.000000 0 0 1
31.814808 6.858998 15.373699 35.994145 0.212341 1.129495 0.160962 -0.043450 -146964.000000 0 0 1
31.303468 8.143198 15.672899 35.942434 0.254497 1.119585 0.130800 -0.044811 535132.000000 0 0 1
29.880498 8.144798 15.713199 34.728757 0.266114 1.101280 0.126941 -0.032333 646225.000000 0 0 1
29.119598 7.579198 16.966499 34.543557 0.254629 1.057373 0.104916 -0.037739 -238032.000000 0 0 1
29.195998 8.417898 18.154499 35.395666 0.280710 1.032235 0.125193 -0.046298 290787.000000 0 0 1
28.261198 8.042098 19.163899 35.080275 0.277235 0.992871 0.103201 -0.032612 -249748.000000 0 0 1
28.726298 6.941698 20.185499 35.788850 0.237104 0.971555 0.097624 -0.026650 341105.000000 0 0 1
27.808198 6.659398 21.243299 35.621921 0.235050 0.931844 0.065401 -0.010121 249379.000000 0 0 1
28.408398 5.680998 22.046399 36.405419 0.197372 0.920302 0.064739 -0.010397 -532264.000000 0 0 1
27.552298 5.398898 23.299799 36.485036 0.193499 0.878103 0.075831 -0.006621 530062.000000 0 0 1
26.302598 4.859398 22.865299 35.188952 0.182690 0.863493 0.041549 -0.012180 -34880.600000 0 0 1
25.287398 5.821998 22.968799 34.654205 0.226290 0.846245 0.067441 -0.006041 -1817650.000000 0 0 1
23.858098 5.482998 22.730299 33.405667 0.225895 0.822444 0.088405 -0.023215 -1266910.000000 0 0 1
23.742198 4.788798 21.473099 32.368481 0.199030 0.845449 0.095200 -0.023712 -301028.000000 0 0 1
22.442898 4.841298 20.967299 31.092595 0.212461 0.830712 0.089874 -0.021464 -496172.000000 0 0 1
21.428098 3.723498 21.417199 30.524158 0.172049 0.793089 0.118606 -0.024491 1197890.000000 0 0 1
20.219698 3.583098 20.637599 29.113318 0.175388 0.782899 0.111667 -0.029835 1064430.000000 0 0 1
19.102498 4.329498 21.066299 28.765239 0.222880 0.749026 0.134579 -0.032582 -627860.000000 0 0 1
17.842798 4.013398 20.289099 27.315204 0.221249 0.733588 0.164536 -0.033711 -275751.000000 0 0 1
17.129098 2.823198 20.682199 27.002404 0.163350 0.698295 0.148593 -0.028019 100789.000000 0 0 1
15.830498 2.703298 20.162599 25.776790 0.169134 0.672608 0.158438 -0.036628 -398508.000000 0 0 1
15.011998 1.729798 21.014599 25.883695 0.114722 0.623422 0.159999 -0.029174 -560257.000000 0 0 1
15.276998 0.391598 20.783799 25.797409 0.025628 0.634017 0.125128 -0.031505 711045.000000 0 0 1
14.230798 -0.400602 21.368199 25.676371 -0.028143 0.587710 0.122759 -0.033437 416233.000000 0 0 1
14.488398 -1.917602 21.377599 25.895803 -0.131589 0.599667 0.089515 -0.017404 -82308.700000 0 0 1
14.127598 -2.591602 20.201599 24.787296 -0.181425 0.618070 0.092780 -0.015170 132684.000000 0 1 0
14.214298 -3.955502 20.571699 25.315747 -0.271410 0.622189 0.100958 -0.006285 -174105.000000 0 0 1
13.877298 -4.869002 19.379499 24.328000 -0.337442 0.649159 0.110610 -0.015460 -330459.000000 0 1 0
12.549898 -4.684702 18.977999 23.229525 -0.357267 0.614646 0.096985 -0.017357 -473678.000000 0 1 0
12.371398 -5.380202 17.768299 22.309427 -0.410218 0.649398 0.099811 -0.018148 -296298.000000 0 1 0
10.916898 -5.289502 17.301999 21.130941 -0.451191 0.611480 0.088382 -0.017955 101374.000000 0 1 0
10.073898 -5.947302 18.259999 21.685972 -0.533307 0.569781 0.085831 -0.014446 716021.000000 0 1 0
8.671398 -5.827902 17.945399 20.765234 -0.591743 0.527230 0.060131 -0.028106 779156.000000 0 1 0
7.830698 -6.745102 18.899399 21.540741 -0.711056 0.500424 0.046761 -0.031753 -239931.000000 0 1 0
7.961298 -8.126502 18.681199 21.872574 -0.795667 0.546993 0.064192 -0.036438 -298969.000000 0 1 0
8.995098 -8.745202 19.373499 23.080789 -0.771313 0.574659 0.107467 -0.040799 -175705.000000 0 1 0
8.876398 -10.264402 18.974199 23.327422 -0.857787 0.620847 0.135509 -0.046878 91152.200000 0 1 0
9.052098 -10.351002 17.583199 22.321573 -0.852242 0.663694 0.109177 -0.034499 24337.300000 0 1 0
9.506798 -11.622302 17.272999 22.886975 -0.885188 0.715586 0.140368 -0.045883 81618.200000 0 1 0
9.616398 -11.794102 15.757499 21.906043 -0.886762 0.767970 0.136620 -0.040360 118362.000000 0 1 0
10.028298 -13.071602 15.352299 22.519472 -0.916389 0.820666 0.117249 -0.033782 -104280.000000 0 1 0
9.870898 -13.176302 13.952899 21.580847 -0.927846 0.867755 0.095988 -0.027698 -547459.000000 0 1 0
10.710398 -14.292302 13.360099 22.304142 -0.927691 0.928549 0.127717 -0.033780 1276730.000000 0 1 0
12.080498 -13.934202 13.012099 22.570227 -0.856534 0.956338 0.108921 -0.037438 1303570.000000 0 1 0
12.226398 -13.252502 11.798199 21.547880 -0.825649 0.991382 0.068235 -0.030184 21021.000000 0 1 0
13.687398 -12.799602 11.470699 21.971609 -0.751893 1.021521 0.113632 -0.039980 773152.000000 0 1 0
14.514298 -13.774402 10.854599 22.764475 -0.759249 1.073761 0.123763 -0.039174 436434.000000 0 1 0
15.820098 -13.256102 10.571799 23.189710 -0.697444 1.097432 0.115992 -0.048233 562356.000000 0 1 0
16.650598 -14.262202 9.743499 23.991427 -0.708289 1.152588 0.110945 -0.051898 -265551.000000 0 1 0
17.188698 -15.364002 10.450499 25.312385 -0.729403 1.145203 0.108025 -0.040308 153831.000000 0 0 1
16.256598 -16.245402 11.079399 25.513587 -0.785054 1.121585 0.152595 -0.039271 -59553.300000 0 0 1
16.824698 -17.091902 12.249899 26.930718 -0.793276 1.098573 0.138589 -0.030986 125537.000000 0 0 1
17.867698 -17.997602 11.900099 28.013937 -0.789020 1.132064 0.144445 -0.035805 206697.000000 0 0 1
18.221198 -18.709702 13.029899 29.186354 -0.798625 1.108016 0.100667 -0.030783 923087.000000 0 0 1
19.710898 -19.272002 13.034799 30.493205 -0.774140 1.129109 0.068145 -0.031908 1672630.000000 0 0 1
20.709098 -18.215902 12.979799 30.482142 -0.721434 1.130932 0.076903 -0.034680 52225.800000 0 0 1
21.966498 -18.844402 13.028699 31.739337 -0.709045 1.147804 0.062758 -0.036237 3545.050000 0 0 1
22.940898 -18.326902 11.903299 31.683571 -0.674054 1.185652 0.104917 -0.037387 -103106.000000 0 0 1
22.677198 -18.565602 10.467999 31.120988 -0.686034 1.227742 0.095403 -0.018438 945995.000000 0 0 1
21.454798 -17.983702 9.916199 29.699375 -0.697611 1.230373 0.103233 -0.024142 1148730.000000 0 0 1
21.323598 -16.416402 9.943999 28.689322 -0.656097 1.216842 0.147696 -0.043161 225396.000000 0 0 1
22.159098 -15.744202 8.975599 28.626332 -0.617743 1.251874 0.141226 -0.022517 237172.000000 0 0 1
22.039198 -14.364202 9.070699 27.826860 -0.577609 1.238760 0.152250 -0.030925 -43945.500000 0 0 1
-36.542656 24.301471 7.679499 44.552238 -0.586859 1.397560 0.102655 -0.025966 692055.000000 0 0 1
-35.490323 23.766871 8.532899 43.557290 -0.590080 1.373621 0.125989 -0.031839 902818.000000 0 0 1
-34.629005 24.843071 8.922299 43.542549 -0.622313 1.364425 0.132114 -0.030871 -782218.000000 0 0 1
-33.482896 24.294271 9.733799 42.497797 -0.627683 1.339702 0.163827 -0.031912 -560776.000000 0 0 1
-32.626146 23.456871 8.974199 41.173127 -0.623337 1.351070 0.157240 -0.028146 -4634.740000 0 0 1
-31.909696 22.457571 9.631999 40.191374 -0.613262 1.328788 0.153808 -0.024862 -133837.000000 0 0 1
-31.076676 21.626371 8.634599 38.833182 -0.607971 1.346571 0.112191 -0.025422 63286.700000 0 0 1
-31.836416 20.922271 7.631299 38.852741 -0.581406 1.373095 0.117011 -0.033325 302100.000000 0 0 1
-31.040336 19.999271 6.889799 37.562516 -0.572357 1.386330 0.128540 -0.034346 -60100.200000 0 0 1
-31.797846 19.181671 5.816299 37.588147 -0.542797 1.415434 0.123715 -0.030338 -409183.000000 0 0 1
-32.351286 17.955271 6.355599 37.541858 -0.506681 1.400683 0.142916 -0.034928 762372.000000 0 0 1
-33.362026 17.452871 5.471099 38.046818 -0.481985 1.426497 0.110373 -0.039243 92268.800000 0 0 1
-34.065009 16.220071 6.005999 38.204549 -0.444387 1.412935 0.105444 -0.025475 -112720.000000 0 0 1
-35.011233 16.456071 7.048999 39.322730 -0.439379 1.390562 0.082082 -0.021060 811543.000000 0 0 1
-35.846889 15.339071 7.378699 39.682890 -0.404329 1.383766 0.094142 -0.024493 442562.000000 0 0 1
-36.788886 15.577971 8.596199 40.865510 -0.400551 1.358860 0.096942 -0.018465 774188.000000 0 0 1
37.669838 16.640471 8.369199 42.023392 0.415968 1.370300 0.108571 -0.025709 723712.000000 0 0 1
37.017888 16.950471 9.591999 41.828805 0.429404 1.339422 0.112072 -0.020900 -166816.000000 0 0 1
35.954588 18.036971 9.504599 41.332822 0.464975 1.338767 0.082577 -0.017536 755404.000000 0 0 1
34.717908 17.650371 8.846099 39.938981 0.470340 1.347454 0.101658 -0.024031 569770.000000 0 0 1
33.929268 18.769271 8.710999 39.741191 0.505288 1.349809 0.088745 -0.021614 -896924.000000 0 0 1
32.457578 18.577571 8.362099 38.321603 0.519852 1.350818 0.084521 -0.021363 -844106.000000 0 0 1
31.872828 19.825771 8.300299 38.442598 0.556459 1.353168 0.084412 -0.021703 -729923.000000 0 0 1
30.481308 19.763571 8.110299 37.222115 0.575238 1.351145 0.058880 -0.012596 -188363.000000 0 0 1
30.045598 19.828571 6.626299 36.603525 0.583338 1.388764 0.060218 -0.008103 -906517.000000 0 0 1
29.960298 18.521571 6.078099 35.743690 0.553697 1.399919 0.080932 -0.016796 168129.000000 0 0 1
29.614598 18.515971 4.705999 35.242191 0.558766 1.436863 0.081260 -0.030359 -989979.000000 0 0 1
28.196598 18.885771 4.373599 34.217669 0.590161 1.442629 0.107309 -0.032006 -2377660.000000 0 0 1
27.218298 17.961971 4.895199 32.976221 0.583319 1.421799 0.114591 -0.035272 1274980.000000 0 0 1
25.861898 18.365671 4.643299 32.057696 0.617502 1.425443 0.128216 -0.032015 729023.000000 0 0 1
25.346298 19.764171 4.991799 32.526533 0.662281 1.416719 0.127577 -0.025404 -1398370.000000 0 0 1
25.927498 20.809171 4.290499 33.521115 0.676319 1.442450 0.106625 -0.023677 80161.400000 0 0 1
25.368198 22.025171 4.800499 33.936683 0.714977 1.428866 0.110971 -0.016909 -24981.900000 0 0 1
26.284498 23.212871 4.448499 35.348287 0.723421 1.444614 0.078649 -0.007865 519515.000000 0 0 1
27.507998 23.061971 5.195199 36.270299 0.697705 1.427066 0.083224 -0.014057 485635.000000 0 0 1
28.330298 24.183471 4.962199 37.577513 0.706595 1.438357 0.082471 -0.007290 837323.000000 0 0 1
29.796798 24.086071 5.593299 38.720447 0.679808 1.425836 0.072719 -0.010302 1288840.000000 0 0 1
30.638128 22.966371 5.288499 38.653814 0.643246 1.433549 0.065370 -0.011730 462337.000000 0 0 1
31.007338 22.820971 3.936299 38.700726 0.634472 1.468909 0.070018 -0.019314 -307661.000000 0 0 1
31.877608 23.922471 3.255199 39.988284 0.643787 1.489302 0.102830 -0.030929 -538438.000000 0 0 1
31.230718 25.149371 3.118999 40.219110 0.677950 1.493168 0.074645 -0.026461 -515653.000000 0 0 1
32.112118 26.156371 2.720299 41.505950 0.683540 1.505209 0.133245 -0.022887 -414483.000000 0 0 1
31.556258 27.652071 2.873999 42.055848 0.719554 1.502405 0.122200 -0.020489 1005170.000000 0 0 1
30.332698 28.048471 2.218499 41.372830 0.746292 1.517148 0.140593 -0.026991 1035680.000000 0 0 1
29.214798 27.659671 3.032399 40.345474 0.758062 1.495565 0.095880 -0.011176 -565258.000000 0 0 1
27.854998 28.142371 2.590599 39.681295 0.790530 1.505465 0.070278 -0.002699 -582706.000000 0 0 1
27.795698 29.582071 2.580599 40.673815 0.816522 1.507307 0.057478 -0.016139 1224410.000000 0 0 1
26.438398 30.067371 2.379299 40.108562 0.849533 1.511440 0.050101 -0.004096 1340700.000000 0 0 1
26.144998 31.470871 2.976899 41.022416 0.877574 1.498165 0.054628 -0.016362 -301808.000000 0 0 1
26.048998 31.564871 4.388699 41.160079 0.880846 1.463968 0.054994 -0.032661 569809.000000 0 0 1
27.239998 31.698471 5.176099 42.114161 0.860901 1.447578 0.062289 -0.037365 464613.000000 0 0 1
26.849298 31.341571 6.634299 41.799436 0.862444 1.411405 0.065191 -0.044263 132500.000000 0 0 1
26.501198 30.030771 7.005099 40.659957 0.847752 1.397647 0.078641 -0.049262 113206.000000 0 0 1
27.466598 29.019871 6.812199 40.533603 0.812889 1.401932 0.072588 -0.044701 219089.000000 0 0 1
26.838898 27.650771 7.242699 39.209033 0.800297 1.385009 0.100702 -0.046422 68595.800000 0 0 1
25.646998 27.309571 6.585899 38.038865 0.816783 1.396783 0.081096 -0.050930 -124166.000000 0 0 1
25.197198 25.991971 6.938099 36.859443 0.800923 1.381435 0.102486 -0.042652 581724.000000 0 0 1
23.748598 25.693271 6.387599 35.566016 0.824710 1.390218 0.103610 -0.024680 742092.000000 0 0 1
23.554798 25.528771 4.972099 35.089435 0.825593 1.428620 0.074017 -0.023497 223732.000000 0 0 1
23.769398 26.760871 4.279799 36.047818 0.844531 1.451790 0.068753 -0.013914 -376429.000000 0 0 1
23.761098 26.537671 2.774099 35.728608 0.840544 1.493074 0.057738 0.000910 47442.300000 0 0 1
24.901798 25.883471 2.245799 35.987459 0.804726 1.508351 0.046748 0.015324 274779.000000 0 0 1
24.738098 25.753071 0.854999 35.720095 0.805497 1.546858 0.063418 0.012995 352452.000000 0 0 1
25.972898 25.157571 0.136799 36.159557 0.769454 1.567013 0.081445 0.002811 757915.000000 0 0 1
27.221498 25.913371 0.148199 37.583703 0.760784 1.566853 0.077902 0.009241 2492020.000000 0 0 1
28.359798 25.216571 -0.483601 37.952437 0.726797 1.583539 0.098307 0.002506 1587480.000000 0 0 1
28.968998 23.959671 0.220299 37.594112 0.691036 1.564936 0.091652 -0.006791 -143874.000000 0 0 1
28.024098 22.894071 0.139599 36.187126 0.684987 1.566939 0.089092 -0.009645 705456.000000 0 0 1
28.548998 21.753571 0.771899 35.900682 0.651120 1.549294 0.093121 -0.017653 -272862.000000 0 0 1
27.405898 20.880571 1.297599 34.478475 0.651074 1.533152 0.096615 -0.017067 -215583.000000 0 0 1
27.061998 19.793671 0.552799 33.532771 0.631503 1.554310 0.117758 -0.036079 -134359.000000 0 0 1
25.830198 19.263571 0.924099 32.235668 0.640793 1.542125 0.105119 -0.032219 -656937.000000 0 0 1
25.413498 17.974371 0.118899 31.127770 0.615593 1.566977 0.117237 -0.032273 735000.000000 0 0 1
24.049398 17.618571 0.401499 29.815244 0.632271 1.557330 0.104296 -0.034230 923337.000000 0 0 1
23.528898 16.601471 -0.432501 28.799391 0.614460 1.585815 0.131225 -0.059730 182947.000000 0 0 1
22.024398 16.303271 -0.256701 27.403223 0.637223 1.580164 0.111724 -0.042941 -762825.000000 0 0 1
21.527598 15.347871 -1.165201 26.464170 0.619357 1.614840 0.123633 -0.046031 675568.000000 0 0 1
20.107498 15.235371 -1.086401 25.250906 0.648408 1.613834 0.136863 -0.041526 593143.000000 0 0 1
19.223298 16.348671 -1.694401 25.291999 0.704762 1.637840 0.145630 -0.038129 -730652.000000 0 0 1
19.101098 17.521471 -0.901801 25.935827 0.742292 1.605574 0.115661 -0.031503 213073.000000 0 0 1
18.072298 18.360071 -1.384001 25.799528 0.793297 1.624467 0.087966 -0.033711 -22103.200000 0 0 1
17.979998 19.837571 -0.796401 26.785142 0.834478 1.600534 0.076448 -0.020997 -24127.700000 0 0 1
17.664298 19.850571 0.603699 26.578884 0.843610 1.548081 0.082620 -0.018829 192131.000000 0 0 1
17.896198 21.181171 1.097299 27.751036 0.869264 1.531245 0.091046 -0.018608 642433.000000 0 0 1
16.778698 22.292871 0.877199 27.915341 0.925602 1.539368 0.073956 -0.025311 688359.000000 0 0 1
15.580498 22.183571 1.618499 27.156625 0.958499 1.511162 0.057956 -0.015467 43300.100000 0 0 1
14.706198 23.216971 1.263699 27.511760 1.006162 1.524847 0.047654 -0.015560 144655.000000 0 0 1
13.251098 23.068071 1.782899 26.662825 1.049387 1.503878 0.047326 -0.015230 328326.000000 0 0 1
13.048898 23.407571 3.133799 26.981639 1.062240 1.454388 0.042557 -0.004170 -635580.000000 0 0 1
11.703798 23.258071 3.453299 26.264844 1.104580 1.438935 0.050974 -0.008368 -366124.000000 0 0 1
11.430198 23.556471 4.914099 26.640291 1.119038 1.385273 0.073630 -0.014479 337762.000000 0 0 1
12.220598 22.700471 5.756299 26.415703 1.076948 1.351122 0.079010 -0.033145 673582.000000 0 0 1
11.543398 22.468171 6.983699 26.207648 1.096196 1.301062 0.075083 -0.025606 -129389.000000 0 0 1
12.199898 21.260471 7.710399 25.696214 1.049842 1.266041 0.082977 -0.028913 1512060.000000 0 0 1
13.519798 21.341771 8.311899 26.595936 1.006115 1.252946 0.109694 -0.033154 830027.000000 0 0 1
14.607698 21.393271 7.466499 26.959330 0.971696 1.290173 0.096875 -0.027032 -1089720.000000 0 0 1
15.952198 21.571871 8.178099 28.048165 0.934055 1.274925 0.120148 -0.033909 -523587.000000 0 0 1
16.399098 20.413171 8.849599 27.639526 0.894011 1.244878 0.139566 -0.036945 306049.000000 0 0 1
17.686398 20.541871 9.426599 28.699093 0.859955 1.236120 0.119884 -0.039082 53584.200000 0 0 1
17.804798 21.333871 10.713599 29.781304 0.875323 1.202804 0.084835 -0.032813 -564946.000000 0 0 1
17.134498 20.828071 11.839499 29.454597 0.882388 1.157143 0.101702 -0.042981 18074.200000 0 0 1
17.407698 21.608271 12.956599 30.623827 0.892648 1.133945 0.107402 -0.047480 24534.800000 0 0 1
18.541198 20.965471 13.840599 31.223216 0.846685 1.111543 0.100561 -0.030144 1460690.000000 0 0 1
19.867998 21.453071 13.549999 32.226916 0.823739 1.136849 0.106059 -0.031485 450814.000000 0 0 1
20.784898 21.008771 14.509899 32.922904 0.790755 1.114392 0.101892 -0.026265 -724720.000000 0 0 1
22.227998 21.439871 14.278199 34.023800 0.767352 1.137733 0.115565 -0.032574 -480411.000000 0 0 1
22.840098 20.683671 13.278999 33.553184 0.735893 1.163901 0.129243 -0.035334 -551477.000000 0 0 1
24.211798 20.928571 13.206099 34.621053 0.712792 1.179435 0.137844 -0.032133 -646797.000000 0 0 1
24.908898 20.411371 11.986599 34.362128 0.686483 1.214472 0.136438 -0.033557 -294947.000000 0 0 1
24.602998 21.071571 10.816699 34.151422 0.708235 1.248519 0.145287 -0.028088 254880.000000 0 0 1
25.467698 20.677671 9.774399 34.230229 0.681966 1.281217 0.162667 -0.042800 -297485.000000 0 0 1
25.445198 21.673871 8.598599 34.513051 0.705530 1.319004 0.140826 -0.041852 102223.000000 0 0 1
25.995498 22.977671 8.820799 35.798684 0.723854 1.321832 0.124825 -0.039108 1174930.000000 0 0 1
27.430798 23.058071 8.846899 36.910580 0.699006 1.328755 0.101839 -0.041415 528641.000000 0 0 1
27.907898 24.419571 9.430099 38.263468 0.718833 1.321779 0.106482 -0.042034 -215388.000000 0 0 1
29.137798 24.810571 8.853299 39.280487 0.705359 1.343456 0.088211 -0.031084 47748.100000 0 0 1
29.594998 25.872471 9.618399 40.469276 0.718387 1.330828 0.084995 -0.028824 -145101.000000 0 0 1
30.855208 26.592671 9.115499 41.740943 0.711336 1.350639 0.072597 -0.028342 -72169.000000 0 0 1
30.663118 27.418671 8.013599 41.907375 0.729596 1.378390 0.082224 -0.033148 915094.000000 0 0 1
31.946288 27.834771 7.490699 43.028483 0.716730 1.395818 0.069513 -0.021995 549484.000000 0 0 1
31.942548 28.655471 6.193499 43.356912 0.731207 1.427457 0.095025 -0.021198 85788.400000 0 0 1
31.461878 29.986271 6.432199 43.936311 0.761389 1.423870 0.109655 -0.027144 162570.000000 0 0 1
31.465538 30.805971 5.275899 44.350006 0.774807 1.451553 0.123717 -0.035760 90548.600000 0 0 1
31.446908 32.325971 5.665999 45.453052 0.799182 1.445815 0.084424 -0.031182 -396730.000000 0 0 1
30.307498 32.715271 6.360999 45.047705 0.823584 1.429117 0.075039 -0.040404 -514659.000000 0 0 1
30.288398 -33.658356 6.704199 45.773554 -0.838049 1.423803 0.074398 -0.028060 -336869.000000 0 0 1
28.917298 -33.059056 7.032999 44.481169 -0.852127 1.412018 0.092311 -0.035549 585576.000000 0 0 1
27.978298 -33.013656 5.906499 43.675776 -0.867769 1.435146 0.085498 -0.038229 1372860.000000 0 0 1
26.698298 -32.462056 6.321699 42.503507 -0.882518 1.421509 0.084774 -0.040960 860148.000000 0 0 1
25.639798 -32.654356 5.244599 41.847485 -0.905153 1.445139 0.076234 -0.028189 -503350.000000 0 0 1
25.973398 -31.937556 4.054099 41.364969 -0.888025 1.472631 0.058832 -0.014622 -42323.400000 0 0 1
25.102698 -32.131656 2.939099 40.880644 -0.907596 1.498840 0.065550 -0.020375 145073.000000 0 0 1
25.534598 -31.315056 1.687399 40.441263 -0.886730 1.529060 0.069689 -0.009165 87458.200000 0 0 1
25.559798 -29.907056 1.891899 39.386731 -0.863614 1.522744 0.080774 -0.005008 188224.000000 0 0 1
26.260898 -29.153856 0.887399 39.247542 -0.837556 1.548184 0.072919 0.001596 -216050.000000 0 0 1
26.190798 -27.608556 1.113699 38.071388 -0.811745 1.541539 0.084153 -0.009789 645982.000000 0 0 1
24.905198 -26.976656 1.021799 36.729456 -0.825303 1.542973 0.073246 -0.007350 382693.000000 0 0 1
24.427298 -26.859356 -0.317901 36.307285 -0.832784 1.579552 0.080426 -0.010194 -401069.000000 0 0 1
23.272298 -25.861156 -0.365801 34.792716 -0.838040 1.581310 0.065323 -0.001556 -394734.000000 0 0 1
23.622198 -24.514356 -0.197301 34.044101 -0.803930 1.576592 0.078825 -0.011730 -231292.000000 0 0 1
23.760798 -23.948156 1.136299 33.754716 -0.789325 1.537127 0.063786 -0.001638 -213162.000000 0 0 1
22.506898 -23.844256 2.015299 32.850730 -0.814243 1.509411 0.048309 -0.003678 -290867.000000 0 0 1
22.633698 -23.054056 3.184099 32.464015 -0.794599 1.472558 0.042564 -0.001027 -649838.000000 0 0 1
21.412998 -22.894056 3.844299 31.582162 -0.818813 1.448770 0.058206 -0.003951 -336173.000000 0 0 1
21.517198 -22.279556 5.270599 31.418906 -0.802803 1.402247 0.048397 -0.000425 -146058.000000 0 0 1
21.655498 -20.841756 5.387399 30.534627 -0.766252 1.393432 0.069616 -0.002069 74436.600000 0 0 1
20.654798 -20.031156 4.793799 29.169306 -0.770071 1.405703 0.053552 -0.001602 -443646.000000 0 0 1
20.777998 -18.535556 5.147399 28.315857 -0.728420 1.387995 0.056873 -0.005251 -213913.000000 0 0 1
20.472598 -18.322756 6.504999 28.234123 -0.730040 1.338313 0.089277 -0.012545 342329.000000 0 0 1
19.091198 -18.157256 6.815999 27.214291 -0.760330 1.317644 0.083951 -0.008728 547563.000000 0 0 1
19.728324 -26.263169 -11.928501 34.946387 -0.926541 1.919135 0.119136 -0.026172 129472.000000 0 0 1
19.542324 -24.883729 -12.076101 33.866423 -0.905055 1.935401 0.135496 -0.036614 -1027650.000000 0 0 1
18.329524 -24.651029 -12.693401 33.238037 -0.931429 1.962641 0.089925 -0.031472 -615175.000000 0 0 1
18.178424 -23.182329 -13.224201 32.291717 -0.905795 1.992727 0.082075 -0.037314 -271410.000000 0 0 1
18.196724 -22.063529 -12.316401 31.138623 -0.881150 1.977446 0.094586 -0.034948 -5946.090000 0 0 1
19.470324 -21.555029 -11.921301 31.397933 -0.836170 1.960251 0.083912 -0.034869 -116966.000000 0 0 1
19.779924 -22.098229 -10.477301 31.453950 -0.840700 1.910385 0.103972 -0.028339 326868.000000 0 0 1
18.932924 -21.672429 -9.382801 30.268577 -0.852763 1.885973 0.094282 -0.030391 3307.720000 0 0 1
17.608224 -22.138529 -9.457801 29.826398 -0.898888 1.893461 0.088929 -0.003878 -98004.600000 0 0 1
16.710724 -21.345229 -8.436801 28.390962 -0.906583 1.872519 0.067903 -0.007129 -598502.000000 0 0 1
16.464524 -19.971829 -8.629401 27.284081 -0.881361 1.892602 0.053015 -0.017435 150396.000000 0 0 1
15.542624 -19.487629 -7.687401 26.085187 -0.897543 1.869942 0.057940 -0.024441 -60282.300000 0 0 1
14.043024 -19.666629 -7.996001 25.454250 -0.950701 1.890339 0.042093 -0.009777 -421264.000000 0 0 1
13.598924 -21.012229 -8.066501 26.296634 -0.996398 1.882573 0.040743 -0.008607 -1029300.000000 0 0 1
12.217324 -21.017529 -8.227801 25.665078 -1.044246 1.897142 0.047210 -0.012132 -637119.000000 0 0 1
11.736424 -22.398829 -7.764001 26.452427 -1.088153 1.868691 0.051427 -0.010089 -206090.000000 0 0 1
11.904524 -22.599529 -6.372601 26.326155 -1.085971 1.815288 0.047258 -0.012677 65769.900000 0 0 1
11.425624 -23.867629 -5.985101 27.129874 -1.124327 1.793235 0.025921 -0.007578 17829.500000 0 0 1
11.806624 -24.330229 -4.575301 27.427902 -1.119006 1.738392 0.039419 -0.007280 -663744.000000 0 0 1
11.002624 -25.311419 -4.029701 27.892009 -1.160747 1.715779 0.062600 -0.009258 -574587.000000 0 0 1
11.501724 -25.759499 -2.785701 28.347867 -1.150853 1.669224 0.056565 -0.020454 -985511.000000 0 0 1
10.567124 -26.562329 -1.903701 28.650402 -1.192167 1.637291 0.070919 -0.015797 -546666.000000 0 0 1
9.482124 -25.964249 -1.279301 27.671095 -1.220646 1.617045 0.049457 -0.008090 -249758.000000 0 0 1
8.745524 -26.902029 -0.486301 28.292046 -1.256485 1.587986 0.054650 -0.017390 617976.000000 0 0 1
7.804124 -26.319629 0.609499 27.459037 -1.282541 1.548598 0.053153 -0.009879 229566.000000 0 0 1
6.620624 -25.679489 0.204499 26.520005 -1.318474 1.563085 0.058043 -0.017117 -207485.000000 0 0 1
6.022224 -25.054139 1.305099 25.800782 -1.334903 1.520191 0.062670 -0.017614 -450832.000000 0 0 1
4.569324 -24.581029 1.250499 25.033367 -1.387006 1.520822 0.065376 -0.021852 -43523.800000 0 0 1
3.632424 -25.614169 1.025099 25.890751 -1.429923 1.531193 0.059627 -0.025101 -1379940.000000 0 0 1
2.361724 -25.135849 1.016099 25.266996 -1.477113 1.530571 0.060345 -0.025393 -640184.000000 0 0 1
1.270624 -26.089489 0.352399 26.122789 -1.522132 1.557306 0.079064 -0.021586 861048.000000 0 0 1
0.827824 -27.253819 1.059399 27.286961 -1.540431 1.531962 0.070164 -0.019001 -4558.230000 0 0 1
1.573424 -28.417099 0.755499 28.470651 -1.515484 1.544257 0.057663 -0.021291 -488590.000000 0 0 1
1.231124 -29.633399 1.603699 29.702287 -1.529275 1.516778 0.086140 -0.021414 -158146.000000 0 0 1
1.656224 -29.413659 2.895999 29.602250 -1.514548 1.472809 0.052576 -0.023409 -141881.000000 0 0 1
0.977224 -30.350339 3.642599 30.583763 -1.538609 1.451411 0.096997 -0.027790 -19134.100000 0 0 1
1.061824 -30.100319 5.200899 30.564784 -1.535535 1.399804 0.086866 -0.029217 32879.500000 0 0 1
2.335424 -30.449549 5.726499 31.071241 -1.494248 1.385434 0.035962 -0.013400 138374.000000 0 0 1
2.404324 -30.279279 7.162799 31.207711 -1.491558 1.339212 0.046033 -0.017617 -1212300.000000 0 0 1
3.749224 -30.577839 7.723999 31.760370 -1.448793 1.325137 0.056495 -0.019690 -951262.000000 0 0 1
4.110224 -31.965429 7.446499 33.077680 -1.442915 1.343729 0.056854 -0.016635 131684.000000 0 0 1
5.331324 -32.414819 8.014599 33.813863 -1.407784 1.331498 0.036524 -0.016469 266502.000000 0 0 1
5.609024 33.823128 7.795499 35.160133 1.406458 1.347224 0.018995 -0.003871 -250635.000000 0 0 1
5.690724 33.537417 6.440899 34.621206 1.402714 1.383667 0.012453 0.001327 3296.010000 0 0 1
5.331624 32.188795 6.274499 33.225203 1.406651 1.380808 0.029494 -0.003665 -462448.000000 0 0 1
5.534224 31.776442 4.798999 32.609819 1.398365 1.423096 0.035660 -0.010695 571632.000000 0 0 1
6.857024 31.589638 4.278299 32.607175 1.357047 1.439210 0.046634 -0.008356 54723.300000 0 0 1
7.510024 30.433718 4.671299 31.692786 1.328863 1.422864 0.034698 -0.011556 1032890.000000 0 0 1
8.950524 30.474908 3.967799 32.008989 1.285128 1.446518 0.035391 -0.006281 1052650.000000 0 0 1
9.871424 31.288448 4.628999 33.133663 1.265183 1.430631 0.040453 -0.010596 -1033230.000000 0 0 1
11.057424 31.378958 3.911799 33.499371 1.232000 1.453757 0.045495 -0.015562 -697877.000000 0 0 1
12.289624 31.927324 4.602099 34.519099 1.203353 1.437078 0.062298 -0.034262 -272679.000000 0 0 1
12.880924 30.948578 5.456099 33.963241 1.176399 1.409450 0.067292 -0.029783 -8433.530000 0 0 1
14.066424 31.378458 6.097299 34.923473 1.149371 1.395307 0.096352 -0.032012 249057.000000 0 0 1
14.740824 30.279368 6.947399 34.386020 1.117742 1.367354 0.079356 -0.034303 -360935.000000 0 0 1
14.136824 30.059808 8.222099 34.220532 1.131198 1.328154 0.074674 -0.027975 157889.000000 0 0 1
14.645624 28.969438 8.986899 33.682147 1.102715 1.300710 0.070340 -0.029048 -74391.400000 0 0 1
14.402324 29.208678 10.515299 34.222001 1.112697 1.258476 0.058374 -0.015351 -282923.000000 0 0 1
15.235324 30.151028 11.126399 35.566788 1.102917 1.252624 0.064123 -0.026506 -241496.000000 0 0 1
15.019424 30.362028 12.516099 36.112167 1.111415 1.216864 0.052380 -0.020237 135292.000000 0 0 1
16.085324 31.263008 13.241199 37.569172 1.095603 1.210610 0.062588 -0.014630 893830.000000 0 0 1
17.181124 30.471408 13.702699 37.569425 1.057386 1.197453 0.068814 -0.023862 927879.000000 0 0 1
18.045424 31.075778 14.717899 38.832434 1.044696 1.182070 0.064355 -0.017328 1112090.000000 0 0 1
19.168124 30.177218 15.321699 38.895192 1.004906 1.165901 0.075442 -0.030405 827225.000000 0 0 1
20.428724 30.150208 14.665999 39.261423 0.975287 1.187966 0.067411 -0.032085 378030.000000 0 0 1
20.984024 28.863798 14.604899 38.558413 0.942177 1.182326 0.063809 -0.026350 -134708.000000 0 0 1
22.390324 28.760708 13.966499 39.032910 0.909301 1.204871 0.108257 -0.031029 456899.000000 0 0 1
23.432024 28.788628 14.944099 40.014635 0.887617 1.188054 0.122551 -0.033394 -950679.000000 0 0 1
24.669424 28.680998 14.356399 40.463395 0.860450 1.208097 0.131435 -0.031699 -909820.000000 0 0 1
25.817724 28.709438 15.391699 41.565504 0.838381 1.191465 0.130995 -0.033362 -148147.000000 0 0 1
25.873724 27.578668 16.208599 41.143058 0.817284 1.165863 0.126254 -0.027541 -42143.500000 0 0 1
26.892624 27.842908 17.146599 42.337296 0.802758 1.153818 0.126403 -0.023599 -15804.300000 0 0 1
27.762524 26.657898 17.549299 42.301054 0.765103 1.143000 0.086045 -0.017785 36366.600000 0 0 1
27.027524 25.620378 18.211299 41.455305 0.758677 1.115977 0.090397 -0.019350 238412.000000 0 0 1
26.756024 25.875768 19.639699 42.085128 0.768675 1.085279 0.117003 -0.017143 1790.250000 0 0 1
26.219024 24.555268 20.226999 41.225355 0.752642 1.057967 0.135950 -0.019330 175072.000000 0 0 1
27.168924 23.501348 20.293499 41.258816 0.713143 1.056573 0.081985 -0.012091 580574.000000 0 0 1
26.449424 22.246598 20.314499 40.089426 0.699304 1.039409 0.093795 -0.015121 511145.000000 0 0 1
27.418624 21.070398 20.426699 40.162080 0.655218 1.037231 0.062188 -0.015007 270715.000000 0 0 1
26.726824 19.821098 20.135199 38.892484 0.638115 1.026619 0.058777 -0.005427 365898.000000 0 0 1
27.577524 18.694298 20.058799 38.888971 0.595727 1.028859 0.065019 -0.019502 341177.000000 0 0 1
28.170824 18.160398 21.436799 39.786075 0.572607 1.001782 0.064791 -0.012990 435466.000000 0 0 1
27.149424 17.671198 22.306199 39.331018 0.576998 0.967767 0.056282 -0.003992 345574.000000 0 0 1
27.688324 17.279198 23.558699 40.252035 0.557924 0.945571 0.083411 0.000336 -133538.000000 0 0 1
26.653524 16.616098 24.480899 39.822349 0.557456 0.908724 0.077180 0.000063 -58395.700000 0 0 1
26.358024 15.351198 23.984699 38.802971 0.527386 0.904454 0.070411 -0.007035 -252258.000000 0 0 1
25.392324 14.691798 24.733099 38.371152 0.524530 0.870329 0.081813 -0.006638 -464678.000000 0 0 1
24.846624 13.513898 23.958699 37.067499 0.498142 0.868001 0.087300 -0.010489 -174741.000000 0 0 1
23.772724 12.804098 24.538599 36.486028 0.494052 0.833150 0.073484 -0.015273 175541.000000 0 0 1
23.301624 11.726698 23.701699 35.245591 0.466250 0.833252 0.093340 -0.018930 806848.000000 0 0 1
21.916924 11.189098 24.226799 34.532380 0.472031 0.793201 0.093781 -0.022555 921155.000000 0 0 1
20.808524 12.046798 23.985399 33.962029 0.524787 0.786621 0.110842 -0.036049 813369.000000 0 0 1
19.576824 11.361198 24.231599 33.158698 0.525838 0.751337 0.122707 -0.035005 1273560.000000 0 0 1
18.200224 12.104298 24.132699 32.559935 0.586892 0.735973 0.112989 -0.052204 735476.000000 0 0 1
17.931224 12.788198 25.344299 33.576782 0.619517 0.715422 0.119488 -0.035021 704709.000000 0 0 1
16.742524 13.596098 25.238899 33.198916 0.682057 0.707125 0.117393 -0.042038 136121.000000 0 0 1
16.374124 14.099998 26.617299 34.284144 0.710911 0.681905 0.104922 -0.023251 -420469.000000 0 0 1
15.836324 13.094698 27.387699 34.239544 0.690916 0.643693 0.110373 -0.019354 -162466.000000 0 0 1
15.875124 13.373898 28.762899 35.470905 0.700091 0.625130 0.089240 -0.015464 311753.000000 0 0 1
17.250724 13.046898 29.438899 36.530232 0.647527 0.633640 0.096220 -0.009852 668027.000000 0 0 1
18.188024 14.113398 29.301599 37.263601 0.659917 0.665946 0.127576 -0.037008 -605034.000000 0 0 1
19.489624 13.731798 29.573999 37.987224 0.613786 0.678484 0.113996 -0.017063 -1046530.000000 0 0 1
20.471524 14.834498 29.153999 38.588876 0.627073 0.714375 0.141653 -0.026451 -404777.000000 0 0 1
20.468624 15.282898 27.812999 37.763666 0.641354 0.742913 0.146151 -0.042421 166195.000000 0 0 1
20.772924 14.399698 26.766799 36.814769 0.606145 0.756756 0.135838 -0.037611 -294493.000000 0 0 1
20.645224 15.064298 25.408699 36.038318 0.630366 0.788307 0.113690 -0.036481 291655.000000 0 0 1
21.656424 16.066398 25.261299 36.949467 0.638282 0.818015 0.117482 -0.030225 493279.000000 0 0 1
21.554724 16.614998 23.980199 36.272776 0.656699 0.848503 0.106347 -0.025700 -236014.000000 0 0 1
22.679424 17.576698 23.570199 37.132882 0.659314 0.883108 0.093455 -0.020086 -387944.000000 0 0 1
22.638824 18.207998 22.269399 36.605651 0.677346 0.916804 0.098519 -0.017129 648424.000000 0 0 1
23.866924 18.880298 21.907299 37.497007 0.669269 0.946851 0.094125 -0.013973 845438.000000 0 0 1
23.986324 20.275298 22.641199 38.717637 0.701751 0.946191 0.108768 -0.019518 -830730.000000 0 0 1
23.106124 21.201598 22.182099 38.411538 0.742441 0.955151 0.118635 -0.018016 -565842.000000 0 0 1
23.273724 22.424898 22.856099 39.584638 0.766826 0.955258 0.127890 -0.014562 -305687.000000 0 0 1
22.374424 23.510428 22.320799 39.390014 0.810151 0.968348 0.135209 -0.027116 -371580.000000 0 0 1
22.838224 24.182248 21.117399 39.399368 0.813974 1.005124 0.146847 -0.029594 247275.000000 0 0 1
22.206524 25.452708 20.793199 39.665189 0.853406 1.019000 0.137655 -0.032244 138385.000000 0 0 1
22.746724 26.214168 19.553899 39.836554 0.856101 1.057728 0.135559 -0.034875 54151.400000 0 0 1
22.377324 25.494048 18.369399 38.576236 0.850413 1.074486 0.111397 -0.034362 246758.000000 0 0 1
22.863224 26.293378 17.298999 38.901467 0.855065 1.109971 0.107030 -0.048585 91577.800000 0 0 1
22.607324 25.623738 15.976599 37.721596 0.847858 1.133447 0.090259 -0.034173 -328360.000000 0 0 1
21.268924 25.564698 15.576399 36.722543 0.876866 1.132757 0.085849 -0.038034 -708261.000000 0 0 1
21.197624 24.919208 14.301399 35.704849 0.865923 1.158685 0.096008 -0.031458 307311.000000 0 0 1
19.726224 24.928758 13.780099 34.647627 0.901380 1.161764 0.085909 -0.034855 270652.000000 0 0 1
19.157524 26.202188 13.744199 35.248666 0.939474 1.170250 0.081188 -0.036160 -381768.000000 0 0 1
18.250624 26.392058 14.802999 35.337725 0.965785 1.138562 0.084187 -0.029041 -894685.000000 0 0 1
16.761724 26.399708 14.415599 34.434133 1.005095 1.138846 0.084540 -0.029247 -328663.000000 0 0 1
16.197524 25.096918 14.110699 33.035238 0.997662 1.129468 0.086463 -0.033092 194947.000000 0 0 1
16.069224 24.192348 15.227499 32.792780 0.984484 1.087890 0.097943 -0.039661 -348050.000000 0 0 1
14.988524 24.471478 16.296199 33.001140 1.021244 1.054334 0.118078 -0.045865 -86951.200000 0 0 1
15.369024 25.681278 16.965899 34.403150 1.031515 1.055090 0.106683 -0.048120 226820.000000 0 0 1
14.322824 26.163818 17.782399 34.726106 1.069929 1.033197 0.099036 -0.041982 -293816.000000 0 0 1
14.736024 27.357908 18.537799 36.183637 1.076718 1.032906 0.100782 -0.045872 -482394.000000 0 0 1
14.932624 28.544178 17.679799 36.746819 1.088808 1.068859 0.087872 -0.036485 265621.000000 0 0 1
15.544924 29.549538 18.483299 38.163493 1.086516 1.065212 0.074265 -0.030799 -51781.400000 0 0 1
15.618324 30.910538 17.829499 38.952336 1.102938 1.095360 0.065145 -0.024125 215209.000000 0 0 1
14.301724 31.437408 17.790499 38.850377 1.143853 1.095138 0.073588 -0.025735 281421.000000 0 0 1
14.237024 32.788390 17.337899 39.728757 1.161151 1.119195 0.066503 -0.017981 -630538.000000 0 0 1
12.820424 33.354067 17.372199 39.732234 1.203833 1.118278 0.072299 -0.029953 -500383.000000 0 0 1
12.557324 -33.010519 16.897399 39.152303 -1.207297 1.124551 0.074695 -0.027403 -25791.300000 0 0 1
13.315624 -31.930959 17.423699 38.735995 -1.175710 1.104248 0.063971 -0.025845 -60027.500000 0 0 1
13.141324 -31.865289 19.003399 39.360135 -1.179644 1.066938 0.071121 -0.040632 263618.000000 0 0 1
14.110824 -32.646139 19.714199 40.663686 -1.162813 1.064649 0.071563 -0.034891 378303.000000 0 0 1
14.151824 -32.396609 21.102599 41.172006 -1.158948 1.032648 0.076699 -0.037940 -647920.000000 0 0 1
15.431724 -32.967859 21.698999 42.377640 -1.133006 1.033240 0.064428 -0.035786 187054.000000 0 0 1
16.542224 -32.108159 21.404599 41.984949 -1.095060 1.035825 0.071099 -0.032036 711151.000000 0 0 1
17.767124 -32.536609 22.036699 43.126764 -1.070979 1.034478 0.095237 -0.031091 794323.000000 0 0 1
18.888224 -31.501279 21.807199 42.715917 -1.030670 1.035010 0.095535 -0.032268 -54951.800000 0 0 1
18.698224 -30.252209 22.360999 42.009928 -1.017190 1.009506 0.106666 -0.040932 -68815.700000 0 0 1
19.623224 -29.451179 21.671099 41.497945 -0.983050 1.021343 0.110131 -0.033755 -93347.200000 0 0 1
-5.031376 12.890471 18.325815 22.963329 -1.198665 0.646749 0.024634 -0.007507 -180973.000000 0 1 0
-4.754576 14.188771 17.914015 23.341790 -1.247462 0.695918 0.031134 -0.012647 -168514.000000 0 1 0
-5.950676 14.860171 17.629515 23.812497 -1.189907 0.737210 0.029919 -0.012406 -227444.000000 0 1 0
-5.711076 16.312471 17.125215 24.330764 -1.234028 0.789993 0.043781 -0.025509 31045.700000 0 1 0
-5.192676 17.071171 18.192515 25.482472 -1.275511 0.775712 0.053814 -0.014948 238974.000000 0 0 1
-4.692376 18.377571 17.923015 26.095747 -1.320806 0.813695 0.053976 -0.016474 -344153.000000 0 0 1
-4.153276 19.077671 19.207415 27.388538 -1.356438 0.793585 0.049382 -0.013581 -686833.000000 0 0 1
-5.106376 19.365171 20.156615 28.414328 -1.312976 0.782175 0.046218 -0.013839 -564456.000000 0 0 1
-4.569476 20.224271 21.128215 29.602411 -1.348587 0.775983 0.054961 -0.007233 68087.600000 0 0 1
-5.498176 20.540471 22.341215 30.842678 -1.309253 0.760690 0.039744 -0.007236 159455.000000 0 0 1
-5.941176 19.448071 23.137605 30.803795 -1.274311 0.721027 0.041272 -0.012737 61403.800000 0 0 1
-6.600376 19.776671 24.385395 32.083160 -1.248675 0.707378 0.032986 -0.014686 353153.000000 0 0 1
-5.751376 20.445471 25.507205 33.192064 -1.296580 0.694345 0.027959 -0.020267 -592609.000000 0 0 1
-5.322576 21.759171 25.130985 33.665379 -1.330894 0.728020 0.037956 -0.012888 353012.000000 0 0 1
-4.308476 22.261171 26.007635 34.503910 -1.379618 0.717033 0.038168 -0.003851 270067.000000 0 0 1
-2.861376 21.812871 25.742605 33.862524 -1.440363 0.707161 0.053295 -0.003884 -524915.000000 0 0 1
-2.671176 20.463471 26.151045 33.313151 -1.440996 0.668089 0.067521 -0.000924 65405.900000 0 0 1
-1.297676 20.191771 25.937055 32.895629 -1.506617 0.662487 0.067683 -0.001085 201812.000000 0 0 1
-0.750876 18.811071 26.342695 32.378354 -1.530901 0.620497 0.076195 0.012726 -346852.000000 0 0 1
-1.049876 17.680871 25.532875 31.074799 -1.511487 0.606482 0.079206 -0.000140 -69619.900000 0 0 1
-0.313076 16.558671 25.990915 30.819073 -1.551892 0.567330 0.082119 -0.003537 407210.000000 0 0 1
1.205024 16.513271 25.617425 30.502339 1.497952 0.573787 0.100406 -0.001459 4666.360000 0 0 1
1.507424 16.294171 24.268235 29.269773 1.478546 0.593260 0.089820 -0.016456 -113839.000000 0 0 1
1.027724 15.037271 23.799245 28.170549 1.502557 0.564554 0.096436 -0.012665 -566403.000000 0 0 1
0.947024 15.001271 22.251015 26.852238 1.507750 0.594111 0.094672 -0.030199 -226613.000000 0 0 1
2.133824 15.168371 21.502415 26.400503 1.431038 0.618981 0.090018 -0.029427 -261598.000000 0 0 1
2.889324 13.993371 21.265815 25.620256 1.367180 0.591618 0.082592 -0.027860 467036.000000 0 0 1
4.416624 14.216171 21.111415 25.832111 1.269574 0.614165 0.080458 -0.028901 335384.000000 0 0 1
4.866424 15.007271 20.044515 25.508486 1.257224 0.666811 0.076010 -0.037146 -854680.000000 0 0 1
6.257424 14.951571 20.013815 25.753789 1.174433 0.680718 0.075193 -0.035797 -803807.000000 0 0 1
6.936724 15.800671 18.936515 25.619738 1.157115 0.739007 0.083953 -0.041789 -201159.000000 0 0 1
6.838724 15.185271 17.618415 24.243951 1.147649 0.757270 0.088261 -0.055186 60635.500000 0 1 0
7.037824 16.097371 16.553415 24.138597 1.158635 0.815141 0.086673 -0.044066 -95648.300000 0 1 0
6.999624 15.387671 15.165215 22.710326 1.143887 0.839591 0.081425 -0.038963 75324.700000 0 1 0
8.137824 14.687271 14.696215 22.314096 1.064831 0.851831 0.081320 -0.042628 96430.600000 0 1 0
8.458624 13.421071 15.300115 22.040123 1.008431 0.803497 0.078938 -0.046271 251251.000000 0 1 0
9.759224 12.910771 14.627515 21.815010 0.923531 0.835880 0.097171 -0.043946 195374.000000 0 1 0
10.972124 13.559971 14.920115 22.953653 0.890498 0.863198 0.084871 -0.040177 756962.000000 0 1 0
12.012824 13.143071 13.973015 22.633900 0.830298 0.905428 0.103573 -0.031793 1126890.000000 0 1 0
13.413724 13.642971 14.409015 23.951584 0.793871 0.925307 0.091637 -0.019360 -1135220.000000 0 1 0
14.031524 12.938071 15.493815 24.583240 0.744876 0.888909 0.063187 -0.032183 168712.000000 0 1 0
15.331024 13.419371 15.773715 25.766838 0.719005 0.911993 0.063639 -0.028457 -300195.000000 0 0 1
16.336624 12.941171 14.739015 25.526413 0.669940 0.955253 0.079026 -0.028143 -1489640.000000 0 0 1
17.651124 13.484971 14.896515 26.745332 0.652384 0.980056 0.078201 -0.038859 647767.000000 0 0 1
18.405424 13.078571 13.779515 26.451535 0.617793 1.022851 0.073749 -0.035255 660700.000000 0 0 1
19.901824 13.598371 13.784915 27.767287 0.599411 1.051298 0.072190 -0.039173 565262.000000 0 0 1
20.624324 13.062071 14.841415 28.570055 0.564569 1.024560 0.072853 -0.045920 -943609.000000 0 0 1
21.870324 13.678171 14.760715 29.720063 0.558902 1.051052 0.109944 -0.048340 -984547.000000 0 0 1
22.681624 13.382471 16.019515 30.824852 0.533044 1.024303 0.120620 -0.045223 -431524.000000 0 0 1
23.016724 12.041271 16.105915 30.564069 0.481998 1.015782 0.114234 -0.039816 -272681.000000 0 0 1
23.894324 11.889771 17.151615 31.725121 0.461724 0.999608 0.105540 -0.046054 -607697.000000 0 0 1
24.159524 10.391871 17.335715 31.499216 0.406212 0.988008 0.105547 -0.040700 -567696.000000 0 0 1
23.038424 9.688671 17.771915 30.667252 0.398090 0.952672 0.100179 -0.031957 -144403.000000 0 0 1
23.075824 8.325271 17.395515 30.073373 0.346245 0.953987 0.074146 -0.026884 -337987.000000 0 0 1
21.813924 7.543971 17.784015 29.138119 0.332958 0.914313 0.109746 -0.024051 -277223.000000 0 0 1
21.679424 6.269971 17.194115 28.371598 0.281531 0.919733 0.115144 -0.030376 -57809.500000 0 0 1
20.641024 5.512271 17.750815 27.776401 0.260964 0.877519 0.128886 -0.028240 -414795.000000 0 0 1
20.526424 4.135771 16.993615 26.967048 0.198823 0.889034 0.166660 -0.018638 -639343.000000 0 0 1
19.807024 4.182071 15.780415 25.667673 0.208085 0.908667 0.163077 -0.027481 414756.000000 0 0 1
19.875024 2.939871 15.096615 25.131001 0.146853 0.926399 0.159519 -0.039579 187317.000000 0 0 1
18.967024 1.821771 15.742815 24.716454 0.095756 0.880278 0.181888 -0.034562 -112423.000000 0 1 0
19.475424 1.294371 16.919115 25.830680 0.066364 0.856613 0.182352 -0.045619 822922.000000 0 0 1
18.411024 1.153371 17.887415 25.695441 0.062564 0.800801 0.167603 -0.037544 679823.000000 0 0 1
18.941724 0.406171 19.146315 26.935762 0.021440 0.780142 0.172743 -0.044501 -215262.000000 0 0 1
19.002124 -1.006029 19.012815 26.899442 -0.052894 0.785817 0.180168 -0.042516 847028.000000 0 0 1
17.774924 -1.713829 19.322315 26.310398 -0.096121 0.746016 0.142723 -0.022864 743807.000000 0 0 1
17.736724 -3.158229 18.777015 26.021954 -0.176215 0.764709 0.108709 -0.021129 -66975.400000 0 0 1
17.578524 -3.140729 17.401515 24.933540 -0.176803 0.798313 0.128284 -0.036637 140154.000000 0 1 0
17.697324 -4.489729 16.976415 24.930937 -0.248454 0.821754 0.159829 -0.033875 -135127.000000 0 1 0
17.286924 -4.662729 15.527915 23.700104 -0.263456 0.856371 0.150850 -0.041523 -399237.000000 0 1 0
15.941124 -4.410229 15.219215 22.476523 -0.269906 0.826960 0.131563 -0.038002 -177567.000000 0 1 0
15.654924 -4.379229 13.822215 21.337946 -0.272763 0.866134 0.132084 -0.035525 174694.000000 0 1 0
16.017724 -3.053229 13.087115 20.908426 -0.188356 0.894479 0.129322 -0.033244 195209.000000 0 1 0
15.127024 -1.993429 13.418915 20.319151 -0.131024 0.849435 0.120354 -0.023620 377221.000000 0 1 0
15.699624 -0.791729 13.021315 20.412244 -0.050387 0.879006 0.118368 -0.022308 -84048.800000 0 1 0
14.635024 0.295571 13.182115 19.698717 0.020193 0.837683 0.111450 -0.016992 -627393.000000 0 1 0
14.896724 1.656771 12.841015 19.736995 0.110762 0.862414 0.109110 -0.019642 -1024490.000000 0 1 0
15.947924 2.259771 13.471815 20.998397 0.140760 0.874261 0.135422 -0.027893 -1039760.000000 0 1 0
16.122124 3.647671 12.894615 20.964243 0.222506 0.908313 0.112596 -0.026275 405122.000000 0 1 0
15.009124 4.509171 13.182815 20.479088 0.291850 0.871446 0.088758 -0.018157 882420.000000 0 1 0
15.102724 5.708971 12.396415 20.355730 0.361406 0.916011 0.100177 -0.027344 96076.000000 0 1 0
13.931324 6.674571 12.651715 19.967413 0.446793 0.884575 0.064999 -0.024625 -194879.000000 0 1 0
14.272424 7.852671 11.916215 20.183229 0.502996 0.939240 0.043323 -0.029700 660515.000000 0 1 0
13.377324 8.924271 12.121815 20.137871 0.588316 0.924866 0.038342 -0.019691 -248343.000000 0 1 0
13.867624 9.762271 13.346215 21.580881 0.613380 0.904056 0.059072 -0.024685 17415.800000 0 1 0
13.544724 9.049571 14.523215 21.823796 0.589012 0.842665 0.069474 -0.032451 705684.000000 0 1 0
14.032024 9.740371 15.694115 23.196504 0.606791 0.827698 0.087413 -0.041360 -206366.000000 0 1 0
13.564224 9.187671 17.036215 23.635442 0.595359 0.765853 0.075333 -0.038726 -652176.000000 0 1 0
12.279424 9.648771 17.348615 23.342183 0.666002 0.732911 0.068342 -0.041715 -395331.000000 0 1 0
11.733724 8.931371 18.426315 23.600398 0.650612 0.674910 0.087238 -0.031684 -206088.000000 0 1 0
12.282224 9.369371 19.777615 25.095661 0.651668 0.663098 0.108232 -0.025928 -900099.000000 0 0 1
13.650024 9.135471 19.933715 25.828918 0.589799 0.689193 0.143714 -0.034715 -668034.000000 0 0 1
13.982724 9.446271 21.250515 27.135457 0.594139 0.671117 0.144553 -0.010989 -1164450.000000 0 0 1
15.448624 9.272171 21.581515 28.113964 0.540562 0.695640 0.151279 -0.020427 -588467.000000 0 0 1
16.245124 10.140171 20.790915 28.266399 0.558022 0.744341 0.134988 -0.018835 30832.600000 0 0 1
17.096824 9.450471 19.884615 27.874912 0.504961 0.776527 0.120559 -0.027513 247753.000000 0 0 1
18.119424 10.323771 19.068315 28.257644 0.517889 0.830100 0.111185 -0.029426 61536.800000 0 0 1
19.068624 10.850971 19.959015 29.660046 0.517350 0.832639 0.119528 -0.038357 157596.000000 0 0 1
20.168424 11.297971 19.150515 30.019189 0.510626 0.878973 0.120928 -0.043753 140979.000000 0 0 1
21.113624 12.236971 19.926515 31.505470 0.525267 0.886048 0.114776 -0.040191 -695838.000000 0 0 1
20.677824 13.556971 20.245115 31.956667 0.580322 0.884705 0.108672 -0.042595 239352.000000 0 0 1
21.530724 14.390271 21.051915 33.374169 0.589174 0.888232 0.097947 -0.036560 968876.000000 0 0 1
22.842724 14.874471 20.329615 34.004900 0.577196 0.929988 0.083297 -0.023692 988543.000000 0 0 1
23.996424 14.071571 20.208715 34.383567 0.530362 0.942529 0.057549 -0.012712 963672.000000 0 0 1
25.228124 14.804071 20.226515 35.563053 0.530663 0.965810 0.061682 -0.020921 2646140.000000 0 0 1
26.619924 13.975371 20.266715 36.258394 0.483444 0.977674 0.061146 -0.027745 1875100.000000 0 0 1
26.981524 13.250871 19.073115 35.600168 0.456510 1.005390 0.079451 -0.040216 903845.000000 0 0 1
28.189524 12.470671 19.223515 36.327819 0.416505 1.013177 0.102902 -0.042547 833847.000000 0 0 1
28.542624 11.698171 17.940815 35.684751 0.388968 1.044009 0.126722 -0.042399 -186746.000000 0 0 1
28.908824 12.457071 16.806915 35.684326 0.406865 1.080385 0.146345 -0.050180 248958.000000 0 0 1
29.064224 11.655671 15.670415 35.016364 0.381395 1.106810 0.181517 -0.054038 579252.000000 0 0 1
27.697724 11.307671 14.967715 33.452352 0.387600 1.106902 0.167935 -0.061416 562968.000000 0 0 1
27.151924 12.399971 14.323415 33.108103 0.428402 1.123393 0.190351 -0.057145 73823.200000 0 0 1
25.825024 12.195271 13.868615 31.748937 0.441183 1.118734 0.186130 -0.054656 354259.000000 0 0 1
25.308724 13.273971 12.849615 31.334365 0.483041 1.148254 0.175177 -0.047139 30832.400000 0 0 1
25.064124 14.558571 13.401115 31.933559 0.526222 1.137730 0.156558 -0.047575 160254.000000 0 0 1
24.831524 15.444971 12.341915 31.740741 0.556432 1.171429 0.140343 -0.032418 58718.300000 0 0 1
23.944824 16.683771 12.680315 31.819699 0.608547 1.160910 0.131382 -0.026178 498111.000000 0 0 1
22.553524 16.359271 12.782915 30.654366 0.627540 1.140653 0.139006 -0.039225 551634.000000 0 0 1
21.753624 17.443571 13.165115 30.835347 0.675880 1.129680 0.116235 -0.034233 -873172.000000 0 0 1
21.083824 18.034371 11.871515 30.177791 0.707601 1.166485 0.134230 -0.025876 -395589.000000 0 0 1
19.938524 17.392171 11.375815 28.800027 0.717293 1.164736 0.111138 -0.026380 107066.000000 0 0 1
18.779124 17.609871 12.147415 28.466169 0.753277 1.129921 0.100903 -0.031961 -1100460.000000 0 0 1
17.423124 17.160971 11.639215 27.083861 0.777818 1.126583 0.093120 -0.019101 -545549.000000 0 0 1
17.263424 15.808671 11.491915 26.076887 0.741439 1.114425 0.086256 -0.017300 -1205100.000000 0 0 1
16.056124 15.438371 11.006815 24.845370 0.765786 1.111840 0.088268 -0.019580 -1468610.000000 0 1 0
16.038824 14.052071 10.338415 23.697836 0.719469 1.119358 0.087338 -0.018106 -11397.400000 0 1 0
16.070724 12.866471 11.192915 23.432789 0.675116 1.072807 0.071087 -0.018745 363899.000000 0 1 0
16.621724 11.812671 10.461415 22.918598 0.617856 1.096784 0.078818 -0.001969 -102352.000000 0 1 0
16.758024 10.451571 11.115615 22.663266 0.557646 1.058169 0.068392 -0.020838 -1396630.000000 0 1 0
17.631624 9.626971 10.458015 22.647800 0.499772 1.090810 0.076738 -0.011669 -183084.000000 0 1 0
18.019024 8.474771 11.177415 22.835096 0.439626 1.059298 0.074078 -0.017540 763879.000000 0 1 0
19.294724 8.832871 12.046215 24.401174 0.429311 1.054487 0.072906 -0.031163 -38811.000000 0 1 0
19.083024 9.793271 13.058515 25.111647 0.474146 1.023924 0.068583 -0.032365 81087.200000 0 0 1
20.129624 9.754271 14.002415 26.389680 0.451230 1.011486 0.083629 -0.029714 -1127690.000000 0 0 1
19.589724 10.008471 15.406115 26.856567 0.472333 0.959848 0.062912 -0.028584 141089.000000 0 0 1
19.006024 8.881071 16.107815 26.449274 0.437128 0.915987 0.073335 -0.026514 823987.000000 0 0 1
17.743424 8.527171 15.545815 25.084141 0.447993 0.902376 0.084616 -0.033826 -513226.000000 0 0 1
17.317524 7.087971 15.841315 24.516999 0.388493 0.868286 0.116044 -0.034928 133235.000000 0 1 0
16.506424 6.984271 17.018415 24.715755 0.400281 0.811287 0.134106 -0.034144 98802.800000 0 1 0
16.016024 5.708171 17.203315 24.187813 0.342368 0.779537 0.136061 -0.015316 -1915370.000000 0 1 0
14.630724 5.784471 17.825215 23.775124 0.376504 0.723124 0.114220 -0.015092 -655657.000000 0 1 0
13.961224 4.541371 17.850415 23.112273 0.314489 0.688288 0.106993 -0.013581 283645.000000 0 1 0
13.725624 3.920571 16.631815 21.917594 0.278230 0.709275 0.116912 -0.018102 -1396270.000000 0 1 0
13.501124 2.415271 16.816515 21.700440 0.177022 0.684178 0.122270 -0.019236 -829142.000000 0 1 0
14.610524 1.699771 17.215515 22.643556 0.115818 0.707047 0.120815 -0.014131 -701301.000000 0 1 0
14.586324 0.290471 17.016615 22.414514 0.019911 0.708746 0.126148 -0.014773 52299.000000 0 1 0
13.540624 -0.612329 17.769615 22.349109 -0.045191 0.651636 0.097120 -0.020310 186354.000000 0 1 0
12.245224 -0.512229 17.237015 21.150002 -0.041807 0.618086 0.090124 -0.022314 -97339.200000 0 1 0
11.346924 -1.275329 18.073015 21.377863 -0.111925 0.563468 0.071618 -0.021359 462604.000000 0 1 0
-26.396976 14.513871 28.306885 41.336818 -0.502713 0.816486 0.087088 -0.020103 -336361.000000 0 0 1
-25.670506 14.303871 29.504375 41.642331 -0.508362 0.783399 0.075454 -0.023924 372956.000000 0 0 1
-25.062406 13.028271 29.549355 40.878166 -0.479388 0.762858 0.070108 -0.016951 133541.000000 0 0 1
-23.911476 12.868871 30.588545 40.902636 -0.493729 0.725997 0.072051 -0.024065 140673.000000 0 0 1
-24.353676 12.966671 31.965874 42.226215 -0.489255 0.712064 0.070590 -0.030281 -87506.700000 0 0 1
-23.276276 12.979471 32.861627 42.310025 -0.508680 0.681408 0.062016 -0.021788 -431428.000000 0 0 1
-23.658676 13.048071 -33.286861 42.871905 -0.504004 2.459771 0.066275 -0.021158 110957.000000 0 0 1
-24.269376 11.872971 -32.716371 42.430307 -0.454983 2.451303 0.051817 -0.015949 -213557.000000 0 0 1
-24.996226 12.288871 -31.641101 42.154323 -0.456928 2.419768 0.046777 -0.015062 -663652.000000 0 0 1
-25.747356 11.153271 -30.894851 41.735040 -0.408780 2.404256 0.032129 -0.014812 -323702.000000 0 0 1
-25.029886 10.137971 -30.232821 40.537601 -0.384839 2.412527 0.045236 -0.019768 -96768.900000 0 0 1
-24.590876 9.077571 -31.045131 40.631436 -0.353627 2.440390 0.030210 -0.018668 29608.000000 0 0 1
-23.631976 8.119771 -30.282991 39.261438 -0.330955 2.451703 0.027489 -0.012278 -151906.000000 0 0 1
-24.250276 7.414571 -29.260561 38.719919 -0.296725 2.427515 0.039681 -0.010480 -108518.000000 0 0 1
-23.322676 6.748871 -28.472201 37.418721 -0.281676 2.435508 0.032267 -0.003316 -380844.000000 0 0 1
-23.959576 5.959171 -27.286881 36.798734 -0.243771 2.406125 0.036871 -0.007855 227589.000000 0 0 1
-24.761476 4.830471 -27.680021 37.451938 -0.192660 2.402502 0.052190 -0.005779 396809.000000 0 0 1
-25.063276 3.961371 -26.600591 36.762096 -0.156758 2.379782 0.098337 -0.012220 -83875.800000 0 0 1
-25.909256 2.752571 -27.155431 37.633544 -0.105842 2.376871 0.106386 -0.010337 1032420.000000 0 0 1
-27.252066 2.876271 -27.634091 38.917747 -0.105154 2.360385 0.127578 -0.008894 748204.000000 0 0 1
-27.524036 3.867671 -28.618901 39.894522 -0.139606 2.370808 0.121346 -0.012383 -378215.000000 0 0 1
-28.851256 3.580671 -29.372471 41.327451 -0.123477 2.361325 0.156604 -0.018387 122459.000000 0 0 1
-30.042756 3.948671 -28.703001 41.737530 -0.130686 2.329116 0.140842 -0.009112 873411.000000 0 0 1
-31.222316 3.908871 -29.530351 43.152681 -0.124547 2.324471 0.138694 -0.016370 684012.000000 0 0 1
-31.494686 5.180171 -30.350901 44.044598 -0.163018 2.331035 0.137366 -0.031705 -740517.000000 0 0 1
-30.563296 5.490471 -31.381011 44.147799 -0.177747 2.361456 0.138473 -0.034395 306113.000000 0 0 1
-30.795716 6.687071 -32.093461 44.978698 -0.213823 2.365314 0.132018 -0.025840 -563068.000000 0 0 1
-30.625636 8.046571 -31.304361 44.526844 -0.256933 2.350466 0.097078 -0.022934 176605.000000 0 0 1
-29.310016 8.412371 -30.872661 43.393158 -0.279500 2.362375 0.058272 -0.032860 711870.000000 0 0 1
-28.931226 7.690571 -29.703351 42.171670 -0.259814 2.352295 0.049890 -0.023654 -742920.000000 0 0 1
-29.082256 8.568671 -28.433611 41.565249 -0.286528 2.324127 0.031288 -0.011270 1089020.000000 0 0 1
-30.424956 8.800771 -27.925971 42.225482 -0.281576 2.293418 0.054458 -0.015544 1317080.000000 0 0 1
-31.016796 7.711571 -27.218351 41.980335 -0.243685 2.276224 0.068955 0.003939 -326242.000000 0 0 1
-32.332886 8.112771 -26.534721 42.606619 -0.245839 2.243092 0.062573 0.007242 -296982.000000 0 0 1
-32.273916 8.897471 -25.336951 41.984898 -0.269004 2.218652 0.030041 0.009735 -67429.800000 0 0 1
-32.054716 8.040171 -24.190201 40.955036 -0.245756 2.202664 0.046857 0.006111 81596.100000 0 0 1
-31.487336 8.877571 -22.990501 39.985331 -0.274808 2.183368 0.048481 0.004447 -163348.000000 0 0 1
-32.407346 9.734071 -22.389501 40.574351 -0.291793 2.155334 0.060824 0.000222 -76255.900000 0 0 1
-31.755136 10.598171 -21.506401 39.789887 -0.322123 2.141827 0.076210 -0.006057 -260964.000000 0 0 1
-32.727026 11.444371 -20.687501 40.373315 -0.336400 2.108780 0.070483 -0.007705 -184273.000000 0 0 1
-33.299276 10.823971 -19.542401 40.098697 -0.314278 2.079857 0.079449 -0.023254 306130.000000 0 0 1
-33.969306 11.757471 -18.715001 40.526573 -0.333214 2.050815 0.079820 -0.021751 201509.000000 0 0 1
-33.044216 12.474171 -17.676401 39.496586 -0.360960 2.034812 0.084367 -0.024972 86879.200000 0 0 1
-32.576856 11.673571 -16.576701 38.370702 -0.344085 2.017522 0.116985 -0.025605 290296.000000 0 0 1
-33.513386 11.458571 -15.542901 38.678516 -0.329450 1.984331 0.115289 -0.025530 -199579.000000 0 0 1
-33.885286 12.694471 -14.696301 39.055645 -0.358447 1.956586 0.107516 -0.018105 -356815.000000 0 0 1
-34.736798 13.622371 -15.318401 40.334446 -0.373729 1.960360 0.074684 -0.019047 95296.600000 0 0 1
-35.023087 14.786271 -14.550001 40.705687 -0.399485 1.936326 0.041744 -0.012214 9737.570000 0 0 1
-35.974722 15.721771 -15.293601 42.133703 -0.412010 1.942258 0.031262 -0.008604 -328085.000000 0 0 1
-37.237796 15.245671 -15.663601 43.179072 -0.388595 1.942023 0.041040 -0.007388 -34456.500000 0 0 1
37.271518 16.282571 -15.911001 43.674342 0.411876 1.943688 0.031445 -0.009385 -285326.000000 0 0 1
36.855338 16.447671 -17.374101 43.939745 0.419753 1.977308 0.033693 -0.012213 -211241.000000 0 0 1
36.092998 15.414871 -17.979301 43.169179 0.403638 2.000372 0.060414 -0.016508 1048580.000000 0 0 1
34.687188 15.730071 -17.999501 42.126217 0.425747 2.012274 0.087686 -0.017886 303413.000000 0 0 1
33.871588 14.527871 -18.423701 41.204081 0.405178 2.034354 0.098165 -0.016135 -591268.000000 0 0 1
33.941948 14.144871 -19.810401 41.768232 0.394851 2.064958 0.101858 -0.014493 717875.000000 0 0 1
33.050278 13.053371 -20.156801 40.853494 0.376150 2.086782 0.037819 -0.002839 484640.000000 0 0 1
33.400208 11.667871 -19.521101 40.407753 0.336083 2.074991 0.058291 -0.004656 -94802.100000 0 0 1
33.131078 11.558471 -18.113901 39.488986 0.335669 2.047337 0.087105 -0.012670 558762.000000 0 0 1
34.066528 10.684671 -17.429101 39.729889 0.303924 2.024937 0.084365 -0.024078 281044.000000 0 0 1
33.900558 10.600371 -15.891601 38.912192 0.303058 1.991493 0.074368 -0.014976 329088.000000 0 0 1
32.686838 9.941871 -15.475001 37.506611 0.295265 1.996096 0.085142 -0.017406 629365.000000 0 0 1
32.529208 9.790971 -14.075201 36.771236 0.292365 1.963597 0.069138 -0.007564 -49725.300000 0 0 1
31.817708 10.927071 -13.298501 36.174819 0.330807 1.947242 0.089715 -0.011482 -29398.100000 0 0 1
30.428898 10.995371 -13.590801 35.093103 0.346747 1.968474 0.100575 -0.015162 11139.600000 0 0 1
29.804398 11.861771 -12.709301 34.504059 0.378770 1.948022 0.116430 -0.015596 -922185.000000 0 0 1
28.314998 11.885471 -13.009601 33.350461 0.397423 1.971523 0.113229 0.006782 -1093120.000000 0 0 1
27.627498 10.750871 -12.434901 32.147887 0.371106 1.967959 0.108572 -0.007204 349595.000000 0 0 1
26.241598 10.697071 -12.717801 31.061089 0.387073 1.992642 0.103074 0.012210 134670.000000 0 0 1
25.888398 10.351471 -14.193601 31.286106 0.380377 2.041677 0.100825 -0.014075 -1035490.000000 0 0 1
26.255498 9.010871 -14.637201 31.381438 0.330604 2.056045 0.122396 -0.017173 207446.000000 0 0 1
27.542998 8.833771 -15.197801 32.674538 0.310362 2.054574 0.128420 -0.015348 -148254.000000 0 0 1
28.508298 8.222371 -14.170701 32.880681 0.280800 2.016368 0.131759 -0.022955 -637153.000000 0 0 1
28.341798 6.799971 -14.051201 32.356350 0.235476 2.020017 0.139168 -0.042999 1210380.000000 0 0 1
27.263698 6.304771 -13.186401 30.934456 0.227257 2.011161 0.156826 -0.041682 830023.000000 0 0 1
27.092298 4.751571 -13.156201 30.490255 0.173619 2.016939 0.163113 -0.048414 -289596.000000 0 0 1
26.211798 4.335871 -12.146001 29.212728 0.163932 1.999594 0.187772 -0.046894 351964.000000 0 0 1
25.933098 2.952971 -12.277001 28.843897 0.113380 2.010461 0.179657 -0.050747 -375752.000000 0 0 1
25.138498 2.395971 -11.088201 27.579575 0.095024 1.984544 0.195674 -0.047693 -847276.000000 0 0 1
25.828798 2.321971 -9.904901 27.760141 0.089658 1.935640 0.203565 -0.045507 -159508.000000 0 0 1
25.251298 1.476671 -8.921901 26.821799 0.058412 1.909894 0.230824 -0.037241 323859.000000 0 0 1
26.296398 1.045371 -7.774101 27.441392 0.039732 1.858028 0.265905 -0.029566 522852.000000 0 0 1
26.261598 -0.264929 -7.200501 27.232131 -0.010088 1.838390 0.224632 -0.033870 300868.000000 0 0 1
26.568098 -1.384529 -8.060701 27.798483 -0.052065 1.864991 0.170242 -0.032598 -255784.000000 0 0 1
26.675498 -2.745529 -7.211301 27.769101 -0.102562 1.833495 0.157834 -0.028301 -156283.000000 0 0 1
27.875698 -2.882529 -6.485601 28.765023 -0.103040 1.798220 0.161958 -0.032895 381440.000000 0 0 1
27.895498 -4.148829 -5.848201 28.802310 -0.147645 1.775264 0.179593 -0.043351 282362.000000 0 0 1
29.266698 -4.361629 -5.120001 30.029616 -0.147942 1.742132 0.126200 -0.037345 963216.000000 0 0 1
30.331298 -4.537129 -6.076701 31.264988 -0.148485 1.766403 0.100934 -0.029461 791794.000000 0 0 1
31.557338 -4.881629 -5.442101 32.393091 -0.153474 1.739599 0.144788 -0.035461 820804.000000 0 0 1
32.744378 -5.216929 -6.410101 33.771290 -0.157995 1.761764 0.160976 -0.043498 355920.000000 0 0 1
32.437548 -6.302529 -7.310801 33.843230 -0.191906 1.788532 0.146957 -0.040668 89842.500000 0 0 1
33.158958 -6.212229 -8.529701 34.797472 -0.185200 1.818444 0.159136 -0.042380 -727528.000000 0 0 1
32.455998 -7.036129 -9.630801 34.578190 -0.213486 1.853052 0.129601 -0.040556 52809.000000 0 0 1
31.231998 -6.487229 -10.033201 33.439303 -0.204799 1.875533 0.098346 -0.040885 484589.000000 0 0 1
30.115798 -6.929329 -9.215401 32.247488 -0.226153 1.860607 0.092695 -0.035826 310502.000000 0 0 1
28.911598 -5.930529 -9.176001 30.907130 -0.202320 1.872230 0.087050 -0.030552 356711.000000 0 0 1
28.148398 -5.975929 -10.387001 30.593036 -0.209195 1.917205 0.076094 -0.029518 176390.000000 0 0 1
27.065098 -5.086629 -10.356601 29.421973 -0.185773 1.930506 0.128199 -0.025867 -614261.000000 0 0 1
25.656798 -5.611629 -10.238001 28.188266 -0.215328 1.942497 0.178620 -0.025780 -1249250.000000 0 0 1
25.500798 -6.389729 -9.024801 27.795078 -0.245515 1.901481 0.161821 -0.036108 786828.000000 0 0 1
24.195598 -6.947629 -8.857401 26.686140 -0.279621 1.909124 0.159897 -0.031112 444744.000000 0 0 1
23.173998 -6.009829 -8.132901 25.284310 -0.253745 1.898276 0.183586 -0.027515 -305371.000000 0 0 1
22.748598 -5.057929 -9.086701 25.012986 -0.218781 1.942582 0.195755 -0.019616 139549.000000 0 0 1
22.444798 -3.855929 -8.386301 24.268646 -0.170135 1.923633 0.202922 -0.030175 -138432.000000 0 1 0
22.379798 -2.594429 -9.303101 24.374866 -0.115412 1.962396 0.216788 -0.031484 71822.900000 0 1 0
23.639498 -2.350729 -9.906101 25.738738 -0.099115 1.965865 0.185513 -0.036674 627887.000000 0 0 1
23.538398 -1.848329 -11.261601 26.159055 -0.078363 2.015848 0.193524 -0.035711 -477214.000000 0 0 1
24.932498 -1.890929 -11.879301 27.682537 -0.075697 2.014321 0.150126 -0.030788 -82640.900000 0 0 1
25.964198 -1.227329 -11.148501 28.283122 -0.047235 1.975966 0.136181 -0.040624 634268.000000 0 0 1
27.145798 -1.256029 -11.927601 29.677258 -0.046237 1.984399 0.121471 -0.031917 73166.800000 0 0 1
28.349498 -0.425029 -11.422501 30.567110 -0.014991 1.953776 0.101038 -0.018544 295903.000000 0 0 1
29.591998 -0.795729 -12.019101 31.949622 -0.026884 1.956476 0.084732 -0.019813 636902.000000 0 0 1
30.610008 0.189971 -11.868501 32.830931 0.006206 1.940676 0.103179 -0.017936 148394.000000 0 0 1
30.603658 1.476471 -12.655901 33.150199 0.048208 1.962512 0.115129 -0.021207 -495080.000000 0 0 1
30.938708 1.244571 -14.042501 33.999183 0.040205 1.996569 0.091104 -0.021624 340370.000000 0 0 1
31.078378 2.482471 -14.686901 34.463507 0.079709 2.011038 0.109568 -0.024295 7283.900000 0 0 1
31.339008 2.431571 -16.233201 35.377433 0.077434 2.047505 0.096719 -0.020077 566125.000000 0 0 1
30.210298 1.854871 -16.905801 34.668556 0.061322 2.080182 0.091939 -0.009039 464756.000000 0 0 1
30.512878 1.772271 -18.280401 35.613898 0.058018 2.109815 0.075543 -0.011747 587534.000000 0 0 1
29.403898 0.977071 -19.118001 35.086206 0.033217 2.147050 0.047650 -0.005464 730293.000000 0 0 1
29.375198 -0.471029 -18.992301 34.983305 -0.016034 2.144678 0.051847 -0.001309 18937.300000 0 0 1
28.986998 -0.947129 -20.224601 35.357851 -0.032663 2.179735 0.028516 -0.002283 -165187.000000 0 0 1
28.725198 -2.446629 -20.287801 35.252204 -0.084969 2.184017 0.042351 -0.008821 681213.000000 0 0 1
27.494898 -2.875629 -19.663001 33.924508 -0.104209 2.189047 0.041479 -0.005722 742516.000000 0 0 1
27.290998 -4.281329 -19.638201 33.893765 -0.155609 2.188794 0.048412 -0.012199 -519450.000000 0 0 1
27.976098 -5.122529 -18.608401 33.987865 -0.181098 2.150172 0.039222 -0.011678 -334375.000000 0 0 1
29.373098 -5.009229 -18.683301 35.170115 -0.168913 2.130844 0.050984 -0.018683 -286708.000000 0 0 1
30.114998 -5.436629 -17.550401 35.277282 -0.178605 2.091509 0.055364 -0.021362 -136500.000000 0 0 1
31.599448 -5.132329 -17.761501 36.610611 -0.161012 2.077327 0.096999 -0.024516 -269772.000000 0 0 1
32.259878 -6.061529 -18.646501 37.750945 -0.185731 2.087406 0.075457 -0.027044 251774.000000 0 0 1
33.629888 -5.739029 -18.799701 38.952979 -0.169024 2.074446 0.107168 -0.024037 6866.990000 0 0 1
34.424868 -6.883329 -19.439801 40.129261 -0.197350 2.076507 0.101591 -0.015114 -342032.000000 0 0 1
34.908228 -7.664429 -18.392301 40.194584 -0.216130 2.046070 0.114412 -0.030643 -200231.000000 0 0 1
35.660808 -8.698929 -18.970301 41.318724 -0.239263 2.047802 0.095218 -0.015696 -681971.000000 0 0 1
36.428338 -9.509329 -17.955001 41.711308 -0.255344 2.015797 0.097466 -0.015202 -1165270.000000 0 0 1
35.717498 -10.067429 -16.884601 40.769873 -0.274735 1.997799 0.098165 -0.024662 -397682.000000 0 0 1
36.406928 -10.929629 -16.030201 41.253952 -0.291647 1.969879 0.091569 -0.026075 -600054.000000 0 0 1
37.625618 -10.310729 -15.254001 41.888934 -0.267469 1.943520 0.128753 -0.030234 45844.300000 0 0 1
-37.199026 -11.089229 -14.228801 41.342439 0.289718 1.922150 0.137166 -0.034307 421449.000000 0 0 1
-36.663406 -12.355629 -14.705501 41.389837 0.325048 1.934023 0.122108 -0.030106 245141.000000 0 0 1
-35.192659 -12.348329 -15.274401 40.302751 0.337457 1.959503 0.154654 -0.037966 557259.000000 0 0 1
-34.941400 -11.635029 -16.491701 40.351599 0.321439 1.991826 0.164101 -0.032743 -273254.000000 0 0 1
-33.644956 -11.876229 -16.965101 39.507499 0.339333 2.014641 0.193935 -0.034706 -190763.000000 0 0 1
-33.310406 -10.957629 -18.176801 39.497454 0.317805 2.049019 0.214433 -0.031830 184969.000000 0 0 1
-33.525486 -9.566429 -17.845201 39.165367 0.277961 2.043884 0.212739 -0.029022 231279.000000 0 0 1
-34.796085 -9.120929 -18.282001 40.350841 0.256358 2.041009 0.187879 -0.026893 -40062.100000 0 0 1
-35.176330 -7.694729 -17.854001 40.191397 0.215355 2.031105 0.203728 -0.035567 30118.400000 0 0 1
-36.463736 -7.320529 -18.320001 41.458613 0.198128 2.028497 0.196109 -0.034383 144066.000000 0 0 1
-36.768026 -6.173929 -17.576501 41.218182 0.166364 2.011334 0.183979 -0.039757 -135330.000000 0 0 1
25.559524 27.200471 -26.858811 45.984243 0.816490 2.194551 0.053769 0.002488 -188909.000000 0 0 1
26.181924 26.400471 -25.934101 45.332721 0.789554 2.179840 0.064372 -0.018443 59177.700000 0 0 1
27.318424 25.697571 -26.420131 45.876844 0.754835 2.184492 0.064476 -0.025217 170436.000000 0 0 1
28.035524 24.906771 -25.291981 45.232977 0.726369 2.164156 0.082587 -0.033469 -134128.000000 0 0 1
28.615824 25.648771 -24.236501 45.432729 0.730775 2.133481 0.085776 -0.025783 196225.000000 0 0 1
28.813924 24.759871 -23.160201 44.493689 0.709870 2.118265 0.095848 -0.028445 220980.000000 0 0 1
29.629824 25.327071 -21.990201 44.754396 0.707264 2.084439 0.077830 -0.018884 200993.000000 0 0 1
28.806124 26.216071 -21.262401 44.375273 0.738360 2.070482 0.079957 -0.025574 500333.000000 0 0 1
29.512224 26.901071 -20.224801 44.762502 0.739145 2.039606 0.066175 -0.021522 496530.000000 0 0 1
28.501824 27.805371 -19.463801 44.320787 0.773030 2.025457 0.070760 -0.017734 260357.000000 0 0 1
27.520124 27.145171 -18.711001 42.945537 0.778539 2.021603 0.089739 -0.022046 -120202.000000 0 0 1
26.513624 28.074471 -18.377301 42.765329 0.813984 2.014984 0.084275 -0.019442 224497.000000 0 0 1
25.555924 27.722971 -17.217201 41.449975 0.826049 1.999149 0.096892 -0.022511 -312619.000000 0 0 1
24.429624 26.991271 -17.541501 40.410884 0.835174 2.019812 0.108879 -0.021781 -744716.000000 0 0 1
23.412424 27.044671 -16.566901 39.421036 0.857261 2.004523 0.095772 -0.020402 124410.000000 0 0 1
22.217524 26.226171 -17.126301 38.402352 0.867959 2.033054 0.086254 -0.018285 -304397.000000 0 0 1
21.677524 26.663071 -18.360701 38.960875 0.888169 2.061515 0.075330 -0.014607 -214403.000000 0 0 1
21.087224 25.538271 -18.987701 38.176002 0.880574 2.091364 0.059496 -0.012817 -223042.000000 0 0 1
20.368524 25.944571 -20.295601 38.728658 0.905220 2.122391 0.047464 -0.005031 423691.000000 0 0 1
19.243524 26.768871 -20.094201 38.609100 0.947513 2.118177 0.034863 -0.004182 328846.000000 0 0 1
18.169024 26.615171 -21.033101 38.482101 0.971805 2.149057 0.032684 -0.004387 442413.000000 0 0 1
17.048424 27.633771 -20.850201 38.587627 1.018013 2.141630 0.042079 -0.007989 -200363.000000 0 0 1
16.447224 27.528971 -19.581101 37.573594 1.032253 2.118982 0.049665 -0.006006 855087.000000 0 0 1
15.220124 28.314071 -19.475601 37.585075 1.077565 2.115511 0.061839 -0.020248 1379060.000000 0 0 1
14.565424 28.236471 -18.070301 36.551138 1.094559 2.087922 0.065781 -0.015894 147567.000000 0 0 1
14.004424 26.961071 -17.838701 35.231272 1.091725 2.101722 0.071403 -0.013801 -84591.000000 0 0 1
13.092224 26.981671 -16.740801 34.346344 1.119037 2.079919 0.081934 -0.012818 -266792.000000 0 0 1
12.120124 25.840571 -16.682001 33.059366 1.132226 2.099723 0.102286 -0.018169 -448609.000000 0 0 1
12.716124 24.604671 -16.341401 32.157908 1.093785 2.103845 0.078789 -0.012296 -287146.000000 0 0 1
11.821324 23.533471 -16.508501 31.082126 1.105295 2.130724 0.101240 -0.012371 139500.000000 0 0 1
12.581324 22.198571 -16.627601 30.455597 1.055175 2.148333 0.091979 -0.018597 252852.000000 0 0 1
13.295624 22.022471 -17.831701 31.300678 1.027639 2.176926 0.087089 -0.014725 498191.000000 0 0 1
14.423624 21.112271 -17.817701 31.164714 0.971444 2.179405 0.090380 -0.010748 820104.000000 0 0 1
14.062824 19.582571 -17.833901 29.988133 0.948006 2.207687 0.100381 -0.011136 -66645.200000 0 0 1
13.534224 19.156771 -16.565601 28.715436 0.955722 2.185710 0.117845 -0.027579 -185984.000000 0 0 1
13.317724 17.766771 -16.530201 27.681537 0.927560 2.210747 0.092067 -0.026827 -790781.000000 0 0 1
14.446024 16.755471 -16.574101 27.642978 0.859281 2.213769 0.127266 -0.029276 -969239.000000 0 0 1
14.998524 16.638471 -15.318001 27.137347 0.837188 2.170578 0.133014 -0.041467 -579387.000000 0 0 1
16.005224 15.684871 -15.430801 27.208308 0.775290 2.173820 0.146202 -0.044866 -1242990.000000 0 0 1
16.462924 15.075771 -14.044801 26.373532 0.741444 2.132388 0.211856 -0.049470 99196.800000 0 0 1
17.540324 15.672171 -13.324501 27.033724 0.729209 2.086198 0.153858 -0.035242 1797280.000000 0 0 1
18.812524 15.956171 -13.969401 28.348803 0.703429 2.086065 0.104077 -0.018353 956931.000000 0 0 1
19.670824 14.724171 -14.420101 28.490031 0.642559 2.101506 0.089482 -0.017546 -174857.000000 0 0 1
20.343224 13.850271 -13.509201 28.074460 0.597744 2.072810 0.136514 -0.029682 873408.000000 0 0 1
21.506224 14.290171 -12.818101 28.827598 0.586478 2.031576 0.115922 -0.017670 291632.000000 0 0 1
22.326024 13.094671 -12.232501 28.627886 0.530449 2.012293 0.126472 -0.035387 232645.000000 0 0 1
21.625424 12.498571 -11.136101 27.347505 0.524054 1.990191 0.233873 -0.042252 714314.000000 0 0 1
22.335524 11.366771 -10.647701 27.229629 0.470750 1.972551 0.243016 -0.014161 41167.000000 0 0 1
22.110824 10.035971 -11.410501 26.829253 0.426087 2.010090 0.173554 -0.006449 -211819.000000 0 0 1
22.721124 10.089371 -12.688701 27.911432 0.417897 2.042726 0.130846 0.009431 269535.000000 0 0 1
22.411624 9.030971 -13.612701 27.733463 0.383055 2.083850 0.107648 -0.000733 -219262.000000 0 0 1
22.655524 7.546771 -13.155201 27.263269 0.321549 2.074331 0.125900 0.018522 380041.000000 0 0 1
21.613524 7.120771 -12.263901 25.850592 0.318260 2.065095 0.121346 -0.004108 741269.000000 0 0 1
22.017724 6.087771 -11.422201 25.540318 0.269755 2.034454 0.137637 0.001543 -508031.000000 0 0 1
22.096124 4.577071 -11.974501 25.545586 0.204255 2.058672 0.155407 -0.017707 -45047.400000 0 0 1
20.860624 4.014071 -12.371201 24.583023 0.190100 2.098142 0.109647 -0.033944 707433.000000 0 1 0
20.235824 4.540971 -13.576301 24.787597 0.220746 2.150416 0.071215 -0.034389 320699.000000 0 1 0
19.267924 3.465071 -14.211101 24.191218 0.177934 2.198699 0.071385 -0.035427 558223.000000 0 1 0
20.035924 2.299471 -14.498801 24.838298 0.114267 2.194108 0.112149 -0.065446 500697.000000 0 1 0
19.811224 1.285271 -13.516801 24.017503 0.064785 2.168553 0.151202 -0.073831 -1187330.000000 0 1 0
20.846924 0.171971 -13.402901 24.784301 0.008249 2.142163 0.183740 -0.068436 -776658.000000 0 1 0
22.155524 0.617071 -13.065901 25.728696 0.027845 2.103465 0.215040 -0.054037 1230920.000000 0 0 1
22.948424 1.150271 -14.192701 27.007148 0.050082 2.124118 0.143840 -0.037722 111232.000000 0 0 1
23.631824 -0.000929 -15.030901 28.006983 -0.000039 2.137299 0.120654 -0.029832 341916.000000 0 0 1
22.662224 -0.772329 -15.803401 27.639110 -0.034067 2.179466 0.135556 -0.035528 712933.000000 0 0 1
23.322124 -1.746229 -16.577301 28.666665 -0.074735 2.187413 0.086356 -0.024638 373627.000000 0 0 1
22.395524 -2.453329 -17.641101 28.614450 -0.109110 2.235099 0.106596 -0.036336 614141.000000 0 0 1
21.299524 -3.199629 -17.159801 27.538448 -0.149106 2.243524 0.133623 -0.029352 116850.000000 0 0 1
20.508124 -3.794529 -18.126901 27.632701 -0.182957 2.286296 0.123620 -0.025938 -384418.000000 0 0 1
19.645324 -4.892329 -17.543501 26.788954 -0.244068 2.284818 0.127186 -0.022409 -260206.000000 0 0 1
20.473524 -5.934729 -17.060201 27.302686 -0.282141 2.245741 0.131821 -0.014939 745112.000000 0 0 1
19.702224 -7.001529 -16.487701 26.627868 -0.341448 2.238507 0.141763 -0.002928 477201.000000 0 0 1
20.633824 -8.066629 -15.803901 27.213756 -0.372673 2.190424 0.172906 -0.006381 231907.000000 0 0 1
21.161024 -8.997929 -16.717601 28.429384 -0.402050 2.199429 0.143374 -0.011901 306329.000000 0 0 1
21.947724 -9.941029 -15.999101 28.922273 -0.425297 2.156968 0.125838 -0.013767 -246503.000000 0 0 1
22.457124 -11.047929 -16.909901 30.204700 -0.457192 2.164993 0.101360 -0.015617 21429.700000 0 0 1
23.473924 -10.585129 -17.798601 31.302720 -0.423628 2.175594 0.081695 -0.013667 333727.000000 0 0 1
23.891724 -11.529029 -18.771901 32.497958 -0.449593 2.186623 0.069210 -0.012641 -513356.000000 0 0 1
23.039524 -11.520429 -20.060101 32.648853 -0.463671 2.232447 0.089898 -0.007567 508758.000000 0 0 1
21.749824 -12.081429 -19.820001 31.809562 -0.507035 2.243475 0.106157 -0.013869 135779.000000 0 0 1
21.653724 -13.471529 -19.861801 32.324248 -0.556536 2.232492 0.097041 -0.009110 -890032.000000 0 0 1
20.236224 -14.030329 -19.793201 31.593128 -0.606234 2.247855 0.101598 -0.020208 -324402.000000 0 0 1
19.454524 -13.604529 -20.875301 31.612338 -0.610255 2.292085 0.104583 -0.006301 -569975.000000 0 0 1
18.079124 -13.798929 -20.689801 30.746269 -0.651929 2.308946 0.104865 -0.006347 -119700.000000 0 0 1
17.283624 -13.227729 -21.886001 30.865734 -0.653242 2.358976 0.104018 -0.008499 -65464.900000 0 0 1
17.526524 -13.941929 -23.068501 32.151395 -0.671976 2.370997 0.089830 -0.006166 444590.000000 0 0 1
17.008624 -13.188829 -24.163301 32.358981 -0.659572 2.413923 0.102363 -0.013632 -48400.600000 0 0 1
16.986624 -14.007929 -25.459161 33.659120 -0.689589 2.428561 0.099851 -0.017924 -111934.000000 0 0 1
15.985424 -15.023329 -25.538741 33.666920 -0.754382 2.431913 0.098693 -0.019434 432178.000000 0 0 1
15.847424 -15.590029 -26.827131 34.840850 -0.777211 2.449623 0.099010 -0.020385 -98690.900000 0 0 1
16.814924 -16.767129 -27.148441 36.068215 -0.783975 2.422946 0.091398 -0.023746 1143430.000000 0 0 1
18.200924 -16.360229 -27.180141 36.574456 -0.732189 2.408555 0.083869 -0.022437 521643.000000 0 0 1
19.089424 -17.385729 -27.291261 37.569703 -0.738724 2.383890 0.096597 -0.025252 -74391.100000 0 0 1
20.599024 -17.062829 -27.191241 38.142149 -0.691779 2.364410 0.088960 -0.018851 427218.000000 0 0 1
21.097324 -16.399429 -26.024381 37.300225 -0.660760 2.342979 0.100989 -0.012464 -213787.000000 0 0 1
22.487924 -16.228729 -26.183721 38.140079 -0.625118 2.327481 0.095061 -0.013166 25676.600000 0 0 1
23.190624 -15.865529 -24.812901 37.485999 -0.599999 2.294180 0.109823 -0.006481 218226.000000 0 0 1
22.998924 -14.565629 -24.337401 36.515985 -0.564558 2.300282 0.112288 -0.009858 177317.000000 0 0 1
21.639624 -14.208429 -24.089901 35.362072 -0.580996 2.320245 0.129056 -0.012788 484706.000000 0 0 1
21.479724 -12.795429 -23.475301 34.295646 -0.537250 2.324711 0.128783 -0.004519 29901.900000 0 0 1
21.741524 -11.775829 -24.422301 34.753601 -0.496393 2.350020 0.130393 -0.013498 112144.000000 0 0 1
21.674524 -10.541929 -23.674801 33.784811 -0.452688 2.347248 0.131027 -0.021316 5287.360000 0 0 1
21.822924 -9.258529 -24.468701 34.068720 -0.401241 2.372031 0.133384 -0.026122 -214067.000000 0 0 1
21.543924 -8.105829 -23.750101 33.074347 -0.359863 2.371839 0.126474 -0.032713 47627.700000 0 0 1
21.352624 -6.993829 -24.621601 33.332738 -0.316527 2.401878 0.096821 -0.029625 -117705.000000 0 0 1
20.812324 -5.702829 -23.946701 32.235378 -0.267448 2.408144 0.101036 -0.041092 572964.000000 0 0 1
19.418724 -5.876429 -23.658901 31.166695 -0.293856 2.432739 0.121603 -0.039915 570195.000000 0 0 1
18.856024 -4.979729 -22.673901 29.907409 -0.258197 2.431247 0.120278 -0.045797 -126034.000000 0 0 1
19.429324 -5.041129 -21.272401 29.247678 -0.253862 2.385204 0.107459 -0.038262 -569670.000000 0 0 1
19.210824 -6.201629 -20.415101 28.710491 -0.312258 2.361812 0.124004 -0.031153 267336.000000 0 0 1
19.797924 -7.429629 -20.879701 29.717320 -0.359010 2.349856 0.117297 -0.034417 -42117.600000 0 0 1
19.434724 -8.564929 -19.871701 29.085237 -0.415095 2.322964 0.131298 -0.029162 -297833.000000 0 0 1
18.072624 -8.871129 -19.844801 28.268937 -0.456309 2.348999 0.158915 -0.022177 -504298.000000 0 0 1
17.813124 -9.756529 -18.815301 27.685968 -0.501088 2.318009 0.159000 -0.015728 1693150.000000 0 0 1
16.261024 -10.138329 -18.855601 26.883830 -0.557501 2.348119 0.157957 -0.012743 1588520.000000 0 0 1
15.427324 -9.529729 -17.903601 25.482484 -0.553345 2.349819 0.172239 -0.015550 398108.000000 0 0 1
14.097324 -9.412429 -18.389001 25.009673 -0.588700 2.396869 0.151616 -0.025888 403749.000000 0 0 1
13.249024 -8.305329 -17.734601 23.643841 -0.559938 2.418968 0.163183 -0.014397 -265324.000000 0 1 0
11.929524 -8.226829 -18.196701 23.261861 -0.603725 2.469073 0.147056 -0.020575 -434267.000000 0 1 0
11.248024 -7.182529 -17.548701 22.046852 -0.568290 2.491410 0.133580 -0.027130 -79196.700000 0 1 0
9.746024 -7.058229 -17.845401 21.523520 -0.626794 2.548313 0.106722 -0.023668 17269.900000 0 1 0
9.451224 -6.567029 -19.106101 22.304587 -0.607250 2.599439 0.107999 -0.033020 -349201.000000 0 1 0
8.088124 -6.271029 -19.283701 21.831278 -0.659521 2.653665 0.089478 -0.039879 -150602.000000 0 1 0
7.673724 -5.894329 -20.710001 22.858987 -0.654996 2.704508 0.103741 -0.051684 -45809.600000 0 1 0
7.522524 -7.003929 -21.578101 23.901001 -0.749713 2.697060 0.099623 -0.043790 278477.000000 0 1 0
7.071824 -6.724329 -22.938701 24.928123 -0.760216 2.739371 0.117318 -0.043035 148722.000000 0 1 0
7.107624 -7.912229 -23.869201 26.131599 -0.838916 2.722412 0.109282 -0.041513 -271528.000000 0 0 1
6.378424 -9.050629 -23.477001 25.957037 -0.956890 2.700899 0.118435 -0.034058 21565.600000 0 0 1
6.073524 -9.878929 -24.594301 27.191186 -1.019569 2.700991 0.100240 -0.018867 168688.000000 0 0 1
5.265724 -11.157729 -24.225501 27.186351 -1.129852 2.670539 0.107093 -0.023930 445758.000000 0 0 1
6.081224 -12.138029 -23.605101 27.230751 -1.106344 2.619655 0.091220 -0.010289 -106306.000000 0 0 1
5.335724 -13.303629 -23.381201 27.425117 -1.189365 2.591636 0.096023 -0.010631 -733348.000000 0 0 1
5.982824 -14.424729 -22.505501 27.392783 -1.177630 2.534982 0.096380 -0.003234 592556.000000 0 0 1
7.126424 -15.137129 -23.050701 28.482511 -1.130788 2.513744 0.074103 -0.001087 915346.000000 0 0 1
8.306324 -14.365329 -23.242401 28.558132 -1.046545 2.521566 0.085035 -0.008638 252166.000000 0 0 1
9.160824 -13.997429 -21.963001 27.608371 -0.991289 2.490661 0.079505 0.003130 -109261.000000 0 0 1
9.708524 -15.100829 -21.289901 27.848705 -0.999419 2.441037 0.070782 0.009313 157364.000000 0 0 1
8.814424 -15.567629 -20.308801 27.064599 -1.055599 2.419437 0.071208 0.007776 -203413.000000 0 0 1
9.488324 -15.665529 -18.950201 26.354264 -1.026210 2.373240 0.072146 0.004219 -15653.500000 0 0 1
10.464024 -16.674429 -18.839701 27.248242 -1.010366 2.334235 0.068079 0.007002 210429.000000 0 0 1
11.034924 -16.976929 -17.515401 26.772653 -0.994424 2.283957 0.047153 -0.000618 276411.000000 0 0 1
10.035024 -17.801029 -16.638701 26.351939 -1.057471 2.254158 0.049646 -0.012134 -510630.000000 0 0 1
9.886024 -19.201729 -16.836101 27.384196 -1.095339 2.232942 0.041345 -0.022359 76750.000000 0 0 1
9.173424 -19.528529 -18.024301 28.113886 -1.131645 2.266750 0.069048 -0.009653 421076.000000 0 0 1
7.620824 -19.369829 -17.923501 27.468511 -1.195960 2.281689 0.085596 -0.009024 196215.000000 0 0 1
7.113024 -18.106729 -17.520901 26.180732 -1.196479 2.303967 0.099548 -0.006225 -1276410.000000 0 0 1
5.795724 -17.934529 -17.907001 25.998047 -1.258229 2.330605 0.096159 -0.003168 -829475.000000 0 0 1
5.146024 -16.690629 -17.374201 24.635777 -1.271726 2.353562 0.084407 0.011207 -156502.000000 0 1 0
4.990924 -16.715429 -15.988001 23.662863 -1.280641 2.312653 0.048165 0.017632 36867.400000 0 1 0
4.694124 -15.461929 -15.400601 22.322288 -1.276047 2.332175 0.034958 0.019633 76854.600000 0 1 0
10.897224 29.658971 -17.953701 36.341979 1.218690 2.087505 0.096449 -0.031199 -255815.000000 0 0 1
10.151124 29.003271 -18.980501 36.117786 1.234122 2.124119 0.131546 -0.040981 389944.000000 0 0 1
9.058824 28.346771 -18.328201 34.950317 1.261482 2.122815 0.113776 -0.034023 -250593.000000 0 0 1
8.025224 27.761671 -19.236101 34.715158 1.289392 2.158093 0.132172 -0.032663 -518090.000000 0 0 1
7.426324 28.715371 -20.081601 35.818899 1.317723 2.165958 0.139683 -0.041870 85440.700000 0 0 1
6.553924 28.125971 -21.066201 35.746454 1.341861 2.201017 0.131588 -0.039025 768778.000000 0 0 1
5.413124 29.069771 -21.517601 36.569942 1.386693 2.199870 0.124732 -0.051985 377473.000000 0 0 1
4.242124 29.156371 -20.724101 36.021909 1.426315 2.183791 0.110764 -0.037618 230925.000000 0 0 1
3.346424 30.133571 -21.271901 37.036798 1.460196 2.182600 0.103538 -0.047011 755531.000000 0 0 1
1.930524 30.038371 -20.546001 36.444050 1.506616 2.169738 0.119481 -0.041156 1355050.000000 0 0 1
1.198124 28.833671 -20.876001 35.617741 1.529267 2.197049 0.117240 -0.053360 508632.000000 0 0 1
0.640524 28.713971 -22.202801 36.302435 1.548493 2.228886 0.144514 -0.070712 -180768.000000 0 0 1
-0.274476 27.472671 -22.446201 35.477527 -1.560806 2.255816 0.144941 -0.068054 682502.000000 0 0 1
-1.565576 27.580271 -21.847401 35.219757 -1.514093 2.239943 0.153357 -0.064100 69510.500000 0 0 1
-2.285376 26.433171 -22.104601 34.533301 -1.484552 2.265419 0.166663 -0.070170 -292391.000000 0 0 1
-3.277276 26.006971 -21.005401 33.590623 -1.445442 2.246357 0.121460 -0.063268 748677.000000 0 0 1
-4.505276 26.761171 -20.924601 34.268013 -1.404009 2.227635 0.111747 -0.061507 524084.000000 0 0 1
-5.475376 26.032671 -20.208401 33.407472 -1.363491 2.220445 0.101628 -0.058615 -1210810.000000 0 0 1
-6.774676 26.763071 -20.208601 34.213239 -1.322869 2.202680 0.102573 -0.065984 -1123560.000000 0 0 1
-7.752076 26.135371 -19.382101 33.448739 -1.282450 2.188858 0.107706 -0.054347 -299671.000000 0 0 1
-8.488876 27.091871 -18.672301 33.980661 -1.267149 2.152559 0.099608 -0.065758 -951086.000000 0 0 1
-9.798376 26.580771 -18.153901 33.646837 -1.217625 2.140690 0.120273 -0.057116 -711918.000000 0 0 1
-9.559176 25.553271 -17.194001 32.248739 -1.212825 2.133137 0.117828 -0.063508 -384873.000000 0 0 1
-10.763676 25.023071 -16.708001 31.955721 -1.164572 2.120986 0.089771 -0.050148 -101849.000000 0 0 1
-10.520276 24.217571 -15.452801 30.593398 -1.160985 2.100297 0.082575 -0.030853 -123858.000000 0 0 1
-9.929276 22.958171 -15.584001 29.470820 -1.162595 2.127976 0.086176 -0.029985 -260332.000000 0 0 1
-9.955476 22.348071 -14.348301 28.362326 -1.151713 2.101213 0.093489 -0.019825 -238642.000000 0 0 1
-9.545476 20.835371 -14.256901 26.990517 -1.141195 2.127298 0.096760 -0.006249 308820.000000 0 0 1
-10.516976 19.847871 -14.619301 26.800536 -1.083532 2.147764 0.092007 -0.004494 114372.000000 0 0 1
-10.935176 19.862371 -16.015001 27.759181 -1.067533 2.185757 0.115367 -0.003617 393585.000000 0 0 1
-9.823776 19.629871 -17.083601 27.815244 -1.106789 2.232144 0.118085 -0.020829 391297.000000 0 0 1
-9.143476 18.386271 -17.102101 26.723397 -1.109312 2.265252 0.108439 -0.019988 -136459.000000 0 0 1
-8.050476 18.427771 -17.981201 26.976221 -1.158918 2.300377 0.122885 -0.031756 -138927.000000 0 0 1
-7.312876 17.080571 -18.116701 25.950702 -1.166269 2.343565 0.105475 -0.031916 -65352.500000 0 0 1
-8.076576 15.980571 -18.585301 25.807424 -1.102838 2.374820 0.106783 -0.038679 112918.000000 0 0 1
-7.464976 15.283271 -19.716701 26.039442 -1.116439 2.429791 0.091943 -0.041948 766005.000000 0 0 1
-6.206876 14.374271 -19.427201 24.951174 -1.163176 2.463242 0.064735 -0.036811 158018.000000 0 1 0
-6.333976 13.210271 -18.583601 23.663912 -1.123704 2.473999 0.046197 -0.033464 846045.000000 0 1 0
-5.031676 12.668571 -18.266901 22.792326 -1.192725 2.500511 0.035530 -0.021131 1088080.000000 0 1 0
-4.247076 13.297971 -17.094201 22.070011 -1.261658 2.456791 0.013501 -0.010461 -244910.000000 0 1 0
-3.799076 14.576371 -17.451001 23.053004 -1.315836 2.429498 0.037153 -0.017856 -665575.000000 0 1 0
-3.212176 15.114371 -16.313001 22.469452 -1.361387 2.383295 0.028966 -0.009223 -438249.000000 0 1 0
-2.500376 16.434971 -16.454101 23.390117 -1.419817 2.351056 0.063326 -0.020730 -116069.000000 0 1 0
-3.321576 17.495671 -16.902601 24.552582 -1.383178 2.330111 0.077126 -0.026049 147762.000000 0 1 0
-2.624776 18.737171 -16.714601 25.245770 -1.431618 2.294381 0.089090 -0.033120 300944.000000 0 0 1
-3.377276 19.951171 -17.282701 26.611031 -1.403109 2.277665 0.104527 -0.033815 131780.000000 0 0 1
-3.514876 19.852271 -18.699201 27.497766 -1.395561 2.318595 0.117509 -0.035445 -173479.000000 0 0 1
-3.854976 21.064171 -19.387601 28.886661 -1.389788 2.306570 0.149817 -0.038567 273425.000000 0 0 1
-2.706376 22.103371 -19.504901 29.602781 -1.448961 2.290135 0.117925 -0.047635 342320.000000 0 0 1
-1.623876 21.734271 -20.415101 29.862884 -1.496220 2.323518 0.154436 -0.047096 921375.000000 0 0 1
-0.439876 22.502171 -20.258201 30.280949 -1.551251 2.303670 0.147139 -0.051160 480710.000000 0 0 1
0.465924 22.010371 -19.127601 29.163996 1.549631 2.286122 0.139389 -0.048820 -528611.000000 0 0 1
-0.180176 22.212271 -17.882001 28.516371 -1.562685 2.248593 0.130144 -0.042117 -345499.000000 0 0 1
0.664524 21.668871 -16.914701 27.497067 1.540139 2.233367 0.128470 -0.042599 -43658.900000 0 0 1
0.283224 21.890071 -15.439001 26.788396 1.557859 2.185029 0.126333 -0.047233 143589.000000 0 0 1
-0.894876 21.245871 -14.963701 26.001927 -1.528701 2.183993 0.109482 -0.033574 320806.000000 0 0 1
-0.789976 21.149671 -13.576001 25.144392 -1.533462 2.141140 0.119873 -0.033492 694012.000000 0 0 1
-1.829476 20.064371 -13.111101 24.038031 -1.479867 2.147700 0.077130 -0.025849 207900.000000 0 1 0
-1.393576 18.788071 -13.422001 23.131878 -1.496758 2.189818 0.063319 -0.020706 350978.000000 0 1 0
-2.227076 17.807971 -12.756001 22.018157 -1.446382 2.188715 0.049911 -0.014430 329941.000000 0 1 0
-1.649576 16.410871 -12.822201 20.891305 -1.470616 2.231608 0.023437 -0.006887 -169204.000000 0 1 0
-0.473476 16.115671 -12.070501 20.140408 -1.541425 2.213445 0.019432 -0.008064 320175.000000 0 1 0
-0.111576 14.757471 -11.996901 19.018965 -1.563236 2.253362 0.013544 -0.006168 15187.900000 0 1 0
0.538324 14.088571 -13.221101 19.328092 1.532605 2.324077 0.015373 -0.007238 -222839.000000 0 1 0
-0.290176 13.866371 -14.352901 19.959114 -1.549873 2.373324 0.017789 -0.017378 392653.000000 0 1 0
0.351524 12.872071 -15.202401 19.923021 1.543494 2.438826 0.016290 -0.021640 211966.000000 0 1 0
-0.236076 12.821471 -16.639901 21.007907 -1.552386 2.485002 0.016849 -0.011125 -50808.000000 0 1 0
-0.129176 14.095971 -17.303001 22.318309 -1.561633 2.457959 0.031729 -0.016124 14672.000000 0 1 0
-0.436376 13.861371 -18.671801 23.258637 -1.539325 2.502756 0.035684 -0.020896 -350104.000000 0 1 0
-0.861276 15.146071 -19.412301 24.637019 -1.513993 2.478240 0.045017 -0.023331 -157980.000000 0 1 0
0.136324 16.117371 -19.655501 25.419027 1.562338 2.454762 0.053630 -0.026234 -149965.000000 0 0 1
-0.439476 17.415671 -19.727901 26.318982 -1.545567 2.418207 0.107170 -0.043577 -83661.800000 0 0 1
0.636124 18.482571 -19.914001 27.176783 1.536392 2.393162 0.135159 -0.048084 40183.700000 0 0 1
1.195524 18.328671 -21.207401 28.055718 1.505662 2.427829 0.128965 -0.056623 -638699.000000 0 0 1
2.061224 19.308471 -21.615501 29.056765 1.464447 2.409693 0.131885 -0.051181 -555512.000000 0 0 1
2.633624 19.076571 -22.969401 29.974071 1.433608 2.443873 0.143096 -0.060401 -265628.000000 0 0 1
3.449324 17.941871 -23.050601 29.413242 1.380864 2.471366 0.118264 -0.055291 -54979.700000 0 0 1
4.045924 17.863071 -24.391401 30.502447 1.348058 2.497515 0.115224 -0.059150 541219.000000 0 0 1
4.909624 16.629571 -24.628401 30.119847 1.283717 2.528166 0.087123 -0.048189 -429765.000000 0 0 1
6.133124 16.524071 -23.932101 29.722140 1.215394 2.506800 0.083103 -0.043613 445742.000000 0 0 1
7.046824 15.499271 -24.350001 29.712080 1.144078 2.531390 0.096677 -0.046558 483589.000000 0 0 1
7.620224 15.559471 -25.784101 31.064205 1.115384 2.549951 0.085940 -0.045566 -933846.000000 0 0 1
8.631224 16.560971 -26.021741 32.029593 1.090350 2.519101 0.081314 -0.036870 730710.000000 0 0 1
9.034724 16.594471 -27.419921 33.299471 1.072230 2.538233 0.083463 -0.041580 160639.000000 0 0 1
9.558824 15.321271 -28.109561 33.410476 1.012994 2.570553 0.093103 -0.048625 -596492.000000 0 0 1
10.690024 14.781971 -27.464651 32.971053 0.944682 2.555291 0.081972 -0.042023 -98870.200000 0 0 1
10.941124 13.439071 -27.769771 32.733423 0.887500 2.583679 0.073489 -0.036577 -437033.000000 0 0 1
10.265624 12.468571 -26.825111 31.311897 0.881997 2.599647 0.086718 -0.031802 -1186470.000000 0 0 1
8.901924 12.484771 -27.030141 31.076394 0.951384 2.625586 0.101307 -0.043098 -1120120.000000 0 0 1
8.224824 11.364471 -26.381381 29.879361 0.944320 2.652863 0.115863 -0.046018 169212.000000 0 0 1
6.715124 11.636971 -26.362821 29.589024 1.047422 2.670265 0.094634 -0.051418 -373928.000000 0 0 1
6.283024 12.749671 -25.514101 29.206161 1.112926 2.633320 0.107075 -0.043126 -404115.000000 0 0 1
4.888624 12.906471 -25.469481 28.968433 1.208722 2.645008 0.117567 -0.053987 -354458.000000 0 0 1
4.271524 13.744171 -26.602071 30.245964 1.269472 2.645659 0.123933 -0.044634 -808262.000000 0 0 1
4.331224 13.223371 -27.920941 31.196089 1.254266 2.679259 0.123131 -0.053887 120000.000000 0 0 1
4.094624 14.215371 -28.860161 32.430720 1.290346 2.667926 0.113373 -0.068761 -142644.000000 0 0 1
4.180324 13.712271 -30.302171 33.521979 1.274887 2.699713 0.142280 -0.064365 -135986.000000 0 0 1
5.489624 13.305771 -30.606751 33.822370 1.179497 2.702003 0.139046 -0.058559 -291416.000000 0 0 1
5.567024 12.959571 -31.978321 34.950755 1.165062 2.726189 0.137269 -0.056181 66604.600000 0 0 1
6.902224 12.251771 -32.352361 35.276364 1.057750 2.731569 0.134635 -0.047516 2695430.000000 0 0 1
8.220424 12.761171 -31.859171 35.290645 0.998527 2.696952 0.148782 -0.042522 2400770.000000 0 0 1
8.487824 12.620471 -30.465161 34.050631 0.978736 2.678559 0.135951 -0.045129 -545010.000000 0 0 1
8.541624 11.208171 -29.860041 33.018245 0.919603 2.700650 0.142723 -0.043866 -683112.000000 0 0 1
9.713424 10.504371 -30.113591 33.339478 0.824500 2.698060 0.119067 -0.036529 -423919.000000 0 0 1
9.541224 9.103671 -29.780451 32.569726 0.761935 2.724721 0.113579 -0.041794 678770.000000 0 0 1
10.775324 8.290171 -30.329251 33.236998 0.655781 2.720187 0.090403 -0.030523 623875.000000 0 0 1
11.971024 8.521171 -29.634461 33.077440 0.618612 2.681275 0.089730 -0.034178 -376882.000000 0 0 1
12.785124 7.384171 -29.645841 33.118896 0.523756 2.679527 0.071492 -0.030379 -787148.000000 0 0 1
13.982524 7.448071 -28.685081 32.769172 0.489441 2.636993 0.083727 -0.020743 259932.000000 0 0 1
14.624324 6.166871 -28.425521 32.556281 0.399060 2.632361 0.088539 -0.024792 525999.000000 0 0 1
15.515124 5.775671 -29.480931 33.811281 0.356367 2.629918 0.074435 -0.016159 -204663.000000 0 0 1
16.392624 4.560271 -28.969001 33.596387 0.271330 2.610522 0.090397 -0.028576 356950.000000 0 0 1
17.385724 4.954671 -28.025641 33.350393 0.277625 2.568705 0.086502 -0.032494 388891.000000 0 0 1
18.373624 3.952671 -27.921851 33.657740 0.211898 2.549155 0.073538 -0.031153 105450.000000 0 0 1
19.173424 4.001971 -26.577011 33.014746 0.205771 2.506479 0.088360 -0.027185 -186982.000000 0 0 1
20.090024 5.037471 -26.519961 33.649569 0.245680 2.478548 0.128039 -0.029114 -129226.000000 0 0 1
20.816824 5.060671 -25.292061 33.145722 0.238479 2.438825 0.139931 -0.031441 -364756.000000 0 0 1
21.711024 6.283771 -25.266651 33.900708 0.281729 2.411801 0.140571 -0.023622 -793926.000000 0 0 1
21.071124 7.535071 -25.351521 33.815221 0.343431 2.418416 0.148827 -0.022629 385336.000000 0 0 1
21.895824 8.576071 -25.937901 35.010724 0.373310 2.405140 0.157989 -0.036149 -46074.800000 0 0 1
22.171324 8.373871 -27.497871 36.301822 0.361126 2.430239 0.184902 -0.036858 -66147.900000 0 0 1
21.201024 8.647371 -28.505391 36.562519 0.387277 2.464878 0.156676 -0.021964 242557.000000 0 0 1
20.204424 7.640871 -28.593121 35.835293 0.361554 2.494606 0.136880 -0.017491 670199.000000 0 0 1
18.767724 8.082571 -29.054451 35.520650 0.406658 2.528651 0.129437 -0.005245 576732.000000 0 0 1
18.665324 8.123371 -30.468531 36.643074 0.410488 2.552590 0.085650 0.002408 504080.000000 0 0 1
17.588824 9.005571 -30.798531 36.592575 0.473206 2.571147 0.067773 -0.000508 157603.000000 0 0 1
16.968024 8.723271 -32.171771 37.403638 0.474864 2.606309 0.037031 0.005321 -87932.900000 0 0 1
16.048024 7.657671 -32.122841 36.715881 0.445219 2.636032 0.053564 -0.001599 356093.000000 0 0 1
15.154324 7.621971 -33.228611 37.308023 0.466010 2.669582 0.048860 0.005368 315551.000000 0 0 1
14.427924 6.270771 -33.400001 36.919475 0.409997 2.701405 0.063834 -0.000592 -120412.000000 0 0 1
13.761824 5.773371 -32.293981 35.575565 0.397221 2.708703 0.071811 -0.006787 -31835.700000 0 0 1
13.078424 4.595671 -32.661301 35.481347 0.337916 2.740207 0.081913 -0.019187 6378.100000 0 0 1
12.823424 3.646171 -31.458701 34.167011 0.277026 2.740752 0.093128 -0.027239 -161325.000000 0 0 1
13.983724 2.980971 -31.021361 34.157804 0.210030 2.709706 0.090091 -0.031611 153803.000000 0 0 1
13.734724 1.987771 -30.016861 33.069712 0.143728 2.708529 0.104542 -0.037605 64382.300000 0 0 1
13.106624 0.637671 -30.458261 33.164678 0.048614 2.734800 0.114528 -0.032316 496685.000000 0 0 1
14.083424 -0.090029 -31.206311 34.237184 -0.006392 2.717650 0.118419 -0.034280 701290.000000 0 0 1
14.952124 -0.890629 -30.398531 33.888493 -0.059495 2.683768 0.116425 -0.034738 109194.000000 0 0 1
15.300524 -2.176529 -31.141281 34.765251 -0.141304 2.680932 0.125077 -0.033819 827857.000000 0 0 1
14.280224 -3.208329 -31.011491 34.291847 -0.221000 2.700627 0.124517 -0.032214 1023800.000000 0 0 1
14.759724 -4.360329 -31.709441 35.246994 -0.287250 2.689730 0.126745 -0.028799 477844.000000 0 0 1
13.830624 -5.610329 -31.520881 34.875893 -0.385364 2.699367 0.133602 -0.036019 332602.000000 0 0 1
14.083024 -6.192129 -30.294351 33.976782 -0.414245 2.671705 0.131707 -0.022547 430536.000000 0 0 1
13.462024 -7.505629 -30.219531 33.923157 -0.508614 2.669950 0.145355 -0.035872 125193.000000 0 0 1
13.855424 -8.318929 -28.991381 33.191528 -0.540721 2.633055 0.123090 -0.026935 1376100.000000 0 0 1
15.279524 -8.665029 -29.039121 33.938432 -0.515877 2.597585 0.140196 -0.024994 1634670.000000 0 0 1
15.730424 -9.451629 -27.976681 33.458545 -0.541044 2.561040 0.141364 -0.029334 5566.000000 0 0 1
15.547224 -11.007129 -28.264281 34.084346 -0.616062 2.548552 0.109031 -0.017760 -956095.000000 0 0 1
14.215224 -11.360029 -28.332281 33.672556 -0.674220 2.570676 0.100750 -0.019979 -960859.000000 0 0 1
13.962824 -12.723629 -28.526791 34.214456 -0.738996 2.556687 0.094793 -0.023020 139248.000000 0 0 1
-10.429076 -2.612529 -17.602701 20.626342 0.245453 2.593287 0.042660 -0.003626 126726.000000 0 1 0
-11.076576 -2.485529 -18.844601 21.999713 0.220739 2.599409 0.051769 -0.000694 203872.000000 0 1 0
-12.220776 -3.323429 -18.960701 22.801331 0.265528 2.552709 0.065518 -0.009225 144903.000000 0 1 0
-13.162176 -2.939629 -20.120901 24.222612 0.219733 2.551099 0.072022 -0.019764 -182812.000000 0 1 0
-13.770376 -1.680829 -19.953101 24.301742 0.121460 2.534055 0.063009 -0.012554 -327584.000000 0 1 0
-14.653976 -1.395529 -21.001501 25.646628 0.094946 2.530253 0.058363 -0.009317 63383.000000 0 0 1
-15.516176 -0.145929 -20.604001 25.793368 0.009405 2.496111 0.060680 0.000821 578629.000000 0 0 1
-14.736676 1.042371 -20.700401 25.431530 -0.070616 2.521743 0.055133 -0.005397 134240.000000 0 0 1
-15.542476 2.122471 -20.381701 25.719393 -0.135720 2.485635 0.057006 -0.000212 -217880.000000 0 0 1
-15.060576 3.323971 -21.103101 26.138297 -0.217224 2.510466 0.083439 -0.021381 -384093.000000 0 0 1
-13.793876 3.800071 -20.764201 25.216336 -0.268821 2.538248 0.090583 -0.021900 -193046.000000 0 0 1
-13.522076 4.967971 -21.523501 25.899582 -0.352088 2.551765 0.113662 -0.029612 -115724.000000 0 0 1
-12.280176 5.739771 -21.034301 25.023779 -0.437230 2.569136 0.100059 -0.027197 -866.504000 0 0 1
-12.536476 6.222871 -19.749901 24.206320 -0.460748 2.525078 0.107155 -0.032188 397562.000000 0 1 0
-11.333176 6.653671 -19.146701 23.223014 -0.530878 2.540063 0.082163 -0.021175 -19666.800000 0 1 0
-11.501576 7.148571 -17.717501 22.300183 -0.556100 2.488981 0.088398 -0.023159 -323558.000000 0 1 0
-12.029776 8.435971 -17.768701 23.056622 -0.611569 2.450665 0.095168 -0.029634 254133.000000 0 1 0
-13.126876 8.472471 -16.862501 22.987857 -0.573155 2.394312 0.111532 -0.024547 353233.000000 0 1 0
-13.914076 9.818771 -16.803901 23.924482 -0.614522 2.349522 0.132846 -0.031885 494273.000000 0 1 0
-13.094776 10.724371 -16.056501 23.330163 -0.686208 2.329842 0.095925 -0.021094 1255120.000000 0 1 0
-13.859976 11.956471 -15.946201 24.276273 -0.711799 2.287448 0.107965 -0.026964 381388.000000 0 1 0
-13.134676 13.184771 -15.337601 24.116382 -0.787302 2.260078 0.111245 -0.017411 -158760.000000 0 1 0
-12.910776 13.025471 -13.903001 23.014006 -0.789820 2.219445 0.116779 -0.020325 152306.000000 0 1 0
-12.644476 14.257671 -13.281501 23.228478 -0.845292 2.179466 0.099620 -0.023524 -742562.000000 0 1 0
-13.195476 14.388571 -11.841101 22.833380 -0.828624 2.115994 0.089515 -0.029488 571849.000000 0 1 0
-14.549476 14.773471 -11.675001 23.795973 -0.793037 2.083608 0.096014 -0.025405 262591.000000 0 1 0
-15.575076 13.896871 -12.070401 24.112250 -0.728517 2.095079 0.092714 -0.017970 -899482.000000 0 1 0
-16.954976 14.470871 -11.791901 25.217578 -0.706516 2.057377 0.068858 -0.017143 -424044.000000 0 0 1
-18.055976 13.700171 -12.265801 25.771356 -0.649085 2.066837 0.064000 -0.018379 -77693.300000 0 0 1
-19.206976 14.199071 -11.642701 26.572053 -0.636596 2.024342 0.137527 -0.026067 -111486.000000 0 0 1
-20.513476 13.707271 -12.353401 27.591638 -0.589069 2.035013 0.130376 -0.034350 119068.000000 0 0 1
-20.684376 12.329171 -12.183901 26.987021 -0.537519 2.039211 0.127745 -0.036916 688926.000000 0 0 1
-21.944676 11.895271 -12.683101 27.998702 -0.496725 2.040911 0.178032 -0.045512 -22146.900000 0 0 1
-22.591076 10.687671 -12.023401 27.733467 -0.441891 2.019207 0.165737 -0.043097 -307933.000000 0 0 1
-21.835776 9.497571 -12.264701 26.784843 -0.410272 2.046425 0.159021 -0.037859 391847.000000 0 0 1
-22.021476 8.527971 -11.299801 26.179327 -0.369473 2.017096 0.142525 -0.038415 -583834.000000 0 0 1
-20.982376 7.421671 -11.169101 24.901608 -0.339976 2.035915 0.149857 -0.038058 -645453.000000 0 1 0
-21.005376 6.567271 -12.353801 25.238289 -0.303019 2.082297 0.163408 -0.035575 122388.000000 0 0 1
-19.843876 5.789871 -12.385201 24.097618 -0.283890 2.110591 0.157794 -0.042747 -311550.000000 0 1 0
-19.946976 4.575771 -13.331901 24.424559 -0.225495 2.148188 0.169464 -0.051657 -121252.000000 0 1 0
-20.798676 3.537571 -12.894101 24.725638 -0.168474 2.119389 0.155331 -0.049613 329460.000000 0 1 0
-20.948676 2.632971 -13.963501 25.313216 -0.125031 2.155112 0.140213 -0.042085 -380677.000000 0 0 1
-21.716676 1.376871 -13.560901 25.639965 -0.063317 2.128097 0.137992 -0.037422 -1400470.000000 0 0 1
-22.994976 1.352071 -14.064401 26.988968 -0.058731 2.118955 0.114105 -0.036734 -945996.000000 0 0 1
-23.441476 0.048571 -13.866301 27.235628 -0.002072 2.104963 0.098783 -0.036843 575435.000000 0 0 1
-24.706676 -0.367829 -14.727401 28.765456 0.014887 2.108287 0.105645 -0.032482 1398030.000000 0 0 1
-25.973766 0.079971 -14.220601 29.611964 -0.003079 2.071715 0.137433 -0.044526 353422.000000 0 0 1
-26.990676 -0.510829 -15.002201 30.884034 0.018924 2.078028 0.154459 -0.034438 192845.000000 0 0 1
-28.381216 -0.233829 -14.354001 31.805431 0.008239 2.039025 0.159172 -0.043916 -70509.300000 0 0 1
-28.549366 -0.905729 -13.164301 31.451319 0.031714 2.002657 0.180899 -0.045971 -82006.600000 0 0 1
-29.806976 -0.560229 -12.643201 32.382405 0.018793 1.971900 0.208217 -0.051474 -140893.000000 0 0 1
-30.117116 -0.953529 -11.206901 32.148787 0.031650 1.926868 0.210090 -0.056835 -10931.900000 0 0 1
-30.491126 -2.336129 -10.853901 32.449552 0.076467 1.911855 0.235436 -0.052344 1004730.000000 0 0 1
-29.468036 -3.290529 -11.227301 31.705599 0.111204 1.932760 0.226844 -0.056551 430914.000000 0 0 1
-29.807616 -4.741929 -10.923901 32.098465 0.157762 1.918059 0.236489 -0.055043 -164326.000000 0 0 1
-30.904616 -5.257429 -11.649501 33.443186 0.168505 1.926593 0.233723 -0.045594 152031.000000 0 0 1
-31.276446 -6.568729 -11.264801 33.885985 0.207013 1.909678 0.245294 -0.049452 244476.000000 0 0 1
-30.350816 -7.719129 -11.802401 33.467202 0.249050 1.931204 0.238902 -0.053734 -262185.000000 0 0 1
-29.013636 -7.631329 -11.410601 32.097197 0.257200 1.934247 0.174944 -0.040656 -297287.000000 0 0 1
-28.289816 -8.793029 -11.847501 31.906023 0.301353 1.951232 0.165862 -0.043590 481481.000000 0 0 1
-26.792606 -8.689429 -11.442801 30.402098 0.313618 1.956684 0.165988 -0.051756 -66703.300000 0 0 1
-26.023756 -7.605929 -11.985501 29.643519 0.284349 1.987033 0.141731 -0.038867 1025790.000000 0 0 1
-24.644976 -7.559229 -11.626001 28.278625 0.297615 1.994482 0.139486 -0.043755 449812.000000 0 0 1
-24.290176 -7.399229 -10.091801 27.324086 0.295688 1.949092 0.138592 -0.046145 -895131.000000 0 0 1
-24.512176 -6.158829 -9.465101 26.988258 0.246160 1.929127 0.139728 -0.033044 -453610.000000 0 0 1
-25.849696 -5.902129 -9.224801 28.073811 0.224477 1.905608 0.153912 -0.040118 -1094060.000000 0 0 1
-26.085766 -4.593229 -8.441901 27.799831 0.174295 1.879336 0.161944 -0.048072 -242265.000000 0 0 1
-25.961246 -4.541729 -7.043001 27.280349 0.173190 1.831925 0.161310 -0.046388 219920.000000 0 0 1
-26.327406 -3.287329 -6.573201 27.333968 0.124220 1.813654 0.196980 -0.059256 -26390.800000 0 0 1
-26.103686 -3.030729 -5.059201 26.761600 0.115586 1.760988 0.190002 -0.052072 1218680.000000 0 0 1
-24.699976 -2.784329 -4.791601 25.314042 0.112252 1.761232 0.144832 -0.049288 1308910.000000 0 0 1
-24.521876 -2.521429 -3.408101 24.885641 0.102464 1.708179 0.127641 -0.038474 -301427.000000 0 1 0
-23.081476 -2.786529 -2.948601 23.435305 0.120144 1.696949 0.106692 -0.031545 -488542.000000 0 1 0
-22.831976 -4.211729 -3.025601 23.413501 0.182416 1.700383 0.118956 -0.026673 642101.000000 0 1 0
-21.477876 -4.624029 -2.906201 22.161381 0.212056 1.702313 0.087445 -0.022203 -72523.800000 0 1 0
-21.384976 -6.188629 -2.937101 22.455353 0.281696 1.701970 0.094865 -0.013077 -82915.800000 0 1 0
-21.954476 -6.828829 -1.796701 23.062091 0.301559 1.648782 0.104224 -0.012691 557926.000000 0 1 0
-22.511376 -8.063829 -2.122601 24.006099 0.343971 1.659331 0.108277 -0.010641 -226363.000000 0 1 0
-22.972876 -8.920929 -0.920801 24.661384 0.370401 1.608143 0.121267 -0.011598 142532.000000 0 1 0
-21.935076 -9.555929 -0.138801 23.926608 0.410853 1.576597 0.082416 0.000700 341288.000000 0 1 0
-22.275376 -10.367329 0.972899 24.589030 0.435600 1.531220 0.059087 0.006228 69654.900000 0 1 0
-21.063676 -11.051329 1.684399 23.846331 0.483183 1.500102 0.068456 0.004867 299719.000000 0 1 0
-20.435476 -12.067429 0.949699 23.751493 0.533415 1.530801 0.066288 0.013610 47443.400000 0 1 0
-19.318176 -12.572129 1.636699 23.106906 0.576932 1.499905 0.045448 0.001747 -160482.000000 0 1 0
-18.746776 -13.814829 0.883699 23.303906 0.635076 1.532867 0.058350 0.005596 -150230.000000 0 1 0
-19.539376 -14.993429 0.982599 24.648643 0.654509 1.530922 0.077003 0.007876 157774.000000 0 1 0
-19.011276 -16.192329 0.428199 24.976058 0.705493 1.553651 0.075055 0.001169 -464943.000000 0 1 0
-17.949976 -16.962829 1.207999 24.726473 0.757131 1.521922 0.075780 -0.000716 -336095.000000 0 1 0
-16.682376 -16.332729 1.070399 23.371039 0.774808 1.524980 0.090466 0.003598 52088.800000 0 1 0
-15.633876 -16.911429 1.805799 23.101416 0.824633 1.492548 0.098571 -0.006468 206607.000000 0 1 0
-15.641376 -16.635829 3.350599 23.078777 0.816198 1.425100 0.108393 -0.021560 -387613.000000 0 1 0
-15.222576 -15.303929 3.693199 21.899241 0.788063 1.401341 0.076409 -0.015418 119958.000000 0 1 0
-14.493076 -15.187529 4.909499 21.559533 0.808791 1.341063 0.058616 -0.017239 -309626.000000 0 1 0
-15.137576 -15.568329 6.237299 22.592542 0.799426 1.291085 0.082874 -0.023556 -1566200.000000 0 1 0
-15.975576 -14.572729 6.770699 22.658901 0.739508 1.267351 0.074874 -0.018290 246415.000000 0 1 0
-16.386776 -14.813829 8.094799 23.526617 0.735027 1.219548 0.084404 -0.019039 71031.000000 0 1 0
-17.259276 -16.098929 8.388299 25.048387 0.750628 1.229314 0.064438 -0.014575 -338610.000000 0 0 1
-16.656176 -17.371929 8.046699 25.376396 0.806429 1.248133 0.067980 -0.007144 507620.000000 0 0 1
-17.352876 -18.509729 8.680899 26.815860 0.817645 1.241135 0.078445 -0.011938 371049.000000 0 0 1
-17.094376 -18.742129 10.197299 27.339897 0.831346 1.188575 0.091126 -0.014304 75410.500000 0 0 1
-15.783476 -19.214729 10.467899 26.979637 0.883127 1.172344 0.058137 -0.008718 248318.000000 0 0 1
-15.569076 -19.431029 11.838999 27.570326 0.895295 1.126956 0.064180 -0.013062 -85022.400000 0 0 1
-14.254876 -20.199029 12.038699 27.497864 0.956241 1.117641 0.052189 -0.006392 -195010.000000 0 0 1
-13.087076 -19.474529 11.842599 26.282617 0.979104 1.103374 0.061244 -0.014933 46095.000000 0 0 1
-11.890676 -20.260929 11.835599 26.305414 1.040082 1.104109 0.062860 -0.012228 1344200.000000 0 0 1
-10.552876 -19.599729 12.285599 25.425352 1.076888 1.066487 0.095220 -0.015695 404679.000000 0 0 1
-9.985776 -18.673829 11.398799 24.049121 1.079739 1.076991 0.093590 -0.023322 13273.100000 0 1 0
-8.707476 -18.357429 11.929699 23.561262 1.127895 1.039876 0.084317 -0.012837 328926.000000 0 1 0
-7.794576 -17.574629 10.936899 22.118742 1.153350 1.053579 0.064282 -0.015033 634271.000000 0 1 0
-6.930576 -18.413229 10.142499 22.134818 1.210807 1.094811 0.062329 -0.013849 417951.000000 0 1 0
-6.015176 -17.629729 9.373399 20.853064 1.241987 1.104594 0.052820 -0.004018 224290.000000 0 1 0
-4.936976 -18.392429 8.578899 20.886663 1.308554 1.147535 0.048240 -0.010277 212815.000000 0 1 0
-3.788076 -18.703229 9.349899 21.250433 1.370964 1.115213 0.055800 -0.003287 -694772.000000 0 1 0
-2.718376 -18.834929 8.486999 20.836825 1.427460 1.151292 0.058199 -0.018466 -682374.000000 0 1 0
-1.401076 -19.256229 9.137199 21.360098 1.498165 1.128773 0.052845 -0.015433 176087.000000 0 1 0
-0.425776 -19.815329 8.244299 21.466183 1.549312 1.176607 0.058503 -0.007527 687302.000000 0 1 0
0.766524 -20.077529 8.998699 22.015252 -1.532637 1.149714 0.059872 -0.012695 433336.000000 0 1 0
2.011524 -20.515729 8.216199 22.191153 -1.473061 1.191522 0.067801 -0.024685 -14512.100000 0 1 0
2.003524 -21.856329 7.646899 23.241951 -1.479384 1.235538 0.076502 -0.024777 -155509.000000 0 1 0
2.327224 -22.863029 8.601299 24.538060 -1.469356 1.212661 0.083768 -0.026655 -126667.000000 0 1 0
1.894024 -24.278329 8.185699 25.691054 -1.492941 1.246522 0.076992 -0.031416 -38210.000000 0 0 1
2.109824 -25.219709 9.242599 26.942730 -1.487333 1.220638 0.091795 -0.036055 21839.300000 0 0 1
1.675524 -26.488249 8.831999 27.972110 -1.507625 1.249557 0.099695 -0.031397 -939227.000000 0 0 1
1.634524 -27.452089 10.056599 29.281804 -1.511326 1.220217 0.123081 -0.039365 294919.000000 0 0 1
0.629324 -27.243629 11.044399 29.403913 -1.547701 1.185742 0.112673 -0.039134 -211156.000000 0 0 1
-0.667876 -27.529889 10.585299 29.502363 1.546541 1.203820 0.089141 -0.024625 -633860.000000 0 0 1
-1.649676 -27.632119 11.751299 30.072387 1.511166 1.169332 0.101716 -0.031443 -55254.700000 0 0 1
-1.318876 -28.795699 12.528999 31.430996 1.525027 1.160786 0.102674 -0.039500 -74753.000000 0 0 1
-1.690476 -28.573749 13.869299 31.806828 1.511703 1.119594 0.097420 -0.042072 -158253.000000 0 0 1
-1.226076 -29.649429 14.828299 33.173338 1.529467 1.107394 0.082169 -0.032963 20350.200000 0 0 1
-1.313176 -29.202589 16.175599 33.409065 1.525859 1.065384 0.095334 -0.038698 2752.900000 0 0 1
-0.951676 -30.186009 17.130899 34.721298 1.539280 1.054821 0.101855 -0.036524 -145698.000000 0 0 1
-1.290076 -29.829219 18.603799 35.178800 1.527575 1.013568 0.112784 -0.037693 -327914.000000 0 0 1
-2.672176 -29.728809 18.838799 35.296501 1.481152 1.007791 0.097670 -0.033833 -293134.000000 0 0 1
-2.965676 -29.584369 20.168899 35.927908 1.470885 0.974754 0.112787 -0.040582 -99844.900000 0 0 1
-4.441976 -29.716069 20.592199 36.425466 1.422414 0.969970 0.148801 -0.046617 -72637.400000 0 0 1
-5.261576 -28.736929 19.984399 35.395924 1.389708 0.970853 0.109900 -0.041919 13233.000000 0 0 1
-6.460276 -28.403019 20.660899 35.711894 1.347151 0.953854 0.100114 -0.044655 285361.000000 0 0 1
-6.300276 -27.265059 21.691299 35.406064 1.343707 0.911395 0.138538 -0.049018 -286865.000000 0 0 1
-5.502176 -27.657709 22.805099 36.267001 1.374422 0.890773 0.167617 -0.052665 132237.000000 0 0 1
-5.250476 -26.626409 23.755299 36.067262 1.376104 0.851788 0.178159 -0.047885 -168891.000000 0 0 1
-4.333776 -27.184179 24.862399 37.093127 1.412704 0.836224 0.205137 -0.046597 -76442.700000 0 0 1
-4.879976 -28.254929 25.573799 38.421015 1.399771 0.842472 0.206781 -0.051698 88925.300000 0 0 1
-4.368476 -29.490119 25.043999 38.935236 1.423732 0.872097 0.216079 -0.046202 147110.000000 0 0 1
-4.719376 -30.695649 25.938599 40.463642 1.418243 0.874951 0.221674 -0.032958 185407.000000 0 0 1
-3.968376 -30.667529 27.149399 41.150154 1.442111 0.850291 0.214108 -0.046950 135438.000000 0 0 1
-4.357076 -31.721859 28.029099 42.554563 1.434298 0.851756 0.188392 -0.046465 -441642.000000 0 0 1
-3.732376 -31.611319 29.364899 43.307083 1.453270 0.825673 0.202561 -0.048728 -122536.000000 0 0 1
-2.311576 -31.588319 29.303199 43.149076 1.497748 0.824240 0.211773 -0.049349 294791.000000 0 0 1
-1.791376 -31.496109 30.602999 43.951763 1.513981 0.800586 0.198013 -0.056134 -67865.200000 0 0 1
-28.994886 2.493471 -9.884101 30.734610 -0.085786 1.898210 0.197133 -0.034239 345262.000000 0 0 1
-29.844986 2.251171 -11.050301 31.904546 -0.075286 1.924479 0.194720 -0.053407 792761.000000 0 0 1
-30.503506 3.474371 -11.436901 32.761835 -0.113412 1.927399 0.178409 -0.049936 221534.000000 0 0 1
-31.418636 3.260471 -12.662101 34.030723 -0.103405 1.952044 0.170037 -0.048441 512920.000000 0 0 1
-32.684006 2.636571 -12.470501 35.081464 -0.080494 1.934216 0.163646 -0.047539 407732.000000 0 0 1
-33.419736 2.419571 -13.630301 36.173445 -0.072273 1.957140 0.172085 -0.045743 -735189.000000 0 0 1
-34.719635 1.702971 -13.342401 37.234027 -0.049010 1.937284 0.170807 -0.047118 -595167.000000 0 0 1
-34.603677 0.312171 -12.935801 36.943833 -0.009021 1.928525 0.206401 -0.050645 267973.000000 0 0 1
-35.897448 -0.224529 -12.689801 38.075034 0.006255 1.910581 0.201979 -0.050672 459844.000000 0 0 1
-35.903199 -1.716529 -12.347001 38.005718 0.047774 1.901673 0.235508 -0.054833 -38868.900000 0 0 1
-35.450461 -2.574929 -13.344901 37.966456 0.072507 1.929961 0.225200 -0.049333 -166119.000000 0 0 1
-34.932890 -3.725829 -12.789001 37.386457 0.106255 1.919921 0.244519 -0.056268 -36984.600000 0 0 1
-34.545079 -4.778329 -13.881701 37.535270 0.137449 1.949623 0.246337 -0.053638 -36870.700000 0 0 1
-34.564547 -6.069529 -13.321001 37.536597 0.173828 1.933582 0.230631 -0.056157 206454.000000 0 0 1
-34.603199 -7.077129 -14.274601 38.095030 0.201740 1.954881 0.224718 -0.049305 -575184.000000 0 0 1
-34.854863 -8.510029 -13.781301 38.434441 0.239471 1.937528 0.186167 -0.043079 295590.000000 0 0 1
-33.725556 -9.163129 -13.200101 37.357980 0.265293 1.931936 0.185574 -0.040148 790321.000000 0 0 1
-32.729396 -9.552329 -14.131101 36.907294 0.283970 1.963709 0.193077 -0.037767 185724.000000 0 0 1
-31.662436 -10.634529 -13.730501 36.112736 0.324034 1.960822 0.172033 -0.039944 406918.000000 0 0 1
-32.233376 -11.882329 -13.421001 36.882293 0.353178 1.943234 0.156163 -0.038029 742311.000000 0 0 1
-31.197216 -12.854029 -13.183001 36.225458 0.390829 1.943264 0.168397 -0.040411 428389.000000 0 0 1
-31.392846 -14.132229 -14.042901 37.181093 0.422998 1.958096 0.179567 -0.037015 -299893.000000 0 0 1
-30.978976 -14.002929 -15.384101 37.315540 0.424527 1.995741 0.171769 -0.044764 153884.000000 0 0 1
-30.971046 -15.159129 -16.215601 38.104469 0.455181 2.010373 0.179735 -0.050864 -8321.320000 0 0 1
-29.825706 -16.149729 -15.874301 37.448363 0.496271 2.008542 0.149357 -0.046851 126795.000000 0 0 1
-28.562306 -15.710629 -16.318401 36.454346 0.502880 2.034920 0.155387 -0.054675 17353.200000 0 0 1
-27.484906 -16.618429 -16.061801 35.910634 0.543823 2.034509 0.163624 -0.057226 682373.000000 0 0 1
-26.126966 -16.011729 -16.457701 34.782894 0.549809 2.063665 0.153116 -0.060792 -43988.300000 0 0 1
-26.120726 -15.756129 -17.865101 35.351234 0.542772 2.100595 0.137829 -0.057425 137303.000000 0 0 1
-24.835876 -15.639029 -18.468601 34.676925 0.561968 2.132455 0.092619 -0.036478 -456857.000000 0 0 1
-24.852276 -15.169129 -19.963301 35.302570 0.548011 2.171825 0.102587 -0.042073 111757.000000 0 0 1
-25.478426 -16.152629 -20.811001 36.649084 0.565026 2.174682 0.107289 -0.044721 161288.000000 0 0 1
-26.883596 -16.112929 -20.757101 37.592704 0.539948 2.155746 0.131424 -0.059390 -490786.000000 0 0 1
-27.648106 -17.198129 -21.593701 39.070210 0.556465 2.156385 0.146870 -0.062820 64272.800000 0 0 1
-27.418806 -17.007529 -22.972401 39.607804 0.555203 2.189521 0.134047 -0.047503 312507.000000 0 0 1
-28.017926 -18.020629 -23.809501 40.946789 0.571567 2.191336 0.133435 -0.034402 139202.000000 0 0 1
-27.272576 -17.984629 -25.213741 41.267093 0.582983 2.228106 0.116532 -0.020117 2010130.000000 0 0 1
-25.950196 -18.626829 -25.233491 40.707499 0.622567 2.239378 0.094922 -0.019956 1192150.000000 0 0 1
-25.837196 -19.971329 -24.827001 41.021880 0.658039 2.220831 0.074696 -0.011691 -1067700.000000 0 0 1
-24.425976 -20.504129 -24.564001 40.254661 0.698331 2.227128 0.052687 0.000479 -281541.000000 0 0 1
-23.643776 -20.497329 -25.699371 40.492299 0.714237 2.258382 0.036699 -0.004953 146479.000000 0 0 1
-22.295976 -20.947929 -25.510451 39.833521 0.754235 2.265850 0.044046 -0.003697 675004.000000 0 0 1
-21.526476 -21.000129 -26.840041 40.308589 0.773022 2.299448 0.037915 -0.006191 -274852.000000 0 0 1
-21.842376 -22.089829 -27.695491 41.618387 0.791031 2.298910 0.075088 -0.007422 -143818.000000 0 0 1
-22.549176 -21.740629 -28.879771 42.604711 0.767144 2.315636 0.080008 -0.010568 121667.000000 0 0 1
-21.667576 -21.731729 -30.189761 43.048502 0.786876 2.348011 0.077837 -0.020926 422066.000000 0 0 1
-21.299476 -23.060929 -30.536501 43.794429 0.825085 2.342377 0.073957 -0.028433 -46803.400000 0 0 1
-20.447176 -23.023729 -31.662191 44.166429 0.844600 2.370118 0.079287 -0.030535 143777.000000 0 0 1
-19.915176 -24.384329 -32.187741 45.025108 0.885943 2.367255 0.087328 -0.024695 164091.000000 0 0 1
-19.104976 -24.398229 -33.329841 45.509911 0.906478 2.392584 0.095370 -0.028704 59413.600000 0 0 1
-19.913376 -24.293729 33.151524 45.670027 0.884163 0.758465 0.096906 -0.017414 152457.000000 0 0 1
-18.981776 -24.254829 31.897033 44.339883 0.906757 0.767893 0.103973 -0.011159 438620.000000 0 0 1
-18.267076 -23.033829 31.665712 43.208340 0.900305 0.748279 0.094331 -0.019160 -171303.000000 0 0 1
-17.679076 -23.085529 30.377025 42.050625 0.917255 0.763541 0.095770 -0.013512 306491.000000 0 0 1
-16.888676 -21.740829 30.038495 40.745579 0.910351 0.741848 0.085717 -0.017236 805014.000000 0 0 1
-17.694376 -20.602229 29.623325 40.188110 0.861183 0.742003 0.083800 -0.020287 267738.000000 0 0 1
-16.950476 -19.399829 29.493655 39.160537 0.852678 0.717963 0.089335 -0.022988 -42216.800000 0 0 1
-16.503976 -18.719129 30.812025 39.650573 0.848205 0.680769 0.096155 -0.031167 -52552.000000 0 0 1
-16.059576 -17.451329 30.581425 38.699902 0.826906 0.659629 0.094128 -0.028756 -365306.000000 0 0 1
-15.554276 -16.887229 31.726408 39.162214 0.826463 0.626426 0.090154 -0.034977 -128794.000000 0 0 1
-14.985176 -15.452929 31.537615 38.183369 0.800764 0.598908 0.093485 -0.034461 -189449.000000 0 0 1
-13.680176 -15.378529 31.029595 37.235496 0.843777 0.585685 0.112272 -0.041338 -228388.000000 0 0 1
-13.309176 -14.111729 30.575995 36.210034 0.814658 0.565340 0.088929 -0.042774 342640.000000 0 0 1
-11.810276 -13.948929 30.193415 35.294441 0.868233 0.544334 0.107941 -0.038493 493101.000000 0 0 1
-11.470976 -12.576429 29.995145 34.488528 0.831336 0.516174 0.091739 -0.035242 115661.000000 0 0 1
-10.076876 -12.378729 30.156095 34.119883 0.887548 0.486814 0.107828 -0.030074 283667.000000 0 0 1
-9.658076 -10.928929 30.073525 33.423597 0.847051 0.451556 0.099533 -0.025004 -433397.000000 0 0 1
-10.278176 -10.162229 31.021435 34.223402 0.779726 0.436021 0.087010 -0.026623 -138324.000000 0 0 1
-9.998176 -8.777529 30.847365 33.594173 0.720477 0.407194 0.068313 -0.020120 9745.790000 0 0 1
-10.726176 -7.859429 31.883166 34.545011 0.632359 0.395132 0.049134 -0.026654 158869.000000 0 0 1
-12.125576 -7.757529 31.733302 34.845535 0.569147 0.425857 0.061416 -0.030135 211957.000000 0 0 1
-12.851976 -7.163229 32.826423 35.973034 0.508479 0.421372 0.051088 -0.030505 226634.000000 0 0 1
-12.655876 -5.669129 33.228533 36.006189 0.421143 0.395365 0.038664 -0.029187 -378390.000000 0 0 1
-12.894276 -4.750229 32.181463 34.992479 0.352970 0.403562 0.046052 -0.030388 241229.000000 0 0 1
-13.037876 -3.417029 32.681568 35.351764 0.256320 0.391159 0.050736 -0.032207 -384001.000000 0 0 1
-12.442776 -2.343629 31.723906 34.157305 0.186171 0.379745 0.055195 -0.029370 563850.000000 0 0 1
-11.031976 -2.159929 31.846974 33.772763 0.193342 0.339330 0.060907 -0.030405 458099.000000 0 0 1
-10.558776 -1.181129 30.980615 32.751814 0.111399 0.330376 0.060989 -0.030715 311696.000000 0 0 1
-9.018976 -0.939229 31.058825 32.355443 0.103765 0.284059 0.062519 -0.030098 544318.000000 0 0 1
-8.692276 -0.397629 32.291670 33.443471 0.045713 0.263210 0.074924 -0.039593 -409644.000000 0 0 1
-7.381376 0.108271 32.314249 33.146752 -0.014667 0.224595 0.100130 -0.031944 -218529.000000 0 0 1
-6.997076 0.784371 33.641845 34.370744 -0.111634 0.206312 0.136094 -0.044593 -543184.000000 0 0 1
-7.535476 2.035671 -33.745561 34.636545 -0.263847 2.914283 0.139543 -0.038630 -61757.600000 0 0 1
-6.892876 3.127671 33.206109 34.057888 -0.425972 0.224119 0.149281 -0.044002 -87689.600000 0 0 1
-7.727276 4.394271 33.224902 34.393525 -0.517064 0.261427 0.159236 -0.050494 243399.000000 0 0 1
-8.863076 4.241471 32.376065 33.834210 -0.446345 0.294652 0.110986 -0.031615 93016.900000 0 0 1
-9.781576 5.278671 32.533270 34.379605 -0.494866 0.329217 0.103238 -0.029726 -514889.000000 0 0 1
-11.050976 5.219971 31.698794 33.973309 -0.441287 0.367997 0.079948 -0.025074 -386755.000000 0 0 1
-11.992176 6.182171 32.080601 34.802248 -0.475984 0.398106 0.088334 -0.025958 -406448.000000 0 0 1
-13.141776 6.132271 31.283415 34.481344 -0.436592 0.434083 0.039232 -0.017734 -443510.000000 0 0 1
-14.053376 7.335971 31.403915 35.178399 -0.481098 0.467485 0.056258 -0.024538 -536881.000000 0 0 1
-14.917476 7.385271 32.508811 36.522543 -0.459700 0.473226 0.055693 -0.029393 266236.000000 0 0 1
-15.487476 8.698071 32.484690 37.023957 -0.511720 0.500388 0.045015 -0.015534 470288.000000 0 0 1
-16.456376 9.130571 33.678095 38.579706 -0.506548 0.509582 0.029625 -0.006832 718885.000000 0 0 1
-15.766976 9.400771 -32.757961 37.550713 -0.537644 2.630818 0.017367 -0.006966 157655.000000 0 0 1
-16.649476 9.909371 -31.780471 37.220948 -0.536865 2.594101 0.038047 -0.002054 -919839.000000 0 0 1
-15.906276 10.392971 -30.505141 35.938657 -0.578753 2.584529 0.062530 -0.010777 577677.000000 0 0 1
-15.073176 11.588571 -30.669831 36.085096 -0.655438 2.586650 0.057572 -0.012363 -640391.000000 0 0 1
-13.787776 11.200071 -30.988381 35.718680 -0.682207 2.621087 0.076227 -0.021191 -1890880.000000 0 0 1
-12.856776 12.368471 -30.809391 35.601886 -0.766043 2.616717 0.088625 -0.025051 -913106.000000 0 0 1
-12.851376 13.251271 -31.885871 36.843762 -0.800717 2.616814 0.065997 -0.021593 -121129.000000 0 0 1
-11.973976 14.355671 -31.772271 36.863784 -0.875609 2.609768 0.072492 -0.028246 -375593.000000 0 0 1
-12.249376 15.479171 -30.778841 36.564860 -0.901355 2.571332 0.064877 -0.028967 -220643.000000 0 0 1
-13.328476 16.365971 -30.978781 37.485706 -0.887335 2.543508 0.069085 -0.027599 113559.000000 0 0 1
-13.482276 17.161071 -29.846481 36.974133 -0.904878 2.510233 0.070761 -0.024644 -142935.000000 0 0 1
-14.887176 17.795971 -29.696631 37.685733 -0.874164 2.478362 0.073796 -0.032569 -234895.000000 0 0 1
-15.184176 18.597771 -30.867241 39.105279 -0.886104 2.480525 0.066433 -0.032633 -852747.000000 0 0 1
-16.516076 18.945671 -30.947311 39.867973 -0.853804 2.459484 0.060022 -0.032228 -548991.000000 0 0 1
-17.080676 20.085571 -30.052201 39.978925 -0.866073 2.421434 0.056427 -0.034703 -581317.000000 0 0 1
-16.583176 21.320571 -30.516371 40.753127 -0.909738 2.417062 0.052424 -0.026901 505578.000000 0 0 1
-17.269376 22.548571 -30.104971 41.388146 -0.917213 2.385295 0.041040 -0.026317 516702.000000 0 0 1
-18.680776 22.817671 -30.692831 42.563686 -0.884758 2.376190 0.053185 -0.022158 -501156.000000 0 0 1
-19.653476 21.931671 -30.299241 42.252826 -0.840127 2.370420 0.062641 -0.019589 -221904.000000 0 0 1
-20.723076 21.992471 -31.255971 43.474709 -0.815107 2.373081 0.090892 -0.025799 -86425.600000 0 0 1
-21.989576 21.173771 -30.907851 43.441515 -0.766500 2.362401 0.118252 -0.031138 185600.000000 0 0 1
-22.885376 21.861271 -30.000931 43.608617 -0.762515 2.329469 0.136955 -0.028516 892252.000000 0 0 1
-23.839476 22.780871 -30.525191 44.934129 -0.762695 2.317648 0.132685 -0.027964 493903.000000 0 0 1
-25.125956 22.095571 -31.107011 45.685600 -0.721312 2.319778 0.139076 -0.037254 59769.300000 0 0 1
-24.886876 21.501571 -32.358121 46.138077 -0.712550 2.348061 0.139453 -0.035076 -185227.000000 0 0 1
-26.113736 21.159471 -32.929901 47.053467 -0.680979 2.345970 0.158425 -0.038607 -376510.000000 0 0 1
-25.985296 20.094571 33.621395 47.004527 -0.658251 0.773772 0.147963 -0.034346 -47404.700000 0 0 1
-25.790726 18.813971 -33.494211 46.270824 -0.630242 2.380196 0.140981 -0.043820 104478.000000 0 0 1
-25.373366 17.945871 33.130444 45.425635 -0.615590 0.753449 0.123736 -0.051291 -353888.000000 0 0 1
-25.293436 16.455071 33.538877 45.115225 -0.576774 0.732650 0.093422 -0.037267 -352344.000000 0 0 1
-26.527656 15.780771 33.549422 45.588518 -0.536646 0.743774 0.084506 -0.025413 148220.000000 0 0 1
-26.832046 15.200271 32.314071 44.667730 -0.515421 0.762036 0.093929 -0.024725 -539846.000000 0 0 1
-27.711136 13.925671 32.518650 44.936555 -0.465669 0.761710 0.052177 -0.017280 -488825.000000 0 0 1
-29.006496 14.278471 32.963713 46.172047 -0.457429 0.775698 0.066080 -0.012713 -262878.000000 0 0 1
-29.818246 13.112871 33.100356 46.440378 -0.414306 0.777386 0.055568 -0.008576 -117100.000000 0 0 1
-29.397646 11.941471 -33.629251 46.235774 -0.385844 2.385238 0.048185 -0.012710 -507882.000000 0 0 1
-28.271876 11.174271 33.637625 45.339311 -0.376399 0.734884 0.044091 -0.018217 -244348.000000 0 0 1
-28.573096 9.836071 -33.769661 45.316223 -0.331536 2.411631 0.057222 -0.015521 -380428.000000 0 0 1
-27.368746 8.850171 -33.533741 44.180149 -0.312755 2.432607 0.054126 -0.022043 536335.000000 0 0 1
-26.362266 8.661271 33.121969 43.209392 -0.317438 0.697352 0.033498 -0.022770 393867.000000 0 0 1
-25.559476 9.816671 32.926483 42.822974 -0.366700 0.693681 0.019879 -0.018259 -1269650.000000 0 0 1
-24.327076 9.430071 32.090433 41.358539 -0.369803 0.682643 0.030089 -0.016198 -453392.000000 0 0 1
-24.479776 9.209971 30.711435 40.339500 -0.359847 0.705443 0.033747 -0.021774 -8241.510000 0 0 1
-23.238076 9.206671 30.049215 39.086139 -0.377217 0.693842 0.047954 -0.019819 93997.300000 0 0 1
-23.429476 9.135971 28.499415 38.008196 -0.371800 0.723002 0.069912 -0.023610 224157.000000 0 0 1
-24.095676 10.282271 27.943595 38.303671 -0.403332 0.753165 0.067734 -0.021055 498163.000000 0 0 1
-24.045576 10.220071 26.554515 37.252944 -0.401895 0.777290 0.074384 -0.016205 -994199.000000 0 0 1
-24.310676 11.575771 25.875995 37.344003 -0.444394 0.805281 0.078212 -0.017027 781742.000000 0 0 1
-25.625226 12.118971 25.981025 38.451727 -0.441759 0.828911 0.086734 -0.018959 -99600.700000 0 0 1
-26.681866 11.399571 25.427495 38.580172 -0.403767 0.851199 0.102698 -0.009248 -1959040.000000 0 0 1
-27.967416 12.007971 25.861015 39.939452 -0.405554 0.866490 0.102404 -0.013360 -1327060.000000 0 0 1
-28.056016 13.304071 25.279895 40.040123 -0.442793 0.887485 0.118324 -0.015651 -353014.000000 0 0 1
-29.177946 14.068271 25.608695 41.292542 -0.449269 0.901828 0.104042 -0.018422 -137200.000000 0 0 1
-28.997206 15.423071 24.901925 41.216683 -0.488826 0.922071 0.115089 -0.015548 599512.000000 0 0 1
-28.123796 16.292171 25.664315 41.413039 -0.525061 0.902416 0.128481 -0.017814 538468.000000 0 0 1
-28.080076 17.557171 25.005375 41.497153 -0.558782 0.924066 0.113264 -0.011277 -201179.000000 0 0 1
-23.582176 -8.759629 31.479015 40.296135 0.355656 0.674224 0.066375 -0.011487 33635.700000 0 0 1
-22.615776 -8.335229 30.534335 38.901092 0.353111 0.668226 0.065127 -0.014832 -50850.600000 0 0 1
-22.964776 -8.687729 29.261705 38.198232 0.361667 0.698125 0.067257 -0.015812 218052.000000 0 0 1
-21.868976 -8.554129 28.112605 36.629821 0.372857 0.695898 0.092895 -0.019625 172889.000000 0 0 1
-21.449776 -7.252329 27.783885 35.841783 0.326041 0.683794 0.091038 -0.024050 21064.900000 0 0 1
-20.417976 -6.748129 28.607035 35.788175 0.319198 0.644595 0.079121 -0.025743 -718215.000000 0 0 1
-18.972576 -6.936429 28.134325 34.635429 0.350507 0.622713 0.074924 -0.015958 -764793.000000 0 0 1
-18.632276 -8.364029 28.048335 34.696222 0.421939 0.629372 0.074598 -0.011246 14252.500000 0 0 1
-18.287976 -8.990029 29.237225 35.638266 0.456890 0.608706 0.072572 -0.013439 814951.000000 0 0 1
-16.856476 -8.654029 29.901985 35.400024 0.474306 0.564814 0.061531 -0.017779 987259.000000 0 0 1
-15.812476 -9.165229 29.128085 34.387224 0.525299 0.560365 0.047811 -0.012616 297874.000000 0 0 1
-14.551076 -8.950729 29.793945 34.344265 0.551467 0.520625 0.053333 -0.019769 723813.000000 0 0 1
-13.310376 -9.584429 29.164285 33.460169 0.624070 0.512315 0.069659 -0.016716 -473832.000000 0 0 1
-12.930276 -9.096129 27.875655 32.046587 0.613055 0.515902 0.082499 -0.017562 354540.000000 0 0 1
-12.060976 -10.119629 27.328515 31.539210 0.698096 0.522662 0.098488 -0.021826 -85282.000000 0 0 1
-11.561776 -9.864629 25.912635 30.040809 0.706355 0.530447 0.088450 -0.020412 214583.000000 0 0 1
-12.529876 -10.121229 24.897815 29.653638 0.679459 0.574211 0.072849 -0.017872 191765.000000 0 0 1
-12.003276 -9.805429 23.602205 28.236309 0.684959 0.581060 0.093256 -0.020449 -49304.500000 0 0 1
-12.922176 -10.391229 22.538515 27.981153 0.677260 0.634296 0.099407 -0.024703 -722657.000000 0 0 1
-12.950376 -11.783029 22.631235 28.613368 0.738236 0.658465 0.080935 -0.016045 -3984.360000 0 0 1
-14.065276 -12.410229 22.056615 28.954102 0.722967 0.704742 0.066124 -0.016158 -78554.600000 0 0 1
-15.390976 -12.280529 22.842865 30.157752 0.673462 0.711404 0.068001 -0.016459 -1048730.000000 0 0 1
-16.442276 -12.971929 22.240615 30.549375 0.667959 0.755364 0.030815 -0.007697 16028.300000 0 0 1
-17.583876 -12.865629 23.103575 31.756767 0.631668 0.756101 0.032176 -0.008350 919592.000000 0 0 1
-18.890276 -13.459829 22.451715 32.281404 0.619084 0.801681 0.079351 -0.018704 130811.000000 0 0 1
-18.878076 -14.877929 22.446215 32.887187 0.667446 0.819589 0.077554 -0.022158 558996.000000 0 0 1
-20.150176 -15.457529 22.151415 33.699406 0.654366 0.853535 0.086941 -0.019480 632349.000000 0 0 1
-21.125976 -15.555229 23.366225 35.131930 0.634681 0.843169 0.088437 -0.023715 -117242.000000 0 0 1
-20.575176 -16.369729 24.450385 35.904418 0.672056 0.821689 0.079125 -0.020757 875279.000000 0 0 1
-21.281476 -16.200929 25.733555 37.115861 0.650674 0.804696 0.080213 -0.019618 364590.000000 0 0 1
-20.694976 -17.110229 26.871845 37.988656 0.690859 0.785033 0.080952 -0.013410 -23387.500000 0 0 1
-20.804776 -18.515729 26.750675 38.616959 0.727249 0.805545 0.082019 -0.009561 176624.000000 0 0 1
-20.491276 -19.021529 28.063905 39.614312 0.748219 0.783527 0.078141 -0.011326 -92288.400000 0 0 1
-20.550476 -20.574729 28.188485 40.499781 0.785988 0.800963 0.083043 -0.002812 -675960.000000 0 0 1
-21.826276 -21.050629 27.916365 41.216971 0.767310 0.826706 0.069993 0.002793 -684635.000000 0 0 1
-21.768076 -22.233929 27.199165 41.327851 0.795985 0.852462 0.078515 0.000940 53164.200000 0 0 1
-23.139476 -22.780829 26.749185 42.070422 0.777588 0.881727 0.070145 0.008243 -46027.100000 0 0 1
-23.823876 -23.485829 27.761425 43.472496 0.778253 0.878122 0.060912 0.008879 668988.000000 0 0 1
-25.029326 -24.026329 27.177085 44.071823 0.764955 0.906311 0.045814 0.010233 840135.000000 0 0 1
-25.914346 -24.895729 28.085765 45.608780 0.765353 0.907399 0.038102 0.006230 3725.390000 0 0 1
-26.439906 -24.386929 29.296035 46.390178 0.745029 0.887292 0.045118 0.011722 -88059.200000 0 0 1
-27.168516 -25.387969 29.939685 47.739522 0.751532 0.892912 0.035248 0.014811 -576316.000000 0 0 1
-28.248716 -24.788129 30.831945 48.611214 0.720242 0.883751 0.042130 0.009523 -311696.000000 0 0 1
-29.256406 -24.231929 30.011705 48.413078 0.691737 0.902170 0.030701 0.006184 -304117.000000 0 0 1
-30.238456 -23.519629 30.733145 49.112762 0.661060 0.894682 0.042220 -0.002776 -403342.000000 0 0 1
-31.435366 -23.220529 29.825845 49.162549 0.636214 0.918921 0.043925 -0.014504 -846035.000000 0 0 1
-32.198486 -24.338929 29.538115 50.016259 0.647268 0.939031 0.053642 -0.015741 -169047.000000 0 0 1
-33.346776 -24.022929 28.773825 50.170126 0.624285 0.959994 0.054798 -0.021455 202425.000000 0 0 1
-34.649400 -24.573629 29.386735 51.652922 0.616879 0.965596 0.054861 -0.016250 -197529.000000 0 0 1
-34.682612 -25.975909 29.289385 52.302003 0.642836 0.976404 0.063558 -0.018745 -158684.000000 0 0 1
-35.628804 -26.494999 30.193045 53.693730 0.639418 0.973608 0.062599 -0.016653 -43173.400000 0 0 1
-35.645718 -27.944469 30.575035 54.647446 0.664878 0.977019 0.075171 -0.018334 -400874.000000 0 0 1
-34.673925 -28.303999 31.502045 54.733685 0.684596 0.957518 0.071959 -0.012198 -423508.000000 0 0 1
-34.731032 -29.699049 31.715952 55.625351 0.707456 0.964083 0.078623 -0.023284 209408.000000 0 0 1
-33.819406 -30.157969 32.902101 55.998246 0.728230 0.942761 0.068688 -0.014092 152530.000000 0 0 1
-34.154566 -29.692729 -33.455261 56.280076 0.715629 2.207368 0.062630 -0.011953 -428961.000000 0 0 1
-33.159356 -30.032629 -32.536861 55.318613 0.735959 2.199593 0.052150 -0.008781 -25575.300000 0 0 1
-33.553036 -29.526639 -31.096891 54.448556 0.721654 2.178671 0.056813 -0.014347 53386.200000 0 0 1
-33.638956 -28.154689 -30.814921 53.608070 0.696879 2.183179 0.064333 -0.014963 -169832.000000 0 0 1
-32.417156 -27.441089 -30.746411 52.433073 0.702458 2.197396 0.054828 -0.008355 34111.600000 0 0 1
-32.653086 -25.909609 -30.542631 51.675760 0.670753 2.203148 0.039686 0.001536 -24512.100000 0 0 1
-33.211986 -25.504799 -29.325081 51.122315 0.654884 2.181722 0.045034 -0.005594 -172034.000000 0 0 1
-33.369316 -24.068829 -29.201551 50.453447 0.624870 2.188031 0.059831 -0.010121 614119.000000 0 0 1
-32.039056 -23.519329 -28.574221 48.950444 0.633236 2.194121 0.067654 -0.009279 599041.000000 0 0 1
-31.906296 -22.105529 -28.671691 48.256937 0.605895 2.207000 0.067713 -0.008915 -168822.000000 0 0 1
-30.832596 -21.686329 -27.868131 46.878338 0.612976 2.207412 0.094543 -0.012059 -50440.900000 0 0 1
-30.612496 -20.186529 -28.039241 46.160804 0.582970 2.223612 0.114359 -0.027725 50804.700000 0 0 1
-30.257186 -19.739129 -29.367891 46.557529 0.578045 2.253364 0.108864 -0.012219 273417.000000 0 0 1
-29.898726 -18.322029 -29.313821 45.704821 0.549780 2.267082 0.105121 -0.021785 -205089.000000 0 0 1
-29.118486 -17.863329 -30.527301 45.813762 0.550265 2.300079 0.097884 -0.012941 -246467.000000 0 0 1
-29.783906 -17.757529 -31.769691 47.028971 0.537630 2.312486 0.087300 -0.012633 186693.000000 0 0 1
-30.643766 -16.594429 -31.809071 47.182968 0.496315 2.310629 0.106050 -0.016114 -73334.700000 0 0 1
-31.256176 -16.328529 -33.235411 48.457836 0.481414 2.326585 0.097614 -0.025218 455590.000000 0 0 1
-32.283826 -17.209229 -33.674401 49.722915 0.489745 2.314803 0.092668 -0.024922 690556.000000 0 0 1
-33.571286 -16.993429 -33.127131 50.131972 0.468587 2.292678 0.087797 -0.031151 -272354.000000 0 0 1
-34.754586 -17.214829 33.565445 51.292014 0.459901 0.857409 0.076532 -0.028897 -193669.000000 0 0 1
-35.081664 -18.599729 33.536317 51.974587 0.487502 0.869453 0.072406 -0.024819 89528.900000 0 0 1
-35.877195 -18.858829 32.400675 51.890580 0.483956 0.896428 0.072765 -0.026683 -588355.000000 0 0 1
-36.433116 -20.279429 32.279342 52.731234 0.507912 0.912022 0.072376 -0.028855 -546976.000000 0 0 1
-35.442577 -21.250129 32.193847 52.384998 0.540100 0.908965 0.080716 -0.028584 -192040.000000 0 0 1
-35.928287 -22.502329 32.728973 53.557280 0.559542 0.913344 0.079475 -0.021175 697353.000000 0 0 1
-34.685630 -23.335229 33.265748 53.425049 0.592212 0.898656 0.078686 -0.015591 1112830.000000 0 0 1
-34.007477 -22.800129 -33.266631 52.754365 0.590614 2.253116 0.058471 -0.011580 141569.000000 0 0 1
-32.991106 -21.888929 -33.675811 51.976903 0.585793 2.275620 0.060773 -0.008997 -502256.000000 0 0 1
-31.624586 -22.007029 -32.975031 50.712685 0.607958 2.278687 0.048303 0.001533 -435784.000000 0 0 1
-30.965526 -23.207729 -33.335981 51.075925 0.643162 2.281906 0.042571 0.002375 25749.700000 0 0 1
-29.655366 -23.185429 -32.794901 49.925047 0.663563 2.287473 0.053539 -0.000618 141913.000000 0 0 1
-29.380016 -23.595729 -31.323671 49.001185 0.676642 2.264310 0.070464 0.000459 -575820.000000 0 0 1
-29.314266 -24.964629 -31.053111 49.465691 0.705434 2.249482 0.070516 -0.004737 -91855.200000 0 0 1
-28.640976 -25.114269 -29.816221 48.373950 0.719885 2.234920 0.060977 -0.008308 136208.000000 0 0 1
-28.242156 -26.605589 -29.612681 48.809708 0.755569 2.222695 0.064278 -0.011621 -102049.000000 0 0 1
-29.358076 -27.427399 -29.333581 49.745530 0.751412 2.201450 0.056680 -0.010406 -79112.700000 0 0 1
-29.098686 -28.690479 -28.768571 49.975071 0.778335 2.184205 0.063172 -0.019039 -172757.000000 0 0 1
-29.707196 -29.845989 -29.609591 51.478427 0.787729 2.183626 0.048969 -0.007422 -45549.300000 0 0 1
-29.114296 -30.028359 -30.879531 51.989326 0.800852 2.206767 0.049807 -0.018892 226896.000000 0 0 1
-29.526106 -31.253229 -31.401801 53.241228 0.813807 2.201610 0.066799 -0.016549 -265346.000000 0 0 1
-29.056316 -31.462809 -32.844601 53.971711 0.825141 2.225031 0.058869 -0.022552 -560925.000000 0 0 1
-27.669136 -31.599809 -32.921831 53.366431 0.851620 2.235596 0.056801 -0.022707 -577826.000000 0 0 1
-27.219046 -32.079449 33.458779 53.753673 0.867180 0.898932 0.071513 -0.033654 -705457.000000 0 0 1
-25.773196 -32.535589 33.434898 53.298354 0.900858 0.892695 0.084254 -0.029507 -663410.000000 0 0 1
-25.484346 -33.285319 32.265269 52.900018 0.917365 0.914825 0.083816 -0.025526 -547359.000000 0 0 1
-24.471876 33.543593 32.534860 52.750000 -0.940509 0.906158 0.075675 -0.016734 -594577.000000 0 0 1
-24.179376 32.588516 31.380755 51.297226 -0.932461 0.912533 0.075410 -0.016781 211970.000000 0 0 1
-25.367896 31.847753 31.127715 51.251772 -0.898171 0.918077 0.072912 -0.025566 363286.000000 0 0 1
-25.161566 30.951958 30.112225 49.978738 -0.888225 0.924166 0.061339 -0.016811 91264.100000 0 0 1
-26.473276 30.345698 29.548345 49.947977 -0.853447 0.937776 0.071316 -0.015909 139442.000000 0 0 1
-27.139896 29.495418 30.470335 50.348734 -0.826965 0.920797 0.073257 -0.022544 798943.000000 0 0 1
-28.355346 28.916158 29.971445 50.383106 -0.795190 0.933691 0.081310 -0.021101 752560.000000 0 0 1
-28.994476 27.817798 30.846845 50.656070 -0.764689 0.916064 0.081734 -0.035349 -312560.000000 0 0 1
-28.203976 26.654958 30.957925 49.642161 -0.757169 0.897429 0.082848 -0.026933 121565.000000 0 0 1
-28.878426 25.396468 31.112905 49.466726 -0.721332 0.890573 0.086665 -0.022433 352721.000000 0 0 1
-29.817506 24.943138 29.964385 49.082667 -0.696620 0.914120 0.092075 -0.029386 571103.000000 0 0 1
-29.067036 24.558508 28.821915 47.735895 -0.701521 0.922563 0.075730 -0.019785 -234037.000000 0 0 1
-29.887986 23.782368 28.023145 47.372876 -0.672124 0.937824 0.100183 -0.016698 -277806.000000 0 0 1
-29.315466 23.493248 26.629885 46.048670 -0.675591 0.954155 0.106692 -0.019066 -392088.000000 0 0 1
-28.223966 22.642098 26.838625 45.050734 -0.676099 0.932607 0.100761 -0.019342 -398294.000000 0 0 1
-27.692936 22.218798 25.585175 43.762711 -0.676158 0.946367 0.089710 -0.016119 821533.000000 0 0 1
-26.198126 21.724798 25.550665 42.557551 -0.692324 0.926821 0.077879 -0.013745 705808.000000 0 0 1
-26.127266 20.554398 26.331415 42.408262 -0.666580 0.900902 0.112115 -0.024943 161888.000000 0 0 1
-24.809976 20.117398 26.560365 41.541517 -0.681327 0.877119 0.081969 -0.015003 -245798.000000 0 0 1
-24.826876 19.302298 27.934655 42.063017 -0.660855 0.844488 0.110887 -0.024100 -334947.000000 0 0 1
-23.739876 18.433898 28.132935 41.168584 -0.660243 0.818442 0.099741 -0.014081 -183685.000000 0 0 1
-24.013076 17.431098 29.062625 41.534410 -0.627898 0.795785 0.096391 -0.020447 111211.000000 0 0 1
-22.926676 16.319798 29.277335 40.609489 -0.618619 0.765627 0.091525 -0.027168 438253.000000 0 0 1
-21.821376 16.729498 30.053735 40.734206 -0.654076 0.740990 0.119105 -0.026863 -10628.300000 0 0 1
-20.676076 15.948898 29.830755 39.645194 -0.657038 0.719033 0.100811 -0.026315 8338.360000 0 0 1
-19.399176 16.358798 30.593985 39.748336 -0.700576 0.692437 0.094485 -0.029402 -270554.000000 0 0 1
-19.346176 16.100098 31.978404 40.695282 -0.694075 0.666806 0.082931 -0.028610 328087.000000 0 0 1
-18.299676 16.766798 32.660916 41.021203 -0.741713 0.649815 0.083440 -0.034439 -446633.000000 0 0 1
-18.462676 16.450398 -33.447201 41.595688 -0.727825 2.504961 0.070857 -0.039655 1133830.000000 0 0 1
-19.598076 16.945098 -32.671181 41.696846 -0.712927 2.471141 0.099312 -0.034510 1532660.000000 0 0 1
-20.854876 16.345698 -32.968041 42.296565 -0.664774 2.464583 0.107657 -0.024689 -510682.000000 0 0 1
-22.068076 17.061498 -32.424561 42.772033 -0.658141 2.431158 0.108502 -0.039912 -718695.000000 0 0 1
-22.125776 16.898498 -31.006661 41.671600 -0.652241 2.409941 0.113116 -0.039420 801725.000000 0 0 1
-23.215476 17.676798 -30.467471 42.186423 -0.650772 2.377789 0.107613 -0.034765 126594.000000 0 0 1
-23.316476 17.563398 -28.889761 41.070053 -0.645585 2.351003 0.100992 -0.034646 117504.000000 0 0 1
-23.927376 16.367198 -28.355911 40.551969 -0.599932 2.345142 0.102808 -0.039612 152646.000000 0 0 1
-25.325106 16.352298 -28.583021 41.542120 -0.573343 2.329594 0.091757 -0.036797 -127548.000000 0 0 1
-26.064556 15.291898 -27.724521 41.010392 -0.530578 2.313167 0.080266 -0.026814 -48559.200000 0 0 1
-25.812316 13.920798 -27.932031 40.500156 -0.494598 2.331839 0.068814 -0.020974 -74345.900000 0 0 1
-26.758126 13.078398 -27.307221 40.407006 -0.454618 2.312851 0.049058 -0.011225 117293.000000 0 0 1
-26.297766 11.591698 -27.232421 39.592230 -0.415166 2.329281 0.051454 -0.016452 69765.100000 0 0 1
-25.196506 11.363898 -26.378411 38.207625 -0.423694 2.332833 0.059569 -0.019066 -72102.500000 0 0 1
-24.544476 10.209598 -26.873681 37.800290 -0.394192 2.361628 0.057335 -0.011217 46060.300000 0 0 1
-23.464876 9.627198 -25.918801 36.263860 -0.389338 2.367032 0.090337 -0.015922 223233.000000 0 0 1
-23.986076 8.682298 -24.979601 35.702865 -0.347301 2.345707 0.081655 -0.018651 -285896.000000 0 0 1
-22.975776 8.099998 -24.239201 34.366191 -0.338940 2.353672 0.099561 -0.014189 -698906.000000 0 0 1
-23.477076 7.062998 -23.250201 33.788028 -0.292233 2.329691 0.097120 -0.019184 -88452.500000 0 0 1
-23.946376 5.898398 -23.856201 34.312364 -0.241509 2.339585 0.088892 -0.028712 417108.000000 0 0 1
-24.493476 5.004198 -22.830201 33.855434 -0.201534 2.310872 0.091090 -0.027721 -124945.000000 0 0 1
36.129168 24.632271 -9.844801 44.821710 0.598395 1.792245 0.039373 -0.006064 538009.000000 0 0 1
37.190758 24.242371 -8.972801 45.291900 0.577667 1.770226 0.053055 -0.018335 243495.000000 0 0 1
-37.377336 23.268471 -9.526901 45.047184 -0.556820 1.783893 0.081763 -0.025752 90823.200000 0 0 1
-36.401196 22.724671 -8.482201 43.742490 -0.558084 1.765945 0.105211 -0.037060 -323056.000000 0 0 1
-37.042546 21.858071 -7.517501 43.662779 -0.533094 1.743830 0.097343 -0.039844 41633.000000 0 0 1
-36.184356 21.402871 -6.495301 42.539152 -0.534142 1.724086 0.140631 -0.041288 -272479.000000 0 0 1
-36.910356 20.568371 -5.345801 42.591194 -0.508394 1.696642 0.111688 -0.025171 176549.000000 0 0 1
-37.314256 19.292071 -5.847901 42.411503 -0.477168 1.709122 0.080248 -0.009484 39243.100000 0 0 1
37.452488 18.572171 -4.894901 42.090076 0.460351 1.687356 0.085746 -0.022775 -495608.000000 0 0 1
36.728658 17.294771 -5.417801 40.956758 0.440081 1.703466 0.074891 -0.003243 430398.000000 0 0 1
35.563708 17.651371 -6.168701 40.179611 0.460708 1.724934 0.080420 -0.011626 241403.000000 0 0 1
35.073318 16.507371 -6.871501 39.368115 0.439896 1.746240 0.089450 -0.009289 213758.000000 0 0 1
33.821118 16.819371 -7.727701 38.554852 0.461488 1.772597 0.066079 -0.013279 87631.300000 0 0 1
33.495818 15.815671 -8.656501 38.039983 0.441136 1.800371 0.062974 -0.002240 103351.000000 0 0 1
32.676918 16.247271 -9.726201 37.767099 0.461413 1.831263 0.057070 -0.006574 -524430.000000 0 0 1
32.310708 15.094671 -10.643501 37.217134 0.437042 1.860829 0.064608 -0.004646 645135.000000 0 0 1
31.204358 14.211071 -10.269201 35.792778 0.427352 1.861793 0.056587 0.004965 1169940.000000 0 0 1
31.217318 13.637471 -8.984201 35.230916 0.411870 1.828653 0.060237 -0.002078 -581983.000000 0 0 1
30.066098 12.638171 -8.744601 33.766280 0.397922 1.832757 0.070019 0.013337 33967.400000 0 0 1
30.399898 11.429971 -9.381501 33.805482 0.359636 1.852002 0.094788 0.005243 785128.000000 0 0 1
29.433398 10.415671 -9.110301 32.523971 0.340121 1.854705 0.140107 -0.003690 61309.100000 0 0 1
29.956498 8.972171 -9.583301 32.706747 0.291004 1.868167 0.157829 -0.005953 169492.000000 0 0 1
31.216078 8.621971 -9.052201 33.626244 0.269484 1.843359 0.142373 -0.012924 200794.000000 0 0 1
31.377988 7.277971 -9.081401 33.466683 0.227915 1.845598 0.167328 -0.020417 265756.000000 0 0 1
32.567818 6.742771 -8.240001 34.264053 0.204153 1.813662 0.171446 -0.023277 412262.000000 0 0 1
33.877968 6.973671 -8.708401 35.667703 0.203011 1.817443 0.150315 -0.020287 275508.000000 0 0 1
34.857618 6.438771 -7.826301 36.300996 0.182657 1.788097 0.150095 -0.019317 416560.000000 0 0 1
36.308188 6.684671 -8.313401 37.842859 0.182070 1.792285 0.145338 -0.018140 207419.000000 0 0 1
36.606728 5.947271 -9.489901 38.281599 0.161057 1.821305 0.147942 -0.024930 -481388.000000 0 0 1
-37.459966 5.874771 -9.756901 39.153021 -0.155561 1.822650 0.132119 -0.023363 -1508310.000000 0 0 1
-37.134736 5.091071 -10.995801 39.061685 -0.136248 1.856152 0.127068 -0.028684 931716.000000 0 0 1
-35.731229 4.856971 -11.262701 37.777762 -0.135103 1.873530 0.130404 -0.038027 1361390.000000 0 0 1
-34.921602 5.854371 -11.842001 37.336644 -0.166099 1.893538 0.118577 -0.038054 -284479.000000 0 0 1
-34.187722 6.761071 -10.858601 36.502351 -0.195244 1.872845 0.125975 -0.027296 -833180.000000 0 0 1
-35.018870 7.674371 -10.152701 37.259826 -0.215739 1.846770 0.126942 -0.019676 197379.000000 0 0 1
-35.257949 8.908071 -10.844501 37.948384 -0.247475 1.860606 0.125957 -0.035065 119011.000000 0 0 1
-36.377486 9.756171 -10.172601 39.012641 -0.262026 1.834597 0.121727 -0.028054 -131150.000000 0 0 1
-35.911470 10.353471 -9.036901 38.451184 -0.280694 1.808038 0.133074 -0.012137 320608.000000 0 0 1
-36.788636 11.352571 -8.466501 39.420378 -0.299318 1.787257 0.130165 -0.016821 156487.000000 0 0 1
-36.110146 12.109671 -7.339601 38.787324 -0.323568 1.761171 0.145074 -0.016580 87197.100000 0 0 1
-35.115123 13.056971 -7.650701 38.237280 -0.355991 1.772241 0.132809 -0.024215 -39816.500000 0 0 1
-35.137904 14.007571 -6.555501 38.390870 -0.379338 1.742394 0.147698 -0.019534 28941.400000 0 0 1
-34.389425 15.320971 -6.794001 38.256021 -0.419117 1.749336 0.112787 -0.021589 -66937.000000 0 0 1
-34.862484 16.058271 -7.903901 39.188423 -0.431648 1.773879 0.093713 -0.021296 -15187.900000 0 0 1
-34.687999 17.430371 -7.654001 39.568407 -0.465638 1.765461 0.068758 -0.021220 -72614.700000 0 0 1
-35.236709 18.349971 -8.817201 40.695087 -0.480120 1.789193 0.075239 -0.023090 273313.000000 0 0 1
-34.412327 18.403671 -9.963801 40.276304 -0.491098 1.820778 0.061861 -0.018148 -385253.000000 0 0 1
-35.221496 18.658371 -11.045201 41.360428 -0.487159 1.841124 0.058949 -0.023268 -512017.000000 0 0 1
-34.577290 18.638471 -12.446601 41.205575 -0.494388 1.877650 0.025777 -0.004285 -304794.000000 0 0 1
-33.917026 19.788171 -12.804901 41.302564 -0.528146 1.886018 0.032313 -0.007402 -338738.000000 0 0 1
-33.369826 19.805571 -14.076801 41.279077 -0.535639 1.918793 0.009337 -0.000519 -306285.000000 0 0 1
-32.684046 21.140471 -14.414101 41.508224 -0.574132 1.925443 0.028538 0.002623 -375557.000000 0 0 1
-31.341076 21.112371 -13.969401 40.288204 -0.592810 1.924886 0.041592 0.002784 345877.000000 0 0 1
-30.665086 22.379971 -14.010301 40.466024 -0.630460 1.924339 0.040414 -0.000780 279658.000000 0 0 1
-29.964256 22.707571 -15.345801 40.607684 -0.648488 1.958328 0.054773 -0.004472 -360911.000000 0 0 1
-30.881396 23.155471 -16.341201 41.915048 -0.643386 1.971281 0.059015 0.008791 602543.000000 0 0 1
-30.220816 23.716871 -17.484101 42.207599 -0.665395 1.997905 0.083280 0.006372 347286.000000 0 0 1
-29.523656 25.117171 -17.492001 42.526329 -0.704928 1.994700 0.097767 -0.002616 474732.000000 0 0 1
-30.405756 26.236371 -17.437401 43.782646 -0.711921 1.980429 0.124059 -0.012309 -63370.900000 0 0 1
-29.732986 27.454171 -17.559201 44.114708 -0.745571 1.980170 0.127535 -0.015591 143565.000000 0 0 1
-30.548806 28.747471 -17.141601 45.315352 -0.755029 1.958727 0.120378 -0.015907 -133895.000000 0 0 1
-30.657066 28.908871 -15.736801 44.980278 -0.756058 1.928218 0.103221 -0.015114 468680.000000 0 0 1
-29.523396 29.401471 -15.009401 44.287239 -0.783329 1.916555 0.095064 -0.013435 133284.000000 0 0 1
-29.789986 29.975571 -13.608301 44.397792 -0.788503 1.882319 0.087128 -0.006204 -77971.400000 0 0 1
-30.501226 31.201871 -13.652801 45.719585 -0.796753 1.874043 0.064094 -0.002228 73830.000000 0 0 1
-30.378036 31.972271 -12.475101 45.833168 -0.810962 1.846459 0.058496 -0.003531 33115.100000 0 0 1
-29.257456 33.018171 -12.671301 45.899457 -0.845713 1.850495 0.068944 -0.015386 103154.000000 0 0 1
-29.599956 -33.580356 -13.441101 46.738216 0.848316 1.862498 0.052041 -0.017061 -1120190.000000 0 0 1
-28.551076 -32.722756 -13.546901 45.491331 0.853376 1.873174 0.097308 -0.025707 -881943.000000 0 0 1
-28.551326 -31.786156 -14.762201 45.204651 0.838959 1.903462 0.084729 -0.020025 -180956.000000 0 0 1
-28.072976 -32.401456 -15.913101 45.729346 0.856852 1.926217 0.086126 -0.021667 -246425.000000 0 0 1
-28.189416 -31.626156 -17.074101 45.676929 0.842791 1.953901 0.084503 -0.014753 113676.000000 0 0 1
-27.579566 -32.299256 -18.361601 46.271187 0.864056 1.978852 0.088164 -0.019644 263501.000000 0 0 1
-28.148446 -33.555056 -18.843101 47.679547 0.872797 1.977085 0.085193 -0.012974 131360.000000 0 0 1
-27.780176 33.059471 -18.075401 46.812252 -0.871955 1.967224 0.092741 -0.022889 -690127.000000 0 0 1
-27.827216 31.675371 -18.739001 46.139281 -0.849980 1.989022 0.108748 -0.029657 388588.000000 0 0 1
-29.066876 31.019171 -19.040301 46.579022 -0.817878 1.991907 0.113129 -0.025777 278669.000000 0 0 1
-29.490196 31.392471 -20.317301 47.623015 -0.816633 2.011557 0.106680 -0.024102 -870143.000000 0 0 1
-31.012866 31.473171 -20.425201 48.677995 -0.792765 2.003799 0.102982 -0.037456 -370000.000000 0 0 1
-31.565146 30.160771 -20.488801 48.226772 -0.762650 2.009585 0.109399 -0.046448 280396.000000 0 0 1
-32.974896 30.094471 -20.563101 49.151420 -0.739759 2.002438 0.113738 -0.046246 16864.800000 0 0 1
-33.466426 28.747171 -21.122001 48.913601 -0.709687 2.017309 0.121350 -0.042231 -298935.000000 0 0 1
-34.851030 28.557671 -20.984001 49.703754 -0.686471 2.006647 0.120283 -0.043976 -157798.000000 0 0 1
-35.209764 27.241371 -21.298501 49.350237 -0.658490 2.017038 0.108792 -0.021121 -63732.700000 0 0 1
-36.714526 27.009971 -21.565401 50.423818 -0.634270 2.012724 0.083412 -0.015227 174560.000000 0 0 1
-37.316686 27.661371 -22.654901 51.681051 -0.637884 2.024569 0.103193 -0.020922 292186.000000 0 0 1
37.143078 26.807571 -23.292401 51.388618 0.625167 2.041215 0.087382 -0.017764 103494.000000 0 0 1
36.489668 27.398271 -24.524601 51.803641 0.644045 2.063960 0.098421 -0.022505 141437.000000 0 0 1
37.222438 27.381971 -25.776321 52.912200 0.634241 2.079623 0.117286 -0.034143 325766.000000 0 0 1
36.404318 27.931071 -26.821991 53.149208 0.654448 2.099778 0.133317 -0.031243 745918.000000 0 0 1
37.189638 28.113471 -28.189571 54.480165 0.647298 2.114639 0.134240 -0.032539 365430.000000 0 0 1
37.439938 26.870571 -28.811271 54.349479 0.622505 2.129528 0.100311 -0.009012 -476800.000000 0 0 1
-37.187246 27.111771 -29.915251 54.889540 -0.629965 2.147195 0.070969 -0.006688 -855233.000000 0 0 1
-36.717486 25.813871 -30.679921 54.367152 -0.612764 2.170393 0.051531 -0.003786 203831.000000 0 0 1
-35.978814 24.889271 -29.959021 53.023521 -0.605185 2.171246 0.040877 0.000252 257377.000000 0 0 1
-34.673030 25.360171 -29.586261 52.160369 -0.631496 2.173919 0.006682 0.008522 30818.200000 0 0 1
-33.941786 24.486871 -28.582281 50.681342 -0.624969 2.169970 -0.000656 0.012172 -179529.000000 0 0 1
-33.528936 23.295771 -29.166701 50.175481 -0.607225 2.191114 0.014422 0.004378 -192274.000000 0 0 1
-33.479596 22.252471 -28.182391 49.094836 -0.586610 2.182227 0.010423 0.012536 -63859.200000 0 0 1
-33.036266 20.891271 -28.694791 48.489494 -0.563884 2.204053 0.016756 0.004239 -1412650.000000 0 0 1
-31.708686 20.691171 -28.926431 47.647704 -0.578158 2.223189 0.073589 -0.005907 -1424360.000000 0 0 1
-31.361116 19.321171 -28.931931 46.838914 -0.552164 2.236598 0.064087 -0.014813 43781.800000 0 0 1
-29.864066 19.046671 -29.189821 45.898625 -0.567736 2.260052 0.087493 -0.024521 -143571.000000 0 0 1
-29.388676 19.403571 -30.474221 46.571139 -0.583540 2.284130 0.110208 -0.033127 1871240.000000 0 0 1
-27.986006 19.000371 -30.686031 45.671250 -0.596441 2.307553 0.111405 -0.033180 1800700.000000 0 0 1
-27.786426 17.518071 -31.245741 45.335026 -0.562512 2.331206 0.107551 -0.036041 -271136.000000 0 0 1
-28.321196 16.502471 -30.411051 44.713015 -0.527594 2.318748 0.076780 -0.029784 229601.000000 0 0 1
-28.313606 15.297671 -31.117431 44.765763 -0.495361 2.339379 0.052739 -0.024155 -368383.000000 0 0 1
-28.863976 14.084771 -30.340171 44.181850 -0.453978 2.327751 0.046547 -0.015712 772933.000000 0 0 1
-30.305446 14.145071 -30.346351 45.159762 -0.436696 2.307672 0.033895 -0.009021 1149360.000000 0 0 1
-31.068016 12.969971 -30.109021 45.166302 -0.395476 2.300469 0.024552 -0.001364 -56343.100000 0 0 1
-30.720036 12.075671 -28.846331 43.836665 -0.374533 2.289011 0.023514 -0.008727 -556602.000000 0 0 1
-30.981836 12.683771 -27.606751 43.392221 -0.388578 2.260378 0.008723 -0.005812 274717.000000 0 0 1
-30.891176 11.696271 -26.662921 42.449721 -0.361948 2.249913 0.022646 0.001915 -35822.100000 0 0 1
-30.883326 12.305171 -25.237121 41.738583 -0.379161 2.220119 0.029639 -0.005206 -324677.000000 0 0 1
-29.662306 12.900671 -24.911401 40.827167 -0.410241 2.227068 0.032135 -0.008192 -530205.000000 0 0 1
-29.588906 13.584271 -23.669101 40.252479 -0.430396 2.199400 0.033558 -0.001629 1524650.000000 0 0 1
-28.039326 13.753371 -23.311901 38.971832 -0.456021 2.212016 0.043545 -0.001376 650612.000000 0 0 1
-27.353106 14.608871 -24.205301 39.338379 -0.490542 2.233576 0.052835 -0.012912 744316.000000 0 0 1
-25.970076 14.763071 -23.803301 38.196731 -0.516909 2.243594 0.053337 -0.012474 1177960.000000 0 0 1
-25.688546 15.448571 -22.467901 37.461531 -0.541433 2.213997 0.057924 -0.010465 -1512180.000000 0 0 1
-25.832396 16.848871 -22.528201 38.193153 -0.577947 2.201668 0.077147 -0.011199 -12873.400000 0 0 1
-26.034736 17.515771 -21.250401 37.897087 -0.592226 2.166075 0.075050 -0.013826 244048.000000 0 0 1
-27.541466 17.657171 -20.870901 38.805960 -0.570102 2.138654 0.061087 -0.005321 331366.000000 0 0 1
-28.102086 16.348271 -20.831501 38.612752 -0.526889 2.140637 0.058877 0.000754 -349345.000000 0 0 1
-29.155326 16.289571 -19.891201 38.872137 -0.509511 2.107968 0.054438 0.001171 -765844.000000 0 0 1
-29.874456 14.894471 -19.816601 38.820433 -0.462502 2.106526 0.063559 -0.007650 646128.000000 0 0 1
-30.841176 14.780771 -20.878001 40.069193 -0.446914 2.118875 0.052490 -0.000018 740860.000000 0 0 1
-32.069386 15.472371 -20.767401 41.220440 -0.449522 2.098804 0.037516 -0.001306 -524833.000000 0 0 1
-32.723296 15.826671 -22.086401 42.533595 -0.450483 2.116792 0.022711 0.020098 79867.000000 0 0 1
-33.538696 14.800671 -22.688201 43.112161 -0.415597 2.124992 0.036700 0.001501 463493.000000 0 0 1
-34.136178 15.204971 -23.891101 44.353742 -0.419040 2.139629 0.029044 0.009361 16237.400000 0 0 1
-35.329648 14.307771 -24.292701 45.199907 -0.384791 2.138207 0.029498 -0.006961 -74860.900000 0 0 1
-35.011617 13.026071 -24.910701 44.900277 -0.356182 2.158920 0.030947 0.000779 208124.000000 0 0 1
-34.828581 11.974571 -23.989901 43.953791 -0.331154 2.148138 0.033999 -0.001861 -270282.000000 0 0 1
-35.009964 10.637971 -24.747201 44.173385 -0.294990 2.165458 0.041465 -0.009963 1082110.000000 0 0 1
-36.374196 10.238471 -25.026901 45.323881 -0.274377 2.155772 0.043599 -0.003260 1084590.000000 0 0 1
-36.318586 8.976271 -25.685521 45.380162 -0.242298 2.172451 0.044765 0.004120 168493.000000 0 0 1
-37.682396 8.369171 -26.113411 46.603822 -0.218550 2.165578 0.058750 0.000278 -149125.000000 0 0 1
36.999928 7.823871 -25.071701 45.373977 0.208387 2.156225 0.055076 0.002018 -635178.000000 0 0 1
35.887818 7.277271 -25.729911 44.754022 0.200066 2.183301 0.052667 -0.000500 -176631.000000 0 0 1
34.933828 6.375771 -24.879001 43.358822 0.180523 2.181926 0.071665 -0.012706 531011.000000 0 0 1
35.675068 5.353671 -24.209501 43.445048 0.148956 2.161860 0.067622 -0.015434 91218.900000 0 0 1
34.821048 4.377371 -23.693801 42.344574 0.125054 2.164636 0.085224 -0.015365 37446.500000 0 0 1
35.463478 3.568271 -22.504101 42.152407 0.100281 2.133973 0.066156 -0.012719 331301.000000 0 0 1
36.511328 2.737071 -22.968501 43.221762 0.074825 2.131061 0.078317 -0.021354 -137739.000000 0 0 1
37.213888 2.059871 -22.002601 43.280839 0.055296 2.104085 0.127195 -0.026366 84022.400000 0 0 1
-37.404196 0.919071 -22.732401 43.779911 -0.024566 2.116761 0.139077 -0.027015 509224.000000 0 0 1
37.160508 -0.009129 -23.393501 43.910811 -0.000246 2.132644 0.111923 -0.025261 412199.000000 0 0 1
-37.560786 -1.171329 -23.737801 44.448485 0.031175 2.134182 0.123337 -0.033049 159105.000000 0 0 1
-24.048676 29.038671 27.093065 46.428627 -0.879119 0.947713 0.033771 -0.009528 -484392.000000 0 0 1
-25.268316 29.186671 26.400385 46.768899 -0.857230 0.970986 0.027495 -0.012025 287815.000000 0 0 1
-25.232726 28.543071 25.135885 45.642196 -0.846879 0.987575 0.025456 0.001258 -253060.000000 0 0 1
-25.391746 26.995371 25.114975 44.768882 -0.816000 0.975213 0.039001 -0.005861 -111464.000000 0 0 1
-26.633746 26.514171 25.596715 45.470315 -0.783148 0.972867 0.048362 -0.003730 225904.000000 0 0 1
-26.761006 26.396071 27.069595 46.321345 -0.778533 0.946672 0.049008 -0.005377 -587379.000000 0 0 1
-26.003826 25.242771 27.779645 45.662951 -0.770548 0.916800 0.046623 -0.006558 551721.000000 0 0 1
-24.647476 25.508271 28.137875 45.275932 -0.802559 0.900172 0.049149 -0.006247 222632.000000 0 0 1
-24.457376 26.220871 29.331005 46.324995 -0.820182 0.885171 0.049305 -0.008090 738270.000000 0 0 1
-22.979976 26.077171 29.856215 45.820211 -0.848449 0.861111 0.062711 -0.004150 673726.000000 0 0 1
-21.927876 26.590371 29.050805 45.075812 -0.881202 0.870443 0.081361 -0.016533 758705.000000 0 0 1
-20.677776 26.345771 29.723485 44.778964 -0.905355 0.844932 0.103306 -0.021538 656795.000000 0 0 1
-19.945676 25.021871 29.361505 43.428355 -0.897808 0.828352 0.088101 -0.012688 -448765.000000 0 0 1
-19.491576 24.850871 28.016275 42.218467 -0.905676 0.845172 0.088948 -0.012714 66274.800000 0 0 1
-20.297276 24.132571 27.068915 41.558231 -0.871507 0.861435 0.089431 -0.015532 59656.700000 0 0 1
-20.271876 22.562471 27.137445 40.699570 -0.838823 0.840924 0.082135 -0.003015 -30582.800000 0 0 1
-20.830376 22.059971 28.294295 41.486311 -0.814059 0.820282 0.071436 -0.003146 -170120.000000 0 0 1
-20.623476 20.685871 28.323195 40.687054 -0.786909 0.800813 0.084722 0.001019 251619.000000 0 0 1
-21.169076 20.124971 29.635155 41.609935 -0.760119 0.778150 0.094356 -0.016887 94934.700000 0 0 1
-20.239376 20.495571 30.614045 42.034754 -0.791687 0.754954 0.088093 -0.024560 219925.000000 0 0 1
-20.691976 19.968971 31.861571 42.919429 -0.767619 0.734214 0.086997 -0.024067 368158.000000 0 0 1
-19.785776 20.356571 33.094343 43.601634 -0.799616 0.708996 0.101023 -0.026754 -115977.000000 0 0 1
-19.761776 21.713671 33.536601 44.572580 -0.832425 0.719092 0.066570 -0.019133 -71341.200000 0 0 1
-18.919476 22.622771 32.848056 44.144435 -0.874308 0.731603 0.083649 -0.006875 782239.000000 0 0 1
-17.431776 22.552771 33.357977 43.877659 -0.912779 0.707099 0.072968 -0.003978 388105.000000 0 0 1
-16.738976 21.426271 32.918185 42.695261 -0.907602 0.690381 0.079824 -0.023562 -871131.000000 0 0 1
-15.369476 21.547271 33.153733 42.422585 -0.951206 0.673712 0.052500 -0.022704 -917632.000000 0 0 1
-14.574676 20.228571 32.929549 41.303408 -0.946444 0.648054 0.046507 -0.027336 -223738.000000 0 0 1
-13.231876 20.189771 33.331904 41.154893 -0.990652 0.626792 0.032503 -0.029554 -42632.500000 0 0 1
-13.012476 20.125671 -32.913271 40.714255 -0.996842 2.512220 0.046432 -0.032442 -204267.000000 0 0 1
-11.532876 20.081471 -32.462621 39.875988 -1.049485 2.521956 0.038207 -0.027349 417385.000000 0 0 1
-10.763576 21.265571 -32.597781 40.381857 -1.102241 2.510254 0.038540 -0.027169 -1823380.000000 0 0 1
-9.516176 21.062071 -32.146581 39.592564 -1.146433 2.518255 0.041997 -0.022718 -1946290.000000 0 0 1
-8.693776 22.370171 -32.095391 40.076432 -1.200128 2.499517 0.051178 -0.027088 -27703.800000 0 0 1
-8.877576 23.159571 -30.890871 39.615944 -1.204750 2.465076 0.052798 -0.032811 517432.000000 0 0 1
-8.053476 22.663971 -29.802281 38.297389 -1.229370 2.462560 0.055209 -0.031451 375554.000000 0 0 1
-7.582376 23.839571 -28.878101 38.206836 -1.262856 2.427726 0.060355 -0.029226 -282289.000000 0 0 1
-6.438776 24.501571 -29.306651 38.738412 -1.313816 2.428782 0.078074 -0.027406 -414697.000000 0 0 1
-6.067876 25.594771 -28.420471 38.725116 -1.338019 2.394846 0.091934 -0.019773 199687.000000 0 0 1
-4.717176 26.219671 -28.863881 39.279085 -1.392791 2.396229 0.082545 -0.027239 -67943.600000 0 0 1
-3.570476 25.439571 -28.494641 38.364888 -1.431356 2.407930 0.101048 -0.021573 627463.000000 0 0 1
-2.403976 25.745471 -29.243861 39.036032 -1.477692 2.417575 0.115424 -0.026052 329990.000000 0 0 1
-1.742976 27.129171 -29.039441 39.778374 -1.506637 2.389163 0.123169 -0.044456 -1020930.000000 0 0 1
-1.062076 27.240471 -27.824481 38.953472 -1.531827 2.366420 0.132266 -0.061322 616245.000000 0 0 1
-0.186276 28.373971 -27.717841 39.666051 -1.564231 2.344487 0.138884 -0.060846 -183597.000000 0 0 1
0.538524 28.587671 -26.326261 38.866656 1.551961 2.314948 0.142431 -0.072950 458044.000000 0 0 1
1.506524 27.630471 -25.849641 37.867090 1.516326 2.322167 0.178492 -0.076795 930188.000000 0 0 1
2.646024 27.554671 -26.717621 38.471972 1.475062 2.338479 0.183164 -0.076413 -682928.000000 0 0 1
3.962324 27.862671 -25.998651 38.313944 1.429534 2.316609 0.181921 -0.077150 -713247.000000 0 0 1
4.414624 26.751871 -25.348621 37.117437 1.407249 2.322563 0.196389 -0.064250 -490184.000000 0 0 1
5.615724 26.947771 -24.670401 36.964137 1.365344 2.301528 0.162991 -0.058457 -339410.000000 0 0 1
6.251624 25.675371 -24.040901 35.724955 1.331957 2.308978 0.166081 -0.052641 646438.000000 0 0 1
7.484124 26.003571 -23.380301 35.760821 1.290559 2.283387 0.146923 -0.049152 361621.000000 0 0 1
8.111624 24.852571 -22.800001 34.688453 1.255308 2.287999 0.130170 -0.034436 -181829.000000 0 0 1
9.583724 25.039771 -22.468501 34.981015 1.205257 2.268299 0.121144 -0.012218 -1060740.000000 0 0 1
9.792324 25.978071 -21.407501 35.057537 1.210321 2.227664 0.124816 -0.016212 666261.000000 0 0 1
11.160624 26.333871 -21.194501 35.598303 1.169932 2.208534 0.126710 -0.023538 1266740.000000 0 0 1
12.197924 25.279771 -20.630101 34.834713 1.121233 2.204618 0.092697 -0.005578 144349.000000 0 0 1
12.634224 24.283571 -21.538501 34.831343 1.091058 2.237458 0.089520 -0.008647 -90845.200000 0 0 1
13.087024 23.184771 -20.805301 33.788524 1.056914 2.234134 0.064619 -0.000873 -193219.000000 0 0 1
13.143624 21.965871 -21.777201 33.608047 1.031579 2.275720 0.064146 -0.006991 898050.000000 0 0 1
11.853624 21.675371 -22.348501 33.313445 1.070359 2.306158 0.081038 -0.016750 894925.000000 0 0 1
12.020424 20.771971 -23.474601 33.571152 1.046197 2.345143 0.080976 -0.017077 606014.000000 0 0 1
11.063024 21.050071 -24.743901 34.318459 1.086912 2.376053 0.097674 -0.019400 1004230.000000 0 0 1
9.719124 20.659571 -24.440501 33.445737 1.131074 2.390218 0.102775 -0.019792 325653.000000 0 0 1
9.114524 20.455071 -25.727911 34.108795 1.151618 2.425368 0.096767 -0.022704 -706216.000000 0 0 1
7.680624 19.961471 -25.564381 33.331515 1.203486 2.444907 0.105715 -0.035058 274978.000000 0 0 1
6.622924 20.925271 -25.358801 33.538021 1.264268 2.428162 0.136964 -0.042170 572116.000000 0 0 1
6.504424 21.427371 -24.009601 32.831398 1.276080 2.391022 0.131182 -0.047885 -585336.000000 0 0 1
5.095124 21.785571 -23.518401 32.460539 1.341050 2.381138 0.148870 -0.052749 -42976.900000 0 0 1
4.516024 22.861771 -24.278301 33.652503 1.375771 2.376678 0.152685 -0.051870 696082.000000 0 0 1
3.153424 23.064871 -23.871701 33.343522 1.434919 2.368755 0.166063 -0.052343 485236.000000 0 0 1
2.481724 24.302571 -24.425801 34.545530 1.469031 2.356130 0.158077 -0.045571 -448352.000000 0 0 1
1.096624 24.182071 -24.236301 34.254539 1.525479 2.356801 0.171952 -0.067195 53944.700000 0 0 1
0.349824 24.919471 -25.234171 35.466404 1.556759 2.362420 0.155739 -0.055059 600071.000000 0 0 1
-1.194176 24.755171 -25.270301 35.395376 -1.522594 2.365911 0.158259 -0.055289 400060.000000 0 0 1
-1.557576 23.550171 -25.825081 34.985303 -1.504754 2.401149 0.173766 -0.059110 -854176.000000 0 0 1
-2.883776 23.494371 -26.226121 35.328615 -1.448664 2.407364 0.166881 -0.048107 -639629.000000 0 0 1
-3.406276 22.189771 -26.840611 34.991528 -1.418479 2.445043 0.138309 -0.051285 -429370.000000 0 0 1
-2.679476 21.787171 -27.941641 35.533023 -1.448427 2.475686 0.173031 -0.064230 -275838.000000 0 0 1
-3.189576 20.577971 -28.494961 35.292904 -1.417020 2.510503 0.117079 -0.052484 1394680.000000 0 0 1
-4.500676 20.684671 -29.420821 36.244950 -1.356551 2.517891 0.087620 -0.042504 1197860.000000 0 0 1
-4.230376 21.202271 -30.740811 37.582307 -1.373858 2.528652 0.090692 -0.040111 7973.450000 0 0 1
-3.969876 22.654071 -30.766731 38.413000 -1.397319 2.499670 0.114064 -0.045154 -79477.700000 0 0 1
-3.572376 23.004871 -32.222101 39.752355 -1.416739 2.515923 0.103053 -0.038741 201144.000000 0 0 1
-2.363776 22.381871 -32.621691 39.632188 -1.465575 2.537664 0.106465 -0.037587 420368.000000 0 0 1
-2.368876 22.406671 33.579595 40.438344 -1.465466 0.590989 0.107194 -0.019517 944485.000000 0 0 1
-1.183876 21.522371 32.958227 39.380944 -1.515845 0.579187 0.121120 -0.015301 1085320.000000 0 0 1
-1.512376 20.158471 32.957358 38.663144 -1.495912 0.550194 0.104776 -0.004874 -352547.000000 0 0 1
-0.496276 19.492471 32.294698 37.724664 -1.545342 0.543192 0.108767 -0.006849 -400869.000000 0 0 1
-0.767776 18.056171 31.779361 36.558755 -1.528300 0.517076 0.093753 -0.002056 -91019.500000 0 0 1
-1.485676 17.962671 30.583885 35.499843 -1.488275 0.532537 0.077086 0.000283 -72136.800000 0 0 1
-1.793276 16.623371 30.189795 34.510521 -1.463335 0.505774 0.061531 0.002491 -65300.300000 0 0 1
-2.749076 16.504171 28.966965 33.451908 -1.405743 0.523792 0.058886 0.004925 540381.000000 0 0 1
-4.105476 16.834571 29.229255 33.979510 -1.331594 0.535130 0.040178 0.006085 191730.000000 0 0 1
-4.391476 18.204471 28.937025 34.467945 -1.334088 0.574371 0.040786 0.002877 -114735.000000 0 0 1
-5.888776 18.543171 29.097665 35.002871 -1.263298 0.589365 0.022757 0.000766 202130.000000 0 0 1
-6.759776 18.014171 28.121135 34.073497 -1.211809 0.600049 0.017846 -0.002279 618021.000000 0 0 1
-8.124376 18.253571 28.516745 34.819579 -1.152038 0.611155 0.032199 -0.012211 570775.000000 0 0 1
-9.124776 17.440271 27.677105 33.962431 -1.088760 0.618183 0.035733 -0.014139 -290192.000000 0 0 1
-9.413676 16.060671 27.993475 33.618404 -1.040636 0.586861 0.046660 -0.018258 95735.500000 0 0 1
-10.189676 15.864571 29.163855 34.728152 -0.999859 0.573927 0.046490 -0.025957 -318444.000000 0 0 1
-10.656976 14.382571 29.372635 34.397401 -0.933103 0.547324 0.051374 -0.034091 64113.200000 0 0 1
-9.668176 13.402671 29.645225 33.940309 -0.945877 0.508549 0.062823 -0.028980 699042.000000 0 0 1
-8.931076 13.414871 30.917405 34.865582 -0.983422 0.480508 0.062090 -0.028168 526052.000000 0 0 1
-9.770876 12.916171 32.113187 35.966016 -0.923158 0.467105 0.102759 -0.035883 18289.400000 0 0 1
-10.169676 11.552271 32.118547 35.615704 -0.848962 0.446860 0.124852 -0.043911 470881.000000 0 0 1
-10.966276 11.247071 33.259974 36.782900 -0.798038 0.441238 0.137738 -0.042584 -197421.000000 0 0 1
-11.259676 9.704271 33.344105 36.507294 -0.711340 0.419348 0.129576 -0.044516 -1071420.000000 0 0 1
-10.176076 8.895571 33.590335 36.207656 -0.718357 0.382556 0.153161 -0.051887 -659958.000000 0 0 1
-10.315776 8.101571 -32.879831 35.399632 -0.665749 2.762008 0.179520 -0.059931 -127944.000000 0 0 1
-9.675476 8.776971 -31.617241 34.209647 -0.736744 2.749784 0.144760 -0.058755 -102641.000000 0 0 1
-10.412076 9.907571 -31.190821 34.342955 -0.760575 2.709798 0.128840 -0.053661 245417.000000 0 0 1
-9.679476 10.664871 -30.275891 33.527023 -0.833796 2.697567 0.110724 -0.057596 -158051.000000 0 0 1
-8.583576 11.592971 -30.875571 34.078962 -0.933460 2.704535 0.090705 -0.047407 -87431.600000 0 0 1
-8.949776 12.855771 -31.359101 35.053709 -0.962647 2.678335 0.081202 -0.039831 171320.000000 0 0 1
-7.837976 13.679071 -31.732581 35.433142 -1.050474 2.680489 0.054887 -0.029647 116209.000000 0 0 1
-8.192476 15.085871 -32.101151 36.403077 -1.073300 2.650515 0.059410 -0.017564 -180176.000000 0 0 1
-8.903976 15.145171 -33.326251 37.673545 -1.039315 2.656445 0.078863 -0.024236 157121.000000 0 0 1
-9.317876 16.497971 -33.503091 38.489777 -1.056670 2.626894 0.068927 -0.021389 -854174.000000 0 0 1
-9.797776 16.834271 32.674227 38.039377 -1.043707 0.537565 0.056555 -0.027906 1101040.000000 0 0 1
-11.033476 16.234271 32.235898 37.741784 -0.973865 0.546946 0.048304 -0.028808 1138080.000000 0 0 1
-12.196876 16.653271 32.944939 38.877554 -0.938654 0.559722 0.049826 -0.035934 -536018.000000 0 0 1
-13.514976 16.269171 32.236546 38.555615 -0.877608 0.580652 0.058783 -0.046238 -143320.000000 0 0 1
-13.616476 14.866571 32.119203 37.921848 -0.829259 0.560510 0.059455 -0.046752 -132860.000000 0 0 1
-14.694376 14.300471 32.791407 38.674340 -0.771814 0.558812 0.035058 -0.034447 -548121.000000 0 0 1
-14.668976 12.759371 32.884003 38.201284 -0.715889 0.533939 0.039306 -0.035446 -148796.000000 0 0 1
-14.940976 11.997271 31.675833 37.020612 -0.676554 0.544035 0.033372 -0.040037 599895.000000 0 0 1
-13.767576 11.618671 30.943425 35.805519 -0.700951 0.527222 0.064293 -0.036807 -23923.600000 0 0 1
-14.007876 11.047871 29.511375 34.484740 -0.667806 0.543738 0.056712 -0.029327 -157166.000000 0 0 1
-14.723076 9.812971 29.524865 34.420648 -0.587889 0.539888 0.050013 -0.025212 403005.000000 0 0 1
-14.634476 9.254971 28.236795 33.123088 -0.563909 0.550084 0.039606 -0.024063 148586.000000 0 0 1
-15.620676 8.094871 28.038745 33.101415 -0.478113 0.560375 0.051846 -0.015182 252834.000000 0 0 1
-14.974876 6.883571 28.430665 32.862337 -0.430870 0.525358 0.044307 -0.013939 448577.000000 0 0 1
-15.789676 5.819071 28.089265 32.744194 -0.353092 0.539745 0.058059 -0.012643 -587534.000000 0 0 1
-14.942576 4.567371 28.179155 32.221208 -0.296643 0.506283 0.075188 -0.015926 -332137.000000 0 0 1
-13.978376 4.422871 27.170935 30.874204 -0.306441 0.494823 0.070554 -0.021339 -305547.000000 0 0 1
-14.429976 4.184771 25.872455 29.918564 -0.282262 0.526119 0.069123 -0.017142 -617670.000000 0 0 1
-13.322076 3.994471 24.806485 28.439325 -0.291309 0.510992 0.063894 -0.009677 129991.000000 0 0 1
-12.551576 2.821471 24.965895 28.085560 -0.221115 0.475808 0.056183 -0.012306 202177.000000 0 0 1
-11.495776 2.680771 24.035675 26.777847 -0.229102 0.456512 0.045134 -0.010288 137526.000000 0 0 1
-10.494676 1.554171 24.449265 26.651834 -0.147023 0.409405 0.048776 0.000772 -830413.000000 0 0 1
-9.210976 1.862671 24.040225 25.811704 -0.199532 0.372641 0.039499 -0.014093 -938370.000000 0 0 1
-8.349376 0.791471 24.388415 25.790178 -0.094512 0.331217 0.052779 -0.015304 -356096.000000 0 0 1
-6.905976 1.269371 24.207805 25.205587 -0.181779 0.282311 0.065571 -0.020725 -807325.000000 0 0 1
-6.430876 1.390671 22.851715 23.780055 -0.212970 0.280340 0.053074 -0.017986 514591.000000 0 1 0
-5.048276 1.734271 22.772195 23.389435 -0.330906 0.230246 0.052152 -0.013793 641084.000000 0 1 0
-4.641976 3.189071 23.213805 23.887211 -0.601953 0.238011 0.080681 -0.020523 -614616.000000 0 1 0
-4.371476 3.342771 24.568155 25.176937 -0.652829 0.220355 0.081488 -0.023227 45545.500000 0 0 1
-4.086676 4.659671 24.898605 25.658410 -0.850817 0.243966 0.079813 -0.030627 -74.665000 0 0 1
4.137624 -23.854229 12.727099 27.351841 -1.399051 1.086811 0.139344 -0.026139 238668.000000 0 0 1
3.927524 -24.963529 13.594399 28.695137 -1.414745 1.077249 0.152519 -0.035927 -802850.000000 0 0 1
2.684024 -25.509289 13.326599 28.905468 -1.465965 1.091629 0.131773 -0.035996 -521839.000000 0 0 1
2.331924 -26.696499 14.274799 30.362984 -1.483668 1.081349 0.121218 -0.018566 79066.000000 0 0 1
2.118624 -26.315799 15.631299 30.681384 -1.490462 1.036226 0.141080 -0.037608 11689.300000 0 0 1
1.677324 -27.459919 16.386999 32.021779 -1.509789 1.033581 0.146988 -0.042384 114426.000000 0 0 1
1.334424 -27.044979 17.824399 32.417908 -1.521495 0.988633 0.132665 -0.040414 152767.000000 0 0 1
2.476324 -26.644539 18.563499 32.567885 -1.478123 0.964298 0.162055 -0.047656 -166387.000000 0 0 1
2.313224 -26.605769 19.934799 33.325878 -1.484070 0.929571 0.152363 -0.052544 188588.000000 0 0 1
3.447924 -25.908359 20.711399 33.348063 -1.438492 0.900692 0.123065 -0.041613 179554.000000 0 0 1
3.029224 -24.581729 20.965899 32.450062 -1.448184 0.868336 0.116216 -0.041256 729830.000000 0 0 1
4.152224 -23.839029 21.426999 32.321147 -1.398349 0.846057 0.093547 -0.045717 455637.000000 0 0 1
3.652824 -22.474029 22.048999 31.695165 -1.409670 0.801461 0.107853 -0.042878 120403.000000 0 0 1
2.890824 -21.594829 21.242799 30.429427 -1.437721 0.798055 0.127433 -0.043416 115277.000000 0 0 1
3.549924 -21.070029 20.108099 29.340820 -1.403882 0.815742 0.101438 -0.026431 -783666.000000 0 0 1
2.702024 -20.063329 19.437499 28.065183 -1.436927 0.805731 0.066700 -0.032437 -505652.000000 0 0 1
2.646124 -18.980629 20.293499 27.912226 -1.432277 0.756785 0.052544 -0.032878 30094.600000 0 0 1
1.673324 -18.070029 19.839499 26.887389 -1.478457 0.740882 0.051590 -0.042122 -226422.000000 0 0 1
1.476224 -16.942229 20.795099 26.863628 -1.483883 0.685506 0.066679 -0.034299 -220702.000000 0 0 1
2.505724 -15.977229 20.843799 26.382086 -1.415233 0.659867 0.018486 -0.010054 -172077.000000 0 0 1
2.046424 -14.731029 21.308999 25.985852 -1.432760 0.609345 0.041430 -0.005685 739466.000000 0 0 1
3.101024 -13.542529 21.162599 25.315451 -1.345693 0.580924 -0.013943 0.014756 264953.000000 0 0 1
3.416424 -13.220729 19.805499 24.056546 -1.317914 0.603614 -0.035474 0.007756 -770469.000000 0 1 0
2.380224 -12.906229 18.944499 23.046263 -1.388421 0.605846 -0.024445 0.013996 -722319.000000 0 1 0
1.550324 -11.633829 19.281999 22.573103 -1.438317 0.546781 -0.007902 0.004581 -367682.000000 0 1 0
2.050224 -10.268729 19.147299 21.823595 -1.373731 0.500450 -0.010032 0.007139 -453372.000000 0 1 0
1.551224 -9.367729 20.095799 22.226151 -1.406693 0.441408 0.010181 -0.011410 596403.000000 0 1 0
0.041524 -8.971729 20.139799 22.047792 -1.566168 0.419087 0.032893 -0.015942 487748.000000 0 1 0
-0.237776 -8.002329 21.121999 22.588330 1.541092 0.362299 0.047642 -0.028750 523677.000000 0 1 0
-1.635276 -7.684329 20.996799 22.418488 1.361118 0.358044 0.049137 -0.027620 726449.000000 0 1 0
-2.088076 -6.976529 22.318699 23.476719 1.279982 0.315396 0.049261 -0.023615 -336508.000000 0 1 0
-2.111376 -7.929629 23.400399 24.797492 1.310570 0.337275 0.056638 -0.009752 127469.000000 0 1 0
-2.205276 -7.259829 24.649499 25.790815 1.275890 0.298607 0.056306 -0.005829 -53691.400000 0 0 1
-2.496376 -8.241129 25.828399 27.225986 1.276666 0.321802 0.067231 -0.007488 244334.000000 0 0 1
-1.443376 -9.173629 26.042699 27.648887 1.414736 0.342531 0.068745 -0.008782 239930.000000 0 0 1
-1.646876 -9.981329 27.149699 28.973182 1.407274 0.356675 0.097172 -0.018215 -80920.300000 0 0 1
-0.468576 -10.974129 27.231899 29.363709 1.528124 0.383395 0.110804 -0.021555 357496.000000 0 0 1
0.699524 -10.379729 27.794999 29.678108 -1.503505 0.358144 0.105191 -0.023679 184822.000000 0 0 1
1.601424 -11.374029 28.293899 30.536500 -1.430919 0.385634 0.124383 -0.033023 -24367.000000 0 0 1
2.616024 -10.679629 29.195999 31.197827 -1.330572 0.360177 0.143793 -0.040278 -481564.000000 0 0 1
2.087524 -10.249629 30.422899 32.170879 -1.369876 0.331160 0.146556 -0.047022 -651493.000000 0 0 1
3.004724 -9.720729 31.300899 32.913025 -1.271008 0.314282 0.189250 -0.056716 -489253.000000 0 0 1
2.322924 -9.456929 32.684299 34.104148 -1.329933 0.289568 0.193583 -0.063061 -21740.000000 0 0 1
1.983824 -10.744429 33.241699 34.991269 -1.388215 0.317561 0.184555 -0.058950 -18047.200000 0 0 1
2.240624 -10.860129 -32.994217 34.807774 -1.367335 2.817368 0.167513 -0.056466 -55466.500000 0 0 1
3.693724 -10.951329 -32.467917 34.463616 -1.245493 2.799613 0.149659 -0.042910 67604.900000 0 0 1
4.524324 -9.815629 -32.665617 34.407247 -1.138890 2.822059 0.136103 -0.051652 260576.000000 0 0 1
4.650324 -9.024829 -31.459817 33.057422 -1.094999 2.829431 0.153835 -0.049846 -253631.000000 0 0 1
3.571424 -7.940029 -31.302517 32.490717 -1.148109 2.870316 0.145686 -0.045162 -200469.000000 0 0 1
3.779424 -6.771629 -32.052217 32.977017 -1.061736 2.904208 0.179352 -0.050964 -191827.000000 0 0 1
2.873724 -5.729129 -31.798317 32.437851 -1.105870 2.942692 0.152936 -0.029923 -86677.400000 0 0 1
3.031724 -4.454429 -32.702417 33.143346 -0.973203 2.978294 0.155377 -0.035033 106621.000000 0 0 1
2.400924 -4.576229 33.684799 34.078908 -1.087623 0.152230 0.153885 -0.042576 -108118.000000 0 0 1
2.691024 -3.399129 32.948299 33.232305 -0.901149 0.130830 0.165040 -0.039841 203662.000000 0 0 1
1.833324 -3.315129 31.687199 31.912846 -1.065639 0.118988 0.174580 -0.041045 -165508.000000 0 0 1
0.462924 -3.107929 31.891999 32.046421 -1.422934 0.098210 0.164218 -0.040743 -448692.000000 0 0 1
-0.239976 -3.315329 30.674699 30.854273 1.498539 0.107942 0.152339 -0.028836 848972.000000 0 0 1
-1.780176 -3.578129 30.720799 30.979663 1.109138 0.129365 0.125831 -0.030942 971189.000000 0 0 1
-2.564076 -2.367529 30.726099 30.923662 0.745565 0.113098 0.122039 -0.034833 948948.000000 0 0 1
-3.921076 -2.691329 30.349799 30.720163 0.601523 0.155437 0.087653 -0.030214 1173470.000000 0 0 1
-4.802976 -1.536729 29.834699 30.257881 0.309661 0.167443 0.062118 -0.023619 -201419.000000 0 0 1
-4.356176 -1.107229 28.590399 28.941547 0.248904 0.155933 0.068896 -0.021071 106280.000000 0 0 1
-5.240976 -0.326729 27.766699 28.258877 0.062261 0.186909 0.061855 -0.020679 269988.000000 0 0 1
-5.711376 1.021271 28.315699 28.904007 -0.176943 0.202105 0.075499 -0.023812 -115813.000000 0 0 1
-6.931176 1.049371 29.017999 29.852749 -0.150258 0.237038 0.062349 -0.021421 -184840.000000 0 0 1
-7.436776 2.398571 28.998899 30.033230 -0.311995 0.263207 0.068083 -0.024186 -450499.000000 0 0 1
-8.933376 2.469871 29.254699 30.687830 -0.269739 0.306817 0.067332 -0.022602 -710356.000000 0 0 1
-9.795476 1.985371 28.249099 29.965057 -0.199974 0.340060 0.062270 -0.016022 -675518.000000 0 0 1
-11.092976 2.324771 28.599899 30.763824 -0.206582 0.377307 0.056819 -0.019047 -855421.000000 0 0 1
-12.197176 1.535171 27.890899 30.479995 -0.125204 0.415150 0.056118 -0.017840 -242948.000000 0 0 1
-12.282476 0.158971 28.281399 30.833780 -0.012942 0.409748 0.060224 -0.020880 67784.300000 0 0 1
-12.371176 -0.645729 27.143399 29.836673 0.052149 0.428156 0.065797 -0.019183 -1253810.000000 0 0 1
-12.116576 -2.096029 27.553399 30.172745 0.171293 0.419756 0.075987 -0.018296 205214.000000 0 0 1
-10.803576 -2.370729 28.032399 30.135577 0.216015 0.375813 0.072685 -0.028145 657857.000000 0 0 1
-9.680976 -2.133029 27.207899 28.957570 0.216867 0.349401 0.088350 -0.027682 -734336.000000 0 0 1
-9.590376 -2.685829 25.739799 27.599388 0.273059 0.369184 0.066424 -0.025367 -374370.000000 0 0 1
-10.447876 -2.012329 24.752899 26.942784 0.190276 0.405967 0.052467 -0.021524 766196.000000 0 0 1
-10.577376 -2.612429 23.478199 25.883035 0.242137 0.434482 0.060028 -0.022884 -400507.000000 0 0 1
-9.453376 -2.360729 22.474599 24.495856 0.244718 0.409083 0.053789 -0.018230 1574720.000000 0 1 0
-8.130776 -2.760329 22.984999 24.536485 0.327283 0.357518 0.042477 -0.014087 1156700.000000 0 1 0
-7.121076 -2.394229 22.068399 23.312149 0.324344 0.328126 0.035920 -0.012990 1397340.000000 0 1 0
-5.627876 -2.572729 22.616699 23.447964 0.428776 0.267069 0.028685 -0.011938 1579350.000000 0 1 0
-5.127476 -3.906229 22.586199 23.487997 0.651025 0.278001 0.038962 -0.011112 -132519.000000 0 1 0
-5.768376 -4.761729 23.494799 24.656719 0.690091 0.308217 0.046717 -0.009629 -308504.000000 0 1 0
-5.536376 -6.219029 23.053599 24.511145 0.843404 0.346593 0.059982 -0.011808 -451985.000000 0 1 0
-6.353276 -6.682429 22.007699 23.861219 0.810643 0.396752 0.057324 -0.020446 -133289.000000 0 1 0
-6.080676 -6.121629 20.749099 22.471628 0.788754 0.394090 0.054850 -0.026224 -1441670.000000 0 1 0
-7.241876 -6.139829 19.823599 21.979930 0.703229 0.446659 0.055561 -0.023195 -749052.000000 0 1 0
-8.197476 -5.123029 20.204699 22.398078 0.558565 0.446248 0.058628 -0.020892 -235157.000000 0 1 0
-9.115076 -5.068629 19.158899 21.813735 0.507492 0.498511 0.059104 -0.019570 -769155.000000 0 1 0
-9.809076 -3.755929 19.162699 21.852551 0.365682 0.501403 0.049610 -0.016996 -616763.000000 0 1 0
-8.950976 -2.721229 18.836699 21.032030 0.295136 0.460974 0.042752 -0.013784 -77695.800000 0 1 0
-9.644076 -1.488229 18.691599 21.085514 0.153108 0.481143 0.043702 -0.020293 -104788.000000 0 1 0
-8.666276 -0.423329 18.202699 20.164865 0.048809 0.444807 0.026001 -0.007162 -217873.000000 0 1 0
-7.716076 -0.033529 19.176899 20.671052 0.004345 0.382545 0.028538 0.003432 -148948.000000 0 1 0
-8.061276 0.940971 20.137299 21.711297 -0.116201 0.383119 0.047418 -0.000491 -276220.000000 0 1 0
-7.955376 2.427771 19.758499 21.437825 -0.296196 0.398445 0.037497 -0.014801 153975.000000 0 1 0
-8.894876 2.799571 18.754399 20.944782 -0.304924 0.461420 0.025813 -0.023521 300688.000000 0 1 0
-8.757076 4.161371 18.494299 20.881630 -0.443612 0.482855 0.021588 -0.018512 -188166.000000 0 1 0
-9.593976 4.776371 17.383299 20.421488 -0.461927 0.552480 0.022421 -0.008543 -551618.000000 0 1 0
-10.934976 5.042571 17.679599 21.390873 -0.432080 0.597931 0.031132 -0.007074 -68494.800000 0 1 0
-11.643476 5.878471 16.726899 21.211226 -0.467538 0.662288 0.027915 0.010240 172563.000000 0 1 0
-11.310176 7.417571 16.669399 21.466469 -0.580464 0.681653 0.025445 0.004856 291566.000000 0 1 0
-9.945776 7.799571 16.457299 20.750770 -0.665038 0.654925 0.013752 0.000767 777019.000000 0 1 0
-9.802676 9.200071 16.368199 21.181400 -0.753697 0.687614 0.003529 -0.006409 488567.000000 0 1 0
-8.526676 9.714671 17.115199 21.447822 -0.850433 0.646840 0.004137 0.003799 418553.000000 0 1 0
-8.709776 10.031871 18.475599 22.756239 -0.855825 0.623411 0.025317 0.018684 -185372.000000 0 1 0
-8.332076 11.336571 18.912099 23.571356 -0.936982 0.639601 0.047675 0.021232 -9957.860000 0 1 0
-9.061276 12.561071 18.246499 23.933699 -0.945867 0.703818 0.060828 0.007971 99606.500000 0 1 0
-8.757876 12.645471 16.878299 22.836053 -0.965074 0.739052 0.041253 -0.006094 -134514.000000 0 1 0
-9.464276 13.684571 16.195299 23.219124 -0.965729 0.798896 0.053407 -0.022273 -193496.000000 0 1 0
-9.012676 14.042471 14.753099 22.272702 -1.000196 0.846799 0.050469 -0.025323 -4961.300000 0 1 0
-7.772476 14.696771 14.657099 22.163867 -1.084331 0.848238 0.040205 -0.020070 -203679.000000 0 1 0
-7.437276 14.901971 13.292599 21.309036 -1.107885 0.897200 0.029737 -0.038216 -367558.000000 0 1 0
-6.434976 16.062071 13.030099 21.660621 -1.189745 0.925348 0.018377 -0.034374 -981688.000000 0 1 0
-5.168376 15.719771 13.451599 21.325310 -1.253148 0.888237 0.011592 -0.034183 -1180580.000000 0 1 0
-4.443176 16.985471 13.441599 22.111640 -1.314942 0.917387 0.011445 -0.028299 501010.000000 0 1 0
-2.898076 16.840571 13.593199 21.835264 -1.400377 0.898820 0.016732 -0.030924 556240.000000 0 1 0
-2.334076 16.466371 14.870399 22.309596 -1.429986 0.841229 0.023159 -0.027191 -21472.500000 0 1 0
-2.601476 15.122171 15.127899 21.547646 -1.400433 0.792500 0.019259 -0.024595 -1122400.000000 0 1 0
-1.607976 14.484771 16.041299 21.672966 -1.460238 0.737499 0.027408 -0.025001 -1449620.000000 0 1 0
-0.358076 14.310571 15.474499 21.080341 -1.545780 0.746496 0.033635 -0.037876 -1097230.000000 0 1 0
0.531324 13.680371 16.350199 21.325193 1.531977 0.697099 0.038587 -0.026775 -289336.000000 0 1 0
1.482224 14.612371 17.112999 22.551566 1.469706 0.709268 0.037827 -0.031230 -822873.000000 0 1 0
0.872224 15.534071 17.949299 23.753852 1.514706 0.714170 0.036858 -0.035026 -738686.000000 0 1 0
1.795724 16.453171 18.399299 24.748044 1.462085 0.732560 0.066121 -0.039237 -562298.000000 0 1 0
1.018724 17.635671 19.060099 25.987344 1.513095 0.747431 0.073742 -0.034876 704712.000000 0 0 1
0.325724 18.522071 18.167799 25.946910 1.553212 0.795131 0.050621 -0.032718 427963.000000 0 0 1
-0.865776 17.973271 17.596099 25.167653 -1.522663 0.796581 0.054181 -0.030704 -441222.000000 0 0 1
-1.336076 19.013071 16.570299 25.255827 -1.500640 0.855160 0.047943 -0.027310 -437389.000000 0 0 1
-1.867976 20.193271 17.162899 26.567323 -1.478554 0.868444 0.040492 -0.019334 -215491.000000 0 0 1
-2.619776 20.856971 16.200399 26.539205 -1.445844 0.914190 0.040058 -0.016868 -433598.000000 0 0 1
-3.359676 22.180571 16.641399 27.932084 -1.420470 0.932559 0.033672 -0.007500 411488.000000 0 0 1
-4.434176 21.868171 17.546599 28.385947 -1.370740 0.904417 0.045102 -0.010798 260710.000000 0 0 1
-4.900676 23.064471 18.088099 29.718105 -1.361433 0.916431 0.044763 -0.019054 -322411.000000 0 0 1
-5.985776 22.847171 19.143799 30.402430 -1.314563 0.889655 0.043459 -0.017630 -735213.000000 0 0 1
-7.284976 22.732871 18.660399 30.299584 -1.260676 0.907315 0.042333 -0.022937 -280708.000000 0 0 1
-8.147276 22.233771 19.718499 30.814573 -1.219554 0.876417 0.028159 -0.021015 -758265.000000 0 0 1
-9.597976 22.380571 19.401499 31.135659 -1.165667 0.898061 0.034969 -0.022833 -1196400.000000 0 0 1
-10.053076 23.737371 19.351799 32.233821 -1.170186 0.926849 0.045604 -0.025922 402999.000000 0 0 1
-11.446976 23.816671 19.087599 32.597600 -1.122766 0.945235 0.032875 -0.019845 226855.000000 0 0 1
-12.130776 25.210271 19.191599 33.926847 -1.122315 0.969544 0.044655 -0.018945 -242998.000000 0 0 1
-12.519576 25.499171 20.515499 35.040451 -1.114391 0.945324 0.045175 -0.018091 -28403.900000 0 0 1
-13.055876 26.789171 20.501099 36.171959 -1.117315 0.968219 0.052992 -0.023569 42506.400000 0 0 1
-14.036176 26.963171 21.727599 37.364627 -1.090830 0.950223 0.085363 -0.030492 282727.000000 0 0 1
-15.209676 26.194671 21.863899 37.356728 -1.044734 0.945579 0.085688 -0.029912 193758.000000 0 0 1
-15.988976 26.620671 22.956199 38.617283 -1.029919 0.934210 0.072541 -0.015020 -31766.700000 0 0 1
-17.492576 26.341071 22.776599 38.969420 -0.984587 0.946565 0.078234 -0.016125 34845.000000 0 0 1
-17.865776 25.001771 23.054599 38.416000 -0.950352 0.927133 0.077172 -0.024238 -495459.000000 0 0 1
-19.254676 24.835271 23.075099 38.987093 -0.911302 0.937426 0.091182 -0.022069 -519353.000000 0 0 1
28.867024 24.136771 23.265475 44.239927 0.696390 1.017031 0.131348 -0.022722 -14193.900000 0 0 1
28.458224 23.373871 24.402335 44.177849 0.687618 0.985597 0.131713 -0.022234 146952.000000 0 0 1
28.104624 22.088471 23.968475 43.037870 0.666107 0.980128 0.128029 -0.014245 -244798.000000 0 0 1
27.823224 21.156071 25.159835 43.066559 0.650108 0.946892 0.142237 -0.018975 105574.000000 0 0 1
26.589024 21.463371 25.778955 42.804288 0.679132 0.924478 0.147557 -0.018774 132492.000000 0 0 1
26.349124 20.749771 27.003125 43.058079 0.667069 0.892930 0.159505 -0.030613 230625.000000 0 0 1
24.972224 20.984471 27.676285 42.777760 0.698843 0.867181 0.174143 -0.032221 136959.000000 0 0 1
24.695724 22.275771 28.243465 43.632352 0.733924 0.866752 0.179176 -0.039914 230032.000000 0 0 1
23.412224 22.239171 28.854855 43.304915 0.759708 0.841536 0.216118 -0.041033 370742.000000 0 0 1
22.940824 23.662771 29.327035 44.116699 0.800888 0.843623 0.211390 -0.045537 -289066.000000 0 0 1
22.534424 24.502671 28.249375 43.660146 0.827218 0.867115 0.196646 -0.048705 224516.000000 0 0 1
21.903624 25.720371 28.646895 44.293915 0.865371 0.867487 0.164593 -0.044720 1311830.000000 0 0 1
20.483324 25.707071 29.366995 44.077664 0.898011 0.841620 0.155879 -0.041056 1260450.000000 0 0 1
19.394424 25.422071 28.443865 42.795781 0.919092 0.843782 0.156505 -0.047226 1292730.000000 0 0 1
18.085324 25.759971 28.893705 42.725885 0.958682 0.828126 0.122737 -0.031011 715437.000000 0 0 1
17.383424 24.843371 29.956385 42.623486 0.960258 0.791451 0.075093 -0.031678 -428443.000000 0 0 1
17.871124 24.880971 31.297835 43.794912 0.947917 0.774679 0.097840 -0.026053 280527.000000 0 0 1
16.935124 24.319471 32.218391 43.775105 0.962517 0.743657 0.049296 -0.013828 200371.000000 0 0 1
17.470624 24.139371 33.633515 44.934901 0.944315 0.725008 0.076749 -0.010861 -269642.000000 0 0 1
18.029524 25.225471 -33.314111 45.510638 0.950249 2.392060 0.079062 -0.022065 304355.000000 0 0 1
18.569624 24.886071 -32.015251 44.599594 0.929741 2.371487 0.050941 0.005324 272785.000000 0 0 1
18.943824 26.206071 -31.197511 44.932297 0.944880 2.338275 0.052444 -0.003122 58119.500000 0 0 1
17.848524 26.733571 -30.482911 44.299678 0.982117 2.329673 0.052276 -0.013473 312599.000000 0 0 1
18.114424 28.120771 -30.169491 45.045625 0.998534 2.304674 0.079317 -0.016307 32309.600000 0 0 1
17.480524 28.465071 -28.831911 44.126048 1.020070 2.282862 0.094203 -0.024285 -335112.000000 0 0 1
18.028724 27.678971 -27.869201 43.218662 0.993472 2.271613 0.069246 -0.020767 192311.000000 0 0 1
17.476324 28.052771 -26.627481 42.442934 1.013651 2.248969 0.053365 -0.009804 -253938.000000 0 0 1
18.214524 27.290971 -25.530471 41.573681 0.982273 2.232044 0.040578 -0.012509 1073500.000000 0 0 1
19.622824 27.594871 -25.432461 42.347871 0.952657 2.214998 0.041128 -0.008677 909329.000000 0 0 1
20.290724 27.029971 -24.285401 41.618668 0.926863 2.193855 0.039522 -0.003873 597052.000000 0 0 1
21.827624 26.985571 -24.479501 42.472488 0.890675 2.185065 0.038748 -0.004624 534582.000000 0 0 1
22.507124 26.557071 -23.286901 41.882316 0.867755 2.160371 0.051594 -0.004338 400541.000000 0 0 1
23.920224 26.414971 -23.410701 42.637879 0.834920 2.152034 0.059874 -0.005894 450483.000000 0 0 1
24.567324 26.231671 -22.069401 42.174785 0.818150 2.121497 0.075764 -0.014305 -255570.000000 0 0 1
24.313524 24.988571 -21.482501 40.952094 0.799089 2.123014 0.089160 -0.016547 -57704.100000 0 0 1
24.928224 24.913971 -20.209201 40.626766 0.785112 2.091437 0.097970 -0.020912 -17930.400000 0 0 1
24.233924 23.960571 -19.199801 39.115526 0.779726 2.083860 0.104491 -0.022247 -521673.000000 0 0 1
24.701924 22.658671 -19.431001 38.744861 0.742282 2.096142 0.094689 -0.011540 223180.000000 0 0 1
24.598524 21.857971 -18.307601 37.656693 0.726475 2.078499 0.104954 -0.015585 -716042.000000 0 0 1
24.569924 20.350171 -18.578301 36.918341 0.691734 2.098125 0.111496 -0.017488 626930.000000 0 0 1
23.667724 19.841371 -19.589601 36.573127 0.697680 2.136048 0.099284 -0.017096 852212.000000 0 0 1
22.284524 20.008671 -19.292401 35.625043 0.731639 2.143065 0.090972 -0.028203 284161.000000 0 0 1
21.295824 19.789871 -20.485501 35.564124 0.748761 2.184643 0.072072 -0.012319 233271.000000 0 0 1
21.330024 20.605371 -21.598401 36.688447 0.768120 2.200243 0.074406 -0.004980 -52383.800000 0 0 1
21.503524 22.005071 -21.465901 37.515458 0.796925 2.179968 0.069688 -0.008128 -73728.600000 0 0 1
21.173924 22.725971 -22.772301 38.514705 0.820738 2.203420 0.058945 -0.000351 -176438.000000 0 0 1
19.812724 22.736671 -23.105301 37.991515 0.854009 2.224550 0.060289 -0.000999 -605696.000000 0 0 1
19.562024 23.143271 -24.378301 38.891970 0.869062 2.248263 0.048507 -0.003616 -429013.000000 0 0 1
18.059524 23.248971 -24.612301 38.372209 0.910370 2.267130 0.042783 -0.001271 -451195.000000 0 0 1
17.395524 24.222571 -23.841001 38.180238 0.947990 2.245202 0.050575 -0.017493 2785.880000 0 0 1
15.990524 24.102571 -23.967501 37.564237 0.985033 2.262747 0.057505 -0.014316 202137.000000 0 0 1
15.250124 25.243871 -23.277801 37.572268 1.027359 2.238962 0.058717 -0.018575 -216064.000000 0 0 1
15.428724 26.424971 -24.005301 38.891890 1.042322 2.236015 0.054794 -0.015972 276689.000000 0 0 1
14.466124 27.415771 -23.603101 38.961515 1.085269 2.221574 0.090317 -0.025838 461947.000000 0 0 1
14.514924 28.767771 -24.321401 40.370760 1.103511 2.217365 0.090172 -0.032742 5199.230000 0 0 1
14.295124 28.759471 -25.724911 41.148861 1.109505 2.246142 0.095851 -0.042957 -157087.000000 0 0 1
13.873624 29.954771 -26.356891 42.242768 1.137059 2.244569 0.131807 -0.052959 -23553.900000 0 0 1
14.844424 31.159171 -26.322071 43.406247 1.126201 2.222337 0.133208 -0.048959 -9394.430000 0 0 1
16.022124 31.031171 -27.078791 44.191662 1.094175 2.230342 0.095198 -0.025049 -35519.100000 0 0 1
16.741624 32.281771 -27.173601 45.396028 1.092372 2.212536 0.091570 -0.030602 -19584.700000 0 0 1
18.210024 32.062771 -27.543421 46.024627 1.054277 2.212361 0.071760 -0.004326 -254834.000000 0 0 1
18.993724 31.415371 -26.545281 45.302749 1.027002 2.196852 0.032728 -0.002393 639037.000000 0 0 1
20.311224 31.162071 -27.039471 45.986449 0.993162 2.199365 0.025942 0.001921 421428.000000 0 0 1
21.221024 30.409871 -25.993651 45.285340 0.961526 2.182175 0.002858 0.007838 -318306.000000 0 0 1
21.635424 31.066271 -24.804101 45.259786 0.962472 2.150814 0.015415 0.004342 248205.000000 0 0 1
22.502524 32.203771 -25.006601 46.570125 0.960907 2.137634 0.010192 0.003849 1610700.000000 0 0 1
24.038124 31.880771 -25.325331 47.281998 0.924740 2.136042 0.002305 0.013000 1188590.000000 0 0 1
24.095424 31.313271 -26.595581 47.628094 0.914934 2.163254 0.009747 0.015772 -326802.000000 0 0 1
25.232624 31.723971 -27.297741 48.869851 0.898879 2.163470 0.011517 0.023757 -931004.000000 0 0 1
25.277824 31.096371 -28.741341 49.315488 0.888247 2.192973 0.017860 0.019236 -132275.000000 0 0 1
24.318824 31.436571 -29.709231 49.621584 0.912372 2.212693 0.036713 0.014205 984797.000000 0 0 1
23.044824 30.726871 -29.699791 48.551850 0.927302 2.229020 0.019802 0.012062 1011520.000000 0 0 1
22.077924 31.313171 -30.736821 49.119259 0.956677 2.246901 0.009875 0.018132 -1198990.000000 0 0 1
21.673224 32.620471 -30.452941 49.610537 0.984361 2.231712 0.030630 0.008080 290664.000000 0 0 1
20.696824 33.259171 -31.274851 50.126313 1.014149 2.244546 0.040480 0.000443 -24618.900000 0 0 1
19.276124 32.693271 -31.117471 49.078671 1.038055 2.257553 0.058601 -0.004850 -1051410.000000 0 0 1
18.915824 31.380371 -31.506151 48.323634 1.028327 2.280992 0.098377 -0.024127 -42326.600000 0 0 1
19.133524 31.044371 -32.881981 49.102641 1.018457 2.304545 0.109093 -0.027964 -558600.000000 0 0 1
18.381024 31.812771 33.685615 49.846115 1.046870 0.828757 0.138804 -0.030621 -757764.000000 0 0 1
18.881124 33.126471 33.526315 50.772766 1.052750 0.849550 0.109772 -0.019502 -20020.600000 0 0 1
18.371724 -33.852156 32.383781 50.320950 -1.073571 0.871676 0.106010 -0.027883 680630.000000 0 0 1
16.855824 -33.475756 32.501992 49.609722 -1.104334 0.856410 0.129015 -0.031934 -506927.000000 0 0 1
15.996324 33.179071 32.218252 48.936172 1.121554 0.852141 0.136402 -0.036496 -448432.000000 0 0 1
14.663124 33.509471 32.544036 48.959229 1.158317 0.843681 0.107500 -0.035660 221488.000000 0 0 1
13.905124 -33.519056 31.364905 47.964955 -1.177561 0.858051 0.094584 -0.034524 -852380.000000 0 0 1
14.430724 -32.245556 31.036195 47.024112 -1.150002 0.849970 0.117244 -0.023984 -10454.000000 0 0 1
13.811224 -31.686756 29.947905 45.734861 -1.159757 0.856858 0.110135 -0.026899 -403219.000000 0 0 1
14.284424 -30.245356 29.712135 44.739662 -1.129566 0.844491 0.109333 -0.032218 -338142.000000 0 0 1
13.782924 -29.336556 30.637285 44.600962 -1.131582 0.813554 0.110128 -0.029825 31185.200000 0 0 1
14.235024 -28.017356 30.433715 43.747219 -1.100707 0.801441 0.130725 -0.042595 -461159.000000 0 0 1
13.549324 -26.940756 31.329365 43.484683 -1.104807 0.766318 0.121200 -0.042705 -201673.000000 0 0 1
12.195024 -26.644556 31.151685 42.767727 -1.141563 0.754824 0.088083 -0.043604 -345166.000000 0 0 1
11.754624 -25.973656 29.960425 41.357334 -1.145816 0.760592 0.083803 -0.044236 -341127.000000 0 0 1
12.053424 -24.444556 29.926625 40.477454 -1.112690 0.738706 0.079977 -0.037441 243882.000000 0 0 1
11.337524 -23.753756 30.976435 40.648738 -1.125478 0.704321 0.107163 -0.044119 497461.000000 0 0 1
12.217224 -22.858456 31.644975 40.904450 -1.079952 0.686244 0.106832 -0.042781 358893.000000 0 0 1
11.540024 -21.975456 32.751873 41.094745 -1.087246 0.648510 0.098463 -0.042006 -202109.000000 0 0 1
11.305424 -22.636756 -33.645371 42.098056 -1.107607 2.496783 0.091441 -0.040049 1106840.000000 0 0 1
12.526524 -22.972856 -32.944441 42.071393 -1.071588 2.470368 0.088124 -0.034341 1402390.000000 0 0 1
13.489824 -21.860656 -32.387631 41.337904 -1.017911 2.471051 0.076215 -0.031864 -22010.200000 0 0 1
14.122624 -21.116156 -33.352821 41.925544 -0.981314 2.490670 0.076882 -0.032152 -163673.000000 0 0 1
14.823024 -20.000956 -32.811141 41.186542 -0.933005 2.492524 0.058743 -0.028289 62234.900000 0 0 1
15.024224 -18.828856 33.788715 41.496150 -0.897315 0.619341 0.044533 -0.019366 -186230.000000 0 0 1
15.994724 -19.041156 32.762613 41.131322 -0.872132 0.649251 0.049643 -0.007564 774113.000000 0 0 1
15.674524 -18.067756 31.732034 39.737344 -0.856206 0.645923 0.047298 -0.006082 58549.400000 0 0 1
16.601624 -16.857456 31.778253 39.618747 -0.793044 0.639991 0.044912 -0.006067 -947081.000000 0 0 1
16.363324 -16.041256 32.912424 40.103715 -0.775460 0.608192 0.044749 -0.007205 291711.000000 0 0 1
17.143924 -14.874256 32.972114 40.028964 -0.714630 0.602879 0.050946 -0.013088 70349.000000 0 0 1
18.643924 -15.021556 33.348035 41.052826 -0.678212 0.622677 0.049915 -0.003830 45603.100000 0 0 1
19.387724 -15.537256 32.266015 40.723285 -0.675592 0.656188 0.061516 -0.009837 -1379820.000000 0 0 1
20.738024 -15.603856 32.505182 41.594865 -0.645053 0.673776 0.080723 -0.009088 -1220790.000000 0 0 1
21.373924 -16.272556 31.275425 41.228545 -0.650711 0.709655 0.104952 -0.015706 -539928.000000 0 0 1
21.787924 -15.422856 30.217145 40.319400 -0.615983 0.723574 0.080258 -0.008303 331119.000000 0 0 1
22.472124 -16.157356 29.231065 40.255580 -0.623361 0.758110 0.070864 -0.006457 -391926.000000 0 0 1
22.965224 -15.277256 28.139305 39.403256 -0.587010 0.775406 0.054046 -0.005102 -642798.000000 0 0 1
23.970724 -14.382556 28.476175 39.904212 -0.540423 0.776154 0.027859 -0.003191 -204482.000000 0 0 1
24.315924 -13.592556 27.332305 39.026615 -0.509725 0.794908 0.023873 -0.007864 35462.800000 0 0 1
24.894124 -12.222656 27.751075 39.233059 -0.456410 0.785070 0.032843 -0.008308 -251646.000000 0 0 1
23.983024 -11.296056 28.282595 38.764566 -0.440181 0.753061 0.049506 -0.019005 121291.000000 0 0 1
24.659624 -10.125656 28.778515 39.227910 -0.389625 0.747158 0.038785 -0.023523 424743.000000 0 0 1
23.777224 -8.826756 28.698285 38.299603 -0.355459 0.723776 0.062060 -0.022906 980725.000000 0 0 1
22.670424 -8.867256 29.604625 38.327669 -0.372843 0.688171 0.071133 -0.031533 -10993.900000 0 0 1
21.613324 -8.019756 29.279445 37.265778 -0.355309 0.666981 0.084871 -0.035419 -27973.700000 0 0 1
20.394724 -8.079056 30.209555 37.334075 -0.377170 0.628061 0.067917 -0.024193 -147152.000000 0 0 1
20.654024 -7.455156 31.443375 38.351714 -0.346400 0.609614 0.073229 -0.019024 208191.000000 0 0 1
21.123824 -8.391256 32.416217 39.590912 -0.378126 0.611515 0.073504 -0.017950 -290217.000000 0 0 1
21.111724 -7.835356 -33.815311 40.627244 -0.355380 2.554096 0.080869 -0.027066 29180.700000 0 0 1
19.847824 -7.670256 -33.201461 39.434832 -0.368774 2.571651 0.066322 -0.030481 29387.900000 0 0 1
20.002024 -7.044556 -31.983991 38.375545 -0.338626 2.556113 0.075805 -0.033036 -1019020.000000 0 0 1
18.736724 -6.868956 -31.197771 37.034421 -0.351389 2.572517 0.083190 -0.030543 -964561.000000 0 0 1
18.814624 -6.191056 -30.004911 35.952941 -0.317896 2.558131 0.077271 -0.031583 301824.000000 0 0 1
17.527224 -6.103356 -29.412341 34.778447 -0.335090 2.578683 0.088699 -0.028951 235201.000000 0 0 1
17.417624 -4.862456 -28.541401 33.787996 -0.272238 2.576838 0.082489 -0.030104 -271637.000000 0 0 1
18.153024 -4.938456 -27.321901 33.172382 -0.265618 2.538586 0.083672 -0.036392 -12282.500000 0 0 1
17.658124 -5.798456 -26.339571 32.236694 -0.317280 2.527103 0.096967 -0.041835 -131231.000000 0 0 1
16.231624 -5.572156 -25.775011 30.965557 -0.330685 2.554179 0.115748 -0.042071 211237.000000 0 0 1
16.123924 -4.440056 -24.985801 30.066348 -0.268711 2.551739 0.094535 -0.038107 -133076.000000 0 0 1
14.759924 -4.255956 -24.660001 29.053127 -0.280730 2.584489 0.110377 -0.038920 96599.300000 0 0 1
14.567624 -2.995856 -23.768701 28.038223 -0.202824 2.582478 0.125254 -0.038528 29761.200000 0 0 1
14.694724 -1.738156 -24.376601 28.516220 -0.117737 2.596025 0.099140 -0.046906 -72918.300000 0 0 1
14.383524 -0.681156 -23.522601 27.580111 -0.047321 2.592278 0.110652 -0.045131 -160093.000000 0 0 1
14.566224 0.672844 -24.216501 28.267765 0.046159 2.599600 0.102557 -0.048376 -231186.000000 0 0 1
13.713524 1.116844 -25.256761 28.761295 0.081262 2.642780 0.108201 -0.046260 224259.000000 0 0 1
14.104424 2.412844 -25.583711 29.313527 0.169430 2.631627 0.110462 -0.026882 325027.000000 0 0 1
13.134524 3.069844 -26.629591 29.850876 0.229602 2.672740 0.111761 -0.033976 360479.000000 0 0 1
11.939124 3.663844 -26.157561 28.985935 0.297754 2.696156 0.119914 -0.048745 166921.000000 0 0 1
11.173624 4.124844 -27.224081 29.715565 0.353640 2.729178 0.117482 -0.041051 165814.000000 0 0 1
9.899724 4.899844 -26.744951 28.936230 0.459597 2.749921 0.097963 -0.032514 365549.000000 0 0 1
10.195324 6.245844 -26.289811 28.880952 0.549646 2.714761 0.107565 -0.051013 737951.000000 0 0 1
8.988624 7.017844 -26.215001 28.587966 0.662891 2.731275 0.114865 -0.049636 634443.000000 0 0 1
8.777124 4.893771 -31.164801 32.744950 0.508629 2.829665 0.103563 -0.036794 34271.300000 0 0 1
8.864824 4.167471 -29.957881 31.518686 0.439454 2.825573 0.092519 -0.024580 273736.000000 0 0 1
8.130824 2.990271 -30.115211 31.336527 0.352417 2.861485 0.087247 -0.016926 -433802.000000 0 0 1
8.101624 2.145871 -28.819511 30.013418 0.258924 2.858588 0.092961 -0.016705 -263665.000000 0 0 1
9.377124 1.618471 -28.516881 30.062641 0.170914 2.819522 0.115260 -0.034767 422080.000000 0 0 1
9.274924 0.649471 -27.506791 29.035660 0.069910 2.815637 0.117810 -0.036345 531230.000000 0 0 1
10.707924 0.201171 -27.069741 29.111355 0.018785 2.764852 0.123609 -0.048510 300159.000000 0 0 1
11.312924 -0.638129 -27.986071 30.192874 -0.056347 2.756889 0.119507 -0.043579 679765.000000 0 0 1
12.507624 -1.236429 -27.428091 30.170674 -0.098534 2.711909 0.113082 -0.045953 729342.000000 0 0 1
12.698424 -2.650329 -27.903981 30.771844 -0.205759 2.706432 0.102073 -0.042454 78841.500000 0 0 1
11.848724 -3.591729 -27.272621 29.951438 -0.294328 2.715436 0.116621 -0.030488 207106.000000 0 0 1
12.367424 -4.863229 -27.514141 30.555394 -0.374656 2.691640 0.106533 -0.030413 7180.970000 0 0 1
11.592924 -5.876229 -26.634281 29.636310 -0.469137 2.687602 0.103858 -0.045686 170461.000000 0 0 1
11.882824 -5.711729 -25.246841 28.482070 -0.448065 2.660331 0.131518 -0.032958 22551.300000 0 0 1
11.421824 -6.780529 -24.484201 27.855156 -0.535735 2.644521 0.139610 -0.034089 -155037.000000 0 0 1
11.509324 -6.382829 -22.981301 26.482924 -0.506352 2.621510 0.158593 -0.036988 -643384.000000 0 0 1
12.761924 -6.168729 -22.433501 26.536426 -0.450255 2.578082 0.135129 -0.037065 -776310.000000 0 0 1
12.657124 -6.242129 -21.036701 25.331991 -0.458170 2.550694 0.171031 -0.046001 -61045.000000 0 0 1
14.041324 -6.139629 -20.367601 25.489076 -0.412204 2.496546 0.179357 -0.046672 69850.200000 0 0 1
14.497624 -4.792529 -20.394301 25.476989 -0.319265 2.498923 0.156555 -0.048097 469809.000000 0 0 1
15.706624 -4.781229 -19.604301 25.571211 -0.295496 2.444412 0.165279 -0.040318 711939.000000 0 0 1
16.283824 -3.349829 -19.488101 25.615823 -0.202885 2.435316 0.161106 -0.042026 -314505.000000 0 0 1
17.016824 -2.853029 -20.552101 26.834697 -0.166114 2.443202 0.139811 -0.040800 -96081.100000 0 0 1
17.533024 -1.566929 -20.264601 26.842434 -0.089133 2.426369 0.152706 -0.025482 -350045.000000 0 0 1
18.491624 -1.084729 -21.333501 28.253054 -0.058593 2.426582 0.098099 -0.033221 -124188.000000 0 0 1
19.669024 -1.875629 -21.349201 29.089120 -0.095072 2.394877 0.121784 -0.044981 -236530.000000 0 0 1
20.693024 -1.228429 -22.051101 30.264853 -0.059295 2.387078 0.121707 -0.037209 805475.000000 0 0 1
22.041724 -2.041429 -22.204401 31.353476 -0.092353 2.357736 0.080166 -0.037660 -26414.000000 0 0 1
22.773524 -2.192329 -20.997901 31.054010 -0.095971 2.313353 0.074789 -0.018606 574055.000000 0 0 1
24.114324 -2.642429 -21.152501 32.185577 -0.109144 2.287900 0.050254 -0.022025 518755.000000 0 0 1
25.157324 -1.817129 -21.886001 33.394460 -0.072105 2.285480 0.051878 -0.026042 -1404700.000000 0 0 1
24.904824 -1.821029 -23.278201 34.138557 -0.072990 2.321118 0.059745 -0.033555 -31901.000000 0 0 1
25.718124 -0.932529 -24.036501 35.214271 -0.036244 2.322081 0.066366 -0.027139 329933.000000 0 0 1
27.065024 -1.537429 -24.522301 36.554377 -0.056744 2.306143 0.085988 -0.032793 -535941.000000 0 0 1
28.006824 -1.881029 -23.515601 36.618356 -0.067063 2.268136 0.086435 -0.023083 1176490.000000 0 0 1
29.241224 -2.484129 -23.989001 37.903724 -0.084749 2.256080 0.086070 -0.017186 1252390.000000 0 0 1
30.167124 -1.696229 -24.945001 39.181445 -0.056169 2.260947 0.091799 -0.025232 -1086870.000000 0 0 1
29.700324 -1.501929 -26.274961 39.682977 -0.050526 2.294443 0.097840 -0.031950 147259.000000 0 0 1
30.267524 -0.349429 -26.884181 40.484618 -0.011544 2.297031 0.095761 -0.039194 -733297.000000 0 0 1
29.645324 -0.110829 -28.277141 40.968942 -0.003738 2.332574 0.091856 -0.046233 -84058.500000 0 0 1
28.285724 0.243471 -28.297331 40.011004 0.008607 2.356381 0.092323 -0.037912 -111358.000000 0 0 1
27.971124 1.510771 -27.703651 39.397443 0.053959 2.350662 0.084468 -0.032881 -2179070.000000 0 0 1
26.538224 1.888271 -27.842371 38.510265 0.071033 2.378911 0.081871 -0.032014 -995114.000000 0 0 1
25.667324 1.243971 -26.898521 37.200664 0.048427 2.379026 0.084941 -0.027350 90848.800000 0 0 1
24.323124 1.551471 -27.135301 36.473908 0.063700 2.409781 0.075626 -0.027033 -370175.000000 0 0 1
23.352424 1.262171 -25.983681 34.958268 0.053996 2.408752 0.076556 -0.026077 -162133.000000 0 0 1
23.549924 2.139771 -24.906601 34.344087 0.090612 2.382133 0.085050 -0.024629 325976.000000 0 0 1
22.750924 1.749871 -23.815001 32.982130 0.076763 2.377568 0.079827 -0.018272 -240152.000000 0 0 1
22.882524 2.674471 -22.572301 32.253240 0.116350 2.345978 0.084095 -0.024986 -469885.000000 0 0 1
22.423824 3.993971 -22.725501 32.174961 0.176264 2.355068 0.112261 -0.028052 317071.000000 0 0 1
22.473424 4.661071 -21.458601 31.420566 0.204504 2.322587 0.106359 -0.023831 -73181.600000 0 0 1
21.860424 6.108271 -21.493401 31.259485 0.272472 2.328947 0.117495 -0.024086 -149180.000000 0 0 1
22.620324 7.090071 -22.173901 32.459668 0.303739 2.322825 0.114285 -0.017804 101425.000000 0 0 1
22.386424 8.365671 -21.600901 32.213900 0.357625 2.305741 0.120653 -0.008877 -240617.000000 0 0 1
22.793024 8.570671 -20.123601 31.590152 0.359666 2.261424 0.121001 -0.027623 -30975.300000 0 0 1
24.190024 8.382871 -19.878001 32.412416 0.333591 2.231007 0.115961 -0.028301 835806.000000 0 0 1
24.469724 8.181071 -18.519001 31.759262 0.322651 2.193342 0.122228 -0.044761 -240266.000000 0 0 1
24.347624 9.463171 -17.620201 31.509203 0.370700 2.164227 0.120120 -0.046588 429423.000000 0 0 1
23.011924 9.939371 -17.352901 30.487095 0.407720 2.176315 0.103411 -0.042871 695755.000000 0 0 1
22.925824 11.250571 -16.808701 30.572883 0.456211 2.152911 0.069897 -0.031851 1082320.000000 0 0 1
21.426624 11.722971 -16.491401 29.470232 0.500631 2.164694 0.062777 -0.028158 1539740.000000 0 0 1
20.476724 11.665271 -17.506901 29.357561 0.517830 2.209722 0.076454 -0.036869 -90660.900000 0 0 1
19.943124 10.408271 -17.743501 28.651215 0.481012 2.238638 0.085043 -0.036866 -509487.000000 0 0 1
18.991924 10.276671 -18.985001 28.752972 0.495990 2.291987 0.086152 -0.008082 436520.000000 0 0 1
19.639124 10.533671 -20.241601 30.106076 0.492312 2.308165 0.103493 -0.012858 591221.000000 0 0 1
18.683424 10.453271 -21.280401 30.186035 0.510103 2.353184 0.097959 -0.012743 374278.000000 0 0 1
19.371024 10.632271 -22.697801 31.677625 0.501979 2.369604 0.124370 -0.015140 203424.000000 0 0 1
19.889724 11.914671 -22.936101 32.613268 0.539711 2.350790 0.124532 -0.019762 119515.000000 0 0 1
20.398224 12.022471 -24.242501 33.886962 0.532580 2.367983 0.147906 -0.014667 -18950.500000 0 0 1
20.913124 13.437571 -24.505701 34.906396 0.571115 2.349055 0.184935 -0.020386 -190689.000000 0 0 1
21.568724 13.680571 -25.712891 36.242526 0.565243 2.359539 0.199171 -0.027609 -26727.400000 0 0 1
21.704024 15.062671 -25.956551 37.036351 0.606690 2.347371 0.193888 -0.019799 620128.000000 0 0 1
20.442024 15.695071 -26.672341 37.089424 0.654786 2.373354 0.156316 -0.027062 894555.000000 0 0 1
19.227824 15.468471 -25.993881 35.842219 0.677469 2.382166 0.107611 -0.022085 -974583.000000 0 0 1
18.132424 15.666771 -26.819161 35.965260 0.712577 2.412376 0.116399 -0.028945 9314.320000 0 0 1
16.833124 15.063371 -26.200931 34.594046 0.729971 2.430092 0.090971 -0.027169 109153.000000 0 0 1
16.700024 13.655571 -26.305661 34.019895 0.685439 2.454737 0.121926 -0.016791 -721029.000000 0 0 1
15.460824 13.282071 -25.822251 32.897403 0.709741 2.473384 0.074295 -0.021198 -725202.000000 0 0 1
15.213724 11.790071 -25.919251 32.284218 0.659287 2.502850 0.056787 -0.018921 633685.000000 0 0 1
13.830424 11.443571 -25.790031 31.422311 0.691238 2.533528 0.069361 -0.032866 669372.000000 0 0 1
13.680324 10.038771 -25.861761 30.931519 0.633059 2.560926 0.090622 -0.040892 687268.000000 0 0 1
12.178524 9.672371 -25.580441 29.937104 0.671204 2.595331 0.103050 -0.049499 637221.000000 0 0 1
11.749724 10.128671 -24.300001 28.829430 0.711440 2.573426 0.116328 -0.054635 120747.000000 0 0 1
10.532224 9.485371 -23.941401 27.822485 0.733149 2.607057 0.121305 -0.057074 319775.000000 0 0 1
9.773524 10.262071 -22.804901 26.849495 0.809777 2.585569 0.118103 -0.056915 3450.500000 0 0 1
9.257024 11.488271 -23.218201 27.509230 0.892541 2.575522 0.116194 -0.052904 -78625.700000 0 0 1
8.589324 12.294371 -22.234401 26.819706 0.960985 2.548171 0.106565 -0.051810 538618.000000 0 0 1
9.501724 12.900171 -21.115501 26.505878 0.935954 2.492503 0.110935 -0.051618 210454.000000 0 0 1
10.114424 11.899271 -20.267801 25.586676 0.866300 2.485076 0.138129 -0.058321 371668.000000 0 0 1
11.009724 12.645171 -19.425501 25.660563 0.854426 2.429533 0.163118 -0.054223 -199820.000000 0 0 1
12.010824 11.765671 -18.633601 25.097849 0.775088 2.407499 0.161177 -0.056617 53669.700000 0 0 1
13.089324 11.230071 -19.386401 25.947590 0.709095 2.414540 0.131665 -0.049010 214227.000000 0 0 1
12.749124 10.235171 -20.301401 26.066181 0.676454 2.463612 0.128850 -0.049649 -421449.000000 0 0 1
13.966024 9.667471 -21.099401 27.086797 0.605481 2.463794 0.130003 -0.050764 600547.000000 0 0 1
14.732424 8.636171 -20.466101 26.655001 0.530212 2.446219 0.141319 -0.050347 488552.000000 0 0 1
15.454724 7.822671 -21.362201 27.502478 0.468569 2.460265 0.122695 -0.043808 -214871.000000 0 0 1
16.091924 6.674571 -20.586101 26.968268 0.393180 2.439272 0.164091 -0.045265 -365872.000000 0 0 1
17.142124 7.006971 -19.734401 27.062828 0.388033 2.387959 0.132741 -0.030065 -132024.000000 0 0 1
17.459524 5.951971 -18.829301 26.359126 0.328546 2.366473 0.135452 -0.039080 15855.600000 0 0 1
18.630524 6.222271 -17.832601 26.529507 0.322335 2.307945 0.172681 -0.029188 -232727.000000 0 0 1
19.855024 6.358971 -18.536701 27.897451 0.309948 2.297565 0.137073 -0.042129 369758.000000 0 0 1
20.972424 6.565871 -17.689901 28.211449 0.303406 2.248553 0.126021 -0.050655 -136977.000000 0 0 1
21.616724 5.319471 -17.118601 28.082486 0.241287 2.226331 0.126393 -0.058052 -1127650.000000 0 0 1
22.569324 5.588871 -16.107601 28.285415 0.242748 2.176653 0.114286 -0.063740 699246.000000 0 0 1
23.322524 4.505571 -15.587001 28.411176 0.190835 2.151512 0.158345 -0.071075 689697.000000 0 0 1
24.580824 4.007971 -16.387901 29.813488 0.161630 2.152778 0.080233 -0.016636 693438.000000 0 0 1
25.454724 3.158171 -15.606301 30.024551 0.123439 2.117395 0.082345 -0.019184 928118.000000 0 0 1
26.653324 2.871071 -16.339201 31.394462 0.107305 2.118172 0.074159 -0.025415 329423.000000 0 0 1
27.358024 1.689671 -15.665301 31.570843 0.061683 2.090007 0.098901 -0.039861 -322734.000000 0 0 1
26.774924 0.388771 -15.888401 31.136618 0.014519 2.106307 0.101161 -0.033027 66111.700000 0 0 1
27.796824 -0.578829 -15.893201 32.024870 -0.020821 2.090101 0.098749 -0.022795 -119553.000000 0 0 1
27.310724 -2.021029 -16.092201 31.763488 -0.073867 2.102063 0.076207 -0.023906 121112.000000 0 0 1
26.552824 -2.607629 -15.022801 30.619222 -0.097891 2.083612 0.081032 -0.024812 447540.000000 0 0 1
26.211924 -3.931929 -15.318101 30.613220 -0.148895 2.094829 0.073536 -0.023273 -713884.000000 0 0 1
25.776124 -4.792829 -14.097501 29.767757 -0.183841 2.064151 0.100368 -0.026008 1341750.000000 0 0 1
24.434724 -4.600529 -13.572201 28.327112 -0.186100 2.070453 0.142398 -0.019079 1708700.000000 0 0 1
23.405624 -5.137229 -14.413601 27.963660 -0.216061 2.112318 0.145209 -0.024932 82228.000000 0 0 1
21.948124 -4.950929 -13.936701 26.466271 -0.221861 2.125373 0.162619 -0.026357 201446.000000 0 0 1
21.298324 -6.050929 -13.323501 25.840821 -0.276810 2.112503 0.180739 -0.026551 525712.000000 0 0 1
21.299724 -5.883729 -11.916401 25.105719 -0.269514 2.065361 0.199414 -0.028527 -391592.000000 0 0 1
20.854524 -7.082329 -11.052101 24.641824 -0.327386 2.035894 0.183974 -0.022783 -418600.000000 0 1 0
19.511324 -7.464229 -11.071401 23.642809 -0.365381 2.058137 0.176023 -0.017148 -38918.700000 0 1 0
19.191024 -8.381229 -12.047001 24.159277 -0.411761 2.092836 0.163117 -0.021357 -1001100.000000 0 1 0
17.805824 -8.992529 -11.914301 23.234963 -0.467666 2.109210 0.166433 -0.022411 -1062410.000000 0 1 0
16.805424 -8.063229 -12.041901 22.191109 -0.447357 2.144380 0.151270 -0.018284 87495.300000 0 1 0
15.502124 -8.674129 -12.177101 21.536902 -0.510142 2.171722 0.141729 -0.017801 1641800.000000 0 1 0
14.349724 -7.669929 -12.600201 20.579297 -0.490865 2.229732 0.113659 -0.013573 449058.000000 0 1 0
14.473524 -6.923129 -13.773901 21.145519 -0.446162 2.280206 0.121043 -0.014594 78268.500000 0 1 0
15.529924 -5.998229 -13.687201 21.552187 -0.368586 2.258899 0.124953 -0.011085 -221945.000000 0 1 0
15.585324 -4.977429 -14.807701 22.066834 -0.309128 2.306405 0.133466 -0.009263 531402.000000 0 1 0
14.417024 -4.158929 -14.609701 20.942556 -0.280849 2.342850 0.125915 -0.011396 935288.000000 0 1 0
14.203124 -3.045929 -15.492401 21.237253 -0.211255 2.388375 0.124647 -0.013765 206647.000000 0 1 0
15.382324 -2.049729 -15.628201 22.024031 -0.132472 2.359723 0.145930 -0.023358 282018.000000 0 1 0
16.493024 -2.417829 -16.484401 23.443575 -0.145560 2.350617 0.154930 -0.023600 924895.000000 0 1 0
17.676624 -1.681629 -16.295301 24.100368 -0.094847 2.313312 0.165650 -0.033914 318764.000000 0 1 0
18.531224 -2.159929 -15.064101 23.979131 -0.116033 2.250056 0.166001 -0.040543 -565741.000000 0 1 0
17.928924 -1.936729 -13.810701 22.714152 -0.107605 2.224363 0.153481 -0.025235 454423.000000 0 1 0
18.761424 -2.571329 -12.836501 22.877468 -0.136205 2.166508 0.149955 -0.027234 26143.500000 0 1 0
18.085124 -2.702429 -11.479301 21.590489 -0.148331 2.131383 0.141538 -0.024956 -281349.000000 0 1 0
18.055124 -1.498729 -10.763901 21.073568 -0.082819 2.106885 0.138698 -0.022374 528763.000000 0 1 0
17.580924 -1.714729 -9.467701 20.041621 -0.097226 2.062810 0.122431 -0.021765 -970519.000000 0 1 0
17.706424 -0.465129 -8.614701 19.696367 -0.026263 2.023474 0.118127 -0.017393 95331.300000 0 1 0
19.007324 -0.081729 -8.177001 20.691747 -0.004300 1.977062 0.135439 -0.016651 1042900.000000 0 1 0
19.913124 0.416671 -9.162401 21.923862 0.020921 2.001950 0.150914 -0.017099 -342754.000000 0 1 0
19.618224 1.856171 -9.868401 22.038726 0.094334 2.035072 0.142089 -0.024799 -574816.000000 0 1 0
19.569424 2.935971 -8.947201 21.717152 0.148918 1.995431 0.126128 -0.015589 630001.000000 0 1 0
18.981924 4.009071 -9.645701 21.666233 0.208146 2.032188 0.111912 -0.027450 -244756.000000 0 1 0
18.660624 5.316371 -8.937601 21.362664 0.277545 2.002452 0.080183 -0.013435 -437241.000000 0 1 0
18.113224 6.274171 -9.777501 21.518681 0.333452 2.042464 0.072349 -0.011663 487294.000000 0 1 0
18.676724 7.535571 -9.503801 22.269421 0.383498 2.011709 0.098505 0.000468 -19858.000000 0 1 0
-26.574676 -29.033009 5.497299 39.741028 0.829578 1.432023 0.090337 -0.025305 222659.000000 0 0 1
-27.138446 -28.126599 6.483199 39.618590 0.803277 1.406417 0.123687 -0.028997 714128.000000 0 0 1
-26.126776 -27.129329 6.772199 38.268415 0.804221 1.392894 0.110540 -0.030988 252916.000000 0 0 1
-26.486776 -26.116709 7.860299 38.018628 0.778363 1.362546 0.116832 -0.031811 -431306.000000 0 0 1
-27.491206 -25.137189 7.479599 37.994592 0.740699 1.372643 0.122169 -0.035103 -149042.000000 0 0 1
-28.819366 -25.520749 7.546799 39.227779 0.724769 1.377205 0.111213 -0.032581 -489455.000000 0 0 1
-29.338506 -25.866909 9.053299 40.147318 0.722596 1.343338 0.113463 -0.027722 -515095.000000 0 0 1
-28.786026 -27.123899 9.434199 40.661349 0.755678 1.336644 0.105088 -0.027478 -263175.000000 0 0 1
-28.809136 -27.326039 10.880499 41.171154 0.758984 1.303344 0.089915 -0.023394 -1223880.000000 0 0 1
-27.498656 -27.812209 11.414199 40.742839 0.791067 1.286844 0.064131 -0.020345 -759040.000000 0 0 1
-26.464766 -26.860599 11.542899 39.434935 0.792821 1.273739 0.079423 -0.012296 -178827.000000 0 0 1
-26.527656 -26.030849 12.718299 39.282015 0.775946 1.241086 0.090151 -0.014081 389863.000000 0 0 1
-25.105206 -25.595009 13.241199 38.219173 0.795059 1.217008 0.101974 -0.018619 685531.000000 0 0 1
-24.434976 -26.580469 13.940499 38.703060 0.827429 1.202324 0.090697 -0.027395 -899526.000000 0 0 1
-23.420076 -26.064139 14.730999 38.011072 0.838780 1.172829 0.104291 -0.028125 -193342.000000 0 0 1
-22.689376 -27.183389 15.532199 38.665147 0.875265 1.157412 0.095251 -0.025173 -657263.000000 0 0 1
-23.495576 -27.698989 16.519999 39.902211 0.867321 1.143939 0.083640 -0.015913 7341.520000 0 0 1
-22.843576 -28.803339 17.187099 40.581494 0.900284 1.133468 0.076353 -0.009739 -194131.000000 0 0 1
-23.768876 -29.702949 17.982999 42.078651 0.895922 1.129219 0.094997 -0.020694 -656088.000000 0 0 1
-24.713476 -30.372979 17.209499 42.771960 0.887778 1.156709 0.064726 -0.018575 1946.060000 0 0 1
-25.196606 -31.549219 17.825599 44.135860 0.896883 1.155042 0.070919 -0.018482 -967944.000000 0 0 1
-26.245116 -32.311189 17.049099 44.983228 0.888624 1.182070 0.058647 -0.022049 -631870.000000 0 0 1
-25.792946 -32.856469 15.845599 44.675571 0.905257 1.208223 0.070733 -0.022525 248679.000000 0 0 1
-26.612866 33.756578 15.547899 45.710922 -0.903184 1.223736 0.070080 -0.027151 -541132.000000 0 0 1
-26.027436 32.877774 14.427399 44.345522 -0.901172 1.239424 0.078861 -0.033521 535881.000000 0 0 1
-24.818876 32.212431 14.797299 43.273287 -0.914319 1.221805 0.065734 -0.032348 971585.000000 0 0 1
-23.639176 32.954316 14.505999 43.072283 -0.948533 1.227298 0.063068 -0.029867 -253443.000000 0 0 1
-22.270176 32.295725 14.664499 41.881047 -0.967104 1.213069 0.072946 -0.039228 33314.200000 0 0 1
-22.145476 31.230888 13.724899 40.671407 -0.953996 1.226581 0.058213 -0.029972 -710478.000000 0 0 1
-20.839976 30.754078 13.617599 39.567119 -0.975240 1.219448 0.060001 -0.032744 -615766.000000 0 0 1
-20.676176 29.942628 12.331999 38.420612 -0.966457 1.244039 0.056765 -0.034772 -185036.000000 0 0 1
-20.494176 30.630418 11.121699 38.495791 -0.981125 1.277711 0.038084 -0.025851 -11296.400000 0 0 1
-20.651076 29.684308 10.132899 37.553971 -0.962969 1.297588 0.053329 -0.025392 48319.200000 0 0 1
-20.293976 30.237708 8.723699 37.446861 -0.979698 1.335674 0.050003 -0.021005 227824.000000 0 0 1
-18.902276 30.511348 8.626199 36.914085 -1.016150 1.334932 0.050496 -0.028742 95504.800000 0 0 1
-18.498476 30.927118 7.319299 36.772984 -1.031752 1.370418 0.070584 -0.032820 24424.200000 0 0 1
-17.929176 29.878218 6.343799 35.417609 -1.030322 1.390710 0.079018 -0.034002 -138764.000000 0 0 1
-18.844476 28.874078 5.922799 34.984371 -0.992565 1.400679 0.062450 -0.025952 96947.200000 0 0 1
-18.957076 27.732278 6.773999 34.268601 -0.971180 1.371812 0.045070 -0.020024 -136220.000000 0 0 1
-19.982276 26.732618 6.194699 33.945523 -0.928906 1.387279 0.045827 -0.016096 -53173.100000 0 0 1
-19.622676 26.226218 4.952099 33.126835 -0.928443 1.420745 0.056504 -0.022675 400757.000000 0 0 1
-20.712576 25.567308 4.313899 33.185957 -0.889915 1.440436 0.070286 -0.025976 -188249.000000 0 0 1
-20.292876 24.750198 3.026599 32.148615 -0.884034 1.476513 0.080007 -0.029745 -639891.000000 0 0 1
-19.787576 25.461378 1.882299 32.301285 -0.910138 1.512490 0.084768 -0.034574 884169.000000 0 0 1
-18.557576 26.202488 1.904799 32.164923 -0.954563 1.511542 0.089404 -0.030162 519580.000000 0 0 1
-17.272876 25.346778 2.203899 30.751725 -0.972620 1.499067 0.087388 -0.030638 -313821.000000 0 0 1
-17.072776 24.324548 1.270499 29.745209 -0.958814 1.528071 0.121188 -0.038679 115148.000000 0 0 1
-16.768776 24.693928 -0.063501 29.849388 -0.974259 1.572924 0.115957 -0.042624 -510411.000000 0 0 1
-16.444876 23.406028 -0.869401 28.618734 -0.958333 1.601180 0.120927 -0.039270 -122241.000000 0 0 1
-17.491276 22.469398 -0.962401 28.491135 -0.909335 1.604582 0.122109 -0.049086 99530.500000 0 0 1
-17.187076 21.444898 -1.914201 27.548927 -0.895170 1.640336 0.122678 -0.040721 -212911.000000 0 0 1
-16.142076 20.361298 -1.640701 26.035379 -0.900472 1.633856 0.129804 -0.042354 -229375.000000 0 0 1
-16.593376 19.362898 -0.719101 25.510371 -0.862271 1.598989 0.141633 -0.047338 407766.000000 0 0 1
-15.558976 18.506398 -0.235801 24.179001 -0.871706 1.580549 0.150541 -0.043842 537264.000000 0 1 0
-16.163176 17.403998 0.735399 23.763169 -0.822347 1.539844 0.145099 -0.039748 414367.000000 0 1 0
-16.898976 16.392598 0.048299 23.543470 -0.770189 1.568745 0.136471 -0.038756 430477.000000 0 1 0
-17.393776 15.497898 1.054299 23.320374 -0.727822 1.525572 0.154982 -0.055977 -159751.000000 0 1 0
-17.951076 14.161698 0.501199 22.870199 -0.667939 1.548880 0.142307 -0.055801 -285416.000000 0 1 0
-19.209376 14.449098 -0.068201 24.037080 -0.644901 1.573634 0.193972 -0.065882 436507.000000 0 1 0
-20.000776 13.286698 -0.402801 24.015196 -0.586369 1.587570 0.198083 -0.060986 271870.000000 0 1 0
-21.242776 13.584498 -1.282301 25.247543 -0.568950 1.621607 0.201414 -0.054334 -166936.000000 0 0 1
-22.089976 12.452498 -1.587701 25.407726 -0.513314 1.633326 0.182839 -0.060001 828872.000000 0 0 1
-23.042676 12.104498 -0.608401 26.035628 -0.483688 1.594166 0.190078 -0.055201 -917097.000000 0 0 1
-24.330276 12.910298 -0.718701 27.552761 -0.487848 1.596884 0.186064 -0.054999 -1190210.000000 0 0 1
-24.182976 14.217898 -0.246301 28.053977 -0.531497 1.579576 0.197390 -0.062044 190221.000000 0 0 1
-25.407116 14.891398 -0.433401 29.452727 -0.530145 1.585512 0.184750 -0.048056 -23958.200000 0 0 1
-25.476726 16.206898 0.390299 30.197341 -0.566574 1.557871 0.182607 -0.049192 -95812.400000 0 0 1
-25.548446 16.014498 1.829099 30.208158 -0.559913 1.510209 0.178051 -0.043606 -21716.900000 0 0 1
-25.410546 17.218698 2.582399 30.803379 -0.595548 1.486863 0.146054 -0.032741 680517.000000 0 0 1
-26.740796 18.033098 2.840299 32.377926 -0.593314 1.482960 0.153539 -0.033691 -552463.000000 0 0 1
-27.658886 17.366098 3.635299 32.860474 -0.560658 1.459941 0.157297 -0.035319 -233750.000000 0 0 1
-28.856526 18.054498 3.932499 34.265559 -0.559077 1.455778 0.147849 -0.040768 124902.000000 0 0 1
-29.838966 18.121298 2.730999 35.017191 -0.545772 1.492727 0.118190 -0.039723 -847739.000000 0 0 1
-31.002976 18.913798 2.983699 36.439247 -0.547787 1.488823 0.104774 -0.032755 850046.000000 0 0 1
-31.832006 18.951598 1.822099 37.091235 -0.537003 1.521652 0.078368 -0.036986 -1233770.000000 0 0 1
-33.109326 19.698498 1.904399 38.573113 -0.536700 1.521405 0.092711 -0.042566 -1905520.000000 0 0 1
-34.066985 18.946998 2.575999 39.066404 -0.507567 1.504809 0.104431 -0.034485 -505274.000000 0 0 1
-35.238395 19.705098 2.792299 40.470141 -0.509875 1.501745 0.118597 -0.040229 -165031.000000 0 0 1
-35.326786 20.445598 4.154299 41.027582 -0.524653 1.469366 0.100958 -0.046938 -695136.000000 0 0 1
-34.640057 21.698898 4.228499 41.093259 -0.559613 1.467714 0.101503 -0.045911 343764.000000 0 0 1
-34.347879 21.917098 5.571399 41.123916 -0.567958 1.434900 0.111414 -0.041009 -487346.000000 0 0 1
-33.276516 22.988768 5.803999 40.859471 -0.604552 1.428266 0.126549 -0.043571 -442108.000000 0 0 1
-33.646476 24.208078 5.319599 41.790125 -0.623683 1.443157 0.101757 -0.037923 322024.000000 0 0 1
-32.523956 25.063788 5.421799 41.417352 -0.656571 1.439513 0.107747 -0.045528 -6030.380000 0 0 1
-32.829396 26.566958 5.345199 42.569280 -0.680352 1.444899 0.108497 -0.039483 -541767.000000 0 0 1
-33.664116 26.888588 6.420799 43.560252 -0.673967 1.422857 0.117655 -0.032654 -255177.000000 0 0 1
-34.176954 28.145778 6.224399 44.710090 -0.688925 1.431126 0.112537 -0.025960 -146920.000000 0 0 1
-35.365863 28.515218 7.155599 45.989830 -0.678566 1.414571 0.098030 -0.020930 -165934.000000 0 0 1
-34.962969 28.738198 8.520199 46.053089 -0.687989 1.384716 0.117205 -0.029352 568843.000000 0 0 1
-36.074726 29.120658 9.318599 47.288845 -0.679135 1.372441 0.110325 -0.020567 306326.000000 0 0 1
-37.069726 27.962168 9.686599 47.432875 -0.646256 1.365133 0.084955 -0.011406 -601778.000000 0 0 1
-36.665846 26.895568 10.488999 46.666636 -0.632878 1.344095 0.109893 -0.022382 -264428.000000 0 0 1
-37.628966 26.247958 11.294499 47.248916 -0.609078 1.329417 0.089257 -0.015152 -472211.000000 0 0 1
-36.996436 25.045468 12.050599 46.273412 -0.595102 1.307337 0.132038 -0.020336 204413.000000 0 0 1
-35.870121 25.407138 12.828799 45.790461 -0.616281 1.286832 0.163832 -0.033201 356844.000000 0 0 1
-35.348238 24.401248 13.673499 45.076417 -0.604193 1.262600 0.177056 -0.030081 294991.000000 0 0 1
-34.126278 24.761238 14.560899 44.606519 -0.627686 1.238272 0.199872 -0.033251 310710.000000 0 0 1
-34.472101 25.790478 15.482499 45.751309 -0.642319 1.225574 0.188595 -0.040424 608617.000000 0 0 1
-33.306786 26.157498 16.223499 45.351501 -0.665744 1.204963 0.209549 -0.037380 437047.000000 0 0 1
-33.510936 27.360638 17.152099 46.537961 -0.684703 1.193335 0.204266 -0.039404 14128.300000 0 0 1
-33.454256 28.597208 16.481799 46.996141 -0.707283 1.212472 0.208736 -0.032189 92661.500000 0 0 1
-33.530976 29.694478 17.355299 48.034308 -0.724793 1.201123 0.170527 -0.025959 -10108.100000 0 0 1
-33.360706 30.980218 16.610399 48.462521 -0.748417 1.220957 0.148740 -0.032310 599945.000000 0 0 1
-32.016176 31.227508 16.190799 47.564007 -0.772929 1.223454 0.144900 -0.028333 409059.000000 0 0 1
-31.977306 32.438126 15.426799 48.091228 -0.792552 1.244241 0.119994 -0.022654 608195.000000 0 0 1
-30.479726 32.644827 14.970899 47.104418 -0.819684 1.247363 0.133908 -0.030814 1013510.000000 0 0 1
-30.066346 31.788595 13.843599 45.892757 -0.813234 1.264372 0.130991 -0.031726 209742.000000 0 0 1
-29.844686 30.394698 14.167899 44.891784 -0.794528 1.249706 0.148766 -0.031367 -80482.600000 0 0 1
-30.844176 29.265748 13.682199 44.665980 -0.759145 1.259469 0.186203 -0.032502 355678.000000 0 0 1
-30.942726 29.195698 12.277699 44.278471 -0.756356 1.289831 0.193321 -0.039556 -104415.000000 0 0 1
-31.774096 28.127988 11.930299 44.080709 -0.724605 1.296732 0.193780 -0.038172 -209178.000000 0 0 1
-31.909886 27.972808 10.423699 43.696365 -0.719746 1.329925 0.171753 -0.027264 818797.000000 0 0 1
-30.670696 27.662828 9.761999 42.440785 -0.733881 1.338704 0.149233 -0.019729 699863.000000 0 0 1
-30.927896 27.396048 8.404599 42.162963 -0.724916 1.370116 0.140145 -0.027326 567948.000000 0 0 1
-29.674486 26.688078 7.798599 40.665056 -0.732462 1.377824 0.150417 -0.036322 556897.000000 0 0 1
-29.535446 26.992608 6.413499 40.522542 -0.740445 1.411858 0.141118 -0.046402 126958.000000 0 0 1
-28.520466 26.174288 5.823199 39.146136 -0.742529 1.421487 0.123703 -0.039505 324761.000000 0 0 1
-28.035606 26.639068 4.408799 38.923934 -0.759861 1.457286 0.116361 -0.034164 -458617.000000 0 0 1
-27.139556 27.685128 4.342099 39.011224 -0.795349 1.459261 0.089608 -0.028641 -148445.000000 0 0 1
-26.852206 28.090468 3.021999 38.977530 -0.807932 1.493187 0.082076 -0.029747 -314347.000000 0 0 1
-25.764446 29.147358 2.881399 39.008686 -0.846927 1.496863 0.072192 -0.027060 130545.000000 0 0 1
-24.452276 28.756738 3.255099 37.887458 -0.866120 1.484775 0.068004 -0.024458 63841.000000 0 0 1
-23.495776 29.692148 2.823699 37.969046 -0.901375 1.496359 0.068972 -0.025968 -609186.000000 0 0 1
-22.080876 29.182208 3.078399 36.723874 -0.923049 1.486872 0.058654 -0.030695 -745833.000000 0 0 1
-21.167576 30.114308 2.568099 36.898956 -0.958122 1.501142 0.062606 -0.028116 -206666.000000 0 0 1
-19.847876 29.626038 2.828199 35.772042 -0.980526 1.491652 0.086294 -0.034886 715633.000000 0 0 1
-18.725676 30.508908 2.214499 35.865700 -1.020308 1.509013 0.091846 -0.038708 96082.200000 0 0 1
-18.624776 31.725148 2.963999 36.907351 -1.039941 1.490401 0.099216 -0.037355 -340031.000000 0 0 1
-17.497676 32.505154 2.710499 37.014869 -1.076977 1.497503 0.116308 -0.037064 -379505.000000 0 0 1
-17.268076 33.637698 3.703599 37.992076 -1.096522 1.473158 0.112494 -0.043021 365791.000000 0 0 1
-18.226276 -33.022879 3.561899 37.886604 1.066474 1.476643 0.116564 -0.047828 696443.000000 0 0 1
-17.954076 -32.042729 4.567799 37.012837 1.060067 1.447070 0.091598 -0.050090 -53897.500000 0 0 1
-19.124376 -31.068299 4.765399 36.792526 1.019015 1.440911 0.093941 -0.039865 -137258.000000 0 0 1
-19.290476 -30.059089 3.778399 35.915840 1.000241 1.465400 0.109043 -0.037487 80400.700000 0 0 1
-20.397376 -29.243819 4.085399 35.887942 0.961755 1.456711 0.103205 -0.038048 -642509.000000 0 0 1
-20.816376 -28.316499 2.924699 35.266124 0.936879 1.487769 0.098685 -0.049354 -140645.000000 0 0 1
-19.897976 -27.272159 2.627899 33.861570 0.940475 1.493111 0.107190 -0.041244 16367.200000 0 0 1
-20.204576 -26.559899 1.468099 33.403719 0.920471 1.526832 0.103077 -0.042485 72162.600000 0 0 1
-19.317676 -25.292509 1.265099 31.850967 0.918540 1.531067 0.104314 -0.042518 385236.000000 0 0 1
-17.974776 -25.575479 0.929499 31.273977 0.958185 1.541071 0.118661 -0.041274 -406019.000000 0 0 1
-17.131576 -24.457329 1.028799 29.878257 0.959756 1.536356 0.114276 -0.035383 -118246.000000 0 0 1
-15.704776 -24.770729 0.555599 29.334922 1.005747 1.551855 0.108775 -0.041940 -331803.000000 0 0 1
-15.551476 -24.835529 -0.833301 29.314609 1.011350 1.599226 0.097501 -0.035720 99308.100000 0 0 1
-15.599976 -23.603629 -1.566401 28.336269 0.986787 1.626104 0.101653 -0.032787 -423957.000000 0 0 1
-15.688376 -23.811429 -3.108601 28.684014 0.988218 1.679384 0.054419 -0.020439 934358.000000 0 0 1
-14.464476 -24.340129 -3.696901 28.553984 1.034605 1.700631 0.095535 -0.021346 989581.000000 0 0 1
-14.349876 -23.965029 -5.049501 28.385542 1.031271 1.749638 0.075674 -0.015701 -183998.000000 0 0 1
-13.140376 -24.491429 -5.808001 28.394232 1.078354 1.776799 0.096264 -0.018901 -63092.600000 0 0 1
-13.249976 -25.836489 -6.199201 29.690337 1.096930 1.781139 0.056176 -0.010236 778287.000000 0 0 1
-12.035776 -26.167609 -6.926101 29.623884 1.139699 1.806782 0.082626 -0.016310 1165470.000000 0 0 1
23.902524 12.762971 27.811605 38.829235 0.490444 0.772377 0.093327 -0.019332 -913590.000000 0 0 1
25.146924 12.276271 28.192265 39.722518 0.454148 0.781681 0.080212 -0.022498 -333284.000000 0 0 1
25.176524 11.285371 29.219345 40.186902 0.421397 0.756728 0.087418 -0.016764 -321664.000000 0 0 1
25.023624 11.755271 30.720185 41.329142 0.439170 0.732798 0.116872 -0.031951 253016.000000 0 0 1
23.766024 12.384971 30.920325 40.917942 0.480401 0.714125 0.118973 -0.022122 179729.000000 0 0 1
23.782224 13.172971 32.077851 42.048899 0.505832 0.703056 0.130582 -0.021855 -269402.000000 0 0 1
22.542024 14.039471 32.275885 41.796918 0.557025 0.688488 0.111995 -0.023224 -158028.000000 0 0 1
21.338724 13.373571 32.607361 41.199922 0.559841 0.657631 0.094012 -0.006354 75289.100000 0 0 1
20.516924 14.279371 33.333596 41.665013 0.608023 0.643438 0.103839 -0.009267 -325598.000000 0 0 1
19.361324 13.538871 -33.621911 41.092515 0.610239 2.529070 0.090092 -0.000194 663210.000000 0 0 1
18.188824 13.352871 33.169389 40.116591 0.633263 0.597358 0.076800 0.009782 697824.000000 0 0 1
17.267824 12.570671 -33.765831 39.954110 0.629260 2.577577 0.063213 0.005658 -107993.000000 0 0 1
15.938824 12.270971 33.158387 38.782748 0.656103 0.545288 0.056667 0.008886 173669.000000 0 0 1
16.097524 11.270171 32.153303 37.682648 0.610805 0.548581 0.040433 0.019262 1192230.000000 0 0 1
14.803224 10.764471 31.734245 36.634296 0.628730 0.523161 0.069483 0.007603 1024790.000000 0 0 1
15.124924 9.786471 30.563135 35.477367 0.574293 0.532614 0.084954 0.008889 73123.600000 0 0 1
15.625024 8.586271 31.008555 35.768645 0.502475 0.521807 0.066589 0.003228 -215747.000000 0 0 1
16.029824 7.761771 29.996035 34.884990 0.450934 0.535811 0.070887 -0.012707 -71825.700000 0 0 1
16.379324 6.318171 30.452005 35.150052 0.368154 0.522963 0.094571 -0.023419 -332412.000000 0 0 1
15.295124 5.546371 30.867055 34.892380 0.347876 0.485084 0.097752 -0.021576 -405119.000000 0 0 1
15.678024 4.192871 30.976055 34.969939 0.261321 0.482601 0.095865 -0.026055 -46397.100000 0 0 1
14.585424 3.324071 31.615618 34.976154 0.224076 0.441950 0.071510 -0.022105 -152090.000000 0 0 1
15.020924 2.081171 32.083430 35.486701 0.137675 0.441534 0.075982 -0.028052 -309054.000000 0 0 1
13.935024 1.347971 32.569383 35.450905 0.096433 0.405975 0.075613 -0.032546 -279928.000000 0 0 1
14.288724 -0.105729 33.000692 35.961431 -0.007399 0.408622 0.061497 -0.033833 30202.400000 0 0 1
14.664024 -1.018529 31.990538 35.206044 -0.069346 0.430718 0.048625 -0.030401 154230.000000 0 0 1
15.106824 -2.293129 32.494769 35.908002 -0.150644 0.439546 0.095525 -0.030840 -190808.000000 0 0 1
15.513224 -3.295029 31.375865 35.156255 -0.209291 0.468007 0.102807 -0.032771 -381529.000000 0 0 1
15.898024 -4.610129 31.827244 35.874419 -0.282240 0.479588 0.109557 -0.032347 754819.000000 0 0 1
17.190724 -4.782129 32.402384 36.990597 -0.271321 0.503368 0.087907 -0.033229 870480.000000 0 0 1
18.542824 -4.449529 31.714280 37.005813 -0.235507 0.541361 0.095494 -0.035916 41174.200000 0 0 1
18.778124 -3.076929 31.563821 36.855939 -0.162414 0.542519 0.097496 -0.038612 -213935.000000 0 0 1
19.926724 -2.824529 30.814785 36.804936 -0.140808 0.578569 0.122240 -0.048628 -502380.000000 0 0 1
19.938924 -1.283629 30.615305 36.558246 -0.064289 0.578216 0.122621 -0.049619 -106082.000000 0 0 1
20.371324 -0.647229 31.805560 37.775699 -0.031761 0.569894 0.103471 -0.039728 143654.000000 0 0 1
20.107224 0.747671 31.683984 37.533110 0.037167 0.565798 0.091806 -0.035371 218063.000000 0 0 1
21.248924 1.603071 31.049225 37.658213 0.075300 0.601477 0.110425 -0.033629 -116595.000000 0 0 1
21.549124 1.372571 29.645005 36.675265 0.063609 0.629519 0.120059 -0.036704 183913.000000 0 0 1
22.494224 2.272871 29.084705 36.838515 0.100701 0.660772 0.103204 -0.028395 -220353.000000 0 0 1
22.043824 3.680071 28.781155 36.439375 0.165418 0.660254 0.084322 -0.010101 -490743.000000 0 0 1
21.723524 4.365571 29.962615 37.265642 0.198319 0.636758 0.077442 -0.008178 719012.000000 0 0 1
20.897624 5.532871 29.712625 36.744571 0.258822 0.628983 0.075402 -0.006474 234319.000000 0 0 1
20.475824 6.234971 31.025735 37.692579 0.295584 0.603902 0.084983 -0.002573 -252321.000000 0 0 1
19.549024 5.453571 31.733933 37.668930 0.272052 0.568994 0.076449 0.003833 96019.100000 0 0 1
19.319024 6.086771 32.972819 38.697291 0.305221 0.550868 0.070097 -0.000223 -237193.000000 0 0 1
18.275824 5.404971 -33.775351 38.781359 0.287548 2.627862 0.079164 -0.004385 -497549.000000 0 0 1
18.667524 4.204471 -33.208511 38.327004 0.221533 2.618848 0.077040 -0.013053 158577.000000 0 0 1
17.623524 3.548671 -32.492881 37.134472 0.198703 2.636244 0.077875 -0.017416 217851.000000 0 0 1
17.620624 2.062871 -32.874021 37.355630 0.116541 2.646719 0.091396 -0.036478 -568263.000000 0 0 1
18.612024 1.320771 -32.284011 37.288192 0.070845 2.617538 0.072424 -0.022569 -546351.000000 0 0 1
18.449924 -0.034729 -32.609461 37.467024 -0.001882 2.626711 0.079248 -0.025634 -88580.800000 0 0 1
19.610224 -0.888229 -32.037651 37.573407 -0.045263 2.591868 0.089180 -0.025333 49139.700000 0 0 1
19.592324 -1.105329 -30.643991 36.388667 -0.056357 2.572017 0.092641 -0.030443 321770.000000 0 0 1
19.485924 0.010471 -29.773321 35.583030 0.000537 2.562077 0.087636 -0.029285 -307687.000000 0 0 1
18.933324 -0.259229 -28.333651 34.078347 -0.013691 2.552467 0.082653 -0.033368 -106401.000000 0 0 1
17.540724 -0.488229 -28.247971 33.254522 -0.027827 2.585734 0.101642 -0.040855 473735.000000 0 0 1
16.967624 -0.474429 -26.916461 31.821710 -0.027954 2.578957 0.093556 -0.039432 30869.000000 0 0 1
17.399224 -1.662129 -25.998601 31.327670 -0.095240 2.549711 0.106367 -0.034370 -905143.000000 0 0 1
18.631624 -1.334529 -25.374651 31.508591 -0.071505 2.507020 0.111760 -0.034970 144340.000000 0 0 1
19.426624 -2.497529 -25.185021 31.904806 -0.127861 2.480595 0.087797 -0.032252 417835.000000 0 0 1
20.267624 -3.001529 -26.436191 33.446345 -0.147026 2.482268 0.099820 -0.044068 -218151.000000 0 0 1
21.440424 -2.210329 -26.617291 34.249927 -0.102729 2.460919 0.100455 -0.034380 -357695.000000 0 0 1
22.018424 -2.564329 -27.786331 35.545281 -0.115941 2.468210 0.098884 -0.039607 -635782.000000 0 0 1
23.284824 -1.820329 -28.207181 36.621602 -0.078018 2.450003 0.080218 -0.037650 -530864.000000 0 0 1
24.442524 -2.477529 -27.806481 37.104926 -0.101016 2.417954 0.074449 -0.043183 -785016.000000 0 0 1
25.593324 -1.904829 -28.373931 38.258680 -0.074290 2.406299 0.062210 -0.039337 354658.000000 0 0 1
26.923424 -2.643929 -28.030251 38.955823 -0.097888 2.373935 0.089807 -0.032722 242562.000000 0 0 1
26.989524 -3.959529 -28.563111 39.496375 -0.145667 2.379196 0.114587 -0.047690 602905.000000 0 0 1
28.374124 -4.312829 -28.531011 40.468630 -0.150844 2.353241 0.109541 -0.044641 694378.000000 0 0 1
28.726224 -5.614629 -27.739651 40.326273 -0.193020 2.329361 0.101147 -0.030252 -128764.000000 0 0 1
28.626524 -5.495529 -26.322461 39.275319 -0.189666 2.305279 0.087837 -0.016937 235929.000000 0 0 1
28.717024 -6.801929 -25.774281 39.182232 -0.232574 2.288698 0.056962 -0.011397 -248587.000000 0 0 1
28.836324 -6.809429 -24.216801 38.266897 -0.231893 2.256011 0.044976 -0.011933 -274677.000000 0 0 1
30.104724 -6.411729 -23.791001 38.902653 -0.209845 2.228817 0.037759 -0.006878 -22801.400000 0 0 1
29.863824 -5.848329 -22.505901 37.849261 -0.193386 2.207588 0.046047 -0.010715 832020.000000 0 0 1
31.163524 -5.281229 -21.817501 38.406510 -0.167873 2.174952 0.047843 -0.012538 642829.000000 0 0 1
31.588324 -4.006229 -22.300401 38.873899 -0.126153 2.181764 0.071998 -0.023351 76206.400000 0 0 1
32.882024 -3.697529 -21.826301 39.639458 -0.111978 2.153904 0.093515 -0.018948 445772.000000 0 0 1
33.530124 -2.381029 -22.382701 40.384698 -0.070893 2.158243 0.104896 -0.028758 286797.000000 0 0 1
32.826424 -1.254329 -21.900001 39.481103 -0.038192 2.158794 0.081036 -0.021889 161190.000000 0 0 1
33.314624 -0.064829 -22.462701 40.180111 -0.001946 2.164036 0.092987 -0.022367 19809.200000 0 0 1
32.302624 1.114371 -22.430201 39.342284 0.034484 2.177460 0.076197 -0.009444 450729.000000 0 0 1
31.245224 0.948671 -23.399701 39.047535 0.030353 2.213375 0.061658 -0.010151 -63492.000000 0 0 1
30.166524 1.659571 -22.947201 37.938732 0.054958 2.220372 0.052474 -0.006448 -516178.000000 0 0 1
29.002724 1.935271 -23.958701 37.668590 0.066628 2.260151 0.056981 -0.005021 446374.000000 0 0 1
27.889124 2.568071 -23.382201 36.484594 0.091823 2.266439 0.062339 -0.005804 231674.000000 0 0 1
26.945424 3.047071 -24.313601 36.421034 0.112605 2.301737 0.082412 -0.017610 -263587.000000 0 0 1
25.978624 4.078171 -23.799201 35.467201 0.155711 2.306380 0.081746 -0.010288 -797690.000000 0 0 1
26.541724 5.355071 -23.613601 35.926899 0.199088 2.287984 0.065896 0.000982 89231.100000 0 0 1
25.582324 6.340271 -23.299501 35.178418 0.242943 2.294712 0.106849 -0.016355 -373192.000000 0 0 1
26.180624 7.610071 -22.720901 35.490529 0.282881 2.265550 0.128874 -0.011833 -152908.000000 0 0 1
26.907924 8.334171 -23.686201 36.803952 0.300359 2.269960 0.129281 -0.005977 63193.600000 0 0 1
27.387824 9.598271 -23.205701 37.158099 0.337082 2.245304 0.154696 -0.012372 236877.000000 0 0 1
28.574224 10.291271 -23.944101 38.674495 0.345697 2.238416 0.192142 -0.015530 -206974.000000 0 0 1
28.500724 10.612571 -25.335881 39.583138 0.356455 2.265382 0.219800 -0.032070 159136.000000 0 0 1
27.727824 11.776171 -25.635731 39.556304 0.401622 2.275860 0.233642 -0.029533 16343.600000 0 0 1
27.671724 12.212171 -27.129101 40.630648 0.415615 2.301912 0.230089 -0.032044 -400879.000000 0 0 1
26.802624 11.390171 -27.960751 40.372271 0.401841 2.335846 0.188750 -0.025757 534314.000000 0 0 1
27.288724 10.152271 -28.472371 40.723691 0.356166 2.345018 0.169192 -0.029845 288218.000000 0 0 1
28.463424 10.322171 -29.506371 42.276940 0.347897 2.343300 0.164585 -0.027147 -211920.000000 0 0 1
29.692224 10.850671 -28.996181 42.896897 0.350361 2.313050 0.148527 -0.035072 674320.000000 0 0 1
30.739624 10.999571 -29.925941 44.288565 0.343634 2.312715 0.167415 -0.040996 305694.000000 0 0 1
31.257924 9.701671 -30.588201 44.797526 0.300948 2.322398 0.109114 -0.028371 -1141810.000000 0 0 1
30.281524 9.182871 -31.464701 44.624245 0.294436 2.353365 0.108338 -0.025480 195592.000000 0 0 1
30.725224 7.891471 -31.860421 44.959995 0.251406 2.358364 0.088005 -0.015791 194095.000000 0 0 1
29.605024 7.141671 -32.635321 44.637709 0.236709 2.390752 0.097095 -0.028860 -148273.000000 0 0 1
28.561324 6.776171 -31.802081 43.278610 0.232943 2.396201 0.120454 -0.035061 -790086.000000 0 0 1
27.436424 6.374071 -32.542721 43.039689 0.228272 2.428144 0.088020 -0.030414 -716920.000000 0 0 1
26.181224 6.468971 -31.697991 41.618106 0.242233 2.436636 0.112266 -0.028516 -1121400.000000 0 0 1
25.844024 7.782471 -31.425771 41.425349 0.292495 2.431977 0.122147 -0.016093 226609.000000 0 0 1
24.750024 7.992571 -30.550301 40.121887 0.312360 2.436324 0.124396 -0.021431 1145470.000000 0 0 1
23.291624 7.938271 -31.143671 39.691865 0.328474 2.472905 0.137603 -0.020178 555195.000000 0 0 1
22.865224 8.937771 -32.029121 40.355506 0.372628 2.487621 0.140301 -0.013663 -9873.010000 0 0 1
21.492424 8.701971 -32.279921 39.744709 0.384711 2.518678 0.112470 -0.006110 117150.000000 0 0 1
20.897124 9.670771 -33.336691 40.516029 0.433431 2.537121 0.109065 0.003989 -116835.000000 0 0 1
20.973224 9.169271 32.990975 40.154155 0.412150 0.606570 0.093263 0.001200 92567.100000 0 0 1
21.033624 10.223571 32.079360 39.699120 0.452432 0.629941 0.063631 0.002887 1036150.000000 0 0 1
19.909924 10.178471 30.918775 38.157267 0.472588 0.626135 0.068610 -0.003097 1079900.000000 0 0 1
20.128924 9.186871 29.910605 37.205060 0.428165 0.636907 0.069432 -0.005101 23192.000000 0 0 1
21.273224 9.274371 29.077475 37.203005 0.411121 0.673587 0.078431 -0.008816 -479960.000000 0 0 1
21.091224 10.201971 27.838545 36.385499 0.450528 0.699600 0.099185 -0.014640 364384.000000 0 0 1
20.076324 9.710871 26.949705 34.980658 0.450521 0.691301 0.091244 -0.012425 468287.000000 0 0 1
18.773424 10.085971 27.348575 34.671499 0.493000 0.661956 0.094430 -0.031232 28409.400000 0 0 1
17.643124 9.091671 26.869015 33.404825 0.475820 0.636223 0.129161 -0.025372 370967.000000 0 0 1
17.307024 9.215971 25.511665 32.176269 0.489307 0.655289 0.137293 -0.025101 1804130.000000 0 0 1
15.997924 8.580571 25.226735 31.079703 0.492307 0.623776 0.151268 -0.023092 1840690.000000 0 0 1
15.926924 7.055071 24.936255 30.418050 0.416988 0.609761 0.152846 -0.017405 -180927.000000 0 0 1
15.866124 6.333771 26.170905 31.253269 0.379817 0.578321 0.124107 -0.026973 44796.000000 0 0 1
15.525824 4.979371 25.948535 30.645911 0.310352 0.561005 0.134541 -0.026829 14269.300000 0 0 1
16.120424 4.093971 27.091165 31.789305 0.248704 0.550601 0.106392 -0.035090 849741.000000 0 0 1
17.565824 4.120471 27.054885 32.519276 0.230407 0.588157 0.114123 -0.021190 829758.000000 0 0 1
18.045324 3.468071 28.184525 33.645634 0.189872 0.577761 0.111135 -0.022965 -1008850.000000 0 0 1
18.401124 1.997371 28.051595 33.607780 0.108123 0.583253 0.115394 -0.020498 -163678.000000 0 0 1
17.288824 1.116771 27.927175 32.864536 0.064505 0.555255 0.113778 -0.041904 433959.000000 0 0 1
16.457024 1.029471 29.076465 33.426551 0.062474 0.515875 0.093864 -0.039834 -49417.500000 0 0 1
15.952124 -0.450729 29.211655 33.286547 -0.028248 0.500002 0.086331 -0.035879 -151837.000000 0 0 1
15.116024 -0.983529 28.188505 32.000834 -0.064974 0.493104 0.087392 -0.034246 356799.000000 0 0 1
15.697024 -1.490929 26.969975 31.240983 -0.094698 0.529047 0.106118 -0.039151 -1115630.000000 0 0 1
16.719124 -2.648829 27.023635 31.887651 -0.157125 0.559607 0.107415 -0.025270 700396.000000 0 0 1
18.036524 -2.384529 27.514185 32.985339 -0.131443 0.584236 0.114008 -0.045046 800739.000000 0 0 1
18.765024 -1.621729 26.519715 32.527703 -0.086209 0.617556 0.111144 -0.045898 -599967.000000 0 0 1
20.091824 -1.028029 27.081965 33.736791 -0.051122 0.638916 0.153876 -0.031376 529915.000000 0 0 1
21.227224 -1.744029 26.649855 34.115268 -0.081976 0.674257 0.130965 -0.038761 -6728.300000 0 0 1
22.478624 -1.243429 27.103035 35.233637 -0.055260 0.693149 0.121166 -0.038363 676727.000000 0 0 1
23.660224 -1.645629 26.189225 35.332561 -0.069441 0.735909 0.120901 -0.031950 -98392.200000 0 0 1
23.654724 -1.151429 24.868615 34.341226 -0.048638 0.760978 0.136684 -0.018476 -144807.000000 0 0 1
22.969124 -1.893229 23.922755 33.218417 -0.082239 0.766756 0.154317 -0.012385 -216345.000000 0 0 1
23.048824 -1.358029 22.411315 32.177004 -0.058852 0.800287 0.141186 -0.034979 202671.000000 0 0 1
22.321524 -0.131729 22.347115 31.585778 -0.005901 0.784834 0.125238 -0.025294 285730.000000 0 0 1
21.963924 0.163871 20.989015 30.380579 0.007461 0.808105 0.116264 -0.020299 -86747.700000 0 0 1
-31.192936 -26.685656 -10.131501 42.282039 0.707680 1.812768 0.068241 0.012780 169950.000000 0 0 1
-31.681376 -25.630556 -9.351801 41.810180 0.680211 1.796377 0.070106 0.017130 -144345.000000 0 0 1
-32.191856 -26.078356 -8.087701 42.211457 0.680864 1.763588 0.076742 0.004218 -366194.000000 0 0 1
-32.459396 -24.838056 -7.123601 41.488397 0.653161 1.743352 0.104714 -0.003656 -379513.000000 0 0 1
-31.413676 -24.080756 -6.596501 40.127492 0.654021 1.735934 0.119551 -0.002874 -1149280.000000 0 0 1
-30.566756 -24.881356 -5.767701 39.833087 0.683220 1.716104 0.121534 -0.008472 508285.000000 0 0 1
-29.311876 -24.065456 -5.296201 38.293367 0.687424 1.709547 0.122435 -0.008769 217594.000000 0 0 1
-29.509236 -22.996756 -4.360201 37.665065 0.661995 1.686819 0.133070 -0.014533 -813.644000 0 0 1
-30.204296 -21.882156 -4.883301 37.616152 0.626962 1.700983 0.146133 -0.014487 -85823.600000 0 0 1
-29.958276 -20.752556 -3.867701 36.648683 0.605820 1.676528 0.145762 -0.021287 183006.000000 0 0 1
-28.741096 -20.059456 -4.077101 35.285338 0.609340 1.686602 0.166982 -0.019721 245397.000000 0 0 1
-28.517906 -19.075856 -3.122301 34.451531 0.589553 1.661550 0.191470 -0.017023 -98843.400000 0 0 1
-27.430706 -18.078456 -3.549801 33.043536 0.582717 1.678432 0.179221 -0.012835 -5749.050000 0 0 1
-27.840626 -17.106156 -4.502901 32.984801 0.550963 1.707738 0.175161 -0.021370 2440.940000 0 0 1
-26.864126 -16.103856 -4.689601 31.670298 0.540019 1.719419 0.151008 -0.021141 -57864.800000 0 0 1
-27.334896 -14.946056 -5.616101 31.656306 0.500364 1.749149 0.170621 -0.037421 422236.000000 0 0 1
-28.557346 -14.359256 -5.178701 32.381000 0.465903 1.731416 0.157688 -0.023015 326238.000000 0 0 1
-28.870216 -13.288956 -6.038501 32.350413 0.431386 1.758557 0.190348 -0.042292 916670.000000 0 0 1
-30.287526 -12.608956 -5.820001 33.319550 0.394486 1.746369 0.181236 -0.031109 822441.000000 0 0 1
-31.343766 -13.292056 -6.441801 34.649779 0.401086 1.757796 0.183464 -0.031341 522814.000000 0 0 1
-32.558766 -12.524056 -6.308501 35.450280 0.367213 1.749703 0.177613 -0.029634 276201.000000 0 0 1
-33.761136 -13.097356 -7.052301 36.892953 0.370068 1.763136 0.118470 -0.023242 -485365.000000 0 0 1
-34.308397 -14.223556 -6.396601 37.686763 0.393011 1.741353 0.098212 -0.014832 31703.500000 0 0 1
-34.888437 -15.055056 -7.338501 38.700276 0.407380 1.761576 0.100588 -0.029474 -309641.000000 0 0 1
-35.639972 -16.315456 -6.734601 39.771303 0.429309 1.740949 0.088546 -0.023068 1189160.000000 0 0 1
-37.025526 -16.146056 -6.384801 40.894380 0.411217 1.727567 0.071723 -0.024568 813307.000000 0 0 1
-37.385726 -15.336056 -5.270901 40.751313 0.389278 1.700503 0.095220 -0.021806 214913.000000 0 0 1
36.527488 -14.978556 -5.264001 39.828686 -0.389151 1.703350 0.143039 -0.029296 -202267.000000 0 0 1
36.104878 -14.230956 -6.393001 39.331321 -0.375458 1.734063 0.139487 -0.038026 1191560.000000 0 0 1
34.669578 -14.176456 -6.503401 38.016388 -0.388157 1.742710 0.143473 -0.025649 1574010.000000 0 0 1
33.709088 -13.521756 -5.439601 36.725056 -0.381481 1.719460 0.179259 -0.041964 -134410.000000 0 0 1
33.503678 -14.440056 -4.387001 36.745849 -0.406941 1.690469 0.180281 -0.039755 348611.000000 0 0 1
32.668778 -13.867856 -3.367301 35.649758 -0.401446 1.665392 0.215823 -0.038658 -319486.000000 0 0 1
32.459368 -14.723156 -2.095201 35.703946 -0.425833 1.629513 0.224092 -0.042105 1111560.000000 0 0 1
33.697498 -14.981456 -1.376401 36.903386 -0.418343 1.608102 0.252986 -0.038383 1738220.000000 0 0 1
34.758768 -15.783556 -1.946801 38.224111 -0.426249 1.621750 0.211603 -0.037390 236442.000000 0 0 1
34.498278 -17.273556 -2.223201 38.645175 -0.464214 1.628357 0.196249 -0.044032 -701804.000000 0 0 1
34.727338 -18.179456 -1.066601 39.212476 -0.482263 1.598000 0.171855 -0.050192 127720.000000 0 0 1
34.804048 -19.533456 -1.572001 39.941818 -0.511432 1.610164 0.137179 -0.038477 430107.000000 0 0 1
36.170728 -19.977856 -2.186101 41.378924 -0.504623 1.623652 0.121226 -0.046492 244183.000000 0 0 1
36.370228 -19.379156 -3.463801 41.356295 -0.489566 1.654650 0.090720 -0.039082 -235843.000000 0 0 1
37.392818 -20.043756 -4.155901 42.629174 -0.492056 1.668441 0.088373 -0.026169 -372022.000000 0 0 1
37.679828 -19.480456 -5.566301 42.781320 -0.477155 1.701277 0.117926 -0.029654 -553102.000000 0 0 1
36.554928 -19.644456 -6.384901 41.987312 -0.493115 1.723456 0.092545 -0.037089 47952.500000 0 0 1
36.618278 -18.744056 -7.433801 41.803102 -0.473104 1.749576 0.092008 -0.040036 -261178.000000 0 0 1
35.297078 -18.818156 -8.205501 40.833038 -0.489804 1.773126 0.098942 -0.042295 -350676.000000 0 0 1
35.190798 -19.887056 -9.088101 41.430434 -0.514378 1.791953 0.102753 -0.041703 717640.000000 0 0 1
33.942478 -19.995456 -9.781501 40.590490 -0.532365 1.814172 0.100318 -0.051939 315659.000000 0 0 1
34.048398 -21.204656 -10.690501 41.511657 -0.557001 1.831262 0.103713 -0.044239 -12205.800000 0 0 1
33.859598 -22.366556 -9.969501 41.786674 -0.583768 1.811701 0.082005 -0.046074 -82786.800000 0 0 1
33.340238 -23.378856 -10.745201 42.114151 -0.611545 1.828794 0.079534 -0.039048 -324925.000000 0 0 1
32.647088 -24.516256 -10.010301 42.036714 -0.644107 1.811239 0.090579 -0.033683 -475332.000000 0 0 1
31.463568 -24.178456 -9.357901 40.769157 -0.655210 1.802395 0.112348 -0.041118 -534661.000000 0 0 1
30.691768 -25.330856 -9.168001 40.837350 -0.689997 1.797227 0.076786 -0.036225 -111812.000000 0 0 1
29.281698 -25.131756 -8.573501 39.528824 -0.709279 1.789426 0.063148 -0.039606 292253.000000 0 0 1
28.313198 -24.718356 -9.523101 38.772719 -0.717715 1.818949 0.069378 -0.040009 -125900.000000 0 0 1
27.044998 -24.518356 -8.923601 37.579414 -0.736437 1.810546 0.090834 -0.042023 239771.000000 0 0 1
26.048898 -23.987356 -10.008701 36.798267 -0.744220 1.846255 0.162453 -0.050608 -479285.000000 0 0 1
25.578498 -24.994256 -10.861401 37.375693 -0.773846 1.865651 0.130875 -0.049209 10127.800000 0 0 1
24.956198 -24.369256 -11.961301 36.874723 -0.773499 1.901149 0.137428 -0.043515 -30238.300000 0 0 1
23.840298 -25.259756 -12.536401 36.926636 -0.814300 1.917176 0.134605 -0.050997 332929.000000 0 0 1
24.503298 -26.305756 -13.264101 38.318935 -0.820858 1.924261 0.132283 -0.043576 910370.000000 0 0 1
23.590098 -27.358256 -13.532901 38.575981 -0.859224 1.929234 0.137477 -0.026205 -275190.000000 0 0 1
24.279298 -28.580556 -14.054601 40.048275 -0.866590 1.929373 0.100801 -0.029750 -422790.000000 0 0 1
24.672598 -28.504156 -15.422101 40.731624 -0.857327 1.959109 0.095266 -0.024529 396935.000000 0 0 1
25.186098 -29.755956 -15.800801 42.064495 -0.868383 1.955876 0.080449 -0.006300 -307200.000000 0 0 1
25.344198 -29.810856 -17.338301 42.797572 -0.866205 1.987910 0.073056 -0.001676 510621.000000 0 0 1
24.059198 -29.773056 -17.981401 42.291969 -0.891144 2.009949 0.080305 -0.003170 699377.000000 0 0 1
24.060498 -30.029256 -19.354501 43.072735 -0.895303 2.036828 0.052688 0.008898 -421960.000000 0 0 1
22.713598 -29.738756 -20.024501 42.441510 -0.918540 2.062143 0.041489 0.007412 -223759.000000 0 0 1
22.667298 -29.893756 -21.455501 43.217839 -0.922028 2.090301 0.031917 0.014311 -112331.000000 0 0 1
21.389198 -29.544256 -21.934701 42.561626 -0.944163 2.112228 0.051140 -0.005146 -277301.000000 0 0 1
21.242898 -29.566856 -23.491101 43.327722 -0.947782 2.143817 0.043365 0.000050 -698479.000000 0 0 1
21.663398 -28.497256 -24.260301 43.243018 -0.920804 2.166417 0.045925 0.002073 101629.000000 0 0 1
21.554098 -28.768556 -25.658871 44.165446 -0.927792 2.190718 0.034179 -0.001720 -587216.000000 0 0 1
21.922998 -27.529056 -26.548821 44.082952 -0.898280 2.217109 0.023649 -0.008447 -359897.000000 0 0 1
21.073198 -26.426056 -26.510081 42.955797 -0.897618 2.235909 0.057530 -0.026158 -751891.000000 0 0 1
19.904798 -26.664556 -27.243891 43.004990 -0.929546 2.256872 0.077441 -0.031423 -517049.000000 0 0 1
18.986498 -25.467056 -27.515971 42.026024 -0.930161 2.284630 0.082305 -0.030816 -150448.000000 0 0 1
18.187498 -25.045656 -26.438761 40.707224 -0.942719 2.277704 0.071407 -0.016349 -194775.000000 0 0 1
17.415898 -23.929756 -26.817111 39.938755 -0.941660 2.306968 0.065610 -0.008184 307155.000000 0 0 1
16.171898 -23.608456 -25.924581 38.613124 -0.970206 2.306883 0.070446 -0.016522 342305.000000 0 0 1
15.134698 -24.573056 -26.051031 38.878662 -1.018763 2.305086 0.112843 -0.024224 -752617.000000 0 0 1
14.002898 -24.316656 -25.293881 37.777789 -1.048319 2.304391 0.082466 -0.017876 -310429.000000 0 0 1
14.098498 -24.521256 -23.758001 36.939170 -1.049000 2.269421 0.075841 -0.022397 -684093.000000 0 0 1
14.854398 -23.531356 -23.081401 36.154238 -1.007708 2.263233 0.041252 -0.011699 -227014.000000 0 0 1
15.032298 -23.942656 -21.762101 35.676460 -1.010153 2.226838 0.049845 -0.019407 437410.000000 0 0 1
16.249898 -23.225756 -21.087901 35.329796 -0.960305 2.210412 0.035533 -0.016474 365774.000000 0 0 1
16.092398 -21.837956 -20.769701 34.164925 -0.935732 2.224241 0.013997 -0.013234 -41161.600000 0 0 1
17.255598 -21.251656 -20.238401 34.043816 -0.888802 2.207416 0.032272 -0.014128 -608352.000000 0 0 1
16.920398 -19.777856 -19.881201 32.752490 -0.863105 2.223093 0.043923 -0.000543 341510.000000 0 0 1
16.236998 -19.676356 -18.621501 31.584164 -0.880875 2.201339 0.032644 -0.009517 45643.000000 0 0 1
14.845198 -19.847756 -18.719201 31.059971 -0.928606 2.217651 0.015227 -0.005795 -561489.000000 0 0 1
14.166198 -19.688856 -17.312101 29.800018 -0.947100 2.190683 0.023254 -0.008700 -97166.500000 0 0 1
14.263198 -18.424856 -16.671201 28.650359 -0.912031 2.191840 0.051368 -0.021503 151901.000000 0 0 1
13.815698 -18.514856 -15.327101 27.723518 -0.929735 2.156584 0.041809 -0.025562 -155770.000000 0 0 1
13.737398 -17.128256 -14.633201 26.386054 -0.894818 2.158656 0.062839 -0.029327 -279448.000000 0 0 1
12.477398 -16.543656 -14.867001 25.503053 -0.924606 2.193151 0.070391 -0.036159 -63193.400000 0 0 1
12.399598 -15.277856 -14.245901 24.292151 -0.889019 2.197454 0.066084 -0.039513 1046580.000000 0 1 0
10.920098 -14.714756 -14.099901 23.120982 -0.932358 2.226644 0.074642 -0.031318 1144830.000000 0 1 0
10.322798 -14.296056 -15.303101 23.347854 -0.945409 2.285560 0.101788 -0.023492 -553255.000000 0 1 0
9.002198 -13.895856 -15.105601 22.412353 -0.995946 2.310387 0.100385 -0.022975 -27033.800000 0 1 0
8.190098 -13.393356 -16.356101 22.671165 -1.021961 2.376690 0.078196 -0.005534 296736.000000 0 1 0
8.685398 -12.193756 -16.858801 22.546463 -0.951875 2.415442 0.074948 -0.003093 175631.000000 0 1 0
9.906898 -12.268656 -17.583101 23.618467 -0.891501 2.410528 0.108481 -0.007743 180451.000000 0 1 0
10.044698 -11.019956 -18.503801 23.763965 -0.831663 2.463307 0.112542 -0.012147 -327804.000000 0 1 0
9.372898 -10.964056 -19.712201 24.426064 -0.863479 2.509876 0.119497 -0.014091 -169188.000000 0 1 0
9.489898 -9.691356 -20.353901 24.459391 -0.795901 2.553771 0.116643 -0.028262 37713.200000 0 1 0
9.083898 -9.929256 -21.809701 25.627532 -0.829831 2.588733 0.120308 -0.023186 -429689.000000 0 0 1
10.180298 -10.397656 -22.524601 26.816177 -0.795960 2.568012 0.140354 -0.021147 -812345.000000 0 0 1
9.934498 -10.474856 -23.928601 27.946284 -0.811868 2.598734 0.132004 -0.014463 200395.000000 0 0 1
11.110398 -10.964256 -24.838301 29.335934 -0.778778 2.580521 0.127313 -0.007385 261058.000000 0 0 1
11.316898 -12.344356 -24.752101 29.885144 -0.828795 2.546758 0.110209 -0.006163 70658.600000 0 0 1
12.540598 -12.804456 -25.302901 31.007378 -0.795808 2.525302 0.094031 -0.017296 183064.000000 0 0 1
12.690598 -14.341256 -25.012401 31.501478 -0.846386 2.488169 0.076298 -0.010239 101561.000000 0 0 1
11.698198 -15.156156 -25.615051 31.979489 -0.913461 2.499733 0.060355 -0.007821 36746.000000 0 0 1
11.948098 -16.490656 -25.332321 32.502696 -0.943791 2.464490 0.040069 -0.006030 -582352.000000 0 0 1
10.773898 -17.337756 -25.716011 32.832726 -1.014781 2.470662 0.033123 -0.002405 -604980.000000 0 0 1
10.718198 -17.745256 -27.075501 34.100684 -1.027438 2.488136 0.041497 -0.023517 242615.000000 0 0 1
9.590098 -18.620156 -27.225491 34.349782 -1.095190 2.485851 0.048098 -0.021462 342866.000000 0 0 1
9.486898 -19.559456 -28.462831 35.814889 -1.119197 2.489343 0.060039 -0.025655 -342271.000000 0 0 1
10.542298 -20.478256 -28.379661 36.550023 -1.095375 2.459826 0.041696 -0.029459 -132373.000000 0 0 1
10.431098 -21.420356 -29.391551 37.835205 -1.117626 2.460414 0.059653 -0.026201 178051.000000 0 0 1
11.503398 -22.519856 -29.141581 38.583725 -1.098537 2.426880 0.058704 -0.016574 230441.000000 0 0 1
11.336398 -23.649256 -30.025831 39.866675 -1.123800 2.423643 0.068452 -0.012159 -80632.400000 0 0 1
11.980798 -24.860556 -29.633861 40.493857 -1.121717 2.391772 0.101727 -0.018546 387760.000000 0 0 1
11.178498 -25.804456 -28.642461 40.139997 -1.162001 2.365369 0.111213 -0.026190 536191.000000 0 0 1
10.821998 -25.223656 -27.385471 38.772574 -1.165507 2.355069 0.117000 -0.026086 -127758.000000 0 0 1
10.154298 -26.051856 -26.408371 38.460513 -1.199138 2.327648 0.110960 -0.021936 367418.000000 0 0 1
9.486198 -25.226056 -25.312651 36.973939 -1.211108 2.324862 0.086361 -0.015622 -531849.000000 0 0 1
10.356998 -24.299756 -24.753301 36.200435 -1.167894 2.323733 0.073262 -0.015219 -626640.000000 0 0 1
10.023798 -23.021256 -25.194031 35.569565 -1.160137 2.357888 0.048499 0.002285 -253424.000000 0 0 1
11.043398 -21.909656 -24.881601 34.944009 -1.103920 2.363198 0.046424 0.003803 -60027.700000 0 0 1
11.084598 -21.547756 -23.523201 33.771513 -1.095679 2.341360 0.037330 0.000542 329942.000000 0 0 1
12.183298 -20.634756 -23.379301 33.478614 -1.037446 2.343866 0.032526 -0.005266 409527.000000 0 0 1
12.625598 -20.393156 -21.928401 32.498328 -1.016444 2.311429 0.014779 0.003012 59758.500000 0 0 1
11.663298 -19.758956 -21.088601 31.163728 -1.037555 2.314072 0.011709 0.008857 167188.000000 0 0 1
11.319398 -18.369356 -21.402501 30.391266 -1.018542 2.352137 0.026427 0.009967 -325118.000000 0 0 1
12.487298 -17.392256 -21.234301 30.154912 -0.948105 2.352055 0.036157 0.000387 -150728.000000 0 0 1
13.561398 -17.695756 -22.078701 31.377067 -0.916904 2.351328 0.029188 0.007735 -509505.000000 0 0 1
14.486198 -16.647056 -22.258201 31.343291 -0.854694 2.360497 0.050470 0.006588 -101054.000000 0 0 1
15.759098 -16.947856 -23.028701 32.648125 -0.821728 2.353728 0.045457 0.001348 143931.000000 0 0 1
16.870998 -17.561456 -22.366601 33.065090 -0.805448 2.313717 0.046879 0.013650 1264880.000000 0 0 1
18.094098 -17.104356 -22.957901 33.867693 -0.757287 2.315658 0.082681 -0.002993 431697.000000 0 0 1
19.388998 -17.490656 -22.233301 34.295422 -0.733970 2.276130 0.086787 -0.007283 -117019.000000 0 0 1
19.726898 -18.842256 -22.275401 35.218952 -0.762466 2.255551 0.076029 -0.011696 350881.000000 0 0 1
21.112498 -19.095956 -22.075501 36.023893 -0.735288 2.230397 0.063088 -0.014137 348575.000000 0 0 1
21.400998 -20.387156 -21.332001 36.451243 -0.761141 2.195948 0.081972 -0.015610 -312347.000000 0 0 1
20.969698 -20.492456 -20.011901 35.498524 -0.773888 2.169702 0.079968 -0.018048 30624.900000 0 0 1
20.959598 -21.860556 -19.593601 36.070734 -0.806436 2.145039 0.084638 -0.008907 -121232.000000 0 0 1
-16.869276 13.406171 29.466195 36.504172 -0.671507 0.631402 0.072828 -0.021567 -431055.000000 0 0 1
-18.003876 13.996071 28.861905 36.783680 -0.660803 0.668683 0.081895 -0.027649 165032.000000 0 0 1
-18.061976 13.519371 27.534415 35.597084 -0.642540 0.686448 0.074642 -0.024867 349250.000000 0 0 1
-19.171376 14.137571 26.618655 35.720657 -0.635408 0.729978 0.086436 -0.020763 234391.000000 0 0 1
-19.128376 15.559071 26.550155 36.233827 -0.682860 0.748449 0.103650 -0.025548 1033440.000000 0 0 1
-20.217376 16.180571 25.778495 36.538801 -0.674942 0.787654 0.104731 -0.023092 748618.000000 0 0 1
-20.495076 17.675971 26.109045 37.605456 -0.711677 0.803365 0.110474 -0.012247 1019180.000000 0 0 1
-19.463776 18.636071 25.738265 37.263924 -0.763677 0.808337 0.069738 -0.012153 454540.000000 0 0 1
-18.214576 18.630771 26.342275 37.051206 -0.796693 0.779921 0.068795 -0.013097 -790187.000000 0 0 1
-17.112476 19.443471 25.686395 36.478436 -0.849077 0.789567 0.063856 -0.010993 -331563.000000 0 0 1
-17.265376 20.815371 25.852615 37.412973 -0.878352 0.807916 0.073645 -0.008569 329430.000000 0 0 1
-16.209376 21.553171 25.237875 36.935530 -0.925975 0.818530 0.077830 -0.013130 395556.000000 0 0 1
-16.414476 23.110971 25.317935 38.007234 -0.953227 0.841782 0.086977 -0.014344 38096.200000 0 0 1
-15.889576 23.676171 26.509395 38.933119 -0.979716 0.821811 0.089917 -0.010120 80463.000000 0 0 1
-16.205376 25.082771 26.422155 39.873423 -0.997185 0.846444 0.089820 -0.010099 -225609.000000 0 0 1
-15.509976 25.932071 27.468105 40.835382 -1.031775 0.833006 0.062083 -0.007612 33226.500000 0 0 1
-14.106676 25.861171 27.267715 40.141335 -1.071432 0.823998 0.068291 -0.014267 77790.600000 0 0 1
-13.477076 26.723171 28.252325 41.157664 -1.103697 0.814212 0.077958 -0.011294 1056220.000000 0 0 1
-11.910576 26.845671 28.218735 40.728969 -1.153220 0.805374 0.083215 -0.014384 716760.000000 0 0 1
-11.404076 27.407771 27.066685 40.172681 -1.176497 0.831513 0.057282 -0.007906 -701421.000000 0 0 1
-10.012876 27.429571 27.228205 39.925108 -1.220787 0.820327 0.057428 -0.005210 -349693.000000 0 0 1
-9.337876 28.001971 25.900705 39.270254 -1.248921 0.850576 0.063242 -0.006750 95674.300000 0 0 1
-7.942476 28.170171 26.025685 39.166028 -1.295984 0.843977 0.079406 -0.014407 372415.000000 0 0 1
-7.321376 28.604271 24.780935 38.547394 -1.320222 0.872558 0.093165 -0.012186 1786640.000000 0 0 1
-5.730576 28.469371 24.902885 38.255696 -1.372162 0.861949 0.102749 -0.023985 1297000.000000 0 0 1
-5.117876 29.438371 25.724585 39.427968 -1.398666 0.859990 0.115650 -0.021373 1128140.000000 0 0 1
-3.698576 29.297971 25.941325 39.306525 -1.445221 0.850011 0.095946 -0.023770 1400940.000000 0 0 1
-2.756676 29.892471 24.865885 38.980397 -1.478837 0.879018 0.099898 -0.016132 -214698.000000 0 0 1
-2.921376 29.193171 23.633395 37.673771 -1.471058 0.892693 0.093328 -0.014949 -141974.000000 0 0 1
-2.391776 29.917371 22.567455 37.550762 -1.491020 0.926063 0.095330 -0.028414 -568811.000000 0 0 1
-2.725576 29.390771 21.111415 36.289641 -1.478325 0.949921 0.082490 -0.020084 -149608.000000 0 0 1
-4.001276 29.505671 20.551515 36.179547 -1.436008 0.966671 0.074496 -0.011683 -187303.000000 0 0 1
-4.914376 28.515771 21.017115 35.763381 -1.400134 0.942619 0.075516 -0.012120 -301015.000000 0 0 1
-6.396876 28.782771 20.681415 36.015120 -1.352104 0.959118 0.067719 -0.020915 -143725.000000 0 0 1
-6.689076 28.864371 19.306415 35.364294 -1.343074 0.993298 0.051630 -0.022852 -69009.600000 0 0 1
-7.471876 27.768571 18.939915 34.433165 -1.307945 0.988374 0.038866 -0.020969 -827505.000000 0 0 1
-6.724176 26.397971 18.775915 33.084776 -1.321377 0.967319 0.023860 -0.022862 229352.000000 0 0 1
-5.875776 26.347071 17.627915 32.240290 -1.351373 0.992299 0.028375 -0.024103 299279.000000 0 0 1
-4.523176 26.639171 17.939415 32.433427 -1.402606 0.984698 0.045631 -0.018576 -14848.800000 0 0 1
-3.602376 26.740971 16.685515 31.724802 -1.436889 1.016970 0.031925 -0.015611 88713.000000 0 0 1
-3.253676 25.529771 16.075415 30.344268 -1.444033 1.012470 0.033981 -0.018650 -13304.700000 0 0 1
-2.683776 25.665771 14.783015 29.740074 -1.466609 1.050573 0.040315 -0.027322 62474.500000 0 0 1
-2.031576 24.371271 14.207215 28.283054 -1.487629 1.044514 0.038729 -0.024423 -238906.000000 0 0 1
-0.774276 24.062371 14.745515 28.231674 -1.538630 1.021246 0.047990 -0.022563 -334379.000000 0 0 1
-0.353476 22.836771 14.188815 26.888018 -1.555319 1.014905 0.050792 -0.034811 -952790.000000 0 0 1
0.869424 22.394871 14.983915 26.959300 1.531993 0.981474 0.047647 -0.026286 -585501.000000 0 0 1
1.883124 23.367771 14.787215 27.717515 1.490384 1.008066 0.052807 -0.032336 -143955.000000 0 0 1
3.101824 22.790671 15.222715 27.582006 1.435527 0.986146 0.046327 -0.025834 6391.590000 0 0 1
4.260124 23.805971 15.386815 28.664037 1.393719 1.004158 0.072303 -0.040355 82244.100000 0 0 1
5.515624 23.216571 15.598515 28.508682 1.337548 0.991841 0.087296 -0.032213 118625.000000 0 0 1
6.549524 24.204571 15.668715 29.567992 1.306534 1.012288 0.108388 -0.037206 711725.000000 0 0 1
8.019524 23.696971 15.848915 29.614985 1.244475 1.006093 0.125536 -0.039056 1054660.000000 0 0 1
8.684124 22.995171 14.759015 28.670899 1.209704 1.030053 0.106002 -0.034373 365542.000000 0 0 1
8.912324 23.832771 13.633515 28.866992 1.212944 1.078912 0.116574 -0.037952 -680452.000000 0 0 1
9.389024 22.944971 12.465715 27.749226 1.182386 1.104896 0.103073 -0.036307 328526.000000 0 0 1
10.743524 22.553271 12.654615 28.003797 1.126237 1.101914 0.103188 -0.029780 343272.000000 0 0 1
11.149324 21.570471 11.706715 26.956258 1.093737 1.121551 0.092661 -0.037529 -349435.000000 0 0 1
12.607424 21.113871 11.696015 27.231222 1.032500 1.126849 0.129884 -0.035864 -361619.000000 0 0 1
12.968224 20.495571 12.853215 27.449015 1.006656 1.083478 0.122346 -0.025608 -274194.000000 0 0 1
14.265024 19.956971 12.852915 27.694206 0.950214 1.088177 0.105457 -0.025665 -671012.000000 0 0 1
14.557624 19.174271 14.170615 27.935344 0.921416 1.038788 0.107289 -0.027219 -172248.000000 0 0 1
15.745724 18.405171 14.189015 28.071450 0.863115 1.040880 0.104646 -0.027467 391803.000000 0 0 1
16.038324 17.947871 15.526015 28.642819 0.841525 0.997914 0.095737 -0.033585 -32124.400000 0 0 1
17.319424 17.091471 15.433615 28.814533 0.778774 1.005556 0.076566 -0.033547 -140784.000000 0 0 1
17.716524 16.686571 16.732215 29.534453 0.755469 0.968505 0.083765 -0.039899 112308.000000 0 0 1
18.866224 15.876771 16.575615 29.711232 0.699565 0.978954 0.078840 -0.042720 47437.300000 0 0 1
19.475624 15.397771 17.931015 30.625359 0.668994 0.945305 0.093544 -0.041009 28973.700000 0 0 1
20.086724 16.417271 18.786315 32.030125 0.685213 0.944041 0.110186 -0.036448 709093.000000 0 0 1
19.209324 17.403071 19.343515 32.342489 0.736104 0.929688 0.096785 -0.029296 223108.000000 0 0 1
19.916924 18.425671 20.313715 33.894487 0.746525 0.928142 0.092174 -0.026879 -569562.000000 0 0 1
19.007624 19.350371 20.743115 34.146793 0.794333 0.917926 0.105636 -0.032196 -454053.000000 0 0 1
19.529624 20.337871 21.618215 35.530022 0.805669 0.916691 0.110864 -0.026959 98662.800000 0 0 1
18.424324 21.336471 22.057515 35.794339 0.858509 0.906851 0.117167 -0.026184 762076.000000 0 0 1
17.571124 20.801071 23.098965 35.707019 0.869374 0.867281 0.111643 -0.027005 336354.000000 0 0 1
16.700024 21.756471 23.629335 36.201938 0.916133 0.859641 0.104836 -0.034896 90257.400000 0 0 1
16.031524 21.385271 24.994435 36.593188 0.927518 0.818886 0.112661 -0.036658 -305298.000000 0 0 1
15.041924 20.438971 24.877085 35.537029 0.936352 0.795353 0.110070 -0.042944 -954635.000000 0 0 1
14.332924 20.399771 26.109305 36.100959 0.958326 0.762328 0.097711 -0.035312 174163.000000 0 0 1
13.184424 19.370071 26.162205 35.121072 0.973169 0.730389 0.094181 -0.033169 -25888.100000 0 0 1
13.599324 18.032371 26.079455 34.499942 0.924637 0.713727 0.093697 -0.043520 -57448.300000 0 0 1
14.190624 17.543071 24.877785 33.586268 0.890651 0.736665 0.109282 -0.047248 -285087.000000 0 0 1
13.287324 17.509371 23.618355 32.263877 0.921643 0.749489 0.108084 -0.039664 -648421.000000 0 0 1
13.069224 18.707371 22.882905 32.317143 0.961001 0.784030 0.101238 -0.035197 -16867.800000 0 0 1
14.047624 19.268271 21.993115 32.439161 0.940835 0.825785 0.107827 -0.036043 -87459.800000 0 0 1
14.661324 18.335871 20.892015 31.426659 0.896301 0.843588 0.121084 -0.042284 -296019.000000 0 0 1
13.743424 17.884171 19.904115 30.081541 0.915580 0.847750 0.092019 -0.034848 -319863.000000 0 0 1
14.320324 17.008871 18.983015 29.235736 0.871004 0.864121 0.073782 -0.031594 -382875.000000 0 0 1
13.349124 16.291371 18.026315 27.722841 0.884338 0.862905 0.079420 -0.027004 -86621.500000 0 0 1
12.820324 17.218871 17.058015 27.419448 0.930792 0.899357 0.102504 -0.030286 -28554.900000 0 0 1
11.872524 16.485871 16.323115 26.061176 0.946666 0.893949 0.081154 -0.032287 -156825.000000 0 0 1
11.284024 17.165571 15.067315 25.475675 0.989262 0.937954 0.089705 -0.029520 -368051.000000 0 0 1
10.271924 18.056471 15.390915 25.853991 1.053575 0.933156 0.097966 -0.029566 -373290.000000 0 0 1
9.877024 18.780171 14.241315 25.555146 1.086622 0.979693 0.088908 -0.014410 155097.000000 0 0 1
8.759424 19.812771 14.565815 26.104337 1.154523 0.978841 0.095005 -0.015546 1205460.000000 0 0 1
7.451824 19.231171 14.807815 25.389742 1.201124 0.948109 0.066136 -0.015707 471710.000000 0 0 1
6.583524 20.259171 15.174015 26.153920 1.256596 0.951845 0.076593 -0.020804 -1197190.000000 0 0 1
5.330224 19.743871 15.801415 25.844080 1.307114 0.912951 0.057930 -0.025297 -1382580.000000 0 0 1
4.371324 19.273271 14.931115 24.769046 1.347762 0.923774 0.040871 -0.024070 192081.000000 0 1 0
3.238024 18.624071 15.545115 24.474302 1.398655 0.882580 0.038369 -0.033670 1220790.000000 0 1 0
2.130724 18.027371 14.623215 23.310181 1.453148 0.892674 0.039341 -0.033127 750439.000000 0 1 0
1.343324 19.121571 14.085715 23.787526 1.500660 0.937076 0.035120 -0.028893 -745484.000000 0 1 0
0.285624 18.593771 13.396915 22.919146 1.555436 0.946496 0.029338 -0.032233 -1058740.000000 0 1 0
-0.443876 19.694871 12.565415 23.366100 -1.548263 1.003015 0.033110 -0.035729 -199953.000000 0 1 0
-1.626176 20.153271 13.171715 24.130745 -1.490280 0.993396 0.042305 -0.038500 -620316.000000 0 1 0
-2.647176 20.202271 12.212915 23.754886 -1.440505 1.030812 0.044640 -0.043155 -321491.000000 0 1 0
-3.833176 21.045771 12.716215 24.886138 -1.390636 1.034477 0.035189 -0.030332 -681923.000000 0 1 0
-4.582376 20.388971 13.665115 24.968854 -1.349722 0.991678 0.035453 -0.031250 -895647.000000 0 1 0
-5.702176 21.232771 13.836815 25.976967 -1.308431 1.009059 0.036210 -0.025288 -764371.000000 0 0 1
-6.520776 20.740171 15.000215 26.413664 -1.266179 0.966849 0.038480 -0.025231 -996829.000000 0 0 1
-7.361876 19.644171 14.698015 25.614885 -1.212235 0.959649 0.040811 -0.023083 267646.000000 0 0 1
-8.020276 19.092871 15.850315 26.078632 -1.173112 0.917523 0.040229 -0.010535 237542.000000 0 0 1
-9.246376 19.801771 16.470615 27.365796 -1.133939 0.924957 0.036273 -0.004301 279678.000000 0 0 1
-10.449676 19.579771 15.728615 27.202068 -1.080555 0.954258 0.031059 -0.017865 110748.000000 0 0 1
-11.562876 19.552371 16.589315 28.128290 -1.036739 0.940018 0.024672 -0.003667 -202848.000000 0 0 1
-12.910076 19.617771 15.867415 28.342580 -0.988761 0.976599 0.029799 -0.016382 -607027.000000 0 0 1
-13.478976 20.817771 15.425815 29.206475 -0.996199 1.014359 0.021164 -0.017796 -447149.000000 0 0 1
-14.366876 20.412071 14.447515 28.840778 -0.957496 1.046111 0.029960 -0.021031 -1076540.000000 0 0 1
-15.409676 21.435671 14.074615 29.917234 -0.947511 1.080994 0.029847 -0.025389 -264198.000000 0 0 1
-16.571176 21.421371 14.896615 30.909354 -0.912373 1.067923 0.024878 -0.026228 754160.000000 0 0 1
-17.484876 22.491571 14.550515 31.989203 -0.909991 1.098585 0.039587 -0.031824 -118337.000000 0 0 1
-18.795876 22.546071 15.308915 33.105485 -0.875862 1.090064 0.091845 -0.032704 -1432190.000000 0 0 1
-19.569876 21.407671 14.889315 32.603069 -0.830217 1.096532 0.101406 -0.038860 776738.000000 0 0 1
-20.748876 21.210371 15.709415 33.573522 -0.796396 1.083871 0.107479 -0.036105 1527050.000000 0 0 1
-21.868976 22.315571 15.499715 34.878044 -0.795505 1.110295 0.110863 -0.042957 -708904.000000 0 0 1
-22.567076 22.267271 14.253415 34.760094 -0.778711 1.148286 0.114066 -0.031623 614818.000000 0 0 1
-23.447476 23.414771 14.176515 36.041770 -0.784700 1.166539 0.136197 -0.037137 379977.000000 0 0 1
-22.812076 24.662171 13.495115 36.204028 -0.824349 1.188824 0.117917 -0.034852 174624.000000 0 0 1
-21.642176 25.153271 14.142315 36.070430 -0.860289 1.167910 0.100660 -0.042903 158717.000000 0 0 1
-21.147276 26.244371 13.415115 36.275882 -0.892539 1.191994 0.075467 -0.043195 125780.000000 0 0 1
-19.690876 26.595571 13.832515 35.866328 -0.933479 1.174864 0.061242 -0.032782 -72410.400000 0 0 1
-18.736376 25.896971 13.112315 34.549062 -0.944474 1.181511 0.069245 -0.027216 -169767.000000 0 0 1
-17.420576 26.360371 13.370215 34.309012 -0.986823 1.170491 0.019144 -0.027176 123830.000000 0 0 1
-16.345376 25.743671 12.457215 32.940706 -1.005090 1.182977 0.043920 -0.030687 -334419.000000 0 0 1
-15.089776 26.337871 12.664815 32.890460 -1.050519 1.175523 0.037454 -0.033077 73593.800000 0 0 1
-14.139976 25.796871 11.729715 31.670233 -1.069392 1.191389 0.043793 -0.026805 248128.000000 0 0 1
-12.702876 26.284371 12.003915 31.564619 -1.120609 1.180679 0.034476 -0.022493 -409640.000000 0 0 1
-11.700876 25.568071 11.340415 30.319000 -1.141610 1.187439 0.020400 -0.018098 -271102.000000 0 0 1
-10.369876 25.901271 11.616715 30.221817 -1.189978 1.176258 0.047131 -0.021644 36154.700000 0 0 1
-9.780876 27.126271 10.836715 30.804781 -1.224738 1.211317 0.055604 -0.028149 -565968.000000 0 0 1
-8.640676 27.689671 11.429615 31.177159 -1.268318 1.195442 0.083283 -0.034366 -100464.000000 0 0 1
-8.237476 28.864971 10.766815 31.889918 -1.292806 1.226404 0.094490 -0.040837 -217398.000000 0 0 1
-7.118976 29.619571 11.529015 32.571721 -1.334923 1.208997 0.093062 -0.042635 829601.000000 0 0 1
-5.854776 28.973771 11.278315 31.637924 -1.371410 1.206298 0.096720 -0.041015 424410.000000 0 0 1
-4.841376 29.609371 12.025715 32.322927 -1.408722 1.189581 0.106075 -0.045341 222491.000000 0 0 1
-3.380176 29.329571 11.575215 31.711748 -1.456055 1.197149 0.100783 -0.046295 86230.700000 0 0 1
-3.091976 29.971171 10.383815 31.869343 -1.467995 1.238913 0.135008 -0.052592 -325970.000000 0 0 1
-1.933176 29.535971 9.730815 31.157656 -1.505438 1.253174 0.136739 -0.050390 22220.000000 0 0 1
-1.632076 30.314571 8.389215 31.496283 -1.517010 1.301186 0.140904 -0.050293 273129.000000 0 0 1
-2.502376 29.868971 7.367915 30.865895 -1.487213 1.329762 0.157582 -0.049351 119034.000000 0 0 1
-2.437276 30.780571 6.254315 31.503973 -1.491779 1.370944 0.159654 -0.042845 87415.300000 0 0 1
11.653124 -33.810156 -25.642931 44.005475 -1.238884 2.192870 0.221225 -0.066108 -146914.000000 0 0 1
12.283324 -33.140656 -24.582601 43.052148 -1.215852 2.178515 0.201813 -0.060857 -699798.000000 0 0 1
13.665124 -33.240356 -24.697101 43.607381 -1.180757 2.172868 0.186456 -0.057367 -591083.000000 0 0 1
14.383624 -32.832056 -23.383901 42.797656 -1.157885 2.148836 0.163062 -0.048950 -577158.000000 0 0 1
14.154124 -31.556356 -22.865601 41.460566 -1.149162 2.154961 0.173487 -0.046223 255141.000000 0 0 1
14.821224 -31.279356 -21.629001 40.815199 -1.128300 2.129309 0.127762 -0.035126 1105820.000000 0 0 1
16.390224 -31.159556 -21.627701 41.319667 -1.086558 2.121661 0.089852 -0.021181 724766.000000 0 0 1
17.129524 -32.353156 -21.584001 42.497252 -1.083864 2.103532 0.094823 -0.017450 -274481.000000 0 0 1
18.509824 -32.105256 -21.599201 42.893899 -1.047809 2.098499 0.069730 -0.016242 -344058.000000 0 0 1
19.419224 -33.351056 -21.469701 44.162736 -1.043518 2.078475 0.042997 -0.000971 -901991.000000 0 0 1
20.753024 -32.966256 -21.535701 44.511217 -1.008951 2.075818 0.026964 0.016244 -871350.000000 0 0 1
21.515024 33.592471 -21.583701 45.356439 1.001149 2.066748 0.022732 0.014640 -134904.000000 0 0 1
23.010124 33.853271 -21.272701 46.130658 0.973824 2.050076 0.032887 0.023863 275231.000000 0 0 1
23.777224 -33.365056 -22.350001 46.670182 -0.951638 2.070189 0.014375 0.028138 1956390.000000 0 0 1
25.209724 -33.206756 -22.070801 47.173500 -0.921449 2.057669 0.017557 0.030646 2162910.000000 0 0 1
26.059824 -32.942056 -23.353101 48.058931 -0.901518 2.078219 0.035184 0.017060 67472.400000 0 0 1
26.107424 -31.571356 -23.807301 47.382863 -0.879847 2.097221 0.032413 0.019179 213946.000000 0 0 1
24.854324 -30.967356 -24.126401 46.462865 -0.894474 2.116784 0.004298 0.022180 281648.000000 0 0 1
24.895324 -29.479656 -23.899201 45.387213 -0.869509 2.125348 0.013257 0.009364 -439754.000000 0 0 1
25.562024 -28.609256 -24.788501 45.676869 -0.841591 2.144436 0.020539 0.003833 -119646.000000 0 0 1
25.343524 -27.261356 -24.388601 44.500333 -0.821839 2.150833 0.041249 0.008310 327425.000000 0 0 1
25.892924 -26.243556 -25.397861 44.768506 -0.792123 2.174038 0.041971 0.008338 265026.000000 0 0 1
25.093724 -26.348356 -26.541341 45.037469 -0.809783 2.201009 0.036477 0.000149 -180036.000000 0 0 1
25.793024 -25.765256 -27.643571 45.752547 -0.784860 2.219555 0.042357 -0.008089 343240.000000 0 0 1
24.814524 -25.333456 -28.807401 45.688193 -0.795746 2.253022 0.040088 -0.019138 1579800.000000 0 0 1
23.941824 -24.178656 -28.590531 44.443636 -0.790320 2.269595 0.063861 -0.026985 288971.000000 0 0 1
22.901624 -24.294356 -27.651321 43.350844 -0.814899 2.262499 0.041485 -0.016701 -651206.000000 0 0 1
22.194524 -22.947556 -27.419591 42.083503 -0.802078 2.280425 0.052062 -0.018316 76034.300000 0 0 1
21.685324 -22.349356 -28.610611 42.288463 -0.800477 2.313875 0.082968 -0.029790 -3260.280000 0 0 1
21.322224 -20.994956 -28.448251 41.288357 -0.777665 2.330924 0.073160 -0.015922 -515207.000000 0 0 1
20.337624 -20.626756 -29.559201 41.386331 -0.792456 2.366314 0.086094 -0.027865 122045.000000 0 0 1
19.069324 -21.207756 -29.257181 40.858178 -0.838441 2.368947 0.072231 -0.025275 -271709.000000 0 0 1
18.053424 -20.607556 -30.006971 40.632694 -0.851367 2.401629 0.059542 -0.028506 491305.000000 0 0 1
16.757624 -21.508956 -29.853371 40.431138 -0.908930 2.401455 0.059833 -0.031817 344210.000000 0 0 1
16.922624 -22.710156 -30.527851 41.642239 -0.930402 2.393663 0.066012 -0.028566 298390.000000 0 0 1
15.944724 -23.690556 -30.193891 41.558967 -0.978393 2.384057 0.082098 -0.028361 331339.000000 0 0 1
16.441624 -25.104056 -30.663261 42.904268 -0.990957 2.366977 0.106419 -0.030239 185148.000000 0 0 1
15.598324 -26.092856 -30.146711 42.813188 -1.031996 2.352015 0.119661 -0.028110 -75375.300000 0 0 1
15.992124 -27.392356 -30.616521 44.084698 -1.042361 2.338512 0.139995 -0.027043 502716.000000 0 0 1
15.219524 -28.553856 -29.876521 44.040471 -1.081090 2.316362 0.160299 -0.025099 266956.000000 0 0 1
15.526024 -28.736756 -28.532281 43.369916 -1.075443 2.288799 0.178749 -0.037357 -205228.000000 0 0 1
15.036224 -27.773956 -27.609661 41.949661 -1.074596 2.289171 0.158071 -0.032535 -32433.400000 0 0 1
15.930424 -27.599056 -26.354171 41.352493 -1.047303 2.261793 0.117956 -0.022907 -63929.200000 0 0 1
15.968924 -28.693456 -25.464341 41.554225 -1.062949 2.230393 0.128022 -0.028117 -287141.000000 0 0 1
16.863724 -28.484356 -24.407801 41.127661 -1.036254 2.206153 0.133366 -0.036921 -1186950.000000 0 0 1
16.402024 -27.458356 -23.342001 39.595918 -1.032334 2.201243 0.120072 -0.033837 391217.000000 0 0 1
15.345324 -27.777856 -22.446601 38.870788 -1.066089 2.186419 0.115036 -0.041328 924203.000000 0 0 1
14.109624 -28.133256 -23.111001 39.047151 -1.105927 2.204178 0.131003 -0.036768 236281.000000 0 0 1
12.798324 -27.834956 -22.318401 37.903732 -1.139828 2.200392 0.092532 -0.031481 413038.000000 0 0 1
12.632824 -26.455356 -22.075401 36.698739 -1.125298 2.216212 0.065553 -0.025271 -267021.000000 0 0 1
11.313524 -26.203956 -21.646901 35.822220 -1.163223 2.219667 0.063600 -0.026077 -214609.000000 0 0 1
10.966324 -24.751956 -21.363101 34.486254 -1.153738 2.238860 0.050622 -0.019214 -210272.000000 0 0 1
11.551524 -24.279856 -20.174601 33.614932 -1.126723 2.214507 0.032438 -0.017458 78187.300000 0 0 1
11.263624 -22.911556 -19.935801 32.392048 -1.113881 2.233758 0.028961 -0.013908 -153870.000000 0 0 1
11.626224 -22.434856 -18.474601 31.301801 -1.092678 2.202114 0.023879 -0.022720 -238804.000000 0 0 1
10.760524 -22.862156 -17.462401 30.714858 -1.130887 2.175517 0.045657 -0.025654 125380.000000 0 0 1
11.072124 -22.280556 -16.215701 29.697880 -1.109599 2.148405 0.034882 -0.021491 245711.000000 0 0 1
9.994524 -22.798856 -15.215301 29.175053 -1.157649 2.119425 0.036348 -0.017185 571953.000000 0 0 1
10.372624 -24.098356 -14.765801 30.105664 -1.164337 2.083421 0.046099 -0.017616 173939.000000 0 0 1
9.747724 -24.372556 -13.536101 29.534144 -1.190336 2.046901 0.054453 -0.016057 30950.200000 0 0 1
9.858224 -25.877156 -13.311701 30.724797 -1.206809 2.018899 0.064534 -0.012918 191385.000000 0 0 1
11.179724 -26.313356 -13.076901 31.438580 -1.169037 1.999784 0.051178 -0.011282 -177524.000000 0 0 1
11.369424 -27.718756 -13.158401 32.722114 -1.181553 1.984634 0.055312 -0.006806 -729719.000000 0 0 1
12.736224 -28.168356 -12.576701 33.374258 -1.146159 1.957177 0.047621 -0.010911 652650.000000 0 0 1
13.940224 -27.758156 -13.211401 33.754795 -1.105388 1.972942 0.064606 -0.009550 436573.000000 0 0 1
14.053624 -28.247556 -14.542501 34.740655 -1.109138 2.002702 0.060670 -0.016056 -579580.000000 0 0 1
15.405824 -27.731256 -15.127401 35.145416 -1.063710 2.015758 0.046986 -0.017344 554278.000000 0 0 1
16.588324 -28.357356 -14.681901 35.984307 -1.041498 1.991068 0.102622 -0.021105 -157946.000000 0 0 1
17.703924 -27.702156 -15.235001 36.234564 -1.002135 2.004743 0.132922 -0.027603 -612406.000000 0 0 1
19.050424 -28.353856 -15.100501 37.348159 -0.979192 1.987028 0.125831 -0.025415 -472703.000000 0 0 1
19.402224 -29.451756 -15.986001 38.722145 -0.988274 1.996365 0.115435 -0.019156 141648.000000 0 0 1
20.788324 -29.739456 -15.958901 39.639326 -0.960732 1.985155 0.118353 -0.015478 355484.000000 0 0 1
21.176424 -30.944856 -16.844101 41.106554 -0.970666 1.992995 0.092893 -0.017117 -39403.700000 0 0 1
20.670624 -32.221956 -16.421701 41.655749 -1.000414 1.976020 0.093953 -0.009479 95036.800000 0 0 1
20.752124 -33.137756 -17.485001 42.830909 -1.011307 1.991314 0.080029 -0.003410 44602.500000 0 0 1
20.668824 33.121971 -17.043201 42.599718 1.012901 1.982398 0.055186 -0.004053 337953.000000 0 0 1
21.769124 32.693371 -16.215401 42.493417 0.983354 1.962321 0.092036 -0.009575 489326.000000 0 0 1
21.506124 31.446971 -15.585501 41.162279 0.970968 1.959118 0.093251 -0.020765 -476282.000000 0 0 1
22.388324 30.972071 -14.382401 40.833316 0.944895 1.930741 0.103377 -0.027319 980067.000000 0 0 1
23.659624 30.432171 -14.823801 41.299394 0.909955 1.937923 0.097173 -0.020067 1778160.000000 0 0 1
24.673024 30.060171 -13.846401 41.280684 0.883508 1.912848 0.104142 -0.030417 1186310.000000 0 0 1
24.216424 28.875571 -12.947401 39.848074 0.872930 1.901723 0.108701 -0.023465 -718640.000000 0 0 1
24.056224 27.718371 -13.706901 39.177662 0.856013 1.928224 0.118903 -0.017826 -10629.800000 0 0 1
23.693024 26.618371 -12.869001 37.888102 0.843478 1.917350 0.050444 -0.019716 564125.000000 0 0 1
22.166924 26.497571 -12.571201 36.763146 0.874154 1.919789 0.067171 -0.024045 76549.300000 0 0 1
21.407824 26.045071 -13.731101 36.403074 0.882812 1.957563 0.085688 -0.034505 261702.000000 0 0 1
20.006324 26.082271 -13.617401 35.580493 0.916474 1.963536 0.096775 -0.037770 85363.500000 0 0 1
19.294924 27.455971 -13.495801 36.169892 0.958221 1.953169 0.094481 -0.040019 -617905.000000 0 0 1
19.423224 28.252671 -14.652701 37.285074 0.968521 1.974678 0.086747 -0.034874 -71727.700000 0 0 1
19.033624 27.801171 -15.949301 37.276858 0.970458 2.012921 0.072625 -0.028202 -340003.000000 0 0 1
19.226324 28.777171 -17.113201 38.608791 0.981795 2.030013 0.063094 -0.024024 391646.000000 0 0 1
18.398724 29.975071 -17.197001 39.150412 1.020291 2.025565 0.059396 -0.024068 479676.000000 0 0 1
18.631824 30.564671 -18.450901 40.271327 1.023357 2.046726 0.046633 -0.008139 263694.000000 0 0 1
17.499524 31.591971 -18.783801 40.707704 1.064946 2.050404 0.044339 -0.010261 88405.500000 0 0 1
17.632424 32.844971 -18.147901 41.461317 1.078115 2.023843 0.079647 -0.027266 -835106.000000 0 0 1
16.715224 33.725671 -18.603201 41.986887 1.110656 2.029818 0.081002 -0.030120 -976400.000000 0 0 1
16.416624 -32.815656 -17.688701 40.734052 -1.106934 2.020000 0.092926 -0.026478 224456.000000 0 0 1
15.348824 -32.046956 -18.222201 39.932974 -1.124132 2.044651 0.075183 -0.022654 -83952.700000 0 0 1
15.036424 -31.154056 -17.209001 38.637016 -1.121127 2.032419 0.074191 -0.024298 625103.000000 0 0 1
13.871424 -30.161156 -17.664401 37.605090 -1.139732 2.059786 0.059505 -0.019024 1293580.000000 0 0 1
12.596224 -30.792156 -17.527301 37.603564 -1.182493 2.055682 0.065380 -0.015512 378817.000000 0 0 1
11.481024 -29.885056 -17.539901 36.504501 -1.204008 2.072005 0.051424 -0.012610 174684.000000 0 0 1
10.279824 -30.737956 -17.927301 37.038964 -1.248055 2.076030 0.078050 -0.022081 -1722100.000000 0 0 1
9.763724 -31.607056 -16.908901 37.151679 -1.271186 2.043316 0.081868 -0.015025 1789430.000000 0 0 1
8.487024 -32.259056 -17.265001 37.560039 -1.313536 2.048413 0.101258 -0.008302 2630600.000000 0 0 1
7.241624 -31.367556 -17.723201 36.748831 -1.343908 2.074051 0.103625 -0.006997 -19456.900000 0 0 1
7.225424 -30.726756 -19.031601 36.858407 -1.339841 2.113372 0.099320 -0.005837 -157387.000000 0 0 1
7.113124 -31.682656 -20.038401 38.156582 -1.349947 2.123702 0.116947 -0.019515 -1559970.000000 0 0 1
7.349524 -31.189756 -21.456901 38.564427 -1.339379 2.160832 0.120816 -0.020057 659483.000000 0 0 1
8.688924 -30.819656 -21.850601 38.765931 -1.296001 2.169600 0.121514 -0.027421 798680.000000 0 0 1
9.672124 -31.825256 -21.688501 39.708790 -1.275753 2.148604 0.126943 -0.038463 -775955.000000 0 0 1
9.670924 -33.087256 -22.633101 41.237732 -1.286432 2.151778 0.160716 -0.053163 -25195.000000 0 0 1
8.467024 -33.858356 -22.529401 41.540976 -1.325750 2.144018 0.170527 -0.059212 369965.000000 0 0 1
8.257524 32.918171 -23.555101 41.311445 1.325018 2.177525 0.183711 -0.071137 186472.000000 0 0 1
7.007524 32.039871 -23.244701 40.199190 1.355474 2.187364 0.172188 -0.073682 1154260.000000 0 0 1
5.686424 32.579371 -23.326201 40.470514 1.397996 2.185082 0.160270 -0.070082 757050.000000 0 0 1
5.235824 33.307571 -22.170901 40.352906 1.414876 2.152472 0.130526 -0.056320 216414.000000 0 0 1
3.833724 -33.798356 -22.466101 40.764593 -1.457850 2.154500 0.108031 -0.047444 1003090.000000 0 0 1
2.779324 32.975871 -22.726201 40.144899 1.486711 2.172569 0.098327 -0.053840 1280750.000000 0 0 1
1.622724 33.725271 -23.165301 40.947018 1.522717 2.172125 0.091931 -0.044172 848202.000000 0 0 1
0.230624 33.213071 -22.724201 40.243640 1.563853 2.170824 0.080554 -0.048922 200193.000000 0 0 1
-0.061376 33.481771 -21.373601 39.722331 -1.568963 2.138948 0.064827 -0.044172 162601.000000 0 0 1
-1.323576 32.938271 -21.014001 39.093091 -1.530634 2.138310 0.061631 -0.045500 201127.000000 0 0 1
-1.682876 33.198471 -19.562001 38.569968 -1.520148 2.102708 0.068734 -0.042342 248361.000000 0 0 1
-0.789976 32.562071 -18.667401 37.541769 -1.546540 2.091215 0.073873 -0.044838 262019.000000 0 0 1
-1.345176 32.593871 -17.344301 36.945835 -1.529549 2.059467 0.046603 -0.029813 502071.000000 0 0 1
-0.592076 31.611571 -16.396301 35.615736 -1.552069 2.049205 0.039466 -0.014387 1192710.000000 0 0 1
0.749024 31.963371 -16.021101 35.761625 1.547367 2.035320 0.042018 -0.010431 566063.000000 0 0 1
1.404124 30.839171 -15.489901 34.539297 1.525297 2.035851 0.053961 -0.008340 791782.000000 0 0 1
2.521124 31.213971 -14.440601 34.484765 1.490202 2.002868 0.069107 -0.010045 797839.000000 0 0 1
3.716524 31.850471 -14.866401 35.345084 1.454635 2.004911 0.077862 -0.014648 412032.000000 0 0 1
4.525624 32.114771 -13.720301 35.214861 1.430798 1.971012 0.088125 -0.022170 -1134890.000000 0 0 1
5.859424 32.660871 -14.079101 36.045616 1.393283 1.972070 0.091949 -0.028826 -917980.000000 0 0 1
6.749224 31.673571 -14.588201 35.518766 1.360849 1.994038 0.089169 -0.022224 309958.000000 0 0 1
7.964024 32.201671 -15.155201 36.469897 1.328344 1.999348 0.076258 -0.009804 681601.000000 0 0 1
8.909524 30.992771 -15.379001 35.727373 1.290873 2.015792 0.073799 -0.018094 -244600.000000 0 0 1
9.589824 30.710071 -14.171401 35.155395 1.268121 1.985706 0.070818 -0.024776 -741113.000000 0 0 1
10.456424 29.620071 -14.268201 34.500246 1.231435 1.997166 0.075566 -0.029855 -260170.000000 0 0 1
9.965324 28.155071 -14.247801 33.091019 1.230612 2.015914 0.085022 -0.026135 -68394.200000 0 0 1
9.123424 27.609771 -15.279401 32.848081 1.251650 2.054604 0.089178 -0.030249 429154.000000 0 0 1
8.711224 26.298471 -14.916801 31.464360 1.250927 2.064722 0.081897 -0.019412 90561.700000 0 0 1
7.807324 25.506871 -15.896401 31.052381 1.273764 2.108217 0.086752 -0.017463 120076.000000 0 0 1
8.546524 25.131471 -17.024301 31.535072 1.242993 2.141059 0.099407 -0.012205 -270469.000000 0 0 1
7.963724 24.103271 -17.761001 30.981313 1.251688 2.181301 0.093356 -0.006320 -249791.000000 0 0 1
8.774324 23.674271 -18.976001 31.583991 1.215865 2.215311 0.107767 -0.011303 -383758.000000 0 0 1
8.210024 22.566671 -19.597201 30.995313 1.221870 2.255267 0.122415 -0.016056 -254473.000000 0 0 1
9.117624 21.748771 -20.312101 31.124292 1.173827 2.281824 0.113494 -0.012425 -134203.000000 0 0 1
8.432124 20.565671 -20.989301 30.571201 1.181691 2.327559 0.103523 -0.021026 11235.000000 0 0 1
8.011624 19.560471 -20.127101 29.187298 1.182057 2.331711 0.106961 -0.024848 -426129.000000 0 0 1
6.999924 18.787771 -20.687401 28.808815 1.214150 2.371854 0.100665 -0.035222 -275071.000000 0 0 1
26.467024 -12.379429 -9.669301 30.777411 -0.437500 1.890377 0.131725 -0.020974 -101306.000000 0 0 1
26.526224 -11.880429 -8.321601 30.232999 -0.421085 1.849645 0.137178 -0.032865 548373.000000 0 0 1
25.217824 -11.717029 -7.790601 28.877689 -0.434956 1.843960 0.116450 -0.018338 -72246.100000 0 0 1
25.333324 -11.188229 -6.353201 28.413324 -0.415881 1.796302 0.094189 -0.024128 -256818.000000 0 0 1
25.387024 -9.777329 -6.152701 27.891807 -0.367623 1.793217 0.116957 -0.038292 681948.000000 0 0 1
26.591924 -9.198529 -6.655401 28.914317 -0.333030 1.803056 0.079878 -0.042223 -459232.000000 0 0 1
26.874524 -7.678529 -6.263401 28.643150 -0.278303 1.791248 0.118671 -0.039360 -110091.000000 0 0 1
27.302324 -7.406629 -4.932301 28.715896 -0.264906 1.743414 0.134486 -0.045682 798180.000000 0 0 1
28.595724 -7.953429 -4.660301 30.044815 -0.271277 1.726537 0.119166 -0.053750 -123253.000000 0 0 1
29.125124 -7.828029 -3.242301 30.332547 -0.262567 1.677893 0.142438 -0.058353 -694448.000000 0 0 1
29.638324 -6.541829 -3.036801 30.503245 -0.217239 1.670518 0.169106 -0.051284 389062.000000 0 0 1
30.670724 -6.652129 -2.051801 31.450819 -0.213581 1.636081 0.209642 -0.043291 445092.000000 0 0 1
31.182824 -5.235529 -1.576501 31.658564 -0.166346 1.620614 0.212656 -0.051296 374539.000000 0 0 1
30.240024 -4.652329 -0.680401 30.603369 -0.152650 1.593031 0.233706 -0.041859 200097.000000 0 0 1
30.637124 -3.385029 -0.261401 30.824668 -0.110041 1.579277 0.218713 -0.032197 44769.500000 0 0 1
31.353224 -3.297429 1.093799 31.545112 -0.104785 1.536115 0.210748 -0.029472 484962.000000 0 0 1
30.423524 -3.484429 2.142299 30.697256 -0.114034 1.500952 0.244183 -0.046432 572763.000000 0 0 1
31.114324 -3.016129 3.277699 31.431537 -0.096635 1.466326 0.206990 -0.035338 406670.000000 0 0 1
30.785124 -3.767629 4.575999 31.350577 -0.121779 1.424311 0.215758 -0.039021 23307.400000 0 0 1
30.976824 -5.180029 4.444299 31.719838 -0.165690 1.430223 0.195011 -0.037586 60630.800000 0 0 1
31.144024 -5.881229 5.654199 32.194861 -0.186642 1.394256 0.182185 -0.032930 29991.800000 0 0 1
32.069724 -7.113929 5.551599 33.315094 -0.218292 1.403376 0.147286 -0.034360 -828684.000000 0 0 1
33.428424 -6.894229 5.455299 34.565159 -0.203387 1.412307 0.163367 -0.050633 -996547.000000 0 0 1
34.062824 -8.162229 5.282799 35.423240 -0.235188 1.421104 0.159951 -0.049018 340813.000000 0 0 1
35.591724 -8.180129 5.489599 36.929948 -0.225909 1.421594 0.194660 -0.052741 264404.000000 0 0 1
36.481024 -7.552029 4.569699 37.533724 -0.204129 1.448744 0.208987 -0.046240 50895.300000 0 0 1
-37.644049 -7.661529 5.097499 38.752522 0.200783 1.438874 0.215192 -0.041418 -584953.000000 0 0 1
-36.624949 -7.924429 4.026099 37.688101 0.213082 1.463765 0.235204 -0.039900 -766527.000000 0 0 1
-36.646049 -9.186829 3.444199 37.936701 0.245629 1.479883 0.274708 -0.052961 243807.000000 0 0 1
-35.878949 -9.109829 2.255899 37.086076 0.248650 1.509930 0.290936 -0.058319 -35020.200000 0 0 1
-35.685049 -10.490129 1.553899 37.227411 0.285910 1.529043 0.307415 -0.043411 15834.500000 0 0 1
-34.605449 -11.215629 2.101699 36.438230 0.313418 1.513086 0.294059 -0.046931 13396.400000 0 0 1
-34.063149 -12.103029 1.173999 36.168491 0.341399 1.538331 0.307071 -0.050917 -252044.000000 0 0 1
-33.301449 -13.297329 1.849399 35.905790 0.379904 1.519267 0.211097 -0.048498 -17696.800000 0 0 1
-32.031949 -13.110029 2.399699 34.694051 0.388480 1.501574 0.235905 -0.042653 -401465.000000 0 0 1
-31.002749 -13.143129 1.457599 33.705146 0.400968 1.527537 0.256050 -0.032106 558387.000000 0 0 1
-29.583149 -13.619529 2.012099 32.629784 0.431453 1.509093 0.239369 -0.032182 1314090.000000 0 0 1
-28.811849 -12.659729 2.673899 31.583875 0.413998 1.486035 0.207706 -0.037601 144811.000000 0 0 1
-27.484249 -13.046929 2.974499 30.568840 0.443208 1.473337 0.184606 -0.017054 468550.000000 0 0 1
-26.779649 -11.946129 3.852799 29.575390 0.419597 1.440155 0.163981 -0.013966 -128510.000000 0 0 1
-25.458849 -12.242829 4.210899 28.561715 0.448241 1.422825 0.127492 -0.005524 -225613.000000 0 0 1
-24.809949 -11.245029 4.939299 27.683586 0.425551 1.391416 0.118721 -0.002150 287719.000000 0 0 1
-23.436849 -11.576729 5.589699 26.731092 0.458799 1.360133 0.101047 0.010312 284101.000000 0 0 1
-23.433449 -12.566329 6.644299 27.407770 0.492230 1.325933 0.096288 -0.003712 -85599.200000 0 0 1
-22.151249 -12.923429 7.124399 26.616723 0.528137 1.299826 0.071184 0.005547 44692.500000 0 0 1
-21.744449 -12.157029 8.374499 26.282060 0.509793 1.246503 0.091738 -0.006932 -674503.000000 0 0 1
-21.608949 -10.760729 8.187899 25.490815 0.462027 1.243790 0.093444 -0.010686 914181.000000 0 0 1
-22.659749 -10.001129 8.844399 26.300384 0.415647 1.227828 0.125927 -0.014951 -381367.000000 0 0 1
-22.970749 -10.118129 10.395299 27.167887 0.414908 1.178153 0.104493 -0.006591 -559898.000000 0 0 1
-23.606949 -11.280029 10.925899 28.353172 0.445752 1.175209 0.096294 -0.022502 1371040.000000 0 0 1
-24.880049 -11.507529 10.268199 29.272444 0.433217 1.212392 0.089681 -0.019364 -159434.000000 0 0 1
-26.145949 -11.069229 10.993899 30.446745 0.400483 1.201364 0.098134 -0.017916 -706150.000000 0 0 1
-26.421649 -11.870629 12.139599 31.406771 0.422252 1.173932 0.104503 -0.018203 482578.000000 0 0 1
-27.689149 -11.489429 12.660199 32.541921 0.393322 1.171204 0.096674 -0.017562 310751.000000 0 0 1
-28.108449 -12.273029 13.913399 33.679294 0.411681 1.144925 0.095818 -0.011942 -59780.600000 0 0 1
-28.086549 -13.690129 13.693899 34.114465 0.453538 1.157740 0.087587 -0.016890 370016.000000 0 0 1
-28.335349 -14.391029 14.872499 35.088245 0.469934 1.133094 0.096339 -0.006776 -155013.000000 0 0 1
-28.372849 -15.914529 14.654199 35.679635 0.511179 1.147557 0.105362 -0.011404 189399.000000 0 0 1
-29.316649 -16.675329 15.405399 37.079089 0.517163 1.142332 0.098081 0.000255 250170.000000 0 0 1
-29.017049 -18.047229 15.340299 37.456860 0.556405 1.148840 0.082004 -0.001660 -411447.000000 0 0 1
-30.086849 -18.954629 15.948299 38.972358 0.562185 1.149196 0.066087 0.007392 -274714.000000 0 0 1
-30.053449 -18.701829 17.340999 39.416728 0.556645 1.115264 0.068703 0.015525 83652.500000 0 0 1
-30.478549 -19.796129 18.119999 40.609889 0.576031 1.108285 0.080221 0.011919 197567.000000 0 0 1
-29.463949 -21.004929 18.233599 40.519076 0.619333 1.104031 0.060793 0.009636 461302.000000 0 0 1
-28.246049 -20.767329 18.901999 39.829723 0.633981 1.076321 0.068567 0.011530 203870.000000 0 0 1
-27.366049 -21.876629 18.882699 39.800049 0.674380 1.076470 0.064163 0.011782 -236344.000000 0 0 1
-26.112649 -21.577829 19.685199 39.178824 0.690595 1.044372 0.065743 0.007980 -128668.000000 0 0 1
-25.003649 -21.025929 19.005699 37.795354 0.699196 1.043894 0.076790 0.003099 -571021.000000 0 0 1
-23.803849 -21.145229 19.664899 37.422616 0.726320 1.017515 0.083683 0.000197 57540.700000 0 0 1
-22.540449 -20.844829 18.770499 35.984863 0.746335 1.022045 0.095417 -0.013795 603916.000000 0 0 1
-22.273449 -21.833929 17.748399 35.886386 0.775434 1.053454 0.088981 -0.019762 38695.400000 0 0 1
-21.020249 -21.664629 17.132699 34.709313 0.800493 1.054566 0.096658 -0.024419 30017.600000 0 0 1
-20.753449 -22.650929 15.917899 34.599852 0.829087 1.092737 0.096057 -0.016595 -349876.000000 0 0 1
-20.847649 -24.057629 16.256699 35.744570 0.856760 1.098647 0.096851 -0.022638 589748.000000 0 0 1
-19.833749 -24.587429 17.128199 35.934586 0.892006 1.073957 0.105641 -0.030654 838611.000000 0 0 1
-18.338449 -24.648329 16.615499 34.927262 0.931144 1.075017 0.089256 -0.026910 887633.000000 0 0 1
-17.635049 -23.434229 16.874399 33.836421 0.925676 1.048692 0.094120 -0.034248 119674.000000 0 0 1
-16.312249 -23.597029 16.377599 33.032333 0.965944 1.052035 0.095742 -0.033164 -55521.600000 0 0 1
-15.589449 -22.283529 16.106499 31.607055 0.960342 1.036093 0.082275 -0.024302 -639220.000000 0 0 1
-16.050749 -21.452529 15.066799 30.738347 0.928449 1.058520 0.088894 -0.016679 -163416.000000 0 0 1
-17.168749 -20.673729 15.447699 30.996781 0.877755 1.049085 0.079143 -0.012430 -167014.000000 0 0 1
-16.914149 -19.407229 16.350999 30.497281 0.853930 1.004931 0.078605 -0.023859 -596484.000000 0 0 1
-16.244649 -18.429929 15.609199 29.106666 0.848337 1.004778 0.065252 -0.022220 -66370.000000 0 0 1
-16.128449 -17.215529 16.325799 28.688552 0.817989 0.965422 0.061498 -0.021940 -138982.000000 0 0 1
-15.450349 -16.040129 15.590299 27.185593 0.804125 0.960053 0.059268 -0.015935 70131.000000 0 0 1
-16.227249 -15.389129 14.598799 26.707187 0.758895 0.992469 0.053631 -0.016453 97138.700000 0 0 1
-16.200349 -16.048829 13.349499 26.423954 0.780700 1.041177 0.079459 -0.023380 -309488.000000 0 0 1
-16.962149 -15.313129 12.211699 25.910076 0.734350 1.080020 0.063145 -0.016488 600629.000000 0 0 1
-18.357749 -15.529929 12.487599 27.094756 0.702144 1.091803 0.053295 -0.011321 413973.000000 0 0 1
-19.089149 -14.561929 11.783399 26.744979 0.651667 1.114548 0.077189 -0.018823 708193.000000 0 0 1
-20.666949 -14.720329 11.787399 27.977735 0.618910 1.135903 0.086516 -0.022976 1266530.000000 0 0 1
-21.205949 -15.856329 11.133399 28.723997 0.642047 1.172771 0.098831 -0.035419 46219.800000 0 0 1
-21.111549 -15.812229 9.755799 28.122939 0.642851 1.216534 0.109077 -0.030618 -509755.000000 0 0 1
-21.884649 -16.945629 9.052299 29.121063 0.658882 1.254709 0.105535 -0.020105 -5941.130000 0 0 1
-21.401649 -18.208029 9.361299 29.617509 0.704945 1.249209 0.113469 -0.007607 -263056.000000 0 0 1
-22.045149 -19.176629 8.576299 30.451348 0.715923 1.285294 0.125442 -0.031823 42919.500000 0 0 1
-21.478749 -20.608229 8.753699 31.026811 0.764717 1.284779 0.132578 -0.029493 1183990.000000 0 0 1
-20.177949 -20.787729 8.160099 30.097617 0.800282 1.296239 0.157909 -0.026915 592219.000000 0 0 1
-19.713449 -22.133729 8.184999 30.749248 0.843170 1.301363 0.142997 -0.027393 128572.000000 0 0 1
-18.361949 -22.440129 7.507099 29.951245 0.885018 1.317451 0.122825 -0.024549 778577.000000 0 0 1
-17.278049 -21.703329 8.126899 28.906954 0.898437 1.285815 0.094654 -0.027961 172727.000000 0 0 1
-16.052949 -22.106129 7.604799 28.358616 0.942717 1.299308 0.118302 -0.019517 415822.000000 0 0 1
-14.709849 -21.534829 8.245299 27.351663 0.971522 1.264578 0.023016 -0.012109 1267160.000000 0 0 1
-13.645249 -22.031529 7.425699 26.957784 1.016270 1.291732 0.051809 -0.008778 -19839.000000 0 0 1
-12.399949 -21.636829 7.979199 26.183558 1.050395 1.261130 0.046257 -0.004293 627930.000000 0 0 1
-11.195449 -22.355229 7.291999 26.043571 1.106511 1.287010 0.055719 -0.006956 385842.000000 0 0 1
-11.087549 -23.744929 7.552899 27.272728 1.133942 1.290189 0.057859 -0.006714 -144204.000000 0 0 1
-9.776749 -24.196829 7.257199 27.087604 1.186803 1.299567 0.085044 -0.014003 392062.000000 0 0 1
-9.774749 -25.773639 7.155899 28.478642 1.208302 1.316802 0.096483 -0.017994 181130.000000 0 0 1
-10.365749 -26.289119 5.969199 28.882484 1.195215 1.362624 0.099715 -0.024265 -162579.000000 0 0 1
-10.390749 -27.723379 6.014499 30.211382 1.212200 1.370377 0.124944 -0.023100 282939.000000 0 0 1
-9.290749 -28.471349 5.146699 30.387896 1.255372 1.400609 0.135602 -0.030834 419315.000000 0 0 1
-8.013749 -28.038589 5.570399 29.688584 1.292407 1.382050 0.142990 -0.032757 446608.000000 0 0 1
-6.861749 -28.857529 5.304399 30.132660 1.337351 1.393839 0.161348 -0.025376 938042.000000 0 0 1
-6.857749 -30.311099 5.966499 31.644756 1.348297 1.381115 0.176303 -0.037882 -564357.000000 0 0 1
-6.828749 -30.164859 7.364199 31.792797 1.348168 1.337042 0.173419 -0.033582 150257.000000 0 0 1
-6.976749 -31.414399 7.952699 33.147925 1.352256 1.328518 0.209004 -0.041079 27984.300000 0 0 1
-7.292749 -31.414889 9.458499 33.608669 1.342693 1.285512 0.170318 -0.045039 37876.600000 0 0 1
-6.201749 -30.931649 10.205199 33.156820 1.372921 1.257931 0.150677 -0.036802 262569.000000 0 0 1
-6.477749 -31.274829 11.529099 33.955799 1.366561 1.224376 0.131126 -0.029987 -222224.000000 0 0 1
-5.796749 -30.466789 12.620899 33.483050 1.382779 1.184312 0.112215 -0.019714 -153278.000000 0 0 1
-6.142749 -29.077579 12.620599 32.288055 1.362604 1.169214 0.102607 -0.014437 -127453.000000 0 0 1
-5.404749 -28.361359 13.575799 31.904237 1.382487 1.131263 0.088999 -0.018738 -136918.000000 0 0 1
-6.147749 -27.791339 14.832599 32.096095 1.353091 1.090400 0.099384 -0.019047 114179.000000 0 0 1
-6.805749 -28.608889 15.773499 33.370496 1.337248 1.078469 0.086337 -0.019967 575977.000000 0 0 1
-5.893749 -29.435469 16.491599 34.251364 1.373183 1.068445 0.069060 -0.025929 457216.000000 0 0 1
-6.685749 -30.674729 16.984499 35.694698 1.356196 1.074892 0.076777 -0.025993 327401.000000 0 0 1
-7.201749 -31.319829 15.818699 35.819382 1.344783 1.113388 0.087274 -0.027152 172931.000000 0 0 1
-7.554749 -32.695539 15.851899 37.112736 1.343718 1.129482 0.088552 -0.033576 325791.000000 0 0 1
-6.378749 -33.645199 15.432399 37.561241 1.383431 1.147400 0.079145 -0.037376 391961.000000 0 0 1
-5.837749 -33.496719 14.121599 36.817510 1.398251 1.177152 0.102280 -0.044792 -28864.300000 0 0 1
-4.745749 33.355081 14.012799 36.488932 -1.429465 1.176641 0.112842 -0.051518 -215937.000000 0 0 1
-3.867749 33.694843 12.771199 36.240936 -1.456509 1.210665 0.121540 -0.054719 -159724.000000 0 0 1
-4.404749 33.426341 11.495499 35.621182 -1.439776 1.242199 0.141503 -0.050774 273502.000000 0 0 1
-3.445749 -33.822889 10.581099 35.606469 1.469270 1.269071 0.150890 -0.047929 -337245.000000 0 0 1
-3.983749 -33.777499 9.137099 35.217556 1.453398 1.308346 0.160316 -0.048826 -693750.000000 0 0 1
-4.279749 32.747857 8.388699 34.075045 -1.440845 1.322056 0.172197 -0.063820 1525080.000000 0 0 1
-5.340749 31.872728 8.922799 33.526270 -1.404774 1.301406 0.179112 -0.058785 1148240.000000 0 0 1
-6.717749 32.434863 9.336399 34.413905 -1.366569 1.296056 0.188086 -0.054477 -356403.000000 0 0 1
-7.569749 32.838681 8.294199 34.705530 -1.344241 1.329473 0.181776 -0.049556 276819.000000 0 0 1
-8.914749 33.041527 8.759099 35.326153 -1.307267 1.320233 0.149636 -0.049448 911213.000000 0 0 1
-9.933749 33.178862 7.603499 35.458842 -1.279890 1.354686 0.154948 -0.058603 -76763.700000 0 0 1
-9.983749 -33.293539 7.007499 35.457581 1.279458 1.371856 0.167266 -0.051783 -261994.000000 0 0 1
-10.814149 -33.401879 5.906699 35.602253 1.257688 1.404118 0.151214 -0.039761 -351171.000000 0 0 1
-11.263249 -32.080019 5.315599 34.412846 1.233143 1.415710 0.141221 -0.049294 87560.800000 0 0 1
-12.054649 -31.259699 6.147199 34.062757 1.202740 1.389335 0.139784 -0.050188 -541386.000000 0 0 1
-12.802349 -30.414399 5.375099 33.433927 1.172378 1.409328 0.128583 -0.047102 -1160120.000000 0 0 1
-13.832149 -29.679439 6.180399 33.322587 1.134674 1.384244 0.117192 -0.042487 -217789.000000 0 0 1
-14.911849 -30.562929 6.595099 34.640312 1.116870 1.379239 0.127661 -0.040290 1017610.000000 0 0 1
-15.873049 -29.798049 7.333499 34.549351 1.081342 1.356908 0.114338 -0.039976 307200.000000 0 0 1
34.805058 -12.186429 -12.483701 38.932556 -0.336794 1.897211 0.102113 -0.029182 -433752.000000 0 0 1
33.869938 -12.144229 -11.434201 37.754416 -0.344276 1.878486 0.113990 -0.034974 219642.000000 0 0 1
33.315898 -13.477629 -11.263501 37.662475 -0.384414 1.874508 0.123949 -0.030134 198173.000000 0 0 1
34.130488 -14.359429 -10.255101 38.422006 -0.398241 1.840978 0.116141 -0.024877 -86970.100000 0 0 1
35.364508 -14.718829 -10.833801 39.807833 -0.394396 1.846426 0.109411 -0.027422 -340636.000000 0 0 1
36.142758 -15.278129 -9.783401 40.440513 -0.399935 1.815141 0.099579 -0.019391 -1059850.000000 0 0 1
37.598448 -15.450629 -10.086901 41.882106 -0.389900 1.814028 0.072380 -0.023577 -1017670.000000 0 0 1
-37.050206 -14.321129 -10.411601 41.063535 0.368843 1.827143 0.085700 -0.026167 145215.000000 0 0 1
-35.745664 -14.687729 -10.810801 40.129232 0.389864 1.843566 0.079716 -0.034227 388137.000000 0 0 1
-34.858405 -13.447329 -11.201201 39.005204 0.368179 1.862069 0.112990 -0.039141 145445.000000 0 0 1
-34.545899 -12.605729 -10.149901 38.148971 0.349885 1.840099 0.128237 -0.037601 -112833.000000 0 0 1
-33.933106 -11.480729 -10.640801 37.369633 0.326245 1.859536 0.148154 -0.034133 -398865.000000 0 0 1
-34.311008 -10.128829 -9.945001 37.131408 0.287053 1.841939 0.167634 -0.035064 -196499.000000 0 0 1
-33.605996 -9.918629 -8.747001 36.114432 0.286996 1.815431 0.174795 -0.032393 242040.000000 0 0 1
-34.059814 -8.774929 -8.055801 36.082769 0.252150 1.795953 0.220205 -0.053497 -45180.300000 0 0 1
-33.454306 -8.607029 -6.634401 35.175088 0.251816 1.760544 0.201860 -0.051259 -1455210.000000 0 0 1
-32.107366 -8.318229 -6.630201 33.823593 0.253502 1.768097 0.207955 -0.053575 -912078.000000 0 0 1
-31.619996 -8.053529 -5.322401 33.060723 0.249395 1.732489 0.222282 -0.043404 -260780.000000 0 0 1
-31.280856 -9.300729 -4.478601 32.940148 0.289005 1.707181 0.213061 -0.041358 -169947.000000 0 0 1
-32.431276 -10.042429 -4.064301 34.192931 0.300289 1.689942 0.204182 -0.037679 725956.000000 0 0 1
-32.218686 -10.570129 -2.752501 34.019812 0.317010 1.651794 0.212044 -0.041270 113409.000000 0 0 1
-33.047536 -11.865929 -2.585601 35.208312 0.344720 1.644300 0.219848 -0.046596 202231.000000 0 0 1
-34.444871 -11.667929 -2.551501 36.456821 0.326611 1.640841 0.229813 -0.057129 376280.000000 0 0 1
-35.147617 -12.907129 -2.601801 37.532896 0.351938 1.640173 0.234440 -0.057994 -17943.900000 0 0 1
-36.682246 -12.835329 -2.474001 38.941668 0.336591 1.634370 0.225433 -0.050076 -224876.000000 0 0 1
-37.138966 -12.322929 -1.251801 39.150024 0.320375 1.602776 0.251740 -0.059187 648696.000000 0 0 1
36.917148 -12.710129 -1.137501 39.060429 -0.331577 1.599922 0.268086 -0.058898 557052.000000 0 0 1
36.159628 -11.963229 -0.041201 38.087258 -0.319509 1.571878 0.261879 -0.071540 153093.000000 0 0 1
36.664638 -12.382729 1.244999 38.719216 -0.325702 1.538636 0.269337 -0.058325 470588.000000 0 0 1
35.932928 -11.711429 2.261499 37.860894 -0.315068 1.511029 0.271333 -0.050505 184472.000000 0 0 1
36.417268 -12.023129 3.664299 38.525318 -0.318882 1.475538 0.240924 -0.057135 474390.000000 0 0 1
35.394118 -11.812729 4.640199 37.600739 -0.322124 1.447074 0.206761 -0.058449 491355.000000 0 0 1
35.867408 -12.313829 5.884699 38.376178 -0.330707 1.416846 0.195469 -0.051714 196426.000000 0 0 1
34.802228 -12.126329 6.966299 37.506963 -0.335280 1.383978 0.164211 -0.053631 -39408.700000 0 0 1
34.629868 -10.754329 7.258099 36.980581 -0.301108 1.373246 0.162648 -0.046280 -3788.560000 0 0 1
33.971218 -10.628129 8.514099 36.599053 -0.303210 1.336014 0.131463 -0.032492 -190154.000000 0 0 1
33.218458 -9.296529 8.826899 35.606257 -0.272879 1.320281 0.135637 -0.054494 -52898.500000 0 0 1
31.896718 -9.391729 8.330599 34.278332 -0.286350 1.325310 0.154712 -0.047074 -10125.900000 0 0 1
31.028128 -8.439529 8.945599 33.376551 -0.265571 1.299459 0.164971 -0.030442 -420506.000000 0 0 1
29.583498 -8.848729 8.669499 32.072474 -0.290640 1.297082 0.155458 -0.015493 -569008.000000 0 0 1
29.125498 -8.294729 7.431999 31.182235 -0.277447 1.330139 0.171019 -0.020404 186482.000000 0 0 1
28.220598 -9.140429 6.737799 30.419526 -0.313230 1.347448 0.187470 -0.027754 462387.000000 0 0 1
27.230798 -8.428629 5.732199 29.076043 -0.300173 1.372351 0.191873 -0.030094 1210370.000000 0 0 1
26.125998 -7.736029 6.383699 27.985095 -0.287879 1.340660 0.195317 -0.026022 1042730.000000 0 0 1
25.190798 -7.113829 5.536899 26.755189 -0.275231 1.362343 0.209193 -0.036475 -227279.000000 0 0 1
25.580098 -5.784129 4.845799 26.669821 -0.222379 1.388085 0.209941 -0.039481 -348289.000000 0 0 1
26.256598 -6.048329 3.596399 27.183181 -0.226405 1.438105 0.190055 -0.038626 511034.000000 0 0 1
26.737698 -4.847229 3.001399 27.338773 -0.179340 1.460789 0.204545 -0.041980 277528.000000 0 0 1
27.388498 -4.956229 1.618899 27.880367 -0.179023 1.512698 0.212391 -0.052196 576652.000000 0 0 1
26.408798 -5.319629 0.647899 26.947038 -0.198774 1.546751 0.194129 -0.047564 397215.000000 0 0 1
27.062898 -5.339429 -0.608101 27.591298 -0.194795 1.592838 0.202118 -0.052833 249381.000000 0 0 1
26.170498 -5.670829 -1.885201 26.844129 -0.213389 1.641082 0.173121 -0.036687 223245.000000 0 0 1
25.327398 -4.547029 -2.072601 25.815659 -0.177638 1.651167 0.218885 -0.033865 -42909.200000 0 0 1
24.692498 -4.570729 -3.386801 25.339326 -0.183034 1.704855 0.220387 -0.036248 99425.200000 0 0 1
23.454198 -3.643529 -3.340201 23.969390 -0.154115 1.710604 0.189397 -0.029819 -215156.000000 0 1 0
23.626198 -2.191129 -3.267301 23.951483 -0.092477 1.707636 0.181293 -0.032044 -167085.000000 0 1 0
24.230198 -1.514129 -4.340801 24.662474 -0.062408 1.747726 0.198648 -0.027701 -586828.000000 0 1 0
23.300198 -1.112329 -5.492301 23.964596 -0.047703 1.802036 0.214272 -0.020234 -257945.000000 0 1 0
22.613498 0.063771 -5.138401 23.190031 0.002820 1.794229 0.188266 -0.008495 110369.000000 0 1 0
21.949898 0.724171 -6.188501 22.817099 0.032980 1.845459 0.197132 -0.001841 -391394.000000 0 1 0
21.535298 2.163671 -5.752401 22.395103 0.100135 1.830568 0.179174 0.003383 -330684.000000 0 1 0
22.554498 3.127271 -5.611401 23.451504 0.137776 1.812417 0.206505 -0.010785 142837.000000 0 1 0
23.301598 2.944771 -4.409701 23.897314 0.125710 1.756387 0.225554 -0.007607 213505.000000 0 1 0
24.553798 3.838271 -4.270401 25.216218 0.155066 1.740968 0.247911 -0.025766 27918.600000 0 0 1
24.123298 5.152671 -4.066701 25.000432 0.210435 1.734188 0.212755 -0.007919 282758.000000 0 0 1
25.139798 6.102271 -3.852801 26.155138 0.238128 1.718640 0.205260 -0.015324 -236859.000000 0 0 1
24.600498 7.527771 -3.614101 25.979099 0.296953 1.710365 0.180479 -0.021485 -115034.000000 0 0 1
23.712098 7.645671 -2.534601 25.042845 0.311913 1.672181 0.196379 -0.031318 836012.000000 0 0 1
22.747998 8.704271 -2.678001 24.503213 0.365451 1.680307 0.172338 -0.026595 232428.000000 0 1 0
21.717498 8.828171 -1.552401 23.494601 0.386098 1.636919 0.138154 -0.027217 -401985.000000 0 1 0
22.283998 9.350271 -0.373001 24.169056 0.397284 1.586230 0.106435 -0.028453 927176.000000 0 1 0
21.319698 10.009671 0.476799 23.557385 0.438954 1.550555 0.066814 -0.017839 274472.000000 0 1 0
21.965898 10.538271 1.772999 24.427431 0.447322 1.498150 0.090726 -0.017598 -581734.000000 0 1 0
22.732298 11.710471 1.657099 25.624958 0.475692 1.506084 0.094772 -0.024523 500512.000000 0 0 1
22.041098 12.952471 1.431899 25.605211 0.531290 1.514845 0.102211 -0.022319 -731909.000000 0 0 1
21.099698 13.461971 2.485399 25.151523 0.567905 1.471818 0.091499 -0.014750 475719.000000 0 0 1
19.754898 12.913671 2.365599 23.719506 0.578968 1.470898 0.114652 -0.011959 1914600.000000 0 1 0
18.747298 13.617571 3.122899 23.380589 0.628209 1.436828 0.103438 -0.013959 353752.000000 0 1 0
18.783798 13.521871 4.669999 23.611035 0.623937 1.371695 0.089313 -0.010159 -521203.000000 0 1 0
18.377598 12.303171 5.219799 22.723346 0.589938 1.339016 0.066848 -0.001477 353735.000000 0 1 0
18.500098 12.302771 6.611899 23.180358 0.586856 1.281542 0.074655 -0.009980 -20501.400000 0 1 0
18.291498 10.923571 7.294399 22.519138 0.538354 1.240926 0.019499 -0.006602 -129950.000000 0 1 0
19.379498 10.045971 7.086699 22.950115 0.478244 1.256879 0.014223 -0.014023 353325.000000 0 1 0
19.273698 8.775671 7.604899 22.501607 0.427268 1.226036 0.010029 -0.005016 -546196.000000 0 1 0
20.216598 7.754871 6.983499 22.751222 0.366280 1.258809 0.022476 -0.009235 -222803.000000 0 1 0
19.871998 7.589571 5.642099 22.007526 0.364826 1.311530 0.008774 -0.020235 861838.000000 0 1 0
20.710098 6.636771 5.003599 22.315710 0.310121 1.344655 0.031530 -0.027547 -71584.400000 0 1 0
20.333398 6.676571 3.505199 21.686634 0.317263 1.408455 0.046035 -0.013211 -182702.000000 0 1 0
21.124798 5.840471 2.668299 22.079131 0.269737 1.449649 0.044236 -0.023767 320305.000000 0 1 0
21.010998 6.108571 1.320799 21.920794 0.282933 1.510507 0.057269 -0.001878 -902627.000000 0 1 0
22.106998 5.467471 0.510899 22.778798 0.242453 1.548366 0.148793 -0.012784 -525467.000000 0 1 0
21.935398 4.079371 0.368899 22.314548 0.183871 1.554264 0.120301 -0.021822 460912.000000 0 1 0
22.886098 3.517971 -0.534101 23.161064 0.152523 1.593859 0.157264 -0.032744 242227.000000 0 1 0
23.130598 2.007171 -0.594401 23.225129 0.086559 1.596392 0.202010 -0.030333 748225.000000 0 1 0
21.960698 1.314571 -1.096101 22.027297 0.059789 1.620578 0.123528 -0.020561 1419360.000000 0 1 0
22.283198 0.025071 -1.577201 22.338959 0.001125 1.641458 0.168120 -0.026584 -1343200.000000 0 1 0
22.322498 -1.167829 -0.566901 22.360213 -0.052269 1.596152 0.188653 -0.022434 357677.000000 0 1 0
23.301998 -1.071329 0.466999 23.331287 -0.045943 1.550779 0.198016 -0.031049 98180.700000 0 1 0
24.632098 -1.233029 0.086699 24.663093 -0.050016 1.567281 0.220045 -0.043747 -726646.000000 0 1 0
25.690898 -0.975629 1.193399 25.737100 -0.037957 1.524411 0.238906 -0.042216 88880.800000 0 0 1
25.817798 0.411471 1.458999 25.862264 0.015936 1.514352 0.237267 -0.038687 148392.000000 0 0 1
26.665498 0.636071 2.562999 26.795939 0.023849 1.475001 0.248864 -0.043545 -455383.000000 0 0 1
26.613898 2.066971 3.133399 26.877316 0.077510 1.453949 0.227643 -0.040744 312210.000000 0 0 1
27.370498 3.074671 2.429199 27.649571 0.111866 1.482826 0.261222 -0.039416 379991.000000 0 0 1
28.754698 2.894671 2.207799 28.984240 0.100330 1.494550 0.266170 -0.039014 21545.600000 0 0 1
29.296198 3.858871 1.131599 29.570908 0.130965 1.532520 0.301517 -0.046780 -192634.000000 0 0 1
28.819298 3.438971 -0.171901 29.024266 0.118767 1.576719 0.339047 -0.036501 36497.200000 0 0 1
29.353098 4.109971 -1.313701 29.668536 0.139114 1.615090 0.325105 -0.035611 259495.000000 0 0 1
30.774348 3.594071 -1.715301 31.030954 0.116261 1.626102 0.279898 -0.034071 440915.000000 0 0 1
31.728408 4.034871 -0.763701 31.993051 0.126490 1.594669 0.228288 -0.032357 -747138.000000 0 0 1
33.044778 3.724471 -1.110001 33.272528 0.112236 1.604163 0.194251 -0.033712 807069.000000 0 0 1
34.146058 4.415771 -0.148601 34.430719 0.128606 1.575112 0.135897 -0.021100 1067680.000000 0 0 1
34.383258 3.813771 1.128599 34.612527 0.110468 1.538184 0.166180 -0.028889 -439940.000000 0 0 1
33.459858 4.278371 2.037799 33.793774 0.127176 1.510459 0.173115 -0.021033 -486836.000000 0 0 1
33.339178 3.399571 3.292899 33.673447 0.101618 1.472851 0.183065 -0.032308 -213767.000000 0 0 1
32.619698 2.192771 3.037899 32.834156 0.067121 1.478141 0.209858 -0.035917 136033.000000 0 0 1
32.663598 1.364271 4.192799 32.959846 0.041743 1.443241 0.193550 -0.038062 219959.000000 0 0 1
33.847368 0.362971 4.231899 34.112828 0.010723 1.446420 0.183990 -0.025331 -865250.000000 0 0 1
35.095328 0.912371 4.317899 35.371722 0.025991 1.448419 0.175989 -0.039706 -1487250.000000 0 0 1
36.051508 -0.053229 4.060299 36.279472 -0.001476 1.458644 0.156656 -0.044000 -7131.010000 0 0 1
37.549468 0.373171 4.134099 37.778203 0.009938 1.461146 0.182935 -0.054407 491592.000000 0 0 1
-37.436856 1.063371 2.988099 37.570968 -0.028397 1.491180 0.157511 -0.046095 168074.000000 0 0 1
-36.231266 0.428971 2.561999 36.324268 -0.011839 1.500206 0.165613 -0.043439 248279.000000 0 0 1
-35.571114 1.145571 1.360499 35.615550 -0.032194 1.532587 0.175083 -0.045050 -74491.400000 0 0 1
-34.846905 2.271271 1.832399 34.968888 -0.065086 1.518371 0.168199 -0.066279 -125610.000000 0 0 1
-33.989386 2.786971 0.846199 34.113950 -0.081812 1.545989 0.189445 -0.044031 -396455.000000 0 0 1
-33.070956 3.909771 1.382399 33.329948 -0.117677 1.529308 0.222341 -0.045192 -110008.000000 0 0 1
-32.202616 3.247371 2.305699 32.447960 -0.100502 1.499678 0.232505 -0.059665 216938.000000 0 0 1
-31.323876 4.233971 2.890399 31.740606 -0.134353 1.479607 0.250141 -0.042704 -344037.000000 0 0 1
-31.535126 4.529671 4.424499 32.164550 -0.142663 1.432801 0.259328 -0.041223 562369.000000 0 0 1
-32.730046 5.248971 4.863299 33.503123 -0.159018 1.425122 0.253667 -0.026074 2258700.000000 0 0 1
-33.901356 4.345271 4.859299 34.522400 -0.127479 1.429569 0.236908 -0.031050 837201.000000 0 0 1
-34.144709 3.347771 6.030899 34.834472 -0.097734 1.396789 0.202741 -0.030061 -788729.000000 0 0 1
-34.479586 4.047171 7.235699 35.462329 -0.116844 1.365314 0.212136 -0.037278 356140.000000 0 0 1
-34.814748 3.273671 8.363399 35.954555 -0.093755 1.336036 0.181146 -0.032309 -796761.000000 0 0 1
-35.955950 2.299071 8.389699 36.993284 -0.063854 1.342016 0.169038 -0.036959 -1227420.000000 0 0 1
-35.791606 1.148471 7.549199 36.597109 -0.032077 1.363026 0.167834 -0.045240 -32290.400000 0 0 1
-36.720326 0.122071 7.795199 37.538811 -0.003324 1.361617 0.164415 -0.039420 -205559.000000 0 0 1
-36.476826 -0.680629 9.088999 37.598297 0.018657 1.326638 0.161418 -0.032451 -215294.000000 0 0 1
-35.294171 -1.455129 9.079199 36.472287 0.041205 1.319217 0.148958 -0.044494 59225.500000 0 0 1
-35.229583 -2.260529 10.255799 36.761595 0.064078 1.288063 0.133605 -0.027583 21409.500000 0 0 1
-33.945256 -3.123829 10.262599 35.599995 0.091767 1.278371 0.128560 -0.022069 -47897.400000 0 0 1
-33.848266 -4.137429 9.248599 35.332138 0.121631 1.305949 0.150530 -0.032482 426133.000000 0 0 1
-32.622226 -4.853929 9.391299 34.292371 0.147708 1.293392 0.169839 -0.026240 475783.000000 0 0 1
-32.616996 -6.099429 8.471499 34.246719 0.184866 1.320835 0.175590 -0.029158 434435.000000 0 0 1
-33.576946 -7.052829 8.929399 35.452614 0.207040 1.316186 0.185629 -0.035672 126778.000000 0 0 1
-33.858396 -7.957429 7.860899 35.658174 0.230832 1.348519 0.198097 -0.045971 93647.900000 0 0 1
-35.001770 -8.941029 8.197599 37.044116 0.250097 1.347656 0.199018 -0.054451 227448.000000 0 0 1
-36.229476 -8.312929 8.544699 38.140419 0.225548 1.344846 0.194121 -0.052813 152821.000000 0 0 1
-37.197166 -9.314629 8.726099 39.326025 0.245367 1.347043 0.197953 -0.059613 -253981.000000 0 0 1
7.913824 -23.902329 10.495099 27.278142 -1.251066 1.175866 0.162878 -0.041513 23115.800000 0 0 1
7.243024 -24.471729 9.392999 27.194767 -1.283036 1.218134 0.144570 -0.050178 -1214420.000000 0 0 1
5.978324 -24.889429 9.742199 27.388583 -1.335067 1.207130 0.142341 -0.048562 -681782.000000 0 0 1
5.478124 -25.899839 8.681599 27.860037 -1.362357 1.253904 0.114465 -0.034396 -243368.000000 0 0 1
5.149424 -25.233209 7.468599 26.814387 -1.369487 1.288534 0.112892 -0.034847 -202295.000000 0 0 1
4.882224 -26.214439 6.522399 27.451314 -1.386664 1.330903 0.091216 -0.028450 -322927.000000 0 0 1
4.239124 -25.900429 5.164599 26.748373 -1.408565 1.376495 0.077873 -0.019306 -685518.000000 0 0 1
2.878424 -25.660029 5.301099 26.359516 -1.459088 1.368308 0.054341 -0.023897 -920132.000000 0 0 1
2.119024 -26.656499 4.587599 27.131260 -1.491469 1.400891 0.046295 -0.017036 522982.000000 0 0 1
0.600724 -26.422539 4.849699 26.870635 -1.548065 1.389319 0.076264 -0.029411 245460.000000 0 0 1
0.140224 -26.567889 6.159699 27.272959 -1.565518 1.342977 0.066612 -0.023794 -802650.000000 0 0 1
-1.245676 -26.639569 6.307199 27.404363 1.524070 1.338561 0.075572 -0.023291 86087.500000 0 0 1
-1.855576 -28.096839 6.364999 28.868473 1.504850 1.348487 0.101659 -0.022773 -72552.600000 0 0 1
-1.374276 -28.772259 7.503099 29.766223 1.523069 1.315980 0.083215 -0.021748 130337.000000 0 0 1
-1.770776 -30.139869 7.533999 31.117656 1.512112 1.326253 0.131918 -0.026581 -86723.300000 0 0 1
-1.618776 -30.743819 8.951999 32.061521 1.518191 1.287822 0.123045 -0.033531 -152390.000000 0 0 1
-0.290576 -30.906219 9.369899 32.296653 1.561395 1.276444 0.110164 -0.025949 -298338.000000 0 0 1
-0.184476 -31.195209 10.743999 32.994069 1.564883 1.239114 0.118611 -0.022250 -1012920.000000 0 0 1
1.251224 -31.251449 11.185799 33.216573 -1.530780 1.227329 0.096105 -0.019827 -1058420.000000 0 0 1
1.853024 -32.504299 10.750599 34.286127 -1.513849 1.251861 0.103447 -0.024234 701941.000000 0 0 1
3.199824 -32.589899 11.249899 34.625144 -1.472925 1.239885 0.095680 -0.022199 707709.000000 0 0 1
3.405724 -33.012749 12.721799 35.542717 -1.467996 1.204746 0.106964 -0.018169 -450038.000000 0 0 1
3.139824 -32.059379 13.732599 35.017803 -1.473170 1.167817 0.120792 -0.027131 165794.000000 0 0 1
3.615724 -32.547189 14.996799 36.018009 -1.460158 1.141348 0.127099 -0.035901 -269786.000000 0 0 1
3.322824 -31.529399 16.186999 35.597234 -1.465796 1.098731 0.139270 -0.044243 310933.000000 0 0 1
3.970624 -30.256809 16.028799 34.469737 -1.440311 1.087150 0.151613 -0.042976 275457.000000 0 0 1
5.377324 -30.234929 16.108799 34.677946 -1.394785 1.087697 0.142176 -0.036135 -321640.000000 0 0 1
6.031824 -29.051149 15.395999 33.427368 -1.366077 1.092147 0.149295 -0.032222 -103638.000000 0 0 1
6.194924 -29.041859 13.919999 32.795930 -1.360636 1.132450 0.128968 -0.029266 -116048.000000 0 0 1
5.020124 -29.253489 13.158999 32.467330 -1.400844 1.153490 0.112056 -0.025452 -789097.000000 0 0 1
5.228724 -29.254939 11.634799 31.914880 -1.393934 1.197639 0.094775 -0.028955 -160360.000000 0 0 1
5.692724 -30.453609 11.076699 32.901712 -1.385998 1.227428 0.087551 -0.027235 366984.000000 0 0 1
7.104124 -30.506369 11.310499 33.302170 -1.342001 1.224270 0.087726 -0.030207 -451953.000000 0 0 1
7.646724 -31.851049 10.988099 34.549964 -1.335178 1.247140 0.064011 -0.022425 -615527.000000 0 0 1
7.388624 -32.892189 11.946099 35.765866 -1.349833 1.230243 0.059435 -0.031561 81034.700000 0 0 1
7.580224 33.580598 11.330099 36.242069 1.348785 1.252843 0.064828 -0.023020 -26622.300000 0 0 1
7.349024 32.376465 12.233999 35.382402 1.347592 1.217742 0.069272 -0.021665 598838.000000 0 0 1
5.988124 32.146494 12.601999 35.043760 1.386631 1.202949 0.074217 -0.020747 395640.000000 0 0 1
5.926724 30.846858 13.146499 34.051214 1.380976 1.174418 0.086810 -0.018591 334137.000000 0 0 1
4.645924 30.638268 13.972899 33.993088 1.420305 1.147189 0.098904 -0.032613 358398.000000 0 0 1
4.912724 31.065358 15.270799 34.962675 1.413954 1.118787 0.100781 -0.036765 261641.000000 0 0 1
3.721024 31.001588 16.027699 35.097459 1.451341 1.096556 0.131514 -0.045983 315498.000000 0 0 1
4.061124 31.386568 17.463699 36.146787 1.442121 1.066567 0.153412 -0.046699 47335.600000 0 0 1
4.473024 32.746471 17.613199 37.450822 1.435041 1.081163 0.165326 -0.049707 142484.000000 0 0 1
4.916724 33.006087 18.910899 38.356200 1.422920 1.055223 0.149441 -0.041919 -330853.000000 0 0 1
4.876424 -33.265699 19.362799 38.798250 -1.425243 1.048278 0.142896 -0.046082 613192.000000 0 0 1
3.580524 -32.744999 19.690899 38.376902 -1.461883 1.032013 0.141059 -0.043188 152275.000000 0 0 1
3.545324 -31.403429 20.122599 37.465500 -1.458376 1.003805 0.126398 -0.038985 140569.000000 0 0 1
2.112524 -30.899769 19.767399 36.742462 -1.502536 1.002735 0.146199 -0.040123 1128120.000000 0 0 1
1.006524 -31.683559 20.251899 37.616491 -1.539039 1.002285 0.168226 -0.040876 463474.000000 0 0 1
0.635524 -31.303159 21.571499 38.021326 -1.550497 0.967509 0.156615 -0.037989 -427912.000000 0 0 1
-0.336476 -32.257869 22.295199 39.214273 1.560366 0.966057 0.189482 -0.035180 -981192.000000 0 0 1
-1.588476 -32.301189 21.722399 38.958345 1.521659 0.979328 0.175525 -0.034916 -1153520.000000 0 0 1
-2.272876 -33.502859 21.869999 40.073737 1.503059 0.993520 0.163259 -0.027852 224629.000000 0 0 1
-3.580576 -33.388489 22.698799 40.532051 1.463965 0.976385 0.171353 -0.028228 404337.000000 0 0 1
-4.622776 -32.668949 22.068299 39.694333 1.430226 0.981284 0.152054 -0.029193 627642.000000 0 0 1
-5.852676 -32.712379 22.829999 40.318264 1.393756 0.968854 0.134715 -0.037657 425728.000000 0 0 1
-7.013676 -32.000259 22.152199 39.546531 1.355033 0.976223 0.088613 -0.020011 -413269.000000 0 0 1
-7.443976 -32.744209 21.021099 39.616696 1.347258 1.011474 0.079532 -0.018941 -225555.000000 0 0 1
-8.396676 -32.106229 20.211399 38.856335 1.314998 1.023761 0.080141 -0.026194 254562.000000 0 0 1
-9.540276 -33.106589 19.802599 39.739225 1.290229 1.049144 0.073452 -0.023974 400265.000000 0 0 1
-10.252976 -33.505859 20.977599 40.839022 1.273839 1.031345 0.071750 -0.021847 -1010860.000000 0 0 1
-11.533876 33.863378 20.593199 41.277579 -1.242520 1.048472 0.065867 -0.019520 113814.000000 0 0 1
-12.469676 33.457535 21.833699 41.852239 -1.214042 1.021971 0.062149 -0.010459 575358.000000 0 0 1
-12.937976 -33.268309 22.742099 42.324634 1.199897 1.003534 0.070307 -0.012271 585402.000000 0 0 1
-11.875976 -32.549099 23.387199 41.802437 1.220942 0.977050 0.063983 -0.009364 -54943.300000 0 0 1
-12.224776 -31.240689 24.029399 41.265455 1.197804 0.949226 0.062533 -0.016751 -282605.000000 0 0 1
-12.907976 -31.255119 25.254299 42.205188 1.179144 0.929332 0.062789 -0.008017 52209.000000 0 0 1
-13.344076 -29.940789 25.550699 41.561441 1.151539 0.908703 0.088527 -0.015626 -196512.000000 0 0 1
-14.125376 -29.844839 26.861699 42.565144 1.128741 0.887861 0.081622 -0.013577 3136.580000 0 0 1
-13.325876 -29.994089 28.030599 43.161775 1.152706 0.863960 0.057840 -0.010213 173995.000000 0 0 1
-14.141376 -30.028529 29.157199 44.179558 1.130673 0.850017 0.071795 -0.009038 -21566.300000 0 0 1
-13.385276 -29.523039 30.429599 44.460499 1.145132 0.816990 0.054154 -0.010898 -96851.600000 0 0 1
-14.274276 -29.276229 31.497699 45.309575 1.117140 0.802145 0.065877 -0.010443 -162373.000000 0 0 1
-13.771676 -28.830249 32.700299 45.718179 1.125162 0.773803 0.061755 -0.009428 -569631.000000 0 0 1
-13.019276 -29.788279 33.643299 46.783701 1.158755 0.768255 0.062725 -0.009452 -163684.000000 0 0 1
-11.648176 -29.885799 33.345699 46.268527 1.199152 0.765986 0.047598 -0.010568 -355373.000000 0 0 1
-11.094976 -30.926579 -33.555617 46.963083 1.226346 2.366721 0.042722 -0.006848 -22031.300000 0 0 1
-9.582576 -31.213939 -33.695317 46.920253 1.272933 2.371922 0.059270 -0.014675 662076.000000 0 0 1
-8.759976 -30.327199 -32.889317 45.587096 1.289601 2.376706 0.095603 -0.025298 436102.000000 0 0 1
-7.400976 -30.714429 -32.784817 45.530153 1.334343 2.374697 0.105654 -0.034535 131460.000000 0 0 1
-6.609876 -29.777399 -31.884917 44.125184 1.352362 2.378354 0.138749 -0.037339 -227279.000000 0 0 1
-7.066176 -29.924689 -30.529917 43.330055 1.338912 2.352641 0.141236 -0.042563 235044.000000 0 0 1
-6.359076 -29.084139 -29.638817 42.009338 1.355540 2.353966 0.149860 -0.045013 82889.000000 0 0 1
-7.018776 -29.154319 -28.242117 41.192896 1.334546 2.326233 0.151894 -0.043189 114262.000000 0 0 1
-6.878876 -30.433569 -27.625117 41.673350 1.348502 2.295477 0.131094 -0.046108 -260641.000000 0 0 1
-7.645576 -30.669359 -26.474317 41.230497 1.326486 2.268038 0.132525 -0.045419 -174758.000000 0 0 1
-7.297676 -31.979359 -25.756217 41.705134 1.346439 2.236457 0.112236 -0.051490 -609832.000000 0 0 1
-6.093876 -31.896029 -25.086517 41.034441 1.382017 2.228565 0.081418 -0.047289 -838009.000000 0 0 1
-5.614276 -33.115579 -24.501117 41.574829 1.402857 2.201020 0.076647 -0.051730 188757.000000 0 0 1
-4.473476 -32.900989 -23.480117 40.666976 1.435657 2.186307 0.095568 -0.057103 -46606.800000 0 0 1
-4.799276 -32.262619 -22.261617 39.490369 1.423123 2.169682 0.101783 -0.053045 -168365.000000 0 0 1
-5.057576 -30.904949 -22.361117 38.480053 1.408585 2.190887 0.082947 -0.032861 -339940.000000 0 0 1
-5.395876 -30.263199 -20.956517 37.204197 1.394352 2.169151 0.124353 -0.040179 -714899.000000 0 0 1
-6.721976 -30.452959 -20.529417 37.336639 1.353547 2.152977 0.127168 -0.045334 -83811.400000 0 0 1
-7.415076 -29.243339 -20.280817 36.351998 1.322466 2.162651 0.135725 -0.037654 84924.800000 0 0 1
-7.917276 -28.473199 -21.503217 36.548525 1.299587 2.199809 0.181916 -0.053280 67905.700000 0 0 1
-6.841176 -27.779859 -22.200417 36.212992 1.329337 2.230713 0.196360 -0.036489 594599.000000 0 0 1
-7.151876 -27.511519 -23.515817 36.892095 1.316466 2.261944 0.247120 -0.052382 -218724.000000 0 0 1
-5.838276 -27.413519 -24.353717 37.130715 1.360961 2.286159 0.231742 -0.051421 1004550.000000 0 0 1
-4.935976 -26.304929 -24.141817 36.043591 1.385309 2.304729 0.240873 -0.054810 547831.000000 0 0 1
-4.317976 -26.236089 -22.889917 35.084549 1.407677 2.281572 0.166684 -0.040759 -1661770.000000 0 0 1
-2.900876 -26.799859 -22.693317 35.236830 1.462974 2.270541 0.136882 -0.034819 -262662.000000 0 0 1
-1.853476 -25.978699 -23.127817 34.831367 1.499571 2.296944 0.131642 -0.042135 71982.100000 0 0 1
-1.494376 -24.939629 -22.220417 33.435986 1.510948 2.297709 0.140383 -0.049399 -869119.000000 0 0 1
-0.958676 -23.659129 -22.925017 32.958001 1.530298 2.340027 0.168809 -0.044427 -66165.900000 0 0 1
-1.839776 -22.973229 -23.795717 33.126880 1.490883 2.372182 0.267752 -0.051287 514720.000000 0 0 1
-2.958176 -22.314429 -23.145717 32.286356 1.438997 2.370125 0.274039 -0.059856 -80396.300000 0 0 1
-3.968276 -21.752429 -24.086817 32.696944 1.390352 2.398927 0.273519 -0.067758 -1022220.000000 0 0 1
-3.435276 -20.788029 -24.950517 32.656876 1.407024 2.440318 0.263033 -0.050560 -178768.000000 0 0 1
-4.179576 -20.402929 -26.097817 33.389286 1.368740 2.468059 0.333957 -0.055308 -176609.000000 0 0 1
-4.472076 -21.493529 -27.199017 34.953652 1.365657 2.462504 0.275194 -0.037412 -13892.000000 0 0 1
-5.265076 -21.013929 -28.254117 35.603390 1.325298 2.487466 0.282671 -0.039306 -123812.000000 0 0 1
-5.381776 -21.972529 -29.253117 36.979730 1.330593 2.483333 0.290104 -0.026204 -738602.000000 0 0 1
-6.293676 -21.582729 -30.351417 37.770796 1.287057 2.504063 0.279698 -0.036359 -797871.000000 0 0 1
-5.963276 -20.564529 -31.302117 37.924702 1.288559 2.541663 0.265392 -0.043282 -469117.000000 0 0 1
-6.720476 -20.764829 -32.468717 39.122379 1.257789 2.549773 0.245814 -0.038866 -189039.000000 0 0 1
-6.433876 -19.895729 -33.723517 39.680101 1.258031 2.586563 0.205940 -0.034899 -21437.000000 0 0 1
-5.292776 -20.285529 33.191899 39.258354 1.315572 0.563345 0.202984 -0.030849 -300290.000000 0 0 1
-5.192976 -19.607129 31.978999 37.869023 1.311889 0.565234 0.196209 -0.028569 381117.000000 0 0 1
-3.881676 -19.954329 31.220599 37.255449 1.378668 0.577162 0.137056 -0.027989 -594942.000000 0 0 1
-3.733376 -21.302729 30.870299 37.692436 1.397305 0.611121 0.176397 -0.030814 1867140.000000 0 0 1
-2.492276 -21.647929 30.122199 37.177831 1.456173 0.626270 0.146791 -0.025322 2040860.000000 0 0 1
-1.109276 -21.362829 30.734599 37.446182 1.518917 0.608044 0.102585 -0.028676 -904862.000000 0 0 1
-0.597876 -20.116429 30.428799 36.482050 1.541084 0.584341 0.093389 -0.037584 514892.000000 0 0 1
0.547924 -19.670029 31.181799 36.871600 -1.542948 0.562947 0.092382 -0.037186 511462.000000 0 0 1
0.217324 -19.230129 32.617099 37.864498 -1.559496 0.532745 0.089159 -0.032252 -186686.000000 0 0 1
-0.754576 -18.188229 32.696799 37.422743 1.529333 0.508009 0.088250 -0.025554 193212.000000 0 0 1
-1.038676 -17.754629 -33.576017 37.995455 1.512361 2.654474 0.096615 -0.032918 -839649.000000 0 0 1
-2.368376 -17.095629 -33.337317 37.539931 1.433136 2.663881 0.107637 -0.037490 -774792.000000 0 0 1
-2.470076 -15.781729 33.758799 37.347299 1.415541 0.441959 0.131177 -0.033965 126559.000000 0 0 1
-3.565576 -15.107229 -33.274317 36.716779 1.339020 2.705107 0.153326 -0.047606 195264.000000 0 0 1
-3.571376 -13.556429 -33.367217 36.192577 1.313204 2.743844 0.138511 -0.051563 198983.000000 0 0 1
-2.563476 -12.980129 -32.519417 35.107943 1.375813 2.755187 0.124511 -0.044478 336653.000000 0 0 1
-2.459876 -11.554729 -32.492917 34.573869 1.361039 2.792874 0.121786 -0.047726 -46016.300000 0 0 1
-1.732276 -10.947729 -33.729017 35.503523 1.413866 2.824093 0.126992 -0.047375 238103.000000 0 0 1
-2.617776 -11.041729 32.779499 34.688155 1.338014 0.333273 0.123507 -0.044361 433861.000000 0 0 1
-2.153176 -10.458729 31.535299 33.294088 1.367760 0.326489 0.121050 -0.032548 141215.000000 0 0 1
-1.065076 -11.382329 30.904999 32.951643 1.477495 0.354300 0.117916 -0.044300 372567.000000 0 0 1
-1.614376 -12.483729 30.188499 32.707723 1.442192 0.395049 0.124368 -0.039817 -284738.000000 0 0 1
-0.718176 -13.508029 30.339699 33.218669 1.517680 0.419402 0.113988 -0.046835 -544986.000000 0 0 1
-1.372376 -14.951429 30.498899 33.994286 1.479264 0.457460 0.093614 -0.037228 39517.200000 0 0 1
-1.682476 -15.755629 29.374799 33.375880 1.464414 0.494680 0.122874 -0.042084 171170.000000 0 0 1
-2.047276 -16.993429 29.847499 34.406993 1.450900 0.520675 0.129183 -0.036879 -270619.000000 0 0 1
-2.165576 -18.034429 28.759799 34.015532 1.451288 0.563314 0.144362 -0.031582 727750.000000 0 0 1
-3.446676 -18.021829 28.087399 33.549484 1.381828 0.578666 0.157294 -0.035495 824795.000000 0 0 1
-3.789076 -19.255929 27.456699 33.749344 1.376504 0.620569 0.169617 -0.039900 616367.000000 0 0 1
-4.948076 -19.003629 26.429099 32.925957 1.316077 0.639016 0.149282 -0.049662 256756.000000 0 0 1
-5.443076 -20.071929 25.631399 33.007242 1.305986 0.681643 0.175095 -0.048706 -630018.000000 0 0 1
-4.513376 -20.887429 24.992799 32.883054 1.357987 0.707405 0.177354 -0.048442 -473023.000000 0 0 1
-30.902926 -32.830256 -0.814601 45.094125 0.815630 1.588862 0.088431 -0.023797 -172454.000000 0 0 1
-29.968756 -31.876256 -0.407301 43.753719 0.816232 1.580105 0.099977 -0.035807 -182497.000000 0 0 1
-30.207556 -31.615756 0.962099 43.737605 0.808172 1.548797 0.082390 -0.020934 194743.000000 0 0 1
-29.373696 -30.436556 1.499799 42.325493 0.803167 1.535354 0.097048 -0.022681 -388499.000000 0 0 1
-27.993736 -30.582556 1.505799 41.487461 0.829565 1.534493 0.110364 -0.027549 -906232.000000 0 0 1
-27.381956 -29.341856 1.856799 40.176656 0.819936 1.524564 0.109601 -0.028942 969545.000000 0 0 1
-25.816666 -29.441156 1.898999 39.203164 0.850897 1.522337 0.092606 -0.028222 930891.000000 0 0 1
-25.295656 -30.309856 2.926399 39.586884 0.875329 1.496805 0.087478 -0.021045 -908199.000000 0 0 1
-23.916276 -30.277756 2.984199 38.699305 0.902247 1.493607 0.084275 -0.018308 -1091220.000000 0 0 1
-23.356176 -30.985856 4.276399 39.037441 0.924887 1.461030 0.092294 -0.028089 -453867.000000 0 0 1
-23.623676 -30.244356 5.444799 38.761385 0.907690 1.429861 0.090786 -0.029729 -261155.000000 0 0 1
-23.141376 -30.864656 6.598499 39.136817 0.927443 1.401386 0.083547 -0.031020 -86625.000000 0 0 1
-23.750476 -30.342656 7.945099 39.343188 0.906667 1.367454 0.089203 -0.024343 156139.000000 0 0 1
-23.172576 -29.092256 8.296099 38.107124 0.898181 1.351334 0.095122 -0.032489 270469.000000 0 0 1
-23.814676 -28.571356 9.467499 38.380916 0.875950 1.321552 0.088898 -0.025689 439047.000000 0 0 1
-23.112676 -27.287156 10.092699 37.157062 0.868037 1.295718 0.100584 -0.029111 716321.000000 0 0 1
-21.857076 -27.522856 10.711399 36.741985 0.899637 1.274970 0.087220 -0.028702 -20443.400000 0 0 1
-21.303776 -26.384956 11.344499 35.759117 0.891547 1.247970 0.105867 -0.028231 457794.000000 0 0 1
-20.018176 -26.753256 12.134599 35.548735 0.928415 1.222442 0.089864 -0.023143 149643.000000 0 0 1
-20.324576 -27.598756 13.240999 36.743758 0.936036 1.202142 0.091328 -0.021456 -759805.000000 0 0 1
-19.180876 -27.745656 13.993499 36.517741 0.965926 1.177541 0.088224 -0.025153 -529875.000000 0 0 1
-19.328476 -28.899556 15.071299 37.893514 0.981307 1.161757 0.098629 -0.031087 87202.600000 0 0 1
-18.796776 -30.104756 14.523199 38.347600 1.012644 1.182378 0.099981 -0.030343 119426.000000 0 0 1
-19.079576 -31.262556 15.281299 39.684956 1.022837 1.175518 0.099474 -0.029427 102085.000000 0 0 1
-18.522876 -32.623256 14.691099 40.288983 1.054404 1.197547 0.103492 -0.031380 216992.000000 0 0 1
-18.833476 -33.739556 15.522199 41.641279 1.061678 1.188815 0.095036 -0.021797 -101897.000000 0 0 1
-17.916876 32.958271 15.365399 40.538347 -1.072862 1.182044 0.095619 -0.031091 -645668.000000 0 0 1
-17.925276 31.801071 16.416399 40.026514 -1.057519 1.148191 0.100011 -0.031551 -269307.000000 0 0 1
-19.058476 30.958471 16.325099 39.851741 -1.018975 1.148731 0.099735 -0.032693 196529.000000 0 0 1
-19.113076 29.941771 17.332999 39.525336 -1.002661 1.116835 0.077431 -0.021989 123186.000000 0 0 1
-19.835376 30.357371 18.682399 40.792697 -0.992038 1.095070 0.083316 -0.024902 391725.000000 0 0 1
-19.126276 31.337571 19.454199 41.549051 -1.022815 1.083518 0.097628 -0.026052 904643.000000 0 0 1
-19.990976 31.687371 20.572599 42.742958 -1.007979 1.068648 0.095792 -0.020520 463937.000000 0 0 1
-19.471376 32.676771 21.579699 43.733160 -1.033413 1.054756 0.083670 -0.010265 -98789.900000 0 0 1
-18.382976 32.221371 22.370299 43.319520 -1.052334 1.028152 0.080955 -0.014871 162171.000000 0 0 1
-18.144176 32.877171 23.652499 44.379727 -1.066513 1.008705 0.081959 -0.013953 522384.000000 0 0 1
-19.175676 32.393571 24.774599 45.064739 -1.036310 0.988725 0.072431 -0.011608 1511500.000000 0 0 1
-20.537976 32.757971 24.500999 45.773268 -1.010788 1.005970 0.060651 -0.015261 440311.000000 0 0 1
-21.436076 32.160871 25.396499 46.247261 -0.982891 0.989454 0.044715 -0.011299 759476.000000 0 0 1
-22.946876 32.391171 25.033099 46.929768 -0.954435 1.008162 0.053260 -0.021966 641646.000000 0 0 1
-23.320576 31.728471 23.866999 46.045399 -0.936961 1.025892 0.045461 -0.005644 -490765.000000 0 0 1
-24.636976 31.986571 23.508999 46.720385 -0.914474 1.043516 0.032843 -0.007917 -689064.000000 0 0 1
-24.969876 31.607171 22.065999 45.928382 -0.902179 1.069636 0.026927 -0.013728 -256939.000000 0 0 1
-24.718276 32.543671 21.008099 45.950233 -0.921216 1.095961 0.030743 -0.011081 31770.600000 0 0 1
-24.419176 31.911671 19.822999 44.806274 -0.917631 1.112506 0.028208 -0.002543 -146375.000000 0 0 1
-24.106576 32.950471 18.757999 44.930202 -0.939175 1.140113 0.048986 -0.009470 -154145.000000 0 0 1
-22.767076 33.348571 18.965399 44.611134 -0.971776 1.131694 0.073142 -0.011141 -101415.000000 0 0 1
-22.366976 -33.574356 17.934299 44.149270 0.983122 1.152483 0.078620 -0.006885 -885411.000000 0 0 1
-20.957576 -33.055156 18.193499 43.160940 1.005738 1.135668 0.086230 -0.009442 -514909.000000 0 0 1
-20.923976 -32.078056 19.250299 42.864769 0.992818 1.105046 0.085191 -0.022548 729270.000000 0 0 1
-19.673276 -31.382456 19.260199 41.747474 1.010841 1.091280 0.093991 -0.026297 464908.000000 0 0 1
-19.689276 -30.260456 20.287899 41.412095 0.993957 1.058818 0.083803 -0.025178 -94149.200000 0 0 1
-20.300576 -29.064756 19.835899 40.624332 0.961105 1.060683 0.097897 -0.025886 290747.000000 0 0 1
-20.723976 -28.314556 20.950599 40.867161 0.938968 1.032527 0.098311 -0.027311 5054.860000 0 0 1
-21.618576 -27.078956 20.651199 40.337386 0.897060 1.033329 0.080600 -0.036533 -136095.000000 0 0 1
-20.961176 -25.981356 20.055499 38.943867 0.891936 1.029806 0.084547 -0.027220 237926.000000 0 0 1
-21.835576 -24.889156 19.935599 38.648293 0.850658 1.028831 0.075818 -0.012771 -170942.000000 0 0 1
-22.891776 -24.944856 18.754699 38.704237 0.828290 1.064931 0.081177 -0.012904 -41883.500000 0 0 1
-24.117876 -25.491256 19.226899 40.014369 0.813075 1.069572 0.073043 -0.011814 -222978.000000 0 0 1
-25.015266 -25.474556 18.174199 40.062676 0.794495 1.099946 0.062508 -0.004025 -896972.000000 0 0 1
-26.514136 -25.573456 18.494299 41.219415 0.767341 1.105509 0.052936 -0.002585 -15498.800000 0 0 1
-27.025276 -26.758856 19.034599 42.529024 0.780445 1.106753 0.050461 -0.008795 -110170.000000 0 0 1
-27.164196 -27.805256 18.122799 42.888945 0.797060 1.134537 0.057189 -0.013465 -676147.000000 0 0 1
-28.101896 -28.869456 18.732899 44.430660 0.798870 1.135564 0.063002 -0.022100 157556.000000 0 0 1
-29.494916 -28.640856 18.659299 45.148844 0.770708 1.144739 0.051878 -0.019688 4853.600000 0 0 1
-30.102896 -29.169856 17.503499 45.425074 0.769658 1.175234 0.053379 -0.017208 104825.000000 0 0 1
-31.626926 -28.833056 17.598899 46.274494 0.739221 1.180659 0.056846 -0.020548 324080.000000 0 0 1
-31.995586 -27.536156 17.365199 45.645455 0.710629 1.180528 0.060678 -0.020467 1070580.000000 0 0 1
-33.434716 -27.413956 17.505799 46.646095 0.686773 1.186087 0.080724 -0.015777 1216660.000000 0 0 1
-34.066992 -26.050656 17.017799 46.138943 0.652836 1.193038 0.083575 -0.026415 -55963.600000 0 0 1
-34.298900 -25.959656 15.618599 45.763074 0.647881 1.222505 0.094867 -0.033914 449975.000000 0 0 1
-35.180376 -24.873056 15.323799 45.729056 0.615419 1.229085 0.090935 -0.027362 -174711.000000 0 0 1
-34.469638 -23.641256 14.803199 44.341849 0.601171 1.230419 0.085829 -0.026153 -160205.000000 0 0 1
-33.650126 -23.035356 15.784699 43.727741 0.600285 1.201481 0.075194 -0.009966 138809.000000 0 0 1
-33.393746 -21.625756 15.541999 42.712636 0.574685 1.198373 0.075167 -0.002439 150856.000000 0 0 1
-34.560934 -20.641656 15.910799 43.286137 0.538398 1.194399 0.077725 -0.012310 267714.000000 0 0 1
-35.001380 -20.763756 17.267099 44.208403 0.535424 1.169530 0.080301 -0.004937 295958.000000 0 0 1
-35.566001 -19.483956 17.500699 44.168308 0.501172 1.163392 0.090644 -0.004177 -212496.000000 0 0 1
-35.936510 -19.248556 19.022199 44.986483 0.491741 1.134217 0.072490 -0.007708 543220.000000 0 0 1
-37.051366 -20.042356 19.491499 46.415711 0.495856 1.137425 0.073721 -0.004533 919079.000000 0 0 1
-37.399706 -19.543456 20.763599 47.029902 0.481529 1.113529 0.082120 -0.004367 -72240.400000 0 0 1
36.637918 -20.116756 21.167899 46.851904 -0.502128 1.102009 0.083291 -0.000337 -82943.100000 0 0 1
36.503348 -21.499856 21.424699 47.473740 -0.532279 1.102579 0.090065 -0.016151 455562.000000 0 0 1
37.263428 -21.930856 22.604999 48.790486 -0.531947 1.089072 0.063854 0.001826 154277.000000 0 0 1
36.791138 -23.255756 23.121099 49.284919 -0.563690 1.082489 0.067486 0.009029 31825.500000 0 0 1
35.559248 -23.073556 23.802099 48.614700 -0.575585 1.059157 0.097920 -0.015365 66919.800000 0 0 1
35.339198 -24.179956 24.631799 49.398934 -0.600060 1.048779 0.097543 -0.030340 -123225.000000 0 0 1
34.252678 -23.910956 25.701699 49.046479 -0.609433 1.019224 0.120118 -0.032377 611147.000000 0 0 1
32.918538 -23.946356 25.176599 47.863548 -0.628908 1.016897 0.128843 -0.027733 455026.000000 0 0 1
32.082108 -23.721656 26.321799 47.799746 -0.636685 0.987632 0.099887 -0.024991 135926.000000 0 0 1
30.701968 -24.416956 26.142899 47.140744 -0.671862 0.982949 0.088634 -0.016677 -93540.500000 0 0 1
29.796398 -23.636456 25.393099 45.730918 -0.670621 0.982106 0.084177 -0.011561 353485.000000 0 0 1
28.720998 -24.483756 24.938799 45.235978 -0.705926 0.986869 0.080521 -0.004380 634862.000000 0 0 1
27.452198 -23.742056 24.459599 43.767344 -0.713053 0.977792 0.070565 0.002001 -83525.400000 0 0 1
27.373198 -23.122156 23.174199 42.672820 -0.701409 0.996711 0.071487 -0.004126 52094.900000 0 0 1
28.472998 -22.283156 22.833699 42.762466 -0.664045 1.007512 0.082962 -0.000863 205413.000000 0 0 1
28.246398 -21.474556 21.517299 41.497105 -0.650034 1.025671 0.086191 -0.004803 174533.000000 0 0 1
27.433398 -20.311656 21.532999 40.358701 -0.637328 1.008015 0.069546 -0.000953 149933.000000 0 0 1
27.393598 -19.663956 20.244099 39.330700 -0.622593 1.030121 0.051667 -0.004897 -240171.000000 0 0 1
26.355698 -18.533156 20.302299 38.082595 -0.612866 1.008521 0.055187 -0.004684 -357550.000000 0 0 1
26.747498 -17.224056 20.623499 37.913394 -0.572111 0.995643 0.061436 -0.016124 -113782.000000 0 0 1
26.820898 -17.077056 22.046799 38.691702 -0.566974 0.964525 0.060962 -0.008071 -125834.000000 0 0 1
26.795898 -15.671056 22.649699 38.426697 -0.529191 0.940448 0.053945 -0.001203 -274581.000000 0 0 1
25.632698 -14.940556 22.357199 37.149694 -0.527729 0.925026 0.015972 -0.006366 -363880.000000 0 0 1
25.542498 -13.775156 23.175499 37.138631 -0.494594 0.896911 -0.000884 -0.002026 100880.000000 0 0 1
24.184398 -13.030656 23.100999 35.893443 -0.494207 0.871604 -0.003744 -0.001193 445864.000000 0 0 1
23.146598 -13.762756 23.746899 35.903951 -0.536433 0.848112 0.037704 -0.004780 284480.000000 0 0 1
21.995598 -12.958256 23.978299 35.024014 -0.532388 0.816708 0.070869 -0.019988 670325.000000 0 0 1
20.695598 -13.811656 24.150999 34.674780 -0.588491 0.800288 0.087398 -0.015597 340297.000000 0 0 1
20.307598 -14.480256 22.924099 33.876108 -0.619428 0.827520 0.105828 -0.020438 986950.000000 0 0 1
18.953498 -14.936756 23.112599 33.414578 -0.667426 0.806967 0.114096 -0.022730 756399.000000 0 0 1
18.527498 -16.135356 22.271799 33.160985 -0.716496 0.834394 0.122548 -0.023382 114793.000000 0 0 1
19.070598 -17.353156 22.761499 34.393394 -0.738281 0.847581 0.107900 -0.015948 266714.000000 0 0 1
18.479698 -18.462856 22.098699 34.215914 -0.784942 0.868647 0.123013 -0.019577 140928.000000 0 0 1
19.093598 -19.827056 22.539299 35.576645 -0.804241 0.884674 0.097123 -0.013057 -152152.000000 0 0 1
18.717398 -20.338956 23.824199 36.491185 -0.826893 0.859422 0.107222 -0.013364 96823.200000 0 0 1
19.111498 -21.671156 24.162099 37.665573 -0.848079 0.874357 0.109401 -0.012569 -363792.000000 0 0 1
18.696898 -22.856956 23.243499 37.580243 -0.885178 0.903960 0.104010 -0.015139 294618.000000 0 0 1
19.473598 -22.988156 22.038899 37.328132 -0.867980 0.939230 0.104727 -0.004716 178980.000000 0 0 1
20.545798 -23.891356 22.160699 38.523023 -0.860544 0.957876 0.091927 -0.006530 213064.000000 0 0 1
21.441398 -24.050656 20.860899 38.384173 -0.842692 0.996223 0.076841 0.004696 282635.000000 0 0 1
20.772398 -24.898256 19.913199 38.051954 -0.875493 1.020059 0.071832 -0.006341 201883.000000 0 0 1
21.541298 -25.260656 18.798999 38.151417 -0.864702 1.055552 0.079757 -0.008030 -59390.400000 0 0 1
20.634098 -25.775056 17.666599 37.446338 -0.895723 1.079483 0.076407 -0.018961 405747.000000 0 0 1
20.001298 -27.057456 17.892499 38.109046 -0.934233 1.082063 0.085691 -0.028331 -406424.000000 0 0 1
18.990098 -27.314456 16.995399 37.357020 -0.963272 1.098486 0.099135 -0.029430 -694067.000000 0 0 1
18.193998 -28.536756 17.508099 38.103826 -1.003213 1.093382 0.085024 -0.017096 -308909.000000 0 0 1
17.565398 -28.273956 18.740299 38.198935 -1.014893 1.058021 0.088875 -0.035660 -467020.000000 0 0 1
16.816898 -29.366456 19.146799 38.881830 -1.050725 1.055910 0.097872 -0.040931 -244204.000000 0 0 1
15.524098 -28.958456 19.892799 38.409807 -1.078702 1.026391 0.091662 -0.033823 198577.000000 0 0 1
14.602798 -28.312856 19.042299 37.114265 -1.094616 1.032036 0.085285 -0.036244 -1565040.000000 0 0 1
13.345898 -28.175556 19.541799 36.794794 -1.128434 1.010895 0.074607 -0.036612 -771790.000000 0 0 1
12.322798 -27.722756 18.442299 35.503816 -1.152525 1.024594 0.094362 -0.042998 80449.700000 0 0 1
11.928098 -28.696656 17.523399 35.676983 -1.176862 1.057366 0.082691 -0.046123 99651.000000 0 0 1
11.401398 -28.130256 16.328199 34.466118 -1.185723 1.077256 0.115790 -0.040812 7640.630000 0 0 1
11.009998 -29.206856 15.313099 34.767104 -1.210303 1.114699 0.098228 -0.038364 -260148.000000 0 0 1
9.923698 -30.027956 15.614799 35.270099 -1.251614 1.112166 0.119524 -0.036876 -253184.000000 0 0 1
9.626498 -30.927256 14.533699 35.502015 -1.269039 1.149025 0.092102 -0.029149 277274.000000 0 0 1
8.442098 -31.918356 14.712299 36.145570 -1.312227 1.151597 0.092004 -0.030909 -13084.600000 0 0 1
8.718598 -32.885056 15.685599 37.463034 -1.311635 1.138788 0.110407 -0.037845 -82990.400000 0 0 1
7.846698 33.721271 15.639699 37.990722 1.342172 1.146509 0.095062 -0.028412 117226.000000 0 0 1
8.133198 32.623371 16.645399 37.516697 1.326471 1.111096 0.115639 -0.037474 -362037.000000 0 0 1
9.208898 31.822371 16.261999 36.904197 1.289107 1.114469 0.104012 -0.037094 -770215.000000 0 0 1
9.379998 30.823971 17.263399 36.553064 1.275391 1.078917 0.121669 -0.040733 377157.000000 0 0 1
10.779398 30.125571 17.248399 36.349040 1.227176 1.076376 0.092952 -0.044967 436691.000000 0 0 1
11.020698 29.373171 16.062799 35.245602 1.211854 1.097594 0.121966 -0.039587 -1106770.000000 0 0 1
12.238598 28.732671 16.060799 35.118356 1.168124 1.095802 0.104870 -0.048033 -1146380.000000 0 0 1
12.552998 27.856171 14.819899 33.958407 1.147413 1.119188 0.092600 -0.040591 158501.000000 0 0 1
11.733198 26.696771 14.617299 32.619794 1.156709 1.106145 0.103054 -0.041521 503330.000000 0 0 1
12.356198 25.825171 13.634399 31.709808 1.124532 1.126332 0.099917 -0.033876 397038.000000 0 0 1
-9.662376 -9.288229 19.296315 23.494265 0.765657 0.607075 0.102272 -0.024723 129789.000000 0 1 0
-9.816776 -9.304629 17.883615 22.422509 0.758621 0.647533 0.090979 -0.024547 137071.000000 0 1 0
-9.623176 -10.628829 17.366015 22.520124 0.835014 0.690177 0.093886 -0.030551 -845.717000 0 1 0
-9.950376 -10.923229 15.892415 21.700133 0.831971 0.749008 0.092962 -0.028402 359927.000000 0 1 0
-11.370376 -10.939229 15.754315 22.296875 0.766075 0.786156 0.095531 -0.025083 597398.000000 0 1 0
-11.823776 -11.302929 14.446915 21.823639 0.762881 0.847333 0.101098 -0.030360 42313.500000 0 1 0
-11.852376 -12.795729 14.141015 22.453904 0.823652 0.889527 0.073224 -0.031514 401182.000000 0 1 0
-10.556176 -13.318729 13.773515 21.875354 0.900595 0.889711 0.098700 -0.033183 896300.000000 0 1 0
-10.416776 -14.745529 13.990415 22.840130 0.955764 0.911531 0.107777 -0.033145 9220.200000 0 1 0
-10.254676 -15.282929 15.439815 24.023201 0.979807 0.872773 0.123059 -0.038912 88311.000000 0 1 0
-11.459276 -15.273829 16.190315 25.034599 0.927132 0.867523 0.118736 -0.027352 98561.400000 0 0 1
-11.267476 -15.289129 17.587615 25.885086 0.935693 0.823784 0.149253 -0.028771 424991.000000 0 0 1
-12.587576 -14.930529 18.364515 26.807148 0.870336 0.816110 0.081831 -0.019643 -145716.000000 0 0 1
-12.875876 -13.525029 18.326215 26.164188 0.809982 0.794795 0.082364 -0.023022 111470.000000 0 0 1
-13.997476 -13.210429 17.509915 26.020029 0.756479 0.832620 0.112219 -0.035249 -19509.600000 0 0 1
-15.318476 -13.383629 18.275815 27.345615 0.718089 0.838839 0.053651 -0.020838 -941280.000000 0 0 1
-15.663376 -14.710829 18.557515 28.392450 0.754048 0.858455 0.062389 -0.018815 -294140.000000 0 0 1
-16.727676 -14.733429 19.484115 29.606077 0.722095 0.852488 0.063750 -0.015605 -333242.000000 0 0 1
-17.115276 -16.150829 19.834415 30.776386 0.756414 0.870468 0.076212 -0.026697 36238.600000 0 0 1
-18.239876 -16.584929 19.073315 31.169605 0.737912 0.912310 0.071587 -0.016617 392979.000000 0 0 1
-18.809076 -17.774029 19.584515 32.453824 0.757113 0.922966 0.087428 -0.024439 -70071.000000 0 0 1
-20.076976 -18.164729 18.819615 32.973023 0.735436 0.963368 0.088927 -0.018784 -122586.000000 0 0 1
-19.694276 -18.401729 17.456115 32.112366 0.751483 0.996082 0.090375 -0.023868 229350.000000 0 0 1
-20.493476 -17.596429 16.602815 31.705998 0.709486 1.019668 0.079473 -0.034456 26656.200000 0 0 1
-20.013576 -17.507429 15.057415 30.557798 0.718704 1.055547 0.086698 -0.032453 84570.800000 0 0 1
-20.217176 -18.705529 14.344315 31.054635 0.746581 1.090654 0.097404 -0.023113 -6969.490000 0 0 1
-19.791876 -18.543629 13.037515 30.092546 0.752849 1.122704 0.103910 -0.030582 -66669.300000 0 0 1
-19.852876 -19.849229 12.241715 30.626592 0.785306 1.159597 0.128147 -0.032742 -33128.000000 0 0 1
-19.018376 -20.897829 12.729315 30.991182 0.832448 1.147531 0.125473 -0.025753 166677.000000 0 0 1
-19.116676 -22.070929 11.940015 31.545795 0.857002 1.182623 0.106672 -0.019277 -550692.000000 0 0 1
-18.146776 -23.077929 12.508115 31.911584 0.904449 1.168033 0.090794 -0.012768 -359621.000000 0 0 1
-18.097676 -24.346229 11.839215 32.564271 0.931567 1.198705 0.109092 -0.029500 -37962.200000 0 0 1
-17.220776 -24.406429 10.734915 31.740625 0.956333 1.225785 0.088796 -0.024110 -415389.000000 0 0 1
-17.606076 -25.567089 9.779415 32.546688 0.967747 1.265607 0.091207 -0.025562 652951.000000 0 0 1
-18.811576 -25.352179 9.007715 32.829062 0.932428 1.292849 0.093267 -0.023718 564197.000000 0 0 1
-19.043276 -26.464949 8.152615 33.608109 0.947059 1.325773 0.103246 -0.029858 -546528.000000 0 0 1
-20.283376 -26.281729 7.319215 33.995816 0.913509 1.353800 0.097605 -0.031297 -594401.000000 0 0 1
-20.183376 -25.223229 6.385515 32.929542 0.895940 1.375646 0.101869 -0.033643 -158183.000000 0 0 1
-21.308176 -25.287669 5.548615 33.530459 0.870596 1.404552 0.117610 -0.030328 -70109.600000 0 0 1
-21.512576 -23.950229 4.794115 32.548240 0.838965 1.422966 0.126290 -0.031791 -198878.000000 0 0 1
-22.506376 -23.963529 3.817215 33.096205 0.816745 1.455202 0.119642 -0.035792 -358738.000000 0 0 1
-22.553276 -22.702329 3.161415 32.156501 0.788692 1.472324 0.123748 -0.025193 126163.000000 0 0 1
-23.016076 -22.839329 1.692215 32.469036 0.781544 1.518655 0.107504 -0.021361 -218592.000000 0 0 1
-22.127176 -23.501129 0.850215 32.289903 0.815501 1.544463 0.096083 -0.037542 -399258.000000 0 0 1
-22.611676 -23.571629 -0.429485 32.666405 0.806181 1.583944 0.098443 -0.033301 -203169.000000 0 0 1
-21.703776 -24.336029 -1.446685 32.640298 0.842509 1.615133 0.103204 -0.041094 80519.000000 0 0 1
-20.470176 -23.686529 -1.773485 31.356419 0.858109 1.627385 0.104710 -0.036012 585211.000000 0 0 1
-19.843876 -24.155029 -2.967185 31.401417 0.883070 1.665430 0.092967 -0.030165 -164698.000000 0 0 1
-19.467776 -25.684069 -3.161685 32.383050 0.922213 1.668586 0.119536 -0.035571 96822.300000 0 0 1
-20.574076 -26.575269 -3.395885 33.779721 0.911998 1.671497 0.156943 -0.046261 505227.000000 0 0 1
-20.051776 -27.910729 -3.578285 34.552664 0.947811 1.674543 0.156667 -0.042690 829193.000000 0 0 1
-21.069076 -28.998369 -4.167385 36.085710 0.942466 1.686540 0.168996 -0.048658 502501.000000 0 0 1
-21.498876 -28.652919 -5.446885 36.233410 0.927090 1.721696 0.158559 -0.041038 294390.000000 0 0 1
-22.477576 -29.600809 -5.933785 37.638532 0.921334 1.729109 0.172503 -0.061372 546385.000000 0 0 1
-23.332676 -28.973149 -7.065685 37.865301 0.892819 1.758497 0.168415 -0.018379 -1653.180000 0 0 1
-22.547476 -28.685629 -8.211785 37.399029 0.904638 1.792172 0.191830 -0.018765 50306.700000 0 0 1
-23.274876 -28.615909 -9.402885 38.065789 0.887965 1.820397 0.191668 -0.016470 -56086.700000 0 0 1
-24.170576 -27.400339 -9.636985 37.787124 0.847944 1.828679 0.145641 -0.013634 -466097.000000 0 0 1
-23.482976 -26.241549 -9.934885 36.589219 0.840818 1.845773 0.135760 -0.017466 -211652.000000 0 0 1
-23.203676 -25.377709 -8.817385 35.499084 0.830119 1.821807 0.115113 -0.019301 59169.500000 0 0 1
-22.500876 -24.011329 -9.041585 34.125996 0.817861 1.838945 0.088216 -0.023423 237486.000000 0 0 1
-23.403376 -23.145329 -9.703285 34.315856 0.779855 1.857471 0.104507 -0.015882 342023.000000 0 0 1
-22.867376 -21.820529 -9.980685 33.146137 0.761977 1.876654 0.102500 -0.013716 483900.000000 0 0 1
-23.997976 -20.759529 -10.133085 33.309763 0.713169 1.879903 0.119409 -0.011648 300827.000000 0 0 1
-24.793376 -20.956429 -11.321085 34.380959 0.701726 1.906341 0.115970 -0.007645 629767.000000 0 0 1
-26.121336 -20.457229 -11.290685 35.047139 0.664389 1.898804 0.123057 -0.007208 397252.000000 0 0 1
-26.261896 -18.868729 -11.195585 34.220713 0.623023 1.904091 0.137211 -0.029412 -1311010.000000 0 0 1
-26.105766 -18.271229 -12.451685 34.211011 0.610654 1.943320 0.146712 -0.032658 337576.000000 0 0 1
-25.633236 -16.939029 -12.478785 33.161929 0.583946 1.956594 0.137159 -0.049425 202602.000000 0 0 1
-24.267576 -16.562229 -11.860485 31.684282 0.598873 1.954474 0.118725 -0.039149 -302498.000000 0 0 1
-24.524576 -16.549729 -10.484885 31.389188 0.593628 1.911371 0.156596 -0.042098 297679.000000 0 0 1
-23.355276 -16.637529 -9.700185 30.271601 0.618978 1.896989 0.150887 -0.041868 -58458.400000 0 0 1
-23.717876 -16.964529 -8.238685 30.301960 0.620897 1.846149 0.133667 -0.047575 179858.000000 0 0 1
-24.325776 -18.238429 -8.075285 31.457811 0.643346 1.830405 0.148472 -0.036654 72445.900000 0 0 1
-24.728776 -18.545129 -6.780585 31.645070 0.643464 1.786741 0.156417 -0.020383 -207480.000000 0 0 1
-25.341916 -19.966929 -6.707085 32.952631 0.667320 1.775766 0.171502 -0.021560 -222653.000000 0 0 1
-26.608136 -20.159829 -7.290885 34.169703 0.648383 1.785822 0.145363 -0.024643 -148068.000000 0 0 1
-27.133886 -21.446429 -7.056585 35.298618 0.668855 1.772063 0.136409 -0.011865 89617.100000 0 0 1
-26.683096 -22.554229 -8.085085 35.861531 0.701737 1.798204 0.123967 -0.003609 -173890.000000 0 0 1
-27.338176 -23.758929 -7.886685 37.068347 0.715464 1.785196 0.127178 0.000823 -373651.000000 0 0 1
-26.828946 -24.807829 -8.707785 37.563895 0.746277 1.804737 0.113678 0.009991 -250869.000000 0 0 1
-27.545956 -26.134979 -8.587385 38.930194 0.759120 1.793210 0.111332 -0.011689 -263919.000000 0 0 1
-27.326016 -26.723619 -7.386585 38.928454 0.774253 1.761701 0.142920 -0.030137 318534.000000 0 0 1
-28.239856 -27.787579 -7.143485 40.257525 0.777326 1.749186 0.135650 -0.033282 270558.000000 0 0 1
-27.938826 -28.316369 -5.741085 40.191476 0.792109 1.714130 0.150725 -0.050739 90263.000000 0 0 1
-28.464206 -27.604349 -4.626085 39.920067 0.770064 1.686941 0.118680 -0.046908 -40790.400000 0 0 1
-28.012416 -28.104909 -3.366385 39.823534 0.787046 1.655430 0.135586 -0.050787 -215425.000000 0 0 1
-28.354716 -29.468659 -2.824385 40.992303 0.804660 1.639751 0.117601 -0.031431 -722506.000000 0 0 1
-27.660556 -30.443509 -3.548885 41.285689 0.833258 1.656862 0.150930 -0.043783 -150273.000000 0 0 1
-27.475776 -31.618899 -2.835685 41.984689 0.855394 1.638389 0.141187 -0.050556 -13379.700000 0 0 1
-26.458936 -31.639189 -1.678785 41.278710 0.874327 1.611477 0.145935 -0.052512 955876.000000 0 0 1
-25.059736 -31.529859 -2.042385 40.327332 0.899238 1.621463 0.167208 -0.064189 971690.000000 0 0 1
-24.204676 -31.698349 -0.938485 39.894015 0.918652 1.594323 0.163550 -0.042379 523676.000000 0 0 1
-22.985276 -30.722429 -0.952885 38.380966 0.928474 1.595626 0.165435 -0.045575 378234.000000 0 0 1
-23.345076 -29.364609 -0.700485 37.520174 0.899107 1.589467 0.136460 -0.046935 -91728.200000 0 0 1
-23.916676 -28.700079 -1.803985 37.402624 0.876059 1.619047 0.164442 -0.061299 -294299.000000 0 0 1
-24.474876 -27.334829 -1.421485 36.718293 0.840543 1.609519 0.101181 -0.046153 1423240.000000 0 0 1
-25.817936 -27.469579 -0.836685 37.707342 0.816383 1.592987 0.118731 -0.049021 1499300.000000 0 0 1
-26.324226 -26.189729 -0.400585 37.135256 0.782837 1.581584 0.132430 -0.050763 266711.000000 0 0 1
-25.651666 -25.598879 0.871615 36.250107 0.784368 1.546750 0.129915 -0.039659 -102684.000000 0 0 1
-26.054216 -26.181049 2.125415 36.997120 0.787826 1.513317 0.109453 -0.040551 19537.800000 0 0 1
-25.348416 -25.608539 3.222715 36.176309 0.790503 1.481594 0.125711 -0.033269 609512.000000 0 0 1
-26.191416 -24.488029 4.005115 36.079007 0.751800 1.459557 0.144990 -0.038915 498867.000000 0 0 1
-26.557586 -23.486329 3.105015 35.588680 0.724104 1.483438 0.126696 -0.038212 67113.300000 0 0 1
-27.541166 -22.628129 3.659415 35.832099 0.687780 1.468491 0.132136 -0.030689 -899.424000 0 0 1
-27.722666 -21.375729 2.736715 35.113496 0.656841 1.492778 0.130560 -0.020732 674687.000000 0 0 1
-26.547836 -20.555829 2.784015 33.690955 0.658869 1.488068 0.129188 -0.018981 414594.000000 0 0 1
-26.460796 -19.683429 1.663615 33.020883 0.639567 1.520394 0.100377 -0.016325 131758.000000 0 0 1
-25.273726 -18.706329 1.746415 31.491871 0.637167 1.515312 0.107213 -0.011604 761460.000000 0 0 1
-23.986576 -19.319229 1.640315 30.842812 0.678036 1.517588 0.123612 -0.019979 801743.000000 0 0 1
-22.915976 -18.380829 1.733315 29.427898 0.676018 1.511862 0.121173 -0.012269 1414040.000000 0 0 1
-21.455576 -18.989129 1.777015 28.706907 0.724490 1.508855 0.100512 -0.021836 1001310.000000 0 0 1
-21.187376 -19.592529 0.517315 28.862427 0.746309 1.552872 0.052272 -0.003374 -69134.000000 0 0 1
-19.958376 -20.268429 0.688215 28.453815 0.793106 1.546607 0.092307 -0.007832 3004.630000 0 0 1
-19.386876 -20.971129 -0.581485 28.565317 0.824633 1.591154 0.094223 -0.012917 310724.000000 0 0 1
-18.883976 -20.167729 -1.684385 27.679938 0.818260 1.631686 0.103023 -0.018479 320788.000000 0 0 1
-18.340276 -20.999629 -2.704585 28.011871 0.852895 1.667498 0.081454 -0.012043 -116607.000000 0 0 1
-17.825676 -20.348229 -3.978285 27.342858 0.851383 1.716811 0.103717 0.001260 -288913.000000 0 0 1
-16.540976 -19.836029 -3.759185 26.099873 0.875732 1.715330 0.147125 -0.010288 -421057.000000 0 0 1
-16.289576 -18.961229 -4.864685 25.466520 0.861043 1.763000 0.167520 0.000387 878625.000000 0 0 1
-14.793676 -18.467429 -4.938585 24.172058 0.895404 1.776555 0.180873 -0.017032 911834.000000 0 1 0
-13.813276 -19.431529 -5.256185 24.413488 0.952813 1.787794 0.142438 -0.026193 219710.000000 0 1 0
-12.591076 -18.783029 -5.590885 23.293676 0.980253 1.813180 0.136948 -0.041201 589192.000000 0 1 0
-11.363576 -19.718729 -5.771085 23.479023 1.047998 1.819139 0.139725 -0.053857 394417.000000 0 1 0
-11.485876 -20.730829 -6.736285 24.638793 1.064851 1.847724 0.117454 -0.045240 99473.500000 0 1 0
-10.208076 -21.310029 -7.004685 24.645238 1.124068 1.858990 0.135889 -0.038941 592423.000000 0 1 0
-10.284176 -22.532829 -7.911785 26.001711 1.142626 1.879978 0.113107 -0.012009 -70390.000000 0 0 1
-10.562976 -22.329029 -9.249985 26.376584 1.128932 1.929103 0.114110 -0.028112 -129012.000000 0 0 1
-10.721176 -23.536429 -9.916885 27.699309 1.143366 1.936942 0.124910 -0.024116 -284963.000000 0 0 1
-11.484376 -23.380629 -11.206685 28.357265 1.114220 1.977078 0.146555 -0.031926 195243.000000 0 0 1
-10.779376 -22.757529 -12.301385 28.025419 1.128440 2.025211 0.133583 -0.019232 364970.000000 0 0 1
-11.781476 -22.204729 -13.147485 28.367402 1.082982 2.052705 0.136386 -0.031999 13447.700000 0 0 1
-11.392676 -21.019729 -14.048385 27.730474 1.074117 2.102038 0.111649 -0.017497 -36288.100000 0 0 1
-10.927176 -19.902229 -13.308485 26.317630 1.068688 2.100974 0.109014 -0.017337 -74504.000000 0 0 1
-10.541176 -18.817429 -14.115785 25.777265 1.060170 2.150297 0.098330 -0.005325 42154.900000 0 0 1
-10.247376 -17.538429 -13.329885 24.295905 1.042015 2.151542 0.092856 -0.004440 250798.000000 0 1 0
-11.359376 -17.083129 -12.539685 24.043968 0.983985 2.119441 0.104235 -0.014189 544652.000000 0 1 0
-11.030776 -16.100529 -11.549185 22.677934 0.970128 2.105132 0.104231 -0.022866 144408.000000 0 1 0
-10.551376 -14.669029 -11.943585 21.660128 0.947237 2.154848 0.089718 -0.017362 367403.000000 0 1 0
-11.599176 -13.889329 -12.506485 21.996965 0.875008 2.175545 0.082306 -0.017755 269508.000000 0 1 0
-11.443976 -13.795129 -13.886285 22.673753 0.878285 2.229938 0.082136 -0.022499 85152.700000 0 1 0
-12.699376 -13.274429 -14.637485 23.489158 0.807534 2.243572 0.078482 -0.023074 27053.800000 0 1 0
-12.832576 -11.866929 -14.457985 22.683305 0.746322 2.261895 0.067258 -0.011335 -679616.000000 0 1 0
-13.977476 -11.332829 -15.033885 23.448252 0.681287 2.266794 0.081608 -0.030343 -625227.000000 0 1 0
-14.344576 -10.055929 -14.318585 22.625438 0.611415 2.256029 0.072246 -0.031806 21970.100000 0 1 0
-13.446676 -8.985129 -14.551185 21.755059 0.589066 2.303476 0.064469 -0.021804 178228.000000 0 1 0
-13.300876 -8.582729 -15.907285 22.441440 0.573047 2.358642 0.064968 -0.017415 1519.470000 0 1 0
-12.327776 -7.361129 -15.988285 21.489195 0.538297 2.409856 0.057662 -0.001520 709600.000000 0 1 0
-10.952576 -7.736329 -15.875385 20.780701 0.614974 2.440206 0.049257 -0.008718 697619.000000 0 1 0
-10.135276 -6.628029 -15.561085 19.718061 0.579152 2.480268 0.037163 -0.001768 168925.000000 0 1 0
11.798224 22.016071 15.745215 29.526552 1.078849 1.008351 0.136300 -0.033572 -366528.000000 0 0 1
12.946024 22.195371 16.526315 30.550829 1.042765 0.999236 0.142089 -0.037803 -460750.000000 0 0 1
13.345224 20.937571 16.863315 30.014135 1.003343 0.974181 0.123399 -0.030497 -25279.000000 0 0 1
14.548624 20.814471 17.856715 31.044596 0.960764 0.957953 0.135317 -0.044107 -658788.000000 0 0 1
15.714124 21.154471 17.231915 31.486255 0.931901 0.991681 0.126398 -0.034977 -161530.000000 0 0 1
16.851124 20.908771 18.116615 32.393655 0.892447 0.977298 0.122132 -0.043987 1583390.000000 0 0 1
18.267224 21.334371 17.631415 33.161931 0.862694 1.010218 0.102290 -0.032166 -656581.000000 0 0 1
18.511224 22.712171 17.642515 34.201849 0.886954 1.028814 0.106610 -0.031221 223543.000000 0 0 1
19.835124 23.124471 17.368015 35.068808 0.861817 1.052668 0.104493 -0.029225 392528.000000 0 0 1
21.038624 22.649371 18.220515 35.883212 0.822251 1.038199 0.102327 -0.029502 -443507.000000 0 0 1
21.356924 21.285571 17.958615 35.095664 0.783725 1.033629 0.116209 -0.028158 56840.200000 0 0 1
22.669024 20.990371 18.395815 35.956729 0.746968 1.033739 0.128695 -0.029920 153206.000000 0 0 1
23.170824 19.530971 18.316115 35.409406 0.700365 1.027142 0.113912 -0.028663 -182058.000000 0 0 1
23.448924 19.260671 16.957815 34.761948 0.687647 1.061198 0.097224 -0.029342 11786.100000 0 0 1
23.272124 17.857271 16.571315 33.690984 0.654497 1.056569 0.090963 -0.020764 -128979.000000 0 0 1
24.317124 16.820371 17.032415 34.122582 0.605140 1.048174 0.091170 -0.026252 -423680.000000 0 0 1
25.553824 16.910471 16.380215 34.745840 0.584597 1.079885 0.112961 -0.036543 -196253.000000 0 0 1
26.323624 15.767671 16.790915 34.978386 0.539679 1.070100 0.098934 -0.025208 312088.000000 0 0 1
27.628724 15.649071 15.918115 35.519378 0.515352 1.106098 0.186030 -0.047227 438408.000000 0 0 1
28.660224 16.596471 16.178415 36.859089 0.524893 1.116393 0.153817 -0.042743 1056650.000000 0 0 1
29.623724 16.209871 17.200415 37.896956 0.500685 1.099689 0.161656 -0.049402 243043.000000 0 0 1
30.668324 15.118071 16.921015 38.150006 0.457995 1.111253 0.148556 -0.056960 -919029.000000 0 0 1
31.542524 15.638671 15.968415 38.658623 0.460279 1.144982 0.184951 -0.039625 -543112.000000 0 0 1
31.991024 14.638371 15.066115 38.271339 0.429137 1.166180 0.183117 -0.046820 2829.860000 0 0 1
31.356224 14.625071 13.648015 37.193734 0.436422 1.195075 0.169161 -0.036227 -95324.900000 0 0 1
31.858324 15.610771 12.736815 37.694502 0.455621 1.226116 0.167022 -0.025581 -326699.000000 0 0 1
31.171824 15.692471 11.561315 36.764117 0.466379 1.250895 0.169564 -0.028452 160892.000000 0 0 1
29.793524 16.421271 11.517715 35.916152 0.503740 1.244345 0.147083 -0.032552 308979.000000 0 0 1
29.891024 17.845271 11.427315 36.640286 0.538219 1.253627 0.140688 -0.025535 129.338000 0 0 1
30.270524 18.564171 12.649415 37.695368 0.550124 1.228587 0.168169 -0.027958 58851.200000 0 0 1
29.311924 18.531571 13.883215 37.354407 0.563774 1.189998 0.157266 -0.029310 540368.000000 0 0 1
28.166024 19.391171 13.778915 36.867343 0.602939 1.187755 0.166668 -0.023676 997015.000000 0 0 1
27.303124 19.334771 14.948915 36.643745 0.616176 1.150586 0.134706 -0.025511 288649.000000 0 0 1
27.681424 20.133471 16.225915 37.880051 0.628832 1.128130 0.124645 -0.039477 -309757.000000 0 0 1
27.633524 21.536671 16.082615 38.549843 0.662033 1.140445 0.104990 -0.032322 365271.000000 0 0 1
26.328224 22.074571 16.308415 38.031914 0.697743 1.127623 0.092537 -0.033657 441303.000000 0 0 1
26.238124 23.557971 15.929315 38.693155 0.731627 1.146496 0.098771 -0.026633 -41263.100000 0 0 1
25.976524 23.708471 14.526715 38.051240 0.739781 1.179089 0.117383 -0.043912 56458.000000 0 0 1
26.182624 25.031171 14.096815 38.869134 0.762919 1.199661 0.124659 -0.043493 -424489.000000 0 0 1
25.640024 25.323871 12.669415 38.199783 0.779195 1.232732 0.120440 -0.044438 -1648160.000000 0 0 1
24.294024 25.549271 12.626515 37.448548 0.810577 1.226887 0.119943 -0.042122 -1326560.000000 0 0 1
23.919524 25.652671 11.220915 36.825428 0.820346 1.261167 0.103473 -0.059776 -105413.000000 0 0 1
23.271824 24.372371 10.683715 35.351550 0.808493 1.263782 0.120383 -0.051983 -890374.000000 0 0 1
21.897824 24.221771 10.949415 34.439782 0.835745 1.247252 0.116984 -0.050843 66010.300000 0 0 1
21.417924 22.877071 10.594415 33.080651 0.818328 1.244792 0.126908 -0.041698 259365.000000 0 0 1
21.449424 22.427071 9.110915 32.342852 0.807676 1.285233 0.131249 -0.033899 -352876.000000 0 0 1
20.323324 23.007571 8.478915 31.847729 0.847267 1.301314 0.128586 -0.033456 285506.000000 0 0 1
20.545624 23.307271 7.099315 31.870862 0.848290 1.346159 0.119151 -0.039070 -122093.000000 0 0 1
19.245024 23.644271 6.335815 31.137840 0.887613 1.365889 0.112198 -0.033445 -892337.000000 0 0 1
18.502824 22.490371 6.085715 29.752432 0.882366 1.364797 0.111900 -0.024762 3158.680000 0 0 1
17.744724 22.531971 4.893815 29.094920 0.903702 1.401791 0.121045 -0.031772 628116.000000 0 0 1
16.422624 23.418471 4.915615 29.022244 0.959220 1.400602 0.079237 -0.019562 92825.600000 0 0 1
16.541824 24.808271 5.096315 30.249871 0.982711 1.401515 0.083894 -0.025286 -887697.000000 0 0 1
15.297824 25.352671 5.316815 30.084047 1.027880 1.393131 0.083267 -0.026657 -808568.000000 0 0 1
15.249924 26.797471 4.898715 31.219578 1.053422 1.413234 0.082447 -0.033113 -413473.000000 0 0 1
14.871224 26.886471 3.554315 30.930063 1.065567 1.455627 0.069759 -0.013493 313154.000000 0 0 1
14.632724 28.224471 3.174315 31.950175 1.092505 1.471280 0.077198 -0.018471 -390738.000000 0 0 1
14.000524 28.212371 1.771415 31.545055 1.110149 1.514612 0.078850 -0.020403 -243882.000000 0 0 1
14.849424 27.944971 0.657215 31.652152 1.082360 1.550031 0.095031 -0.022729 72185.900000 0 0 1
14.875824 26.633471 0.200115 30.506917 1.061421 1.564237 0.069821 -0.014646 -120672.000000 0 0 1
16.045824 26.407271 -0.750185 30.909145 1.024786 1.595069 0.075230 -0.021237 31997.600000 0 0 1
15.622424 26.742071 -2.028185 31.037269 1.042084 1.636190 0.070374 -0.019223 590938.000000 0 0 1
16.777024 26.927671 -2.851585 31.854349 1.013607 1.660436 0.072872 -0.014274 707401.000000 0 0 1
16.308524 27.327671 -4.247685 32.106267 1.032750 1.703486 0.095792 -0.018967 50787.300000 0 0 1
15.500224 26.370271 -4.917285 30.981088 1.039402 1.730189 0.118123 -0.030286 -323932.000000 0 0 1
15.367324 26.841471 -6.237285 31.551909 1.050827 1.769790 0.126671 -0.031029 4690.310000 0 0 1
14.102824 26.432971 -7.002785 30.767363 1.080685 1.800413 0.134967 -0.045936 -99503.100000 0 0 1
13.865624 25.044871 -7.209485 29.520802 1.065169 1.817509 0.140805 -0.048230 -88007.500000 0 0 1
12.580624 24.866971 -7.774885 28.932459 1.102426 1.842866 0.110379 -0.043521 66936.600000 0 0 1
12.274424 23.446971 -8.318985 27.742160 1.088528 1.875351 0.129662 -0.041401 42588.300000 0 0 1
13.028524 22.938271 -9.433685 28.016087 1.054252 1.914232 0.119036 -0.038144 271210.000000 0 0 1
12.706024 21.602871 -9.765985 26.897984 1.039125 1.942362 0.132791 -0.036865 -226167.000000 0 0 1
13.031824 21.366471 -11.174785 27.408582 1.023115 1.990742 0.125462 -0.032189 -76068.100000 0 0 1
12.544624 20.104771 -11.716185 26.435552 1.012943 2.029959 0.136516 -0.032559 89749.700000 0 0 1
12.917624 19.761971 -13.069285 26.985306 0.991852 2.076372 0.137752 -0.030141 390760.000000 0 0 1
14.387424 19.276571 -13.242785 27.458250 0.929623 2.074061 0.123652 -0.028972 510255.000000 0 0 1
15.344424 20.303771 -13.055285 28.603058 0.923630 2.044775 0.110026 -0.026647 -369323.000000 0 0 1
16.608824 19.901371 -13.509685 29.230621 0.875336 2.051243 0.102199 -0.019370 279839.000000 0 0 1
17.755624 20.957571 -13.438785 30.579126 0.867920 2.025811 0.100419 -0.016932 -70468.400000 0 0 1
17.700024 22.057071 -14.326785 31.702713 0.894554 2.039702 0.097380 -0.023711 -484338.000000 0 0 1
16.542824 22.857071 -14.369585 31.663792 0.944307 2.041841 0.096549 -0.020744 -289317.000000 0 0 1
16.763424 24.307371 -14.949985 33.096265 0.967055 2.039480 0.107059 -0.020520 -8704.160000 0 0 1
17.040024 24.254171 -16.326985 33.840769 0.958354 2.074263 0.094607 -0.027387 -501112.000000 0 0 1
15.922324 24.426671 -17.156585 33.830919 0.993127 2.102645 0.059607 -0.018218 -318999.000000 0 0 1
16.254924 24.332571 -18.661185 34.706432 0.981849 2.138487 0.072453 -0.015775 39841.100000 0 0 1
16.709424 23.049171 -18.974685 34.212685 0.943523 2.158690 0.064344 -0.003494 -368159.000000 0 0 1
17.033024 23.007271 -20.311785 35.100243 0.933511 2.187905 0.055845 0.003230 36073.700000 0 0 1
17.552224 21.612471 -20.659185 34.669603 0.888700 2.209167 0.061001 0.001260 172155.000000 0 0 1
16.417624 20.775871 -20.712285 33.618060 0.902044 2.234586 0.081785 -0.001632 217097.000000 0 0 1
16.813824 19.521971 -21.233885 33.386972 0.859792 2.260091 0.056063 -0.000040 -429303.000000 0 0 1
15.695624 18.522671 -21.465985 32.407260 0.867829 2.294790 0.060733 0.004258 -807955.000000 0 0 1
15.322524 17.933171 -20.207785 31.060150 0.863740 2.279173 0.064051 -0.002496 -28860.800000 0 0 1
14.481524 16.818871 -20.284785 30.067615 0.859934 2.311272 0.066168 -0.010715 556360.000000 0 0 1
12.960924 17.070971 -20.554785 29.696848 0.921409 2.335265 0.090754 -0.019426 188295.000000 0 0 1
12.088224 16.954771 -19.443985 28.489612 0.951419 2.321966 0.097927 -0.028047 -149567.000000 0 0 1
10.791524 16.900671 -19.970785 28.300564 1.002529 2.354161 0.110459 -0.026031 191034.000000 0 0 1
9.571424 16.687171 -19.021785 27.053690 1.050030 2.350561 0.119017 -0.038515 284132.000000 0 0 1
9.393024 15.323871 -18.683785 25.925542 1.020897 2.375566 0.140334 -0.057518 77010.800000 0 0 1
8.073124 14.856671 -18.470985 25.041431 1.073034 2.400331 0.139093 -0.053277 212730.000000 0 0 1
7.577624 14.934871 -17.005485 23.867494 1.101264 2.363845 0.143400 -0.064883 89989.400000 0 1 0
7.383424 16.291471 -16.677285 24.455241 1.145278 2.321224 0.151560 -0.055903 -304213.000000 0 1 0
6.772024 16.513371 -15.419485 23.586272 1.181619 2.283324 0.135584 -0.060878 -46484.600000 0 1 0
6.507024 17.991671 -15.073785 24.356941 1.223764 2.238100 0.123350 -0.048609 511798.000000 0 1 0
7.649324 18.843571 -14.833885 25.172137 1.185181 2.200986 0.125316 -0.045555 532565.000000 0 0 1
8.315624 19.323171 -16.015185 26.438999 1.164407 2.221493 0.140020 -0.034388 932813.000000 0 0 1
9.636424 20.122971 -15.665085 27.261503 1.124190 2.182940 0.114195 -0.014013 699557.000000 0 0 1
9.421624 21.361671 -15.051185 27.778160 1.155408 2.143415 0.116001 -0.021404 -38379.600000 0 0 1
9.201424 21.301771 -13.652385 26.922468 1.163049 2.102613 0.112806 -0.032844 -184650.000000 0 0 1
8.786224 22.685371 -13.014985 27.590100 1.201279 2.062044 0.107420 -0.031542 429363.000000 0 0 1
7.453424 23.067871 -13.429985 27.713619 1.258276 2.076701 0.093642 -0.030099 978280.000000 0 0 1
6.812024 24.001271 -12.557685 27.931347 1.294249 2.037104 0.072464 -0.030140 300444.000000 0 0 1
6.273824 23.405371 -11.236785 26.710253 1.308902 2.005004 0.063330 -0.033439 -425530.000000 0 0 1
7.260024 23.375171 -10.223785 26.526069 1.269655 1.966464 0.061197 -0.031603 -67502.900000 0 0 1
6.787324 22.737471 -9.049385 25.395900 1.280709 1.935136 0.062521 -0.038619 58014.900000 0 0 1
7.814624 22.769671 -7.901185 25.336831 1.240189 1.887931 0.062195 -0.035912 51515.300000 0 0 1
7.806724 24.048171 -7.291485 26.313974 1.256900 1.851566 0.052879 -0.032840 57604.200000 0 0 1
8.551824 24.059571 -6.090285 26.250490 1.229280 1.804936 0.059766 -0.031427 -16417.700000 0 0 1
8.791024 25.517171 -5.506385 27.545025 1.239017 1.772057 0.047731 -0.027148 -140590.000000 0 0 1
9.712924 26.226171 -6.275185 28.662360 1.216107 1.791519 0.066586 -0.033969 -242052.000000 0 0 1
9.901624 27.531371 -5.828885 29.832775 1.225552 1.767447 0.065846 -0.034487 349485.000000 0 0 1
10.399924 28.656271 -6.814385 31.237416 1.222658 1.790713 0.068013 -0.021325 651471.000000 0 0 1
11.674424 28.444171 -7.414785 31.628185 1.181329 1.807435 0.079589 -0.025344 151829.000000 0 0 1
11.963024 29.639371 -8.246885 33.009353 1.187174 1.823306 0.084348 -0.020851 155931.000000 0 0 1
13.407324 29.603871 -8.793785 33.667138 1.145541 1.835059 0.105207 -0.023048 36782.200000 0 0 1
14.396424 29.728971 -7.802685 33.940398 1.119823 1.802765 0.097320 -0.021025 -923833.000000 0 0 1
15.497624 30.351471 -8.406685 35.100719 1.098700 1.812649 0.099046 -0.021037 -51045.800000 0 0 1
16.558324 30.732771 -7.321085 35.669029 1.076605 1.777516 0.098376 -0.022442 332777.000000 0 0 1
17.433424 29.682071 -6.934785 35.114682 1.039739 1.769593 0.093995 -0.028287 46603.200000 0 0 1
18.528524 30.210271 -6.197385 35.977413 1.020641 1.743917 0.079918 -0.015713 5692.130000 0 0 1
19.607324 29.185571 -5.850185 35.643644 0.979237 1.735672 0.074959 -0.017180 -584082.000000 0 0 1
19.298524 28.172171 -4.908085 34.499182 0.970194 1.713547 0.084019 -0.021172 -89922.100000 0 0 1
20.388124 27.295671 -4.632985 34.383046 0.929259 1.705954 0.073600 -0.018661 85213.300000 0 0 1
20.516124 26.119371 -5.676085 33.694968 0.904975 1.740058 0.073371 -0.013299 -174576.000000 0 0 1
20.903924 26.540271 -6.985785 34.498713 0.903643 1.774700 0.068112 -0.015017 187991.000000 0 0 1
20.971424 25.399571 -7.826785 33.855537 0.880603 1.804089 0.069144 -0.020180 -823147.000000 0 0 1
21.577224 25.908871 -9.140785 34.934226 0.876366 1.835535 0.075348 -0.027557 1366190.000000 0 0 1
23.020224 25.993971 -9.263385 35.936438 0.845995 1.831511 0.055399 -0.021036 1103660.000000 0 0 1
23.692124 24.793671 -9.304285 35.533260 0.808113 1.835732 0.057355 -0.014940 1654100.000000 0 0 1
25.316224 24.891771 -9.285585 36.697869 0.776944 1.826605 0.014080 -0.002337 2596240.000000 0 0 1
25.901324 25.222271 -10.530685 37.655503 0.772116 1.854235 0.026566 -0.010750 152044.000000 0 0 1
27.303924 25.389171 -10.390785 38.705073 0.749076 1.842591 0.028568 0.002435 601911.000000 0 0 1
28.123024 25.376771 -11.707585 39.647857 0.734111 1.870555 0.044783 -0.002854 -40115.100000 0 0 1
27.950524 26.529871 -12.536285 40.524367 0.759328 1.885308 0.058428 0.000553 -253190.000000 0 0 1
29.035124 26.697271 -13.411285 41.661076 0.743475 1.898547 0.064899 -0.004966 21345.500000 0 0 1
28.808524 27.821371 -14.444585 42.574708 0.767968 1.916944 0.071937 -0.016649 57685.400000 0 0 1
29.224124 29.105771 -14.074785 43.580901 0.783369 1.899649 0.068321 -0.017400 10501.800000 0 0 1
29.271824 29.984871 -15.145285 44.556838 0.797431 1.917617 0.079957 -0.013413 -65066.400000 0 0 1
29.581724 31.449571 -14.827985 45.651102 0.815993 1.901608 0.074362 -0.017934 262918.000000 0 0 1
30.959624 31.645471 -14.557385 46.603129 0.796353 1.888482 0.066594 -0.014363 80975.400000 0 0 1
31.292924 32.971071 -14.479885 47.707502 0.811506 1.879175 0.065160 -0.019362 -58354.800000 0 0 1
17.348424 -31.409756 -27.808041 45.396341 -1.066169 2.230093 0.121109 -0.038371 -267404.000000 0 0 1
18.281624 -32.277556 -27.205841 46.002350 -1.055458 2.203592 0.092956 -0.024419 -265803.000000 0 0 1
18.604124 -31.835456 -25.881691 45.049657 -1.041938 2.182807 0.084325 -0.020880 -468883.000000 0 0 1
19.899824 -32.464956 -25.309241 45.722358 -1.020900 2.157407 0.014414 -0.013429 397542.000000 0 0 1
21.075724 -32.096156 -26.027571 46.387324 -0.989765 2.166501 0.013988 -0.007117 377382.000000 0 0 1
21.314424 -32.583156 -27.318321 47.563194 -0.991506 2.182617 0.035340 -0.007443 -1460280.000000 0 0 1
22.663224 -32.134156 -27.860721 48.191758 -0.956543 2.187222 0.033036 0.003383 -382867.000000 0 0 1
22.722824 -30.853956 -28.360961 47.672187 -0.936015 2.207958 0.026815 -0.012588 134228.000000 0 0 1
23.988524 -30.291456 -28.051391 47.748321 -0.900999 2.198743 -0.000325 0.000692 45118.000000 0 0 1
24.421824 -29.094756 -28.916451 47.739831 -0.872495 2.221453 -0.006755 0.005711 -13870.500000 0 0 1
24.869424 -29.502456 -30.203311 49.001257 -0.870403 2.234931 0.014699 -0.006297 -118546.000000 0 0 1
25.426524 -28.413756 -30.916441 49.088451 -0.840825 2.252106 0.029249 -0.029532 310186.000000 0 0 1
26.060424 -28.885856 -32.254641 50.536128 -0.836775 2.263018 0.041623 -0.006681 -2783.660000 0 0 1
27.197524 -29.698456 -32.286581 51.615181 -0.829326 2.246600 0.059786 -0.020275 -408448.000000 0 0 1
27.357724 -30.163356 -33.647891 52.824745 -0.834135 2.261360 0.053174 -0.021961 -228757.000000 0 0 1
28.724824 -30.856556 -33.807011 54.038473 -0.821161 2.246710 0.052336 -0.022866 -783901.000000 0 0 1
29.727824 -29.918056 -33.708081 53.991373 -0.788588 2.245061 0.074779 -0.030250 -1774500.000000 0 0 1
30.926624 -30.604456 -33.791071 55.090156 -0.780162 2.231127 0.085786 -0.024942 -738123.000000 0 0 1
32.180524 -29.733056 33.687675 55.267533 -0.745888 0.915318 0.097176 -0.032280 -248612.000000 0 0 1
32.267524 -29.069756 32.436640 54.206821 -0.733311 0.929310 0.083243 -0.019700 8291.280000 0 0 1
33.461724 -28.331056 32.300057 54.457593 -0.702558 0.935864 0.089300 -0.027941 68923.500000 0 0 1
33.504824 -27.579756 30.980985 53.320143 -0.688703 0.950794 0.087316 -0.029796 -1205620.000000 0 0 1
34.710524 -26.917956 30.888465 53.698176 -0.659621 0.957919 0.090163 -0.032945 -625163.000000 0 0 1
34.880924 -26.160956 29.702865 52.757319 -0.643506 0.972774 0.101857 -0.029231 -165094.000000 0 0 1
35.310224 -26.946956 28.427695 52.735986 -0.651863 1.001479 0.095880 -0.025029 -365283.000000 0 0 1
34.381324 -27.898856 27.967775 52.370011 -0.681686 1.007422 0.075504 -0.034096 -137143.000000 0 0 1
33.560124 -27.364356 26.994885 51.027579 -0.684051 1.013345 0.101060 -0.037088 -296350.000000 0 0 1
32.824624 -28.422556 26.118865 50.670433 -0.713648 1.029245 0.090515 -0.020762 367220.000000 0 0 1
31.662924 -27.893156 25.506145 49.306515 -0.722185 1.027106 0.090342 -0.015126 189200.000000 0 0 1
30.973624 -28.739156 24.640705 48.912870 -0.747995 1.042842 0.067663 -0.007148 340772.000000 0 0 1
29.606724 -28.275256 24.039415 47.475696 -0.762399 1.039847 0.065061 -0.001357 1136520.000000 0 0 1
28.584024 -28.314756 25.042125 47.390715 -0.780666 1.014060 0.064686 -0.001158 1968030.000000 0 0 1
27.190924 -28.303256 24.576055 46.307701 -0.805440 1.011356 0.075578 0.007275 2823960.000000 0 0 1
26.131724 -28.140556 25.770715 46.248110 -0.822395 0.979753 0.083299 0.006070 617733.000000 0 0 1
26.016324 -26.872756 26.312905 45.731424 -0.801590 0.957729 0.064262 -0.003574 620893.000000 0 0 1
25.070424 -26.870356 27.416435 45.849789 -0.820038 0.929840 0.076740 -0.016148 391128.000000 0 0 1
24.993524 -25.497756 28.143875 45.463057 -0.795384 0.903265 0.075180 -0.008585 -139172.000000 0 0 1
24.116224 -25.572156 29.281515 45.748602 -0.814691 0.876229 0.095412 -0.019339 460688.000000 0 0 1
23.989024 -24.383556 30.079945 45.550348 -0.793554 0.849489 0.098475 -0.029254 -389475.000000 0 0 1
23.267324 -23.204556 29.478905 44.145506 -0.784047 0.839592 0.084793 -0.021848 -919235.000000 0 0 1
23.966824 -22.728156 28.385285 43.551144 -0.758878 0.860882 0.078437 -0.015431 -126943.000000 0 0 1
23.756424 -21.352656 28.032345 42.498424 -0.732161 0.850498 0.087653 -0.015774 -222798.000000 0 0 1
24.417524 -20.208256 28.847025 42.857205 -0.691353 0.832409 0.088629 -0.012654 -99722.600000 0 0 1
23.993424 -20.104856 30.196855 43.494134 -0.697446 0.803385 0.086442 -0.014763 495757.000000 0 0 1
24.635224 -18.955656 30.843565 43.789687 -0.655835 0.789280 0.081205 -0.013358 276885.000000 0 0 1
24.160324 -18.756856 32.298545 44.482996 -0.660153 0.758182 0.082033 -0.013927 -12265.600000 0 0 1
24.458924 -19.769756 33.259770 45.774388 -0.679772 0.757433 0.074486 -0.014465 72808.300000 0 0 1
23.752924 -19.468056 -33.206951 45.231717 -0.686582 2.395213 0.087232 -0.022586 -60057.800000 0 0 1
23.628424 -20.591456 -32.144581 44.895262 -0.716827 2.368838 0.069142 -0.017780 113656.000000 0 0 1
24.863624 -20.803256 -31.486431 45.192595 -0.696719 2.341606 0.071335 -0.024907 104997.000000 0 0 1
24.684924 -21.701856 -30.400281 44.771566 -0.721178 2.317208 0.064255 -0.027830 529639.000000 0 0 1
25.993124 -21.963256 -29.594591 45.098414 -0.701563 2.286598 0.044881 -0.012949 870085.000000 0 0 1
27.098124 -22.547956 -30.262761 46.460234 -0.694001 2.280184 0.054403 -0.012835 433035.000000 0 0 1
28.238124 -22.649756 -29.409551 46.640377 -0.676019 2.253071 0.052826 -0.013995 1165750.000000 0 0 1
29.547524 -23.379356 -29.850231 48.069603 -0.669380 2.240788 0.044450 -0.004975 401144.000000 0 0 1
30.292324 -22.890056 -30.918201 48.964423 -0.647100 2.254208 0.053000 -0.012490 -141722.000000 0 0 1
29.698224 -23.012756 -32.198131 49.480209 -0.659239 2.279338 0.060616 -0.016616 -312276.000000 0 0 1
30.000724 -24.308456 -32.999281 50.792687 -0.680967 2.277967 0.057614 -0.028425 -132025.000000 0 0 1
29.427424 -25.507056 -32.501461 50.724039 -0.714155 2.266272 0.068791 -0.032261 -62284.500000 0 0 1
29.731424 -26.753256 -33.125641 51.932672 -0.732722 2.262509 0.072291 -0.036797 -7312.550000 0 0 1
29.180124 -26.867356 33.070142 51.642703 -0.744157 0.875824 0.069525 -0.029088 -28051.300000 0 0 1
29.824924 -26.013156 32.132827 50.977730 -0.717239 0.888817 0.060072 -0.025968 -191982.000000 0 0 1
29.510824 -26.234256 30.779865 50.065208 -0.726688 0.908670 0.057500 -0.027056 -707460.000000 0 0 1
30.576824 -25.719256 29.808725 49.849598 -0.699325 0.929826 0.069960 -0.028601 -405779.000000 0 0 1
30.716624 -24.310956 29.671595 49.142010 -0.669511 0.922546 0.059400 -0.025019 188409.000000 0 0 1
31.312124 -23.691356 30.820035 49.915970 -0.647724 0.905314 0.057295 -0.016802 -1336510.000000 0 0 1
31.958624 -22.309056 30.407745 49.433578 -0.609423 0.908254 0.059114 -0.009976 122243.000000 0 0 1
33.244324 -22.305556 29.850045 49.937442 -0.590968 0.930106 0.084979 -0.023632 -208173.000000 0 0 1
34.240524 -22.739656 30.753515 51.335019 -0.586234 0.928451 0.077811 -0.029055 -1619670.000000 0 0 1
35.575324 -22.058256 30.579065 51.838688 -0.555027 0.939875 0.082734 -0.041157 -585269.000000 0 0 1
36.241924 -22.362556 29.355415 51.723316 -0.552852 0.967273 0.087283 -0.045597 278717.000000 0 0 1
37.449224 -21.640356 29.162395 52.165072 -0.523980 0.977568 0.075917 -0.043664 263203.000000 0 0 1
-37.505049 -21.894556 27.725515 51.523825 0.528405 1.002602 0.086256 -0.040610 -335459.000000 0 0 1
-36.867249 -23.134556 27.535785 51.503604 0.560402 1.006717 0.082756 -0.031039 86787.800000 0 0 1
-36.575049 -23.237956 26.150735 50.612230 0.566007 1.027818 0.065703 -0.020958 13505.400000 0 0 1
-36.182749 -24.699656 25.688025 50.785224 0.598977 1.040468 0.060766 -0.033057 31146.300000 0 0 1
-37.328849 -25.533356 25.887985 52.111256 0.599915 1.050908 0.076384 -0.024462 514184.000000 0 0 1
-37.223749 -26.879856 25.472725 52.507084 0.625415 1.064285 0.077319 -0.013685 341313.000000 0 0 1
-36.392949 -27.862756 26.402535 52.894932 0.653416 1.048178 0.074560 -0.017978 -375420.000000 0 0 1
-36.324349 -29.188356 25.895565 53.310400 0.676901 1.063575 0.076954 -0.016440 -215420.000000 0 0 1
-35.364849 -30.104256 26.346295 53.395375 0.705218 1.054780 0.073915 -0.030112 741379.000000 0 0 1
-33.893449 -29.634756 26.005635 51.993055 0.718462 1.046995 0.069900 -0.026974 -230740.000000 0 0 1
-33.495449 -29.519356 24.658395 51.003666 0.722384 1.066190 0.063183 -0.022444 -208652.000000 0 0 1
-32.267349 -28.884256 24.423805 49.719255 0.730131 1.057290 0.039524 -0.023659 -372659.000000 0 0 1
-31.801649 -29.107156 23.020705 48.872531 0.741189 1.080332 0.044351 -0.029722 -352159.000000 0 0 1
-31.446649 -30.398856 22.633705 49.246998 0.768458 1.093256 0.057998 -0.026693 541546.000000 0 0 1
-31.023249 -30.331456 21.250815 48.311866 0.774123 1.115345 0.052823 -0.025471 -704769.000000 0 0 1
-30.928349 -31.670856 20.474515 48.773063 0.797259 1.137581 0.063652 -0.022705 280244.000000 0 0 1
-30.039649 -32.676956 20.992115 49.100233 0.827425 1.129031 0.066794 -0.031807 223286.000000 0 0 1
-28.681749 -32.320356 20.847915 47.977950 0.844975 1.121279 0.075204 -0.028183 -157031.000000 0 0 1
-27.743249 -33.582056 20.771715 48.258746 0.880322 1.125834 0.069729 -0.014138 16739.600000 0 0 1
-28.011549 33.304471 19.618415 47.735908 -0.871507 1.147270 0.059843 -0.012156 227444.000000 0 0 1
-29.168149 32.480971 19.645415 47.872087 -0.839083 1.147933 0.068990 -0.013449 173505.000000 0 0 1
-29.201349 31.362571 20.767515 47.619527 -0.821068 1.119521 0.074722 -0.007014 -75329.400000 0 0 1
-28.205649 30.386471 20.554015 46.274872 -0.822601 1.110546 0.074060 -0.011284 54592.300000 0 0 1
-28.150349 29.565071 21.674815 46.220485 -0.809905 1.082702 0.076818 -0.014170 157122.000000 0 0 1
-27.304649 28.244571 21.428115 44.748897 -0.802317 1.071449 0.063767 -0.016753 -685079.000000 0 0 1
-25.968649 28.601171 21.439815 44.182162 -0.833602 1.064136 0.054018 -0.004393 -750805.000000 0 0 1
-25.130249 27.610871 20.805215 42.740456 -0.832397 1.062396 0.050819 -0.013261 287508.000000 0 0 1
-23.651349 27.995671 20.988815 42.233568 -0.869316 1.050693 0.039779 -0.007660 -235335.000000 0 0 1
-23.100249 27.937671 22.274015 42.547230 -0.879897 1.019828 0.051841 -0.005492 827679.000000 0 0 1
-21.821949 28.588371 22.357715 42.348080 -0.918828 1.014610 0.086291 -0.007963 696760.000000 0 0 1
-21.303849 28.766671 23.806295 42.989709 -0.933355 0.983914 0.072391 -0.003445 -346957.000000 0 0 1
-21.132249 27.511271 24.370055 42.395066 -0.915792 0.958397 0.094291 -0.015167 243305.000000 0 0 1
-20.827149 27.576071 25.782765 43.115668 -0.923936 0.929805 0.092330 -0.021006 1023610.000000 0 0 1
-19.378449 28.004971 26.264215 43.007112 -0.965484 0.913859 0.095899 -0.017397 824572.000000 0 0 1
-18.895249 29.372071 26.126005 43.615561 -0.999141 0.928536 0.075754 -0.015977 1651020.000000 0 0 1
-17.503749 29.590071 26.504055 43.409889 -1.036620 0.914037 0.082154 -0.012878 1465520.000000 0 0 1
-17.275049 29.708571 28.083015 44.381103 -1.044103 0.885672 0.072769 -0.009935 -465679.000000 0 0 1
-17.238349 28.457971 28.748265 43.971349 -1.026161 0.858207 0.072236 -0.015247 195891.000000 0 0 1
-17.546349 28.611971 30.089175 45.076354 -1.020690 0.839929 0.062989 -0.005278 -336443.000000 0 0 1
-17.291649 27.375671 30.974925 44.809313 -1.007434 0.807564 0.059487 -0.006409 -1029950.000000 0 0 1
-15.939649 27.300471 31.266625 44.463356 -1.042329 0.790908 0.056318 0.001451 -491725.000000 0 0 1
-15.484749 26.152371 32.011367 44.141269 -1.036208 0.759468 0.063896 -0.002585 -68080.000000 0 0 1
-15.876149 26.161571 33.540450 45.403103 -1.025355 0.739618 0.069674 -0.000211 -117458.000000 0 0 1
-17.232949 25.921071 -33.781611 45.935539 -0.984071 2.397073 0.077011 -0.005079 -235365.000000 0 0 1
-17.671249 26.637971 -32.679701 45.714521 -0.985069 2.367227 0.079929 -0.008347 -501215.000000 0 0 1
-19.030949 26.194971 -32.170101 45.642841 -0.942498 2.352969 0.055907 -0.005456 -913964.000000 0 0 1
-20.038149 26.303571 -33.121301 46.801986 -0.919784 2.357020 0.043781 -0.005677 -165566.000000 0 0 1
-21.219449 25.699271 -32.551271 46.586509 -0.880590 2.344413 0.059441 -0.007600 631859.000000 0 0 1
-22.493049 25.872571 -33.415671 47.874150 -0.855159 2.343383 0.092599 -0.018566 -311388.000000 0 0 1
-22.577049 25.103771 33.063672 47.255993 -0.838341 0.795859 0.092271 -0.018341 -10502.900000 0 0 1
-23.116749 23.790671 33.197815 46.930534 -0.799764 0.785009 0.091202 -0.017471 17505.700000 0 0 1
-23.348349 23.022771 31.810250 45.684630 -0.778377 0.800566 0.083029 -0.011169 282056.000000 0 0 1
-24.636549 23.187871 31.248845 46.055697 -0.755116 0.825076 0.096048 -0.019532 -264517.000000 0 0 1
-24.920249 22.429271 30.126305 45.074220 -0.732838 0.838780 0.098756 -0.016452 -79345.700000 0 0 1
-26.397149 22.026971 30.040865 45.655783 -0.695394 0.852655 0.095267 -0.014842 -204838.000000 0 0 1
-26.730049 20.832471 30.683015 45.715805 -0.662032 0.835012 0.099337 -0.033714 332391.000000 0 0 1
-27.818249 20.176171 30.021305 45.631257 -0.627495 0.852755 0.093819 -0.032994 200445.000000 0 0 1
-28.196449 18.838071 30.710265 45.749678 -0.588995 0.834879 0.115932 -0.045602 -514354.000000 0 0 1
-28.949949 19.066971 31.887480 47.100534 -0.582410 0.827105 0.112970 -0.036047 392544.000000 0 0 1
-29.417149 17.901571 32.629568 47.439684 -0.546677 0.812326 0.096105 -0.021406 322986.000000 0 0 1
-30.398649 16.887071 31.939966 47.216655 -0.507072 0.827857 0.077363 -0.030792 1276000.000000 0 0 1
-31.788549 17.327371 31.925370 48.269855 -0.499060 0.848121 0.079220 -0.033973 1537740.000000 0 0 1
-32.607349 16.284271 31.392595 48.103137 -0.463171 0.859772 0.092346 -0.025218 643748.000000 0 0 1
-34.141949 16.552671 31.330525 49.206356 -0.451429 0.880563 0.090967 -0.022984 376375.000000 0 0 1
-34.725449 16.650171 32.606924 50.460841 -0.447098 0.868224 0.083175 -0.019475 -782686.000000 0 0 1
-36.083749 16.885771 32.526727 51.431062 -0.437689 0.886106 0.099444 -0.023763 -1120810.000000 0 0 1
-36.633049 17.049671 -33.714241 52.624344 -0.435601 2.266152 0.080241 -0.014725 391102.000000 0 0 1
37.384724 17.287271 -33.676551 53.203171 0.433130 2.256193 0.079733 -0.019612 345276.000000 0 0 1
37.054924 17.834471 -32.431251 52.372911 0.448575 2.238567 0.068578 -0.027521 762522.000000 0 0 1
35.516324 18.157571 -32.341771 51.352671 0.472604 2.252088 0.078656 -0.030742 724683.000000 0 0 1
34.817524 16.966671 -32.485811 50.551517 0.453438 2.268719 0.077051 -0.017802 -335229.000000 0 0 1
33.867424 16.845571 -31.438791 49.185092 0.461563 2.264245 0.079459 -0.030557 200092.000000 0 0 1
32.904124 15.607971 -31.522651 48.166043 0.442915 2.284262 0.086264 -0.028477 566926.000000 0 0 1
31.932724 15.711671 -32.577951 48.248092 0.457247 2.312056 0.097507 -0.028434 -35575.600000 0 0 1
31.333224 14.464171 -32.895971 47.677333 0.432478 2.332245 0.094630 -0.031170 -105856.000000 0 0 1
32.138324 13.221571 -33.427751 48.219253 0.390292 2.336778 0.089791 -0.016364 282490.000000 0 0 1
32.899324 12.634771 -32.360341 47.845529 0.366676 2.313593 0.085382 -0.015015 424543.000000 0 0 1
34.042424 11.878871 -32.703821 48.677861 0.335733 2.307489 0.095749 -0.016432 49587.900000 0 0 1
18.104924 -20.820329 9.554799 29.198777 -0.855045 1.237423 0.051473 -0.010691 -106144.000000 0 0 1
17.964724 -22.124729 10.113499 30.240996 -0.888796 1.229796 0.045618 -0.013218 202432.000000 0 0 1
19.169424 -22.746629 10.534199 31.557017 -0.870534 1.230449 0.029662 -0.018314 -423048.000000 0 0 1
19.069324 -24.103629 11.250399 32.729124 -0.901482 1.219897 0.025722 -0.014321 478426.000000 0 0 1
18.253424 -25.154329 10.629099 32.846697 -0.943057 1.241268 0.033147 -0.011557 311410.000000 0 0 1
16.882124 -25.021909 10.913599 32.096864 -0.977257 1.223857 0.035209 -0.012632 -614326.000000 0 0 1
16.112924 -26.046119 10.112299 32.253453 -1.016790 1.251892 0.076222 -0.021353 -334129.000000 0 0 1
16.168324 -25.736239 8.725799 31.621326 -1.009876 1.291222 0.087702 -0.024497 217718.000000 0 0 1
15.220024 -26.561619 8.058699 31.656143 -1.050460 1.313393 0.105545 -0.021413 161777.000000 0 0 1
14.637624 -25.864509 6.819899 30.491702 -1.055802 1.345224 0.100634 -0.023780 -161334.000000 0 0 1
13.779824 -24.780429 7.059099 29.219584 -1.063300 1.326794 0.110402 -0.030023 -57165.000000 0 0 1
13.345724 -24.251329 5.837599 28.289802 -1.067716 1.362953 0.118549 -0.019787 27545.000000 0 0 1
12.975324 -22.776729 5.891799 26.867298 -1.052973 1.349707 0.136188 -0.020150 328512.000000 0 0 1
12.247924 -22.181729 4.815399 25.792030 -1.066294 1.382993 0.121629 -0.020556 329500.000000 0 0 1
11.547224 -20.990129 5.140199 24.501950 -1.067856 1.359439 0.126313 -0.019927 508093.000000 0 1 0
10.631824 -20.452329 3.994999 23.394304 -1.091407 1.399187 0.089693 -0.017123 272453.000000 0 1 0
11.373724 -19.771629 3.021999 23.008942 -1.048771 1.439076 0.080616 -0.012856 272796.000000 0 1 0
10.559424 -19.545729 1.855899 22.293078 -1.075476 1.487450 0.039871 0.006416 687269.000000 0 1 0
11.385124 -19.129629 0.573399 22.268645 -1.033946 1.545044 0.039801 0.004856 260847.000000 0 1 0
12.064024 -17.904629 0.750599 21.602773 -0.977876 1.536044 0.039019 -0.001172 -692302.000000 0 1 0
12.721824 -17.689529 -0.427801 21.793285 -0.947318 1.590428 0.042940 -0.003963 -725957.000000 0 1 0
13.897624 -16.724729 -0.226001 21.746531 -0.877459 1.581189 0.039834 0.001179 -395533.000000 0 1 0
14.908224 -17.289329 0.561599 22.836187 -0.859217 1.546201 0.058843 -0.008940 -189117.000000 0 1 0
15.892324 -16.302229 0.926899 22.785693 -0.798130 1.530106 0.055978 -0.024460 472337.000000 0 1 0
17.029924 -16.935829 1.751599 24.081294 -0.782628 1.497995 0.040571 -0.015645 -399672.000000 0 1 0
17.733524 -17.880829 1.026499 25.204278 -0.789534 1.530058 0.062451 -0.010966 -286256.000000 0 0 1
18.908724 -18.291629 1.700599 26.363148 -0.768811 1.506245 0.056067 -0.011274 177710.000000 0 0 1
19.521324 -19.521629 1.045599 27.627330 -0.785406 1.532941 0.031974 -0.016160 171957.000000 0 0 1
18.852524 -20.780129 1.344799 28.089854 -0.833997 1.522903 0.051393 -0.008379 197617.000000 0 0 1
19.251724 -21.820429 0.464699 29.102851 -0.847858 1.554828 0.065969 -0.017269 -37493.100000 0 0 1
18.330924 -23.063629 0.359699 29.463251 -0.899235 1.558588 0.078352 -0.009991 1283.550000 0 0 1
18.430824 -23.852329 1.506799 30.181109 -0.912921 1.520850 0.060690 -0.003271 -561497.000000 0 0 1
17.266224 -24.570529 1.706599 30.078994 -0.958247 1.514029 0.074962 -0.008158 -839463.000000 0 0 1
17.273324 -25.551919 2.926199 30.981138 -0.976354 1.476204 0.079911 -0.008054 670434.000000 0 0 1
18.280624 -26.590879 2.952699 32.403310 -0.968524 1.479546 0.071869 -0.017091 26739.800000 0 0 1
19.494924 -26.131499 3.455899 32.784913 -0.929840 1.465189 0.065691 -0.006896 -223233.000000 0 0 1
20.630024 -27.219159 3.545999 34.337365 -0.922244 1.467342 0.065405 -0.001815 370232.000000 0 0 1
21.155924 -27.616889 2.313999 34.865747 -0.917102 1.504379 0.069192 -0.003893 -85532.900000 0 0 1
22.087624 -28.707359 2.310899 36.294846 -0.914990 1.507083 0.083337 -0.005103 336448.000000 0 0 1
21.582224 -30.111019 2.745999 37.148437 -0.948914 1.496809 0.080288 -0.009427 -40528.000000 0 0 1
21.572724 -30.286519 4.138899 37.413716 -0.951871 1.459944 0.092149 -0.012878 12796.500000 0 0 1
21.006724 -31.578349 4.455899 38.188082 -0.983792 1.453847 0.081948 -0.025922 89369.300000 0 0 1
20.730324 -31.917569 5.970999 38.524413 -0.994776 1.415176 0.102199 -0.033989 -244342.000000 0 0 1
21.733124 -32.698669 6.554599 39.805708 -0.984192 1.405378 0.087101 -0.044532 -344929.000000 0 0 1
21.442824 -33.168509 7.831699 40.265124 -0.996899 1.375045 0.081338 -0.041495 -674888.000000 0 0 1
22.489924 33.673132 8.461099 41.367460 0.981948 1.364808 0.098700 -0.049234 53954.500000 0 0 1
23.635424 -33.302459 8.884399 41.792578 -0.953577 1.356579 0.105206 -0.043129 610925.000000 0 0 1
24.610724 33.532448 9.414799 42.646820 0.937655 1.348201 0.132225 -0.049337 -108439.000000 0 0 1
25.694724 -33.496659 10.230699 43.438603 -0.916451 1.333042 0.126269 -0.043431 -341906.000000 0 0 1
26.354224 -32.438369 9.552799 42.872472 -0.888516 1.346091 0.109010 -0.037233 -549624.000000 0 0 1
27.404024 -31.908149 10.267699 43.295914 -0.861192 1.331363 0.100014 -0.031095 -755661.000000 0 0 1
27.979824 -30.761349 9.429199 42.638492 -0.832715 1.347810 0.099659 -0.032485 -418581.000000 0 0 1
27.129224 -29.640009 9.243299 41.230614 -0.829597 1.344689 0.084545 -0.025819 1562.440000 0 0 1
27.498624 -28.949719 8.121099 40.745709 -0.811099 1.370141 0.082981 -0.018401 -540487.000000 0 0 1
26.918524 -27.566039 8.042899 39.359645 -0.797282 1.365003 0.075461 -0.017398 -309735.000000 0 0 1
27.584324 -26.713059 8.920799 39.421607 -0.769353 1.342527 0.085972 -0.026228 163102.000000 0 0 1
26.908624 -25.460729 8.987699 38.119569 -0.757757 1.332779 0.081852 -0.019732 135681.000000 0 0 1
27.589624 -24.500729 10.008599 38.231468 -0.726169 1.305920 0.095100 -0.037638 293677.000000 0 0 1
28.840424 -24.180229 9.436999 38.800909 -0.697729 1.325116 0.110355 -0.030466 -169359.000000 0 0 1
29.652124 -23.295129 10.206399 39.065101 -0.665907 1.306462 0.081168 -0.036882 470311.000000 0 0 1
31.096024 -23.145129 9.678099 39.954040 -0.639851 1.326132 0.090758 -0.023874 238949.000000 0 0 1
31.356724 -22.302829 8.555799 39.419057 -0.618244 1.352008 0.099775 -0.014071 -1377200.000000 0 0 1
32.695524 -22.161029 8.274599 40.355638 -0.595671 1.364290 0.083239 -0.014909 -1148050.000000 0 0 1
32.907124 -21.304029 7.067299 39.833242 -0.574544 1.392430 0.077482 0.006084 -220195.000000 0 0 1
32.553424 -19.954229 7.271999 38.868736 -0.549901 1.382596 0.078276 0.005249 35588.400000 0 0 1
32.493224 -19.192229 6.066899 38.222487 -0.533519 1.411396 0.068938 0.005793 198763.000000 0 0 1
31.964524 -17.766129 6.360399 37.119009 -0.507291 1.398595 0.088626 0.007831 32870.200000 0 0 1
32.955624 -16.968029 6.969399 37.716836 -0.475477 1.384946 0.086874 0.010098 -42135.600000 0 0 1
32.453524 -15.792529 7.544599 36.872160 -0.452886 1.364726 0.096713 -0.002749 -37373.000000 0 0 1
33.285624 -15.294029 8.765299 37.665244 -0.430708 1.335927 0.094133 -0.027771 439837.000000 0 0 1
34.588224 -14.825129 8.404399 38.558574 -0.404931 1.351068 0.090484 -0.028955 83551.900000 0 0 1
35.401724 -14.963929 9.546699 39.602282 -0.399912 1.327334 0.086225 -0.042873 -841805.000000 0 0 1
36.866024 -15.055329 9.181699 40.866493 -0.387709 1.344186 0.096298 -0.053590 -775696.000000 0 0 1
37.509924 -13.908829 8.711699 40.943176 -0.355087 1.356382 0.138829 -0.040624 -1433810.000000 0 0 1
-36.606249 -14.108729 8.395299 40.119257 0.367873 1.359980 0.150381 -0.040212 -1007750.000000 0 0 1
-35.857349 -12.813129 8.012899 38.911853 0.343195 1.363388 0.168444 -0.048589 -494537.000000 0 0 1
-36.165749 -12.193529 6.750599 38.758408 0.325188 1.395732 0.192738 -0.066608 447156.000000 0 0 1
-35.028449 -11.885029 5.922799 37.460989 0.327108 1.412024 0.202762 -0.053710 811342.000000 0 0 1
-34.180149 -13.063629 5.400299 36.987893 0.365067 1.424271 0.205983 -0.054927 -574564.000000 0 0 1
-33.369249 -13.659729 6.315499 36.605744 0.388541 1.397401 0.204072 -0.052501 -347665.000000 0 0 1
-32.490349 -14.633029 5.731399 36.091512 0.423171 1.411319 0.212561 -0.034416 437657.000000 0 0 1
-31.795549 -15.404829 6.880599 35.994560 0.451168 1.378456 0.164084 -0.036113 145293.000000 0 0 1
-32.776249 -16.180329 7.524499 37.318945 0.458563 1.367778 0.148529 -0.044831 21331.400000 0 0 1
-32.363049 -16.623429 8.791499 37.429878 0.474512 1.333702 0.130067 -0.041213 44724.600000 0 0 1
-33.425949 -17.458129 9.548599 38.900592 0.481322 1.322801 0.071839 -0.027835 908431.000000 0 0 1
-34.658149 -16.694829 9.824199 39.704150 0.448901 1.320764 0.088727 -0.023122 1836670.000000 0 0 1
-35.531049 -17.329329 10.768299 40.972154 0.453778 1.304853 0.095153 -0.021507 329275.000000 0 0 1
-36.275949 -18.648029 10.387199 42.090229 0.474833 1.321436 0.084203 -0.018219 -648501.000000 0 0 1
-35.538549 -19.861129 10.492599 42.042212 0.509621 1.318557 0.101306 -0.012699 -246985.000000 0 0 1
-35.316649 -20.290229 11.830099 42.413563 0.521476 1.288124 0.105778 -0.032281 -3086.840000 0 0 1
-36.435349 -21.088329 12.519999 43.920413 0.524676 1.281726 0.069582 -0.041839 24513.800000 0 0 1
-36.437649 -22.390829 12.034999 44.428512 0.551011 1.296484 0.096499 -0.041114 1331510.000000 0 0 1
37.632324 -22.916029 11.999599 45.665376 -0.546971 1.304902 0.096639 -0.029220 1343130.000000 0 0 1
37.580724 -24.438929 11.768999 46.347399 -0.576590 1.314055 0.090667 -0.028724 -429062.000000 0 0 1
-37.470349 -25.201689 12.941199 46.974747 0.592083 1.291694 0.102031 -0.028997 558893.000000 0 0 1
37.214824 -26.451159 13.091999 47.497446 -0.617917 1.291545 0.106858 -0.036298 934841.000000 0 0 1
35.727424 -26.293539 13.532399 46.378065 -0.634447 1.274704 0.105860 -0.044472 262290.000000 0 0 1
34.795524 -25.929599 12.504599 45.160133 -0.640422 1.290235 0.090571 -0.035838 820362.000000 0 0 1
33.582424 -25.343249 13.004199 44.035993 -0.646476 1.271018 0.086610 -0.008200 731124.000000 0 0 1
33.735424 -23.823529 13.362199 43.407232 -0.614866 1.257881 0.087135 -0.016371 -383091.000000 0 0 1
34.580424 -23.574129 14.458099 44.278459 -0.598351 1.238170 0.089242 -0.025847 -267798.000000 0 0 1
34.719424 -22.231429 14.753599 43.787482 -0.569538 1.227135 0.090590 -0.035829 -240180.000000 0 0 1
35.914724 -21.955129 15.658699 44.912025 -0.548696 1.214663 0.072264 -0.024195 -359329.000000 0 0 1
36.052124 -20.589429 16.116799 44.535733 -0.518900 1.200508 0.086767 -0.004658 381232.000000 0 0 1
35.155124 -20.242229 17.188299 44.057556 -0.522433 1.170020 0.080438 -0.011546 227081.000000 0 0 1
35.406724 -18.884529 17.813999 43.904443 -0.489978 1.153003 0.080680 0.002163 -249400.000000 0 0 1
34.998724 -17.799429 16.987799 42.782189 -0.470483 1.162467 0.067281 -0.010592 190131.000000 0 0 1
34.917524 -16.520729 17.632399 42.462566 -0.441926 1.142583 0.065027 -0.004705 566462.000000 0 0 1
36.285424 -15.795329 17.932699 43.447740 -0.410569 1.145334 0.043651 -0.008090 609100.000000 0 0 1
36.942924 -16.278629 19.094799 44.658535 -0.415045 1.128990 0.055203 0.005665 41103.200000 0 0 1
-37.567249 -15.328929 19.547799 45.037659 0.387418 1.121832 0.050591 0.003763 -311634.000000 0 0 1
-37.074149 -15.617229 21.018899 45.389255 0.398684 1.089328 0.061051 0.004743 -108318.000000 0 0 1
-36.154549 -16.673729 21.185199 45.099638 0.432112 1.081798 0.073197 0.007746 37927.900000 0 0 1
-35.568249 -16.566729 22.435899 45.198744 0.435893 1.051369 0.074679 0.000960 -302469.000000 0 0 1
-34.473649 -17.604229 22.675299 44.861014 0.472137 1.040885 0.074634 0.002266 -695239.000000 0 0 1
-35.041049 -18.905529 22.777799 45.870713 0.494766 1.051159 0.065099 -0.007165 314793.000000 0 0 1
-34.176649 -19.869029 23.308999 45.892604 0.526603 1.038047 0.046331 -0.006291 -271085.000000 0 0 1
-33.134249 -20.526929 22.362699 44.936885 0.554640 1.049913 0.039235 0.005017 322070.000000 0 0 1
-32.026149 -19.661729 22.168299 43.631311 0.550597 1.037839 0.056260 0.009114 759420.000000 0 0 1
-30.808049 -20.363929 21.865599 42.917711 0.584065 1.036219 0.049971 0.014758 331594.000000 0 0 1
-29.596549 -19.448129 21.781699 41.576771 0.581356 1.019384 0.075654 0.012311 -517156.000000 0 0 1
-29.211749 -18.920329 23.053999 41.746761 0.574754 0.985754 0.049501 0.012137 -89562.800000 0 0 1
-28.202249 -17.980529 22.865999 40.515678 0.567578 0.971121 0.086183 0.005777 -379803.000000 0 0 1
-27.515649 -17.513029 24.167699 40.594271 0.566809 0.933098 0.069788 -0.008324 -457696.000000 0 0 1
-26.550749 -16.472829 24.056899 39.433879 0.555305 0.914664 0.092247 -0.014775 334151.000000 0 0 1
-26.249149 -15.880729 25.341199 39.791855 0.544088 0.880399 0.076489 -0.015142 219756.000000 0 0 1
-25.244149 -16.655529 26.250199 40.046806 0.583218 0.855968 0.065936 -0.004181 -211822.000000 0 0 1
-25.578449 -18.018929 26.480399 40.989638 0.613711 0.868429 0.055693 0.002271 368338.000000 0 0 1
-24.576349 -18.541829 27.380699 41.200717 0.646348 0.843880 0.060841 -0.003082 588254.000000 0 0 1
-24.984949 -19.863429 28.000499 42.459763 0.671694 0.850697 0.048510 0.006691 -807883.000000 0 0 1
-25.890549 -19.778529 29.015799 43.628286 0.652356 0.843211 0.039570 0.001649 -762644.000000 0 0 1
-26.176449 -21.026129 29.586399 44.751085 0.676717 0.848469 0.037547 0.003610 193350.000000 0 0 1
-27.411449 -21.170629 30.524099 46.166045 0.657639 0.848405 0.043948 0.007904 54395.000000 0 0 1
-27.256449 -20.351629 31.682199 46.485100 0.641368 0.820909 0.052438 -0.007945 275749.000000 0 0 1
-28.356349 -20.374529 32.558699 47.741731 0.623046 0.820336 0.066529 -0.002417 1841280.000000 0 0 1
-29.647349 -19.381129 32.443999 48.033390 0.578987 0.829226 0.043038 -0.009349 1741660.000000 0 0 1
-30.496449 -19.729529 31.389899 48.006390 0.574225 0.858109 0.044860 -0.012271 471698.000000 0 0 1
-31.796549 -19.147229 31.528599 48.699995 0.542021 0.866622 0.069242 -0.025728 107986.000000 0 0 1
-32.824849 -19.658129 30.552499 48.962924 0.539595 0.896955 0.065220 -0.011396 -865960.000000 0 0 1
-32.634949 -19.424329 29.193999 47.902339 0.536883 0.915432 0.063296 -0.027533 -396468.000000 0 0 1
-33.722349 -19.848429 28.441799 48.374507 0.531983 0.942274 0.068389 -0.035806 -751552.000000 0 0 1
-34.412049 -18.801929 27.629699 47.969802 0.500057 0.956993 0.070302 -0.026268 -317402.000000 0 0 1
-35.605049 -19.336829 27.096399 48.742664 0.497524 0.981342 0.047675 -0.028650 65208.200000 0 0 1
-36.325249 -18.394729 26.350599 48.499937 0.468746 0.996419 0.099154 -0.025506 -46216.700000 0 0 1
-37.517549 -18.984929 25.569199 49.211563 0.468458 1.024440 0.077935 -0.028153 -719287.000000 0 0 1
36.802724 -19.290729 26.318099 49.185517 -0.482793 1.006196 0.085629 -0.028649 -929197.000000 0 0 1
35.819924 -19.862629 25.486299 48.240465 -0.506302 1.014178 0.114694 -0.027632 -814895.000000 0 0 1
34.563724 -20.266129 26.225599 47.886836 -0.530316 0.991234 0.109241 -0.033085 -486963.000000 0 0 1
33.852224 -19.096429 26.645199 47.123384 -0.513613 0.969836 0.103923 -0.036683 -213300.000000 0 0 1
32.755624 -19.363229 27.457999 46.923419 -0.533881 0.945711 0.094166 -0.024999 -302160.000000 0 0 1
-29.617656 -4.774529 33.491079 44.962807 0.159830 0.730469 0.088722 -0.031166 -773443.000000 0 0 1
-30.778616 -5.137229 32.813748 45.281965 0.165384 0.760264 0.102318 -0.028959 -144303.000000 0 0 1
-30.984796 -4.168429 31.808985 44.600952 0.133729 0.776757 0.102844 -0.024786 31445.500000 0 0 1
-32.000576 -4.625529 30.707095 44.591009 0.143551 0.811186 0.103340 -0.029304 13807.000000 0 0 1
-31.704006 -5.589229 29.695305 43.797199 0.174501 0.825733 0.110235 -0.025406 -401111.000000 0 0 1
-30.555016 -5.313829 28.941365 42.419905 0.172188 0.819948 0.100404 -0.028778 -183891.000000 0 0 1
-30.249666 -6.259529 27.824615 41.574429 0.204049 0.837567 0.103449 -0.032604 32247.500000 0 0 1
-30.934756 -5.877029 26.655585 41.255531 0.187744 0.868320 0.108303 -0.031152 81622.000000 0 0 1
-30.657166 -6.795529 25.682615 40.566461 0.218135 0.885245 0.125418 -0.029032 141604.000000 0 0 1
-31.304406 -6.291129 24.341545 40.150404 0.198324 0.919448 0.117068 -0.019386 -69315.300000 0 0 1
-30.761906 -5.162629 23.718545 39.185673 0.166276 0.920671 0.116278 -0.021550 -369833.000000 0 0 1
-31.408376 -4.680329 22.554055 38.949672 0.147927 0.953226 0.116697 -0.017997 -166247.000000 0 0 1
-30.912926 -3.337229 21.988015 38.081739 0.107539 0.955268 0.115044 -0.018120 553711.000000 0 0 1
-29.645476 -3.556929 21.363515 36.713836 0.119411 0.949742 0.129098 -0.017047 137765.000000 0 0 1
-29.096836 -2.369829 20.926515 35.918811 0.081267 0.948865 0.130421 -0.013184 649910.000000 0 0 1
-27.616606 -2.450529 20.411215 34.428182 0.088502 0.936186 0.119469 -0.013559 677934.000000 0 0 1
-27.510286 -3.195929 19.210715 33.705806 0.115654 0.964348 0.141304 -0.020525 -340455.000000 0 0 1
-26.178916 -3.037829 18.804415 32.375455 0.115524 0.951057 0.129953 -0.014482 -171356.000000 0 0 1
-25.746996 -3.784129 17.509115 31.365531 0.145929 0.978548 0.135663 -0.017133 134053.000000 0 0 1
-26.475836 -3.184829 16.430815 31.322272 0.119717 1.018583 0.146284 -0.013786 692967.000000 0 0 1
-26.090066 -3.765829 15.148915 30.403332 0.143350 1.049200 0.147842 -0.023125 438565.000000 0 0 1
-27.367036 -3.999129 14.285615 31.129190 0.145102 1.094024 0.166194 -0.023358 384508.000000 0 0 1
-27.959516 -2.843529 13.778415 31.299599 0.101353 1.114963 0.160458 -0.023572 561141.000000 0 0 1
-29.153256 -3.112829 13.024815 32.081893 0.106372 1.152738 0.163567 -0.025101 555525.000000 0 0 1
-29.695056 -1.903229 12.231315 32.171784 0.064005 1.180797 0.161940 -0.012196 -256019.000000 0 0 1
-28.984706 -1.592329 11.049815 31.060378 0.054882 1.207077 0.179621 -0.017286 413335.000000 0 0 1
-29.547136 -0.424329 10.387615 31.322769 0.014360 1.232764 0.182713 -0.013058 846724.000000 0 0 1
-30.955206 -0.589129 9.706115 32.446579 0.019029 1.267004 0.173976 -0.015853 493335.000000 0 0 1
-30.884886 -1.095329 8.395015 32.024244 0.035450 1.305551 0.171939 -0.025485 266433.000000 0 0 1
-32.142396 -1.038629 7.724215 33.073794 0.032302 1.335075 0.177638 -0.034754 232495.000000 0 0 1
-32.225996 -1.901629 6.436415 32.917449 0.058941 1.373996 0.200563 -0.040277 -153166.000000 0 0 1
-31.655986 -1.331729 5.254215 32.116689 0.042044 1.406460 0.205964 -0.051821 296392.000000 0 0 1
-32.371896 -0.303829 4.578915 32.695541 0.009385 1.430287 0.214064 -0.044183 -77936.100000 0 0 1
-31.988006 -0.130929 3.048115 32.133171 0.004093 1.475795 0.197936 -0.043463 -37509.500000 0 0 1
-32.378496 -1.226429 2.293615 32.482792 0.037860 1.500127 0.179691 -0.056991 370989.000000 0 0 1
-31.767616 -1.101529 1.032615 31.803476 0.034661 1.538322 0.173704 -0.060653 -138207.000000 0 0 1
-32.546636 -1.921929 -0.016485 32.603337 0.058983 1.571302 0.156577 -0.060501 125580.000000 0 0 1
-33.843776 -1.390429 -0.171685 33.872761 0.041061 1.575865 0.180750 -0.054719 -66047.300000 0 0 1
-34.706819 -2.254429 -0.885185 34.791224 0.064865 1.596242 0.180463 -0.063340 1276660.000000 0 0 1
-36.189946 -1.677029 -1.028085 36.243366 0.046307 1.599166 0.177589 -0.045765 1157220.000000 0 0 1
-36.944266 -2.117829 0.092615 37.005034 0.057262 1.568294 0.191565 -0.045630 290094.000000 0 0 1
37.140578 -1.646929 0.066415 37.177134 -0.044314 1.569010 0.173189 -0.036546 155298.000000 0 0 1
36.195398 -2.711529 0.611515 36.301972 -0.074774 1.553950 0.199329 -0.043694 -338166.000000 0 0 1
36.392148 -2.871229 2.010315 36.560549 -0.078734 1.515783 0.195665 -0.043646 -90577.100000 0 0 1
35.494538 -3.807929 2.535215 35.788125 -0.106873 1.499897 0.198777 -0.034117 -72101.100000 0 0 1
35.476788 -4.087529 4.043815 35.939711 -0.114711 1.458041 0.191977 -0.029674 226615.000000 0 0 1
34.833088 -2.995829 4.693215 35.275279 -0.085794 1.437355 0.190739 -0.039720 157657.000000 0 0 1
34.860178 -3.176929 6.064315 35.526058 -0.090882 1.399256 0.165741 -0.046917 145616.000000 0 0 1
34.088298 -2.072429 6.856315 34.832687 -0.060721 1.372667 0.169517 -0.040091 780347.000000 0 0 1
32.689328 -1.931129 6.565115 33.397937 -0.059007 1.372935 0.193851 -0.034129 632291.000000 0 0 1
32.134348 -1.094229 7.576615 33.033601 -0.034039 1.339375 0.198033 -0.034347 172383.000000 0 0 1
30.593848 -1.188029 7.629515 31.553200 -0.038813 1.326577 0.182918 -0.027150 -574547.000000 0 0 1
29.809198 -0.857829 6.495615 30.520766 -0.028769 1.356330 0.217943 -0.031403 431099.000000 0 0 1
28.421298 -0.893229 6.799215 29.236918 -0.031418 1.336092 0.200433 -0.018375 378103.000000 0 0 1
27.741798 -2.267829 6.715715 28.633045 -0.081566 1.334047 0.234245 -0.033557 -686184.000000 0 0 1
28.159898 -3.163629 7.758115 29.379870 -0.111876 1.303565 0.197191 -0.032329 323400.000000 0 0 1
27.687198 -4.448829 7.493815 29.026372 -0.159320 1.309666 0.219370 -0.040721 -218837.000000 0 0 1
27.877198 -5.425329 8.661315 29.691594 -0.192213 1.274783 0.187855 -0.032788 -777080.000000 0 0 1
27.023098 -5.156029 9.690915 29.167556 -0.188535 1.232108 0.184983 -0.031313 -190830.000000 0 0 1
27.393898 -5.777629 10.894815 30.041699 -0.207863 1.199680 0.170498 -0.032546 245869.000000 0 0 1
26.273598 -5.855729 12.003415 29.473268 -0.219291 1.151339 0.147863 -0.026240 501680.000000 0 0 1
25.133498 -6.605629 11.648115 28.478161 -0.257009 1.149417 0.175652 -0.031062 14173.000000 0 0 1
24.058098 -6.205229 12.464715 27.796872 -0.252425 1.105798 0.189086 -0.039967 278547.000000 0 0 1
22.870898 -7.154229 12.701115 27.121565 -0.303167 1.083427 0.178023 -0.043464 191595.000000 0 0 1
23.329498 -8.272929 13.393315 28.144053 -0.340778 1.074827 0.147914 -0.034467 -105813.000000 0 0 1
22.421998 -9.329529 13.359615 27.717601 -0.394298 1.067871 0.201054 -0.060521 -376322.000000 0 0 1
22.841698 -10.479129 14.253315 28.891388 -0.430125 1.054869 0.137174 -0.045269 -234726.000000 0 0 1
23.039898 -10.166929 15.631615 29.640357 -0.415574 1.015287 0.127924 -0.040457 367589.000000 0 0 1
23.356498 -11.358229 16.334315 30.681350 -0.452626 1.009380 0.108691 -0.043921 -221617.000000 0 0 1
23.208098 -11.268229 17.858215 31.376817 -0.452005 0.965321 0.121258 -0.046192 1123140.000000 0 0 1
21.825898 -11.190729 18.282915 30.591947 -0.473777 0.930244 0.130054 -0.055587 1097000.000000 0 0 1
21.664098 -11.532929 19.644715 31.436546 -0.489193 0.895792 0.160514 -0.046761 251439.000000 0 0 1
22.090898 -10.472029 20.774415 32.081887 -0.442667 0.866440 0.134684 -0.037364 98311.300000 0 0 1
21.202198 -9.355029 20.883715 31.195822 -0.415536 0.837342 0.156079 -0.040661 285221.000000 0 0 1
21.502298 -8.210829 20.092915 30.553098 -0.364770 0.853116 0.148057 -0.033955 -623820.000000 0 0 1
22.582998 -7.261029 20.758715 31.522034 -0.311087 0.851911 0.126966 -0.017439 1623910.000000 0 0 1
23.927598 -7.786229 20.820915 32.659850 -0.314601 0.879537 0.137258 -0.026070 910577.000000 0 0 1
24.547298 -7.932529 19.554615 32.370941 -0.312560 0.922186 0.137424 -0.033818 -1119630.000000 0 0 1
26.005898 -8.417829 19.588315 33.628391 -0.313046 0.949003 0.091417 -0.027604 -217733.000000 0 0 1
26.097698 -9.676429 20.185415 34.382759 -0.355063 0.943350 0.070886 -0.028552 426667.000000 0 0 1
27.264098 -10.384729 19.742115 35.226762 -0.363928 0.975892 0.064989 -0.026216 603115.000000 0 0 1
27.109298 -11.896729 20.040215 35.749915 -0.413537 0.975726 0.017879 -0.012717 -13524.000000 0 0 1
26.303898 -12.615229 19.126515 34.883558 -0.447191 0.990471 0.075182 -0.035772 -10896.400000 0 0 1
26.316898 -13.983529 19.377115 35.547022 -0.488413 0.994273 0.047956 -0.026022 283159.000000 0 0 1
25.220398 -14.788329 18.568715 34.634670 -0.530333 1.004949 0.099252 -0.028026 29098.100000 0 0 1
25.437798 -14.770829 17.183915 34.066786 -0.526081 1.042088 0.096314 -0.037657 1010180.000000 0 0 1
24.333998 -15.244629 16.345715 33.041256 -0.559659 1.053300 0.090612 -0.039269 565273.000000 0 0 1
24.069498 -16.785229 16.407515 33.619804 -0.608955 1.060964 0.068568 -0.036177 -1129760.000000 0 0 1
25.074898 -17.566829 15.898615 34.497970 -0.611111 1.091836 0.096646 -0.040141 -675811.000000 0 0 1
24.848798 -18.964429 16.012515 35.121403 -0.651891 1.097392 0.074947 -0.026235 -602275.000000 0 0 1
26.048498 -19.874029 15.779915 36.366289 -0.651746 1.121962 0.073612 -0.013379 -379300.000000 0 0 1
26.486898 -19.980929 14.421515 36.176973 -0.646292 1.160765 0.089911 -0.029758 596326.000000 0 0 1
27.645998 -20.798829 14.276615 37.426117 -0.644989 1.179420 0.105213 -0.031585 222817.000000 0 0 1
27.941998 -20.992129 12.760215 37.205481 -0.644317 1.220724 0.096472 -0.047683 -264964.000000 0 0 1
26.907498 -21.649229 12.057615 36.579894 -0.677527 1.234891 0.097885 -0.032620 260168.000000 0 0 1
26.376898 -20.857029 10.991515 35.377533 -0.669063 1.254875 0.139838 -0.033545 255568.000000 0 0 1
24.911698 -21.181129 10.602715 34.375144 -0.704638 1.257242 0.076269 -0.021029 -48192.000000 0 0 1
24.618598 -22.384829 10.008715 34.746659 -0.737910 1.278608 0.064001 -0.025521 -411148.000000 0 0 1
23.215098 -22.438429 9.945515 33.783682 -0.768388 1.271981 0.042597 -0.015590 -126509.000000 0 0 1
22.794498 -23.301429 8.717415 33.742244 -0.796395 1.309479 0.037237 -0.010450 -217749.000000 0 0 1
23.183298 -24.672529 8.808215 34.982619 -0.816507 1.316269 0.035603 -0.004887 30052.800000 0 0 1
23.051198 -25.413039 7.568715 35.134965 -0.834093 1.353676 0.037719 0.000033 -417966.000000 0 0 1
21.633698 -25.894279 7.289715 34.520581 -0.874803 1.358024 0.040155 0.000642 69673.700000 0 0 1
20.651198 -24.883229 7.036315 33.093153 -0.878073 1.356539 0.041412 0.002246 -390934.000000 0 0 1
19.341298 -25.393179 7.078115 32.695551 -0.919866 1.352583 0.061902 -0.019412 -151724.000000 0 0 1
18.414298 -24.162429 7.061815 31.189399 -0.919593 1.342399 0.066705 -0.019165 -454186.000000 0 0 1
18.189998 -23.521529 5.810515 30.296872 -0.912528 1.377815 0.079450 -0.023197 280835.000000 0 0 1
17.356198 -22.398629 6.065215 28.977975 -0.911563 1.359933 0.091506 -0.013711 148019.000000 0 0 1
17.007198 -21.546829 4.821015 27.870285 -0.902606 1.396941 0.108227 -0.010096 312366.000000 0 0 1
16.084798 -20.496129 5.116215 26.551604 -0.905410 1.376894 0.131841 -0.015072 343485.000000 0 0 1
15.521198 -19.958629 3.930415 25.587157 -0.909821 1.416577 0.121199 -0.020274 446253.000000 0 0 1
14.718298 -18.668529 4.290915 24.156867 -0.903168 1.392222 0.123821 -0.013221 611787.000000 0 1 0
15.613598 -17.620729 4.697215 24.007048 -0.845718 1.373866 0.099861 -0.015520 737766.000000 0 1 0
14.884898 -16.438929 4.940615 22.720217 -0.834969 1.351590 0.074264 -0.005604 428950.000000 0 1 0
15.893698 -15.254729 5.076015 22.607130 -0.764887 1.344334 0.068488 -0.009058 -634464.000000 0 1 0
16.608098 -15.295229 6.289115 23.437703 -0.744270 1.299134 0.105565 -0.022026 412192.000000 0 1 0
17.742998 -14.431829 6.239115 23.706924 -0.682847 1.304483 0.103542 -0.018798 434475.000000 0 1 0
18.974398 -14.866529 5.397015 24.701604 -0.664602 1.350531 0.124142 -0.041530 -1061100.000000 0 1 0
19.846098 -13.800429 5.369615 24.761911 -0.607613 1.352210 0.131162 -0.033244 -1029620.000000 0 1 0
21.173198 -14.131829 5.121915 25.966265 -0.588537 1.372242 0.138051 -0.023133 -817170.000000 0 0 1
22.017598 -12.898729 4.983015 25.999659 -0.529941 1.377946 0.137210 -0.018910 -506133.000000 0 0 1
22.420198 -12.364229 6.244515 26.354002 -0.503977 1.331574 0.168577 -0.026138 175399.000000 0 0 1
23.334198 -11.310729 6.202915 26.662587 -0.451355 1.336000 0.176980 -0.023968 -191070.000000 0 0 1
23.535498 -10.662929 7.615415 26.937191 -0.425393 1.284178 0.192610 -0.027238 -95303.900000 0 0 1
24.154098 -11.393729 8.638015 28.068716 -0.440761 1.257974 0.190001 -0.021751 212730.000000 0 0 1
24.218798 -10.710629 9.870815 28.261294 -0.416386 1.214005 0.214504 -0.039882 -187070.000000 0 0 1
24.814098 -11.560329 10.960115 29.487367 -0.435979 1.189969 0.174045 -0.030710 -40046.500000 0 0 1
23.944498 -12.616729 11.332415 29.341855 -0.484947 1.174266 0.181276 -0.039012 691723.000000 0 0 1
24.618498 -13.522329 12.182715 30.616048 -0.502287 1.161549 0.177870 -0.043929 108514.000000 0 0 1
23.534898 -14.455329 12.700115 30.399686 -0.550801 1.139805 0.146701 -0.050222 299183.000000 0 0 1
22.431098 -13.888029 13.380315 29.581487 -0.554376 1.101431 0.128850 -0.056195 317309.000000 0 0 1
21.402098 -14.847229 13.583315 29.376801 -0.606504 1.090116 0.101018 -0.055215 589734.000000 0 0 1
20.076198 -14.260729 14.146215 28.399604 -0.617625 1.049375 0.103578 -0.055011 -225792.000000 0 0 1
20.326998 -13.673929 15.411715 28.942774 -0.592166 1.009258 0.106695 -0.052909 56324.900000 0 0 1
19.786698 -12.433429 15.585515 28.089355 -0.561021 0.982608 0.132650 -0.070947 -399130.000000 0 0 1
18.258298 -12.180229 15.733715 27.005059 -0.588307 0.948846 0.183184 -0.070487 -19115.900000 0 0 1
17.648498 -12.470629 14.442815 25.991941 -0.615149 0.981634 0.195771 -0.082763 1532750.000000 0 0 1
16.197298 -12.364929 14.577915 25.055130 -0.652019 0.949815 0.254419 -0.078149 1659850.000000 0 0 1
15.570898 -10.965629 14.274815 23.800593 -0.613565 0.927586 0.207952 -0.071984 -430460.000000 0 1 0
15.873598 -10.101429 15.338115 24.274838 -0.566731 0.886855 0.189492 -0.061974 160011.000000 0 1 0
15.427798 -8.780229 15.168915 23.349633 -0.517402 0.863682 0.169180 -0.053508 -479862.000000 0 1 0
16.107598 -7.866529 16.202515 24.163164 -0.454303 0.835852 0.184494 -0.041510 -608232.000000 0 1 0
17.475498 -7.654529 16.153415 24.998353 -0.412843 0.868229 0.181964 -0.052275 -183555.000000 0 1 0
18.314498 -8.649529 16.832115 26.335438 -0.441225 0.877413 0.192251 -0.047276 375554.000000 0 0 1
19.773598 -8.427829 16.364615 27.015257 -0.402900 0.920082 0.170773 -0.044284 -190978.000000 0 0 1
20.361498 -7.275929 16.904615 27.446234 -0.343197 0.907246 0.150700 -0.046367 453101.000000 0 0 1
21.628798 -7.098029 16.257515 27.973089 -0.317101 0.950613 0.139679 -0.037609 569149.000000 0 0 1
22.279498 -5.717429 16.663315 28.403012 -0.251202 0.943850 0.151009 -0.037364 39256.900000 0 0 1
22.809998 -5.765229 17.966715 29.602985 -0.247565 0.918614 0.159895 -0.033778 -41345.200000 0 0 1
23.230198 -4.524829 18.380015 29.965666 -0.192373 0.910477 0.166274 -0.034788 -204984.000000 0 0 1
-5.503476 -32.640456 -6.732701 33.778941 1.403758 1.771457 0.092424 -0.022667 -587097.000000 0 0 1
-6.275776 -31.527556 -6.757201 32.848621 1.374308 1.777983 0.084846 -0.024888 -517006.000000 0 0 1
-5.843976 -30.649156 -5.763401 31.729160 1.382385 1.753454 0.100940 -0.032494 -398485.000000 0 0 1
-6.698976 -29.349756 -5.632601 30.626960 1.346394 1.755759 0.093674 -0.029182 1541110.000000 0 0 1
-8.069176 -29.514556 -5.194601 31.035536 1.303922 1.738964 0.081888 -0.026651 1039070.000000 0 0 1
-8.981376 -29.950856 -6.183601 31.874062 1.279458 1.766035 0.073144 -0.019093 165556.000000 0 0 1
-10.441276 -29.938656 -5.622401 32.201782 1.235230 1.746295 0.059872 -0.013052 695648.000000 0 0 1
-11.428276 -30.335656 -6.545201 33.071093 1.210512 1.770025 0.044709 -0.011510 -446262.000000 0 0 1
-12.732576 -30.099956 -6.068201 33.240772 1.170613 1.754379 0.060145 -0.008644 237787.000000 0 0 1
-13.798676 -30.572556 -7.095601 34.284577 1.146827 1.779265 0.065402 -0.018678 68824.400000 0 0 1
-13.867076 -29.722856 -8.241201 33.818063 1.134268 1.816967 0.083845 -0.029689 -220812.000000 0 0 1
-14.846876 -30.105756 -9.157501 34.794340 1.112638 1.837123 0.098690 -0.033071 -273352.000000 0 0 1
-14.857976 -29.243756 -10.427901 34.419440 1.100711 1.878599 0.133212 -0.035339 -308740.000000 0 0 1
-15.324776 -27.868156 -10.278101 33.423378 1.068028 1.883374 0.143132 -0.042418 -136425.000000 0 0 1
-14.475076 -26.915556 -9.718201 32.068963 1.077371 1.878678 0.130567 -0.030474 -552950.000000 0 0 1
-15.173776 -25.574556 -9.518201 31.223349 1.035307 1.880569 0.120968 -0.018511 -71874.600000 0 0 1
-15.403276 -24.876456 -10.705401 31.156132 1.016385 1.921549 0.144002 -0.041632 296641.000000 0 0 1
-16.158276 -23.711856 -10.358701 30.506469 0.972634 1.917243 0.101445 -0.021688 -91912.000000 0 0 1
-16.782176 -22.994056 -11.577401 30.731161 0.940317 1.957062 0.121936 -0.020430 191541.000000 0 0 1
-18.060576 -23.496956 -11.931601 31.947683 0.915475 1.953547 0.134659 -0.033461 -71389.400000 0 0 1
-18.703776 -22.899456 -13.040801 32.315303 0.885908 1.986188 0.140984 -0.041467 -816499.000000 0 0 1
-20.101176 -23.427756 -13.276801 33.603429 0.861672 1.976976 0.127558 -0.024157 -737916.000000 0 0 1
-20.180476 -24.781256 -13.585501 34.726475 0.887370 1.972747 0.157903 -0.035448 -61515.000000 0 0 1
-20.146676 -25.539356 -12.435101 34.824976 0.902892 1.935930 0.175644 -0.037207 -1128570.000000 0 0 1
-20.095076 -27.040156 -12.634201 35.980622 0.931689 1.929584 0.183551 -0.046373 934722.000000 0 0 1
-19.007376 -27.758056 -13.270201 36.164737 0.970378 1.946511 0.182525 -0.048826 1788260.000000 0 0 1
-17.635776 -27.360456 -13.021701 35.059661 0.998247 1.951329 0.179306 -0.051651 874237.000000 0 0 1
-16.581576 -28.348656 -13.528901 35.519377 1.041542 1.961553 0.154900 -0.044406 -181076.000000 0 0 1
-16.663176 -28.399156 -14.930901 36.153911 1.040177 1.996522 0.153324 -0.050333 72023.600000 0 0 1
-15.819476 -29.443956 -15.407201 36.804676 1.077776 2.002722 0.153741 -0.040026 -20647.100000 0 0 1
-16.380276 -30.859256 -15.315201 38.146592 1.082809 1.983932 0.155834 -0.045977 -434255.000000 0 0 1
-16.768376 -31.296756 -14.035601 38.179359 1.078931 1.947248 0.151221 -0.042422 -58804.000000 0 0 1
-17.314776 -32.567256 -13.995201 39.449883 1.082141 1.933453 0.143002 -0.040012 -938624.000000 0 0 1
-18.043676 -32.955256 -12.716801 39.665352 1.069859 1.897162 0.172890 -0.033160 68326.300000 0 0 1
-19.335576 -32.419256 -12.458401 39.750276 1.033011 1.889585 0.201095 -0.034012 351906.000000 0 0 1
-19.411276 -31.032356 -12.296701 38.613645 1.011825 1.894895 0.202164 -0.038258 -566364.000000 0 0 1
-18.688176 -30.382756 -11.063501 37.346497 1.019354 1.871549 0.197148 -0.044772 8147.260000 0 0 1
-19.116676 -30.835156 -9.765101 37.571416 1.015827 1.833723 0.201579 -0.051965 -26509.600000 0 0 1
-18.722976 -29.878256 -8.801301 36.341751 1.011017 1.815410 0.183015 -0.043672 62872.800000 0 0 1
-18.966076 -30.304756 -7.335001 36.495102 1.011590 1.773161 0.207512 -0.048697 -367780.000000 0 0 1
-17.981676 -31.146856 -6.852301 36.611765 1.047221 1.759068 0.167691 -0.050951 -332593.000000 0 0 1
-18.276876 -31.550456 -5.501601 36.874694 1.045744 1.720553 0.196451 -0.060301 -5414.050000 0 0 1
-17.301776 -32.676756 -5.009601 37.312437 1.083842 1.705464 0.160525 -0.047285 -48335.500000 0 0 1
-16.099376 -32.200856 -4.493301 36.280501 1.107175 1.694964 0.144707 -0.030422 -269546.000000 0 0 1
-16.236376 -31.730756 -3.128501 35.780557 1.097839 1.658344 0.118687 -0.030570 -126343.000000 0 0 1
-14.918176 -31.085556 -2.650501 34.581627 1.123352 1.647516 0.114881 -0.028797 721507.000000 0 0 1
-13.707576 -31.840256 -2.710701 34.771359 1.164267 1.648833 0.066379 -0.015196 -189174.000000 0 0 1
-12.662176 -31.088856 -2.173201 33.638824 1.184021 1.635445 0.082667 -0.018869 -590326.000000 0 0 1
-11.348876 -31.855656 -2.277901 33.893490 1.228556 1.638055 0.079313 -0.020053 -1054150.000000 0 0 1
-11.425176 -33.033356 -1.522601 34.986506 1.237807 1.614330 0.087589 -0.017547 191269.000000 0 0 1
-10.202176 -33.683356 -1.184401 35.214424 1.276695 1.604437 0.122434 -0.029915 210460.000000 0 0 1
-9.143976 -32.932456 -0.362901 34.180267 1.299960 1.581414 0.146349 -0.037003 -622819.000000 0 0 1
-9.595176 -32.629656 0.951599 34.024512 1.284795 1.542825 0.147957 -0.034235 -149619.000000 0 0 1
-8.637376 -31.897356 1.698599 33.089739 1.306352 1.519441 0.127037 -0.035463 515308.000000 0 0 1
-7.556376 -32.807456 2.322099 33.746409 1.344419 1.501932 0.147776 -0.040803 -243516.000000 0 0 1
-8.209276 -33.650456 3.258299 34.790256 1.331513 1.477003 0.153152 -0.055306 155330.000000 0 0 1
-7.382576 33.035671 3.719099 34.054217 -1.350936 1.461367 0.171723 -0.050619 5176.400000 0 0 1
-6.419376 33.396971 4.871199 34.355416 -1.380898 1.428529 0.187275 -0.049784 784402.000000 0 0 1
-5.226276 -33.653056 4.422399 34.342390 1.416728 1.441664 0.204065 -0.053037 154379.000000 0 0 1
-4.409076 -33.439356 5.523099 34.177992 1.439700 1.408486 0.203528 -0.053722 -894678.000000 0 0 1
-3.023976 -32.862356 5.274699 33.420074 1.479035 1.412303 0.200778 -0.041462 -507437.000000 0 0 1
-2.871476 -31.589956 4.584999 32.049850 1.480147 1.427245 0.180530 -0.029570 -54591.400000 0 0 1
-3.341076 -31.594756 3.242299 31.935934 1.465440 1.469096 0.185205 -0.038073 -211179.000000 0 0 1
-3.449076 -30.202556 2.593299 30.509273 1.457091 1.485693 0.154017 -0.038235 317337.000000 0 0 1
-2.195876 -29.533256 2.547299 29.724129 1.496580 1.484993 0.119270 -0.035019 123514.000000 0 0 1
-2.245476 -28.290556 1.762099 28.434182 1.491590 1.508785 0.115629 -0.037025 -23876.900000 0 0 1
-3.058776 -27.094856 2.339299 27.367127 1.458381 1.485213 0.133518 -0.028689 134684.000000 0 0 1
-3.112576 -25.953456 1.462399 26.180310 1.451437 1.514908 0.138686 -0.034593 -221194.000000 0 0 1
-3.062976 -24.667056 2.048999 24.940807 1.447256 1.488549 0.111361 -0.028261 -51284.800000 0 1 0
-4.152676 -24.261656 3.079899 24.806420 1.401277 1.446318 0.089097 -0.021224 -106342.000000 0 1 0
-4.129176 -24.777156 4.404499 25.502101 1.405661 1.397215 0.100774 -0.020797 -91162.200000 0 0 1
-5.107976 -23.990256 5.081699 25.048902 1.361010 1.366507 0.080362 -0.018310 429103.000000 0 0 1
-5.867476 -24.943956 6.061199 26.331851 1.339770 1.338528 0.103030 -0.012837 443406.000000 0 0 1
-4.977576 -25.430656 7.075699 26.861870 1.377509 1.304240 0.092138 -0.020425 588888.000000 0 0 1
-5.639576 -26.466956 7.825999 28.170034 1.360856 1.289280 0.099276 -0.019634 874151.000000 0 0 1
-4.747776 -27.058356 9.007099 28.910618 1.397100 1.253973 0.092632 -0.025010 311613.000000 0 0 1
-4.443876 -26.198456 10.072699 28.417713 1.402772 1.208469 0.086741 -0.023791 48013.100000 0 0 1
-5.482076 -25.786156 10.975499 28.555920 1.361318 1.176292 0.089500 -0.025979 239052.000000 0 0 1
-5.054376 -24.691956 11.957999 27.896831 1.368888 1.127797 0.069764 -0.024905 -34254.000000 0 0 1
-4.302976 -25.226056 13.009699 28.707521 1.401846 1.100466 0.063554 -0.023862 -508807.000000 0 0 1
-3.601876 -24.176256 13.613199 27.978278 1.422900 1.062645 0.064140 -0.027550 -501247.000000 0 0 1
-2.785676 -24.670956 14.802199 28.905383 1.458359 1.033178 0.069513 -0.030796 -514695.000000 0 0 1
-3.429276 -24.965056 16.007599 29.853931 1.434288 1.004871 0.067934 -0.037390 -304590.000000 0 0 1
-2.931576 -26.152556 16.596999 31.112870 1.459167 1.008128 0.083348 -0.031946 163542.000000 0 0 1
-3.455376 -26.375556 18.041499 32.141955 1.440531 0.974832 0.123431 -0.032852 220947.000000 0 0 1
-2.768676 -25.528256 18.969999 31.925198 1.462763 0.934524 0.112710 -0.021532 93879.700000 0 0 1
-3.351076 -25.613556 20.245299 32.820056 1.440703 0.906052 0.148677 -0.030140 -182170.000000 0 0 1
-2.781176 -24.523456 21.183699 32.525128 1.457870 0.861497 0.127236 -0.035846 -260612.000000 0 0 1
-1.429876 -24.849156 21.442399 32.852726 1.513317 0.859677 0.076488 -0.054403 -204882.000000 0 0 1
-0.689676 -23.963256 22.240099 32.700693 1.542024 0.822882 0.079065 -0.046287 308243.000000 0 0 1
-0.290476 -22.639256 21.569299 31.270672 1.557966 0.809637 0.090880 -0.052233 -598893.000000 0 0 1
-1.356876 -21.743056 21.469699 30.586755 1.508472 0.792696 0.126254 -0.045777 -542856.000000 0 0 1
-0.911476 -20.597256 20.847599 29.320644 1.526573 0.779847 0.145337 -0.042962 -417763.000000 0 0 1
-2.013776 -19.589356 20.640799 28.527894 1.468357 0.761893 0.137947 -0.028629 -1908670.000000 0 0 1
-2.523076 -19.014856 21.820699 29.052944 1.438877 0.721120 0.151144 -0.053545 427030.000000 0 0 1
-3.925376 -19.091556 22.054399 29.432849 1.368014 0.723773 0.165912 -0.056120 300224.000000 0 0 1
-4.895376 -18.730356 20.933199 28.512975 1.315154 0.746362 0.145506 -0.051308 -1405900.000000 0 0 1
-5.110276 -19.617156 19.875499 28.389843 1.315960 0.795270 0.142942 -0.053084 -280163.000000 0 0 1
-5.684776 -20.900856 20.115199 29.559832 1.305233 0.822364 0.154825 -0.044045 28681.800000 0 0 1
-5.697476 -21.776856 18.883299 29.381485 1.314902 0.872787 0.110375 -0.042557 347358.000000 0 0 1
-6.291176 -23.084056 18.997699 30.551025 1.304725 0.899713 0.108509 -0.041090 -79558.100000 0 0 1
-6.409476 -23.655856 17.738599 30.254567 1.306202 0.944298 0.097090 -0.038340 160936.000000 0 0 1
-7.018976 -25.066156 17.748799 31.505524 1.297771 0.972355 0.095540 -0.033320 955640.000000 0 0 1
-8.428276 -25.113956 18.029399 32.043811 1.247006 0.973210 0.094784 -0.032101 317850.000000 0 0 1
-8.923176 -26.403256 17.771899 33.054431 1.244890 1.003142 0.086399 -0.032806 -295685.000000 0 0 1
-10.402076 -26.532156 18.167699 33.796801 1.197157 1.003259 0.076664 -0.029077 -962786.000000 0 0 1
-11.108076 -25.876456 17.121299 32.956323 1.165312 1.024513 0.085971 -0.025634 962888.000000 0 0 1
-12.553976 -25.904856 17.261099 33.565003 1.119529 1.030653 0.093041 -0.027615 1531320.000000 0 0 1
-13.013776 -24.877156 18.343199 33.536610 1.088823 0.992067 0.093026 -0.044402 -1098860.000000 0 0 1
-13.018176 -23.524056 17.975599 32.341556 1.065348 0.981465 0.083971 -0.033115 55851.300000 0 0 1
-12.945576 -22.575956 19.072399 32.264813 1.050148 0.938349 0.088805 -0.041563 -744062.000000 0 0 1
-11.558576 -22.226656 19.568699 31.789289 1.091252 0.907681 0.104544 -0.037280 -698855.000000 0 0 1
-11.049276 -23.093456 20.548499 32.827352 1.124529 0.894439 0.121916 -0.047529 -63725.300000 0 0 1
-9.646676 -23.223756 20.489099 32.437700 1.177102 0.887124 0.119066 -0.049485 38029.600000 0 0 1
-9.003176 -24.150056 21.502899 33.565712 1.213955 0.875490 0.120166 -0.050487 -79428.000000 0 0 1
-9.123876 -23.660656 22.845499 34.131929 1.202753 0.837491 0.137182 -0.055659 -34908.400000 0 0 1
-8.390176 -24.403956 23.753999 35.074216 1.239652 0.826778 0.126670 -0.059248 -277456.000000 0 0 1
-8.157576 -23.718856 25.094599 35.480545 1.239541 0.785156 0.135351 -0.054596 215245.000000 0 0 1
-7.121576 -24.313956 25.855999 36.199696 1.285865 0.775230 0.153626 -0.046197 -63532.400000 0 0 1
-6.711776 -23.475256 26.925499 36.347188 1.292317 0.736556 0.165206 -0.059412 163764.000000 0 0 1
-5.346276 -23.786256 27.601799 36.827000 1.349707 0.723491 0.179603 -0.056579 851390.000000 0 0 1
-4.262876 -23.679356 26.673299 35.921427 1.392679 0.733933 0.173743 -0.049058 139756.000000 0 0 1
-3.008276 -24.002456 27.244899 36.434217 1.446114 0.726079 0.165279 -0.039447 -297975.000000 0 0 1
-1.819776 -23.524456 26.482299 35.468631 1.493593 0.727800 0.134030 -0.032085 -863125.000000 0 0 1
-1.792476 -22.093556 26.449399 34.509548 1.489842 0.697521 0.127086 -0.032086 -103440.000000 0 0 1
-0.633376 -21.541056 25.861199 33.663331 1.541402 0.694724 0.111522 -0.034022 145262.000000 0 0 1
0.521324 -21.108356 26.777499 34.100864 -1.546104 0.667706 0.088386 -0.017298 -124027.000000 0 0 1
1.036324 -22.251856 27.399299 35.312047 -1.524257 0.682625 0.090211 -0.030789 188974.000000 0 0 1
1.936524 -21.932356 28.481199 35.999404 -1.482729 0.658097 0.065267 -0.036806 142547.000000 0 0 1
2.336924 -23.170756 29.349699 37.466652 -1.470280 0.670751 0.100416 -0.046815 -55670.800000 0 0 1
3.253324 -24.037556 28.647099 37.537242 -1.436270 0.702600 0.076804 -0.046986 432596.000000 0 0 1
3.674124 -25.155356 29.391699 38.860817 -1.425764 0.713108 0.074953 -0.037547 -460616.000000 0 0 1
4.850824 -24.797756 30.357099 39.496996 -1.377620 0.694158 0.053025 -0.043378 572548.000000 0 0 1
6.131224 -24.499856 29.764199 39.035143 -1.325577 0.703632 0.076806 -0.046219 1070660.000000 0 0 1
6.783324 -25.675456 29.216099 39.481932 -1.312503 0.737746 0.058479 -0.035728 -805227.000000 0 0 1
8.143524 -25.304856 28.612499 39.055446 -1.259446 0.748644 0.056675 -0.025315 -285649.000000 0 0 1
8.093724 -24.464556 27.495599 37.683297 -1.251296 0.752987 0.059441 -0.034232 -3156.530000 0 0 1
9.377924 -24.403456 26.904299 37.514203 -1.203909 0.771054 0.067940 -0.012563 106766.000000 0 0 1
9.477524 -23.286256 25.859699 36.066567 -1.184269 0.771308 0.090374 -0.012995 214930.000000 0 0 1
8.668824 -23.494956 24.696499 35.172127 -1.217327 0.792368 0.079410 -0.014491 163542.000000 0 0 1
8.742324 -22.340356 23.900699 33.863892 -1.197791 0.787263 0.083268 -0.022474 185133.000000 0 0 1
7.955524 -22.479956 22.571499 32.834606 -1.230657 0.812852 0.076383 -0.018012 11950.700000 0 0 1
8.458024 -23.494556 21.800799 33.148261 -1.225241 0.853067 0.071240 -0.019687 -179679.000000 0 0 1
7.802124 -23.357556 20.569599 32.086710 -1.248419 0.874914 0.082830 -0.012794 -45055.400000 0 0 1
8.411324 -24.146956 19.361899 32.073494 -1.235602 0.922696 0.114183 -0.023743 1231690.000000 0 0 1
9.755224 -23.778556 18.973399 31.946424 -1.181483 0.934882 0.120296 -0.017994 827361.000000 0 0 1
10.281324 -24.591256 17.943499 32.131055 -1.174794 0.978284 0.133822 -0.024298 1092850.000000 0 0 1
11.732824 -24.180456 17.469799 32.055382 -1.119043 0.994422 0.130422 -0.024648 871769.000000 0 0 1
11.665824 -22.912856 16.835299 30.733007 -1.099864 0.991073 0.137988 -0.018193 -735803.000000 0 0 1
12.887524 -22.417156 16.410399 30.625453 -1.049041 1.005292 0.131939 -0.025774 -526298.000000 0 0 1
-12.753576 22.346671 11.573599 28.213039 -1.052188 1.148099 0.056669 -0.033231 -935253.000000 0 0 1
-13.832976 21.703971 11.014799 27.995346 -1.003367 1.166414 0.045825 -0.031586 -521467.000000 0 0 1
-13.447276 20.388171 10.597099 26.623397 -0.987728 1.161420 0.081124 -0.035325 -86991.100000 0 0 1
-14.446976 19.786171 9.621699 26.320805 -0.940117 1.196567 0.096513 -0.030411 -692302.000000 0 0 1
-14.415276 20.345271 8.293699 26.277665 -0.954367 1.249689 0.099816 -0.028819 190439.000000 0 0 1
-15.270476 19.728371 7.340299 26.005308 -0.912089 1.284646 0.108358 -0.025974 2096890.000000 0 0 1
-16.869976 19.642671 7.414599 26.933379 -0.861191 1.291901 0.101884 -0.019292 1817350.000000 0 0 1
-17.305676 18.824871 8.555099 26.963900 -0.827421 1.247937 0.098329 -0.023984 -573860.000000 0 0 1
-18.689776 18.773971 8.584899 27.847265 -0.787646 1.257406 0.098337 -0.015030 -813440.000000 0 0 1
-19.266376 17.692271 9.508899 27.832155 -0.742833 1.222123 0.097505 -0.019514 -180031.000000 0 0 1
-19.089176 16.369671 8.999199 26.708582 -0.708853 1.227131 0.098068 -0.015218 428574.000000 0 0 1
-19.708076 15.328271 9.813099 26.826499 -0.661036 1.196305 0.104881 -0.023894 -260377.000000 0 0 1
-18.755276 14.722371 10.835599 26.190051 -0.665510 1.144249 0.104090 -0.016664 -226385.000000 0 0 1
-17.607776 14.105271 10.297499 24.799817 -0.675400 1.142606 0.081909 -0.007577 -18674.600000 0 1 0
-16.947576 13.165571 11.139099 24.179167 -0.660459 1.092024 0.083476 -0.019107 -94846.000000 0 1 0
-17.759476 12.087571 11.856099 24.537225 -0.597605 1.066504 0.069643 -0.017402 -470195.000000 0 1 0
-18.449476 11.252271 10.937499 24.220356 -0.547665 1.102258 0.055182 -0.019474 713457.000000 0 1 0
-19.594076 10.660871 11.607799 25.146033 -0.498292 1.090981 0.063154 -0.017639 1025680.000000 0 0 1
-20.526076 9.853871 10.633899 25.129631 -0.447574 1.133864 0.060500 -0.019794 -73418.000000 0 0 1
-19.926576 8.695471 10.043999 23.949145 -0.411466 1.138025 0.046964 -0.016453 547472.000000 0 1 0
-19.192776 9.045771 8.869899 22.997037 -0.440434 1.174833 0.052083 -0.018223 -218731.000000 0 1 0
-20.112976 9.191371 7.658699 23.402324 -0.428649 1.237391 0.063838 -0.022876 -241655.000000 0 1 0
-20.755376 8.000971 7.320299 23.417684 -0.367935 1.252870 0.053243 -0.025656 105365.000000 0 1 0
-21.546476 8.153671 6.190099 23.854775 -0.361768 1.308301 0.073187 -0.027882 -306790.000000 0 1 0
-21.688876 6.790671 5.457699 23.373212 -0.303427 1.335118 0.087614 -0.027263 -340529.000000 0 1 0
-22.307376 5.837671 6.267499 23.895166 -0.255953 1.305400 0.097808 -0.023865 396020.000000 0 1 0
-22.150076 4.597671 5.602399 23.305607 -0.204663 1.328030 0.115690 -0.037339 -508005.000000 0 1 0
-23.347576 3.653371 5.730699 24.316606 -0.155219 1.332888 0.144776 -0.033199 -502527.000000 0 1 0
-24.462976 4.059271 4.971899 25.290999 -0.164437 1.372920 0.180852 -0.038809 73017.500000 0 0 1
-25.379516 2.960171 4.961099 26.028733 -0.116112 1.379022 0.199004 -0.041253 -403089.000000 0 0 1
-26.645796 3.366171 4.194599 27.183160 -0.125665 1.415869 0.214427 -0.041027 -815062.000000 0 0 1
-26.612366 3.461371 2.811199 26.983364 -0.129340 1.466424 0.223521 -0.039153 270506.000000 0 0 1
-27.820156 3.103171 2.161799 28.076041 -0.111085 1.493722 0.220090 -0.039409 -156624.000000 0 0 1
-27.719976 3.034271 0.636599 27.892815 -0.109027 1.547971 0.244422 -0.047579 -268099.000000 0 0 1
-27.450566 4.302271 0.097599 27.785835 -0.155463 1.567284 0.255146 -0.047240 226601.000000 0 0 1
-27.452446 4.333871 -1.325401 27.824017 -0.156576 1.618449 0.299975 -0.046574 -232094.000000 0 0 1
-28.852126 4.531871 -1.914501 29.268555 -0.155799 1.636255 0.271253 -0.045856 -259599.000000 0 0 1
-29.725336 3.415771 -1.889901 29.980574 -0.114409 1.633876 0.223926 -0.047992 869462.000000 0 0 1
-31.061216 3.920971 -2.078101 31.376610 -0.125569 1.637076 0.176568 -0.013764 381899.000000 0 0 1
-32.052116 2.789471 -2.398601 32.262556 -0.086811 1.645211 0.145943 -0.015486 -743660.000000 0 0 1
-31.879226 2.245871 -3.710001 32.172862 -0.070333 1.686368 0.129816 -0.030951 741253.000000 0 0 1
-32.801376 1.161071 -3.845301 33.046402 -0.035382 1.687421 0.140620 -0.041383 259084.000000 0 0 1
-32.962876 0.683171 -5.309701 33.394772 -0.020723 1.730472 0.145768 -0.036614 68803.200000 0 0 1
-31.729776 0.148971 -5.794301 32.254841 -0.004695 1.751418 0.176254 -0.051248 543673.000000 0 0 1
-31.715546 -0.489629 -7.088901 32.501817 0.015437 1.790672 0.195338 -0.052204 -203022.000000 0 0 1
-32.198546 0.324271 -8.368301 33.269805 -0.010071 1.825055 0.186623 -0.042545 706378.000000 0 0 1
-33.603506 0.635871 -8.411201 34.646042 -0.018921 1.816022 0.184236 -0.035604 897550.000000 0 0 1
-33.843116 1.638171 -9.391101 35.160103 -0.048367 1.841174 0.190774 -0.038745 375725.000000 0 0 1
-35.382120 1.868571 -9.277701 36.625970 -0.052762 1.826896 0.190107 -0.038058 432322.000000 0 0 1
-35.717704 2.540271 -8.088501 36.710096 -0.071001 1.792954 0.143661 -0.029894 156553.000000 0 0 1
-37.109366 2.566871 -7.839001 38.015047 -0.069060 1.778494 0.154720 -0.022936 208645.000000 0 0 1
-37.595036 3.405271 -6.551501 38.313245 -0.090331 1.742639 0.153763 -0.018310 -150874.000000 0 0 1
36.448238 3.320771 -6.358901 37.147506 0.090858 1.742823 0.160861 -0.020872 -179989.000000 0 0 1
36.033108 3.897371 -5.162301 36.609066 0.107742 1.712279 0.157666 -0.021762 -103405.000000 0 0 1
34.560708 3.578371 -4.862601 35.084073 0.103171 1.709842 0.185631 -0.030314 -28777.400000 0 0 1
34.398758 2.190571 -4.330501 34.739407 0.063596 1.695778 0.169291 -0.028634 -153306.000000 0 0 1
33.089218 1.710371 -4.528401 33.441414 0.051644 1.706627 0.196992 -0.035194 41416.400000 0 0 1
32.829858 0.416071 -3.700501 33.040375 0.012673 1.683031 0.232218 -0.036111 521154.000000 0 0 1
33.796998 -0.630229 -3.959001 34.033924 -0.018645 1.687385 0.161932 -0.030431 638221.000000 0 0 1
33.371618 -1.820529 -3.309601 33.584709 -0.054499 1.669501 0.177034 -0.027787 331042.000000 0 0 1
34.562348 -2.814229 -3.274301 34.830975 -0.081245 1.664941 0.148500 -0.023267 149018.000000 0 0 1
34.331628 -4.056429 -2.573301 34.666081 -0.117609 1.645096 0.155758 -0.038875 103071.000000 0 0 1
35.532298 -4.793429 -2.477901 35.939688 -0.134094 1.639797 0.193732 -0.035313 110177.000000 0 0 1
35.340218 -6.166929 -1.727001 35.915798 -0.172762 1.618900 0.226989 -0.048277 -197529.000000 0 0 1
35.274438 -6.117829 -0.317801 35.802441 -0.171727 1.579673 0.229238 -0.063279 130955.000000 0 0 1
35.412098 -7.459029 0.126799 36.189361 -0.207600 1.567293 0.244327 -0.060080 -321985.000000 0 0 1
34.339468 -7.829529 1.145599 35.239367 -0.224172 1.538282 0.249617 -0.041482 803607.000000 0 0 1
33.010318 -7.909329 0.557299 33.949215 -0.235168 1.554380 0.216797 -0.037157 1508470.000000 0 0 1
31.984258 -7.360229 1.402799 32.850169 -0.226183 1.528080 0.264221 -0.050296 279671.000000 0 0 1
31.370528 -8.357129 2.408899 32.553870 -0.260354 1.496731 0.221665 -0.047982 -239431.000000 0 0 1
30.324298 -9.157329 1.902399 31.733875 -0.293272 1.510812 0.204423 -0.047041 -477403.000000 0 0 1
29.034398 -8.837729 2.282299 30.435351 -0.295478 1.495737 0.219607 -0.043308 -1321730.000000 0 0 1
27.986998 -9.840829 1.799299 29.721229 -0.338119 1.510220 0.175783 -0.034852 -210759.000000 0 0 1
26.630898 -9.652529 2.178999 28.409929 -0.347728 1.494022 0.157730 -0.041504 954831.000000 0 0 1
25.896098 -8.628029 1.489099 27.336207 -0.321611 1.516296 0.166569 -0.038269 -316727.000000 0 0 1
25.376098 -8.979429 0.064699 26.918036 -0.340104 1.568393 0.135241 -0.032828 216351.000000 0 0 1
26.427598 -9.291429 -0.913801 28.028265 -0.338082 1.603405 0.135990 -0.045828 1000090.000000 0 0 1
26.019998 -9.473629 -2.271701 27.783998 -0.349172 1.652651 0.117081 -0.047472 -524167.000000 0 0 1
25.289098 -10.807329 -2.533201 27.618000 -0.403861 1.662648 0.110321 -0.026652 -491585.000000 0 0 1
23.984098 -10.852729 -2.052601 26.405148 -0.424928 1.648610 0.092195 -0.007548 -354312.000000 0 0 1
23.390498 -12.144629 -2.226901 26.449319 -0.478899 1.655091 0.081072 -0.006574 -300074.000000 0 0 1
21.944298 -12.316129 -1.773101 25.226635 -0.511436 1.641141 0.088982 -0.011868 -140096.000000 0 0 1
21.000198 -11.815629 -2.714001 24.248365 -0.512499 1.682956 0.093461 -0.008598 -564955.000000 0 1 0
19.709298 -12.066129 -2.281801 23.221854 -0.549345 1.669216 0.098497 -0.012033 -606553.000000 0 1 0
18.592298 -11.547929 -3.213101 22.121307 -0.555800 1.716561 0.080742 -0.010268 36975.300000 0 1 0
18.626398 -12.268729 -4.372501 22.728466 -0.582449 1.764383 0.086308 -0.014424 390225.000000 0 1 0
17.770898 -11.649329 -5.330301 21.907163 -0.580252 1.816577 0.080649 -0.017330 991.237000 0 1 0
17.952698 -12.232529 -6.725801 22.741384 -0.598117 1.871039 0.098891 -0.024779 -67408.700000 0 1 0
17.391298 -13.525629 -6.865101 23.076601 -0.661010 1.872861 0.091813 -0.017499 457829.000000 0 1 0
17.828198 -14.104529 -8.115201 24.137914 -0.669313 1.913677 0.097402 -0.018836 30912.700000 0 1 0
16.892098 -15.242029 -8.561101 24.309563 -0.734094 1.930685 0.088637 -0.021331 583523.000000 0 1 0
15.582698 -14.866429 -9.014501 23.347214 -0.761879 1.967203 0.102603 -0.018575 761434.000000 0 1 0
15.240098 -15.906729 -9.878701 24.142770 -0.806798 1.992350 0.095678 -0.016269 -237600.000000 0 1 0
14.626298 -15.336629 -11.190301 23.965884 -0.809101 2.056608 0.088859 -0.039519 59729.300000 0 1 0
13.342398 -14.736429 -11.058801 22.748165 -0.835004 2.078464 0.084930 -0.036520 434529.000000 0 1 0
13.341898 -13.326429 -10.859401 21.760665 -0.784818 2.093285 0.075012 -0.029315 -307210.000000 0 1 0
13.541098 -12.483429 -12.138301 22.057554 -0.744779 2.153521 0.095597 -0.016368 -723560.000000 0 1 0
14.814198 -12.459229 -12.700201 23.151414 -0.699265 2.151451 0.117312 -0.017908 -518401.000000 0 1 0
14.752198 -12.263029 -14.101001 23.808558 -0.693518 2.204665 0.145684 -0.017111 -397521.000000 0 1 0
15.970298 -11.746329 -14.880801 24.788403 -0.634163 2.214689 0.161744 -0.032525 -125664.000000 0 1 0
16.965998 -12.722729 -15.127301 26.048957 -0.643434 2.190416 0.155592 -0.030249 -42871.200000 0 0 1
17.969898 -12.215029 -15.950501 26.954455 -0.597005 2.204034 0.146750 -0.021231 -416587.000000 0 0 1
19.076498 -13.193329 -16.389701 28.400687 -0.605067 2.185955 0.127741 -0.017332 -387990.000000 0 0 1
20.002898 -13.344629 -15.363001 28.534485 -0.588327 2.139335 0.108036 -0.025597 -764642.000000 0 0 1
21.060298 -14.172829 -15.704801 29.850394 -0.592350 2.124824 0.075019 -0.021321 -612003.000000 0 0 1
22.199098 -14.180829 -14.693701 30.162903 -0.568463 2.079614 0.080243 -0.026675 -288765.000000 0 0 1
22.925398 -12.982529 -14.527301 30.085917 -0.515267 2.074715 0.088906 -0.021053 13101.600000 0 0 1
23.865198 -13.113029 -13.457901 30.374567 -0.502430 2.029811 0.100635 -0.022192 489091.000000 0 0 1
24.786698 -11.862829 -13.480301 30.607607 -0.446379 2.026866 0.112917 -0.023868 -36842.300000 0 0 1
24.172298 -10.766029 -12.775701 29.384110 -0.419011 2.020593 0.114083 -0.017371 736037.000000 0 0 1
24.836598 -9.481729 -13.033701 29.608059 -0.364688 2.026627 0.136620 -0.025547 502231.000000 0 0 1
25.930098 -9.093729 -11.997401 29.983387 -0.337300 1.982460 0.149707 -0.027488 67221.400000 0 0 1
27.058798 -9.934029 -12.061701 31.246570 -0.351851 1.967106 0.127811 -0.033110 352445.000000 0 0 1
28.129598 -9.391429 -11.267501 31.724278 -0.322227 1.933892 0.123920 -0.031040 351680.000000 0 0 1
29.462698 -10.156229 -11.417901 33.189878 -0.331959 1.921989 0.119570 -0.034290 50196.300000 0 0 1
29.986098 -9.890529 -12.728001 34.043952 -0.318601 1.953974 0.104781 -0.033583 -264249.000000 0 0 1
31.376248 -10.120729 -12.694901 35.327873 -0.312024 1.938362 0.104908 -0.033251 -218594.000000 0 0 1
32.000638 -9.706329 -14.039601 36.267948 -0.294497 1.968289 0.090894 -0.031293 -193301.000000 0 0 1
31.549908 -10.396729 -15.151301 36.510965 -0.318326 1.998717 0.082469 -0.030800 290745.000000 0 0 1
32.337688 -9.884129 -16.239401 37.511868 -0.296635 2.018519 0.066278 -0.031446 235897.000000 0 0 1
31.996448 -10.461229 -17.681801 38.024414 -0.315994 2.054444 0.040973 -0.019411 -1103820.000000 0 0 1
30.685578 -10.282029 -18.018901 37.040594 -0.323319 2.078834 0.048975 -0.016904 -1159490.000000 0 0 1
30.531628 -9.033229 -18.710101 36.930305 -0.287659 2.102071 0.041363 -0.011802 -188868.000000 0 0 1
29.058898 -8.732829 -19.062101 35.833581 -0.291935 2.131712 0.015263 -0.013521 70795.400000 0 0 1
28.530198 -9.405729 -20.212001 36.207250 -0.318456 2.163048 0.019729 0.002820 893095.000000 0 0 1
27.185998 -8.995229 -20.524001 35.231055 -0.319538 2.192664 0.043776 0.005370 840804.000000 0 0 1
26.774998 -9.389729 -21.947801 35.871625 -0.337290 2.229185 0.064152 -0.005974 -100159.000000 0 0 1
26.516798 -10.779829 -22.171901 36.206884 -0.386122 2.229847 0.068296 -0.003535 165607.000000 0 0 1
26.124798 -10.984529 -23.537601 36.839973 -0.398022 2.263883 0.090343 -0.014222 -892873.000000 0 0 1
26.113098 -12.520929 -23.796701 37.482670 -0.447104 2.258639 0.097364 -0.003772 417890.000000 0 0 1
27.313098 -13.192229 -24.122501 38.754810 -0.449955 2.242651 0.087724 -0.003510 188534.000000 0 0 1
28.473698 -12.937329 -23.331901 39.019272 -0.426474 2.211748 0.061316 0.009638 128124.000000 0 0 1
29.695898 -13.720129 -23.939601 40.536314 -0.432806 2.202563 0.042441 0.015389 446142.000000 0 0 1
30.211598 -13.033629 -25.100111 41.383955 -0.407289 2.222470 0.061626 -0.004033 373622.000000 0 0 1
31.490458 -13.542029 -25.454461 42.696195 -0.406128 2.209526 0.017590 0.004803 78418.800000 0 0 1
32.183908 -12.868929 -26.619481 43.703662 -0.380382 2.225710 0.036786 -0.003918 -135043.000000 0 0 1
32.002138 -13.419529 -27.908231 44.531898 -0.397060 2.248110 0.048753 -0.015230 111560.000000 0 0 1
32.862568 -12.742229 -28.793491 45.512393 -0.369895 2.255769 0.046275 -0.013811 -248318.000000 0 0 1
32.982578 -13.448429 -30.143411 46.661932 -0.387164 2.273123 0.059284 -0.021656 -309200.000000 0 0 1
33.803428 -14.552829 -29.991051 47.475464 -0.406531 2.254562 0.068085 -0.031957 -498119.000000 0 0 1
34.106588 -15.204729 -31.208011 48.666036 -0.419356 2.266947 0.043150 -0.021688 -135216.000000 0 0 1
33.083498 -16.184529 -31.854601 48.694686 -0.454972 2.283881 0.040118 -0.014844 499030.000000 0 0 1
32.007658 -15.470129 -32.436571 48.124279 -0.450220 2.310429 0.052969 -0.023899 -70787.200000 0 0 1
30.854018 -16.191929 -32.775921 47.837328 -0.483284 2.325611 0.053727 -0.022833 367453.000000 0 0 1
29.907698 -15.341029 -33.715281 47.608169 -0.473951 2.357717 0.085128 -0.022293 637649.000000 0 0 1
29.093398 -14.318929 -33.091911 46.330682 -0.457365 2.366355 0.095505 -0.033263 552086.000000 0 0 1
29.751898 -13.049529 -32.954161 46.275721 -0.413343 2.363319 0.092608 -0.028127 394903.000000 0 0 1
28.761998 -11.853529 -32.714541 45.144212 -0.390915 2.381348 0.102913 -0.030811 320328.000000 0 0 1
28.146298 -11.409629 33.754195 45.406381 -0.385126 0.732687 0.095471 -0.031027 -128206.000000 0 0 1
27.393798 -10.223329 -33.644771 44.574738 -0.357190 2.426137 0.078585 -0.033672 243764.000000 0 0 1
21.535824 -29.392956 8.909899 37.511650 -0.938468 1.330981 0.049770 -0.020899 38530.500000 0 0 1
22.132424 -28.845156 7.766899 37.178111 -0.916325 1.360336 0.059921 -0.020022 -358038.000000 0 0 1
23.439824 -29.285356 7.576199 38.268215 -0.895815 1.371503 0.070387 -0.022114 -408504.000000 0 0 1
24.069424 -29.112356 6.171999 38.274796 -0.879940 1.408834 0.067767 -0.018039 -46449.500000 0 0 1
24.229924 -27.754756 5.822899 37.300427 -0.853100 1.414047 0.064750 -0.005115 53695.100000 0 0 1
25.031724 -27.552956 4.682499 37.519041 -0.833308 1.445667 0.063321 -0.002158 -7040.240000 0 0 1
25.150824 -26.050456 4.345799 36.470210 -0.802967 1.451352 0.069358 -0.006762 80633.500000 0 0 1
25.964224 -25.320456 5.244099 36.643786 -0.772846 1.427193 0.076596 -0.005729 -43172.700000 0 0 1
25.929324 -23.975256 4.911299 35.654784 -0.746262 1.432611 0.067494 0.001224 -35052.400000 0 0 1
26.775224 -23.041256 5.790399 35.795822 -0.710584 1.408321 0.076525 -0.000429 76137.600000 0 0 1
28.105024 -22.867956 5.298999 36.618509 -0.683015 1.425578 0.083878 -0.003471 438245.000000 0 0 1
28.931324 -22.151456 6.206299 36.962504 -0.653446 1.402089 0.081917 0.002213 295358.000000 0 0 1
28.532624 -20.644056 6.316599 35.779703 -0.626340 1.393325 0.091169 0.006633 -353555.000000 0 0 1
28.644124 -19.915156 5.130499 35.262180 -0.607539 1.424782 0.092844 0.018373 -133962.000000 0 0 1
28.083824 -18.650656 5.264999 34.121377 -0.586228 1.415875 0.107658 0.011556 -68210.200000 0 0 1
28.362724 -17.608556 4.112599 33.636570 -0.555598 1.448224 0.123014 0.013676 -362423.000000 0 0 1
29.685324 -17.220856 3.905899 34.540301 -0.525669 1.457472 0.122355 0.011694 -512048.000000 0 0 1
29.773824 -16.411356 2.745499 34.107932 -0.503765 1.490215 0.139184 0.023857 355239.000000 0 0 1
30.892224 -15.340656 2.849899 34.609062 -0.460913 1.488358 0.150203 -0.001004 290565.000000 0 0 1
30.603424 -14.426756 3.884299 34.055670 -0.440515 1.456490 0.159077 -0.007027 397542.000000 0 0 1
31.710124 -13.538856 4.018999 34.712893 -0.403527 1.454758 0.165441 -0.018659 587177.000000 0 0 1
31.361024 -12.519356 5.050499 34.143164 -0.379817 1.422330 0.172390 -0.025158 198306.000000 0 0 1
31.191224 -13.132056 6.314799 34.427025 -0.398493 1.386326 0.151423 -0.024900 52043.400000 0 0 1
30.624524 -12.251356 7.309299 33.784361 -0.380550 1.352720 0.145078 -0.018474 30743.900000 0 0 1
30.540824 -12.869356 8.717899 34.268995 -0.398802 1.313573 0.161744 -0.026779 25768.200000 0 0 1
29.409224 -13.681656 9.003199 33.662261 -0.435436 1.300044 0.135672 -0.014552 219475.000000 0 0 1
28.941224 -13.693656 10.362699 33.652581 -0.441941 1.257778 0.162220 -0.011928 388331.000000 0 0 1
29.677424 -14.746356 11.269199 35.002848 -0.461155 1.243007 0.157674 -0.020480 -114163.000000 0 0 1
30.946824 -14.353756 11.725199 36.072379 -0.434287 1.239735 0.135074 -0.015932 -145948.000000 0 0 1
31.541624 -15.468156 12.396899 37.253470 -0.455942 1.231555 0.133095 -0.018867 -293372.000000 0 0 1
32.634824 -15.077556 13.356099 38.350357 -0.432795 1.215076 0.115244 -0.023783 -1006020.000000 0 0 1
33.832524 -14.683956 12.782599 39.033999 -0.409485 1.237168 0.086576 -0.019294 332333.000000 0 0 1
34.865824 -14.462056 13.808599 40.192713 -0.393192 1.220092 0.057893 -0.016883 78326.900000 0 0 1
36.225224 -14.322856 13.185999 41.125195 -0.376520 1.244401 0.080132 -0.014796 -1108100.000000 0 0 1
36.580124 -12.994756 12.772999 40.867086 -0.341336 1.252920 0.105273 -0.022465 286130.000000 0 0 1
-37.524649 -12.969956 12.289899 41.561529 0.332784 1.270604 0.111273 -0.009104 -243983.000000 0 0 1
-36.777549 -11.656556 12.188399 40.460110 0.306932 1.264798 0.131257 -0.022392 -518878.000000 0 0 1
-35.596549 -11.843156 11.451199 39.223776 0.321185 1.274536 0.126699 -0.025610 150642.000000 0 0 1
-34.687549 -10.751456 11.512899 38.096807 0.300561 1.263795 0.122522 -0.033322 236491.000000 0 0 1
-33.435349 -10.881056 10.635799 36.734727 0.314626 1.277061 0.137437 -0.030650 605984.000000 0 0 1
-32.307649 -11.713056 11.005699 36.084696 0.347809 1.260862 0.122605 -0.028346 771888.000000 0 0 1
-32.471649 -13.142456 11.024999 36.724416 0.384583 1.265885 0.126097 -0.024901 -109646.000000 0 0 1
-31.272249 -13.993256 11.568799 36.160779 0.420744 1.245144 0.090971 -0.019845 979214.000000 0 0 1
-30.117849 -13.872756 10.700399 34.843030 0.431647 1.258649 0.109070 -0.025949 -435920.000000 0 0 1
-29.279549 -14.888356 11.078199 34.665280 0.470416 1.245514 0.108534 -0.013615 -830107.000000 0 0 1
-27.974349 -14.769956 10.267199 33.258551 0.485782 1.256961 0.109718 -0.016105 -291520.000000 0 0 1
-28.214449 -15.102756 8.954299 33.231429 0.491475 1.297972 0.121658 -0.034016 344194.000000 0 0 1
-27.028249 -15.021256 8.176999 31.984804 0.507256 1.312274 0.101653 -0.032278 208294.000000 0 0 1
-27.246449 -15.142256 6.654799 31.873865 0.507248 1.360463 0.129573 -0.027787 -146729.000000 0 0 1
-27.584249 -16.429956 6.185799 32.697070 0.537199 1.380464 0.138859 -0.006339 94464.400000 0 0 1
-27.687149 -16.343056 4.753599 32.500314 0.533239 1.424007 0.150215 -0.005225 -395229.000000 0 0 1
-28.580449 -17.462756 4.184599 33.753530 0.548471 1.446501 0.143416 -0.010296 397156.000000 0 0 1
-29.954049 -17.143756 4.338599 34.784722 0.519829 1.445744 0.113180 -0.026110 586805.000000 0 0 1
-30.857849 -18.090456 3.770899 35.967918 0.530249 1.465763 0.119974 -0.017226 341220.000000 0 0 1
-32.355149 -17.988156 4.117299 37.247572 0.507407 1.460031 0.150262 -0.034743 322520.000000 0 0 1
-33.068949 -17.136956 3.199299 37.382699 0.478116 1.485109 0.210460 -0.038865 722244.000000 0 0 1
-34.418049 -16.972556 3.672699 38.550726 0.458136 1.475382 0.218496 -0.037904 556733.000000 0 0 1
-35.314649 -16.051556 2.883499 38.898476 0.426614 1.496599 0.192254 -0.046190 -154974.000000 0 0 1
-35.647849 -16.570956 1.610599 39.344120 0.435136 1.529849 0.178361 -0.039060 -655974.000000 0 0 1
-36.544549 -15.815056 0.908199 39.830201 0.408426 1.547993 0.212614 -0.043541 -511725.000000 0 0 1
-36.984349 -16.369456 -0.422501 40.447246 0.416687 1.581242 0.170784 -0.040549 -95471.300000 0 0 1
-35.890249 -16.544256 -1.311301 39.541648 0.431937 1.603965 0.180662 -0.036832 438720.000000 0 0 1
-36.193149 -17.288956 -2.478401 40.186995 0.445637 1.632507 0.139367 -0.023441 -234792.000000 0 0 1
-34.867949 -17.784156 -3.085701 39.262853 0.471650 1.649468 0.113732 -0.016205 -167761.000000 0 0 1
-34.974749 -18.689056 -4.142101 39.870677 0.490755 1.674873 0.096578 -0.016276 -268025.000000 0 0 1
-33.787949 -19.367556 -4.477801 39.201766 0.520487 1.685271 0.110341 -0.014351 -293431.000000 0 0 1
-34.121149 -20.496756 -5.524101 40.185638 0.540938 1.708698 0.108319 -0.020147 -109614.000000 0 0 1
-34.826449 -21.517956 -4.829001 41.221636 0.553450 1.688213 0.097327 -0.024228 106445.000000 0 0 1
-35.378449 -22.372856 -5.838801 42.264299 0.563893 1.709389 0.093468 -0.011857 -178483.000000 0 0 1
-35.975849 -23.607356 -5.211801 43.344341 0.580721 1.691330 0.093189 -0.021228 -200390.000000 0 0 1
-35.062649 -24.559856 -4.702701 43.066127 0.611032 1.680212 0.111098 -0.019608 -562104.000000 0 0 1
-35.595949 -25.856356 -4.608201 44.236391 0.628215 1.675158 0.095515 -0.008415 135724.000000 0 0 1
-34.606049 -26.904856 -4.011801 44.017547 0.660846 1.662064 0.080163 -0.014631 -199145.000000 0 0 1
-33.568649 -27.176756 -4.958401 43.474315 0.680560 1.685099 0.085736 -0.014898 674239.000000 0 0 1
-32.730249 -28.317656 -4.644001 43.528446 0.713243 1.677689 0.094957 -0.019224 531041.000000 0 0 1
-31.782749 -28.194556 -3.430601 42.624467 0.725644 1.651368 0.109850 -0.032999 -951948.000000 0 0 1
-32.417049 -28.068156 -2.156501 42.934100 0.713622 1.621046 0.092220 -0.028125 -86648.600000 0 0 1
-31.468949 -27.971556 -1.130801 42.118659 0.726627 1.597648 0.103398 -0.034109 -246233.000000 0 0 1
-32.148449 -27.825556 0.212999 42.518581 0.713443 1.565787 0.089100 -0.024364 -8473.080000 0 0 1
-32.612649 -29.044156 0.728699 43.676984 0.727586 1.554112 0.086395 -0.016357 -42599.600000 0 0 1
-33.383749 -28.859856 1.903399 44.170000 0.712845 1.527690 0.092961 -0.011077 183510.000000 0 0 1
-34.015649 -30.211356 2.397099 45.558057 0.726235 1.518156 0.076396 -0.008882 -778736.000000 0 0 1
-35.029149 -29.974156 3.319299 46.222387 0.707789 1.498923 0.068439 -0.010305 -202141.000000 0 0 1
-35.553049 -31.214356 3.847999 47.467488 0.720507 1.489641 0.057359 -0.005148 255377.000000 0 0 1
-36.618149 -31.931056 2.968599 48.675392 0.717129 1.509771 0.049397 -0.003562 -303560.000000 0 0 1
-37.279249 -33.022956 3.644899 49.935392 0.724929 1.497739 0.058200 -0.008960 -243593.000000 0 0 1
37.264524 -33.551856 2.722899 50.217388 -0.733019 1.516547 0.073898 -0.011222 -1275490.000000 0 0 1
36.203024 33.296171 3.416799 49.304853 0.743597 1.501441 0.074440 -0.014410 34046.100000 0 0 1
35.248424 33.840871 4.344499 49.056403 0.765028 1.482119 0.058298 -0.018123 764110.000000 0 0 1
34.587224 -32.679556 3.984899 47.750486 -0.757046 1.487247 0.059598 -0.019947 -79237.900000 0 0 1
33.335924 -32.801756 3.050599 46.867315 -0.777322 1.505660 0.072338 -0.015212 240801.000000 0 0 1
33.688824 -33.425356 1.783999 47.490778 -0.781473 1.533222 0.078333 -0.017282 26526.000000 0 0 1
32.854524 -32.935256 0.733399 46.526216 -0.786625 1.555033 0.070563 -0.013363 -675607.000000 0 0 1
33.273824 -33.434856 -0.658201 47.174890 -0.787812 1.584749 0.075400 -0.015830 222691.000000 0 0 1
34.354324 -32.881656 -1.352901 47.573661 -0.763499 1.599238 0.054753 -0.005102 -391973.000000 0 0 1
35.594424 -32.769056 -0.674901 48.386254 -0.744093 1.584745 0.054061 -0.007759 -502643.000000 0 0 1
36.790824 -32.588956 -1.630901 49.175854 -0.724909 1.603967 0.048342 -0.005948 -196298.000000 0 0 1
37.072224 -33.752756 -2.417901 50.194070 -0.738564 1.618986 0.047513 -0.015427 -40304.200000 0 0 1
-37.611749 -33.423556 -3.554801 50.442189 0.726507 1.641328 0.056992 -0.013736 -916473.000000 0 0 1
-36.952149 33.069871 -4.203001 49.766886 -0.730011 1.655351 0.049562 -0.021419 -205546.000000 0 0 1
-35.830449 32.526971 -3.543801 48.521990 -0.737109 1.643896 0.055573 -0.016523 -108870.000000 0 0 1
-35.289949 31.447571 -4.307301 47.464546 -0.727887 1.661669 0.073414 -0.031818 -113449.000000 0 0 1
-33.889849 31.036771 -3.836001 46.114184 -0.741483 1.654077 0.087492 -0.035394 -389319.000000 0 0 1
-32.865749 31.988871 -4.042001 46.041102 -0.771878 1.658701 0.082809 -0.035644 388141.000000 0 0 1
-31.521549 31.638271 -3.774101 44.819997 -0.787246 1.655102 0.143001 -0.039071 723917.000000 0 0 1
-31.050649 31.452071 -2.297901 44.256705 -0.791821 1.622742 0.123726 -0.032069 -94680.300000 0 0 1
-31.790049 30.394071 -1.683301 44.014092 -0.762953 1.609050 0.096213 -0.020157 113101.000000 0 0 1
-31.406149 30.265471 -0.311501 43.616992 -0.766904 1.577938 0.096594 -0.016723 -328582.000000 0 0 1
-32.322349 29.390371 0.512199 43.689707 -0.737924 1.559072 0.089475 -0.021965 -344664.000000 0 0 1
-32.612149 28.095671 0.011999 43.045547 -0.711138 1.570518 0.092308 -0.041288 -499128.000000 0 0 1
-33.889549 27.994771 -0.536001 43.960164 -0.690430 1.582990 0.086947 -0.033043 -486589.000000 0 0 1
-34.281749 26.533071 -1.067201 43.363361 -0.658667 1.595409 0.081899 -0.026022 90175.200000 0 0 1
-34.579349 25.570971 -0.070401 43.007103 -0.636739 1.572433 0.073569 -0.026087 -94000.300000 0 0 1
-35.101749 24.371771 -0.480301 42.735778 -0.606902 1.582035 0.100624 -0.026029 -583302.000000 0 0 1
-34.978149 23.172471 0.478999 41.960264 -0.585101 1.559381 0.114257 -0.037166 938655.000000 0 0 1
-33.593449 22.874371 0.754999 40.648822 -0.597804 1.552222 0.110915 -0.047023 745186.000000 0 0 1
-33.080849 23.434171 1.879699 40.583694 -0.616335 1.524463 0.108939 -0.047211 -1355690.000000 0 0 1
-31.577649 23.185871 2.022099 39.227815 -0.633344 1.519226 0.104077 -0.054652 -6676.860000 0 0 1
-30.704849 24.040271 1.268199 39.017057 -0.664256 1.538287 0.126307 -0.044639 330084.000000 0 0 1
-30.605249 25.388971 1.763099 39.804392 -0.692509 1.526488 0.100564 -0.042988 -738017.000000 0 0 1
-30.053649 26.362271 0.737899 39.984193 -0.720060 1.552341 0.104974 -0.038591 366434.000000 0 0 1
-28.658049 26.178171 0.533399 38.818358 -0.740206 1.557055 0.115081 -0.039127 -84871.800000 0 0 1
-28.071949 27.030271 -0.373701 38.971907 -0.766496 1.580385 0.115977 -0.031885 -327956.000000 0 0 1
-26.888849 26.387271 -1.093001 37.689427 -0.775984 1.599801 0.109869 -0.037495 -652618.000000 0 0 1
-27.194749 25.255771 -1.865201 37.160292 -0.748447 1.621011 0.135523 -0.044184 -161294.000000 0 0 1
-26.139749 24.877471 -2.724901 36.188398 -0.760661 1.646165 0.129166 -0.030375 521678.000000 0 0 1
-25.042149 23.959971 -2.123301 34.723160 -0.763317 1.631984 0.105345 -0.027729 9846.030000 0 0 1
-25.497349 22.686171 -1.907001 34.182069 -0.727121 1.626615 0.121108 -0.026506 225726.000000 0 0 1
-24.489949 21.771871 -1.392601 32.798038 -0.726711 1.613269 0.108745 -0.034151 -210790.000000 0 0 1
-24.990449 20.307971 -1.130201 32.221322 -0.682394 1.605880 0.122037 -0.030113 -321859.000000 0 0 1
-25.773749 20.031571 0.011399 32.642765 -0.660688 1.570447 0.128353 -0.029158 703458.000000 0 0 1
-26.990249 20.765071 0.237599 34.054635 -0.655773 1.563819 0.111005 -0.033394 812315.000000 0 0 1
-28.149049 20.473071 -0.780801 34.815589 -0.628820 1.593225 0.113249 -0.045828 -296687.000000 0 0 1
-28.762849 19.206671 -0.645801 34.592120 -0.588759 1.589466 0.115510 -0.053429 634395.000000 0 0 1
-29.950849 19.126171 -1.451401 35.566422 -0.568309 1.611616 0.126852 -0.050663 449220.000000 0 0 1
-30.255249 17.644971 -1.620601 35.062109 -0.527978 1.617034 0.132642 -0.032508 -108695.000000 0 0 1
-30.865949 17.102771 -0.450601 35.290433 -0.505984 1.583565 0.114743 -0.036862 212197.000000 0 0 1
-30.988649 15.664471 -0.485301 34.726180 -0.468030 1.584772 0.120310 -0.043260 -421832.000000 0 0 1
-29.805449 14.836171 -0.000901 33.293795 -0.461860 1.570823 0.165953 -0.045760 -593376.000000 0 0 1
-29.822849 14.888771 1.422599 33.363178 -0.463040 1.528144 0.182722 -0.044068 1128510.000000 0 0 1
-28.550249 14.582071 2.042599 32.123601 -0.472211 1.507168 0.217026 -0.050392 744812.000000 0 0 1
-28.096249 13.143271 2.172499 31.094446 -0.437553 1.500872 0.227512 -0.052694 -207192.000000 0 0 1
-28.108949 12.460371 0.904499 30.760234 -0.417259 1.541387 0.220422 -0.056817 380246.000000 0 0 1
-27.720849 11.085771 1.020799 29.872761 -0.380426 1.536618 0.267789 -0.054186 -41883.100000 0 0 1
-27.379249 10.347571 -0.294601 29.270844 -0.361341 1.580861 0.247718 -0.045720 -23653.500000 0 0 1
-28.514949 10.062871 -1.093401 30.258209 -0.339254 1.606940 0.234341 -0.041894 465165.000000 0 0 1
-28.275249 9.006871 -1.976901 29.740908 -0.308380 1.637316 0.245968 -0.036773 605136.000000 0 0 1
-29.600349 8.694371 -2.766501 30.974607 -0.285690 1.660231 0.224407 -0.037337 619554.000000 0 0 1
-29.464249 7.640871 -3.693201 30.662104 -0.253737 1.691538 0.228738 -0.026782 -449222.000000 0 0 1
-30.491249 7.666471 -4.602301 31.775340 -0.246326 1.716146 0.203747 -0.024980 -643714.000000 0 0 1
-11.664476 18.456571 -20.119601 29.690122 -1.007182 2.315363 0.143565 -0.018757 366705.000000 0 0 1
-11.875776 17.243471 -20.856401 29.552678 -0.967687 2.354258 0.142658 -0.034176 577605.000000 0 0 1
-10.609876 16.720371 -21.306201 29.087703 -1.005361 2.392756 0.130117 -0.042437 758294.000000 0 0 1
-10.818376 15.351871 -22.017301 28.939225 -0.956927 2.435359 0.117996 -0.030157 -511217.000000 0 0 1
-9.700376 14.537171 -21.960601 28.065898 -0.982369 2.469412 0.138998 -0.046959 -721173.000000 0 0 1
-9.826576 13.362071 -22.768201 28.169088 -0.936700 2.512003 0.120135 -0.048482 273092.000000 0 0 1
-8.779376 12.233971 -22.472701 27.051243 -0.948341 2.551242 0.122485 -0.039313 1215690.000000 0 0 1
-7.423676 12.604171 -22.834101 27.117748 -1.038515 2.571842 0.078978 -0.035551 388466.000000 0 0 1
-6.689376 11.480971 -22.474001 26.108258 -1.043233 2.607637 0.075274 -0.025900 -857786.000000 0 0 1
-5.180376 11.645371 -22.620801 25.964429 -1.152238 2.628484 0.037049 -0.018371 -436067.000000 0 0 1
-4.725676 11.564571 -23.956301 27.018062 -1.182869 2.660905 0.028504 -0.022683 -520839.000000 0 0 1
-3.328876 11.688271 -23.900601 26.812979 -1.293338 2.671181 0.015199 -0.016881 -202640.000000 0 0 1
-2.616976 11.383871 -25.259571 27.829607 -1.344838 2.708450 0.040489 -0.033507 -463632.000000 0 0 1
-2.850976 10.045671 -25.635771 27.680974 -1.294266 2.754777 0.052782 -0.033493 215615.000000 0 0 1
-2.294176 9.737471 -26.903061 28.702897 -1.339413 2.785581 0.061085 -0.034030 -287957.000000 0 0 1
-2.252076 8.221371 -27.323171 28.621992 -1.303426 2.839183 0.068366 -0.010402 109820.000000 0 0 1
-1.380776 7.330971 -26.617611 27.643207 -1.384629 2.868342 0.056295 -0.013558 151770.000000 0 0 1
-1.511376 7.221671 -25.236591 26.293009 -1.364491 2.857161 0.062936 -0.022134 79629.400000 0 0 1
-0.441476 6.358071 -24.493901 25.309507 -1.501472 2.887035 -0.012343 -0.009399 406370.000000 0 0 1
0.905524 6.827671 -24.433001 25.385204 1.438940 2.866831 0.025198 0.010942 364432.000000 0 0 1
1.688124 6.029071 -23.591101 24.407775 1.297790 2.882178 0.027872 0.020682 -173307.000000 0 1 0
1.796124 6.438071 -22.107401 23.095714 1.298729 2.847992 0.032899 0.005169 -58270.000000 0 1 0
2.603424 7.602471 -21.940101 23.365432 1.240868 2.790502 0.045655 -0.011241 304178.000000 0 1 0
2.456824 8.161171 -20.623101 22.314860 1.278387 2.749697 0.054479 -0.013956 -78934.000000 0 1 0
3.129524 9.506171 -20.473401 22.788623 1.252762 2.686919 0.050593 -0.025227 -462794.000000 0 1 0
2.706624 10.266571 -19.387201 22.104114 1.313027 2.640557 0.054325 -0.029677 5999.210000 0 1 0
3.420224 11.507871 -19.313501 22.740720 1.281904 2.585438 0.058841 -0.037527 50998.000000 0 1 0
4.712624 11.524171 -18.495201 22.295466 1.182612 2.549097 0.072982 -0.048932 299307.000000 0 1 0
5.789424 10.789271 -19.096001 22.684423 1.078306 2.571426 0.080785 -0.042488 45927.500000 0 1 0
6.813224 10.479871 -18.196101 22.075910 0.994333 2.539675 0.084044 -0.035505 -160684.000000 0 1 0
7.946924 9.618271 -18.819201 22.579350 0.880264 2.556154 0.118549 -0.035088 84338.000000 0 1 0
7.682524 8.250971 -19.079701 22.161559 0.821059 2.607905 0.105417 -0.026999 -47122.400000 0 1 0
7.135624 7.984671 -20.342501 22.988898 0.841492 2.657041 0.086855 -0.016895 41271.200000 0 1 0
6.716524 6.525271 -20.537601 22.571750 0.770956 2.713793 0.084628 -0.013216 -68383.000000 0 1 0
7.872524 5.713271 -20.481701 22.674174 0.627782 2.698209 0.084161 -0.012592 -60471.200000 0 1 0
7.774824 4.355271 -20.881601 22.703690 0.510622 2.738226 0.072681 -0.007529 -215881.000000 0 1 0
7.565024 4.137671 -22.395201 23.997811 0.500497 2.774065 0.092345 -0.020527 53101.100000 0 1 0
6.400224 4.664471 -23.032901 24.356410 0.629793 2.810417 0.085163 -0.016411 209824.000000 0 1 0
6.458924 4.479171 -24.394801 25.629807 0.606340 2.829893 0.088457 -0.021244 -59386.200000 0 0 1
5.423224 5.342471 -25.151301 26.278152 0.777897 2.847682 0.068752 -0.014751 -61608.400000 0 0 1
5.637524 6.741071 -25.225801 26.712633 0.874313 2.806378 0.077361 -0.030635 65452.800000 0 0 1
5.325324 7.406071 -24.015501 25.689555 0.947400 2.778591 0.090220 -0.034667 -672221.000000 0 0 1
5.301324 8.948971 -24.235901 26.373605 1.035988 2.736194 0.102161 -0.045868 391583.000000 0 0 1
4.163024 9.468971 -24.893001 26.956515 1.156583 2.747773 0.096802 -0.045224 -36028.900000 0 0 1
2.968824 9.639771 -24.198201 26.216255 1.272038 2.746661 0.084225 -0.048661 -512983.000000 0 0 1
1.795224 10.250971 -24.974201 27.055793 1.397427 2.746765 0.081875 -0.027157 -119019.000000 0 0 1
1.857124 11.593671 -25.320731 27.910599 1.411961 2.707396 0.106364 -0.052006 -220214.000000 0 0 1
0.810724 11.850371 -26.232531 28.796428 1.502489 2.716413 0.110058 -0.049887 -328617.000000 0 0 1
0.606924 13.330671 -26.522341 29.690229 1.525299 2.675435 0.096921 -0.050788 -152200.000000 0 0 1
-0.055776 13.826571 -25.377441 28.899683 -1.566762 2.642719 0.089196 -0.047909 48146.000000 0 0 1
-0.293676 15.230771 -25.341141 29.567483 -1.551517 2.600335 0.082627 -0.056557 -257146.000000 0 0 1
-0.843176 15.770771 -24.011901 28.740208 -1.517383 2.559804 0.089925 -0.050641 -850981.000000 0 0 1
-2.048276 15.140271 -23.747301 28.237520 -1.436326 2.569896 0.078606 -0.049300 -1028410.000000 0 0 1
-2.576276 15.783371 -22.569401 27.660981 -1.408996 2.525131 0.077784 -0.056149 88964.900000 0 0 1
-3.905076 15.145471 -22.015801 27.006118 -1.318455 2.523897 0.072993 -0.048265 1180200.000000 0 0 1
-5.107176 15.454171 -22.737201 27.962385 -1.251623 2.520315 0.083297 -0.050190 275369.000000 0 0 1
-5.174076 15.031471 -24.079901 28.854078 -1.239283 2.558095 0.071616 -0.047759 -719463.000000 0 0 1
-6.686276 15.006671 -24.419601 29.431673 -1.151646 2.549375 0.058432 -0.044577 274235.000000 0 0 1
-7.230776 16.313371 -24.461201 30.278054 -1.153576 2.511352 0.062036 -0.044647 -1014200.000000 0 0 1
-8.559676 16.276771 -24.825901 30.895415 -1.086657 2.504026 0.070057 -0.039471 -673741.000000 0 0 1
-9.284476 17.542171 -25.425851 32.255281 -1.084011 2.478788 0.071536 -0.038501 267526.000000 0 0 1
-9.528976 18.585871 -24.484401 32.182633 -1.097040 2.435334 0.075993 -0.038814 -410814.000000 0 0 1
-10.789676 19.146171 -24.710201 33.069427 -1.057616 2.414668 0.078505 -0.027999 -217718.000000 0 0 1
-11.323576 19.984771 -23.547801 32.895492 -1.055290 2.368618 0.069535 -0.031446 -151984.000000 0 0 1
-10.741476 21.286771 -23.469901 33.456571 -1.103469 2.348301 0.084937 -0.028571 -118216.000000 0 0 1
-11.511976 22.402471 -23.845101 34.684076 -1.096114 2.328829 0.081483 -0.034640 -396556.000000 0 0 1
-11.221276 22.888571 -25.254931 35.883356 -1.114974 2.351538 0.074547 -0.024142 -489228.000000 0 0 1
-11.703576 22.082871 -26.294321 36.276965 -1.083450 2.381571 0.064010 -0.030932 -66267.100000 0 0 1
-11.570576 22.658371 -27.573031 37.517356 -1.098662 2.396376 0.079620 -0.026758 -210778.000000 0 0 1
-12.057276 21.724371 -28.784671 38.024774 -1.064114 2.429503 0.065618 -0.027343 450574.000000 0 0 1
-11.123576 20.736171 -29.267331 37.553953 -1.078429 2.464410 0.045669 -0.029096 289531.000000 0 0 1
-10.994976 19.630971 -28.436291 36.261373 -1.060245 2.472208 0.048357 -0.026717 -91591.300000 0 0 1
-9.965976 18.637471 -29.030471 35.908832 -1.079754 2.512309 0.043270 -0.027778 -1029200.000000 0 0 1
-8.688176 19.175071 -28.971251 35.812025 -1.145370 2.513213 0.045757 -0.032025 -815574.000000 0 0 1
-7.642476 18.501071 -29.625811 35.754520 -1.179063 2.547379 0.052059 -0.026567 325087.000000 0 0 1
-7.079976 17.247571 -28.949131 34.433370 -1.181279 2.569424 0.064162 -0.037746 -317738.000000 0 0 1
-8.069076 16.208571 -29.069891 34.247428 -1.108888 2.584545 0.058485 -0.030254 648358.000000 0 0 1
-7.814476 15.107171 -28.220821 32.950074 -1.093429 2.599192 0.046559 -0.037733 387251.000000 0 0 1
-9.118276 14.237371 -28.154851 32.841153 -1.001166 2.600806 0.062686 -0.023099 493418.000000 0 0 1
-10.000876 14.639371 -27.139341 32.417164 -0.971469 2.562922 0.067908 -0.030834 -490983.000000 0 0 1
-11.210976 13.926571 -27.230321 32.574925 -0.893010 2.560619 0.103023 -0.026844 157913.000000 0 0 1
-12.246976 14.427671 -26.170341 32.296019 -0.866968 2.515507 0.108767 -0.028433 173374.000000 0 0 1
-12.760076 15.686371 -26.419161 33.269413 -0.887908 2.488318 0.086915 -0.031292 -507248.000000 0 0 1
-13.744976 16.001271 -25.449551 33.055176 -0.861105 2.449498 0.127662 -0.031316 420362.000000 0 0 1
-14.715976 17.075271 -26.032681 34.435814 -0.859474 2.427942 0.110839 -0.024519 -57975.700000 0 0 1
-14.234476 18.397771 -26.033881 34.912193 -0.912295 2.412375 0.096215 -0.024118 -107433.000000 0 0 1
-15.252176 19.312671 -26.401211 36.091994 -0.902337 2.391312 0.097558 -0.020326 69870.500000 0 0 1
-14.801476 20.836571 -26.568301 36.866258 -0.953151 2.375560 0.080926 -0.023690 -55442.400000 0 0 1
-15.830076 21.797771 -26.729951 37.950288 -0.942686 2.352291 0.064319 -0.014828 347836.000000 0 0 1
-15.261676 23.123471 -26.746431 38.509547 -0.987418 2.338577 0.054295 -0.017886 162981.000000 0 0 1
-14.750576 23.694571 -25.416171 37.749092 -1.013975 2.309449 0.050554 -0.023317 -143168.000000 0 0 1
-14.129876 24.952971 -25.648961 38.473021 -1.055555 2.300534 0.059209 -0.026438 -93851.900000 0 0 1
-13.807676 25.710371 -24.491401 38.098606 -1.077952 2.269000 0.071524 -0.032491 -98367.000000 0 0 1
-13.687376 27.288871 -24.686401 39.261242 -1.105891 2.250770 0.097899 -0.027507 -31685.300000 0 0 1
-14.858576 27.991071 -25.025301 40.379983 -1.082788 2.239214 0.101765 -0.033332 -241961.000000 0 0 1
-15.327076 28.800271 -23.943801 40.468265 -1.081733 2.203923 0.111598 -0.035886 -122455.000000 0 0 1
-16.604976 29.591071 -24.277901 41.722574 -1.059434 2.191846 0.103845 -0.042956 -827890.000000 0 0 1
-17.684376 28.768071 -24.451901 41.692140 -1.019622 2.197511 0.083852 -0.037906 -1435940.000000 0 0 1
-18.815776 29.571371 -24.716801 42.888456 -1.004124 2.184996 0.087442 -0.036578 -50488.800000 0 0 1
-19.992076 28.695271 -25.217901 43.116635 -0.962287 2.195524 0.097997 -0.006387 -176283.000000 0 0 1
-20.594276 28.033671 -24.159701 42.352120 -0.937207 2.177848 0.092725 -0.013240 -323328.000000 0 0 1
-21.486176 27.014271 -24.569801 42.368641 -0.898889 2.189409 0.078793 -0.026171 -190554.000000 0 0 1
-22.079976 26.313571 -23.343901 41.531519 -0.872659 2.167691 0.073876 -0.026500 126269.000000 0 0 1
-22.973976 27.204971 -22.635001 42.193095 -0.869517 2.137036 0.079332 -0.023541 341976.000000 0 0 1
-23.374276 26.620871 -21.414201 41.395598 -0.850245 2.114497 0.074401 -0.020681 -320397.000000 0 0 1
-24.406476 27.455771 -20.647901 42.140613 -0.844127 2.082859 0.056457 -0.011132 -372750.000000 0 0 1
-25.749776 27.141071 -20.909101 42.858829 -0.811697 2.080433 0.091238 -0.022692 -832279.000000 0 0 1
-26.532626 28.248571 -20.686001 43.930316 -0.816712 2.061087 0.092388 -0.021407 155506.000000 0 0 1
-28.038346 27.924471 -20.954401 44.777358 -0.783363 2.057787 0.100972 -0.026489 452894.000000 0 0 1
-28.343996 27.755171 -22.307301 45.512056 -0.774902 2.083047 0.100068 -0.029196 -759869.000000 0 0 1
-29.721816 27.605871 -22.449201 46.362022 -0.748505 2.076262 0.103535 -0.023742 -382962.000000 0 0 1
-30.274236 27.002171 -23.774501 47.019926 -0.728333 2.100904 0.095648 -0.020430 138134.000000 0 0 1
-30.094556 25.614871 -23.888601 46.178666 -0.705159 2.114499 0.108999 -0.003742 -133289.000000 0 0 1
-30.479766 25.231571 -25.180191 46.900856 -0.691472 2.137532 0.088499 0.001318 -87519.900000 0 0 1
-30.725856 23.766771 -25.482761 46.457601 -0.658379 2.151385 0.078377 0.001575 -384056.000000 0 0 1
-29.602336 22.944171 -25.644661 45.391430 -0.659360 2.171190 0.105796 -0.016433 -327135.000000 0 0 1
-29.981446 21.571971 -25.755621 45.028758 -0.623701 2.179716 0.089775 -0.011374 -387631.000000 0 0 1
-28.834196 20.593171 -25.963601 43.927191 -0.620188 2.203169 0.096729 -0.014859 27611.600000 0 0 1
-28.007606 20.185571 -24.857001 42.541201 -0.624495 2.194819 0.091857 -0.008694 490869.000000 0 0 1
-27.325086 18.958171 -24.955201 41.579257 -0.606553 2.214527 0.077483 -0.012956 123474.000000 0 0 1
-28.203966 17.656371 -25.021101 41.632519 -0.559336 2.215547 0.073735 -0.006361 34342.000000 0 0 1
-29.113216 17.596571 -26.092641 42.872422 -0.543662 2.225106 0.080404 -0.015558 -8566.690000 0 0 1
-29.732586 16.352471 -26.077301 42.795509 -0.502832 2.226033 0.062017 -0.010108 -204223.000000 0 0 1
-30.571556 15.905271 -27.278701 43.951396 -0.479727 2.240375 0.040312 -0.007299 1468560.000000 0 0 1
-31.845456 16.614671 -27.443111 45.202928 -0.480879 2.223214 0.029079 -0.005631 1602060.000000 0 0 1
-32.680286 15.860271 -28.336241 46.070509 -0.451832 2.233262 0.029007 -0.005356 3247.170000 0 0 1
-33.985020 16.469871 -28.840861 47.518770 -0.451269 2.222996 0.025128 -0.008092 -318521.000000 0 0 1
-34.989869 16.503171 -27.847271 47.666719 -0.440716 2.194700 0.012584 0.000428 -256368.000000 0 0 1
-36.204256 16.843071 -28.472111 49.041801 -0.435441 2.190223 0.025213 -0.004041 35727.900000 0 0 1
-37.477346 16.481371 -27.664441 49.411621 -0.414313 2.165034 0.032372 -0.006368 121376.000000 0 0 1
37.668428 17.430271 -26.634501 49.316543 0.433389 2.141319 0.045673 -0.014081 -355241.000000 0 0 1
36.621468 17.004971 -25.821341 47.927472 0.434718 2.139759 0.057133 -0.015259 -328429.000000 0 0 1
36.109458 18.053371 -24.818801 47.389767 0.463618 2.122004 0.065293 -0.003777 -23846.600000 0 0 1
35.245068 19.025471 -25.365061 47.408540 0.494982 2.135341 0.069733 -0.026512 215930.000000 0 0 1
34.641528 19.819271 -24.355701 46.755097 0.519671 2.118726 0.084356 -0.016329 162149.000000 0 0 1
33.738838 20.991371 -24.804801 46.842555 0.556563 2.128849 0.101602 -0.035680 -276229.000000 0 0 1
32.585248 20.598271 -25.466831 46.202236 0.563714 2.154602 0.113299 -0.046305 -456463.000000 0 0 1
31.552428 21.560971 -25.278491 45.819573 0.599456 2.155193 0.123201 -0.036401 573966.000000 0 0 1
30.378498 21.437471 -26.293141 45.538419 0.614527 2.186317 0.094583 -0.038918 388527.000000 0 0 1
29.832798 20.150071 -26.193121 44.520791 0.594047 2.199794 0.117346 -0.053350 535297.000000 0 0 1
28.541398 19.860271 -26.752521 43.871849 0.607929 2.226589 0.138014 -0.061234 606044.000000 0 0 1
28.237698 18.317971 -26.939591 43.112147 0.575465 2.245764 0.149186 -0.048979 67321.500000 0 0 1
29.247498 17.596671 -27.614981 43.904967 0.541630 2.251026 0.127641 -0.059832 -153165.000000 0 0 1
30.299798 17.174871 -26.799111 43.945948 0.515674 2.226630 0.121529 -0.046746 462696.000000 0 0 1
31.549378 16.459371 -27.455991 44.945585 0.480858 2.227958 0.089732 -0.034847 719516.000000 0 0 1
31.324488 15.144071 -28.036761 44.683626 0.450327 2.249071 0.108082 -0.044082 206511.000000 0 0 1
30.657398 14.106171 -27.278151 43.393060 0.431240 2.250586 0.114211 -0.037540 -374450.000000 0 0 1
31.253788 13.457871 -26.001661 42.825225 0.406604 2.223275 0.091616 -0.022350 -336065.000000 0 0 1
31.061068 14.213771 -24.821901 42.224969 0.429162 2.199194 0.092423 -0.026912 133154.000000 0 0 1
31.831188 13.613371 -23.827001 42.027067 0.404133 2.173588 0.054154 -0.012850 -331896.000000 0 0 1
-15.358876 -30.700956 -23.074401 41.362685 1.106930 2.162596 0.114133 -0.019293 -290432.000000 0 0 1
-14.590876 -29.823656 -23.815601 40.859845 1.115795 2.193041 0.096736 -0.035843 -27624.600000 0 0 1
-15.033576 -29.720356 -25.155651 41.738648 1.102492 2.217670 0.067147 -0.024220 51881.200000 0 0 1
-14.348876 -28.538256 -25.899101 41.122813 1.104916 2.252091 0.088112 -0.030477 5014.630000 0 0 1
-14.808076 -27.233156 -25.488541 40.132152 1.072763 2.258954 0.080735 -0.019246 74322.300000 0 0 1
-14.375976 -26.233456 -26.409031 39.903631 1.069489 2.294041 0.091210 -0.018306 -334759.000000 0 0 1
-14.984276 -24.886456 -26.063291 39.027674 1.028830 2.302067 0.032808 -0.007971 -101048.000000 0 0 1
-14.470376 -24.343956 -24.844801 37.673387 1.034495 2.290922 0.090984 -0.024490 316571.000000 0 0 1
-15.054776 -23.063856 -24.599801 36.928822 0.992495 2.299819 0.037600 -0.020739 73652.800000 0 0 1
-14.703976 -22.551056 -23.184201 35.528358 0.992995 2.281748 0.091487 -0.015323 203504.000000 0 0 1
-13.318776 -22.327956 -23.004101 34.714782 1.032949 2.295161 0.153645 -0.037424 -90316.400000 0 0 1
-12.986176 -21.693056 -21.796401 33.381320 1.031383 2.282272 0.120429 -0.030887 1261050.000000 0 0 1
-11.447876 -21.330456 -21.721501 32.524849 1.078228 2.302104 0.154923 -0.041858 1136580.000000 0 0 1
-11.074476 -20.374356 -22.670501 32.430079 1.072919 2.344875 0.199427 -0.052226 1678050.000000 0 0 1
-9.612976 -20.201356 -22.598001 31.798958 1.126648 2.361221 0.254322 -0.055086 1870440.000000 0 0 1
-9.084876 -19.087956 -23.509201 31.615938 1.126575 2.409215 0.297997 -0.057314 -191280.000000 0 0 1
-9.208876 -17.789456 -22.900701 30.425487 1.093121 2.422922 0.203532 -0.052710 -235569.000000 0 0 1
-9.126476 -16.762156 -23.883101 30.572290 1.072209 2.467383 0.200017 -0.048944 873913.000000 0 0 1
-7.721176 -16.283856 -24.456501 30.379285 1.128032 2.506537 0.225623 -0.049598 1068410.000000 0 0 1
-7.166076 -17.139856 -25.428691 31.491993 1.174789 2.510639 0.231896 -0.055424 -83251.600000 0 0 1
-6.093176 -16.507856 -26.097111 31.475313 1.217202 2.548345 0.208534 -0.052231 65533.900000 0 0 1
-5.648976 -17.184756 -27.386591 32.821519 1.253203 2.557857 0.207121 -0.040481 -276408.000000 0 0 1
-6.416076 -16.807356 -28.474091 33.681257 1.206128 2.578107 0.226326 -0.045007 -265779.000000 0 0 1
-6.216276 -17.596556 -29.613451 35.003390 1.231214 2.579265 0.227546 -0.043855 -16138.300000 0 0 1
-6.802476 -17.045556 -30.933331 35.967980 1.191087 2.606113 0.217733 -0.041543 73595.400000 0 0 1
-6.203276 -15.865956 -31.462721 35.778653 1.198090 2.645337 0.188989 -0.039643 47785.600000 0 0 1
-6.690376 -14.652856 -30.873401 34.822898 1.142474 2.660702 0.162091 -0.040835 148160.000000 0 0 1
-7.719776 -13.946156 -31.800551 35.571973 1.065238 2.676941 0.131056 -0.046021 222231.000000 0 0 1
-7.090776 -13.529356 -33.004491 36.367829 1.088053 2.708135 0.144916 -0.053609 139780.000000 0 0 1
-7.917576 -12.725856 33.795785 36.970130 1.014239 0.417421 0.127209 -0.045013 -245784.000000 0 0 1
-8.278476 -11.300056 -33.363131 36.184568 0.938521 2.744079 0.086921 -0.045410 -153981.000000 0 0 1
-7.330876 -10.254956 -33.494821 35.788390 0.950166 2.781639 0.066808 -0.043984 -299136.000000 0 0 1
-6.904076 -9.939756 32.831494 34.991028 0.963709 0.353164 0.059195 -0.041893 97392.700000 0 0 1
-5.602476 -9.101056 32.843916 34.538961 1.018996 0.314589 0.085116 -0.042452 63033.400000 0 0 1
-5.433276 -8.374756 31.662478 33.198939 0.995288 0.305424 0.071712 -0.032728 497047.000000 0 0 1
-4.389276 -7.367256 31.761564 32.898924 1.033484 0.263713 0.075086 -0.038157 -234737.000000 0 0 1
-4.486776 -6.307256 30.714705 31.675002 0.952482 0.246867 0.066101 -0.029101 341565.000000 0 0 1
-5.594676 -5.420156 30.846555 31.814909 0.769555 0.247357 0.044218 -0.022814 -505443.000000 0 0 1
-6.749876 -5.980056 30.306455 31.619664 0.724999 0.289213 0.057313 -0.018612 -1479690.000000 0 0 1
-7.894376 -4.940456 30.255585 31.656432 0.559189 0.298603 0.044602 -0.022650 -92579.400000 0 0 1
-9.004276 -5.716156 29.817115 31.667204 0.565635 0.343513 0.058906 -0.023256 -529272.000000 0 0 1
-10.174976 -4.912756 29.820975 31.889746 0.449815 0.362178 0.051366 -0.023675 -160415.000000 0 0 1
-11.262276 -5.651956 29.050185 31.665387 0.465125 0.409271 0.064013 -0.020416 -252882.000000 0 0 1
-10.891876 -5.585256 27.682265 30.267736 0.473828 0.416328 0.063017 -0.023464 542897.000000 0 0 1
-11.894376 -6.245356 26.954555 30.116917 0.483500 0.462371 0.071014 -0.026015 75655.300000 0 0 1
-11.489676 -6.080256 25.469815 28.595343 0.486728 0.471918 0.062130 -0.023610 570833.000000 0 0 1
-10.260776 -6.717456 25.109095 27.944130 0.579654 0.454350 0.066549 -0.016128 764153.000000 0 0 1
-9.630576 -6.243456 23.896335 26.509688 0.575176 0.447761 0.064987 -0.016489 -208282.000000 0 0 1
-10.309476 -6.592856 22.611535 25.710554 0.568955 0.496059 0.069586 -0.020280 -525159.000000 0 0 1
-11.476276 -5.838756 22.424915 25.858708 0.470637 0.521226 0.061349 -0.025683 -181692.000000 0 0 1
-12.167876 -6.005856 21.184515 25.157726 0.458501 0.569690 0.064898 -0.020558 275156.000000 0 0 1
-13.392676 -5.050556 21.133915 25.524777 0.360622 0.595307 0.069165 -0.014794 -82806.100000 0 0 1
-13.107576 -3.714356 20.964615 25.002401 0.276135 0.576264 0.066071 -0.013241 -182771.000000 0 0 1
-14.283076 -2.941956 20.964115 25.537335 0.203134 0.607776 0.078081 -0.012074 85468.500000 0 0 1
-14.048576 -1.476156 20.568015 24.951649 0.104691 0.601805 0.064071 -0.009302 196743.000000 0 1 0
-12.971776 -0.892156 21.310515 24.963993 0.068669 0.547843 0.062553 -0.015425 329176.000000 0 1 0
-12.727576 0.520844 21.093015 24.640977 -0.040900 0.543288 0.063681 -0.014067 -173719.000000 0 1 0
-12.238676 0.936844 19.658115 23.175512 -0.076399 0.558166 0.050615 -0.018367 247257.000000 0 1 0
-13.152976 0.750844 18.540215 22.744321 -0.057024 0.617794 0.063481 -0.018507 769111.000000 0 1 0
-14.305876 1.598844 18.585715 23.508364 -0.111299 0.659008 0.066201 -0.012990 688035.000000 0 1 0
-15.554476 1.059844 17.815615 23.674060 -0.068032 0.718890 0.075285 -0.008808 138486.000000 0 1 0
-15.962376 -0.178156 18.329815 24.306610 0.011161 0.716501 0.072322 -0.009294 364566.000000 0 1 0
-16.759876 -0.914156 17.386415 24.166434 0.054490 0.767794 0.073417 -0.014132 114173.000000 0 1 0
-16.852776 -2.439156 17.722715 24.577635 0.143735 0.765420 0.067740 -0.011211 -154806.000000 0 1 0
-17.656876 -2.709956 18.855015 25.973462 0.152290 0.758405 0.089211 -0.013800 200693.000000 0 0 1
-17.713476 -4.098256 19.060915 26.341629 0.227363 0.761786 0.104453 -0.014470 -169772.000000 0 0 1
-18.445376 -4.620256 20.295715 27.811773 0.245433 0.752836 0.099939 -0.005869 -343416.000000 0 0 1
-17.795176 -4.275656 21.474815 28.215549 0.235801 0.705791 0.101636 -0.003721 -77518.600000 0 0 1
-18.608876 -4.435756 22.638395 29.638879 0.234001 0.701605 0.088520 -0.011686 -385510.000000 0 0 1
-18.483676 -5.823756 23.354905 30.348212 0.305230 0.692638 0.105006 -0.002676 -303634.000000 0 0 1
-17.220676 -6.152656 23.868415 30.068390 0.343148 0.653757 0.043819 -0.012621 -355140.000000 0 0 1
-16.452476 -6.722456 22.845545 28.944677 0.387897 0.661156 0.072930 -0.011114 -381084.000000 0 0 1
-15.257576 -7.601556 23.335565 28.898545 0.462219 0.630895 0.085028 -0.005500 -42306.200000 0 0 1
-15.681076 -8.736956 23.985635 29.958993 0.508328 0.642474 0.068876 -0.011512 45975.700000 0 0 1
-15.412176 -8.756256 25.339575 30.924121 0.516663 0.610413 0.073607 -0.008045 -670941.000000 0 0 1
-16.341176 -9.741156 25.980075 32.200752 0.537555 0.632054 0.049156 -0.007631 -650523.000000 0 0 1
-16.117976 -11.130556 25.751995 32.354964 0.604368 0.650269 0.055936 -0.020110 -74552.900000 0 0 1
-15.420176 -11.729656 26.806785 33.075223 0.650295 0.625826 0.053677 -0.019409 -332242.000000 0 0 1
-15.350376 -13.242956 26.655295 33.489023 0.711828 0.650235 0.053482 -0.028127 288964.000000 0 0 1
-16.564276 -13.861256 27.103575 34.657084 0.696790 0.672848 0.058379 -0.034973 650004.000000 0 0 1
-16.633876 -15.244256 26.871965 35.088113 0.741834 0.698446 0.084030 -0.028007 255558.000000 0 0 1
-15.614876 -16.244256 27.547375 35.588735 0.805151 0.685587 0.086380 -0.028795 1077570.000000 0 0 1
-14.234376 -16.096156 27.206445 34.668348 0.846704 0.668482 0.071393 -0.030150 753609.000000 0 0 1
-13.375776 -16.849456 28.037365 35.339912 0.899823 0.654483 0.093834 -0.030821 418418.000000 0 0 1
-12.017176 -17.104956 27.328355 34.406846 0.958358 0.652990 0.106890 -0.040076 111425.000000 0 0 1
-10.989976 -17.810256 27.993225 34.951473 1.017928 0.641971 0.138416 -0.052256 377057.000000 0 0 1
-10.048176 -18.319856 27.041225 34.173247 1.069117 0.657867 0.134158 -0.052643 -143908.000000 0 0 1
-8.823176 -18.865156 27.752885 34.698201 1.133323 0.643774 0.164400 -0.058809 -436923.000000 0 0 1
-9.216476 -20.075756 28.392315 35.973643 1.140413 0.661204 0.161618 -0.048797 -202201.000000 0 0 1
-8.180376 -20.709156 29.064555 36.613332 1.194597 0.653724 0.184812 -0.047328 -424365.000000 0 0 1
-8.623976 -21.857656 29.957145 38.073096 1.194996 0.665137 0.142398 -0.042081 -15139.800000 0 0 1
-8.790976 -23.037756 29.213855 38.229162 1.206261 0.701032 0.159057 -0.048705 -11373.000000 0 0 1
-8.908976 -24.202556 29.966915 39.536687 1.218088 0.710628 0.125837 -0.040391 -256146.000000 0 0 1
-8.999876 -25.476756 29.081705 39.696454 1.231222 0.748659 0.124825 -0.037253 76038.500000 0 0 1
-10.241076 -25.667356 28.413615 39.636175 1.191159 0.771507 0.119218 -0.041365 145310.000000 0 0 1
-10.193476 -26.722856 27.466605 39.653908 1.206382 0.805628 0.099082 -0.044578 976932.000000 0 0 1
-11.521076 -26.945856 26.581785 39.565208 1.166756 0.834096 0.091718 -0.039924 1174750.000000 0 0 1
-11.583576 -26.085856 25.462195 38.248850 1.152897 0.842367 0.108051 -0.048606 105936.000000 0 0 1
-12.057276 -24.806856 25.814675 37.777711 1.118374 0.818481 0.101401 -0.044545 -436253.000000 0 0 1
-12.289176 -23.901056 24.570925 36.414485 1.095878 0.830161 0.125696 -0.062207 -85493.900000 0 0 1
-13.514176 -24.282256 23.985955 36.709494 1.062942 0.858730 0.107127 -0.051458 142207.000000 0 0 1
-13.512076 -23.839756 22.614175 35.529017 1.055156 0.880846 0.115862 -0.054070 -158370.000000 0 0 1
-14.903876 -23.938656 21.972815 35.748977 1.013935 0.908865 0.112708 -0.048589 -339166.000000 0 0 1
-15.186676 -25.201956 21.409615 36.388808 1.028468 0.941771 0.110834 -0.055893 219559.000000 0 0 1
-16.267476 -25.121056 20.498115 36.274936 0.996136 0.970270 0.113035 -0.051837 -415312.000000 0 0 1
-16.821376 -26.476856 20.189215 37.303981 1.004808 0.998923 0.111649 -0.045279 -103419.000000 0 0 1
-15.945576 -27.287456 19.438115 37.104002 1.041960 1.019394 0.103934 -0.040946 193980.000000 0 0 1
-16.653176 -28.390056 18.961115 37.984832 1.040299 1.048149 0.102158 -0.040861 134303.000000 0 0 1
-15.893076 -29.046856 17.791715 37.587961 1.070142 1.077723 0.112640 -0.038700 148606.000000 0 0 1
-15.938476 -28.355856 16.567315 36.504322 1.058720 1.099720 0.093049 -0.030927 505615.000000 0 0 1
-14.947776 -28.884356 15.663615 36.098350 1.093244 1.121963 0.092613 -0.031775 558177.000000 0 0 1
-15.009676 -28.275356 14.226015 35.030924 1.082783 1.152615 0.080346 -0.021492 -158165.000000 0 0 1
-14.567376 -26.950556 14.118015 33.732170 1.075259 1.138967 0.079707 -0.021418 -214553.000000 0 0 1
-14.660076 -26.316756 12.864815 32.756571 1.062547 1.167187 0.074387 -0.024851 -34199.000000 0 0 1
-13.906176 -26.797956 11.614715 32.348320 1.092122 1.203545 0.078941 -0.011409 10064.300000 0 0 1
-14.384676 -26.163756 10.431115 31.627033 1.068111 1.234687 0.063230 -0.015524 258614.000000 0 0 1
-13.530176 -26.422656 9.301515 31.108529 1.097542 1.267150 0.079931 -0.016922 238441.000000 0 0 1
-13.896176 -25.675356 8.012115 30.274108 1.074714 1.302953 0.072526 -0.020818 -246376.000000 0 0 1
-14.911476 -26.319456 7.303015 31.119124 1.055330 1.333908 0.081354 -0.029606 -205755.000000 0 0 1
-15.375476 -25.508956 6.221015 30.427177 1.028359 1.364889 0.084025 -0.029205 843325.000000 0 0 1
-16.405176 -26.247756 5.237215 31.392721 1.012188 1.403184 0.085700 -0.035688 864869.000000 0 0 1
-15.746776 -27.280256 4.542915 31.824698 1.047293 1.427559 0.101193 -0.034068 -167181.000000 0 0 1
-16.556076 -27.792756 3.546515 32.544104 1.033546 1.461604 0.115171 -0.026063 -242856.000000 0 0 1
-15.917876 -28.983856 2.739815 33.180556 1.068569 1.488129 0.114186 -0.033138 722544.000000 0 0 1
-14.676676 -28.561756 2.145415 32.183560 1.096124 1.504085 0.106683 -0.024907 559508.000000 0 0 1
-13.937676 -29.675656 1.669215 32.828184 1.131708 1.519927 0.098188 -0.031260 728032.000000 0 0 1
-12.432076 -29.370056 1.352615 31.921564 1.170374 1.528411 0.100357 -0.028901 673943.000000 0 0 1
-12.244676 -28.625056 0.122515 31.134240 1.166590 1.566861 0.094409 -0.025031 -15725.500000 0 0 1
-12.586676 -27.228056 0.225115 29.997369 1.137787 1.563292 0.086523 -0.027417 -413162.000000 0 0 1
-12.448576 -26.553456 -1.187685 29.350701 1.132409 1.611273 0.077764 -0.017109 -230586.000000 0 0 1
-11.098476 -26.418756 -1.527185 28.695978 1.173085 1.624041 0.096911 -0.023792 -1058950.000000 0 0 1
-10.830476 -25.872856 -2.769185 28.184610 1.174356 1.669207 0.111154 -0.024272 -103375.000000 0 0 1
-9.409976 -25.933656 -3.334885 27.788912 1.222722 1.691094 0.102386 -0.024879 -226263.000000 0 0 1
-9.120576 -25.125356 -4.475985 27.101713 1.222585 1.736712 0.109216 -0.038653 730905.000000 0 0 1
-7.767076 -25.443956 -4.866085 27.044429 1.274519 1.751711 0.130191 -0.031994 1245560.000000 0 0 1
-6.968676 -24.444256 -5.754885 26.061519 1.293079 1.793451 0.112978 -0.030632 148855.000000 0 0 1
-7.077376 -24.576256 -7.176085 26.562714 1.290407 1.844352 0.119563 -0.022600 -404022.000000 0 0 1
-6.465576 -23.536156 -7.823385 25.631224 1.302701 1.880975 0.115631 -0.022913 -343153.000000 0 0 1
-6.675776 -23.554656 -9.345985 26.205634 1.294622 1.935466 0.106647 -0.018433 58441.800000 0 0 1
-5.882276 -24.535556 -10.014385 27.145581 1.335493 1.948637 0.085167 -0.017499 92319.600000 0 0 1
-6.016476 -24.373556 -11.414185 27.578104 1.328790 1.997515 0.061463 -0.001580 -103545.000000 0 0 1
-7.201976 -25.091556 -12.068985 28.759608 1.291283 2.003857 0.071609 -0.007762 -49039.000000 0 0 1
-7.476676 -24.684256 -13.376685 29.054240 1.276688 2.049246 0.089964 -0.010098 864008.000000 0 0 1
-8.703276 -25.290156 -13.863385 30.125279 1.239354 2.049007 0.112947 -0.015327 389689.000000 0 0 1
-8.804576 -25.050556 -15.410585 30.700766 1.232811 2.096661 0.115287 -0.017804 568118.000000 0 0 1
-7.940676 -25.825356 -16.300385 31.554808 1.272495 2.113641 0.116334 -0.026834 1542870.000000 0 0 1
-6.543476 -25.496556 -16.113485 30.863179 1.319577 2.120101 0.108419 -0.020204 986384.000000 0 0 1
-5.601976 -26.281356 -17.131385 31.868106 1.360785 2.138351 0.100460 -0.011809 306727.000000 0 0 1
-5.512776 -25.727956 -18.435385 32.127587 1.359716 2.181956 0.166577 -0.021940 183614.000000 0 0 1
-4.762776 -26.575356 -19.277485 33.174614 1.393461 2.190865 0.126771 -0.024219 -157928.000000 0 0 1
-26.530076 14.317971 -5.106001 30.576469 -0.494892 1.738574 0.168363 -0.047506 -152550.000000 0 0 1
-25.941876 13.248171 -4.372101 29.455224 -0.472160 1.719779 0.167960 -0.044748 826983.000000 0 0 1
-24.591376 13.046571 -4.804801 28.249511 -0.487776 1.741712 0.174311 -0.042914 527466.000000 0 0 1
-23.941176 11.745171 -4.223101 26.999324 -0.456087 1.727856 0.169524 -0.043031 -116479.000000 0 0 1
-24.370976 10.581871 -4.899201 27.017080 -0.409637 1.753142 0.162780 -0.021856 -428743.000000 0 0 1
-25.710176 10.242371 -4.740001 28.078228 -0.379107 1.740423 0.196427 -0.029944 -852526.000000 0 0 1
-26.249896 9.480771 -5.971101 28.541130 -0.346594 1.781564 0.202447 -0.021725 -162462.000000 0 0 1
-26.600556 10.347871 -7.043401 29.398597 -0.370996 1.812733 0.235848 -0.033068 358937.000000 0 0 1
-26.992976 9.613171 -8.233401 29.813129 -0.342131 1.850600 0.230221 -0.033277 152162.000000 0 0 1
-27.518126 10.562471 -9.367101 30.928233 -0.366495 1.878494 0.218310 -0.038716 -103698.000000 0 0 1
-26.488326 11.321171 -9.954701 30.477801 -0.403904 1.903523 0.214235 -0.041851 216284.000000 0 0 1
-26.779016 11.642471 -11.293601 31.308277 -0.410109 1.939839 0.203590 -0.051728 -257208.000000 0 0 1
-25.719366 12.529071 -11.957401 31.007141 -0.453311 1.966691 0.169143 -0.041497 -521773.000000 0 0 1
-25.633066 13.803071 -11.390501 31.262155 -0.493961 1.943736 0.161182 -0.049865 415123.000000 0 0 1
-24.775476 14.657471 -12.154301 31.247283 -0.534229 1.970311 0.132180 -0.043932 115598.000000 0 0 1
-24.761776 16.082971 -11.550101 31.705083 -0.576029 1.943675 0.143843 -0.047632 -304996.000000 0 0 1
-24.093576 16.220571 -10.337001 30.829546 -0.592534 1.912715 0.143451 -0.036875 -7979.980000 0 0 1
-24.178976 17.614571 -10.085401 31.569151 -0.629604 1.895967 0.109404 -0.024499 278422.000000 0 0 1
-23.031776 18.110171 -9.134301 30.690005 -0.666339 1.873007 0.114408 -0.026667 222223.000000 0 0 1
-22.979876 17.578971 -7.783301 29.961220 -0.653015 1.833590 0.137376 -0.039335 279035.000000 0 0 1
-23.806876 18.336271 -6.887201 30.828878 -0.656310 1.796099 0.124084 -0.033354 -39388.300000 0 0 1
-24.121976 17.498871 -5.609301 30.323991 -0.627592 1.756847 0.127663 -0.023497 -247784.000000 0 0 1
-23.043476 17.279071 -4.736001 29.189001 -0.643403 1.733770 0.113625 -0.030984 -50754.000000 0 0 1
-23.462876 16.951871 -3.469801 29.153250 -0.625666 1.690098 0.115151 -0.033107 -33082.600000 0 0 1
-22.250276 16.796671 -2.510501 27.991169 -0.646628 1.660606 0.124601 -0.042835 16417.600000 0 0 1
-21.692376 18.052371 -2.221501 28.308697 -0.694068 1.649351 0.115997 -0.036304 -165543.000000 0 0 1
-20.777476 17.974271 -1.157401 27.497591 -0.713186 1.612900 0.172747 -0.052386 -137067.000000 0 0 1
-20.224476 19.382471 -0.946701 28.028661 -0.764142 1.604579 0.138268 -0.038406 -352040.000000 0 0 1
-21.008176 20.089871 -0.009001 29.067962 -0.763058 1.571106 0.115387 -0.023682 74250.100000 0 0 1
-20.670976 21.399371 0.278099 29.753986 -0.802710 1.561450 0.123398 -0.023754 -181205.000000 0 0 1
-21.751676 21.966571 1.214899 30.937705 -0.790314 1.531517 0.102230 -0.021511 89990.700000 0 0 1
-21.737076 21.368271 2.497799 30.583369 -0.776842 1.489033 0.115567 -0.014778 338465.000000 0 0 1
-23.003576 21.526571 3.106299 31.657651 -0.752242 1.472517 0.105703 -0.017989 204519.000000 0 0 1
-22.887076 21.306171 4.653299 31.613673 -0.749641 1.423067 0.116369 -0.006850 -12739.100000 0 0 1
-22.197576 22.416571 5.194199 31.972093 -0.790307 1.407613 0.105788 -0.015753 204107.000000 0 0 1
-21.481676 22.173871 6.393299 31.528039 -0.801253 1.366599 0.108650 -0.004070 69230.500000 0 0 1
-22.304376 22.194371 7.721499 32.399025 -0.782926 1.330155 0.090880 0.006987 -223682.000000 0 0 1
-23.334376 21.234771 7.838199 32.509167 -0.738324 1.327290 0.118141 -0.003530 279188.000000 0 0 1
-23.621176 20.738071 9.114599 32.727717 -0.720495 1.288567 0.131695 -0.011534 121489.000000 0 0 1
-24.310476 21.706271 10.164299 34.139045 -0.728866 1.268480 0.132926 -0.001899 -474847.000000 0 0 1
-25.621286 22.078871 9.855999 35.228789 -0.711270 1.287241 0.150434 -0.002647 -46003.400000 0 0 1
-26.136356 23.012771 10.844499 36.473276 -0.721930 1.268904 0.161639 -0.008174 285046.000000 0 0 1
-27.459476 23.702071 10.440199 37.746639 -0.712088 1.290556 0.156830 -0.030227 248510.000000 0 0 1
-28.191986 24.309771 11.493999 38.959787 -0.711588 1.271318 0.158160 -0.030044 201460.000000 0 0 1
-27.889056 25.668971 11.737899 39.679639 -0.743970 1.270486 0.147249 -0.030463 5833.190000 0 0 1
-28.213726 26.112371 13.200699 40.646386 -0.746737 1.240029 0.180417 -0.035890 -144877.000000 0 0 1
-27.153746 25.770671 14.024499 39.976743 -0.759271 1.212353 0.138554 -0.033918 -187796.000000 0 0 1
-27.599516 25.843871 15.375699 40.817289 -0.752559 1.184570 0.162641 -0.036161 695151.000000 0 0 1
-26.450416 25.760971 16.445999 40.419339 -0.772194 1.151756 0.130359 -0.042413 493883.000000 0 0 1
-25.957286 24.557071 16.969999 39.557696 -0.757686 1.127418 0.145318 -0.045702 787597.000000 0 0 1
-24.701076 24.839671 17.622599 39.213625 -0.788196 1.104703 0.118630 -0.044020 691754.000000 0 0 1
-23.998476 23.522371 18.060099 38.149652 -0.775380 1.077648 0.124739 -0.032828 -441735.000000 0 0 1
-22.814876 23.682271 18.813999 37.885816 -0.804051 1.051122 0.134050 -0.038569 235398.000000 0 0 1
-22.413076 22.424171 19.285699 37.109670 -0.785646 1.024303 0.137454 -0.043687 -1062590.000000 0 0 1
-20.997676 22.387071 19.785499 36.517794 -0.817412 0.998214 0.086432 -0.035161 -1046840.000000 0 0 1
-19.958276 22.660971 18.791699 35.566562 -0.848728 1.014137 0.075241 -0.041841 862186.000000 0 0 1
-18.681976 22.311671 19.277799 34.906452 -0.873711 0.985711 0.073200 -0.035063 -130320.000000 0 0 1
-18.402176 20.745071 19.316299 33.795228 -0.845175 0.962380 0.050767 -0.025575 -1295520.000000 0 0 1
-19.095076 20.038471 20.332299 34.344790 -0.809501 0.937252 0.084135 -0.027337 -233007.000000 0 0 1
-18.614976 20.211971 21.609799 34.957467 -0.826506 0.904379 0.073438 -0.018154 -317150.000000 0 0 1
-19.642476 19.951371 22.746599 36.073423 -0.793200 0.888517 0.077093 -0.017020 -55794.200000 0 0 1
-20.766376 20.792771 22.744399 37.160320 -0.786033 0.912132 0.084486 -0.017552 -129700.000000 0 0 1
-21.289776 20.997671 24.027499 38.359842 -0.778491 0.893907 0.089400 -0.014489 -255906.000000 0 0 1
-22.387576 22.051071 24.121899 39.614635 -0.777826 0.916106 0.085091 -0.017235 -572318.000000 0 0 1
-21.941276 23.421971 23.949599 40.044870 -0.818027 0.929707 0.095580 -0.025394 -302600.000000 0 0 1
-22.920176 24.417471 23.937999 41.165218 -0.817018 0.950212 0.086174 -0.024819 -90376.400000 0 0 1
-23.835676 24.522171 22.633799 41.009330 -0.799593 0.986133 0.082959 -0.033139 543369.000000 0 0 1
-24.913576 23.598771 22.677799 41.132357 -0.758302 0.986830 0.073038 -0.034225 200694.000000 0 0 1
-25.762696 23.862771 21.570499 41.212071 -0.747132 1.019957 0.075171 -0.037530 -9543.700000 0 0 1
-26.911066 22.899671 21.281999 41.249532 -0.705039 1.028700 0.094323 -0.036305 -190412.000000 0 0 1
-28.064756 22.994871 22.076299 42.470667 -0.686429 1.024178 0.101994 -0.034683 108195.000000 0 0 1
-28.972506 21.928171 21.770899 42.358267 -0.647878 1.030989 0.120280 -0.030564 865198.000000 0 0 1
-30.438836 22.354271 22.139799 43.776784 -0.633442 1.040553 0.149153 -0.023281 137155.000000 0 0 1
-30.976086 23.247671 21.208599 44.156277 -0.643823 1.069791 0.165205 -0.033627 -740225.000000 0 0 1
-32.327536 23.491071 21.388399 45.325088 -0.628394 1.079365 0.163899 -0.027046 -296048.000000 0 0 1
-33.323606 22.608071 20.559699 45.213812 -0.596109 1.098737 0.167555 -0.036615 -839187.000000 0 0 1
-33.348346 21.261671 21.028999 44.792741 -0.567582 1.082102 0.160650 -0.032447 -12273.100000 0 0 1
-34.122578 20.345471 20.328199 44.626496 -0.537655 1.097842 0.168560 -0.032377 378332.000000 0 0 1
-35.663218 20.628971 20.286599 45.923476 -0.524414 1.113250 0.181044 -0.041263 -80570.000000 0 0 1
-36.308706 19.760171 19.392499 45.660218 -0.498400 1.132151 0.162994 -0.037247 -988626.000000 0 0 1
-37.684566 19.907471 19.403799 46.828851 -0.486004 1.143562 0.172096 -0.045652 -797666.000000 0 0 1
37.064328 19.145071 18.264299 45.539903 0.476789 1.158121 0.163635 -0.041918 -113993.000000 0 0 1
37.126008 17.717671 18.424899 45.074752 0.445267 1.149698 0.177853 -0.048843 217190.000000 0 0 1
36.347028 17.063471 17.432699 43.774050 0.438918 1.161196 0.186317 -0.059151 230894.000000 0 0 1
36.686828 15.534071 17.373799 43.463544 0.400535 1.159571 0.189662 -0.064496 383.824000 0 0 1
36.052048 14.883771 16.311199 42.276850 0.391527 1.174701 0.213256 -0.056437 -178479.000000 0 0 1
36.565888 13.580271 16.083999 42.192214 0.355604 1.179694 0.205379 -0.040690 -61494.600000 0 0 1
35.562418 12.712471 15.322399 40.756207 0.343313 1.185372 0.187158 -0.044629 -267203.000000 0 0 1
35.614408 12.994671 13.947099 40.395162 0.349861 1.218274 0.183425 -0.044210 381766.000000 0 0 1
34.690188 12.189871 13.225899 39.075907 0.337915 1.225509 0.181834 -0.037145 -10791.500000 0 0 1
34.709158 12.610571 11.757899 38.755649 0.348493 1.262553 0.206126 -0.038080 -111617.000000 0 0 1
35.955738 12.344471 11.153799 39.618282 0.330715 1.285406 0.190962 -0.032570 -20884.800000 0 0 1
35.868908 12.347571 9.737399 39.164499 0.331536 1.319533 0.180349 -0.036057 -116311.000000 0 0 1
37.153188 12.309271 8.865399 40.130697 0.319930 1.348046 0.134609 -0.017887 -251674.000000 0 0 1
-37.546836 11.092171 9.075399 40.189103 -0.287252 1.343014 0.198731 -0.030951 1213400.000000 0 0 1
-36.167856 11.188271 8.642199 38.832703 -0.300006 1.346368 0.214962 -0.039241 1067590.000000 0 0 1
-35.941373 11.068171 7.125999 38.276188 -0.298735 1.383531 0.185667 -0.051130 -805563.000000 0 0 1
-36.337406 12.173071 6.364999 38.847187 -0.323251 1.406207 0.167862 -0.053443 -52618.100000 0 0 1
-36.115366 11.966471 4.992999 38.372465 -0.319956 1.440307 0.183831 -0.061605 383766.000000 0 0 1
-37.206216 12.636771 4.076499 39.504535 -0.327417 1.467422 0.175350 -0.061139 640351.000000 0 0 1
36.899118 12.239271 4.384499 39.122481 0.320276 1.458489 0.175082 -0.067386 -506301.000000 0 0 1
35.956018 13.218871 4.154499 38.533539 0.352303 1.462771 0.146930 -0.059554 -174591.000000 0 0 1
35.458388 13.866971 5.519499 38.471484 0.372791 1.426830 0.150737 -0.045843 -1064090.000000 0 0 1
34.758418 15.051571 5.378599 38.257375 0.408656 1.429739 0.132093 -0.038856 -84526.400000 0 0 1
34.241288 15.505171 6.619399 38.166642 0.425197 1.396481 0.108943 -0.029660 649045.000000 0 0 1
33.020058 14.756671 7.285999 36.894029 0.420273 1.372005 0.185283 -0.039233 63848.200000 0 0 1
33.233608 13.381071 7.687599 36.641847 0.382777 1.359422 0.221818 -0.036623 -415862.000000 0 0 1
32.040638 12.733571 8.014099 35.397346 0.378280 1.342412 0.229291 -0.034612 -354336.000000 0 0 1
31.593058 11.583671 7.065299 34.383444 0.351432 1.363837 0.240628 -0.047234 -85495.400000 0 0 1
31.232488 12.027271 5.792199 33.965764 0.367586 1.399428 0.221160 -0.063798 182847.000000 0 0 1
31.332728 10.889471 4.931299 33.535625 0.334484 1.423215 0.223744 -0.066308 -184029.000000 0 0 1
30.797288 11.123171 3.505599 32.931552 0.346594 1.464143 0.177104 -0.068792 152314.000000 0 0 1
29.401898 10.878871 3.466899 31.541098 0.354385 1.460657 0.137467 -0.057287 18061.100000 0 0 1
28.850198 11.252771 2.223599 31.046790 0.371892 1.499114 0.151836 -0.059675 -176208.000000 0 0 1
27.328298 11.067171 2.154699 29.562829 0.384784 1.497846 0.181576 -0.046286 -263298.000000 0 0 1
26.943398 9.737871 1.955999 28.715828 0.346812 1.502628 0.150027 -0.043599 20761.400000 0 0 1
25.537398 9.590071 2.079199 27.357837 0.359236 1.494723 0.154585 -0.038090 -331003.000000 0 0 1
25.265298 8.098071 1.895699 26.599017 0.310176 1.499466 0.167947 -0.043929 -20343.500000 0 0 1
25.859198 7.138271 2.786999 26.970732 0.269336 1.467277 0.183387 -0.034261 278040.000000 0 0 1
27.254998 7.012271 2.598899 28.262363 0.251822 1.478710 0.226840 -0.046898 -490039.000000 0 0 1
27.904398 6.308971 3.763299 28.855172 0.222354 1.440003 0.223248 -0.058167 -323638.000000 0 0 1
29.320098 6.297371 3.752399 30.222600 0.211566 1.446316 0.264199 -0.059487 269363.000000 0 0 1
29.758898 5.831971 5.012599 30.736461 0.193521 1.406981 0.256305 -0.050228 -66260.900000 0 0 1
31.261308 5.533571 5.197099 32.169856 0.175195 1.408533 0.239561 -0.054881 -79211.500000 0 0 1
32.009828 6.683471 5.530399 33.164487 0.205837 1.403257 0.254439 -0.060077 -306953.000000 0 0 1
33.307738 6.346971 5.963199 34.427448 0.188298 1.396708 0.242936 -0.052474 -185733.000000 0 0 1
33.905348 7.446571 6.817199 35.376521 0.216196 1.376879 0.219999 -0.055873 -563027.000000 0 0 1
33.307468 7.727871 8.014099 35.118844 0.227982 1.340568 0.237757 -0.054243 -268760.000000 0 0 1
33.938708 8.775071 8.734199 36.126500 0.253015 1.326610 0.239266 -0.055954 -22248.200000 0 0 1
33.483678 8.814871 10.182199 36.090661 0.257418 1.284784 0.235084 -0.045340 514489.000000 0 0 1
32.128308 9.216871 10.410399 35.007932 0.279374 1.268857 0.245605 -0.050489 732084.000000 0 0 1
31.691508 8.823071 11.689799 34.912028 0.271529 1.229365 0.235268 -0.053365 47676.700000 0 0 1
30.274398 9.316271 12.090399 33.904422 0.298531 1.206168 0.201581 -0.048780 -22180.700000 0 0 1
30.111398 10.736271 12.278099 34.244934 0.342500 1.204095 0.235686 -0.056237 96411.100000 0 0 1
30.089398 11.619671 11.186599 34.139839 0.368529 1.236960 0.237435 -0.058827 -414913.000000 0 0 1
28.847798 11.566071 10.278999 32.735719 0.381312 1.251394 0.194335 -0.042807 -318570.000000 0 0 1
28.850898 12.482871 9.203199 32.755080 0.408348 1.285992 0.171489 -0.020976 283188.000000 0 0 1
27.666698 12.439571 8.420499 31.481644 0.422540 1.300026 0.154213 -0.023853 164277.000000 0 0 1
27.564998 13.694571 7.555199 31.693082 0.461092 1.330092 0.137363 -0.022625 -40704.900000 0 0 1
27.310598 14.851971 8.280399 32.171646 0.498084 1.310484 0.130939 -0.007986 154740.000000 0 0 1
27.617498 15.999871 7.587199 32.806823 0.525088 1.337415 0.123280 -0.007340 -811614.000000 0 0 1
27.044698 17.268571 8.271699 33.136690 0.568262 1.318505 0.146198 -0.018786 1242410.000000 0 0 1
25.672298 17.680071 8.132599 32.214763 0.603090 1.315585 0.161524 -0.022601 804689.000000 0 0 1
24.642398 16.766771 8.402999 30.967447 0.597452 1.296002 0.162295 -0.015304 -864037.000000 0 0 1
23.302198 17.493171 8.527899 30.359982 0.643955 1.286072 0.153392 -0.030673 -603280.000000 0 0 1
22.793398 18.082771 7.359999 30.011584 0.670663 1.323031 0.144330 -0.035483 3107.910000 0 0 1
21.727398 18.949371 7.680799 29.835435 0.717209 1.310426 0.169210 -0.042798 -94320.100000 0 0 1
20.896498 19.409771 6.493099 29.250012 0.748529 1.346945 0.152197 -0.039712 -33439.500000 0 0 1
21.713998 20.143671 5.608999 30.145084 0.747900 1.383639 0.111941 -0.023742 375277.000000 0 0 1
20.936398 20.555471 4.499999 29.683500 0.776218 1.418610 0.121055 -0.032659 91870.500000 0 0 1
17.552424 16.685271 32.763423 40.742211 0.760076 0.636528 0.159768 -0.032213 -195055.000000 0 0 1
17.327124 17.433471 31.605002 40.037874 0.788458 0.661002 0.131589 -0.040445 76558.700000 0 0 1
16.934824 16.549871 30.614565 38.703206 0.773902 0.658341 0.130049 -0.044066 -293158.000000 0 0 1
16.631624 17.296271 29.328385 37.893616 0.804986 0.685715 0.132012 -0.045771 760587.000000 0 0 1
17.798824 17.768271 28.631225 38.108486 0.784539 0.720754 0.140892 -0.045887 659410.000000 0 0 1
17.441624 17.881271 27.247535 36.964555 0.797844 0.741989 0.135112 -0.045126 330892.000000 0 0 1
18.626624 18.207071 26.294095 37.011188 0.774008 0.780678 0.127554 -0.042688 163862.000000 0 0 1
19.057924 19.596771 26.454035 38.040162 0.799337 0.801787 0.142275 -0.042390 167632.000000 0 0 1
20.137924 19.823771 25.566455 38.107237 0.777537 0.835364 0.132439 -0.037091 -298791.000000 0 0 1
20.674024 21.249671 25.796805 39.299351 0.799128 0.854735 0.159971 -0.036022 -97998.400000 0 0 1
19.758124 22.278571 25.476715 39.189045 0.845285 0.863083 0.135724 -0.037790 347513.000000 0 0 1
20.297524 23.507871 25.875845 40.424855 0.858554 0.876171 0.147747 -0.032091 606422.000000 0 0 1
19.283324 24.664671 25.506875 40.383082 0.907240 0.887152 0.151152 -0.037683 511252.000000 0 0 1
19.579924 25.290071 24.276695 40.153693 0.911978 0.921540 0.152848 -0.035416 -97395.000000 0 0 1
18.726224 26.351471 23.994085 40.259007 0.952970 0.932295 0.144214 -0.041826 -444338.000000 0 0 1
19.180024 27.094471 22.768795 40.254214 0.954792 0.969605 0.113294 -0.044848 -352430.000000 0 0 1
20.136124 28.036371 23.150545 41.562596 0.947950 0.980022 0.139554 -0.042705 -348836.000000 0 0 1
20.143524 29.136471 22.269515 41.840493 0.965899 1.009543 0.115936 -0.033618 -299133.000000 0 0 1
21.554924 29.733071 22.244315 42.935764 0.943522 1.026187 0.122634 -0.027572 -73129.400000 0 0 1
22.467524 29.190771 21.292115 42.546973 0.914819 1.046692 0.144032 -0.033836 -518407.000000 0 0 1
23.595424 29.997871 21.233315 43.674592 0.904298 1.063094 0.130495 -0.036569 -583060.000000 0 0 1
24.169324 30.072071 19.846015 43.386058 0.893795 1.095695 0.138817 -0.034459 -198821.000000 0 0 1
23.458524 30.915071 18.973815 43.197797 0.921684 1.116054 0.111137 -0.026278 71380.700000 0 0 1
23.663024 30.536771 17.628315 42.463992 0.911547 1.142704 0.125179 -0.014123 -143375.000000 0 0 1
23.119124 31.651671 16.677415 42.596460 0.939942 1.168512 0.126028 -0.028625 -159688.000000 0 0 1
23.683424 32.948971 16.878115 43.947811 0.947570 1.176619 0.140384 -0.023903 146581.000000 0 0 1
23.931624 33.771971 15.748815 44.286498 0.954306 1.207227 0.138035 -0.021173 222131.000000 0 0 1
24.893624 33.329071 14.586515 44.082717 0.929279 1.233550 0.116592 -0.022126 105989.000000 0 0 1
24.416724 32.268671 13.780415 42.747437 0.923040 1.242566 0.133308 -0.022029 -37092.900000 0 0 1
23.461324 32.643871 12.807215 42.191004 0.947626 1.262377 0.108482 -0.021946 -30626.700000 0 0 1
22.989924 31.488371 11.918415 40.768895 0.940148 1.274123 0.115012 -0.049317 -274846.000000 0 0 1
24.066624 30.901571 11.197315 40.736831 0.909107 1.292342 0.134984 -0.072829 229236.000000 0 0 1
23.683324 29.629571 10.696015 39.410862 0.896474 1.295951 0.125374 -0.071854 -422266.000000 0 0 1
24.869924 28.931171 10.028815 39.447471 0.860742 1.313743 0.117894 -0.067776 705386.000000 0 0 1
25.991224 28.407171 10.763715 39.979603 0.829781 1.298203 0.117717 -0.062561 1053220.000000 0 0 1
26.856924 29.365571 11.367015 41.386474 0.829989 1.292565 0.113427 -0.058533 -307.395000 0 0 1
28.306824 28.922271 11.687315 42.123241 0.796152 1.289652 0.110102 -0.046048 456567.000000 0 0 1
28.320924 27.949971 12.693215 41.765935 0.778806 1.261999 0.114452 -0.038362 352532.000000 0 0 1
29.655224 27.673371 13.135915 42.635667 0.750842 1.257604 0.090597 -0.027633 604337.000000 0 0 1
29.867624 26.479871 14.116815 42.338434 0.725348 1.230859 0.069369 -0.030500 848208.000000 0 0 1
31.152624 26.526871 14.772515 43.501587 0.705372 1.224320 0.037875 -0.022649 749903.000000 0 0 1
31.403024 25.474771 15.622915 43.349618 0.681545 1.202107 0.044075 -0.025080 253373.000000 0 0 1
32.568724 25.798671 16.602915 44.743156 0.669924 1.190634 0.060295 -0.026379 -501385.000000 0 0 1
33.835024 25.758371 16.049415 45.452022 0.650690 1.209907 0.071599 -0.024729 -1248500.000000 0 0 1
34.778124 26.108771 17.008415 46.695525 0.643964 1.197979 0.072145 -0.027449 -388634.000000 0 0 1
36.126324 26.444871 16.340115 47.659646 0.631888 1.220847 0.106103 -0.036816 -101343.000000 0 0 1
36.156424 27.677871 15.600215 48.132300 0.653350 1.240724 0.086307 -0.023352 470519.000000 0 0 1
37.490524 27.879571 15.110215 49.103243 0.639420 1.257997 0.143737 -0.028535 1039950.000000 0 0 1
37.460224 29.111571 14.179015 49.515618 0.660641 1.280377 0.093834 -0.021266 82685.300000 0 0 1
37.235024 30.286171 14.898815 50.256083 0.682846 1.269815 0.096065 -0.018856 -176532.000000 0 0 1
37.285724 31.431171 14.039115 50.746828 0.700405 1.290490 0.070928 -0.015965 -405041.000000 0 0 1
36.437124 32.556271 14.534215 50.978606 0.729208 1.281681 0.046872 -0.016125 -1540400.000000 0 0 1
36.350424 33.579471 13.551815 51.308732 0.745794 1.303502 0.017504 -0.022560 -116450.000000 0 0 1
35.196824 -33.367256 13.566615 50.361129 -0.758720 1.298040 0.012764 -0.014724 -859046.000000 0 0 1
33.900824 33.700171 13.160515 49.579901 0.782430 1.302136 0.040441 -0.015237 -1408500.000000 0 0 1
33.440124 32.793471 14.093315 48.910890 0.775635 1.278510 0.033666 -0.018379 -701579.000000 0 0 1
32.516424 31.980471 13.439015 47.546562 0.777089 1.284241 0.049308 -0.016074 -836398.000000 0 0 1
31.947324 30.836971 14.242215 46.630366 0.767715 1.260409 0.069917 -0.017535 -13344.300000 0 0 1
31.177524 31.205271 15.384315 46.717065 0.785843 1.235225 0.075737 -0.017292 235981.000000 0 0 1
30.714424 30.154671 16.147315 45.971903 0.776202 1.211898 0.074943 -0.017559 146285.000000 0 0 1
30.038824 30.549871 17.504315 46.282034 0.793833 1.182935 0.091235 -0.018307 192256.000000 0 0 1
29.684724 29.475371 18.362115 45.685311 0.781859 1.157177 0.084565 -0.018873 -46546.600000 0 0 1
30.045424 29.712671 19.713615 46.628285 0.779830 1.134283 0.077017 -0.022421 18195.400000 0 0 1
29.769524 28.580371 20.718815 46.177175 0.765021 1.105508 0.088151 -0.024882 -836677.000000 0 0 1
28.541724 28.618471 21.331115 45.701897 0.786741 1.085190 0.109045 -0.034558 -1095870.000000 0 0 1
28.487924 27.828171 22.481815 45.731838 0.773684 1.056869 0.106865 -0.036049 370786.000000 0 0 1
27.161724 27.971271 23.305895 45.423739 0.800081 1.032030 0.136139 -0.034299 1183240.000000 0 0 1
26.037624 27.344171 22.603505 44.006591 0.809869 1.031376 0.146860 -0.037167 816367.000000 0 0 1
24.986124 27.026271 23.503885 43.671024 0.824602 1.002493 0.161323 -0.045221 108434.000000 0 0 1
25.124724 25.714971 24.318205 43.403763 0.797008 0.976074 0.152017 -0.038344 -633555.000000 0 0 1
25.935824 25.943471 25.431165 44.637147 0.785546 0.964618 0.141059 -0.036718 -206572.000000 0 0 1
26.094124 24.863271 26.337245 44.640072 0.761248 0.939749 0.154580 -0.036782 -578597.000000 0 0 1
27.432724 24.993571 27.054395 45.925736 0.738906 0.940864 0.152738 -0.031373 -487716.000000 0 0 1
27.514324 26.007171 28.098835 47.148229 0.757246 0.932326 0.180919 -0.049176 159898.000000 0 0 1
27.821424 27.273471 27.571605 47.729103 0.775453 0.954927 0.142239 -0.041958 -611207.000000 0 0 1
28.238024 28.318771 28.624925 49.180536 0.786826 0.949564 0.087318 -0.030347 358036.000000 0 0 1
29.604824 28.076371 29.017085 50.067150 0.758906 0.952604 0.089566 -0.029817 726525.000000 0 0 1
30.082924 29.068871 29.938785 51.442322 0.768257 0.949626 0.085255 -0.024827 -81645.900000 0 0 1
31.619724 29.001471 29.946265 52.322759 0.742235 0.961443 0.069572 -0.022152 -210772.000000 0 0 1
32.095424 29.375771 28.674365 52.108266 0.741184 0.988092 0.059133 -0.023717 45438.400000 0 0 1
33.502524 29.580471 28.679725 53.103202 0.723305 1.000270 0.086238 -0.029246 353068.000000 0 0 1
34.112624 30.075971 27.407475 53.098069 0.722593 1.028427 0.075247 -0.024024 -188792.000000 0 0 1
33.867624 31.499071 27.245225 53.679696 0.749179 1.038455 0.075730 -0.022791 62175.800000 0 0 1
34.422924 32.028071 26.069255 53.761893 0.749374 1.064545 0.075443 -0.024939 -93314.100000 0 0 1
34.055924 33.528271 25.942705 54.378074 0.777591 1.073467 0.073260 -0.027519 -424821.000000 0 0 1
34.846924 -33.352756 26.716485 55.140594 -0.763493 1.064987 0.086295 -0.028376 204142.000000 0 0 1
34.527724 -31.965956 26.504365 54.004328 -0.746891 1.057809 0.087837 -0.018570 -386401.000000 0 0 1
35.690324 -31.141556 27.018715 54.530787 -0.717440 1.052413 0.079785 -0.016445 -251461.000000 0 0 1
35.601424 -31.081456 28.373985 55.123510 -0.717719 1.030098 0.091929 -0.020785 552038.000000 0 0 1
36.824024 -30.592156 28.902935 55.921985 -0.693221 1.027636 0.084219 -0.025953 -50005.400000 0 0 1
36.726024 -30.249756 30.403695 56.464443 -0.689002 1.002191 0.098896 -0.027884 -177802.000000 0 0 1
36.536824 -31.437956 31.129895 57.379047 -0.710527 0.997350 0.103103 -0.025828 1077670.000000 0 0 1
35.146724 -31.797556 31.280925 56.787966 -0.735411 0.987429 0.094747 -0.025748 481213.000000 0 0 1
34.756524 -32.739056 32.378323 57.690706 -0.755517 0.974913 0.102135 -0.027542 -289570.000000 0 0 1
34.679924 -32.159356 33.670215 58.056910 -0.747705 0.952127 0.094595 -0.031173 304057.000000 0 0 1
35.130024 -32.939056 -32.841191 58.289312 -0.753222 2.169312 0.107787 -0.029038 301853.000000 0 0 1
34.189624 33.582471 -32.441601 57.872016 0.776440 2.165876 0.130684 -0.030126 219871.000000 0 0 1
34.363424 32.532971 -33.382961 57.910804 0.758042 2.185180 0.130530 -0.030347 8732.520000 0 0 1
33.698224 31.327671 -33.083091 56.669959 0.748959 2.194180 0.138623 -0.024611 -32021.700000 0 0 1
33.672424 30.258771 33.408333 56.263151 0.732053 0.935039 0.111142 -0.017997 533072.000000 0 0 1
34.961324 29.666071 33.296222 56.665760 0.703646 0.942719 0.118739 -0.030667 403966.000000 0 0 1
35.044224 29.050071 32.043504 55.666781 0.692149 0.957421 0.100214 -0.023707 -241086.000000 0 0 1
36.394924 28.367671 31.811170 56.046997 0.662078 0.967232 0.108750 -0.019444 -342493.000000 0 0 1
36.658724 27.210971 32.520981 56.052772 0.638541 0.951840 0.098003 -0.016470 141276.000000 0 0 1
-37.456449 26.732471 32.349890 56.250564 -0.619858 0.958066 0.086323 -0.017851 63630.200000 0 0 1
-37.199449 25.428371 33.106360 55.914508 -0.599613 0.937148 0.076736 -0.016476 -60799.600000 0 0 1
-37.614349 24.256871 32.472319 55.296352 -0.572770 0.943150 0.077290 -0.016865 19418.600000 0 0 1
-37.518749 23.206271 33.373048 55.316796 -0.553929 0.923154 0.063584 -0.014239 -22742.700000 0 0 1
37.636724 21.825071 32.828163 54.502707 0.525500 0.924390 0.060708 -0.030765 -107189.000000 0 0 1
-36.758949 21.375171 31.987663 53.210233 -0.526702 0.925849 0.078255 -0.027976 155280.000000 0 0 1
-37.226749 20.392171 31.062015 52.597721 -0.501139 0.939046 0.073896 -0.027805 299077.000000 0 0 1
-36.014049 19.731171 30.376035 51.078708 -0.501210 0.933915 0.084574 -0.038587 192815.000000 0 0 1
-35.427149 20.322871 29.244435 50.232848 -0.520821 0.949392 0.087066 -0.023178 289250.000000 0 0 1
-34.455049 19.576571 28.505605 48.815593 -0.516692 0.947217 0.124576 -0.029660 210124.000000 0 0 1
-35.094149 18.458571 27.663635 48.348680 -0.484209 0.961648 0.137797 -0.024931 -296608.000000 0 0 1
-35.698749 17.494971 28.456885 48.890378 -0.455674 0.949543 0.121821 -0.030544 -701258.000000 0 0 1
-36.680749 16.882971 27.722325 48.979990 -0.431360 0.969159 0.138413 -0.043869 -268995.000000 0 0 1
-37.354949 15.641671 28.431905 49.481586 -0.396549 0.958686 0.118882 -0.033079 330804.000000 0 0 1
-36.411349 14.602371 28.565645 48.528463 -0.381402 0.941425 0.124532 -0.031032 218398.000000 0 0 1
-36.859349 13.551071 29.410045 49.063163 -0.352305 0.928005 0.127403 -0.039082 -149454.000000 0 0 1
-35.882149 12.355371 29.363795 47.983500 -0.331616 0.912265 0.130918 -0.028451 838272.000000 0 0 1
-34.592049 12.753871 29.849365 47.436860 -0.353230 0.890216 0.124983 -0.027416 425975.000000 0 0 1
-33.758349 11.787771 30.412175 46.941220 -0.335945 0.866001 0.105768 -0.025528 315720.000000 0 0 1
-32.280349 12.272971 30.492405 46.069877 -0.363321 0.847482 0.105648 -0.021499 -943967.000000 0 0 1
-31.685949 12.435071 29.279255 44.898833 -0.373979 0.860424 0.094540 -0.018661 393592.000000 0 0 1
-30.279549 12.687271 29.362165 44.044917 -0.396782 0.841103 0.078069 -0.022257 1095390.000000 0 0 1
-29.318949 11.555271 29.815105 43.382780 -0.375430 0.813091 0.073774 -0.020883 -486143.000000 0 0 1
-28.807749 10.671171 28.820205 42.123207 -0.354756 0.817306 0.091464 -0.031156 122965.000000 0 0 1
-27.809149 9.776771 29.275515 41.545034 -0.338070 0.788839 0.066667 -0.024938 -28970.000000 0 0 1
-27.531249 8.562371 28.367575 40.447537 -0.301523 0.793517 0.061090 -0.026317 194380.000000 0 0 1
-28.449849 7.499471 28.462215 40.935726 -0.257740 0.801973 0.064549 -0.028583 172989.000000 0 0 1
-29.722449 7.673371 27.858325 41.453479 -0.252651 0.833838 0.090691 -0.030708 171283.000000 0 0 1
-30.575749 6.378571 27.922195 41.895246 -0.205666 0.841324 0.090329 -0.025547 162538.000000 0 0 1
-31.471549 6.256471 29.022465 43.265521 -0.196239 0.835511 0.110236 -0.025507 308547.000000 0 0 1
-31.941049 4.912071 29.162925 43.529706 -0.152590 0.836649 0.121111 -0.023932 -124049.000000 0 0 1
-32.521449 4.572571 30.556245 44.857967 -0.139686 0.821426 0.123539 -0.029706 -440177.000000 0 0 1
-33.693549 5.293071 30.801985 45.956873 -0.155821 0.836269 0.142698 -0.030532 -404376.000000 0 0 1
-34.238849 4.916671 32.081944 47.177575 -0.142624 0.822999 0.141211 -0.030247 339883.000000 0 0 1
-35.776449 5.090171 32.125377 48.351877 -0.141329 0.844095 0.147943 -0.024988 178023.000000 0 0 1
-36.194549 6.462871 32.133893 48.830331 -0.176697 0.852540 0.140428 -0.028066 -68005.100000 0 0 1
-37.597549 6.588071 32.060473 49.848293 -0.173465 0.872177 0.133169 -0.024425 84045.200000 0 0 1
37.362424 8.005471 32.347804 50.064147 0.211074 0.868297 0.115365 -0.027060 -318895.000000 0 0 1
37.485124 8.292571 33.733475 51.106249 0.217717 0.849890 0.116560 -0.025453 62788.900000 0 0 1
37.534524 9.722071 -33.722921 51.386716 0.253447 2.286644 0.107690 -0.022290 -171702.000000 0 0 1
37.499424 10.107071 -32.211701 50.457441 0.263270 2.263206 0.093597 -0.015456 1042520.000000 0 0 1
36.288024 9.692871 -31.502691 49.022362 0.261016 2.268708 0.077114 -0.011015 920983.000000 0 0 1
36.325624 9.920071 -30.147511 48.237239 0.266587 2.245908 0.046098 -0.000998 1074910.000000 0 0 1
35.128624 9.289771 -29.277121 46.663368 0.258532 2.249021 0.040250 -0.000299 1046850.000000 0 0 1
34.979724 7.906571 -29.476881 46.421778 0.222297 2.258778 0.042600 -0.005785 -927706.000000 0 0 1
33.760324 7.487271 -29.022371 45.145506 0.218245 2.269026 0.061294 -0.020429 -1223240.000000 0 0 1
36.470188 5.942871 -19.710201 41.879403 0.161532 2.060814 0.082200 -0.016124 -287337.000000 0 0 1
35.768808 6.717071 -18.769101 40.948820 0.185629 2.046940 0.056502 -0.021698 276049.000000 0 0 1
36.225358 8.077571 -18.646401 41.535671 0.219392 2.036358 0.044349 -0.016235 -119047.000000 0 0 1
37.615428 8.312871 -17.971701 42.508897 0.217500 2.007302 0.065885 -0.021712 830884.000000 0 0 1
-36.643096 7.825371 -18.614401 41.838365 -0.210396 2.031873 0.075639 -0.026150 332236.000000 0 0 1
-36.158766 8.645071 -19.636301 42.044951 -0.234681 2.056727 0.082657 -0.021170 -490547.000000 0 0 1
-35.043602 7.834271 -20.362001 41.280030 -0.219941 2.086636 0.087190 -0.014039 -40797.400000 0 0 1
-35.459333 6.756471 -21.160501 41.842335 -0.188284 2.101013 0.082081 -0.008034 89833.500000 0 0 1
-36.070946 7.192671 -22.357201 43.042910 -0.196822 2.116964 0.066390 0.001068 -21078.300000 0 0 1
-36.058896 5.987871 -23.369001 43.384430 -0.164556 2.139630 0.080868 -0.000927 782934.000000 0 0 1
-34.847105 5.794671 -24.125801 42.777952 -0.164781 2.169991 0.093386 -0.005064 730009.000000 0 0 1
-34.666607 4.403071 -24.551601 42.707631 -0.126335 2.183249 0.100523 0.002359 -314343.000000 0 0 1
-33.440486 4.168771 -25.445951 42.227256 -0.124023 2.217546 0.126292 -0.002871 -296900.000000 0 0 1
-32.242936 4.318471 -24.746001 40.873227 -0.133143 2.221106 0.114340 -0.004423 -609982.000000 0 0 1
-31.116466 4.055771 -25.542971 40.461427 -0.129611 2.254014 0.117383 -0.000769 681227.000000 0 0 1
-29.708246 4.325671 -24.910501 39.010567 -0.144589 2.263419 0.101332 -0.010179 711987.000000 0 0 1
-29.391066 5.724471 -24.896401 38.941431 -0.192361 2.264422 0.074801 0.000741 -840182.000000 0 0 1
-28.091436 5.982871 -24.519901 37.764388 -0.209843 2.277442 0.083589 -0.010714 -773529.000000 0 0 1
-27.626586 7.458771 -24.659801 37.775220 -0.263698 2.282076 0.062030 -0.013802 -71506.800000 0 0 1
-28.144826 8.370171 -23.725101 37.750118 -0.289067 2.250391 0.056519 -0.007633 -178919.000000 0 0 1
-27.919506 9.761671 -24.058401 38.126050 -0.336351 2.253667 0.031163 -0.002960 -418027.000000 0 0 1
-26.586556 10.301671 -23.563301 36.989168 -0.369664 2.261439 0.058952 -0.007193 -447931.000000 0 0 1
-26.548296 10.433771 -22.169101 36.126785 -0.374467 2.231468 0.035674 -0.000837 -710774.000000 0 0 1
-25.224286 10.472271 -21.770801 34.927079 -0.393512 2.243780 0.081094 -0.013115 -987156.000000 0 0 1
-24.909076 10.660971 -20.262901 33.833467 -0.404405 2.212925 0.099461 -0.028237 -865810.000000 0 0 1
-25.152026 12.041071 -19.924201 34.272227 -0.446489 2.191185 0.102938 -0.027189 1416570.000000 0 0 1
-26.521286 12.444471 -19.711301 35.309755 -0.438727 2.163059 0.066677 -0.006990 1029360.000000 0 0 1
-27.506136 11.677371 -18.769801 35.288155 -0.401478 2.131640 0.074541 -0.011812 -310875.000000 0 0 1
-27.174326 11.856871 -17.379701 34.366893 -0.411425 2.101002 0.082560 -0.031985 432633.000000 0 0 1
-28.039336 11.111971 -16.537001 34.396986 -0.377312 2.072328 0.110136 -0.035905 -951741.000000 0 0 1
-27.503986 11.001471 -15.096501 33.247645 -0.380503 2.042116 0.141519 -0.049774 612751.000000 0 0 1
-26.451446 10.065071 -14.827901 31.950763 -0.363594 2.053399 0.165684 -0.053594 1534940.000000 0 0 1
-25.235116 10.199871 -15.584901 31.364591 -0.384116 2.090813 0.149132 -0.044520 -704864.000000 0 0 1
-24.352176 8.969371 -15.368001 30.160463 -0.352901 2.105448 0.115930 -0.041874 560090.000000 0 0 1
-22.954876 9.299471 -15.538701 29.237950 -0.384912 2.131115 0.105652 -0.033975 801899.000000 0 0 1
-22.215976 8.173671 -15.217501 28.141265 -0.352548 2.142130 0.123603 -0.035506 -616104.000000 0 0 1
-20.704576 8.389571 -15.053701 26.938416 -0.384984 2.163757 0.154523 -0.039019 -194825.000000 0 0 1
-20.007676 8.370971 -16.294601 27.127371 -0.396257 2.215135 0.155382 -0.050893 -1351960.000000 0 0 1
-18.676576 8.540671 -16.132101 26.115172 -0.428902 2.236648 0.141110 -0.043312 -1941470.000000 0 0 1
-17.926976 9.015771 -17.397001 26.557790 -0.465978 2.285061 0.119131 -0.038650 -160636.000000 0 0 1
-17.823376 8.146271 -18.511301 26.957424 -0.428706 2.327718 0.164752 -0.047660 -197841.000000 0 0 1
-16.800176 7.207671 -18.419801 25.951599 -0.405274 2.359975 0.159227 -0.050085 -791560.000000 0 0 1
-16.396576 6.758271 -19.891401 26.649386 -0.390958 2.413449 0.128141 -0.048117 325865.000000 0 0 1
-17.324876 6.003371 -20.685401 27.641953 -0.333569 2.416343 0.115704 -0.040888 1195140.000000 0 0 1
-18.391276 6.763671 -21.344701 28.975550 -0.352413 2.398893 0.116048 -0.040935 1157920.000000 0 0 1
-19.464776 5.872471 -22.056301 29.997397 -0.293013 2.396867 0.105451 -0.032912 151567.000000 0 0 1
-20.207776 5.142671 -21.096601 29.662566 -0.249200 2.362028 0.129250 -0.039882 26945.800000 0 0 1
-21.103376 4.251971 -21.699901 30.566606 -0.198821 2.360184 0.086241 -0.024639 -352994.000000 0 0 1
-21.837276 3.430871 -20.559901 30.188524 -0.155837 2.319992 0.114403 -0.031595 101847.000000 0 0 1
-22.601576 2.306671 -20.996501 30.935497 -0.101706 2.316813 0.121944 -0.024366 510625.000000 0 0 1
-23.196376 1.653771 -19.900401 30.607724 -0.071174 2.278612 0.120038 -0.028063 -82936.000000 0 0 1
-23.974976 0.338971 -20.263301 31.392925 -0.014138 2.272439 0.117925 -0.019686 -83538.300000 0 0 1
-23.121076 -0.785129 -20.284501 30.767865 0.033944 2.290651 0.096592 -0.020729 224538.000000 0 0 1
-23.779576 -2.031429 -20.436701 31.420593 0.085221 2.278939 0.096731 -0.024450 -549086.000000 0 0 1
-24.365776 -2.384729 -21.802801 32.783229 0.097561 2.298370 0.104897 -0.029882 775822.000000 0 0 1
-23.362476 -2.505929 -22.848701 32.774198 0.106854 2.342218 0.073262 -0.027430 971307.000000 0 0 1
-22.381076 -3.533829 -22.676701 32.056719 0.156601 2.356599 0.066069 -0.034167 -460441.000000 0 0 1
-21.404276 -3.529129 -23.812201 32.212089 0.163409 2.402725 0.062143 -0.017854 -602701.000000 0 0 1
-22.004876 -3.884729 -25.075701 33.587147 0.174739 2.413712 0.052903 -0.014506 295960.000000 0 0 1
-21.138076 -3.751329 -26.205271 33.876348 0.175639 2.455231 0.052290 -0.021086 -243756.000000 0 0 1
-21.845776 -3.574629 -27.553671 35.344316 0.162193 2.464789 0.046824 -0.027740 -362462.000000 0 0 1
-22.552976 -4.763529 -27.806621 36.118362 0.208156 2.449441 0.050910 -0.023537 14873.200000 0 0 1
-23.307976 -4.626529 -29.001431 37.493326 0.195949 2.455156 0.031748 -0.016925 58763.800000 0 0 1
-23.202576 -5.891429 -29.893731 38.297566 0.248658 2.466365 0.045830 -0.018685 -735735.000000 0 0 1
-22.053576 -5.806529 -30.640391 38.195674 0.257449 2.501759 0.031006 -0.019074 -756838.000000 0 0 1
-21.588376 -7.051429 -31.192201 38.584116 0.315706 2.512260 0.030885 -0.020668 817725.000000 0 0 1
-20.075276 -7.055229 -31.651981 38.139754 0.337956 2.549715 0.049303 -0.027597 662098.000000 0 0 1
-19.812576 -6.466329 -32.889281 38.936568 0.315475 2.576780 0.058919 -0.033390 329445.000000 0 0 1
-19.748476 -7.486029 33.764615 39.825773 0.362333 0.558958 0.056271 -0.028100 -512053.000000 0 0 1
-19.510476 -6.878029 32.352467 38.401147 0.338927 0.568913 0.046890 -0.022504 -73901.800000 0 0 1
-18.151176 -6.634629 32.077488 37.449282 0.350434 0.542234 0.068646 -0.023745 44095.800000 0 0 1
-17.707976 -5.331629 32.451358 37.350895 0.292453 0.517974 0.059669 -0.035170 379304.000000 0 0 1
-16.401976 -5.015029 31.641412 35.991031 0.296731 0.496727 0.071200 -0.039630 294398.000000 0 0 1
-16.676676 -4.924029 30.246025 34.888101 0.287107 0.521759 0.076948 -0.033432 -156552.000000 0 0 1
-15.526376 -4.590029 29.546745 33.691941 0.287441 0.501281 0.069651 -0.025369 -449736.000000 0 0 1
-15.735976 -4.723929 28.043155 32.501615 0.291640 0.529968 0.074940 -0.028244 -189861.000000 0 0 1
-16.496976 -3.667529 27.548705 32.319222 0.218758 0.550250 0.076805 -0.032307 -155354.000000 0 0 1
-16.814276 -3.749229 26.186775 31.345235 0.219390 0.581880 0.087471 -0.032570 -143396.000000 0 0 1
-15.764476 -3.229329 25.182535 29.884902 0.202053 0.568609 0.108809 -0.029146 -51817.400000 0 0 1
-15.659276 -1.825629 25.250055 29.767619 0.116061 0.558145 0.109027 -0.032419 -100729.000000 0 0 1
-14.725376 -1.307629 24.350965 28.487121 0.088569 0.545619 0.105966 -0.038288 -257028.000000 0 0 1
-14.812776 0.226071 24.159835 28.340202 -0.015261 0.550060 0.090559 -0.021013 -375177.000000 0 0 1
-15.858976 0.534471 23.284145 28.177015 -0.033689 0.598197 0.093680 -0.030321 -121106.000000 0 0 1
-16.172776 1.844471 23.581535 28.653962 -0.113557 0.604166 0.077221 -0.025845 -169811.000000 0 0 1
-16.758676 2.621971 22.391315 28.090905 -0.155196 0.648316 0.086197 -0.027279 -2385.540000 0 0 1
-15.708176 3.319771 21.739415 27.025355 -0.208276 0.636118 0.080381 -0.013795 505759.000000 0 0 1
-16.140776 4.379371 20.925915 26.788010 -0.264945 0.674263 0.081902 -0.022655 -59691.900000 0 0 1
-14.938476 4.979071 20.165815 25.585334 -0.321725 0.662952 0.081700 -0.013235 -309561.000000 0 0 1
-14.040276 5.677571 20.961415 25.860106 -0.384274 0.625672 0.049945 -0.009498 28422.500000 0 0 1
-12.812676 5.637071 20.212915 24.586646 -0.414474 0.605690 0.043218 -0.007575 260491.000000 0 1 0
-11.824176 6.702871 20.662715 24.732315 -0.515709 0.581838 0.045725 -0.001099 -301709.000000 0 1 0
-12.271476 7.946671 20.192215 24.929185 -0.574667 0.626673 0.051243 -0.005321 160534.000000 0 1 0
-11.351476 8.974071 20.471315 25.069198 -0.668961 0.615314 0.041682 -0.005973 -182462.000000 0 0 1
-11.991076 10.353171 20.463115 25.878816 -0.712226 0.658798 0.036136 -0.002013 -92149.300000 0 0 1
-12.457776 10.829871 19.215015 25.331780 -0.715607 0.709736 0.038505 -0.004364 386884.000000 0 0 1
-13.174376 12.046071 19.332915 26.314133 -0.740690 0.745576 0.034758 0.000085 -167793.000000 0 0 1
-13.629976 12.747371 18.020815 25.942658 -0.751950 0.802877 0.052012 -0.006527 -219727.000000 0 0 1
-12.678976 13.485871 17.283815 25.324996 -0.816227 0.819645 0.038746 -0.006707 -66082.400000 0 0 1
-12.436576 14.861271 17.717915 26.257386 -0.873989 0.830132 0.050522 -0.013617 -60196.600000 0 0 1
-13.473176 15.985371 17.301815 27.136900 -0.870471 0.879450 0.048277 -0.007898 253300.000000 0 0 1
-13.587276 16.382971 15.902315 26.568768 -0.878411 0.929126 0.041541 -0.018743 7972.410000 0 0 1
-13.747676 15.321871 14.925815 25.427117 -0.839498 0.943443 0.068073 -0.025173 -202445.000000 0 0 1
-14.129176 16.036071 13.579115 25.321563 -0.848529 1.004788 0.051597 -0.028695 -120464.000000 0 0 1
-15.390376 16.638271 13.659915 26.462974 -0.824340 1.028400 0.053287 -0.029350 -401022.000000 0 0 1
-15.816876 17.185071 12.462715 26.472996 -0.826832 1.080632 0.049270 -0.030049 -439347.000000 0 0 1
-17.029576 18.097171 12.585215 27.855012 -0.815781 1.102001 0.072132 -0.026905 -178688.000000 0 0 1
-18.221576 17.419771 12.973315 28.351034 -0.762905 1.095507 0.084062 -0.023667 217882.000000 0 0 1
-19.245676 18.389971 13.204015 29.714190 -0.762666 1.110328 0.085149 -0.022778 1123920.000000 0 0 1
-20.674076 17.725271 13.254915 30.286885 -0.708755 1.117818 0.087953 -0.017961 1150120.000000 0 0 1
-21.186076 17.070171 12.055615 29.758669 -0.678223 1.153694 0.094327 -0.013658 1110650.000000 0 0 1
-22.591576 16.727371 12.145615 30.621891 -0.637345 1.162952 0.107315 -0.017957 1257290.000000 0 0 1
-23.254776 16.358171 10.846715 30.430668 -0.613026 1.206341 0.112501 -0.011462 -138881.000000 0 0 1
-22.844876 15.034771 10.418315 29.265577 -0.582065 1.206821 0.097731 -0.000186 -123513.000000 0 0 1
-23.683876 14.488371 9.446815 29.327141 -0.549007 1.242830 0.108884 -0.003140 236616.000000 0 0 1
-22.996376 13.204571 8.772615 27.931215 -0.521235 1.251310 0.111993 -0.006298 -194641.000000 0 0 1
-22.940076 11.986071 9.513215 27.575609 -0.481481 1.218572 0.103899 -0.015520 -473038.000000 0 0 1
-24.070776 11.218671 9.794815 28.305463 -0.436137 1.217450 0.150399 -0.011564 -491156.000000 0 0 1
-24.774776 10.596271 8.539915 28.266599 -0.404159 1.263880 0.161429 -0.017813 224623.000000 0 0 1
-25.510846 11.636971 7.812115 29.107585 -0.427963 1.299077 0.170894 -0.018140 609137.000000 0 0 1
-26.706396 11.099671 7.270115 29.820946 -0.393898 1.324522 0.227374 -0.030114 -350379.000000 0 0 1
-27.172256 11.998571 6.064515 30.316258 -0.415825 1.369396 0.204984 -0.029640 -544759.000000 0 0 1
-26.389406 12.139971 4.891215 29.456809 -0.431165 1.403977 0.200919 -0.043400 126669.000000 0 0 1
-25.112846 12.716471 5.015115 28.592220 -0.468733 1.394483 0.182178 -0.043429 -503475.000000 0 0 1
-25.026386 14.204271 5.425215 29.283344 -0.516234 1.384454 0.169615 -0.026828 281825.000000 0 0 1
-23.662976 14.645271 5.605215 28.387300 -0.554209 1.372035 0.154783 -0.019548 1315760.000000 0 0 1
-23.726276 16.030271 5.811315 29.217754 -0.594185 1.370564 0.143994 -0.014007 581156.000000 0 0 1
-22.320476 16.693471 6.033915 28.518130 -0.642155 1.357603 0.138969 -0.007525 706594.000000 0 0 1
-21.765276 17.177571 4.806415 28.140679 -0.668133 1.399155 0.150218 -0.028801 856649.000000 0 0 1
-20.485876 17.783571 4.955515 27.576868 -0.714903 1.390117 0.165130 -0.017221 463847.000000 0 0 1
-19.768576 18.502671 3.775615 27.338630 -0.752333 1.432248 0.140776 -0.013634 305755.000000 0 0 1
-18.481776 19.021071 4.065115 26.830996 -0.799777 1.418702 0.134484 -0.010874 489571.000000 0 0 1
-18.007976 20.136971 3.291115 27.214265 -0.841154 1.449566 0.142796 -0.011274 154193.000000 0 0 1
-18.350876 21.524471 3.936315 28.557872 -0.864819 1.432520 0.109214 -0.022221 139321.000000 0 0 1
-17.655776 21.868571 5.158415 28.575690 -0.891585 1.389284 0.118192 -0.026580 220816.000000 0 0 1
-17.686176 23.250371 5.481415 29.722491 -0.920493 1.385315 0.082185 -0.020673 -289508.000000 0 0 1
-16.823176 23.570271 6.711315 29.725724 -0.950905 1.343058 0.072600 -0.011848 -162513.000000 0 0 1
-17.344176 23.082571 7.967915 29.951848 -0.926402 1.301530 0.075465 -0.014059 371390.000000 0 0 1
-16.467276 23.166571 9.097415 29.843327 -0.952845 1.261027 0.068312 -0.017254 -17698.500000 0 0 1
-16.923476 22.367671 10.368015 29.903386 -0.923082 1.216727 0.058000 -0.012752 44790.400000 0 0 1
-18.152776 22.883071 10.848415 31.158407 -0.900164 1.215178 0.061720 -0.010984 1398.490000 0 0 1
-19.128276 21.883271 11.030115 31.087488 -0.852473 1.208087 0.066355 -0.018458 327278.000000 0 0 1
-20.466676 22.423471 11.642015 32.515125 -0.830990 1.204619 0.074619 -0.024022 203700.000000 0 0 1
-21.330276 23.097271 10.760715 33.230371 -0.825150 1.241030 0.083486 -0.013264 -222602.000000 0 0 1
-20.913476 24.397871 10.306715 33.746970 -0.862146 1.260426 0.060791 -0.015225 -303400.000000 0 0 1
-22.007476 25.316871 9.664815 34.909620 -0.855215 1.290279 0.068823 -0.017005 186823.000000 0 0 1
-22.948976 25.806871 10.577115 36.118215 -0.843948 1.273593 0.089853 -0.031033 -29898.100000 0 0 1
-23.721776 26.852571 10.018015 37.204084 -0.847224 1.298159 0.103974 -0.024187 -256770.000000 0 0 1
-24.512376 27.714971 10.988315 38.596881 -0.846642 1.282109 0.109962 -0.034201 -228396.000000 0 0 1
-23.646376 28.321371 11.974315 38.789630 -0.875116 1.256972 0.118233 -0.035987 768711.000000 0 0 1
-24.280276 29.320871 12.779715 40.156773 -0.879161 1.246918 0.115286 -0.033441 -481384.000000 0 0 1
10.069224 -32.624056 27.983285 44.145018 -1.271428 0.884218 0.041278 -0.024834 -219607.000000 0 0 1
11.458624 -32.509856 27.782895 44.272792 -1.231926 0.892408 0.040734 -0.031806 224367.000000 0 0 1
11.758324 -32.125156 26.458285 43.247251 -1.219925 0.912473 0.059822 -0.026361 -1270210.000000 0 0 1
13.169924 -32.321256 26.008905 43.526701 -1.183867 0.930368 0.031296 -0.018343 -1377920.000000 0 0 1
13.499224 -33.620756 25.660745 44.396601 -1.188985 0.954534 0.048968 -0.032328 -448818.000000 0 0 1
14.901224 -33.669356 25.689685 44.895790 -1.154134 0.961602 0.055656 -0.023481 -64029.600000 0 0 1
15.563424 32.636971 25.319725 44.141597 1.125828 0.959899 0.087913 -0.024049 168709.000000 0 0 1
15.637724 32.290271 23.979255 43.153270 1.119799 0.981620 0.068616 -0.037657 116492.000000 0 0 1
16.377724 31.115071 23.903505 42.517703 1.086284 0.973751 0.074500 -0.034013 -997004.000000 0 0 1
16.668724 30.562671 22.503315 41.452653 1.071496 0.996948 0.072482 -0.043464 -404313.000000 0 0 1
15.582924 29.976871 21.810315 40.213557 1.091410 0.997550 0.071675 -0.035077 24496.000000 0 0 1
15.423524 28.557871 21.991415 39.205350 1.075601 0.975289 0.076305 -0.032391 42674.000000 0 0 1
14.845524 28.027171 23.352835 39.386125 1.083685 0.936116 0.084897 -0.036008 -541104.000000 0 0 1
15.818524 28.083671 24.353105 40.397921 1.057827 0.923752 0.085182 -0.029123 -148520.000000 0 0 1
15.251024 28.013671 25.669575 40.942479 1.072252 0.893143 0.078473 -0.036374 -442576.000000 0 0 1
16.166324 28.272971 26.869535 42.221829 1.051375 0.880988 0.087460 -0.039232 -238319.000000 0 0 1
16.349924 29.639971 27.133795 43.383070 1.066712 0.895093 0.093673 -0.038182 208598.000000 0 0 1
17.362324 29.827171 28.099375 44.504891 1.043644 0.887468 0.115527 -0.040015 2537.820000 0 0 1
17.382024 31.243971 28.745575 45.876231 1.063105 0.893627 0.122356 -0.047080 22375.200000 0 0 1
17.821224 32.178071 27.740935 46.071507 1.065016 0.924633 0.110905 -0.039384 77890.400000 0 0 1
17.894724 33.460671 28.354745 47.369075 1.079699 0.929054 0.116073 -0.024130 -247072.000000 0 0 1
18.693224 -33.220656 27.590915 47.056426 -1.058256 0.944267 0.095986 -0.028141 -333400.000000 0 0 1
18.125824 -32.821756 26.308865 45.803598 -1.066227 0.958945 0.100033 -0.023689 26000.600000 0 0 1
18.519124 -31.568556 25.760005 44.756112 -1.040264 0.957503 0.090848 -0.029855 409163.000000 0 0 1
20.014024 -31.296256 25.357235 44.977841 -1.001836 0.971851 0.100678 -0.022600 751013.000000 0 0 1
20.723324 -30.831056 26.497635 45.630416 -0.979002 0.951207 0.103038 -0.022113 435640.000000 0 0 1
21.770524 -29.890056 26.201855 45.320066 -0.941294 0.954335 0.111129 -0.025015 452169.000000 0 0 1
22.124924 -29.018256 27.390155 45.626660 -0.919376 0.926907 0.129032 -0.028922 -300443.000000 0 0 1
21.091224 -28.104756 27.741955 44.769779 -0.927007 0.902489 0.123504 -0.036138 191912.000000 0 0 1
21.314124 -27.371256 28.874505 45.135514 -0.909176 0.876650 0.141059 -0.031447 -329294.000000 0 0 1
19.977324 -27.096256 29.593235 44.822541 -0.935491 0.849670 0.120342 -0.038340 586403.000000 0 0 1
19.117424 -26.263456 28.758495 43.385436 -0.941584 0.846163 0.127235 -0.042328 272143.000000 0 0 1
17.946224 -25.918456 29.462675 43.149537 -0.965182 0.819203 0.107529 -0.044759 -109925.000000 0 0 1
16.880624 -25.236456 28.571325 41.691184 -0.981250 0.815769 0.119759 -0.031581 -665579.000000 0 0 1
16.432324 -26.009356 27.461435 41.238796 -1.007333 0.842080 0.120992 -0.037239 568964.000000 0 0 1
15.720324 -25.211156 26.466215 39.789340 -1.013243 0.843090 0.119200 -0.048212 573966.000000 0 0 1
14.298524 -24.604856 26.881135 39.146420 -1.044370 0.813882 0.095622 -0.037952 1783990.000000 0 0 1
13.208024 -25.577156 26.956425 39.437187 -1.094116 0.818211 0.080194 -0.024875 1035090.000000 0 0 1
12.915324 -26.204956 25.695465 38.907098 -1.112879 0.849403 0.066796 -0.027305 -652420.000000 0 0 1
12.032424 -27.507856 25.872275 39.633774 -1.158455 0.859543 0.055435 -0.022940 170760.000000 0 0 1
10.678124 -27.253856 26.160665 39.257807 -1.197377 0.841452 0.051608 -0.029775 -556736.000000 0 0 1
9.994624 -28.438856 26.273055 39.986679 -1.232837 0.853904 0.031563 -0.021054 -1255050.000000 0 0 1
8.536524 -28.308856 26.689125 39.831809 -1.277918 0.836526 0.022753 -0.027142 -18149.700000 0 0 1
7.541424 -28.218256 25.649645 38.872193 -1.309646 0.850183 0.052087 -0.028205 492365.000000 0 0 1
7.616024 -27.004756 24.840485 37.474130 -1.295911 0.846151 0.081511 -0.028983 -658812.000000 0 0 1
6.381424 -26.653356 23.952015 36.398118 -1.335797 0.852562 0.088877 -0.030530 147115.000000 0 0 1
6.204024 -27.535356 22.863535 36.323918 -1.349186 0.889971 0.084776 -0.030073 -67241.400000 0 0 1
5.666924 -28.853456 23.021315 37.344570 -1.376861 0.906561 0.091481 -0.029305 16194.800000 0 0 1
4.259024 -29.069956 23.659275 37.722181 -1.425322 0.892846 0.134669 -0.027960 190547.000000 0 0 1
3.292224 -28.625056 22.714895 36.690585 -1.456287 0.903209 0.146277 -0.033256 1410740.000000 0 0 1
1.944824 -28.446856 23.265185 36.800473 -1.502536 0.886410 0.171498 -0.022348 1710000.000000 0 0 1
1.485224 -27.007056 23.495285 35.827579 -1.515858 0.855571 0.153027 -0.030773 -74229.800000 0 0 1
2.199524 -26.488156 24.621835 36.231134 -1.487948 0.823611 0.118437 -0.031316 172760.000000 0 0 1
1.873924 -25.142056 24.846515 35.397513 -1.496400 0.792695 0.105564 -0.026933 -53613.300000 0 0 1
2.907924 -24.313456 25.647505 35.459762 -1.451760 0.762249 0.097053 -0.026189 401705.000000 0 0 1
4.136724 -24.013656 24.958985 34.881501 -1.400205 0.773405 0.090454 -0.028827 245328.000000 0 0 1
5.018124 -23.298456 25.760855 35.094462 -1.358653 0.746539 0.073879 -0.026036 -126619.000000 0 0 1
4.681324 -21.802556 25.983405 34.240380 -1.359293 0.709247 0.058980 -0.013927 -622809.000000 0 0 1
4.809224 -21.063856 24.801125 32.892408 -1.346328 0.716654 0.059285 -0.016109 50529.300000 0 0 1
4.053224 -19.888956 24.866665 32.099069 -1.369757 0.684580 0.080595 -0.032731 -74020.600000 0 0 1
4.024824 -19.021356 23.575195 30.558158 -1.362277 0.689623 0.100322 -0.036379 702153.000000 0 0 1
5.309824 -18.444256 23.321185 30.203684 -1.290491 0.688609 0.072289 -0.025863 462639.000000 0 0 1
5.259524 -17.863256 22.029915 28.845722 -1.284455 0.701748 0.074656 -0.023663 121994.000000 0 0 1
6.623624 -17.205456 21.774815 28.531434 -1.203312 0.702566 0.064900 -0.014539 -467448.000000 0 0 1
7.735724 -18.036456 21.754615 29.298779 -1.165632 0.733988 0.068970 -0.012980 -1858720.000000 0 0 1
8.773324 -17.356356 21.205015 28.772678 -1.102773 0.742198 0.074139 -0.012816 -1346210.000000 0 0 1
10.003524 -17.467256 22.106215 29.897496 -1.050691 0.738617 0.088972 -0.004281 -591249.000000 0 0 1
10.003524 -16.599956 23.254215 30.271894 -1.028450 0.694805 0.090241 -0.000750 524074.000000 0 0 1
11.145824 -16.865856 24.082575 31.442916 -0.986830 0.698334 0.099751 -0.006649 642005.000000 0 0 1
11.355324 -16.004156 25.338215 32.048425 -0.953707 0.658971 0.119784 -0.020214 -215859.000000 0 0 1
11.283224 -14.639056 25.007885 31.096743 -0.914140 0.636474 0.138904 -0.025768 236779.000000 0 0 1
11.528024 -13.880656 26.160905 31.779882 -0.877727 0.603788 0.131089 -0.032171 -64965.600000 0 0 1
11.731024 -12.390456 25.945515 31.053343 -0.812729 0.581728 0.133255 -0.036267 -177618.000000 0 0 1
10.585724 -11.705456 25.560525 30.040235 -0.835588 0.553145 0.142259 -0.027316 -255410.000000 0 0 1
10.993724 -10.377956 25.478145 29.625999 -0.756594 0.535541 0.133766 -0.027722 79398.600000 0 0 1
9.997524 -9.464156 24.729725 28.303358 -0.757999 0.507961 0.115430 -0.020320 -86671.800000 0 0 1
8.736424 -9.302756 25.336715 28.369271 -0.816782 0.466597 0.117250 -0.028470 -138545.000000 0 0 1
7.805024 -8.689556 24.468665 27.113509 -0.838972 0.445366 0.091310 -0.028574 733653.000000 0 0 1
6.333524 -8.823856 24.994015 27.252060 -0.948242 0.409946 0.087530 -0.030821 -680308.000000 0 0 1
5.937924 -8.107756 26.183445 28.045810 -0.938670 0.366477 0.107567 -0.025616 1449160.000000 0 0 1
4.570124 -8.405656 26.578845 28.248471 -1.072806 0.345533 0.117259 -0.032340 2160650.000000 0 0 1
3.386524 -8.364256 25.553465 27.099980 -1.186090 0.339465 0.087325 -0.027807 -591603.000000 0 0 1
3.260724 -7.107956 25.001745 26.196233 -1.140696 0.303145 0.089260 -0.027307 165287.000000 0 0 1
2.127224 -7.125556 24.137795 25.257312 -1.280685 0.298851 0.083591 -0.027561 481220.000000 0 0 1
2.029024 -5.814156 23.332765 24.131707 -1.235030 0.258038 0.060158 -0.027327 -339703.000000 0 1 0
1.695624 -4.659256 24.096245 24.601074 -1.221770 0.202934 0.061913 -0.020863 116807.000000 0 1 0
2.104024 -3.437356 23.392915 23.737540 -1.021523 0.170607 0.056572 -0.027013 -414171.000000 0 1 0
1.130624 -2.775056 22.308615 22.508966 -1.183906 0.133523 0.038271 -0.027566 1045430.000000 0 1 0
0.145424 -1.859156 22.822315 22.898377 -1.492735 0.081530 0.042597 -0.022582 220170.000000 0 1 0
-0.953176 -2.469156 23.447865 23.596772 1.202388 0.112402 0.051517 -0.017610 -933114.000000 0 1 0
-1.942476 -1.421156 23.933625 24.054341 0.631634 0.100226 0.058849 -0.020042 -612149.000000 0 1 0
-1.477476 -0.651156 25.017555 25.069603 0.415112 0.064449 0.072048 -0.020066 -285868.000000 0 0 1
-2.204176 0.485844 25.254465 25.355127 -0.216951 0.089137 0.077932 -0.024979 -538004.000000 0 0 1
-1.510776 1.364844 26.331395 26.409991 -0.734694 0.077168 0.110758 -0.033243 -40176.300000 0 0 1
-1.646876 0.965844 27.718805 27.784478 -0.530412 0.068769 0.129367 -0.028729 229128.000000 0 0 1
-1.045476 -0.292156 28.053875 28.074869 0.272497 0.038675 0.133604 -0.033601 -364432.000000 0 0 1
0.386224 -0.205156 28.616475 28.619817 -0.488282 0.015281 0.148783 -0.033743 340362.000000 0 0 1
1.420724 0.350844 27.780055 27.818573 0.242103 0.052630 0.118354 -0.028707 578759.000000 0 0 1
1.936424 -0.449156 26.725845 26.799670 -0.227921 0.074242 0.097769 -0.026783 -18134.200000 0 0 1
2.977224 -1.552156 27.108785 27.315917 -0.480576 0.123227 0.093639 -0.029034 -187080.000000 0 0 1
2.449124 -2.729556 27.818435 28.059117 -0.839497 0.131072 0.115339 -0.035286 81090.600000 0 0 1
3.386024 -3.665056 28.330795 28.766852 -0.824950 0.174337 0.132949 -0.033287 -103158.000000 0 0 1
4.151724 -4.509256 27.308455 27.987889 -0.826655 0.220793 0.119573 -0.030437 -5821.690000 0 0 1
5.038424 -3.726456 26.526325 27.256525 -0.636817 0.231993 0.109303 -0.026448 -408503.000000 0 0 1
5.582924 -4.630256 25.568045 26.576931 -0.692389 0.276418 0.092992 -0.023621 -538544.000000 0 0 1
6.807324 -3.948756 24.895525 26.109759 -0.525640 0.306170 0.078047 -0.024753 -641740.000000 0 0 1
7.976124 -3.902456 25.674105 27.166292 -0.455025 0.332981 0.068816 -0.023115 130319.000000 0 0 1
8.728124 -5.158256 25.663825 27.593834 -0.533770 0.376230 0.086153 -0.020762 92522.200000 0 0 1
9.615724 -5.312856 24.373305 26.734745 -0.504774 0.423463 0.066573 -0.021053 -1102290.000000 0 0 1
8.944124 -5.553056 23.188455 25.466414 -0.555617 0.426183 0.063557 -0.024706 -183726.000000 0 0 1
9.760424 -5.359456 22.011915 24.668078 -0.502153 0.468329 0.074281 -0.020600 295922.000000 0 1 0
9.743324 -3.986556 21.321115 23.778456 -0.388376 0.458637 0.078694 -0.023878 912965.000000 0 1 0
8.400024 -3.608556 20.956615 22.863985 -0.405751 0.411361 0.054016 -0.027163 690417.000000 0 1 0
8.339824 -2.494156 20.053515 21.861312 -0.290599 0.409535 0.051195 -0.031881 -402739.000000 0 1 0
6.917424 -1.942156 20.002315 21.253596 -0.273716 0.344850 0.043413 -0.023778 -331240.000000 0 1 0
6.527424 -1.282156 21.195015 22.214407 -0.193957 0.304119 0.049228 -0.017808 -237755.000000 0 1 0
5.328924 -0.590156 20.959115 21.634006 -0.110296 0.250437 0.032537 -0.015017 -453665.000000 0 1 0
4.855124 0.062844 22.212815 22.737312 0.012943 0.215206 0.034027 -0.018336 -102301.000000 0 1 0
3.557924 0.594844 22.043115 22.336329 0.165656 0.162210 0.036730 -0.019902 -220373.000000 0 1 0
2.888924 0.750844 23.263545 23.454257 0.254278 0.127611 0.049643 -0.020047 -38155.000000 0 1 0
1.474724 1.335844 23.063295 23.148972 0.736025 0.086062 0.059825 -0.034064 -57768.600000 0 1 0
1.411924 2.711844 22.817465 23.021389 1.090765 0.133200 0.063990 -0.029503 56060.500000 0 1 0
0.030824 2.965844 22.687365 22.880422 1.560404 0.129996 0.052353 -0.029939 28401.400000 0 1 0
-0.422476 4.380844 22.320515 22.750290 -1.474657 0.194683 0.063112 -0.025438 -168865.000000 0 1 0
-0.277376 5.387844 23.238615 23.856635 -1.519360 0.228115 0.079026 -0.021975 -189749.000000 0 1 0
-1.200876 6.396844 22.963815 23.868358 -1.385227 0.276185 0.066544 -0.023840 -187926.000000 0 1 0
-0.992976 7.512844 24.002325 25.170229 -1.439388 0.305822 0.073958 -0.012733 -301262.000000 0 0 1
-0.139576 8.441844 23.447655 24.921411 -1.554264 0.345625 0.068782 -0.010024 -223185.000000 0 1 0
-0.127276 9.629844 24.285985 26.125833 -1.557580 0.377531 0.091390 -0.007980 -362787.000000 0 0 1
0.547224 10.874844 23.650195 26.036387 1.520519 0.431471 0.094410 -0.014241 614346.000000 0 0 1
1.966724 10.966844 23.557635 26.059583 1.393349 0.441782 0.083008 -0.009451 -12263.000000 0 0 1
2.608524 11.331844 24.699055 27.299422 1.344544 0.440012 0.099869 -0.009635 137305.000000 0 0 1
3.980024 12.063844 24.421315 27.527760 1.252127 0.479659 0.089485 -0.015486 1274600.000000 0 0 1
5.140724 11.352844 24.002805 27.045310 1.145605 0.478898 0.082082 -0.008059 463788.000000 0 0 1
5.025324 10.679844 22.734635 25.615944 1.130991 0.478864 0.074108 -0.015533 -1069020.000000 0 0 1
6.346524 10.182844 22.145715 25.187326 1.013452 0.496531 0.074320 -0.014598 -320343.000000 0 0 1
7.130824 11.242844 21.622315 25.392415 1.005570 0.551906 0.060338 -0.021913 286345.000000 0 0 1
8.400424 10.741844 21.207815 25.213603 0.907110 0.571435 0.067163 -0.025259 203621.000000 0 0 1
9.259424 11.883844 20.656215 25.566422 0.908892 0.630143 0.055498 -0.036853 -571777.000000 0 0 1
8.974224 12.295844 19.337515 24.610241 0.940311 0.666887 0.061815 -0.047819 334675.000000 0 1 0
9.772924 13.410844 18.845715 25.110193 0.941046 0.721947 0.071413 -0.050126 202601.000000 0 0 1
11.186824 13.068844 18.363515 25.162639 0.862834 0.752777 0.061864 -0.048855 1072430.000000 0 0 1
12.240024 12.966844 19.404715 26.353372 0.814224 0.743170 0.069925 -0.047403 2083590.000000 0 0 1
13.541924 12.722844 18.836215 26.458599 0.754223 0.778578 0.080485 -0.048301 1072620.000000 0 0 1
14.706524 12.716844 19.861715 27.793663 0.712971 0.774725 0.108274 -0.041213 106197.000000 0 0 1
15.181324 13.998844 20.246615 28.919987 0.744897 0.795272 0.115313 -0.044465 5556.780000 0 0 1
16.331524 13.791844 21.046815 29.998368 0.701288 0.793158 0.124522 -0.050080 329942.000000 0 0 1
17.097824 15.099844 21.430815 31.298893 0.723424 0.816584 0.123502 -0.047571 246570.000000 0 0 1
16.441424 15.916844 22.424515 32.039433 0.769188 0.795534 0.130590 -0.043607 234217.000000 0 0 1
17.247024 16.995844 22.835905 33.283587 0.778063 0.814680 0.124955 -0.036651 -549950.000000 0 0 1
-22.228076 12.735971 -24.354001 35.346989 -0.520306 2.330902 0.089770 -0.010028 100674.000000 0 0 1
-21.800176 12.527771 -25.677541 35.937846 -0.521582 2.366704 0.077084 -0.022118 40962.800000 0 0 1
-22.495276 13.424971 -26.505151 37.266477 -0.538056 2.362047 0.082384 -0.023974 -179754.000000 0 0 1
-22.120276 13.341171 -28.000841 38.096463 -0.542710 2.396461 0.083821 -0.026538 -363529.000000 0 0 1
-20.883376 13.940871 -28.231361 37.781914 -0.588620 2.414664 0.103038 -0.019234 -551325.000000 0 0 1
-20.689876 14.233871 -29.586491 38.807660 -0.602602 2.437792 0.104471 -0.031666 240911.000000 0 0 1
-19.286176 14.868471 -29.753021 38.448280 -0.656768 2.455686 0.082546 -0.027676 444505.000000 0 0 1
-18.187376 13.964371 -29.775201 37.581204 -0.654800 2.485349 0.083237 -0.025680 624273.000000 0 0 1
-16.947576 14.673171 -29.967471 37.424211 -0.713594 2.499344 0.068542 -0.019510 1011470.000000 0 0 1
-15.856576 14.213071 -28.957301 35.943952 -0.730796 2.507524 0.094658 -0.006398 -69249.400000 0 0 1
-16.197076 14.580471 -27.612931 35.176830 -0.732921 2.473452 0.133023 -0.019261 703729.000000 0 0 1
-17.053676 13.598371 -26.930641 34.655490 -0.673145 2.460835 0.150496 -0.013357 278331.000000 0 0 1
-17.574376 14.071671 -25.563761 34.064299 -0.675163 2.419548 0.137106 -0.017137 -505416.000000 0 0 1
-16.695976 14.391971 -24.533601 32.981540 -0.711421 2.409622 0.169248 -0.037219 193016.000000 0 0 1
-17.494076 14.740371 -23.354701 32.691945 -0.700178 2.366544 0.173757 -0.036211 678791.000000 0 0 1
-16.694176 15.477071 -22.271301 31.847230 -0.747584 2.345238 0.190519 -0.030979 77357.000000 0 0 1
-16.342076 16.771571 -22.741001 32.642030 -0.798368 2.341553 0.169720 -0.031856 354236.000000 0 0 1
-15.426276 17.501571 -21.897701 31.996629 -0.848340 2.324543 0.162184 -0.027377 108771.000000 0 0 1
-15.226476 18.956571 -22.526101 33.145473 -0.894089 2.318032 0.136817 -0.022248 1194440.000000 0 0 1
-16.393176 19.802671 -22.317501 34.043396 -0.879317 2.285721 0.118418 -0.013520 1854610.000000 0 0 1
-17.538376 19.472071 -23.132201 34.955041 -0.837598 2.293974 0.099729 -0.010852 909121.000000 0 0 1
-18.830376 20.337271 -22.975501 36.000851 -0.823852 2.262946 0.089170 -0.007692 655131.000000 0 0 1
-18.652676 21.616171 -23.535401 37.001301 -0.858858 2.260190 0.068692 -0.006547 14971.800000 0 0 1
-19.851276 22.362671 -23.547401 38.061034 -0.844820 2.237851 0.099075 -0.018098 226299.000000 0 0 1
-19.582876 23.848871 -24.048801 39.122915 -0.883307 2.232800 0.077169 -0.020836 34912.000000 0 0 1
-19.039376 24.584471 -22.965501 38.656284 -0.911832 2.206936 0.072695 -0.015360 -86159.200000 0 0 1
-18.154976 25.630271 -23.307701 39.112183 -0.954494 2.209206 0.064412 -0.015218 -191420.000000 0 0 1
-17.177576 25.924271 -22.128701 38.168263 -0.985610 2.189239 0.074002 -0.022594 144594.000000 0 0 1
-16.165876 24.920371 -21.957301 36.938916 -0.995335 2.207343 0.079081 -0.036679 317496.000000 0 0 1
-16.539976 23.620271 -21.470501 35.950944 -0.959906 2.210823 0.081959 -0.013098 -7478.200000 0 0 1
-15.264976 22.705271 -21.269701 34.654711 -0.978897 2.231612 0.099449 -0.018805 1029250.000000 0 0 1
-14.607776 22.882271 -20.014001 33.727521 -1.002627 2.206076 0.114703 -0.033406 75372.500000 0 0 1
-13.496776 22.038071 -19.794501 32.552447 -1.021287 2.224437 0.103183 -0.028397 23000.500000 0 0 1
-12.691276 22.369871 -18.497201 31.680058 -1.054739 2.194290 0.092130 -0.030514 129972.000000 0 0 1
-13.273176 22.083471 -17.214401 30.986973 -1.029608 2.159805 0.105096 -0.025422 -568945.000000 0 0 1
-14.161176 23.047271 -16.786001 31.835286 -1.019826 2.126189 0.109060 -0.033149 -488011.000000 0 0 1
-14.433576 22.926171 -15.287001 31.106749 -1.008919 2.084535 0.130509 -0.040066 45722.100000 0 0 1
-13.585076 23.738271 -14.503501 30.958219 -1.051004 2.058373 0.128591 -0.062074 -109.664000 0 0 1
-13.764976 23.518071 -13.074801 30.224570 -1.041261 2.018158 0.142865 -0.047606 -729350.000000 0 0 1
-12.690276 24.175771 -12.264601 29.932114 -1.087414 1.992973 0.191393 -0.051947 -715934.000000 0 0 1
-12.765776 25.625571 -12.282701 31.152844 -1.108617 1.976072 0.162850 -0.060412 221035.000000 0 0 1
-11.737776 26.135071 -11.450601 30.853421 -1.148675 1.951021 0.104486 -0.047169 87872.400000 0 0 1
-11.427876 27.560571 -11.760901 32.070239 -1.177728 1.946281 0.132201 -0.040199 133153.000000 0 0 1
-10.689076 27.589871 -12.993401 32.315411 -1.201175 1.984584 0.125516 -0.038546 90785.800000 0 0 1
-10.755176 28.803771 -13.719001 33.668116 -1.213434 1.990487 0.085616 -0.014680 -649900.000000 0 0 1
-10.028076 28.752471 -15.076101 33.978754 -1.235215 2.030511 0.125698 -0.045135 1392340.000000 0 0 1
-8.583276 28.765571 -15.118301 33.610917 -1.280820 2.037341 0.090695 -0.045430 1009580.000000 0 0 1
-7.965576 27.596171 -14.621201 32.230088 -1.289787 2.041654 0.097465 -0.041352 -211149.000000 0 0 1
-6.441676 27.602171 -14.933901 32.037422 -1.341524 2.055718 0.093255 -0.042757 458954.000000 0 0 1
-5.665276 28.498471 -14.188201 32.335170 -1.374562 2.025043 0.079149 -0.032980 -1113050.000000 0 0 1
-4.383676 28.565471 -14.724501 32.434760 -1.418524 2.042015 0.092721 -0.035458 -555913.000000 0 0 1
-3.444176 29.589471 -14.080801 32.949478 -1.454919 2.012351 0.071069 -0.030018 -160154.000000 0 0 1
-3.720076 30.961671 -14.331001 34.319697 -1.451219 2.001570 0.059464 -0.020879 238677.000000 0 0 1
-4.788976 31.437871 -13.515001 34.553282 -1.419627 1.972661 0.060888 -0.021725 221036.000000 0 0 1
-4.807976 33.015371 -13.650201 36.048014 -1.426185 1.959152 0.062031 -0.024549 267405.000000 0 0 1
-3.692076 33.622871 -13.008101 36.240027 -1.461426 1.937931 0.037282 -0.020437 207850.000000 0 0 1
-3.546576 -32.853756 -13.566801 35.721220 1.463262 1.960373 0.045539 -0.018915 555679.000000 0 0 1
-2.495776 -32.105356 -12.667701 34.604240 1.493215 1.945583 0.053538 -0.021390 -144858.000000 0 0 1
-2.936776 -31.809156 -11.397301 33.916744 1.478732 1.913503 0.054385 -0.024235 -37111.600000 0 0 1
-1.970376 -31.257356 -10.516201 33.037784 1.507842 1.894741 0.050600 -0.034223 -132716.000000 0 0 1
-2.401976 -31.435856 -9.049101 32.800438 1.494536 1.850305 0.057736 -0.031821 -56623.900000 0 0 1
-1.416876 -30.985056 -8.137001 32.066993 1.525100 1.827352 0.051859 -0.035199 -228109.000000 0 0 1
-1.832676 -30.944756 -6.810101 31.738212 1.511641 1.787049 0.067953 -0.035871 198653.000000 0 0 1
-0.807076 -30.218856 -5.856901 30.791783 1.544095 1.762172 0.088970 -0.035130 547607.000000 0 0 1
-1.030876 -30.485556 -4.446201 30.825323 1.536994 1.715540 0.101175 -0.043313 -173412.000000 0 0 1
0.035324 -29.859156 -3.789201 30.098646 -1.569613 1.697024 0.089546 -0.035342 -453737.000000 0 0 1
0.232224 -30.289956 -2.304101 30.378352 -1.563130 1.646716 0.088027 -0.026626 -420474.000000 0 0 1
0.637024 -31.614056 -2.031501 31.685665 -1.550649 1.634955 0.089103 -0.033057 -211.006000 0 0 1
1.905024 -32.023956 -2.504501 32.178182 -1.511379 1.648707 0.075448 -0.029631 175911.000000 0 0 1
3.148024 -31.485156 -1.747101 31.690337 -1.471143 1.625955 0.064843 -0.027742 -992179.000000 0 0 1
3.242324 -31.897656 -0.401801 32.064538 -1.469497 1.583328 0.057171 -0.022070 829511.000000 0 0 1
4.507224 -31.651256 0.254799 31.971581 -1.429345 1.562827 0.048831 -0.015576 942646.000000 0 0 1
4.859824 -30.160956 0.457599 30.553405 -1.411040 1.555819 0.040664 -0.018853 -675250.000000 0 0 1
5.243324 -29.592056 -0.793601 30.063467 -1.395430 1.597197 0.049722 -0.028965 99921.600000 0 0 1
4.849124 -28.250356 -0.704301 28.672158 -1.400805 1.595363 0.065709 -0.022427 -511617.000000 0 0 1
4.391924 -27.660056 -2.058401 28.082107 -1.413329 1.644161 0.073374 -0.015209 500368.000000 0 0 1
3.063924 -28.053956 -2.444201 28.326422 -1.462012 1.657191 0.078898 -0.019205 511225.000000 0 0 1
2.649824 -27.139456 -3.454701 27.486480 -1.473467 1.696817 0.081711 -0.021329 -132382.000000 0 0 1
3.173424 -27.124756 -4.914401 27.748412 -1.454332 1.748841 0.072823 -0.019166 -262776.000000 0 0 1
2.539124 -28.141456 -5.634401 28.812067 -1.480813 1.767622 0.078755 -0.023809 -59950.500000 0 0 1
3.045124 -28.281456 -6.901201 29.270123 -1.463537 1.808814 0.090638 -0.036827 232411.000000 0 0 1
1.985324 -28.996156 -7.811701 30.095535 -1.502434 1.833366 0.080182 -0.037802 856423.000000 0 0 1
0.786324 -28.231556 -8.025201 29.360567 -1.542951 1.847652 0.084549 -0.032186 314222.000000 0 0 1
0.321624 -28.460156 -9.381101 29.968133 -1.559496 1.889184 0.090515 -0.022331 272038.000000 0 0 1
-0.938676 -27.602856 -9.687001 29.268358 1.536803 1.908130 0.061565 -0.023495 -482205.000000 0 0 1
-0.775676 -26.207556 -9.476701 27.879124 1.541208 1.917629 0.065098 -0.015565 -20260.600000 0 0 1
-1.993076 -25.473656 -9.527401 27.269963 1.492715 1.927699 0.085692 -0.026403 657430.000000 0 0 1
-3.118876 -25.796656 -8.529001 27.348468 1.450478 1.887951 0.091943 -0.030041 -272028.000000 0 0 1
-2.701976 -25.687856 -7.120401 26.793035 1.465997 1.839784 0.100920 -0.034335 -89800.900000 0 0 1
-1.826076 -26.677056 -6.609901 27.544340 1.502452 1.813134 0.103646 -0.028954 366878.000000 0 0 1
-1.309876 -26.459656 -5.146001 26.987228 1.521332 1.762654 0.118624 -0.027776 328213.000000 0 0 1
-2.288376 -26.843856 -4.203801 27.267219 1.485754 1.725584 0.131822 -0.037124 285305.000000 0 0 1
-1.803776 -26.577656 -2.904501 26.796670 1.503032 1.679400 0.136529 -0.033158 300506.000000 0 0 1
-2.973676 -26.800856 -1.896501 27.031932 1.460294 1.641012 0.131218 -0.034223 540736.000000 0 0 1
-3.999976 -25.851756 -2.164501 26.248775 1.417286 1.653351 0.123039 -0.032228 -184817.000000 0 0 1
-5.032376 -26.005256 -1.213001 26.515458 1.379645 1.616559 0.137043 -0.036669 149818.000000 0 0 1
-6.224876 -25.044956 -1.439601 25.847076 1.327185 1.626522 0.129257 -0.031353 -34099.900000 0 0 1
-5.873676 -23.719356 -1.034601 24.457684 1.328047 1.613111 0.111270 -0.038208 -9903.450000 0 1 0
-6.592376 -23.349156 0.105399 24.262185 1.295620 1.566452 0.115755 -0.030608 -157386.000000 0 1 0
-6.305076 -21.884256 0.430699 22.778502 1.290283 1.551887 0.091880 -0.037108 -475654.000000 0 1 0
-5.328776 -21.807656 1.391499 22.492354 1.331139 1.508891 0.087312 -0.038361 -810604.000000 0 1 0
-4.740276 -20.543156 1.402599 21.129571 1.344018 1.504367 0.054259 -0.027139 9267.520000 0 1 0
-3.649976 -20.364056 2.481999 20.836925 1.393443 1.451397 0.045073 -0.017419 -387544.000000 0 1 0
-4.173876 -20.199556 3.780899 20.969943 1.367032 1.389504 0.042243 -0.008727 357502.000000 0 1 0
-3.162876 -19.971356 4.752299 20.771211 1.413730 1.339959 0.057518 -0.017311 346080.000000 0 1 0
-2.174076 -21.081156 5.142299 21.807911 1.468031 1.332755 0.057622 -0.025904 -159493.000000 0 1 0
-1.245276 -21.414756 4.153199 21.849292 1.512711 1.379549 0.064851 -0.027360 -612726.000000 0 1 0
-0.565076 -22.602156 4.539199 23.060379 1.545801 1.372663 0.069481 -0.026840 -761259.000000 0 1 0
0.476424 -22.925156 3.440099 23.186721 -1.550018 1.421882 0.069136 -0.030686 1605620.000000 0 1 0
1.772724 -22.283456 3.649799 22.649857 -1.491410 1.408951 0.054516 -0.030378 1183660.000000 0 1 0
2.593624 -22.739256 4.695499 23.363398 -1.457228 1.368441 0.076642 -0.027614 -1293380.000000 0 1 0
3.808424 -21.860056 4.884899 22.720660 -1.398309 1.354106 0.081734 -0.031383 -382690.000000 0 1 0
4.578324 -21.739456 3.694299 22.521387 -1.363230 1.406016 0.062818 -0.017278 -448197.000000 0 1 0
5.760824 -21.018756 3.899099 22.139968 -1.303285 1.393762 0.067749 -0.015987 41527.900000 0 1 0
6.426324 -20.527356 2.603999 21.666813 -1.267400 1.450321 0.061330 -0.010570 209595.000000 0 1 0
7.330624 -21.390756 1.952899 22.696174 -1.240639 1.484644 0.068081 -0.012356 -207521.000000 0 1 0
7.191824 -21.269556 0.562399 22.459578 -1.244737 1.545753 0.052880 -0.016039 -54532.200000 0 1 0
8.149924 -22.105556 -0.300501 23.561986 -1.217576 1.583550 0.052987 -0.008475 -67199.600000 0 1 0
9.472924 -21.623456 -0.395801 23.610735 -1.157894 1.587561 0.040529 -0.004880 -556090.000000 0 1 0
10.095424 -22.497056 -1.292501 24.692219 -1.148987 1.623165 0.051729 -0.007199 -705457.000000 0 1 0
11.484824 -22.098656 -1.751901 24.966396 -1.091508 1.641024 0.058650 -0.002527 -446353.000000 0 1 0
11.470824 -20.929856 -2.593501 24.007602 -1.069444 1.679036 0.047987 -0.000615 87413.000000 0 1 0
12.744824 -20.698056 -3.191001 24.515762 -1.018876 1.701328 0.051512 -0.001701 345982.000000 0 1 0
12.862324 -19.533656 -4.210901 23.764149 -0.988490 1.748932 0.047514 -0.010878 -243953.000000 0 1 0
12.826324 -18.279956 -3.521001 22.606832 -0.958957 1.727182 0.058219 -0.013393 142490.000000 0 1 0
12.857124 -17.296056 -4.550701 22.026531 -0.931561 1.778896 0.060597 -0.017361 -881079.000000 0 1 0
13.258024 -15.908456 -4.095501 21.109887 -0.876022 1.766043 0.057094 -0.009911 2599210.000000 0 1 0
14.631924 -15.565256 -3.601601 21.664301 -0.816296 1.737818 0.061865 -0.011838 2825810.000000 0 1 0
15.694224 -15.754356 -4.519501 22.692164 -0.787310 1.771303 0.068157 -0.009796 663367.000000 0 1 0
17.150124 -15.356356 -4.110901 23.384695 -0.730272 1.747509 0.076389 -0.006910 1205060.000000 0 1 0
17.881724 -16.203456 -3.210501 24.343693 -0.736200 1.703064 0.087611 -0.013341 193077.000000 0 1 0
19.270524 -16.136156 -3.409501 25.364411 -0.697104 1.705625 0.062116 0.008325 67230.200000 0 0 1
20.056424 -17.162656 -2.538901 26.519105 -0.707805 1.666682 0.065085 -0.009722 1463260.000000 0 0 1
21.488024 -16.936256 -2.434001 27.468096 -0.667487 1.659525 0.059621 -0.007233 1076830.000000 0 0 1
22.026924 -17.750156 -1.427501 28.324745 -0.678291 1.621215 0.060784 -0.006837 -290128.000000 0 0 1
23.554224 -17.755256 -1.575601 29.538672 -0.645931 1.624162 0.088257 -0.010868 -260012.000000 0 0 1
24.189224 -16.513456 -1.374001 29.320653 -0.599006 1.617675 0.094190 -0.004612 276726.000000 0 0 1
25.518624 -16.638756 -0.874101 30.476424 -0.577797 1.599481 0.143402 -0.007807 394433.000000 0 0 1
26.043524 -15.229956 -0.639001 30.176565 -0.529160 1.591973 0.126082 -0.009152 -74620.000000 0 0 1
25.350024 -14.579856 0.404699 29.246534 -0.521941 1.556958 0.109198 -0.012123 318870.000000 0 0 1
26.116424 -13.504756 0.932999 29.416263 -0.477232 1.539074 0.082928 -0.007210 95124.900000 0 0 1
25.443424 -12.825756 2.144299 28.573867 -0.466914 1.495682 0.113273 -0.015396 -196876.000000 0 0 1
25.088824 -13.630556 3.226499 28.734152 -0.497678 1.458271 0.125779 -0.009289 -343997.000000 0 0 1
26.129824 -13.989556 4.068499 29.917020 -0.491554 1.434381 0.158706 0.002837 -402926.000000 0 0 1
25.648224 -14.358756 5.513299 29.906550 -0.510362 1.385385 0.138011 0.010310 -4749.580000 0 0 1
25.019924 -15.641156 5.525299 30.019516 -0.558706 1.385684 0.153092 -0.006120 80193.400000 0 0 1
24.584624 -15.903056 6.850199 30.070520 -0.574172 1.340974 0.129245 -0.002425 -328946.000000 0 0 1
24.020524 -17.306856 6.838499 30.385489 -0.624354 1.343794 0.111431 -0.006475 -137966.000000 0 0 1
24.973824 -18.347756 6.842199 31.735591 -0.633624 1.353490 0.116182 -0.008214 19404.300000 0 0 1
24.272924 -19.567656 6.969199 31.947422 -0.678481 1.350882 0.080066 0.002858 378628.000000 0 0 1
2.245124 23.305671 -3.161401 23.626031 1.474759 1.705009 0.040841 -0.024648 217654.000000 0 1 0
3.063524 24.424171 -2.878801 24.783317 1.446018 1.687218 0.051877 -0.028149 -267336.000000 0 1 0
3.919324 24.727371 -3.958701 25.347096 1.413603 1.727618 0.072121 -0.031193 -335204.000000 0 0 1
5.031424 25.674171 -3.525501 26.399005 1.377277 1.704743 0.051681 -0.023836 -449388.000000 0 0 1
5.835224 25.107571 -2.524701 25.900079 1.342441 1.668430 0.041322 -0.027659 -170054.000000 0 0 1
6.636524 26.087371 -1.823301 26.979971 1.321684 1.638428 0.030927 -0.021742 209756.000000 0 0 1
7.869824 25.433971 -1.178301 26.649754 1.270718 1.615025 0.020536 -0.032127 -82175.600000 0 0 1
8.920224 25.210471 -2.087601 26.823429 1.230713 1.648703 0.029384 -0.034439 -313578.000000 0 0 1
9.795224 24.172171 -1.681801 26.135584 1.185792 1.635190 0.020932 -0.028524 247533.000000 0 0 1
10.912124 23.855371 -2.696701 26.370919 1.141782 1.673236 0.046938 -0.023865 -583504.000000 0 0 1
11.924424 24.870771 -2.804801 27.723890 1.123719 1.672139 0.053592 -0.017431 -99834.700000 0 0 1
12.912124 24.699371 -3.761401 28.123478 1.089098 1.704944 0.073797 -0.028802 191484.000000 0 0 1
13.857724 23.468971 -3.524501 27.481835 1.037414 1.699399 0.072129 -0.025075 -899036.000000 0 0 1
13.280724 22.211271 -3.802001 26.156709 1.031902 1.716668 0.090307 -0.026270 -203386.000000 0 0 1
13.106724 21.999671 -5.195901 26.129851 1.033494 1.770980 0.123576 -0.037483 -329527.000000 0 0 1
12.060724 20.888171 -5.346601 24.705524 1.047164 1.788935 0.121293 -0.034501 635926.000000 0 1 0
10.711124 21.305371 -5.086401 24.382750 1.104957 1.780946 0.093785 -0.028216 431766.000000 0 1 0
9.840024 20.205571 -5.101301 23.045921 1.117606 1.793999 0.076740 -0.021156 708711.000000 0 1 0
8.342424 20.524071 -4.777301 22.663983 1.184725 1.783178 0.059397 -0.020023 639580.000000 0 1 0
7.989524 21.116271 -3.554401 22.855266 1.209084 1.726948 0.061295 -0.015579 20283.200000 0 1 0
6.615024 21.459171 -3.552901 22.734944 1.271778 1.727714 0.055236 -0.013270 409906.000000 0 1 0
6.197224 22.119671 -2.184301 23.075021 1.297632 1.665599 0.039853 -0.019012 91953.700000 0 1 0
5.804824 21.209271 -1.175401 22.020689 1.303646 1.624199 0.033438 -0.026666 20329.500000 0 1 0
5.220724 21.899971 -0.089201 22.513832 1.336775 1.574758 0.043668 -0.023765 291556.000000 0 1 0
4.566524 21.005171 1.041499 21.521038 1.356727 1.522383 0.019215 -0.027864 271279.000000 0 1 0
4.012724 21.820671 2.087099 22.284515 1.388933 1.477002 0.031337 -0.023386 490158.000000 0 1 0
3.402124 20.998771 3.128499 21.501403 1.410177 1.424776 0.029029 -0.016412 -198271.000000 0 1 0
2.314624 21.700171 3.918099 22.172199 1.464534 1.393151 0.023025 -0.015893 -1283390.000000 0 1 0
1.050424 21.667671 3.356799 21.951297 1.522355 1.417274 0.023393 -0.019629 -1129760.000000 0 1 0
0.185124 22.422371 4.151399 22.804191 1.562540 1.387730 0.034244 -0.018438 -871711.000000 0 1 0
-1.238376 22.386771 3.648199 22.715863 -1.515535 1.409496 0.039530 -0.022891 -425228.000000 0 1 0
-2.206676 22.871971 4.580899 23.430346 -1.474615 1.374017 0.065918 -0.030909 -158914.000000 0 1 0
-3.501776 22.673771 4.077399 23.302092 -1.417565 1.394911 0.092756 -0.035552 -47211.800000 0 1 0
-4.637576 22.836471 5.100399 23.854257 -1.370443 1.355318 0.101953 -0.050292 -143908.000000 0 1 0
-5.154876 24.095371 5.313399 25.206980 -1.360037 1.358412 0.131837 -0.036348 314185.000000 0 0 1
-6.258276 24.006671 6.238099 25.581246 -1.315783 1.324458 0.135103 -0.042133 741426.000000 0 0 1
-6.892276 25.383671 6.554499 27.107115 -1.305665 1.326576 0.137823 -0.047006 91667.800000 0 0 1
-6.052976 26.123671 7.422499 27.824058 -1.343110 1.300761 0.115034 -0.056770 -292495.000000 0 0 1
-6.726176 27.099371 8.085499 29.068757 -1.327509 1.288928 0.143191 -0.047006 -427371.000000 0 0 1
-7.048276 28.355471 7.210099 30.094791 -1.327165 1.328863 0.151498 -0.056544 610892.000000 0 0 1
-8.216076 28.224571 6.392199 30.083060 -1.287528 1.356679 0.125876 -0.062466 71526.600000 0 0 1
-8.423176 29.452571 5.670099 31.153713 -1.292241 1.387772 0.163348 -0.054977 -226365.000000 0 0 1
-9.887676 29.914671 5.601199 32.000424 -1.251572 1.394855 0.173031 -0.055114 -37579.700000 0 0 1
-10.451776 30.462171 6.775299 32.910305 -1.240276 1.363442 0.137112 -0.049530 -274506.000000 0 0 1
-11.204576 29.444971 7.426899 32.368313 -1.207190 1.339284 0.112423 -0.041847 -591502.000000 0 0 1
-11.930876 29.929771 8.648999 33.360788 -1.191472 1.308544 0.087371 -0.038418 -551477.000000 0 0 1
-11.127576 30.350371 9.694899 33.748467 -1.219377 1.279422 0.107571 -0.037685 -148908.000000 0 0 1
-11.950876 30.675971 10.822699 34.655006 -1.199301 1.253185 0.093298 -0.028827 155666.000000 0 0 1
-11.189276 31.223971 12.021199 35.279534 -1.226698 1.223091 0.093794 -0.038666 -140153.000000 0 0 1
-10.728576 32.551871 11.930699 36.291435 -1.252424 1.235820 0.105028 -0.036548 188904.000000 0 0 1
-9.668376 32.888371 12.792599 36.589247 -1.284876 1.213623 0.097422 -0.042735 -20750.600000 0 0 1
-9.413576 -33.333656 12.785499 36.921769 1.295559 1.217187 0.112342 -0.045326 -671617.000000 0 0 1
-10.431676 -32.556056 13.318299 36.689150 1.260711 1.199307 0.108876 -0.029230 -624928.000000 0 0 1
-10.231276 -31.159756 13.319199 35.397888 1.253538 1.185028 0.112231 -0.024149 681853.000000 0 0 1
-11.396876 -30.300956 13.977599 35.262019 1.211042 1.163212 0.099407 -0.021542 571957.000000 0 0 1
-11.643276 -30.538856 15.349699 36.108183 1.206548 1.131721 0.088419 -0.025397 -297145.000000 0 0 1
-10.705776 -30.068956 16.266899 35.824123 1.228750 1.099461 0.095642 -0.025581 -435159.000000 0 0 1
-10.981376 -30.409456 17.707299 36.862909 1.224252 1.069736 0.093729 -0.039225 -117788.000000 0 0 1
-11.910476 -29.538956 18.307099 36.736348 1.187524 1.049116 0.095993 -0.044598 298902.000000 0 0 1
-12.592576 -30.076456 19.423099 37.952904 1.174286 1.033554 0.106753 -0.049923 -11805.400000 0 0 1
-12.685676 -29.006356 20.588399 37.764762 1.158519 0.994199 0.110739 -0.061719 141561.000000 0 0 1
-11.421776 -28.699456 21.150399 37.436014 1.192034 0.970394 0.086298 -0.059514 459962.000000 0 0 1
-11.634376 -27.728456 22.166799 37.357636 1.173523 0.935561 0.094388 -0.058735 295771.000000 0 0 1
-10.376076 -27.544156 23.048999 37.384487 1.210530 0.906457 0.116616 -0.059772 133168.000000 0 0 1
-10.066076 -28.660756 23.860999 38.627867 1.233040 0.904963 0.086851 -0.037585 410819.000000 0 0 1
-8.733576 -28.612456 24.360699 38.579679 1.274542 0.887389 0.116705 -0.033954 512578.000000 0 0 1
-8.341176 -29.730056 25.339399 39.944168 1.297265 0.883603 0.107906 -0.027916 -142923.000000 0 0 1
-8.515876 -31.028556 24.813099 40.632269 1.302939 0.913884 0.112654 -0.009000 347032.000000 0 0 1
-8.825776 -31.973356 25.877199 42.069220 1.301468 0.908271 0.124922 -0.012278 -108222.000000 0 0 1
-8.972476 -33.395956 25.288999 42.840736 1.308325 0.939363 0.129214 -0.003520 -1601690.000000 0 0 1
-7.762576 33.798971 24.957599 42.725985 -1.345042 0.946987 0.120543 -0.007968 -888197.000000 0 0 1
-7.820676 32.408871 24.539499 41.396678 -1.334010 0.936279 0.093512 -0.004937 -22824.000000 0 0 1
-8.575976 32.068671 23.205499 40.502373 -1.309486 0.960706 0.098112 -0.004787 12654.400000 0 0 1
-8.986876 30.716171 23.238799 39.551092 -1.286163 0.942751 0.094600 -0.004241 -136303.000000 0 0 1
-9.762376 30.507671 22.102799 38.917293 -1.261096 0.966792 0.083542 -0.013041 -251116.000000 0 0 1
-10.354476 29.048571 22.079599 37.928134 -1.228384 0.949434 0.080154 -0.013658 288696.000000 0 0 1
-9.392476 27.997071 21.948499 36.793902 -1.247114 0.931631 0.064249 -0.011426 263706.000000 0 0 1
-9.944576 26.794371 22.400199 36.312557 -1.215410 0.906034 0.046589 -0.007768 -537127.000000 0 0 1
-9.077976 25.525971 22.243899 35.053900 -1.229109 0.883354 0.060855 -0.021280 517331.000000 0 0 1
-7.902376 25.632371 23.065699 35.376439 -1.271745 0.860567 0.051497 -0.032205 762231.000000 0 0 1
-7.042876 24.496371 22.952799 34.300223 -1.290840 0.837700 0.047027 -0.032499 -327982.000000 0 0 1
-5.629576 24.632871 23.473799 34.488979 -1.346116 0.822191 0.050193 -0.032166 -758932.000000 0 0 1
-4.772276 25.285671 22.572199 34.229285 -1.384256 0.850721 0.062840 -0.027739 269673.000000 0 0 1
-3.451176 25.324571 23.134799 34.474098 -1.435353 0.835135 0.061864 -0.028790 789154.000000 0 0 1
-2.411776 25.798871 22.064699 34.033063 -1.477583 0.865406 0.065406 -0.017421 868.572000 0 0 1
-2.087976 24.714871 21.171099 32.609813 -1.486514 0.864232 0.036819 -0.011527 146855.000000 0 0 1
-1.465476 25.157071 19.990199 32.165726 -1.512609 0.900172 0.038094 -0.004343 -118304.000000 0 0 1
-1.107076 24.088571 18.964299 30.677834 -1.524870 0.904376 0.029991 -0.008508 240588.000000 0 0 1
-0.153276 23.169371 19.531399 30.303775 -1.564181 0.870401 0.040931 -0.008133 272635.000000 0 0 1
0.186924 22.149571 18.655499 28.959732 1.562357 0.870836 0.037354 -0.010039 -266491.000000 0 0 1
1.453024 21.402671 19.094599 28.719146 1.503010 0.843472 0.046832 -0.013860 219574.000000 0 0 1
2.698224 22.045471 18.896199 29.160754 1.449008 0.865839 0.046368 -0.012038 451843.000000 0 0 1
3.779324 21.096871 18.973299 28.624244 1.393535 0.846191 0.055078 -0.011674 247980.000000 0 0 1
5.165624 21.741071 18.793899 29.198776 1.337524 0.871534 0.057779 -0.006275 -848975.000000 0 0 1
6.075324 20.731971 18.988199 28.762404 1.285736 0.849746 0.066423 -0.018243 -1470800.000000 0 0 1
7.351924 21.215271 18.738799 29.245190 1.237208 0.875324 0.093862 -0.021449 -434447.000000 0 0 1
8.481824 20.196571 18.413899 28.616682 1.173199 0.871777 0.087659 -0.016809 -5043.480000 0 0 1
8.891824 19.512571 19.520099 28.997228 1.143215 0.832307 0.087112 -0.019990 510669.000000 0 0 1
10.049524 18.705071 19.178399 28.612648 1.077785 0.836214 0.088430 -0.027080 871924.000000 0 0 1
10.618024 17.829571 20.291299 29.023660 1.033671 0.796617 0.086231 -0.027972 -358008.000000 0 0 1
9.699624 16.904071 20.833999 28.528685 1.049861 0.752061 0.079879 -0.027607 63762.900000 0 0 1
10.300924 16.204871 21.918299 29.139642 1.004562 0.719430 0.079014 -0.031122 -252677.000000 0 0 1
9.344824 15.166071 22.448899 28.658132 1.018574 0.670784 0.069717 -0.035887 117231.000000 0 0 1
8.447324 15.700371 23.440899 29.450547 1.077187 0.650236 0.078225 -0.021926 407190.000000 0 0 1
7.328024 14.891971 23.792399 29.009464 1.113506 0.609106 0.071183 -0.022530 366305.000000 0 0 1
7.603624 13.653071 24.679199 29.211031 1.062658 0.564495 0.087146 -0.016994 -455898.000000 0 0 1
7.864924 14.040271 25.980199 30.560710 1.060179 0.554588 0.099735 -0.019639 -78101.900000 0 0 1
8.311124 12.919071 26.778599 30.871841 0.999130 0.520819 0.123727 -0.023308 -299855.000000 0 0 1
9.215024 13.521571 27.875899 32.323603 0.972591 0.530803 0.101458 -0.021630 830445.000000 0 0 1
10.576224 13.843571 27.500399 32.554154 0.918407 0.564683 0.129015 -0.024725 1156670.000000 0 0 1
10.656224 15.083071 26.833999 32.574801 0.955720 0.602775 0.101329 -0.024658 -695956.000000 0 0 1
11.909724 15.105271 25.936599 32.291143 0.903139 0.638130 0.120013 -0.034010 -114644.000000 0 0 1
11.814424 14.403771 24.743299 30.972247 0.883840 0.645355 0.117055 -0.042176 -185527.000000 0 0 1
13.091124 13.953271 24.368299 30.982016 0.817266 0.665626 0.140728 -0.056705 -731130.000000 0 0 1
13.088524 12.935571 23.169799 29.588479 0.779521 0.671212 0.107123 -0.044134 -149376.000000 0 0 1
12.664024 11.625371 23.465799 29.089010 0.742663 0.632268 0.114056 -0.035813 1092940.000000 0 0 1
11.244724 11.537971 23.706099 28.662654 0.798269 0.596917 0.114026 -0.024059 399939.000000 0 0 1
10.845024 10.203071 24.359099 28.549657 0.754908 0.548671 0.123010 -0.020814 -157264.000000 0 0 1
10.945624 9.129971 23.468999 27.458277 0.695203 0.545795 0.120391 -0.015605 311983.000000 0 0 1
10.534824 7.925371 24.100999 27.470934 0.644973 0.500532 0.123855 -0.021889 8160.760000 0 0 1
10.999824 6.697071 23.261399 26.588336 0.546890 0.505624 0.125449 -0.018594 202727.000000 0 0 1
12.384324 6.379071 23.326699 27.169817 0.475648 0.538358 0.141016 -0.016989 552485.000000 0 0 1
12.699824 5.264071 22.493099 26.361629 0.392943 0.548608 0.150624 -0.029288 233.248000 0 0 1
12.371024 3.856771 22.997099 26.396657 0.302209 0.513129 0.143451 -0.028222 238264.000000 0 0 1
13.457224 3.325471 23.768399 27.515313 0.242261 0.527984 0.141500 -0.024565 620058.000000 0 0 1
13.197824 2.053971 24.211699 27.651541 0.154391 0.504119 0.123003 -0.021235 -16731.800000 0 0 1
14.483024 1.463471 24.857799 28.806422 0.100706 0.529765 0.086607 -0.014280 272665.000000 0 0 1
15.397124 0.914771 23.948999 28.486186 0.059342 0.572179 0.115438 -0.025090 -1086300.000000 0 0 1
16.700524 1.262371 24.241799 29.464655 0.075445 0.604579 0.117272 -0.029077 -1000700.000000 0 0 1
17.636424 0.447571 23.315399 29.237846 0.025372 0.647757 0.120274 -0.030273 -320796.000000 0 0 1
17.803024 -0.957029 23.668699 29.632261 -0.053705 0.645585 0.112867 -0.028735 -11970.600000 0 0 1
18.786624 -1.479029 22.821799 29.596610 -0.078566 0.690237 0.139683 -0.025759 -213833.000000 0 0 1
18.953324 -2.996129 23.061199 30.000403 -0.156782 0.693996 0.130786 -0.022449 911780.000000 0 0 1
17.720424 -3.718929 22.805899 29.119631 -0.206865 0.671033 0.126618 -0.018787 1132920.000000 0 0 1
17.876524 -5.075729 23.058799 29.614884 -0.276652 0.678330 0.146147 -0.015741 -370420.000000 0 0 1
16.919624 -6.070829 22.432399 28.746151 -0.344496 0.675552 0.135063 -0.017753 -486965.000000 0 0 1
17.038924 -6.096329 21.033699 27.747192 -0.343596 0.710482 0.134518 -0.017604 298007.000000 0 0 1
16.451024 -7.281929 20.403699 27.202456 -0.416719 0.722631 0.157992 -0.030554 -132000.000000 0 0 1
17.129524 -8.642229 20.550899 28.114910 -0.467259 0.751067 0.169913 -0.041090 -154311.000000 0 0 1
17.131224 -9.079829 21.886299 29.239224 -0.487371 0.724961 0.146034 -0.031755 -438210.000000 0 0 1
17.968824 -10.154529 22.103099 30.241364 -0.514377 0.751172 0.132964 -0.037433 -458830.000000 0 0 1
17.737824 -11.026229 23.353699 31.330551 -0.556167 0.729666 0.135445 -0.035884 -1348030.000000 0 0 1
16.583724 -11.700129 23.154099 30.790018 -0.614420 0.719705 0.152790 -0.041039 -1333720.000000 0 0 1
16.293124 -12.686129 24.146599 31.772032 -0.661567 0.707490 0.159056 -0.034259 333932.000000 0 0 1
15.094524 -13.655029 23.905299 31.396939 -0.735370 0.705343 0.159699 -0.037103 337867.000000 0 0 1
15.304524 -14.478029 22.771799 31.022518 -0.757654 0.746543 0.190364 -0.046347 827020.000000 0 0 1
14.090024 -15.166829 22.429899 30.523137 -0.822187 0.745352 0.182014 -0.044441 522196.000000 0 0 1
14.192224 -16.039729 21.153499 30.102536 -0.846433 0.791590 0.190251 -0.046912 -456400.000000 0 0 1
14.955424 -17.156729 21.354799 31.209702 -0.853842 0.817241 0.198593 -0.044433 -217799.000000 0 0 1
14.972224 -17.916629 20.173499 30.856817 -0.874686 0.858230 0.182379 -0.035185 -105744.000000 0 0 1
-24.570176 -31.287056 25.408855 47.203637 0.905074 1.002399 0.066897 -0.030526 -650037.000000 0 0 1
-24.972576 -32.608256 25.499845 48.344286 0.917237 1.015184 0.067641 -0.020128 -97999.300000 0 0 1
-26.239116 -32.749856 26.087075 49.412344 0.895325 1.014615 0.051636 -0.027215 -319244.000000 0 0 1
-26.269206 -33.052956 27.588465 50.435032 0.899258 0.992008 0.043518 -0.024224 -159533.000000 0 0 1
-27.545246 -32.917756 28.185245 51.349073 0.874022 0.989755 0.071412 -0.027097 396997.000000 0 0 1
-27.469306 -33.208356 29.587165 52.275788 0.879700 0.969172 0.059474 -0.029196 815488.000000 0 0 1
-28.751256 -32.644256 30.327025 53.028394 0.848722 0.961974 0.054548 -0.034018 624040.000000 0 0 1
-28.831556 -31.222156 30.197575 52.134204 0.825185 0.953015 0.043878 -0.030263 39864.000000 0 0 1
-29.820206 -30.568856 30.947965 52.739702 0.797795 0.943688 0.049961 -0.014751 -360933.000000 0 0 1
-30.022256 -29.093356 30.658635 51.843140 0.769686 0.938036 0.039917 -0.021562 -283859.000000 0 0 1
-30.930556 -28.945356 29.603925 51.680996 0.752255 0.960854 0.039104 -0.012966 96778.600000 0 0 1
-31.103876 -27.601456 29.270795 50.853426 0.725808 0.957469 0.035580 -0.009094 -510062.000000 0 0 1
-31.600846 -27.388856 27.874695 50.256955 0.714117 0.982862 0.025519 -0.018842 -337940.000000 0 0 1
-30.698026 -27.299456 26.794645 49.046734 0.726867 0.992846 0.030193 -0.024934 189911.000000 0 0 1
-29.953866 -26.058556 26.708475 47.850027 0.715966 0.978617 0.022854 -0.015796 367744.000000 0 0 1
-29.018846 -26.010056 25.461965 46.550275 0.730776 0.992047 0.026694 -0.011228 230140.000000 0 0 1
-29.696776 -26.054356 24.236385 46.347927 0.720157 1.020520 0.015224 -0.013904 546630.000000 0 0 1
-28.748696 -25.644656 23.246585 44.994884 0.728393 1.027863 0.027877 0.004888 493878.000000 0 0 1
-29.253616 -26.039956 21.844515 44.844578 0.727344 1.062012 0.029611 0.003520 -236022.000000 0 0 1
-30.273196 -25.244056 21.338015 44.822312 0.695058 1.074630 0.034992 -0.006939 -302163.000000 0 0 1
-30.763266 -25.816656 20.144015 44.929496 0.698193 1.105881 0.032015 0.004182 -199010.000000 0 0 1
-31.440326 -24.729956 19.292515 44.410201 0.666497 1.121406 0.047834 0.004916 682592.000000 0 0 1
-32.665866 -24.313656 19.956115 45.348199 0.639852 1.115126 0.071502 -0.009294 778700.000000 0 0 1
-33.200396 -23.196656 19.283815 44.857738 0.609844 1.126427 0.070814 0.001369 823967.000000 0 0 1
-34.691465 -22.861556 19.674515 45.969936 0.582674 1.128533 0.074523 0.002763 551752.000000 0 0 1
-35.623485 -23.878856 19.482815 47.104273 0.590522 1.144380 0.060596 -0.004384 313448.000000 0 0 1
-36.916606 -23.294956 19.295915 47.726545 0.562913 1.154581 0.054101 -0.013717 559934.000000 0 0 1
37.683488 -23.978456 18.192615 48.228445 -0.566692 1.184006 0.065628 -0.016013 -27908.100000 0 0 1
37.288688 -25.338756 18.322215 48.664180 -0.596855 1.184778 0.052659 -0.008395 -301443.000000 0 0 1
36.471648 -25.759856 17.251115 47.868072 -0.614940 1.202112 0.066823 -0.009210 85128.500000 0 0 1
35.903818 -27.160956 17.552015 48.320544 -0.647643 1.199052 0.076214 0.001868 251870.000000 0 0 1
34.934518 -27.295756 18.619715 48.085056 -0.663259 1.173177 0.079674 -0.010225 28776.700000 0 0 1
35.323878 -26.886956 19.923015 48.658106 -0.650602 1.148946 0.090792 -0.001761 -862813.000000 0 0 1
34.253448 -26.940256 21.002715 48.375512 -0.666453 1.121691 0.083987 -0.006152 -558586.000000 0 0 1
33.147668 -26.114356 20.778415 47.036901 -0.667269 1.113251 0.083198 -0.006354 -580504.000000 0 0 1
32.614988 -25.724156 22.030715 47.019380 -0.667826 1.083153 0.093789 0.000791 -204985.000000 0 0 1
31.466388 -24.712456 21.848615 45.587291 -0.665750 1.070974 0.103541 0.006395 -254496.000000 0 0 1
31.750728 -23.459256 21.218615 44.818245 -0.636332 1.077608 0.077319 0.008023 37180.200000 0 0 1
32.767578 -22.658456 21.806315 45.416244 -0.604992 1.069978 0.089045 -0.006515 207051.000000 0 0 1
33.141498 -21.348856 21.050415 44.690631 -0.572268 1.080344 0.077753 -0.003056 -558916.000000 0 0 1
32.181418 -20.362556 21.117215 43.545541 -0.564148 1.064495 0.072743 -0.008381 -256887.000000 0 0 1
32.762858 -19.119556 20.683815 43.206279 -0.528254 1.071597 0.072299 -0.005191 -178965.000000 0 0 1
31.787088 -17.905356 20.810615 42.001220 -0.512990 1.052413 0.045776 0.002414 260904.000000 0 0 1
31.274208 -17.610756 22.112315 42.156486 -0.512851 1.018634 0.077304 -0.019805 348123.000000 0 0 1
30.424898 -18.565956 22.708105 42.261415 -0.547902 1.003534 0.079458 -0.017821 -776393.000000 0 0 1
30.176398 -18.369056 24.222475 42.834163 -0.546809 0.969764 0.069932 -0.017560 320775.000000 0 0 1
29.465998 -17.127356 24.478715 41.961874 -0.526525 0.947942 0.063254 -0.016573 482302.000000 0 0 1
29.376098 -16.740456 25.803765 42.532721 -0.517968 0.918918 0.070195 -0.018851 -194762.000000 0 0 1
29.390298 -15.180156 26.102915 42.137738 -0.476762 0.902733 0.023782 -0.013151 324771.000000 0 0 1
28.158198 -14.438256 26.009285 40.961327 -0.473799 0.882824 0.044210 -0.009223 616489.000000 0 0 1
28.269398 -12.977956 26.197485 40.668101 -0.430380 0.870849 0.030687 -0.014996 -352472.000000 0 0 1
29.138798 -12.178456 25.215765 40.413106 -0.395881 0.897009 0.039760 -0.021458 -100970.000000 0 0 1
28.636798 -12.039556 23.869555 39.176176 -0.397987 0.915635 0.034812 -0.013621 409467.000000 0 0 1
29.419598 -11.064056 23.167645 39.046970 -0.359715 0.935610 0.043252 -0.007885 869284.000000 0 0 1
30.685488 -11.594856 22.400015 39.721538 -0.361277 0.971664 0.050568 -0.010925 240029.000000 0 0 1
30.405998 -12.439756 21.303515 39.154974 -0.388345 0.995502 0.035461 -0.011838 41785.700000 0 0 1
30.209098 -13.779656 21.735415 39.684970 -0.427950 0.991185 0.053559 -0.014991 -842302.000000 0 0 1
29.724698 -14.641756 20.577515 39.004780 -0.457693 1.015066 0.054927 -0.017668 -582860.000000 0 0 1
30.560858 -14.746956 19.440715 39.107291 -0.449585 1.050529 0.057164 -0.014656 -251822.000000 0 0 1
29.963598 -15.625856 18.544615 38.547209 -0.480695 1.068901 0.066264 -0.024054 -604361.000000 0 0 1
30.490258 -15.614156 17.117015 38.294254 -0.473283 1.107403 0.084820 -0.029392 -326153.000000 0 0 1
29.955098 -16.703456 16.312115 37.978921 -0.508672 1.126852 0.078640 -0.036052 2141240.000000 0 0 1
28.498198 -16.809356 16.155815 36.819996 -0.532915 1.116558 0.104633 -0.043837 1516410.000000 0 0 1
27.845598 -15.627456 15.322915 35.417319 -0.511415 1.123378 0.113962 -0.034811 -726539.000000 0 0 1
27.970298 -15.837156 13.915215 35.025509 -0.515206 1.162237 0.133290 -0.045098 442087.000000 0 0 1
26.976698 -16.767656 13.484615 34.506976 -0.556122 1.169318 0.149031 -0.057228 -220426.000000 0 0 1
27.192698 -17.396056 12.080715 34.467511 -0.569123 1.212696 0.132388 -0.035748 -427943.000000 0 0 1
26.846098 -16.501556 11.016515 33.382300 -0.551138 1.234481 0.144620 -0.034605 -18940.400000 0 0 1
26.782998 -17.218856 9.791815 33.312125 -0.571370 1.272448 0.130784 -0.035341 481978.000000 0 0 1
28.147898 -17.601256 9.107515 34.424631 -0.558825 1.303045 0.142056 -0.021694 437577.000000 0 0 1
28.855598 -18.470156 9.916815 35.667008 -0.569376 1.289044 0.140888 -0.012996 -470164.000000 0 0 1
30.245698 -18.371656 9.664515 36.684095 -0.545853 1.304197 0.133145 -0.000040 -148609.000000 0 0 1
31.132788 -19.258756 10.537915 38.094591 -0.553984 1.290516 0.121724 -0.022111 -140471.000000 0 0 1
31.391618 -18.767656 11.849715 38.445733 -0.538841 1.257476 0.120681 -0.042789 163719.000000 0 0 1
31.620038 -19.793056 12.800915 39.439261 -0.559293 1.240236 0.080556 -0.033162 -64434.500000 0 0 1
31.429838 -19.192556 14.210115 39.472982 -0.548212 1.202533 0.093925 -0.026153 46321.300000 0 0 1
31.440508 -20.246856 15.138615 40.343753 -0.572127 1.186140 0.100576 -0.024791 170276.000000 0 0 1
31.208268 -19.761656 16.461615 40.440868 -0.564488 1.151570 0.100504 -0.033164 -134492.000000 0 0 1
30.776148 -20.841256 17.467615 41.068806 -0.595252 1.131475 0.094727 -0.020371 -273911.000000 0 0 1
29.470598 -21.277256 17.207215 40.215992 -0.625327 1.128662 0.048300 -0.011171 -281142.000000 0 0 1
29.180298 -22.456156 17.994315 40.982486 -0.655906 1.116229 0.067991 -0.014116 317723.000000 0 0 1
27.757498 -22.964156 17.681715 40.130714 -0.691175 1.114526 0.073516 -0.002792 -284995.000000 0 0 1
26.671898 -22.304856 18.221715 39.254651 -0.696468 1.088074 0.087469 0.002227 417187.000000 0 0 1
25.434298 -23.010556 17.943715 38.708735 -0.735409 1.088791 0.090140 -0.008689 1144830.000000 0 0 1
24.223698 -22.479756 18.761215 38.001450 -0.748075 1.054460 0.076241 0.002003 -207695.000000 0 0 1
23.779698 -21.266656 18.247115 36.751897 -0.729668 1.051241 0.073559 -0.007760 725562.000000 0 0 1
22.577198 -20.701156 18.824315 35.953061 -0.742077 1.019748 0.072494 -0.006304 981137.000000 0 0 1
22.688998 -20.163056 20.297615 36.514828 -0.726521 0.981383 0.059162 -0.001566 -221193.000000 0 0 1
22.834498 -21.252756 21.175115 37.702513 -0.749536 0.974434 0.070335 -0.000827 -218601.000000 0 0 1
23.436598 -20.829456 22.382415 38.524186 -0.726569 0.950844 0.044964 0.004985 63894.000000 0 0 1
23.786698 -22.043956 23.286135 39.924768 -0.747391 0.948072 0.059298 0.009619 433208.000000 0 0 1
22.689798 -22.565456 24.057095 40.034617 -0.782651 0.926161 0.063756 0.003871 140474.000000 0 0 1
23.055798 -23.457256 25.027635 41.330318 -0.794029 0.920338 0.067549 0.000877 -747660.000000 0 0 1
21.958198 -23.928256 25.976145 41.587066 -0.828305 0.896150 0.085029 -0.012895 -855247.000000 0 0 1
21.109698 -24.790556 25.317145 41.244986 -0.865419 0.909901 0.091924 -0.005997 -380330.000000 0 0 1
20.074898 -25.254556 26.157665 41.533331 -0.899172 0.889501 0.102355 -0.025748 -407760.000000 0 0 1
19.266898 -26.374756 25.501245 41.438565 -0.939889 0.907904 0.106927 -0.024117 -434620.000000 0 0 1
18.495998 -25.874256 24.443975 40.113427 -0.950179 0.915529 0.114830 -0.023862 38599.100000 0 0 1
17.823598 -26.878056 23.717835 40.033065 -0.985247 0.936692 0.104334 -0.026256 -411434.000000 0 0 1
17.029898 -26.286656 22.536815 38.586445 -0.995932 0.947074 0.104754 -0.032121 -376212.000000 0 0 1
15.736598 -25.944456 22.953685 38.047694 -1.025575 0.923180 0.096513 -0.032035 -637697.000000 0 0 1
15.052198 -25.238256 21.945515 36.676203 -1.033025 0.929346 0.071599 -0.029294 58796.600000 0 0 1
13.607698 -24.922156 22.392515 36.162246 -1.071023 0.903043 0.057471 -0.021121 228628.000000 0 0 1
12.676598 -26.003756 22.291715 36.521392 -1.117206 0.914263 0.063999 -0.030603 183341.000000 0 0 1
11.395498 -25.412256 22.134415 35.574886 -1.149253 0.899257 0.070507 -0.015469 29844.900000 0 0 1
10.183098 -26.338956 22.103815 35.861048 -1.201880 0.906667 0.067134 -0.022463 -276627.000000 0 0 1
10.012398 -27.142456 20.931315 35.708276 -1.217399 0.944466 0.080433 -0.028432 -15660.900000 0 0 1
8.675798 -27.582656 20.905315 35.680591 -1.266056 0.944804 0.092445 -0.033269 -272512.000000 0 0 1
8.202198 -28.413056 19.741615 35.557126 -1.289760 0.982183 0.117516 -0.040694 45193.900000 0 0 1
8.764698 -29.747656 19.775015 36.780351 -1.284269 1.003147 0.126333 -0.041093 356917.000000 0 0 1
8.404398 -30.530556 18.660315 36.755355 -1.302171 1.038295 0.127886 -0.044565 -10502.900000 0 0 1
9.121998 -31.878556 18.774515 38.104273 -1.292095 1.055590 0.127664 -0.038612 67224.200000 0 0 1
8.604098 -32.736856 19.788515 39.208642 -1.313783 1.041764 0.121601 -0.041679 301567.000000 0 0 1
9.349898 33.772471 19.782415 40.241078 1.300711 1.056873 0.114477 -0.046259 139126.000000 0 0 1
8.872898 32.615971 20.731615 39.652614 1.305183 1.020628 0.125791 -0.053874 -27250.500000 0 0 1
7.661598 32.036271 20.300515 38.692812 1.336052 1.018482 0.124512 -0.054489 -82950.000000 0 0 1
7.652598 30.738971 20.970515 37.989592 1.326802 0.986027 0.124620 -0.059102 -240216.000000 0 0 1
6.544098 29.781671 20.529315 36.759025 1.354498 0.978240 0.111865 -0.049909 -462781.000000 0 0 1
5.236998 30.115071 20.882315 37.019113 1.398619 0.971459 0.130465 -0.050871 -192179.000000 0 0 1
4.311398 29.095471 20.512415 35.859361 1.423686 0.961825 0.130367 -0.041913 480652.000000 0 0 1
2.897798 29.128571 21.141515 36.108649 1.471640 0.945303 0.106835 -0.034575 194439.000000 0 0 1
2.819798 29.066471 22.575385 36.911503 1.474087 0.912704 0.083591 -0.032515 530361.000000 0 0 1
1.433198 28.834571 22.842175 36.813741 1.521133 0.901442 0.069355 -0.023872 578864.000000 0 0 1
1.218798 28.339671 24.264065 37.327835 1.527816 0.863178 0.065826 -0.015798 -236267.000000 0 0 1
1.176498 29.286871 25.311225 38.726775 1.530646 0.858485 0.074139 -0.021780 50140.500000 0 0 1
1.207198 28.711271 26.608055 39.163542 1.528775 0.823840 0.083650 -0.023977 -610482.000000 0 0 1
2.468298 28.066371 27.169035 39.140390 1.483077 0.803567 0.061399 -0.020570 -735449.000000 0 0 1
2.779798 26.822971 26.569615 37.856882 1.467530 0.792814 0.059746 -0.019928 152372.000000 0 0 1
3.607598 26.083771 27.451305 38.038823 1.433360 0.764591 0.044300 -0.013469 -191438.000000 0 0 1
4.029398 24.660971 26.977135 36.771801 1.408836 0.747138 0.048337 -0.003999 232765.000000 0 0 1
3.014398 23.691671 26.710865 35.830883 1.444242 0.729556 0.053891 -0.003694 4817.120000 0 0 1
3.596698 22.469171 26.298675 34.776719 1.412070 0.713287 0.056573 -0.000681 242570.000000 0 0 1
2.582298 21.285071 26.316665 33.945388 1.450067 0.683662 0.071080 -0.000821 81852.800000 0 0 1
3.084298 19.965371 26.584755 33.389791 1.417526 0.649818 0.087539 0.002508 332456.000000 0 0 1
3.906998 19.536271 25.474965 32.340445 1.373413 0.663710 0.095716 -0.004504 276157.000000 0 0 1
4.467498 18.071571 25.517895 31.586440 1.328444 0.630259 0.091558 -0.009174 137494.000000 0 0 1
5.528298 17.893371 26.440475 32.401135 1.271142 0.616278 0.074509 -0.008304 444520.000000 0 0 1
6.792398 17.771571 25.792315 32.050100 1.205723 0.635542 0.079815 -0.009283 -319988.000000 0 0 1
8.020598 17.731071 26.733905 33.066941 1.145992 0.629234 0.074939 -0.018767 -49459.800000 0 0 1
8.366998 18.897571 27.379705 34.304127 1.153983 0.646585 0.064142 -0.012664 -74508.500000 0 0 1
8.878998 19.853771 26.472315 34.260653 1.150257 0.687754 0.057054 -0.018272 -645462.000000 0 0 1
9.371598 21.160771 27.197365 35.711367 1.153882 0.705036 0.048563 -0.013697 163860.000000 0 0 1
10.516598 20.910171 27.985755 36.483374 1.104798 0.696515 0.065960 -0.026518 -95221.500000 0 0 1
10.802998 22.023871 28.794845 37.827223 1.114767 0.705604 0.083075 -0.034790 -512526.000000 0 0 1
11.991298 21.816171 29.703025 38.755726 1.068220 0.697553 0.092881 -0.033081 -462484.000000 0 0 1
13.226098 21.565971 29.078225 38.543015 1.020665 0.716002 0.086094 -0.041020 14251.000000 0 0 1
14.245298 21.341571 30.049335 39.513969 0.982224 0.706754 0.093624 -0.029880 893941.000000 0 0 1
15.651398 20.928071 29.527565 39.431301 0.928662 0.724493 0.084713 -0.034351 712783.000000 0 0 1
16.311798 21.921771 28.783885 39.688170 0.931088 0.759397 0.077047 -0.035842 -138960.000000 0 0 1
17.634998 21.621671 28.402065 39.814157 0.886605 0.776507 0.147406 -0.036228 31397.100000 0 0 1
-8.989976 16.908771 4.761199 19.733100 -1.082131 1.327112 0.050729 -0.016961 57819.500000 0 1 0
-8.743076 18.226971 5.117399 20.853096 -1.123538 1.322862 0.063824 -0.021755 -574315.000000 0 1 0
-7.384276 18.352171 5.394999 20.504529 -1.188253 1.304549 0.064757 -0.018832 -693044.000000 0 1 0
-7.094576 19.873671 5.742499 21.869433 -1.227914 1.305100 0.076705 -0.019052 -116111.000000 0 1 0
-7.229976 20.895471 4.758699 22.617216 -1.237683 1.358811 0.088050 -0.030448 -75290.600000 0 1 0
-8.546776 21.080071 4.285999 23.147064 -1.185606 1.384558 0.088093 -0.033155 33081.500000 0 1 0
-8.720776 22.299471 3.348499 24.177071 -1.198007 1.431851 0.132405 -0.040664 54234.800000 0 1 0
-8.093976 22.216071 2.068899 23.734924 -1.221413 1.483519 0.104603 -0.040909 -78629.500000 0 1 0
-8.610476 21.279071 1.102199 22.981601 -1.186292 1.522818 0.117247 -0.044880 -1009790.000000 0 1 0
-7.888276 21.218771 -0.262701 22.639129 -1.214870 1.582400 0.082026 -0.024052 609974.000000 0 1 0
-6.611976 20.580571 -0.282901 21.618468 -1.259939 1.583883 0.064979 -0.023576 891762.000000 0 1 0
-5.556076 21.351671 0.338299 22.065318 -1.316225 1.555464 0.070148 -0.029708 -293088.000000 0 1 0
-4.158976 21.043371 -0.202901 21.451380 -1.375673 1.580255 0.055968 -0.025194 -350603.000000 0 1 0
-4.094476 21.303671 -1.612901 21.753450 -1.380916 1.645009 0.049727 -0.030205 -216802.000000 0 1 0
-2.763776 21.473571 -2.028101 21.745480 -1.442794 1.664197 0.040617 -0.016843 -209022.000000 0 1 0
-2.730976 21.709171 -3.592101 22.173171 -1.445655 1.733516 0.039934 -0.010640 479665.000000 0 1 0
-1.488376 22.234971 -4.052801 22.650263 -1.503958 1.750695 0.056582 -0.009190 278053.000000 0 1 0
-1.452076 22.249071 -5.478101 22.959514 -1.505624 1.811719 0.061920 -0.027854 1001490.000000 0 1 0
-0.166476 22.929571 -6.124501 23.733994 -1.563536 1.831797 0.070377 -0.026862 1703550.000000 0 1 0
1.054124 22.183371 -5.995301 23.003408 1.523313 1.834468 0.049554 -0.013518 112267.000000 0 1 0
2.086424 22.775071 -6.742801 23.843708 1.479441 1.857500 0.058105 -0.009857 321068.000000 0 1 0
3.284424 21.768971 -6.871001 23.062658 1.421049 1.873317 0.055713 -0.004994 330525.000000 0 1 0
2.969324 20.764071 -7.793301 22.376306 1.428756 1.926536 0.056060 -0.017370 74326.200000 0 1 0
3.882524 19.673571 -7.819401 21.523625 1.375953 1.942597 0.051063 -0.019880 372895.000000 0 1 0
3.533924 18.712671 -8.985101 21.056702 1.384143 2.011648 0.049059 -0.021588 32667.200000 0 1 0
3.962024 19.224471 -10.220301 22.129900 1.367549 2.050856 0.057534 -0.028501 106253.000000 0 1 0
3.121224 18.744471 -11.250901 22.083478 1.405796 2.105367 0.058176 -0.033449 12635.500000 0 1 0
3.595724 19.206771 -12.631601 23.267716 1.385727 2.144660 0.063056 -0.032306 82673.800000 0 1 0
3.663624 20.576571 -12.846301 24.532527 1.394594 2.121919 0.101309 -0.036910 -164046.000000 0 1 0
4.123024 20.676871 -14.155101 25.394866 1.373975 2.162047 0.118817 -0.042761 91322.800000 0 0 1
4.373224 22.159471 -14.658901 26.926764 1.375948 2.146469 0.110724 -0.039376 -153657.000000 0 0 1
3.197824 22.920471 -14.665201 27.397850 1.432173 2.135622 0.130486 -0.042418 -466202.000000 0 0 1
3.423824 24.291971 -14.946701 28.726752 1.430774 2.118006 0.118556 -0.039816 -309529.000000 0 0 1
2.149724 25.000971 -15.400401 29.442184 1.485022 2.121248 0.118921 -0.030341 -595160.000000 0 0 1
1.253724 25.409071 -14.433101 29.249053 1.521495 2.086854 0.113160 -0.038374 -543062.000000 0 0 1
1.280424 26.834671 -14.151501 30.364519 1.523117 2.055622 0.092206 -0.026564 -762543.000000 0 0 1
0.330924 27.168571 -12.965401 30.105521 1.558617 2.016026 0.103150 -0.033483 1347570.000000 0 0 1
-1.084276 26.967571 -13.236801 30.060580 -1.530611 2.026771 0.078849 -0.034436 1339340.000000 0 0 1
-1.593476 25.639071 -13.384001 28.966060 -1.508726 2.051111 0.080124 -0.036684 -502943.000000 0 0 1
-1.409376 24.747271 -12.145801 27.603156 -1.513907 2.026412 0.104346 -0.040567 -650616.000000 0 0 1
-2.239876 25.094271 -11.084301 27.524556 -1.481774 1.985267 0.096051 -0.029309 -324333.000000 0 0 1
-2.437976 23.991371 -10.248201 26.202199 -1.469525 1.972644 0.110550 -0.027732 345544.000000 0 0 1
-3.438676 24.190171 -9.042601 26.052975 -1.429591 1.925258 0.081453 -0.019241 372299.000000 0 0 1
-2.994976 24.676671 -7.760901 26.041113 -1.450018 1.873419 0.100910 -0.029356 -118665.000000 0 0 1
-2.419376 26.011571 -7.792101 27.261182 -1.478052 1.860670 0.097294 -0.031425 321862.000000 0 0 1
-2.049776 26.599371 -6.425501 27.441122 -1.493887 1.807147 0.096607 -0.025931 -233424.000000 0 0 1
-1.047176 25.911671 -5.756101 26.563960 -1.530405 1.789217 0.095424 -0.034386 -615859.000000 0 0 1
-0.984876 26.238271 -4.385701 26.620504 -1.533278 1.736300 0.092829 -0.036711 -476818.000000 0 0 1
-1.966376 25.580171 -3.415401 25.881977 -1.494076 1.703143 0.088857 -0.031666 -715452.000000 0 0 1
-3.225676 26.182071 -3.363401 26.593576 -1.448212 1.697610 0.082066 -0.027624 -250089.000000 0 0 1
-4.002176 25.791671 -2.215801 26.194226 -1.416851 1.655489 0.080976 -0.024307 -431453.000000 0 0 1
-4.920976 24.620471 -2.397101 25.221612 -1.373523 1.665982 0.086242 -0.029851 -1277990.000000 0 0 1
-6.052976 25.097771 -3.077801 26.000182 -1.334140 1.689451 0.079564 -0.022211 -680421.000000 0 0 1
-6.958476 24.051371 -3.394201 25.266765 -1.289169 1.705538 0.045910 -0.025157 -174371.000000 0 0 1
-8.296776 24.709471 -3.748701 26.333386 -1.246852 1.713637 0.059241 -0.017378 -294741.000000 0 0 1
-9.020076 25.080571 -2.593501 26.779153 -1.225556 1.667796 0.093772 -0.021283 -1219650.000000 0 0 1
-10.137476 25.846871 -2.822201 27.906880 -1.197021 1.672099 0.110877 -0.022466 -516674.000000 0 0 1
-11.053676 26.050771 -1.570301 28.342411 -1.169508 1.626229 0.121730 -0.029760 146275.000000 0 0 1
-11.947076 25.012871 -1.304601 27.750285 -1.125199 1.617826 0.127650 -0.029313 -257788.000000 0 0 1
-11.273676 23.924871 -0.715601 26.457651 -1.130444 1.597847 0.155000 -0.037301 -225092.000000 0 0 1
-12.092776 22.632571 -0.480001 25.665130 -1.080080 1.589500 0.157702 -0.031776 -246147.000000 0 0 1
-12.907576 22.735871 0.650799 26.152416 -1.054451 1.545909 0.164469 -0.036041 -49725.200000 0 0 1
-13.544376 21.470271 0.917499 25.402056 -1.008006 1.534669 0.145296 -0.033468 -399252.000000 0 0 1
-14.416376 21.452771 2.163799 25.937141 -0.979107 1.487275 0.155125 -0.040221 -395560.000000 0 0 1
-13.875876 21.564571 3.473299 25.877296 -0.999034 1.436168 0.139156 -0.032631 -45086.100000 0 0 1
-13.271376 22.806171 3.865899 26.668259 -1.043777 1.425321 0.142382 -0.036305 99071.700000 0 0 1
-13.043776 22.915171 5.318399 26.898523 -1.053317 1.371764 0.138948 -0.037789 149288.000000 0 0 1
-11.918976 22.161071 5.782899 25.818927 -1.077342 1.344901 0.126305 -0.037762 414567.000000 0 0 1
-11.958076 21.981771 7.148599 26.024917 -1.072572 1.292536 0.101027 -0.038086 -317282.000000 0 0 1
-10.574376 21.625971 7.711099 25.277680 -1.116014 1.260799 0.090081 -0.038732 -75863.500000 0 0 1
-9.729976 22.779571 7.862199 25.988372 -1.167118 1.263453 0.098644 -0.041859 973064.000000 0 0 1
-8.607176 22.597771 8.761499 25.719771 -1.206875 1.223186 0.085280 -0.041920 675372.000000 0 0 1
-8.967776 22.587571 10.296699 26.393965 -1.192859 1.170039 0.052275 -0.033376 -272946.000000 0 0 1
-9.509776 21.344071 10.692199 25.696854 -1.151652 1.141655 0.064475 -0.036088 81620.600000 0 0 1
-9.234576 21.136171 12.023999 26.011376 -1.158882 1.090255 0.058495 -0.030781 -201735.000000 0 0 1
-9.994976 19.927871 12.612299 25.614247 -1.105903 1.055958 0.054221 -0.025554 -112191.000000 0 0 1
-9.635876 18.738871 11.939399 24.218684 -1.095839 1.055281 0.059267 -0.036994 5756.130000 0 1 0
-10.327876 17.645771 12.493199 23.960765 -1.041264 1.022303 0.064418 -0.032694 -18722.200000 0 1 0
-10.452976 16.385271 11.596299 22.632189 -1.002939 1.032841 0.066567 -0.041201 -132030.000000 0 1 0
-10.955576 15.247471 12.329699 22.461778 -0.947750 0.989726 0.062343 -0.033228 104528.000000 0 1 0
-11.443676 14.300771 11.399599 21.573609 -0.895925 1.014076 0.065604 -0.024611 -72699.500000 0 1 0
-11.674976 12.946971 12.009699 21.169837 -0.837013 0.967570 0.047576 -0.026366 353263.000000 0 1 0
-12.856676 12.905771 12.808599 22.269110 -0.787304 0.957980 0.056283 -0.023781 391925.000000 0 1 0
-13.248276 11.604671 13.049199 21.919553 -0.719361 0.933130 0.057894 -0.021500 297611.000000 0 1 0
-14.199976 11.431371 14.284499 23.159501 -0.677799 0.906141 0.066712 -0.026617 269241.000000 0 1 0
-15.455076 12.041471 14.207099 24.201199 -0.661883 0.943397 0.083953 -0.030755 -36167.300000 0 1 0
-16.205476 12.076971 15.413399 25.417387 -0.640448 0.919256 0.075249 -0.021864 483708.000000 0 0 1
-17.265176 13.224171 15.496999 26.704344 -0.653628 0.951678 0.078899 -0.016148 60473.600000 0 0 1
-18.380476 13.016471 14.670699 26.879357 -0.616187 0.993455 0.065848 -0.016368 -259020.000000 0 0 1
-19.271476 14.105471 14.872599 28.134468 -0.631839 1.013816 0.080477 -0.020544 311867.000000 0 0 1
-20.497776 13.992871 13.928499 28.459837 -0.598989 1.059384 0.091741 -0.015704 559332.000000 0 0 1
-21.515476 12.998971 14.192999 28.867459 -0.543479 1.056800 0.086398 -0.014956 304639.000000 0 0 1
-22.591076 13.270571 13.332699 29.397715 -0.531122 1.100076 0.070500 -0.014855 -168806.000000 0 0 1
-23.780876 12.309471 13.573799 30.021678 -0.477645 1.101641 0.077492 -0.023633 -94800.800000 0 0 1
-24.401876 12.560171 14.791599 31.176928 -0.475355 1.076468 0.093132 -0.015156 301052.000000 0 0 1
-25.310246 11.532771 15.221099 31.706390 -0.427548 1.070069 0.096182 -0.018397 216782.000000 0 0 1
-26.006666 11.787071 16.563899 33.009763 -0.425539 1.045132 0.097289 -0.013330 -123288.000000 0 0 1
-26.968546 12.819871 16.452199 34.092908 -0.443745 1.067210 0.100982 -0.001308 -53113.800000 0 0 1
-27.635346 13.210371 17.617299 35.335470 -0.445913 1.048845 0.076003 0.011060 -272603.000000 0 0 1
-28.815766 14.064871 17.137699 36.357526 -0.454079 1.079957 0.074879 0.007832 -406756.000000 0 0 1
-28.509586 15.439571 16.875099 36.550592 -0.496338 1.090895 0.095466 -0.000998 -1051950.000000 0 0 1
-29.608946 16.218471 16.617799 37.628177 -0.501119 1.113380 0.101340 -0.004582 -986711.000000 0 0 1
-29.357636 17.755071 16.446399 38.047304 -0.543931 1.123797 0.104249 -0.006093 -284810.000000 0 0 1
-28.964556 18.485371 17.611999 38.611358 -0.568040 1.097149 0.113438 -0.011169 192662.000000 0 0 1
-29.926136 18.497371 18.656699 39.822089 -0.553623 1.083203 0.116654 -0.024991 -724613.000000 0 0 1
-29.399706 19.060671 20.037699 40.362870 -0.575199 1.051305 0.106500 -0.020932 250897.000000 0 0 1
-28.868036 18.091471 20.923499 39.980716 -0.559818 1.020031 0.098292 -0.010744 756774.000000 0 0 1
-27.644686 17.460571 20.480299 38.581639 -0.563336 1.011216 0.102321 -0.003962 379797.000000 0 0 1
-27.304256 16.238771 21.368799 38.286364 -0.536538 0.978665 0.094565 -0.007139 141100.000000 0 0 1
-28.323396 15.262471 21.307899 38.589951 -0.494254 0.985841 0.071774 -0.002056 97285.500000 0 0 1
-27.801416 13.943771 21.550499 37.838756 -0.464886 0.964856 0.076157 -0.002116 89397.000000 0 0 1
-28.946656 12.944171 21.770499 38.463165 -0.420501 0.969140 0.084734 -0.018962 317303.000000 0 0 1
-29.655216 12.557671 20.560699 38.208236 -0.400562 1.002589 0.093208 -0.017317 -192201.000000 0 0 1
-30.681376 11.655571 20.814299 38.864305 -0.363052 1.005622 0.131381 -0.019651 -1102450.000000 0 0 1
-31.388456 11.460671 19.484599 38.681155 -0.350084 1.042893 0.140378 -0.020524 -602338.000000 0 0 1
-30.665236 10.987371 18.337499 37.381050 -0.344050 1.058069 0.157271 -0.019768 -83663.600000 0 0 1
-30.077966 9.762471 18.522799 36.648110 -0.313845 1.040924 0.178595 -0.024669 -268560.000000 0 0 1
-29.127356 9.505671 17.321399 35.196470 -0.315451 1.056256 0.194353 -0.031877 160087.000000 0 0 1
-29.843256 8.990871 16.156499 35.106810 -0.292621 1.092565 0.200853 -0.031774 1139050.000000 0 0 1
-30.634496 9.925571 15.369399 35.682036 -0.313327 1.125492 0.194978 -0.030192 359661.000000 0 0 1
-29.835306 10.977071 14.558499 34.965575 -0.352551 1.141351 0.174973 -0.015275 191212.000000 0 0 1
-29.273716 10.588871 13.276699 33.842951 -0.347077 1.167662 0.182458 -0.027249 267705.000000 0 0 1
-28.325436 11.539371 12.870999 33.183580 -0.386857 1.172474 0.126361 -0.017592 -273980.000000 0 0 1
-27.899386 11.318971 11.347999 32.175642 -0.385416 1.210353 0.157883 -0.012241 -10919.800000 0 0 1
-27.053826 10.173571 11.224199 31.006349 -0.359690 1.200387 0.166594 -0.015420 504368.000000 0 0 1
-27.714586 8.917471 11.050899 31.140679 -0.311299 1.208021 0.195259 -0.018087 -583193.000000 0 0 1
-26.786716 7.818271 10.590099 29.846335 -0.283983 1.208074 0.205619 -0.027485 -534477.000000 0 0 1
-26.374976 8.032671 9.267599 29.086965 -0.295632 1.246526 0.189789 -0.030667 223945.000000 0 0 1
-25.905366 6.863071 8.621599 28.151762 -0.258979 1.259541 0.227994 -0.051731 -191144.000000 0 0 1
-25.341946 7.097171 7.205499 27.285587 -0.273061 1.303549 0.207154 -0.034160 -95981.300000 0 0 1
-26.284416 7.628271 6.298799 28.084442 -0.282461 1.344591 0.220726 -0.038397 353000.000000 0 0 1
-25.589406 8.033071 5.141699 27.309064 -0.304180 1.381388 0.211706 -0.035955 209211.000000 0 0 1
-26.490336 8.702571 4.031399 28.173122 -0.317411 1.427210 0.203099 -0.041036 615117.000000 0 0 1
-27.524746 7.956171 3.346599 28.846352 -0.281386 1.454520 0.255703 -0.041669 851271.000000 0 0 1
-27.164966 6.822071 2.568599 28.126033 -0.246047 1.479344 0.256789 -0.041498 -227518.000000 0 0 1
-26.209226 6.992071 1.359199 27.159897 -0.260707 1.520731 0.255607 -0.037605 1746490.000000 0 0 1
-24.813576 7.328171 1.630799 25.924412 -0.287166 1.507849 0.214775 -0.036948 2037470.000000 0 0 1
-23.983676 7.378571 0.461899 25.097278 -0.298460 1.552391 0.227494 -0.025718 578885.000000 0 0 1
-22.586476 7.981871 0.819599 23.969374 -0.339693 1.536596 0.167988 -0.030622 -12099.700000 0 1 0
-22.666476 9.340471 1.321399 24.551163 -0.390879 1.516948 0.154223 -0.041774 931779.000000 0 1 0
-21.670876 9.596571 2.340899 23.815979 -0.416878 1.472346 0.146937 -0.042409 293756.000000 0 1 0
-21.842476 10.891571 3.208699 24.617388 -0.462560 1.440082 0.132946 -0.059414 -296918.000000 0 1 0
-21.467076 11.972471 2.373699 24.694328 -0.508746 1.474524 0.192623 -0.050197 409044.000000 0 1 0
-21.753076 13.212571 2.939999 25.620537 -0.545835 1.455791 0.174778 -0.052889 176393.000000 0 0 1
-20.513776 13.944771 3.555199 25.058154 -0.597023 1.428438 0.141680 -0.032138 608673.000000 0 0 1
-19.871676 13.284271 4.660899 24.353220 -0.589273 1.378221 0.121115 -0.040915 297417.000000 0 1 0
-19.142176 14.207171 5.459399 24.455503 -0.638485 1.345661 0.128366 -0.029826 -196431.000000 0 1 0
-18.738876 13.507771 6.783199 24.075239 -0.624577 1.285179 0.109714 -0.027555 238229.000000 0 1 0
-17.562176 12.727771 6.582599 22.666203 -0.627129 1.276136 0.091346 -0.019150 540816.000000 0 1 0
-17.282476 12.021871 7.797299 22.450105 -0.607774 1.216088 0.093625 -0.021207 -60245.200000 0 1 0
10.506424 -32.875156 -14.248801 37.338843 -1.261469 1.962332 0.050136 -0.010497 -97341.800000 0 0 1
11.811924 -32.973056 -13.716501 37.614976 -1.226809 1.944059 0.050728 -0.010295 179877.000000 0 0 1
12.528224 -31.775256 -13.950401 36.894945 -1.195234 1.958552 0.055265 -0.012876 -142084.000000 0 0 1
13.975124 -31.645856 -13.474101 37.125674 -1.154941 1.942209 0.079377 -0.016702 -31514.200000 0 0 1
14.919124 -32.574756 -13.989201 38.462875 -1.141312 1.943040 0.096873 -0.017705 -299440.000000 0 0 1
16.208424 -32.141356 -13.626201 38.489650 -1.103726 1.932665 0.092761 -0.021424 231491.000000 0 0 1
17.309624 -33.036856 -14.290401 39.940863 -1.088174 1.936695 0.118946 -0.024388 366450.000000 0 0 1
17.501224 33.535371 -13.530901 40.174610 1.089803 1.914315 0.119320 -0.020827 -732027.000000 0 0 1
18.500624 32.759171 -14.084501 40.172249 1.056702 1.929011 0.121012 -0.015184 -640544.000000 0 0 1
18.690124 31.471171 -13.198701 38.909653 1.034888 1.916878 0.107339 -0.026867 -101689.000000 0 0 1
19.718124 31.531171 -12.238601 39.151022 1.011943 1.888725 0.093263 -0.037205 -75058.500000 0 0 1
19.517024 30.436171 -11.325501 37.888543 1.000601 1.874353 0.080376 -0.034962 518544.000000 0 0 1
20.548324 30.429671 -10.153501 38.095828 0.976859 1.840582 0.075112 -0.033887 1286270.000000 0 0 1
21.888624 29.987771 -10.454301 38.570334 0.940272 1.845275 0.078513 -0.034590 1010880.000000 0 0 1
22.631224 29.994171 -9.222601 38.689520 0.924408 1.811488 0.064891 -0.029851 1216910.000000 0 0 1
23.981324 29.162471 -9.320301 38.889866 0.882584 1.812811 0.047348 -0.016132 623185.000000 0 0 1
24.995624 29.688871 -10.085701 40.099023 0.871012 1.825047 0.067876 -0.024484 -1293190.000000 0 0 1
26.194424 29.042171 -9.894101 40.342147 0.836908 1.818579 0.063824 -0.011315 -670689.000000 0 0 1
27.354524 29.484071 -10.805801 41.645477 0.822847 1.833271 0.063968 -0.013204 -117654.000000 0 0 1
27.844124 30.772671 -10.522101 42.813166 0.835318 1.819108 0.062575 -0.025154 -698671.000000 0 0 1
28.959824 31.008171 -11.294001 43.905951 0.819542 1.830953 0.064670 -0.016173 -641700.000000 0 0 1
29.608324 32.394571 -11.053001 45.257374 0.830305 1.817517 0.047018 -0.019402 -114628.000000 0 0 1
28.867124 33.498571 -11.581001 45.711976 0.859525 1.826935 0.069321 -0.022067 -10438.700000 0 0 1
29.373424 -33.023356 -11.129301 45.576326 -0.843827 1.817481 0.073773 -0.024196 -756757.000000 0 0 1
28.424124 -31.914056 -11.376101 44.225032 -0.843173 1.830953 0.060156 -0.025463 -362835.000000 0 0 1
27.243024 -32.067956 -10.594401 43.390984 -0.866569 1.817451 0.078983 -0.032513 1008520.000000 0 0 1
26.057024 -31.276456 -10.869201 42.134603 -0.876184 1.831710 0.087027 -0.027997 1401190.000000 0 0 1
26.297324 -29.773856 -10.561701 41.104517 -0.847321 1.830659 0.059832 -0.033108 -321365.000000 0 0 1
27.186624 -29.188356 -11.530301 41.521326 -0.820891 1.852191 0.044222 -0.025763 54436.100000 0 0 1
27.493024 -27.849456 -11.156501 40.693072 -0.791839 1.848515 0.044026 -0.027692 -110015.000000 0 0 1
28.176924 -27.103156 -12.308801 40.988129 -0.765976 1.875805 0.061858 -0.035878 936160.000000 0 0 1
29.489924 -27.560856 -12.682001 42.309450 -0.751598 1.875221 0.042610 -0.019026 639952.000000 0 0 1
29.420224 -28.559156 -13.643701 43.212563 -0.770548 1.892027 0.056680 -0.022743 -397540.000000 0 0 1
30.747024 -29.251356 -13.982001 44.682409 -0.760475 1.889062 0.049103 -0.010375 -150358.000000 0 0 1
31.279624 -30.106156 -12.985801 45.314750 -0.766284 1.861440 0.058881 -0.018570 -530452.000000 0 0 1
32.373724 -30.794956 -13.496301 46.674806 -0.760410 1.864141 0.060161 -0.018119 -452595.000000 0 0 1
33.276824 -31.507656 -12.469101 47.492714 -0.758096 1.836458 0.055543 -0.016325 800554.000000 0 0 1
34.353824 -32.240756 -13.118801 48.905568 -0.753678 1.842370 0.044342 -0.013132 1170530.000000 0 0 1
35.231924 -33.072456 -12.337901 49.872835 -0.753793 1.820779 0.049617 -0.005268 481476.000000 0 0 1
34.589724 33.511271 -11.504001 49.515617 0.769563 1.805270 0.033705 -0.005135 -108170.000000 0 0 1
33.793924 33.781571 -10.376301 48.896743 0.785215 1.784631 0.039457 -0.012086 -139127.000000 0 0 1
33.397124 32.574871 -9.774901 47.665908 0.772935 1.777333 0.052099 -0.014297 -171327.000000 0 0 1
32.464124 32.723871 -8.546001 46.880756 0.789383 1.754114 0.024432 -0.018164 39111.000000 0 0 1
31.256924 33.424071 -8.641901 46.570874 0.818891 1.757443 0.029198 -0.023304 -620549.000000 0 0 1
30.599424 33.569971 -7.414801 46.024417 0.831657 1.732607 0.025584 -0.020072 928309.000000 0 0 1
29.439024 -33.097556 -7.470601 44.921201 -0.843834 1.737877 0.025777 -0.028354 609126.000000 0 0 1
30.002424 -31.765656 -7.694801 44.366793 -0.813936 1.745114 0.007598 -0.023056 368140.000000 0 0 1
29.058124 -30.776256 -8.095101 43.093888 -0.814105 1.759767 0.011341 -0.024701 78923.600000 0 0 1
28.145024 -30.190056 -7.002001 41.864184 -0.820440 1.738841 0.029315 -0.026098 215893.000000 0 0 1
27.405624 -29.080256 -7.462301 40.649914 -0.815036 1.755418 0.030571 -0.032896 -705459.000000 0 0 1
26.315624 -28.780356 -6.671301 39.564217 -0.830104 1.740225 0.057011 -0.044436 -501939.000000 0 0 1
25.360024 -27.749956 -7.320301 38.298534 -0.830367 1.763118 0.115556 -0.046273 -227211.000000 0 0 1
24.596224 -28.381856 -8.341701 38.471912 -0.856733 1.789358 0.151952 -0.048041 -94537.700000 0 0 1
23.923224 -27.378856 -9.092601 37.477964 -0.852655 1.815854 0.170984 -0.045080 256546.000000 0 0 1
22.670824 -27.987756 -9.818801 37.332153 -0.889971 1.836939 0.161252 -0.035632 131171.000000 0 0 1
22.944124 -28.895456 -10.909701 38.475990 -0.899701 1.858286 0.174215 -0.039118 308379.000000 0 0 1
21.775124 -29.504656 -11.474401 38.423205 -0.935004 1.874055 0.149795 -0.037605 472951.000000 0 0 1
21.411624 -30.883356 -10.733301 39.082516 -0.964577 1.849003 0.152550 -0.040492 212089.000000 0 0 1
22.338024 -31.900156 -11.021501 40.473211 -0.959904 1.846595 0.131330 -0.034960 -56384.700000 0 0 1
21.916024 -33.093756 -10.415001 41.036338 -0.985864 1.827403 0.105514 -0.037585 413300.000000 0 0 1
23.092024 33.624971 -10.377501 42.090056 0.969017 1.819920 0.090391 -0.032996 -193883.000000 0 0 1
24.105924 -33.794656 -9.475701 42.578907 -0.951196 1.795220 0.097731 -0.031714 -596400.000000 0 0 1
25.098724 32.947471 -9.686201 42.535918 0.919799 1.800530 0.097526 -0.030956 -371828.000000 0 0 1
26.436324 33.197271 -8.973401 43.375799 0.898291 1.779177 0.078723 -0.031018 -586174.000000 0 0 1
26.476924 32.977171 -7.519701 42.954246 0.894298 1.746766 0.060900 -0.034713 89533.300000 0 0 1
26.600624 31.642571 -7.216501 41.963358 0.871750 1.743627 0.052592 -0.027399 -482722.000000 0 0 1
26.489824 31.463671 -5.702101 41.523335 0.871013 1.708554 0.043596 -0.022342 -504269.000000 0 0 1
27.575824 32.008771 -4.974501 42.540959 0.859659 1.687999 0.044224 -0.023797 -136721.000000 0 0 1
28.590324 31.081871 -4.685001 42.490453 0.827128 1.681281 0.052961 -0.020179 -444194.000000 0 0 1
28.341424 29.926471 -3.647201 41.377918 0.812594 1.659055 0.071143 -0.008003 -739064.000000 0 0 1
27.982624 30.441371 -2.343701 41.414940 0.827458 1.627417 0.073443 -0.010068 41678.600000 0 0 1
27.683024 29.386471 -1.459301 40.398565 0.815238 1.606927 0.065109 -0.001759 -1110220.000000 0 0 1
26.371624 28.653471 -1.570001 38.973695 0.826844 1.611091 0.044584 0.008270 -1269530.000000 0 0 1
25.309224 29.451571 -1.140401 38.849098 0.860899 1.600155 0.037839 0.006828 343687.000000 0 0 1
24.039624 28.775271 -1.294801 37.517946 0.874824 1.605315 0.038620 0.014106 705558.000000 0 0 1
22.828124 29.395271 -0.644601 37.223927 0.910493 1.588114 0.066839 0.005055 -305720.000000 0 0 1
22.532024 28.916971 0.652299 36.664817 0.908869 1.553005 0.075305 -0.008146 75927.100000 0 0 1
21.482924 29.607271 1.307499 36.603498 0.943097 1.535068 0.066349 -0.010525 -170284.000000 0 0 1
20.847124 28.853671 2.490499 35.683883 0.945121 1.500946 0.076014 -0.025539 -359990.000000 0 0 1
20.068324 27.774271 2.009399 34.324706 0.945095 1.512222 0.087772 -0.018852 103060.000000 0 0 1
19.406724 27.140671 3.096899 33.508622 0.950046 1.478243 0.104241 -0.022869 -208276.000000 0 0 1
18.628824 25.922471 2.593799 32.027104 0.947672 1.489720 0.101916 -0.011068 511079.000000 0 0 1
19.412124 24.850371 1.916499 31.591842 0.907649 1.510095 0.107062 -0.017856 878079.000000 0 0 1
20.337624 24.109771 2.710499 31.658282 0.870063 1.485074 0.107142 -0.013124 58785.000000 0 0 1
21.461624 23.373771 1.966399 31.793100 0.828020 1.508907 0.101625 -0.008523 -356218.000000 0 0 1
21.167724 22.067571 1.428699 30.611949 0.806208 1.524108 0.094585 -0.007243 246524.000000 0 0 1
22.327024 21.364371 1.028799 30.919101 0.763369 1.537516 0.073289 -0.013518 -1484.280000 0 0 1
22.074324 20.440271 -0.221501 30.085371 0.746982 1.578159 0.104987 -0.014676 -108659.000000 0 0 1
21.921824 21.069871 -1.446001 30.440052 0.765584 1.618317 0.060417 0.003394 322077.000000 0 0 1
22.103124 20.251071 -2.539401 30.084922 0.741698 1.655305 0.099351 -0.002727 74871.100000 0 0 1
21.884924 21.050471 -3.848901 30.608598 0.765966 1.696876 0.072154 -0.008224 -234269.000000 0 0 1
22.927324 21.975671 -4.014301 32.011044 0.764208 1.696531 0.074513 -0.004276 82258.400000 0 0 1
22.863624 22.684671 -5.229001 32.629466 0.781469 1.731744 0.044745 0.001862 -535899.000000 0 0 1
23.878224 23.808871 -5.319801 34.136963 0.783944 1.727271 0.043209 0.007966 -496016.000000 0 0 1
23.610024 24.981671 -4.523501 34.669572 0.813619 1.701644 0.039634 0.004129 -70323.200000 0 0 1
23.800924 24.887971 -3.121501 34.578011 0.807721 1.661194 0.043167 0.008533 -325719.000000 0 0 1
22.582824 24.417771 -2.296001 33.338913 0.824419 1.639719 0.044969 0.003144 -1361200.000000 0 0 1
21.623224 25.468771 -2.215001 33.483255 0.866878 1.636997 0.055980 -0.001128 1570570.000000 0 0 1
20.489524 25.117571 -1.328001 32.441895 0.886528 1.611743 0.060861 0.004373 1162420.000000 0 0 1
19.609224 23.957471 -1.819101 31.012759 0.884875 1.629487 0.082760 -0.012888 -1490910.000000 0 0 1
19.115024 24.314671 -3.103501 31.084065 0.904557 1.670805 0.082879 -0.017016 315516.000000 0 0 1
18.415524 23.221571 -3.755101 29.874298 0.900317 1.696826 0.090956 -0.027083 403599.000000 0 0 1
17.996924 23.571671 -5.188201 30.106982 0.918712 1.743986 0.097378 -0.026054 -176177.000000 0 0 1
17.143324 22.631671 -5.769801 28.971999 0.922517 1.771288 0.106859 -0.037451 -87156.000000 0 0 1
16.735624 23.029471 -7.058701 29.330239 0.942372 1.813845 0.102658 -0.033497 460027.000000 0 0 1
15.802224 21.911171 -7.672101 28.083284 0.945987 1.847505 0.134963 -0.039168 -71799.000000 0 0 1
16.532324 20.701671 -7.918801 27.651118 0.896911 1.861246 0.129320 -0.034837 367922.000000 0 0 1
15.971324 19.856071 -8.905901 26.993737 0.893406 1.907020 0.170384 -0.046258 -527146.000000 0 0 1
16.810924 18.624871 -9.233901 26.734957 0.836543 1.923447 0.158336 -0.040242 -523787.000000 0 0 1
17.958724 18.851371 -10.001401 27.891181 0.809643 1.937550 0.131149 -0.029406 166442.000000 0 0 1
18.683924 17.635771 -10.228901 27.653930 0.756547 1.949687 0.122356 -0.029769 21834.500000 0 0 1
20.154524 17.822971 -10.640801 28.932504 0.724082 1.947417 0.090116 -0.022205 -299156.000000 0 0 1
20.428924 18.212071 -11.965301 29.869531 0.728090 1.982952 0.095986 -0.019898 381474.000000 0 0 1
21.845324 18.337271 -12.046101 30.960980 0.698316 1.970422 0.080083 -0.009534 384194.000000 0 0 1
22.359524 18.739371 -13.427301 32.115491 0.697541 2.002143 0.080007 -0.016406 -249302.000000 0 0 1
22.382224 17.721471 -14.428201 31.987302 0.669700 2.038749 0.071198 -0.014018 137861.000000 0 0 1
22.170824 18.260671 -15.726501 32.746304 0.688987 2.071739 0.080803 -0.020909 70712.500000 0 0 1
22.236924 17.169071 -16.839801 32.754186 0.657494 2.110785 0.071567 -0.017297 -441669.000000 0 0 1
23.474224 16.523671 -16.772901 33.247573 0.613343 2.099582 0.083297 -0.014330 -254399.000000 0 0 1
23.745724 15.735871 -17.924601 33.656625 0.585239 2.132434 0.093253 -0.022301 -250079.000000 0 0 1
24.571824 16.379671 -19.072101 35.154135 0.587959 2.144240 0.121042 -0.014559 -1039840.000000 0 0 1
25.906924 16.525471 -18.722501 35.983218 0.567807 2.118013 0.132112 -0.010225 -676801.000000 0 0 1
26.621824 17.021571 -19.857601 37.319964 0.568876 2.131864 0.141694 -0.015814 -338181.000000 0 0 1
28.088824 17.259871 -19.483601 38.294855 0.550995 2.104562 0.107952 -0.013010 -362600.000000 0 0 1
28.355424 18.338371 -18.624401 38.564158 0.574075 2.074812 0.094620 -0.010656 570884.000000 0 0 1
29.683924 18.270471 -18.080301 39.266306 0.551739 2.049302 0.082246 -0.016387 596472.000000 0 0 1
29.908924 19.307571 -16.981801 39.442460 0.573237 2.015894 0.088668 -0.029331 288757.000000 0 0 1
29.109424 19.076771 -15.820501 38.230486 0.580125 1.997441 0.056772 -0.024859 293367.000000 0 0 1
27.831724 19.686471 -15.854101 37.596736 0.615635 2.006103 0.064170 -0.020508 193159.000000 0 0 1
26.779924 19.156271 -14.851701 36.120633 0.620935 1.994533 0.048471 -0.010195 189450.000000 0 0 1
27.177024 19.406571 -13.522701 36.028726 0.620113 1.955550 0.036294 -0.017932 608407.000000 0 0 1
26.113124 19.076271 -12.625001 34.715847 0.630920 1.942998 0.039832 -0.011980 411954.000000 0 0 1
26.565724 19.455271 -11.194201 34.778663 0.632106 1.898500 0.037623 -0.010986 -87302.600000 0 0 1
26.552224 20.839671 -11.102601 35.532805 0.665438 1.888579 0.041784 -0.013399 -106669.000000 0 0 1
27.059224 21.379971 -9.905001 35.880549 0.668686 1.850483 0.031761 -0.007995 46819.900000 0 0 1
26.351024 21.190671 -8.508901 34.868645 0.677278 1.817313 0.045150 -0.008022 -870924.000000 0 0 1
26.466824 19.920071 -7.873701 34.048454 0.645191 1.804159 0.058103 -0.013099 190192.000000 0 0 1
25.615924 19.806871 -6.739201 33.074228 0.658200 1.775993 0.075344 -0.017088 1333980.000000 0 0 1
24.092324 19.482371 -7.087401 31.784181 0.679996 1.795672 0.098793 -0.017780 791096.000000 0 0 1
23.524324 20.555271 -7.779201 32.193617 0.718143 1.814850 0.074552 -0.014354 -10757.100000 0 0 1
22.385524 20.129371 -8.551601 31.295897 0.732381 1.847566 0.039906 -0.013923 50072.700000 0 0 1
21.339024 21.208871 -8.681201 31.313470 0.782339 1.851712 0.086914 -0.024702 -972976.000000 0 0 1
21.727524 22.287771 -9.497501 32.542781 0.798126 1.866953 0.086238 -0.021163 -80772.800000 0 0 1
21.214424 22.297371 -10.819501 32.623399 0.810282 1.908847 0.095637 -0.007432 721260.000000 0 0 1
19.682924 22.634271 -10.929201 31.924523 0.855029 1.920208 0.104468 -0.025755 483206.000000 0 0 1
19.286924 23.952371 -10.538601 32.507901 0.892881 1.900947 0.113835 -0.038049 213222.000000 0 0 1
17.888724 24.129771 -10.700501 31.886565 0.932851 1.913017 0.119780 -0.033761 252145.000000 0 0 1
17.407824 25.406471 -9.975001 32.373164 0.970091 1.884018 0.103552 -0.037224 -22696.300000 0 0 1
17.894524 26.603071 -10.546601 33.751566 0.978664 1.888596 0.138610 -0.026098 -24598.300000 0 0 1
17.897124 27.587471 -9.572801 34.249294 0.995307 1.854073 0.137490 -0.046733 89982.500000 0 0 1
21.021424 28.654471 32.122387 47.904350 0.937863 0.835843 0.059722 0.016917 842349.000000 0 0 1
19.630124 28.949471 32.293756 47.605676 0.974932 0.825269 0.086270 -0.014759 169775.000000 0 0 1
18.886724 27.761671 32.382529 46.648118 0.973403 0.803506 0.082115 -0.012269 -982065.000000 0 0 1
17.424924 28.076371 32.598808 46.417592 1.015349 0.792181 0.125839 -0.030193 -913788.000000 0 0 1
16.791724 28.659171 31.466995 45.754583 1.040801 0.812433 0.116808 -0.034690 -346289.000000 0 0 1
15.604324 29.297271 31.874360 46.019560 1.081394 0.805672 0.156119 -0.036600 332451.000000 0 0 1
14.450824 29.155471 30.833015 44.827923 1.110637 0.812331 0.136897 -0.036999 254861.000000 0 0 1
13.910324 27.863971 30.677625 43.715154 1.107771 0.792929 0.125173 -0.045696 -574965.000000 0 0 1
12.531824 27.954871 30.480765 43.215720 1.149367 0.787927 0.120389 -0.028459 -534780.000000 0 0 1
11.868424 26.558671 30.262325 41.976551 1.150544 0.765647 0.086030 -0.029743 -76740.800000 0 0 1
12.166324 25.852471 29.045635 40.743326 1.130939 0.777181 0.081045 -0.027328 488932.000000 0 0 1
13.478524 25.335171 28.902805 40.729764 1.081871 0.781832 0.059737 -0.028716 115182.000000 0 0 1
13.533224 24.526871 27.578045 39.309848 1.066594 0.793218 0.077906 -0.027748 -239162.000000 0 0 1
12.948224 25.183271 26.493735 38.778495 1.095885 0.818651 0.076219 -0.032723 295854.000000 0 0 1
13.244124 24.479571 25.259195 37.585678 1.074868 0.833832 0.087441 -0.033867 -669957.000000 0 0 1
12.197224 23.476071 24.939315 36.357498 1.091624 0.814892 0.088984 -0.024818 -885952.000000 0 0 1
12.384424 22.959671 23.639295 35.204215 1.076128 0.834578 0.099900 -0.030965 -230836.000000 0 0 1
11.339724 22.083171 23.356735 34.085083 1.096407 0.815852 0.104757 -0.028447 -231000.000000 0 0 1
11.304824 21.797571 21.839515 32.861795 1.092358 0.843856 0.109471 -0.030777 89706.900000 0 0 1
10.880324 23.001671 21.141015 33.081730 1.128962 0.877528 0.121598 -0.031861 223806.000000 0 0 1
10.879924 22.684971 19.751715 31.986105 1.123594 0.905224 0.132623 -0.031658 -545481.000000 0 0 1
10.562924 23.890971 18.799815 32.183644 1.154506 0.946974 0.116892 -0.037899 448543.000000 0 0 1
9.191324 24.256971 18.748715 32.006178 1.208598 0.944949 0.121178 -0.040140 232879.000000 0 0 1
8.647624 24.963571 19.842515 33.040683 1.237324 0.926610 0.121132 -0.042389 829578.000000 0 0 1
7.236124 25.593871 19.458715 32.955263 1.295259 0.939169 0.124043 -0.041281 1072830.000000 0 0 1
7.279024 26.497171 18.444915 33.095304 1.302700 0.979633 0.125072 -0.048948 507463.000000 0 0 1
6.013724 27.086071 18.112015 33.134049 1.352317 0.992464 0.109113 -0.048678 559359.000000 0 0 1
6.273024 28.127271 16.995715 33.456667 1.351365 1.037944 0.121758 -0.053833 -35598.200000 0 0 1
6.790824 27.583771 15.856415 32.533147 1.329408 1.061695 0.116317 -0.045367 -500799.000000 0 0 1
8.003524 28.211071 15.520415 33.178370 1.294358 1.084011 0.108925 -0.046743 -345220.000000 0 0 1
8.713624 27.813471 14.219015 32.429875 1.267194 1.116918 0.095711 -0.042293 -376889.000000 0 0 1
7.971124 28.012971 13.040415 31.911092 1.293572 1.149824 0.109903 -0.043736 -632850.000000 0 0 1
7.233324 26.881071 12.678415 30.588481 1.307936 1.143421 0.087061 -0.037958 249150.000000 0 0 1
6.189024 27.277271 11.572015 30.269871 1.347681 1.178518 0.087378 -0.043239 -65929.400000 0 0 1
6.778824 27.641471 10.349515 30.283921 1.330302 1.222018 0.065926 -0.034015 5231.660000 0 0 1
7.279824 28.961671 10.214015 31.561057 1.324537 1.241236 0.068516 -0.036627 8815.060000 0 0 1
7.648424 29.351871 8.799115 31.582514 1.315888 1.288453 0.042346 -0.019794 -17347.100000 0 0 1
6.517524 29.474971 7.951415 31.216615 1.353177 1.313241 0.051929 -0.027790 45490.000000 0 0 1
6.122324 28.222471 7.345815 29.798519 1.357175 1.321713 0.037235 -0.019658 561008.000000 0 0 1
4.595124 28.181171 7.011715 29.401662 1.409162 1.329996 0.055735 -0.029410 491792.000000 0 0 1
4.115924 29.129871 6.097715 30.044506 1.430430 1.366420 0.059249 -0.019306 -57195.300000 0 0 1
2.695524 29.063171 6.035815 29.805450 1.478314 1.366879 0.074040 -0.017112 414892.000000 0 0 1
2.217424 29.927671 4.870715 30.402407 1.496839 1.409895 0.094614 -0.028666 -274094.000000 0 0 1
2.736424 29.493671 3.602915 29.838660 1.478281 1.449754 0.060936 -0.026201 195239.000000 0 0 1
2.139924 30.185171 2.513615 30.365146 1.500022 1.487922 0.048366 -0.028626 485152.000000 0 0 1
0.797224 29.644271 1.971815 29.720472 1.543910 1.504402 0.116145 -0.041652 177738.000000 0 0 1
1.068524 28.462871 1.234815 28.509675 1.533273 1.527471 0.101872 -0.043431 -594673.000000 0 0 1
-0.131676 27.890771 0.855115 27.904187 -1.566075 1.540147 0.113154 -0.043893 -464504.000000 0 0 1
-0.626976 28.188971 -0.579285 28.201893 -1.548558 1.591338 0.099453 -0.043313 -299325.000000 0 0 1
-1.331776 29.366971 -0.754385 29.406831 -1.525478 1.596453 0.106422 -0.046205 -385294.000000 0 0 1
-1.279076 29.797071 -2.117585 29.899593 -1.527896 1.641679 0.101633 -0.045004 36531.300000 0 0 1
-2.546576 30.596071 -2.528385 30.805800 -1.487756 1.652964 0.148664 -0.041475 598183.000000 0 0 1
-3.729776 29.859571 -2.834885 30.224854 -1.446529 1.664728 0.116400 -0.042447 328813.000000 0 0 1
-3.733176 29.083271 -4.050185 29.600291 -1.443133 1.708056 0.082249 -0.037097 -1011160.000000 0 0 1
-5.073376 28.763971 -4.719385 29.586784 -1.396212 1.730990 0.081431 -0.020505 -494307.000000 0 0 1
-5.626876 29.947571 -5.205985 30.913120 -1.385071 1.740010 0.079304 -0.020232 -79383.700000 0 0 1
-6.768376 29.616071 -5.975185 30.961676 -1.346118 1.765001 0.071002 -0.016253 -149676.000000 0 0 1
-7.381276 30.675171 -6.847585 32.285272 -1.334659 1.784516 0.075226 -0.011865 -401990.000000 0 0 1
-8.197076 31.506771 -6.077385 33.118020 -1.316270 1.755349 0.071844 -0.007923 -253148.000000 0 0 1
-8.666076 32.592571 -6.856585 34.414958 -1.310918 1.771371 0.070166 -0.022620 -278054.000000 0 0 1
-9.629576 33.559971 -6.156485 35.452823 -1.291367 1.745334 0.070352 -0.024365 106726.000000 0 0 1
-10.934776 33.008771 -6.168685 35.315732 -1.250905 1.746369 0.070023 -0.020931 -399191.000000 0 0 1
-11.835476 33.864071 -5.491885 36.290696 -1.234567 1.722710 0.059112 -0.019809 104747.000000 0 0 1
-13.308076 33.531971 -5.791085 36.538126 -1.192985 1.729962 0.085056 -0.021778 6735.750000 0 0 1
-13.690976 33.674871 -7.163185 37.050654 -1.184645 1.765356 0.070632 -0.018914 1180170.000000 0 0 1
-15.083676 33.337571 -7.395285 37.330968 -1.145905 1.770216 0.103820 -0.024085 640433.000000 0 0 1
-15.439576 33.320771 -8.854585 37.776421 -1.136886 1.807392 0.155971 -0.034448 194180.000000 0 0 1
-16.793576 32.998471 -9.151585 38.140199 -1.100038 1.813106 0.208747 -0.042032 470191.000000 0 0 1
-17.665076 -33.599056 -9.147085 39.046391 1.086753 1.807256 0.197720 -0.051070 -1197770.000000 0 0 1
-19.090276 33.686071 -9.475085 39.861852 -1.055214 1.810792 0.195723 -0.051464 -467193.000000 0 0 1
-19.782076 32.844071 -8.575685 39.288750 -1.028685 1.790841 0.183498 -0.053327 225955.000000 0 0 1
-20.057376 33.390871 -7.279585 39.626266 -1.029874 1.755552 0.156916 -0.041443 -704132.000000 0 0 1
-20.904676 32.592871 -6.297585 39.229584 -1.000499 1.732025 0.168197 -0.042649 -426957.000000 0 0 1
-20.903676 33.374471 -5.093985 39.708534 -1.011236 1.699435 0.153432 -0.045938 1031070.000000 0 0 1
-21.885676 32.938671 -4.089485 39.757549 -0.984339 1.673839 0.156943 -0.044580 911502.000000 0 0 1
-23.119376 -33.852756 -4.033585 41.192043 0.971613 1.668875 0.192485 -0.052205 49178.700000 0 0 1
-23.745776 -33.744156 -5.306385 41.601534 0.957591 1.698697 0.206136 -0.057509 1339100.000000 0 0 1
-24.931376 -32.856656 -5.203585 41.571753 0.921692 1.696297 0.206303 -0.073011 1569890.000000 0 0 1
-25.573856 -32.763256 -6.647185 42.090832 0.908019 1.729385 0.236739 -0.055684 102452.000000 0 0 1
-24.729276 -32.050056 -7.530985 41.175950 0.913625 1.754729 0.256411 -0.051114 -15808.000000 0 0 1
-24.909476 -32.393056 -8.854385 41.811388 0.915261 1.784182 0.221238 -0.046304 147615.000000 0 0 1
-26.033576 -31.669156 -9.664785 42.119955 0.882755 1.802318 0.178505 -0.034558 336416.000000 0 0 1
-27.318306 -32.052256 -9.167185 43.100745 0.864965 1.785126 0.169383 -0.028568 896158.000000 0 0 1
-28.444496 -31.542156 -9.915585 43.615545 0.836992 1.800142 0.087060 -0.014132 872916.000000 0 0 1
-28.776546 -30.024256 -9.812685 42.729782 0.806614 1.802509 0.068669 -0.001467 -845861.000000 0 0 1
-27.958846 -29.097856 -10.455385 41.685697 0.805358 1.824318 0.085057 0.000328 -538879.000000 0 0 1
-28.207166 -28.901156 -11.848385 42.086877 0.797550 1.856176 0.081605 -0.001432 -17734.100000 0 0 1
-27.171906 -27.942756 -12.519785 40.937209 0.799384 1.881605 0.123309 -0.004167 671371.000000 0 0 1
-25.870956 -28.530456 -12.468885 40.481679 0.834246 1.883900 0.138175 -0.020385 -2826.860000 0 0 1
-24.922876 -27.854456 -13.279985 39.665835 0.840887 1.912186 0.134154 -0.021453 243282.000000 0 0 1
-23.591576 -28.641056 -13.342785 39.432251 0.881772 1.915983 0.163715 -0.035419 -53105.800000 0 0 1
-23.626476 -29.849656 -14.071285 40.585877 0.901250 1.924851 0.178304 -0.043604 -344187.000000 0 0 1
-24.369576 -30.863356 -13.455885 41.563010 0.902432 1.900483 0.168408 -0.044635 -201726.000000 0 0 1
-24.420476 -32.090356 -14.368485 42.808924 0.920298 1.913083 0.183325 -0.039290 119548.000000 0 0 1
-24.969376 -33.240056 -13.760385 43.791771 0.926538 1.890434 0.164513 -0.037918 -21055.500000 0 0 1
-24.845476 33.446971 -14.680885 44.176078 -0.931899 1.909566 0.166712 -0.024620 32634.300000 0 0 1
-25.378686 32.107871 -14.082385 43.281712 -0.901925 1.902195 0.150554 -0.028824 -11801.200000 0 0 1
-24.827576 31.563671 -12.869585 42.169895 -0.904288 1.880928 0.166463 -0.037439 228103.000000 0 0 1
-25.157006 32.276371 -11.683485 42.557524 -0.908728 1.848901 0.215257 -0.031721 -104026.000000 0 0 1
-24.234376 31.851371 -10.544185 41.388339 -0.920382 1.828398 0.216613 -0.028971 240320.000000 0 0 1
-24.831676 30.807971 -9.750485 40.753100 -0.892399 1.812397 0.195396 -0.031126 646064.000000 0 0 1
-23.923876 30.461971 -8.711985 39.701161 -0.905041 1.792036 0.166108 -0.033188 183580.000000 0 0 1
-24.463076 29.360871 -7.743685 38.993172 -0.876145 1.770716 0.158933 -0.029389 -10925.600000 0 0 1
-24.612576 28.161371 -8.467185 38.347554 -0.852542 1.793432 0.154676 -0.017660 -209205.000000 0 0 1
-25.028586 27.067371 -7.755385 37.672519 -0.824513 1.778142 0.146649 -0.019638 -397866.000000 0 0 1
-23.948376 26.307571 -6.959585 36.249811 -0.832307 1.763985 0.140678 -0.019983 9157.750000 0 0 1
-23.528076 26.888171 -5.728185 36.185027 -0.851947 1.729768 0.152123 -0.023663 374160.000000 0 0 1
-22.580676 26.127771 -4.980485 34.890580 -0.858093 1.714031 0.120603 -0.022430 -864189.000000 0 0 1
-21.240576 26.736371 -4.776485 34.479130 -0.899452 1.709776 0.095293 -0.034227 -651153.000000 0 0 1
-20.355076 26.800371 -5.917085 34.170175 -0.921238 1.744839 0.112718 -0.034956 1250530.000000 0 0 1
-19.092776 27.449371 -5.609985 33.903893 -0.963054 1.737028 0.112794 -0.035299 558784.000000 0 0 1
-18.182176 27.284171 -6.799585 33.485099 -0.982978 1.775281 0.138607 -0.040820 -842033.000000 0 0 1
-18.409376 27.984671 -8.055485 34.451963 -0.988931 1.806799 0.159752 -0.042773 -19718.400000 0 0 1
-18.326776 29.429171 -8.019585 35.584555 -1.013823 1.798116 0.161277 -0.043771 -99967.700000 0 0 1
-18.444876 30.135871 -9.447485 36.573749 -1.021558 1.832072 0.176459 -0.042768 -60429.400000 0 0 1
-17.315876 29.875971 -10.262185 36.023959 -1.045518 1.859668 0.171174 -0.048801 -25932.900000 0 0 1
-17.359676 30.550571 -11.463485 36.960888 -1.054067 1.886149 0.180341 -0.053254 -591339.000000 0 0 1
-15.950276 30.911971 -11.931285 36.773860 -1.094439 1.901227 0.163854 -0.049380 -336903.000000 0 0 1
-15.803676 31.571871 -13.159785 37.679161 -1.106699 1.927576 0.157761 -0.047700 -130002.000000 0 0 1
-16.230576 30.840771 -14.323385 37.679492 -1.086354 1.960741 0.172682 -0.054484 5158.690000 0 0 1
-15.682076 31.419471 -15.656085 38.447674 -1.107853 1.990188 0.190241 -0.052582 72935.500000 0 0 1
-14.318676 31.158671 -15.908885 37.801850 -1.140037 2.005178 0.170070 -0.063924 -96188.700000 0 0 1
-13.875676 31.988571 -16.989685 38.787272 -1.161521 2.024194 0.143455 -0.060167 -43394.400000 0 0 1
-12.337476 31.996271 -17.100385 38.319679 -1.202773 2.033374 0.155472 -0.061947 18302.200000 0 0 1
-11.824676 30.844671 -17.766785 37.508337 -1.204715 2.064256 0.157389 -0.067949 955178.000000 0 0 1
-10.403276 31.035371 -17.983585 37.347446 -1.247360 2.073186 0.145578 -0.062864 1419750.000000 0 0 1
-9.946076 30.854871 -19.456085 37.808554 -1.258963 2.111331 0.141229 -0.070358 -291738.000000 0 0 1
-9.857576 29.480471 -19.918685 36.919155 -1.248107 2.140665 0.154452 -0.075149 -198904.000000 0 0 1
-10.063176 29.267971 -21.300185 37.570993 -1.239630 2.173573 0.106080 -0.074968 390215.000000 0 0 1
-11.506276 29.268971 -21.892585 38.319085 -1.196233 2.178914 0.112424 -0.061870 548337.000000 0 0 1
-12.290076 30.462071 -21.849485 39.451029 -1.187315 2.157763 0.138108 -0.063617 236809.000000 0 0 1
-13.521076 30.270971 -21.177685 39.340126 -1.150717 2.139242 0.145285 -0.066754 104353.000000 0 0 1
-14.326076 31.610971 -21.191185 40.663943 -1.145285 2.118970 0.172994 -0.074895 -11320.600000 0 0 1
-14.799876 31.931871 -22.479085 41.761106 -1.136787 2.139189 0.144089 -0.053979 -17002.000000 0 0 1
-15.563976 33.106871 -22.632085 43.017595 -1.131343 2.124819 0.140313 -0.059189 78576.300000 0 0 1
-16.142676 33.327871 -24.049985 44.155801 -1.119739 2.146782 0.135553 -0.040662 65585.300000 0 0 1
-15.191876 33.660171 -25.041585 44.619291 -1.146836 2.166665 0.129493 -0.035700 168088.000000 0 0 1
-15.692276 33.506171 -26.389685 45.445863 -1.132796 2.190365 0.139450 -0.030824 421549.000000 0 0 1
-16.585376 -33.164756 -27.094885 45.925031 1.107076 2.201831 0.121707 -0.025638 1125020.000000 0 0 1
-17.941576 -33.052556 -26.623785 46.078167 1.073483 2.186822 0.128697 -0.028309 690066.000000 0 0 1
-18.524076 -31.992456 -27.376885 46.001657 1.045951 2.208222 0.098546 -0.015770 -138905.000000 0 0 1
-19.968076 -31.650856 -26.966485 46.126912 1.007976 2.195202 0.102600 -0.032179 -337343.000000 0 0 1
-20.888476 -32.549356 -27.469085 47.437745 1.000244 2.188366 0.115018 -0.031759 -333638.000000 0 0 1
-22.233076 -32.190756 -27.141485 47.615277 0.966362 2.177322 0.095288 -0.030110 1069450.000000 0 0 1
-23.248676 -33.367756 -27.213085 48.933220 0.962261 2.160515 0.076128 -0.017591 184922.000000 0 0 1
-23.358076 33.553671 -26.052285 48.478553 -0.962665 2.138145 0.117451 -0.031645 -125008.000000 0 0 1
-24.508676 32.717771 -26.107285 48.504825 -0.927876 2.139145 0.076984 -0.021399 343127.000000 0 0 1
-24.618476 31.443471 -26.981785 48.195206 -0.906542 2.164994 0.082142 -0.021132 -310568.000000 0 0 1
-23.683476 30.435571 -26.610885 46.854778 -0.909521 2.174802 0.098806 -0.044575 -126503.000000 0 0 1
-24.190476 29.412871 -25.770485 45.982757 -0.882518 2.165711 0.064862 -0.037656 -168450.000000 0 0 1
33.410888 10.024771 -25.926361 43.462164 0.291498 2.209963 0.025431 -0.003565 -122531.000000 0 0 1
32.920758 8.700771 -26.015031 42.851623 0.258386 2.223197 0.005586 0.000092 -400126.000000 0 0 1
31.526258 8.712371 -26.121561 41.858647 0.269624 2.244701 0.037443 -0.012719 -176356.000000 0 0 1
30.791188 7.375171 -25.878781 40.892563 0.235093 2.256022 0.031863 -0.009871 36811.100000 0 0 1
31.097488 6.843771 -24.602701 40.239084 0.216622 2.228641 0.012126 0.007530 92034.300000 0 0 1
30.291698 5.728771 -24.288201 39.246942 0.186913 2.238082 0.037857 0.004268 133851.000000 0 0 1
30.203998 5.566971 -22.752201 38.222184 0.182267 2.208388 0.060652 -0.004407 246156.000000 0 0 1
31.377198 4.949271 -22.243601 38.778881 0.156446 2.181691 0.060604 -0.009409 378220.000000 0 0 1
31.259588 4.703971 -20.849301 37.867962 0.149360 2.153854 0.068659 -0.005561 63896.900000 0 0 1
32.542728 4.424471 -20.001201 38.453259 0.135130 2.117815 0.060550 -0.007494 40707.300000 0 0 1
33.001808 3.099471 -20.033301 38.730598 0.093644 2.114428 0.081642 -0.008941 808091.000000 0 0 1
33.986658 2.889771 -18.990601 39.039552 0.084823 2.078813 0.090722 -0.015633 139839.000000 0 0 1
34.605718 1.467471 -18.872201 39.444507 0.042380 2.069684 0.103903 -0.018242 -209424.000000 0 0 1
33.940828 0.457771 -18.142701 38.488270 0.013487 2.061654 0.118700 -0.020970 -310026.000000 0 0 1
34.319758 -0.833729 -18.554501 39.023203 -0.024288 2.066299 0.124269 -0.018067 -479163.000000 0 0 1
33.381248 -1.986829 -18.189601 38.067267 -0.059449 2.068977 0.105620 -0.012141 -199213.000000 0 0 1
33.111878 -2.203329 -16.827501 37.207740 -0.066444 2.040092 0.106316 -0.013122 696469.000000 0 0 1
31.777948 -1.766729 -16.516601 35.857460 -0.055539 2.049488 0.090016 -0.014694 718770.000000 0 0 1
31.178588 -2.104429 -15.129301 34.719285 -0.067394 2.021680 0.104540 -0.022329 -60551.900000 0 0 1
31.069668 -3.500129 -14.941401 34.652859 -0.112181 2.016590 0.093390 -0.033710 -47338.200000 0 0 1
30.222698 -3.770229 -13.873001 33.467690 -0.124107 1.998211 0.085058 -0.024351 -309042.000000 0 0 1
30.052098 -5.292729 -13.512301 33.372501 -0.174331 1.987658 0.081921 -0.024937 16767.800000 0 0 1
29.276298 -5.974829 -14.477901 33.202558 -0.201320 2.021999 0.059963 -0.022626 348268.000000 0 0 1
28.898098 -7.266829 -13.984101 32.915983 -0.246356 2.009584 0.065770 -0.032731 -160026.000000 0 0 1
28.201598 -8.098229 -15.098401 32.998078 -0.279631 2.046039 0.056456 -0.026884 311390.000000 0 0 1
26.940098 -7.569829 -15.483701 31.981498 -0.273924 2.076183 0.046539 -0.021267 184042.000000 0 0 1
26.354898 -8.260229 -16.570901 32.208800 -0.303725 2.111202 0.053466 -0.023296 289122.000000 0 0 1
24.928998 -7.784329 -16.940501 31.129267 -0.302666 2.146230 0.058794 -0.024094 -47790.900000 0 0 1
24.981698 -6.472029 -17.501701 31.181436 -0.253498 2.166735 0.045426 -0.015490 224720.000000 0 0 1
23.731098 -6.032129 -18.021201 30.402554 -0.248915 2.205269 0.063916 -0.019923 255866.000000 0 0 1
23.590198 -6.598329 -19.482701 31.298738 -0.272736 2.242698 0.047700 -0.014955 200460.000000 0 0 1
24.474398 -5.994129 -20.448701 32.451119 -0.240186 2.252528 0.046127 -0.021925 438302.000000 0 0 1
24.296198 -6.516129 -21.731301 33.241760 -0.262029 2.283306 0.063968 -0.030152 -238932.000000 0 0 1
24.966198 -5.662129 -22.784601 34.271107 -0.223019 2.298068 0.077352 -0.032643 -140201.000000 0 0 1
24.859698 -6.171529 -24.101701 35.170788 -0.243335 2.325779 0.100695 -0.042464 148409.000000 0 0 1
25.178498 -5.107229 -24.994501 35.843627 -0.200126 2.342449 0.093409 -0.043955 -157511.000000 0 0 1
24.874598 -5.596529 -26.436561 36.728171 -0.221305 2.374296 0.119334 -0.044828 138122.000000 0 0 1
23.522698 -5.850529 -26.773911 36.116317 -0.243772 2.405838 0.125804 -0.043331 51631.000000 0 0 1
23.386598 -6.049329 -28.147531 37.091924 -0.253119 2.432355 0.116152 -0.038533 -1217150.000000 0 0 1
22.099298 -6.680729 -28.495041 36.673948 -0.293570 2.460656 0.094698 -0.038994 -1289240.000000 0 0 1
22.044998 -8.052829 -28.259431 36.734526 -0.350231 2.448522 0.085660 -0.032478 862517.000000 0 0 1
20.723398 -8.570129 -28.024961 35.892963 -0.392131 2.466730 0.090149 -0.042003 589424.000000 0 0 1
20.723098 -10.072929 -27.773381 36.086997 -0.452444 2.449047 0.114034 -0.033554 418456.000000 0 0 1
19.464098 -10.565029 -27.285771 35.142343 -0.497295 2.459786 0.127656 -0.034149 924259.000000 0 0 1
19.542398 -11.899629 -26.899101 35.313852 -0.546948 2.436753 0.124205 -0.031396 -227344.000000 0 0 1
19.699098 -13.024329 -27.956981 36.596180 -0.584183 2.440180 0.106696 -0.021508 723544.000000 0 0 1
18.489698 -13.124529 -28.742951 36.609827 -0.617292 2.473679 0.098914 -0.021904 1025400.000000 0 0 1
18.672898 -14.012029 -29.828071 37.877802 -0.643753 2.477508 0.075959 -0.022792 404419.000000 0 0 1
17.431798 -14.396629 -30.713441 38.137199 -0.690325 2.507046 0.068557 -0.021393 636182.000000 0 0 1
16.447798 -15.271129 -30.177511 37.608770 -0.748318 2.502113 0.065240 -0.028959 31398.600000 0 0 1
15.500698 -15.630929 -31.112631 38.112903 -0.789581 2.525821 0.060553 -0.032579 93406.000000 0 0 1
14.191198 -16.253829 -30.495561 37.357145 -0.853044 2.525815 0.077119 -0.042177 600233.000000 0 0 1
14.345498 -17.534429 -29.928181 37.535923 -0.885096 2.493640 0.054263 -0.034594 -118740.000000 0 0 1
13.221598 -17.966729 -29.191901 36.739367 -0.936385 2.489091 0.054894 -0.031204 3709.470000 0 0 1
13.540398 -19.278929 -28.410581 36.907731 -0.958500 2.449282 0.050720 -0.029949 -339118.000000 0 0 1
14.503298 -18.988429 -27.451701 36.393708 -0.918524 2.425381 0.054705 -0.021444 -489107.000000 0 0 1
14.454698 -20.004629 -26.528151 36.233496 -0.945084 2.392261 0.054753 -0.015059 581293.000000 0 0 1
15.591398 -19.949729 -25.426301 35.882867 -0.907417 2.358297 0.046152 -0.008457 179883.000000 0 0 1
16.866898 -20.257629 -25.922381 36.970713 -0.876479 2.347819 0.064951 -0.021369 -186529.000000 0 0 1
17.783298 -20.046429 -24.866501 36.557460 -0.845151 2.318836 0.078906 -0.024120 800621.000000 0 0 1
19.292698 -20.450629 -25.123671 37.704579 -0.814525 2.300072 0.068613 -0.010468 1056250.000000 0 0 1
19.716398 -21.822229 -25.202221 38.731098 -0.836051 2.279299 0.073637 -0.015405 309220.000000 0 0 1
19.598298 -22.569929 -24.028201 38.351655 -0.855753 2.247881 0.063673 -0.010254 -388653.000000 0 0 1
20.206998 -24.005529 -24.122901 39.579067 -0.871103 2.226209 0.049759 -0.005425 -1162220.000000 0 0 1
21.564598 -24.057629 -23.898301 40.186194 -0.839989 2.207675 0.073843 -0.002726 -969981.000000 0 0 1
22.011498 -25.311569 -23.363401 40.878235 -0.855020 2.179173 0.079307 -0.013699 -20451.700000 0 0 1
21.900598 -25.548309 -21.855801 40.125158 -0.862124 2.146817 0.086433 -0.018006 -148107.000000 0 0 1
20.597698 -25.698649 -21.327401 39.237020 -0.895136 2.145461 0.067748 -0.016348 -86554.700000 0 0 1
20.617798 -25.932509 -19.934901 38.665086 -0.899077 2.112479 0.056915 -0.016541 150746.000000 0 0 1
19.281098 -26.443349 -19.343901 38.015759 -0.940775 2.104632 0.056688 -0.017507 -371250.000000 0 0 1
19.049798 -27.803229 -19.693301 39.035118 -0.970096 2.099602 0.067931 -0.019429 60306.500000 0 0 1
18.038198 -28.427679 -18.940301 38.629581 -1.005374 2.083237 0.063692 -0.016499 -39578.200000 0 0 1
16.570598 -28.159909 -19.302101 37.949128 -1.038915 2.104390 0.081252 -0.026363 -356148.000000 0 0 1
15.973398 -26.973829 -18.679701 36.492028 -1.036146 2.108173 0.070301 -0.025693 1104960.000000 0 0 1
14.717098 -26.742039 -19.397001 36.165913 -1.067695 2.136884 0.068562 -0.012992 1188600.000000 0 0 1
13.657798 -26.016899 -18.537401 34.742621 -1.087382 2.133605 0.032233 -0.017686 -839414.000000 0 0 1
13.046998 -26.833189 -17.540801 34.611037 -1.118228 2.102263 0.035659 -0.018841 -628248.000000 0 0 1
12.228198 -26.043219 -16.777301 33.305494 -1.131817 2.098719 0.034420 -0.021144 -73027.400000 0 0 1
10.761398 -25.987139 -17.315701 33.029874 -1.178190 2.122623 0.055460 -0.025842 -662225.000000 0 0 1
10.038198 -27.154999 -17.004701 33.575575 -1.216713 2.101871 0.074103 -0.010664 -711800.000000 0 0 1
8.677898 -26.850479 -17.153101 33.022462 -1.258199 2.116989 0.079345 -0.000142 -101582.000000 0 0 1
8.012898 -27.610319 -18.350801 34.107010 -1.288342 2.138902 0.097633 -0.014344 -22661.300000 0 0 1
8.119198 -26.895559 -19.569001 34.237965 -1.277617 2.179200 0.102986 -0.024553 -5820.280000 0 0 1
7.498398 -27.565439 -20.655601 35.252422 -1.305201 2.196829 0.106740 -0.019745 121691.000000 0 0 1
7.497098 -26.828049 -22.010801 35.502479 -1.298298 2.239513 0.107809 -0.022076 -116032.000000 0 0 1
6.469098 -25.859219 -22.089401 34.619215 -1.325661 2.262782 0.109526 -0.017809 139485.000000 0 0 1
6.477998 -24.990319 -23.210901 34.716371 -1.317159 2.303103 0.086892 -0.019591 78363.900000 0 0 1
5.039998 -24.422929 -23.430801 34.218175 -1.367290 2.325053 0.075965 -0.012995 626997.000000 0 0 1
4.126498 -25.446989 -23.772601 35.067275 -1.410035 2.315718 0.071650 -0.010654 663072.000000 0 0 1
2.739998 -25.067359 -23.744701 34.636554 -1.461923 2.326140 0.071529 -0.015174 1229920.000000 0 0 1
1.820598 -26.194989 -24.288901 35.769299 -1.501406 2.317255 0.039921 -0.007022 253343.000000 0 0 1
2.172898 -26.633649 -25.591741 37.000134 -1.489392 2.334590 0.054648 -0.006779 110159.000000 0 0 1
1.114498 -27.407289 -26.116641 37.874537 -1.530154 2.331673 0.069219 -0.010114 251547.000000 0 0 1
1.568498 -28.344459 -27.288521 39.376794 -1.515516 2.336453 0.066339 -0.011744 -417457.000000 0 0 1
2.157098 -27.627959 -28.371971 39.660130 -1.492878 2.367961 0.058863 -0.007743 -28403.500000 0 0 1
2.623298 -28.328249 -29.483241 40.971122 -1.478456 2.374037 0.076686 -0.021907 -211827.000000 0 0 1
3.987098 -29.019059 -29.357101 41.470979 -1.434255 2.357310 0.082987 -0.024042 -621389.000000 0 0 1
4.240998 -29.662559 -28.095591 41.075731 -1.428784 2.324021 0.069552 -0.031505 -732191.000000 0 0 1
5.268198 -30.587539 -28.219921 41.948962 -1.400236 2.308676 0.090052 -0.038626 -314832.000000 0 0 1
5.556198 -31.488369 -27.051261 41.882687 -1.396142 2.272974 0.117679 -0.060307 -142414.000000 0 0 1
4.703198 -32.614209 -27.135471 42.686537 -1.427577 2.259700 0.108572 -0.069752 115004.000000 0 0 1
5.312298 -33.705379 -26.510371 43.209638 -1.414472 2.231318 0.128590 -0.078478 -230672.000000 0 0 1
4.257398 32.986970 -26.139381 42.302871 1.442443 2.236878 0.150897 -0.075961 -394228.000000 0 0 1
3.597098 32.387549 -27.251371 42.479756 1.460185 2.267267 0.130960 -0.075253 100550.000000 0 0 1
2.264498 32.181164 -26.831561 41.960552 1.500545 2.264575 0.103775 -0.076217 -483038.000000 0 0 1
1.216198 32.500736 -27.877681 42.836224 1.533393 2.279430 0.100204 -0.055721 -1042490.000000 0 0 1
1.127698 31.537158 -28.875451 42.774475 1.535054 2.311846 0.122052 -0.054431 168699.000000 0 0 1
0.211398 31.903050 -29.895691 43.721867 1.564170 2.323713 0.110150 -0.048100 120486.000000 0 0 1
0.026398 30.767848 -30.941601 43.635351 1.569938 2.359010 0.114021 -0.049007 -304433.000000 0 0 1
1.064798 30.578828 -31.850541 44.166226 1.535989 2.376259 0.129581 -0.049162 -152455.000000 0 0 1
0.656698 29.622988 -32.797431 44.199821 1.548631 2.406884 0.149778 -0.049060 256492.000000 0 0 1
1.799698 29.349138 -33.809901 44.807591 1.509553 2.425776 0.126395 -0.042074 298046.000000 0 0 1
2.156998 30.321178 32.897424 44.791372 1.499778 0.745927 0.120177 -0.044094 331971.000000 0 0 1
3.239798 30.084668 31.982464 44.027964 1.463520 0.757709 0.098166 -0.036378 534928.000000 0 0 1
2.961398 29.107748 30.823385 42.498376 1.469406 0.759350 0.095283 -0.026805 -376007.000000 0 0 1
2.656798 27.756188 31.069195 41.746371 1.475368 0.731405 0.110417 -0.032398 -39841.600000 0 0 1
3.731098 26.969668 31.562073 41.682713 1.433325 0.711783 0.090257 -0.019592 -799.376000 0 0 1
3.383598 25.495998 31.875525 40.957829 1.438856 0.678918 0.100012 -0.024676 -356798.000000 0 0 1
2.847998 24.775008 30.799955 39.630157 1.456344 0.680617 0.107733 -0.017023 113737.000000 0 0 1
2.969598 23.382268 31.046005 38.979526 1.444470 0.649362 0.098471 -0.012877 38544.300000 0 0 1
2.177498 22.551898 29.987265 37.584115 1.474540 0.647042 0.088520 -0.002016 606993.000000 0 0 1
0.769098 22.554698 30.181105 37.685608 1.536710 0.642057 0.081591 -0.007974 -1604.250000 0 0 1
0.150398 21.805398 29.184605 36.431294 1.563899 0.641689 0.082477 -0.002439 -366554.000000 0 0 1
-1.312202 21.453998 29.442365 36.453378 -1.509709 0.630604 0.084891 -0.000228 -328936.000000 0 0 1
-2.220402 22.533098 29.557665 37.233403 -1.472574 0.653685 0.086838 -0.008338 403153.000000 0 0 1
-3.516802 21.995998 29.768095 37.179717 -1.412254 0.642410 0.062622 -0.014761 851462.000000 0 0 1
-4.725602 22.979998 29.998815 38.083337 -1.367984 0.663705 0.046893 -0.020068 641667.000000 0 0 1
-4.730402 23.594248 31.268495 39.456103 -1.372930 0.655918 0.059175 -0.022329 -310967.000000 0 0 1
-5.669902 24.599238 31.451875 40.329775 -1.344262 0.676342 0.046694 -0.025446 -524340.000000 0 0 1
-5.536702 25.275678 32.830536 41.801425 -1.355150 0.667466 0.072555 -0.027550 -352707.000000 0 0 1
-6.800902 25.540588 33.356640 42.558658 -1.310557 0.670067 0.069530 -0.024987 -484293.000000 0 0 1
-6.763602 25.751278 -32.858421 42.291258 -1.313947 2.460611 0.072725 -0.024589 375304.000000 0 0 1
-8.096002 26.254468 -32.217291 42.341424 -1.271682 2.435484 0.090392 -0.017027 186379.000000 0 0 1
-8.573102 27.480848 -32.825251 43.659961 -1.268398 2.421643 0.083828 -0.013352 1185160.000000 0 0 1
-9.875802 27.918338 -32.343141 43.852524 -1.230795 2.400222 0.073459 -0.007041 1250330.000000 0 0 1
-10.026602 28.376758 -30.864651 43.109162 -1.231150 2.368802 0.075302 -0.008105 -226373.000000 0 0 1
-9.459102 29.665228 -30.540071 43.614176 -1.262126 2.346520 0.079000 -0.002957 201270.000000 0 0 1
-9.593102 29.936078 -29.148261 42.869774 -1.260683 2.318458 0.088563 -0.009148 -289047.000000 0 0 1
-9.000502 31.266688 -28.727331 43.403622 -1.290512 2.294100 0.077409 -0.013230 1261790.000000 0 0 1
-7.589802 31.417098 -29.046761 43.455189 -1.333756 2.302893 0.066767 -0.014237 1376560.000000 0 0 1
-7.064902 32.697221 -28.604871 44.014313 -1.357997 2.278248 0.066530 -0.011951 -12679.600000 0 0 1
-5.612002 32.728736 -28.079611 43.487116 -1.400978 2.272735 0.071105 -0.019515 86942.800000 0 0 1
-4.986002 -33.770999 -27.721261 43.975094 1.424214 2.252846 0.089503 -0.029240 143726.000000 0 0 1
-4.705002 -32.864149 -28.812381 43.958419 1.428597 2.285570 0.095895 -0.040885 -13139.500000 0 0 1
-3.571602 -33.201529 -29.841511 44.784078 1.463635 2.300088 0.096521 -0.035765 -62414.500000 0 0 1
-3.778402 33.489825 -30.805461 45.659842 -1.458449 2.311318 0.093061 -0.031862 448161.000000 0 0 1
-4.748402 33.734809 -31.861051 46.644520 -1.430958 2.322742 0.110323 -0.028508 561050.000000 0 0 1
-4.288002 -33.100219 -33.050591 46.971832 1.441968 2.351284 0.082882 -0.034326 -293018.000000 0 0 1
-4.080802 -31.712889 -32.640651 45.692148 1.442820 2.366506 0.090106 -0.036888 252659.000000 0 0 1
-3.379202 -30.934459 -33.605091 45.800239 1.461990 2.394595 0.092049 -0.047231 90298.500000 0 0 1
34.294448 17.980271 12.846515 40.797454 0.482891 1.250461 0.095534 -0.037492 240748.000000 0 0 1
35.697898 17.808471 12.938415 41.939053 0.462740 1.257175 0.107208 -0.042749 80231.600000 0 0 1
35.997008 16.507771 13.397215 41.806417 0.429972 1.244583 0.117109 -0.020134 229471.000000 0 0 1
37.503358 16.217471 13.641815 43.076761 0.408145 1.248563 0.088050 -0.034737 561652.000000 0 0 1
-37.159626 15.756171 12.525815 42.260984 -0.401035 1.269884 0.101233 -0.018513 17746.400000 0 0 1
-37.347856 14.430171 12.104915 41.828473 -0.368703 1.277202 0.148573 -0.034297 224372.000000 0 0 1
-36.019476 13.569671 12.013115 40.321874 -0.360288 1.268272 0.170991 -0.016663 1481990.000000 0 0 1
-35.349405 12.922971 13.138915 39.864956 -0.350485 1.234932 0.152009 -0.014133 436148.000000 0 0 1
-36.177696 11.956671 13.718615 40.496766 -0.319197 1.225199 0.157220 -0.013731 -31942.100000 0 0 1
-35.530514 11.541771 15.063715 40.280832 -0.314088 1.187513 0.198745 -0.022939 191668.000000 0 0 1
-35.661974 12.449471 16.106515 41.063189 -0.335870 1.167734 0.188252 -0.016639 79566.300000 0 0 1
-35.120505 11.836171 17.258915 40.882942 -0.325061 1.134976 0.186632 -0.006929 -72599.000000 0 0 1
-35.086471 12.735771 18.536215 41.675551 -0.348193 1.109874 0.169803 -0.019366 -548362.000000 0 0 1
-36.315636 12.967871 19.146915 43.053402 -0.342975 1.109929 0.190815 -0.037664 -418328.000000 0 0 1
-36.276226 13.817571 20.201315 43.760518 -0.363932 1.090961 0.189499 -0.040178 -157136.000000 0 0 1
-37.593886 13.667171 20.964615 45.162007 -0.348693 1.088055 0.186141 -0.059161 -182694.000000 0 0 1
-37.674186 12.406871 21.644615 45.185884 -0.318134 1.071267 0.162144 -0.047244 1448220.000000 0 0 1
36.452728 12.162071 22.259815 44.409647 0.322026 1.045767 0.157460 -0.048728 1400550.000000 0 0 1
36.331208 10.735371 22.828185 44.230430 0.287311 1.028482 0.134484 -0.033234 283558.000000 0 0 1
37.109338 10.394871 23.992055 45.395760 0.273115 1.013953 0.142049 -0.026409 214981.000000 0 0 1
36.711098 11.165671 25.105415 45.854758 0.295260 0.991424 0.131100 -0.023265 -169327.000000 0 0 1
-37.525556 11.292271 26.133815 47.102643 -0.292303 0.982641 0.127511 -0.027485 1812320.000000 0 0 1
-36.477806 12.239571 25.773195 46.310852 -0.323731 0.980598 0.151325 -0.039736 1355160.000000 0 0 1
-35.613082 11.805671 24.660165 44.897541 -0.320098 0.989325 0.144206 -0.040445 289761.000000 0 0 1
-34.560274 12.889771 24.209435 44.120919 -0.356985 0.989980 0.143583 -0.047070 1744870.000000 0 0 1
-33.535466 13.285371 25.204225 44.004335 -0.377191 0.960919 0.135514 -0.044467 1171530.000000 0 0 1
-34.058194 14.030971 26.288665 45.253979 -0.390783 0.950945 0.128198 -0.034081 -699549.000000 0 0 1
-32.941366 14.559571 27.170715 45.114991 -0.416168 0.924474 0.123843 -0.027241 -246580.000000 0 0 1
-32.304486 15.733071 26.695355 44.763281 -0.453213 0.931828 0.137338 -0.027184 233112.000000 0 0 1
-31.591526 16.343571 27.793305 45.139834 -0.477423 0.907502 0.116865 -0.030101 38551.100000 0 0 1
-30.831476 17.636771 27.509785 44.926872 -0.519605 0.911800 0.102685 -0.030185 -270775.000000 0 0 1
-31.659636 18.649971 26.974835 45.582844 -0.532349 0.937536 0.126642 -0.031461 439904.000000 0 0 1
-30.900166 19.723371 26.415375 45.184108 -0.568102 0.946389 0.119396 -0.026422 -123274.000000 0 0 1
-31.756926 20.596071 25.505085 45.642194 -0.575358 0.977852 0.129395 -0.014427 -28174.800000 0 0 1
-32.425126 21.646071 26.177175 46.959404 -0.588628 0.979494 0.135048 -0.021141 758257.000000 0 0 1
-33.555196 22.132771 25.448775 47.575738 -0.583089 1.006394 0.139581 -0.016495 351365.000000 0 0 1
-33.864716 23.641871 25.603425 48.593131 -0.609468 1.015854 0.133343 -0.016079 263940.000000 0 0 1
-35.028470 24.021671 24.876085 49.222495 -0.601115 1.040974 0.140081 -0.017387 207816.000000 0 0 1
-35.085852 25.427071 24.671145 49.861993 -0.627118 1.053205 0.139291 -0.025719 380191.000000 0 0 1
-36.177226 25.867871 23.650625 50.371525 -0.620743 1.082045 0.146263 -0.019050 371703.000000 0 0 1
-36.002496 25.398071 22.370915 49.413556 -0.614376 1.100974 0.145023 -0.031071 -553432.000000 0 0 1
-37.077366 25.832171 21.620315 50.094612 -0.608514 1.124542 0.150610 -0.032333 -629804.000000 0 0 1
-36.857276 25.822671 20.083115 49.280834 -0.611137 1.151055 0.185599 -0.045200 -1910.660000 0 0 1
-36.976456 24.504471 19.566615 48.482778 -0.585255 1.155371 0.171039 -0.045739 71830.000000 0 0 1
-36.481686 24.448771 18.245015 47.555613 -0.590421 1.177044 0.176864 -0.049372 -198397.000000 0 0 1
-36.852286 23.266771 17.392015 46.924575 -0.563154 1.191101 0.190213 -0.046987 170151.000000 0 0 1
37.196408 23.186571 17.097915 47.048152 0.557416 1.198867 0.151123 -0.052313 -154458.000000 0 0 1
37.015118 22.505771 15.879915 46.138925 0.546293 1.219435 0.152144 -0.046350 -527497.000000 0 0 1
35.617338 22.363871 15.318915 44.759431 0.560677 1.221486 0.130413 -0.036953 -736327.000000 0 0 1
34.725188 21.401771 15.837615 43.757337 0.552332 1.200446 0.124688 -0.042327 263935.000000 0 0 1
33.545628 21.541171 15.030415 42.605687 0.570834 1.210256 0.110582 -0.034190 62050.900000 0 0 1
32.365978 20.675271 15.564815 41.440160 0.568459 1.185755 0.077503 -0.041815 542524.000000 0 0 1
31.682818 21.073771 16.766215 41.581375 0.586951 1.155769 0.083198 -0.037104 248174.000000 0 0 1
30.770988 22.143671 16.641815 41.402245 0.623778 1.157146 0.085179 -0.028793 -638881.000000 0 0 1
30.296798 22.678671 17.965015 41.892241 0.642573 1.127589 0.077959 -0.022092 -131963.000000 0 0 1
31.246078 23.333871 18.779115 43.283277 0.641436 1.122018 0.032193 -0.015660 -524592.000000 0 0 1
30.656188 24.328071 19.580515 43.761324 0.670813 1.106897 0.045461 -0.010451 262655.000000 0 0 1
31.578188 24.979771 20.672515 45.260621 0.669257 1.096465 0.032719 -0.015144 368011.000000 0 0 1
32.592328 25.823471 20.143215 46.204552 0.670039 1.119695 0.044266 -0.020174 -216151.000000 0 0 1
33.292948 26.371971 21.195015 47.467146 0.669917 1.107924 0.070273 -0.027268 -436623.000000 0 0 1
34.605218 27.044371 20.667915 48.539488 0.663365 1.130955 0.077815 -0.025095 -121207.000000 0 0 1
35.496458 27.414071 21.656215 49.804834 0.657624 1.120956 0.088828 -0.019244 -65754.100000 0 0 1
35.069128 28.567671 22.452315 50.498139 0.683586 1.110050 0.063661 -0.016909 -34062.700000 0 0 1
36.088518 28.712371 23.615905 51.812087 0.672058 1.097526 0.068122 -0.020370 1056280.000000 0 0 1
37.348208 29.309571 23.332055 52.899191 0.665382 1.114010 0.100883 -0.025458 312255.000000 0 0 1
-37.275616 29.554971 24.461625 53.491485 -0.670382 1.095840 0.108011 -0.015542 249858.000000 0 0 1
-36.048086 30.448571 24.182975 53.022601 -0.701389 1.097202 0.130026 -0.022591 -148729.000000 0 0 1
-34.952906 29.786971 23.606615 51.635662 -0.705772 1.095978 0.123085 -0.023162 -306545.000000 0 0 1
-33.872166 30.703671 23.632235 51.463789 -0.736371 1.093701 0.126839 -0.019965 -205866.000000 0 0 1
-32.472956 30.241271 23.241485 50.091855 -0.749828 1.088317 0.128386 -0.020166 -376024.000000 0 0 1
-32.341926 29.782671 21.858915 49.100100 -0.744226 1.109409 0.111462 -0.017308 153018.000000 0 0 1
-32.870356 28.487071 21.422015 48.485835 -0.714081 1.113170 0.138839 -0.018251 157167.000000 0 0 1
-32.183946 27.243471 22.074515 47.595139 -0.702454 1.088519 0.134105 -0.019852 449828.000000 0 0 1
-30.755966 27.235171 21.977515 46.590719 -0.724760 1.079562 0.106730 -0.022711 627142.000000 0 0 1
-30.176146 26.253771 22.828095 46.054122 -0.716001 1.052179 0.104808 -0.022752 -60740.900000 0 0 1
-29.955256 26.683071 24.310545 46.907422 -0.727689 1.025974 0.093304 -0.012326 245011.000000 0 0 1
-31.179456 26.996571 24.992115 48.224259 -0.713621 1.025995 0.100226 -0.012052 548730.000000 0 0 1
-30.909846 27.373371 26.330115 48.969327 -0.724795 1.003106 0.106067 -0.010367 140719.000000 0 0 1
-32.152196 27.464671 27.250345 50.305598 -0.706932 0.998343 0.119676 -0.023370 143911.000000 0 0 1
-32.783126 26.263671 27.573465 50.247485 -0.675432 0.989924 0.107859 -0.023227 -538280.000000 0 0 1
-33.866486 26.433971 28.415825 51.508764 -0.662759 0.986432 0.108395 -0.024771 -523103.000000 0 0 1
-34.343843 25.044471 28.938665 51.421507 -0.630074 0.973059 0.101131 -0.024558 80385.700000 0 0 1
-33.715476 24.455171 30.094075 51.385232 -0.627531 0.945107 0.096089 -0.028628 -53417.400000 0 0 1
-34.347153 23.280371 30.484855 51.488144 -0.595668 0.937165 0.081571 -0.039842 -481721.000000 0 0 1
-33.550416 22.476971 31.477245 51.202164 -0.590270 0.908710 0.076869 -0.047128 -869779.000000 0 0 1
-32.499156 21.732071 30.896615 49.830501 -0.589407 0.902010 0.082861 -0.038857 -341752.000000 0 0 1
-31.766056 21.011571 31.814393 49.625840 -0.584380 0.874885 0.080217 -0.034133 139847.000000 0 0 1
-30.637136 21.769071 32.583168 49.741224 -0.617768 0.856543 0.084366 -0.032809 -358968.000000 0 0 1
-31.091886 22.513271 33.698045 51.079458 -0.626710 0.850353 0.094291 -0.031524 173210.000000 0 0 1
-31.216766 21.846071 -32.729001 50.228725 -0.610604 2.280487 0.077981 -0.025600 -419140.000000 0 0 1
-30.216976 22.245871 -31.648181 49.087185 -0.634613 2.271472 0.112172 -0.026241 -200935.000000 0 0 1
-30.473826 23.566171 -31.142971 49.536886 -0.658263 2.250654 0.091191 -0.015575 -168776.000000 0 0 1
-29.878676 23.690571 -29.900161 48.456145 -0.670392 2.235792 0.119572 -0.015473 -145731.000000 0 0 1
-30.075616 25.160571 -29.321141 48.962499 -0.696650 2.212859 0.080262 -0.006312 197749.000000 0 0 1
-29.442666 26.325171 -29.903811 49.539107 -0.729555 2.218856 0.089225 -0.015444 481160.000000 0 0 1
-30.189296 26.755571 -31.037451 50.897716 -0.725172 2.226605 0.065981 0.002768 56133.600000 0 0 1
-29.836456 28.174571 -31.517621 51.743415 -0.756758 2.225739 0.068836 -0.004176 15705.700000 0 0 1
-30.277516 29.260471 -30.695231 52.106624 -0.768318 2.200722 0.044794 -0.011293 -92570.500000 0 0 1
-29.804716 30.487371 -31.192731 52.827903 -0.796720 2.202424 0.046934 -0.021859 -98340.400000 0 0 1
-30.212076 31.770071 -30.395291 53.347733 -0.810529 2.177008 0.031881 -0.009955 220061.000000 0 0 1
-29.452876 31.892871 -29.180251 52.307878 -0.825152 2.162596 0.032092 -0.014987 283065.000000 0 0 1
-29.786816 33.050471 -28.419021 52.794212 -0.837290 2.139213 0.012288 -0.009895 -527661.000000 0 0 1
-28.963196 33.279671 -27.131831 51.793238 -0.854636 2.122160 0.002872 -0.014119 -657443.000000 0 0 1
-27.616246 33.605171 -27.207261 51.304967 -0.882912 2.129756 0.042524 -0.014284 -563904.000000 0 0 1
-27.373876 -32.711156 -27.456521 50.726811 0.873994 2.142734 0.049503 -0.006406 -485231.000000 0 0 1
-27.890106 -31.609756 -26.429671 49.755022 0.847832 2.130808 0.055954 -0.016325 163513.000000 0 0 1
-29.302216 -31.477956 -26.367941 50.445514 0.821180 2.120813 0.037646 -0.023463 34166.600000 0 0 1
-29.650766 -30.663056 -25.286461 49.586248 0.802180 2.105922 0.047194 -0.020495 -277775.000000 0 0 1
-31.148726 -30.385156 -25.125941 50.247525 0.772990 2.094445 0.024233 -0.019223 -266590.000000 0 0 1
-31.670196 -29.494556 -26.085071 50.530793 0.749843 2.113229 0.030482 -0.019231 215047.000000 0 0 1
-33.069776 -29.331956 -25.884131 51.224622 0.725570 2.100533 0.036111 -0.020570 216294.000000 0 0 1
-33.626496 -28.314556 -26.910211 51.542359 0.699849 2.120106 0.053106 -0.025782 104713.000000 0 0 1
-35.037618 -28.285456 -26.775541 52.389229 0.679169 2.107247 0.061120 -0.027103 -17049.700000 0 0 1
-35.655827 -27.648956 -27.849721 53.022728 0.659585 2.123795 0.072989 -0.026818 -418490.000000 0 0 1
-37.133846 -27.937956 -28.004121 54.255716 0.645009 2.113147 0.067848 -0.030750 -538405.000000 0 0 1
37.368788 -27.386456 -27.127061 53.687259 -0.632447 2.100502 0.064947 -0.018428 -1104700.000000 0 0 1
36.064028 -27.674656 -27.506331 53.132843 -0.654529 2.114945 0.067024 -0.019572 -959470.000000 0 0 1
35.055608 -27.075556 -26.569321 51.651817 -0.657659 2.111096 0.053378 -0.012808 -563059.000000 0 0 1
34.791898 -27.799956 -25.329491 51.233747 -0.674152 2.087930 0.061447 -0.012035 81853.300000 0 0 1
33.831618 -27.170156 -24.522201 49.841088 -0.676628 2.085191 0.062695 -0.010130 -38458.600000 0 0 1
33.555418 -27.804456 -23.199201 49.368581 -0.691946 2.059995 0.067059 -0.014158 4963.860000 0 0 1
32.938208 -29.093856 -23.194701 49.692778 -0.723504 2.056422 0.081597 -0.015208 124808.000000 0 0 1
32.583908 -29.553556 -21.875201 49.128893 -0.736668 2.032263 0.080728 -0.020211 398297.000000 0 0 1
33.715558 -29.700156 -20.784701 49.505979 -0.722164 2.004068 0.068438 -0.021326 -848326.000000 0 0 1
34.732648 -30.583856 -21.125201 50.872421 -0.721965 1.999023 0.063526 -0.028851 471167.000000 0 0 1
35.826498 -30.670256 -20.174101 51.295194 -0.708012 1.975008 0.045355 -0.027360 1022560.000000 0 0 1
36.803078 -29.475756 -20.257501 51.319130 -0.675292 1.976577 0.033015 -0.023148 -940321.000000 0 0 1
36.257068 -28.328556 -19.621601 50.020889 -0.663250 1.973892 0.028618 -0.010271 272713.000000 0 0 1
36.851278 -27.172856 -20.204301 50.045925 -0.635366 1.986370 0.015314 -0.008085 -208612.000000 0 0 1
36.019458 -25.996656 -19.735801 48.607914 -0.625168 1.988891 0.017572 -0.008921 165882.000000 0 0 1
34.874518 -25.938156 -20.573101 48.086094 -0.639493 2.012897 0.046529 -0.012002 -254224.000000 0 0 1
33.906378 -25.058456 -20.093101 46.704405 -0.636455 2.015531 0.083770 -0.015641 -408144.000000 0 0 1
32.745198 -24.810156 -21.066401 46.169092 -0.648394 2.044615 0.089003 -0.015831 -164564.000000 0 0 1
31.867238 -25.919256 -21.168501 46.210758 -0.682829 2.046637 0.110533 -0.012819 -212305.000000 0 0 1
30.712338 -25.547656 -21.872001 45.544647 -0.693854 2.071716 0.097729 -0.011980 -158365.000000 0 0 1
29.775998 -26.691456 -22.271101 45.771671 -0.730827 2.078955 0.097491 -0.011120 -25611.600000 0 0 1
29.025098 -27.332356 -21.261701 45.183780 -0.755371 2.060722 0.093711 -0.007771 -200658.000000 0 0 1
28.482798 -28.473656 -21.776001 45.784420 -0.785238 2.066465 0.077545 -0.004590 -141031.000000 0 0 1
27.677698 -29.299456 -20.690101 45.305556 -0.813854 2.045055 0.073936 0.009832 -75614.400000 0 0 1
28.343298 -30.034056 -19.658201 45.736549 -0.814353 2.015083 0.099351 -0.007145 -181319.000000 0 0 1
28.917598 -31.271056 -20.053901 47.077228 -0.824480 2.010840 0.102965 -0.008726 94048.700000 0 0 1
29.894698 -31.880156 -19.027501 47.666373 -0.817527 1.981420 0.073547 -0.014978 -8601.320000 0 0 1
29.340498 -32.424356 -17.832001 47.224823 -0.835286 1.957997 0.075824 -0.012023 -27104.800000 0 0 1
28.995898 -31.488456 -16.815601 45.989666 -0.826585 1.945115 0.067158 -0.017268 -59410.700000 0 0 1
28.437998 -32.118856 -15.532801 45.624649 -0.846107 1.918189 0.076382 -0.013787 72969.800000 0 0 1
27.237598 -32.858856 -15.662101 45.463090 -0.878664 1.922504 0.066356 -0.006678 15184.500000 0 0 1
26.845498 -33.433456 -14.443201 45.244699 -0.894257 1.895707 0.077199 -0.013004 160518.000000 0 0 1
25.309698 -33.687656 -14.442301 44.542329 -0.926461 1.901002 0.085963 -0.015495 612138.000000 0 0 1
24.632798 -32.427356 -14.263601 43.148099 -0.921160 1.907707 0.085028 -0.010673 -192696.000000 0 0 1
23.238798 -32.590556 -14.265801 42.493519 -0.951363 1.913163 0.106286 -0.022542 -271413.000000 0 0 1
-0.938976 -7.251129 -28.726431 29.642341 1.442019 2.892357 0.108806 -0.038572 195550.000000 0 0 1
-0.105576 -8.392829 -28.663211 29.866878 1.558218 2.856725 0.121882 -0.039121 298450.000000 0 0 1
-0.507376 -9.232629 -29.762151 31.165437 1.515897 2.840365 0.127938 -0.047925 166778.000000 0 0 1
-0.200876 -10.698429 -29.464811 31.347597 1.552022 2.793246 0.136753 -0.037942 241154.000000 0 0 1
1.178424 -10.932629 -29.240301 31.239498 -1.463421 2.781898 0.106631 -0.035415 196171.000000 0 0 1
1.409024 -12.235429 -28.732961 31.261384 -1.456142 2.736637 0.131014 -0.035034 231521.000000 0 0 1
2.918724 -12.498329 -28.469231 31.228581 -1.341379 2.718054 0.106957 -0.022734 162941.000000 0 0 1
3.665024 -12.467129 -29.666641 32.387826 -1.284876 2.728743 0.120869 -0.031284 1748050.000000 0 0 1
5.125224 -12.570929 -29.512941 32.485533 -1.183666 2.710465 0.118132 -0.028541 2490170.000000 0 0 1
5.707024 -14.040029 -29.291911 32.980427 -1.184714 2.664123 0.123620 -0.029944 -334346.000000 0 0 1
5.430924 -14.612929 -28.014781 32.060265 -1.214964 2.633792 0.108519 -0.026428 -113728.000000 0 0 1
6.191124 -15.757029 -27.671501 32.439574 -1.196415 2.592535 0.115214 -0.017193 -216469.000000 0 0 1
5.935924 -17.178629 -28.242631 33.585513 -1.238099 2.569772 0.080757 -0.019509 -383563.000000 0 0 1
6.194024 -17.307529 -29.656621 34.891713 -1.227118 2.586709 0.098240 -0.041922 89229.000000 0 0 1
6.096824 -18.643829 -30.095691 35.923728 -1.254742 2.563976 0.086242 -0.033214 -353674.000000 0 0 1
6.799924 -18.939629 -31.440601 37.329076 -1.226098 2.572249 0.094808 -0.061107 81875.200000 0 0 1
8.199424 -19.112929 -31.304961 37.583709 -1.165544 2.555195 0.098638 -0.051469 65891.700000 0 0 1
8.785824 -19.771929 -32.424011 38.979948 -1.152644 2.553162 0.102880 -0.051859 138213.000000 0 0 1
10.283924 -19.389929 -32.495071 39.212984 -1.083145 2.547544 0.099315 -0.053943 -48569.500000 0 0 1
10.500824 -18.083029 -32.946701 39.022408 -1.044689 2.576058 0.119377 -0.056853 273195.000000 0 0 1
11.544624 -18.032029 33.732425 39.953835 -1.001321 0.565567 0.114085 -0.042583 -300817.000000 0 0 1
11.638424 -16.653329 33.079174 38.820331 -0.960833 0.550793 0.111337 -0.037998 25096.900000 0 0 1
10.532924 -16.381229 32.228057 37.655476 -0.999367 0.543573 0.131327 -0.037867 177027.000000 0 0 1
10.632324 -15.174329 31.530285 36.571375 -0.959615 0.531284 0.120458 -0.028807 -95215.400000 0 0 1
9.544624 -14.839829 30.485295 35.223197 -0.999233 0.524670 0.167369 -0.036071 22190.600000 0 0 1
9.602924 -15.642629 29.350955 34.617721 -1.020223 0.558862 0.154652 -0.032901 192042.000000 0 0 1
8.527724 -15.391129 28.461505 33.461414 -1.064836 0.553715 0.157550 -0.030370 -131630.000000 0 0 1
8.449024 -16.400229 27.346935 32.988004 -1.095081 0.593486 0.120483 -0.034513 -474295.000000 0 0 1
8.062724 -17.723929 27.724325 33.878952 -1.143870 0.612289 0.118164 -0.034855 348361.000000 0 0 1
8.046924 -18.622229 26.596135 33.449885 -1.162916 0.651617 0.097568 -0.028738 -40968.100000 0 0 1
7.809624 -20.098029 27.034755 34.580327 -1.200176 0.673256 0.097073 -0.033997 -170882.000000 0 0 1
8.675324 -20.535929 28.074725 35.849349 -1.171091 0.671112 0.115868 -0.031437 253745.000000 0 0 1
8.079124 -21.479429 28.892125 36.897060 -1.211033 0.671247 0.096973 -0.028791 -247267.000000 0 0 1
8.600524 -21.194429 30.317315 37.977789 -1.185307 0.646345 0.118541 -0.045745 -417972.000000 0 0 1
7.959624 -20.326129 31.202195 38.079970 -1.197556 0.610457 0.120462 -0.052922 -61583.500000 0 0 1
8.032824 -18.961029 30.797105 37.047383 -1.170070 0.589373 0.123588 -0.046859 74087.600000 0 0 1
7.304224 -18.083229 31.867401 37.361560 -1.186913 0.549193 0.123457 -0.046786 215379.000000 0 0 1
5.915924 -18.289229 31.981816 37.313947 -1.257953 0.541181 0.130538 -0.054123 -242874.000000 0 0 1
5.394324 -17.497229 33.047379 37.780697 -1.271746 0.505947 0.128391 -0.049782 624669.000000 0 0 1
3.831924 -17.579829 33.146590 37.715123 -1.356180 0.497314 0.139514 -0.050473 615357.000000 0 0 1
3.393724 -18.763429 33.766135 38.778029 -1.391862 0.514062 0.124499 -0.059035 69005.200000 0 0 1
2.866824 -18.488829 -32.584721 37.574187 -1.416964 2.620369 0.130484 -0.063915 -363410.000000 0 0 1
2.474224 -19.674029 -31.665211 37.361408 -1.445692 2.582125 0.104724 -0.036786 -484400.000000 0 0 1
1.325324 -20.356329 -32.145181 38.071633 -1.505782 2.576118 0.100932 -0.031888 -7466.270000 0 0 1
0.760124 -21.191129 -31.195051 37.719662 -1.534942 2.544589 0.106703 -0.029129 53478.800000 0 0 1
-0.206076 -20.452429 -30.260021 36.524145 1.560721 2.547209 0.114030 -0.034248 -268441.000000 0 0 1
-1.395176 -19.879329 -30.788871 36.675452 1.500729 2.567150 0.125161 -0.046013 435946.000000 0 0 1
-2.189076 -19.012329 -29.989441 35.575656 1.456161 2.573589 0.168828 -0.035822 289151.000000 0 0 1
-1.632176 -17.598329 -29.875421 34.711755 1.478315 2.607384 0.143663 -0.032501 -476913.000000 0 0 1
-2.429776 -16.670429 -29.186191 33.699269 1.426062 2.618099 0.157898 -0.037548 -497441.000000 0 0 1
-2.146576 -15.315729 -29.471731 33.283063 1.431548 2.658338 0.156556 -0.038149 -337953.000000 0 0 1
-3.055376 -14.215829 -28.960321 32.405637 1.359089 2.676281 0.148404 -0.030223 -280430.000000 0 0 1
-3.052576 -14.027629 -27.563331 31.077802 1.356525 2.661417 0.142976 -0.033335 -428372.000000 0 0 1
-4.080476 -13.162629 -27.202151 30.493640 1.270186 2.672679 0.117941 -0.039168 -304627.000000 0 0 1
-4.244976 -12.732729 -25.732871 29.022799 1.248994 2.660832 0.125122 -0.043780 -330011.000000 0 0 1
-4.894476 -13.675529 -24.895901 28.823287 1.227101 2.613446 0.150277 -0.035194 138200.000000 0 0 1
-4.983276 -13.304729 -23.538901 27.494158 1.212421 2.598553 0.131716 -0.035586 -223694.000000 0 0 1
-6.198076 -12.404529 -23.225101 27.049839 1.107419 2.603337 0.106264 -0.032217 220386.000000 0 0 1
-7.421976 -13.117329 -23.459801 27.883907 1.055893 2.570551 0.113884 -0.031894 -237283.000000 0 0 1
-8.452876 -12.173529 -23.559201 27.833107 0.963862 2.580070 0.092332 -0.033999 -619678.000000 0 0 1
-9.793276 -12.836729 -23.828501 28.783455 0.919084 2.546068 0.105206 -0.039291 -616498.000000 0 0 1
-10.486176 -13.523729 -22.856501 28.552947 0.911242 2.498918 0.098543 -0.043504 -542786.000000 0 0 1
-11.613276 -14.204029 -23.339801 29.687858 0.885413 2.475389 0.080679 -0.036450 -60185.700000 0 0 1
-12.439476 -14.816529 -22.199901 29.446658 0.872390 2.424778 0.069671 -0.029396 -94067.500000 0 0 1
-11.730776 -15.936329 -21.687501 29.358566 0.936249 2.401953 0.108862 -0.034009 -183393.000000 0 0 1
-12.466376 -17.114429 -21.373701 30.085699 0.941255 2.360901 0.105792 -0.031971 131619.000000 0 0 1
-13.120076 -17.901129 -22.527201 31.623750 0.938317 2.363638 0.109595 -0.030133 -220038.000000 0 0 1
-14.240276 -17.394729 -23.185001 32.294060 0.884784 2.371626 0.059942 -0.020347 -468257.000000 0 0 1
-14.743276 -18.322429 -24.108501 33.679302 0.893222 2.368602 0.024888 -0.009748 131493.000000 0 0 1
-15.960076 -17.819729 -24.913901 34.539386 0.840395 2.376501 0.024635 -0.013430 834980.000000 0 0 1
-17.177076 -17.647429 -24.168501 34.505074 0.798904 2.346801 0.028720 -0.007236 874092.000000 0 0 1
-18.300376 -17.244729 -24.929901 35.408818 0.755708 2.351894 0.027359 -0.008003 517299.000000 0 0 1
-19.066276 -15.990229 -24.432901 34.873728 0.697877 2.347049 0.034116 -0.007046 -9473.300000 0 0 1
-19.833576 -16.120529 -23.247701 34.549932 0.682491 2.308881 0.032505 -0.010995 338258.000000 0 0 1
-20.305176 -14.830629 -22.793401 33.937985 0.630830 2.307188 0.040481 -0.016556 -32597.100000 0 0 1
-20.721176 -14.756029 -21.310001 33.184690 0.618816 2.268114 0.039107 -0.018753 -413577.000000 0 0 1
-19.752576 -14.498929 -20.331401 31.839426 0.633200 2.263423 0.043121 -0.012434 -211279.000000 0 0 1
-20.286876 -14.404629 -18.991001 31.300300 0.617437 2.222744 0.050160 -0.018184 93859.200000 0 0 1
-20.939676 -13.045529 -18.532501 30.856270 0.557164 2.215057 0.053601 -0.025603 514056.000000 0 0 1
-22.189876 -12.744929 -19.153001 31.963436 0.521352 2.213318 0.055412 -0.031637 514939.000000 0 0 1
-22.877376 -11.787629 -18.366101 31.617023 0.475775 2.190621 0.062019 -0.030068 410338.000000 0 0 1
-24.368476 -11.499829 -18.688301 32.792091 0.440928 2.177184 0.089405 -0.034081 362808.000000 0 0 1
-24.524876 -10.577929 -19.763301 33.225746 0.407207 2.207837 0.071939 -0.032896 -610324.000000 0 0 1
-25.893056 -10.427129 -19.955101 34.312992 0.382832 2.191443 0.097265 -0.035343 -740802.000000 0 0 1
-26.319086 -9.549429 -21.084401 35.049077 0.348061 2.216259 0.093534 -0.028222 -200122.000000 0 0 1
-26.127676 -10.045129 -22.348801 35.819393 0.367041 2.244558 0.079678 -0.033798 170947.000000 0 0 1
-26.836356 -9.232429 -23.261601 36.695092 0.331344 2.257402 0.049191 -0.022016 92223.400000 0 0 1
-27.047806 -9.890829 -24.624601 37.891731 0.350574 2.278206 0.061479 -0.019718 -150246.000000 0 0 1
-25.940276 -9.663929 -25.446011 37.600384 0.356617 2.314134 0.028314 -0.015397 -342627.000000 0 0 1
-25.410496 -10.895329 -25.862251 37.858387 0.405062 2.322838 0.034308 -0.013656 -542141.000000 0 0 1
-24.471976 -10.671229 -27.049161 38.005392 0.411200 2.362739 0.030678 -0.015827 -75856.000000 0 0 1
-24.932076 -10.970029 -28.375311 39.333296 0.414504 2.376628 0.037174 -0.006553 559145.000000 0 0 1
-23.797976 -10.883429 -29.257581 39.253009 0.428929 2.411869 0.039407 -0.009243 879477.000000 0 0 1
-24.151476 -11.177929 -30.738561 40.658320 0.433469 2.428010 0.043652 -0.010135 31064.300000 0 0 1
-25.081626 -10.333129 -31.372431 41.473979 0.390791 2.428644 0.036565 -0.017396 -60196.900000 0 0 1
-24.492176 -9.116829 -31.845271 41.195928 0.356344 2.454384 0.042794 -0.018319 -418327.000000 0 0 1
-25.532456 -8.070429 -32.205311 41.883412 0.306148 2.447958 0.037563 -0.011385 -310221.000000 0 0 1
-26.411726 -8.212529 -33.329561 43.311482 0.301465 2.448904 0.062889 -0.017899 1842520.000000 0 0 1
-27.695936 -8.838929 -33.079531 44.039152 0.308924 2.420582 0.060812 -0.017205 1194590.000000 0 0 1
-28.780936 -8.097729 -32.260611 43.984798 0.274267 2.394179 0.053569 -0.005150 528484.000000 0 0 1
-30.086736 -8.696529 -32.199031 44.917912 0.281380 2.370058 0.070364 -0.011254 1200130.000000 0 0 1
-30.889436 -8.270429 -31.080621 44.593298 0.261607 2.341973 0.068182 -0.004053 304018.000000 0 0 1
-32.376816 -8.624029 -31.195931 45.780107 0.260320 2.320511 0.068109 -0.010373 -169696.000000 0 0 1
-32.579456 -10.025229 -31.192821 46.205175 0.298521 2.311888 0.068896 -0.008523 219021.000000 0 0 1
-33.952836 -10.351729 -31.056721 47.164322 0.295933 2.289592 0.065311 -0.006569 109709.000000 0 0 1
-34.256401 -11.815629 -31.268561 47.862647 0.332140 2.282728 0.076066 -0.010067 477632.000000 0 0 1
-35.630766 -12.195129 -31.137761 48.865456 0.329767 2.261674 0.051186 -0.005201 722405.000000 0 0 1
-35.532726 -13.519329 -31.464181 49.349180 0.363562 2.262153 0.043882 -0.020241 509026.000000 0 0 1
-36.886136 -14.225529 -31.191681 50.357459 0.368084 2.238781 0.042457 -0.022643 219230.000000 0 0 1
-37.007676 -14.503129 -29.770251 49.660615 0.373500 2.213640 0.051050 -0.020215 -204915.000000 0 0 1
37.593158 -15.610229 -29.554361 50.302933 -0.393576 2.198796 0.044246 -0.019205 -191279.000000 0 0 1
37.387368 -15.822729 -28.022641 49.329935 -0.400354 2.174950 0.052376 -0.002518 128604.000000 0 0 1
-36.820236 -16.120429 -27.385121 48.636846 0.412674 2.168872 0.079677 -0.026020 -8433.500000 0 0 1
-36.971136 -16.130729 -26.032631 48.007949 0.411408 2.143917 0.085413 -0.026163 -181191.000000 0 0 1
-35.845965 -15.524929 -25.162401 46.466149 0.408712 2.143042 0.145205 -0.036519 97762.800000 0 0 1
-34.593798 -16.169929 -25.307881 45.811421 0.437248 2.156080 0.144161 -0.038245 -38418.400000 0 0 1
-33.634186 -15.613129 -24.446201 44.414468 0.434603 2.153652 0.163093 -0.029639 -756502.000000 0 0 1
-32.236066 -16.169029 -24.624901 43.669064 0.464912 2.169895 0.156181 -0.045127 -537246.000000 0 0 1
-31.904526 -17.365929 -23.916601 43.491126 0.498464 2.153064 0.164547 -0.051647 181160.000000 0 0 1
-32.468616 -18.545729 -24.524001 44.716682 0.518966 2.151283 0.132431 -0.052301 -52400.600000 0 0 1
-32.135286 -19.897329 -23.884501 44.710733 0.554399 2.134358 0.126803 -0.047676 563861.000000 0 0 1
-30.794656 -20.303629 -24.178101 44.103613 0.582901 2.151020 0.127260 -0.033467 429291.000000 0 0 1
-30.528366 -21.526329 -23.545301 44.155918 0.614158 2.133212 0.116683 -0.017722 -616314.000000 0 0 1
-29.101896 -22.058629 -23.696601 43.531969 0.648588 2.146410 0.120600 -0.016764 -70956.500000 0 0 1
-28.041636 -21.333529 -23.077901 42.119381 0.650365 2.150668 0.117125 -0.006598 61715.100000 0 0 1
-27.973546 -21.166529 -21.674101 41.234789 0.647751 2.124248 0.119116 -0.020081 -574941.000000 0 0 1
-27.796176 -22.465329 -20.862001 41.382864 0.679731 2.099161 0.110165 -0.009217 -76798.800000 0 0 1
-28.024506 -22.225929 -19.512101 40.744164 0.670513 2.070190 0.108573 -0.012698 -12094.000000 0 0 1
-28.225346 -23.449829 -18.854501 41.255991 0.693246 2.045430 0.110775 0.016105 93763.900000 0 0 1
-28.201326 -23.197829 -17.341901 40.425185 0.688358 2.014168 0.099607 0.006508 77755.200000 0 0 1
-29.326796 -22.486529 -16.883501 40.629515 0.654140 1.999341 0.108755 0.002011 -173022.000000 0 0 1
-28.993286 -21.418429 -16.017801 39.445274 0.636254 1.988953 0.107914 -0.011994 584116.000000 0 0 1
-30.271166 -20.688429 -15.475801 39.797675 0.599523 1.970192 0.117132 -0.008377 593367.000000 0 0 1
-31.029746 -19.999829 -16.445601 40.414058 0.572525 1.989885 0.125662 -0.021206 -521054.000000 0 0 1
-32.210206 -19.486929 -15.901601 40.866841 0.544082 1.970459 0.131994 -0.021004 -598558.000000 0 0 1
-33.054506 -18.853029 -17.014201 41.683571 0.518342 1.991251 0.139968 -0.058598 -1475230.000000 0 0 1
-33.909096 -19.784229 -17.482501 42.975345 0.528161 1.989748 0.099380 -0.045716 -1054960.000000 0 0 1
-34.512455 -19.213829 -18.638401 43.676890 0.507989 2.011674 0.087400 -0.045253 -485215.000000 0 0 1
-35.679676 -20.045529 -19.253601 45.227908 0.511872 2.010534 0.060796 -0.034995 385405.000000 0 0 1
-36.880356 -20.057729 -18.503301 45.878593 0.498117 1.985928 0.043162 -0.025201 -56522.800000 0 0 1
-36.987436 -20.591829 -17.191701 45.690791 0.507992 1.956555 0.063928 -0.030144 -934674.000000 0 0 1
-37.485286 -22.018829 -17.114101 46.721172 0.531103 1.945829 0.052286 0.003099 308237.000000 0 0 1
36.525198 -22.093229 -17.141001 46.000161 -0.543997 1.952637 0.044238 -0.021000 427749.000000 0 0 1
36.072338 -23.454729 -17.079301 46.292984 -0.576525 1.948664 0.051546 -0.018784 208265.000000 0 0 1
34.708588 -23.690229 -16.377801 45.101501 -0.598916 1.942424 0.046190 -0.024382 -202050.000000 0 0 1
33.639468 -23.650429 -17.293801 44.609776 -0.612774 1.968897 0.064100 -0.031571 -413939.000000 0 0 1
32.436518 -23.648129 -16.554601 43.421383 -0.629963 1.961949 0.094571 -0.037940 -212394.000000 0 0 1
31.184788 -23.969929 -17.371001 42.997676 -0.655325 1.986680 0.097554 -0.049226 -431916.000000 0 0 1
30.584038 -22.976329 -18.117701 42.326660 -0.644302 2.013124 0.085761 -0.047734 -946960.000000 0 0 1
29.407998 -23.515229 -18.584001 41.990016 -0.674509 2.029272 0.122062 -0.037302 -827157.000000 0 0 1
35.798388 29.869671 -18.051801 49.995893 0.695359 1.940207 0.033142 -0.016393 150368.000000 0 0 1
34.818258 29.609271 -19.071901 49.525321 0.704723 1.966106 0.029412 -0.029251 -135540.000000 0 0 1
35.441008 29.324371 -20.306501 50.282579 0.691234 1.986515 0.036685 -0.020962 -62042.900000 0 0 1
34.489588 29.327871 -21.537901 50.135186 0.704691 2.014842 0.063353 -0.031189 -71249.600000 0 0 1
33.474648 28.289071 -21.491101 48.812816 0.701636 2.026702 0.047810 -0.026170 820216.000000 0 0 1
32.596218 28.383471 -22.598501 48.773221 0.716423 2.052555 0.072396 -0.022948 572005.000000 0 0 1
31.486468 29.489571 -22.627001 48.713588 0.752661 2.053856 0.070989 -0.022111 -213596.000000 0 0 1
32.033498 30.820271 -22.613501 49.873886 0.766098 2.041388 0.085124 -0.030438 408828.000000 0 0 1
30.952378 31.771471 -22.607101 49.785109 0.798456 2.042151 0.082292 -0.013340 576.453000 0 0 1
31.266628 33.300971 -22.609601 50.968135 0.816895 2.030411 0.084284 -0.013948 -77260.000000 0 0 1
31.799618 33.806571 -21.426101 51.119250 0.815980 2.003294 0.078780 -0.016754 376385.000000 0 0 1
33.182868 33.521371 -21.218701 51.720579 0.790473 1.993532 0.074891 -0.027504 -59502.000000 0 0 1
33.502678 33.364971 -19.763201 51.246803 0.783339 1.966706 0.066881 -0.033188 -299098.000000 0 0 1
33.510818 -33.137756 -19.135501 50.865049 -0.779801 1.956489 0.069438 -0.028565 327295.000000 0 0 1
33.444468 -33.256956 -17.742701 50.392073 -0.782587 1.930603 0.055188 -0.036923 -870544.000000 0 0 1
33.579748 -31.934856 -17.006301 49.362423 -0.760296 1.922523 0.058488 -0.024083 -100760.000000 0 0 1
34.778598 -31.214756 -17.039801 49.742001 -0.731448 1.920441 0.068627 -0.029233 -225159.000000 0 0 1
35.934498 -31.827856 -16.519801 50.766174 -0.724869 1.902241 0.065446 -0.031155 -592039.000000 0 0 1
37.182098 -30.950356 -16.611601 51.150545 -0.694187 1.901553 0.061423 -0.010103 -413473.000000 0 0 1
-37.496256 -31.159756 -17.766901 51.889906 0.693365 1.920262 0.058025 -0.016762 164744.000000 0 0 1
-36.152076 -30.678356 -17.598501 50.575106 0.703676 1.926199 0.047216 -0.007326 720631.000000 0 0 1
-35.170246 -31.254456 -18.610201 50.597695 0.726516 1.947446 0.056048 -0.020012 -810621.000000 0 0 1
-34.720683 -32.572256 -18.360501 51.025343 0.753483 1.938883 0.050445 -0.019118 443004.000000 0 0 1
-33.801166 -33.157956 -19.310401 51.135706 0.775792 1.958032 0.068965 -0.023987 823170.000000 0 0 1
-32.357496 -32.588256 -19.355901 49.836260 0.788951 1.969680 0.069239 -0.024345 -1011540.000000 0 0 1
-32.271056 -31.283656 -19.978901 49.185818 0.769863 1.989080 0.068610 -0.020108 -171402.000000 0 0 1
-31.002376 -30.822056 -20.370501 48.229698 0.782482 2.006848 0.083850 -0.021255 -243831.000000 0 0 1
-30.130036 -31.715156 -21.276801 48.645374 0.811023 2.023486 0.087454 -0.025167 -829766.000000 0 0 1
-30.653906 -32.137756 -22.504001 49.788828 0.809025 2.039790 0.072826 -0.019551 -552182.000000 0 0 1
-30.009436 -33.326656 -22.951201 50.378466 0.837725 2.043815 0.066569 -0.018853 -609191.000000 0 0 1
-30.562726 33.635971 -24.140601 51.460930 -0.833232 2.059074 0.043074 -0.029927 130298.000000 0 0 1
-31.708656 32.888371 -23.636901 51.437213 -0.803659 2.048261 0.054793 -0.041941 1097360.000000 0 0 1
-32.395606 32.070571 -24.630401 51.813641 -0.780356 2.066175 0.049799 -0.032896 466533.000000 0 0 1
-33.270676 32.781671 -25.660771 53.292129 -0.777995 2.073175 0.053036 -0.044178 -366217.000000 0 0 1
-32.538496 33.421471 -26.750261 53.771041 -0.798784 2.091493 0.034911 -0.036142 343036.000000 0 0 1
-33.344286 -33.257556 -27.305361 54.437939 0.784096 2.096229 0.042886 -0.033532 391806.000000 0 0 1
-32.610906 -32.395956 -28.357061 54.010111 0.782092 2.123550 0.022682 -0.024929 -195584.000000 0 0 1
-32.481566 -32.993056 -29.641711 54.974766 0.793210 2.140268 0.026362 -0.023305 673959.000000 0 0 1
-33.694066 -33.214856 -30.393071 56.233935 0.778236 2.141799 0.054757 -0.022328 321755.000000 0 0 1
-33.489046 33.579071 -31.534641 56.951767 -0.786740 2.157607 0.070684 -0.016761 377.293000 0 0 1
-32.648356 -33.584656 -32.517071 57.019331 0.799534 2.177645 0.055439 -0.023076 -73010.400000 0 0 1
-32.726486 33.413271 -33.709591 57.652459 -0.795782 2.195311 0.064928 -0.036293 -352061.000000 0 0 1
-31.725416 33.740371 32.789946 56.745883 -0.816167 0.954719 0.061861 -0.034446 676533.000000 0 0 1
-30.356636 33.460771 33.080293 55.995128 -0.834001 0.938782 0.060598 -0.030640 512980.000000 0 0 1
-29.964366 32.177371 32.573098 54.719769 -0.820995 0.933193 0.058503 -0.030002 -547865.000000 0 0 1
-28.486236 31.808071 32.652608 53.753250 -0.840436 0.917945 0.072355 -0.028441 -537390.000000 0 0 1
-28.164856 31.135071 -33.761301 53.874643 -0.835444 2.248061 0.074857 -0.029019 -281955.000000 0 0 1
-26.796516 30.832571 -33.710681 52.963296 -0.855319 2.260737 0.077686 -0.026819 -313771.000000 0 0 1
-26.420306 29.401271 33.472864 51.796717 -0.838749 0.868156 0.095788 -0.025605 -235056.000000 0 0 1
-26.772986 28.400871 -33.197161 51.239182 -0.814894 2.275603 0.097815 -0.021779 40369.500000 0 0 1
-26.252586 27.170271 -33.563071 50.536142 -0.802574 2.297139 0.094024 -0.023051 -267671.000000 0 0 1
-25.988566 26.216571 -32.383481 49.106048 -0.789766 2.290897 0.126842 -0.029090 -190233.000000 0 0 1
-24.939376 26.554371 -31.503831 48.162210 -0.816751 2.283814 0.111432 -0.022344 -182309.000000 0 0 1
-25.172396 27.699371 -30.704471 48.411457 -0.833156 2.257821 0.097691 -0.026952 -6915.910000 0 0 1
-24.011576 27.994771 -29.735381 47.375688 -0.861839 2.249328 0.134206 -0.032685 882825.000000 0 0 1
-22.732776 28.340971 -30.298451 47.307355 -0.894766 2.265893 0.123460 -0.029374 894118.000000 0 0 1
-21.669476 28.287871 -29.349511 46.164528 -0.917112 2.259788 0.088122 -0.031608 519035.000000 0 0 1
-21.322176 29.669471 -28.709801 46.466820 -0.947658 2.236809 0.081935 -0.028510 -508557.000000 0 0 1
-20.478276 30.525471 -29.415541 47.079063 -0.979897 2.245686 0.086748 -0.021977 -116876.000000 0 0 1
-20.393176 31.705071 -28.619571 47.330466 -0.999206 2.220155 0.115014 -0.029025 260089.000000 0 0 1
-19.682576 32.859771 -29.418081 48.296913 -1.031122 2.225733 0.111320 -0.021828 -357918.000000 0 0 1
-18.393176 32.634371 -29.871121 47.912367 -1.057561 2.243948 0.107947 -0.021710 -743503.000000 0 0 1
-17.966276 33.593571 -30.834811 49.011230 -1.079688 2.251240 0.105748 -0.015036 191022.000000 0 0 1
-16.468176 33.636171 -31.198661 48.743710 -1.115506 2.265366 0.084840 -0.007130 223000.000000 0 0 1
-15.622876 -33.455256 -30.221241 47.714273 1.133913 2.256709 0.085890 -0.015339 60516.200000 0 0 1
-14.233176 -33.614556 -30.310961 47.447613 1.170262 2.263773 0.104400 -0.007925 276369.000000 0 0 1
-13.598976 32.711771 -30.139141 46.511933 -1.176811 2.275735 0.103123 -0.010666 -582622.000000 0 0 1
-13.423676 32.376571 -28.805451 45.367295 -1.177758 2.258725 0.100430 -0.016562 -58274.800000 0 0 1
-13.458476 30.960971 -28.639681 44.271250 -1.160745 2.274327 0.087714 -0.010677 -79664.700000 0 0 1
-13.062276 30.610971 -27.175891 42.967239 -1.167471 2.255546 0.076341 -0.020744 949296.000000 0 0 1
-11.746176 31.086971 -26.817231 42.702884 -1.209530 2.249771 0.070890 -0.018290 645565.000000 0 0 1
-11.493876 31.002271 -25.399911 41.694190 -1.215763 2.225842 0.051396 -0.019226 -308728.000000 0 0 1
-10.092876 31.311471 -24.864101 41.237093 -1.258974 2.217996 0.067332 -0.025238 -371416.000000 0 0 1
-9.133276 30.373871 -25.286421 40.563430 -1.278702 2.243854 0.076482 -0.012464 -988931.000000 0 0 1
-7.898376 30.843371 -24.848001 40.387139 -1.320103 2.233494 0.089260 -0.024488 -488695.000000 0 0 1
-6.700276 30.056971 -25.444041 39.946394 -1.351463 2.261338 0.084141 -0.028379 -77226.600000 0 0 1
-6.527576 28.684071 -25.115601 38.680468 -1.347039 2.277473 0.088833 -0.041340 -261293.000000 0 0 1
-5.323076 28.157271 -25.584761 38.415453 -1.383953 2.299632 0.105470 -0.051113 -507145.000000 0 0 1
-4.900376 26.887471 -24.834101 36.928070 -1.390520 2.308377 0.122018 -0.043872 -275951.000000 0 0 1
-5.769176 25.778771 -24.979501 36.356621 -1.350629 2.328244 0.114200 -0.039602 140842.000000 0 0 1
-5.558576 24.785971 -24.010301 34.953350 -1.350184 2.328044 0.116522 -0.053669 -516108.000000 0 0 1
-6.591076 23.653571 -24.046901 34.368403 -1.299040 2.345747 0.099257 -0.050261 -173090.000000 0 0 1
-6.404676 22.764971 -25.119001 34.499681 -1.296546 2.386333 0.101490 -0.050608 551246.000000 0 0 1
-7.444076 21.787471 -25.028701 34.007999 -1.241564 2.397887 0.092988 -0.055047 184111.000000 0 0 1
-7.281776 20.875971 -26.303181 34.361137 -1.235181 2.442602 0.078877 -0.045949 -585824.000000 0 0 1
-6.105676 20.178871 -26.504231 33.866508 -1.276976 2.469642 0.095926 -0.055461 -960309.000000 0 0 1
-5.888676 19.099971 -25.581781 32.464025 -1.271735 2.478357 0.094844 -0.051117 382002.000000 0 0 1
-4.518276 18.349371 -25.774631 31.960066 -1.329363 2.508943 0.090789 -0.060735 781942.000000 0 0 1
-4.508876 17.612171 -26.946611 32.505974 -1.320170 2.548067 0.091600 -0.052164 -268726.000000 0 0 1
-3.319576 16.866971 -27.041461 32.043016 -1.376471 2.575329 0.092494 -0.052024 -297284.000000 0 0 1
-2.944576 16.604371 -28.512641 33.126219 -1.395284 2.607493 0.094552 -0.037161 -330882.000000 0 0 1
-2.371376 17.643471 -29.234101 34.227886 -1.437192 2.594618 0.112959 -0.042811 -52531.500000 0 0 1
-2.223176 17.335071 -30.625591 35.261509 -1.443245 2.623020 0.110697 -0.048669 38407.400000 0 0 1
-1.447476 18.448071 -31.388111 36.436795 -1.492495 2.608895 0.115245 -0.029061 -549824.000000 0 0 1
-0.112976 18.544471 -31.009481 36.131677 -1.564704 2.602618 0.146971 -0.040915 -340485.000000 0 0 1
0.696124 19.565571 -31.623651 37.193433 1.535232 2.587253 0.161691 -0.032144 876414.000000 0 0 1
0.434724 20.909471 -30.844551 37.266356 1.550009 2.545754 0.156808 -0.038870 -11082.200000 0 0 1
1.284624 21.028571 -29.733831 36.441072 1.509783 2.525154 0.185092 -0.055465 -408116.000000 0 0 1
1.109224 22.289971 -29.048301 36.631639 1.521074 2.486488 0.173157 -0.067850 429053.000000 0 0 1
2.218924 22.570771 -27.986341 36.022196 1.472802 2.460554 0.182238 -0.069850 1741450.000000 0 0 1
3.519224 22.802371 -28.605661 36.750740 1.417669 2.462861 0.170964 -0.067025 771104.000000 0 0 1
4.616124 22.603771 -27.755571 36.091700 1.369347 2.448117 0.155705 -0.061509 87937.300000 0 0 1
5.336724 23.908371 -27.382171 36.740633 1.351181 2.411756 0.167317 -0.064517 -64864.300000 0 0 1
6.070524 24.580171 -28.416151 38.059345 1.328673 2.413774 0.153359 -0.062410 459786.000000 0 0 1
6.572124 25.817971 -27.911941 38.585449 1.321534 2.379481 0.157266 -0.067830 -213162.000000 0 0 1
7.282924 26.707171 -28.937781 40.046337 1.304574 2.378363 0.156935 -0.058732 -609369.000000 0 0 1
8.574824 26.253771 -29.149751 40.155897 1.255106 2.383160 0.133700 -0.051385 -774706.000000 0 0 1
9.414424 27.243371 -29.665211 41.362512 1.238076 2.370573 0.131960 -0.049815 901614.000000 0 0 1
10.950824 27.125571 -29.322911 41.419202 1.187097 2.357394 0.129306 -0.044371 741566.000000 0 0 1
11.694424 28.170271 -29.852311 42.678850 1.177312 2.345443 0.122460 -0.033899 -921741.000000 0 0 1
12.999724 28.084771 -29.363951 42.661327 1.137288 2.329944 0.123100 -0.037310 -656322.000000 0 0 1
13.963624 28.976271 -30.158421 44.092374 1.121734 2.324005 0.129519 -0.040485 -601818.000000 0 0 1
13.637924 30.331671 -30.145671 44.886131 1.148253 2.307167 0.137135 -0.037215 -182695.000000 0 0 1
14.542424 31.218771 -30.742471 46.164849 1.134862 2.299534 0.179103 -0.044545 -257544.000000 0 0 1
13.979124 32.629771 -30.724811 46.948183 1.166036 2.284239 0.186247 -0.048289 663863.000000 0 0 1
13.007224 32.896571 -31.758191 47.538984 1.194264 2.302375 0.152705 -0.051941 299472.000000 0 0 1
12.026824 33.808071 -31.402651 47.683925 1.229019 2.289698 0.154060 -0.043330 -312173.000000 0 0 1
10.836424 -33.709256 -32.357351 47.966032 -1.259763 2.311204 0.114462 -0.039950 -56678.300000 0 0 1
11.091224 -33.070056 -33.606121 48.435681 -1.247200 2.337590 0.085416 -0.029553 22084.400000 0 0 1
9.905024 -33.043556 33.262780 47.920754 -1.279563 0.803599 0.089766 -0.034003 137858.000000 0 0 1
9.940324 -32.185456 31.983605 46.450669 -1.271245 0.811309 0.083038 -0.024808 -51629.500000 0 0 1
9.808824 -30.829156 32.284290 45.704762 -1.262757 0.786445 0.074029 -0.035978 -9409.720000 0 0 1
10.006524 -30.047256 31.134965 44.411194 -1.249322 0.793912 0.087204 -0.033619 -317801.000000 0 0 1
9.592024 -28.543356 31.098145 43.287697 -1.246602 0.769288 0.084055 -0.044223 -367378.000000 0 0 1
8.213924 -28.273756 31.017775 42.766532 -1.288065 0.759353 0.057253 -0.040206 -378215.000000 0 0 1
7.651124 -28.176356 32.343783 43.572549 -1.305646 0.734304 0.069435 -0.043433 303102.000000 0 0 1
6.091324 -27.934756 32.353333 43.176301 -1.356102 0.723745 0.060611 -0.041355 1525350.000000 0 0 1
5.257324 -29.105356 32.046824 43.609175 -1.392092 0.745330 0.096524 -0.054272 566389.000000 0 0 1
5.549724 -29.917056 30.889295 43.358716 -1.387378 0.777866 0.095005 -0.041855 -969224.000000 0 0 1
5.519424 -29.265456 29.481715 41.905877 -1.384387 0.790455 0.086411 -0.046610 189576.000000 0 0 1
4.216024 -28.842856 29.088195 41.180193 -1.425652 0.786448 0.143806 -0.049184 521445.000000 0 0 1
4.190224 -28.406856 27.792845 39.961853 -1.424345 0.801703 0.158915 -0.037890 316293.000000 0 0 1
2.758124 -28.551156 27.177665 39.514570 -1.474492 0.812358 0.134592 -0.035510 646778.000000 0 0 1
2.221224 -29.778256 26.707795 40.062260 -1.496342 0.841081 0.153297 -0.046418 212179.000000 0 0 1
1.892124 -30.769756 27.656715 41.415600 -1.509381 0.839567 0.200945 -0.058076 -603750.000000 0 0 1
2.335624 -32.199856 27.221165 42.228873 -1.498388 0.870283 0.228283 -0.055265 690636.000000 0 0 1
3.762124 -32.297956 27.267655 42.436265 -1.454837 0.872968 0.180409 -0.047431 756793.000000 0 0 1
4.383824 -32.163556 25.984255 41.579969 -1.435333 0.895764 0.160324 -0.043825 140537.000000 0 0 1
5.929724 -32.082356 26.027075 41.735451 -1.388031 0.897431 0.154492 -0.026126 176517.000000 0 0 1
6.477424 -32.039556 24.717095 40.980788 -1.371315 0.923366 0.106978 -0.037229 483046.000000 0 0 1
7.861224 -31.708156 24.796005 41.012777 -1.327772 0.921543 0.094582 -0.040756 186369.000000 0 0 1
8.629324 -31.642856 23.472795 40.332465 -1.304560 0.949632 0.079869 -0.029928 392192.000000 0 0 1
9.964324 -31.167556 23.626765 40.359985 -1.261364 0.945422 0.072885 -0.017101 460825.000000 0 0 1
10.554724 -30.843056 22.371515 39.537084 -1.241080 0.969349 0.086750 -0.033331 233359.000000 0 0 1
11.688524 -29.774456 22.419315 39.061049 -1.196712 0.959468 0.045522 -0.025835 205859.000000 0 0 1
12.853524 -30.322256 23.012535 40.177470 -1.169860 0.960913 0.051210 -0.024273 -237843.000000 0 0 1
13.830824 -29.301056 23.115185 39.801450 -1.129778 0.951131 0.058124 -0.019410 5560.000000 0 0 1
15.025824 -29.639456 24.016555 41.000825 -1.101601 0.944982 0.077928 -0.020753 -84865.400000 0 0 1
14.643224 -29.836756 25.344145 41.796911 -1.114553 0.919316 0.077266 -0.028640 206489.000000 0 0 1
15.509424 -29.057456 26.167105 42.066559 -1.080514 0.899450 0.093770 -0.032370 112389.000000 0 0 1
-11.666176 -13.691229 25.906325 31.538660 0.865089 0.606909 0.102394 -0.039460 -524821.000000 0 0 1
-10.386676 -13.907729 25.378325 30.746827 0.929329 0.599892 0.103587 -0.031797 -598741.000000 0 0 1
-9.577876 -14.310629 26.465365 31.574442 0.980984 0.576841 0.110556 -0.041088 684466.000000 0 0 1
-8.030076 -14.220529 26.176645 30.853238 1.056751 0.557795 0.141868 -0.030971 948940.000000 0 0 1
-7.497476 -15.249929 25.377335 30.541474 1.113859 0.590048 0.144160 -0.031871 39556.300000 0 0 1
-7.585876 -14.920029 24.018415 29.275195 1.100423 0.608624 0.152821 -0.032639 -124141.000000 0 0 1
-6.811576 -15.986529 23.181225 28.971294 1.168009 0.643260 0.153830 -0.040958 384406.000000 0 0 1
-7.513676 -17.242829 22.942625 29.667061 1.159850 0.686709 0.156999 -0.046033 136475.000000 0 0 1
-7.574976 -18.032229 24.067505 31.012680 1.173100 0.682412 0.168518 -0.047482 -52321.700000 0 0 1
-8.304176 -19.401129 23.822415 31.825628 1.166366 0.724955 0.157876 -0.051374 -511640.000000 0 0 1
-9.654276 -19.289229 23.548645 31.934591 1.106748 0.741580 0.131740 -0.049065 -1163650.000000 0 0 1
-10.314476 -20.525129 23.395675 32.787604 1.105127 0.776241 0.118502 -0.042886 204508.000000 0 0 1
-11.833476 -20.243529 23.537105 33.223891 1.041810 0.783512 0.092966 -0.045329 -42159.200000 0 0 1
-12.260776 -20.057129 24.841025 34.200754 1.022115 0.757829 0.102374 -0.045739 -872935.000000 0 0 1
-13.641176 -19.935229 24.858185 34.661570 0.970702 0.771066 0.106137 -0.039813 -900185.000000 0 0 1
-14.338776 -19.987029 26.181755 35.924450 0.948485 0.754228 0.114047 -0.037026 -699531.000000 0 0 1
-14.037376 -21.160329 26.916985 37.004480 0.985071 0.756274 0.105087 -0.035280 -162685.000000 0 0 1
-12.966276 -20.956329 27.789005 37.141901 1.016720 0.725474 0.111925 -0.036637 -248896.000000 0 0 1
-12.433976 -22.283729 28.448415 38.216236 1.061844 0.731151 0.114152 -0.029210 48545.600000 0 0 1
-13.286876 -22.966929 29.356075 39.570191 1.046319 0.734936 0.098957 -0.023948 -167053.000000 0 0 1
-12.688676 -24.130529 29.861395 40.434983 1.086695 0.739947 0.097007 -0.020391 -272295.000000 0 0 1
-13.712976 -25.019639 30.563485 41.810940 1.069422 0.751021 0.093220 -0.022164 108567.000000 0 0 1
-13.764976 -24.671529 31.931223 42.635219 1.061886 0.724335 0.082923 -0.018175 -178101.000000 0 0 1
-14.840076 -25.195209 32.675326 43.848641 1.038501 0.729985 0.068139 -0.020911 -294659.000000 0 0 1
-14.722076 -24.676629 -33.489401 44.127265 1.032881 2.432461 0.076319 -0.017223 231864.000000 0 0 1
-14.971476 -23.284929 -33.270831 43.281418 0.999380 2.447617 0.090631 -0.023613 535563.000000 0 0 1
-16.301276 -22.913729 -33.668561 43.867329 0.952447 2.445742 0.088080 -0.029805 -53193.800000 0 0 1
-16.553376 -21.400029 -33.560881 43.108099 0.912411 2.463114 0.078031 -0.028788 -103417.000000 0 0 1
-16.713676 -20.935429 -32.202301 41.888272 0.897066 2.447707 0.077379 -0.029837 111248.000000 0 0 1
-16.892776 -19.511329 -32.180691 41.251117 0.857205 2.465649 0.063218 -0.037177 -77893.200000 0 0 1
-17.095576 -18.901129 -30.742961 39.932957 0.835515 2.449425 0.063637 -0.025047 76129.300000 0 0 1
-18.389876 -19.062829 -30.188721 40.161397 0.803364 2.421410 0.061152 -0.024296 214195.000000 0 0 1
-18.511076 -18.727229 -28.801701 39.024441 0.791203 2.400961 0.048698 -0.026489 263101.000000 0 0 1
-17.715576 -19.610729 -27.756941 38.325841 0.836127 2.380722 0.031834 -0.014090 -35575.200000 0 0 1
-16.329276 -19.425429 -27.691281 37.560612 0.871777 2.399776 0.030835 -0.023292 -309416.000000 0 0 1
-15.686076 -20.612129 -27.284711 37.621381 0.920285 2.382186 0.020687 -0.010844 71092.700000 0 0 1
-14.157076 -20.713129 -27.436831 37.178437 0.971242 2.400864 0.134001 -0.023727 -869834.000000 0 0 1
-13.464276 -19.828329 -26.649581 35.842008 0.974275 2.409129 0.143621 -0.035714 760695.000000 0 0 1
-12.040076 -19.955929 -26.856711 35.559604 1.027930 2.426846 0.135466 -0.045037 1129630.000000 0 0 1
-11.325776 -20.976729 -25.926121 35.220166 1.075724 2.398110 0.203549 -0.057592 -512729.000000 0 0 1
-11.555776 -22.272129 -26.414521 36.432274 1.092187 2.381875 0.199263 -0.053140 -559.563000 0 0 1
-10.977576 -23.192429 -25.539421 36.203010 1.128715 2.353854 0.261436 -0.057857 27758.000000 0 0 1
-11.082976 -24.684629 -25.907471 37.461451 1.148789 2.334466 0.237248 -0.051068 168683.000000 0 0 1
-10.138076 -25.084539 -26.935391 38.177611 1.186712 2.353965 0.250918 -0.052026 540739.000000 0 0 1
-10.330976 -26.405179 -27.457091 39.469664 1.197857 2.340121 0.233651 -0.042128 -289518.000000 0 0 1
-10.204476 -27.699059 -26.564761 39.712161 1.217820 2.303568 0.244284 -0.037587 555446.000000 0 0 1
-11.191476 -27.884369 -25.514761 39.418145 1.189124 2.274813 0.187496 -0.042771 630470.000000 0 0 1
-10.654076 -28.822619 -24.600701 39.363018 1.216731 2.245889 0.158977 -0.049342 -9646.330000 0 0 1
-11.425476 -28.883309 -23.238201 38.791765 1.194112 2.213110 0.155451 -0.045185 79925.900000 0 0 1
-11.516076 -27.715009 -22.457401 37.484351 1.176985 2.213190 0.153696 -0.048094 441230.000000 0 0 1
-12.521776 -26.803509 -22.954201 37.444870 1.133757 2.230665 0.155950 -0.052535 231331.000000 0 0 1
-12.544976 -25.568639 -22.033301 36.008305 1.114665 2.229251 0.169411 -0.049320 -27374.100000 0 0 1
-12.871776 -25.964529 -20.713601 35.621519 1.110559 2.191357 0.102916 -0.036297 166529.000000 0 0 1
-12.643876 -24.942729 -19.754401 34.238044 1.101631 2.185813 0.097762 -0.021896 51267.500000 0 0 1
-13.145276 -25.289699 -18.295601 33.868808 1.091444 2.141460 0.122827 -0.026019 642696.000000 0 0 1
-14.560776 -25.434509 -18.198901 34.498267 1.050857 2.126488 0.139734 -0.037900 360091.000000 0 0 1
-15.033276 -25.946799 -16.970801 34.456405 1.045670 2.085790 0.123923 -0.035983 4071.720000 0 0 1
-16.562576 -26.139889 -16.848601 35.234756 1.006027 2.069379 0.122428 -0.043605 -1092010.000000 0 0 1
-17.237276 -24.898829 -16.809201 34.635597 0.965262 2.077521 0.106400 -0.034040 -4157.150000 0 0 1
-18.595176 -25.019009 -16.391601 35.219539 0.931634 2.054897 0.117338 -0.033883 949158.000000 0 0 1
-19.572876 -25.545759 -17.534701 36.648997 0.917015 2.069685 0.119013 -0.032321 -718830.000000 0 0 1
-19.380576 -26.901919 -17.925001 37.691187 0.946499 2.066414 0.118840 -0.034080 -246140.000000 0 0 1
-19.656376 -27.946869 -17.000301 38.162951 0.957827 2.032491 0.127005 -0.045822 -372348.000000 0 0 1
-21.156576 -28.248939 -16.771901 39.075567 0.927978 2.014422 0.151996 -0.037558 35215.600000 0 0 1
-21.843376 -28.987979 -17.761201 40.409111 0.925038 2.025877 0.132574 -0.033722 32009.700000 0 0 1
-23.036176 -29.483229 -17.156601 41.161573 0.907543 2.000731 0.139303 -0.025292 118620.000000 0 0 1
-23.603576 -30.435249 -18.179301 42.590141 0.911153 2.011795 0.113918 -0.030259 -84933.500000 0 0 1
-22.872376 -31.664969 -18.121501 43.060476 0.945244 2.005166 0.102050 -0.030802 601105.000000 0 0 1
-23.411576 -32.630639 -19.055201 44.451785 0.948440 2.013818 0.092440 -0.003328 439912.000000 0 0 1
-22.771876 33.653355 -18.945001 44.833243 -0.975907 2.007071 0.083900 -0.006509 494331.000000 0 0 1
-23.685576 32.739674 -18.330701 44.372371 -0.944504 1.996664 0.090293 -0.007038 463240.000000 0 0 1
-22.995476 31.543258 -18.104901 43.029716 -0.940862 2.005072 0.084008 -0.011434 -382469.000000 0 0 1
-23.890676 30.341848 -17.942001 42.582949 -0.903796 2.005721 0.105580 -0.025357 -295499.000000 0 0 1
-24.403176 30.260828 -16.625101 42.280335 -0.892148 1.974918 0.094614 -0.032831 130523.000000 0 0 1
-25.173166 29.080468 -16.360101 41.797306 -0.857293 1.972965 0.103079 -0.024653 -135644.000000 0 0 1
-24.398276 27.823838 -15.969701 40.304754 -0.850900 1.978197 0.103393 -0.036395 -188560.000000 0 0 1
-23.640376 27.373548 -17.090901 40.003467 -0.858447 2.012229 0.084200 -0.026808 -83121.700000 0 0 1
-23.087676 26.104678 -16.884401 38.724385 -0.846652 2.021962 0.088033 -0.029836 -98796.100000 0 0 1
-22.193576 25.654218 -18.055001 38.427552 -0.857599 2.059912 0.084991 -0.025682 -453126.000000 0 0 1
-21.660976 24.319208 -17.942101 37.182533 -0.843146 2.074350 0.109692 -0.028688 47436.600000 0 0 1
-20.994876 23.803478 -19.047901 37.016387 -0.848011 2.111314 0.099201 -0.018039 345947.000000 0 0 1
-19.554576 24.386588 -19.246301 36.708408 -0.894924 2.122692 0.090792 -0.025903 -839798.000000 0 0 1
-18.681476 23.879938 -18.306201 35.417029 -0.906936 2.113994 0.111208 -0.027350 -137782.000000 0 0 1
-17.481676 24.645628 -18.195101 35.271485 -0.953842 2.112806 0.120528 -0.041868 321690.000000 0 0 1
-17.474776 25.816378 -17.169001 35.589714 -0.975751 2.074206 0.139007 -0.052836 -492650.000000 0 0 1
-18.370076 26.815188 -17.581001 36.954101 -0.970166 2.066616 0.105617 -0.045873 -87293.700000 0 0 1
-18.119676 28.056808 -16.964601 37.460710 -0.997365 2.040771 0.129940 -0.061322 -549760.000000 0 0 1
-19.338776 28.962478 -17.165701 38.826211 -0.982066 2.028753 0.104755 -0.045876 -91807.800000 0 0 1
-19.513976 29.467278 -18.495801 39.889978 -0.985875 2.052930 0.102280 -0.043516 154539.000000 0 0 1
-20.033576 28.552528 -19.420101 39.921565 -0.958971 2.078826 0.081880 -0.028031 -555209.000000 0 0 1
-20.405876 29.168858 -20.781701 41.220155 -0.960354 2.099210 0.085250 -0.034984 -192802.000000 0 0 1
-21.359776 30.190608 -20.835301 42.447881 -0.955056 2.083855 0.093427 -0.034122 -10777.700000 0 0 1
-21.714176 30.429668 -22.150401 43.452392 -0.951011 2.105705 0.090627 -0.031006 -156744.000000 0 0 1
-21.994876 31.893373 -22.500701 44.802269 -0.967059 2.096963 0.098095 -0.034631 98250.700000 0 0 1
-20.844376 32.689135 -22.712101 44.932250 -1.003149 2.100728 0.090061 -0.026988 107060.000000 0 0 1
-21.110476 33.713211 -23.674501 46.289467 -1.011350 2.107661 0.097188 -0.029572 -16202.200000 0 0 1
-20.110276 -32.824049 -23.630901 45.169247 1.021113 2.121355 0.112720 -0.026812 165733.000000 0 0 1
-20.074776 -31.911339 -22.508601 43.908624 1.009269 2.109034 0.105422 -0.025172 335065.000000 0 0 1
-19.470776 -32.574339 -21.364501 43.550437 1.032045 2.083539 0.118528 -0.031974 -105488.000000 0 0 1
-19.138276 -31.602389 -20.208501 42.111377 1.026272 2.071317 0.131955 -0.038154 197190.000000 0 0 1
-18.024876 -30.734679 -20.432901 41.073350 1.040387 2.091480 0.104407 -0.037887 441339.000000 0 0 1
-17.951276 -29.896029 -19.295401 39.853900 1.030041 2.076192 0.102721 -0.038477 139558.000000 0 0 1
-16.773776 -28.871959 -19.345301 38.590028 1.044486 2.095900 0.113502 -0.035448 1496130.000000 0 0 1
-15.464676 -29.447799 -19.131201 38.370977 1.087227 2.092762 0.129861 -0.045062 627874.000000 0 0 1
-14.403876 -28.609069 -19.425101 37.460446 1.104375 2.115950 0.114399 -0.043901 -286273.000000 0 0 1
-13.103276 -29.279629 -19.981701 37.792339 1.150005 2.127892 0.161976 -0.053014 506883.000000 0 0 1
-12.375576 -30.063909 -19.049601 37.681306 1.180294 2.100810 0.155054 -0.044613 630759.000000 0 0 1
-11.464476 -29.284009 -18.257801 36.363920 1.197645 2.096805 0.138003 -0.031289 -95145.800000 0 0 1
-10.690276 -29.972289 -17.105301 36.127710 1.228190 2.064020 0.133268 -0.011712 -265177.000000 0 0 1
-11.489376 -30.472919 -16.079001 36.319951 1.210242 2.029409 0.146850 -0.026052 -232679.000000 0 0 1
-12.151276 -31.675499 -16.387901 37.676969 1.204492 2.020788 0.152591 -0.026446 71814.400000 0 0 1
-13.134876 -32.212299 -15.315601 38.009535 1.183619 1.985524 0.145307 -0.039056 -210907.000000 0 0 1
-12.513976 -32.604489 -14.070701 37.651519 1.204323 1.953801 0.128088 -0.032612 -113321.000000 0 0 1
-13.440976 -33.141429 -13.171501 38.111712 1.185502 1.923677 0.133709 -0.032817 -372103.000000 0 0 1
-12.889476 -33.514189 -11.835401 37.807620 1.203638 1.889191 0.101729 -0.029421 -81138.400000 0 0 1
-12.363576 -32.438779 -11.040401 36.428325 1.206657 1.878711 0.077716 -0.018218 188435.000000 0 0 1
-12.041876 -32.974749 -9.775701 36.440433 1.220658 1.842388 0.079063 -0.018940 900467.000000 0 0 1
-10.639676 -32.388119 -9.281401 35.331818 1.253397 1.836608 0.079706 -0.021396 1693580.000000 0 0 1
-9.531776 -32.853509 -10.063701 35.657901 1.288419 1.856913 0.066408 -0.022961 337178.000000 0 0 1
-8.358276 -32.134709 -9.697501 34.591065 1.316334 1.854952 0.064713 -0.032158 950775.000000 0 0 1
-7.003576 -32.772289 -10.154301 35.016893 1.360259 1.865005 0.070004 -0.042927 534209.000000 0 0 1
-6.527076 -33.843649 -9.397301 35.725405 1.380276 1.836971 0.060881 -0.020144 -309737.000000 0 0 1
-5.525076 33.127643 -10.012201 35.045847 -1.405536 1.860521 0.064285 -0.021743 -86279.700000 0 0 1
-4.784976 32.147493 -9.103501 33.752497 -1.423037 1.843892 0.073519 -0.028073 446168.000000 0 0 1
-4.019476 32.777938 -8.040901 33.988314 -1.448778 1.809639 0.090795 -0.034298 809622.000000 0 0 1
-3.137176 31.860300 -7.337801 32.844542 -1.472646 1.796108 0.088753 -0.036946 783607.000000 0 0 1
-2.588976 32.372306 -5.972301 33.020257 -1.490991 1.752665 0.102655 -0.039022 79241.100000 0 0 1
-1.584176 33.375205 -6.061201 33.958093 -1.523366 1.750249 0.084709 -0.037524 -56697.300000 0 0 1
-1.140276 -33.800759 -4.850101 34.165992 1.537074 1.713234 0.090921 -0.038782 766046.000000 0 0 1
0.015924 33.156517 -4.101201 33.409201 1.570316 1.693863 0.084742 -0.040291 -220353.000000 0 0 1
1.270524 33.170352 -4.697901 33.525465 1.532512 1.711388 0.083543 -0.038956 -595100.000000 0 0 1
2.137824 32.305749 -3.978701 32.619960 1.504718 1.693072 0.073284 -0.036636 355635.000000 0 0 1
3.612924 32.335723 -4.441401 32.838670 1.459526 1.706461 0.067880 -0.027045 571594.000000 0 0 1
4.403724 33.474222 -4.003401 33.999170 1.439992 1.688820 0.062132 -0.024479 669697.000000 0 0 1
5.719324 33.447786 -4.572601 34.239944 1.401442 1.704742 0.073239 -0.017635 531879.000000 0 0 1
6.489024 -33.023069 -4.117701 33.905545 -1.376769 1.692543 0.071284 -0.013682 13897.200000 0 0 1
5.963024 -31.767299 -4.575301 32.644331 -1.385246 1.711415 0.071733 -0.020007 50312.000000 0 0 1
6.559724 -30.670539 -3.859701 31.600779 -1.360094 1.693241 0.068358 -0.021424 229082.000000 0 0 1
6.582624 -29.390259 -4.774801 30.494540 -1.350460 1.728022 0.073830 -0.025708 533840.000000 0 0 1
7.609824 -29.376229 -5.802401 30.895633 -1.317321 1.759725 0.091346 -0.025010 361686.000000 0 0 1
7.517224 -28.306439 -6.699401 30.044053 -1.311222 1.795673 0.085269 -0.023448 194253.000000 0 0 1
7.873124 -26.889919 -6.241001 28.705468 -1.285966 1.789962 0.081237 -0.015726 31259.400000 0 0 1
6.943024 -26.421749 -5.303601 27.828809 -1.313829 1.762549 0.074434 -0.015692 -532825.000000 0 0 1
7.459624 -25.378709 -4.521601 26.835978 -1.284915 1.740094 0.058988 -0.015916 125867.000000 0 0 1
6.474424 -24.798029 -3.481001 25.864605 -1.315411 1.705791 0.053385 -0.018221 258958.000000 0 0 1
5.382524 -24.077929 -4.037201 25.000344 -1.350866 1.732992 0.063339 -0.022220 -201988.000000 0 0 1
4.509924 -23.735329 -2.994201 24.344825 -1.383026 1.694100 0.065239 -0.018605 229457.000000 0 1 0
3.121724 -23.204929 -3.459501 23.668165 -1.437071 1.717489 0.070865 -0.016891 696947.000000 0 1 0
2.333524 -24.199329 -4.122501 24.658627 -1.474664 1.738768 0.082398 -0.023182 -544788.000000 0 1 0
1.146224 -23.660729 -4.604701 24.131871 -1.522390 1.762788 0.090396 -0.020393 -233217.000000 0 1 0
-14.888876 22.828171 17.743715 32.521431 -0.992866 0.993691 0.024779 -0.025151 -252779.000000 0 0 1
-15.109476 22.229471 18.968915 32.897802 -0.973822 0.956234 0.019517 -0.019763 327653.000000 0 0 1
-15.044376 23.226971 19.964615 34.123471 -0.996032 0.945830 0.033234 -0.019136 -1083360.000000 0 0 1
-15.402876 22.701171 21.425415 34.808622 -0.974642 0.907750 0.060437 -0.023576 288906.000000 0 0 1
-14.464876 21.710671 21.909615 34.067831 -0.983078 0.872234 0.050817 -0.023963 1677170.000000 0 0 1
-13.062776 22.010071 22.018715 33.762452 -1.035177 0.860358 0.035408 -0.025341 601998.000000 0 0 1
-12.640576 23.118771 23.025265 34.991779 -1.070439 0.852611 0.061802 -0.016185 -581836.000000 0 0 1
-12.804276 22.705071 24.376505 35.688706 -1.057314 0.818891 0.053739 -0.016161 122375.000000 0 0 1
-12.648976 23.768771 25.267465 36.924191 -1.081747 0.817144 0.077650 -0.016003 -86727.500000 0 0 1
-11.934476 23.446671 26.628165 37.433104 -1.099971 0.779374 0.071417 -0.021612 242683.000000 0 0 1
-10.549176 23.192971 26.512585 36.771133 -1.143922 0.765528 0.042394 -0.018425 -380702.000000 0 0 1
-10.206676 22.508771 27.666275 37.097760 -1.145074 0.729111 0.026045 -0.016588 -1396240.000000 0 0 1
-8.744976 22.143371 27.646375 36.484593 -1.194672 0.710931 0.020906 -0.018100 -97628.200000 0 0 1
-7.780676 23.195071 27.909255 37.114374 -1.247146 0.719736 0.041392 -0.015492 720675.000000 0 0 1
-7.515776 24.088071 26.800355 36.810068 -1.268356 0.755292 0.042356 -0.017305 79474.800000 0 0 1
-6.490776 25.265071 27.120755 37.629634 -1.319328 0.765943 0.060392 -0.029269 1092510.000000 0 0 1
-5.129776 24.881671 27.263715 37.265565 -1.367478 0.750121 0.059809 -0.029288 -86796.400000 0 0 1
-4.304776 25.960771 27.589385 38.126984 -1.406473 0.761766 0.072573 -0.021430 773980.000000 0 0 1
-2.798076 25.540471 27.715465 37.792749 -1.461677 0.747554 0.059408 -0.019225 714380.000000 0 0 1
-2.085176 25.399271 26.492555 36.760392 -1.488884 0.766011 0.058803 -0.025074 794943.000000 0 0 1
-0.746676 24.938571 26.759275 36.586181 -1.540865 0.750418 0.067001 -0.014310 661196.000000 0 0 1
0.105524 24.845071 25.513305 35.612041 1.566549 0.772134 0.061182 -0.020183 -479294.000000 0 0 1
-0.233776 23.824071 24.634925 34.271279 -1.560984 0.768691 0.062080 -0.009592 166762.000000 0 0 1
0.606424 23.758271 23.469915 33.401499 1.545277 0.791666 0.065973 -0.008716 75871.900000 0 0 1
0.230724 22.586071 22.634225 31.976429 1.560581 0.784359 0.033287 -0.006738 175132.000000 0 0 1
0.600324 21.318271 23.278895 31.571127 1.542644 0.741661 0.063723 -0.009752 -33412.600000 0 0 1
0.354924 20.256271 22.394315 30.198474 1.553276 0.735387 0.069292 -0.014438 120178.000000 0 0 1
1.263424 18.992071 22.496215 29.468198 1.504370 0.702226 0.084586 -0.011399 -31219.600000 0 0 1
2.515724 19.108271 21.887215 29.163420 1.439893 0.721974 0.083262 -0.017905 -526145.000000 0 0 1
3.273024 17.934071 21.997615 28.569891 1.390280 0.692021 0.084503 -0.019172 -817132.000000 0 0 1
4.698624 17.903971 21.499115 28.369723 1.314149 0.710832 0.080329 -0.021374 -668826.000000 0 0 1
5.604424 18.572471 22.325915 29.576896 1.277726 0.715381 0.072076 -0.016195 -685974.000000 0 0 1
6.858124 18.771771 21.701515 29.502017 1.220519 0.744253 0.065670 -0.020025 78125.700000 0 0 1
7.893224 19.357471 22.693905 30.854951 1.183617 0.744388 0.077211 -0.021622 -150734.000000 0 0 1
7.449024 20.512971 23.440555 32.027013 1.222466 0.749691 0.056932 -0.016710 35222.100000 0 0 1
7.169824 21.646071 22.695285 32.171956 1.250940 0.787757 0.071641 -0.020035 53362.400000 0 0 1
5.890124 22.341471 23.213885 32.752395 1.313021 0.783045 0.062383 -0.011136 -14029.100000 0 0 1
5.589424 23.567371 22.618495 33.139991 1.337931 0.819600 0.058127 -0.016603 104440.000000 0 0 1
4.424424 24.168471 23.146665 33.755868 1.389735 0.815221 0.041549 -0.008554 -257311.000000 0 0 1
4.213324 25.569471 22.513815 34.328149 1.407484 0.855500 0.050045 -0.005384 -64486.700000 0 0 1
3.934224 25.651671 21.122415 33.461064 1.418611 0.887628 0.054185 -0.022100 -358343.000000 0 0 1
2.896824 24.944071 20.537915 32.440780 1.455181 0.885258 0.049815 -0.022779 -628388.000000 0 0 1
2.602324 25.359071 19.061315 31.830619 1.468535 0.928750 0.056008 -0.028475 -217386.000000 0 0 1
2.045324 26.651071 18.988715 32.787715 1.494202 0.953122 0.070440 -0.036762 136849.000000 0 0 1
1.590724 26.969971 17.700215 32.298721 1.511883 0.990806 0.081488 -0.037128 281250.000000 0 0 1
0.423024 27.994771 17.672015 33.108704 1.555687 1.007759 0.083620 -0.022738 375522.000000 0 0 1
0.934724 29.335571 17.833815 34.343768 1.538944 1.024795 0.109628 -0.026177 136148.000000 0 0 1
-0.083376 30.238471 18.139415 35.262026 -1.568039 1.030468 0.079959 -0.027660 -438469.000000 0 0 1
0.440624 31.622871 18.530715 36.654980 1.556864 1.040784 0.094231 -0.022957 -296410.000000 0 0 1
0.781824 31.574571 19.911615 37.336808 1.546040 1.008303 0.115193 -0.031102 -33509.900000 0 0 1
1.488724 32.672171 20.401115 38.547277 1.525262 1.013081 0.139175 -0.029887 -129044.000000 0 0 1
2.051724 32.675971 21.879715 39.378301 1.508089 0.981677 0.135424 -0.040407 -377820.000000 0 0 1
1.070824 32.820671 22.848745 40.005103 1.538181 0.962895 0.152532 -0.032013 -526120.000000 0 0 1
1.546724 32.638171 24.157535 40.635318 1.523442 0.934158 0.170014 -0.041211 -656847.000000 0 0 1
0.450324 32.539271 25.174775 41.143362 1.556958 0.912362 0.194511 -0.025129 -792066.000000 0 0 1
-0.449076 33.627171 25.293185 42.080085 -1.557443 0.925954 0.196070 -0.020420 663692.000000 0 0 1
-1.586876 33.267771 26.075675 42.298979 -1.523132 0.906556 0.186748 -0.022800 240472.000000 0 0 1
-1.401676 33.569171 27.614625 43.490476 -1.529066 0.882842 0.197197 -0.040905 -133594.000000 0 0 1
-0.469776 32.641471 28.187125 43.130040 -1.556405 0.858547 0.195527 -0.047361 408385.000000 0 0 1
0.026124 33.100571 29.403585 44.274364 1.570007 0.844477 0.185737 -0.053156 -1037030.000000 0 0 1
1.103924 32.226471 30.066945 44.088380 1.536555 0.820344 0.152920 -0.045877 -30502.200000 0 0 1
2.415024 32.519871 29.605975 44.044161 1.496669 0.833636 0.136762 -0.047845 105480.000000 0 0 1
2.760424 32.023571 28.314055 42.834738 1.484809 0.848637 0.124434 -0.041864 -679175.000000 0 0 1
4.273824 31.922671 28.001115 42.677687 1.437707 0.855148 0.086727 -0.032639 126474.000000 0 0 1
4.749924 30.763171 28.676195 42.323264 1.417603 0.826368 0.080337 -0.030237 147151.000000 0 0 1
6.092024 30.499671 28.289695 42.043425 1.373650 0.832717 0.080941 -0.039830 157602.000000 0 0 1
6.699624 29.237071 28.993335 41.716960 1.345537 0.802375 0.090457 -0.027892 40683.900000 0 0 1
7.043124 29.531071 30.346925 42.925816 1.336671 0.785603 0.107146 -0.038656 605336.000000 0 0 1
7.721124 28.321471 30.890615 42.613984 1.304640 0.759916 0.083200 -0.030374 588739.000000 0 0 1
7.920824 28.558471 32.409307 43.916841 1.300242 0.740739 0.117797 -0.036097 303107.000000 0 0 1
6.659524 28.685471 33.085262 44.292664 1.342681 0.727304 0.116372 -0.040646 532677.000000 0 0 1
6.602824 28.477771 -33.144441 44.194284 1.342963 2.418815 0.134903 -0.038822 -116238.000000 0 0 1
6.733124 26.965271 -32.713761 42.926110 1.326104 2.437339 0.126289 -0.035661 -8368.280000 0 0 1
7.969224 26.363571 -33.027361 43.004104 1.277248 2.446516 0.108425 -0.034278 -56382.000000 0 0 1
7.957324 25.001371 -32.681741 41.910425 1.262658 2.465142 0.116829 -0.034793 83387.200000 0 0 1
9.307724 24.278671 -32.906161 41.939278 1.204707 2.472870 0.101461 -0.032915 -101107.000000 0 0 1
9.696224 23.980571 33.382007 42.230830 1.186557 0.659228 0.066996 -0.019104 366931.000000 0 0 1
10.967824 23.406571 33.149713 42.036463 1.132600 0.662277 0.085206 -0.032593 29621.500000 0 0 1
11.093524 21.915371 33.633365 41.647966 1.102202 0.630788 0.075047 -0.030407 -976023.000000 0 0 1
10.533224 21.123671 32.624811 40.268308 1.108233 0.626327 0.063641 -0.025121 135307.000000 0 0 1
10.175724 19.814171 33.049802 39.855190 1.096361 0.593037 0.062100 -0.020855 1114050.000000 0 0 1
8.780024 19.687271 33.800255 40.089085 1.151295 0.567721 0.100968 -0.033078 635864.000000 0 0 1
8.862724 20.140471 -32.462911 39.217688 1.156251 2.545903 0.098771 -0.030426 -309982.000000 0 0 1
7.705124 20.811271 -32.051971 38.984699 1.216207 2.536005 0.113421 -0.038729 -338110.000000 0 0 1
7.788824 21.446871 -30.608221 38.177182 1.222439 2.500999 0.129630 -0.044707 9540.750000 0 0 1
8.934924 22.250571 -30.441831 38.750817 1.188946 2.474428 0.142110 -0.043058 -82796.200000 0 0 1
8.967524 22.885271 -29.164421 38.140734 1.197338 2.441299 0.111948 -0.041944 820001.000000 0 0 1
10.441824 23.020071 -28.623941 38.187503 1.144956 2.418198 0.121004 -0.039133 1145910.000000 0 0 1
10.966724 21.770871 -28.148391 37.236699 1.104166 2.427872 0.108300 -0.025200 -877085.000000 0 0 1
12.340724 21.657171 -28.249611 37.674488 1.052862 2.418607 0.107083 -0.032575 -796514.000000 0 0 1
12.900224 20.232971 -28.415541 37.191825 1.003199 2.440327 0.112363 -0.033396 -63147.700000 0 0 1
12.670524 19.540171 -29.614531 37.674672 0.995522 2.475204 0.102329 -0.036970 848874.000000 0 0 1
11.283624 19.182871 -29.813281 37.203957 1.039088 2.500340 0.108633 -0.038351 884443.000000 0 0 1
11.081624 18.256871 -31.008441 37.651549 1.025258 2.538461 0.096640 -0.035892 -319781.000000 0 0 1
11.573024 16.965971 -30.628341 36.876474 0.972164 2.550919 0.104496 -0.036209 210716.000000 0 0 1
11.684624 16.075371 -31.728231 37.438331 0.942267 2.582016 0.083563 -0.026455 -303603.000000 0 0 1
12.787724 16.232071 -32.801721 38.768014 0.903535 2.579427 0.075379 -0.006983 -301547.000000 0 0 1
12.903724 17.435871 -33.512711 39.920139 0.933682 2.567147 0.065900 -0.016045 -241417.000000 0 0 1
13.780824 17.335471 33.043828 39.778440 0.899143 0.590438 0.084542 -0.022753 -161004.000000 0 0 1
13.128624 16.810771 31.725793 38.229423 0.907770 0.591906 0.087026 -0.031910 -190932.000000 0 0 1
13.198324 17.752271 30.675675 37.819783 0.931486 0.624764 0.078516 -0.028464 501400.000000 0 0 1
12.365924 17.546571 29.502515 36.485568 0.956890 0.629014 0.070452 -0.028844 1278660.000000 0 0 1
10.819124 17.765371 29.604725 36.181509 1.023785 0.612474 0.056662 -0.024934 594191.000000 0 0 1
10.049824 16.747371 30.231855 35.992200 1.030315 0.573595 0.070388 -0.022517 -414056.000000 0 0 1
8.776624 17.275371 30.477205 36.115476 1.100735 0.566318 0.074226 -0.025825 -183276.000000 0 0 1
8.030524 16.303771 31.463335 36.335158 1.113121 0.523810 0.094107 -0.025563 141351.000000 0 0 1
8.423124 16.509871 32.811926 37.684843 1.099032 0.514187 0.114365 -0.023242 308914.000000 0 0 1
7.837624 15.508271 33.654335 37.875442 1.102851 0.476615 0.129035 -0.034397 -129977.000000 0 0 1
7.988824 15.825371 -32.513031 37.031890 1.103307 2.642409 0.129351 -0.034745 298249.000000 0 0 1
7.010424 16.785671 -32.066441 36.866807 1.175173 2.625576 0.129539 -0.034963 576839.000000 0 0 1
6.690524 16.664971 -30.668331 35.539146 1.189021 2.611866 0.129502 -0.047637 242808.000000 0 0 1
5.859324 17.908071 -30.176811 35.576265 1.254586 2.583428 0.129243 -0.052072 -64779.100000 0 0 1
5.543524 17.817271 -28.792011 34.309848 1.269158 2.566563 0.117946 -0.056196 -21452.600000 0 0 1
4.704124 18.840771 -28.338101 34.353332 1.326121 2.540824 0.125113 -0.054817 -489380.000000 0 0 1
3.202724 18.687771 -28.513401 34.241850 1.401064 2.554774 0.154109 -0.064751 -2058200.000000 0 0 1
2.726224 17.529571 -27.814451 32.990329 1.416511 2.573836 0.156206 -0.057430 -554903.000000 0 0 1
1.378524 17.223271 -28.013791 32.913734 1.490928 2.588926 0.144953 -0.052993 -160320.000000 0 0 1
0.361624 18.293471 -27.538721 33.063016 1.551031 2.555153 0.144769 -0.059899 -1511090.000000 0 0 1
0.284424 18.629071 -26.161621 32.117808 1.555530 2.522753 0.148209 -0.065561 -292100.000000 0 0 1
-0.487576 19.778771 -26.055121 32.715544 -1.546150 2.492139 0.151085 -0.068383 -275288.000000 0 0 1
-0.846376 20.230271 -24.620701 31.877251 -1.528984 2.453344 0.138101 -0.064998 329358.000000 0 0 1
-1.840476 19.452071 -23.954201 30.912363 -1.476461 2.457364 0.128375 -0.057715 173265.000000 0 0 1
-2.262176 19.921371 -22.694301 30.282169 -1.457725 2.417994 0.136938 -0.057807 423048.000000 0 0 1
-3.404476 19.047471 -22.094601 29.369508 -1.393928 2.422338 0.112670 -0.052362 -992466.000000 0 0 1
-4.675876 19.250971 -22.511501 29.987187 -1.332520 2.419923 0.112381 -0.042336 -1655780.000000 0 0 1
-5.570776 18.473771 -21.768901 29.089496 -1.277918 2.416356 0.105963 -0.048884 1065670.000000 0 0 1
-7.125776 18.583071 -22.060801 29.711717 -1.204634 2.407584 0.125485 -0.039551 926834.000000 0 0 1
-7.908176 19.327071 -21.242001 29.787540 -1.182405 2.364731 0.095938 -0.029941 -375460.000000 0 0 1
-7.816176 20.745371 -21.451501 30.848499 -1.210477 2.339748 0.107329 -0.041907 -279514.000000 0 0 1
-8.310276 21.617471 -20.270801 30.777932 -1.203789 2.289773 0.109399 -0.044177 -279009.000000 0 0 1
-7.480376 21.670771 -19.172101 29.885578 -1.238420 2.267270 0.118982 -0.045118 -261238.000000 0 0 1
-7.819576 22.853471 -18.451701 30.395595 -1.241122 2.223142 0.114620 -0.036265 257483.000000 0 0 1
-6.871076 23.227071 -17.272201 29.749579 -1.283177 2.190245 0.126252 -0.042790 -293909.000000 0 0 1
-5.563776 23.583971 -17.575001 29.933926 -1.339119 2.198301 0.122085 -0.047005 -1082420.000000 0 0 1
-4.841676 23.649371 -16.384901 29.175324 -1.368859 2.167116 0.119493 -0.038755 367150.000000 0 0 1
-3.340976 24.012871 -16.600801 29.383102 -1.432551 2.171203 0.114015 -0.037794 575360.000000 0 0 1
-3.047276 25.413171 -16.683601 30.552540 -1.451457 2.148453 0.090703 -0.038603 -539446.000000 0 0 1
-1.661576 25.574871 -16.774901 30.630576 -1.505918 2.150352 0.090754 -0.045199 -270615.000000 0 0 1
-1.263676 27.017471 -16.999201 31.945476 -1.524058 2.131913 0.075505 -0.049731 -98458.900000 0 0 1
-1.773576 27.416771 -18.246901 32.981424 -1.506197 2.157054 0.069536 -0.049552 -236976.000000 0 0 1
-1.307176 28.658771 -18.601901 34.191586 -1.525216 2.146052 0.083138 -0.056462 -808797.000000 0 0 1
-2.249576 29.501471 -19.470501 35.418890 -1.494691 2.152826 0.122831 -0.054768 595146.000000 0 0 1
-3.401076 30.063271 -18.837001 35.639868 -1.458145 2.127673 0.087698 -0.049680 112195.000000 0 0 1
-4.519376 29.227071 -18.674701 34.977005 -1.417382 2.134019 0.058657 -0.048078 -433521.000000 0 0 1
-5.630276 29.959871 -17.894101 35.348164 -1.385036 2.101597 0.094505 -0.037468 81926.700000 0 0 1
-6.172376 31.095071 -18.497901 36.703869 -1.374843 2.098993 0.127405 -0.039662 126205.000000 0 0 1
-5.802676 32.215771 -17.671801 37.199724 -1.392588 2.065819 0.122614 -0.062303 89368.200000 0 0 1
-6.304976 33.659471 -18.110601 38.738954 -1.385626 2.057261 0.111727 -0.032061 276404.000000 0 0 1
-7.687876 33.760471 -17.819101 38.940894 -1.346896 2.046083 0.131616 -0.052836 225026.000000 0 0 1
-8.222676 -32.717456 -18.170501 38.317247 1.324572 2.064865 0.177339 -0.050537 53030.200000 0 0 1
31.092824 -20.232929 -26.271491 45.456863 -0.576886 2.187003 0.076437 0.001112 229248.000000 0 0 1
30.384924 -21.446729 -26.035111 45.398599 -0.614631 2.181542 0.096307 -0.009753 -84851.700000 0 0 1
28.978124 -21.348429 -25.965771 44.381397 -0.634940 2.195750 0.089525 -0.001838 502808.000000 0 0 1
28.311624 -22.666929 -25.417751 44.287694 -0.675121 2.182085 0.073617 -0.007018 267599.000000 0 0 1
28.611224 -23.761829 -26.280591 45.540050 -0.693068 2.185954 0.068658 0.008598 868500.000000 0 0 1
29.914024 -24.312129 -25.967801 46.478545 -0.682457 2.163620 0.074751 0.010387 915516.000000 0 0 1
30.033824 -25.724379 -26.650881 47.686935 -0.708263 2.163821 0.079989 0.011551 4850.220000 0 0 1
29.448924 -26.652519 -25.766751 47.344708 -0.735594 2.146276 0.090285 0.000401 -250393.000000 0 0 1
29.511524 -27.968659 -26.305011 48.426538 -0.758563 2.145033 0.082856 -0.000369 502489.000000 0 0 1
28.486724 -28.421669 -27.417321 48.692856 -0.784255 2.168888 0.105784 -0.009843 -124099.000000 0 0 1
28.536424 -27.826839 -28.682451 49.105432 -0.772809 2.194566 0.065171 -0.018463 816310.000000 0 0 1
29.712024 -28.029239 -29.523761 50.399356 -0.756263 2.196659 0.059040 -0.015742 670841.000000 0 0 1
29.844324 -29.516909 -30.080021 51.640481 -0.779883 2.192584 0.087496 -0.013059 -726983.000000 0 0 1
30.348624 -30.456299 -29.128441 51.933527 -0.787169 2.166244 0.101131 -0.017053 1310030.000000 0 0 1
31.695624 -30.333459 -28.581821 52.360785 -0.763442 2.148215 0.090893 -0.011219 595733.000000 0 0 1
32.852324 -30.336939 -29.520761 53.582464 -0.745612 2.154287 0.076241 -0.014717 -1343090.000000 0 0 1
32.957424 -29.059299 -30.117231 53.269900 -0.722625 2.171679 0.085287 -0.026979 -143580.000000 0 0 1
34.184424 -28.924799 -30.811671 54.356029 -0.702249 2.173472 0.081491 -0.024983 205936.000000 0 0 1
34.293724 -27.586459 -31.625981 54.196632 -0.677429 2.193879 0.074577 -0.017815 -37368.300000 0 0 1
34.273424 -26.404999 -30.850341 53.137888 -0.656444 2.190227 0.061389 -0.006610 361423.000000 0 0 1
33.044124 -25.999859 -30.215481 51.777235 -0.666654 2.193911 0.066475 -0.006549 449237.000000 0 0 1
33.004824 -24.672529 -29.441911 50.644627 -0.641927 2.191175 0.064532 -0.011491 -304218.000000 0 0 1
33.733924 -24.519529 -28.250461 50.371356 -0.628520 2.166201 0.060226 -0.005568 -106594.000000 0 0 1
33.681524 -23.146429 -27.862281 49.462197 -0.602093 2.169176 0.049464 0.001055 -85309.000000 0 0 1
34.579824 -22.779229 -26.675611 49.256936 -0.582497 2.143089 0.042169 0.000726 -153984.000000 0 0 1
34.355024 -23.492029 -25.442121 48.779551 -0.599772 2.119490 0.043963 -0.001914 -502890.000000 0 0 1
33.403124 -22.992929 -24.566501 47.412619 -0.602862 2.115474 0.066326 0.002585 -466990.000000 0 0 1
33.757424 -21.703629 -23.748901 46.632837 -0.571388 2.105138 0.057349 0.004446 -181517.000000 0 0 1
33.780824 -20.521829 -24.506801 46.506697 -0.545915 2.125807 0.043239 0.004780 -218636.000000 0 0 1
34.057424 -19.400729 -23.702501 45.805076 -0.517802 2.114682 0.023115 -0.005972 228524.000000 0 0 1
34.414924 -18.209729 -24.581901 46.046184 -0.486674 2.133947 0.016832 -0.014705 480642.000000 0 0 1
33.282324 -18.042929 -25.428001 45.605303 -0.496771 2.162248 0.033546 -0.007474 340640.000000 0 0 1
33.271724 -16.794629 -26.065351 45.480432 -0.467458 2.181094 0.034194 0.000956 194346.000000 0 0 1
32.182524 -16.809429 -27.178401 45.353470 -0.481340 2.213369 0.033045 0.009383 573483.000000 0 0 1
30.844524 -16.863029 -26.701201 44.144089 -0.500314 2.220392 0.048121 0.003829 618686.000000 0 0 1
29.936124 -16.742829 -27.821221 44.164626 -0.509944 2.252277 0.047173 -0.017186 716836.000000 0 0 1
28.519724 -16.234829 -27.391191 42.746014 -0.517502 2.266322 0.043930 -0.013736 1089700.000000 0 0 1
27.813224 -17.173929 -26.478941 42.067251 -0.553169 2.251633 0.063449 -0.008764 510331.000000 0 0 1
27.558124 -16.648829 -25.232861 40.906369 -0.543454 2.235523 0.072795 0.006273 188571.000000 0 0 1
26.955124 -17.722929 -24.244701 40.354510 -0.581628 2.215289 0.082650 0.007343 64021.100000 0 0 1
26.933024 -17.195129 -22.899101 39.311946 -0.568206 2.192594 0.098988 0.001623 49193.200000 0 0 1
26.458424 -18.079829 -21.933501 38.833064 -0.599450 2.171005 0.103079 -0.007095 -206279.000000 0 0 1
26.314424 -17.469429 -20.493701 37.651317 -0.586066 2.146354 0.106941 -0.007291 339393.000000 0 0 1
25.253024 -16.505529 -20.355801 36.393768 -0.578906 2.164363 0.114268 -0.018003 322362.000000 0 0 1
25.383224 -15.241729 -20.907701 36.245694 -0.540761 2.185642 0.108997 -0.009057 -494724.000000 0 0 1
26.625724 -14.454529 -20.467801 36.562186 -0.497359 2.164950 0.091187 -0.013033 -285651.000000 0 0 1
26.558224 -13.742429 -19.256101 35.566713 -0.477506 2.142907 0.097285 -0.030356 -54704.500000 0 0 1
27.676924 -12.910329 -19.017701 35.977238 -0.436462 2.127751 0.068086 -0.028316 -34579.900000 0 0 1
27.687324 -12.143029 -17.655001 35.010572 -0.413314 2.099340 0.080285 -0.027175 -72151.700000 0 0 1
27.937324 -12.956329 -16.534401 34.953497 -0.434241 2.063534 0.086072 -0.022144 -28515.100000 0 0 1
28.080924 -12.106929 -15.460901 34.265952 -0.407063 2.038909 0.072290 -0.014255 -72850.700000 0 0 1
28.682424 -12.632329 -14.182401 34.400548 -0.414859 1.995743 0.091323 -0.022374 -68496.700000 0 0 1
27.892324 -13.717329 -13.676401 33.958663 -0.457063 1.985301 0.130528 -0.032815 382409.000000 0 0 1
28.361424 -14.246229 -12.476001 34.102434 -0.465494 1.945330 0.134264 -0.028965 39885.600000 0 0 1
27.559624 -15.552129 -12.135801 33.892171 -0.513762 1.936997 0.136748 -0.051985 -66864.200000 0 0 1
26.209424 -15.255229 -11.926301 32.586693 -0.527117 1.945489 0.125982 -0.041014 -385584.000000 0 0 1
25.484924 -16.369929 -11.461301 32.385450 -0.570970 1.932537 0.106880 -0.040768 382062.000000 0 0 1
24.012124 -16.093829 -11.028901 30.939135 -0.590471 1.935284 0.113749 -0.042563 270302.000000 0 0 1
23.826124 -15.551129 -9.776201 30.084812 -0.578266 1.901760 0.097374 -0.026256 -134650.000000 0 0 1
22.467124 -15.406729 -9.487101 28.846907 -0.601095 1.905911 0.098972 -0.026019 -611362.000000 0 0 1
22.239724 -15.057029 -8.023601 28.030298 -0.595145 1.861104 0.079178 -0.012867 -311932.000000 0 0 1
22.397424 -13.694629 -7.612501 27.333819 -0.548787 1.853030 0.107497 -0.016624 191104.000000 0 0 1
22.112024 -13.553729 -6.233601 26.674013 -0.549893 1.806673 0.090351 -0.006085 -469606.000000 0 0 1
22.973424 -14.201629 -5.154601 27.496080 -0.553677 1.759379 0.087985 -0.007225 580304.000000 0 0 1
24.354624 -13.784529 -5.171401 28.458819 -0.515038 1.753527 0.113768 -0.017405 1264560.000000 0 0 1
25.178224 -14.584829 -4.335301 29.418617 -0.525033 1.718701 0.116407 -0.027880 831520.000000 0 0 1
26.728624 -14.380729 -4.435001 30.673995 -0.493605 1.715890 0.121772 -0.023307 798128.000000 0 0 1
27.241724 -13.170929 -3.886101 30.507158 -0.450347 1.698527 0.142884 -0.024142 -212468.000000 0 0 1
28.583724 -12.952329 -4.231001 31.665336 -0.425459 1.704813 0.149022 -0.030980 -82840.000000 0 0 1
29.229824 -11.842329 -3.347201 31.714778 -0.384934 1.676534 0.178245 -0.047555 -759803.000000 0 0 1
29.496624 -12.259529 -1.999401 32.005382 -0.393903 1.633308 0.193508 -0.053472 336554.000000 0 0 1
29.971724 -11.226929 -1.088401 32.023941 -0.358406 1.604790 0.193264 -0.046298 -355601.000000 0 0 1
31.376824 -10.719229 -1.361001 33.185227 -0.329198 1.611820 0.220300 -0.055412 -944648.000000 0 0 1
31.359024 -9.796029 -2.404701 32.941360 -0.302778 1.643861 0.207996 -0.062834 1231970.000000 0 0 1
32.652824 -9.803929 -3.080101 34.231725 -0.291684 1.660896 0.233923 -0.063411 1055990.000000 0 0 1
32.541324 -9.536929 -4.590301 34.219317 -0.285088 1.705345 0.197117 -0.060131 520204.000000 0 0 1
31.739824 -10.557829 -5.308601 33.868355 -0.321123 1.728188 0.181640 -0.057276 1057010.000000 0 0 1
31.986224 -10.383429 -6.698901 34.290078 -0.313890 1.767421 0.148851 -0.050291 10628.700000 0 0 1
30.971924 -11.151029 -7.569901 33.777344 -0.345588 1.796828 0.157816 -0.040041 49927.100000 0 0 1
30.983124 -12.590929 -7.409201 34.254660 -0.385994 1.788817 0.153852 -0.036553 391798.000000 0 0 1
29.847424 -13.207829 -8.017601 33.609484 -0.416609 1.811671 0.152893 -0.033034 360730.000000 0 0 1
29.852024 -14.767229 -8.017701 34.256356 -0.459383 1.807038 0.165065 -0.024249 239685.000000 0 0 1
30.629924 -15.320229 -9.086101 35.432456 -0.463785 1.830128 0.180928 -0.036587 428130.000000 0 0 1
30.577624 -16.723629 -9.078801 36.015212 -0.500478 1.825628 0.165855 -0.035329 -93083.800000 0 0 1
30.894624 -17.425829 -10.415901 36.967936 -0.513559 1.856419 0.137996 -0.038162 82218.300000 0 0 1
32.078224 -16.937529 -11.031901 37.915633 -0.485801 1.866026 0.140038 -0.031255 260667.000000 0 0 1
32.357624 -17.524129 -12.299001 38.799180 -0.496353 1.893352 0.116376 -0.025239 -33362.700000 0 0 1
31.746124 -16.909229 -13.571201 38.443672 -0.489417 1.931588 0.113525 -0.027969 -298047.000000 0 0 1
32.403724 -15.758629 -13.983101 38.650522 -0.452645 1.940976 0.100788 -0.028241 167402.000000 0 0 1
31.748924 -15.076829 -15.046701 38.232292 -0.443348 1.975297 0.088527 -0.028894 -49155.000000 0 0 1
32.569124 -13.774129 -15.442601 38.586894 -0.400107 1.982535 0.077852 -0.027495 1196350.000000 0 0 1
33.708824 -13.908629 -16.310901 39.947219 -0.391330 1.991400 0.045836 -0.023828 1371590.000000 0 0 1
34.902124 -14.361529 -15.644901 40.855535 -0.390364 1.963765 0.061818 -0.029655 340836.000000 0 0 1
35.918224 -14.955329 -16.675301 42.330206 -0.394540 1.975704 0.075648 -0.029656 -375837.000000 0 0 1
37.218124 -15.170829 -16.187901 43.328870 -0.387058 1.953689 0.091530 -0.037029 -461262.000000 0 0 1
-37.554349 -15.762929 -17.246301 44.229334 0.397404 1.971351 0.101596 -0.039916 -834913.000000 0 0 1
-36.026949 -15.889929 -17.108201 42.931590 0.415392 1.980676 0.134658 -0.047277 -12963.700000 0 0 1
-35.474549 -16.827429 -16.187001 42.469106 0.442920 1.961834 0.126164 -0.051486 154553.000000 0 0 1
-35.623349 -16.425229 -14.868101 41.950823 0.432030 1.933087 0.109875 -0.048010 -800815.000000 0 0 1
-35.037549 -17.367429 -13.775301 41.461022 0.460186 1.909481 0.095652 -0.041082 -753492.000000 0 0 1
-33.635449 -17.280329 -13.748801 40.236585 0.474590 1.919520 0.141110 -0.048739 -203443.000000 0 0 1
-33.156349 -17.845629 -12.550001 39.690206 0.493759 1.892516 0.145591 -0.027929 -163880.000000 0 0 1
-31.644649 -18.158229 -12.478501 38.559280 0.520945 1.900348 0.193857 -0.033958 -151333.000000 0 0 1
-30.922849 -16.945429 -12.574201 37.436355 0.501299 1.913338 0.187307 -0.046613 184018.000000 0 0 1
-29.678149 -16.983729 -11.883801 36.200336 0.519775 1.905277 0.199819 -0.043258 300534.000000 0 0 1
-29.823749 -16.578029 -10.365701 35.661391 0.507336 1.865723 0.204218 -0.054088 -103538.000000 0 0 1
-30.533549 -17.545929 -9.595601 36.499764 0.521567 1.836818 0.185837 -0.047261 -30504.100000 0 0 1
-30.927749 -16.950429 -8.369301 36.247592 0.501357 1.803791 0.198526 -0.045832 -44939.900000 0 0 1
-31.593849 -17.990429 -7.440701 37.110522 0.517637 1.772666 0.177973 -0.026752 -59867.700000 0 0 1
-32.817349 -18.590329 -7.766201 38.508345 0.515407 1.773865 0.132082 -0.022423 -188728.000000 0 0 1
-32.711149 -19.544929 -8.826901 39.114418 0.538580 1.798426 0.131409 -0.019863 440183.000000 0 0 1
-34.127549 -20.094729 -9.241601 40.668107 0.532153 1.800043 0.095118 -0.014641 678933.000000 0 0 1
-34.930649 -19.183529 -9.961701 41.077896 0.502220 1.815746 0.089681 -0.010359 1343160.000000 0 0 1
-36.238049 -19.831129 -10.097201 42.525561 0.500726 1.810524 0.074047 -0.019470 802946.000000 0 0 1
-37.335349 -19.046429 -10.767201 43.273865 0.471730 1.822253 0.064381 -0.035328 -684900.000000 0 0 1
-37.386549 -19.001729 -12.163201 43.666500 0.470226 1.853078 0.066361 -0.039780 195536.000000 0 0 1
37.095624 -18.033629 -12.623101 43.135134 -0.452497 1.867784 0.084291 -0.038491 46059.400000 0 0 1
36.599124 -18.131129 -14.119501 43.215669 -0.459959 1.903629 0.082775 -0.043840 129607.000000 0 0 1
35.798824 -19.318129 -14.295901 43.117499 -0.494847 1.908750 0.057939 -0.045354 462020.000000 0 0 1
35.099324 -19.330429 -15.543001 42.979215 -0.503407 1.940823 0.044448 -0.042032 174619.000000 0 0 1
33.845624 -20.234729 -15.520701 42.377620 -0.538840 1.945770 0.067373 -0.048185 -846909.000000 0 0 1
32.978824 -19.914629 -14.445101 41.144334 -0.543254 1.929524 0.089766 -0.045085 434208.000000 0 0 1
31.753424 -20.640429 -14.572801 40.579229 -0.576391 1.938121 0.120077 -0.045700 891270.000000 0 0 1
30.727024 -20.266229 -15.697301 40.015938 -0.583064 1.973901 0.137784 -0.053740 -690482.000000 0 0 1
30.080124 -19.003429 -15.646801 38.868581 -0.563446 1.985104 0.118088 -0.042648 446555.000000 0 0 1
29.524424 -18.601129 -16.883201 38.765140 -0.562205 2.021418 0.111511 -0.042731 -109693.000000 0 0 1
28.655624 -17.326529 -16.937101 37.526242 -0.543829 2.039063 0.106213 -0.028273 -868359.000000 0 0 1
27.389224 -17.549429 -16.426401 36.441442 -0.569839 2.038415 0.134914 -0.039295 -900302.000000 0 0 1
26.835724 -16.300929 -16.273501 35.365283 -0.545868 2.048966 0.108148 -0.025170 -990620.000000 0 0 1
25.439824 -16.285929 -15.666101 34.027090 -0.569437 2.049243 0.099257 -0.023618 534683.000000 0 0 1
24.275224 -16.887129 -16.264701 33.749106 -0.607802 2.073652 0.095408 -0.028245 1142260.000000 0 0 1
23.839224 -16.457729 -17.530301 33.859665 -0.604229 2.114997 0.101079 -0.019032 -378374.000000 0 0 1
22.615724 -17.208729 -18.105101 33.695786 -0.650453 2.138041 0.093532 -0.007554 -44602.500000 0 0 1
21.382924 -16.931129 -17.496401 32.403960 -0.669725 2.141170 0.074005 -0.007235 36109.600000 0 0 1
20.389024 -17.623429 -18.282201 32.565878 -0.712771 2.166862 0.060947 -0.009600 1521380.000000 0 0 1
18.878324 -17.550129 -17.839501 31.347184 -0.748954 2.176200 0.067020 -0.007609 920556.000000 0 0 1
18.165224 -16.344429 -18.011101 30.356474 -0.732685 2.205973 0.075858 -0.007696 972722.000000 0 0 1
16.779424 -16.647229 -17.727801 29.545799 -0.781443 2.214311 0.071835 -0.013076 1002450.000000 0 0 1
15.960824 -15.359929 -17.337901 28.129667 -0.766215 2.234904 0.093203 -0.020905 131558.000000 0 0 1
15.414424 -14.677629 -18.470401 28.181430 -0.760918 2.285522 0.094971 -0.020121 1238510.000000 0 0 1
14.008624 -14.396329 -18.305701 27.177096 -0.799047 2.309826 0.107124 -0.015299 1327070.000000 0 0 1
13.157124 -13.955129 -19.537501 27.378267 -0.814823 2.365439 0.095650 -0.013821 176489.000000 0 0 1
13.432424 -12.698929 -20.012801 27.243440 -0.757336 2.395861 0.128037 -0.021825 -49057.400000 0 0 1
12.864924 -12.400429 -21.305001 27.806114 -0.767016 2.443701 0.119310 -0.012867 239654.000000 0 0 1
13.155524 -10.966529 -21.823601 27.741704 -0.694899 2.476195 0.133375 -0.012126 1221100.000000 0 0 1
14.571924 -10.731429 -22.063601 28.536065 -0.634770 2.454641 0.136631 -0.013909 1152430.000000 0 0 1
14.734224 -9.427429 -22.651901 28.619616 -0.569194 2.484026 0.132769 -0.026390 740481.000000 0 0 1
16.211924 -9.048929 -23.019201 29.573522 -0.509090 2.462865 0.120130 -0.023703 747139.000000 0 0 1
16.682124 -9.856829 -24.091901 30.917148 -0.533673 2.464250 0.145808 -0.018870 61049.300000 0 0 1
17.996424 -9.465029 -24.420701 31.777802 -0.484183 2.447263 0.130122 -0.029213 -297065.000000 0 0 1
22.195424 5.489471 -7.519901 24.069069 0.242459 1.888546 0.182042 0.016099 -144668.000000 0 1 0
21.692124 6.810771 -7.586701 23.968581 0.304228 1.892862 0.172305 0.003922 751898.000000 0 1 0
21.162024 7.190971 -6.305201 23.222767 0.327564 1.845757 0.165924 0.000100 -96140.100000 0 1 0
20.957224 8.736571 -6.046401 23.496636 0.394970 1.831055 0.128852 0.006900 -844860.000000 0 1 0
19.913724 9.366871 -6.720401 23.009965 0.439666 1.867181 0.045774 -0.013541 108599.000000 0 1 0
19.776724 10.726571 -6.466601 23.409295 0.496977 1.850677 0.060007 -0.001781 -335196.000000 0 1 0
19.449324 11.260871 -5.099501 23.045354 0.524824 1.793924 0.097842 -0.005814 -322872.000000 0 1 0
20.578224 11.345971 -4.250301 23.880105 0.503885 1.749735 0.136816 -0.009225 480165.000000 0 1 0
21.265724 12.592571 -4.370601 25.097929 0.534630 1.745831 0.199882 -0.027642 352128.000000 0 0 1
22.327224 12.908271 -3.283001 25.998202 0.524191 1.697412 0.173093 -0.041444 51109.500000 0 0 1
23.442724 12.071171 -3.187501 26.560020 0.475514 1.691098 0.163959 -0.065415 160746.000000 0 0 1
24.202924 12.346371 -2.035301 27.246227 0.471710 1.645566 0.174546 -0.071021 -45411.700000 0 0 1
25.149124 11.208271 -1.599501 27.580105 0.419249 1.628824 0.153650 -0.065849 -720362.000000 0 0 1
26.393224 11.213771 -2.215601 28.762125 0.401763 1.647905 0.118856 -0.047082 -743089.000000 0 0 1
27.141124 10.140571 -1.698201 29.023365 0.357564 1.629341 0.168108 -0.047898 605649.000000 0 0 1
28.589324 10.090271 -2.292301 30.404238 0.339290 1.646262 0.144118 -0.048221 388133.000000 0 0 1
29.481024 11.049071 -1.860801 31.538474 0.358583 1.629832 0.124396 -0.056747 -352063.000000 0 0 1
30.839424 10.749971 -2.027301 32.722193 0.335408 1.632791 0.119414 -0.048331 -570048.000000 0 0 1
31.810224 11.756571 -1.518101 33.947194 0.354015 1.615531 0.098305 -0.041501 -1262100.000000 0 0 1
31.901924 11.853371 -0.101901 34.033007 0.355748 1.573791 0.127090 -0.057752 446119.000000 0 0 1
32.891924 12.751471 0.382399 35.279242 0.369839 1.559957 0.120106 -0.051239 -185264.000000 0 0 1
34.373624 12.347471 0.218699 36.524703 0.344859 1.564809 0.136022 -0.048246 -564770.000000 0 0 1
35.209024 13.414171 0.645399 37.683311 0.364009 1.553669 0.134073 -0.063461 90663.900000 0 0 1
35.802224 14.097571 -0.467201 38.480632 0.375118 1.582938 0.140598 -0.042664 -355024.000000 0 0 1
35.011424 15.266171 -1.081101 38.210268 0.411179 1.599094 0.087819 -0.020468 -665988.000000 0 0 1
33.853524 14.964871 -1.772801 37.056056 0.416221 1.618656 0.102022 -0.015507 -823818.000000 0 0 1
33.065324 16.081871 -1.998801 36.823056 0.452682 1.625104 0.078048 0.004263 215329.000000 0 0 1
31.769524 15.738771 -2.807101 35.565312 0.459965 1.649807 0.090776 -0.018747 -202049.000000 0 0 1
32.106824 15.158971 -4.077401 35.738883 0.441114 1.685134 0.054061 -0.012522 1121360.000000 0 0 1
30.959024 14.972971 -4.931801 34.741527 0.450473 1.713234 0.041098 -0.019461 1063110.000000 0 0 1
29.886124 13.929071 -4.495901 33.277809 0.436138 1.706313 0.065816 -0.034741 -201127.000000 0 0 1
28.710324 13.885471 -5.259401 32.322598 0.450474 1.734239 0.092534 -0.033457 400095.000000 0 0 1
27.745324 13.005671 -4.643701 30.992168 0.438338 1.721197 0.086500 -0.016137 301575.000000 0 0 1
26.619524 12.762371 -5.673101 30.060959 0.447062 1.760655 0.072657 -0.012387 -326874.000000 0 0 1
27.077224 12.037671 -6.819501 30.407025 0.418328 1.796994 0.068387 0.001124 349138.000000 0 0 1
26.055224 11.720871 -7.739101 29.599784 0.422727 1.835329 0.087688 0.004319 -241946.000000 0 0 1
25.632924 12.885071 -8.671401 29.971070 0.465787 1.864319 0.097363 0.012522 21517.700000 0 0 1
24.716224 13.809471 -8.106501 29.450104 0.509514 1.849659 0.093445 -0.005536 242695.000000 0 0 1
24.495124 14.923871 -8.956101 30.049040 0.547200 1.873445 0.091888 -0.016436 -616092.000000 0 0 1
23.388624 15.960671 -8.551801 29.578777 0.598824 1.864103 0.085061 -0.004824 1400870.000000 0 0 1
22.023124 15.544071 -8.740201 28.337736 0.614613 1.884338 0.115536 -0.021753 1133880.000000 0 0 1
21.544624 14.378271 -8.064401 27.128216 0.588490 1.872628 0.138068 -0.029900 -2036110.000000 0 0 1
20.068124 14.185371 -8.241101 25.920457 0.615316 1.894350 0.159612 -0.031699 -1136940.000000 0 0 1
19.263724 14.965671 -7.389601 25.488597 0.660486 1.864937 0.213482 -0.057186 1083930.000000 0 0 1
17.856224 14.725171 -7.604701 24.361997 0.689593 1.888256 0.226519 -0.056925 771905.000000 0 1 0
16.986524 15.408071 -6.547101 23.849847 0.736711 1.848880 0.210112 -0.029196 -283168.000000 0 1 0
16.992424 14.524171 -5.423201 23.002286 0.707242 1.808805 0.168887 -0.037067 412298.000000 0 1 0
16.322324 15.078871 -4.321201 22.637655 0.745820 1.762861 0.136055 -0.018945 -155516.000000 0 1 0
16.038224 13.988371 -3.266001 21.530581 0.717236 1.723075 0.107429 -0.012663 168565.000000 0 1 0
17.254124 13.483771 -2.721501 22.066342 0.663346 1.694444 0.102311 -0.015867 770103.000000 0 1 0
17.033224 12.452071 -1.772301 21.173707 0.631260 1.654597 0.089078 -0.017028 -89064.700000 0 1 0
16.933224 12.948471 -0.287901 21.318534 0.652829 1.584301 0.097686 -0.022552 -859321.000000 0 1 0
15.883324 13.817871 -0.125301 21.053011 0.715969 1.576748 0.095345 -0.029582 -382473.000000 0 1 0
16.041524 14.642571 0.990499 21.742044 0.739838 1.525224 0.093335 -0.023232 29763.100000 0 1 0
14.781924 15.486471 1.372999 21.452767 0.808671 1.506752 0.085448 -0.018778 20149.600000 0 1 0
14.776424 16.727271 0.644299 22.328445 0.847244 1.541937 0.096202 -0.017989 93953.000000 0 1 0
13.626324 17.489471 0.887499 22.188870 0.908920 1.530788 0.066212 -0.021770 -389049.000000 0 1 0
13.701124 18.986471 0.303199 23.415782 0.945703 1.557847 0.065256 -0.018648 -692205.000000 0 1 0
13.398424 18.968771 -1.118401 23.250438 0.955827 1.618917 0.075565 -0.025791 183507.000000 0 1 0
12.992124 20.288371 -1.354101 24.129793 1.001219 1.626943 0.078098 -0.023515 629420.000000 0 1 0
11.447624 20.485171 -1.199501 23.497428 1.061203 1.621867 0.065881 -0.023228 117181.000000 0 1 0
10.904424 20.454171 0.080899 23.179433 1.081009 1.567306 0.052198 -0.025358 -782295.000000 0 1 0
9.516024 20.320971 0.013199 22.438733 1.132840 1.570208 0.044229 -0.024452 -289583.000000 0 1 0
8.784324 20.365671 1.370099 22.221658 1.163576 1.509101 0.024681 -0.024247 -48158.600000 0 1 0
8.677024 21.680571 1.860299 23.426451 1.190099 1.491302 0.025799 -0.017490 123513.000000 0 1 0
7.969724 21.643171 3.098899 23.271152 1.217972 1.437235 0.032647 -0.023168 291509.000000 0 1 0
7.235224 22.987271 3.293499 24.323039 1.265864 1.434973 0.027417 -0.021694 217254.000000 0 1 0
8.099624 23.843071 4.016099 25.499510 1.243322 1.412641 0.041802 -0.021287 347248.000000 0 0 1
7.403624 24.945171 4.596499 26.423532 1.282282 1.395952 0.037362 -0.020213 78426.600000 0 0 1
7.948924 25.362071 5.927199 27.231448 1.267076 1.351380 0.041592 -0.021056 -163780.000000 0 0 1
7.612424 24.429071 6.927599 26.508869 1.268719 1.306395 0.052595 -0.022819 169229.000000 0 0 1
8.104924 24.832071 8.219899 27.384088 1.255308 1.265925 0.056440 -0.012563 75053.200000 0 0 1
7.441524 23.956771 9.304099 26.755736 1.269622 1.215634 0.062066 -0.018699 261363.000000 0 0 1
6.141924 24.347971 9.717399 26.925356 1.323695 1.201562 0.065236 -0.018303 252041.000000 0 0 1
5.738024 23.369371 10.713299 26.340600 1.330023 1.151933 0.059305 -0.028422 -557610.000000 0 0 1
4.477124 23.830871 11.443499 26.812473 1.385090 1.129848 0.042382 -0.026852 -492173.000000 0 0 1
3.360924 23.767271 10.584399 26.233728 1.430318 1.155495 0.037554 -0.016052 -265221.000000 0 0 1
2.158224 23.792071 11.338299 26.443858 1.480332 1.127667 0.041036 -0.019085 -804808.000000 0 0 1
0.996624 23.924971 10.392599 26.103709 1.529164 1.161322 0.068849 -0.023356 -1047490.000000 0 0 1
0.720824 25.240971 9.923699 27.131274 1.542246 1.196341 0.064966 -0.023767 81425.100000 0 0 1
0.006224 25.213671 8.695399 26.670943 1.570549 1.238700 0.071729 -0.026428 76873.500000 0 0 1
-1.461376 25.658171 8.828899 27.174010 -1.513902 1.239888 0.093750 -0.036588 -248554.000000 0 0 1
-2.318776 24.735871 9.425699 26.572238 -1.477328 1.208182 0.079864 -0.033000 -219238.000000 0 0 1
-3.608776 25.284871 9.531899 27.261788 -1.429029 1.213606 0.088082 -0.036125 17364.100000 0 0 1
-4.771176 24.353871 10.027199 26.766021 -1.377336 1.186805 0.083696 -0.040526 502806.000000 0 0 1
-5.170976 24.441371 11.425299 27.471022 -1.362304 1.141860 0.055987 -0.023314 173535.000000 0 0 1
-5.894976 25.578271 11.759799 28.762677 -1.344283 1.149596 0.068366 -0.028226 -553816.000000 0 0 1
-6.262876 25.667371 13.251399 29.557353 -1.331471 1.105902 0.042010 -0.015929 294533.000000 0 0 1
-7.189676 24.661471 13.706099 29.115919 -1.287124 1.080664 0.045702 -0.026689 521848.000000 0 0 1
-7.442276 24.925571 15.067899 30.061822 -1.280643 1.045776 0.032804 -0.009431 -212115.000000 0 0 1
-8.577076 24.086471 15.673099 29.989504 -1.228702 1.020876 0.033761 -0.018724 1017680.000000 0 0 1
-9.880576 24.380371 15.130499 30.347327 -1.185757 1.048839 0.035091 -0.014371 824850.000000 0 0 1
-10.910576 23.484571 15.479599 30.169251 -1.135880 1.032013 0.034973 -0.017510 -353467.000000 0 0 1
-12.305776 23.954271 15.130799 30.889809 -1.096233 1.058900 0.034655 -0.020690 -701888.000000 0 0 1
-12.846876 24.852371 16.076899 32.266844 -1.093699 1.049219 0.041090 -0.027537 -319992.000000 0 0 1
-13.847876 25.646271 15.517599 33.019551 -1.075697 1.081560 0.034783 -0.027253 -311049.000000 0 0 1
-14.562076 26.701171 16.443399 34.574441 -1.071513 1.075157 0.041849 -0.024740 -629798.000000 0 0 1
-15.602976 26.156171 17.150399 34.953316 -1.032931 1.057943 0.045210 -0.026553 -628451.000000 0 0 1
-16.176376 27.032471 18.100199 36.332449 -1.031550 1.049295 0.062448 -0.026581 -56396.400000 0 0 1
-17.469976 26.502071 18.771899 36.877419 -0.987986 1.036733 0.054025 -0.027989 624326.000000 0 0 1
-18.652076 26.869171 18.060399 37.363489 -0.963986 1.066296 0.055401 -0.025884 150376.000000 0 0 1
-19.768176 26.105971 18.439199 37.580667 -0.922685 1.057953 0.069814 -0.029956 516805.000000 0 0 1
-20.981276 26.258271 17.446299 37.869303 -0.896644 1.092015 0.085780 -0.035318 439182.000000 0 0 1
-21.663276 27.510171 17.547799 39.166724 -0.903746 1.106238 0.065444 -0.033055 398051.000000 0 0 1
-22.442276 27.753471 16.385999 39.273552 -0.890816 1.140404 0.080475 -0.036048 466504.000000 0 0 1
-23.551776 28.862171 16.536799 40.757536 -0.886370 1.153012 0.075075 -0.033649 1035020.000000 0 0 1
-24.796676 28.555671 17.169599 41.534282 -0.855738 1.144629 0.076032 -0.037305 428587.000000 0 0 1
-25.662466 29.653571 17.007499 42.745192 -0.857424 1.161590 0.073447 -0.032507 488829.000000 0 0 1
-27.055246 29.475971 17.697299 43.749441 -0.828193 1.154348 0.077147 -0.029094 -533326.000000 0 0 1
-28.026116 28.861571 16.958999 43.658460 -0.800083 1.171851 0.117659 -0.029254 -647964.000000 0 0 1
-29.274276 28.822671 17.615899 44.699547 -0.777625 1.165713 0.166440 -0.032549 140510.000000 0 0 1
-29.562106 27.704671 18.643399 44.598691 -0.752975 1.139525 0.145082 -0.032295 -681493.000000 0 0 1
-29.662536 26.408671 18.050299 43.624503 -0.727432 1.144210 0.176943 -0.036580 363520.000000 0 0 1
-30.022376 25.347371 18.936599 43.616821 -0.701165 1.121693 0.170551 -0.036362 -88848.200000 0 0 1
-30.073636 24.014571 18.199499 42.571645 -0.673841 1.129068 0.164528 -0.042220 -301372.000000 0 0 1
-31.168226 23.978771 17.320099 42.970054 -0.655760 1.155923 0.188234 -0.045382 -63030.400000 0 0 1
-31.073066 22.994271 16.286599 41.946695 -0.637075 1.172044 0.184057 -0.039734 -207469.000000 0 0 1
-31.484346 21.519471 16.686299 41.626725 -0.599564 1.158346 0.167436 -0.032943 302699.000000 0 0 1
-32.888046 21.313371 16.695399 42.598353 -0.575009 1.168072 0.175526 -0.029366 248160.000000 0 0 1
-33.244476 19.949771 16.711799 42.219341 -0.540488 1.163822 0.150050 -0.029303 356879.000000 0 0 1
-34.711112 19.590671 16.350399 43.081216 -0.513825 1.181513 0.162327 -0.039625 289558.000000 0 0 1
-34.987372 19.801771 14.977599 42.901688 -0.515021 1.214170 0.138501 -0.030140 147170.000000 0 0 1
-36.348456 19.651871 14.627999 43.833601 -0.495638 1.230553 0.141421 -0.036657 202369.000000 0 0 1
-36.694386 19.941671 13.091399 43.766801 -0.497803 1.267029 0.130424 -0.029228 19235.100000 0 0 1
-36.697496 21.313671 12.748299 44.311374 -0.526177 1.278974 0.142356 -0.038545 -10453.800000 0 0 1
-36.872066 21.549471 11.381399 44.198022 -0.528899 1.310353 0.088551 -0.024234 -100371.000000 0 0 1
-35.732189 21.141071 10.413699 42.803964 -0.534260 1.325042 0.109472 -0.022358 -163519.000000 0 0 1
-35.833140 19.834671 9.956399 42.149234 -0.505548 1.332325 0.127098 -0.029773 253857.000000 0 0 1
-34.752015 19.448571 9.107799 40.852190 -0.510213 1.345962 0.131224 -0.029885 836227.000000 0 0 1
-33.812866 18.354471 9.811499 39.704685 -0.497318 1.321098 0.104263 -0.019620 866972.000000 0 0 1
-32.981036 18.918571 10.842899 39.537697 -0.520796 1.292995 0.123623 -0.019300 100117.000000 0 0 1
-32.396246 17.900171 11.610699 38.790994 -0.504790 1.266822 0.121916 -0.020859 -58321.300000 0 0 1
-31.788156 18.468871 12.889899 38.958125 -0.526331 1.233576 0.106700 -0.002859 127541.000000 0 0 1
-30.574626 19.180571 12.759299 38.281872 -0.560278 1.230996 0.128224 -0.001776 -97059.000000 0 0 1
-30.761846 20.547071 13.081699 39.237790 -0.588884 1.230894 0.155919 -0.014288 -888333.000000 0 0 1
-29.508786 21.351271 13.175399 38.732885 -0.626361 1.223709 0.167445 -0.024480 -1019840.000000 0 0 1
-28.891486 21.268971 14.434599 38.670980 -0.634589 1.188268 0.159041 -0.023236 -141588.000000 0 0 1
-27.719676 22.035671 14.524299 38.274097 -0.671652 1.181561 0.157506 -0.029025 -271386.000000 0 0 1
-27.007026 21.979971 15.904499 38.281218 -0.683136 1.142343 0.136716 -0.033794 -493959.000000 0 0 1
-26.247636 20.842971 16.123099 37.193039 -0.671127 1.122426 0.140561 -0.029814 -118233.000000 0 0 1
-25.902776 20.572871 17.459099 37.403435 -0.671215 1.085152 0.125928 -0.024904 496620.000000 0 0 1
-24.749476 19.520971 17.735499 36.168395 -0.667839 1.058295 0.124548 -0.021277 658401.000000 0 0 1
-24.433576 19.354371 19.124999 36.569890 -0.669919 1.020463 0.106483 -0.024708 99632.400000 0 0 1
-23.488376 18.328271 19.318099 35.508003 -0.662621 0.995541 0.099425 -0.019283 -119793.000000 0 0 1
-22.952276 18.181371 20.722599 35.871929 -0.669929 0.954909 0.096029 -0.021586 458240.000000 0 0 1
-23.967676 17.757571 21.651399 36.858702 -0.637649 0.942934 0.101158 -0.012581 760500.000000 0 0 1
-23.515376 18.015271 22.963599 37.481326 -0.653730 0.911365 0.124651 -0.020319 -170400.000000 0 0 1
-24.267276 17.272571 24.042199 38.278842 -0.618578 0.891712 0.124383 -0.014346 -387893.000000 0 0 1
-24.086276 15.865871 24.003799 37.524084 -0.582474 0.876701 0.119142 -0.025047 -91658.800000 0 0 1
-24.799776 15.230471 24.996999 38.364646 -0.550750 0.861153 0.121516 -0.028748 -176280.000000 0 0 1
21.000724 24.372571 32.736576 45.899195 0.859575 0.776704 0.141966 -0.019084 81817.800000 0 0 1
21.929224 23.329971 32.367940 45.528694 0.816338 0.779970 0.152224 -0.037078 405258.000000 0 0 1
21.614924 22.012171 32.826737 45.048144 0.794503 0.754370 0.157547 -0.039330 307326.000000 0 0 1
20.591424 21.159471 31.989918 43.532572 0.799003 0.745351 0.165793 -0.045469 334504.000000 0 0 1
21.192424 20.571071 30.879665 42.729867 0.770521 0.763136 0.195324 -0.046104 96489.200000 0 0 1
20.456424 19.468971 30.428365 41.513751 0.760671 0.748118 0.162255 -0.049395 71853.200000 0 0 1
21.058324 18.995471 29.079765 40.619130 0.733942 0.772865 0.168285 -0.048593 551044.000000 0 0 1
22.390624 18.499071 29.139865 41.142283 0.690512 0.783751 0.167584 -0.042431 132675.000000 0 0 1
22.726624 18.020171 27.865875 40.221052 0.670403 0.805406 0.147347 -0.041933 -282214.000000 0 0 1
23.865424 17.000171 27.877275 40.443872 0.618956 0.810297 0.153903 -0.032647 300230.000000 0 0 1
25.162524 17.563071 28.019685 41.553783 0.609373 0.830781 0.162666 -0.028731 292632.000000 0 0 1
25.970724 16.722471 28.846545 42.263965 0.572073 0.819574 0.135544 -0.020554 302861.000000 0 0 1
27.428224 17.145171 29.166285 43.553835 0.558666 0.837045 0.098408 -0.025194 -130818.000000 0 0 1
28.234424 17.114271 28.048405 43.321981 0.544929 0.866575 0.084154 -0.013115 76781.500000 0 0 1
29.404124 17.947971 28.227035 44.536476 0.548024 0.884346 0.071112 -0.003755 1495310.000000 0 0 1
30.544024 17.663671 27.165895 44.530086 0.524312 0.914664 0.068534 0.003771 515581.000000 0 0 1
30.335324 18.264671 25.894655 43.867565 0.541957 0.939376 0.082770 -0.003742 -377300.000000 0 0 1
31.370624 18.106771 24.974895 43.996780 0.523478 0.967144 0.073605 0.002107 -307599.000000 0 0 1
31.757724 19.323871 24.091555 44.298624 0.546630 0.995785 0.091992 -0.012850 775808.000000 0 0 1
30.645924 19.599571 23.195885 43.143539 0.568993 1.003155 0.084205 -0.019337 1051370.000000 0 0 1
30.975224 20.578671 22.258015 43.340114 0.586403 1.031461 0.080458 -0.021858 -79938.000000 0 0 1
31.791324 20.171471 20.993615 43.108102 0.565399 1.062146 0.086709 -0.025534 -365471.000000 0 0 1
31.110924 19.288671 20.178915 41.798697 0.554993 1.066988 0.093330 -0.034636 -188395.000000 0 0 1
31.816924 18.859371 19.038915 41.598953 0.535069 1.095415 0.099482 -0.036793 281655.000000 0 0 1
32.944624 17.792271 19.277315 42.113277 0.495184 1.095334 0.137952 -0.050956 391638.000000 0 0 1
32.435724 16.509371 19.608115 41.341429 0.470812 1.076631 0.142057 -0.051758 453154.000000 0 0 1
33.492524 15.632271 19.965315 42.008700 0.436687 1.075530 0.150398 -0.053840 -332876.000000 0 0 1
32.940424 14.383471 20.655615 41.456124 0.411698 1.049214 0.140979 -0.053736 -8512.910000 0 0 1
32.401624 14.604071 21.949015 41.772041 0.423453 1.017555 0.116735 -0.042138 133563.000000 0 0 1
31.076924 15.072871 21.945115 40.921324 0.451590 1.004778 0.106427 -0.030838 -378979.000000 0 0 1
30.068624 14.451771 22.958105 40.497536 0.448029 0.968057 0.080030 -0.024570 135216.000000 0 0 1
29.672024 13.147271 22.669525 39.587715 0.417090 0.961073 0.081338 -0.020941 -32603.100000 0 0 1
28.768824 12.764071 23.690625 39.393051 0.417583 0.925555 0.059806 -0.003903 -15019.700000 0 0 1
28.290424 11.284171 23.585975 38.522446 0.379531 0.911873 0.077704 -0.006953 563970.000000 0 0 1
27.248824 11.141771 22.580495 37.101432 0.388147 0.916482 0.083830 -0.008486 715372.000000 0 0 1
27.025324 9.765171 22.371715 36.417309 0.346736 0.909278 0.075314 -0.004115 -170242.000000 0 0 1
25.983124 9.398471 21.283415 34.877468 0.347072 0.914440 0.079016 -0.019472 -1060180.000000 0 0 1
24.698424 9.400771 21.813315 34.266710 0.363691 0.880748 0.088994 -0.018399 -781374.000000 0 0 1
23.812424 8.708571 20.978915 32.908747 0.350606 0.879564 0.096465 -0.018533 -583690.000000 0 0 1
22.345824 8.948971 21.337015 32.166569 0.380917 0.845538 0.083954 -0.016042 -469330.000000 0 0 1
21.867424 8.296771 22.490115 32.447280 0.362633 0.804977 0.074324 -0.008718 -498093.000000 0 0 1
20.477324 8.312971 22.537215 31.565050 0.385634 0.775612 0.113421 -0.009851 -786351.000000 0 0 1
19.952524 7.528471 23.736535 31.909312 0.360802 0.731947 0.110845 -0.017417 -293877.000000 0 0 1
20.095624 6.139271 23.734375 31.699296 0.296498 0.724645 0.103303 -0.023027 196520.000000 0 0 1
19.844824 5.601071 24.975795 32.387952 0.275088 0.690159 0.119338 -0.032143 -84145.700000 0 0 1
20.076124 4.089971 25.064505 32.372953 0.200973 0.685280 0.107076 -0.031106 -1138140.000000 0 0 1
21.419424 3.803371 24.943725 33.097535 0.175735 0.717209 0.111834 -0.029764 -955732.000000 0 0 1
21.654024 2.385371 24.870195 33.062265 0.109716 0.719367 0.097442 -0.034452 -369510.000000 0 0 1
23.145424 2.103971 24.728735 33.935935 0.090653 0.754391 0.089590 -0.027184 -5373.680000 0 0 1
23.956524 2.687371 25.779105 35.294466 0.111710 0.751888 0.084723 -0.029747 44772.200000 0 0 1
25.323224 2.562671 25.511545 36.037091 0.100855 0.784241 0.091130 -0.027330 -186489.000000 0 0 1
26.299524 3.008571 26.603385 37.529410 0.113901 0.782905 0.077030 -0.027949 -782964.000000 0 0 1
26.253724 2.114571 27.699845 38.223172 0.080370 0.760216 0.083384 -0.030427 34521.000000 0 0 1
26.987824 2.665871 28.747325 39.520352 0.098461 0.756263 0.087355 -0.015267 9789.380000 0 0 1
28.533524 2.589871 28.693475 40.548551 0.090518 0.784654 0.080207 -0.023414 -668263.000000 0 0 1
28.962324 3.762771 27.909205 40.396763 0.129196 0.808095 0.076024 -0.010191 785044.000000 0 0 1
30.361324 3.863871 27.588565 41.205199 0.126582 0.837206 0.071431 -0.003153 905405.000000 0 0 1
30.789224 2.819771 26.526645 40.738070 0.091328 0.861696 0.092532 -0.004530 -562510.000000 0 0 1
30.193124 3.015571 25.288115 39.499458 0.099546 0.876019 0.066153 0.007230 161952.000000 0 0 1
30.730724 2.041271 24.367535 39.272395 0.066327 0.901448 0.089757 0.004301 -111622.000000 0 0 1
30.263924 2.291271 22.923285 38.034617 0.075565 0.923922 0.090736 -0.005064 93417.600000 0 0 1
30.850824 3.380371 22.195015 38.155196 0.109136 0.949975 0.089547 -0.006708 375857.000000 0 0 1
32.235024 3.104571 21.941415 39.117271 0.096014 0.975307 0.078761 -0.010349 594695.000000 0 0 1
33.006224 4.343671 21.401515 39.576548 0.130850 0.999453 0.095926 -0.007499 232550.000000 0 0 1
32.560824 4.723671 20.026115 38.517083 0.144067 1.024029 0.091203 -0.021231 183851.000000 0 0 1
33.122224 5.946471 19.498115 38.892400 0.177639 1.045656 0.122743 -0.014907 419368.000000 0 0 1
34.617324 5.894671 19.009815 39.930933 0.168663 1.074619 0.133257 -0.023457 1295060.000000 0 0 1
35.635324 5.910571 20.024315 41.301143 0.164366 1.064620 0.127869 -0.012355 608919.000000 0 0 1
35.721124 7.215571 20.668715 41.895811 0.199315 1.054875 0.137277 -0.007567 -754006.000000 0 0 1
36.460724 7.187771 22.016015 43.194368 0.194642 1.035964 0.149212 -0.013445 47046.900000 0 0 1
35.809724 6.414771 22.998085 43.039489 0.177255 1.007060 0.150842 -0.005017 270349.000000 0 0 1
36.647424 6.216271 24.119425 44.310523 0.168024 0.995209 0.152343 -0.005010 266640.000000 0 0 1
35.941924 5.304371 25.162695 44.194112 0.146524 0.965060 0.152000 -0.000975 209577.000000 0 0 1
35.833924 3.933271 24.856285 43.787849 0.109326 0.967145 0.151875 -0.009148 33318.400000 0 0 1
35.140424 3.242171 25.869485 43.756044 0.092003 0.938225 0.135234 -0.008626 47466.800000 0 0 1
35.184324 1.759371 25.510185 43.494846 0.049963 0.944053 0.125638 -0.004837 -413074.000000 0 0 1
34.518324 1.409971 24.384555 42.286041 0.040824 0.956165 0.128628 -0.013362 -412313.000000 0 0 1
34.668424 0.072471 24.172995 42.263916 0.002090 0.961911 0.121906 -0.017051 -127353.000000 0 0 1
33.614524 -0.554029 23.229415 40.863785 -0.016480 0.966164 0.120110 -0.006002 889061.000000 0 0 1
32.273024 -0.716629 23.736045 40.068211 -0.022202 0.936773 0.117617 -0.010158 320756.000000 0 0 1
31.609624 -1.528429 22.845895 39.031262 -0.048316 0.945518 0.113023 -0.015226 -483492.000000 0 0 1
30.144524 -1.860329 23.077975 38.009816 -0.061635 0.918317 0.111172 -0.007227 5355.700000 0 0 1
29.189524 -0.813529 23.055035 37.205172 -0.027863 0.902471 0.103960 -0.011176 -613079.000000 0 0 1
27.884424 -1.274929 22.944255 36.133162 -0.045690 0.882799 0.101045 -0.008106 -620232.000000 0 0 1
26.943924 -0.063829 22.823795 35.311539 -0.002369 0.867998 0.104948 -0.021311 -285882.000000 0 0 1
27.196124 0.752371 21.679015 34.787569 0.027658 0.897990 0.086463 -0.019094 204865.000000 0 0 1
26.366924 1.916071 21.612515 34.146550 0.072542 0.885459 0.089510 -0.015573 -75001.000000 0 0 1
26.750024 2.893771 20.541115 33.850777 0.107759 0.918751 0.081864 -0.018884 -459207.000000 0 0 1
26.328924 2.693571 19.204315 32.699745 0.101950 0.943087 0.092501 -0.027775 710632.000000 0 0 1
25.058624 3.335871 18.995615 31.621134 0.132345 0.926388 0.090922 -0.026033 360547.000000 0 0 1
24.558324 3.126471 17.560315 30.352113 0.126627 0.953842 0.096700 -0.032839 -50852.900000 0 0 1
25.292724 3.906071 16.605215 30.507581 0.153224 0.995244 0.086352 -0.020179 319858.000000 0 0 1
24.751724 4.012971 15.309115 29.378918 0.160730 1.022667 0.064392 -0.012676 -335788.000000 0 0 1
24.666224 2.745971 14.380115 28.683631 0.110869 1.045655 0.087358 -0.008820 -413030.000000 0 0 1
23.478224 2.056671 14.592015 27.719737 0.087376 1.016421 0.113375 -0.004186 -313774.000000 0 0 1
23.487024 0.981371 13.754015 27.235571 0.041759 1.041412 0.119723 -0.002437 -231235.000000 0 0 1
22.085824 0.405571 13.448315 25.861271 0.018361 1.023925 0.193891 -0.032569 -213960.000000 0 0 1
21.251324 1.164071 12.593615 24.730002 0.054722 1.036490 0.228151 -0.032260 568317.000000 0 1 0
21.587824 1.117371 11.183715 24.338409 0.051713 1.093354 0.234407 -0.029990 -807355.000000 0 1 0
21.292224 -0.237929 10.459615 23.723806 -0.011174 1.114205 0.241509 -0.033092 -273213.000000 0 1 0
21.947324 -1.461329 10.752615 24.483449 -0.066485 1.116112 0.231010 -0.049653 908009.000000 0 1 0
23.273224 -1.544429 10.186615 25.451824 -0.066264 1.159027 0.242742 -0.038107 648765.000000 0 0 1
24.289024 -2.307929 11.048215 26.783321 -0.094735 1.145596 0.229317 -0.040838 -164086.000000 0 0 1
24.623524 -1.641729 12.240515 27.547113 -0.066575 1.110350 0.194823 -0.040921 57871.800000 0 0 1
25.416124 -2.460529 13.085715 28.692674 -0.096509 1.097228 0.126908 -0.022230 117633.000000 0 0 1
25.786024 -1.820429 14.461215 29.620259 -0.070481 1.060747 0.138306 -0.034710 -289810.000000 0 0 1
26.710924 -0.799529 14.342615 30.328590 -0.029924 1.078209 0.092131 -0.017491 -488527.000000 0 0 1
27.212724 -0.433829 15.637515 31.388731 -0.015941 1.049288 0.082703 -0.030812 497494.000000 0 0 1
28.517924 0.418871 15.459615 32.441442 0.014687 1.074082 0.102203 -0.026467 623311.000000 0 0 1
29.652124 -0.372829 15.090315 33.273189 -0.012573 1.100077 0.142251 -0.031983 517058.000000 0 0 1
30.748824 0.549071 14.962815 34.200549 0.017855 1.117977 0.147519 -0.034939 29050.300000 0 0 1
32.119324 -0.018929 15.324115 35.587636 -0.000589 1.125636 0.166697 -0.032946 -469907.000000 0 0 1
32.721824 -0.820329 14.354415 35.741292 -0.025065 1.157511 0.173696 -0.037273 -884335.000000 0 0 1
34.040024 -1.082829 14.690615 37.090564 -0.031800 1.163559 0.136807 -0.033619 -713899.000000 0 0 1
34.703324 -1.965429 13.579215 37.317271 -0.056575 1.198360 0.131766 -0.040095 -151017.000000 0 0 1
34.840224 -1.250329 12.395815 37.000822 -0.035872 1.229176 0.150442 -0.043361 79858.000000 0 0 1
35.372924 -2.135929 11.460515 37.244454 -0.060310 1.258010 0.151891 -0.048646 -162684.000000 0 0 1
35.271724 -1.540629 10.033015 36.703262 -0.043651 1.293917 0.195675 -0.046958 -358492.000000 0 0 1
35.850524 -0.283429 9.731915 37.149032 -0.007906 1.305734 0.163197 -0.043811 -278227.000000 0 0 1
34.924224 0.753671 9.717115 36.258679 0.021577 1.299486 0.183592 -0.043205 -835014.000000 0 0 1
35.302924 2.102071 9.130515 36.525080 0.059474 1.318137 0.204775 -0.047239 -411002.000000 0 0 1
35.507724 2.078071 7.755215 36.404124 0.058458 1.356120 0.196001 -0.050807 347277.000000 0 0 1
35.908424 3.379871 7.436415 36.825789 0.093848 1.367463 0.202092 -0.047663 -397755.000000 0 0 1
36.200824 3.414271 5.919615 36.840179 0.094037 1.409413 0.173314 -0.044749 -157418.000000 0 0 1
36.549524 4.728871 5.482015 37.259662 0.128668 1.423130 0.164188 -0.030808 273102.000000 0 0 1
36.690724 4.803471 4.070015 37.226974 0.130178 1.461248 0.172760 -0.034548 -344181.000000 0 0 1
37.061024 6.196471 3.493415 37.737511 0.165664 1.478092 0.192633 -0.057707 -42343.000000 0 0 1
36.026824 7.154571 3.639115 36.910204 0.196040 1.472042 0.193577 -0.058414 -92717.000000 0 0 1
36.355524 8.480571 3.344515 37.481062 0.229170 1.481445 0.187282 -0.062291 133986.000000 0 0 1
35.077824 9.430671 3.422815 36.484339 0.262640 1.476842 0.204929 -0.072334 1935560.000000 0 0 1
34.040324 9.231271 2.423715 35.352998 0.264817 1.502185 0.199160 -0.074643 643635.000000 0 0 1
33.296524 8.053471 2.539515 34.350634 0.237314 1.496800 0.238879 -0.062871 -92573.200000 0 0 1
32.063724 7.961171 1.555115 33.073873 0.243371 1.523760 0.230885 -0.063517 919592.000000 0 0 1
32.519824 7.944871 0.203215 33.476876 0.239615 1.564726 0.248356 -0.055057 641300.000000 0 0 1
31.536924 7.298071 -0.621485 32.376314 0.227410 1.589993 0.235786 -0.059005 183032.000000 0 0 1
31.781424 7.388571 -2.170985 32.701118 0.228423 1.637234 0.197444 -0.040122 -360859.000000 0 0 1
30.936424 6.534271 -2.934985 31.754892 0.208157 1.663355 0.243974 -0.050173 502206.000000 0 0 1
31.161424 6.569971 -4.324885 32.138816 0.207793 1.705775 0.197746 -0.035156 -223204.000000 0 0 1
30.163224 5.674771 -5.121585 31.116776 0.185962 1.736141 0.240078 -0.029296 -224664.000000 0 0 1
30.187624 4.277471 -4.826385 30.868810 0.140759 1.727792 0.249830 -0.030225 632663.000000 0 0 1
29.127624 3.614571 -5.489985 29.860066 0.123463 1.755705 0.235461 -0.035582 -112920.000000 0 0 1
28.977524 2.135971 -5.212785 29.520034 0.073578 1.748312 0.268418 -0.029622 -352128.000000 0 0 1
28.759824 1.833271 -3.880785 29.078323 0.063658 1.704655 0.300581 -0.047957 425171.000000 0 0 1
28.696024 0.450471 -3.764185 28.945359 0.015697 1.701210 0.260385 -0.049103 -123938.000000 0 0 1
28.698324 -0.027229 -2.278485 28.788645 -0.000949 1.650024 0.266341 -0.038180 -780512.000000 0 0 1
29.919724 0.150671 -1.662385 29.966250 0.005036 1.626300 0.247080 -0.036971 -715557.000000 0 0 1
29.902424 -0.015029 -0.263885 29.903593 -0.000503 1.579621 0.260805 -0.029251 63790.400000 0 0 1
31.247624 0.505371 0.281215 31.252976 0.016172 1.561798 0.284846 -0.033633 26237.300000 0 0 1
32.349424 -0.315929 0.026615 32.350978 -0.009766 1.569974 0.239977 -0.030438 858895.000000 0 0 1
33.608824 0.311871 0.396415 33.612609 0.009279 1.559002 0.181195 -0.038311 1199980.000000 0 0 1
-3.137576 -21.168429 -8.545401 23.042800 1.423648 1.950719 0.074132 -0.002493 344648.000000 0 1 0
-3.318976 -21.374529 -7.123501 22.773457 1.416749 1.888934 0.084392 -0.022621 -236962.000000 0 1 0
-2.746276 -22.584329 -6.705201 23.718214 1.449789 1.857407 0.078154 -0.021046 118604.000000 0 1 0
-3.364776 -23.066929 -5.339701 23.914793 1.425948 1.795975 0.087164 -0.022356 -154561.000000 0 1 0
-3.052276 -22.235029 -4.221501 22.837118 1.434376 1.756718 0.097382 -0.030957 84633.300000 0 1 0
-3.394276 -22.930529 -3.025101 23.376944 1.423839 1.700566 0.099096 -0.038691 -158619.000000 0 1 0
-2.651276 -22.372729 -1.784601 22.599846 1.452842 1.649844 0.096392 -0.048754 -1417110.000000 0 1 0
-1.296876 -22.463829 -1.831301 22.575632 1.513129 1.652004 0.096660 -0.040889 -1900800.000000 0 1 0
-0.793376 -22.231829 -0.530501 22.252305 1.535125 1.594639 0.070695 -0.039145 -651746.000000 0 1 0
0.711324 -22.273029 -0.392101 22.287834 -1.538871 1.588390 0.069557 -0.034231 -362639.000000 0 1 0
1.473524 -21.157829 -0.896201 21.228004 -1.501264 1.613027 0.058324 -0.029796 85411.700000 0 1 0
2.662724 -20.864129 -0.181901 21.034140 -1.443860 1.579444 0.048627 -0.029948 310699.000000 0 1 0
3.439524 -19.734529 -0.882301 20.051444 -1.398240 1.614812 0.049561 -0.027661 377059.000000 0 1 0
4.090624 -20.224129 -2.042101 20.734483 -1.371224 1.669444 0.032883 -0.014641 538433.000000 0 1 0
5.146424 -19.427629 -2.628701 20.268905 -1.311842 1.700854 0.038642 -0.001017 187617.000000 0 1 0
5.895424 -20.131429 -3.761101 21.311413 -1.285915 1.748208 0.034344 0.004963 162277.000000 0 1 0
6.971424 -20.982229 -3.243601 22.346714 -1.250018 1.716460 0.046805 -0.002286 527870.000000 0 1 0
7.705324 -21.564129 -4.291501 23.298083 -1.227614 1.756054 0.037433 0.002226 661266.000000 0 1 0
8.947424 -20.745229 -4.789501 23.094593 -1.163601 1.779699 0.042575 0.000242 13146.300000 0 1 0
8.549124 -19.535529 -5.434601 22.005893 -1.158286 1.820339 0.035579 -0.007312 -945871.000000 0 1 0
9.633524 -18.760229 -5.732901 21.854453 -1.096401 1.836224 0.052435 -0.022931 -1158760.000000 0 1 0
9.496924 -17.936029 -7.032701 21.479097 -1.083837 1.904369 0.045457 -0.004965 -297709.000000 0 1 0
10.736224 -17.326529 -7.286101 21.646302 -1.016060 1.914098 0.065272 -0.019847 -124758.000000 0 1 0
10.907324 -16.591729 -8.481401 21.591419 -0.989240 1.974485 0.075258 -0.002243 -318263.000000 0 1 0
11.026124 -17.464729 -9.817401 22.868615 -1.007653 2.014509 0.067906 0.016121 -368203.000000 0 1 0
9.903224 -17.859629 -10.551701 22.986487 -1.064502 2.047710 0.059775 -0.004649 -863238.000000 0 1 0
9.190224 -16.894229 -11.187701 22.249491 -1.072582 2.097665 0.042180 -0.023041 -300551.000000 0 1 0
8.716924 -17.322929 -12.609201 23.131377 -1.104591 2.147320 0.051451 -0.030526 148069.000000 0 1 0
7.644124 -18.254229 -12.634801 23.479517 -1.174224 2.139002 0.050753 -0.014687 96092.900000 0 1 0
7.375124 -18.679529 -13.954201 24.454795 -1.194760 2.178047 0.065693 -0.011915 317091.000000 0 1 0
6.052924 -19.511829 -13.873101 24.694378 -1.269992 2.167347 0.070206 -0.001118 364446.000000 0 1 0
6.101024 -20.611229 -13.044701 25.143776 -1.283009 2.116248 0.072014 -0.018395 95783.100000 0 0 1
4.902824 -21.375129 -13.082101 25.535763 -1.345326 2.108663 0.101188 -0.022332 207618.000000 0 0 1
5.157724 -22.899829 -12.884301 26.777033 -1.349263 2.072785 0.080442 -0.028377 -234364.000000 0 0 1
5.774824 -23.539929 -13.963201 27.972269 -1.330227 2.093449 0.092680 -0.029929 -141749.000000 0 0 1
5.594824 -24.991599 -14.045501 29.208871 -1.350559 2.072436 0.085915 -0.015395 -263820.000000 0 0 1
4.214924 -25.509189 -14.460701 29.624250 -1.407044 2.080751 0.101675 -0.027690 -34370.900000 0 0 1
3.175024 -25.140909 -13.569401 28.744995 -1.445172 2.062424 0.102285 -0.020992 489378.000000 0 0 1
1.854424 -25.267779 -14.097401 28.993728 -1.497537 2.078558 0.100923 -0.027026 1207740.000000 0 0 1
0.904424 -26.293449 -13.397901 29.524010 -1.536413 2.041818 0.079891 -0.026354 -231583.000000 0 0 1
1.338724 -27.626529 -13.793401 30.907526 -1.522376 2.033400 0.082732 -0.027071 387517.000000 0 0 1
0.631224 -28.743229 -13.300701 31.677757 -1.548839 2.004104 0.059647 -0.024912 28225.900000 0 0 1
-0.870176 -28.905779 -13.602801 31.958371 1.540702 2.010467 0.042175 -0.021503 315948.000000 0 0 1
-1.754276 -27.984149 -12.930101 30.876813 1.508190 2.002880 0.052344 -0.022958 1465820.000000 0 0 1
-3.124076 -28.333419 -13.283401 31.448231 1.460979 2.006876 0.058338 -0.021647 1282920.000000 0 0 1
-4.290276 -27.577609 -12.602801 30.622893 1.416462 1.994949 0.057094 -0.014872 124017.000000 0 0 1
-4.571776 -27.774479 -11.236901 30.308262 1.407656 1.950617 0.063010 -0.028170 37408.800000 0 0 1
-5.055976 -29.060759 -10.846301 31.428217 1.398541 1.923156 0.049435 -0.022491 -599763.000000 0 0 1
-5.530676 -29.065809 -9.382101 31.039224 1.382763 1.877865 0.062494 -0.020610 764910.000000 0 0 1
-6.913976 -28.693429 -9.259201 30.932971 1.334344 1.874788 0.066514 -0.017940 453600.000000 0 0 1
-7.117576 -27.315889 -9.076501 29.651316 1.315899 1.881898 0.072419 -0.016064 -296872.000000 0 0 1
-8.607176 -26.911599 -8.789101 29.589963 1.261246 1.872377 0.078823 -0.020208 829680.000000 0 0 1
-9.472576 -27.009809 -9.908101 30.289106 1.233490 1.904048 0.086335 -0.025456 -159013.000000 0 0 1
-9.792776 -28.383259 -10.261401 31.730178 1.238565 1.900112 0.090419 -0.031515 -779612.000000 0 0 1
-11.108876 -28.683469 -11.019101 32.673676 1.201293 1.914787 0.092629 -0.036071 -9952.920000 0 0 1
-11.165976 -28.051329 -12.294701 32.599321 1.191968 1.957509 0.113960 -0.038251 190034.000000 0 0 1
-12.212276 -28.575209 -13.104601 33.725551 1.166917 1.969871 0.122264 -0.045943 82806.000000 0 0 1
-12.437076 -27.815159 -14.457401 33.725070 1.150329 2.013832 0.131737 -0.039085 -312411.000000 0 0 1
-13.433776 -26.824819 -14.438701 33.294344 1.106512 2.019356 0.119680 -0.051682 -215551.000000 0 0 1
-13.166476 -25.647419 -13.665101 31.904250 1.096514 2.013425 0.129349 -0.047998 16993.000000 0 0 1
-14.316876 -24.620329 -13.779701 31.638800 1.044086 2.021425 0.155570 -0.038332 -177053.000000 0 0 1
-14.137376 -23.719229 -14.822101 31.339462 1.033301 2.063436 0.154709 -0.041615 43612.500000 0 0 1
-15.332976 -23.053329 -15.130301 31.551262 0.983873 2.070934 0.158335 -0.041897 -288285.000000 0 0 1
-15.039176 -22.182929 -16.366401 31.402519 0.975015 2.119031 0.138734 -0.035109 150303.000000 0 0 1
-14.294576 -21.001829 -16.138701 30.097664 0.973186 2.136738 0.125202 -0.033372 329051.000000 0 0 1
-14.425376 -20.092629 -17.250401 30.155953 0.948129 2.179787 0.126207 -0.024459 -170238.000000 0 0 1
-14.100876 -18.638429 -16.919201 28.852818 0.923117 2.197400 0.094984 -0.023877 -572585.000000 0 0 1
-12.732676 -18.382929 -16.910901 28.036256 0.965030 2.218278 0.092827 -0.010732 -484366.000000 0 0 1
-12.550876 -16.994529 -17.289901 27.299802 0.934680 2.256651 0.082906 -0.010109 813573.000000 0 0 1
-11.088276 -16.509829 -17.576301 26.541489 0.979375 2.294574 0.075574 -0.014906 530334.000000 0 0 1
-10.261576 -16.177829 -16.525701 25.300610 1.005538 2.282565 0.093799 -0.012023 -162633.000000 0 0 1
-9.065376 -15.522329 -16.880101 24.658904 1.042208 2.324774 0.080634 -0.011469 -135349.000000 0 1 0
-8.346376 -14.696429 -15.723701 23.084232 1.054300 2.320121 0.065843 -0.007610 80576.300000 0 1 0
-7.984476 -15.513929 -14.627501 22.768347 1.095486 2.268486 0.060366 -0.007121 84015.600000 0 1 0
-6.806976 -16.262629 -14.851401 23.051510 1.174388 2.270865 0.048021 -0.006662 -642251.000000 0 1 0
-6.457976 -17.034529 -13.562501 22.711716 1.208426 2.210751 0.045836 -0.006045 -407681.000000 0 1 0
-5.884676 -16.358129 -12.430801 21.371537 1.225471 2.191555 0.043958 -0.011944 374681.000000 0 1 0
-5.556076 -17.248429 -11.373101 21.394525 1.259171 2.131272 0.044314 -0.009951 491597.000000 0 1 0
-4.503976 -18.425429 -11.554401 22.210052 1.331054 2.117920 0.058345 -0.003504 911842.000000 0 1 0
-3.155476 -18.014929 -11.800601 21.765773 1.397396 2.143806 0.049474 0.004676 114295.000000 0 1 0
-2.320076 -19.145629 -11.737901 22.576895 1.450204 2.117539 0.052571 0.015852 751878.000000 0 1 0
-0.843176 -18.898229 -12.187901 22.503309 1.526209 2.143141 0.045025 0.018068 64717.500000 0 1 0
-0.691976 -18.618529 -13.578401 23.054315 1.533647 2.200586 0.060236 0.012000 831093.000000 0 1 0
0.598124 -18.041029 -13.915301 22.791930 -1.537655 2.227534 0.068169 0.007601 1385340.000000 0 1 0
1.818924 -18.984729 -13.896501 23.597482 -1.475278 2.200491 0.082149 -0.007055 -432399.000000 0 1 0
1.861624 -19.799129 -15.079001 24.956911 -1.477046 2.219560 0.110787 -0.004032 116688.000000 0 1 0
1.301824 -21.091929 -14.881801 25.846319 -1.509153 2.184355 0.115129 -0.013487 -473763.000000 0 0 1
1.483524 -22.022729 -16.070001 27.302864 -1.503535 2.200101 0.135235 -0.016992 711279.000000 0 0 1
2.784724 -22.579529 -16.271101 27.970315 -1.448086 2.191647 0.123298 -0.025068 40192.800000 0 0 1
3.720724 -21.756929 -16.874701 27.784227 -1.401421 2.223515 0.123413 -0.027244 -216572.000000 0 0 1
5.117624 -22.423329 -17.055801 28.633828 -1.346412 2.208874 0.130879 -0.033557 276790.000000 0 0 1
5.254024 -23.461229 -18.043101 30.059733 -1.350486 2.214599 0.118944 -0.029697 -288073.000000 0 0 1
6.570924 -23.931729 -18.088601 30.709969 -1.302830 2.200634 0.114058 -0.031804 -255998.000000 0 0 1
7.205424 -23.683429 -19.475001 31.497597 -1.275455 2.237376 0.102383 -0.024717 -112208.000000 0 0 1
7.340624 -22.347329 -19.909301 30.816686 -1.253421 2.273202 0.112874 -0.028309 49425.400000 0 0 1
7.694324 -22.331229 -21.264301 31.781392 -1.238981 2.303767 0.080595 -0.010781 44388.400000 0 0 1
8.086524 -20.885229 -21.738201 31.211120 -1.201383 2.341289 0.057879 -0.009310 154404.000000 0 0 1
6.929124 -20.197529 -22.146301 30.763803 -1.240310 2.374428 0.106522 -0.013660 35853.800000 0 0 1
7.148324 -18.776729 -22.293101 30.010772 -1.207037 2.408094 0.110164 -0.006965 653982.000000 0 0 1
5.791124 -18.081629 -22.637201 29.545309 -1.260842 2.443681 0.112684 -0.012682 52949.800000 0 0 1
5.323324 -18.179229 -23.954901 30.539473 -1.285935 2.472511 0.095147 -0.009230 565929.000000 0 0 1
4.327324 -17.226629 -24.408501 30.187040 -1.324689 2.512523 0.110376 -0.012081 579807.000000 0 0 1
2.943024 -17.182329 -23.774901 29.481176 -1.401160 2.508909 0.121848 -0.008734 -777835.000000 0 0 1
2.891624 -16.592829 -22.453401 28.068464 -1.398260 2.498010 0.126243 -0.001889 -769447.000000 0 0 1
1.629524 -16.173629 -22.024901 27.374037 -1.470383 2.505783 0.115421 -0.008303 -150547.000000 0 0 1
1.706224 -15.177229 -20.867601 25.859548 -1.458846 2.509782 0.107447 -0.008955 73137.500000 0 0 1
2.202724 -13.935529 -21.268201 25.522291 -1.414028 2.555881 0.097609 0.000980 -272487.000000 0 0 1
2.273324 -13.091729 -20.133101 24.122668 -1.398865 2.558227 0.094764 -0.009747 -49943.500000 0 1 0
3.440524 -12.101529 -20.005001 23.632272 -1.293800 2.580195 0.079888 -0.014805 -16090.000000 0 1 0
4.664924 -12.670029 -19.554901 23.763108 -1.218013 2.537310 0.077503 -0.020890 1556950.000000 0 1 0
5.844124 -11.776929 -19.554701 23.563450 -1.110165 2.549679 0.069020 -0.015566 1646980.000000 0 1 0
5.842824 -10.759929 -18.376701 22.082070 -1.073330 2.553860 0.075559 -0.016620 -363755.000000 0 1 0
4.969924 -9.642129 -18.292501 21.267026 -1.094874 2.606329 0.044057 -0.009473 -170543.000000 0 1 0
5.200724 -8.555229 -19.224001 21.674909 -1.024588 2.661439 0.061829 -0.012938 -294319.000000 0 1 0
4.629524 -8.723729 -20.648401 22.888696 -1.082906 2.695459 0.087553 -0.024679 1008640.000000 0 1 0
3.183724 -8.769829 -20.614501 22.627498 -1.222560 2.716590 0.059560 -0.022148 659461.000000 0 1 0
2.662624 -8.850329 -21.924101 23.792522 -1.278560 2.742645 0.068733 -0.033870 -390653.000000 0 1 0
1.139424 -8.876529 -21.903701 23.661428 -1.443131 2.753714 0.059276 -0.033038 -673060.000000 0 1 0
0.600324 -7.683029 -21.404501 22.749549 -1.492818 2.796003 0.050867 -0.036441 119319.000000 0 1 0
-0.766376 -7.546129 -21.800701 23.082503 1.469585 2.806770 0.050772 -0.031442 557295.000000 0 1 0
-1.112476 -6.522229 -22.919601 23.855506 1.401855 2.860554 0.061538 -0.026452 77429.300000 0 1 0
-0.605176 -6.972329 -24.210101 25.201361 1.484217 2.860188 0.069051 -0.032430 49055.100000 0 0 1
-1.207676 -6.303229 -25.312611 26.113549 1.381494 2.893281 0.086199 -0.038398 -4036.620000 0 0 1
-0.804176 -4.782629 -25.574931 26.030700 1.404210 2.954188 0.086728 -0.031768 -233397.000000 0 0 1
-1.334076 -4.206629 -26.776711 27.137939 1.263693 2.978250 0.082325 -0.030656 31615.400000 0 0 1
-0.966076 -2.841629 -27.050901 27.216895 1.243083 3.031092 0.072682 -0.025600 -535919.000000 0 0 1
-1.426376 -1.791529 -25.915591 26.016571 0.898390 3.053458 0.062458 -0.033732 81638.600000 0 0 1
-2.796476 -1.581929 -25.654381 25.854787 0.514807 3.017003 0.062757 -0.041317 -71524.600000 0 0 1
-3.459976 -0.915229 -26.715761 26.954424 0.258596 3.008421 0.074246 -0.029106 -781699.000000 0 0 1
-4.975976 -1.094829 -26.672291 27.154559 0.216572 2.952844 0.096792 -0.034537 -674745.000000 0 0 1
-5.664476 -0.248829 -25.835511 26.450365 0.043900 2.925555 0.104240 -0.026680 -760483.000000 0 0 1
-7.027276 -0.543629 -25.911731 26.853229 0.077206 2.876008 0.124804 -0.037076 -506101.000000 0 0 1
-7.954676 0.586971 -25.361121 26.585858 -0.073656 2.836879 0.125422 -0.027739 -893930.000000 0 0 1
-8.132776 1.786671 -26.075711 27.372923 -0.216252 2.832499 0.142672 -0.032173 101500.000000 0 0 1
-9.039876 1.716771 -27.154831 28.671440 -0.187676 2.814884 0.148617 -0.033753 343952.000000 0 0 1
-10.509776 1.296971 -26.864371 28.876148 -0.122785 2.766110 0.134958 -0.035461 -618772.000000 0 0 1
-11.483076 2.058771 -27.559611 29.927107 -0.177403 2.741157 0.137608 -0.039674 396517.000000 0 0 1
-12.761676 1.553971 -27.181891 30.068761 -0.121172 2.699810 0.080530 -0.023318 577188.000000 0 0 1
-13.945176 2.311771 -27.885341 31.263468 -0.164282 2.672428 0.047106 -0.013906 976122.000000 0 0 1
-15.179676 1.543571 -27.810211 31.720861 -0.101338 2.639790 0.026566 -0.011674 1302370.000000 0 0 1
-16.219376 2.035971 -28.630381 32.968349 -0.124874 2.622804 0.013694 -0.010383 335202.000000 0 0 1
-17.152476 3.190271 -28.200821 33.161296 -0.183893 2.587567 0.016475 -0.000303 -404966.000000 0 0 1
-16.431676 4.378771 -28.090731 32.836912 -0.260431 2.597239 0.038237 -0.007569 19905.700000 0 0 1
-16.260376 5.112471 -29.337851 33.930026 -0.304627 2.615264 0.031489 -0.010928 69917.300000 0 0 1
-17.517276 5.728171 -30.055011 35.255788 -0.316041 2.591516 0.010386 0.004407 624268.000000 0 0 1
-18.163876 6.826071 -29.373071 35.203678 -0.359476 2.557794 0.010019 0.015712 793295.000000 0 0 1
-19.016276 7.651971 -30.188931 36.490313 -0.382566 2.545105 0.011424 0.008699 200423.000000 0 0 1
-19.651776 8.793771 -29.325251 36.379844 -0.420756 2.508303 0.017176 0.006452 182118.000000 0 0 1
-18.678276 9.700671 -28.772931 35.649159 -0.479012 2.510044 0.034308 0.008755 734288.000000 0 0 1
-19.232876 10.570371 -27.782811 35.405096 -0.502535 2.473028 0.068663 0.006328 26344.900000 0 0 1
-9.260476 24.660371 30.753805 40.493047 -1.211569 0.708277 0.050260 -0.016026 -669690.000000 0 0 1
-9.990376 25.907971 30.790755 41.462045 -1.202756 0.733815 0.050434 -0.015929 450579.000000 0 0 1
-9.506576 26.981271 31.667371 42.675360 -1.232039 0.734669 0.072928 -0.018370 202924.000000 0 0 1
-8.127476 27.626571 31.354965 42.572493 -1.284678 0.742904 0.075268 -0.020572 -17466.100000 0 0 1
-8.078676 28.311071 30.144265 42.136190 -1.292830 0.773599 0.084334 -0.007431 -455094.000000 0 0 1
-6.769876 28.709071 29.912685 42.009650 -1.339217 0.778392 0.096873 -0.009272 -611501.000000 0 0 1
-6.623476 29.765071 28.853005 41.980064 -1.351839 0.813027 0.115471 -0.013869 -85026.000000 0 0 1
-7.206276 30.963271 29.325045 43.250582 -1.342131 0.825722 0.111361 -0.015994 371498.000000 0 0 1
-6.811976 32.036671 28.512255 43.424647 -1.361286 0.854506 0.106380 -0.008547 -46419.100000 0 0 1
-6.981176 33.326671 29.264075 44.897549 -1.364305 0.860845 0.129240 -0.021408 -229767.000000 0 0 1
-6.018876 33.308871 30.269655 45.408807 -1.392027 0.841154 0.144930 -0.028813 -76134.100000 0 0 1
-6.429976 -33.534156 31.289035 46.312935 1.381352 0.829018 0.139329 -0.032774 35967.100000 0 0 1
-7.502776 33.792371 32.311784 47.352586 -1.352315 0.819802 0.084162 -0.025600 -136846.000000 0 0 1
-7.132676 32.798471 33.226378 47.229302 -1.356661 0.790469 0.085909 -0.018573 18045.200000 0 0 1
-7.320276 31.454771 32.731156 45.981710 -1.342142 0.778696 0.092631 -0.011697 -139896.000000 0 0 1
-6.985476 30.407971 33.804455 46.001987 -1.344989 0.745354 0.085959 -0.008211 41174.500000 0 0 1
-5.655076 30.444071 -33.360131 45.516147 -1.387137 2.393415 0.094128 -0.021809 -71380.000000 0 0 1
-5.674076 30.006571 -31.983511 44.221425 -1.383909 2.379305 0.091963 -0.013015 -135244.000000 0 0 1
-4.260776 29.857171 -31.358091 43.507870 -1.429048 2.375673 0.086499 -0.024530 569503.000000 0 0 1
-3.618876 28.592871 -31.574911 42.750714 -1.444900 2.401761 0.096391 -0.021138 298800.000000 0 0 1
-3.101976 28.386871 -32.872831 43.543768 -1.461953 2.426355 0.099704 -0.023461 -708907.000000 0 0 1
-2.434876 27.019671 -33.029831 42.742964 -1.480924 2.453966 0.105082 -0.033332 -1052720.000000 0 0 1
-1.250676 26.856971 -32.263771 41.997762 -1.524262 2.446862 0.117210 -0.034820 549911.000000 0 0 1
-0.408276 25.764171 -32.550871 41.515279 -1.554951 2.471992 0.130900 -0.032142 232365.000000 0 0 1
0.090024 25.681871 33.607125 42.296637 1.567291 0.652517 0.123262 -0.027350 -1395520.000000 0 0 1
-0.971576 25.359371 32.738476 41.422814 -1.532503 0.659418 0.117358 -0.024729 -154095.000000 0 0 1
-0.646776 25.112571 31.423925 40.230867 -1.545047 0.674387 0.118704 -0.018985 -226538.000000 0 0 1
-0.149076 26.298671 30.588415 40.339726 -1.565128 0.710141 0.097313 -0.020366 262399.000000 0 0 1
-1.206576 27.239271 30.398495 40.835061 -1.526530 0.731128 0.109205 -0.024934 396879.000000 0 0 1
-0.688676 28.456971 29.974135 41.336694 -1.546600 0.759585 0.106667 -0.024980 -252515.000000 0 0 1
-1.705176 29.606871 30.022375 42.199733 -1.513266 0.779258 0.122425 -0.024970 -30170.900000 0 0 1
-2.145976 29.959371 31.342985 43.411425 -1.499289 0.764110 0.122806 -0.028279 -197375.000000 0 0 1
-3.111676 30.954671 31.265195 44.106537 -1.470609 0.782921 0.124005 -0.028508 -221787.000000 0 0 1
-3.068676 31.893871 32.452549 45.604865 -1.474876 0.779019 0.120094 -0.021734 -38810.100000 0 0 1
-1.902776 32.662971 32.314732 45.986217 -1.512607 0.791604 0.182881 -0.041634 -257938.000000 0 0 1
-1.253676 32.851171 33.551646 46.973228 -1.532653 0.775213 0.150944 -0.042065 -467068.000000 0 0 1
0.238824 33.179671 33.456005 47.119549 1.563599 0.781264 0.153275 -0.057415 -360169.000000 0 0 1
0.470924 -33.363256 32.772588 46.769340 -1.556682 0.794379 0.173287 -0.059528 -481987.000000 0 0 1
1.842324 -33.132456 32.693485 46.583450 -1.515249 0.792838 0.157951 -0.063064 -500188.000000 0 0 1
2.125324 -31.798856 31.937116 45.118329 -1.504059 0.784343 0.160898 -0.066980 -149568.000000 0 0 1
1.567524 -30.782056 32.688762 44.928246 -1.519917 0.756013 0.147237 -0.053491 17917.400000 0 0 1
1.904324 -29.506956 32.253189 43.755630 -1.506348 0.741996 0.129537 -0.051390 -129162.000000 0 0 1
1.549324 -28.493156 33.338212 43.882761 -1.516475 0.707928 0.126350 -0.038387 1171110.000000 0 0 1
0.138624 -28.442456 33.653305 44.062881 -1.565923 0.701684 0.128218 -0.036083 1050590.000000 0 0 1
-0.072076 -27.755156 -32.769751 42.944272 1.568199 2.438856 0.111019 -0.026075 977207.000000 0 0 1
-1.597076 -27.399356 -32.564881 42.588107 1.512573 2.441290 0.163382 -0.019982 1058920.000000 0 0 1
-1.966576 -26.799256 -31.324821 41.271200 1.497546 2.432571 0.167997 -0.019176 1165350.000000 0 0 1
-3.327376 -26.291856 -31.317951 41.026177 1.444910 2.439303 0.186824 -0.026413 1294770.000000 0 0 1
-3.703076 -25.608556 -29.910751 39.549512 1.427189 2.428414 0.203609 -0.035375 -146665.000000 0 0 1
-3.923776 -26.509356 -28.854831 39.379477 1.423849 2.393133 0.208125 -0.042315 9170.540000 0 0 1
-4.076976 -25.716456 -27.668701 37.993616 1.413569 2.386555 0.231781 -0.036548 70188.400000 0 0 1
-2.793576 -25.165656 -27.002321 37.016748 1.460241 2.388332 0.229728 -0.042873 -128487.000000 0 0 1
-2.127476 -24.094256 -27.625091 36.717911 1.482727 2.422434 0.247993 -0.044242 -215740.000000 0 0 1
-0.888576 -23.991656 -26.990491 36.123064 1.533776 2.414608 0.194463 -0.043717 -1550890.000000 0 0 1
0.104324 -22.930356 -27.457271 35.773088 -1.566247 2.445791 0.132874 -0.032012 343182.000000 0 0 1
0.897024 -23.226256 -28.621811 36.871014 -1.532194 2.459521 0.077372 -0.028349 21649.900000 0 0 1
1.876024 -24.200156 -28.313241 37.293520 -1.493430 2.432879 0.053766 -0.010658 -910992.000000 0 0 1
2.767824 -24.440856 -29.572991 38.465284 -1.458031 2.447795 0.051141 -0.014139 458036.000000 0 0 1
3.689124 -23.347256 -29.791921 38.029759 -1.414081 2.470889 0.078110 -0.023692 562823.000000 0 0 1
4.416324 -23.539856 -31.000691 39.174885 -1.385342 2.483796 0.080742 -0.018203 -159878.000000 0 0 1
5.479224 -22.451756 -31.341291 38.940721 -1.331431 2.506213 0.094241 -0.039937 244031.000000 0 0 1
6.706624 -22.409956 -30.610841 38.525427 -1.280010 2.489082 0.060009 -0.034895 1404930.000000 0 0 1
7.681324 -23.468356 -30.765601 39.449825 -1.254481 2.465249 0.072460 -0.031854 274800.000000 0 0 1
8.217324 -23.755956 -32.202301 40.851659 -1.237773 2.478795 0.083832 -0.028644 -1016160.000000 0 0 1
7.441224 -24.607456 -33.009701 41.839444 -1.277142 2.479913 0.071775 -0.029944 -162682.000000 0 0 1
7.461124 -24.389456 33.243884 41.900714 -1.273921 0.654427 0.086700 -0.038570 -25244.000000 0 0 1
6.820424 -23.048256 32.779975 40.648088 -1.283087 0.632701 0.083550 -0.038070 -174984.000000 0 0 1
5.410624 -23.081656 32.934066 40.579434 -1.340541 0.623919 0.090292 -0.036046 220465.000000 0 0 1
4.844624 -21.853656 32.423565 39.399749 -1.352640 0.604233 0.116410 -0.047430 -285328.000000 0 0 1
3.384024 -21.669456 32.817283 39.471395 -1.415882 0.589139 0.091901 -0.042367 -4837.010000 0 0 1
2.420324 -22.625356 32.347197 39.548779 -1.464228 0.613034 0.090188 -0.040822 460567.000000 0 0 1
2.162224 -23.668256 33.279823 40.895088 -1.479694 0.620160 0.085762 -0.028780 -137149.000000 0 0 1
0.793324 -24.343456 33.031249 41.040183 -1.538219 0.635371 0.100061 -0.022455 12321.100000 0 0 1
0.723824 -25.169156 31.876765 40.621897 -1.542046 0.668554 0.105723 -0.027702 -933738.000000 0 0 1
-0.578576 -25.285156 31.447755 40.356352 1.547918 0.677325 0.127548 -0.038157 -1010260.000000 0 0 1
-0.735776 -26.503256 30.510905 40.421273 1.543042 0.715412 0.133354 -0.050725 1001230.000000 0 0 1
-2.122376 -26.721656 30.170335 40.358401 1.491537 0.726415 0.151911 -0.046430 934828.000000 0 0 1
-2.262576 -27.888156 29.386045 40.575955 1.489843 0.760889 0.168600 -0.051627 1062570.000000 0 0 1
-3.576576 -27.836856 28.485965 39.989157 1.443013 0.777966 0.190148 -0.046410 2514840.000000 0 0 1
-4.795576 -28.020856 29.280655 40.810816 1.401295 0.770629 0.184476 -0.050176 1283770.000000 0 0 1
-5.986276 -28.185456 28.549875 40.562924 1.361517 0.790005 0.145144 -0.038970 829714.000000 0 0 1
-7.179876 -28.906456 29.254475 41.748750 1.327340 0.794380 0.092905 -0.027567 359547.000000 0 0 1
-8.246376 -29.480256 28.510235 41.832066 1.298042 0.820931 0.092272 -0.026287 785971.000000 0 0 1
-9.419176 -29.625656 29.326705 42.737057 1.262963 0.814527 0.073891 -0.016917 389448.000000 0 0 1
-9.431376 -30.832156 30.273555 44.227377 1.273941 0.816881 0.037371 -0.003765 -731821.000000 0 0 1
-9.533376 -32.115756 29.660095 44.744031 1.282237 0.846132 0.061420 -0.007890 616493.000000 0 0 1
-10.818776 -32.535056 29.192725 45.031000 1.249772 0.865472 0.047559 -0.001769 218107.000000 0 0 1
-10.915376 33.773071 28.747135 45.674539 -1.258195 0.890027 0.064131 -0.000972 -330576.000000 0 0 1
-10.876576 32.758271 29.769565 45.581040 -1.250223 0.859108 0.061987 0.001429 325724.000000 0 0 1
-10.552276 31.510371 29.171005 44.217661 -1.247652 0.850358 0.075126 -0.004612 -202030.000000 0 0 1
-10.900776 30.360971 30.167705 44.166797 -1.226092 0.818879 0.065747 -0.001388 697171.000000 0 0 1
-12.321476 30.343971 30.334205 44.640109 -1.185077 0.823677 0.057807 0.008522 461631.000000 0 0 1
-12.893476 29.203271 30.945015 44.459720 -1.155027 0.800952 0.058911 -0.003737 95390.000000 0 0 1
-12.972076 29.148271 32.486236 45.532977 -1.152077 0.776364 0.059610 -0.014588 -212466.000000 0 0 1
-13.934076 30.018671 33.058190 46.777377 -1.136213 0.785955 0.062698 -0.007686 204430.000000 0 0 1
-14.136076 29.567471 -33.299011 46.721388 -1.124825 2.364157 0.064694 -0.010830 234617.000000 0 0 1
-15.471276 30.188971 -32.764431 47.161873 -1.097214 2.338831 0.066459 -0.012946 413663.000000 0 0 1
-15.746476 29.519771 -31.546191 45.984025 -1.080770 2.326808 0.060814 -0.009677 -282640.000000 0 0 1
-16.927976 29.942571 -30.907151 46.242469 -1.056246 2.302814 0.076650 -0.017709 47675.500000 0 0 1
-17.046076 29.407071 -29.491701 45.001166 -1.045468 2.285448 0.103015 -0.022633 4606.120000 0 0 1
-17.238276 28.033371 -29.323691 44.078417 -1.019479 2.298641 0.086034 -0.028922 -5202.310000 0 0 1
-17.228476 27.666271 -27.937241 42.927059 -1.013835 2.279444 0.097119 -0.025467 36290.300000 0 0 1
-17.904276 26.277171 -27.773901 42.218981 -0.972689 2.288761 0.064410 -0.030340 -24328.800000 0 0 1
-19.254376 26.198671 -28.147531 43.004475 -0.937005 2.284351 0.073757 -0.031621 -317672.000000 0 0 1
-19.766776 24.915971 -27.891551 42.302123 -0.900131 2.290739 0.058736 -0.030750 -725032.000000 0 0 1
-21.238376 24.710971 -28.209481 43.098440 -0.860829 2.284365 0.090907 -0.025647 -1273210.000000 0 0 1
-22.045276 25.186971 -27.221671 43.143911 -0.851816 2.253574 0.092553 -0.026260 -587030.000000 0 0 1
-23.358476 24.725071 -27.451351 43.709543 -0.813812 2.249829 0.100868 -0.029035 50195.500000 0 0 1
-24.367976 24.808371 -26.275651 43.585127 -0.794353 2.217875 0.106626 -0.029818 -124414.000000 0 0 1
-24.763076 26.138271 -25.999431 44.411592 -0.812408 2.196194 0.072489 -0.020566 244294.000000 0 0 1
-26.020466 26.263771 -25.343731 44.823599 -0.790052 2.171727 0.086808 -0.024284 441184.000000 0 0 1
-26.120286 25.768971 -23.889701 43.783867 -0.778628 2.147935 0.077665 -0.016049 -711085.000000 0 0 1
-25.991856 24.374871 -23.716401 42.803955 -0.753305 2.158042 0.090262 -0.010823 1091900.000000 0 0 1
-27.240486 23.609171 -23.557101 43.062443 -0.714106 2.149627 0.113106 -0.010133 996472.000000 0 0 1
-27.960796 23.745671 -22.204501 42.880098 -0.704058 2.115106 0.091581 -0.011911 -217140.000000 0 0 1
-27.372706 23.089571 -21.077701 41.553132 -0.700723 2.102784 0.095006 -0.011637 714521.000000 0 0 1
-26.169176 23.761571 -20.655901 40.940252 -0.737217 2.099643 0.098400 -0.008176 663091.000000 0 0 1
-25.496726 23.198371 -19.372701 39.541737 -0.738234 2.082806 0.089477 -0.009202 651017.000000 0 0 1
-26.230636 23.558471 -18.149501 39.654157 -0.731780 2.046197 0.087955 -0.000732 1029460.000000 0 0 1
-25.423946 23.240171 -16.991301 38.408161 -0.740554 2.029056 0.107126 -0.020211 204938.000000 0 0 1
-26.080516 23.405571 -15.608601 38.361993 -0.731396 1.989829 0.107118 -0.025220 -203152.000000 0 0 1
-26.374136 24.710971 -15.171001 39.196765 -0.752853 1.968223 0.109906 -0.026723 -72160.300000 0 0 1
-26.825976 24.761571 -13.878301 39.056057 -0.745402 1.934077 0.076230 -0.031707 -37492.200000 0 0 1
-26.946246 26.160671 -13.279401 39.834951 -0.770607 1.910662 0.079079 -0.022893 -300708.000000 0 0 1
-25.702136 26.743371 -13.044701 39.318849 -0.805249 1.908972 0.108645 -0.035346 -694308.000000 0 0 1
-25.671906 27.803171 -12.079101 39.723642 -0.825232 1.879767 0.122828 -0.028769 208225.000000 0 0 1
-24.206676 28.263571 -11.846101 39.052819 -0.862563 1.878987 0.137503 -0.036330 629072.000000 0 0 1
-23.396976 27.220871 -11.240901 37.613191 -0.860799 1.874289 0.136270 -0.042858 670170.000000 0 0 1
-22.273876 27.833171 -10.574301 37.183690 -0.895895 1.859156 0.130414 -0.046751 140961.000000 0 0 1
-21.442376 26.781471 -9.845601 35.692556 -0.895664 1.850265 0.193270 -0.051534 -529430.000000 0 0 1
-20.775376 25.977271 -10.759001 34.959848 -0.896207 1.883627 0.186848 -0.056973 -471821.000000 0 0 1
-19.981776 25.125771 -9.958901 33.611835 -0.898946 1.871604 0.184981 -0.047346 -12428.000000 0 0 1
-19.070276 24.237371 -10.871801 32.700484 -0.904148 1.909714 0.171970 -0.053693 -75455.300000 0 0 1
-18.450076 23.106771 -10.304001 31.312946 -0.896989 1.906110 0.141124 -0.043587 140269.000000 0 0 1
-17.730376 22.482971 -11.332501 30.794087 -0.903037 1.947663 0.151984 -0.031433 52575.900000 0 0 1
-17.247476 21.049471 -11.063901 29.376275 -0.884351 1.956949 0.132512 -0.012935 1330630.000000 0 0 1
-18.402476 20.141771 -11.011801 29.421112 -0.830492 1.954419 0.133201 -0.008576 1647260.000000 0 0 1
-17.889176 18.799271 -10.850201 28.127603 -0.810199 1.966816 0.154469 -0.029955 -831653.000000 0 0 1
-18.955876 17.746871 -10.560001 28.031951 -0.752470 1.957042 0.132616 -0.016892 -148503.000000 0 0 1
-19.728676 17.325571 -11.664801 28.730883 -0.720635 1.988872 0.123154 -0.013446 514492.000000 0 0 1
-20.737476 18.244171 -12.081701 30.147308 -0.721524 1.983138 0.150536 -0.020453 -494735.000000 0 0 1
-21.549276 17.652171 -13.263901 30.852901 -0.686311 2.015187 0.156371 -0.022884 231749.000000 0 0 1
-20.715476 17.599871 -14.405001 30.763460 -0.704262 2.058106 0.148248 -0.032083 284680.000000 0 0 1
-21.485876 17.013471 -15.425401 31.449071 -0.669748 2.083446 0.133661 -0.028321 -44804.900000 0 0 1
-20.672776 16.418471 -16.566601 31.167004 -0.671199 2.131217 0.161955 -0.030689 -329634.000000 0 0 1
-20.047776 17.383071 -17.345401 31.700905 -0.714328 2.149761 0.145257 -0.029330 431772.000000 0 0 1
-19.169776 16.891571 -18.358001 31.461431 -0.722306 2.193838 0.137815 -0.019652 260692.000000 0 0 1
-18.150076 17.936671 -18.925701 31.769979 -0.779485 2.208946 0.108736 -0.011638 496021.000000 0 0 1
-17.246576 18.438271 -17.914701 30.957240 -0.818781 2.187920 0.114676 -0.018859 806904.000000 0 0 1
-16.379576 19.448071 -18.405801 31.389353 -0.870836 2.197368 0.120098 -0.011113 173143.000000 0 0 1
34.407478 30.548971 2.238999 46.066553 0.726066 1.522174 0.105183 -0.022855 -463265.000000 0 0 1
35.711428 30.484071 1.753799 46.985748 0.706593 1.533461 0.121739 -0.026868 -384240.000000 0 0 1
35.771448 31.066771 0.451999 47.380851 0.715125 1.561256 0.104615 -0.024726 123627.000000 0 0 1
37.185668 31.025871 -0.175201 48.429426 0.695338 1.574414 0.073030 -0.021417 -297974.000000 0 0 1
-37.329326 31.907671 0.396899 49.109424 -0.707252 1.562714 0.056358 -0.019411 47155.500000 0 0 1
-36.208546 31.887571 -0.489601 48.250551 -0.722029 1.580944 0.060570 -0.019217 -48300.900000 0 0 1
-35.068536 32.868471 -0.212601 48.064371 -0.753026 1.575220 0.045203 -0.018760 -127466.000000 0 0 1
-34.361105 32.563971 0.967399 47.350117 -0.758552 1.550364 0.038338 -0.005553 -6172.330000 0 0 1
-33.679176 33.685971 1.503299 47.658068 -0.785499 1.539248 0.030919 -0.005705 -300573.000000 0 0 1
-33.043516 33.262371 2.808499 46.969638 -0.788699 1.510967 0.055812 -0.006201 -310143.000000 0 0 1
-32.489076 -33.272556 3.417699 46.629215 0.797312 1.497435 0.056426 -0.002316 362004.000000 0 0 1
-31.982476 -33.438956 4.737599 46.513303 0.807658 1.468765 0.079142 -0.013508 -425659.000000 0 0 1
-31.891136 -32.127656 5.537599 45.605875 0.789093 1.449073 0.089828 -0.011406 -501831.000000 0 0 1
-33.029346 -31.634256 6.152799 46.146731 0.763827 1.437067 0.075985 -0.011278 -373777.000000 0 0 1
-33.601366 -32.462256 7.185899 47.270361 0.768157 1.418188 0.067110 -0.028840 -947947.000000 0 0 1
-34.715958 -31.810756 8.015999 47.763775 0.741756 1.402172 0.077420 -0.026125 1537710.000000 0 0 1
-36.022136 -31.530456 7.385899 48.438780 0.719004 1.417720 0.047668 -0.014488 1596790.000000 0 0 1
-36.764786 -32.701556 7.232899 49.732847 0.726973 1.424844 0.052320 -0.019636 -725560.000000 0 0 1
37.140998 -32.509756 7.030799 49.857498 -0.719004 1.429307 0.050958 -0.016451 478928.000000 0 0 1
36.381798 -32.586756 8.246599 49.533204 -0.730428 1.403531 0.043201 -0.013480 53915.200000 0 0 1
35.028998 -32.308256 8.017699 48.323262 -0.745015 1.404107 0.041165 -0.007762 -426259.000000 0 0 1
34.183448 -32.381956 9.319199 47.999445 -0.758341 1.375403 0.041739 -0.017047 -1179850.000000 0 0 1
32.856358 -32.199956 8.998699 46.875943 -0.775309 1.377629 0.045942 -0.024766 -599120.000000 0 0 1
31.932888 -32.467156 10.063899 46.638049 -0.793694 1.353298 0.053126 -0.028979 415668.000000 0 0 1
31.650118 -31.162556 10.987399 45.755413 -0.777636 1.328293 0.065668 -0.024191 -483364.000000 0 0 1
30.966318 -30.094856 10.351899 44.404674 -0.771127 1.335505 0.069586 -0.029781 145573.000000 0 0 1
31.756128 -29.315256 9.463999 44.242550 -0.745452 1.355219 0.071423 -0.022813 112987.000000 0 0 1
30.900008 -28.187856 8.786099 42.738288 -0.739530 1.363741 0.072874 -0.026153 -199768.000000 0 0 1
31.588448 -27.394356 7.860899 42.544971 -0.714411 1.384962 0.079510 -0.019502 -400780.000000 0 0 1
30.898288 -26.198456 7.589799 41.214905 -0.703270 1.385587 0.086566 -0.017801 6512.870000 0 0 1
31.189288 -25.560356 6.209699 40.800292 -0.686533 1.418005 0.081351 -0.010914 -222489.000000 0 0 1
32.491558 -25.201456 5.850199 41.533596 -0.659704 1.429472 0.073661 -0.010128 -753391.000000 0 0 1
32.673218 -24.823456 4.500699 41.279528 -0.649712 1.461549 0.072837 -0.003458 -496600.000000 0 0 1
34.069538 -24.319956 4.172399 42.066645 -0.619950 1.471448 0.066074 -0.008139 -246976.000000 0 0 1
34.937618 -25.404756 3.858799 43.369680 -0.628714 1.481704 0.062104 -0.007320 -178757.000000 0 0 1
36.286048 -24.970956 3.868099 44.217509 -0.602742 1.483205 0.070558 -0.012150 39632.300000 0 0 1
37.229428 -26.172356 3.776099 45.664882 -0.612738 1.488010 0.075968 -0.011080 -258133.000000 0 0 1
37.320828 -26.872156 4.999299 46.259593 -0.624044 1.462514 0.067666 -0.004096 -132644.000000 0 0 1
-37.685486 -28.138956 4.642399 47.260433 0.641372 1.472408 0.064515 -0.009946 -623949.000000 0 0 1
37.203338 -29.245056 5.650999 47.658110 -0.666200 1.451943 0.065630 -0.010156 883794.000000 0 0 1
35.880018 -29.760456 5.456599 46.934368 -0.692438 1.454273 0.050621 -0.011763 790590.000000 0 0 1
34.851828 -28.830556 5.815499 45.603409 -0.691127 1.442925 0.058059 -0.001761 287690.000000 0 0 1
33.422888 -29.458756 5.809899 44.929530 -0.722440 1.441122 0.067446 -0.007098 485842.000000 0 0 1
32.827788 -29.675956 4.540499 44.485303 -0.735015 1.468551 0.050045 -0.012197 -115022.000000 0 0 1
31.779948 -28.830856 4.114199 43.105800 -0.736780 1.475207 0.063177 -0.013065 -153198.000000 0 0 1
30.447298 -29.600356 4.174599 42.669032 -0.771295 1.472803 0.066385 -0.016675 -266759.000000 0 0 1
30.320698 -30.757156 3.322299 43.317260 -0.792544 1.494024 0.073561 -0.012786 584349.000000 0 0 1
29.046098 -31.441456 3.423999 42.941411 -0.824978 1.490975 0.081320 -0.016809 792862.000000 0 0 1
29.009698 -32.823856 2.715699 43.890126 -0.847004 1.508882 0.084075 -0.016449 -137713.000000 0 0 1
28.831698 -32.751856 1.280299 43.653065 -0.848968 1.541463 0.080816 -0.018421 177711.000000 0 0 1
28.753398 33.640671 0.762199 44.260972 0.863568 1.553575 0.079981 -0.016180 -164459.000000 0 0 1
28.637398 33.663271 -0.784301 44.203298 0.865895 1.588540 0.065778 -0.014529 422074.000000 0 0 1
29.770998 -33.533256 -1.513301 44.867379 -0.844760 1.604531 0.059436 -0.020306 852541.000000 0 0 1
29.572398 -33.640056 -2.902501 44.884347 -0.849659 1.635508 0.055675 -0.018454 542320.000000 0 0 1
30.768478 -32.943956 -3.643001 45.224716 -0.819530 1.651437 0.034056 -0.013824 565898.000000 0 0 1
30.808188 -31.526256 -3.581501 44.225292 -0.796917 1.651868 0.025228 -0.010358 -628089.000000 0 0 1
31.813868 -31.027656 -4.373201 44.653808 -0.772888 1.668889 0.023217 -0.008532 -752481.000000 0 0 1
31.927708 -29.479556 -4.314901 43.669682 -0.745552 1.669766 0.022553 0.002702 -663359.000000 0 0 1
30.795778 -28.801156 -4.772301 42.434201 -0.751942 1.683498 0.026157 -0.015775 -346430.000000 0 0 1
30.992748 -27.399856 -4.844501 41.650591 -0.723946 1.687373 0.031522 -0.012873 -65531.200000 0 0 1
31.903448 -26.870256 -5.966701 42.135996 -0.699970 1.712880 0.051176 -0.009604 -722346.000000 0 0 1
33.234378 -27.197756 -5.758401 43.328986 -0.685838 1.704090 0.052871 0.000109 -636895.000000 0 0 1
34.180458 -26.795756 -6.751801 43.953419 -0.664877 1.725020 0.069288 -0.002814 579929.000000 0 0 1
34.387218 -27.690756 -7.960001 44.862238 -0.677942 1.749173 0.071304 -0.009565 -688021.000000 0 0 1
33.209518 -27.603656 -8.725601 44.056441 -0.693476 1.770170 0.068671 -0.006145 -36362.100000 0 0 1
32.989168 -28.756456 -9.559401 44.795102 -0.716954 1.785853 0.050079 0.000866 279337.000000 0 0 1
32.774558 -30.139756 -8.848601 45.396853 -0.743543 1.766969 0.055520 0.004904 -160293.000000 0 0 1
34.013228 -30.582056 -8.334601 46.493305 -0.732330 1.751035 0.057065 0.001990 -281206.000000 0 0 1
33.852788 -31.770156 -7.688001 47.058043 -0.753672 1.734905 0.062306 -0.011520 685095.000000 0 0 1
35.203788 -32.316856 -7.121101 48.315587 -0.742668 1.718722 0.055047 -0.013243 708663.000000 0 0 1
35.076968 -33.572856 -6.414101 48.976229 -0.763492 1.702137 0.048393 -0.016714 -188368.000000 0 0 1
34.659328 -33.495856 -5.103101 48.469403 -0.768329 1.676277 0.049759 -0.017347 -556052.000000 0 0 1
34.551878 32.902271 -4.324901 47.907165 0.760948 1.661196 0.034677 -0.013960 -423400.000000 0 0 1
33.419418 32.162271 -4.703801 46.619684 0.766231 1.671866 0.054103 -0.018023 -90812.200000 0 0 1
33.445268 30.831771 -4.250701 45.686459 0.744761 1.663972 0.057371 -0.013886 289683.000000 0 0 1
32.293388 29.949671 -4.816601 44.306268 0.747762 1.679723 0.069353 -0.027408 161809.000000 0 0 1
32.361818 29.595871 -6.186501 44.288550 0.740785 1.710941 0.048809 -0.012439 142341.000000 0 0 1
31.117218 29.098271 -6.661301 43.120338 0.751882 1.725899 0.033931 -0.005012 262128.000000 0 0 1
31.082328 28.771371 -8.184401 43.138003 0.746807 1.761679 0.036642 -0.001209 -452688.000000 0 0 1
31.714118 27.613171 -8.631301 42.927519 0.716384 1.773243 0.044773 0.001172 -224390.000000 0 0 1
31.884778 27.583171 -10.041401 43.339360 0.713189 1.804613 0.038530 -0.002451 185219.000000 0 0 1
33.092228 28.395871 -10.574701 44.869203 0.709168 1.808713 0.047343 0.001072 -50551.800000 0 0 1
34.369908 27.872071 -10.205201 45.412433 0.681379 1.797455 0.047524 -0.004229 288360.000000 0 0 1
35.442658 28.580071 -10.749601 46.782009 0.678616 1.802649 0.047665 0.002237 -96378.500000 0 0 1
35.806668 30.044371 -10.150001 47.830997 0.698115 1.784628 0.048422 -0.005974 -945870.000000 0 0 1
36.643908 30.083571 -9.032101 48.263610 0.687398 1.759047 0.050845 -0.008899 47639.700000 0 0 1
36.461268 31.266471 -8.248201 48.734476 0.708847 1.740863 0.041171 -0.010744 -762630.000000 0 0 1
37.458678 31.380271 -7.055101 49.372547 0.697328 1.714182 0.048175 -0.012134 1516570.000000 0 0 1
-36.602186 31.682171 -7.422601 48.975248 -0.713471 1.722941 0.058030 -0.014295 1137660.000000 0 0 1
-35.866562 30.567771 -7.907401 47.784159 -0.705807 1.737043 0.070435 -0.015973 12662.100000 0 0 1
-34.430982 30.960971 -8.401301 47.060133 -0.732383 1.750281 0.114237 -0.018953 332942.000000 0 0 1
-33.524526 31.332371 -7.360601 46.473538 -0.751611 1.729849 0.117793 -0.025273 716718.000000 0 0 1
-32.199756 31.663971 -7.774001 45.824299 -0.777009 1.741269 0.116603 -0.025121 458989.000000 0 0 1
-32.011716 32.905971 -8.709901 46.727029 -0.799173 1.758293 0.089194 -0.020167 -655762.000000 0 0 1
-32.034006 -33.476856 -8.160401 47.047524 0.807419 1.745128 0.082003 -0.023316 88381.600000 0 0 1
-30.964286 -33.216956 -7.271501 45.989432 0.820482 1.729575 0.104597 -0.036504 -39904.100000 0 0 1
-31.177266 -31.868556 -6.484001 45.051848 0.796363 1.715221 0.095085 -0.041863 789034.000000 0 0 1
-32.282766 -31.784056 -5.550301 45.642185 0.777614 1.692703 0.081057 -0.043320 475301.000000 0 0 1
-32.302616 -32.672356 -4.468301 46.161754 0.791089 1.667745 0.091245 -0.038735 54691.100000 0 0 1
-33.536326 -32.625356 -3.506201 46.918999 0.771630 1.645595 0.067624 -0.033774 73535.900000 0 0 1
-33.763996 -31.313556 -3.092701 46.153125 0.747762 1.637856 0.058144 -0.033401 -74945.600000 0 0 1
-34.756834 -31.316156 -2.092201 46.830721 0.733371 1.615487 0.063867 -0.027930 -165546.000000 0 0 1
-35.301941 -29.979956 -1.665901 46.344363 0.704055 1.606750 0.081384 -0.019261 -18000.400000 0 0 1
-36.275576 -30.144556 -0.658201 47.170381 0.693352 1.584750 0.069514 -0.006752 -268647.000000 0 0 1
-36.902606 -28.868756 -0.518001 46.855904 0.663852 1.581852 0.085230 -0.010324 26200.000000 0 0 1
37.524018 -28.808056 0.663299 47.311690 -0.654748 1.556776 0.081767 -0.008330 64934.000000 0 0 1
36.389038 -29.611656 0.359399 46.916324 -0.683070 1.563136 0.052092 -0.006812 826085.000000 0 0 1
35.321878 -29.711356 1.328099 46.175357 -0.699340 1.542030 0.058665 -0.012284 1182700.000000 0 0 1
34.451668 -28.426556 1.570699 44.692881 -0.689868 1.535645 0.047390 0.009139 -620284.000000 0 0 1
33.543828 -28.172956 0.520199 43.808384 -0.698592 1.558922 0.040990 -0.003420 -471453.000000 0 0 1
32.958398 -26.972256 0.792299 42.595614 -0.685844 1.552195 0.047815 -0.005977 -1312920.000000 0 0 1
31.712368 -26.702556 -0.011201 41.457218 -0.699845 1.571067 0.045153 -0.016711 218250.000000 0 0 1
30.472108 -27.249756 0.514699 40.882313 -0.729631 1.558206 0.051020 -0.003112 1069070.000000 0 0 1
30.227798 -28.676256 0.334099 41.667242 -0.759064 1.562778 0.055709 -0.008889 -382155.000000 0 0 1
29.816898 -29.189856 -1.090201 41.740671 -0.774772 1.596918 0.044383 -0.009104 727090.000000 0 0 1
28.484498 -28.781656 -1.466901 40.520392 -0.790587 1.607006 0.054642 -0.009420 801258.000000 0 0 1
28.234298 -29.233856 -2.779101 40.737174 -0.802790 1.639070 0.052025 -0.006398 -481714.000000 0 0 1
26.848998 -29.853356 -2.917301 40.256704 -0.838333 1.643327 0.080899 -0.020826 280802.000000 0 0 1
25.778198 -28.897356 -2.984401 38.839147 -0.842385 1.647712 0.094264 -0.020569 465905.000000 0 0 1
24.507098 -29.476056 -3.228401 38.468927 -0.877186 1.654817 0.079115 -0.020970 241188.000000 0 0 1
23.387798 -28.428556 -3.328401 36.962821 -0.882374 1.660966 0.077555 -0.019897 -133139.000000 0 0 1
23.241098 -27.744756 -4.536601 36.476032 -0.873501 1.695491 0.087972 -0.028874 -179766.000000 0 0 1
22.466998 -26.575456 -4.452001 35.083346 -0.868977 1.698037 0.088538 -0.028587 -37695.800000 0 0 1
22.220598 -25.864756 -5.830101 34.593795 -0.861039 1.740135 0.098737 -0.035115 611147.000000 0 0 1
20.988098 -26.262256 -6.451201 34.231920 -0.896560 1.760386 0.107292 -0.031063 326081.000000 0 0 1
20.511298 -25.418656 -7.453601 33.501904 -0.891839 1.795157 0.127356 -0.036005 -666222.000000 0 0 1
19.005698 -25.514156 -7.619301 32.714560 -0.930562 1.805857 0.106216 -0.028266 -828194.000000 0 0 1
18.349098 -24.872156 -6.571101 31.598939 -0.935190 1.780278 0.083042 -0.020307 -811113.000000 0 0 1
16.987398 -25.184856 -6.629101 31.093306 -0.977384 1.785646 0.076201 -0.019530 -543715.000000 0 0 1
16.154398 -24.305356 -5.706401 29.736811 -0.984196 1.763891 0.062942 -0.008444 -351768.000000 0 0 1
16.004198 -24.734256 -4.339101 29.778274 -0.996501 1.717031 0.054047 -0.006600 148604.000000 0 0 1
15.314698 -23.826356 -3.468001 28.535281 -0.999526 1.692631 0.062677 -0.009910 -96534.400000 0 0 1
15.131398 -24.419956 -2.076801 28.802892 -1.016066 1.642963 0.063141 -0.012351 63893.500000 0 0 1
14.276098 -25.534156 -1.951501 29.319080 -1.060995 1.637406 0.054118 -0.010484 136893.000000 0 0 1
15.038298 -26.565856 -1.265901 30.553193 -1.055694 1.612241 0.069334 -0.017196 333539.000000 0 0 1
14.503998 -27.979756 -1.488501 31.550727 -1.092557 1.617992 0.077775 -0.018118 -788040.000000 0 0 1
13.297698 -28.175356 -0.849601 31.167311 -1.129830 1.598059 0.080488 -0.025202 -802637.000000 0 0 1
12.667698 -29.461956 -0.964501 32.084384 -1.164725 1.600862 0.071962 -0.022243 25938.800000 0 0 1
13.456698 -30.687456 -0.448501 33.511249 -1.157540 1.584180 0.078864 -0.022743 11630.400000 0 0 1
14.493398 -31.089756 -1.331701 34.327903 -1.134570 1.609600 0.085633 -0.019524 -383999.000000 0 0 1
15.095998 -32.287956 -0.932301 35.654880 -1.133450 1.596947 0.085278 -0.022086 -362954.000000 0 0 1
16.486198 -32.388956 -1.613901 36.379168 -1.099969 1.615174 0.076837 -0.019502 -414911.000000 0 0 1
17.299998 -31.475356 -0.922501 35.928248 -1.068232 1.596475 0.074551 -0.017256 -1106840.000000 0 0 1
18.566198 -31.547156 -1.515701 36.636377 -1.038859 1.612180 0.074992 -0.021437 -558038.000000 0 0 1
19.461998 -30.470056 -0.867901 36.165549 -1.002388 1.594797 0.074898 -0.016875 -88347.700000 0 0 1
19.055098 -29.185656 -1.289101 34.879235 -0.992390 1.607764 0.087748 -0.017660 428308.000000 0 0 1
19.942998 -28.293456 -0.649201 34.621732 -0.956814 1.589549 0.074244 -0.012239 189622.000000 0 0 1
19.501998 -26.837956 -0.960801 33.189260 -0.942403 1.599750 0.073958 -0.009463 23895.500000 0 0 1
19.827098 -26.419756 -2.277601 33.110494 -0.926998 1.639639 0.067802 -0.009464 -341609.000000 0 0 1
18.748398 -25.863856 -2.950101 32.080283 -0.943562 1.662886 0.080521 -0.011516 -725470.000000 0 0 1
34.082508 -29.664856 13.520099 47.163695 -0.716209 1.280054 0.061386 -0.044610 -130736.000000 0 0 1
34.783788 -29.841856 14.675799 48.123044 -0.709077 1.260896 0.068455 -0.045654 -20665.600000 0 0 1
33.964258 -30.492956 15.664699 48.257372 -0.731596 1.240200 0.053477 -0.034541 444173.000000 0 0 1
34.673288 -30.601356 17.060399 49.292364 -0.723097 1.217379 0.057243 -0.027259 -72545.600000 0 0 1
33.911278 -31.185256 18.097499 49.497621 -0.743546 1.196494 0.048706 -0.021410 425359.000000 0 0 1
34.713038 -31.329056 19.304399 50.588186 -0.734203 1.179271 0.037222 -0.021946 317200.000000 0 0 1
35.642658 -32.560356 19.374799 52.018830 -0.740236 1.189141 0.028988 -0.014488 -996761.000000 0 0 1
36.598928 -32.462456 18.399599 52.266986 -0.725574 1.211056 0.035186 -0.010636 -828284.000000 0 0 1
37.383088 -33.623056 18.294399 53.504114 -0.732494 1.221832 0.055125 -0.015466 140992.000000 0 0 1
-37.015686 -33.633856 17.114699 52.861235 0.737567 1.241089 0.060868 -0.016385 660543.000000 0 0 1
-35.956536 -32.696956 17.395899 51.619577 0.737955 1.227066 0.081627 -0.021265 417777.000000 0 0 1
-34.926181 -32.789556 16.441199 50.648851 0.753856 1.240195 0.088772 -0.018274 -694968.000000 0 0 1
-33.681746 -32.016356 16.885799 49.443273 0.760054 1.222264 0.078873 -0.018124 -458554.000000 0 0 1
-32.575726 -31.983856 16.025599 48.383518 0.776231 1.233200 0.092650 -0.023340 -65536.800000 0 0 1
-32.755616 -31.096356 14.936099 47.571008 0.759418 1.251420 0.093854 -0.028856 -408826.000000 0 0 1
-31.565326 -30.998356 13.929499 46.382096 0.776336 1.265768 0.088259 -0.033569 212498.000000 0 0 1
-30.381066 -30.630356 14.603499 45.546570 0.789484 1.244404 0.073971 -0.035835 -326241.000000 0 0 1
-29.283416 -30.794156 13.721899 44.655224 0.810539 1.258457 0.077922 -0.032073 -1171250.000000 0 0 1
-27.985176 -30.492956 14.371699 43.812511 0.828256 1.236582 0.081682 -0.037251 -770913.000000 0 0 1
-26.946566 -30.329356 13.396199 42.725231 0.844391 1.251874 0.084111 -0.034759 -33782.700000 0 0 1
-25.755356 -29.874556 13.996699 41.853734 0.859310 1.229807 0.067017 -0.025362 956915.000000 0 0 1
-24.451976 -29.830956 13.093999 40.733744 0.884167 1.243532 0.082221 -0.025202 904008.000000 0 0 1
-23.992876 -31.117156 12.732399 41.304352 0.913959 1.257435 0.089274 -0.039036 -420711.000000 0 0 1
-22.732976 -30.992956 12.142599 40.308736 0.937947 1.264804 0.083437 -0.037509 -276686.000000 0 0 1
-22.114976 -32.371956 11.810599 40.945158 0.971467 1.278189 0.068518 -0.032065 -141892.000000 0 0 1
-22.799376 -33.051556 10.787299 41.576228 0.966940 1.308335 0.061786 -0.032718 -114994.000000 0 0 1
-22.678276 33.265571 10.930899 41.717945 -0.972435 1.305683 0.075934 -0.025823 185574.000000 0 0 1
-23.535776 32.420771 9.938199 41.277196 -0.942867 1.327640 0.074902 -0.019694 91449.400000 0 0 1
-23.205376 32.593071 8.595199 40.922795 -0.952080 1.359186 0.066119 -0.020805 -60451.500000 0 0 1
-24.327076 32.490971 7.731099 41.318757 -0.928106 1.382578 0.074963 -0.024509 -307625.000000 0 0 1
-24.070976 33.055771 6.292799 41.372638 -0.941399 1.418103 0.069406 -0.016638 -443599.000000 0 0 1
-23.354176 32.257371 5.333999 40.179685 -0.944147 1.437650 0.069125 -0.020240 1024710.000000 0 0 1
-21.963476 32.024671 5.614199 39.236374 -0.969644 1.427217 0.065502 -0.025239 712688.000000 0 0 1
-21.017676 33.275271 5.410999 39.727387 -1.007443 1.434168 0.080504 -0.029359 -590575.000000 0 0 1
-21.024676 -33.334956 6.297899 39.911400 1.008102 1.412337 0.082427 -0.030324 186.362000 0 0 1
-20.389276 -33.673056 7.509799 40.074859 1.026337 1.382288 0.077858 -0.035398 -403380.000000 0 0 1
-20.445176 -32.493456 8.481899 39.316314 1.009176 1.353352 0.075399 -0.032602 -620211.000000 0 0 1
-19.596576 -31.415456 8.178199 37.918855 1.013069 1.353412 0.065902 -0.041466 -227361.000000 0 0 1
-19.827376 -30.240556 8.949699 37.252022 0.990456 1.328176 0.070583 -0.043110 108036.000000 0 0 1
-19.066776 -30.256856 10.310999 37.220102 1.008492 1.290097 0.063538 -0.031852 -583988.000000 0 0 1
-17.696776 -30.398756 10.147999 36.609317 1.043602 1.289921 0.062873 -0.036494 -1053910.000000 0 0 1
-17.033376 -30.361756 11.399499 36.632236 1.059536 1.254354 0.082018 -0.029387 -127364.000000 0 0 1
-15.691676 -31.085856 11.273599 36.601273 1.103328 1.257695 0.094487 -0.034829 -322071.000000 0 0 1
-14.659276 -30.421356 10.571499 35.385164 1.121754 1.267408 0.105649 -0.036883 -424816.000000 0 0 1
-13.643776 -31.335356 10.281599 35.689893 1.160140 1.278573 0.114276 -0.033040 164646.000000 0 0 1
-12.488276 -30.645256 9.468699 34.420125 1.183832 1.292111 0.122556 -0.026800 364058.000000 0 0 1
-11.710376 -29.756556 10.218999 33.571021 1.195872 1.261488 0.131494 -0.026358 -663615.000000 0 0 1
-10.636376 -29.237156 9.499699 32.529803 1.221884 1.274447 0.136665 -0.024388 385193.000000 0 0 1
-9.574576 -28.521056 10.432999 31.842905 1.246915 1.236992 0.138791 -0.014891 576998.000000 0 0 1
-10.090076 -27.468556 11.199499 31.333049 1.218765 1.205277 0.108059 -0.019300 119247.000000 0 0 1
-9.253376 -27.228856 12.369399 31.305552 1.243204 1.164600 0.104274 -0.008828 692984.000000 0 0 1
-9.661476 -25.918956 13.123999 30.616593 1.213993 1.127791 0.087072 -0.012335 269422.000000 0 0 1
-9.186776 -24.693756 12.584799 29.198555 1.214634 1.125187 0.065252 -0.011475 167724.000000 0 0 1
-9.899976 -24.335956 11.386699 28.633987 1.184438 1.161827 0.070411 -0.011015 317467.000000 0 0 1
-9.402676 -23.002256 10.765799 27.081664 1.182751 1.161972 0.065888 -0.013365 423276.000000 0 0 1
-8.193476 -23.192156 10.036599 26.565814 1.231197 1.183376 0.059499 -0.018699 160965.000000 0 0 1
-7.565676 -21.966456 9.722399 25.185108 1.239102 1.174464 0.068291 -0.010171 -788316.000000 0 0 1
-6.413076 -21.966256 8.751799 24.499754 1.286740 1.205507 0.067538 -0.016432 -22773.200000 0 1 0
-5.297776 -22.546956 9.446599 25.013394 1.340016 1.183527 0.065427 -0.022810 -510258.000000 0 0 1
-4.140076 -22.437256 8.692199 24.415671 1.388331 1.206803 0.063032 -0.022490 -785208.000000 0 1 0
-2.956276 -23.296856 9.085999 25.180120 1.444575 1.201628 0.073861 -0.024704 -247224.000000 0 0 1
-2.271676 -22.800156 10.215099 25.086966 1.471490 1.151424 0.076099 -0.019808 -404889.000000 0 0 1
-1.241276 -23.659356 10.630099 25.967382 1.518380 1.149040 0.074524 -0.031992 759.297000 0 0 1
-0.209176 -23.060156 11.578199 25.804442 1.561726 1.105497 0.073822 -0.030340 -113169.000000 0 0 1
-0.682576 -22.979756 12.934299 26.378612 1.541102 1.058325 0.080631 -0.026353 -467514.000000 0 0 1
0.292324 -22.592656 13.847199 26.500160 -1.557858 1.020978 0.104892 -0.033613 -541373.000000 0 0 1
0.786724 -21.119156 13.830899 25.257305 -1.533562 0.991303 0.079021 -0.033320 357657.000000 0 0 1
1.868724 -20.956556 12.891399 24.675039 -1.481860 1.021078 0.076142 -0.042350 345249.000000 0 1 0
2.393424 -19.632256 12.957399 23.644199 -1.449482 0.990806 0.056916 -0.033193 445314.000000 0 1 0
3.909624 -19.605656 12.613999 23.638526 -1.373965 1.007921 0.073436 -0.030051 218008.000000 0 1 0
4.321124 -20.030056 11.374999 23.436422 -1.358321 1.064026 0.074790 -0.023825 -854820.000000 0 1 0
5.717624 -20.072956 11.330599 23.748627 -1.293303 1.073438 0.121846 -0.028729 -329192.000000 0 1 0
6.232924 -20.801156 10.065999 23.934531 -1.279667 1.136730 0.117852 -0.035937 -720857.000000 0 1 0
6.052324 -20.088956 8.858899 22.774479 -1.278169 1.171268 0.092359 -0.034945 -290339.000000 0 1 0
6.304624 -20.900556 7.717799 23.154826 -1.277828 1.230981 0.094228 -0.038740 1113650.000000 0 1 0
7.831624 -21.285756 7.480599 23.882569 -1.218240 1.252210 0.097150 -0.026482 1172580.000000 0 1 0
8.711224 -20.251856 7.019499 23.136475 -1.164576 1.262542 0.106719 -0.035406 244278.000000 0 1 0
9.182724 -19.269556 7.910199 22.764215 -1.126092 1.215910 0.107288 -0.027198 -80697.900000 0 1 0
9.987324 -19.699656 9.167199 23.913608 -1.101581 1.177379 0.098819 -0.017083 -292842.000000 0 1 0
9.220624 -20.081256 10.261599 24.363439 -1.140346 1.136041 0.108246 -0.020376 -491158.000000 0 1 0
9.993024 -19.752656 11.404499 24.901618 -1.102434 1.095072 0.104415 -0.011603 381016.000000 0 1 0
9.234324 -20.118356 12.672399 25.507072 -1.140483 1.050867 0.130882 -0.021341 -61682.800000 0 0 1
9.242124 -21.481956 12.984399 26.748569 -1.164506 1.063948 0.114060 -0.020523 -180963.000000 0 0 1
8.286824 -21.773856 13.974199 27.167085 -1.207137 1.030512 0.154610 -0.027219 22512.300000 0 0 1
8.510924 -23.128556 14.630799 28.660534 -1.218191 1.035047 0.151933 -0.035313 187823.000000 0 0 1
8.309424 -24.165056 13.661199 28.976281 -1.239601 1.079849 0.159882 -0.033630 -85673.900000 0 0 1
8.279624 -25.470656 14.144399 30.288125 -1.256505 1.084907 0.168646 -0.038314 122090.000000 0 0 1
8.553924 -26.558856 13.093599 30.821823 -1.259213 1.132038 0.180546 -0.052003 4061.940000 0 0 1
9.884424 -26.697856 12.661799 31.157640 -1.216212 1.152309 0.150537 -0.044286 -233611.000000 0 0 1
9.976724 -27.810956 11.787099 31.810690 -1.226362 1.191207 0.138448 -0.050941 -1083330.000000 0 0 1
11.326324 -28.132056 11.213699 32.333346 -1.188040 1.216623 0.111600 -0.049278 -840452.000000 0 0 1
12.221924 -28.626256 12.218899 33.438593 -1.167277 1.196720 0.091757 -0.038304 -173403.000000 0 0 1
13.454324 -28.878456 11.608699 33.907904 -1.134803 1.221369 0.123451 -0.036883 -473442.000000 0 0 1
14.430124 -29.626556 12.548699 35.262319 -1.117548 1.206955 0.084101 -0.034404 -951686.000000 0 0 1
14.897724 -28.930256 13.651999 35.288511 -1.095258 1.173564 0.065232 -0.027336 234040.000000 0 0 1
15.883824 -29.600856 14.436699 36.563983 -1.078299 1.164909 0.052686 -0.022107 1878080.000000 0 0 1
17.321024 -29.656256 13.727399 36.985847 -1.042180 1.190546 0.063279 -0.018713 606213.000000 0 0 1
18.036824 -28.426556 13.677199 36.338160 -1.005390 1.184903 0.059418 -0.020568 -898019.000000 0 0 1
19.278724 -28.577356 13.105099 36.879237 -0.977311 1.207506 0.064995 -0.016936 -679484.000000 0 0 1
20.190624 -27.278356 13.091099 36.375086 -0.933616 1.202644 0.033073 -0.016648 362246.000000 0 0 1
21.271824 -27.589156 12.223899 36.919856 -0.913977 1.233335 0.045144 -0.021243 304205.000000 0 0 1
22.167624 -26.482656 12.032699 36.572127 -0.873862 1.235538 0.046337 -0.018917 -525825.000000 0 0 1
23.475524 -26.782756 11.352099 37.380295 -0.851108 1.262231 0.067974 -0.015373 -1001850.000000 0 0 1
24.355724 -27.414156 12.232899 38.657226 -0.844407 1.248816 0.082272 -0.023600 -601823.000000 0 0 1
25.516924 -27.863356 11.602899 39.523503 -0.829327 1.272837 0.072038 -0.028680 -627563.000000 0 0 1
26.539224 -28.600756 12.525199 40.978217 -0.822768 1.260170 0.085189 -0.026036 542604.000000 0 0 1
27.525624 -27.807156 13.193299 41.291174 -0.790486 1.245575 0.071243 -0.026719 1293860.000000 0 0 1
28.669024 -27.611556 12.304399 41.661844 -0.766611 1.270985 0.052887 -0.028583 1227480.000000 0 0 1
29.969524 -26.941756 12.896899 42.312653 -0.732247 1.261068 0.073278 -0.039187 748269.000000 0 0 1
29.876824 -25.564156 13.092099 41.443380 -0.707766 1.249388 0.082440 -0.038926 20588.100000 0 0 1
29.304524 -25.274156 14.384999 41.285183 -0.711687 1.214901 0.095527 -0.030603 308362.000000 0 0 1
30.245024 -25.296256 15.658999 42.424832 -0.696532 1.192756 0.080092 -0.019239 379903.000000 0 0 1
30.822924 -26.489656 16.157799 43.735901 -0.709934 1.192390 0.101360 -0.016735 36381.200000 0 0 1
31.451124 -26.189056 17.379999 44.464641 -0.694359 1.169217 0.103340 -0.010096 122155.000000 0 0 1
31.818324 -27.415756 18.178099 45.765410 -0.711210 1.162331 0.086911 -0.007074 167790.000000 0 0 1
30.623324 -28.015556 18.659499 45.506442 -0.740956 1.148298 0.082092 -0.013069 476117.000000 0 0 1
31.029524 -29.074956 19.504199 46.782457 -0.752890 1.140750 0.089884 -0.019723 780101.000000 0 0 1
29.807024 -29.876156 20.071699 46.732393 -0.786556 1.126854 0.084337 -0.012618 3027.310000 0 0 1
28.852724 -29.081856 20.762899 45.927465 -0.789353 1.101700 0.087918 -0.008742 1324140.000000 0 0 1
27.603024 -29.761156 21.059999 45.729388 -0.823002 1.092198 0.101484 -0.014641 1455390.000000 0 0 1
26.662624 -30.290956 19.941699 45.012320 -0.849019 1.111823 0.120618 -0.019221 -717339.000000 0 0 1
27.047124 -31.524956 19.438199 45.860804 -0.861700 1.133102 0.109147 -0.017164 -145937.000000 0 0 1
26.462924 -31.911256 18.209099 45.278979 -0.878463 1.156929 0.127201 -0.015806 -143403.000000 0 0 1
26.891924 -31.112256 16.936899 44.474786 -0.858029 1.180113 0.125258 -0.009898 548764.000000 0 0 1
28.308124 -31.041456 16.786799 45.240673 -0.831420 1.190651 0.111215 -0.020978 303218.000000 0 0 1
28.694524 -29.975856 15.959799 44.459452 -0.807234 1.203628 0.106991 -0.029403 -194851.000000 0 0 1
30.132524 -30.117456 15.420899 45.308215 -0.785148 1.223501 0.106023 -0.029156 -181610.000000 0 0 1
30.468324 -31.087556 14.453099 45.865532 -0.795457 1.250214 0.141092 -0.022624 136479.000000 0 0 1
30.384824 -32.449756 14.858899 46.872285 -0.818249 1.248223 0.135222 -0.029671 -96660.000000 0 0 1
29.307524 -33.389356 14.224899 46.648985 -0.850411 1.260926 0.121922 -0.029813 203788.000000 0 0 1
29.631924 -33.701056 12.899399 46.692683 -0.849560 1.290894 0.127238 -0.034685 186334.000000 0 0 1
29.033724 32.850371 12.403799 45.562685 0.846994 1.295080 0.114308 -0.039449 -311863.000000 0 0 1
29.449724 32.485771 10.944799 45.192922 0.834378 1.326185 0.119923 -0.045324 -394944.000000 0 0 1
30.773024 32.056071 10.769999 45.722682 0.805817 1.333011 0.081918 -0.037736 -51192.300000 0 0 1
30.941024 31.425871 9.517399 45.116663 0.793172 1.358249 0.075070 -0.039483 -1409440.000000 0 0 1
32.334824 30.909671 9.448399 45.718934 0.762868 1.362634 0.046973 -0.027424 -1353380.000000 0 0 1
32.628224 30.052571 10.522199 45.590292 0.744330 1.337897 0.033519 -0.014209 -342652.000000 0 0 1
33.963324 29.655371 10.628399 46.323982 0.717786 1.339298 0.043756 -0.012240 -359745.000000 0 0 1
34.247624 28.792971 11.878399 46.292886 0.699087 1.311302 0.030702 -0.005861 -106008.000000 0 0 1
33.746324 27.502771 11.732299 45.087289 0.683812 1.307554 0.038914 -0.014700 241007.000000 0 0 1
34.412324 26.619571 12.615799 45.298654 0.658402 1.288562 0.041759 -0.018242 -127881.000000 0 0 1
34.167824 25.095471 12.424399 44.176788 0.633492 1.285707 0.040905 -0.025607 123759.000000 0 0 1
35.005724 24.504971 11.427299 44.232087 0.610744 1.309484 0.051626 -0.022524 176308.000000 0 0 1
35.150224 23.094371 11.698999 43.654952 0.581294 1.299492 0.059160 -0.026032 -344812.000000 0 0 1
34.061124 22.216471 11.039999 42.138028 0.577957 1.305706 0.046419 -0.023335 1262230.000000 0 0 1
32.795524 22.318771 11.761499 41.376404 0.597548 1.282566 0.077245 -0.035685 317194.000000 0 0 1
31.732224 22.319971 10.880999 40.292820 0.612994 1.297353 0.083010 -0.029114 -998619.000000 0 0 1
30.403224 22.119071 11.599599 39.346665 0.628961 1.271545 0.086636 -0.026013 -362871.000000 0 0 1
29.998924 23.204271 12.471299 39.923764 0.658374 1.253101 0.086565 -0.026478 631159.000000 0 0 1
28.653024 22.952771 12.911799 38.917092 0.675387 1.232610 0.137139 -0.019086 443147.000000 0 0 1
25.848824 9.773471 25.681865 37.725862 0.361487 0.822011 0.056981 -0.007883 -516688.000000 0 0 1
25.590224 8.453971 26.090145 37.510331 0.319072 0.801617 0.037418 -0.011373 -157403.000000 0 0 1
24.251024 8.213271 25.745425 36.309736 0.326552 0.782646 0.049959 -0.015118 -174889.000000 0 0 1
23.715324 6.869371 26.265815 36.048550 0.281943 0.754486 0.061988 -0.019426 -134006.000000 0 0 1
23.702824 6.849971 27.710315 37.102662 0.281329 0.727476 0.055030 -0.006533 396726.000000 0 0 1
24.859424 6.251171 28.303765 38.186009 0.246353 0.735929 0.047329 -0.002986 235559.000000 0 0 1
24.811224 6.148471 29.819125 39.275702 0.242916 0.708674 0.061636 -0.009996 -200874.000000 0 0 1
24.941124 7.349971 30.485885 40.068329 0.286581 0.706178 0.101341 -0.017021 155618.000000 0 0 1
24.661824 7.344571 31.874986 40.965389 0.289448 0.679168 0.112274 -0.016742 -225676.000000 0 0 1
24.833824 8.684671 32.597523 41.889627 0.336418 0.679039 0.146759 -0.021007 631580.000000 0 0 1
26.161024 9.217971 32.568268 42.779227 0.338771 0.705465 0.129227 -0.021947 392357.000000 0 0 1
26.216024 9.935871 -33.804601 43.917565 0.362273 2.449212 0.142851 -0.022638 43608.400000 0 0 1
27.399524 10.887871 -33.581761 44.687966 0.378241 2.421087 0.115239 -0.024366 -122960.000000 0 0 1
27.194224 12.134271 33.478155 44.805728 0.419696 0.726980 0.117735 -0.030956 262966.000000 0 0 1
27.206624 13.106771 -33.150181 44.843309 0.448941 2.402745 0.120641 -0.033630 -108737.000000 0 0 1
26.897924 14.552471 -33.699631 45.507558 0.495927 2.404652 0.123769 -0.036613 -545495.000000 0 0 1
27.946024 15.116271 33.200668 45.953959 0.495837 0.763418 0.091661 -0.037065 2923.290000 0 0 1
27.743324 16.498471 32.971416 46.141152 0.536500 0.774777 0.114998 -0.043830 -74920.600000 0 0 1
28.217024 17.419771 -33.499431 47.136618 0.553079 2.361272 0.109379 -0.056060 -626548.000000 0 0 1
27.656724 17.213871 -32.216551 45.816132 0.556736 2.350643 0.128401 -0.061775 598282.000000 0 0 1
28.506824 16.553071 -31.194221 45.384167 0.526085 2.328613 0.102631 -0.056413 328487.000000 0 0 1
27.700124 16.170471 -29.942581 43.878687 0.528399 2.321830 0.117305 -0.049127 -303862.000000 0 0 1
26.705724 15.254871 -30.247601 43.137271 0.518990 2.347867 0.136282 -0.034550 -563234.000000 0 0 1
25.887124 14.884971 -29.151051 41.731156 0.521831 2.344157 0.165773 -0.041671 -115574.000000 0 0 1
25.080424 13.695271 -29.667621 41.191697 0.499809 2.374935 0.161977 -0.030406 -77627.300000 0 0 1
24.085424 14.097371 -30.656541 41.456809 0.529546 2.403096 0.174541 -0.032139 1109050.000000 0 0 1
23.394424 13.028071 -31.361671 41.238139 0.508116 2.434882 0.147019 -0.018735 517910.000000 0 0 1
22.548824 12.026071 -30.529341 39.813522 0.489958 2.444650 0.157515 -0.018679 -187167.000000 0 0 1
21.387324 12.593071 -29.943451 38.892330 0.532151 2.449491 0.177358 -0.013105 71902.200000 0 0 1
20.559324 11.604871 -29.428611 37.728000 0.513875 2.465495 0.157509 -0.014505 -151122.000000 0 0 1
19.186624 12.015371 -28.853291 36.674352 0.559488 2.476311 0.150491 -0.009842 -493951.000000 0 0 1
18.351724 12.502571 -29.794881 37.159588 0.598048 2.501112 0.100700 0.004431 -668123.000000 0 0 1
17.089324 12.821771 -29.238811 36.212579 0.643680 2.510565 0.087390 -0.010895 -229062.000000 0 0 1
16.007724 13.295971 -30.244091 36.711512 0.693121 2.538934 0.063291 -0.009163 58407.100000 0 0 1
15.302924 12.358371 -31.018911 36.729847 0.679347 2.576455 0.063249 -0.005465 242664.000000 0 0 1
14.176924 11.878171 -30.254441 35.459940 0.697399 2.592887 0.077502 -0.013015 118274.000000 0 0 1
13.116724 11.418471 -31.289111 35.797184 0.716291 2.634307 0.078307 -0.015047 -158024.000000 0 0 1
12.692624 12.347271 -32.249811 36.791414 0.771607 2.639460 0.089038 -0.015871 628470.000000 0 0 1
11.618124 11.798171 -33.047041 36.963287 0.793087 2.677103 0.103607 -0.014365 726926.000000 0 0 1
11.262024 12.589771 33.308690 37.347080 0.841007 0.469336 0.117341 -0.017951 -190091.000000 0 0 1
12.126824 12.429971 32.232605 36.612906 0.797742 0.494172 0.086815 -0.004233 304041.000000 0 0 1
11.457524 12.913071 31.016975 35.497536 0.845053 0.507878 0.111762 -0.022781 502755.000000 0 0 1
12.326124 12.661771 29.740955 34.594482 0.798830 0.536110 0.097914 -0.020346 -341666.000000 0 0 1
12.365824 11.308471 29.333295 33.782205 0.740765 0.519019 0.109959 -0.014655 184653.000000 0 0 1
12.499124 11.249771 27.902095 32.577790 0.732840 0.542393 0.128227 -0.014486 -197706.000000 0 0 1
13.074924 9.890471 27.518455 32.031866 0.647614 0.537295 0.141810 -0.019316 -26226.600000 0 0 1
12.129624 8.848571 27.673025 31.483668 0.630252 0.497110 0.148299 -0.031563 272161.000000 0 0 1
12.772024 7.620971 27.521915 31.283536 0.537984 0.495445 0.123925 -0.026395 79480.600000 0 0 1
11.861024 6.372571 27.746545 30.840952 0.493017 0.451793 0.127324 -0.024308 854143.000000 0 0 1
10.900924 6.093971 26.695075 29.471913 0.509751 0.437579 0.127991 -0.019574 1175020.000000 0 0 1
9.873124 5.107971 26.949075 29.151717 0.477440 0.391226 0.114115 -0.019733 575779.000000 0 0 1
10.269824 3.642271 26.700795 28.838653 0.340818 0.387469 0.101689 -0.021307 -237983.000000 0 0 1
11.215724 3.264971 27.678015 30.042055 0.283278 0.399363 0.103641 -0.029205 398296.000000 0 0 1
11.716724 1.925671 27.501705 29.955528 0.162896 0.407576 0.061236 -0.021533 82672.300000 0 0 1
12.278324 1.233871 28.737295 31.274779 0.100156 0.405602 0.048378 -0.014255 -725442.000000 0 0 1
11.229024 0.911871 29.554465 31.628925 0.081029 0.364190 0.046088 -0.019190 -677195.000000 0 0 1
11.366224 -0.256829 30.344985 32.404863 -0.022592 0.358475 0.046363 -0.022818 -573576.000000 0 0 1
10.350424 -0.253429 31.458815 33.118765 -0.024480 0.317948 0.066919 -0.019204 -458911.000000 0 0 1
10.623024 0.610771 32.497943 34.195585 0.057432 0.316422 0.062790 -0.024159 1366060.000000 0 0 1
9.375424 1.079171 33.114397 34.432928 0.114602 0.277632 0.077852 -0.037855 1190580.000000 0 0 1
9.633524 2.487571 -33.754811 35.190625 0.252700 2.854952 0.088756 -0.036510 -9202.520000 0 0 1
9.709424 3.705971 33.081215 34.675264 0.364621 0.304392 0.072768 -0.031199 752165.000000 0 0 1
10.736724 3.773971 32.072379 34.031715 0.338012 0.340984 0.080155 -0.025589 167143.000000 0 0 1
10.672024 5.109571 31.270725 33.434385 0.446529 0.361729 0.095215 -0.028716 53555.800000 0 0 1
10.940024 6.225471 32.091442 34.471746 0.517355 0.373793 0.093791 -0.025624 138621.000000 0 0 1
11.199424 7.386771 31.326915 34.078837 0.583071 0.404629 0.103241 -0.019742 -254001.000000 0 0 1
11.193324 8.664571 32.209453 35.182584 0.658737 0.414062 0.124965 -0.026903 -11705.300000 0 0 1
9.912324 9.058671 32.644119 35.298048 0.740431 0.390251 0.132322 -0.033323 -168111.000000 0 0 1
9.444924 8.404771 33.765235 36.054651 0.727191 0.358280 0.119918 -0.032363 92636.800000 0 0 1
8.090224 8.982671 -33.363981 35.486551 0.837623 2.793974 0.123801 -0.043126 520910.000000 0 0 1
7.512624 8.283271 -32.260691 34.143876 0.834147 2.807919 0.127343 -0.040035 282563.000000 0 0 1
6.179424 8.723671 -32.025151 33.762376 0.954487 2.819407 0.110836 -0.035527 386755.000000 0 0 1
5.542824 8.178371 -30.764271 32.311747 0.975165 2.830854 0.108257 -0.028028 -502506.000000 0 0 1
6.061724 8.752971 -29.565501 31.424160 0.965099 2.795934 0.112225 -0.033029 109634.000000 0 0 1
5.503024 8.259271 -28.350011 30.037010 0.983058 2.804850 0.098789 -0.029525 -208584.000000 0 0 1
3.995324 8.361371 -28.098251 29.586937 1.125040 2.823023 0.083021 -0.028591 -454344.000000 0 0 1
3.209924 7.428671 -28.779381 29.895510 1.162928 2.867480 0.062837 -0.020118 642788.000000 0 0 1
1.846824 7.347971 -28.317661 29.313706 1.324559 2.880162 0.074275 -0.008062 1054690.000000 0 0 1
0.953024 6.489171 -29.248861 29.975214 1.424975 2.921001 0.073001 -0.026689 -114387.000000 0 0 1
0.814124 7.056371 -30.575761 31.390004 1.455930 2.913328 0.074751 -0.030955 -18353.800000 0 0 1
0.112824 6.259071 -31.514491 32.130232 1.552773 2.945504 0.109317 -0.036975 -538765.000000 0 0 1
-0.214576 7.056571 -32.814381 33.565232 -1.540398 2.929678 0.127663 -0.043348 -85696.200000 0 0 1
0.865724 7.719171 -33.448481 34.338549 1.459111 2.913412 0.089009 -0.032693 773931.000000 0 0 1
1.945724 6.893571 33.649305 34.403240 1.295701 0.209739 0.103834 -0.035215 617234.000000 0 0 1
1.681724 6.288271 32.228708 32.879480 1.309474 0.199290 0.130019 -0.037707 -737052.000000 0 0 1
0.598424 5.437671 32.091926 32.554848 1.461186 0.168841 0.125493 -0.039012 -799596.000000 0 0 1
0.145624 5.258971 30.768855 31.215388 1.543113 0.169347 0.146610 -0.040400 318472.000000 0 0 1
1.040124 4.390971 29.800065 30.139781 1.338205 0.150284 0.152886 -0.046740 298780.000000 0 0 1
0.921624 4.696971 28.445955 28.845854 1.377041 0.166706 0.141002 -0.036073 272690.000000 0 0 1
1.846824 3.807071 27.823005 28.142924 1.119137 0.150925 0.124135 -0.028457 261735.000000 0 0 1
1.962324 4.194571 26.321895 26.726154 1.133219 0.174151 0.122885 -0.021801 212650.000000 0 0 1
2.583224 5.484671 26.138315 26.832186 1.130625 0.227912 0.111839 -0.014820 234133.000000 0 0 1
2.475624 5.963571 24.850915 25.676076 1.177320 0.254208 0.100015 -0.016849 -621992.000000 0 0 1
3.227824 7.310171 24.659595 25.922058 1.154989 0.313378 0.091192 -0.004496 1969840.000000 0 0 1
4.687324 7.271071 24.779445 26.246150 0.998189 0.335890 0.071809 0.002891 1551420.000000 0 0 1
5.281724 6.857471 23.572825 25.111743 0.914483 0.351907 0.062787 -0.004975 -726685.000000 0 0 1
6.817024 6.712671 23.627685 25.491161 0.777685 0.384737 0.074758 -0.006909 208018.000000 0 0 1
7.373124 5.603771 24.387975 26.087134 0.649887 0.362915 0.088209 -0.006257 213745.000000 0 0 1
6.910224 4.277571 24.031945 25.368942 0.554288 0.326103 0.079607 -0.013348 -829481.000000 0 0 1
7.053624 3.691471 22.598755 23.960057 0.482148 0.338709 0.065558 -0.017208 528396.000000 0 1 0
6.013524 4.080571 21.709915 22.893972 0.596195 0.323021 0.049091 -0.018997 -43189.400000 0 1 0
4.718424 3.585871 21.937015 22.723438 0.649853 0.263856 0.049156 -0.020239 -433414.000000 0 1 0
3.658524 4.045171 20.922715 21.621939 0.835546 0.255008 0.032002 -0.019001 -58270.900000 0 1 0
3.401324 5.435071 21.006315 21.963021 1.011614 0.296242 0.039967 -0.022239 -541895.000000 0 1 0
2.275524 5.723771 20.250615 21.166648 1.192398 0.295273 0.038079 -0.021896 -711775.000000 0 1 0
1.794524 7.165471 20.413415 21.708796 1.325403 0.347200 0.039915 -0.012178 167606.000000 0 1 0
2.565324 8.105371 19.657415 21.417094 1.264274 0.408198 0.033666 -0.017216 -54085.300000 0 1 0
2.475924 9.366071 20.197315 22.400559 1.312358 0.447242 0.047729 -0.011281 104630.000000 0 1 0
3.381824 10.419171 19.519315 22.383019 1.256947 0.511402 0.074047 -0.023367 -867691.000000 0 1 0
3.037224 10.771071 18.179015 21.347536 1.295953 0.551815 0.038708 -0.023332 -369281.000000 0 1 0
3.882924 11.733871 17.598615 21.505164 1.251223 0.612273 0.054200 -0.024699 -33395.300000 0 1 0
5.409124 11.559671 17.664215 21.792410 1.133132 0.625676 0.063589 -0.029406 -641251.000000 0 1 0
5.922224 10.382771 17.038815 20.813359 1.052434 0.611743 0.059775 -0.025247 649821.000000 0 1 0
7.266624 10.145971 17.496015 21.490815 0.949275 0.619591 0.057717 -0.011178 737411.000000 0 1 0
7.566224 8.655371 17.845515 21.227944 0.852439 0.572293 0.062059 -0.014220 73535.400000 0 1 0
6.948724 8.244971 19.088015 21.922971 0.870507 0.514202 0.061152 -0.020571 88682.700000 0 1 0
7.051224 6.893371 19.380315 21.744768 0.774079 0.470673 0.055268 -0.031043 -31782.500000 0 1 0
8.393924 6.271271 19.825315 22.423870 0.641656 0.486196 0.074563 -0.027456 1847.880000 0 1 0
9.463724 6.379171 18.913315 22.090029 0.593107 0.542942 0.075131 -0.018419 975488.000000 0 1 0
10.702024 5.705471 19.296515 22.791253 0.489792 0.561113 0.099387 -0.018332 1158500.000000 0 1 0
10.748524 4.173771 19.132715 22.338575 0.370389 0.542370 0.100845 -0.021684 -623772.000000 0 1 0
10.038224 3.448871 20.092615 22.723861 0.330939 0.486001 0.097655 -0.026944 -52418.200000 0 1 0
10.179424 2.072471 19.833415 22.389287 0.200849 0.482486 0.094408 -0.040442 444899.000000 0 1 0
9.207524 1.258771 20.748615 22.734732 0.135869 0.421101 0.078257 -0.035391 259125.000000 0 1 0
9.672924 1.253271 22.093715 24.150951 0.128847 0.415740 0.084799 -0.029513 234737.000000 0 1 0
8.935524 0.333471 22.887785 24.572454 0.037302 0.372444 0.076228 -0.030379 -252131.000000 0 1 0
9.360324 0.301571 24.416425 26.150878 0.032207 0.366255 0.081427 -0.021591 316235.000000 0 0 1
10.656324 -0.209729 24.711455 26.912028 -0.019679 0.407206 0.081071 -0.029267 520714.000000 0 0 1
10.712824 -1.636229 24.608815 26.889322 -0.151564 0.414819 0.082762 -0.029818 -657869.000000 0 0 1
12.134524 -2.182529 24.598865 27.515710 -0.177958 0.464616 0.079651 -0.026822 -408424.000000 0 0 1
12.142524 -3.568629 24.783875 27.828340 -0.285847 0.472137 0.083326 -0.015697 462009.000000 0 0 1
13.480424 -4.083829 24.754365 28.481189 -0.294157 0.517320 0.083321 -0.016056 579767.000000 0 0 1
13.549824 -5.639729 24.959435 28.954753 -0.394412 0.531564 0.099393 -0.016952 -7931.150000 0 0 1
13.180224 -6.392529 23.763325 27.915558 -0.451583 0.552419 0.109303 -0.022379 283988.000000 0 0 1
13.210124 -7.785129 23.906145 28.401046 -0.532537 0.570308 0.130412 -0.038527 -207211.000000 0 0 1
13.050524 -8.577929 22.570965 27.447141 -0.581480 0.605280 0.152662 -0.041768 139064.000000 0 0 1
12.795424 -9.961129 22.789875 27.970080 -0.661488 0.618421 0.155947 -0.032422 -377252.000000 0 0 1
12.648024 -10.590729 21.566115 27.152042 -0.697100 0.652987 0.164180 -0.042055 -41260.000000 0 0 1
11.902224 -11.928829 21.733515 27.501011 -0.786515 0.659530 0.161963 -0.040810 122244.000000 0 0 1
10.536024 -11.638629 21.937715 26.976450 -0.835081 0.621137 0.137156 -0.034032 -229140.000000 0 0 1
9.768424 -12.807829 22.240015 27.460533 -0.919222 0.626832 0.129907 -0.031940 74509.300000 0 0 1
8.316024 -12.425029 22.569565 27.072549 -0.980975 0.585077 0.096501 -0.030397 -511617.000000 0 0 1
7.565724 -11.922829 21.509815 25.730647 -1.005353 0.580915 0.087006 -0.032197 -1254180.000000 0 0 1
6.355624 -11.573929 22.087315 25.733233 -1.068619 0.538812 0.044877 -0.029316 -457873.000000 0 0 1
5.590724 -10.504629 21.254015 24.358502 -1.081710 0.510398 0.034424 -0.033296 -57498.100000 0 1 0
6.085924 -9.282329 21.516315 24.210575 -0.990462 0.476260 0.045897 -0.028954 -251431.000000 0 1 0
5.153324 -8.238629 21.219015 23.338345 -1.011832 0.429459 0.026565 -0.019132 215186.000000 0 1 0
5.460624 -6.792529 21.737315 23.419388 -0.893672 0.381315 0.038432 -0.019142 159884.000000 0 1 0
4.484024 -5.833029 21.353715 22.585656 -0.915415 0.331809 0.013611 -0.016296 -129239.000000 0 1 0
4.927024 -4.573829 21.734615 22.750582 -0.748240 0.299977 0.039294 -0.037336 -401346.000000 0 1 0
-8.719476 -15.381029 -20.597401 27.145133 1.055072 2.432247 0.115373 -0.018199 -198314.000000 0 0 1
-7.880376 -15.017329 -19.557601 25.886681 1.087544 2.427226 0.078372 -0.011671 -162093.000000 0 0 1
-6.917676 -14.050929 -20.024601 25.421791 1.113305 2.477854 0.080904 -0.018150 511322.000000 0 0 1
-6.184976 -13.393329 -18.845501 23.932992 1.138177 2.477421 0.062578 -0.019316 -395011.000000 0 1 0
-5.357176 -14.246929 -18.165001 23.698978 1.211129 2.444152 0.054550 -0.011208 -408306.000000 0 1 0
-4.729976 -13.717029 -16.990201 22.342705 1.238739 2.434781 0.050382 -0.011072 -31830.200000 0 1 0
-3.678676 -14.702729 -16.467101 22.380087 1.325626 2.397633 0.041963 -0.000922 268249.000000 0 1 0
-2.443076 -14.599729 -17.177001 22.675318 1.404995 2.430302 0.045859 -0.006507 433421.000000 0 1 0
-1.426976 -15.386029 -16.561301 22.650449 1.478316 2.390830 0.057032 -0.001206 293184.000000 0 1 0
-0.088176 -15.645829 -17.272101 23.305047 1.565161 2.405550 0.067144 0.003029 205134.000000 0 1 0
-0.128976 -16.555029 -18.360501 24.722330 1.563006 2.407843 0.110665 -0.013772 -191415.000000 0 1 0
-0.456876 -17.904629 -18.061601 25.436311 1.545285 2.360396 0.105640 -0.010011 -110819.000000 0 0 1
-0.769376 -18.677029 -19.381401 26.926976 1.529626 2.374276 0.120649 -0.020201 337605.000000 0 0 1
-2.074176 -18.312029 -19.813801 27.059551 1.458009 2.392386 0.148900 -0.025752 218082.000000 0 0 1
-2.198276 -18.614129 -21.193401 28.292728 1.453244 2.417462 0.164324 -0.031090 468447.000000 0 0 1
-3.273576 -17.618229 -21.750601 28.181677 1.387085 2.452462 0.167377 -0.040273 438727.000000 0 0 1
-2.841076 -16.272529 -21.808501 27.358319 1.397945 2.493345 0.146893 -0.036342 -345437.000000 0 0 1
-3.070576 -15.544329 -20.564701 25.960769 1.375770 2.485112 0.133752 -0.030118 -91221.400000 0 0 1
-2.177376 -14.295029 -20.427801 25.027662 1.419641 2.525615 0.097003 -0.027196 30797.500000 0 0 1
-2.473876 -13.273529 -21.390201 25.295204 1.386534 2.578527 0.088636 -0.033496 -379424.000000 0 0 1
-1.722776 -12.146529 -21.175301 24.472423 1.429903 2.616489 0.053514 -0.022583 -268272.000000 0 1 0
-1.682776 -11.272229 -22.463701 25.189536 1.422606 2.672076 0.060501 -0.021047 218237.000000 0 0 1
-2.893376 -10.539129 -22.567901 25.074988 1.302861 2.690604 0.067046 -0.022649 265044.000000 0 0 1
-3.014676 -9.851429 -23.780801 25.916508 1.273831 2.732778 0.081525 -0.027450 45258.100000 0 0 1
-4.061776 -8.715729 -23.879401 25.742722 1.134694 2.758780 0.068308 -0.022336 491432.000000 0 0 1
-5.439176 -9.087729 -23.790201 26.041219 1.031467 2.722748 0.077801 -0.023632 1026280.000000 0 0 1
-6.267776 -7.936729 -23.634901 25.707688 0.902357 2.737275 0.079751 -0.033170 751662.000000 0 0 1
-7.754176 -8.230029 -23.186401 25.796701 0.815160 2.687849 0.077245 -0.042126 1334410.000000 0 0 1
-8.728976 -8.608829 -24.133301 27.068860 0.778469 2.671557 0.078928 -0.032701 284978.000000 0 0 1
-9.229776 -7.595329 -24.971101 27.684538 0.688559 2.695147 0.074313 -0.037610 -97074.100000 0 0 1
-9.913576 -8.061929 -26.305711 29.244899 0.682751 2.689414 0.062369 -0.041744 360407.000000 0 0 1
-10.840376 -7.144629 -26.844541 29.819270 0.582729 2.691120 0.075089 -0.051262 50835.700000 0 0 1
-11.239076 -7.561329 -28.119331 31.211973 0.592217 2.692669 0.067774 -0.048465 -195209.000000 0 0 1
-12.074476 -6.427629 -28.800121 31.883449 0.489177 2.698182 0.062963 -0.046787 137459.000000 0 0 1
-11.359376 -5.412329 -29.512001 32.082502 0.444642 2.738567 0.039933 -0.030836 141766.000000 0 0 1
-12.182176 -4.830729 -30.499511 33.195806 0.377521 2.735765 0.065146 -0.035921 -113213.000000 0 0 1
-11.441576 -3.748729 -31.322481 33.556824 0.316619 2.774615 0.054217 -0.031122 6414.480000 0 0 1
-10.357376 -4.197429 -32.098701 33.988531 0.385033 2.806555 0.044049 -0.026082 75313.700000 0 0 1
-9.753076 -3.179829 -32.894991 34.457426 0.315166 2.839299 0.038111 -0.023587 -576607.000000 0 0 1
-8.616576 -3.715329 -33.729091 35.010007 0.407097 2.870254 0.032562 -0.022168 -481493.000000 0 0 1
-7.364576 -3.663629 -33.078091 34.085470 0.461619 2.897866 0.037382 -0.027408 -424410.000000 0 0 1
-6.392276 -4.200429 33.720955 34.577559 0.581357 0.223053 0.049269 -0.027174 -368222.000000 0 0 1
-4.932776 -3.778729 -33.721031 34.288759 0.653691 2.959367 0.090596 -0.035529 -77874.400000 0 0 1
-4.767276 -2.386029 33.722465 34.141247 0.464049 0.156788 0.114728 -0.043353 703056.000000 0 0 1
-3.386176 -2.007729 -33.775331 34.003972 0.535197 3.025562 0.120853 -0.042669 882564.000000 0 0 1
-3.289076 -0.585429 -33.280031 33.447290 0.176147 3.041544 0.126165 -0.046678 -115274.000000 0 0 1
-3.611876 -0.506729 -31.939161 32.146733 0.139385 3.027892 0.125144 -0.039765 182805.000000 0 0 1
-4.145176 0.788071 -31.591571 31.872102 -0.187876 3.008817 0.158761 -0.041669 -673486.000000 0 0 1
-4.559876 0.710171 -30.109951 30.461549 -0.154502 2.989510 0.151121 -0.046834 44406.400000 0 0 1
-5.617576 -0.139829 -29.772271 30.297934 0.024886 2.955044 0.126551 -0.042804 51035.500000 0 0 1
-6.906776 0.356771 -30.093481 30.877960 -0.051609 2.915698 0.131989 -0.045385 96908.100000 0 0 1
-8.044076 -0.709629 -29.984441 31.052817 0.087990 2.878518 0.113043 -0.041630 173487.000000 0 0 1
-8.277376 -1.168229 -28.693961 29.886838 0.140209 2.858109 0.102532 -0.040265 -401155.000000 0 0 1
-9.263376 -2.135129 -28.797151 30.325646 0.226535 2.822745 0.071479 -0.026360 -498265.000000 0 0 1
-9.691476 -2.856829 -27.475941 29.274793 0.286659 2.789210 0.069193 -0.030800 253783.000000 0 0 1
-10.612676 -2.121829 -26.665111 28.777755 0.197332 2.756032 0.067977 -0.029096 466908.000000 0 0 1
-10.869676 -2.762329 -25.427611 27.791072 0.248864 2.726195 0.062685 -0.031145 464565.000000 0 0 1
-11.839676 -1.917429 -24.514801 27.291572 0.160555 2.686580 0.071805 -0.031072 556762.000000 0 0 1
-11.198776 -0.778329 -24.024101 26.517462 0.069390 2.704469 0.086631 -0.024062 648667.000000 0 0 1
-12.155076 0.018671 -23.310001 26.288826 -0.001536 2.660930 0.096294 -0.027018 465266.000000 0 0 1
-11.497776 1.345371 -22.912501 25.670831 -0.116482 2.673765 0.112085 -0.028893 187024.000000 0 0 1
-11.247476 2.249871 -23.939601 26.545661 -0.197428 2.694776 0.089003 -0.025734 -260547.000000 0 0 1
-10.524276 3.341071 -23.479501 25.946292 -0.307400 2.702005 0.105132 -0.023787 -501645.000000 0 0 1
-10.380476 4.592871 -24.300601 26.821035 -0.416560 2.704598 0.137907 -0.029677 786045.000000 0 0 1
-11.605676 5.324371 -24.434101 27.569293 -0.430126 2.660046 0.121027 -0.025517 1037160.000000 0 0 1
-12.577276 4.966971 -25.423991 28.796492 -0.376116 2.652767 0.100549 -0.024997 -346566.000000 0 0 1
-13.864276 5.742671 -25.275151 29.394381 -0.392693 2.605798 0.081278 -0.012677 -963580.000000 0 0 1
-13.844676 7.074971 -25.690931 30.029222 -0.472428 2.597372 0.087643 -0.018282 236216.000000 0 0 1
-15.149076 7.550071 -25.950861 30.982983 -0.462355 2.563643 0.079201 -0.012256 -117542.000000 0 0 1
-15.119176 9.126971 -26.029361 31.455027 -0.543113 2.545455 0.100611 -0.006026 -192861.000000 0 0 1
-14.935576 9.713971 -24.795401 30.532680 -0.576650 2.518528 0.155387 -0.025807 363189.000000 0 0 1
-14.976776 11.091871 -24.951201 31.143151 -0.637461 2.500057 0.142947 -0.021713 -276894.000000 0 0 1
-14.765776 11.711671 -23.550501 30.163181 -0.670558 2.466693 0.162004 -0.031591 -269652.000000 0 0 1
-15.744876 11.529671 -22.568201 29.835518 -0.632064 2.428620 0.187701 -0.035084 -291457.000000 0 0 1
-15.328376 12.127671 -21.380201 28.968129 -0.669346 2.400986 0.180610 -0.036399 -83406.200000 0 0 1
-16.363076 12.175671 -20.234101 28.730055 -0.639711 2.352210 0.181236 -0.042339 2109.710000 0 0 1
-17.530576 12.913771 -20.484501 29.894838 -0.634898 2.325700 0.154983 -0.036352 -40300.500000 0 0 1
-18.480676 12.691371 -19.468001 29.691907 -0.601769 2.285862 0.140762 -0.022855 592551.000000 0 0 1
-19.978176 13.005971 -19.780501 30.976620 -0.577084 2.263425 0.120542 -0.021887 586904.000000 0 0 1
-20.397876 14.336871 -20.000701 31.963217 -0.612644 2.246878 0.105261 -0.016804 -406414.000000 0 0 1
-21.764876 14.431971 -20.247201 33.044527 -0.585519 2.230300 0.091524 -0.014725 -504986.000000 0 0 1
-22.129776 15.728371 -20.986301 34.315207 -0.617893 2.228845 0.094642 -0.017285 -178931.000000 0 0 1
-22.089876 15.618271 -22.386601 35.114853 -0.615431 2.262078 0.090646 -0.019724 166036.000000 0 0 1
-22.118676 16.895171 -23.031601 36.126683 -0.652301 2.262076 0.087049 -0.006247 -94012.100000 0 0 1
-21.945876 16.798871 -24.540401 36.960179 -0.653328 2.296910 0.087068 -0.008799 -375532.000000 0 0 1
-20.631876 16.397871 -24.848401 36.221644 -0.671552 2.326787 0.100892 -0.030230 22492.400000 0 0 1
-20.402476 16.324271 -26.219741 37.016451 -0.674809 2.357921 0.103230 -0.026238 -122473.000000 0 0 1
-19.763676 17.623671 -26.765601 37.650950 -0.728222 2.361556 0.084654 -0.016561 89610.100000 0 0 1
-20.770076 18.592771 -26.986021 38.798615 -0.730141 2.339969 0.086511 -0.030430 750151.000000 0 0 1
-20.102476 19.860571 -27.068361 39.131164 -0.779345 2.334684 0.072071 -0.026864 30193.600000 0 0 1
-21.100776 21.063871 -27.242031 40.386355 -0.784523 2.311132 0.090229 -0.012395 92465.900000 0 0 1
-21.892376 21.351271 -26.142551 40.231652 -0.772886 2.278118 0.094678 -0.008456 -595090.000000 0 0 1
-23.081876 20.614971 -26.164261 40.525530 -0.729003 2.272637 0.117743 -0.023673 -962966.000000 0 0 1
-23.938076 21.020071 -24.931101 40.452869 -0.720584 2.234832 0.122352 -0.008935 -31306.200000 0 0 1
-23.355676 20.657071 -23.711601 39.171957 -0.724161 2.220965 0.089745 -0.004864 -298053.000000 0 0 1
-24.196276 20.998771 -22.668801 39.246435 -0.714767 2.186584 0.087498 -0.010925 -126357.000000 0 0 1
-23.696076 20.393171 -21.373101 37.870765 -0.710624 2.170465 0.087511 -0.005800 269924.000000 0 0 1
-22.683576 20.998071 -20.574901 37.132063 -0.746831 2.158079 0.097098 -0.009086 208580.000000 0 0 1
-21.931276 20.116971 -19.771401 35.729283 -0.742277 2.157197 0.102615 -0.012043 188353.000000 0 0 1
-22.650476 19.581571 -18.465201 35.177345 -0.712858 2.123414 0.124634 -0.016675 319343.000000 0 0 1
-23.779776 18.745871 -18.794201 35.638566 -0.667573 2.126282 0.156372 -0.018207 1062250.000000 0 0 1
-24.585776 18.285771 -17.672201 35.371408 -0.639492 2.093954 0.123624 -0.020607 -27370.000000 0 0 1
-25.599226 19.282871 -17.194801 36.370464 -0.645584 2.063226 0.089160 -0.012464 -276846.000000 0 0 1
-26.748906 19.372371 -18.075101 37.649728 -0.626804 2.071549 0.091542 -0.000437 680001.000000 0 0 1
-27.733186 20.270371 -17.642601 38.617080 -0.631169 2.045258 0.076666 -0.000076 -402647.000000 0 0 1
-29.137306 20.051771 -18.279101 39.814339 -0.602750 2.047788 0.044904 0.016403 418911.000000 0 0 1
-29.872256 18.932271 -17.829201 39.606350 -0.564884 2.037741 0.049255 0.015793 141051.000000 0 0 1
-30.085836 18.698971 -16.418401 39.043218 -0.556093 2.004813 0.042986 0.001189 -729115.000000 0 0 1
-30.889506 17.417571 -16.040501 38.920830 -0.513427 1.995589 0.039433 -0.000637 -254010.000000 0 0 1
-30.258186 16.193371 -16.248501 37.971000 -0.491389 2.012985 0.066499 -0.017455 120436.000000 0 0 1
-31.001816 15.100871 -15.654601 37.871036 -0.453272 1.996944 0.069685 -0.018897 595979.000000 0 0 1
-30.075566 14.013971 -14.957701 36.395932 -0.436046 1.994316 0.112414 -0.024793 394908.000000 0 0 1
-29.543056 14.376671 -13.677201 35.588574 -0.452898 1.965261 0.130477 -0.025954 -186058.000000 0 0 1
-30.517086 14.247871 -12.688601 35.990206 -0.436804 1.931099 0.096777 -0.012706 -206646.000000 0 0 1
-30.455096 15.132871 -11.434601 35.878500 -0.461158 1.895158 0.141933 -0.040643 -235334.000000 0 0 1
-30.817326 16.473771 -11.733301 36.861403 -0.490913 1.894741 0.141462 -0.024479 56199.500000 0 0 1
-31.187966 17.218571 -10.586501 37.165069 -0.504447 1.859647 0.071587 -0.017765 -60481.700000 0 0 1
-30.941766 18.769071 -10.697301 37.737291 -0.545253 1.858204 0.169658 -0.017309 -466675.000000 0 0 1
-29.587306 19.070171 -10.561601 36.750884 -0.572527 1.862290 0.089961 -0.029960 -629085.000000 0 0 1
-29.489136 20.481671 -10.511701 37.411279 -0.607059 1.855608 0.060610 -0.027489 37221.000000 0 0 1
-28.057496 21.064371 -10.479701 36.616320 -0.643986 1.861058 0.128387 -0.033282 318038.000000 0 0 1
-28.140686 22.427771 -10.038801 37.358809 -0.672901 1.842853 0.121181 -0.034799 -754689.000000 0 0 1
-26.905596 23.045471 -10.112801 36.841194 -0.708273 1.848863 0.107400 -0.020946 -728166.000000 0 0 1
-26.900876 24.451871 -9.476801 37.568083 -0.737744 1.825808 0.138760 -0.016281 -1148.950000 0 0 1
-27.059556 24.507871 -8.102401 37.396580 -0.735956 1.789190 0.128154 -0.026575 -98122.900000 0 0 1
-28.385566 24.797271 -7.726701 38.475276 -0.718029 1.772994 0.161975 -0.029841 -48622.900000 0 0 1
-28.739906 24.234471 -6.304601 38.118759 -0.700553 1.736953 0.172872 -0.028681 82080.300000 0 0 1
-28.603496 22.845771 -6.184501 37.125965 -0.673951 1.738158 0.182010 -0.043786 139124.000000 0 0 1
-28.945196 22.445571 -4.841001 36.946763 -0.659592 1.702201 0.155890 -0.031914 -240448.000000 0 0 1
-29.010536 20.925371 -4.714601 36.079215 -0.624880 1.701845 0.158793 -0.034530 734750.000000 0 0 1
-27.752136 20.225571 -4.758701 34.668429 -0.629790 1.708494 0.163906 -0.032067 1189750.000000 0 0 1
-27.015796 20.220271 -6.026601 34.278747 -0.642515 1.747526 0.158348 -0.029763 -188042.000000 0 0 1
-27.657086 19.412271 -7.201701 34.548736 -0.611994 1.780787 0.160895 -0.029768 -184554.000000 0 0 1
-27.285816 18.034771 -7.223201 33.495423 -0.584040 1.788151 0.149442 -0.031936 285814.000000 0 0 1
-27.737256 17.469671 -8.424201 33.845412 -0.562063 1.822343 0.120999 -0.038674 -204345.000000 0 0 1
-27.563376 15.892971 -8.494501 32.931486 -0.523034 1.831691 0.172130 -0.041189 378897.000000 0 0 1
-28.574626 15.108271 -7.853801 33.263362 -0.486367 1.809157 0.163460 -0.037200 262519.000000 0 0 1
-28.492876 13.734371 -8.241001 32.686251 -0.449167 1.825671 0.175986 -0.049237 418438.000000 0 0 1
-29.453356 12.741871 -7.478201 32.951160 -0.408300 1.799739 0.150538 -0.044900 -159287.000000 0 0 1
-30.812966 12.841171 -7.800601 34.280955 -0.394858 1.800356 0.157473 -0.029505 -198216.000000 0 0 1
-31.613246 12.037671 -6.917701 34.527633 -0.363828 1.772514 0.166846 -0.030790 145291.000000 0 0 1
-32.118396 10.743571 -7.527001 34.693968 -0.322799 1.789490 0.137174 -0.018734 -207030.000000 0 0 1
-31.082106 9.854771 -7.946401 33.561274 -0.307030 1.809839 0.168999 -0.019142 453019.000000 0 0 1
-31.587396 8.561171 -8.282801 33.758880 -0.264673 1.818679 0.138197 -0.008576 -238924.000000 0 0 1
-30.452196 7.559671 -8.529501 32.515185 -0.243328 1.836226 0.192435 -0.014323 50907.000000 0 0 1
-29.820096 7.710071 -9.799001 32.321877 -0.253012 1.878813 0.192225 -0.038799 375434.000000 0 0 1
-28.950836 6.663071 -10.194001 31.408041 -0.226212 1.901350 0.208749 -0.038958 -220508.000000 0 0 1
-28.193536 6.944771 -11.484401 31.224938 -0.241517 1.947434 0.198732 -0.041046 -308883.000000 0 0 1
-27.051356 7.749271 -11.265901 30.310849 -0.278994 1.951613 0.219175 -0.055360 453149.000000 0 0 1
-26.267836 7.756071 -12.466001 30.092474 -0.287111 1.997922 0.185994 -0.045808 25290.500000 0 0 1
-32.751186 25.562971 -33.356521 53.280044 -0.662750 2.247287 0.065330 -0.004874 -51093.200000 0 0 1
-32.924966 26.897371 -33.742101 54.277540 -0.684979 2.241655 0.063686 -0.013656 157720.000000 0 0 1
-33.030586 27.050571 32.519588 53.668208 -0.686193 0.919852 0.067256 -0.014599 -38312.400000 0 0 1
-33.414526 28.487271 32.155759 54.424700 -0.705968 0.938709 0.081961 -0.026482 -18369.600000 0 0 1
-33.316886 28.884271 30.805035 53.789090 -0.714256 0.961000 0.104983 -0.028008 100217.000000 0 0 1
-33.558216 30.311671 30.720685 54.669111 -0.734611 0.974069 0.105891 -0.027769 2879.910000 0 0 1
-33.201046 31.004771 29.388965 54.104681 -0.751205 0.996568 0.117450 -0.031546 540853.000000 0 0 1
-31.787956 30.987071 29.192225 53.130582 -0.772641 0.989099 0.100353 -0.023414 438566.000000 0 0 1
-31.522786 31.779671 28.059735 52.829748 -0.789456 1.010857 0.084627 -0.012254 -699501.000000 0 0 1
-30.098556 31.727371 27.551385 51.687793 -0.811737 1.008613 0.093357 -0.013232 -1004260.000000 0 0 1
-29.785546 30.443071 26.958785 50.405708 -0.796315 1.006483 0.115755 -0.015001 564156.000000 0 0 1
-28.594546 30.461571 26.159755 49.293896 -0.817002 1.011382 0.087360 -0.007626 395441.000000 0 0 1
-28.539406 31.290371 24.860905 49.108549 -0.831346 1.039973 0.083748 -0.014781 -301707.000000 0 0 1
-28.856516 32.637871 25.021915 50.239679 -0.846812 1.049447 0.060726 -0.015658 44782.300000 0 0 1
-29.811096 33.142571 24.120275 50.684506 -0.838268 1.074820 0.070362 -0.016993 -105215.000000 0 0 1
-30.284916 -33.182156 24.495705 51.169045 0.831016 1.071599 0.074951 -0.022313 -196083.000000 0 0 1
-30.869596 -33.127756 25.758675 52.095005 0.820669 1.053588 0.081978 -0.027903 71788.600000 0 0 1
-31.044796 -31.851256 26.308135 51.675912 0.798220 1.036659 0.066083 -0.028130 -298105.000000 0 0 1
-31.495276 -31.911956 27.770165 52.739998 0.791970 1.016261 0.080920 -0.032348 1670910.000000 0 0 1
-32.852766 -32.448056 27.986975 53.994920 0.779201 1.025904 0.077016 -0.034698 1776500.000000 0 0 1
-33.114076 -32.585956 29.389425 54.973856 0.777360 1.006753 0.077016 -0.031604 406157.000000 0 0 1
-34.563359 -33.022256 29.751515 56.304954 0.762600 1.014082 0.091101 -0.033128 438197.000000 0 0 1
-34.706287 -33.076956 31.122385 57.159551 0.761365 0.995024 0.086945 -0.037031 622365.000000 0 0 1
-36.084476 -33.345656 31.428725 58.324840 0.745971 1.001717 0.094432 -0.037586 848462.000000 0 0 1
-36.337556 33.834671 32.849920 59.534193 -0.749746 0.986296 0.118314 -0.029441 181116.000000 0 0 1
-35.815896 32.505771 32.939014 58.518221 -0.736987 0.972924 0.085618 -0.020637 2210.410000 0 0 1
-36.581816 31.778171 -33.758551 59.056931 -0.715244 2.179284 0.110798 -0.029608 313860.000000 0 0 1
-35.972357 30.418371 -33.284241 57.681266 -0.701936 2.185893 0.098640 -0.019808 191142.000000 0 0 1
-35.065811 30.579271 -32.211491 56.588718 -0.717159 2.176354 0.103071 -0.025503 -461226.000000 0 0 1
-34.490593 29.291771 -31.967771 55.403495 -0.704069 2.185846 0.076100 -0.015986 327034.000000 0 0 1
-33.514856 29.345271 -30.733801 54.119839 -0.719164 2.174729 0.069901 -0.011637 -303883.000000 0 0 1
-34.040245 29.530371 -29.482111 53.851425 -0.714574 2.150136 0.095940 -0.023777 -813012.000000 0 0 1
-34.341040 30.892571 -29.201421 54.647790 -0.732584 2.134543 0.082400 -0.027173 373261.000000 0 0 1
-35.619222 31.182171 -28.369401 55.189489 -0.719074 2.110680 0.075433 -0.029367 391916.000000 0 0 1
-35.464225 30.833671 -26.982641 54.189385 -0.715667 2.092009 0.057711 -0.044038 927482.000000 0 0 1
-36.714106 31.106571 -26.286971 54.832008 -0.702904 2.070778 0.113660 -0.044962 1163200.000000 0 0 1
-36.625276 30.647671 -24.868901 53.843781 -0.696775 2.050900 0.100521 -0.051605 -68577.600000 0 0 1
-36.084046 31.694371 -24.052201 53.713126 -0.720723 2.035088 0.098747 -0.056781 37862.600000 0 0 1
-36.018256 31.464471 -22.692901 52.936712 -0.718020 2.013827 0.089155 -0.057822 -186831.000000 0 0 1
-37.367356 31.270071 -21.946301 53.439468 -0.696798 1.993992 0.063790 -0.052083 221861.000000 0 0 1
37.100418 32.311871 -22.007001 53.896253 0.716520 1.991411 0.061795 -0.055340 298110.000000 0 0 1
37.535878 33.586471 -21.402001 54.726948 0.729925 1.972589 0.072072 -0.061419 -233824.000000 0 0 1
37.647348 33.625571 -19.887601 54.254203 0.729030 1.946109 0.063528 -0.050032 -114690.000000 0 0 1
-36.790326 32.708471 -19.528901 52.959891 -0.726733 1.948459 0.055326 -0.051376 -271001.000000 0 0 1
-36.710306 32.553071 -18.111001 52.300644 -0.725449 1.924406 0.048957 -0.028991 -342507.000000 0 0 1
-35.634060 31.525571 -17.788301 50.794404 -0.724299 1.928583 0.080335 -0.033058 -257100.000000 0 0 1
-35.505335 31.258571 -16.415201 50.071807 -0.721875 1.904805 0.045512 -0.009337 1000450.000000 0 0 1
-34.406908 30.305471 -16.242601 48.642358 -0.722103 1.911254 0.072861 -0.009540 678446.000000 0 0 1
-33.862476 30.077071 -14.876401 47.671845 -0.726264 1.888155 0.077751 -0.001743 -22445.200000 0 0 1
-34.885703 29.616371 -14.010701 47.858557 -0.703887 1.867900 0.056450 0.006536 200152.000000 0 0 1
-34.327291 29.131371 -12.772901 46.799003 -0.703702 1.847235 0.090946 0.006583 325939.000000 0 0 1
-35.372558 28.531471 -11.806901 46.953867 -0.678752 1.824982 0.087755 -0.008133 384212.000000 0 0 1
-34.687520 27.818971 -10.766901 45.749812 -0.675952 1.808368 0.113225 -0.010505 691974.000000 0 0 1
-35.594369 27.043971 -9.987201 45.804799 -0.649732 1.790600 0.123130 -0.026184 190506.000000 0 0 1
-34.832268 26.316171 -8.889301 44.551626 -0.647019 1.771673 0.148574 -0.030107 123334.000000 0 0 1
-34.475691 27.297171 -7.885601 44.675401 -0.669709 1.748235 0.136651 -0.035210 -142433.000000 0 0 1
-33.241566 26.955571 -7.320401 43.418807 -0.681352 1.740205 0.144047 -0.039646 -442216.000000 0 0 1
-32.812546 27.956471 -6.228001 43.554740 -0.705657 1.714281 0.153420 -0.037850 -613349.000000 0 0 1
-31.776356 27.463771 -5.457601 42.353051 -0.712728 1.700015 0.174555 -0.032830 -499197.000000 0 0 1
-31.843986 27.816371 -4.116701 42.482198 -0.717991 1.667853 0.159854 -0.037782 -401674.000000 0 0 1
-30.990776 27.034971 -3.173801 41.247919 -0.717330 1.647817 0.172565 -0.034586 -344262.000000 0 0 1
-31.634546 25.791671 -3.000601 40.926255 -0.684001 1.644179 0.163832 -0.033123 190081.000000 0 0 1
-30.768066 24.829171 -2.468501 39.613825 -0.678982 1.633151 0.151111 -0.039062 -255509.000000 0 0 1
-31.531916 23.620471 -2.020701 39.449608 -0.642923 1.622041 0.133767 -0.043384 -275293.000000 0 0 1
-31.871766 22.668471 -3.036801 39.228704 -0.618230 1.648287 0.142365 -0.042456 -444917.000000 0 0 1
-32.663566 21.724871 -2.396601 39.301682 -0.586924 1.631814 0.131564 -0.047681 -349657.000000 0 0 1
-33.189406 20.699271 -3.432401 39.265479 -0.557643 1.658323 0.155852 -0.035535 143019.000000 0 0 1
-32.196506 19.848671 -4.015201 38.035596 -0.552453 1.676558 0.151259 -0.032032 94951.400000 0 0 1
-32.700696 19.024071 -5.035101 38.165469 -0.526902 1.703110 0.136424 -0.031653 257201.000000 0 0 1
-31.628826 17.972371 -5.501401 36.792039 -0.516730 1.720886 0.124437 -0.041196 339178.000000 0 0 1
-31.297586 17.043571 -4.459401 35.915295 -0.498661 1.695282 0.171535 -0.034394 -57454.800000 0 0 1
-30.713726 15.982671 -5.142101 35.003142 -0.479815 1.718234 0.165851 -0.042604 -281825.000000 0 0 1
-30.192566 14.819271 -4.259101 33.901943 -0.456281 1.696759 0.169976 -0.030498 -11827.100000 0 0 1
-31.208606 14.033871 -3.655701 34.413526 -0.422587 1.677226 0.177523 -0.031691 391511.000000 0 0 1
-30.635766 12.882271 -3.175901 33.385467 -0.398051 1.666069 0.190321 -0.040346 515193.000000 0 0 1
-31.760256 12.043771 -2.437801 34.054502 -0.362456 1.642443 0.186221 -0.035806 1022150.000000 0 0 1
-32.672956 11.513971 -3.409101 34.809704 -0.338812 1.668889 0.157100 -0.015842 409811.000000 0 0 1
-33.598266 10.607071 -2.862401 35.348928 -0.305800 1.651861 0.170127 -0.019167 399822.000000 0 0 1
-34.669974 10.045971 -3.877201 36.303737 -0.282036 1.677799 0.122650 -0.019207 367253.000000 0 0 1
-34.180251 9.124571 -4.807801 35.702413 -0.260871 1.705870 0.121219 -0.016121 138568.000000 0 0 1
-35.243858 8.534771 -5.517701 36.679924 -0.237590 1.721798 0.121946 -0.011776 -76661.800000 0 0 1
-34.805972 7.561171 -6.650501 36.233357 -0.213914 1.755389 0.132834 -0.015798 -340631.000000 0 0 1
-34.471979 6.282871 -6.217801 35.587256 -0.180281 1.746418 0.129095 -0.007209 336312.000000 0 0 1
-34.295180 5.309071 -7.238101 35.450468 -0.153586 1.776417 0.116755 -0.012028 -386495.000000 0 0 1
-33.242076 4.259271 -6.835801 34.203876 -0.127435 1.772006 0.133358 -0.018785 -763475.000000 0 0 1
-31.928046 4.706571 -6.837701 32.989484 -0.146358 1.779579 0.154480 -0.017485 -309232.000000 0 0 1
-31.062316 3.644771 -6.483501 31.940376 -0.116803 1.775204 0.148204 -0.026994 975543.000000 0 0 1
-29.563446 3.992371 -6.132101 30.455525 -0.134232 1.773528 0.210633 -0.025681 1587700.000000 0 0 1
-28.695596 4.349771 -7.244601 29.913909 -0.150438 1.815410 0.205149 -0.018640 522028.000000 0 0 1
-27.356606 4.425871 -6.804101 28.535381 -0.160395 1.811560 0.239170 -0.034202 737172.000000 0 0 1
-26.333406 4.952471 -7.904901 27.936762 -0.185897 1.857672 0.236081 -0.032860 509444.000000 0 0 1
-26.227896 4.028571 -8.984701 28.015295 -0.152408 1.897272 0.211219 -0.043989 572019.000000 0 0 1
-25.216436 4.488071 -9.884201 27.453758 -0.176138 1.939097 0.205084 -0.045009 315623.000000 0 0 1
-25.390406 3.756071 -11.256401 28.026547 -0.146868 1.984096 0.174462 -0.049425 110752.000000 0 0 1
-26.485756 4.267171 -11.991201 29.385250 -0.159739 1.991134 0.184945 -0.032860 336689.000000 0 0 1
-26.600096 3.497871 -13.180301 29.891814 -0.130748 2.027435 0.170705 -0.035682 192332.000000 0 0 1
-27.642896 4.157871 -14.118601 31.316968 -0.149295 2.038490 0.147852 -0.028833 -533354.000000 0 0 1
-27.192046 5.364071 -14.670301 31.359183 -0.194766 2.057613 0.127971 -0.030409 361180.000000 0 0 1
-28.110846 6.163271 -15.422701 32.650655 -0.215834 2.062757 0.166564 -0.036798 -143710.000000 0 0 1
-28.817786 5.529071 -16.587201 33.707130 -0.189560 2.085294 0.109867 -0.021737 -657492.000000 0 0 1
-29.890326 4.679371 -16.309501 34.370451 -0.155291 2.065216 0.136496 -0.037941 -704973.000000 0 0 1
-30.548886 4.394071 -17.486001 35.472560 -0.142858 2.086267 0.137350 -0.020691 -238876.000000 0 0 1
-31.936176 3.793071 -17.173301 36.458592 -0.118217 2.061261 0.149231 -0.029611 -259178.000000 0 0 1
-31.819666 2.556471 -16.456401 35.914340 -0.080170 2.046779 0.160928 -0.042151 202503.000000 0 0 1
-31.558066 1.359871 -17.169201 35.951943 -0.043064 2.068672 0.184961 -0.040317 2834.210000 0 0 1
-31.655716 0.179871 -16.170101 35.546995 -0.005682 2.043049 0.175780 -0.036854 -140773.000000 0 0 1
-31.221386 -1.060629 -16.686101 35.416462 0.033958 2.061379 0.177764 -0.033838 246505.000000 0 0 1
-31.409316 -2.050429 -15.711901 35.179727 0.065188 2.033778 0.191124 -0.044883 -47875.600000 0 0 1
-31.246956 -3.511729 -16.262801 35.400327 0.111917 2.048112 0.190006 -0.035225 -210155.000000 0 0 1
-32.262716 -3.714029 -17.195701 36.747367 0.114614 2.057759 0.183961 -0.039621 95173.700000 0 0 1
-31.956406 -4.729929 -18.129701 37.044165 0.146945 2.082207 0.188541 -0.035923 269962.000000 0 0 1
-33.030446 -4.730429 -19.264401 38.529267 0.142247 2.094388 0.196318 -0.034662 246568.000000 0 0 1
-33.110826 -5.880329 -20.024501 39.139311 0.175763 2.107867 0.192930 -0.029978 82514.500000 0 0 1
-34.099031 -5.774629 -21.011901 40.467150 0.167757 2.116750 0.191958 -0.029969 -256544.000000 0 0 1
-34.008145 -7.053529 -21.907001 41.063644 0.204507 2.133517 0.191778 -0.023456 185332.000000 0 0 1
-32.732736 -7.101929 -22.519501 40.360839 0.213656 2.162715 0.171462 -0.021595 162222.000000 0 0 1
-32.543436 -8.172029 -23.448001 40.934900 0.246024 2.180729 0.145475 -0.009042 -637559.000000 0 0 1
-31.150386 -8.178829 -24.055201 40.198165 0.256764 2.212318 0.121992 -0.006786 -718925.000000 0 0 1
-30.788266 -6.933629 -24.577701 40.000699 0.221508 2.232462 0.111892 -0.008421 -77477.900000 0 0 1
-30.702386 -6.925529 -25.993761 40.820032 0.221857 2.261123 0.077178 -0.001793 -248905.000000 0 0 1
-32.060576 -6.717129 -26.691431 42.254382 0.206526 2.254520 0.101036 -0.008882 22143.100000 0 0 1
-32.853296 -7.897629 -26.638011 43.026680 0.235914 2.238398 0.098265 -0.004866 -390317.000000 0 0 1
-34.022484 -7.858829 -27.407971 44.390173 0.227008 2.236272 0.090154 -0.001475 -127666.000000 0 0 1
-34.971889 -9.015829 -27.042931 45.118049 0.252308 2.213525 0.089543 -0.004911 -848840.000000 0 0 1
-34.558601 -10.280829 -27.362251 45.262403 0.289152 2.219966 0.094202 0.001978 -165076.000000 0 0 1
-35.490702 -11.357829 -27.202351 46.136299 0.309724 2.201370 0.075321 -0.002436 1085550.000000 0 0 1
-36.773506 -11.369729 -28.140211 47.680530 0.299860 2.202081 0.043163 0.002603 946850.000000 0 0 1
37.708298 -10.344129 -27.833451 47.996018 -0.267734 2.189417 0.040879 -0.005915 212018.000000 0 0 1
36.731378 -10.287829 -28.858461 47.831416 -0.273086 2.218475 0.043707 -0.016571 127062.000000 0 0 1
35.721358 -9.112529 -28.728291 46.737226 -0.249773 2.232773 0.074821 -0.010876 -609021.000000 0 0 1
34.831958 -9.368029 -27.726601 45.494941 -0.262732 2.226155 0.058375 -0.003800 -1016460.000000 0 0 1
33.952588 -8.282429 -27.563671 44.509918 -0.239268 2.238609 0.039634 0.003832 14496.100000 0 0 1
32.655158 -8.646829 -26.809961 43.126570 -0.258851 2.241653 0.033419 0.003987 81166.800000 0 0 1
32.874038 -8.964429 -25.478491 42.546643 -0.266218 2.212844 0.012677 0.021482 -550729.000000 0 0 1
31.661878 -9.330729 -24.914501 41.355403 -0.286587 2.217362 -0.004136 0.021607 -506774.000000 0 0 1
31.835738 -9.402629 -23.386501 40.606060 -0.287184 2.184545 -0.013250 0.017285 -103994.000000 0 0 1
32.307968 -10.648929 -22.968701 41.045898 -0.318393 2.164682 -0.024567 0.017533 -15849.600000 0 0 1
32.365598 -10.682129 -21.557901 40.328438 -0.318789 2.134781 -0.005223 0.008382 -107548.000000 0 0 1
33.106808 -11.898629 -20.985601 40.963808 -0.345025 2.108653 0.030807 0.007654 -877535.000000 0 0 1
34.483828 -11.773829 -21.017801 42.065489 -0.329020 2.093985 0.033561 0.008972 -1279490.000000 0 0 1
35.129198 -12.697029 -20.162201 42.447490 -0.346828 2.065751 0.067309 0.001404 326224.000000 0 0 1
36.654328 -12.831129 -20.487501 43.908033 -0.336726 2.056239 0.100988 -0.009698 387723.000000 0 0 1
37.479558 -11.682129 -20.445801 44.263079 -0.302150 2.050950 0.136074 -0.007924 421518.000000 0 0 1
37.187358 -10.735329 -21.476201 44.264818 -0.281041 2.077360 0.140398 0.001672 -1098740.000000 0 0 1
-37.546506 -11.009229 -22.841101 45.306281 0.285221 2.099192 0.094150 0.002516 180086.000000 0 0 1
37.449438 -12.213929 -23.580201 45.909327 -0.315267 2.110201 0.087770 0.004461 7457.260000 0 0 1
36.172238 -12.161329 -24.149501 45.161124 -0.324334 2.134997 0.105891 0.010417 -481776.000000 0 0 1
35.907918 -13.367129 -25.085501 45.796736 -0.356367 2.150478 0.054870 -0.009687 -143351.000000 0 0 1
35.965698 -14.683629 -24.472401 45.913384 -0.387613 2.132953 0.046337 -0.016153 437505.000000 0 0 1
34.925868 -14.864429 -23.528001 44.657971 -0.402378 2.125685 0.020126 -0.005153 -221330.000000 0 0 1
-30.668286 8.641171 -18.357501 36.772427 -0.274642 2.093494 0.102435 -0.004397 -442621.000000 0 0 1
-29.473766 7.932571 -18.400601 35.640015 -0.262910 2.113310 0.095978 -0.005661 -648515.000000 0 0 1
-28.892256 8.163571 -19.667001 35.891465 -0.275374 2.150717 0.107662 -0.027570 1050870.000000 0 0 1
-27.706516 7.183371 -20.114801 34.983668 -0.253681 2.183372 0.095235 -0.029005 1291650.000000 0 0 1
-26.493936 7.341171 -19.382801 33.637990 -0.270307 2.184889 0.095475 -0.029882 900711.000000 0 0 1
-25.553336 6.337271 -19.833001 32.961825 -0.243097 2.216419 0.114658 -0.036766 355303.000000 0 0 1
-24.087676 6.574371 -19.433701 31.640278 -0.266445 2.232178 0.070794 -0.033766 22384.300000 0 0 1
-23.428076 7.655271 -20.075701 31.788546 -0.315820 2.254333 0.068719 -0.033350 -45623.200000 0 0 1
-22.130976 7.843771 -19.556001 30.557192 -0.340611 2.265269 0.071940 -0.036224 -205773.000000 0 0 1
-21.472576 9.124571 -20.036701 30.753840 -0.401820 2.280381 0.085517 -0.022685 -397227.000000 0 0 1
-20.914776 8.935771 -21.331501 31.181866 -0.403772 2.324165 0.116187 -0.037464 90795.200000 0 0 1
-20.577276 10.094171 -21.993601 31.765312 -0.456059 2.335576 0.094452 -0.035774 82244.900000 0 0 1
-19.438676 9.798971 -23.014901 31.679135 -0.466920 2.384012 0.129922 -0.021340 96457.300000 0 0 1
-19.863176 8.966471 -24.061401 32.463739 -0.424027 2.405619 0.113290 -0.017498 815894.000000 0 0 1
-18.751976 8.453771 -24.839101 32.250330 -0.423536 2.449946 0.090625 -0.012500 471994.000000 0 0 1
-19.204776 7.424071 -25.891441 33.080311 -0.368879 2.469763 0.060928 -0.010934 -127799.000000 0 0 1
-19.610776 6.214971 -25.274371 32.588375 -0.306903 2.458404 0.087959 -0.013239 382773.000000 0 0 1
-20.075076 5.242771 -26.222781 33.438444 -0.255453 2.472219 0.077730 -0.019506 -419575.000000 0 0 1
-20.398176 3.939471 -25.460851 32.861222 -0.190780 2.457194 0.071423 -0.005611 172738.000000 0 0 1
-19.373076 3.019871 -25.113521 31.861020 -0.154635 2.478709 0.062297 -0.003369 34820.900000 0 0 1
-18.357676 3.407271 -24.226301 30.586392 -0.183516 2.484975 0.063126 -0.014402 -438873.000000 0 0 1
-17.606576 2.117871 -23.743901 29.635278 -0.119713 2.500101 0.058256 -0.008775 85366.500000 0 0 1
-18.173876 1.269171 -22.696501 29.103809 -0.069722 2.465217 0.064698 -0.010158 435074.000000 0 0 1
-19.450176 0.715971 -22.979501 30.114438 -0.036794 2.438850 0.061109 -0.006482 138999.000000 0 0 1
-19.970076 -0.192529 -21.840001 29.594368 0.009641 2.400866 0.083539 -0.007752 243718.000000 0 0 1
-19.053476 -1.251729 -21.566201 28.804562 0.065601 2.416907 0.082638 -0.008259 668428.000000 0 0 1
-19.523776 -2.004029 -20.423301 28.324992 0.102287 2.376091 0.088751 -0.005294 64815.200000 0 0 1
-18.882576 -3.404329 -20.213901 27.870108 0.178373 2.382251 0.073456 -0.020618 -42684.600000 0 0 1
-19.166076 -4.287329 -21.307601 28.978156 0.220071 2.396904 0.076127 -0.028581 375164.000000 0 0 1
-19.364876 -5.659529 -20.960401 29.092389 0.284338 2.375286 0.084396 -0.028198 -234258.000000 0 0 1
-19.506376 -6.510729 -22.213401 30.270835 0.322147 2.394727 0.058396 -0.039053 -416969.000000 0 0 1
-18.285476 -6.820129 -22.826301 30.031863 0.356999 2.434216 0.058208 -0.023663 -183825.000000 0 0 1
-18.437976 -7.838929 -23.818101 31.124101 0.401999 2.442245 0.075557 -0.033087 107427.000000 0 0 1
-17.062876 -8.053429 -24.472101 30.901184 0.440986 2.484788 0.067285 -0.031817 -640439.000000 0 0 1
-17.057876 -8.890029 -25.611561 32.030545 0.480439 2.497422 0.082797 -0.059893 1293070.000000 0 0 1
-15.782976 -9.032429 -26.337541 32.005517 0.519795 2.537304 0.086984 -0.061591 1412050.000000 0 0 1
-14.681276 -9.774829 -25.563831 31.057955 0.587404 2.537646 0.073127 -0.054518 -725282.000000 0 0 1
-13.937976 -9.057229 -24.605701 29.694125 0.576251 2.547468 0.078001 -0.039379 240199.000000 0 0 1
-12.917176 -9.845829 -24.027101 29.001644 0.651281 2.547173 0.064840 -0.033046 763613.000000 0 0 1
-12.019076 -9.071929 -22.949101 27.448485 0.646562 2.560893 0.080666 -0.030598 545140.000000 0 0 1
-12.659776 -8.895429 -21.703401 26.654009 0.612504 2.522257 0.076375 -0.028445 -17829.800000 0 0 1
-11.785676 -8.240729 -20.832601 25.314206 0.610199 2.537400 0.076602 -0.025120 -931232.000000 0 0 1
-12.309176 -8.055129 -19.372601 24.324855 0.579462 2.492135 0.063445 -0.018367 259010.000000 0 1 0
-13.322776 -7.060929 -19.247901 24.450660 0.487350 2.477074 0.065849 -0.013348 1333500.000000 0 1 0
-14.654176 -7.530329 -19.584901 25.593340 0.474681 2.442201 0.072023 -0.023891 336462.000000 0 0 1
-15.702376 -6.444629 -19.352101 25.741050 0.389460 2.421583 0.066290 -0.012685 -385800.000000 0 0 1
-16.116076 -6.193629 -17.997201 24.939691 0.366911 2.376949 0.054213 -0.011251 601107.000000 0 1 0
-15.351576 -5.161229 -17.351301 23.735560 0.324330 2.390620 0.057709 -0.018601 -377849.000000 0 1 0
-15.366676 -4.985529 -15.811901 22.605451 0.313723 2.345456 0.087092 -0.008396 -400330.000000 0 1 0
-16.486076 -4.395229 -15.194601 22.846983 0.260542 2.298370 0.099607 -0.015458 -173692.000000 0 1 0
-16.664676 -3.047029 -15.576901 23.013814 0.180846 2.314271 0.046899 -0.014102 -365853.000000 0 1 0
-17.886376 -2.555629 -14.780801 23.343645 0.141921 2.256455 0.044256 -0.015918 -192246.000000 0 1 0
-17.766276 -2.645229 -13.387201 22.402119 0.147805 2.211284 0.077446 -0.025605 406349.000000 0 1 0
-18.795176 -1.876829 -12.793101 22.813254 0.099527 2.166118 0.077330 -0.028483 -88597.100000 0 1 0
-18.320276 -0.623829 -12.043601 21.933308 0.034038 2.152084 0.082839 -0.028061 -84760.000000 0 1 0
-17.832476 0.369871 -12.954901 22.044579 -0.020738 2.198970 0.095616 -0.029134 613222.000000 0 1 0
-17.035576 1.286971 -12.214501 21.001456 -0.075403 2.191494 0.102871 -0.026364 -865753.000000 0 1 0
-16.556776 2.394571 -13.193701 21.305739 -0.143632 2.238591 0.108299 -0.029052 160198.000000 0 1 0
-15.730476 1.902371 -14.237101 21.301688 -0.120351 2.302792 0.095114 -0.029475 -383184.000000 0 1 0
-14.418976 1.624471 -13.868901 20.072174 -0.112189 2.333601 0.085655 -0.024382 -1196440.000000 0 1 0
-13.676976 0.679171 -14.898301 20.235620 -0.049617 2.398296 0.072844 -0.025812 113445.000000 0 1 0
-13.473776 1.265771 -16.168401 21.084639 -0.093668 2.444689 0.081791 -0.027130 285075.000000 0 1 0
-12.945176 0.263471 -17.043801 21.404162 -0.020350 2.491924 0.049314 -0.016126 28160.500000 0 1 0
-12.386976 0.853571 -18.373801 22.175714 -0.068800 2.547318 0.070145 -0.019577 -85989.100000 0 1 0
-11.114276 1.418071 -18.151001 21.330656 -0.126904 2.588559 0.044197 -0.018291 -507409.000000 0 1 0
-10.681776 1.949871 -19.357201 22.194674 -0.180554 2.630387 0.050078 -0.014234 44036.600000 0 1 0
-9.330576 2.686871 -19.360301 21.658720 -0.280378 2.676723 0.045621 -0.012206 -1327990.000000 0 1 0
-8.223676 1.842171 -19.256001 21.019420 -0.220370 2.729052 0.047436 -0.014278 564672.000000 0 1 0
-6.941576 2.525871 -19.209201 20.580547 -0.348982 2.774478 0.039635 -0.007532 1321170.000000 0 1 0
-6.644776 3.500171 -20.405101 21.743330 -0.484822 2.788921 0.048161 0.003360 -1440640.000000 0 1 0
-6.409976 2.872771 -21.662701 22.773081 -0.421333 2.828033 0.049068 0.000303 264866.000000 0 1 0
-6.139676 3.903471 -22.667501 23.806476 -0.566312 2.831014 0.052336 0.007748 -114402.000000 0 1 0
-5.452276 3.353471 -23.926901 24.768320 -0.551419 2.880190 0.078354 -0.010860 257942.000000 0 1 0
-4.108976 2.938371 -23.713201 24.245280 -0.620795 2.931705 0.084763 -0.017068 78304.300000 0 1 0
-3.591976 2.449371 -24.917701 25.294140 -0.598475 2.968853 0.119040 -0.019554 -645523.000000 0 0 1
-2.200476 1.872971 -24.801001 24.968776 -0.705171 3.025602 0.076556 -0.018703 -1367710.000000 0 1 0
-1.168676 2.791771 -24.574601 24.760266 -1.174347 3.019054 0.064118 -0.015508 503965.000000 0 1 0
0.146124 2.233471 -24.680201 24.781486 1.505465 3.051150 0.053695 -0.011887 672268.000000 0 1 0
0.731324 1.271571 -23.615601 23.661114 1.048861 3.079558 0.055043 -0.018618 -845605.000000 0 1 0
0.167824 0.010371 -23.580301 23.580900 0.061719 3.134462 0.053480 -0.022387 -106908.000000 0 1 0
0.835524 -0.780329 -22.596901 22.625803 -0.751253 3.091043 0.051238 -0.022130 -387508.000000 0 1 0
0.399824 -2.269529 -22.472001 22.589853 -1.396415 3.039401 0.059859 -0.033819 -476712.000000 0 1 0
-0.781576 -2.512329 -21.757601 21.916109 1.269191 3.021249 0.056224 -0.036368 -483460.000000 0 1 0
-1.957376 -2.621429 -22.526901 22.763226 0.929422 2.997371 0.065134 -0.034370 -67594.700000 0 1 0
-2.829776 -1.375429 -22.583001 22.801126 0.452430 3.003161 0.068265 -0.033976 -1095360.000000 0 1 0
-3.497676 -1.056429 -21.382201 21.692125 0.293325 2.972350 0.055301 -0.030884 886088.000000 0 1 0
-4.490976 0.013071 -21.374901 21.841598 -0.002911 2.934499 0.052775 -0.027240 1548000.000000 0 1 0
-5.801776 -0.210029 -22.192601 22.939404 0.036185 2.885727 0.063586 -0.020416 60609.500000 0 1 0
-6.632976 -1.261029 -21.728601 22.753432 0.187873 2.840319 0.067663 -0.016106 345714.000000 0 1 0
-7.989676 -0.950329 -22.014601 23.438871 0.118388 2.791190 0.055442 -0.009482 755857.000000 0 1 0
-9.072476 -1.983329 -21.538701 23.455469 0.215224 2.734512 0.057195 -0.010911 365666.000000 0 1 0
-9.161076 -3.110729 -22.395001 24.395450 0.327343 2.733802 0.096680 -0.023531 -26925.400000 0 1 0
-9.735776 -4.169029 -21.645101 24.097231 0.404593 2.686545 0.080197 -0.030762 -517337.000000 0 1 0
-10.511976 -5.161329 -22.509601 25.373669 0.456418 2.661873 0.077353 -0.031074 -1107140.000000 0 0 1
-11.843976 -4.833829 -22.452301 25.840888 0.387491 2.623706 0.064312 -0.028964 -937034.000000 0 0 1
-12.742976 -5.626629 -23.201901 27.062346 0.415803 2.600895 0.056217 -0.035464 112879.000000 0 0 1
-14.242176 -5.554629 -22.880501 27.517463 0.371867 2.552581 0.063896 -0.030696 -10003.900000 0 0 1
-14.811776 -4.336429 -23.309001 27.955372 0.284810 2.556740 0.064568 -0.030677 820093.000000 0 0 1
-16.234576 -4.250329 -23.090801 28.544909 0.256060 2.513124 0.074906 -0.025569 1170930.000000 0 0 1
-16.800576 -2.902529 -23.680401 29.179537 0.171075 2.517582 0.066122 -0.022035 -210398.000000 0 0 1
-16.474276 -2.747129 -25.065601 30.120306 0.165232 2.553829 0.055671 -0.029179 189527.000000 0 0 1
-16.822076 -1.504529 -25.626241 30.691205 0.089200 2.558875 0.049528 -0.017546 73751.900000 0 0 1
-18.303376 -1.259529 -26.054901 31.866249 0.068706 2.528084 0.060737 -0.014682 240440.000000 0 0 1
-18.674576 -1.790629 -27.310381 33.133111 0.095594 2.539695 0.059341 -0.025397 41319.600000 0 0 1
-18.418476 -0.940829 -28.414661 33.875040 0.051036 2.565887 0.039341 -0.018274 -344006.000000 0 0 1
-18.516376 -1.630929 -29.793911 35.116851 0.087854 2.583793 0.035134 -0.017804 64415.000000 0 0 1
-19.804276 -1.961829 -30.264011 36.221105 0.098739 2.559903 0.041613 -0.022091 83829.800000 0 0 1
-19.741476 -2.384829 -31.619021 37.352051 0.120220 2.580198 0.048202 -0.029912 -204479.000000 0 0 1
-21.084476 -3.017029 -32.117511 38.538190 0.142128 2.556018 0.028292 -0.020724 943927.000000 0 0 1
-22.152976 -2.129229 -32.470051 39.364859 0.095820 2.540731 0.025169 -0.024484 594138.000000 0 0 1
-22.856576 -1.679329 -31.331781 38.819115 0.073341 2.510058 0.021365 -0.006729 -449997.000000 0 0 1
-23.863576 -0.527729 -31.676931 39.663291 0.022111 2.495838 0.026672 -0.007862 111823.000000 0 0 1
-23.264676 0.635571 -32.167721 39.704047 -0.027312 2.515268 0.030973 -0.017648 147390.000000 0 0 1
-24.219776 1.482671 -32.736621 40.749015 -0.061141 2.503733 0.023026 -0.017947 39991.000000 0 0 1
-23.509976 2.821271 -33.191981 40.772370 -0.119432 2.521940 0.030404 -0.021720 -503430.000000 0 0 1
-23.231776 3.804471 -32.139351 39.838766 -0.162321 2.509403 0.019456 -0.020373 828234.000000 0 0 1
-24.340576 4.275471 -31.349901 39.919413 -0.173878 2.474025 0.026888 -0.019424 381566.000000 0 0 1
-25.546616 4.951171 -32.078421 41.305796 -0.191436 2.460060 0.030168 -0.024886 -248606.000000 0 0 1
-26.382856 3.939471 -32.652681 42.163634 -0.148224 2.456606 0.050734 -0.038388 -308634.000000 0 0 1
-27.424266 4.703571 -33.196731 43.315550 -0.169859 2.444003 0.076314 -0.042838 -575704.000000 0 0 1
-28.575716 3.902071 33.810155 44.440120 -0.135713 0.706248 0.098807 -0.037182 -92546.300000 0 0 1
-28.293156 3.456171 32.483279 43.215867 -0.121554 0.720234 0.100767 -0.032869 115944.000000 0 0 1
-29.439026 2.880371 31.916852 43.515954 -0.097531 0.747410 0.109021 -0.036620 -531185.000000 0 0 1
-29.550156 1.330871 32.086538 43.640908 -0.045007 0.744776 0.110641 -0.020299 -755669.000000 0 0 1
-30.018546 0.862871 33.340459 44.871415 -0.028737 0.733221 0.118780 -0.016708 322781.000000 0 0 1
-30.016536 -0.564329 33.331758 44.858856 0.018798 0.733200 0.108524 -0.011753 -616082.000000 0 0 1
-30.274056 -1.113729 -32.834601 44.675159 0.036772 2.396409 0.086686 -0.012051 367606.000000 0 0 1
-29.127156 -1.388729 -32.021971 43.309657 0.047642 2.402934 0.094062 -0.018918 609188.000000 0 0 1
-28.296696 -0.281529 -31.743691 42.525806 0.009949 2.413518 0.088281 -0.017518 -328034.000000 0 0 1
-28.259166 0.021971 -30.249981 41.396162 -0.000777 2.390207 0.105048 -0.013277 225417.000000 0 0 1
-27.354836 -0.855629 -29.539871 40.269382 0.031269 2.394337 0.074158 -0.013578 753837.000000 0 0 1
-27.199416 -0.508729 -28.167011 39.159258 0.018701 2.373582 0.091949 -0.009979 237249.000000 0 0 1
-26.009046 -1.283729 -27.482931 37.860664 0.049317 2.383134 0.084916 -0.010479 372701.000000 0 0 1
-26.210306 -2.625929 -27.116791 37.804708 0.099854 2.370696 0.069879 -0.007056 -575663.000000 0 0 1
-25.237716 -3.027029 -26.232481 36.527363 0.119370 2.371950 0.072925 -0.014150 -886281.000000 0 0 1
-25.554306 -4.341329 -25.456071 36.330169 0.168280 2.347156 0.064729 -0.018284 213842.000000 0 0 1
-26.709166 -4.185929 -24.648601 36.584902 0.155458 2.310051 0.088607 -0.016214 -74785.300000 0 0 1
-26.921196 -5.378929 -23.892901 36.394428 0.197206 2.286964 0.071677 -0.013918 799688.000000 0 0 1
-28.218516 -5.391429 -22.993901 36.797712 0.188785 2.245765 0.096157 -0.018245 747974.000000 0 0 1
-28.345196 -6.492929 -22.078701 36.511331 0.225181 2.220196 0.093971 -0.021996 751127.000000 0 0 1
-29.500726 -6.219729 -21.235801 36.877325 0.207790 2.184440 0.142817 -0.021408 886498.000000 0 0 1
-29.826076 -7.353529 -20.251901 36.794139 0.241726 2.153653 0.155903 -0.030690 -197994.000000 0 0 1
-28.848866 -7.622329 -19.269501 35.520003 0.258313 2.144203 0.145917 -0.032680 -13006.800000 0 0 1
-29.176596 -8.605329 -18.309701 35.504515 0.286808 2.112622 0.168934 -0.037406 257926.000000 0 0 1
-29.787456 -8.083329 -16.943601 35.209634 0.264985 2.072843 0.164189 -0.038644 105247.000000 0 0 1
-28.748246 -7.626129 -16.154501 33.846527 0.259301 2.068361 0.143054 -0.037944 140951.000000 0 0 1
-29.324496 -6.747329 -15.245301 33.732354 0.226156 2.039745 0.151916 -0.037600 -13574.900000 0 0 1
-28.287216 -6.063429 -14.340101 32.288856 0.211157 2.030987 0.163754 -0.032079 -353551.000000 0 0 1
-27.677726 -4.968729 -14.894701 31.821327 0.177629 2.057905 0.169188 -0.029453 -387061.000000 0 0 1
-26.496816 -4.673929 -14.217901 30.431489 0.174600 2.056929 0.140063 -0.037855 -629207.000000 0 0 1
-14.631676 20.969171 -4.994101 26.052507 -0.961568 1.763684 0.115248 -0.040558 100254.000000 0 0 1
-14.737476 20.574271 -6.318101 26.084712 -0.949210 1.815444 0.145215 -0.039797 -63617.500000 0 0 1
-15.593076 19.462571 -6.402501 25.747382 -0.895335 1.822099 0.125448 -0.053106 -30486.000000 0 0 1
-15.550176 18.911671 -7.812201 25.699995 -0.882633 1.879660 0.143763 -0.059514 473711.000000 0 0 1
-14.319376 18.235571 -8.104601 24.561456 -0.905118 1.907071 0.121955 -0.054964 515396.000000 0 1 0
-14.543876 17.159871 -9.027901 24.238162 -0.867725 1.952462 0.110072 -0.057647 84435.100000 0 1 0
-15.202776 15.888671 -8.376301 23.531610 -0.807455 1.934737 0.111398 -0.048080 -580762.000000 0 1 0
-16.578776 15.960371 -8.250001 24.446917 -0.766396 1.915020 0.118821 -0.045674 -856252.000000 0 1 0
-17.071476 14.888771 -7.474401 23.853248 -0.717210 1.889514 0.131892 -0.033803 -497171.000000 0 1 0
-18.497476 15.142771 -6.997501 24.908335 -0.686004 1.855559 0.152614 -0.032850 -450850.000000 0 1 0
-19.483276 14.702071 -7.914301 25.659016 -0.646438 1.884350 0.146860 -0.035582 -906353.000000 0 0 1
-20.723276 15.058771 -7.437901 26.674765 -0.628395 1.853379 0.119155 -0.037869 -1064390.000000 0 0 1
-21.920776 14.421871 -8.151901 27.476613 -0.581915 1.872016 0.120379 -0.027405 -195407.000000 0 0 1
-22.054576 13.048571 -7.836401 26.796990 -0.534257 1.867569 0.154393 -0.035412 -296663.000000 0 0 1
-22.963276 12.365371 -8.621101 27.468852 -0.493959 1.890042 0.177412 -0.035671 -329868.000000 0 0 1
-23.143476 10.898871 -8.183801 26.858527 -0.440119 1.880420 0.182134 -0.038327 -217614.000000 0 0 1
-22.039176 10.066571 -8.411101 25.647763 -0.428460 1.904926 0.171461 -0.033474 -24337.600000 0 0 1
-22.177876 8.938771 -7.564001 25.079352 -0.383132 1.877170 0.192072 -0.042030 -1114330.000000 0 0 1
-20.926776 8.170671 -7.315701 23.626453 -0.372239 1.885611 0.137646 -0.020450 -1433170.000000 0 1 0
-20.759676 7.055471 -8.144601 23.389706 -0.327617 1.926461 0.138890 -0.017144 807479.000000 0 1 0
-19.815776 6.073771 -7.661601 22.096511 -0.297420 1.924883 0.107023 -0.008762 213603.000000 0 1 0
-19.672576 4.860671 -8.634901 22.027207 -0.242227 1.973613 0.097937 -0.020661 280398.000000 0 1 0
-20.816676 3.974771 -8.578301 22.863071 -0.188671 1.955412 0.128885 -0.021881 1226380.000000 0 1 0
-20.691776 2.984471 -9.539601 22.979570 -0.143247 1.998886 0.128710 -0.025321 118266.000000 0 1 0
-21.724576 1.851371 -9.354001 23.725136 -0.085015 1.976065 0.140472 -0.033595 351485.000000 0 1 0
-21.294576 1.032071 -8.215701 22.847798 -0.048428 1.938618 0.122056 -0.036485 417438.000000 0 1 0
-22.209376 0.028471 -7.862601 23.560086 -0.001282 1.911049 0.137836 -0.041212 -428290.000000 0 1 0
-22.027276 -1.304729 -8.693501 23.716664 0.059163 1.946102 0.109007 -0.042635 226276.000000 0 1 0
-20.813876 -2.024529 -8.496701 22.572330 0.096963 1.956727 0.084941 -0.032074 502793.000000 0 1 0
-20.755676 -3.318829 -9.071501 22.893336 0.158558 1.978226 0.062390 -0.026914 -38066.100000 0 1 0
-21.701876 -4.402029 -8.445401 23.699664 0.200126 1.935156 0.072008 -0.031218 337639.000000 0 1 0
-21.349276 -4.537729 -7.057201 22.938758 0.209431 1.883523 0.082613 -0.028982 778293.000000 0 1 0
-22.334276 -5.284229 -6.335001 23.809141 0.232325 1.840115 0.109574 -0.032993 24113.100000 0 1 0
-22.492276 -6.761529 -6.659901 24.412599 0.292021 1.847105 0.114722 -0.032928 -20488.100000 0 1 0
-21.396576 -7.544029 -6.225201 23.526133 0.338972 1.838594 0.100715 -0.030797 593101.000000 0 1 0
-21.577276 -8.885329 -6.661301 24.267279 0.390630 1.848863 0.118363 -0.029340 -523663.000000 0 1 0
-20.524976 -9.878629 -6.185601 23.603466 0.448574 1.835956 0.108974 -0.018494 397248.000000 0 1 0
-19.167576 -9.547229 -6.532501 22.387923 0.462121 1.866891 0.076501 -0.024845 1135070.000000 0 1 0
-18.215576 -10.302829 -5.798801 21.715929 0.514745 1.841106 0.073424 -0.012543 168394.000000 0 1 0
-17.554376 -11.586529 -6.484401 22.010252 0.583398 1.869842 0.068036 -0.006647 -436384.000000 0 1 0
-16.530776 -11.343829 -7.398301 21.370163 0.601421 1.924311 0.075001 -0.017429 179335.000000 0 1 0
-16.854476 -10.541729 -8.536501 21.635000 0.558927 1.976395 0.073873 -0.030555 -537427.000000 0 1 0
-15.839076 -10.770829 -9.679901 21.461304 0.597188 2.038726 0.071088 -0.027240 242161.000000 0 1 0
-16.067276 -12.004329 -10.314201 22.553137 0.641661 2.045786 0.095374 -0.028210 297275.000000 0 1 0
-14.966176 -12.384929 -11.113401 22.380361 0.691302 2.090438 0.084551 -0.009163 188822.000000 0 1 0
-15.089376 -13.837729 -11.661501 23.561889 0.742156 2.088551 0.098311 -0.018667 256430.000000 0 1 0
-16.100276 -13.962129 -12.651601 24.783521 0.714394 2.106544 0.112474 -0.028805 247483.000000 0 1 0
-16.190876 -15.232129 -13.305001 25.907243 0.754897 2.110128 0.092833 -0.027473 22567.800000 0 0 1
-16.924276 -15.183729 -14.659301 27.053130 0.731242 2.143458 0.114757 -0.027159 1676.690000 0 0 1
-17.129076 -16.478629 -15.245101 28.237626 0.766046 2.141098 0.102383 -0.016709 153920.000000 0 0 1
-17.583576 -16.343229 -16.581501 29.175836 0.748855 2.175271 0.094859 -0.017993 -588376.000000 0 0 1
-18.086376 -17.674529 -17.176601 30.570273 0.773882 2.167444 0.104242 -0.026058 -558858.000000 0 0 1
-19.439776 -17.868829 -16.916201 31.358536 0.743316 2.140574 0.052495 -0.015868 -859956.000000 0 0 1
-20.306776 -17.656029 -18.020101 32.385560 0.715686 2.160872 0.037078 -0.007104 1021100.000000 0 0 1
-21.772576 -17.363129 -17.490801 32.885429 0.673201 2.131605 0.041353 -0.008548 552570.000000 0 0 1
-22.004976 -16.161529 -16.795301 32.054580 0.633474 2.122289 0.037813 -0.012789 85596.900000 0 0 1
-21.623676 -16.224529 -15.446701 31.135498 0.643702 2.089912 0.043534 -0.018013 -281344.000000 0 0 1
-21.642476 -14.908529 -14.722001 30.123053 0.603207 2.081428 0.068721 -0.033023 -71293.200000 0 0 1
-22.959976 -14.436629 -14.549701 30.777760 0.561308 2.063187 0.087898 -0.037883 192300.000000 0 0 1
-23.048376 -13.185129 -13.911101 29.976557 0.519624 2.053376 0.098854 -0.031855 -1062600.000000 0 0 1
-24.425376 -12.636929 -13.653401 30.703523 0.477446 2.031619 0.123714 -0.040359 -702954.000000 0 0 1
-25.208566 -13.319629 -12.654601 31.193320 0.486091 1.988522 0.154848 -0.047313 -192670.000000 0 0 1
-26.498276 -12.819529 -12.661901 32.044074 0.450594 1.977017 0.163290 -0.048543 -744227.000000 0 0 1
-27.432886 -13.396829 -11.548601 32.640595 0.454284 1.932439 0.195716 -0.050424 -530160.000000 0 0 1
-28.466536 -12.555529 -11.205801 33.068942 0.415397 1.916503 0.187588 -0.055928 -331281.000000 0 0 1
-29.000146 -12.897329 -9.904501 33.248288 0.418465 1.873283 0.190286 -0.050156 97471.300000 0 0 1
-29.831206 -11.789729 -9.275701 33.390675 0.376374 1.852292 0.189804 -0.048030 -332533.000000 0 0 1
-29.009266 -10.759829 -8.802301 32.168182 0.355180 1.847965 0.189386 -0.048473 35621.400000 0 0 1
-29.686566 -9.660929 -8.210201 32.280538 0.314622 1.827961 0.217263 -0.050238 115260.000000 0 0 1
-28.669126 -8.584929 -7.702701 30.902287 0.290951 1.822712 0.207380 -0.041425 136650.000000 0 0 1
-28.105386 -8.943329 -6.486901 30.198936 0.308076 1.787289 0.192913 -0.040226 -183927.000000 0 0 1
-27.203756 -8.039429 -5.918801 28.977732 0.287348 1.776497 0.180713 -0.038590 -662595.000000 0 0 1
-27.763346 -6.684629 -5.480901 29.077962 0.236275 1.760421 0.194790 -0.042539 -562278.000000 0 0 1
-28.735546 -6.826329 -4.457401 29.869696 0.233234 1.720584 0.219947 -0.040997 484165.000000 0 0 1
-28.249426 -7.164829 -3.103601 29.308653 0.248390 1.676889 0.199137 -0.026324 -288805.000000 0 0 1
-27.369946 -6.089229 -2.395001 28.141227 0.218913 1.656006 0.194319 -0.024420 162006.000000 0 0 1
-28.020676 -4.830429 -2.081401 28.510060 0.170710 1.643867 0.224986 -0.036870 794623.000000 0 0 1
-27.113386 -4.004029 -1.330901 27.439738 0.146617 1.619318 0.178752 -0.048104 -51598.300000 0 0 1
-27.709356 -2.684929 -0.676101 27.847340 0.096595 1.595078 0.204885 -0.052516 104387.000000 0 0 1
-28.764366 -2.806829 0.266099 28.902211 0.097272 1.561589 0.193568 -0.032709 373693.000000 0 0 1
-28.337186 -3.516329 1.445399 28.591080 0.123458 1.520221 0.178849 -0.039366 -435102.000000 0 0 1
-29.348516 -3.511929 2.611699 29.673051 0.119097 1.482666 0.187861 -0.025364 -50856.000000 0 0 1
-30.437586 -4.390129 2.404299 30.846402 0.143246 1.492773 0.190310 -0.025488 204507.000000 0 0 1
-31.141526 -4.511929 3.640099 31.676528 0.143883 1.455627 0.217137 -0.037743 251683.000000 0 0 1
-32.105666 -5.732429 3.664099 32.818594 0.176687 1.458916 0.213845 -0.044446 342016.000000 0 0 1
-31.358726 -6.934329 3.728199 32.331936 0.217627 1.455229 0.207234 -0.039973 383174.000000 0 0 1
-32.260896 -8.013329 3.827199 33.460817 0.243464 1.456167 0.245406 -0.051840 18727.400000 0 0 1
-31.610416 -9.393729 3.861799 33.202018 0.288860 1.454220 0.218564 -0.041751 383602.000000 0 0 1
-30.959626 -9.780729 5.120999 32.869221 0.305997 1.414360 0.185053 -0.037411 340751.000000 0 0 1
-30.473376 -11.074129 4.999399 32.806355 0.348565 1.417809 0.178942 -0.035642 -184953.000000 0 0 1
-30.151426 -11.632229 6.429899 32.950885 0.368200 1.374400 0.160252 -0.040481 13722.800000 0 0 1
-29.039246 -11.067829 7.088199 31.875025 0.364137 1.346547 0.112269 -0.021924 12438.400000 0 0 1
-29.025666 -11.502229 8.443899 32.343314 0.377294 1.306665 0.152543 -0.037636 124712.000000 0 0 1
-29.765296 -10.466129 9.368399 32.913213 0.338119 1.282166 0.159114 -0.049734 258955.000000 0 0 1
-28.963126 -9.289829 9.471899 31.857188 0.310380 1.268908 0.129034 -0.028145 530440.000000 0 0 1
-29.420436 -8.558829 10.571499 32.412531 0.283101 1.238563 0.137168 -0.020603 -227265.000000 0 0 1
-28.528186 -7.361829 10.861199 31.400948 0.252545 1.217612 0.148623 -0.014073 -215711.000000 0 0 1
-28.661506 -6.311229 9.879499 30.966401 0.216740 1.246081 0.149873 -0.011240 184066.000000 0 0 1
-27.862166 -5.188329 10.198599 30.120266 0.184105 1.225372 0.143570 -0.015859 -151164.000000 0 0 1
-27.798576 -4.158329 9.121199 29.550783 0.148487 1.257010 0.158467 -0.027118 -146786.000000 0 0 1
-27.001266 -4.424129 7.984299 28.502461 0.162406 1.286870 0.138917 -0.012490 96462.600000 0 0 1
-27.307786 -3.574329 6.878099 28.386603 0.130151 1.326060 0.151372 -0.030563 -159477.000000 0 0 1
-26.589426 -3.924529 5.567399 27.448049 0.146539 1.366545 0.131688 -0.016739 -19456.600000 0 0 1
-25.200686 -3.660329 5.575499 26.068348 0.144239 1.355251 0.163624 -0.033662 246566.000000 0 0 1
-24.590276 -3.883229 4.372799 25.276125 0.156624 1.396920 0.169584 -0.021421 -944320.000000 0 0 1
-23.076576 -3.730729 4.334199 23.774607 0.160281 1.387467 0.161684 -0.022537 -472729.000000 0 1 0
-22.666376 -2.404129 4.632799 23.259562 0.105671 1.370277 0.133567 -0.028739 -79036.900000 0 1 0
-21.268976 -2.328129 4.518899 21.868012 0.109027 1.362652 0.117838 -0.026168 -520281.000000 0 1 0
-20.624576 -0.976629 4.640199 21.162665 0.047317 1.349737 0.095059 -0.033109 -605819.000000 0 1 0
-20.734676 -0.008529 3.607099 21.046092 0.000411 1.398556 0.102818 -0.029031 335476.000000 0 1 0
-22.014776 0.545971 3.425399 22.286359 -0.024795 1.416485 0.097446 -0.042579 -253664.000000 0 1 0
-21.924476 1.673471 2.362199 22.114772 -0.076181 1.463777 0.121940 -0.041278 -547705.000000 0 1 0
-21.367776 2.862071 2.894999 21.752110 -0.133151 1.437310 0.098315 -0.039182 342921.000000 0 1 0
-21.527176 3.981071 2.073499 21.990171 -0.182866 1.476364 0.120677 -0.033477 28712.500000 0 1 0
-20.391676 4.111871 1.026299 20.827415 -0.198976 1.521500 0.083694 -0.022473 -570131.000000 0 1 0
-20.674976 4.935671 -0.138701 21.256404 -0.234341 1.577322 0.107065 -0.015475 579525.000000 0 1 0
-21.764776 4.540871 -0.969101 22.254530 -0.205683 1.614356 0.161604 -0.027154 155938.000000 0 1 0
-21.592876 3.276471 -1.842601 21.917635 -0.150590 1.654965 0.168765 -0.031044 -306949.000000 0 1 0
-21.473276 2.064671 -1.069701 21.598812 -0.095856 1.620343 0.131140 -0.034935 417978.000000 0 1 0
-20.916776 1.037771 -1.825501 21.021915 -0.049574 1.657744 0.113739 -0.029265 -699197.000000 0 1 0
-20.108876 0.037171 -1.013101 20.134414 -0.001848 1.621134 0.105205 -0.027068 -561937.000000 0 1 0
-20.799476 -0.779929 -0.097601 20.814322 0.037480 1.575485 0.113223 -0.033097 287014.000000 0 1 0
-19.925976 -1.396329 0.815699 19.991488 0.069961 1.529983 0.085811 -0.027493 264008.000000 0 1 0
-18.998476 -2.610529 0.307999 19.179463 0.136552 1.554737 0.041825 -0.024710 63614.600000 0 1 0
-18.365876 -3.256629 1.339199 18.700387 0.175495 1.499122 0.049253 -0.019775 148743.000000 0 1 0
-17.589276 -4.360729 0.978799 18.148185 0.243020 1.516836 0.030082 -0.013962 -145763.000000 0 1 0
-18.457776 -5.610029 0.596799 19.300727 0.295066 1.539870 0.027477 -0.011494 538323.000000 0 1 0
-19.216476 -6.143529 1.703399 20.246418 0.309432 1.486563 0.061512 -0.013578 770628.000000 0 1 0
-20.361376 -6.904129 1.372499 21.543824 0.326913 1.507046 0.078512 -0.014775 49397.800000 0 1 0
-21.024676 -7.279729 2.761799 22.420057 0.333327 1.447298 0.093641 -0.010708 -58213.500000 0 1 0
-20.195476 -7.986629 3.658999 22.023436 0.376592 1.403881 0.081253 -0.008264 237173.000000 0 1 0
-20.947476 -8.427329 4.721599 23.067512 0.382494 1.364653 0.080076 -0.009268 -59281.000000 0 1 0
-20.121576 -9.358829 5.642699 22.897719 0.435352 1.321801 0.070038 -0.004306 80158.300000 0 1 0
-19.698976 -10.539329 5.021499 22.898527 0.491269 1.349706 0.076144 -0.001467 -94071.500000 0 1 0
-18.729976 -11.124429 5.839999 22.553725 0.535950 1.308875 0.083778 -0.015812 -291853.000000 0 1 0
-18.315276 -12.474229 5.293799 22.783328 0.597917 1.336299 0.072938 -0.009877 -376493.000000 0 1 0
-19.283276 -13.471129 5.381399 24.130385 0.609780 1.345892 0.094710 -0.011368 -229896.000000 0 1 0
-18.742076 -14.642229 4.790699 24.261308 0.663202 1.372028 0.089024 -0.013028 555244.000000 0 1 0
-19.528776 -16.017029 5.074899 25.761850 0.686923 1.372507 0.100203 -0.020400 951332.000000 0 0 1
-18.823876 -17.195229 4.599399 25.906923 0.740213 1.392315 0.106805 -0.028864 553131.000000 0 0 1
-19.500076 -18.285829 5.204299 27.234339 0.753274 1.378520 0.112686 -0.030027 234273.000000 0 0 1
-18.761076 -19.636329 5.142599 27.640725 0.808189 1.383654 0.122913 -0.033697 -504756.000000 0 0 1
-18.545576 -20.113529 3.809599 27.622554 0.825934 1.432439 0.121320 -0.034402 400397.000000 0 0 1
-17.616776 -21.178329 3.633499 27.786232 0.876946 1.439655 0.111009 -0.032647 688549.000000 0 0 1
-16.099076 -20.821229 3.808799 26.593435 0.912609 1.427079 0.100184 -0.030083 710805.000000 0 0 1
-15.420276 -22.123529 3.885799 27.245823 0.962081 1.427688 0.090215 -0.031981 144449.000000 0 0 1
-14.014176 -22.094829 3.942299 26.459787 1.005556 1.421247 0.086103 -0.026880 -50508.200000 0 0 1
-13.301676 -23.434929 4.223399 27.275769 1.054541 1.415330 0.089834 -0.031236 -236382.000000 0 0 1
-13.466976 -24.419229 3.153899 28.064306 1.066809 1.458177 0.096376 -0.035185 122915.000000 0 0 1
-12.789676 -25.621979 3.395299 28.837296 1.107814 1.452783 0.103305 -0.028664 5714.330000 0 0 1
19.154224 19.547171 -24.133001 36.488052 0.795551 2.293473 0.062235 -0.001471 642544.000000 0 0 1
18.290524 19.749871 -25.285311 36.931662 0.823742 2.324922 0.051852 -0.011202 594124.000000 0 0 1
19.016524 19.499171 -26.453571 37.968899 0.797929 2.341607 0.065042 -0.010874 -210248.000000 0 0 1
18.128724 19.765371 -27.633111 38.508562 0.828561 2.371123 0.069283 -0.011224 -184361.000000 0 0 1
18.025624 21.091171 -28.033361 39.441475 0.863607 2.361372 0.059675 -0.005989 -374670.000000 0 0 1
17.071324 21.277071 -29.001861 39.815221 0.894634 2.386797 0.054517 -0.001780 -716253.000000 0 0 1
16.646424 22.714871 -29.400011 40.711540 0.938367 2.377708 0.051739 -0.009785 -171018.000000 0 0 1
15.889624 23.337571 -28.353241 40.012856 0.973032 2.358313 0.058824 -0.011225 470652.000000 0 0 1
15.678624 24.716171 -28.656451 40.962184 1.005504 2.345610 0.064191 -0.015887 -76068.100000 0 0 1
14.946124 25.513871 -27.569861 40.428226 1.040881 2.321216 0.068475 -0.025694 -363392.000000 0 0 1
13.579824 25.226271 -27.440581 39.670668 1.076964 2.334650 0.084686 -0.033802 -363259.000000 0 0 1
12.999924 25.875871 -26.336971 39.143260 1.105234 2.308831 0.091689 -0.031856 -19646.800000 0 0 1
11.513824 25.450471 -26.071261 38.210015 1.145947 2.321721 0.121150 -0.039640 731763.000000 0 0 1
10.866424 26.222771 -25.104001 37.893585 1.177948 2.294930 0.115581 -0.051346 -69691.700000 0 0 1
10.348024 27.449371 -25.634901 38.957640 1.210286 2.288982 0.132073 -0.055711 -532502.000000 0 0 1
9.912524 28.408771 -24.539001 38.826267 1.235080 2.254954 0.152953 -0.060906 121623.000000 0 0 1
10.978424 29.121171 -23.936101 39.262009 1.210281 2.226416 0.137453 -0.053890 234231.000000 0 0 1
10.501324 29.978771 -22.925101 39.173521 1.233861 2.195947 0.166136 -0.059471 425163.000000 0 0 1
11.594524 30.227971 -21.823901 39.044153 1.204534 2.163921 0.127736 -0.051672 831706.000000 0 0 1
12.792224 30.875871 -22.235901 40.142194 1.178014 2.157872 0.121947 -0.057685 232368.000000 0 0 1
13.564924 31.175371 -21.084101 40.005628 1.160388 2.125896 0.094465 -0.046873 1089130.000000 0 0 1
14.907424 31.964071 -21.461301 41.285840 1.134404 2.117439 0.090563 -0.037052 899774.000000 0 0 1
15.774924 31.155571 -22.197301 41.379198 1.102099 2.137005 0.086011 -0.035006 -818070.000000 0 0 1
16.862624 31.899771 -22.669301 42.612682 1.084521 2.131739 0.075036 -0.025700 -586748.000000 0 0 1
18.021424 31.057171 -23.188301 42.743618 1.045013 2.144203 0.030902 -0.010756 -263622.000000 0 0 1
18.804824 30.563771 -22.115101 42.152618 1.019228 2.123093 0.033862 -0.003678 448621.000000 0 0 1
20.068024 30.116871 -22.625201 42.680806 0.983021 2.129518 0.019115 -0.001773 463809.000000 0 0 1
21.055124 29.552071 -21.570801 42.213062 0.951747 2.107142 0.035767 0.002828 156827.000000 0 0 1
21.610424 30.405571 -20.599601 42.612824 0.952899 2.075346 0.036094 0.009187 335286.000000 0 0 1
22.410524 29.612071 -19.712801 42.044035 0.922955 2.058797 0.061021 0.001320 480966.000000 0 0 1
23.204824 30.374671 -18.603201 42.510747 0.918425 2.023737 0.074975 -0.006876 -448668.000000 0 0 1
24.305624 31.120171 -18.997901 43.819501 0.907733 2.019224 0.062573 -0.003108 -553077.000000 0 0 1
24.920924 31.620671 -17.847401 44.039176 0.903341 1.988062 0.082038 -0.000915 -214558.000000 0 0 1
26.232224 32.367771 -18.137601 45.439793 0.889720 1.981393 0.073078 0.005349 -40006.200000 0 0 1
27.274224 31.553471 -18.658801 45.690871 0.858012 1.991464 0.080037 -0.001015 -331028.000000 0 0 1
28.459024 32.289471 -18.441901 46.825524 0.848369 1.975605 0.080506 -0.000982 280769.000000 0 0 1
29.728324 31.610671 -19.041501 47.387620 0.816076 1.984305 0.083964 -0.009414 335843.000000 0 0 1
30.202824 30.442171 -18.426301 46.674029 0.789345 1.976632 0.089136 -0.008848 359451.000000 0 0 1
31.534824 30.185871 -18.896401 47.567909 0.763546 1.979316 0.067785 -0.016625 598860.000000 0 0 1
32.168224 29.022171 -18.075201 46.944584 0.734029 1.966040 0.050299 -0.017024 -921633.000000 0 0 1
32.465424 29.457971 -16.728601 46.921444 0.736869 1.935341 0.048751 -0.004958 65002.300000 0 0 1
32.773824 28.360471 -15.857101 46.150705 0.713332 1.921537 0.049539 -0.008226 -245240.000000 0 0 1
33.068124 28.805271 -14.387201 46.154480 0.716610 1.887797 0.050801 -0.004965 231122.000000 0 0 1
34.329224 29.444771 -14.223501 47.410950 0.708957 1.875494 0.013114 0.005070 115392.000000 0 0 1
34.401024 30.790671 -14.653601 48.437836 0.730074 1.878136 0.026694 -0.002353 430335.000000 0 0 1
35.893224 31.256071 -14.805301 49.844383 0.716450 1.872378 0.029337 -0.006519 1026090.000000 0 0 1
36.596424 31.272671 -13.571201 50.014555 0.707117 1.845587 0.033460 -0.000952 -500166.000000 0 0 1
-37.554849 31.809271 -13.730201 51.095155 -0.702755 1.842858 0.036240 -0.011792 -607226.000000 0 0 1
-36.794149 31.998071 -12.457301 50.327630 -0.715792 1.820920 0.044558 0.000718 -427293.000000 0 0 1
-37.363949 33.023371 -11.658801 51.210696 -0.723809 1.800474 0.055792 -0.005206 1171220.000000 0 0 1
-36.383349 33.521671 -10.684801 50.612405 -0.744484 1.783507 0.051993 -0.001601 727362.000000 0 0 1
-36.925949 -33.044556 -9.889701 50.529938 0.729983 1.767788 0.051707 -0.000484 -53080.700000 0 0 1
-35.986349 -32.441756 -9.016801 49.282731 0.733644 1.754793 0.061695 -0.005780 60542.500000 0 0 1
-35.788149 -33.070556 -7.779101 49.345392 0.745952 1.729103 0.062944 -0.011357 137183.000000 0 0 1
-35.540749 -32.065056 -6.676901 48.331084 0.734032 1.709389 0.075441 -0.026432 240913.000000 0 0 1
-36.732149 -31.371456 -6.353301 48.721489 0.706846 1.701569 0.061138 -0.011898 123636.000000 0 0 1
-36.389849 -30.325256 -5.481301 47.685291 0.694744 1.685998 0.089649 -0.020336 555233.000000 0 0 1
-37.654649 -29.605256 -4.921301 48.151459 0.666289 1.673180 0.079520 -0.014228 35578.700000 0 0 1
36.998124 -30.434556 -4.094301 48.082083 -0.688369 1.656052 0.051381 -0.012201 781554.000000 0 0 1
35.683224 -29.861556 -3.906901 46.693350 -0.696811 1.654566 0.044826 -0.002626 649008.000000 0 0 1
35.502224 -28.834056 -2.787001 45.821153 -0.682121 1.631657 0.047919 -0.002604 -733772.000000 0 0 1
36.091124 -27.590456 -3.048701 45.531276 -0.652696 1.637805 0.078803 -0.012170 201717.000000 0 0 1
35.556724 -26.529156 -2.268501 44.420973 -0.641006 1.621887 0.071741 -0.007100 -160623.000000 0 0 1
36.145924 -25.182356 -2.652401 44.132915 -0.608498 1.630933 0.081496 -0.022126 -273927.000000 0 0 1
35.873224 -24.791556 -3.982601 43.787790 -0.604720 1.661875 0.080327 -0.021912 181307.000000 0 0 1
35.629224 -23.389656 -4.004201 42.808308 -0.580913 1.664471 0.091412 -0.026765 -70067.900000 0 0 1
35.141324 -23.066756 -5.437501 42.385780 -0.580861 1.699437 0.097606 -0.024567 -284727.000000 0 0 1
36.225524 -23.164956 -6.318901 43.460699 -0.568934 1.716707 0.085666 -0.022275 71663.300000 0 0 1
35.905424 -22.765956 -7.610601 43.190387 -0.565083 1.747932 0.067935 -0.024348 -76288.700000 0 0 1
37.159024 -22.633856 -8.525401 44.336971 -0.547090 1.764288 0.062242 -0.025315 155763.000000 0 0 1
37.681324 -23.905056 -8.808001 45.485325 -0.565331 1.765672 0.050764 -0.011478 -264008.000000 0 0 1
-36.718849 -23.753556 -9.765201 44.809201 0.574195 1.790488 0.064140 -0.010569 67647.900000 0 0 1
-36.393749 -25.133856 -10.469401 45.451337 0.604396 1.803227 0.068069 -0.001916 -117156.000000 0 0 1
-35.678949 -26.030756 -9.671501 45.212007 0.630306 1.786377 0.095720 -0.003939 -278691.000000 0 0 1
-36.481549 -27.016156 -9.133801 46.305534 0.637421 1.769349 0.083964 -0.003856 319245.000000 0 0 1
-35.540949 -28.005956 -8.336101 46.010686 0.667376 1.752980 0.086637 -0.005595 728704.000000 0 0 1
-34.788049 -28.838156 -9.196901 46.113237 0.692156 1.771584 0.086793 -0.002248 24607.800000 0 0 1
-33.704649 -29.471356 -8.546801 45.580830 0.718490 1.759422 0.084048 -0.022800 -32570.900000 0 0 1
-33.094549 -30.520356 -9.489101 46.008525 0.744955 1.778534 0.075152 -0.017028 -234137.000000 0 0 1
-32.459349 -29.997756 -10.627801 45.457946 0.746006 1.806774 0.064109 0.008245 20869.100000 0 0 1
-32.136149 -31.025256 -11.551901 46.138325 0.767812 1.823864 0.053527 0.007640 -23475.300000 0 0 1
-32.066649 -30.462056 -12.976701 46.093401 0.759742 1.856185 0.036646 0.015142 123632.000000 0 0 1
-31.025549 -29.553256 -13.239201 44.847030 0.761099 1.870470 0.033851 0.017160 -169172.000000 0 0 1
-31.329849 -29.019356 -14.528101 45.108183 0.747131 1.898714 0.035149 0.036212 195536.000000 0 0 1
-30.327749 -27.960656 -14.997101 43.891727 0.744810 1.919504 0.051855 0.011866 10680.100000 0 0 1
-29.035649 -28.414256 -15.333901 43.423121 0.774582 1.931708 0.072647 0.002212 40196.000000 0 0 1
-28.311549 -27.420956 -16.087201 42.570538 0.769420 1.958318 0.099472 0.012876 -603926.000000 0 0 1
-26.971349 -27.845456 -16.608401 42.174187 0.801343 1.975564 0.121245 -0.005195 -1262270.000000 0 0 1
-26.931749 -28.745256 -17.691101 43.180828 0.817959 1.992919 0.114578 -0.008777 -190426.000000 0 0 1
-27.041749 -28.129656 -18.966701 43.385130 0.805114 2.023247 0.092414 0.002777 429845.000000 0 0 1
-25.729149 -27.418256 -19.435401 42.325934 0.817169 2.047873 0.105423 0.000073 445648.000000 0 0 1
-25.412349 -26.313156 -18.636201 41.054569 0.802812 2.041976 0.113911 0.000917 -85702.100000 0 0 1
-24.006949 -26.108156 -18.701701 40.096422 0.827301 2.056034 0.110906 -0.014306 459081.000000 0 0 1
-23.582149 -24.983156 -17.723301 38.657357 0.814238 2.047071 0.114103 -0.009711 -111145.000000 0 0 1
-23.865149 -25.274456 -16.377101 38.425941 0.814070 2.011083 0.129569 -0.016877 -37518.700000 0 0 1
-23.442049 -24.293256 -15.453401 37.128151 0.803228 2.000078 0.129399 -0.020567 -7397.840000 0 0 1
-24.200649 -24.356256 -14.112101 37.122096 0.788603 1.960759 0.124018 -0.017769 527832.000000 0 0 1
-25.581349 -24.007456 -14.196401 37.845755 0.753670 1.955314 0.101694 0.003808 319534.000000 0 0 1
-26.084949 -23.981756 -12.881601 37.702584 0.743415 1.919483 0.099527 0.000009 494528.000000 0 0 1
-27.608849 -23.669156 -12.749101 38.535919 0.708719 1.907987 0.105085 0.025318 198204.000000 0 0 1
-28.438349 -24.730856 -13.212801 39.936613 0.715781 1.907994 0.113195 0.015912 726841.000000 0 0 1
-29.801949 -24.695956 -12.800201 40.766304 0.691979 1.890189 0.087673 0.023338 566544.000000 0 0 1
-30.761449 -23.582456 -13.309801 40.982311 0.654056 1.901564 0.095093 0.022038 -1541810.000000 0 0 1
-30.737049 -22.348556 -12.605101 40.038890 0.628676 1.891065 0.105995 0.008361 433575.000000 0 0 1
-31.423649 -22.400056 -11.334101 40.220270 0.619292 1.856467 0.112033 0.006713 905800.000000 0 0 1
-32.922849 -22.886356 -11.347401 41.670887 0.607464 1.846589 0.082921 0.011465 225294.000000 0 0 1
-33.907549 -21.974056 -11.806201 42.094743 0.575009 1.855077 0.082605 -0.006774 343062.000000 0 0 1
-34.291649 -21.997356 -13.178001 42.818928 0.570361 1.883635 0.083324 0.001818 -168516.000000 0 0 1
-35.744349 -21.500456 -13.398401 43.811474 0.541526 1.881595 0.044479 -0.013954 262428.000000 0 0 1
-36.629749 -22.571356 -13.097101 44.974867 0.552248 1.866287 0.059861 -0.009870 243499.000000 0 0 1
37.434024 -22.208656 -13.295701 45.511606 -0.535460 1.867259 0.071101 -0.031804 438837.000000 0 0 1
36.499724 -23.404156 -13.041101 45.277530 -0.570174 1.862961 0.066113 -0.010320 -411891.000000 0 0 1
36.369824 -24.373856 -14.030201 45.974945 -0.590422 1.880914 0.055991 -0.005940 -102001.000000 0 0 1
35.940924 -25.595456 -13.501701 46.142966 -0.618836 1.867747 0.060421 -0.019064 -81112.900000 0 0 1
35.870324 -26.770456 -14.508401 47.051368 -0.641137 1.884257 0.054873 -0.020049 319522.000000 0 0 1
34.831224 -26.728556 -15.469901 46.550486 -0.654528 1.909564 0.061990 -0.034032 39660.200000 0 0 1
34.571124 -27.967156 -16.125901 47.300837 -0.680189 1.918694 0.050598 -0.018984 376049.000000 0 0 1
33.637124 -27.877656 -17.405401 47.027309 -0.692043 1.949927 0.052360 -0.030701 -106837.000000 0 0 1
32.294724 -27.829256 -17.019201 45.902831 -0.711263 1.950630 0.099992 -0.037777 -740764.000000 0 0 1
31.508224 -27.608656 -18.184701 45.669349 -0.719530 1.980330 0.110268 -0.037674 -188574.000000 0 0 1
30.002824 -27.679956 -17.944301 44.590889 -0.745150 1.984956 0.111864 -0.037888 -305093.000000 0 0 1
29.433724 -26.717056 -17.068901 43.260751 -0.737054 1.976384 0.099470 -0.045856 883136.000000 0 0 1
28.024624 -26.975756 -16.907001 42.413650 -0.766330 1.980810 0.117450 -0.041458 1329620.000000 0 0 1
27.225624 -26.115256 -15.845201 40.918353 -0.764585 1.968432 0.114962 -0.047220 358872.000000 0 0 1
27.110924 -24.768856 -16.246401 40.155249 -0.740285 1.987326 0.138696 -0.055232 -177557.000000 0 0 1
26.793824 -23.992556 -15.130401 39.018980 -0.730296 1.969008 0.137222 -0.056652 -102927.000000 0 0 1
26.663324 -22.480256 -15.411501 38.128849 -0.700484 1.986895 0.139411 -0.058447 1086940.000000 0 0 1
25.348624 -22.102656 -15.899201 37.200333 -0.717098 2.012405 0.142116 -0.057224 929560.000000 0 0 1
25.161624 -20.760256 -16.052101 36.356093 -0.689845 2.028093 0.142209 -0.048542 -169581.000000 0 0 1
23.677024 -20.403256 -16.259001 35.231370 -0.711266 2.050473 0.114909 -0.040988 -303954.000000 0 0 1
22.975824 -20.307856 -15.069201 34.166919 -0.723837 2.027561 0.103681 -0.038686 -731919.000000 0 0 1
21.849024 -19.514856 -15.246101 33.025037 -0.729028 2.050654 0.089328 -0.040000 -475586.000000 0 0 1
21.604424 -18.406256 -14.161601 31.718959 -0.705635 2.033614 0.079010 -0.028321 -138873.000000 0 0 1
20.960024 -18.803356 -12.972601 31.002858 -0.731214 2.002515 0.074685 -0.036808 154030.000000 0 0 1
20.691224 -17.638456 -12.236101 29.815500 -0.705921 1.993682 0.077578 -0.038800 -706807.000000 0 0 1
19.847124 -17.963656 -10.990101 28.937581 -0.735626 1.960362 0.081814 -0.023512 -717944.000000 0 0 1
20.496824 -18.434256 -9.870001 29.280685 -0.732468 1.914612 0.087993 -0.033746 -637525.000000 0 0 1
19.628424 -18.512956 -8.789101 28.376978 -0.756161 1.885702 0.072865 -0.030693 -543595.000000 0 0 1
20.266924 -19.048756 -7.550901 28.820469 -0.754424 1.835888 0.073675 -0.030827 -620400.000000 0 0 1
21.275924 -18.244456 -7.055901 28.901745 -0.708842 1.817423 0.073466 -0.028602 -357826.000000 0 0 1
21.995224 -18.787656 -5.941501 29.530787 -0.706910 1.773376 0.081012 -0.015551 -124597.000000 0 0 1
23.329824 -18.051056 -5.819901 30.066469 -0.658518 1.765594 0.087938 -0.016796 -856428.000000 0 0 1
24.266624 -18.327756 -6.815701 31.164555 -0.646863 1.791279 0.089207 -0.035306 2610.420000 0 0 1
25.214224 -17.275756 -6.836501 31.320067 -0.600696 1.790847 0.102938 -0.029455 426457.000000 0 0 1
26.399224 -17.433756 -7.869101 32.600271 -0.583644 1.814585 0.128857 -0.037499 883076.000000 0 0 1
27.298924 -18.507656 -7.589201 33.843176 -0.595782 1.796966 0.163034 -0.053200 374854.000000 0 0 1
27.081524 -19.657856 -8.414901 34.505809 -0.627883 1.817150 0.169745 -0.061993 23677.900000 0 0 1
28.255624 -20.682356 -8.331601 35.993829 -0.631864 1.804388 0.171732 -0.065692 -47065.700000 0 0 1
29.411924 -20.186256 -8.953401 36.779201 -0.601492 1.816704 0.156734 -0.047882 -731935.000000 0 0 1
30.439924 -21.067056 -8.586601 38.001836 -0.605395 1.798717 0.140954 -0.049407 -367068.000000 0 0 1
-31.471936 29.668671 3.937299 43.430578 -0.755913 1.480014 0.097826 -0.019694 -16904.900000 0 0 1
-30.658246 30.528171 3.200399 43.383635 -0.783272 1.496960 0.085281 -0.015249 -313883.000000 0 0 1
-29.543366 30.944971 3.965999 42.966625 -0.808566 1.478361 0.077991 -0.010944 64833.500000 0 0 1
-28.801456 32.062271 3.229199 43.219681 -0.838923 1.496011 0.080993 -0.014229 -123371.000000 0 0 1
-28.122416 31.679771 2.011499 42.409012 -0.844814 1.523348 0.097393 -0.015406 370334.000000 0 0 1
-27.801206 32.744671 1.083399 42.968526 -0.866866 1.545580 0.108926 -0.026954 29742.100000 0 0 1
-26.719086 33.776371 1.491599 43.092663 -0.901531 1.536176 0.128277 -0.018060 -379303.000000 0 0 1
-25.424506 33.236971 1.367399 41.868503 -0.917798 1.538131 0.102458 -0.024728 -365328.000000 0 0 1
-24.520876 -33.641356 2.030499 41.678977 0.940943 1.522059 0.090120 -0.019940 569844.000000 0 0 1
-23.010676 33.712171 1.929199 40.862250 -0.971869 1.523567 0.080468 -0.033083 773712.000000 0 0 1
-22.292676 -33.645956 0.758099 40.368161 0.985638 1.552016 0.119646 -0.044242 118149.000000 0 0 1
-20.921176 33.783871 0.961599 39.748839 -1.016332 1.546602 0.116142 -0.046534 -39810.300000 0 0 1
-20.035976 -33.572556 -0.273101 39.097716 1.032736 1.577781 0.131115 -0.046538 74568.200000 0 0 1
-19.867676 -32.187956 -0.519001 37.829333 1.017797 1.584516 0.133882 -0.049226 406413.000000 0 0 1
-19.124176 -31.480256 0.488399 36.837198 1.024882 1.557538 0.135622 -0.039078 -265754.000000 0 0 1
-18.802276 -30.038156 0.183499 35.437975 1.011517 1.565618 0.140798 -0.045508 -42495.400000 0 0 1
-17.746976 -29.717856 -0.706101 34.620871 1.032451 1.591193 0.143534 -0.038690 205844.000000 0 0 1
-17.636776 -28.286156 -0.784801 33.343341 1.013267 1.594335 0.115297 -0.033459 58292.800000 0 0 1
-16.540576 -27.753056 -1.759701 32.356133 1.033330 1.625209 0.096785 -0.023083 66801.800000 0 0 1
-16.660876 -28.224056 -3.084801 32.919570 1.037534 1.664641 0.105314 -0.029057 622305.000000 0 0 1
-15.606476 -27.662256 -3.877901 31.996884 1.057132 1.692291 0.087613 -0.014584 474526.000000 0 0 1
-16.073276 -27.685156 -5.349801 32.456716 1.044783 1.736381 0.118138 -0.026397 1721740.000000 0 0 1
-17.267276 -26.830256 -5.535201 32.383019 0.998951 1.742569 0.120351 -0.022660 1008310.000000 0 0 1
-17.812276 -26.912756 -6.800901 32.982205 0.986134 1.778485 0.130327 -0.026700 254158.000000 0 0 1
-18.664176 -25.662656 -7.147801 32.527134 0.941989 1.792353 0.112288 -0.024246 52260.200000 0 0 1
-17.889276 -24.526656 -7.016701 31.157939 0.940623 1.797942 0.070303 -0.012060 -203033.000000 0 0 1
-18.529776 -23.382856 -7.544301 30.773804 0.900675 1.818474 0.048739 -0.000616 -26930.400000 0 0 1
-17.676076 -22.154756 -7.270501 29.259820 0.897370 1.821908 0.062026 -0.001374 353499.000000 0 0 1
-16.386476 -22.169556 -7.863101 28.667650 0.934280 1.848642 0.083615 -0.016743 426950.000000 0 0 1
-15.523976 -21.097656 -7.418501 27.223869 0.936435 1.846787 0.131409 -0.030748 -14957.200000 0 0 1
-14.367376 -20.913856 -8.368801 26.717928 0.968863 1.889386 0.131509 -0.025747 -591002.000000 0 0 1
-14.708476 -20.121356 -9.493401 26.670825 0.939574 1.934724 0.130909 -0.022325 -157425.000000 0 0 1
-13.670276 -20.025556 -10.458601 26.406091 0.971816 1.978027 0.121113 -0.023391 151864.000000 0 0 1
-14.090976 -19.280056 -11.681801 26.584594 0.939659 2.025749 0.138193 -0.018941 446087.000000 0 0 1
-15.242976 -19.819856 -12.329701 27.878245 0.915198 2.028924 0.116104 -0.007475 211975.000000 0 0 1
-15.570176 -19.148256 -13.544601 28.152128 0.888096 2.072730 0.134130 -0.019009 666804.000000 0 0 1
-16.896176 -19.692256 -14.192601 29.575254 0.861670 2.071315 0.136721 -0.026849 206665.000000 0 0 1
-18.048376 -19.279756 -13.510201 29.664430 0.818374 2.043656 0.120858 -0.024990 -1146540.000000 0 0 1
-19.141576 -19.740856 -14.218201 30.955752 0.800810 2.048011 0.096054 -0.020704 -55098.200000 0 0 1
-20.523476 -19.358656 -13.550801 31.298480 0.756200 2.018564 0.062036 -0.008091 893360.000000 0 0 1
-21.531676 -20.145456 -14.179901 32.718833 0.752150 2.019043 0.069034 -0.015630 452645.000000 0 0 1
-22.838576 -19.698756 -13.783601 33.160657 0.711719 1.999466 0.067662 -0.006972 438364.000000 0 0 1
-23.957776 -20.358856 -14.592301 34.661121 0.704367 2.005343 0.083328 -0.014100 -343117.000000 0 0 1
-24.021076 -19.722656 -15.873301 34.899239 0.687449 2.042980 0.089431 -0.021422 108257.000000 0 0 1
-24.802076 -20.512956 -16.731201 36.274749 0.691028 2.050183 0.107610 -0.026734 -30838.400000 0 0 1
-25.186106 -19.778556 -18.030201 36.750773 0.665711 2.083583 0.104645 -0.011955 -485274.000000 0 0 1
-24.058676 -19.546456 -18.804201 36.255783 0.682286 2.116072 0.073840 -0.011735 -419885.000000 0 0 1
-24.376776 -19.054156 -20.078801 36.884228 0.663453 2.146439 0.095117 -0.019070 -372081.000000 0 0 1
-23.216376 -18.467456 -20.890301 36.282940 0.671960 2.184331 0.049384 -0.010998 -320140.000000 0 0 1
-22.278676 -19.377856 -21.387701 36.459216 0.715874 2.197675 0.027079 -0.000118 -477448.000000 0 0 1
-21.248976 -18.773056 -22.108101 35.954342 0.723613 2.233048 0.018240 -0.003127 -78475.600000 0 0 1
-19.992276 -19.649456 -22.286001 35.811423 0.776750 2.242494 0.019986 0.006437 -100533.000000 0 0 1
-20.281976 -20.819756 -23.036701 37.087874 0.798482 2.240991 0.007148 0.011599 169036.000000 0 0 1
-19.129476 -21.657456 -23.067301 36.974080 0.847299 2.244491 0.003199 0.010101 237277.000000 0 0 1
-19.176576 -22.898356 -23.927801 38.270294 0.873625 2.246225 0.020206 0.003204 -110414.000000 0 0 1
-19.276376 -22.786256 -25.340311 39.152567 0.868649 2.274728 0.024608 0.002600 32962.900000 0 0 1
-19.273276 -24.048456 -25.973211 40.303785 0.895181 2.271082 0.021570 -0.004168 -273927.000000 0 0 1
-19.109276 -23.997756 -27.468311 41.177237 0.898319 2.301072 0.031796 0.000515 -16687.900000 0 0 1
-17.766076 -23.748856 -27.829611 40.670983 0.928524 2.324388 0.033553 -0.005535 -42005.400000 0 0 1
-17.674576 -23.432656 -29.202291 41.403548 0.924567 2.353655 0.060697 -0.011844 -636217.000000 0 0 1
-16.256276 -23.357956 -29.727541 41.153217 0.962785 2.378009 0.044340 -0.016331 -616868.000000 0 0 1
-15.443276 -24.489656 -29.584031 41.393875 1.008177 2.366985 0.053741 -0.011562 415255.000000 0 0 1
-14.126776 -24.239456 -30.074811 41.129202 1.043119 2.390916 0.075556 -0.016336 501178.000000 0 0 1
-13.133576 -25.405556 -29.988801 41.439851 1.093675 2.379902 0.107369 -0.022260 -993334.000000 0 0 1
-13.507576 -26.581856 -30.676231 42.779444 1.100650 2.370398 0.073921 -0.017046 503949.000000 0 0 1
-12.649476 -27.738756 -30.468011 43.101595 1.142946 2.355885 0.082307 -0.019277 2355800.000000 0 0 1
-11.174976 -27.636356 -31.134731 43.104753 1.186539 2.377924 0.100584 -0.019128 1969090.000000 0 0 1
-10.374276 -26.634456 -30.507231 41.805633 1.199369 2.388738 0.150153 -0.030711 6542.630000 0 0 1
-9.068776 -26.527856 -31.043801 41.829265 1.241393 2.407076 0.126170 -0.024515 152058.000000 0 0 1
-8.187176 -25.409256 -30.411321 40.466141 1.259088 2.421167 0.204269 -0.036134 -98089.600000 0 0 1
-8.626776 -24.087956 -30.490021 39.803169 1.226891 2.443423 0.206109 -0.029226 -254926.000000 0 0 1
-9.715376 -23.865156 -29.623941 39.262095 1.184189 2.425715 0.187923 -0.025318 -302159.000000 0 0 1
-10.006276 -22.374956 -29.501761 38.355158 1.150266 2.448343 0.194256 -0.031367 -75648.500000 0 0 1
-10.398676 -21.791856 -30.765111 39.108944 1.125569 2.476163 0.179009 -0.032206 250913.000000 0 0 1
-10.831976 -20.473856 -30.398191 38.217280 1.084169 2.490471 0.177968 -0.039965 193723.000000 0 0 1
-11.425276 -19.623356 -31.538201 38.862207 1.043547 2.517578 0.157221 -0.034977 -74874.800000 0 0 1
-12.220276 -18.527456 -31.193121 38.283320 0.987718 2.523175 0.135456 -0.035101 247548.000000 0 0 1
-12.838076 -18.085756 -32.413691 39.275414 0.953494 2.541516 0.129965 -0.031585 -168147.000000 0 0 1
-13.702976 -16.815656 -32.308551 38.915039 0.887039 2.550322 0.133545 -0.039778 -27709.000000 0 0 1
-13.063276 -15.548056 -32.287771 38.143038 0.872027 2.580157 0.136600 -0.043399 -42080.200000 0 0 1
-12.197876 -15.174656 -31.253611 36.821822 0.893723 2.584469 0.118309 -0.041796 7975.800000 0 0 1
-11.864576 -13.667456 -31.343381 36.193577 0.855894 2.617929 0.091268 -0.039273 342497.000000 0 0 1
-11.064676 -13.131956 -32.451061 36.714393 0.870628 2.654887 0.098721 -0.046117 373446.000000 0 0 1
-11.565676 -13.140356 -33.755971 38.024984 0.849049 2.663190 0.110373 -0.041674 -572433.000000 0 0 1
-12.266176 -11.840756 33.393807 37.494119 0.767753 0.472043 0.093216 -0.029357 134905.000000 0 0 1
-13.516576 -11.522956 -33.682581 38.078768 0.705947 2.656325 0.070368 -0.029511 85126.700000 0 0 1
-14.400176 -10.803956 33.084282 37.665107 0.643671 0.498334 0.057552 -0.032234 407703.000000 0 0 1
-15.481776 -10.144956 -33.691971 38.441571 0.580081 2.639228 0.066317 -0.029340 -261281.000000 0 0 1
-14.939476 -9.242856 -32.733051 37.149306 0.554047 2.649025 0.064963 -0.032268 -452980.000000 0 0 1
-15.853676 -8.680856 -31.857231 36.627578 0.500969 2.625514 0.077430 -0.040790 -441621.000000 0 0 1
-15.205976 -7.458556 -31.107531 35.419348 0.456020 2.643015 0.075677 -0.046957 -310017.000000 0 0 1
-15.251776 -6.212056 -31.738491 35.756651 0.386784 2.662959 0.072349 -0.049865 238577.000000 0 0 1
-16.559676 -5.682556 -31.841291 36.337062 0.330565 2.638874 0.075431 -0.047519 -8442.960000 0 0 1
-17.041776 -4.935856 -30.560851 35.337663 0.281919 2.615596 0.081550 -0.049673 -477387.000000 0 0 1
-17.205276 -5.879056 -29.509071 34.660786 0.329262 2.589383 0.081695 -0.051330 -187585.000000 0 0 1
-17.348276 -5.292256 -28.176701 33.509657 0.296092 2.569654 0.082170 -0.052100 -245774.000000 0 0 1
-16.080876 -4.691456 -27.552531 32.245097 0.283863 2.595330 0.081679 -0.051624 -128243.000000 0 0 1
-15.684276 -3.473156 -28.192161 32.447762 0.217925 2.623666 0.080590 -0.043318 5502.800000 0 0 1
-14.309576 -3.255356 -27.939581 31.559174 0.223688 2.657952 0.067758 -0.035489 84687.600000 0 0 1
-13.879076 -1.874156 -28.563571 31.812243 0.134223 2.685726 0.044993 -0.016857 -29322.300000 0 0 1
-13.876576 -1.936156 -29.937981 33.054361 0.138632 2.703871 0.056907 -0.025943 198594.000000 0 0 1
-13.611876 -0.633156 -30.457601 33.366892 0.046481 2.720907 0.050842 -0.028007 -46852.500000 0 0 1
-13.785876 -0.704156 -32.025711 34.873950 0.051034 2.734631 0.050191 -0.037066 269177.000000 0 0 1
-15.158476 -0.615156 -32.410341 35.785304 0.040559 2.703797 0.049808 -0.039940 733874.000000 0 0 1
-15.329176 -1.083156 -33.748281 37.082385 0.070543 2.714296 0.046264 -0.036579 -613663.000000 0 0 1
-16.820876 -1.206156 33.559895 37.558797 0.071583 0.465651 0.040603 -0.041186 -305871.000000 0 0 1
-17.086876 -1.909156 32.332859 36.619940 0.111271 0.488729 0.060162 -0.047405 217731.000000 0 0 1
-18.376676 -1.688156 31.801491 36.768015 0.091607 0.525800 0.055646 -0.039582 -105148.000000 0 0 1
-18.513376 -1.880156 30.252855 35.517817 0.101210 0.551450 0.079166 -0.035242 109302.000000 0 0 1
-17.768176 -0.800156 29.680475 34.601719 0.045003 0.539872 0.081145 -0.023775 196261.000000 0 0 1
-17.859876 -0.778156 28.287325 33.462717 0.043543 0.563598 0.090595 -0.037532 -13293.100000 0 0 1
-17.124876 0.373844 27.524885 32.419445 -0.021827 0.556661 0.081960 -0.037194 52615.300000 0 0 1
-17.481276 1.742844 27.799045 32.884942 -0.099369 0.563590 0.069761 -0.031696 -21634.600000 0 0 1
-18.774476 2.157844 27.395295 33.281217 -0.114433 0.603867 0.072199 -0.034803 126561.000000 0 0 1
-18.891176 2.842844 26.037815 32.294366 -0.149365 0.632986 0.081179 -0.028490 -77041.200000 0 0 1
-18.343876 4.192844 26.004855 32.098757 -0.224709 0.626386 0.069372 -0.024806 53402.700000 0 0 1
-18.835776 4.980844 24.994425 31.690954 -0.258518 0.662117 0.076408 -0.022339 -462399.000000 0 0 1
-18.445576 6.454844 25.269035 31.944145 -0.336621 0.658292 0.065707 -0.016059 -88825.000000 0 0 1
-17.106176 6.829844 25.101495 31.134436 -0.379870 0.633046 0.072891 -0.012514 -436446.000000 0 0 1
-16.676976 6.990844 23.779865 29.874327 -0.396940 0.650144 0.067022 -0.008512 187533.000000 0 0 1
-15.430976 7.939844 23.725805 29.395067 -0.475211 0.631512 0.060000 -0.007384 -17140.400000 0 0 1
-14.307276 7.391844 24.329995 29.176809 -0.476878 0.584693 0.064965 -0.010338 -846639.000000 0 0 1
-13.166776 7.955844 23.757295 28.303154 -0.543529 0.574642 0.072414 -0.014323 431209.000000 0 0 1
-11.813276 7.906844 24.572175 28.387734 -0.589836 0.524466 0.061065 -0.007322 1213890.000000 0 0 1
-10.757376 8.565844 23.855565 27.535120 -0.672466 0.522912 0.046020 -0.010233 -124236.000000 0 0 1
-9.610976 8.819844 24.595445 27.840554 -0.742500 0.487643 0.048216 -0.008632 -556041.000000 0 0 1
-9.639076 10.129844 25.479495 29.064243 -0.810218 0.501918 0.048856 -0.021913 -789412.000000 0 0 1
-10.622376 10.211844 26.491325 30.313478 -0.765696 0.507602 0.046358 -0.023082 171548.000000 0 0 1
-10.642676 11.409844 27.256485 31.406481 -0.820172 0.519914 0.068364 -0.029367 -374086.000000 0 0 1
-11.425076 12.587844 26.532525 31.511285 -0.833783 0.569815 0.051265 -0.026240 661382.000000 0 0 1
-12.846476 12.468844 26.504725 31.984441 -0.770482 0.594059 0.054578 -0.025003 626226.000000 0 0 1
-13.282676 11.623844 25.450495 30.972099 -0.718894 0.606368 0.053294 -0.011106 -94673.000000 0 0 1
-14.775876 11.590844 25.005005 31.271784 -0.665183 0.644163 0.041593 -0.013475 403103.000000 0 0 1
-15.235776 12.736844 24.327855 31.403831 -0.696300 0.684591 0.054938 -0.017312 207396.000000 0 0 1
-16.516676 12.597844 23.724515 31.533456 -0.651602 0.719159 0.065787 -0.007107 285945.000000 0 0 1
-16.577076 11.988844 22.336615 30.289539 -0.626139 0.741529 0.056293 0.001352 -218276.000000 0 0 1
-16.522476 10.590844 22.304015 29.709044 -0.570020 0.721602 0.057278 -0.001252 24407.800000 0 0 1
-16.271476 10.267844 20.906215 28.412310 -0.562926 0.743926 0.064096 -0.009960 80771.600000 0 0 1
-16.917576 8.907844 20.531215 28.055032 -0.484656 0.749809 0.069099 -0.015553 596052.000000 0 0 1
-18.329176 8.963844 20.686015 29.055471 -0.454848 0.778526 0.084270 -0.008462 -16492.000000 0 0 1
-18.950376 7.794844 20.233115 28.796793 -0.390235 0.791728 0.083396 -0.017304 -410633.000000 0 0 1
-20.448076 7.751844 20.548015 30.007263 -0.362359 0.816511 0.096664 -0.017413 -394353.000000 0 0 1
-20.640076 7.738844 21.960515 31.115377 -0.358720 0.787277 0.095456 -0.022139 -257064.000000 0 0 1
-22.018076 7.886844 22.187415 32.237856 -0.343960 0.811735 0.096410 -0.019867 -266806.000000 0 0 1
-22.259876 8.625844 23.531335 33.520605 -0.369690 0.792600 0.092378 -0.021220 -807230.000000 0 0 1
-22.090976 10.035844 23.607535 33.853288 -0.426421 0.799105 0.086580 -0.011900 992420.000000 0 0 1
-20.803776 10.682844 23.398015 33.081526 -0.474393 0.785148 0.086233 -0.005893 1539210.000000 0 0 1
-19.707676 10.246844 24.441945 33.027246 -0.479473 0.737646 0.077975 -0.015418 -155040.000000 0 0 1
-19.893276 10.926844 25.680345 34.272707 -0.502285 0.723800 0.078334 -0.017735 224304.000000 0 0 1
-19.980676 10.016844 26.755245 34.862698 -0.464708 0.695948 0.056082 -0.017435 -6281.650000 0 0 1
-33.066256 -14.276129 20.383415 41.384402 0.407568 1.055792 0.126980 -0.003403 -170535.000000 0 0 1
-31.850746 -14.993929 20.304015 40.639155 0.439980 1.047640 0.119629 0.002985 319526.000000 0 0 1
-31.897266 -16.017129 19.304615 40.578962 0.465364 1.075003 0.095962 0.015319 92604.500000 0 0 1
-31.491186 -15.534229 17.874215 39.401708 0.458264 1.099950 0.101969 0.018534 52787.500000 0 0 1
-32.436876 -14.601829 17.344815 39.575332 0.422988 1.117119 0.095616 0.009852 155447.000000 0 0 1
-31.981416 -13.976729 16.197515 38.477518 0.412013 1.136292 0.094413 0.005425 33663.100000 0 0 1
-33.075366 -13.071329 15.494315 38.793211 0.376360 1.159925 0.086870 0.007854 501577.000000 0 0 1
-34.298355 -13.621029 15.053415 39.856177 0.378033 1.183492 0.094964 0.006295 1460660.000000 0 0 1
-35.291011 -13.858829 16.121515 41.199828 0.374199 1.168752 0.086540 0.008507 297447.000000 0 0 1
-36.214986 -12.696829 16.455415 41.755423 0.337206 1.165718 0.085208 0.008504 -164934.000000 0 0 1
-37.176026 -12.988329 17.495815 43.091265 0.336117 1.152704 0.051125 0.010533 773526.000000 0 0 1
37.484088 -11.805829 17.748815 43.121397 -0.305121 1.146586 0.047596 0.013200 43490.400000 0 0 1
36.632338 -11.849529 19.015115 42.940821 -0.312849 1.112053 0.043894 0.017120 -775500.000000 0 0 1
37.438338 -12.064229 20.103215 44.173680 -0.311736 1.098318 0.039756 0.018740 -358996.000000 0 0 1
36.658528 -11.960829 21.270215 44.037838 -0.315386 1.066720 0.031219 0.008504 -1277680.000000 0 0 1
37.333268 -12.419429 22.573325 45.360447 -0.321148 1.049917 0.032824 -0.003246 -741314.000000 0 0 1
-36.973646 -11.678029 22.849035 45.005613 0.305932 1.038291 0.055916 0.002845 -363861.000000 0 0 1
-35.789522 -12.131329 22.197815 43.826955 0.326809 1.039690 0.064231 -0.004701 -254488.000000 0 0 1
-34.568592 -11.179429 22.417415 42.690838 0.312783 1.017951 0.097360 -0.011448 220436.000000 0 0 1
-34.701319 -9.959929 21.745615 42.145622 0.279505 1.028664 0.108118 -0.008273 -319953.000000 0 0 1
-33.493356 -9.250529 21.611215 40.919699 0.269472 1.014391 0.138465 -0.014477 -410572.000000 0 0 1
-33.467216 -8.027329 20.652915 40.137706 0.235409 1.030312 0.126071 -0.009642 -73124.900000 0 0 1
-33.610796 -8.258429 19.266515 39.611688 0.240935 1.062849 0.128832 -0.010885 518736.000000 0 0 1
-34.935366 -8.612929 18.883515 40.635569 0.241719 1.087496 0.098036 -0.006008 27413.800000 0 0 1
-35.271188 -8.451429 17.391715 40.223812 0.235179 1.123673 0.108450 -0.007181 441520.000000 0 0 1
-36.665816 -8.664029 17.160515 41.399646 0.232041 1.143393 0.022295 -0.005996 645987.000000 0 0 1
-36.877816 -8.283829 15.822515 40.974957 0.220961 1.174341 0.054597 -0.000331 159691.000000 0 0 1
37.028148 -8.150129 15.560315 40.983311 -0.216652 1.181352 0.068761 -0.011241 177326.000000 0 0 1
36.406338 -9.401229 15.674515 40.736900 -0.252710 1.175833 0.065055 0.018889 -44851.100000 0 0 1
35.005338 -9.230729 15.838215 39.514923 -0.257826 1.158389 0.058219 0.011925 137865.000000 0 0 1
34.299208 -10.595229 15.898215 39.261276 -0.299607 1.153890 0.049070 0.009988 -164040.000000 0 0 1
34.266448 -11.275529 17.124015 39.931929 -0.317895 1.127599 0.026472 0.003214 -444150.000000 0 0 1
33.228468 -12.210829 17.141015 39.332554 -0.352162 1.119873 0.042655 0.002451 -302186.000000 0 0 1
32.871218 -12.719029 18.558415 39.833472 -0.369193 1.086145 0.026348 0.010330 -31975.300000 0 0 1
33.833228 -13.533929 19.234915 41.204812 -0.380523 1.085113 0.033739 0.014427 -160843.000000 0 0 1
33.478118 -13.811929 20.543415 41.636351 -0.391292 1.054801 0.046063 0.015041 -867999.000000 0 0 1
34.244578 -15.020429 21.091215 42.931850 -0.413352 1.057247 0.043575 0.008579 -150052.000000 0 0 1
34.193318 -15.202129 22.502915 43.665420 -0.418349 1.029382 0.050082 -0.004264 -241251.000000 0 0 1
34.778158 -16.398429 22.967225 44.787523 -0.440601 1.032348 0.060780 -0.009385 -3306.990000 0 0 1
35.294908 -16.186829 24.390985 45.854816 -0.429996 1.009933 0.080812 -0.013994 -190012.000000 0 0 1
36.472318 -15.445829 24.520645 46.583964 -0.400595 1.016465 0.071853 -0.003694 -281289.000000 0 0 1
36.866988 -15.150529 25.837885 47.500628 -0.389911 0.995661 0.084392 -0.007842 461949.000000 0 0 1
-37.371176 -14.143229 25.974065 47.658029 0.361794 0.994396 0.078295 -0.002744 8559.390000 0 0 1
-36.106196 -14.695429 25.791865 46.742200 0.386531 0.986288 0.054381 -0.004060 -35272.500000 0 0 1
-35.096358 -13.661029 25.828495 45.667157 0.371199 0.969658 0.072608 -0.011775 -9037.110000 0 0 1
-33.689236 -14.164729 25.595555 44.617671 0.398013 0.959824 0.073589 -0.010235 -881521.000000 0 0 1
-33.393076 -14.513929 24.228625 43.735317 0.410006 0.983655 0.074118 -0.002851 -477328.000000 0 0 1
-32.071326 -14.799529 23.905885 42.650760 0.432340 0.975803 0.083644 -0.010931 -511504.000000 0 0 1
-31.592116 -16.242929 24.287255 43.032142 0.474899 0.971093 0.074885 -0.002878 -537357.000000 0 0 1
-31.490566 -16.496029 25.651455 43.838018 0.482537 0.945741 0.081889 -0.008743 81569.300000 0 0 1
-30.951906 -17.749629 25.870675 44.072232 0.520675 0.943440 0.071975 -0.007359 -403029.000000 0 0 1
-30.574956 -17.976729 27.310495 44.764426 0.531517 0.914617 0.052363 -0.015167 18298.100000 0 0 1
-29.593506 -17.017429 27.736305 43.984896 0.521864 0.888487 0.048405 -0.013297 204873.000000 0 0 1
-28.832936 -17.472529 28.827055 44.357937 0.544814 0.863378 0.060280 -0.022005 16733.700000 0 0 1
-27.711946 -16.462729 29.149775 43.458978 0.536045 0.835587 0.053250 -0.013210 -143575.000000 0 0 1
-28.037416 -15.266729 29.889875 43.732989 0.498621 0.818300 0.066690 -0.023806 -377885.000000 0 0 1
-27.025696 -14.330429 29.676875 42.620023 0.487555 0.800549 0.056674 -0.020932 -557132.000000 0 0 1
-27.056356 -13.051829 30.555175 42.848750 0.449464 0.776895 0.068569 -0.013896 -156227.000000 0 0 1
-26.551656 -13.291629 31.855169 43.547786 0.464124 0.750278 0.064832 -0.014665 64272.900000 0 0 1
-26.075536 -12.076229 32.413207 43.317258 0.433715 0.725339 0.067394 -0.011740 7876.340000 0 0 1
-25.188126 -12.403629 33.651325 43.825830 0.457581 0.695330 0.062918 -0.016822 170186.000000 0 0 1
-23.830576 -12.730929 33.377358 42.942065 0.490653 0.680489 0.044284 -0.013117 375104.000000 0 0 1
-23.472476 -14.104429 33.533976 43.294568 0.541075 0.684787 0.048253 -0.017512 68605.900000 0 0 1
-23.391276 -14.616729 -32.621391 42.719500 0.558513 2.439695 0.046012 -0.017382 -167408.000000 0 0 1
-22.275876 -14.147429 -31.859451 41.368937 0.565830 2.449841 0.028357 -0.016371 334331.000000 0 0 1
-22.278376 -14.940829 -30.715431 40.779800 0.590750 2.423713 0.036122 -0.018090 -48580.600000 0 0 1
-20.949376 -14.929729 -29.940121 39.473839 0.619170 2.431774 0.038894 -0.018446 -41990.300000 0 0 1
-20.660176 -13.790029 -29.121211 38.276007 0.588558 2.435374 0.024910 -0.023811 501265.000000 0 0 1
-21.366576 -13.803929 -27.830731 37.704490 0.573595 2.401087 0.032255 -0.016515 347893.000000 0 0 1
-21.109276 -12.599829 -26.842921 36.399170 0.538127 2.400098 0.028387 -0.014819 -1771160.000000 0 0 1
-19.846276 -12.583229 -26.383291 35.331153 0.565070 2.413948 0.038755 -0.018123 -1677050.000000 0 0 1
-19.436476 -11.484329 -25.559871 34.102396 0.533675 2.418108 0.044329 -0.017264 1032370.000000 0 0 1
-18.048976 -11.740329 -24.852801 32.882557 0.576706 2.427679 0.061820 -0.029949 236815.000000 0 0 1
-18.050676 -12.750629 -23.855901 32.519370 0.614995 2.394387 0.070379 -0.028463 590337.000000 0 0 1
-16.750976 -13.146629 -23.399301 31.637894 0.665421 2.403268 0.069023 -0.037076 742775.000000 0 0 1
-15.750676 -13.843829 -24.339701 32.127191 0.721055 2.430431 0.047432 -0.028318 -560855.000000 0 0 1
-14.869076 -13.015029 -25.036701 31.895404 0.719005 2.473432 0.051924 -0.035798 57379.300000 0 0 1
-14.206976 -13.722229 -26.071761 32.708935 0.768044 2.493247 0.070266 -0.040402 -208744.000000 0 0 1
-13.173676 -12.933029 -26.886701 32.614470 0.776181 2.539901 0.093829 -0.048299 125947.000000 0 0 1
-13.823476 -12.122629 -27.812331 33.340251 0.719939 2.557471 0.093513 -0.053538 292501.000000 0 0 1
-12.822276 -11.348929 -28.397451 33.160581 0.724519 2.598978 0.093439 -0.057428 -14852.800000 0 0 1
-13.618476 -10.358029 -29.237881 33.876324 0.650242 2.612127 0.074300 -0.056810 -190068.000000 0 0 1
-12.920576 -9.401529 -29.980811 33.973211 0.629037 2.651914 0.054996 -0.047705 -151845.000000 0 0 1
-12.279876 -9.932229 -31.162421 34.936242 0.680097 2.672502 0.069044 -0.041988 -193531.000000 0 0 1
-11.372676 -8.973729 -31.930201 35.062848 0.668035 2.715666 0.048897 -0.037748 -718559.000000 0 0 1
-10.203676 -8.620729 -31.283531 34.016044 0.701505 2.738035 0.065057 -0.037599 -953627.000000 0 0 1
-9.630176 -7.521129 -31.925271 34.183777 0.663045 2.776052 0.048800 -0.036299 -11517.500000 0 0 1
-8.100276 -7.376429 -31.712011 33.551122 0.738662 2.808956 0.067285 -0.036198 76430.800000 0 0 1
-7.572976 -7.314429 -30.341161 32.115991 0.768033 2.807587 0.062500 -0.033891 187800.000000 0 0 1
-7.928176 -6.178029 -29.527301 31.191113 0.661960 2.813496 0.068562 -0.029861 -462692.000000 0 0 1
-7.300776 -4.893629 -30.061901 31.320390 0.590506 2.857152 0.058228 -0.031218 625536.000000 0 0 1
-5.890076 -4.845629 -29.796231 30.756926 0.688416 2.890997 0.076241 -0.035890 786682.000000 0 0 1
-5.374376 -3.547629 -30.107831 30.788814 0.583443 2.930880 0.091736 -0.036922 730085.000000 0 0 1
-3.870176 -3.370329 -29.715721 30.155620 0.716473 2.970577 0.088509 -0.018195 817853.000000 0 0 1
-2.908176 -4.192729 -30.399391 30.824656 0.964363 2.975291 0.103507 -0.023437 -243821.000000 0 0 1
-1.560376 -3.920329 -30.295951 30.588370 1.191997 3.003208 0.128192 -0.030849 -618430.000000 0 0 1
-1.040476 -2.647629 -30.936101 31.066620 1.196353 3.049895 0.129510 -0.031377 -383593.000000 0 0 1
0.390324 -2.576829 -30.950221 31.059758 -1.420464 3.057584 0.108873 -0.020627 569321.000000 0 0 1
0.741624 -1.364029 -31.572451 31.610603 -1.072802 3.092456 0.091870 -0.015476 -109663.000000 0 0 1
1.120024 -0.181529 -30.623921 30.644933 -0.160679 3.104559 0.084407 -0.022030 -558122.000000 0 0 1
0.183524 0.291171 -29.696561 29.698555 1.008397 3.130003 0.088761 -0.018275 -864234.000000 0 0 1
0.542024 1.463371 -29.060591 29.102460 1.216070 3.087945 0.107163 -0.030677 -754278.000000 0 0 1
-0.419676 1.997371 -28.040811 28.114991 -1.363695 3.068935 0.093596 -0.025951 -1515520.000000 0 0 1
-1.472376 2.698871 -28.529111 28.694284 -1.071374 3.034244 0.087491 -0.040808 -964219.000000 0 0 1
-1.609876 4.065371 -28.207981 28.544862 -1.193745 2.987807 0.137315 -0.041358 -1248130.000000 0 0 1
-2.869676 4.668771 -28.736211 29.254098 -1.019672 2.953149 0.173968 -0.048601 -1091250.000000 0 0 1
-2.990476 4.780371 -30.153021 30.675716 -1.011784 2.956725 0.172065 -0.058192 341231.000000 0 0 1
-4.219576 5.344171 -30.581781 31.330661 -0.902450 2.922511 0.194092 -0.048191 -221394.000000 0 0 1
-4.095376 5.809671 -32.070571 32.848834 -0.956773 2.923481 0.199506 -0.049687 -81811.600000 0 0 1
-3.944776 4.833971 -33.125801 33.708266 -0.886343 2.955423 0.211660 -0.049092 268953.000000 0 0 1
-2.733076 4.109171 -33.098341 33.464237 -0.983868 2.993580 0.181895 -0.051425 -386888.000000 0 0 1
-2.331076 3.383171 33.264520 33.517280 -0.967477 0.122888 0.149761 -0.045505 106519.000000 0 0 1
-3.283476 2.383571 32.806372 33.056326 -0.627917 0.123053 0.150912 -0.052912 486259.000000 0 0 1
-3.084576 1.795671 31.502775 31.704320 -0.527188 0.112816 0.145454 -0.038992 -144195.000000 0 0 1
-2.906376 2.668271 30.243425 30.499696 -0.742712 0.129724 0.135710 -0.036563 604678.000000 0 0 1
-3.998276 3.617271 30.084815 30.564145 -0.735410 0.177335 0.121154 -0.039655 751799.000000 0 0 1
-3.980276 4.394871 28.899925 29.501918 -0.834861 0.202361 0.109624 -0.042050 437711.000000 0 0 1
-5.108076 5.489971 28.882795 29.840377 -0.821417 0.254021 0.111496 -0.029649 601754.000000 0 0 1
-5.132176 6.307471 27.715435 28.883711 -0.887778 0.285388 0.103278 -0.019301 -827408.000000 0 0 1
-6.307776 7.027271 27.680725 29.247105 -0.839301 0.328760 0.092733 -0.016190 -953440.000000 0 0 1
-6.407776 7.836371 26.387475 28.262469 -0.885357 0.366303 0.084553 -0.013612 58506.600000 0 0 1
-5.348176 8.775771 26.274385 28.212771 -1.023475 0.372847 0.088509 -0.013432 223762.000000 0 0 1
-5.158176 9.316971 24.955575 27.132885 -1.065169 0.403343 0.071350 -0.016084 -50352.200000 0 0 1
-4.471876 10.661971 25.015475 27.558108 -1.173659 0.432941 0.073343 -0.017417 -818954.000000 0 0 1
-4.679976 11.439871 23.843725 26.856956 -1.182475 0.478244 0.085114 -0.019466 143557.000000 0 0 1
-4.134976 12.727171 23.934635 27.421628 -1.256661 0.509809 0.082035 -0.009157 -156753.000000 0 0 1
-2.597876 12.900071 23.997205 27.368351 -1.372070 0.501582 0.079784 -0.004937 -114605.000000 0 0 1
-1.824176 12.462171 25.108085 28.090021 -1.425451 0.464951 0.089275 -0.003062 57218.000000 0 0 1
-1.969376 13.243471 26.307365 29.518561 -1.423173 0.470781 0.080052 -0.005236 -535722.000000 0 0 1
-1.223976 12.719571 27.520615 30.342542 -1.474864 0.434697 0.086206 -0.009154 604158.000000 0 0 1
0.183624 12.971971 27.429295 30.342577 1.556642 0.441792 0.098602 -0.007433 75877.800000 0 0 1
0.793524 12.602771 28.646935 31.306651 1.507915 0.415182 0.099339 -0.012805 351444.000000 0 0 1
2.332324 12.690771 28.407465 31.200633 1.389043 0.426360 0.108616 -0.013411 423727.000000 0 0 1
2.739824 14.018171 28.136655 31.554510 1.377781 0.469744 0.109383 -0.018202 245393.000000 0 0 1
4.155324 14.126871 28.008675 31.643658 1.284721 0.484028 0.112671 -0.017136 579209.000000 0 0 1
4.710324 15.537871 28.302815 32.629158 1.276451 0.520826 0.107086 -0.018427 -147596.000000 0 0 1
4.432324 15.949571 29.592585 33.908044 1.299740 0.510029 0.115560 -0.014358 759070.000000 0 0 1
3.388924 16.966771 29.699405 34.371657 1.373652 0.527503 0.108555 -0.014674 572546.000000 0 0 1
3.640724 18.371371 29.241965 34.725418 1.375157 0.569648 0.100203 -0.009881 -556966.000000 0 0 1
4.692224 18.864471 30.015325 35.760383 1.327010 0.574718 0.115663 -0.007745 -101606.000000 0 0 1
5.501824 19.734471 29.210525 35.678764 1.298908 0.611637 0.102773 -0.010100 225087.000000 0 0 1
6.581024 20.479871 30.016855 36.928940 1.259877 0.621807 0.111202 -0.007997 -49979.700000 0 0 1
6.040624 21.402971 30.966745 38.125000 1.295718 0.622810 0.098866 -0.021333 256215.000000 0 0 1
7.031824 22.163771 31.652501 39.275439 1.263575 0.633584 0.076163 -0.018651 26114.500000 0 0 1
7.280624 23.553171 31.025655 39.627650 1.270999 0.671435 0.066531 -0.006831 -42284.300000 0 0 1
7.796324 23.477671 29.717895 38.667002 1.250180 0.694210 0.048556 -0.007152 96572.000000 0 0 1
7.784224 24.777871 29.154455 39.045093 1.266400 0.727729 0.051541 -0.011191 -252324.000000 0 0 1
8.398324 24.828571 27.772455 38.187682 1.244625 0.756472 0.068472 -0.013102 -211386.000000 0 0 1
7.676624 24.170271 26.752825 36.862532 1.263266 0.758679 0.065954 -0.011875 219627.000000 0 0 1
8.356724 24.293971 25.534585 36.222188 1.239491 0.788453 0.075437 -0.012559 -100638.000000 0 0 1
29.833998 2.560871 7.379399 30.839602 0.085627 1.329169 0.223028 -0.014196 88170.000000 0 0 1
29.775498 3.753971 8.055899 31.073624 0.125414 1.308549 0.213959 -0.029440 501464.000000 0 0 1
28.552398 3.845771 8.790299 30.121400 0.133886 1.274658 0.181648 -0.008450 328890.000000 0 0 1
28.757798 4.939871 9.948399 30.828297 0.170115 1.242212 0.168681 -0.020113 -4283.240000 0 0 1
28.737398 6.310171 9.657099 30.966367 0.216150 1.253649 0.190134 -0.027191 84369.200000 0 0 1
29.639398 6.763671 8.660699 31.610898 0.224357 1.293269 0.220573 -0.047635 8823.080000 0 0 1
29.233198 8.133671 8.046699 31.392449 0.271370 1.311577 0.262872 -0.054493 -157230.000000 0 0 1
28.147998 8.077471 7.177899 30.150913 0.279455 1.330422 0.207053 -0.058738 -510252.000000 0 0 1
28.033498 9.340071 6.538099 30.263190 0.321608 1.353038 0.240876 -0.076086 -345963.000000 0 0 1
26.769798 9.512071 5.716199 28.978898 0.341414 1.372240 0.188885 -0.065218 -258986.000000 0 0 1
25.555498 9.759871 6.375999 28.089000 0.364814 1.341808 0.156720 -0.049638 -16750.400000 0 0 1
24.419598 9.544871 5.565099 26.802829 0.372610 1.361644 0.193526 -0.061372 727086.000000 0 0 1
23.242398 10.515871 5.966999 26.199193 0.424884 1.341025 0.095468 -0.039506 434556.000000 0 0 1
23.506498 11.845671 5.590199 26.909584 0.466788 1.361532 0.088607 -0.034987 54673.400000 0 0 1
22.644698 12.654471 6.318099 26.698996 0.509595 1.331888 0.077237 -0.023779 -151214.000000 0 0 1
23.033198 14.170071 6.122099 27.727229 0.551523 1.348164 0.074955 -0.008244 48055.200000 0 0 1
22.505198 14.759571 4.943099 27.363536 0.580462 1.389154 0.073257 -0.028882 247733.000000 0 0 1
22.700198 16.142571 4.836999 28.271508 0.618150 1.398859 0.115014 -0.015339 -312818.000000 0 0 1
22.028498 16.925171 3.677699 28.022163 0.655130 1.439174 0.108475 -0.036919 -546509.000000 0 0 1
20.633398 16.844771 3.669699 26.887732 0.684652 1.433887 0.112667 -0.016506 -447917.000000 0 0 1
20.122698 17.624671 2.660099 26.881744 0.719317 1.471679 0.132535 -0.026257 -1597580.000000 0 0 1
18.630798 17.580071 2.566799 25.744009 0.756389 1.470926 0.098887 -0.022016 -1720650.000000 0 0 1
18.001698 18.168671 3.649099 25.835589 0.790014 1.429079 0.102828 -0.029016 -961811.000000 0 0 1
16.662998 17.822871 3.557899 24.657025 0.819019 1.425995 0.077173 -0.039041 -964472.000000 0 1 0
15.724098 18.966171 3.995799 24.958552 0.878585 1.410007 0.102573 -0.041796 139102.000000 0 1 0
14.348598 18.649571 4.110099 23.886852 0.915007 1.397870 0.103400 -0.045290 448707.000000 0 1 0
13.519198 19.732471 4.392999 24.319490 0.970124 1.389162 0.076482 -0.042639 -290434.000000 0 1 0
12.026198 19.575871 4.079799 23.334287 1.019901 1.395052 0.062034 -0.033771 -407698.000000 0 1 0
11.381498 18.768471 5.008699 22.514019 1.025673 1.346449 0.053888 -0.044270 -882803.000000 0 1 0
10.017798 19.061671 4.921999 22.089130 1.086921 1.346085 0.046313 -0.030747 -575328.000000 0 1 0
9.316498 18.576771 6.206199 21.688948 1.105939 1.280594 0.033576 -0.022174 -830594.000000 0 1 0
9.473198 19.492871 7.277199 22.862002 1.118425 1.246850 0.052848 -0.022590 82709.100000 0 1 0
8.766498 19.101471 8.427899 22.643921 1.140530 1.189426 0.052349 -0.006624 321336.000000 0 1 0
7.484598 19.895271 8.770399 22.994802 1.210974 1.179477 0.053103 -0.010461 1232760.000000 0 1 0
6.407298 20.054671 7.807299 22.454336 1.261555 1.215683 0.040711 -0.014064 925216.000000 0 1 0
6.484498 21.231271 7.105499 23.308876 1.274373 1.261025 0.047009 -0.017876 -284081.000000 0 1 0
5.215698 21.479471 6.236599 22.966636 1.332584 1.295793 0.024565 -0.017366 145602.000000 0 1 0
3.956498 21.599771 6.858699 23.005342 1.389632 1.268058 0.020522 -0.015520 168373.000000 0 1 0
3.741098 22.703671 7.728599 24.273107 1.407484 1.246753 0.041001 -0.022283 -845111.000000 0 1 0
3.776598 24.084971 7.012599 25.367796 1.415260 1.290712 0.066236 -0.025793 398371.000000 0 0 1
2.717098 24.284271 6.043099 25.171958 1.459373 1.328356 0.035985 -0.020660 720220.000000 0 0 1
2.861298 25.447771 5.309999 26.152862 1.458829 1.366338 0.054872 -0.026611 -752542.000000 0 0 1
1.634898 25.709871 4.467599 26.146315 1.507292 1.399085 0.061777 -0.023556 -348442.000000 0 0 1
0.489198 26.040971 5.248199 26.569063 1.552013 1.371958 0.079491 -0.031680 -25473.900000 0 0 1
-0.553102 26.420671 4.373299 26.785883 -1.549865 1.406793 0.099864 -0.027386 618153.000000 0 0 1
-1.848702 26.927971 5.123399 27.473306 -1.502250 1.383212 0.128807 -0.035713 558168.000000 0 0 1
-2.870902 27.147871 4.180899 27.617547 -1.465437 1.418826 0.158573 -0.041516 -1018540.000000 0 0 1
-3.922502 27.734471 4.830399 28.423928 -1.430298 1.400026 0.154971 -0.046673 -644406.000000 0 0 1
-5.098502 28.268671 3.976199 28.998666 -1.392356 1.433246 0.176119 -0.050807 -63014.200000 0 0 1
-4.650702 29.325371 3.151299 29.858619 -1.413516 1.465059 0.176788 -0.049160 24170.600000 0 0 1
-5.495302 29.771171 2.109799 30.347524 -1.388266 1.501219 0.185320 -0.060124 -556939.000000 0 0 1
-4.708602 30.305371 0.876499 30.681504 -1.416657 1.542225 0.164142 -0.054499 276281.000000 0 0 1
-3.996602 31.534471 1.114899 31.806268 -1.444731 1.535736 0.165994 -0.053197 931781.000000 0 0 1
-2.668002 31.339271 1.631199 31.494904 -1.485868 1.518981 0.176314 -0.051159 230588.000000 0 0 1
-1.852002 32.631671 1.697399 32.728230 -1.514102 1.518910 0.170715 -0.056287 -1185340.000000 0 0 1
-1.428302 33.147571 0.412399 33.180892 -1.527734 1.558367 0.128043 -0.044984 92883.900000 0 0 1
-0.502502 -33.534656 0.530399 33.542615 1.555813 1.554983 0.119038 -0.041070 972658.000000 0 0 1
0.915198 -33.778756 1.158599 33.811009 -1.543709 1.536523 0.083224 -0.027417 153142.000000 0 0 1
0.718998 -33.861856 2.596899 33.968900 -1.549566 1.494272 0.089091 -0.033169 1176770.000000 0 0 1
2.001698 33.731571 3.275599 33.949304 1.511524 1.474161 0.057595 -0.024444 1394060.000000 0 0 1
1.762798 -33.778056 4.824699 34.166391 -1.518656 1.429111 0.062600 -0.025645 614373.000000 0 0 1
0.890798 32.941871 5.373599 33.389159 1.543761 1.409155 0.114220 -0.045140 202470.000000 0 0 1
0.412098 33.250171 6.659999 33.913114 1.558403 1.373127 0.125494 -0.035771 -355817.000000 0 0 1
1.343298 33.135871 7.865399 34.083059 1.530279 1.337926 0.095897 -0.027390 -295148.000000 0 0 1
1.810198 31.856071 8.257699 32.958697 1.514033 1.317551 0.093496 -0.029043 15013.400000 0 0 1
2.697298 32.014071 9.343399 33.458561 1.486741 1.287780 0.097990 -0.031933 -219064.000000 0 0 1
3.359798 30.684271 9.648299 32.340415 1.461735 1.267848 0.091945 -0.033114 83124.900000 0 0 1
2.419398 29.769271 10.198699 31.560679 1.489703 1.241745 0.126428 -0.044551 299821.000000 0 0 1
2.909398 28.444371 10.190599 30.354491 1.468867 1.228427 0.103126 -0.042898 -186279.000000 0 0 1
2.404998 27.544971 11.311299 29.873984 1.483705 1.182477 0.098642 -0.047499 -775337.000000 0 0 1
2.995698 27.760471 12.560399 30.616688 1.463300 1.148072 0.102271 -0.042586 -100478.000000 0 0 1
2.649798 26.831571 13.613399 30.203961 1.472359 1.103229 0.102665 -0.035389 667308.000000 0 0 1
1.125798 26.653571 13.979899 30.118397 1.528583 1.088105 0.084349 -0.035992 1074060.000000 0 0 1
0.396198 27.743371 14.601399 31.353668 1.556516 1.086371 0.082237 -0.036281 513525.000000 0 0 1
-0.154502 28.618671 13.611099 31.690917 -1.565398 1.126863 0.113763 -0.044339 -459527.000000 0 0 1
-0.846502 29.856471 14.240699 33.089620 -1.542452 1.125896 0.106295 -0.038380 -117305.000000 0 0 1
-2.027002 29.441971 14.889099 33.054858 -1.502057 1.103543 0.085156 -0.032589 -465264.000000 0 0 1
-2.599002 30.608771 15.475899 34.397022 -1.486089 1.104121 0.087565 -0.029467 -345979.000000 0 0 1
-3.916802 30.309171 16.232299 34.604548 -1.442280 1.082548 0.075196 -0.026805 203656.000000 0 0 1
-4.941502 29.991471 15.293599 34.026474 -1.407500 1.104634 0.065031 -0.030892 -84012.700000 0 0 1
-6.056202 29.516971 15.990499 34.111951 -1.368428 1.082904 0.062899 -0.028807 -786551.000000 0 0 1
-7.131802 28.817871 15.174199 33.340495 -1.328192 1.098280 0.058290 -0.039436 -228763.000000 0 0 1
-8.302602 28.426171 15.861899 33.594348 -1.286625 1.079057 0.062048 -0.037544 282568.000000 0 0 1
-9.283802 28.063971 14.894899 33.100355 -1.251320 1.104040 0.065671 -0.037944 -163739.000000 0 0 1
-10.648302 27.600771 15.422499 33.362290 -1.202593 1.090239 0.054996 -0.033535 -109047.000000 0 0 1
-11.399702 28.706071 15.934099 34.754672 -1.192777 1.094519 0.058069 -0.036623 294303.000000 0 0 1
-11.439402 28.703071 17.338099 35.430720 -1.191547 1.059450 0.065552 -0.031656 -173785.000000 0 0 1
-12.353402 29.780871 18.015099 36.933056 -1.177588 1.061255 0.076500 -0.035615 876500.000000 0 0 1
-13.762302 29.512571 17.856899 37.138412 -1.134454 1.069206 0.086344 -0.028227 1152700.000000 0 0 1
-14.554802 30.624971 18.232899 38.498957 -1.127136 1.077429 0.090074 -0.018212 241480.000000 0 0 1
-15.455402 30.456071 19.499199 39.327605 -1.101194 1.052024 0.093800 -0.018436 264109.000000 0 0 1
-14.795002 30.533871 20.789799 39.792275 -1.119590 1.021065 0.087376 -0.016486 421322.000000 0 0 1
-15.718302 30.474271 21.865599 40.667562 -1.094597 1.003129 0.096658 -0.014007 -103910.000000 0 0 1
-15.053002 30.554471 23.252199 41.241161 -1.113037 0.971804 0.073358 -0.002504 113019.000000 0 0 1
-14.154602 29.423971 23.426799 40.186288 -1.122418 0.948435 0.066668 -0.005003 726819.000000 0 0 1
-13.734802 29.027171 24.727599 40.529935 -1.128842 0.914601 0.060707 0.001288 -222536.000000 0 0 1
-13.335802 30.032071 25.803699 41.780376 -1.152900 0.905105 0.053717 0.002091 229364.000000 0 0 1
-14.359402 30.993171 26.190599 43.043194 -1.136930 0.916662 0.053372 0.005253 814057.000000 0 0 1
-13.761202 32.166371 26.716099 44.020405 -1.166545 0.918639 0.048411 0.006319 -357738.000000 0 0 1
-14.721502 33.234571 27.256199 45.433025 -1.153814 0.927395 0.059620 -0.003571 -861622.000000 0 0 1
-15.439102 32.847971 28.389399 46.079421 -1.131422 0.907018 0.061409 -0.006403 -68198.700000 0 0 1
-14.787902 32.577071 29.643599 46.461711 -1.144674 0.878869 0.063183 0.000380 -1146580.000000 0 0 1
-15.643002 31.854571 30.593599 46.854941 -1.114314 0.859333 0.067937 -0.000474 -390683.000000 0 0 1
-16.792102 32.615271 30.986499 48.019722 -1.095336 0.869398 0.072080 -0.009761 257885.000000 0 0 1
-17.336202 32.089471 32.189699 48.646221 -1.075473 0.847699 0.057206 -0.010546 171484.000000 0 0 1
-18.800402 32.499171 32.474499 49.641156 -1.046344 0.857692 0.060739 -0.015870 -74643.300000 0 0 1
-19.025302 33.841371 32.840099 50.849510 -1.058642 0.868687 0.072971 -0.015157 -557526.000000 0 0 1
-20.372502 -33.622956 32.589399 51.064772 1.026042 0.878642 0.074842 -0.012893 -399940.000000 0 0 1
-20.730802 -32.153156 32.996099 50.520631 0.998119 0.859097 0.079931 -0.019208 -141407.000000 0 0 1
-20.479402 -31.832556 -33.269417 50.394163 0.999112 2.291860 0.090232 -0.019969 -358985.000000 0 0 1
-21.519702 -32.205256 -32.399217 50.497380 0.981730 2.267381 0.075478 -0.018469 4251.570000 0 0 1
-21.411402 -31.571256 -30.977817 49.140793 0.974856 2.252851 0.086582 -0.027310 132955.000000 0 0 1
-21.477402 -30.165156 -31.138617 48.382114 0.952066 2.269986 0.095161 -0.022259 -217451.000000 0 0 1
-21.085902 -29.485356 -29.980517 47.040758 0.949987 2.261826 0.087106 -0.012075 68781.800000 0 0 1
-21.358502 -27.970756 -30.141517 46.336377 0.918647 2.279030 0.089982 -0.022274 136460.000000 0 0 1
-22.687602 -27.513856 -30.004417 46.604770 0.881241 2.270258 0.075787 -0.016464 -158418.000000 0 0 1
-22.789202 -26.110056 -30.010617 45.844519 0.853206 2.284473 0.076674 -0.018464 -45677.100000 0 0 1
-23.905402 -25.595456 -29.098617 45.533780 0.819527 2.264066 0.079175 -0.016807 -121195.000000 0 0 1
-23.689002 -25.862056 -27.721417 44.704493 0.829225 2.239671 0.080646 -0.018488 679517.000000 0 0 1
-22.822002 -24.915256 -27.020017 43.263091 0.829220 2.245353 0.072484 -0.021645 328864.000000 0 0 1
-22.790402 -25.388456 -25.589117 42.647146 0.839271 2.214322 0.075813 -0.015391 916262.000000 0 0 1
-24.058102 -25.297656 -24.885317 42.872400 0.810508 2.190078 0.078663 -0.013960 1163840.000000 0 0 1
-23.949702 -25.876056 -23.582217 42.417914 0.824041 2.160301 0.079730 -0.007721 738123.000000 0 0 1
-25.284902 -25.675256 -22.749717 42.615662 0.793058 2.133925 0.080494 -0.006677 1166050.000000 0 0 1
-26.478102 -26.330456 -23.091417 43.904400 0.782602 2.124625 0.098489 -0.005997 -55991.900000 0 0 1
-26.490302 -27.742556 -22.845717 44.646526 0.808484 2.107961 0.103863 -0.015924 -128468.000000 0 0 1
-27.921802 -28.282756 -23.148917 45.993626 0.791820 2.098218 0.083447 -0.012849 725841.000000 0 0 1
-28.796402 -28.028256 -22.055917 45.839714 0.771881 2.072766 0.085360 -0.000620 73345.900000 0 0 1
-30.075402 -27.568056 -22.457117 46.570910 0.741928 2.073976 0.083740 -0.002236 286007.000000 0 0 1
-30.789102 -26.707856 -21.412417 46.040960 0.714535 2.054514 0.091232 0.000669 72603.900000 0 0 1
-31.312702 -27.488156 -20.318317 46.356424 0.720447 2.024510 0.079950 0.020315 199256.000000 0 0 1
-31.922702 -26.687156 -19.342717 45.884680 0.696306 2.005951 0.073230 0.021092 -879202.000000 0 0 1
-32.503802 -27.419356 -18.120917 46.224300 0.700751 1.973624 0.054080 0.010178 1108680.000000 0 0 1
-33.849602 -27.945156 -18.166317 47.505183 0.690138 1.963196 0.049019 0.009134 1850800.000000 0 0 1
-34.937602 -27.018156 -18.421117 47.853467 0.658263 1.965948 0.034055 0.015225 395845.000000 0 0 1
-35.697002 -26.561756 -17.119117 47.674595 0.639707 1.938081 0.048974 0.014909 -266378.000000 0 0 1
-35.214302 -25.421756 -16.445017 46.440837 0.625284 1.932755 0.044093 0.027988 -317085.000000 0 0 1
-35.734202 -25.120956 -15.198117 46.249091 0.612733 1.905632 0.043042 0.023816 -289587.000000 0 0 1
-35.384102 -25.956056 -13.894417 46.030494 0.632891 1.877431 0.075576 0.034755 88451.900000 0 0 1
-35.959102 -27.232356 -13.974517 47.222297 0.648166 1.871226 0.072662 0.023556 394534.000000 0 0 1
-35.356002 -27.885256 -12.896817 46.839751 0.667812 1.849739 0.069791 0.016847 92937.400000 0 0 1
-36.070802 -29.223056 -12.665217 48.119616 0.680904 1.837137 0.084721 0.010941 -2328.790000 0 0 1
-35.906502 -30.206456 -13.687717 48.878016 0.699394 1.854630 0.078210 0.002485 130302.000000 0 0 1
-36.216102 -31.527856 -13.297017 49.823914 0.716303 1.840951 0.057673 -0.006570 -267358.000000 0 0 1
-35.649002 -32.450156 -14.349817 50.296931 0.738459 1.860118 0.048745 0.013515 -400171.000000 0 0 1
-34.250102 -32.571056 -14.309517 49.383251 0.760276 1.864777 0.039117 0.006566 -235157.000000 0 0 1
-33.843302 -33.331956 -15.465017 49.955532 0.777786 1.885543 0.065576 -0.017846 -481167.000000 0 0 1
-32.387002 -33.769856 -15.489417 49.287353 0.806298 1.890481 0.060858 -0.005128 -355030.000000 0 0 1
-31.999402 33.361771 -16.747617 49.167593 -0.806239 1.918376 0.084152 -0.011930 -1175450.000000 0 0 1
-30.825502 32.699371 -16.524317 47.880199 -0.814888 1.923161 0.087535 -0.013534 -1647210.000000 0 0 1
9.336724 19.469971 -9.174701 23.461230 1.123646 1.972577 0.081502 -0.040289 253030.000000 0 1 0
7.967124 19.687171 -9.519801 23.274157 1.186257 1.992186 0.075156 -0.035676 417677.000000 0 1 0
7.669524 19.737771 -10.898801 23.815648 1.200181 2.046126 0.091879 -0.035298 52494.100000 0 1 0
7.809624 18.477371 -11.769401 23.257736 1.170910 2.101386 0.095999 -0.030045 144842.000000 0 1 0
9.154524 18.009371 -11.823501 23.408074 1.100515 2.100298 0.139443 -0.047493 251098.000000 0 1 0
9.264324 16.796871 -12.524101 22.908856 1.066763 2.149205 0.131083 -0.056534 585417.000000 0 1 0
10.636024 16.406571 -13.205501 23.594191 0.995632 2.164811 0.165315 -0.057130 689493.000000 0 1 0
10.541524 15.235371 -14.010401 23.227820 0.965520 2.218270 0.170581 -0.065359 -378851.000000 0 1 0
11.716424 14.895971 -14.684701 23.975091 0.904311 2.230013 0.201228 -0.071296 -461164.000000 0 1 0
11.614824 13.567471 -15.509201 23.654085 0.862784 2.285862 0.179054 -0.067946 -323232.000000 0 1 0
11.697924 12.294071 -14.808201 22.522620 0.810241 2.288267 0.184264 -0.057483 1601530.000000 0 1 0
12.970024 11.948171 -14.172201 22.623696 0.744413 2.247763 0.224973 -0.059152 909803.000000 0 1 0
14.065724 11.427771 -15.088401 23.581739 0.682290 2.265079 0.233490 -0.058228 -598154.000000 0 1 0
14.606124 12.405971 -15.935201 24.923435 0.704127 2.264470 0.195022 -0.049797 -64441.900000 0 1 0
15.466124 11.700271 -16.801401 25.659003 0.647654 2.284708 0.179023 -0.049998 -116094.000000 0 0 1
16.106824 12.615671 -17.888901 27.177154 0.664444 2.289266 0.127535 -0.041190 640183.000000 0 0 1
17.197424 13.440071 -17.446301 27.942089 0.663368 2.245126 0.098227 -0.034147 451917.000000 0 0 1
17.873624 14.082571 -18.496801 29.324340 0.667317 2.253336 0.054359 -0.018691 828733.000000 0 0 1
19.025524 15.062271 -17.954201 30.186022 0.669652 2.207795 0.052500 -0.012727 622124.000000 0 0 1
18.607524 16.280971 -17.348701 30.204096 0.718811 2.182646 0.062393 -0.024846 103950.000000 0 0 1
18.269724 17.261971 -18.277601 31.077792 0.757044 2.199534 0.055596 -0.013610 -137951.000000 0 0 1
17.947224 18.591071 -17.561701 31.243305 0.803017 2.167713 0.058689 -0.004988 52390.400000 0 0 1
18.996324 19.522471 -17.683201 32.475880 0.799057 2.146592 0.063816 -0.014783 60527.200000 0 0 1
18.578624 20.744171 -17.161001 32.710638 0.840414 2.123077 0.045690 -0.009637 -914901.000000 0 0 1
19.461224 21.904371 -17.564101 34.161943 0.844392 2.110804 0.048683 -0.013288 -66131.300000 0 0 1
20.706424 21.994871 -16.885701 34.607185 0.815562 2.080507 0.076828 -0.021556 -263898.000000 0 0 1
20.581424 22.233671 -15.482401 34.024049 0.823969 2.043217 0.071153 -0.016881 -1281670.000000 0 0 1
21.740924 22.879471 -14.730601 34.829996 0.810909 2.007471 0.082940 -0.026660 -86442.000000 0 0 1
22.794424 21.983671 -14.387901 34.783319 0.767294 1.997249 0.084595 -0.027470 787463.000000 0 0 1
23.840424 22.756671 -13.732501 35.704530 0.762144 1.965587 0.072382 -0.032557 234571.000000 0 0 1
25.297824 22.516171 -14.092801 36.681943 0.727287 1.965126 0.069173 -0.025340 -378162.000000 0 0 1
25.572924 23.068471 -15.381501 37.718953 0.733955 1.990831 0.086051 -0.027396 261979.000000 0 0 1
26.442024 24.204571 -15.396101 39.013867 0.741249 1.976463 0.076096 -0.018884 24771.700000 0 0 1
27.080624 24.519771 -16.773101 40.198461 0.735810 2.001222 0.089398 -0.030785 -192.960000 0 0 1
28.010924 23.490871 -17.119601 40.367235 0.697858 2.008760 0.089804 -0.027267 118581.000000 0 0 1
28.186224 23.592971 -18.507301 41.153514 0.696921 2.037241 0.089287 -0.025383 -335186.000000 0 0 1
28.969024 22.440171 -19.161701 41.351378 0.659077 2.052610 0.076318 -0.026509 -178868.000000 0 0 1
30.344624 22.695771 -19.240801 42.498267 0.642177 2.040636 0.074073 -0.021292 -661668.000000 0 0 1
30.953224 21.790271 -20.130001 42.873476 0.613388 2.059545 0.085148 -0.010253 -396739.000000 0 0 1
32.392124 22.166371 -20.461901 44.263835 0.600120 2.051351 0.111161 -0.008468 -518820.000000 0 0 1
32.478324 23.415271 -21.161701 45.287239 0.624649 2.057005 0.097794 -0.018082 -740997.000000 0 0 1
33.822724 23.749471 -21.274401 46.482407 0.612184 2.046188 0.088378 -0.003909 -559007.000000 0 0 1
34.098624 25.075471 -21.925001 47.667611 0.634079 2.048742 0.077195 -0.003014 -223979.000000 0 0 1
34.310824 25.155971 -23.342001 48.527359 0.632648 2.072599 0.082232 -0.010138 159944.000000 0 0 1
33.208024 24.703271 -24.098601 47.893288 0.639582 2.098063 0.092187 -0.020730 -217286.000000 0 0 1
33.271924 25.183471 -25.542901 48.925126 0.647902 2.120086 0.094240 -0.029332 -224163.000000 0 0 1
32.934324 26.553971 -25.734541 49.518175 0.678553 2.117295 0.098909 -0.031790 699540.000000 0 0 1
31.539924 26.867871 -25.903801 48.863649 0.705578 2.129543 0.089986 -0.025308 829764.000000 0 0 1
30.997524 26.644471 -27.316281 49.162522 0.710022 2.159919 0.100187 -0.029374 -434545.000000 0 0 1
30.898324 25.291371 -27.685361 48.588467 0.685941 2.177050 0.092282 -0.041943 -213248.000000 0 0 1
30.510524 25.143671 -28.980191 49.019871 0.689263 2.203333 0.101281 -0.048484 -497912.000000 0 0 1
29.946124 23.772371 -29.263511 48.148199 0.670972 2.224058 0.105301 -0.055630 262960.000000 0 0 1
28.660624 23.628871 -28.665551 46.919812 0.689465 2.228053 0.111741 -0.046740 119177.000000 0 0 1
27.973324 22.472871 -29.084951 46.189514 0.676791 2.251947 0.133515 -0.061004 57597.900000 0 0 1
26.454124 22.602971 -28.810951 45.175058 0.707055 2.262386 0.110625 -0.047158 -65657.600000 0 0 1
26.219324 22.821671 -27.448481 44.291091 0.716227 2.239194 0.106005 -0.031195 179740.000000 0 0 1
24.848524 22.761971 -27.101651 43.244144 0.741601 2.248124 0.094858 -0.023758 50946.200000 0 0 1
24.491224 23.022071 -25.622201 42.265033 0.754487 2.222104 0.100126 -0.018112 -122314.000000 0 0 1
24.951424 21.972471 -24.789501 41.471465 0.721998 2.211486 0.096449 -0.022464 225884.000000 0 0 1
25.017324 22.305771 -23.403901 40.879781 0.728162 2.180355 0.106258 -0.016330 -359974.000000 0 0 1
25.635324 21.192171 -22.527001 40.171429 0.690798 2.166114 0.105073 -0.016028 -727190.000000 0 0 1
26.977524 21.077171 -22.847801 41.158911 0.663226 2.159294 0.095272 -0.018397 -650544.000000 0 0 1
27.649424 20.045971 -22.169001 40.716044 0.627311 2.146563 0.121964 -0.024017 470180.000000 0 0 1
28.779824 19.374871 -23.005301 41.628209 0.592519 2.156322 0.138438 -0.032841 1193190.000000 0 0 1
29.814324 18.717571 -22.210201 41.623724 0.560614 2.133642 0.126897 -0.023734 994664.000000 0 0 1
30.962324 18.490971 -23.024201 42.786626 0.538365 2.138998 0.123894 -0.017252 668259.000000 0 0 1
32.164924 17.907471 -22.206701 42.992993 0.508002 2.113577 0.090224 -0.009173 93174.600000 0 0 1
32.824024 18.849171 -21.422901 43.493086 0.521270 2.085824 0.094457 -0.003779 -782651.000000 0 0 1
33.929024 18.225671 -20.842901 43.792469 0.492940 2.066837 0.104462 -0.005997 -299309.000000 0 0 1
34.730324 19.232871 -20.035101 44.469136 0.505739 2.038166 0.056763 -0.010662 54774.700000 0 0 1
33.986124 19.467571 -18.839901 43.462453 0.520186 2.019142 0.068001 -0.016668 207593.000000 0 0 1
34.530124 20.499571 -18.055601 44.029157 0.535754 1.993341 0.053598 -0.010146 -72007.000000 0 0 1
33.844224 20.678071 -16.674401 43.023828 0.548452 1.968782 0.064620 -0.011608 7907.400000 0 0 1
34.197424 19.684871 -15.720701 42.474680 0.522303 1.949934 0.061029 -0.024223 116936.000000 0 0 1
33.907024 19.839671 -14.341301 41.820710 0.529406 1.920824 0.069520 -0.028163 -277188.000000 0 0 1
34.323124 18.619071 -13.523701 41.323567 0.497039 1.904203 0.076055 -0.023673 -857206.000000 0 0 1
35.714324 18.442671 -13.505201 42.403249 0.476677 1.894937 0.059707 -0.022520 -392204.000000 0 0 1
36.222224 17.508671 -12.554201 42.145119 0.450254 1.873268 0.051181 -0.012094 167360.000000 0 0 1
36.049524 17.879971 -11.059101 41.732065 0.460429 1.839003 0.059407 -0.019615 -302285.000000 0 0 1
36.922124 18.917971 -10.601601 42.819702 0.473498 1.820985 0.052604 -0.021985 278532.000000 0 0 1
36.593324 19.456871 -9.310801 42.477432 0.488689 1.791785 0.051321 -0.014712 -142748.000000 0 0 1
35.366824 20.406071 -9.272101 41.871134 0.523324 1.794091 0.049991 -0.013632 1372390.000000 0 0 1
34.123124 19.667071 -9.370801 40.484481 0.522853 1.804381 0.063345 -0.026045 1129630.000000 0 0 1
32.927824 20.418971 -9.145501 39.809750 0.555077 1.802597 0.037238 -0.017112 790762.000000 0 0 1
31.625024 19.724471 -9.605401 38.489747 0.557663 1.823019 0.036888 -0.011996 100996.000000 0 0 1
31.533624 19.519971 -10.990601 38.680642 0.554288 1.858903 0.051829 -0.020972 27508.300000 0 0 1
30.376524 18.783271 -11.346301 37.473765 0.553802 1.878404 0.032340 -0.015028 80856.800000 0 0 1
30.332924 18.380571 -12.839101 37.719679 0.544791 1.918119 0.052208 -0.012189 -96843.200000 0 0 1
31.389524 17.478871 -13.060501 38.228129 0.508078 1.919464 0.061521 -0.008162 -133078.000000 0 0 1
31.031424 16.555271 -14.080901 37.885328 0.490087 1.951605 0.060331 -0.009765 653304.000000 0 0 1
32.280924 15.896471 -14.796701 38.906275 0.457583 1.960935 0.078145 -0.019292 650168.000000 0 0 1
32.871224 14.923071 -13.940701 38.698302 0.426164 1.939322 0.073503 -0.023283 -500057.000000 0 0 1
34.028024 14.433971 -14.531701 39.716700 0.401175 1.945379 0.071197 -0.020908 -642710.000000 0 0 1
34.758924 13.450571 -13.606201 39.676560 0.369221 1.920828 0.065417 -0.038513 -329461.000000 0 0 1
35.582924 14.117071 -12.679301 40.326181 0.377690 1.890640 0.057064 -0.016450 -450946.000000 0 0 1
36.266624 13.144871 -11.975901 40.391557 0.347724 1.871817 0.056043 -0.011464 -520939.000000 0 0 1
37.270424 13.774571 -11.009001 41.231316 0.354014 1.841081 0.082164 -0.009196 833184.000000 0 0 1
-36.891249 14.164371 -11.603501 41.185373 -0.366593 1.856402 0.064469 -0.018309 901003.000000 0 0 1
-35.994249 14.356371 -10.522001 40.154749 -0.379516 1.835928 0.057302 -0.016144 278198.000000 0 0 1
-34.492949 14.575071 -10.930701 39.008672 -0.399796 1.854811 0.103698 -0.030867 1076340.000000 0 0 1
-33.769349 13.465771 -11.516301 38.135562 -0.379435 1.877569 0.120590 -0.040190 357323.000000 0 0 1
-33.594849 12.344571 -10.638001 37.338578 -0.352139 1.859705 0.127819 -0.028793 -398415.000000 0 0 1
-32.341849 11.457771 -10.960001 36.019402 -0.340474 1.879979 0.165685 -0.035973 298620.000000 0 0 1
-32.352949 10.855071 -12.279901 36.267642 -0.323718 1.916215 0.151847 -0.029585 198740.000000 0 0 1
-31.565249 9.669871 -12.290801 35.226910 -0.297268 1.927197 0.182578 -0.045228 -146466.000000 0 0 1
-31.533149 8.899171 -13.634701 35.488587 -0.275063 1.965137 0.176900 -0.052748 380599.000000 0 0 1
-32.731249 8.188271 -13.997601 36.528281 -0.245136 1.964054 0.147995 -0.047667 675111.000000 0 0 1
-32.751649 7.593071 -15.296701 36.936626 -0.227813 1.997787 0.150983 -0.055027 515035.000000 0 0 1
-34.165249 7.273371 -15.936301 38.394425 -0.209757 1.998814 0.155991 -0.051821 909066.000000 0 0 1
-34.856949 6.320871 -15.131101 38.521559 -0.179388 1.974466 0.149213 -0.054432 -642505.000000 0 0 1
-35.847249 5.665771 -15.803701 39.583876 -0.156756 1.981491 0.112796 -0.051979 -928817.000000 0 0 1
-36.823749 5.001071 -14.840901 40.015641 -0.134985 1.950750 0.114292 -0.046413 -349359.000000 0 0 1
37.500024 4.303971 -15.336501 40.742904 0.114272 1.956727 0.118765 -0.039746 132887.000000 0 0 1
36.613524 3.932871 -14.278501 39.495484 0.107006 1.940697 0.134177 -0.037011 496372.000000 0 0 1
35.612824 2.817771 -14.677801 38.621897 0.078958 1.960634 0.135257 -0.030094 -16430.700000 0 0 1
36.287624 1.594971 -14.930001 39.271371 0.043925 1.960782 0.154437 -0.036518 141332.000000 0 0 1
35.514424 0.408071 -14.867801 38.503147 0.011490 1.967245 0.144193 -0.027753 -92430.600000 0 0 1
35.051724 -0.037629 -13.460601 37.547471 -0.001074 1.937452 0.144200 -0.040234 -267130.000000 0 0 1
36.090224 -0.401529 -12.587901 38.224610 -0.011125 1.906373 0.177339 -0.042440 -40877.600000 0 0 1
35.772824 -0.317129 -11.192201 37.484142 -0.008865 1.874006 0.160419 -0.034561 -404860.000000 0 0 1
35.839424 1.149971 -10.639501 37.403018 0.032076 1.859235 0.151900 -0.036303 175053.000000 0 0 1
34.861724 1.969071 -11.279601 36.693957 0.056422 1.883252 0.140583 -0.022563 488613.000000 0 0 1
34.904324 3.261071 -10.624301 36.630892 0.093158 1.865061 0.140101 -0.026445 -344748.000000 0 0 1
33.830624 4.285371 -11.019501 35.837201 0.126000 1.883348 0.144298 -0.032036 -218209.000000 0 0 1
34.014324 4.818771 -12.341101 36.503392 0.140732 1.915673 0.129804 -0.026154 75488.300000 0 0 1
32.949924 5.651771 -12.668201 35.750851 0.169873 1.933012 0.125602 -0.032857 -254956.000000 0 0 1
33.234024 6.266471 -14.061601 36.626461 0.186368 1.964833 0.086393 -0.030364 -68632.100000 0 0 1
33.043424 5.383071 -15.220701 36.776556 0.161490 1.997497 0.079268 -0.017953 228090.000000 0 0 1
33.439424 5.906771 -16.501901 37.754441 0.174837 2.023151 0.067733 -0.010944 -563206.000000 0 0 1
32.491924 7.002371 -17.120301 37.388007 0.212265 2.046438 0.076262 -0.016887 557337.000000 0 0 1
31.293724 6.534571 -17.738101 36.560061 0.205856 2.077362 0.059276 -0.014938 666004.000000 0 0 1
30.286124 6.272671 -16.763301 35.179596 0.204226 2.067473 0.065574 -0.007758 -816509.000000 0 0 1
28.860424 6.174771 -17.349801 34.235471 0.210775 2.102240 0.063190 -0.010054 -194902.000000 0 0 1
28.567024 5.045271 -18.129801 34.208469 0.174809 2.129373 0.067789 -0.010489 755994.000000 0 0 1
27.599724 5.402271 -19.147401 34.022820 0.193293 2.168543 0.059683 -0.019984 360573.000000 0 0 1
27.105724 4.278071 -20.064701 33.994329 0.156538 2.202148 0.055699 0.010752 -350226.000000 0 0 1
26.257124 3.435971 -19.361501 32.804119 0.130119 2.202122 0.063549 -0.004575 129466.000000 0 0 1
25.736424 2.304271 -20.068301 32.717119 0.089295 2.231140 0.069104 -0.005266 65449.600000 0 0 1
24.679324 1.461771 -19.324501 31.379008 0.059161 2.234250 0.080440 -0.005237 654151.000000 0 0 1
23.338524 1.957371 -19.331601 30.368221 0.083673 2.260843 0.094386 -0.023656 633152.000000 0 0 1
22.419924 1.007071 -18.818101 29.288020 0.044888 2.268577 0.107865 -0.033895 -580306.000000 0 0 1
21.031124 1.594271 -18.682201 28.175779 0.075661 2.295694 0.128000 -0.043055 -1394000.000000 0 0 1
20.361824 1.762871 -19.927801 28.545207 0.086362 2.343556 0.119283 -0.039881 1242110.000000 0 0 1
19.184824 2.601571 -19.774501 27.674113 0.134784 2.366775 0.122513 -0.034816 1822060.000000 0 0 1
17.874124 2.020171 -19.112001 26.245647 0.112545 2.386484 0.161380 -0.030365 105672.000000 0 0 1
17.864524 2.297871 -17.726701 25.271671 0.127925 2.348220 0.162156 -0.040222 403663.000000 0 0 1
16.666824 1.807671 -17.128901 23.967686 0.108037 2.366943 0.140580 -0.034666 376543.000000 0 1 0
15.685824 2.953871 -16.818601 23.186974 0.186135 2.382335 0.136304 -0.019618 -263099.000000 0 1 0
15.131224 3.628271 -17.919901 23.732702 0.235344 2.426560 0.139038 -0.010874 394726.000000 0 1 0
14.137824 4.567171 -17.541101 22.987548 0.312464 2.438846 0.137787 -0.016878 70599.400000 0 1 0
-20.805976 -21.413329 -17.411901 34.562893 0.799783 2.098759 0.089105 -0.028768 134546.000000 0 0 1
-20.588776 -22.217129 -18.576001 35.532609 0.823420 2.120914 0.086080 -0.024259 131893.000000 0 0 1
-21.701176 -22.175629 -19.443401 36.616190 0.796211 2.130583 0.086454 -0.017375 27691.900000 0 0 1
-21.522576 -23.184529 -20.580501 37.739908 0.822555 2.147573 0.062475 -0.007528 -47875.700000 0 0 1
-21.359676 -24.514329 -20.191901 38.274024 0.854058 2.126524 0.064060 -0.010378 210727.000000 0 0 1
-20.802776 -25.195909 -21.328101 39.018934 0.880615 2.149106 0.052142 -0.015889 50586.900000 0 0 1
-20.558376 -26.685749 -21.137901 39.769170 0.914374 2.131184 0.054970 0.001385 -90983.500000 0 0 1
-21.741876 -27.448449 -21.296301 40.983642 0.900892 2.117213 0.084659 0.020759 204711.000000 0 0 1
-21.528076 -28.826559 -21.432301 41.878062 0.929337 2.108050 0.100832 -0.020200 433621.000000 0 0 1
-22.913776 -29.494699 -21.732601 43.212085 0.910314 2.097780 0.119049 -0.018758 1002230.000000 0 0 1
-23.560576 -29.296109 -23.018901 44.082111 0.893486 2.120204 0.107400 -0.021963 351765.000000 0 0 1
-23.089376 -30.062579 -24.109601 44.923833 0.915847 2.137291 0.092915 -0.031495 -368102.000000 0 0 1
-23.553876 -29.336239 -25.375621 45.379754 0.894294 2.164197 0.082097 -0.024704 -239184.000000 0 0 1
-24.946976 -29.363199 -25.550461 46.231754 0.866534 2.156349 0.082344 -0.018377 92521.500000 0 0 1
-25.486126 -28.635569 -26.664241 46.696040 0.843524 2.178541 0.075558 -0.015461 -1117.490000 0 0 1
-25.113696 -29.030379 -28.101221 47.572463 0.857611 2.202727 0.073599 -0.029027 -347974.000000 0 0 1
-25.632486 -30.292029 -28.526011 48.870898 0.868525 2.194076 0.056172 -0.021494 151502.000000 0 0 1
-25.262766 -30.494479 -29.847081 49.587991 0.878954 2.216676 0.091509 -0.020070 40955.200000 0 0 1
-25.772796 -31.819139 -30.439441 51.022095 0.890001 2.210046 0.064463 -0.021680 -294640.000000 0 0 1
-25.188846 -32.956609 -29.892661 51.129123 0.918204 2.195245 0.068878 -0.031325 -172893.000000 0 0 1
-25.811436 33.639893 -30.431141 52.191254 -0.916323 2.193298 0.064176 -0.024858 174910.000000 0 0 1
-24.891276 32.346256 -30.426951 50.908302 -0.914915 2.211402 0.077984 -0.015232 -59451.000000 0 0 1
-23.992376 32.481256 -31.466031 51.193527 -0.934597 2.232737 0.092197 -0.027690 -949469.000000 0 0 1
-23.083176 31.408888 -31.387551 50.045276 -0.937013 2.248728 0.092335 -0.029306 -1126520.000000 0 0 1
-22.050176 31.441028 -32.457461 50.281560 -0.959186 2.272493 0.088320 -0.027640 -951176.000000 0 0 1
-22.347076 31.099618 -33.794971 51.075220 -0.947719 2.293841 0.080076 -0.019492 201455.000000 0 0 1
-21.664976 29.881238 33.432550 49.799548 -0.943464 0.834778 0.065071 -0.017390 373532.000000 0 0 1
-21.741176 29.697598 31.904474 48.708537 -0.938860 0.856603 0.056369 -0.011530 439932.000000 0 0 1
-20.851376 30.658628 31.291775 48.517075 -0.973541 0.869820 0.056611 -0.013325 558007.000000 0 0 1
-20.876476 30.389258 29.891635 47.464135 -0.968870 0.889535 0.071678 -0.006859 -20865.900000 0 0 1
-20.546776 31.546378 28.933325 47.481378 -0.993494 0.915541 0.056644 -0.009909 60506.900000 0 0 1
-21.647976 32.424285 28.912225 48.537469 -0.982115 0.932699 0.049321 -0.007275 404749.000000 0 0 1
-21.229576 33.709167 28.477285 48.968956 -1.008762 0.950179 0.053845 -0.022112 -433328.000000 0 0 1
-22.354976 -33.035889 28.622625 49.095515 0.975888 0.948382 0.073676 -0.031391 -586640.000000 0 0 1
-22.577676 -32.659409 29.969985 49.745235 0.965928 0.924205 0.066678 -0.020164 293698.000000 0 0 1
-23.591676 -31.661369 30.190895 49.704121 0.930423 0.917997 0.078502 -0.027803 163741.000000 0 0 1
-23.225376 -30.211259 29.869435 48.418193 0.915393 0.905992 0.080826 -0.026670 -620039.000000 0 0 1
-23.078776 -30.050759 28.440995 47.376874 0.915879 0.926903 0.068806 -0.023195 -43214.900000 0 0 1
-23.116376 -28.667429 28.021865 46.275406 0.892187 0.920345 0.063871 -0.023272 -399058.000000 0 0 1
-24.515976 -28.189729 27.620805 46.460766 0.854989 0.934156 0.067644 -0.017915 -706093.000000 0 0 1
-25.514246 -28.101569 28.628845 47.542462 0.833617 0.924575 0.084190 -0.018307 319436.000000 0 0 1
-26.349446 -29.249039 28.647345 48.687472 0.837503 0.941727 0.073417 -0.023373 -326216.000000 0 0 1
-27.516496 -29.303159 27.622405 48.773250 0.816832 0.968734 0.051179 -0.012282 -305486.000000 0 0 1
-27.014976 -29.328369 26.261275 47.745332 0.826434 0.988398 0.055317 -0.012446 763941.000000 0 0 1
-28.071616 -29.538749 25.285655 47.957457 0.810859 1.015433 0.051568 -0.015020 273094.000000 0 0 1
-27.565156 -29.807089 23.921955 47.122821 0.824455 1.038340 0.052740 -0.018876 -110721.000000 0 0 1
-26.729396 -28.681519 23.512425 45.715689 0.820614 1.030584 0.029907 -0.021150 706059.000000 0 0 1
-26.320956 -28.702969 22.158815 44.806989 0.828662 1.053492 0.047431 -0.027206 -922442.000000 0 0 1
-25.081886 -29.475319 21.814315 44.427016 0.865754 1.057542 0.047745 -0.027967 -1210010.000000 0 0 1
-25.219736 -30.898769 21.810615 45.458464 0.886252 1.070378 0.050071 -0.033756 304245.000000 0 0 1
-24.092076 -31.535209 21.257415 45.019720 0.918412 1.079034 0.053470 -0.015963 411266.000000 0 0 1
-23.013776 -32.201519 22.181215 45.371555 0.950286 1.059992 0.054508 -0.015575 -164319.000000 0 0 1
-22.299376 -31.272279 22.871575 44.702646 0.951351 1.033706 0.069788 -0.028795 181964.000000 0 0 1
-21.380076 -32.051999 23.709455 45.239104 0.982533 1.019148 0.085944 -0.033016 532344.000000 0 0 1
-20.601776 -31.177279 24.739535 44.816297 0.986870 0.986010 0.084931 -0.034207 -507915.000000 0 0 1
-19.499976 -30.463199 24.194305 43.515744 1.001401 0.981243 0.097843 -0.031012 600746.000000 0 0 1
-18.652476 -29.906439 25.224945 43.342909 1.013136 0.949628 0.112486 -0.032410 -78869.800000 0 0 1
-17.893576 -30.787139 26.248185 44.237938 1.044313 0.935593 0.094609 -0.028699 -957327.000000 0 0 1
-18.625776 -31.428329 27.235195 45.567700 1.035804 0.930184 0.083658 -0.025799 55332.700000 0 0 1
-17.711176 -32.098559 28.094745 46.187855 1.066592 0.916916 0.081272 -0.022077 300773.000000 0 0 1
-17.811976 -31.528179 29.560505 46.745225 1.056545 0.886181 0.093625 -0.023299 76458.500000 0 0 1
-17.488276 -30.114009 29.624525 45.719862 1.044662 0.865897 0.103513 -0.016392 101694.000000 0 0 1
-17.707576 -29.532189 30.894795 46.262261 1.030669 0.839522 0.116130 -0.014129 -197058.000000 0 0 1
-17.401676 -28.026219 30.931235 45.221992 1.015146 0.817583 0.116122 -0.016571 403779.000000 0 0 1
-18.375576 -27.173349 30.293415 44.651357 0.976199 0.825155 0.118513 -0.014413 501191.000000 0 0 1
-18.718076 -27.400589 28.923185 44.019419 0.971485 0.853891 0.104288 -0.013768 -285583.000000 0 0 1
-17.731976 -26.914879 27.854255 42.599216 0.988248 0.858111 0.104658 -0.011301 -268077.000000 0 0 1
-17.671076 -25.532739 27.809265 41.683845 0.965396 0.840424 0.095810 -0.009106 -412492.000000 0 0 1
-16.530776 -25.069619 27.164295 40.492608 0.987845 0.835448 0.082918 -0.010921 -402010.000000 0 0 1
-16.641676 -23.658829 26.634925 39.320539 0.957791 0.826602 0.085597 -0.008806 -253009.000000 0 0 1
-17.539476 -23.528429 25.570055 38.923616 0.930208 0.854058 0.093480 -0.011492 -190750.000000 0 0 1
-17.395476 -22.363729 24.832925 37.675099 0.909712 0.851130 0.113229 -0.028904 77525.500000 0 0 1
-17.750176 -20.997229 25.510645 37.506604 0.869003 0.822810 0.104647 -0.022086 -234395.000000 0 0 1
-17.292576 -19.905529 24.705895 36.133703 0.855527 0.817927 0.108251 -0.029350 -90414.100000 0 0 1
-17.857776 -18.704329 25.064205 36.013421 0.808548 0.801029 0.105586 -0.021009 -389918.000000 0 0 1
-17.428676 -17.598129 24.108155 34.563796 0.790236 0.798897 0.091921 -0.034984 937897.000000 0 0 1
-16.031576 -17.271529 24.202935 33.780160 0.822613 0.772048 0.087693 -0.034498 622361.000000 0 0 1
-15.596176 -16.212929 23.342955 32.419027 0.804785 0.766938 0.083863 -0.026091 -363132.000000 0 0 1
-14.144876 -15.821029 23.612105 31.747661 0.841275 0.732144 0.074617 -0.032619 -932986.000000 0 0 1
-13.263176 -16.852029 23.186315 31.583349 0.904010 0.746410 0.074771 -0.029054 -884742.000000 0 0 1
-11.950976 -16.431929 23.330885 30.938072 0.941981 0.716490 0.078716 -0.029113 -962900.000000 0 0 1
-11.337776 -15.718929 22.114315 29.405320 0.945930 0.719627 0.098880 -0.030964 -570138.000000 0 0 1
-11.070376 -16.490929 20.939115 28.860882 0.979592 0.759008 0.122164 -0.029294 -17165.000000 0 0 1
-9.934076 -17.323129 21.032815 29.002689 1.050122 0.759468 0.108465 -0.031491 -436790.000000 0 0 1
-9.773276 -18.443429 20.014115 28.917846 1.083511 0.806398 0.107164 -0.029726 -54489.200000 0 0 1
-9.514776 -18.010729 18.683315 27.640253 1.084779 0.828549 0.102758 -0.029627 -106020.000000 0 0 1
-9.078376 -19.053029 17.859315 27.647603 1.126142 0.868513 0.100330 -0.033480 164794.000000 0 0 1
-8.594476 -18.603629 16.424515 26.262611 1.138026 0.895158 0.101728 -0.035668 838273.000000 0 0 1
-7.324776 -17.948129 16.347715 25.358144 1.183320 0.870201 0.105006 -0.040418 210064.000000 0 0 1
-7.096076 -17.650029 15.011415 24.232631 1.188530 0.902728 0.119419 -0.042910 212522.000000 0 1 0
-6.049576 -16.511729 14.796115 22.981723 1.219604 0.871315 0.099373 -0.043837 187779.000000 0 1 0
-6.374276 -15.274929 15.411315 22.615558 1.175463 0.821058 0.109995 -0.049039 -227121.000000 0 1 0
-5.200276 -14.619129 15.838115 22.172228 1.229037 0.775141 0.074220 -0.021181 -254675.000000 0 1 0
-5.372476 -13.593129 16.969615 22.396529 1.194405 0.711031 0.052457 -0.007671 -367722.000000 0 1 0
-5.298076 -14.088029 18.306015 23.699206 1.211088 0.688135 0.077240 -0.002751 164516.000000 0 1 0
-6.284276 -15.056029 18.725715 24.836033 1.175387 0.716706 0.118480 -0.027378 347464.000000 0 1 0
-7.568376 -14.325929 19.195515 25.119322 1.084767 0.701038 0.139768 -0.033583 -240784.000000 0 0 1
-7.414776 -13.505229 20.372615 25.542388 1.068698 0.647490 0.132881 -0.026736 -256170.000000 0 0 1
-8.587376 -12.781829 20.694315 25.794822 0.979219 0.639714 0.134464 -0.021045 310812.000000 0 0 1
-8.332276 -11.808929 21.844115 26.192422 0.956328 0.584504 0.135494 -0.013735 -170433.000000 0 0 1
-7.589076 -10.647129 21.579915 25.231888 0.951544 0.544737 0.103571 -0.009424 10489.200000 0 0 1
-7.269876 -9.985429 22.774725 25.908454 0.941493 0.496939 0.097166 -0.010160 -352310.000000 0 0 1
-5.896376 -10.250829 23.382625 26.202937 1.048805 0.468234 0.107115 -0.007237 -487212.000000 0 0 1
-5.750376 -11.516229 23.972215 27.209510 1.107686 0.492775 0.129749 -0.003891 199308.000000 0 0 1
-4.360576 -11.631129 24.232915 27.231085 1.212108 0.473673 0.117888 -0.002613 122527.000000 0 0 1
-4.250976 -12.779629 25.262685 28.628534 1.249673 0.489793 0.130492 -0.010061 1374160.000000 0 0 1
-2.875176 -13.017929 25.706335 28.957707 1.353423 0.478427 0.111257 -0.014171 1535470.000000 0 0 1
-2.694376 -14.102329 26.608825 30.235160 1.382013 0.494803 0.127609 -0.020857 -1940.680000 0 0 1
-2.746876 -15.556529 26.005285 30.427385 1.396024 0.545887 0.129389 -0.039818 -649093.000000 0 0 1
-1.693176 -15.800829 25.141015 29.742288 1.464046 0.563679 0.134800 -0.047762 -547293.000000 0 0 1
-1.795076 -17.068629 24.581375 29.980067 1.466013 0.609518 0.134429 -0.048023 537577.000000 0 0 1
-0.384376 -17.760129 24.218245 30.034869 1.549157 0.632863 0.125259 -0.050687 1572620.000000 0 0 1
0.349624 -18.142929 25.344275 31.170826 -1.551528 0.621378 0.120835 -0.053047 -187519.000000 0 0 1
0.941624 -17.081229 26.045715 31.161424 -1.515726 0.581150 0.132496 -0.052365 -1353740.000000 0 0 1
1.603224 -17.417929 27.350335 32.465296 -1.479010 0.568985 0.103798 -0.036646 -780125.000000 0 0 1
2.641524 -18.373829 27.214845 32.942724 -1.428009 0.598599 0.097775 -0.043363 60909.900000 0 0 1
3.258224 -18.592929 28.515665 34.197313 -1.397318 0.584738 0.089289 -0.049187 346525.000000 0 0 1
4.403424 -17.603829 28.835155 34.069798 -1.325686 0.561692 0.136245 -0.042441 -535298.000000 0 0 1
3.953424 -16.258729 28.999925 33.480912 -1.332268 0.523324 0.130335 -0.049333 249122.000000 0 0 1
4.949324 -15.442229 29.612285 33.761601 -1.260635 0.501007 0.164726 -0.062855 51773.500000 0 0 1
4.268724 -14.304529 30.362545 33.833795 -1.280792 0.456949 0.155833 -0.054466 382370.000000 0 0 1
3.521924 -14.880029 31.463265 34.982228 -1.338385 0.452385 0.132550 -0.058039 387553.000000 0 0 1
2.562424 -13.910729 31.914095 34.908221 -1.388633 0.417196 0.130666 -0.044940 604344.000000 0 0 1
1.598624 -14.531429 33.001508 36.094564 -1.461225 0.417003 0.119473 -0.048384 203222.000000 0 0 1
2.213824 -14.502329 -33.372491 36.454653 -1.419313 2.727426 0.139887 -0.047024 -43735.200000 0 0 1
1.490624 -15.207829 -32.355201 35.782105 -1.473092 2.700366 0.122295 -0.056616 -192430.000000 0 0 1
2.115224 -15.338929 -30.958851 34.615132 -1.433761 2.677825 0.129734 -0.041651 -217626.000000 0 0 1
1.458824 -16.215629 -30.059691 34.185667 -1.481074 2.645201 0.107927 -0.034463 -136246.000000 0 0 1
2.014324 -16.167029 -28.761691 33.055487 -1.446841 2.626208 0.109887 -0.027052 128459.000000 0 0 1
1.836624 -17.446029 -27.947441 32.996918 -1.465908 2.581059 0.116047 -0.031383 283414.000000 0 0 1
2.869124 -18.364129 -28.282281 33.843175 -1.415814 2.560178 0.105963 -0.023786 238570.000000 0 0 1
2.883924 -19.442329 -27.393521 33.715370 -1.423538 2.519213 0.103845 -0.032334 -584069.000000 0 0 1
3.869824 -20.553029 -27.856251 34.833508 -1.384690 2.497587 0.084086 -0.028909 878139.000000 0 0 1
5.270524 -20.369429 -27.620571 34.721578 -1.317602 2.490607 0.090287 -0.021161 803091.000000 0 0 1
5.706224 -20.254229 -26.284771 33.670224 -1.296184 2.466507 0.120411 -0.026107 -864971.000000 0 0 1
6.850524 -21.187929 -25.864351 34.129498 -1.258083 2.430777 0.057303 -0.013585 -437235.000000 0 0 1
6.476124 -22.561029 -25.856331 34.921198 -1.291263 2.404490 0.054444 -0.011539 116873.000000 0 0 1
6.711224 -23.217229 -27.049091 36.273042 -1.289404 2.412393 0.049675 -0.009717 -125695.000000 0 0 1
5.876424 -24.516929 -27.243201 37.118784 -1.335546 2.394911 0.047245 -0.001042 -103489.000000 0 0 1
6.344824 -25.527639 -26.409411 37.274309 -1.327185 2.358188 0.063776 -0.002717 -206225.000000 0 0 1
5.792424 -26.828609 -26.616111 38.232758 -1.358156 2.340831 0.076229 -0.004227 52455.700000 0 0 1
6.144724 -27.808659 -25.481241 38.214824 -1.353326 2.300689 0.104733 -0.013981 710746.000000 0 0 1
7.544724 -28.100219 -25.527221 38.706384 -1.308489 2.290962 0.122986 -0.022146 287772.000000 0 0 1
7.847024 -29.250119 -24.793301 39.138894 -1.308695 2.256825 0.144377 -0.035900 418625.000000 0 0 1
9.363424 -29.610859 -24.811401 39.750249 -1.264530 2.244881 0.173347 -0.041624 540485.000000 0 0 1
9.787724 -29.953519 -26.129101 40.935837 -1.254970 2.263076 0.178816 -0.041355 460028.000000 0 0 1
11.209424 -30.125039 -26.218461 41.479837 -1.214574 2.255027 0.187863 -0.033054 998588.000000 0 0 1
11.612924 -29.990509 -27.741501 42.472126 -1.201356 2.282559 0.182339 -0.039337 -74933.600000 0 0 1
11.051824 -30.960129 -28.542041 43.535279 -1.227926 2.285783 0.190127 -0.051328 -158248.000000 0 0 1
11.253024 -30.646089 -29.932791 44.292046 -1.218888 2.312853 0.168250 -0.030748 163221.000000 0 0 1
-36.008016 -5.123029 -5.170701 36.736341 0.141326 1.712017 0.240962 -0.044647 245942.000000 0 0 1
-35.371622 -4.364029 -4.131801 35.878519 0.122756 1.686213 0.238867 -0.057249 294718.000000 0 0 1
-34.605915 -3.264429 -4.584301 35.060542 0.094053 1.701926 0.237374 -0.059127 41269.700000 0 0 1
-35.356344 -2.011229 -5.166101 35.788331 0.056823 1.715654 0.225045 -0.042056 438922.000000 0 0 1
-36.209026 -1.286629 -4.237301 36.478811 0.035518 1.687217 0.170592 -0.036962 747590.000000 0 0 1
-37.213076 -0.482829 -4.822301 37.527333 0.012974 1.699654 0.159973 -0.034675 428780.000000 0 0 1
37.232628 0.097571 -3.762501 37.422380 0.002621 1.671508 0.151401 -0.029653 300047.000000 0 0 1
-37.476476 0.920671 -2.873201 37.597728 -0.024562 1.647290 0.138719 -0.019150 -256455.000000 0 0 1
37.080678 1.699171 -2.115601 37.179828 0.045792 1.627729 0.144027 -0.025095 -769759.000000 0 0 1
37.698898 2.755971 -1.129301 37.816367 0.072975 1.600664 0.138670 -0.027089 121294.000000 0 0 1
-37.021066 3.828171 -1.724101 37.258378 -0.103039 1.617087 0.161064 -0.041865 695683.000000 0 0 1
-35.777701 3.502471 -2.342601 36.024977 -0.097584 1.635869 0.121878 -0.006340 -551689.000000 0 0 1
-35.021002 4.714271 -2.945901 35.459460 -0.133808 1.653970 0.114178 -0.011980 -133888.000000 0 0 1
-34.192229 5.296771 -1.935901 34.654177 -0.153690 1.626689 0.112098 -0.027239 371187.000000 0 0 1
-33.991884 6.729471 -2.135601 34.717355 -0.195446 1.632349 0.144733 -0.038438 -115312.000000 0 0 1
-33.365886 7.468171 -0.947001 34.204571 -0.220197 1.598486 0.164615 -0.040019 1137560.000000 0 0 1
-31.948806 7.182071 -0.739201 32.754461 -0.221123 1.593366 0.202635 -0.031831 1812550.000000 0 0 1
-31.369836 7.596371 0.519399 32.280663 -0.237582 1.554706 0.217154 -0.050139 199142.000000 0 0 1
-31.509386 9.087971 0.962999 32.807925 -0.280800 1.541439 0.231923 -0.058351 615679.000000 0 0 1
-32.885846 9.415671 1.271499 34.230840 -0.278854 1.533643 0.208777 -0.053795 1023350.000000 0 0 1
-33.144266 10.742371 1.601099 34.878423 -0.313426 1.524875 0.222067 -0.047250 -663927.000000 0 0 1
-34.644761 10.974671 1.628899 36.377962 -0.306777 1.526004 0.208395 -0.045626 -1247820.000000 0 0 1
-35.301460 10.956971 0.430399 36.965301 -0.300955 1.559153 0.164224 -0.027428 -61290.900000 0 0 1
-36.618826 11.473171 0.450199 38.376747 -0.303626 1.559065 0.154504 -0.009159 324677.000000 0 0 1
37.698708 10.408671 0.489899 39.112313 0.269390 1.558271 0.167454 -0.047837 -352048.000000 0 0 1
37.508958 9.801171 -0.747701 38.775559 0.255587 1.590080 0.176606 -0.036242 -827056.000000 0 0 1
36.279108 9.187571 -0.602601 37.429244 0.248032 1.586897 0.190462 -0.042750 -518048.000000 0 0 1
35.762048 8.461971 -1.857601 36.796463 0.232345 1.621301 0.166703 -0.054596 125614.000000 0 0 1
35.155288 9.353371 -2.790201 36.485135 0.260035 1.647346 0.156213 -0.047129 160180.000000 0 0 1
34.855688 8.636971 -3.977501 36.129445 0.242900 1.681110 0.134070 -0.053249 48687.400000 0 0 1
34.059738 9.474171 -5.044601 35.710974 0.271305 1.712532 0.126883 -0.049152 475859.000000 0 0 1
32.677958 9.612771 -4.756401 34.392989 0.286097 1.709537 0.152153 -0.042768 452263.000000 0 0 1
31.935568 10.055171 -5.861101 33.990285 0.305032 1.744097 0.137934 -0.022698 1043610.000000 0 0 1
30.363298 10.205171 -5.711701 32.537654 0.324240 1.747252 0.166959 -0.027994 848045.000000 0 0 1
29.725098 8.941071 -5.675701 31.555313 0.292183 1.751646 0.197091 -0.027250 270446.000000 0 0 1
28.348798 9.278171 -5.787501 30.384766 0.316298 1.762441 0.183049 -0.012407 -292411.000000 0 0 1
27.477198 8.045371 -6.042101 29.261432 0.284840 1.778779 0.203580 -0.009355 -647863.000000 0 0 1
27.700198 7.474671 -7.302901 29.605811 0.263564 1.820040 0.219896 -0.009246 -93278.600000 0 0 1
26.928098 6.342371 -7.456701 28.652234 0.231314 1.834076 0.234916 -0.011137 -471197.000000 0 0 1
27.101998 5.477971 -8.725701 28.994212 0.199437 1.876481 0.245319 -0.032301 780547.000000 0 0 1
28.435098 4.925571 -8.708601 30.143918 0.171520 1.863875 0.235054 -0.026333 1225060.000000 0 0 1
28.611798 3.928771 -9.716401 30.470948 0.136460 1.895338 0.216361 -0.025836 -236391.000000 0 0 1
29.613498 2.840871 -9.276401 31.162180 0.095639 1.873059 0.200761 -0.026446 -26082.800000 0 0 1
30.998348 3.171571 -9.393601 32.545294 0.101959 1.863594 0.173435 -0.015109 1023230.000000 0 0 1
31.853228 2.670671 -8.378501 33.044817 0.083647 1.827144 0.148045 -0.017172 -2140.510000 0 0 1
31.931958 1.151471 -8.155401 32.977059 0.036045 1.820694 0.134316 -0.018395 -1115280.000000 0 0 1
30.899148 0.731571 -7.302701 31.758810 0.023672 1.802815 0.166836 -0.027812 8238.940000 0 0 1
30.988238 -0.654729 -6.967401 31.768605 -0.021125 1.791911 0.156184 -0.026568 -168912.000000 0 0 1
30.778938 -1.746329 -8.076801 31.868910 -0.056677 1.827029 0.143375 -0.024330 -99881.100000 0 0 1
31.751608 -1.833629 -9.111801 33.084010 -0.057685 1.849817 0.140134 -0.021535 225230.000000 0 0 1
31.558068 -2.959029 -9.909501 33.209422 -0.093491 1.873806 0.106925 -0.031684 -634524.000000 0 0 1
32.613278 -3.140029 -10.959901 34.548591 -0.095985 1.893605 0.118814 -0.030489 -241814.000000 0 0 1
33.899958 -3.544129 -10.509201 35.668071 -0.104168 1.869874 0.164205 -0.024790 359604.000000 0 0 1
34.716108 -3.934829 -11.605501 36.815468 -0.112861 1.891500 0.166967 -0.043522 51004.500000 0 0 1
36.149358 -4.311629 -11.176601 38.082577 -0.118712 1.868665 0.201652 -0.041002 -211415.000000 0 0 1
36.193368 -5.416129 -10.275401 38.011554 -0.148542 1.844525 0.192941 -0.040827 530481.000000 0 0 1
37.485438 -5.679329 -9.732101 39.142389 -0.150364 1.822065 0.219658 -0.042269 390580.000000 0 0 1
37.440838 -6.858529 -8.693901 39.044074 -0.181174 1.795348 0.221817 -0.048577 -100183.000000 0 0 1
36.784418 -6.490329 -7.498901 38.097917 -0.174645 1.768922 0.223726 -0.043654 424020.000000 0 0 1
36.331908 -7.644929 -6.844001 37.753051 -0.207394 1.753088 0.226697 -0.047769 -348329.000000 0 0 1
35.713708 -7.452829 -5.392601 36.879449 -0.205730 1.717545 0.218361 -0.049577 -309451.000000 0 0 1
36.616048 -7.277929 -4.300301 37.579194 -0.196206 1.685481 0.252895 -0.043968 562219.000000 0 0 1
37.106058 -8.447329 -3.580501 38.223512 -0.223839 1.664607 0.260580 -0.048383 -122130.000000 0 0 1
-37.322016 -9.311529 -4.329301 38.708917 0.244500 1.682873 0.254486 -0.050720 -416195.000000 0 0 1
37.425438 -10.128029 -5.275301 39.128879 -0.264289 1.706027 0.212415 -0.043668 710546.000000 0 0 1
-37.019206 -10.886229 -5.924301 39.038813 0.286007 1.723139 0.184911 -0.040150 -139615.000000 0 0 1
-37.571126 -11.545729 -7.130001 39.946592 0.298143 1.750246 0.168676 -0.035667 -205977.000000 0 0 1
-37.661076 -10.606729 -8.185101 39.973181 0.274525 1.777020 0.173402 -0.046376 394595.000000 0 0 1
37.246708 -11.230429 -9.381101 40.018057 -0.292846 1.807420 0.166593 -0.032356 131628.000000 0 0 1
37.434538 -10.417729 -10.683801 40.299098 -0.271424 1.839117 0.150639 -0.034668 -418795.000000 0 0 1
36.546238 -9.329029 -10.729101 39.214435 -0.249929 1.847931 0.148923 -0.040224 223428.000000 0 0 1
36.403098 -8.944129 -12.088901 39.386857 -0.240925 1.882759 0.149979 -0.047203 375295.000000 0 0 1
35.232248 -7.911329 -12.307501 38.149378 -0.220884 1.899286 0.150494 -0.045663 311019.000000 0 0 1
35.131008 -7.650329 -13.698301 38.475430 -0.214418 1.934809 0.154922 -0.043260 267920.000000 0 0 1
34.204398 -6.630129 -13.995601 37.546988 -0.191464 1.952766 0.132006 -0.047736 -332644.000000 0 0 1
34.554718 -5.832929 -15.272001 38.226766 -0.167226 1.981779 0.136945 -0.048395 -73218.300000 0 0 1
35.616578 -4.980529 -14.905001 38.929492 -0.138936 1.963699 0.153778 -0.040537 168865.000000 0 0 1
36.112298 -4.105329 -15.921701 39.679369 -0.113196 1.983687 0.166935 -0.040612 141676.000000 0 0 1
37.450018 -3.406229 -15.596301 40.710574 -0.090704 1.963948 0.180823 -0.042703 -233704.000000 0 0 1
-37.333096 -2.898629 -16.697101 40.999454 0.077487 1.990239 0.190210 -0.042734 371278.000000 0 0 1
-36.016376 -2.367229 -16.543901 39.704959 0.065632 2.000576 0.203181 -0.039719 578031.000000 0 0 1
-35.875595 -0.946429 -16.082801 39.326969 0.026375 1.992101 0.194712 -0.040099 -247686.000000 0 0 1
-36.174966 -0.074129 -17.184201 40.049100 0.002049 2.014268 0.169501 -0.036641 217320.000000 0 0 1
-36.090176 1.227971 -16.783601 39.820823 -0.034012 2.005871 0.168478 -0.042516 -5694.820000 0 0 1
-36.168736 2.250771 -17.956501 40.443533 -0.062150 2.030842 0.145281 -0.035030 -370451.000000 0 0 1
-35.078732 2.383071 -18.804001 39.872132 -0.067831 2.061909 0.135707 -0.026721 -286993.000000 0 0 1
-35.078029 3.723471 -19.285101 40.202581 -0.105752 2.071107 0.122368 -0.019350 -249559.000000 0 0 1
-34.153887 3.915571 -20.490901 40.021203 -0.114147 2.108309 0.115025 -0.012551 -1243740.000000 0 0 1
-32.808066 3.893571 -20.236001 38.743061 -0.118125 2.120357 0.127085 -0.017161 -820596.000000 0 0 1
-32.015566 4.177571 -21.382701 38.725553 -0.129753 2.155749 0.119603 -0.015708 1268990.000000 0 0 1
-30.458756 4.333471 -21.175801 37.348752 -0.141325 2.173625 0.116850 -0.020948 1004140.000000 0 0 1
-29.760626 3.192071 -20.743901 36.416941 -0.106850 2.176843 0.129769 -0.013173 404759.000000 0 0 1
-28.390936 3.335971 -21.124901 35.544836 -0.116965 2.207212 0.103186 -0.014497 374271.000000 0 0 1
-27.450736 2.358371 -20.383201 34.272141 -0.085702 2.207745 0.112199 -0.024839 -148602.000000 0 0 1
-27.014816 3.017271 -19.161601 33.257648 -0.111229 2.184814 0.098615 -0.014387 165248.000000 0 0 1
-26.447866 2.000771 -18.308101 32.228547 -0.075506 2.174956 0.098432 -0.014694 -166308.000000 0 0 1
-25.587676 2.565071 -17.143901 30.906667 -0.099913 2.158798 0.104058 -0.020456 -504639.000000 0 0 1
-24.514876 3.341571 -17.548901 30.333301 -0.135473 2.187729 0.094641 -0.023888 -573480.000000 0 0 1
-23.871676 3.784771 -16.354401 29.183006 -0.157238 2.165675 0.120061 -0.031853 -198993.000000 0 0 1
-22.710876 4.739171 -16.648201 28.555318 -0.205722 2.193232 0.120463 -0.044498 5090.880000 0 0 1
-21.615776 4.126371 -17.332801 28.012402 -0.188627 2.237953 0.142058 -0.045565 106431.000000 0 0 1
-20.580576 5.085571 -17.463601 27.466352 -0.242252 2.259864 0.126863 -0.046484 -710243.000000 0 0 1
-19.238976 4.442871 -17.772201 26.565549 -0.226952 2.303651 0.148215 -0.049356 -877385.000000 0 0 1
-18.897076 3.506171 -16.807101 25.531771 -0.183454 2.289330 0.171223 -0.040012 301115.000000 0 0 1
-17.832176 2.671971 -17.266801 24.965343 -0.148733 2.334541 0.131053 -0.040012 -555008.000000 0 1 0
-17.748176 1.320071 -16.497901 24.267696 -0.074241 2.318327 0.147682 -0.029302 873534.000000 0 1 0
-18.696276 0.347971 -17.060201 25.312492 -0.018610 2.310384 0.105019 -0.022632 777554.000000 0 0 1
-20.053676 0.636871 -16.831101 26.188575 -0.031748 2.268799 0.114172 -0.025837 -1180790.000000 0 0 1
-20.955076 -0.477129 -17.320901 27.191110 0.022765 2.261404 0.095661 -0.022960 -471558.000000 0 0 1
-20.833576 -1.716029 -16.698501 26.754860 0.082183 2.244813 0.082027 -0.020812 893405.000000 0 0 1
-21.941476 -2.498229 -17.164501 27.969440 0.113371 2.231519 0.077884 -0.014386 491734.000000 0 0 1
-22.058876 -3.764729 -16.376101 27.729837 0.169039 2.202548 0.093454 -0.024337 -52851.900000 0 0 1
-22.195176 -3.490529 -14.988201 27.008439 0.155988 2.159093 0.085007 -0.022440 293149.000000 0 0 1
-22.606576 -4.595729 -14.250701 27.115687 0.200559 2.124160 0.082467 -0.031785 -333397.000000 0 0 1
-22.871576 -4.227729 -12.772001 26.535008 0.182783 2.072964 0.096153 -0.037110 -134361.000000 0 0 1
-23.798076 -3.157629 -12.647901 27.134635 0.131914 2.055692 0.076194 -0.031391 336655.000000 0 0 1
-24.193476 -2.899829 -11.325301 26.869978 0.119291 2.005879 0.100698 -0.043395 -122118.000000 0 0 1
-25.295546 -1.804629 -11.237901 27.738272 0.071221 1.987929 0.148647 -0.048384 -33930.500000 0 0 1
-25.623696 -1.558329 -9.883001 27.507742 0.060741 1.938293 0.158477 -0.058110 512659.000000 0 0 1
-26.211496 -0.255429 -9.774801 27.975962 0.009745 1.927727 0.178757 -0.059855 -163378.000000 0 0 1
-26.538166 0.240071 -8.330001 27.815837 -0.009046 1.874933 0.210532 -0.056960 -254407.000000 0 0 1
-25.410846 0.383071 -7.492601 26.495224 -0.015074 1.857499 0.191095 -0.058326 56324.100000 0 0 1
-25.762226 0.554971 -6.137001 26.488923 -0.021539 1.804602 0.186997 -0.058285 -749828.000000 0 0 1
-24.675476 1.025071 -5.201901 25.238654 -0.041518 1.778393 0.156403 -0.053879 -945987.000000 0 0 1
-24.438476 2.388171 -5.312501 25.123000 -0.097412 1.783864 0.196732 -0.049619 1092400.000000 0 0 1
-23.056276 2.694971 -5.067301 23.759887 -0.116359 1.785718 0.191100 -0.042123 735006.000000 0 1 0
-22.532176 4.137171 -5.315601 23.517456 -0.181589 1.798794 0.178459 -0.037430 -155210.000000 0 1 0
-22.828476 5.035671 -4.262201 23.762652 -0.217110 1.751138 0.179630 -0.036533 585633.000000 0 1 0
-22.263476 6.292271 -4.596001 23.587671 -0.275444 1.766898 0.150689 -0.033105 -395191.000000 0 1 0
-22.820976 7.483171 -3.802401 24.315695 -0.316859 1.727817 0.176702 -0.029255 -663092.000000 0 1 0
-22.367476 7.537571 -2.443501 23.729510 -0.325036 1.673952 0.159762 -0.030826 1811130.000000 0 1 0
-21.000676 7.927371 -2.106601 22.545717 -0.360945 1.664370 0.170921 -0.030117 848857.000000 0 1 0
-20.707876 9.385071 -2.463601 22.868428 -0.425522 1.678735 0.157893 -0.033012 -556358.000000 0 1 0
-20.677476 9.642671 -3.855201 23.138748 -0.436356 1.738189 0.144511 -0.032166 252358.000000 0 1 0
-20.135776 10.934271 -4.048901 23.268033 -0.497474 1.745698 0.135365 -0.032141 -62174.600000 0 1 0
-19.991576 11.350671 -5.515601 23.641546 -0.516386 1.806268 0.127115 -0.035302 -758139.000000 0 1 0
-18.835076 10.795371 -6.022701 22.529382 -0.520445 1.841414 0.090856 -0.027896 -689085.000000 0 1 0
-18.640676 11.451871 -7.329101 23.072405 -0.550903 1.894053 0.093084 -0.025004 -484745.000000 0 1 0
-17.318976 11.276471 -8.057501 22.181728 -0.577152 1.942550 0.072289 -0.014597 -918537.000000 0 1 0
-16.933976 9.979771 -8.434901 21.389318 -0.532540 1.976158 0.047515 -0.005527 635151.000000 0 1 0
-17.851776 9.141971 -9.184501 22.059388 -0.473284 2.000227 0.072303 -0.014351 -191198.000000 0 1 0
-18.082876 9.515371 -10.676901 23.054910 -0.484394 2.052294 0.088622 -0.018324 -153111.000000 0 1 0
-16.944776 9.300571 -11.479601 22.481265 -0.501979 2.106713 0.076874 -0.016937 -54508.700000 0 1 0
-17.005476 10.023871 -12.676301 23.459599 -0.532626 2.141645 0.086316 -0.024161 171384.000000 0 1 0
-15.856076 9.744371 -13.687101 23.102048 -0.551050 2.204909 0.063967 -0.012216 -239704.000000 0 1 0
-15.819276 8.519671 -14.406901 23.030264 -0.494020 2.246650 0.069015 -0.028656 173080.000000 0 1 0
-15.588076 7.291671 -13.661301 21.972431 -0.437535 2.241768 0.063754 -0.019885 -321370.000000 0 1 0
-15.658476 6.076471 -14.613401 22.263487 -0.370173 2.286812 0.074828 -0.021564 161866.000000 0 1 0
-14.679576 6.009171 -15.665701 22.293817 -0.388546 2.349971 0.084499 -0.024643 757524.000000 0 1 0
-14.656776 4.721971 -16.246501 22.384523 -0.311670 2.382981 0.080580 -0.025126 -44275.400000 0 1 0
33.186708 -15.558429 27.679175 45.929936 -0.438390 0.923992 0.065053 -0.002512 190626.000000 0 0 1
32.443948 -14.349829 27.861945 45.108928 -0.416429 0.905034 0.076159 -0.004656 138574.000000 0 0 1
31.567958 -14.389829 28.992675 45.212591 -0.427697 0.874667 0.077116 -0.010327 169352.000000 0 0 1
32.205008 -14.344129 30.410185 46.558522 -0.419022 0.859046 0.066701 -0.019613 -222245.000000 0 0 1
32.819108 -13.146929 30.735015 46.846310 -0.381013 0.855181 0.052464 -0.024231 -275703.000000 0 0 1
33.086928 -13.190429 32.094587 47.945748 -0.379351 0.837404 0.046665 -0.028002 -143378.000000 0 0 1
33.579988 -11.841229 32.614604 48.286051 -0.339014 0.829227 0.040013 -0.026948 -51260.800000 0 0 1
33.673968 -11.831229 -33.626891 49.037556 -0.337874 2.326413 0.036217 -0.044122 42068.500000 0 0 1
33.972058 -10.565029 -33.150751 48.628108 -0.301510 2.320907 0.076710 -0.035890 -475987.000000 0 0 1
33.534968 -10.272029 -31.689081 47.268452 -0.297234 2.305553 0.085712 -0.029925 -452608.000000 0 0 1
32.145248 -10.382929 -31.605981 46.260785 -0.312422 2.322950 0.135543 -0.032333 -460484.000000 0 0 1
31.704828 -9.879629 -30.352351 44.989648 -0.302076 2.311289 0.107078 -0.027814 -120709.000000 0 0 1
30.366898 -10.467429 -29.868611 43.861709 -0.331944 2.319886 0.133324 -0.022849 -375542.000000 0 0 1
30.003998 -10.230429 -28.519521 42.641115 -0.328607 2.303426 0.114658 -0.018669 667676.000000 0 0 1
28.808498 -10.932429 -28.157981 41.741100 -0.362698 2.311201 0.141202 -0.022718 130230.000000 0 0 1
28.141098 -10.616829 -26.768421 40.263964 -0.360760 2.298054 0.121156 -0.017702 -352684.000000 0 0 1
27.383298 -9.409629 -26.593851 39.314362 -0.330986 2.313716 0.102055 -0.021689 1276120.000000 0 0 1
26.315498 -9.117529 -27.551531 39.175523 -0.333527 2.350803 0.090839 -0.024588 821028.000000 0 0 1
25.041098 -9.988829 -27.417321 38.451824 -0.379555 2.364607 0.096518 -0.004077 -532403.000000 0 0 1
25.393798 -11.271229 -27.759041 39.274036 -0.417734 2.355766 0.095118 -0.022142 -330708.000000 0 0 1
24.343898 -12.193529 -27.665231 38.815880 -0.464357 2.364178 0.104538 -0.030784 -179026.000000 0 0 1
24.863498 -13.570429 -28.088301 39.891136 -0.499611 2.351985 0.109865 -0.022712 135587.000000 0 0 1
25.128898 -13.681729 -29.463311 41.069915 -0.498581 2.370851 0.104559 -0.027478 207885.000000 0 0 1
26.201198 -14.554729 -29.764631 42.240693 -0.507055 2.352717 0.106795 -0.025649 -114145.000000 0 0 1
26.351098 -14.589229 -31.290881 43.432076 -0.505640 2.375255 0.115886 -0.032132 219251.000000 0 0 1
25.146298 -14.990629 -31.953401 43.336764 -0.537574 2.399902 0.116501 -0.027552 454000.000000 0 0 1
25.332998 -15.414029 -33.245741 44.549213 -0.546614 2.413237 0.105953 -0.024637 64172.400000 0 0 1
25.421698 -14.377329 33.249670 44.255066 -0.514706 0.720738 0.083226 -0.028377 302065.000000 0 0 1
24.196998 -13.683029 33.110980 43.232592 -0.514654 0.698387 0.088424 -0.024502 200741.000000 0 0 1
24.234198 -12.991729 31.873831 42.095398 -0.492102 0.711810 0.071056 -0.023435 -354184.000000 0 0 1
23.350898 -11.729529 31.953228 41.277780 -0.465499 0.685500 0.076164 -0.028539 834098.000000 0 0 1
21.927998 -11.858429 31.957077 40.530411 -0.495744 0.662476 0.064311 -0.014706 1062480.000000 0 0 1
21.327798 -12.202029 30.673875 39.302050 -0.519666 0.675387 0.048833 -0.017082 -991682.000000 0 0 1
19.829798 -12.411529 30.732375 38.623126 -0.559248 0.650636 0.055032 -0.018090 -225364.000000 0 0 1
19.068398 -11.158829 30.729035 37.847019 -0.529466 0.623350 0.071250 -0.019469 497253.000000 0 0 1
18.127898 -11.180329 31.808203 38.280311 -0.552643 0.590022 0.061788 -0.010436 108381.000000 0 0 1
17.497598 -9.802329 32.019100 37.781932 -0.510648 0.559593 0.062591 -0.005891 -158044.000000 0 0 1
16.498898 -9.554829 31.030655 36.419912 -0.524924 0.550956 0.097213 -0.014991 845770.000000 0 0 1
15.679198 -8.323229 31.168135 35.868734 -0.488018 0.517720 0.104119 -0.010693 406714.000000 0 0 1
14.478598 -8.482729 32.053733 36.180496 -0.529973 0.482280 0.116182 -0.013008 -1599450.000000 0 0 1
13.587598 -9.519329 31.725809 35.801780 -0.611122 0.481823 0.118560 -0.021167 393578.000000 0 0 1
12.432798 -9.662229 32.553020 36.161198 -0.660656 0.450523 0.125267 -0.018117 880895.000000 0 0 1
11.253898 -8.714729 32.187126 35.193861 -0.658919 0.416362 0.143605 -0.024700 -342468.000000 0 0 1
11.595798 -7.359529 32.455217 35.241543 -0.565524 0.400320 0.141384 -0.024414 993761.000000 0 0 1
10.430198 -6.546529 32.169758 34.446182 -0.560504 0.365588 0.154204 -0.027601 873269.000000 0 0 1
10.720698 -5.058729 32.234251 34.344884 -0.440888 0.352403 0.130837 -0.025805 -30892.300000 0 0 1
11.011298 -4.527729 33.537692 35.588282 -0.390115 0.341121 0.129108 -0.034171 255267.000000 0 0 1
11.525998 -3.241029 33.532678 35.606087 -0.274115 0.342946 0.089262 -0.026687 -276339.000000 0 0 1
11.471898 -2.436429 -32.775001 34.810075 -0.209273 2.797962 0.094003 -0.037104 -259485.000000 0 0 1
10.131798 -2.146229 -32.461811 34.073873 -0.208745 2.832761 0.100246 -0.023553 -213731.000000 0 0 1
9.944898 -1.110229 -31.483451 33.035455 -0.111178 2.833851 0.107516 -0.022994 -487994.000000 0 0 1
8.454398 -0.854029 -31.271311 32.405263 -0.100674 2.876267 0.123880 -0.023916 -553918.000000 0 0 1
7.824998 -0.231129 -32.348021 33.281804 -0.029529 2.904152 0.109071 -0.030495 91933.400000 0 0 1
6.433198 -0.080129 -32.069181 32.708177 -0.012455 2.943602 0.132103 -0.031277 554988.000000 0 0 1
5.634598 0.704171 -33.116091 33.599405 0.124328 2.971774 0.149232 -0.032401 -80293.600000 0 0 1
6.065098 2.029771 -33.054951 33.668014 0.322948 2.950467 0.124844 -0.027885 228281.000000 0 0 1
5.288298 2.919671 33.770275 34.306298 0.504454 0.177005 0.134694 -0.030197 99060.500000 0 0 1
6.004298 4.282571 33.636445 34.435483 0.619564 0.215843 0.118750 -0.035001 -22357.100000 0 0 1
5.339398 5.207771 32.831966 33.668503 0.772919 0.223382 0.125891 -0.040399 -188200.000000 0 0 1
6.171498 6.299571 32.448641 33.625679 0.795667 0.265369 0.117838 -0.038105 -214222.000000 0 0 1
5.544398 7.344971 31.552295 32.866948 0.924194 0.283791 0.128093 -0.040018 -476840.000000 0 0 1
4.536298 8.045871 32.298931 33.593675 1.057416 0.278537 0.152483 -0.044555 169699.000000 0 0 1
4.105298 9.233671 31.694567 33.266496 1.152441 0.308641 0.167883 -0.044723 -9058.780000 0 0 1
3.550598 9.255671 30.236545 31.820164 1.204496 0.316816 0.160369 -0.038849 -399820.000000 0 0 1
2.294298 8.658371 30.034325 31.341536 1.311769 0.289834 0.134591 -0.031157 -365514.000000 0 0 1
2.054398 8.578071 28.712675 30.037003 1.335730 0.298053 0.098880 -0.009158 456589.000000 0 0 1
0.669398 8.066171 28.200745 29.339278 1.487998 0.279497 0.102232 -0.016651 17524.100000 0 0 1
-0.376702 8.932571 28.437795 29.810081 -1.528650 0.304604 0.105275 -0.016676 -957276.000000 0 0 1
-1.536702 8.584471 27.732585 29.071479 -1.393663 0.304674 0.106747 -0.013980 -123005.000000 0 0 1
-2.852702 8.833871 28.474035 29.949055 -1.258440 0.315153 0.093598 -0.019019 -325042.000000 0 0 1
-3.098802 10.163071 28.810925 30.707654 -1.274843 0.353310 0.094660 -0.014385 625739.000000 0 0 1
-4.469302 10.272871 29.234875 31.307898 -1.160437 0.365945 0.082969 -0.018497 405449.000000 0 0 1
-4.768502 11.686171 29.804995 32.367313 -1.183373 0.400577 0.077008 -0.019052 -214849.000000 0 0 1
-4.988102 12.859871 28.969475 32.085635 -1.200781 0.444374 0.064750 -0.015825 -213309.000000 0 0 1
-6.073802 12.696971 28.117955 31.443975 -1.124605 0.464102 0.070078 -0.019421 -665306.000000 0 0 1
-6.378802 14.003871 27.315525 31.351801 -1.143376 0.513036 0.052567 -0.008690 590327.000000 0 0 1
-5.448302 14.450971 26.281835 30.483593 -1.210256 0.531272 0.054503 -0.003253 493477.000000 0 0 1
-5.588202 15.841471 25.985205 30.942060 -1.231667 0.573878 0.044510 0.001536 123901.000000 0 0 1
-4.326502 16.391371 25.271635 30.431090 -1.312732 0.590873 0.074701 -0.002708 164869.000000 0 0 1
-4.179202 15.911571 23.956095 29.060942 -1.313946 0.601761 0.071968 -0.004122 -421295.000000 0 0 1
-3.279002 16.790771 23.372215 28.964501 -1.377938 0.631867 0.089785 -0.007413 -430152.000000 0 0 1
-3.002902 16.521371 21.873615 27.575862 -1.391000 0.654724 0.082046 -0.009242 541697.000000 0 0 1
-2.197402 15.313371 21.683615 26.636574 -1.428274 0.619697 0.074835 -0.017336 358908.000000 0 0 1
-2.318302 15.049571 20.294715 25.372024 -1.417953 0.643692 0.074142 -0.025584 220604.000000 0 0 1
-1.492102 13.856571 19.704115 24.134686 -1.463528 0.615607 0.062683 -0.030738 -107193.000000 0 1 0
-1.966902 12.578971 19.988415 23.698860 -1.415688 0.567154 0.056116 -0.019536 -469839.000000 0 1 0
-1.297702 11.571971 19.275915 22.520112 -1.459121 0.543426 0.046196 -0.026497 -567902.000000 0 1 0
-2.021302 10.242771 19.087115 21.755873 -1.375960 0.500523 0.034153 -0.021868 -516616.000000 0 1 0
-2.181202 9.477571 20.275615 22.487387 -1.344592 0.447241 0.061193 -0.028910 191152.000000 0 1 0
-3.068002 9.870471 21.337915 23.709607 -1.269437 0.451098 0.072984 -0.020292 1080830.000000 0 1 0
-4.618902 9.942571 21.053415 23.736792 -1.135902 0.480091 0.058155 -0.014088 571864.000000 0 1 0
-5.082202 8.605671 20.918215 23.183142 -1.037344 0.445715 0.043696 -0.022681 -1177700.000000 0 1 0
-6.456802 8.798471 20.949215 23.621452 -0.937708 0.480265 0.037643 -0.016610 -655876.000000 0 1 0
-7.319902 7.510971 21.141415 23.599896 -0.798281 0.460509 0.037823 -0.009243 21943.600000 0 1 0
-7.289002 7.028871 22.514515 24.686798 -0.767232 0.422647 0.044663 -0.007979 55616.000000 0 1 0
-7.882002 5.746271 22.601275 24.616320 -0.629949 0.407431 0.041550 -0.003621 130850.000000 0 1 0
-7.848802 5.069871 24.028565 25.781374 -0.573517 0.370869 0.049474 -0.004992 -246314.000000 0 0 1
-8.790702 5.708871 24.851065 26.971153 -0.575968 0.399143 0.046600 -0.007255 -42962.700000 0 0 1
-9.093402 4.926271 26.010025 27.990704 -0.496480 0.378451 0.046154 -0.001359 191013.000000 0 0 1
-10.031402 5.598771 27.061665 29.399132 -0.509059 0.401459 0.054955 -0.007204 -180505.000000 0 0 1
-9.429702 6.586471 27.812845 30.097429 -0.609706 0.392139 0.054492 -0.020678 -278922.000000 0 0 1
-10.299302 7.411671 28.595835 31.284665 -0.623778 0.417630 0.057675 -0.025162 -7338.430000 0 0 1
-9.552502 8.508271 29.384685 32.048412 -0.727645 0.410593 0.077778 -0.020707 -349656.000000 0 0 1
-8.609102 8.075771 30.299015 32.517150 -0.753444 0.371495 0.092735 -0.019162 -349888.000000 0 0 1
-8.085902 9.210571 30.986395 33.322262 -0.850330 0.376653 0.103588 -0.029838 -388220.000000 0 0 1
-7.073202 8.817671 32.047318 33.982527 -0.894738 0.339105 0.133567 -0.039397 -196338.000000 0 0 1
-5.802602 8.506971 31.518145 33.157687 -0.972185 0.315784 0.116302 -0.033208 -538916.000000 0 0 1
-5.074102 7.725671 32.456881 33.747321 -0.989666 0.277433 0.132994 -0.037279 -719805.000000 0 0 1
-3.601202 7.658971 32.121035 33.217306 -1.131277 0.257628 0.101003 -0.030800 -858262.000000 0 0 1
-2.979602 8.875171 32.345396 33.673006 -1.246896 0.281739 0.098095 -0.036621 -371809.000000 0 0 1
-1.597902 8.909571 32.040013 33.294087 -1.393336 0.275338 0.081583 -0.028259 310408.000000 0 0 1
-1.238802 10.285471 31.451425 33.113709 -1.450932 0.318198 0.079582 -0.026480 -247208.000000 0 0 1
-1.419302 11.332671 32.390464 34.345102 -1.446205 0.338998 0.095991 -0.037589 76530.000000 0 0 1
-1.711302 12.528271 31.734545 34.160906 -1.435041 0.379169 0.089638 -0.030637 -421985.000000 0 0 1
-1.796702 13.760171 32.647072 35.473958 -1.440958 0.401922 0.095990 -0.035162 -874144.000000 0 0 1
-0.594202 14.422671 32.857852 35.888786 -1.529620 0.413932 0.140306 -0.043105 -755396.000000 0 0 1
-0.621302 15.347171 -33.728981 37.061649 -1.530335 2.714268 0.134833 -0.042610 98342.700000 0 0 1
0.757498 15.514071 -33.059081 36.526197 1.522009 2.702361 0.122394 -0.045507 149133.000000 0 0 1
1.735098 16.244671 -33.800181 37.541339 1.464389 2.691359 0.145424 -0.039877 203845.000000 0 0 1
2.895298 16.335971 -33.005181 36.940339 1.395383 2.675815 0.155641 -0.042737 -360042.000000 0 0 1
3.953798 17.299771 -33.524691 37.931774 1.346109 2.654752 0.148193 -0.034943 -299440.000000 0 0 1
3.648698 18.659671 -33.382961 38.417683 1.377694 2.623869 0.134958 -0.029608 98998.300000 0 0 1
4.608598 19.422171 33.561385 39.049027 1.337820 0.536568 0.110889 -0.009925 56820.400000 0 0 1
4.116298 20.843471 33.519206 39.685405 1.375819 0.564936 0.121709 -0.022017 -156706.000000 0 0 1
4.245998 21.432071 -32.864151 39.464092 1.375215 2.554872 0.148441 -0.042956 182454.000000 0 0 1
4.150898 22.842471 -33.043191 40.383919 1.391039 2.529116 0.134690 -0.035535 -11558.000000 0 0 1
3.836398 23.602771 -31.757011 39.753195 1.409665 2.496184 0.153367 -0.038160 14056.400000 0 0 1
3.619598 24.988071 -31.907101 40.688675 1.426944 2.472164 0.160388 -0.044288 271038.000000 0 0 1
3.185298 25.487071 -30.641681 39.983115 1.446464 2.443961 0.161358 -0.053549 26950.600000 0 0 1
2.806498 26.965571 -30.636291 40.909666 1.467093 2.417162 0.159299 -0.056568 508007.000000 0 0 1
3.924498 27.865071 -30.644681 41.604811 1.430877 2.398775 0.155718 -0.053960 743605.000000 0 0 1
3.498898 29.128671 -30.112361 42.041361 1.451250 2.369218 0.140506 -0.051188 -225620.000000 0 0 1
4.667498 30.066171 -29.771041 42.568475 1.416785 2.345310 0.171600 -0.064953 -317772.000000 0 0 1
5.397198 29.659071 -28.658371 41.594380 1.390791 2.330899 0.162147 -0.072249 -578959.000000 0 0 1
6.274598 30.703871 -28.360571 42.266065 1.369213 2.306354 0.189997 -0.084896 -953283.000000 0 0 1
7.316498 30.246971 -27.352511 41.431513 1.333463 2.291863 0.189221 -0.087204 1141090.000000 0 0 1
8.604798 29.824571 -27.924051 41.752847 1.289910 2.303382 0.182670 -0.075592 2031210.000000 0 0 1
9.788098 30.624671 -27.779901 42.490002 1.261443 2.283390 0.190847 -0.079355 753679.000000 0 0 1
9.883998 31.989371 -28.471071 43.950144 1.271124 2.275494 0.205560 -0.079454 -130024.000000 0 0 1
8.886598 32.911471 -27.952091 44.084645 1.307070 2.257582 0.200548 -0.076300 875959.000000 0 0 1
8.927698 -33.539456 -28.647501 45.003091 -1.310644 2.260836 0.192067 -0.065657 -324260.000000 0 0 1
7.803798 -33.432656 -29.671331 45.376532 -1.341484 2.283513 0.156191 -0.047167 -174327.000000 0 0 1
8.076098 33.463871 -30.757451 46.163566 1.333987 2.299993 0.141551 -0.041220 135016.000000 0 0 1
6.838698 33.120271 -31.357081 46.119266 1.367177 2.318440 0.130024 -0.043038 105873.000000 0 0 1
6.912598 32.158971 -32.572341 46.291909 1.359067 2.351289 0.146967 -0.063434 -92675.900000 0 0 1
7.050898 32.918771 -33.772471 47.685852 1.359794 2.357782 0.149880 -0.054705 207616.000000 0 0 1
6.939298 32.176771 32.678466 46.382978 1.358388 0.789028 0.135641 -0.049137 -164944.000000 0 0 1
6.384298 32.942571 31.444745 45.986349 1.379369 0.817860 0.123910 -0.052742 198988.000000 0 0 1
7.385798 33.736371 30.845765 46.305010 1.355270 0.841771 0.124358 -0.053179 258071.000000 0 0 1
6.895998 -33.440856 29.660265 45.228055 -1.367432 0.855563 0.101688 -0.056559 -118380.000000 0 0 1
19.297624 -21.876229 28.770255 40.971884 -0.847944 0.792320 0.115213 -0.025316 -22548.600000 0 0 1
18.249324 -20.928729 28.549775 39.826363 -0.853682 0.771514 0.104491 -0.022639 1221570.000000 0 0 1
16.922924 -21.479429 28.642315 39.599665 -0.903498 0.762231 0.096590 -0.023240 1062750.000000 0 0 1
16.269324 -21.818029 30.055365 40.546791 -0.930064 0.735864 0.093857 -0.020444 -168719.000000 0 0 1
16.848124 -22.928929 30.683145 41.845555 -0.937096 0.747711 0.114149 -0.029953 251190.000000 0 0 1
16.241124 -23.030729 31.943404 42.597766 -0.956593 0.722909 0.115215 -0.030049 300900.000000 0 0 1
16.984924 -24.073429 32.858905 44.133041 -0.956358 0.730948 0.126886 -0.039150 386690.000000 0 0 1
16.866624 -25.401669 32.360160 44.462431 -0.984644 0.755675 0.136460 -0.044563 -109443.000000 0 0 1
17.567924 -26.258839 33.217432 45.842736 -0.981160 0.760349 0.128416 -0.041275 -74340.400000 0 0 1
17.259524 -27.723829 33.023570 46.444139 -1.013959 0.779822 0.129124 -0.040584 -26961.400000 0 0 1
17.741924 -28.277419 31.812577 46.113213 -1.010456 0.809473 0.126128 -0.046908 236919.000000 0 0 1
17.378324 -29.675919 31.697004 46.769289 -1.041030 0.826124 0.136156 -0.039260 -281239.000000 0 0 1
18.153124 -30.382789 30.586615 46.778102 -1.032231 0.858113 0.147498 -0.042671 -372591.000000 0 0 1
19.494324 -30.597569 30.919355 47.668086 -1.003529 0.865002 0.135419 -0.045303 -395309.000000 0 0 1
20.238424 -31.061109 29.818865 47.576791 -0.993320 0.893418 0.110859 -0.032716 -274431.000000 0 0 1
21.653224 -31.562509 30.155855 48.728120 -0.969499 0.903507 0.088684 -0.028658 513972.000000 0 0 1
22.655024 -30.523849 30.335235 48.633137 -0.932301 0.897257 0.077751 -0.023943 441742.000000 0 0 1
23.904024 -31.143509 30.504685 49.717767 -0.916161 0.910239 0.068001 -0.020208 -396824.000000 0 0 1
25.048824 -30.125459 30.699655 49.774047 -0.877151 0.906151 0.061256 -0.017095 -88443.700000 0 0 1
26.108224 -30.260659 29.794175 49.850173 -0.858931 0.930199 0.053652 -0.017077 40841.300000 0 0 1
27.090824 -29.227569 29.904715 49.824247 -0.823320 0.927040 0.047853 -0.014498 443026.000000 0 0 1
28.258524 -29.441539 28.910755 50.011801 -0.805898 0.954424 0.051223 -0.010601 179748.000000 0 0 1
29.119124 -30.510789 29.294295 51.351605 -0.808732 0.963724 0.055008 -0.008571 -63435.900000 0 0 1
30.265324 -30.551599 28.474435 51.576967 -0.790105 0.985944 0.061077 -0.021062 176670.000000 0 0 1
31.369824 -31.526889 28.919295 53.050318 -0.787895 0.994253 0.076604 -0.028849 -12989.400000 0 0 1
30.952524 -32.833629 28.819645 53.541366 -0.814880 1.002415 0.057451 -0.023485 1057860.000000 0 0 1
31.993024 -33.696119 29.386115 54.977503 -0.811319 1.006867 0.075546 -0.019924 556830.000000 0 0 1
31.334124 32.672090 29.671025 54.126358 0.806299 0.990609 0.070810 -0.016344 -96918.500000 0 0 1
30.565624 32.614874 30.845955 54.308935 0.817822 0.966757 0.080013 -0.016710 1120950.000000 0 0 1
29.355024 33.374254 31.076145 54.233616 0.849383 0.960628 0.064791 -0.016508 879364.000000 0 0 1
28.139324 33.305815 30.114445 52.990364 0.869284 0.966358 0.063703 -0.013606 78809.000000 0 0 1
27.398524 32.112536 30.364465 51.998989 0.864445 0.947218 0.059209 -0.004328 -129767.000000 0 0 1
26.046924 32.183789 29.963895 51.108449 0.890399 0.944336 0.063242 -0.006882 -100399.000000 0 0 1
25.360324 30.894778 30.177105 50.082842 0.883464 0.924112 0.090878 -0.018141 -815538.000000 0 0 1
25.623624 29.924048 29.145745 49.005033 0.862663 0.933842 0.090414 -0.019812 -201324.000000 0 0 1
24.735724 28.837608 29.106165 47.860553 0.861815 0.917074 0.134750 -0.041101 -755835.000000 0 0 1
24.176524 28.693378 27.691325 46.632862 0.870625 0.935003 0.138546 -0.047406 -630087.000000 0 0 1
23.022224 29.439928 27.458985 46.375943 0.907124 0.937140 0.141097 -0.048296 -418236.000000 0 0 1
22.380524 28.985408 26.291665 45.080965 0.913281 0.948122 0.142415 -0.037986 815004.000000 0 0 1
21.004724 29.690948 25.984615 44.698446 0.955091 0.950432 0.140809 -0.036869 706803.000000 0 0 1
21.072624 31.023018 25.456685 45.326879 0.974127 0.974448 0.127515 -0.040016 71918.000000 0 0 1
19.792924 31.441188 24.991845 44.776115 1.008952 0.978640 0.115231 -0.037924 -213574.000000 0 0 1
19.734424 32.723255 24.133685 45.196169 1.028122 1.007500 0.121646 -0.038919 -201380.000000 0 0 1
20.391224 32.836713 22.867765 44.910872 1.015087 1.036563 0.117947 -0.042124 -362415.000000 0 0 1
21.663124 33.404301 23.004765 45.982144 0.995467 1.046854 0.116678 -0.026743 -432443.000000 0 0 1
22.460424 33.525123 21.708915 45.822282 0.980519 1.077237 0.118504 -0.033341 -348112.000000 0 0 1
21.962524 -33.190489 20.948415 44.975517 -0.986232 1.086288 0.107631 -0.025303 267573.000000 0 0 1
22.630124 -33.136919 19.692915 44.698868 -0.971620 1.114564 0.125935 -0.026546 242209.000000 0 0 1
22.184824 -31.864969 18.836515 43.155034 -0.962616 1.119108 0.113595 -0.022536 -11159.200000 0 0 1
22.374524 -30.675579 19.532215 42.697985 -0.940615 1.095670 0.109980 -0.012581 130040.000000 0 0 1
22.094324 -29.486669 18.784715 41.358051 -0.927744 1.099325 0.104140 -0.020318 99892.300000 0 0 1
23.104124 -29.116569 17.659815 41.151479 -0.900029 1.127254 0.100652 -0.022432 23139.100000 0 0 1
22.879224 -29.859519 16.494415 41.074512 -0.916989 1.157563 0.092288 -0.022881 181937.000000 0 0 1
23.444124 -29.265339 15.341315 40.514726 -0.895392 1.182448 0.092195 -0.015716 -172264.000000 0 0 1
22.962324 -29.871959 14.004115 40.195989 -0.915440 1.214937 0.092278 -0.031064 -460089.000000 0 0 1
23.453524 -31.190469 13.721115 41.366438 -0.926051 1.232695 0.108303 -0.024079 224569.000000 0 0 1
23.283024 -31.654439 12.375015 41.197618 -0.936616 1.265703 0.100042 -0.021788 -475537.000000 0 0 1
21.853724 -31.696169 11.813015 40.271326 -0.967169 1.273082 0.102739 -0.016379 -559973.000000 0 0 1
21.062024 -32.783299 12.169015 40.822034 -0.999738 1.268096 0.115710 -0.027600 -417772.000000 0 0 1
19.778724 -32.609549 11.637515 39.874959 -1.025588 1.274636 0.112873 -0.024481 -700229.000000 0 0 1
18.634924 -33.245499 12.397415 40.077669 -1.059909 1.256303 0.086639 -0.016019 -687146.000000 0 0 1
18.365224 -32.603659 13.633415 39.826499 -1.057809 1.221411 0.078334 -0.010102 613217.000000 0 0 1
19.122924 -33.139059 14.780715 41.016497 -1.047422 1.202142 0.049927 -0.011417 111615.000000 0 0 1
19.249324 -32.132409 15.913615 40.697314 -1.031066 1.169053 0.065976 -0.012954 291684.000000 0 0 1
18.038724 -31.763539 16.561815 40.107502 -1.054309 1.145121 0.080335 -0.021850 582153.000000 0 0 1
17.208524 -32.698989 17.299715 40.799967 -1.086354 1.132925 0.073128 -0.013205 84803.300000 0 0 1
17.818924 -33.486889 18.464315 42.187874 -1.081787 1.117792 0.046157 -0.026490 -143548.000000 0 0 1
18.642124 33.125619 18.152915 42.123198 1.058201 1.125253 0.050093 -0.019640 116029.000000 0 0 1
19.007124 32.482823 19.366015 42.325490 1.041372 1.095559 0.050148 -0.021267 338621.000000 0 0 1
19.741224 31.098068 19.198615 41.537846 1.005177 1.090327 0.077977 -0.023547 48944.900000 0 0 1
18.900224 30.016468 18.997715 40.238291 1.008852 1.079091 0.054023 -0.027757 -431880.000000 0 0 1
19.655124 28.853298 18.638415 39.575589 0.972793 1.080421 0.064360 -0.030877 86130.600000 0 0 1
18.891024 27.554558 18.362015 38.122016 0.969810 1.068243 0.075302 -0.037790 -150656.000000 0 0 1
18.605024 26.782228 19.498515 37.995089 0.963651 1.031905 0.082794 -0.037577 -92185.200000 0 0 1
17.928224 25.625658 19.087715 36.639275 0.960325 1.022817 0.086645 -0.040399 -770731.000000 0 0 1
17.676824 24.678988 20.305415 36.521671 0.949234 0.981252 0.093350 -0.035837 497279.000000 0 0 1
16.594424 25.032038 21.205315 36.764701 0.985387 0.956009 0.093300 -0.031616 234879.000000 0 0 1
15.480524 24.275148 20.827615 35.534758 1.003109 0.944535 0.097545 -0.033302 -974972.000000 0 0 1
14.221324 24.563318 21.632115 35.686848 1.045987 0.919567 0.102045 -0.043056 -323174.000000 0 0 1
13.661524 25.825148 21.286415 36.148126 1.084218 0.941141 0.103429 -0.042564 132414.000000 0 0 1
12.295824 25.949028 21.659815 35.967860 1.128291 0.924543 0.102398 -0.041492 25316.100000 0 0 1
11.658424 27.182188 21.037515 36.295554 1.165627 0.952538 0.096054 -0.050419 -498715.000000 0 0 1
12.119924 28.381638 21.538615 37.634053 1.167204 0.961468 0.084769 -0.048064 -240114.000000 0 0 1
11.844724 29.339828 20.546115 37.726196 1.187097 0.994871 0.096397 -0.049879 -226954.000000 0 0 1
12.410224 30.752278 20.660015 39.071121 1.187229 1.013634 0.087583 -0.049378 -359597.000000 0 0 1
11.810124 31.657458 21.601615 40.103659 1.213728 1.001969 0.092060 -0.053881 -427499.000000 0 0 1
12.337324 31.660478 22.889255 40.969665 1.199222 0.977993 0.072989 -0.054206 -298692.000000 0 0 1
11.500324 32.459467 23.894395 41.914396 1.230298 0.964198 0.078277 -0.046738 419261.000000 0 0 1
10.216024 31.901657 24.176155 41.310645 1.260880 0.945635 0.070130 -0.044479 123219.000000 0 0 1
10.004324 32.133831 25.537405 42.247233 1.268975 0.921689 0.067712 -0.030920 -809424.000000 0 0 1
8.653724 31.721588 26.143105 42.007238 1.304474 0.899058 0.138705 -0.045549 -131669.000000 0 0 1
7.518224 32.457067 25.704645 42.079849 1.343175 0.913658 0.118376 -0.034343 417674.000000 0 0 1
6.939324 32.302687 24.422355 41.086120 1.359190 0.934254 0.121907 -0.050831 -758254.000000 0 0 1
5.882924 31.244368 24.317035 40.026711 1.384688 0.917861 0.110607 -0.041740 -990862.000000 0 0 1
6.446324 30.002428 24.561835 39.306292 1.359154 0.895815 0.095614 -0.037793 -441689.000000 0 0 1
5.667024 28.878238 24.227745 38.118912 1.377020 0.882032 0.081621 -0.031907 -746205.000000 0 0 1
6.503024 27.602928 24.555275 37.512298 1.339424 0.857153 0.082865 -0.034647 983927.000000 0 0 1
7.586724 27.362408 23.608195 36.927045 1.300323 0.877183 0.081615 -0.034398 962503.000000 0 0 1
8.721024 28.185318 23.717015 37.854527 1.270722 0.893703 0.106590 -0.045082 -837928.000000 0 0 1
9.853224 27.798088 24.675525 38.453885 1.230157 0.874095 0.096661 -0.047361 -892942.000000 0 0 1
9.584224 27.915238 26.062045 39.374460 1.240073 0.847443 0.098655 -0.042750 490175.000000 0 0 1
10.716924 27.690298 26.907395 40.070101 1.201522 0.834554 0.087973 -0.028322 716171.000000 0 0 1
11.903224 28.708248 26.871075 41.084121 1.177744 0.857870 0.077523 -0.028188 -264418.000000 0 0 1
11.658824 29.971268 27.493315 42.309426 1.199808 0.863455 0.080763 -0.037302 648298.000000 0 0 1
12.868924 30.721118 27.662795 43.296958 1.174108 0.877718 0.078522 -0.026211 255873.000000 0 0 1
12.699124 31.947112 28.617515 44.730839 1.192443 0.876595 0.054028 -0.028155 44787.500000 0 0 1
12.281724 31.681618 29.973605 45.309852 1.200972 0.847946 0.069567 -0.046479 896159.000000 0 0 1
10.865924 31.614708 30.173415 45.033244 1.239746 0.836553 0.108840 -0.044412 598497.000000 0 0 1
10.396924 31.521878 31.654191 45.866248 1.252200 0.809112 0.143037 -0.038160 -106710.000000 0 0 1
10.796324 30.303658 32.301895 45.588209 1.228546 0.783344 0.129694 -0.042357 -78134.300000 0 0 1
11.338224 30.490948 33.545401 46.728441 1.214785 0.770044 0.146564 -0.037723 -176047.000000 0 0 1
11.525224 29.192168 -33.241571 45.716688 1.194776 2.384915 0.130523 -0.034281 -13148.000000 0 0 1
12.560524 28.387298 -33.759581 45.861910 1.154222 2.398107 0.129140 -0.031920 122843.000000 0 0 1
12.532724 27.126778 -33.091951 44.587089 1.138003 2.407124 0.128067 -0.031360 190913.000000 0 0 1
13.675124 26.267168 -33.703281 44.865179 1.090792 2.420693 0.125147 -0.027385 238857.000000 0 0 1
13.652324 24.882598 -33.402671 43.832272 1.068975 2.437280 0.089571 -0.021429 -71027.300000 0 0 1
13.982324 24.441908 -32.070581 42.678267 1.051172 2.421053 0.087534 -0.016855 -147469.000000 0 0 1
13.998024 22.840138 -31.957391 41.700017 1.020968 2.443958 0.075995 -0.034443 -655422.000000 0 0 1
15.061424 22.276698 -32.653661 42.300820 0.976287 2.452682 0.043373 -0.012983 -378512.000000 0 0 1
15.007524 20.909898 -32.689141 41.605643 0.948274 2.474607 0.043284 -0.019292 -120800.000000 0 0 1
16.290824 20.283798 -33.253171 42.220810 0.894141 2.477703 0.081446 -0.035681 596503.000000 0 0 1
17.363524 20.222098 -32.303091 41.879767 0.861307 2.451723 0.095998 -0.034785 -20190.000000 0 0 1
18.584124 19.805598 -32.824391 42.603662 0.817205 2.450358 0.113641 -0.039677 -177790.000000 0 0 1
19.809024 19.903098 -31.877981 42.482190 0.787767 2.419440 0.104686 -0.036138 12719.800000 0 0 1
20.431224 21.149898 -31.998491 43.458676 0.802680 2.398378 0.105393 -0.024590 -461332.000000 0 0 1
21.410124 21.411898 -31.023371 43.351036 0.785440 2.368324 0.096315 -0.019961 -67465.900000 0 0 1
20.987724 21.859198 -29.590131 42.354279 0.805735 2.344283 0.073050 -0.022615 -194487.000000 0 0 1
20.529624 23.219378 -29.684051 42.915590 0.846802 2.334615 0.055408 -0.006901 22841.500000 0 0 1
20.033824 23.744958 -28.462771 42.134386 0.869966 2.312471 0.050793 0.004976 3954.950000 0 0 1
21.131224 24.248598 -27.474261 42.300806 0.853986 2.277719 0.044840 -0.002884 477810.000000 0 0 1
21.969424 25.350528 -27.834271 43.589581 0.856729 2.263413 0.054114 -0.004953 135706.000000 0 0 1
21.313824 26.589358 -27.972251 44.087639 0.895085 2.258118 0.035463 0.000658 -191355.000000 0 0 1
22.284524 27.551838 -28.702971 45.602241 0.890699 2.251603 0.035990 -0.000689 15023.300000 0 0 1
22.306124 27.395008 -30.126671 46.429150 0.887432 2.276900 0.047812 0.003033 -18940.000000 0 0 1
22.886024 26.270598 -30.755421 46.473760 0.854143 2.293987 0.066468 -0.003647 -233635.000000 0 0 1
24.258324 25.693448 -30.351051 46.581175 0.814120 2.280453 0.098007 -0.017996 -359814.000000 0 0 1
25.282824 26.601038 -30.658451 47.820258 0.810800 2.266751 0.080925 -0.015352 382834.000000 0 0 1
26.566224 26.085418 -30.253931 47.974094 0.776267 2.253162 0.107067 -0.036044 1468100.000000 0 0 1
27.823024 26.893808 -30.748231 49.425209 0.768418 2.242239 0.087949 -0.019465 329115.000000 0 0 1
27.893824 28.140058 -30.056061 49.732234 0.789793 2.219756 0.057058 -0.013675 615695.000000 0 0 1
29.129924 28.848848 -30.251461 50.950559 0.780550 2.206497 0.061474 -0.021864 799920.000000 0 0 1
29.191724 30.147928 -29.412541 51.245994 0.801511 2.182115 0.052097 -0.004381 -99710.600000 0 0 1
29.626724 30.099958 -28.090461 50.723015 0.793321 2.157719 0.076786 -0.014442 138795.000000 0 0 1
28.639824 30.611788 -27.202541 49.972986 0.818667 2.146404 0.060220 -0.011556 -393193.000000 0 0 1
29.089924 30.877788 -25.766981 49.634653 0.815203 2.116632 0.086731 -0.014926 -295163.000000 0 0 1
29.392524 29.753148 -24.951701 48.700695 0.791495 2.108713 0.072224 -0.009801 290967.000000 0 0 1
28.239324 28.948598 -24.730001 47.403098 0.797800 2.119634 0.067969 -0.006890 133991.000000 0 0 1
27.497424 29.288628 -23.436201 46.510081 0.816931 2.098899 0.068516 -0.001286 -234182.000000 0 0 1
27.125324 30.614958 -23.283701 47.065801 0.845761 2.088292 0.077197 -0.000717 224553.000000 0 0 1
26.485524 30.795728 -21.992201 46.190007 0.860503 2.067039 0.058853 0.008416 448190.000000 0 0 1
3.585724 -26.006599 -19.646801 32.790203 -1.433783 2.213256 0.114467 -0.026337 42699.200000 0 0 1
3.384524 -27.281519 -18.997601 33.416240 -1.447368 2.175495 0.116894 -0.022542 313776.000000 0 0 1
3.124224 -27.024819 -17.592901 32.397713 -1.455701 2.144837 0.110128 -0.026015 -103482.000000 0 0 1
3.216524 -28.312689 -16.704001 33.029957 -1.457674 2.101016 0.103239 -0.019559 395508.000000 0 0 1
4.574024 -28.634619 -16.441201 33.334309 -1.412397 2.086586 0.095309 -0.019167 273200.000000 0 0 1
4.638724 -29.092339 -15.072401 33.091679 -1.412679 2.043701 0.094554 -0.028484 260724.000000 0 0 1
5.980324 -29.721329 -14.619701 33.657946 -1.372234 2.020125 0.107426 -0.022683 355963.000000 0 0 1
6.870824 -28.806619 -13.949101 32.735408 -1.336655 2.010992 0.096672 -0.013181 442553.000000 0 0 1
8.154724 -29.388469 -13.747101 33.453915 -1.300126 1.994266 0.087828 -0.007695 173815.000000 0 0 1
8.372724 -30.323089 -12.519301 33.857424 -1.301392 1.949553 0.080116 -0.016424 -847791.000000 0 0 1
8.678224 -29.659009 -11.324801 32.912300 -1.286142 1.922066 0.077324 -0.021412 -66466.600000 0 0 1
8.995024 -30.539229 -10.243801 33.443840 -1.284356 1.882099 0.081791 -0.017321 1202030.000000 0 0 1
10.371824 -31.333559 -10.271701 34.566957 -1.251135 1.872507 0.066496 -0.019118 1352350.000000 0 0 1
11.530124 -30.568309 -9.894401 34.135970 -1.210105 1.864869 0.060276 -0.012541 329031.000000 0 0 1
12.551824 -31.464419 -9.558301 35.198282 -1.191220 1.845806 0.059064 -0.011386 341789.000000 0 0 1
13.697524 -30.960929 -8.594601 34.929478 -1.154269 1.819405 0.074813 -0.009605 316405.000000 0 0 1
14.717224 -30.254229 -9.248401 34.891947 -1.118046 1.839061 0.089947 -0.012135 122609.000000 0 0 1
15.707924 -29.849029 -8.312701 34.739091 -1.086373 1.812430 0.089864 -0.014031 120010.000000 0 0 1
16.929324 -29.108489 -8.897601 34.829204 -1.044021 1.829124 0.109249 -0.016187 10907.700000 0 0 1
16.725624 -27.755389 -9.232401 33.694886 -1.028461 1.848346 0.097599 -0.015654 194617.000000 0 0 1
15.931124 -27.650159 -10.416001 33.568215 -1.048085 1.886298 0.087586 -0.013317 27017.400000 0 0 1
15.629024 -26.205739 -10.759801 32.353987 -1.033030 1.909818 0.075901 -0.011473 -548737.000000 0 0 1
14.811424 -25.577409 -9.765801 31.128010 -1.045900 1.889916 0.060936 -0.009994 488853.000000 0 0 1
14.234424 -24.321429 -10.093801 29.933853 -1.041284 1.914741 0.027636 -0.001105 574648.000000 0 0 1
13.586524 -24.042629 -11.498901 29.914317 -1.056433 1.965348 0.009499 -0.001643 417843.000000 0 0 1
14.603424 -23.750229 -12.462501 30.539275 -1.019511 1.991148 0.006301 -0.002538 391440.000000 0 0 1
13.968524 -23.503129 -13.709801 30.585542 -1.034559 2.035597 0.013696 -0.011897 -173795.000000 0 0 1
14.766524 -22.757029 -14.766701 30.886697 -0.995211 2.069278 0.012028 -0.016713 -510614.000000 0 0 1
15.723324 -23.636129 -15.304001 32.250612 -0.983793 2.065230 0.023228 -0.019072 -74085.100000 0 0 1
16.252624 -23.236029 -16.556001 32.835377 -0.960434 2.099266 0.022211 -0.019094 -1726790.000000 0 0 1
17.041624 -24.386929 -17.118101 34.324461 -0.960875 2.092911 0.032649 -0.022333 902290.000000 0 0 1
18.375924 -24.665429 -16.624801 34.963438 -0.930498 2.066318 0.070774 -0.031592 739817.000000 0 0 1
19.277724 -23.591029 -16.731801 34.758027 -0.885677 2.073024 0.078463 -0.039812 -1189650.000000 0 0 1
20.627224 -23.953429 -16.074701 35.463293 -0.859871 2.041235 0.082964 -0.039518 121362.000000 0 0 1
21.371124 -24.919429 -16.766501 36.862155 -0.861901 2.042992 0.099876 -0.032961 -947365.000000 0 0 1
22.665724 -25.100549 -16.292601 37.539599 -0.836328 2.019737 0.122745 -0.036814 -324740.000000 0 0 1
23.459424 -26.026959 -17.245201 39.053094 -0.837235 2.028159 0.128114 -0.029068 -275673.000000 0 0 1
24.069424 -25.201009 -18.219801 39.324155 -0.808361 2.052538 0.130286 -0.019549 -93779.000000 0 0 1
24.903924 -25.978539 -19.080601 40.732779 -0.806515 2.058313 0.105990 -0.016404 280814.000000 0 0 1
26.058724 -25.232979 -19.805401 41.328129 -0.769301 2.070566 0.102078 -0.012676 -6690.310000 0 0 1
25.662924 -24.095429 -20.493601 40.732825 -0.753906 2.098004 0.111040 -0.001226 -236062.000000 0 0 1
25.615224 -22.893829 -19.711301 39.608112 -0.729356 2.091693 0.132638 -0.000115 175566.000000 0 0 1
24.867924 -21.780329 -20.555801 38.927334 -0.719306 2.127106 0.171459 -0.027705 149665.000000 0 0 1
25.546724 -21.380629 -21.748401 39.783908 -0.696853 2.149170 0.134855 -0.004711 266284.000000 0 0 1
25.172524 -22.119029 -22.891801 40.582533 -0.720920 2.170115 0.103814 -0.003266 -10564.400000 0 0 1
24.292024 -21.417629 -23.950001 40.279273 -0.722597 2.207563 0.095031 -0.001141 30814.700000 0 0 1
24.970824 -20.528829 -24.843801 40.769956 -0.688080 2.226056 0.084154 -0.000098 -28004.900000 0 0 1
24.140424 -19.794029 -25.730511 40.455196 -0.686790 2.260132 0.072584 -0.001803 -199854.000000 0 0 1
24.900624 -19.256029 -26.936651 41.429686 -0.658257 2.278614 0.077207 -0.006169 -327310.000000 0 0 1
24.073424 -18.579129 -27.830311 41.221839 -0.657288 2.311944 0.076238 -0.011697 -106178.000000 0 0 1
24.735924 -18.239829 -29.005751 42.259802 -0.635377 2.327279 0.088443 -0.019760 67294.700000 0 0 1
23.819824 -17.311029 -29.867651 41.942011 -0.628454 2.363306 0.108427 -0.023751 85758.100000 0 0 1
22.568624 -17.888629 -30.189511 41.722325 -0.670232 2.379774 0.082296 -0.024308 355589.000000 0 0 1
21.790624 -16.938929 -30.914831 41.442555 -0.660776 2.412784 0.087146 -0.024860 -407502.000000 0 0 1
20.535924 -17.450029 -31.573761 41.510602 -0.704338 2.435063 0.069677 -0.016747 -394055.000000 0 0 1
20.847324 -18.099829 -32.788851 42.864012 -0.714971 2.441761 0.066975 -0.015096 90053.400000 0 0 1
19.614024 -18.494529 -33.304731 42.848135 -0.756030 2.461117 0.069051 -0.020607 -233729.000000 0 0 1
19.808224 -19.329829 33.021938 43.086616 -0.773175 0.697566 0.092913 -0.015720 -237735.000000 0 0 1
20.475424 -20.497529 33.294799 44.135421 -0.785938 0.716090 0.093988 -0.014613 -228501.000000 0 0 1
20.415324 -21.431329 32.252050 43.775359 -0.809673 0.742526 0.083195 -0.023166 83835.800000 0 0 1
21.176524 -22.717229 32.635030 45.050670 -0.820485 0.760622 0.075713 -0.015471 42025.500000 0 0 1
20.564324 -23.476229 33.670055 45.909666 -0.851421 0.747489 0.084074 -0.028991 139756.000000 0 0 1
20.966924 -23.077229 -32.695801 45.179484 -0.833275 2.379926 0.085916 -0.024140 -59738.800000 0 0 1
20.091224 -23.845229 -31.700071 44.465118 -0.870633 2.364450 0.090001 -0.028134 68766.600000 0 0 1
20.300424 -25.263879 -31.811471 45.412999 -0.893903 2.346884 0.096148 -0.039241 195318.000000 0 0 1
21.449624 -25.712819 -31.112641 45.708116 -0.875547 2.319488 0.082172 -0.034377 174081.000000 0 0 1
21.591224 -27.227379 -31.062181 46.608692 -0.900340 2.300228 0.072270 -0.033816 395095.000000 0 0 1
20.470524 -27.839869 -30.418851 46.037019 -0.936773 2.292611 0.064590 -0.028814 294261.000000 0 0 1
20.509124 -29.215469 -30.725951 47.098321 -0.958732 2.281515 0.063035 -0.022008 -236180.000000 0 0 1
19.375424 -30.119359 -30.204131 46.849465 -0.999154 2.271435 0.092678 -0.020230 182971.000000 0 0 1
18.102324 -30.096419 -30.821901 46.727702 -1.029291 2.291092 0.115442 -0.024740 -10872.100000 0 0 1
18.052124 -30.756309 -32.066241 47.959082 -1.040035 2.303143 0.129272 -0.037503 -1134620.000000 0 0 1
16.689124 -31.260369 -32.461431 48.057071 -1.080418 2.312407 0.155774 -0.045077 -867199.000000 0 0 1
15.767524 -30.292329 -32.824181 47.367361 -1.090874 2.336397 0.171973 -0.037566 -393399.000000 0 0 1
14.450424 -30.800449 -32.900561 47.327892 -1.132121 2.339442 0.130310 -0.028729 323763.000000 0 0 1
13.422924 -29.827159 -33.524171 46.836998 -1.147923 2.368512 0.127176 -0.028686 267074.000000 0 0 1
12.869524 -28.837049 -32.663651 45.432523 -1.151037 2.373085 0.136823 -0.033968 292898.000000 0 0 1
11.875224 -28.054699 -33.312091 45.141804 -1.170376 2.400814 0.122829 -0.040686 -197094.000000 0 0 1
10.791024 -27.399649 -32.495661 43.853791 -1.195613 2.405355 0.140345 -0.040175 -93428.400000 0 0 1
9.728924 -28.273679 -32.173661 43.922629 -1.239389 2.392795 0.132634 -0.034014 357468.000000 0 0 1
8.575024 -27.632339 -31.659031 42.887894 -1.269894 2.401166 0.097821 -0.033440 303219.000000 0 0 1
7.552124 -28.428449 -30.845821 42.622482 -1.311140 2.379943 0.091323 -0.029465 203207.000000 0 0 1
6.516824 -29.130719 -31.519851 43.411620 -1.350710 2.383385 0.079069 -0.028391 250849.000000 0 0 1
6.915824 -30.360259 -32.156501 44.761753 -1.346826 2.372285 0.092954 -0.025369 -280375.000000 0 0 1
5.711024 -31.180979 -32.612991 45.480506 -1.389647 2.370395 0.127912 -0.037419 -165381.000000 0 0 1
4.961524 -31.631259 -31.530481 44.936895 -1.415209 2.348523 0.138646 -0.059185 -437685.000000 0 0 1
3.755524 -32.223679 -31.914711 45.508441 -1.454774 2.348005 0.158036 -0.082774 -243911.000000 0 0 1
2.770124 -32.650659 -30.774651 44.953512 -1.486158 2.324835 0.140839 -0.079374 614827.000000 0 0 1
1.812524 -31.669809 -30.353491 43.904401 -1.513627 2.334158 0.110932 -0.062454 1165750.000000 0 0 1
0.515124 -31.892019 -30.942771 44.438961 -1.554646 2.341023 0.094442 -0.029733 1074720.000000 0 0 1
-0.557076 -30.811349 -30.537431 43.384147 1.552718 2.351648 0.074267 -0.014088 278526.000000 0 0 1
-1.005476 -30.744089 -29.221141 42.427409 1.538103 2.330536 0.052985 -0.017070 -27862.500000 0 0 1
-1.577876 -29.455779 -28.972191 41.346347 1.517280 2.347202 0.121282 -0.019907 182867.000000 0 0 1
-2.328376 -29.349789 -27.601581 40.356892 1.491630 2.323942 0.130840 -0.027173 272139.000000 0 0 1
-1.469376 -29.596279 -26.493061 39.748976 1.521190 2.300313 0.099067 -0.027271 117288.000000 0 0 1
-2.201976 -29.682909 -25.294231 39.060490 1.496749 2.275182 0.112586 -0.035541 480774.000000 0 0 1
-1.284176 -30.334389 -24.217201 38.836801 1.528488 2.244089 0.074818 -0.033399 471831.000000 0 0 1
-1.885076 -30.328089 -22.925801 38.064929 1.508720 2.217152 0.107737 -0.042433 -88479.000000 0 0 1
-1.029476 -30.965539 -22.001001 37.999585 1.537563 2.188273 0.086294 -0.037617 347970.000000 0 0 1
-1.543576 -30.743059 -20.530001 36.999990 1.520630 2.158997 0.051963 -0.017047 173607.000000 0 0 1
-1.584276 -29.504099 -19.995201 35.676461 1.517151 2.165737 0.034338 -0.004990 420517.000000 0 0 1
-0.314876 -28.863849 -19.840201 35.026483 1.559888 2.172969 0.072971 -0.019549 332231.000000 0 0 1
-0.386076 -27.419869 -19.257901 33.509178 1.556717 2.183040 0.085803 -0.030084 -180192.000000 0 0 1
-1.034176 -27.373589 -18.029601 32.794045 1.533034 2.152900 0.069650 -0.026469 74337.300000 0 0 1
-0.887076 -26.110489 -17.464701 31.425472 1.536835 2.160061 0.081638 -0.025258 -156874.000000 0 0 1
-1.799276 -26.033409 -16.249901 30.741422 1.501792 2.127746 0.069147 -0.019768 -229575.000000 0 0 1
-1.705176 -24.754129 -15.640501 29.330868 1.502020 2.133227 0.067514 -0.016442 -230208.000000 0 0 1
-2.527876 -24.753829 -14.533101 28.815850 1.469029 2.099418 0.065601 -0.008893 -515334.000000 0 0 1
-2.417676 -23.592229 -13.560401 27.318911 1.468675 2.090213 0.068605 -0.005570 -38059.400000 0 0 1
-1.085976 -23.405329 -13.136601 26.861851 1.524431 2.081789 0.065289 -0.008527 -202181.000000 0 0 1
-0.944876 -22.565529 -11.979801 25.565827 1.528948 2.058486 0.076375 -0.007961 -397278.000000 0 0 1
0.440924 -22.589929 -11.350701 25.285128 -1.551280 2.036339 0.094527 -0.008659 -338455.000000 0 0 1
0.736624 -21.473529 -10.514301 23.920819 -1.536506 2.025890 0.075571 -0.004041 -120107.000000 0 1 0
2.119424 -21.511929 -10.223501 23.911817 -1.472590 2.012577 0.061623 0.003374 203227.000000 0 1 0
2.526324 -20.188329 -9.569801 22.484039 -1.446306 2.010450 0.057304 0.004289 -874097.000000 0 1 0
2.702724 -19.126029 -10.531301 22.000409 -1.430415 2.069954 0.054643 -0.000026 -82326.400000 0 1 0
3.449824 -17.973129 -10.173901 20.939028 -1.381159 2.078169 0.032542 -0.006619 37825.400000 0 1 0
4.965724 -18.228529 -9.969501 21.361850 -1.304835 2.056348 0.059605 -0.022746 -135049.000000 0 1 0
5.121924 -18.937129 -8.727901 21.471498 -1.306647 1.989403 0.051347 -0.010614 -1460430.000000 0 1 0
6.281824 -19.654329 -8.705601 22.395121 -1.261442 1.970046 0.055020 -0.002814 -1106440.000000 0 1 0
6.167524 -20.748229 -7.660101 22.960934 -1.281859 1.910931 0.045289 -0.007601 -344174.000000 0 1 0
5.286024 -21.768929 -7.983501 23.781602 -1.332583 1.913145 0.074164 -0.017940 -246100.000000 0 1 0
5.342424 -22.898229 -7.096801 24.560842 -1.341585 1.863924 0.084830 -0.011430 -507495.000000 0 1 0
4.201124 -23.847029 -7.368301 25.310513 -1.396416 1.866190 0.091306 -0.012541 -426309.000000 0 0 1
4.377424 -24.525929 -8.603601 26.357257 -1.394175 1.903313 0.088452 -0.014750 342484.000000 0 0 1
3.173324 -25.046909 -9.169501 26.860703 -1.444773 1.919173 0.076283 -0.012849 506589.000000 0 0 1
3.468924 -25.944519 -10.375301 28.156675 -1.437879 1.948175 0.076843 -0.019065 159907.000000 0 0 1
4.015424 -27.214559 -10.059401 29.290739 -1.424306 1.921366 0.076224 -0.025074 -49085.300000 0 0 1
4.623824 -27.791069 -11.179801 30.310249 -1.405928 1.948563 0.090197 -0.019725 129892.000000 0 0 1
4.762724 -29.325449 -11.088601 31.711553 -1.409793 1.928016 0.100571 -0.024776 -262737.000000 0 0 1
3.559224 -29.980509 -11.356501 32.256303 -1.452631 1.930579 0.107344 -0.025834 -238773.000000 0 0 1
3.627524 -31.365019 -11.171101 33.492041 -1.455653 1.910858 0.098113 -0.028846 -2309.990000 0 0 1
2.369524 -32.134079 -11.638101 34.258708 -1.497191 1.917407 0.081178 -0.032155 -60843.200000 0 0 1
2.161324 -32.035609 -13.023001 34.648955 -1.503432 1.956116 0.084027 -0.029886 377227.000000 0 0 1
1.075124 -32.836089 -13.440601 35.496681 -1.538066 1.959127 0.080038 -0.026804 -355371.000000 0 0 1
0.650824 -32.717039 -14.859201 35.939172 -1.550906 1.997041 0.082034 -0.019343 -225898.000000 0 0 1
-0.167476 -31.599189 -15.134901 35.037152 1.565496 2.017469 0.078694 -0.021531 -145174.000000 0 0 1
-0.558576 -31.580719 -16.477301 35.625205 1.553111 2.051630 0.052774 -0.014576 -35518.100000 0 0 1
-1.719076 -30.588289 -16.721901 34.903017 1.514655 2.070421 0.052250 -0.002229 384440.000000 0 0 1
-2.947576 -30.979359 -16.121601 35.047324 1.475935 2.048786 0.056964 -0.008747 -148126.000000 0 0 1
-4.021076 -30.416429 -16.809501 34.984104 1.439358 2.072009 0.053453 0.000378 -199839.000000 0 0 1
-5.408876 -30.416229 -16.162501 34.865877 1.394807 2.052808 0.061525 -0.004542 -170643.000000 0 0 1
-5.609476 -29.516319 -15.110401 33.630396 1.382989 2.036787 0.058772 -0.006545 543460.000000 0 0 1
-6.975276 -29.216699 -14.787301 33.480356 1.336440 2.028257 0.079426 -0.006818 1011220.000000 0 0 1
-7.719176 -30.165069 -13.780701 34.050327 1.320275 1.987464 0.078559 -0.016955 228106.000000 0 0 1
-8.228376 -31.387259 -14.283301 35.452488 1.314409 1.985464 0.088240 -0.011989 -57101.600000 0 0 1
-8.824476 -32.211639 -13.314501 35.954652 1.303404 1.950143 0.085156 -0.018225 220633.000000 0 0 1
-9.238276 -33.609629 -13.750601 37.470414 1.302551 1.946548 0.123680 -0.029232 -39043.400000 0 0 1
-8.111176 33.299579 -13.925201 36.994113 -1.331867 1.956722 0.111386 -0.025870 -42546.000000 0 0 1
-8.393776 32.176696 -14.712301 36.362715 -1.315618 1.987336 0.134489 -0.035725 -234238.000000 0 0 1
-8.206676 -21.825329 -3.093501 23.521570 1.211135 1.702696 0.133765 -0.040683 252711.000000 0 1 0
-7.915076 -20.890329 -4.168201 22.725056 1.208622 1.755259 0.108936 -0.030838 -429854.000000 0 1 0
-6.581676 -21.058429 -4.564501 22.530214 1.267872 1.774803 0.105588 -0.028350 -122047.000000 0 1 0
-6.237476 -20.049329 -5.630501 21.739003 1.269182 1.832788 0.095899 -0.035105 139972.000000 0 1 0
-7.017676 -20.215129 -6.793501 22.451077 1.236663 1.878207 0.097284 -0.032523 -116012.000000 0 1 0
-6.689976 -19.176029 -7.763901 21.742907 1.235127 1.935933 0.060580 -0.023329 -355693.000000 0 1 0
-7.576776 -19.325529 -8.994301 22.622578 1.197153 1.979675 0.063404 -0.028584 44712.800000 0 1 0
-7.263676 -20.366429 -9.955501 23.804714 1.228210 2.002276 0.074630 -0.010903 -378567.000000 0 1 0
-8.306876 -20.428229 -10.896201 24.597640 1.184581 2.029713 0.096784 -0.013463 119645.000000 0 1 0
-7.965476 -21.134329 -12.278401 25.707349 1.210363 2.068743 0.101302 -0.013319 -122742.000000 0 0 1
-7.058376 -20.522329 -13.166301 25.383816 1.239534 2.116113 0.090737 -0.000700 -177867.000000 0 0 1
-6.738176 -21.360729 -14.276101 26.561077 1.265229 2.138245 0.074518 0.000312 -283881.000000 0 0 1
-5.639276 -20.795229 -15.155001 26.342305 1.305984 2.183780 0.061399 0.004562 -335990.000000 0 0 1
-4.366976 -20.722129 -14.527901 25.681453 1.363096 2.172074 0.051458 0.001421 -243601.000000 0 0 1
-3.340876 -20.093529 -15.221201 25.428258 1.406037 2.212541 0.061207 0.005109 -364673.000000 0 0 1
-3.447476 -18.548729 -15.282201 24.279335 1.387033 2.251619 0.066783 0.002912 -271699.000000 0 1 0
-4.487476 -17.960829 -16.095201 24.531292 1.325961 2.286447 0.072833 0.003311 230176.000000 0 1 0
-4.574976 -18.455729 -17.412101 25.782273 1.327805 2.312238 0.104674 -0.007804 -1162060.000000 0 0 1
-5.838576 -18.069529 -18.149901 26.268151 1.258268 2.333595 0.109927 -0.004708 21099.800000 0 0 1
-6.889776 -19.018529 -17.887201 27.002322 1.223236 2.294857 0.102538 -0.000552 -139373.000000 0 0 1
-8.043476 -18.734329 -18.615201 27.607939 1.165252 2.310772 0.097083 -0.008794 -996132.000000 0 0 1
-9.059376 -19.833329 -18.459801 28.569170 1.142322 2.273318 0.112689 -0.009505 -652467.000000 0 0 1
-8.653676 -21.148329 -18.921701 29.667637 1.182393 2.262421 0.126877 -0.004604 491705.000000 0 0 1
-9.472676 -22.193929 -18.388701 30.338859 1.167390 2.221958 0.145038 -0.003406 279161.000000 0 0 1
-8.990176 -23.519729 -18.961801 31.520641 1.205694 2.216259 0.167278 -0.022380 -595460.000000 0 0 1
-9.121276 -23.524529 -20.385701 32.437292 1.200908 2.250374 0.156773 -0.022802 406588.000000 0 0 1
-8.248876 -24.379329 -21.125501 33.296883 1.244533 2.258104 0.183817 -0.042402 928883.000000 0 0 1
-6.697976 -24.255129 -20.960101 32.749046 1.301364 2.265323 0.170646 -0.028161 78316.800000 0 0 1
-6.018176 -23.128529 -21.558301 32.185519 1.316236 2.304754 0.213678 -0.053274 307623.000000 0 0 1
-5.960776 -21.923329 -20.899301 30.869791 1.305322 2.314495 0.182248 -0.051654 -490950.000000 0 0 1
-5.144576 -21.840929 -19.580901 29.780942 1.339466 2.288289 0.173255 -0.034742 -185277.000000 0 0 1
-3.803176 -22.191029 -19.831401 30.003173 1.401062 2.292916 0.148560 -0.040229 -352017.000000 0 0 1
-3.011676 -21.986829 -18.681001 29.008113 1.434667 2.270502 0.093368 -0.032843 -307941.000000 0 0 1
-1.692876 -22.760329 -18.687301 29.497688 1.496555 2.256887 0.112404 -0.037693 36388.500000 0 0 1
-0.655376 -22.047529 -19.385301 29.365165 1.541079 2.291810 0.149352 -0.036033 -665679.000000 0 0 1
0.429224 -22.890129 -19.532101 30.093940 -1.552047 2.277115 0.106935 -0.032358 -912627.000000 0 0 1
1.605824 -22.146229 -20.164301 29.993885 -1.498413 2.308081 0.098320 -0.028679 -313366.000000 0 0 1
1.414124 -21.827329 -21.514501 30.680707 -1.506100 2.347930 0.103355 -0.035766 -76423.100000 0 0 1
2.468824 -21.007729 -22.000201 30.519315 -1.453813 2.375841 0.095066 -0.024817 -184644.000000 0 0 1
2.501124 -20.942429 -23.538701 31.605560 -1.451931 2.410978 0.140939 -0.038108 633249.000000 0 0 1
1.664924 -20.008729 -24.248401 31.481838 -1.487778 2.450005 0.143196 -0.036134 2251310.000000 0 0 1
0.208224 -20.135129 -24.004501 31.331818 -1.560455 2.443607 0.176414 -0.038947 2022190.000000 0 0 1
-0.677176 -19.174029 -24.836501 31.383972 1.535494 2.483852 0.193129 -0.043023 -104000.000000 0 0 1
-0.524076 -17.789229 -24.562601 30.332370 1.541345 2.514576 0.134952 -0.029517 -66253.900000 0 0 1
-1.328376 -17.019729 -25.435611 30.633414 1.492905 2.550482 0.160187 -0.042440 82339.300000 0 0 1
-1.210176 -15.490829 -25.244961 29.643521 1.492833 2.589861 0.141896 -0.032640 950326.000000 0 0 1
0.035524 -14.904729 -25.702081 29.711095 -1.568413 2.616080 0.126210 -0.024458 679359.000000 0 0 1
0.424424 -13.799129 -24.870201 28.445087 -1.540049 2.634836 0.104557 -0.027806 286834.000000 0 0 1
-0.040176 -12.472229 -25.483461 28.371903 1.567575 2.686439 0.113146 -0.026090 125197.000000 0 0 1
0.807124 -11.375629 -25.121061 27.588477 -1.499963 2.715442 0.095355 -0.022562 297878.000000 0 0 1
0.540024 -10.221129 -25.895101 27.844557 -1.518011 2.765176 0.089962 -0.026604 2004.580000 0 0 1
1.507124 -9.021729 -25.594291 27.179602 -1.405270 2.798363 0.085646 -0.029119 688880.000000 0 0 1
2.873824 -9.110329 -25.958991 27.660914 -1.265229 2.788975 0.093504 -0.027102 130968.000000 0 0 1
3.158524 -8.922629 -27.347401 28.939073 -1.230571 2.808389 0.106371 -0.031782 -343689.000000 0 0 1
4.588524 -8.649129 -27.842691 29.514021 -1.083033 2.803448 0.128047 -0.035573 -202510.000000 0 0 1
4.904524 -7.254629 -27.768441 29.116495 -0.976323 2.836108 0.121987 -0.031913 180487.000000 0 0 1
6.144324 -6.872129 -28.332421 29.794378 -0.841254 2.827030 0.146391 -0.034385 105550.000000 0 0 1
7.393524 -6.864929 -27.393261 29.192160 -0.748343 2.788701 0.158483 -0.032246 214439.000000 0 0 1
8.028224 -8.074229 -27.127781 29.420436 -0.788255 2.744199 0.128266 -0.027838 386285.000000 0 0 1
8.865024 -8.561229 -28.168021 30.746068 -0.767967 2.729165 0.138964 -0.031859 -392377.000000 0 0 1
9.326524 -10.047929 -28.005671 31.181125 -0.822616 2.686365 0.120612 -0.014071 492744.000000 0 0 1
8.229824 -10.989029 -27.969141 31.157047 -0.927991 2.685278 0.134394 -0.028147 639462.000000 0 0 1
8.419224 -12.158529 -27.174741 30.938321 -0.965153 2.643200 0.129703 -0.027170 99187.000000 0 0 1
9.408024 -13.293229 -27.628451 32.071049 -0.954901 2.608966 0.115669 -0.032511 223894.000000 0 0 1
9.014824 -13.912429 -28.820701 33.248391 -0.995850 2.619605 0.132829 -0.044234 -86037.500000 0 0 1
9.785324 -15.047229 -29.138191 34.222885 -0.994205 2.589491 0.126253 -0.041213 -139264.000000 0 0 1
9.269924 -15.696129 -30.405741 35.451503 -1.037327 2.601520 0.114218 -0.047910 -138027.000000 0 0 1
9.457324 -14.892329 -31.594801 36.186377 -1.005005 2.632348 0.140313 -0.046420 618493.000000 0 0 1
8.745024 -15.495429 -32.707451 37.233871 -1.056994 2.643369 0.157007 -0.047725 995302.000000 0 0 1
7.356724 -14.783029 -32.990041 36.891762 -1.109033 2.677524 0.168661 -0.043581 970905.000000 0 0 1
7.542624 -13.696629 33.766455 37.211051 -1.067422 0.433667 0.173704 -0.040654 -61728.600000 0 0 1
6.327724 -13.040129 33.538608 36.536602 -1.119018 0.407926 0.182974 -0.052057 -140906.000000 0 0 1
6.504524 -11.847429 32.549993 35.244467 -1.068703 0.393562 0.197734 -0.042974 36504.500000 0 0 1
7.032424 -12.137329 31.267185 34.269617 -1.045658 0.421716 0.190343 -0.042265 212655.000000 0 0 1
7.395224 -10.917629 30.684845 33.398259 -0.975423 0.405879 0.174671 -0.036744 -264430.000000 0 0 1
7.958124 -11.155829 29.296145 32.342671 -0.951160 0.437521 0.166434 -0.034574 -132217.000000 0 0 1
7.098024 -11.878129 28.429495 31.618161 -1.032165 0.452971 0.159552 -0.034510 17897.300000 0 0 1
7.644124 -11.926529 27.142865 30.617150 -1.000820 0.481017 0.127037 -0.031533 -238631.000000 0 0 1
6.824624 -12.631029 26.048695 29.743115 -1.075426 0.503728 0.115039 -0.044484 -188853.000000 0 0 1
6.771224 -14.024329 26.111915 30.403345 -1.120987 0.537776 0.116264 -0.035565 -195351.000000 0 0 1
6.101424 -14.654629 25.067225 29.670715 -1.176277 0.564517 0.084059 -0.034207 1199000.000000 0 0 1
4.537124 -14.913729 25.170885 29.607065 -1.275468 0.554498 0.087359 -0.040199 1378590.000000 0 0 1
3.741324 -13.719029 25.001975 28.762963 -1.304560 0.517129 0.074551 -0.044929 164959.000000 0 0 1
2.397424 -14.170429 25.087455 28.912439 -1.403198 0.520231 0.077375 -0.040293 306328.000000 0 0 1
1.384724 -12.987729 24.939015 28.152319 -1.464580 0.482452 0.100784 -0.038590 -398784.000000 0 0 1
1.545524 -12.155429 23.825105 26.791393 -1.444328 0.475023 0.055171 -0.023906 -55063.700000 0 0 1
0.425824 -11.344329 23.526475 26.122216 -1.533278 0.449577 0.068726 -0.009342 1142180.000000 0 0 1
-0.881476 -12.053329 22.988285 25.971542 1.497795 0.484015 0.075528 0.000548 105839.000000 0 0 1
-0.829976 -12.388129 21.653315 24.960382 1.503899 0.520627 0.066092 -0.011976 -665880.000000 0 1 0
-1.893676 -13.194929 21.266115 25.098602 1.428254 0.559910 0.091324 -0.021501 -331778.000000 0 0 1
-1.888776 -13.782129 19.797915 24.196529 1.434599 0.612500 0.108131 -0.026317 -303200.000000 0 1 0
-1.080276 -14.896429 19.636915 24.671421 1.498404 0.650241 0.121859 -0.037601 -717020.000000 0 1 0
-1.329976 -15.717029 18.521315 24.327617 1.486377 0.705436 0.122941 -0.030746 422678.000000 0 1 0
-2.684276 -16.484529 18.373515 24.830044 1.409377 0.737769 0.117301 -0.048176 465169.000000 0 1 0
-2.726176 -17.098029 17.145715 24.366990 1.412683 0.790282 0.098122 -0.054991 -285634.000000 0 1 0
-3.735276 -18.095929 17.205615 25.247735 1.367240 0.821025 0.109696 -0.042919 78099.400000 0 0 1
-3.320876 -19.476529 16.583415 25.794826 1.401914 0.872522 0.106068 -0.048719 -55284.800000 0 0 1
-2.463376 -20.218229 17.412315 26.796151 1.449555 0.863466 0.107804 -0.050081 -283829.000000 0 0 1
-2.216176 -21.495329 16.793715 27.367672 1.468059 0.910142 0.099958 -0.069241 106792.000000 0 0 1
-1.158076 -22.329729 17.575015 28.440097 1.518980 0.904643 0.108182 -0.055893 1203170.000000 0 0 1
0.191124 -22.054829 17.141215 27.933372 -1.562131 0.910126 0.110322 -0.056713 432962.000000 0 0 1
1.070324 -22.979729 17.753515 29.058576 -1.524253 0.913529 0.126776 -0.035653 163016.000000 0 0 1
2.373924 -23.262729 16.966015 28.890063 -1.469100 0.943125 0.125990 -0.041188 361844.000000 0 0 1
3.228424 -22.111329 17.054615 28.110381 -1.425813 0.918892 0.131349 -0.042241 -361485.000000 0 0 1
4.324924 -22.226029 16.200815 27.841835 -1.378610 0.949749 0.121230 -0.034431 -250130.000000 0 0 1
5.364424 -21.102629 16.428815 27.276436 -1.321863 0.924407 0.104966 -0.024786 -237134.000000 0 0 1
6.189324 -21.288329 17.609815 28.312652 -1.287858 0.899532 0.107154 -0.015152 257170.000000 0 0 1
6.578124 -20.126029 18.221315 27.934658 -1.254895 0.860203 0.097557 -0.017796 74443.500000 0 0 1
7.542224 -19.144929 17.544215 27.040949 -1.195513 0.864788 0.098362 -0.017926 187854.000000 0 0 1
6.778824 -18.395429 16.593015 25.684089 -1.217731 0.868408 0.086308 -0.015143 1469850.000000 0 0 1
7.743824 -17.611229 15.828615 24.913195 -1.156533 0.882334 0.116923 -0.022140 1008400.000000 0 1 0
6.980724 -16.603029 14.948615 23.406242 -1.172787 0.878042 0.061944 -0.017427 408552.000000 0 1 0
6.124924 -17.284629 13.991915 23.066139 -1.230246 0.919020 0.070886 -0.014359 706781.000000 0 1 0
5.465324 -16.381129 13.092615 21.670896 -1.248774 0.922089 0.040028 -0.014991 64444.500000 0 1 0
6.002724 -16.507029 11.661215 21.083137 -1.222016 0.984708 0.037608 -0.016601 -276778.000000 0 1 0
7.315024 -16.075429 11.466515 21.057302 -1.143756 0.994957 0.052561 -0.017086 -441181.000000 0 1 0
7.893824 -16.353329 10.207015 20.830914 -1.121081 1.058714 0.058714 -0.018520 -496482.000000 0 1 0
9.314024 -15.850529 10.091715 20.972197 -1.039532 1.068779 0.058653 -0.018441 -713508.000000 0 1 0
9.950424 -16.168329 8.899915 20.967458 -1.019111 1.132427 0.061458 -0.020376 -57509.800000 0 1 0
11.322524 -15.776229 8.909915 21.365288 -0.948293 1.140624 0.059330 -0.017335 286625.000000 0 1 0
12.211024 -16.522529 7.959215 22.032980 -0.934338 1.201198 0.069764 -0.027602 -488516.000000 0 1 0
12.556424 -17.800229 8.521315 23.390698 -0.956450 1.197911 0.091440 -0.029046 -33984.900000 0 1 0
13.404524 -18.518729 7.633915 24.101893 -0.944251 1.248511 0.097983 -0.023766 16476.800000 0 1 0
14.318624 -19.546629 8.274115 25.603802 -0.938566 1.241730 0.110320 -0.023143 -254312.000000 0 0 1
13.558924 -20.500729 8.974315 26.166059 -0.986457 1.220714 0.112705 -0.019883 -285023.000000 0 0 1
14.311424 -21.567529 9.444115 27.552976 -0.984945 1.220941 0.096171 -0.013757 -334663.000000 0 0 1
13.439724 -22.651929 10.074615 28.199893 -1.035307 1.205467 0.112037 -0.021739 60886.800000 0 0 1
13.015024 -22.326029 11.360115 28.229322 -1.043006 1.156635 0.120134 -0.020080 -124814.000000 0 0 1
11.985024 -23.049429 12.018615 28.624537 -1.091300 1.137493 0.142057 -0.028597 258610.000000 0 0 1
12.377524 -24.484929 12.483015 30.142006 -1.102746 1.143798 0.111125 -0.029606 -656030.000000 0 0 1
13.430324 -24.597929 13.355815 31.045282 -1.071034 1.126077 0.087892 -0.027882 -732332.000000 0 0 1
13.469424 -25.929289 13.877315 32.347076 -1.091696 1.127397 0.090713 -0.040759 456882.000000 0 0 1
14.760524 -26.089249 14.746015 33.406092 -1.055926 1.113619 0.071488 -0.030421 413670.000000 0 0 1
14.758724 -25.149469 15.814715 33.172593 -1.040109 1.073853 0.077771 -0.027488 247833.000000 0 0 1
15.511524 -25.681629 16.898715 34.434286 -1.027446 1.057843 0.072191 -0.027384 -517962.000000 0 0 1
15.342324 -24.978639 18.261915 34.537181 -1.019988 1.013656 0.089057 -0.026380 -276516.000000 0 0 1
15.917124 -23.745229 18.632315 34.122631 -0.980262 0.993167 0.087979 -0.025082 286624.000000 0 0 1
17.324824 -23.778429 18.853115 34.942856 -0.941136 1.000904 0.088195 -0.025327 447988.000000 0 0 1
17.918824 -22.357829 19.174915 34.476574 -0.895168 0.981023 0.098323 -0.026221 12692.900000 0 0 1
18.078124 -21.434629 18.109615 33.379935 -0.870142 0.997350 0.091883 -0.026781 1322170.000000 0 0 1
16.867124 -20.670329 17.792115 32.067456 -0.886371 0.982633 0.100800 -0.020070 366045.000000 0 0 1
16.977324 -19.781429 16.530715 30.867443 -0.861535 1.005651 0.095495 -0.017231 110406.000000 0 0 1
17.833724 -18.655129 16.712015 30.746496 -0.807905 0.996145 0.095584 -0.024816 853094.000000 0 0 1
19.230724 -18.962829 16.702815 31.755215 -0.778384 1.016922 0.094161 -0.025788 -53896.100000 0 0 1
20.160424 -17.737229 16.741415 31.643751 -0.721545 1.013305 0.107133 -0.032356 -237593.000000 0 0 1
20.092324 -17.122829 17.977615 31.938807 -0.705774 0.972934 0.098617 -0.028245 251446.000000 0 0 1
20.691624 -15.835529 17.950515 31.640612 -0.653228 0.967542 0.095397 -0.027359 -562126.000000 0 0 1
21.282424 -15.447829 19.258715 32.595630 -0.627865 0.938700 0.082720 -0.012914 417167.000000 0 0 1
22.416924 -16.294829 19.572415 33.928150 -0.628551 0.955894 0.078234 -0.022618 610799.000000 0 0 1
22.902224 -16.128529 20.885015 34.940309 -0.613562 0.930125 0.063645 -0.005068 31371.200000 0 0 1
35.431918 -1.524429 -7.458201 36.240440 -0.042998 1.778075 0.163510 -0.026895 73931.800000 0 0 1
36.752598 -1.302229 -7.885301 37.611531 -0.035417 1.782015 0.174409 -0.030312 44217.500000 0 0 1
37.593748 -2.448629 -7.902901 38.493396 -0.065042 1.777572 0.202679 -0.042637 914032.000000 0 0 1
-36.509306 -2.106129 -8.677901 37.585518 0.057624 1.803783 0.204876 -0.050122 1120980.000000 0 0 1
-35.470116 -3.088529 -8.622001 36.633414 0.086855 1.808384 0.238437 -0.039736 199195.000000 0 0 1
-34.242052 -2.577329 -9.058101 35.513517 0.075126 1.828707 0.290091 -0.051617 -394269.000000 0 0 1
-33.046136 -3.525129 -8.855801 34.393296 0.106271 1.831216 0.277195 -0.044893 -278749.000000 0 0 1
-32.618256 -3.546929 -7.541801 33.666156 0.108315 1.796731 0.271333 -0.047702 608086.000000 0 0 1
-31.446536 -4.347829 -7.334901 32.582035 0.137390 1.797864 0.267737 -0.056809 331985.000000 0 0 1
-30.868826 -4.387129 -5.942401 31.740249 0.141176 1.759127 0.258227 -0.071896 -204010.000000 0 0 1
-30.334776 -3.124029 -5.555601 30.997143 0.102623 1.750999 0.231190 -0.064136 515277.000000 0 0 1
-30.264246 -3.052629 -4.117901 30.695280 0.100526 1.705356 0.227204 -0.064801 -173421.000000 0 0 1
-30.061696 -1.649729 -3.449201 30.303863 0.054823 1.684864 0.216486 -0.061455 1436540.000000 0 0 1
-28.701296 -1.113629 -3.599101 28.947505 0.038781 1.695451 0.196281 -0.053459 1970230.000000 0 0 1
-28.633286 0.120971 -2.907601 28.780789 -0.004225 1.671995 0.219049 -0.070895 -207538.000000 0 0 1
-27.168656 0.568071 -2.802301 27.318701 -0.020906 1.673555 0.238071 -0.055319 -250758.000000 0 0 1
-26.493996 0.118871 -1.630501 26.544387 -0.004487 1.632260 0.210686 -0.062001 505566.000000 0 0 1
-25.174716 0.621371 -1.456001 25.224439 -0.024677 1.628550 0.194878 -0.057849 367219.000000 0 0 1
-24.531676 -0.071329 -0.232701 24.532883 0.002908 1.580282 0.172782 -0.058483 -119430.000000 0 1 0
-24.444276 -1.504529 -0.357301 24.493139 0.061472 1.585385 0.170962 -0.055978 322858.000000 0 1 0
-23.692876 -2.116529 0.687799 23.797166 0.089095 1.541890 0.138060 -0.038038 -163047.000000 0 1 0
-23.757976 -3.683029 0.645099 24.050411 0.153799 1.543970 0.128093 -0.018758 -172958.000000 0 1 0
-24.927176 -4.260429 1.185599 25.316417 0.169279 1.523948 0.131163 -0.025793 418893.000000 0 0 1
-24.839076 -5.646229 0.928999 25.489657 0.223514 1.534342 0.107070 -0.002568 -249269.000000 0 0 1
-26.106196 -6.251329 1.542399 26.888502 0.235032 1.513402 0.138980 -0.004528 -428819.000000 0 0 1
-26.110016 -6.577629 2.961099 27.088120 0.246785 1.461264 0.132698 -0.009155 303345.000000 0 0 1
-27.379286 -7.024729 3.417199 28.471904 0.251153 1.450486 0.164436 -0.005048 298800.000000 0 0 1
-27.530746 -7.467629 4.888399 28.941387 0.264874 1.401076 0.148908 -0.010324 -58667.600000 0 0 1
-26.714566 -8.579929 5.248199 28.545171 0.310764 1.385888 0.147235 -0.007414 86396.400000 0 0 1
-26.876616 -8.976729 6.595799 29.093619 0.322348 1.342098 0.119949 -0.013195 -346704.000000 0 0 1
-26.341686 -7.951529 7.634099 28.555047 0.293163 1.300158 0.112557 0.001914 205626.000000 0 0 1
-24.937076 -7.739929 7.704199 27.223499 0.300951 1.283878 0.131355 -0.007523 336783.000000 0 0 1
-24.681876 -6.425829 8.096699 26.758976 0.254692 1.263399 0.124159 -0.018285 -97372.200000 0 0 1
-23.294776 -5.919929 7.614899 25.212672 0.248863 1.263978 0.144320 -0.028609 581159.000000 0 0 1
-22.199776 -6.429629 8.359599 24.577491 0.281912 1.223739 0.145484 -0.041460 104593.000000 0 1 0
-20.966776 -6.190529 7.730199 23.188021 0.287097 1.230920 0.131296 -0.035136 195624.000000 0 1 0
-19.706476 -6.571429 8.536199 22.458752 0.321869 1.180910 0.147965 -0.041132 129902.000000 0 1 0
-19.408276 -5.696029 9.596799 22.388043 0.285469 1.127790 0.119376 -0.037400 439276.000000 0 1 0
-18.186076 -6.030429 10.253299 21.730844 0.320186 1.079429 0.107675 -0.054170 -71209.500000 0 1 0
-17.993676 -5.014229 11.332399 21.848069 0.271771 1.025477 0.100805 -0.034480 32899.200000 0 1 0
-18.922576 -5.087129 12.415099 23.196496 0.262630 1.006035 0.104119 -0.030873 292256.000000 0 1 0
-19.243676 -3.791629 12.773699 23.406471 0.194541 0.993532 0.112389 -0.026200 -252729.000000 0 1 0
-20.503276 -3.610429 13.633199 24.885410 0.174303 0.991017 0.114303 -0.032719 -355313.000000 0 1 0
-20.321876 -4.137229 14.954099 25.567956 0.200840 0.946068 0.118395 -0.030239 -482130.000000 0 0 1
-21.486876 -4.001929 15.681499 26.900012 0.184140 0.948435 0.107114 -0.013277 -749478.000000 0 0 1
-21.415876 -4.652529 17.108699 27.802758 0.213923 0.907954 0.098750 -0.009050 485695.000000 0 0 1
-22.534276 -4.425229 17.974699 29.162751 0.193910 0.906687 0.099251 -0.011276 862895.000000 0 0 1
-22.156176 -5.046129 19.208399 29.754363 0.223933 0.869032 0.103938 -0.005599 -25848.400000 0 0 1
-23.083576 -4.793329 20.413499 31.185548 0.204741 0.857167 0.108334 -0.010728 -252806.000000 0 0 1
-23.045176 -3.419529 20.807299 31.236469 0.147309 0.841799 0.113839 -0.019893 127658.000000 0 0 1
-23.759776 -3.252629 21.991299 32.538036 0.136051 0.828659 0.112186 -0.018574 -228127.000000 0 0 1
-23.925876 -1.791829 22.411199 32.831692 0.074751 0.819470 0.100106 -0.012860 134675.000000 0 0 1
-24.899576 -1.084229 21.654499 33.016386 0.043517 0.855460 0.102487 -0.013153 98977.600000 0 0 1
-24.736776 0.293071 21.781999 32.961333 -0.011847 0.848866 0.101358 -0.017120 488089.000000 0 0 1
-26.050606 1.021371 21.358699 33.702689 -0.039187 0.884419 0.102120 -0.018675 366134.000000 0 0 1
-27.201636 0.700071 22.085099 35.045266 -0.025731 0.889001 0.104239 -0.014135 374284.000000 0 0 1
-28.275016 1.641471 21.822099 35.754370 -0.057989 0.914314 0.096948 -0.010274 344822.000000 0 0 1
-29.303716 1.636071 22.914499 37.235182 -0.055774 0.907904 0.088324 -0.004603 -784810.000000 0 0 1
-28.858596 2.241171 24.117199 37.675996 -0.077505 0.876140 0.080581 -0.001670 214744.000000 0 0 1
-29.843976 2.256071 25.140099 39.086792 -0.075452 0.872144 0.076471 -0.006496 15570.600000 0 0 1
-29.430506 3.246571 26.252299 39.571178 -0.109869 0.845416 0.088308 -0.013321 -500320.000000 0 0 1
-28.376696 2.784171 26.999599 39.267885 -0.097802 0.812653 0.072992 -0.021827 -446213.000000 0 0 1
-27.833956 3.725171 27.909599 39.592319 -0.133045 0.788480 0.069366 -0.023029 -7989.790000 0 0 1
-26.657906 3.180571 28.754299 39.339162 -0.118749 0.751108 0.075405 -0.029272 30384.700000 0 0 1
-27.044406 2.292171 29.807899 40.313332 -0.084554 0.738609 0.075949 -0.029357 -35882.700000 0 0 1
-25.950826 2.011371 30.643699 40.206060 -0.077352 0.704144 0.063291 -0.037905 -291107.000000 0 0 1
-26.155086 0.850371 31.637099 41.057492 -0.032501 0.691083 0.051278 -0.031106 -752642.000000 0 0 1
-26.367796 -0.300129 30.896499 40.619507 0.011382 0.706510 0.034613 -0.038399 -21221.400000 0 0 1
-26.542276 -1.331529 31.747299 41.402371 0.050124 0.696957 0.061784 -0.036032 -559511.000000 0 0 1
-27.284586 -2.495429 31.069799 41.424729 0.091206 0.722689 0.055768 -0.029643 657453.000000 0 0 1
-28.664136 -2.330229 30.714999 42.076999 0.081116 0.752516 0.078027 -0.029187 718020.000000 0 0 1
-28.781636 -1.654129 29.455299 41.215693 0.057409 0.774655 0.067007 -0.025530 -686722.000000 0 0 1
-30.220996 -1.540229 28.925599 41.861333 0.050921 0.807944 0.091014 -0.022817 298458.000000 0 0 1
-31.063356 -0.975729 29.917299 43.138485 0.031401 0.804436 0.119928 -0.015031 -299749.000000 0 0 1
-32.437296 -0.958529 29.612199 43.931529 0.029542 0.831114 0.123536 -0.020545 457007.000000 0 0 1
-33.366156 -0.508429 30.791999 45.406013 0.015237 0.825557 0.128104 -0.025280 240932.000000 0 0 1
-33.609636 -1.557029 31.692699 46.221847 0.046294 0.815280 0.129424 -0.027685 -114424.000000 0 0 1
-34.310169 -1.133429 32.826299 47.497771 0.033023 0.807769 0.145945 -0.028059 -56022.100000 0 0 1
-34.752783 -2.361329 33.670699 48.446339 0.067842 0.802362 0.141673 -0.029799 -5824.200000 0 0 1
-35.724504 -3.125929 32.986599 48.725017 0.087279 0.827124 0.129986 -0.037300 14547.700000 0 0 1
-35.991206 -4.327629 33.650099 49.461343 0.119667 0.822582 0.111150 -0.030362 -717783.000000 0 0 1
-37.303906 -4.910829 33.185299 50.169330 0.130891 0.848025 0.100484 -0.027484 -834288.000000 0 0 1
36.985418 -4.431229 -33.783317 50.287866 -0.119242 2.307431 0.099377 -0.042270 -669320.000000 0 0 1
35.873508 -4.932729 33.173799 49.109483 -0.136646 0.829144 0.091439 -0.040105 -587625.000000 0 0 1
34.526998 -4.577629 -33.788817 48.525792 -0.131812 2.341035 0.092354 -0.039833 -231103.000000 0 0 1
34.117808 -5.331529 -32.592417 47.483847 -0.155015 2.327309 0.094943 -0.041387 247189.000000 0 0 1
33.654548 -6.624629 -32.864317 47.503449 -0.194357 2.334817 0.084232 -0.038627 294805.000000 0 0 1
32.186678 -6.740229 -33.397117 46.869824 -0.206428 2.363923 0.099213 -0.041192 987288.000000 0 0 1
31.136228 -6.610029 -32.402517 45.421144 -0.209188 2.365105 0.122671 -0.039725 884696.000000 0 0 1
29.883198 -6.784029 -33.056617 45.075143 -0.223235 2.394058 0.117106 -0.032758 226279.000000 0 0 1
28.689698 -6.527629 -32.107317 43.549840 -0.223717 2.399794 0.118928 -0.041417 -224126.000000 0 0 1
27.516398 -7.209729 -32.442317 43.146683 -0.256255 2.421747 0.101489 -0.032167 -295111.000000 0 0 1
26.423098 -6.773729 -31.672017 41.799284 -0.250952 2.430603 0.106998 -0.031763 -454887.000000 0 0 1
25.041398 -7.131829 -32.245217 41.445007 -0.277456 2.462311 0.096328 -0.035290 -157802.000000 0 0 1
24.695398 -8.505729 -32.265917 41.512643 -0.331700 2.461088 0.104481 -0.042954 227334.000000 0 0 1
24.402598 -9.076229 -31.009317 40.490029 -0.356083 2.443160 0.110777 -0.040191 -557151.000000 0 0 1
24.224498 -10.611929 -31.055517 40.790740 -0.412885 2.436170 0.117268 -0.035832 -784818.000000 0 0 1
23.085098 -11.003229 -31.712317 40.738972 -0.444784 2.462952 0.121833 -0.045387 -982974.000000 0 0 1
22.942998 -12.419329 -31.621117 40.994096 -0.496149 2.451768 0.114160 -0.036036 -609513.000000 0 0 1
21.768498 -13.009529 -32.423717 41.163246 -0.538676 2.477840 0.083736 -0.026110 -10418.900000 0 0 1
20.499498 -12.467429 -32.172817 40.134229 -0.546414 2.500814 0.067513 -0.016081 -278956.000000 0 0 1
20.228798 -11.180529 -32.678617 40.026248 -0.504917 2.525997 0.063535 -0.018161 -840140.000000 0 0 1
18.962098 -10.633529 -31.956817 38.650631 -0.511080 2.544213 0.046515 -0.017930 507362.000000 0 0 1
17.796898 -11.198229 -32.550017 38.750916 -0.561631 2.568044 0.034419 0.000918 82823.300000 0 0 1
16.622098 -10.857029 -31.829517 37.513829 -0.578599 2.583892 0.088166 -0.010580 209927.000000 0 0 1
15.284898 -11.058029 -32.546017 37.618497 -0.626299 2.616266 0.087588 -0.006168 -675731.000000 0 0 1
15.137298 -12.465929 -32.779917 38.197646 -0.688921 2.602483 0.100286 -0.013259 48991.400000 0 0 1
14.012098 -12.830329 -33.573517 38.576382 -0.741400 2.626633 0.100134 -0.021027 77479.900000 0 0 1
12.788998 -13.030429 -32.658117 37.415280 -0.794749 2.631819 0.100009 -0.019470 -434424.000000 0 0 1
12.125098 -11.799129 -32.383017 36.536246 -0.771774 2.660146 0.185272 -0.028240 172532.000000 0 0 1
11.053998 -11.944329 -31.450517 35.411762 -0.824092 2.664073 0.174571 -0.034523 900085.000000 0 0 1
9.734498 -11.161629 -31.720417 35.007532 -0.853589 2.704775 0.168671 -0.026409 480830.000000 0 0 1
9.913998 -9.764829 -31.571617 34.502264 -0.777818 2.726451 0.168950 -0.028120 488744.000000 0 0 1
8.702198 -9.136129 -31.975017 34.374392 -0.809719 2.765750 0.158590 -0.024922 441051.000000 0 0 1
8.878998 -7.612329 -32.152417 34.213478 -0.708740 2.792720 0.169397 -0.026883 -59269.900000 0 0 1
9.163598 -6.879029 -30.940617 32.994156 -0.643943 2.786921 0.174303 -0.037283 228976.000000 0 0 1
9.444998 -5.550429 -31.250317 33.114915 -0.531295 2.804418 0.138535 -0.030435 -71577.000000 0 0 1
9.457798 -4.561229 -30.054917 31.836344 -0.449365 2.805481 0.127224 -0.028087 1140210.000000 0 0 1
8.119298 -4.133929 -29.683517 31.050339 -0.470940 2.843779 0.152587 -0.036800 1079180.000000 0 0 1
8.134798 -3.169829 -28.624017 29.925860 -0.371563 2.845547 0.149414 -0.038951 876836.000000 0 0 1
6.660898 -2.784129 -28.236717 29.145002 -0.395911 2.891283 0.131954 -0.033575 669322.000000 0 0 1
5.962398 -2.205729 -29.354817 30.035324 -0.354327 2.928318 0.120735 -0.027538 675571.000000 0 0 1
4.628698 -1.746629 -29.168917 29.585491 -0.360827 2.973584 0.129113 -0.034569 1076060.000000 0 0 1
3.471398 -2.789629 -28.989517 29.329588 -0.676935 2.989164 0.125262 -0.035584 37796.400000 0 0 1
3.563098 -3.439029 -27.722517 28.161331 -0.767681 2.964829 0.128575 -0.037389 -485984.000000 0 0 1
2.569298 -4.407429 -27.626017 28.093123 -1.043010 2.958982 0.114897 -0.032065 -376519.000000 0 0 1
2.685998 -5.467329 -26.526617 27.217048 -1.114148 2.915869 0.093021 -0.035400 -394968.000000 0 0 1
2.443798 -4.852129 -25.295517 25.872350 -1.104229 2.930033 0.076729 -0.041616 8510.910000 0 0 1
2.851098 -5.660829 -24.195717 25.012126 -1.104230 2.885391 0.081832 -0.049798 62919.900000 0 0 1
2.799198 -4.964929 -22.816517 23.517642 -1.057424 2.896799 0.092771 -0.054996 -368488.000000 0 1 0
3.884998 -4.105529 -22.699117 23.392274 -0.812990 2.897546 0.090050 -0.048826 -394164.000000 0 1 0
3.957398 -3.558329 -21.384317 22.036600 -0.732350 2.897678 0.075094 -0.045880 130387.000000 0 1 0
5.091398 -2.510329 -21.279617 22.023764 -0.458075 2.880900 0.087784 -0.039781 346610.000000 0 1 0
6.248898 -2.940129 -20.564617 21.693238 -0.439773 2.817605 0.088016 -0.053868 170070.000000 0 1 0
7.179298 -1.874829 -20.585617 21.882069 -0.255439 2.795640 0.103873 -0.030201 443395.000000 0 1 0
8.666198 -2.211629 -20.276217 22.161211 -0.249868 2.726160 0.126123 -0.039777 -390708.000000 0 1 0
9.427298 -2.619529 -21.453717 23.579607 -0.271029 2.713700 0.138909 -0.049479 899666.000000 0 1 0
10.692498 -3.176229 -21.090517 23.858497 -0.288750 2.655112 0.128772 -0.050783 1089090.000000 0 1 0
11.773398 -2.324529 -20.338817 23.615330 -0.194932 2.608530 0.122013 -0.044952 -553689.000000 0 1 0
11.428998 -2.060529 -18.954117 22.228953 -0.178373 2.591884 0.115335 -0.037478 403914.000000 0 1 0
12.357198 -1.196729 -18.267617 22.087063 -0.096544 2.544677 0.124530 -0.038564 250421.000000 0 1 0
12.529398 0.269371 -18.651617 22.470897 0.021496 2.549966 0.099543 -0.030561 -202822.000000 0 1 0
13.254198 0.547471 -19.827117 23.855567 0.041282 2.551936 0.116378 -0.038491 208098.000000 0 1 0
13.301898 1.964071 -19.919817 24.033252 0.146594 2.547835 0.134924 -0.042926 -157927.000000 0 1 0
13.939998 2.536471 -21.180817 25.483019 0.179987 2.552012 0.140187 -0.045220 -529698.000000 0 0 1
15.336898 2.470671 -21.245517 26.319131 0.159721 2.510235 0.145149 -0.047513 -63326.800000 0 0 1
15.740798 3.420971 -22.240117 27.460855 0.214004 2.514751 0.143592 -0.049620 688151.000000 0 0 1
17.208598 3.305371 -22.794817 28.751783 0.189766 2.486209 0.124549 -0.044339 721163.000000 0 0 1
17.298998 2.360271 -23.774617 29.496756 0.135602 2.508173 0.105183 -0.041627 907904.000000 0 0 1
18.630998 1.822271 -23.772617 30.258422 0.097498 2.474547 0.100944 -0.041945 674501.000000 0 0 1
10.433624 26.968771 3.332899 29.108132 1.201653 1.456044 0.029972 -0.013172 129839.000000 0 0 1
10.318024 27.255471 4.700399 29.519758 1.208902 1.410887 0.039760 -0.012247 69217.100000 0 0 1
11.542024 27.819771 5.105899 30.548784 1.177524 1.402869 0.041423 -0.005450 -288667.000000 0 0 1
11.510424 28.202271 6.664599 31.181322 1.183294 1.355398 0.042176 -0.016407 -74145.400000 0 0 1
11.379024 27.131571 7.577199 30.381216 1.173677 1.318731 0.039999 -0.016286 3752.120000 0 0 1
10.952724 27.622571 8.777499 30.984078 1.193299 1.283573 0.041619 -0.014361 -645655.000000 0 0 1
10.895824 26.626171 9.934699 30.436331 1.182371 1.238294 0.060853 -0.014032 171972.000000 0 0 1
12.158124 26.208671 10.427299 30.715517 1.136446 1.224432 0.063413 -0.013599 140632.000000 0 0 1
12.723424 25.152971 9.709799 29.813381 1.102486 1.239059 0.071422 -0.020078 -1571580.000000 0 0 1
14.029324 24.670771 10.240699 30.171855 1.053738 1.224504 0.086498 -0.024100 -1388190.000000 0 0 1
15.029424 25.650871 10.062799 31.386473 1.040792 1.244424 0.091596 -0.030881 542960.000000 0 0 1
16.242024 25.147671 10.675899 31.783385 0.997333 1.228240 0.100907 -0.037987 599147.000000 0 0 1
17.305124 26.256371 10.919099 33.288002 0.988062 1.236590 0.097618 -0.042207 -1087920.000000 0 0 1
17.979824 26.621171 9.741899 33.568816 0.976775 1.276353 0.085727 -0.048586 109607.000000 0 0 1
19.345624 26.239171 9.756599 34.028496 0.935486 1.279997 0.099053 -0.051558 949882.000000 0 0 1
20.361924 26.906871 10.785399 35.424744 0.922986 1.261425 0.098262 -0.056491 -683168.000000 0 0 1
20.499224 28.268571 10.679699 36.515562 0.943384 1.273988 0.108673 -0.065808 1485140.000000 0 0 1
19.295324 29.038871 11.032699 36.568922 0.984319 1.264325 0.086642 -0.046163 1165940.000000 0 0 1
19.658224 30.543871 11.222999 38.017490 0.998929 1.271125 0.084522 -0.039600 -731834.000000 0 0 1
20.065124 31.249871 10.046299 38.471961 1.000004 1.306601 0.107899 -0.058585 928746.000000 0 0 1
19.107724 31.273271 8.927599 37.720348 1.022334 1.331850 0.119719 -0.055479 119910.000000 0 0 1
17.720124 31.840071 9.134599 37.566392 1.062949 1.325175 0.102706 -0.043229 -922162.000000 0 0 1
17.611124 33.182471 9.516099 38.752861 1.082864 1.322700 0.087289 -0.038261 215299.000000 0 0 1
16.250824 33.615671 9.529099 38.534483 1.120492 1.320916 0.098495 -0.021880 601253.000000 0 0 1
16.005024 -32.620956 9.867399 37.651735 -1.114668 1.305630 0.099253 -0.035375 -280400.000000 0 0 1
16.634124 -31.845556 8.890899 37.011912 -1.089439 1.328207 0.111351 -0.040830 73985.100000 0 0 1
16.570024 -30.418156 9.218799 35.844333 -1.072000 1.310683 0.103875 -0.025047 -180830.000000 0 0 1
17.492624 -29.687156 8.215199 35.423278 -1.038332 1.336750 0.083580 -0.020091 89663.000000 0 0 1
16.995024 -29.716056 6.889399 34.919030 -1.051284 1.372197 0.094428 -0.024026 534412.000000 0 0 1
17.942324 -29.129256 5.963199 34.727515 -1.018727 1.398227 0.075577 -0.013095 517060.000000 0 0 1
17.661124 -29.332756 4.457899 34.528231 -1.028837 1.441326 0.092950 -0.022537 -194816.000000 0 0 1
17.851024 -30.658256 4.040899 35.705974 -1.043524 1.457382 0.094739 -0.032414 -136824.000000 0 0 1
17.463324 -30.893656 2.722999 35.592140 -1.056303 1.494216 0.092612 -0.028489 -193307.000000 0 0 1
17.734624 -32.345256 2.208799 36.954178 -1.069266 1.510989 0.101737 -0.029105 69324.900000 0 0 1
19.116324 -32.625456 2.076199 37.870369 -1.040785 1.515945 0.091580 -0.020090 18672.800000 0 0 1
19.325824 -33.842956 1.404799 38.997521 -1.051940 1.534766 0.113792 -0.027894 609487.000000 0 0 1
20.754224 33.310371 1.697799 39.283599 1.013596 1.527564 0.111448 -0.025884 663362.000000 0 0 1
20.914724 32.902571 3.037999 39.105426 1.004571 1.493031 0.097419 -0.043000 926064.000000 0 0 1
22.317224 32.656071 3.251199 39.686872 0.971297 1.488783 0.071368 -0.027494 986828.000000 0 0 1
22.639624 32.389771 4.752799 39.802499 0.960759 1.451101 0.072594 -0.021150 -40148.100000 0 0 1
21.870224 31.316171 5.214799 38.551309 0.961166 1.435111 0.078359 -0.038365 431046.000000 0 0 1
22.656424 30.424971 6.012199 38.407538 0.930718 1.413613 0.065116 -0.042496 723225.000000 0 0 1
21.688524 29.569571 6.870199 37.308863 0.937956 1.385596 0.082858 -0.055705 526056.000000 0 0 1
20.811424 28.727771 6.110899 35.996435 0.943858 1.400206 0.095042 -0.048300 17593.500000 0 0 1
19.726324 28.337571 6.904799 35.211107 0.962680 1.373420 0.100265 -0.056147 142095.000000 0 0 1
18.334224 28.447671 6.220999 34.410966 0.998305 1.389011 0.096582 -0.048538 -43807.500000 0 0 1
17.803524 29.731071 6.125299 35.191211 1.031246 1.395848 0.091550 -0.059045 169201.000000 0 0 1
18.257724 30.517271 4.941999 35.903645 1.031646 1.432712 0.106689 -0.056150 60320.400000 0 0 1
18.327824 32.039671 5.155899 37.269733 1.051193 1.432011 0.120171 -0.053305 199216.000000 0 0 1
17.066324 32.651071 5.358099 37.229841 1.089163 1.426375 0.114687 -0.047885 -162104.000000 0 0 1
17.171524 -33.714556 5.502299 38.233596 -1.099720 1.426382 0.118309 -0.045309 -602546.000000 0 0 1
15.914524 -32.866856 5.676499 36.955716 -1.119859 1.416583 0.113924 -0.042509 -503291.000000 0 0 1
15.114024 -32.936156 4.535399 36.521144 -1.140575 1.446289 0.108541 -0.034094 248734.000000 0 0 1
13.845924 -32.288656 4.717299 35.447424 -1.165697 1.437322 0.102041 -0.033679 592553.000000 0 0 1
13.034224 -32.124156 3.434799 34.837484 -1.185347 1.472041 0.088929 -0.030714 -990626.000000 0 0 1
11.836024 -31.504556 3.673899 33.854484 -1.211419 1.462062 0.087799 -0.036659 -923036.000000 0 0 1
11.116424 -31.309656 2.471899 33.316358 -1.229632 1.496533 0.082553 -0.024391 -408783.000000 0 0 1
10.206124 -30.050356 2.405899 31.827303 -1.243386 1.495132 0.080197 -0.026577 -71317.100000 0 0 1
9.728524 -29.661456 1.131899 31.236635 -1.253867 1.534552 0.071411 -0.008064 460165.000000 0 0 1
8.727124 -30.531156 0.550299 31.758731 -1.292377 1.553468 0.050428 -0.009671 -125282.000000 0 0 1
8.989424 -31.089356 -0.802601 32.372859 -1.289325 1.595591 0.064516 -0.009654 391559.000000 0 0 1
10.137024 -31.953956 -0.747301 33.531672 -1.263600 1.593085 0.065222 -0.017673 287496.000000 0 0 1
10.336024 -32.798456 -1.888101 34.440340 -1.265510 1.625646 0.065036 -0.002992 -871566.000000 0 0 1
11.593224 -33.617256 -1.889501 35.610293 -1.238708 1.623882 0.073411 -0.011052 -821018.000000 0 0 1
11.673924 33.312471 -0.747601 35.306659 1.233732 1.591972 0.073408 -0.008214 54225.000000 0 0 1
12.773824 32.432271 -0.899201 34.868773 1.195593 1.596587 0.093413 -0.015611 -11779.300000 0 0 1
13.111124 31.436371 0.286599 34.062137 1.175663 1.562382 0.082230 -0.018753 -208172.000000 0 0 1
13.452224 31.882571 1.635099 34.642954 1.171529 1.523580 0.079648 -0.015692 -201271.000000 0 0 1
14.627324 32.625571 1.744999 35.797088 1.149324 1.522030 0.093184 -0.023320 369549.000000 0 0 1
15.964824 31.783471 1.775299 35.612025 1.105311 1.520925 0.088640 -0.031001 280677.000000 0 0 1
16.458624 31.329871 0.539499 35.394042 1.087088 1.555553 0.099997 -0.031895 38915.600000 0 0 1
17.488224 30.376771 0.686399 35.057914 1.048428 1.551216 0.090707 -0.024568 36255.800000 0 0 1
18.223724 29.889371 -0.564801 35.011393 1.023271 1.586929 0.091213 -0.018720 841084.000000 0 0 1
19.186824 30.870971 -1.109101 36.364560 1.014706 1.601301 0.087011 -0.014086 1066170.000000 0 0 1
18.642024 31.860871 -1.979901 36.967015 1.041399 1.624381 0.083101 -0.019655 -24956.300000 0 0 1
19.782724 32.675571 -2.590901 38.285270 1.026395 1.638522 0.085421 -0.018411 581097.000000 0 0 1
20.697824 33.307971 -1.685401 39.251260 1.014785 1.613748 0.080085 -0.019999 532470.000000 0 0 1
21.779224 -33.766156 -2.315201 40.247336 -0.997943 1.628352 0.079782 -0.018248 -1518510.000000 0 0 1
22.759224 -32.991856 -1.364601 40.103703 -0.966919 1.604830 0.078367 -0.015884 -750803.000000 0 0 1
23.676924 -33.784656 -0.685401 41.260993 -0.959521 1.587408 0.068259 -0.016714 301665.000000 0 0 1
24.536824 33.137271 -1.518501 41.260639 0.933429 1.607607 0.070788 -0.011623 -840334.000000 0 0 1
25.379724 33.704671 -2.676801 42.276477 0.925376 1.634155 0.056301 -0.015539 -1221130.000000 0 0 1
24.592824 -33.494356 -3.715101 41.719071 -0.937460 1.659965 0.070810 -0.030066 -283278.000000 0 0 1
25.373124 -32.932356 -4.746701 41.843359 -0.914328 1.684481 0.067815 -0.034306 -621875.000000 0 0 1
24.540124 -32.578456 -5.922801 41.214719 -0.925211 1.715002 0.074347 -0.036582 -841259.000000 0 0 1
23.548124 -31.669356 -5.568501 39.855620 -0.931428 1.710972 0.093634 -0.035563 -415976.000000 0 0 1
22.909824 -31.189656 -6.735001 39.281229 -0.937268 1.743104 0.102900 -0.035814 132673.000000 0 0 1
21.809724 -30.136556 -6.434001 37.752781 -0.944343 1.742057 0.116877 -0.042059 1353900.000000 0 0 1
20.540924 -30.531956 -5.862301 37.262535 -0.978582 1.728777 0.110829 -0.037782 1260020.000000 0 0 1
19.696724 -29.368656 -5.714201 35.820818 -0.980026 1.731003 0.118811 -0.038902 373223.000000 0 0 1
18.504524 -29.446956 -4.766401 35.103550 -1.009754 1.706998 0.105008 -0.024534 443913.000000 0 0 1
17.323024 -30.058856 -5.296001 35.095151 -1.047983 1.722279 0.101258 -0.026723 129649.000000 0 0 1
16.301024 -29.956656 -4.325401 34.377809 -1.072453 1.696950 0.070853 -0.019090 374279.000000 0 0 1
15.001724 -30.729156 -4.681401 34.514465 -1.116640 1.706852 0.056094 -0.015379 183809.000000 0 0 1
15.204524 -32.144456 -4.726901 35.871816 -1.128976 1.702953 0.065592 -0.006351 -53964.500000 0 0 1
14.008824 -32.770056 -5.129601 36.006063 -1.166820 1.713748 0.062599 -0.001396 32044.600000 0 0 1
14.243824 33.446171 -5.193101 36.721944 1.168186 1.712689 0.066719 -0.005991 40984.400000 0 0 1
14.266224 32.741071 -3.953401 35.932329 1.159874 1.681043 0.082879 -0.017886 -276333.000000 0 0 1
14.669424 31.409971 -4.055901 34.903132 1.133870 1.687264 0.087557 -0.019790 -267581.000000 0 0 1
13.720624 30.354871 -4.669101 33.637393 1.146274 1.710053 0.089245 -0.022599 -109696.000000 0 0 1
12.647324 29.899171 -3.892601 32.696599 1.170622 1.690132 0.087410 -0.021438 22361.000000 0 0 1
13.106424 28.866171 -3.003301 31.844215 1.144587 1.665249 0.088408 -0.023281 -569053.000000 0 0 1
12.057624 28.147771 -2.177801 30.698960 1.166076 1.641797 0.078169 -0.016765 -479826.000000 0 0 1
11.364924 28.995871 -1.323201 31.171668 1.197249 1.613258 0.065472 -0.014192 -680181.000000 0 0 1
10.378924 28.310971 -0.617601 30.159817 1.219406 1.591275 0.045797 -0.011816 -739547.000000 0 0 1
9.329824 29.254871 -0.056301 30.706616 1.262078 1.572630 0.025267 -0.002095 36522.900000 0 0 1
8.354324 28.473171 0.634499 29.680276 1.285396 1.549417 0.016868 -0.008725 -65209.000000 0 0 1
7.142624 29.159571 0.855299 30.033801 1.330577 1.542315 0.028830 -0.004590 417431.000000 0 0 1
6.071824 28.306971 1.602899 28.995188 1.359499 1.515487 0.025369 -0.012021 457264.000000 0 0 1
5.315724 27.424371 0.798799 27.946219 1.379338 1.542209 0.036626 -0.016763 -473859.000000 0 0 1
4.353524 26.763871 1.538699 27.159263 1.409544 1.514111 0.043077 -0.026496 -301395.000000 0 0 1
3.854524 25.529171 0.826199 25.831735 1.420943 1.538807 0.045513 -0.031587 -832.851000 0 0 1
2.625524 25.034571 1.323199 25.206626 1.466302 1.518278 0.076276 -0.033732 -48753.200000 0 0 1
2.123924 24.220071 0.305199 24.314935 1.483327 1.558244 0.061432 -0.034344 -234894.000000 0 1 0
0.671224 23.748271 0.513599 23.763306 1.542540 1.549182 0.060754 -0.029040 376377.000000 0 1 0
-0.260876 24.846771 0.511499 24.853405 -1.560297 1.550214 0.069049 -0.034949 62505.200000 0 1 0
-1.595576 24.406371 0.476699 24.463116 -1.505514 1.551309 0.061562 -0.025118 63951.000000 0 1 0
-2.651776 25.196171 1.272799 25.367281 -1.465937 1.520600 0.104777 -0.047895 208261.000000 0 0 1
-3.968676 24.673671 1.180999 25.018697 -1.411316 1.523574 0.105996 -0.032162 119729.000000 0 0 1
-4.835876 25.379671 2.015699 25.914792 -1.382512 1.492936 0.107878 -0.038609 -380446.000000 0 0 1
-6.255676 25.636671 1.522099 26.432729 -1.331461 1.513181 0.113906 -0.046632 -295688.000000 0 0 1
-6.260876 26.673271 0.567599 27.404090 -1.340245 1.550083 0.131965 -0.045522 -277034.000000 0 0 1
-7.476876 26.833471 -0.105901 27.855880 -1.299049 1.574598 0.122717 -0.032680 -585509.000000 0 0 1
-7.487276 27.913571 -1.233001 28.926580 -1.308734 1.613434 0.125996 -0.027843 -138667.000000 0 0 1
-7.415076 29.252371 -0.780901 30.187653 -1.322539 1.596667 0.153106 -0.053178 -61799.600000 0 0 1
-7.369076 30.168871 -1.887501 31.113128 -1.331226 1.631499 0.139360 -0.045113 71479.700000 0 0 1
-7.224176 31.654571 -1.379801 32.497760 -1.346420 1.613267 0.119492 -0.046367 -917069.000000 0 0 1
-7.573376 32.712371 -2.266801 33.654028 -1.343290 1.638203 0.113960 -0.028470 -209650.000000 0 0 1
-6.814576 32.864371 -3.463601 33.741693 -1.366339 1.673628 0.101222 -0.028695 595572.000000 0 0 1
-5.259576 32.995871 -3.292001 33.574215 -1.412725 1.669006 0.129852 -0.038864 160309.000000 0 0 1
-4.757676 -33.539356 -2.695501 33.982196 1.429883 1.650201 0.144464 -0.042569 93067.700000 0 0 1
-4.398976 -33.794656 -1.347001 34.106366 1.441356 1.610301 0.160235 -0.050216 -278946.000000 0 0 1
-4.210576 -32.397256 -0.638601 32.675969 1.441554 1.590341 0.162050 -0.045058 188842.000000 0 0 1
-5.401976 -31.633956 -0.556401 32.096699 1.401663 1.588132 0.150584 -0.039612 9855.680000 0 0 1
-5.494176 -30.616556 -1.502701 31.141894 1.393235 1.619068 0.159905 -0.036510 844711.000000 0 0 1
-6.888476 -29.883956 -1.641501 30.711504 1.344246 1.624271 0.164893 -0.037989 878435.000000 0 0 1
-7.209576 -29.018656 -0.582201 29.906510 1.327281 1.590265 0.153068 -0.028244 236092.000000 0 0 1
-8.521876 -28.505156 -0.826701 29.763228 1.280295 1.598576 0.120639 -0.022125 664093.000000 0 0 1
-8.986476 -27.587356 0.340599 29.016116 1.255890 1.559058 0.122120 -0.019517 -828279.000000 0 0 1
-8.066876 -26.591556 0.625299 27.795257 1.276258 1.548298 0.127530 -0.034798 -796495.000000 0 0 1
-7.713376 -26.453856 2.001999 27.628078 1.287083 1.498270 0.131712 -0.019105 183829.000000 0 0 1
-8.590176 -25.622956 2.983599 27.188763 1.247319 1.460838 0.111240 -0.019807 218789.000000 0 0 1
-8.327076 -24.227656 2.845199 25.776242 1.239744 1.460190 0.111682 -0.030597 587171.000000 0 0 1
-9.416576 -23.520156 3.470299 25.571715 1.189978 1.434668 0.098137 -0.029066 635136.000000 0 0 1
-9.043776 -22.024356 3.754199 24.103032 1.181163 1.414403 0.069887 -0.000633 167279.000000 0 1 0
-8.149076 -22.032156 4.860099 23.988412 1.216529 1.366782 0.057938 -0.001581 -235557.000000 0 1 0
-7.373576 -20.895056 5.104399 22.738247 1.231553 1.344382 0.046881 -0.000207 259651.000000 0 1 0
-8.094476 -19.593356 5.700399 21.952555 1.179028 1.308117 0.052377 -0.014325 281100.000000 0 1 0
-8.681476 -19.854956 6.964199 22.761533 1.158600 1.259846 0.067356 -0.013458 128405.000000 0 1 0
-9.082676 -18.748356 7.702299 22.210837 1.119664 1.216659 0.047450 -0.019214 -328955.000000 0 1 0
-28.243746 28.607071 -5.261201 40.543235 -0.791789 1.700931 0.192285 -0.020104 855724.000000 0 0 1
-27.205436 29.450271 -4.684901 40.365858 -0.825000 1.687119 0.184408 -0.038968 732244.000000 0 0 1
-26.105636 28.688671 -4.209901 39.016244 -0.832504 1.678908 0.162691 -0.032196 251185.000000 0 0 1
-25.151316 29.537071 -3.357701 38.939715 -0.865422 1.657132 0.136501 -0.031505 -587940.000000 0 0 1
-25.810476 30.119871 -2.305901 39.732914 -0.862296 1.628864 0.117501 -0.035228 254931.000000 0 0 1
-25.073026 31.226271 -1.731501 40.084096 -0.894261 1.614006 0.111230 -0.033971 873742.000000 0 0 1
-23.746576 31.006071 -0.928201 39.065814 -0.917216 1.594558 0.092587 -0.023930 479055.000000 0 0 1
-22.608276 30.770271 -1.702001 38.220943 -0.937131 1.615342 0.103615 -0.029102 724299.000000 0 0 1
-21.441376 30.335771 -0.943801 37.160225 -0.955520 1.596197 0.079793 -0.030616 709132.000000 0 0 1
-20.277776 29.935971 -1.865401 36.205390 -0.975419 1.622342 0.099337 -0.029556 -268800.000000 0 0 1
-19.235776 29.440671 -1.026301 35.182687 -0.992053 1.599971 0.098660 -0.032323 283383.000000 0 0 1
-18.257876 28.721971 -1.814701 34.082177 -1.004557 1.624066 0.102476 -0.030374 1082200.000000 0 0 1
-16.811376 29.110971 -1.345001 33.643425 -1.047091 1.610785 0.117929 -0.034341 375691.000000 0 0 1
-16.600776 28.617371 -0.061401 33.083885 -1.045142 1.572652 0.104561 -0.038910 1148240.000000 0 0 1
-15.422876 29.239071 0.549499 33.061916 -1.085411 1.554175 0.117626 -0.044706 1098250.000000 0 0 1
-14.838176 28.529971 1.803799 32.208452 -1.091206 1.514763 0.111880 -0.042048 69840.500000 0 0 1
-15.623876 28.702771 2.988699 32.815955 -1.072314 1.479595 0.090862 -0.040436 173516.000000 0 0 1
-15.111476 28.015971 4.126799 32.098003 -1.076137 1.441871 0.099179 -0.049690 -142387.000000 0 0 1
-13.864476 28.598671 4.788299 32.140869 -1.119387 1.421261 0.106069 -0.044838 -261205.000000 0 0 1
-14.081076 29.774071 5.547099 33.399735 -1.129038 1.403941 0.086239 -0.039910 -116918.000000 0 0 1
-13.949476 30.902871 4.731099 34.233881 -1.146781 1.432153 0.094721 -0.040945 -168116.000000 0 0 1
-13.888076 32.229071 5.579599 35.534822 -1.163924 1.413126 0.097127 -0.040720 188593.000000 0 0 1
-15.093776 32.586471 6.238099 36.450158 -1.137027 1.398809 0.099935 -0.040248 492741.000000 0 0 1
-14.822776 33.803471 6.873799 37.545152 -1.157548 1.386677 0.114913 -0.048328 143671.000000 0 0 1
-16.013576 -33.573456 7.777399 38.001309 1.125741 1.364679 0.096648 -0.040175 35140.400000 0 0 1
-16.254576 33.364471 8.940099 38.174920 -1.117455 1.334413 0.080958 -0.040055 270614.000000 0 0 1
-17.351976 -33.849456 9.693899 39.253642 1.097102 1.321259 0.086347 -0.035607 -534770.000000 0 0 1
-17.524776 33.198471 11.095099 39.145338 -1.085095 1.283424 0.079367 -0.032310 654622.000000 0 0 1
-16.607376 33.520871 12.171499 39.339536 -1.110808 1.256238 0.089113 -0.034801 151373.000000 0 0 1
-15.291576 33.059371 12.040199 38.363012 -1.137556 1.251552 0.101652 -0.037013 -452827.000000 0 0 1
-14.496376 33.147071 13.353499 38.564092 -1.158524 1.217207 0.100739 -0.028143 -197945.000000 0 0 1
-14.978576 32.334971 14.430899 38.446833 -1.136994 1.186025 0.082477 -0.026670 -261066.000000 0 0 1
-14.386076 31.064771 14.471699 37.167314 -1.137103 1.170853 0.076939 -0.029188 -384373.000000 0 0 1
-14.985176 29.818171 13.751599 36.094117 -1.105109 1.179926 0.075759 -0.035604 -46065.300000 0 0 1
-14.825976 29.899271 12.369999 35.592033 -1.110463 1.215840 0.080070 -0.031057 347023.000000 0 0 1
-16.035176 29.508271 11.743199 35.577628 -1.073024 1.234416 0.064854 -0.026746 127804.000000 0 0 1
-15.951876 29.345671 10.192399 34.921566 -1.072891 1.274620 0.063566 -0.022815 -17961.600000 0 0 1
-15.485976 28.098271 9.724599 33.524560 -1.067081 1.276492 0.060239 -0.013654 98539.900000 0 0 1
-15.378576 27.958871 8.344999 32.982390 -1.067920 1.315002 0.049299 -0.016372 -356814.000000 0 0 1
-14.627276 26.629271 8.006199 31.419333 -1.068496 1.313137 0.058838 -0.021825 -798186.000000 0 0 1
-13.301476 26.806071 8.395999 31.080339 -1.110184 1.297259 0.072410 -0.030578 -856805.000000 0 0 1
-12.598276 25.627471 8.150799 29.697127 -1.113897 1.292764 0.078451 -0.034036 -328271.000000 0 0 1
-11.461976 25.739971 7.105299 29.058704 -1.151859 1.323776 0.115503 -0.044400 -285845.000000 0 0 1
-11.761776 25.946971 5.723199 29.057524 -1.145201 1.372539 0.127906 -0.042806 33114.300000 0 0 1
-10.561876 25.799571 4.999899 28.322607 -1.182228 1.393332 0.152014 -0.039606 -82836.900000 0 0 1
-10.639176 26.220371 3.562399 28.520004 -1.185334 1.445560 0.142541 -0.043290 -44775.000000 0 0 1
-10.455376 27.579971 3.402499 29.690852 -1.208442 1.455946 0.144018 -0.039063 -27466.700000 0 0 1
-10.440276 27.943171 2.044399 29.899828 -1.213231 1.502368 0.141599 -0.045118 5888.260000 0 0 1
-9.968576 29.385571 1.820899 31.083757 -1.243745 1.512182 0.157328 -0.050161 515205.000000 0 0 1
-10.861076 30.377271 2.369799 32.347450 -1.227421 1.497470 0.125385 -0.052787 124312.000000 0 0 1
-10.545676 31.623771 1.978499 33.394440 -1.248920 1.511515 0.127795 -0.052878 -138007.000000 0 0 1
-11.278776 32.786371 2.759599 34.781781 -1.239469 1.491372 0.118191 -0.045838 538358.000000 0 0 1
-12.644576 32.962971 2.402699 35.386660 -1.204508 1.502846 0.130611 -0.046451 115472.000000 0 0 1
-12.795876 -33.821656 1.337699 36.186023 1.209106 1.533821 0.126311 -0.039013 -169022.000000 0 0 1
-14.302076 -33.767156 0.981799 36.684249 1.170155 1.544030 0.126949 -0.039250 336748.000000 0 0 1
-14.825476 32.744371 0.433899 35.946861 -1.145646 1.558725 0.108191 -0.031940 -36724.200000 0 0 1
-15.231376 32.806871 -0.930501 36.182198 -1.136136 1.596516 0.107951 -0.034103 -457147.000000 0 0 1
-14.204176 32.542171 -2.044801 35.565893 -1.159238 1.628321 0.119103 -0.030107 -252608.000000 0 0 1
-13.824476 31.192071 -2.152701 34.186189 -1.153608 1.633808 0.119761 -0.029114 -877514.000000 0 0 1
-12.550776 30.954771 -1.691401 33.445189 -1.185596 1.621390 0.123422 -0.026959 -1445930.000000 0 0 1
-12.093776 29.564771 -1.980701 32.004035 -1.182504 1.632725 0.094802 -0.019535 -91924.700000 0 0 1
-12.029976 29.089971 -3.317901 31.653676 -1.178669 1.675808 0.090563 -0.026423 -266946.000000 0 0 1
-10.860776 29.465071 -3.998101 31.656463 -1.217650 1.697431 0.075035 -0.013857 -57214.200000 0 0 1
-10.857776 28.857871 -5.480901 31.316262 -1.210930 1.746720 0.069686 -0.013780 106960.000000 0 0 1
-10.951776 27.424571 -5.622601 30.060974 -1.190858 1.758944 0.070116 -0.010806 -66903.400000 0 0 1
-10.736376 26.964271 -6.944401 29.842359 -1.191868 1.805652 0.055270 -0.001809 192622.000000 0 0 1
-11.176576 25.487671 -7.203701 28.747705 -1.157539 1.824079 0.080262 -0.017082 739950.000000 0 0 1
-10.423976 24.543871 -6.381001 27.418571 -1.169173 1.805676 0.048933 -0.013459 733971.000000 0 0 1
-11.045276 23.268671 -6.603501 26.590137 -1.127606 1.821767 0.100873 -0.026970 239896.000000 0 0 1
-10.488276 22.210071 -5.640401 25.201296 -1.129610 1.796522 0.082075 -0.033952 686582.000000 0 0 1
-9.163276 21.745271 -5.967401 24.339932 -1.171986 1.818491 0.077223 -0.033294 779404.000000 0 1 0
-8.651876 20.620571 -5.289801 22.979227 -1.173530 1.803079 0.076684 -0.031413 -387094.000000 0 1 0
-8.563876 20.520671 -3.758901 22.551435 -1.175441 1.738259 0.086033 -0.041993 -148078.000000 0 1 0
-9.776776 20.371871 -3.042201 22.800295 -1.123345 1.704624 0.104957 -0.043098 -152063.000000 0 1 0
-10.347376 19.078271 -3.143201 21.930078 -1.073834 1.714620 0.100799 -0.049696 -81856.500000 0 1 0
-11.718376 18.911471 -2.446901 22.381943 -1.016058 1.680340 0.101493 -0.051946 98862.900000 0 1 0
-11.750676 19.235271 -1.013701 22.563280 -1.022406 1.615738 0.107477 -0.039753 196699.000000 0 1 0
-10.958876 18.305571 -0.259601 21.336782 -1.031360 1.582963 0.079576 -0.021092 -149649.000000 0 1 0
-11.109776 18.375971 1.265599 21.510583 -1.027015 1.511926 0.092413 -0.020830 -191466.000000 0 1 0
-12.379476 18.102471 1.807599 22.004961 -0.970988 1.488559 0.114830 -0.027295 2208.730000 0 1 0
-12.448076 18.450771 3.203199 22.486574 -0.977277 1.427861 0.120992 -0.018822 -937646.000000 0 1 0
-13.801076 18.268471 3.834099 23.214371 -0.923811 1.404875 0.110636 -0.023027 -852991.000000 0 1 0
-14.079776 16.953671 4.288999 22.451338 -0.877741 1.378580 0.095038 -0.020509 -4425.300000 0 1 0
-15.316076 17.017071 4.948699 23.423332 -0.837958 1.357920 0.112124 -0.022356 -196475.000000 0 1 0
-15.696876 15.736971 5.732099 22.954327 -0.786674 1.318408 0.098572 -0.020163 -233723.000000 0 1 0
-14.753076 15.504371 6.755299 22.442656 -0.810223 1.265052 0.091344 -0.011617 49965.600000 0 1 0
-15.164076 15.913871 8.021899 23.399815 -0.809520 1.220880 0.086473 -0.017739 40781.600000 0 1 0
-14.033476 15.687871 9.105999 22.933969 -0.841004 1.162493 0.073300 -0.015351 2095830.000000 0 1 0
-12.833576 16.506271 9.036899 22.777691 -0.909928 1.162830 0.075028 -0.022199 803168.000000 0 1 0
-11.978776 16.386571 7.963599 21.804350 -0.939559 1.196917 0.072271 -0.025031 -1162250.000000 0 1 0
-10.917976 17.464571 7.838799 22.037700 -1.012089 1.207134 0.080434 -0.019597 -797960.000000 0 1 0
-9.836076 17.236071 8.658399 21.651753 -1.052224 1.159395 0.069480 -0.029552 -763944.000000 0 1 0
-8.991476 18.345671 8.752099 22.226325 -1.115089 1.166065 0.063611 -0.031289 -1259890.000000 0 1 0
-7.723976 18.259471 9.543499 22.003328 -1.170611 1.122168 0.057860 -0.033795 -1739290.000000 0 1 0
-6.774276 17.524871 8.793999 20.744791 -1.201936 1.133034 0.051095 -0.028280 -301110.000000 0 1 0
-5.518276 17.585571 9.443899 20.709681 -1.266732 1.097285 0.041875 -0.034356 544707.000000 0 1 0
-4.589176 18.761471 8.955799 21.289896 -1.330900 1.136624 0.037346 -0.028733 -814144.000000 0 1 0
-5.169476 20.004671 9.158299 22.600548 -1.317915 1.153572 0.057363 -0.033725 -250267.000000 0 1 0
-4.598476 21.086471 8.446199 23.175925 -1.356081 1.197767 0.064142 -0.035219 1317790.000000 0 1 0
-3.080676 21.496571 8.689099 23.390032 -1.428455 1.190186 0.062713 -0.031225 1735810.000000 0 1 0
-2.049276 20.662371 8.108699 22.290897 -1.471941 1.198487 0.050533 -0.018233 1025490.000000 0 1 0
-0.833876 21.437671 8.061899 22.918624 -1.531918 1.211344 0.042754 -0.016156 2415310.000000 0 1 0
0.517724 20.544571 7.902799 22.018212 1.545602 1.203685 0.028783 -0.008199 1855550.000000 0 1 0
0.932424 20.043771 9.153699 22.054759 1.524310 1.142805 0.024079 -0.006874 -405965.000000 0 1 0
2.257224 19.582171 9.155899 21.734465 1.456033 1.135960 0.017771 -0.004771 -210471.000000 0 1 0
2.919724 19.352071 10.531699 22.224854 1.421052 1.077116 0.011443 -0.010294 -158846.000000 0 1 0
4.269024 18.950671 10.436099 22.051410 1.349225 1.077806 0.031683 -0.000658 109045.000000 0 1 0
4.708724 18.378671 11.668399 22.273284 1.319985 1.019403 0.029499 -0.009901 239431.000000 0 1 0
6.231024 18.413471 11.957499 22.822431 1.244497 1.019331 0.049420 -0.010991 355106.000000 0 1 0
7.025224 17.559671 11.137499 21.948570 1.190223 1.038589 0.046211 -0.011360 -70362.100000 0 1 0
7.772124 16.690071 11.922099 21.934011 1.134985 0.996143 0.054426 -0.011809 433976.000000 0 1 0
9.097524 16.161871 11.265499 21.699827 1.058103 1.024938 0.066200 -0.019549 1363340.000000 0 1 0
10.223024 17.022871 11.067599 22.732798 1.029975 1.062310 0.079731 -0.025702 174626.000000 0 1 0
11.277924 16.419371 10.411299 22.476265 0.968939 1.089179 0.076066 -0.030732 -759831.000000 0 1 0
12.341624 17.387071 9.972199 23.538706 0.953513 1.133324 0.086302 -0.027595 388375.000000 0 1 0
13.424024 16.842471 9.176199 23.411021 0.897866 1.168035 0.091741 -0.023907 745032.000000 0 1 0
14.241924 17.883671 8.642799 24.440869 0.898276 1.209357 0.100575 -0.022094 524665.000000 0 1 0
15.213024 17.279271 7.553599 24.229449 0.848905 1.253759 0.093401 -0.027439 -186125.000000 0 1 0
16.264924 16.477571 8.029899 24.505865 0.791893 1.236957 0.112149 -0.031745 -926840.000000 0 1 0
17.085924 16.383171 6.951199 24.670960 0.764404 1.285172 0.113747 -0.025247 -1713600.000000 0 1 0
18.532024 16.386671 7.395999 25.819754 0.724037 1.280280 0.107320 -0.023908 -1168240.000000 0 0 1
18.944624 15.261371 8.083599 25.634992 0.678133 1.249987 0.117046 -0.020170 -846816.000000 0 0 1
20.064924 15.408071 8.842399 26.799214 0.654866 1.234546 0.114404 -0.018839 -1214730.000000 0 0 1
20.215024 14.397471 9.986299 26.751833 0.618878 1.188239 0.098208 -0.015449 -30912.900000 0 0 1
20.967024 13.278971 9.537599 26.587835 0.564564 1.203900 0.116426 -0.022085 575306.000000 0 0 1
20.727624 12.087171 10.289399 26.107582 0.527932 1.165691 0.099725 -0.035077 -33593.800000 0 0 1
21.682124 10.967471 9.743099 26.178769 0.468301 1.189444 0.085180 -0.021179 -389714.000000 0 0 1
23.007624 11.196771 10.181199 27.538614 0.452915 1.192103 0.094848 -0.028145 706472.000000 0 0 1
23.976624 10.482671 9.390599 27.801947 0.412162 1.226252 0.115002 -0.029999 252612.000000 0 0 1
24.108224 8.961571 9.730999 27.499247 0.355894 1.209097 0.129640 -0.040265 -497065.000000 0 0 1
23.029224 8.191571 9.204699 26.118451 0.341747 1.210639 0.120912 -0.037270 599171.000000 0 0 1
23.019724 6.813371 9.475899 25.809347 0.287764 1.194853 0.111330 -0.038845 101694.000000 0 0 1
23.966324 5.837771 8.617999 26.129183 0.238929 1.234681 0.127661 -0.041131 367838.000000 0 0 1
23.763924 5.790071 7.183699 25.492245 0.238993 1.285127 0.109058 -0.028418 -112449.000000 0 0 1
24.894824 5.382571 6.490299 26.283994 0.212935 1.321286 0.150197 -0.039561 -548630.000000 0 0 1
24.538724 5.031971 5.028399 25.549061 0.202259 1.372690 0.163527 -0.050354 -468594.000000 0 0 1
23.790624 3.860071 4.986199 24.612114 0.160850 1.366793 0.148359 -0.049010 176295.000000 0 1 0
23.448224 3.675071 3.624599 24.009646 0.155467 1.419253 0.170033 -0.040696 -383199.000000 0 1 0
22.447524 2.530471 3.367799 22.839367 0.112254 1.422801 0.164108 -0.035788 48857.200000 0 1 0
23.002324 1.255271 3.644099 23.322995 0.054517 1.413909 0.181483 -0.037042 2172100.000000 0 1 0
21.956824 0.252471 3.306099 22.205769 0.011498 1.421356 0.157906 -0.034164 1465410.000000 0 1 0
22.595624 -1.079529 3.663899 22.916190 -0.047740 1.410225 0.174587 -0.038741 -185260.000000 0 1 0
22.954124 -1.243429 5.015899 23.528646 -0.054117 1.355965 0.181603 -0.032411 574572.000000 0 1 0
23.017024 -2.636529 5.302799 23.766665 -0.114050 1.345783 0.169642 -0.037743 -257686.000000 0 1 0
23.121224 -2.990329 6.778499 24.279233 -0.128619 1.287847 0.205218 -0.041359 -51913.200000 0 1 0
23.007824 -4.390929 6.836699 24.400424 -0.188577 1.286807 0.184269 -0.041370 490027.000000 0 1 0
23.144024 -4.801829 8.204699 25.020402 -0.204574 1.236695 0.219263 -0.050936 -78772.500000 0 0 1
22.649824 -6.211829 8.638399 25.024454 -0.267674 1.218346 0.208412 -0.057213 783407.000000 0 0 1
21.219424 -6.316729 8.658199 23.772451 -0.289333 1.198010 0.209553 -0.056424 947016.000000 0 1 0
20.905124 -7.672229 8.928199 23.991667 -0.351741 1.189485 0.202490 -0.057015 -276101.000000 0 1 0
-27.714076 -32.852756 5.713799 43.359210 0.870039 1.438634 0.081257 -0.017366 324045.000000 0 0 1
-28.805906 -33.714356 6.002699 44.748971 0.863747 1.436249 0.081634 -0.017859 271787.000000 0 0 1
-28.674476 33.462871 7.272699 44.664096 -0.862308 1.407237 0.087741 -0.022149 280906.000000 0 0 1
-29.618416 32.234071 7.482099 44.410221 -0.827662 1.401512 0.107322 -0.034175 -437468.000000 0 0 1
-30.966166 32.539971 7.574399 45.553536 -0.810175 1.403746 0.094104 -0.021381 -760472.000000 0 0 1
-31.692866 31.310871 7.695499 45.210940 -0.779335 1.399750 0.109411 -0.034465 -161506.000000 0 0 1
-33.214006 31.481271 7.675599 46.402106 -0.758622 1.404618 0.097171 -0.028087 -485704.000000 0 0 1
-33.589836 31.790071 6.370799 46.684824 -0.757877 1.433905 0.084778 -0.023889 503522.000000 0 0 1
-35.010661 31.949271 6.280099 47.811525 -0.739710 1.439065 0.069295 -0.023187 774090.000000 0 0 1
-35.558800 31.912271 4.800099 48.019394 -0.731405 1.470667 0.052766 -0.016423 -251290.000000 0 0 1
-35.511069 30.546171 4.394599 47.046967 -0.710379 1.477251 0.062772 -0.019382 212869.000000 0 0 1
-35.955640 30.409071 3.075499 47.190871 -0.702015 1.505579 0.074314 -0.005615 -10388.200000 0 0 1
-35.634233 28.955771 2.615699 45.989967 -0.682367 1.513890 0.079528 -0.017061 47036.500000 0 0 1
-36.304026 27.918871 3.318199 45.917928 -0.655569 1.498470 0.114037 -0.030311 690398.000000 0 0 1
-35.769474 26.618071 2.872499 44.679170 -0.639750 1.506460 0.099803 -0.031646 24582.200000 0 0 1
-36.298726 25.385571 3.705799 44.449495 -0.610291 1.487328 0.113738 -0.032262 768982.000000 0 0 1
-37.658546 25.076571 3.356699 45.368138 -0.587467 1.496741 0.120863 -0.027637 633553.000000 0 0 1
37.121218 24.277771 4.341199 44.567264 0.579191 1.473234 0.119002 -0.028152 77722.800000 0 0 1
35.683578 23.905371 3.920899 43.129549 0.590256 1.479761 0.144882 -0.026896 -264055.000000 0 0 1
35.532128 22.965071 2.826699 42.401850 0.573783 1.504082 0.133183 -0.042664 230611.000000 0 0 1
36.063238 21.663671 3.053199 42.180491 0.540944 1.498349 0.120100 -0.036288 -626510.000000 0 0 1
35.484328 20.716171 1.991999 41.137153 0.528431 1.522354 0.129544 -0.033509 1562680.000000 0 0 1
34.052528 20.439971 2.062399 39.769594 0.540602 1.518914 0.131032 -0.039026 2070110.000000 0 0 1
33.565278 19.682771 3.253899 39.046475 0.530362 1.487366 0.119971 -0.041134 -172724.000000 0 0 1
33.641528 18.093471 3.159199 38.328927 0.493453 1.488279 0.138315 -0.040952 -427573.000000 0 0 1
32.821168 17.470371 2.199399 37.246212 0.489144 1.511712 0.120815 -0.053863 65605.800000 0 0 1
32.899458 16.010171 2.220999 36.655597 0.452902 1.510168 0.120599 -0.040403 -621328.000000 0 0 1
32.065068 15.186471 3.185399 35.622244 0.442317 1.481255 0.143862 -0.043933 -2834.480000 0 0 1
30.679938 15.179971 2.860099 34.349240 0.459467 1.487435 0.136164 -0.046628 240405.000000 0 0 1
29.932998 14.597771 3.905199 33.531029 0.453744 1.454066 0.128987 -0.059026 135044.000000 0 0 1
28.428298 14.993671 3.873799 32.372591 0.485343 1.450846 0.129198 -0.053696 50506.000000 0 0 1
27.889898 14.387871 2.765599 31.504060 0.476272 1.482898 0.124956 -0.058048 -59316.600000 0 0 1
26.511998 14.666871 2.566999 30.407115 0.505309 1.486275 0.097739 -0.042320 271414.000000 0 0 1
25.881498 14.052271 1.278099 29.477988 0.497412 1.527425 0.095713 -0.041945 -225075.000000 0 0 1
26.312098 14.579671 0.025499 30.081456 0.505990 1.569949 0.110847 -0.044117 -452319.000000 0 0 1
27.597898 14.229171 -0.357801 31.052235 0.476041 1.582319 0.116131 -0.049028 -1457560.000000 0 0 1
28.233598 15.198871 -1.404801 32.095408 0.493836 1.614580 0.131933 -0.043719 -153165.000000 0 0 1
28.625598 16.494471 -0.943201 33.051204 0.522746 1.599338 0.093924 -0.044486 413999.000000 0 0 1
29.618098 16.413371 0.065099 33.861995 0.506037 1.568874 0.109901 -0.041715 -837564.000000 0 0 1
30.257498 17.791971 0.383199 35.102952 0.531563 1.559880 0.124830 -0.030149 -245661.000000 0 0 1
31.025758 18.313571 -0.667601 36.033738 0.533234 1.589324 0.128685 -0.033848 -226039.000000 0 0 1
31.580988 19.581871 -0.491501 37.162482 0.555034 1.584022 0.118830 -0.025176 227722.000000 0 0 1
32.613928 19.809571 -1.648201 38.194292 0.545840 1.613963 0.106661 -0.028017 214591.000000 0 0 1
33.152738 21.104971 -1.928901 39.347738 0.566896 1.619838 0.070392 -0.026489 481856.000000 0 0 1
32.216378 22.055271 -2.421901 39.117715 0.600314 1.632749 0.096899 -0.024212 -523454.000000 0 0 1
32.859478 23.454271 -2.735001 40.463914 0.619911 1.638439 0.109293 -0.027900 109738.000000 0 0 1
33.316368 24.274971 -1.688301 41.256575 0.629677 1.611730 0.119633 -0.023460 -195149.000000 0 0 1
34.308768 23.702471 -0.916501 41.710175 0.604564 1.592771 0.138600 -0.018352 -1420810.000000 0 0 1
34.682408 24.567971 0.312099 42.503553 0.616321 1.563453 0.145437 -0.027876 39163.700000 0 0 1
35.329898 25.765771 -0.079501 43.727371 0.630115 1.572614 0.160926 -0.022786 342299.000000 0 0 1
36.564848 25.988871 0.588499 44.863748 0.617912 1.557678 0.153150 -0.027988 436350.000000 0 0 1
37.318888 27.274971 0.152699 46.223877 0.631140 1.567493 0.118908 -0.029582 -170520.000000 0 0 1
37.682558 27.422371 -1.213101 46.620095 0.629089 1.596820 0.102117 -0.031773 -467011.000000 0 0 1
36.659098 27.747271 -2.077301 46.022991 0.647902 1.615948 0.093626 -0.028245 -634667.000000 0 0 1
36.930058 27.308571 -3.558101 46.067856 0.636726 1.648109 0.093744 -0.028397 -170842.000000 0 0 1
-37.590786 28.039571 -4.349701 47.097820 -0.640882 1.663283 0.094483 -0.027613 -81829.400000 0 0 1
-37.497756 27.672571 -5.710701 46.951730 -0.635763 1.692727 0.092658 -0.030595 155354.000000 0 0 1
36.672898 27.661371 -6.644401 46.413371 0.646230 1.714447 0.058705 -0.011428 128638.000000 0 0 1
35.677378 26.826571 -6.123501 45.055937 0.644729 1.707127 0.076604 -0.012869 -1305330.000000 0 0 1
34.582488 26.880471 -6.977901 44.353121 0.660736 1.728779 0.063996 -0.009359 -841773.000000 0 0 1
33.571948 25.787771 -6.556201 42.837701 0.655007 1.724448 0.074599 -0.015679 -596010.000000 0 0 1
33.835618 24.410671 -6.834701 42.278163 0.624977 1.733169 0.061853 -0.014075 -128291.000000 0 0 1
34.940168 23.838671 -6.155801 42.743321 0.598728 1.715317 0.072536 -0.021244 157640.000000 0 0 1
34.932338 22.256771 -6.190401 41.880224 0.567281 1.719152 0.071405 -0.022505 54607.900000 0 0 1
33.767468 21.670571 -5.655401 40.519614 0.570560 1.710825 0.064833 -0.015321 133133.000000 0 0 1
33.963348 20.294671 -5.504701 39.946019 0.538613 1.709040 0.065251 -0.022425 110339.000000 0 0 1
32.659438 19.567171 -5.105001 38.413202 0.539778 1.704088 0.084012 -0.021125 511529.000000 0 0 1
31.568398 19.511971 -6.025401 37.597689 0.553612 1.731750 0.066560 -0.020397 -610795.000000 0 0 1
30.581458 18.771071 -5.449301 36.294264 0.550509 1.721508 0.086920 -0.030171 -902196.000000 0 0 1
29.409898 18.516271 -6.422701 35.341838 0.561895 1.753543 0.046951 -0.027587 -61001.400000 0 0 1
29.686398 17.597071 -7.468301 35.308847 0.535083 1.783920 0.025285 -0.019108 2028.830000 0 0 1
28.474298 17.280571 -8.115701 34.282188 0.545465 1.809797 0.051550 -0.021323 68728.200000 0 0 1
28.647098 16.140371 -9.212001 34.147163 0.513089 1.843954 0.040255 -0.013340 57579.600000 0 0 1
27.749898 16.322971 -10.324001 33.809484 0.531711 1.881111 0.034554 -0.011154 507842.000000 0 0 1
27.767398 15.274671 -11.219001 33.618595 0.502915 1.911037 0.035415 -0.000411 -96632.800000 0 0 1
27.082298 15.615771 -12.565201 33.692543 0.523039 1.952969 0.048933 0.005248 285933.000000 0 0 1
25.657398 15.510171 -12.438701 32.459032 0.543730 1.964068 0.054732 0.000759 696392.000000 0 0 1
25.130298 15.600071 -13.787801 32.634300 0.555550 2.006992 0.047796 -0.008058 -502018.000000 0 0 1
25.197798 14.329971 -14.752101 32.525399 0.517086 2.041548 0.044175 -0.012914 -767455.000000 0 0 1
26.453098 13.773271 -15.047401 33.404995 0.480045 2.038070 0.069520 -0.017360 -180170.000000 0 0 1
27.132698 14.529071 -16.056201 34.714245 0.491629 2.051637 0.080531 -0.018424 77723.800000 0 0 1
28.533498 13.933671 -16.375801 35.727784 0.454265 2.046933 0.119668 -0.017875 180739.000000 0 0 1
28.493398 12.568771 -16.729901 35.351624 0.415438 2.063765 0.121493 -0.024231 372628.000000 0 0 1
29.787598 12.076971 -17.079801 36.398816 0.385184 2.059227 0.111755 -0.012792 519928.000000 0 0 1
29.780098 10.647771 -17.716401 36.250519 0.343382 2.081420 0.083222 -0.009496 -230351.000000 0 0 1
29.294898 10.622071 -19.008701 36.501372 0.347848 2.118545 0.098085 -0.016256 -216252.000000 0 0 1
29.301698 9.358471 -19.679201 36.516317 0.309143 2.139945 0.098585 -0.020124 59194.500000 0 0 1
30.602438 8.796871 -20.329301 37.777965 0.279910 2.139008 0.084277 -0.016645 -418526.000000 0 0 1
30.867098 9.647571 -21.444301 38.803497 0.302932 2.156323 0.087161 -0.012639 441796.000000 0 0 1
31.705628 9.094671 -22.453501 39.901373 0.279347 2.168475 0.047030 -0.005994 326517.000000 0 0 1
33.186908 8.672771 -22.216801 40.867763 0.255614 2.145548 0.035577 0.001037 -344499.000000 0 0 1
34.065658 9.752171 -22.196301 41.812076 0.278819 2.130410 0.041707 -0.001310 57347.700000 0 0 1
35.386378 9.238571 -22.150401 42.757306 0.255377 2.115365 0.026717 -0.004319 673059.000000 0 0 1
36.635538 10.164871 -22.099901 43.976049 0.270651 2.097335 0.053018 -0.008543 371051.000000 0 0 1
36.576228 10.733971 -20.777401 43.413581 0.285454 2.069847 0.037150 -0.011747 327090.000000 0 0 1
37.350228 11.904271 -20.552501 44.262360 0.308542 2.053678 0.030886 -0.009600 -206802.000000 0 0 1
37.159488 12.565871 -19.165201 43.658145 0.326089 2.025263 0.039896 -0.015965 -246495.000000 0 0 1
37.659358 11.814471 -18.064601 43.406668 0.303995 2.000027 0.039894 -0.012952 344290.000000 0 0 1
37.467818 12.542771 -16.908801 42.977506 0.323035 1.975160 0.043351 -0.015070 -182049.000000 0 0 1
-37.649016 11.659271 -15.659601 42.410023 -0.300317 1.948991 0.039658 -0.018228 -159448.000000 0 0 1
37.106318 10.419971 -15.576401 41.570168 0.273763 1.954871 0.022494 -0.021484 149383.000000 0 0 1
37.701088 9.688071 -14.551401 41.556877 0.251528 1.928534 0.033868 -0.033889 -527520.000000 0 0 1
36.926808 8.451571 -14.309701 40.494268 0.224998 1.931974 0.084495 -0.033114 -546373.000000 0 0 1
35.800488 8.584071 -13.485701 39.207466 0.235332 1.921925 0.094511 -0.028749 173920.000000 0 0 1
36.093478 8.468571 -12.102801 38.999149 0.230460 1.886342 0.099372 -0.030928 -669893.000000 0 0 1
34.992498 9.020871 -11.196501 37.831372 0.252301 1.871255 0.129830 -0.027578 -459825.000000 0 0 1
34.727858 10.403671 -11.276701 37.966096 0.291069 1.872367 0.133901 -0.034364 564794.000000 0 0 1
33.729718 10.889971 -10.360901 36.927410 0.312295 1.855189 0.115841 -0.016941 108943.000000 0 0 1
34.032888 10.689671 -8.837901 36.750715 0.304340 1.813659 0.129409 -0.017366 -415248.000000 0 0 1
35.190638 11.321371 -8.345501 37.897254 0.311258 1.792830 0.123851 -0.020090 56705.100000 0 0 1
35.010568 12.619571 -7.803601 38.024856 0.345954 1.777489 0.113480 -0.015845 -395974.000000 0 0 1
34.993818 12.824671 -6.305201 37.799405 0.351284 1.738387 0.103533 -0.018655 -299825.000000 0 0 1
36.235018 12.700471 -5.655501 38.810607 0.337123 1.717038 0.121706 -0.017314 13841.400000 0 0 1
36.162828 12.618271 -4.274501 38.538841 0.335721 1.681939 0.130752 -0.018774 204988.000000 0 0 1
37.599378 12.536171 -3.690101 39.805598 0.321823 1.663633 0.133369 -0.017981 223132.000000 0 0 1
-37.166996 13.762571 -3.650601 39.801015 -0.354635 1.662647 0.141231 -0.013032 376188.000000 0 0 1
-35.956034 13.691171 -2.891301 38.582951 -0.363824 1.645804 0.151445 -0.021367 721944.000000 0 0 1
-35.052074 14.960171 -2.932101 38.223707 -0.403393 1.647581 0.136718 -0.019517 390277.000000 0 0 1
-35.567055 16.030771 -2.184701 39.073954 -0.423452 1.626737 0.153560 -0.019898 -192340.000000 0 0 1
-34.584960 17.000371 -2.162201 38.598020 -0.456868 1.626844 0.126255 -0.024771 -304858.000000 0 0 1
-34.892463 18.196071 -1.265601 39.372360 -0.480691 1.602946 0.136639 -0.019996 186139.000000 0 0 1
-35.901190 19.068171 -1.768101 40.689271 -0.488240 1.614264 0.115309 -0.023299 -5499.740000 0 0 1
-36.718266 19.586071 -0.798201 41.623099 -0.490021 1.589974 0.104111 -0.027576 -400173.000000 0 0 1
37.601718 20.450771 -1.393601 42.825989 0.498131 1.603343 0.107164 -0.029171 17576.900000 0 0 1
-37.263406 21.677271 -1.689201 43.143005 -0.526878 1.609960 0.089159 -0.028993 36871.300000 0 0 1
37.301038 22.317471 -2.564401 43.543233 0.539174 1.629724 0.081938 -0.019507 -413922.000000 0 0 1
-37.593566 23.654671 -3.100101 44.524491 -0.561629 1.640480 0.111037 -0.034449 -243675.000000 0 0 1
-36.346056 23.436071 -3.715101 43.406073 -0.572714 1.656491 0.124225 -0.033522 -391128.000000 0 0 1
-35.835135 24.589471 -4.281301 43.670682 -0.601393 1.668990 0.134028 -0.037517 -911308.000000 0 0 1
-34.361550 24.513471 -4.620401 42.461447 -0.619662 1.679826 0.148079 -0.052114 -782406.000000 0 0 1
-34.140082 23.483971 -5.601901 41.814153 -0.602539 1.705172 0.120394 -0.037773 -1147390.000000 0 0 1
-32.894196 23.631371 -6.178501 40.971254 -0.622972 1.722175 0.147324 -0.033881 -729520.000000 0 0 1
-32.522996 22.564571 -7.182801 40.230557 -0.606555 1.750300 0.144696 -0.042941 110924.000000 0 0 1
-33.166476 22.868071 -8.427101 41.157986 -0.603640 1.777005 0.140658 -0.048270 224045.000000 0 0 1
-32.638266 22.057871 -9.478701 40.517303 -0.594319 1.806927 0.092339 -0.038824 -208444.000000 0 0 1
-33.528246 22.027671 -10.728001 41.526516 -0.581272 1.832101 0.105754 -0.021963 -174798.000000 0 0 1
-33.937946 23.364471 -11.128301 42.679289 -0.602930 1.834587 0.096946 -0.021441 116630.000000 0 0 1
-34.476450 23.406471 -12.420701 43.482896 -0.596432 1.860476 0.061525 -0.012023 -615282.000000 0 0 1
-34.674455 24.847271 -12.940401 44.577558 -0.621772 1.865326 0.061447 -0.007009 571569.000000 0 0 1
-33.502026 25.661371 -12.987201 44.153812 -0.653641 1.869347 0.063308 -0.007257 333433.000000 0 0 1
-32.616466 25.503171 -14.088501 43.734785 -0.663613 1.898780 0.075596 -0.011006 243574.000000 0 0 1
-31.222796 26.175571 -13.898201 43.048618 -0.697691 1.899534 0.097777 -0.009302 509589.000000 0 0 1
-30.260166 25.576371 -13.041801 41.712312 -0.701710 1.888789 0.079323 -0.016387 210288.000000 0 0 1
-30.654696 25.333371 -11.667001 41.444046 -0.690639 1.856166 0.105466 -0.018805 -286132.000000 0 0 1
-30.981246 26.565171 -10.719601 42.195447 -0.708809 1.827658 0.125185 -0.014352 855731.000000 0 0 1
-29.770716 27.239571 -10.366501 41.662382 -0.741029 1.822260 0.125471 -0.009693 -96985.200000 0 0 1
-30.031686 28.420671 -9.658101 42.460754 -0.757844 1.800264 0.114866 -0.010753 -114773.000000 0 0 1
-28.859306 29.348371 -9.297901 42.197599 -0.793800 1.792961 0.127270 -0.008723 -124248.000000 0 0 1
-29.128966 30.394871 -8.383001 42.925744 -0.806662 1.767350 0.120211 -0.016384 -497794.000000 0 0 1
-28.027846 31.240971 -8.191301 42.762785 -0.839558 1.763540 0.180286 -0.022592 -140868.000000 0 0 1
36.226548 -25.158089 33.413210 55.332945 -0.607002 0.922465 0.076111 -0.011767 -24146.000000 0 0 1
35.750488 -23.836529 33.669445 54.588543 -0.588058 0.906143 0.072086 -0.017170 -22994.700000 0 0 1
34.588468 -23.835529 -33.175091 53.526453 -0.603385 2.239270 0.053360 -0.008973 223628.000000 0 0 1
34.089728 -22.399729 -32.755211 52.314064 -0.581337 2.247372 0.039515 -0.011412 240238.000000 0 0 1
33.775218 -21.614329 33.755945 52.415727 -0.569275 0.871075 0.035999 -0.013524 -51820.600000 0 0 1
33.302658 -20.329429 -33.589571 51.484095 -0.548064 2.281578 0.035217 -0.008060 126404.000000 0 0 1
33.042388 -19.365629 32.851033 50.458076 -0.530125 0.861821 0.048554 -0.013494 237142.000000 0 0 1
34.230998 -19.016929 32.174396 50.681324 -0.507092 0.882998 0.074153 -0.023371 157513.000000 0 0 1
33.887068 -18.338029 30.940245 49.415741 -0.496024 0.894228 0.086105 -0.020672 34413.200000 0 0 1
35.082108 -18.127529 29.996925 49.590091 -0.476932 0.921159 0.072826 -0.023734 -518787.000000 0 0 1
35.906878 -17.043329 30.310305 49.984933 -0.443166 0.919285 0.069239 -0.028961 -594547.000000 0 0 1
37.127698 -17.330029 29.685015 50.596403 -0.436711 0.943816 0.074411 -0.024260 -231486.000000 0 0 1
-37.262896 -16.220129 30.117995 50.583689 0.410553 0.933021 0.066683 -0.026720 231886.000000 0 0 1
-35.916278 -16.504129 29.796915 49.499711 0.430740 0.924841 0.074134 -0.020295 135790.000000 0 0 1
-35.099286 -15.374229 30.010205 48.671749 0.412848 0.906400 0.077760 -0.025104 -206606.000000 0 0 1
-33.615196 -15.719029 30.154785 47.816109 0.437407 0.888418 0.087942 -0.028858 -455030.000000 0 0 1
-32.790986 -14.637329 30.446645 47.079702 0.419842 0.867541 0.083363 -0.027941 74152.600000 0 0 1
-31.572426 -15.066029 31.040025 46.768434 0.445233 0.845047 0.083601 -0.028012 748928.000000 0 0 1
-30.641216 -13.895829 31.554356 46.126517 0.425762 0.817451 0.075923 -0.023998 211333.000000 0 0 1
-31.157926 -13.256529 32.674536 47.055044 0.402262 0.803225 0.095594 -0.022999 92366.100000 0 0 1
-30.160726 -12.478329 33.280372 46.615032 0.392284 0.775686 0.089084 -0.023221 -115927.000000 0 0 1
-30.500826 -11.971829 -32.941001 46.462184 0.374031 2.358855 0.077933 -0.016515 -195256.000000 0 0 1
-30.403016 -13.049229 -32.025331 46.046146 0.405430 2.339919 0.087525 -0.015466 251493.000000 0 0 1
-30.587226 -12.566529 -30.711111 45.129462 0.389818 2.319257 0.100658 -0.013335 -314510.000000 0 0 1
-30.844766 -13.637429 -29.651881 44.906715 0.416291 2.292014 0.107280 -0.014846 52094.500000 0 0 1
-32.158316 -14.140329 -29.738281 46.026856 0.414264 2.273269 0.110321 -0.015305 -125854.000000 0 0 1
-32.505176 -14.759029 -28.509511 45.685967 0.426218 2.244689 0.121747 -0.021876 75923.000000 0 0 1
-33.679676 -15.740529 -28.632751 46.924612 0.437196 2.227092 0.116135 -0.022276 -206246.000000 0 0 1
-33.425216 -17.001029 -29.166521 47.507536 0.470527 2.231832 0.112001 -0.016803 -712666.000000 0 0 1
-34.563009 -17.801929 -29.228371 48.639571 0.475621 2.215445 0.092649 -0.013194 -677281.000000 0 0 1
-34.347412 -19.279229 -29.662131 49.307964 0.511478 2.216260 0.094618 -0.012429 127661.000000 0 0 1
-35.515916 -20.062329 -29.892251 50.570979 0.514198 2.203212 0.048767 -0.007148 117690.000000 0 0 1
-35.242503 -21.277529 -30.589401 51.288192 0.543170 2.209832 0.058673 -0.014045 -187384.000000 0 0 1
-36.497126 -22.071729 -30.998041 52.726463 0.543907 2.199260 0.071665 -0.010523 -43267.700000 0 0 1
-37.213816 -22.594329 -29.891421 52.809742 0.545660 2.172468 0.053618 -0.012146 -428969.000000 0 0 1
37.277198 -23.573929 -30.267961 53.492701 -0.563900 2.172240 0.064870 -0.012751 -201161.000000 0 0 1
-37.710716 -25.022959 -30.624231 54.645128 0.585842 2.165689 0.061980 -0.001401 113337.000000 0 0 1
-36.958576 -25.192049 -31.833711 54.899552 0.598290 2.189345 0.075317 -0.003609 60277.300000 0 0 1
-36.190866 -26.397549 -31.764681 54.914518 0.630185 2.187610 0.056121 0.002334 152722.000000 0 0 1
-36.559996 -27.386529 -32.931621 56.312937 0.642915 2.195426 0.075886 -0.007456 -227094.000000 0 0 1
37.570608 -27.886239 -32.808441 57.145312 -0.638513 2.182329 0.088437 -0.009230 -710520.000000 0 0 1
37.311378 -29.140999 -33.449731 57.967415 -0.663061 2.185901 0.092093 -0.017253 189626.000000 0 0 1
-37.350126 -30.400409 -32.943291 58.347898 0.683178 2.170746 0.090133 -0.021158 123218.000000 0 0 1
37.621508 -30.862459 -31.680881 58.065028 -0.687021 2.147914 0.096124 -0.028061 153234.000000 0 0 1
-36.953576 -31.872109 -31.175421 57.907728 0.711701 2.139291 0.093936 -0.031521 -218685.000000 0 0 1
-37.417506 -32.318159 -29.802681 57.729827 0.712404 2.113256 0.095305 -0.035304 -190394.000000 0 0 1
36.759358 -32.937019 -29.898371 57.706241 -0.730610 2.115440 0.112370 -0.031303 -156868.000000 0 0 1
36.230368 -33.202609 -28.610851 56.865047 -0.741819 2.098020 0.120202 -0.039214 686245.000000 0 0 1
35.004428 33.542841 -28.631921 56.304699 0.764079 2.104258 0.128559 -0.046883 1047470.000000 0 0 1
33.818398 -33.735709 -29.292991 56.034466 -0.784174 2.120890 0.141340 -0.038957 384311.000000 0 0 1
32.731398 33.173311 -28.879651 54.825608 0.792103 2.125575 0.135787 -0.039956 278790.000000 0 0 1
31.416958 33.534305 -29.595511 54.657746 0.817986 2.142981 0.090408 -0.015864 -79667.100000 0 0 1
31.425718 33.072383 -30.939291 55.123480 0.810923 2.166719 0.101398 -0.006170 -414201.000000 0 0 1
30.185898 33.336253 -31.536971 54.927905 0.834952 2.182364 0.067792 0.004339 -74368.300000 0 0 1
30.046498 32.665720 -32.899501 55.246886 0.827140 2.208684 0.066859 -0.008956 -41053.500000 0 0 1
29.837498 31.280828 -32.786741 54.256215 0.809009 2.219677 0.053271 -0.001083 32668.300000 0 0 1
29.090498 30.731368 33.780775 54.146236 0.812821 0.897098 0.059643 -0.005389 116467.000000 0 0 1
29.210998 29.254388 33.735625 53.359105 0.786140 0.886359 0.067702 -0.024084 727531.000000 0 0 1
30.529898 28.686408 33.639685 53.727210 0.754277 0.894229 0.079321 -0.020989 408796.000000 0 0 1
30.555338 27.299738 -33.713021 53.061023 0.729186 2.259275 0.065922 -0.027187 332994.000000 0 0 1
31.938768 26.771088 -33.254501 53.316394 0.697604 2.244289 0.092965 -0.036831 213952.000000 0 0 1
32.435948 27.287518 -32.019701 53.122129 0.699406 2.217747 0.101922 -0.033722 25781.000000 0 0 1
33.734928 26.698228 -31.936471 53.579650 0.669482 2.209376 0.129065 -0.037058 423524.000000 0 0 1
34.354538 27.030708 -30.553061 53.332757 0.666650 2.180807 0.133810 -0.043747 -236164.000000 0 0 1
34.927478 28.321568 -30.347271 54.249395 0.681333 2.164462 0.110896 -0.041805 839131.000000 0 0 1
33.943998 29.395048 -30.257521 54.145927 0.713702 2.163752 0.140376 -0.036634 1088070.000000 0 0 1
33.045668 29.454818 -28.975551 52.907325 0.728008 2.150369 0.146798 -0.027603 192703.000000 0 0 1
33.781818 29.782008 -27.828351 52.939554 0.722555 2.124290 0.112166 -0.033203 71054.200000 0 0 1
32.878128 30.099078 -26.795101 52.008684 0.741299 2.112042 0.125761 -0.029434 -218551.000000 0 0 1
33.588328 30.619668 -25.591391 52.159938 0.739196 2.083612 0.130004 -0.034842 -371682.000000 0 0 1
34.115998 31.895602 -25.725441 53.320063 0.751774 2.074271 0.135017 -0.038406 11974.700000 0 0 1
34.980588 32.182380 -24.657401 53.547498 0.743759 2.049329 0.100564 -0.049730 -163260.000000 0 0 1
35.326678 33.631742 -24.630301 54.641742 0.760824 2.038413 0.116533 -0.045206 -33807.100000 0 0 1
34.212658 -33.269259 -24.281201 53.543686 -0.771419 2.041467 0.119111 -0.034956 497153.000000 0 0 1
34.443508 -31.866309 -24.169401 52.782353 -0.746552 2.046436 0.098909 -0.035786 -1034990.000000 0 0 1
34.743238 -31.081819 -25.504401 53.137995 -0.729832 2.071412 0.096746 -0.036308 1044280.000000 0 0 1
36.057578 -31.269829 -26.072391 54.384931 -0.714406 2.070773 0.111029 -0.040828 969029.000000 0 0 1
37.111768 -30.691489 -25.279451 54.390270 -0.690990 2.054181 0.107932 -0.041614 493344.000000 0 0 1
-36.906936 -31.121719 -25.872801 54.773033 0.700561 2.062767 0.072947 -0.038332 489110.000000 0 0 1
-36.581776 -32.439499 -25.722981 55.246893 0.725456 2.055109 0.068810 -0.042200 -210593.000000 0 0 1
-36.240806 -32.837739 -24.378301 54.644438 0.736174 2.033228 0.072924 -0.038108 -219288.000000 0 0 1
-34.936110 -32.304249 -23.727701 53.170481 0.746277 2.033375 0.051548 -0.035938 -99159.700000 0 0 1
-34.936033 -30.923459 -23.486901 52.234292 0.724547 2.037164 0.030664 -0.031831 -308753.000000 0 0 1
-34.687587 -30.562339 -22.150501 51.263339 0.722260 2.017608 0.046740 -0.028888 -230141.000000 0 0 1
-34.779240 -29.019189 -21.818401 50.276749 0.695357 2.019687 0.048836 -0.006526 336399.000000 0 0 1
-35.987526 -28.325879 -22.102701 50.852599 0.666827 2.020438 0.023333 -0.007402 -124087.000000 0 0 1
-36.249666 -28.136469 -23.516101 51.562643 0.660050 2.044369 0.050703 -0.012751 467731.000000 0 0 1
-37.416456 -27.123409 -23.745501 51.956898 0.627247 2.045442 0.041149 -0.005849 623564.000000 0 0 1
-36.964526 -25.863779 -23.223901 50.741115 0.610519 2.046196 0.021963 -0.001098 30735.300000 0 0 1
37.636658 -24.754129 -23.495301 50.806634 -0.581778 2.051548 0.039411 0.000152 -97360.100000 0 0 1
-37.661926 -24.300129 -24.958701 51.301595 0.573006 2.078886 0.050622 0.001373 -638665.000000 0 0 1
-36.607976 -23.458329 -25.179681 50.243939 0.569879 2.095722 0.038035 -0.011933 -1021120.000000 0 0 1
-36.505686 -23.100329 -26.562081 50.713257 0.564179 2.122067 0.051771 -0.018145 260742.000000 0 0 1
-35.391946 -22.066029 -26.886921 49.622636 0.557503 2.143407 0.064212 -0.034549 33653.500000 0 0 1
-35.452183 -20.931329 -26.050171 48.719495 0.533338 2.134946 0.052628 -0.026029 -58821.000000 0 0 1
-36.295316 -19.855229 -26.424251 49.089929 0.500573 2.139194 0.058635 -0.025104 -202957.000000 0 0 1
-37.385656 -19.534729 -25.388891 49.233004 0.481500 2.112607 0.048159 -0.020850 -214362.000000 0 0 1
-37.014596 -18.987329 -24.115101 48.084686 0.473969 2.096143 0.046438 -0.032417 -201401.000000 0 0 1
-36.263836 -19.830029 -23.247001 47.420659 0.500404 2.083149 0.033554 -0.032477 -357096.000000 0 0 1
-36.926376 -21.101529 -22.763601 48.239126 0.519161 2.062231 0.043357 -0.014685 -705637.000000 0 0 1
37.408548 -20.728029 -21.994201 48.091533 -0.505985 2.045799 0.035048 -0.017984 -447181.000000 0 0 1
36.755258 -21.901429 -21.505101 47.886229 -0.537379 2.036540 0.039411 -0.004390 -166701.000000 0 0 1
35.792578 -21.706229 -20.345001 46.542326 -0.545145 2.023200 0.037957 -0.020458 -385350.000000 0 0 1
34.524498 -21.224429 -20.684701 45.500266 -0.551205 2.042726 0.060205 -0.017377 -812639.000000 0 0 1
33.657248 -21.268329 -19.592401 44.373577 -0.563552 2.028103 0.077846 -0.022630 276404.000000 0 0 1
32.242828 -20.710529 -19.903601 43.181933 -0.570964 2.049833 0.077334 -0.011873 -122569.000000 0 0 1
31.497088 -21.454329 -20.847001 43.439063 -0.597965 2.071353 0.078233 -0.007870 136331.000000 0 0 1
30.196398 -20.975129 -21.112201 42.396975 -0.607108 2.092047 0.113518 -0.007283 164606.000000 0 0 1
30.072198 -19.735629 -21.961901 42.144481 -0.580774 2.118947 0.093750 -0.001131 -380772.000000 0 0 1
30.679198 -18.535329 -21.424901 41.758807 -0.543477 2.109546 0.085976 -0.008616 245458.000000 0 0 1
30.610628 -17.397729 -22.236801 41.643329 -0.516827 2.134100 0.062710 -0.000592 212664.000000 0 0 1
31.332718 -16.244729 -21.424201 41.287127 -0.478306 2.116369 0.053521 -0.007853 -157098.000000 0 0 1
30.763508 -15.918529 -20.196101 40.095829 -0.477509 2.098668 0.044545 -0.007010 -3231.920000 0 0 1
31.604418 -15.075529 -19.455701 40.057897 -0.445085 2.077948 0.036000 -0.011410 386859.000000 0 0 1
32.832528 -15.704029 -18.721101 40.927632 -0.446143 2.045888 0.049584 -0.022584 480441.000000 0 0 1
33.812138 -16.237229 -19.623401 42.331857 -0.447698 2.052806 0.045109 -0.021901 123418.000000 0 0 1
34.501288 -17.343229 -18.996501 43.034794 -0.465792 2.027979 0.046151 -0.029187 569287.000000 0 0 1
35.596988 -17.895429 -20.002901 44.581476 -0.465824 2.036086 0.038127 -0.036342 286125.000000 0 0 1
36.596268 -16.931129 -20.134101 45.070300 -0.433321 2.033900 0.045678 -0.038867 -513357.000000 0 0 1
37.465648 -17.276329 -21.180101 46.376104 -0.432066 2.045082 0.066071 -0.046099 128139.000000 0 0 1
-37.104216 -16.083929 -21.735101 45.911112 0.409031 2.063962 0.095882 -0.044686 430412.000000 0 0 1
-36.137376 -15.571129 -20.815601 44.515831 0.406846 2.057370 0.133511 -0.055172 266287.000000 0 0 1
-35.530765 -14.418729 -21.399201 43.911966 0.385505 2.079815 0.160626 -0.050664 -462842.000000 0 0 1
-34.362271 -13.840729 -20.526601 42.351774 0.382908 2.076781 0.171693 -0.052842 1356730.000000 0 0 1
-33.078636 -14.485229 -20.670601 41.608794 0.412749 2.090686 0.193786 -0.067821 865943.000000 0 0 1
-33.057496 -15.790429 -20.168701 41.819997 0.445621 2.074045 0.170726 -0.070622 -987599.000000 0 0 1
-31.706906 -16.506429 -20.323901 41.119959 0.479987 2.087778 0.135971 -0.075791 -134632.000000 0 0 1
-31.821966 -17.819929 -19.765401 41.483231 0.510479 2.067428 0.145980 -0.078247 -70939.300000 0 0 1
-30.853416 -18.734529 -20.220301 41.373620 0.545705 2.081423 0.138403 -0.066618 -511392.000000 0 0 1
-31.072126 -20.201529 -19.743601 41.992720 0.576480 2.060277 0.124213 -0.021341 -361208.000000 0 0 1
-32.232336 -20.771429 -20.300401 43.387579 0.572448 2.057693 0.109308 -0.021574 -19860.900000 0 0 1
-32.178576 -22.096829 -19.813801 43.775761 0.601740 2.040498 0.092268 0.006753 55161.300000 0 0 1
-33.232716 -23.119429 -20.279201 45.278774 0.607823 2.035183 0.055636 0.000293 -122115.000000 0 0 1
-32.972546 -23.486429 -21.600301 45.884356 0.618935 2.060943 0.055738 -0.006528 152333.000000 0 0 1
-33.905476 -24.409829 -22.131001 47.277925 0.623982 2.057941 0.049370 -0.000823 -17563.700000 0 0 1
-33.677156 -24.673129 -23.644801 47.979065 0.632296 2.086118 0.045936 -0.004246 908126.000000 0 0 1
-32.335026 -25.122749 -23.928801 47.426721 0.660528 2.099648 0.071579 -0.014377 679026.000000 0 0 1
-32.190346 -25.261469 -25.345161 48.132498 0.665375 2.125358 0.068504 -0.009612 452837.000000 0 0 1
-30.762526 -25.672069 -25.832271 47.672784 0.695441 2.143452 0.079466 -0.015010 357338.000000 0 0 1
-29.795676 -24.646829 -25.740231 46.452211 0.691105 2.158105 0.087313 -0.013690 208478.000000 0 0 1
-28.526966 -25.308419 -25.935981 46.119182 0.725684 2.168044 0.073902 -0.013504 250306.000000 0 0 1
-27.385286 -24.328829 -26.011361 44.927015 0.726364 2.188260 0.081517 -0.015390 -556262.000000 0 0 1
-27.474856 -23.515329 -27.194721 45.248107 0.707901 2.215565 0.082541 -0.020763 -140573.000000 0 0 1
-26.430546 -22.565629 -27.270591 44.175406 0.706679 2.236134 0.098976 -0.015861 192542.000000 0 0 1
-26.282366 -21.860729 -28.621811 44.585449 0.693811 2.267840 0.068252 -0.014067 -71229.100000 0 0 1
-25.806666 -22.640829 -29.688761 45.387373 0.720145 2.283814 0.076682 -0.008642 17673.100000 0 0 1
-25.889676 -21.923129 -30.902711 45.889829 0.702628 2.309609 0.068780 -0.001713 28614.500000 0 0 1
-25.441096 -22.728929 -32.155061 46.880716 0.729154 2.326624 0.060634 -0.016587 -192472.000000 0 0 1
-26.306196 -23.778029 -32.348311 47.998165 0.734963 2.310337 0.038105 -0.016764 -469534.000000 0 0 1
-25.742286 -24.673129 -33.285101 48.778340 0.764194 2.321802 0.078420 -0.006086 390859.000000 0 0 1
-20.090676 -14.979529 -11.398601 27.530885 0.640677 1.997673 0.073989 -0.010458 -59321.400000 0 0 1
-20.358376 -14.293929 -10.234601 26.898456 0.612144 1.961123 0.086990 -0.015596 91706.400000 0 0 1
-19.589276 -14.708929 -9.098901 26.132017 0.644055 1.926436 0.075136 -0.017304 -66417.000000 0 0 1
-20.094476 -14.103529 -7.783501 25.754230 0.611974 1.877819 0.118857 -0.037513 336749.000000 0 0 1
-21.340976 -14.691129 -7.406701 26.946720 0.602898 1.849245 0.141283 -0.032641 310168.000000 0 0 1
-21.818076 -14.126029 -6.223001 26.726370 0.574578 1.805795 0.136018 -0.030571 380353.000000 0 0 1
-23.076076 -14.891629 -5.664001 28.041876 0.573084 1.774179 0.142391 -0.031605 298844.000000 0 0 1
-22.849076 -16.165629 -5.061001 28.443304 0.615739 1.749682 0.110469 -0.024581 258826.000000 0 0 1
-22.508576 -16.100229 -3.684601 27.918267 0.620916 1.703161 0.113738 -0.024653 18497.300000 0 0 1
-22.177076 -17.450829 -3.010701 28.379895 0.666693 1.677082 0.073787 -0.012364 473177.000000 0 0 1
-23.366576 -18.213029 -2.798001 29.758026 0.662083 1.664961 0.090082 -0.003881 467998.000000 0 0 1
-23.094976 -19.408729 -2.090901 30.239850 0.698887 1.639995 0.071987 -0.000757 81063.800000 0 0 1
-24.288476 -20.373629 -1.841301 31.755396 0.697967 1.628813 0.102379 -0.020407 305338.000000 0 0 1
-24.738376 -21.042529 -3.069201 32.622006 0.704844 1.665019 0.073662 -0.029227 -391457.000000 0 0 1
-25.740226 -21.941329 -2.750301 33.934426 0.705894 1.651933 0.099687 -0.023228 -549406.000000 0 0 1
-25.627506 -23.205929 -3.670001 34.767127 0.735850 1.676553 0.110443 -0.028754 -461466.000000 0 0 1
-24.401176 -23.844129 -3.526001 34.298579 0.773853 1.673781 0.106738 -0.031839 -783428.000000 0 0 1
-24.107376 -24.626429 -4.666001 34.776402 0.796049 1.705374 0.116243 -0.042023 -112579.000000 0 0 1
-22.638176 -24.562129 -5.146901 33.797570 0.826137 1.723677 0.104197 -0.028142 -244712.000000 0 0 1
-22.301176 -23.456429 -5.911001 32.901161 0.810640 1.751436 0.072692 -0.013540 5740.580000 0 0 1
-22.127776 -22.291729 -5.118901 31.823934 0.789089 1.732349 0.049563 -0.012276 -762938.000000 0 0 1
-21.927576 -20.990229 -5.927801 30.928096 0.763561 1.763654 0.057008 -0.003553 -367585.000000 0 0 1
-20.731376 -20.856629 -6.653601 30.150610 0.788410 1.793307 0.023321 -0.000248 -145068.000000 0 0 1
-20.562176 -19.515429 -6.987601 29.197287 0.759286 1.812466 0.011916 -0.002912 -62724.700000 0 0 1
-19.407776 -19.161429 -7.936701 28.404460 0.779011 1.853984 0.032260 -0.001506 -456335.000000 0 0 1
-19.512776 -19.691729 -9.239901 29.221368 0.789963 1.892521 0.035410 -0.000679 -131100.000000 0 0 1
-18.363776 -19.481329 -10.036701 28.591708 0.814919 1.929473 0.064392 -0.002935 -7404.860000 0 0 1
-18.075876 -17.980829 -10.461701 27.558931 0.782762 1.960173 0.075964 0.000837 -34839.800000 0 0 1
-17.585376 -17.069129 -9.473901 26.274615 0.770502 1.939678 0.088568 -0.009615 620143.000000 0 0 1
-16.246076 -17.280529 -9.011001 25.372225 0.816243 1.933873 0.119552 -0.008353 268568.000000 0 0 1
-15.685676 -16.223629 -8.035901 23.954587 0.802255 1.912894 0.089001 -0.007266 -162889.000000 0 1 0
-16.273776 -16.333029 -6.783701 24.033772 0.787215 1.856942 0.058829 -0.001874 -142133.000000 0 1 0
-16.444776 -15.021929 -6.241901 23.131155 0.740211 1.844032 0.076423 -0.006537 130907.000000 0 1 0
-17.411676 -15.163929 -5.024701 23.629617 0.716506 1.785077 0.092981 -0.010637 76882.900000 0 1 0
-17.812676 -13.967929 -4.461301 23.071577 0.665005 1.765390 0.089576 -0.009561 -15294.700000 0 1 0
-18.282576 -14.214829 -3.184801 23.376417 0.660874 1.707461 0.079223 -0.003660 594863.000000 0 1 0
-19.259676 -13.108729 -2.550301 23.436679 0.597608 1.679829 0.102329 -0.004280 592474.000000 0 1 0
-20.469276 -12.879129 -3.229901 24.398678 0.561609 1.703566 0.132302 -0.021519 238516.000000 0 1 0
-21.214776 -11.843129 -2.618201 24.437295 0.509154 1.678142 0.134842 -0.012044 1221880.000000 0 1 0
-22.755976 -11.875729 -3.008401 25.844106 0.480992 1.687467 0.127547 -0.004627 1255150.000000 0 0 1
-23.113476 -11.469029 -4.355001 26.167488 0.460607 1.738002 0.155572 -0.037789 -525738.000000 0 0 1
-24.475476 -11.403429 -4.584801 27.388090 0.436008 1.738989 0.154572 -0.022467 -835025.000000 0 0 1
-24.841376 -11.041429 -6.002401 27.839467 0.418252 1.788110 0.169179 -0.038222 -151805.000000 0 0 1
-24.655976 -12.107329 -6.897501 28.321018 0.456462 1.816818 0.179654 -0.043567 461638.000000 0 0 1
-25.378586 -11.891729 -8.098501 29.173130 0.438192 1.852093 0.192608 -0.048263 419981.000000 0 0 1
-24.394476 -12.099429 -9.310901 28.778108 0.460435 1.900266 0.187513 -0.058090 65911.800000 0 0 1
-23.493276 -11.040929 -9.262001 27.561219 0.439329 1.913518 0.185294 -0.051875 -443249.000000 0 0 1
-22.375976 -11.315629 -10.045901 27.011995 0.468201 1.951857 0.148916 -0.046490 182461.000000 0 0 1
-21.025176 -10.596029 -9.720101 25.471831 0.466817 1.962325 0.138201 -0.047341 507449.000000 0 0 1
-20.982976 -9.219429 -10.130901 25.058298 0.413984 1.987002 0.129402 -0.047951 160933.000000 0 0 1
-19.690576 -8.733429 -9.888901 23.701939 0.417463 2.001180 0.116403 -0.033929 -508559.000000 0 1 0
-19.484776 -7.339329 -10.484001 23.311725 0.360234 2.037260 0.067367 -0.032353 -201872.000000 0 1 0
-19.318376 -7.308029 -11.862901 23.818802 0.361656 2.092142 0.092975 -0.035091 572285.000000 0 1 0
-19.517776 -6.002129 -12.379101 23.879097 0.298343 2.115784 0.099882 -0.044026 -415677.000000 0 1 0
-18.900176 -5.885529 -13.758601 24.107160 0.301883 2.178187 0.122970 -0.036429 -442327.000000 0 1 0
-19.703776 -6.481429 -14.704101 25.425544 0.317795 2.187464 0.119368 -0.045025 253270.000000 0 0 1
-19.021476 -6.292329 -15.918601 25.589291 0.319470 2.242194 0.118361 -0.047039 -104151.000000 0 0 1
-19.579976 -7.074329 -17.164801 26.982438 0.346710 2.260291 0.104827 -0.037482 365166.000000 0 0 1
-20.896276 -6.731629 -17.591701 28.132492 0.311647 2.246333 0.100048 -0.043551 640137.000000 0 0 1
-21.394376 -7.695629 -18.469201 29.292548 0.345293 2.253004 0.104525 -0.045211 573510.000000 0 0 1
-22.848676 -7.463029 -19.027001 30.655922 0.315704 2.240385 0.092202 -0.039222 211120.000000 0 0 1
-23.035576 -6.338229 -19.886901 31.085362 0.268505 2.264971 0.096371 -0.036234 397210.000000 0 0 1
-24.324276 -6.326829 -20.470801 32.415318 0.254465 2.254304 0.078017 -0.033305 734145.000000 0 0 1
-25.526376 -5.824629 -19.597201 32.704318 0.224340 2.213327 0.111287 -0.034008 51040.200000 0 0 1
-25.565016 -4.504029 -19.116101 32.237891 0.174390 2.205539 0.113963 -0.032101 108128.000000 0 0 1
-26.867846 -4.250029 -18.640501 32.975933 0.156883 2.171564 0.148082 -0.037182 -524642.000000 0 0 1
-26.972826 -2.861029 -17.937101 32.518585 0.105676 2.155072 0.139198 -0.026362 -13744.700000 0 0 1
-27.511796 -1.795929 -18.703101 33.315616 0.065186 2.166863 0.145080 -0.030219 1086300.000000 0 0 1
-28.901666 -1.950629 -19.050301 34.670235 0.067390 2.152528 0.149663 -0.024151 393368.000000 0 0 1
-29.396526 -0.859129 -20.051201 35.594164 0.029217 2.169205 0.139601 -0.024473 -334223.000000 0 0 1
-28.762816 -0.662829 -21.295001 35.794077 0.023041 2.207976 0.133339 -0.023561 -35007.400000 0 0 1
-29.024806 -1.671429 -22.283301 36.630295 0.057523 2.224751 0.139835 -0.021218 -159654.000000 0 0 1
-28.136276 -1.612429 -23.540501 36.720636 0.057245 2.266688 0.140624 -0.023984 -639760.000000 0 0 1
-28.380196 -0.460029 -24.328701 37.383590 0.016208 2.279415 0.136832 -0.021817 221666.000000 0 0 1
-27.780416 0.772871 -23.948501 36.686231 -0.027814 2.282061 0.126741 -0.013592 690303.000000 0 0 1
-26.248866 0.842771 -23.606501 35.312605 -0.032096 2.302987 0.121667 -0.018679 16328.400000 0 0 1
-25.362506 0.581071 -24.640101 35.365646 -0.022907 2.341617 0.104005 -0.013692 -918380.000000 0 0 1
-24.080876 0.739271 -24.105101 34.080654 -0.030690 2.356462 0.085012 -0.016655 -691699.000000 0 0 1
-22.959276 0.382971 -25.098231 34.017587 -0.016679 2.400604 0.073104 -0.010761 -265472.000000 0 0 1
-22.821376 1.115071 -26.288031 34.829860 -0.048822 2.426078 0.049349 -0.006856 219775.000000 0 0 1
-21.833876 0.570171 -27.142941 34.839381 -0.026108 2.464006 0.029827 -0.006031 57670.600000 0 0 1
-21.899776 1.245571 -28.523221 35.982298 -0.056815 2.486024 0.021584 0.006688 -124363.000000 0 0 1
-21.138976 2.460171 -28.509531 35.576707 -0.115860 2.500351 0.024005 0.007743 349256.000000 0 0 1
-21.071376 3.236071 -29.669651 36.534411 -0.152386 2.518541 0.012928 0.005097 -338200.000000 0 0 1
-20.486376 2.522671 -30.903721 37.163092 -0.122522 2.552725 0.007966 0.000234 -719049.000000 0 0 1
-19.081976 2.630471 -30.856051 36.374951 -0.136988 2.583520 -0.006734 0.002274 -239951.000000 0 0 1
-18.604976 2.106371 -32.102451 37.163817 -0.112735 2.613579 0.005164 -0.008242 -235211.000000 0 0 1
-17.077876 2.042971 -32.109221 36.425673 -0.119061 2.649825 0.004262 -0.021455 252217.000000 0 0 1
-16.261176 3.259071 -32.147971 36.173739 -0.197800 2.665320 0.013997 -0.010475 533147.000000 0 0 1
-14.889976 2.964871 -32.294861 35.685570 -0.196548 2.702138 0.042681 -0.019509 -226184.000000 0 0 1
-14.155976 4.212071 -32.772671 35.946921 -0.289205 2.718190 0.060455 -0.021475 -484261.000000 0 0 1
-14.111076 5.086471 -31.669931 35.042534 -0.345962 2.699263 0.062026 -0.030461 220846.000000 0 0 1
-13.701576 6.384671 -32.036111 35.423292 -0.436064 2.700721 0.097257 -0.030406 -331115.000000 0 0 1
-13.708476 7.387671 -30.870641 34.575952 -0.494291 2.674399 0.107802 -0.032186 -287522.000000 0 0 1
-12.641176 7.372871 -29.936771 33.322197 -0.528007 2.686916 0.172702 -0.043890 195055.000000 0 0 1
-12.506076 6.311871 -29.026701 32.230281 -0.467404 2.691952 0.146613 -0.037783 -752131.000000 0 0 1
-11.018376 5.946171 -28.837731 31.438452 -0.494870 2.731982 0.182165 -0.039102 -65922.600000 0 0 1
-10.508676 5.300171 -29.998241 32.224502 -0.467131 2.767704 0.151276 -0.046451 254886.000000 0 0 1
-11.073776 3.998071 -30.192991 32.407249 -0.346476 2.769790 0.147004 -0.046570 -276968.000000 0 0 1
-10.388976 3.226471 -31.378991 33.211173 -0.301123 2.807879 0.124445 -0.040325 413654.000000 0 0 1
-11.061276 1.949771 -31.597351 33.534251 -0.174478 2.800056 0.120338 -0.035413 741575.000000 0 0 1
-10.529376 1.158571 -32.683511 34.357269 -0.109591 2.828170 0.093830 -0.028124 -228084.000000 0 0 1
-11.080476 1.644871 33.565845 35.385711 -0.147371 0.322107 0.100845 -0.033372 -180243.000000 0 0 1
-12.407476 1.335471 33.247551 35.512373 -0.107222 0.359069 0.067688 -0.028718 -396138.000000 0 0 1
-12.709176 1.677271 31.891092 34.371182 -0.131215 0.382207 0.064533 -0.025507 -1401020.000000 0 0 1
-14.064976 1.450371 31.367195 34.406802 -0.102756 0.423499 0.047218 -0.027123 -994333.000000 0 0 1
-15.163176 2.322771 31.656251 35.177200 -0.152003 0.451237 0.051192 -0.021300 197964.000000 0 0 1
-16.323276 1.845571 31.063665 35.139817 -0.112586 0.486442 0.034756 -0.021594 -496347.000000 0 0 1
-17.335876 2.930571 30.632035 35.319151 -0.167463 0.521059 0.036733 -0.014331 -203623.000000 0 0 1
-18.023776 3.531271 31.713473 36.647930 -0.193472 0.524938 0.018240 -0.016690 400503.000000 0 0 1
-17.315976 4.621571 32.315714 36.952771 -0.260817 0.506364 0.023014 -0.013824 -132930.000000 0 0 1
-18.004176 5.161171 33.556975 38.429918 -0.279179 0.509068 0.012922 -0.010640 210237.000000 0 0 1
-19.318776 5.675371 33.421909 39.018572 -0.285736 0.542222 0.003250 -0.008427 192063.000000 0 0 1
-20.117076 5.417971 -33.063811 39.080260 -0.263080 2.579326 -0.004244 -0.001859 -351092.000000 0 0 1
-21.420676 6.188471 -33.137521 39.940428 -0.281244 2.549319 0.004813 -0.004392 -939011.000000 0 0 1
-21.304776 7.595471 -32.900441 39.925226 -0.342467 2.539322 0.001988 -0.005811 247957.000000 0 0 1
-20.788376 8.353771 33.662835 40.436723 -0.382099 0.587224 -0.005105 -0.011085 -431368.000000 0 0 1
-20.837576 9.832771 -33.569641 40.716197 -0.440897 2.540077 0.025987 -0.012808 -147284.000000 0 0 1
-19.921576 10.177071 -32.517841 39.469633 -0.472295 2.539002 0.019136 -0.001272 384431.000000 0 0 1
-19.878376 11.542871 -32.128581 39.504853 -0.526089 2.520567 0.048787 -0.011781 -187277.000000 0 0 1
-19.284776 12.491271 -33.209941 40.383593 -0.574776 2.536347 0.038576 -0.024452 -646532.000000 0 0 1
-20.051776 12.583271 33.279357 40.840275 -0.560423 0.618298 0.054830 -0.028049 -359399.000000 0 0 1
-19.297976 12.676371 32.108929 39.548522 -0.581194 0.623419 0.044292 -0.026266 -631565.000000 0 0 1
-20.007076 12.047671 30.948785 38.771855 -0.542014 0.646448 0.044205 -0.025440 -530676.000000 0 0 1
-20.050376 10.622171 30.911865 38.345684 -0.487182 0.633202 0.032307 -0.019802 630944.000000 0 0 1
-18.805876 10.038371 30.511405 37.220635 -0.490312 0.609832 0.029585 -0.025167 532106.000000 0 0 1
-18.858876 8.454371 30.573225 36.903329 -0.421437 0.594430 0.036546 -0.016873 70531.700000 0 0 1
-19.510576 7.903171 29.406785 36.164647 -0.384870 0.621276 0.037341 -0.019405 351525.000000 0 0 1
-19.510576 6.497771 29.468335 35.934195 -0.321485 0.609274 0.031384 -0.014822 -355423.000000 0 0 1
-20.252976 5.758671 28.396675 35.351329 -0.277026 0.638031 0.041219 -0.020918 -375085.000000 0 0 1
-21.643576 5.937271 28.290215 36.111381 -0.267734 0.670654 0.060577 -0.028591 -33734.200000 0 0 1
-22.252376 4.941571 27.441355 35.673734 -0.218523 0.693159 0.060883 -0.024628 -192560.000000 0 0 1
-23.719376 5.325971 27.237665 36.508426 -0.220877 0.728663 0.077327 -0.018155 -514587.000000 0 0 1
-23.916776 6.089671 26.082675 35.908247 -0.249321 0.757771 0.089107 -0.024797 118547.000000 0 0 1
-25.288216 6.390871 25.986155 36.818709 -0.247538 0.787263 0.087557 -0.021013 -388539.000000 0 0 1
-25.709996 7.207771 24.759395 36.414056 -0.273332 0.823115 0.087164 -0.022252 -137652.000000 0 0 1
-25.653426 6.487871 23.480315 35.376771 -0.247711 0.845013 0.080983 -0.015150 11452.100000 0 0 1
-26.812176 5.725671 23.311795 35.987718 -0.210387 0.866142 0.078539 -0.010271 -520762.000000 0 0 1
-26.978136 5.114571 21.898515 35.121555 -0.187359 0.897577 0.087404 0.002116 379917.000000 0 0 1
-27.828306 5.825671 20.971815 35.329451 -0.206363 0.935263 0.080519 -0.003664 346333.000000 0 0 1
-27.895506 5.068471 19.764815 34.561489 -0.179734 0.962008 0.107376 -0.017059 127218.000000 0 0 1
-28.799856 5.756871 18.716315 34.826336 -0.197292 1.003423 0.136525 -0.028863 -402353.000000 0 0 1
-30.168646 5.669671 18.950415 36.075069 -0.185766 1.017723 0.142346 -0.027601 -719284.000000 0 0 1
-30.886296 6.172871 17.873115 36.214857 -0.197259 1.054653 0.158132 -0.022130 -926532.000000 0 0 1
-32.387336 6.203271 18.087515 37.610880 -0.189242 1.069102 0.165116 -0.018378 -771977.000000 0 0 1
-32.874286 7.272371 18.817515 38.570778 -0.217711 1.061149 0.171562 -0.022470 -334802.000000 0 0 1
-34.251945 7.113971 19.055215 39.835983 -0.204784 1.072031 0.191557 -0.021498 -76922.600000 0 0 1
-34.642116 8.306071 19.965415 40.837297 -0.235326 1.059966 0.187031 -0.016606 13158.400000 0 0 1
-34.243587 8.014671 21.290015 41.111105 -0.229910 1.026443 0.156386 -0.017106 217709.000000 0 0 1
-34.723061 8.984771 22.238615 42.201576 -0.253202 1.015775 0.163016 -0.019376 290712.000000 0 0 1
-0.235476 32.832371 12.071299 34.981943 -1.563624 1.218481 0.138017 -0.046531 -214489.000000 0 0 1
-0.433976 32.812771 13.404099 35.447654 -1.557571 1.183012 0.132226 -0.043516 -213279.000000 0 0 1
-0.092476 -33.723156 14.096799 36.551054 1.568054 1.174858 0.125617 -0.046365 -207959.000000 0 0 1
-0.348676 -33.779356 15.596999 37.207968 1.560475 1.138250 0.126698 -0.043610 898805.000000 0 0 1
-1.715476 33.739771 16.001299 37.381233 -1.519996 1.128455 0.101997 -0.035835 689622.000000 0 0 1
-1.890976 -33.807756 17.394199 38.067024 1.514921 1.096249 0.093941 -0.038246 -614012.000000 0 0 1
-3.299976 -33.388156 17.821699 37.990417 1.472280 1.082513 0.098569 -0.030133 -62353.900000 0 0 1
-4.171276 33.189871 17.919799 37.948469 -1.445773 1.078996 0.099347 -0.031147 36271.600000 0 0 1
-5.038676 33.420071 19.000299 38.772423 -1.421155 1.058653 0.087371 -0.025325 -374752.000000 0 0 1
-6.158076 32.352571 19.088799 38.065641 -1.382704 1.045499 0.085417 -0.026916 -452373.000000 0 0 1
-7.051476 32.475371 18.032699 37.809407 -1.356982 1.073630 0.082432 -0.034978 -475519.000000 0 0 1
-8.112276 31.574471 18.281999 37.376299 -1.319311 1.059700 0.074006 -0.039430 -263152.000000 0 0 1
-9.152276 31.587671 17.150999 37.090455 -1.288777 1.090085 0.072605 -0.047655 -163790.000000 0 0 1
-10.043876 32.696671 17.186699 38.279686 -1.272762 1.105176 0.084175 -0.037364 7935.500000 0 0 1
-10.902076 32.726671 16.075299 38.056609 -1.249233 1.134699 0.085775 -0.035773 -115172.000000 0 0 1
-11.862976 -33.789356 16.064399 39.249404 1.233154 1.149120 0.100915 -0.037395 409755.000000 0 0 1
-12.943576 33.790771 17.001199 39.979909 -1.204986 1.131565 0.093804 -0.035264 600798.000000 0 0 1
-13.938976 -32.952756 16.809899 39.531657 1.170622 1.131584 0.081488 -0.033395 702301.000000 0 0 1
-15.221076 -33.182656 17.702599 40.572797 1.140726 1.119295 0.101385 -0.030350 643242.000000 0 0 1
-15.026276 -32.805956 19.040899 40.799210 1.141281 1.085243 0.087830 -0.023061 119847.000000 0 0 1
-16.126576 -33.196456 19.839899 41.900987 1.118580 1.077542 0.090255 -0.029064 102424.000000 0 0 1
-16.215076 -32.724856 21.320799 42.289731 1.110757 1.042387 0.088871 -0.025769 -39434.200000 0 0 1
-16.380676 -31.320656 21.343299 41.289786 1.088919 1.027553 0.095116 -0.034345 20968.600000 0 0 1
-16.000576 -30.780056 22.607399 41.406820 1.091406 0.993235 0.088994 -0.033002 14323.200000 0 0 1
-16.291676 -29.281056 22.761599 40.507892 1.063061 0.974109 0.102401 -0.047621 -301581.000000 0 0 1
-15.938076 -28.739456 24.025799 40.708938 1.064450 0.939508 0.101948 -0.041036 -357933.000000 0 0 1
-15.995476 -27.340156 24.188999 39.855327 1.041439 0.918617 0.084226 -0.041862 -623515.000000 0 0 1
-17.281076 -26.589656 23.904499 39.712346 0.994479 0.924866 0.107583 -0.032448 -348689.000000 0 0 1
-18.354676 -26.829356 24.807099 40.891327 0.970803 0.918945 0.111587 -0.023585 424563.000000 0 0 1
-19.485876 -26.033656 24.479299 40.702416 0.928264 0.925517 0.118012 -0.019755 -242571.000000 0 0 1
-20.599176 -26.099156 25.558599 41.937262 0.902635 0.915432 0.106683 -0.014176 216451.000000 0 0 1
-21.432376 -27.259656 25.704799 43.164479 0.904508 0.932898 0.096122 -0.010450 727192.000000 0 0 1
-22.196476 -27.661856 24.553999 43.136535 0.894580 0.965245 0.092281 -0.015956 -373985.000000 0 0 1
-23.522376 -26.944056 24.249599 43.212583 0.853096 0.974998 0.070830 -0.011745 -525172.000000 0 0 1
-23.561776 -25.568556 23.919399 42.202441 0.826222 0.968207 0.084006 -0.013852 344163.000000 0 0 1
-24.665276 -25.367356 23.029899 42.216760 0.799430 0.993792 0.075428 -0.014502 266817.000000 0 0 1
-24.928076 -23.883456 22.802199 41.373527 0.764000 0.987078 0.062709 0.004858 -284335.000000 0 0 1
-25.527096 -23.247956 23.873999 41.976993 0.738705 0.965823 0.053894 0.008591 -46607.600000 0 0 1
-26.007906 -21.984556 23.479899 41.364689 0.701761 0.967170 0.050760 0.010842 85348.500000 0 0 1
-26.654746 -21.166456 24.655499 42.028419 0.671131 0.943894 0.047509 0.016534 619561.000000 0 0 1
-27.785146 -21.886456 25.177599 43.415928 0.667198 0.952171 0.032494 0.017363 558286.000000 0 0 1
-28.191496 -21.255456 26.380299 44.073518 0.646035 0.929104 0.026271 0.010034 -534470.000000 0 0 1
-29.252216 -22.118956 27.157099 45.633851 0.647423 0.933395 0.027879 0.002081 410344.000000 0 0 1
-30.582676 -21.833156 26.758799 46.130468 0.619998 0.951984 0.029850 -0.003400 388220.000000 0 0 1
-31.023736 -22.406256 25.517799 45.996419 0.625490 0.982700 0.029045 -0.005280 -2507230.000000 0 0 1
-32.513576 -22.483956 25.526599 47.056011 0.605015 0.997419 0.045067 -0.020518 -1290830.000000 0 0 1
-33.138306 -23.112856 24.397499 47.197345 0.609024 1.027541 0.033304 -0.018880 495418.000000 0 0 1
-32.860326 -24.518056 24.354699 47.687393 0.641019 1.034779 0.031610 -0.015924 -1008360.000000 0 0 1
-33.201616 -25.102556 22.993999 47.552178 0.647371 1.066087 0.037290 -0.011323 -234256.000000 0 0 1
-34.522558 -25.576756 22.976199 48.722512 0.637633 1.079723 0.051824 -0.018891 -385875.000000 0 0 1
-34.906245 -25.933256 21.703299 48.600544 0.638968 1.107874 0.046745 -0.010581 504534.000000 0 0 1
-36.324136 -26.610256 21.624999 49.951868 0.632257 1.123070 0.058268 -0.016604 563686.000000 0 0 1
-36.581726 -27.779556 22.370499 51.091737 0.649480 1.117591 0.064157 -0.016455 1051450.000000 0 0 1
-35.609268 -28.881756 22.174699 50.930276 0.681457 1.120321 0.047555 -0.013368 468249.000000 0 0 1
-35.909313 -29.873556 20.992599 51.211301 0.693902 1.148429 0.059261 -0.013122 -154943.000000 0 0 1
-35.920504 -29.259156 19.728799 50.354804 0.683552 1.168214 0.040477 -0.013598 427828.000000 0 0 1
-36.518266 -30.162456 18.824399 50.967789 0.690368 1.192499 0.053923 -0.016425 -445847.000000 0 0 1
-36.765546 -29.538056 17.423999 50.277210 0.676821 1.216896 0.053631 -0.016883 -333035.000000 0 0 1
-35.698324 -29.464756 16.480299 49.133923 0.690027 1.228750 0.074717 -0.028008 222418.000000 0 0 1
-36.066506 -28.962456 15.186199 48.685083 0.676585 1.253576 0.080381 -0.032983 -97798.000000 0 0 1
-36.753386 -29.907656 14.179299 49.460406 0.683062 1.280037 0.072361 -0.033399 -97770.900000 0 0 1
-35.857538 -30.841456 13.638099 49.223533 0.710335 1.290059 0.075581 -0.039446 -212248.000000 0 0 1
-36.353416 -31.650156 12.593399 49.818640 0.716346 1.315239 0.074259 -0.032473 18037.900000 0 0 1
-36.575136 -30.984556 11.196499 49.225449 0.702836 1.341335 0.070809 -0.033859 166276.000000 0 0 1
37.683968 -30.199556 11.221099 49.578299 -0.675588 1.342487 0.070716 -0.036765 88567.100000 0 0 1
37.427088 -29.508356 9.966299 48.691448 -0.667641 1.364657 0.058687 -0.028051 665023.000000 0 0 1
36.137008 -28.612356 10.054199 47.176659 -0.669705 1.356031 0.097238 -0.022064 568305.000000 0 0 1
36.157238 -27.563256 9.135699 46.373915 -0.651337 1.372498 0.108759 -0.057182 803452.000000 0 0 1
34.943888 -26.784156 9.136199 44.965948 -0.653972 1.366191 0.098540 -0.050012 780218.000000 0 0 1
35.065778 -25.626956 8.139699 44.188283 -0.631116 1.385533 0.098747 -0.036131 568704.000000 0 0 1
35.818458 -24.512956 8.703299 44.267306 -0.600157 1.372899 0.095340 -0.038345 456301.000000 0 0 1
36.076978 -23.546656 7.646299 43.754534 -0.578256 1.395140 0.090939 -0.028547 -347299.000000 0 0 1
36.695598 -22.230756 8.118499 43.665587 -0.544685 1.383784 0.103220 -0.025388 -361829.000000 0 0 1
35.906288 -21.416756 8.989599 42.763908 -0.537814 1.359002 0.075815 -0.026345 -119060.000000 0 0 1
36.104858 -20.012656 8.758699 42.199313 -0.506133 1.361721 0.098114 -0.018273 -7652.120000 0 0 1
35.267738 -19.117556 9.714899 41.275581 -0.496734 1.333200 0.090942 -0.006857 137170.000000 0 0 1
35.730648 -19.218856 11.057299 42.051249 -0.493492 1.304720 0.070837 -0.025903 -45362.300000 0 0 1
35.223378 -18.215256 11.843899 41.385503 -0.477262 1.280554 0.074812 -0.014868 -283088.000000 0 0 1
35.809858 -18.225256 13.257899 42.311674 -0.470778 1.252089 0.056939 -0.029530 706770.000000 0 0 1
37.207008 -17.919556 13.345699 43.400226 -0.448834 1.258229 0.031121 -0.017606 874856.000000 0 0 1
37.668318 -18.046556 14.690899 44.276437 -0.446781 1.232586 0.026029 -0.000062 -439934.000000 0 0 1
-36.496856 -17.240756 14.938699 43.039852 0.441317 1.216330 0.060626 -0.013875 228222.000000 0 0 1
-35.339682 -17.678756 14.210899 41.992632 0.463849 1.225565 0.056062 -0.009568 1470800.000000 0 0 1
-34.108116 -17.153556 14.742499 40.926145 0.465979 1.202290 0.066614 -0.008958 168779.000000 0 0 1
-32.922096 -17.143356 13.817499 39.606594 0.480090 1.214433 0.094918 -0.009554 -740548.000000 0 0 1
-32.447176 -18.442256 13.501199 39.689021 0.516843 1.223694 0.097922 -0.023172 -628754.000000 0 0 1
-31.469526 -18.231756 12.571699 38.480847 0.525095 1.237986 0.092945 -0.024673 -1089050.000000 0 0 1
-30.767286 -19.471756 12.064999 38.358042 0.564240 1.250828 0.075072 -0.015186 202285.000000 0 0 1
-31.542566 -20.307956 11.173799 39.143330 0.572023 1.281311 0.096372 -0.017626 162346.000000 0 0 1
-30.685626 -21.233956 10.485099 38.761138 0.605326 1.296878 0.088705 -0.024726 14540.900000 0 0 1
-31.347526 -22.223156 9.517999 39.586972 0.616693 1.327985 0.094497 -0.027977 2965.400000 0 0 1
-31.957786 -23.354756 10.098399 40.849998 0.631100 1.321000 0.097784 -0.027067 993722.000000 0 0 1
-33.370546 -23.146656 10.344799 41.909138 0.606435 1.321380 0.107488 -0.030943 991032.000000 0 0 1
-34.162600 -24.472456 10.496799 43.314745 0.621617 1.326022 0.127533 -0.036526 29786.600000 0 0 1
-34.236547 -25.084956 9.227999 43.434458 0.632334 1.356707 0.116984 -0.029200 480469.000000 0 0 1
-35.176437 -26.204756 9.215099 44.821747 0.640263 1.363725 0.109091 -0.029536 749587.000000 0 0 1
-35.245175 -27.013556 7.919699 45.107385 0.653944 1.394307 0.101563 -0.027883 496634.000000 0 0 1
-33.968516 -27.455656 7.467599 44.310700 0.679762 1.401460 0.102527 -0.028178 135438.000000 0 0 1
-34.070768 -28.208956 6.302699 44.679821 0.691554 1.429261 0.093098 -0.023125 -504270.000000 0 0 1
-32.708176 -28.556156 5.733599 43.796723 0.717729 1.439506 0.099729 -0.020107 -331746.000000 0 0 1
-31.936126 -27.478056 5.212899 42.451549 0.710505 1.447689 0.112291 -0.016599 201704.000000 0 0 1
-30.707866 -28.019156 4.724699 41.837410 0.739647 1.457625 0.115219 -0.029087 533786.000000 0 0 1
-29.829846 -26.905856 4.091099 40.379226 0.733907 1.469305 0.110964 -0.026585 186530.000000 0 0 1
-30.362906 -26.421756 2.864599 40.351223 0.716104 1.499745 0.114874 -0.021150 -273750.000000 0 0 1
-29.643866 -25.318656 2.442899 39.060989 0.706866 1.508215 0.110152 -0.026659 -274516.000000 0 0 1
-30.218996 -24.580756 1.192599 38.972087 0.682871 1.540190 0.119743 -0.030170 -48990.600000 0 0 1
-29.948376 -25.191756 -0.056501 39.134805 0.699347 1.572240 0.116578 -0.034305 -78803.300000 0 0 1
-30.144226 -24.315456 -1.200401 38.747344 0.678775 1.601781 0.115759 -0.035818 86291.800000 0 0 1
-31.549506 -24.247056 -1.855201 39.833815 0.655261 1.617387 0.117129 -0.030158 257803.000000 0 0 1
-32.379806 -23.311256 -1.194501 39.916078 0.623978 1.600726 0.109164 -0.022593 794415.000000 0 0 1
-33.635566 -23.175156 -1.918201 40.891547 0.603310 1.617723 0.114048 -0.025709 1163680.000000 0 0 1
-34.379926 -21.823756 -1.606501 40.753361 0.565603 1.610227 0.105568 -0.023158 -176033.000000 0 0 1
-34.834996 -21.623056 -0.330601 41.001741 0.555521 1.578860 0.108533 -0.033426 -4391.420000 0 0 1
-35.227313 -20.288456 -0.210601 40.652544 0.522533 1.575977 0.125717 -0.032943 -379871.000000 0 0 1
-35.493152 -19.993656 1.315699 40.758326 0.513005 1.538510 0.114885 -0.035671 -227688.000000 0 0 1
-36.633936 -20.685656 1.744099 42.106810 0.514027 1.529364 0.106664 -0.033639 -60467.000000 0 0 1
-36.712656 -20.492056 3.143699 42.161906 0.509097 1.496165 0.109505 -0.027913 -1539140.000000 0 0 1
37.663948 -21.388156 3.742699 43.474521 -0.516458 1.484600 0.121153 -0.019338 332325.000000 0 0 1
36.346158 -21.335256 3.202599 42.266926 -0.530807 1.494953 0.085229 -0.013598 385718.000000 0 0 1
35.675528 -20.117556 3.457399 41.102469 -0.513455 1.486580 0.088371 -0.023164 -513944.000000 0 0 1
34.403478 -19.813556 2.614199 39.787063 -0.522523 1.505044 0.070495 -0.005591 792386.000000 0 0 1
33.234228 -20.576656 2.886599 39.194963 -0.554375 1.497082 0.063955 0.000436 -550743.000000 0 0 1
32.143878 -19.995556 2.232399 37.921429 -0.556485 1.511893 0.100077 -0.012642 -659840.000000 0 0 1
30.890788 -20.804656 2.549199 37.330590 -0.592712 1.502456 0.100226 -0.000342 -409982.000000 0 0 1
30.872678 -22.026956 1.926099 37.973924 -0.619714 1.520053 0.087075 -0.006058 952848.000000 0 0 1
29.680398 -22.795456 2.311799 37.495377 -0.654941 1.509102 0.095192 -0.003615 1356420.000000 0 0 1
29.377198 -24.038256 1.489799 37.987854 -0.685778 1.531568 0.078666 -0.002721 -105438.000000 0 0 1
28.871198 -23.644356 0.218399 37.318217 -0.686195 1.564944 0.082584 -0.011892 -24805.200000 0 0 1
28.496498 -24.740556 -0.554501 37.741926 -0.714964 1.585489 0.066573 -0.013689 14732.200000 0 0 1
27.375898 -24.364256 -1.584701 36.681985 -0.727257 1.614011 0.075725 -0.021656 134801.000000 0 0 1
27.727998 -23.499156 -2.656501 36.443233 -0.703034 1.643755 0.073473 -0.030277 278177.000000 0 0 1
28.475998 -24.124656 -3.717001 37.505967 -0.702862 1.670064 0.071840 -0.032863 58384.900000 0 0 1
27.517298 -24.854856 -4.714201 37.378995 -0.734605 1.697252 0.070586 -0.032226 418028.000000 0 0 1
26.844698 -23.982956 -5.607101 36.431574 -0.729155 1.725318 0.070385 -0.043239 -266566.000000 0 0 1
25.490998 -23.813556 -5.320901 35.287228 -0.751389 1.722162 0.079405 -0.039467 -471386.000000 0 0 1
24.733398 -22.731156 -6.180901 34.156258 -0.743239 1.752758 0.087955 -0.048076 142639.000000 0 0 1
24.339798 -23.111756 -7.480901 34.388122 -0.759524 1.790093 0.102599 -0.054064 -271813.000000 0 0 1
23.163998 -22.521256 -7.926101 33.265611 -0.771330 1.811378 0.095364 -0.050609 -531844.000000 0 0 1
23.290098 -21.217956 -8.811201 32.714944 -0.738875 1.843496 0.097100 -0.047840 -193737.000000 0 0 1
23.981898 -21.459256 -10.015901 33.703848 -0.729941 1.872528 0.106348 -0.050623 180277.000000 0 0 1
23.861098 -20.266956 -10.763601 33.105235 -0.704130 1.901949 0.102534 -0.046390 -316144.000000 0 0 1
24.734598 -20.468656 -11.966001 34.262974 -0.691304 1.927556 0.096201 -0.039599 -225696.000000 0 0 1
26.120498 -20.415256 -11.709901 35.159421 -0.663408 1.910334 0.138067 -0.049855 -160345.000000 0 0 1
26.779298 -19.927256 -12.856101 35.770179 -0.639733 1.938430 0.133146 -0.053108 1924220.000000 0 0 1
28.364098 -20.215656 -12.975901 37.169461 -0.619212 1.927408 0.114590 -0.042023 1805750.000000 0 0 1
28.715398 -21.583056 -13.124101 38.244535 -0.644537 1.921078 0.091083 -0.042031 105658.000000 0 0 1
29.031998 -22.316156 -11.952401 38.519185 -0.655346 1.886302 0.120397 -0.044070 -315445.000000 0 0 1
29.553498 -23.666356 -12.400301 39.840596 -0.675227 1.887302 0.088770 -0.040713 -505719.000000 0 0 1
30.803148 -23.619156 -13.030201 40.944897 -0.654152 1.894666 0.069760 -0.038512 -181865.000000 0 0 1
31.240138 -24.836756 -13.567001 42.152986 -0.671701 1.898481 0.072011 -0.039377 8284.050000 0 0 1
-3.903976 -9.243629 -27.681021 29.443584 1.171179 2.793830 0.078631 -0.034603 -64879.600000 0 0 1
-3.780876 -7.986529 -26.981661 28.391719 1.128649 2.825109 0.075900 -0.029920 -76218.400000 0 0 1
-4.653376 -6.993829 -27.487921 28.742883 0.983703 2.845002 0.076160 -0.029570 -130141.000000 0 0 1
-4.535976 -5.675529 -26.781291 27.749311 0.896533 2.876681 0.075149 -0.031944 -274308.000000 0 0 1
-5.227376 -5.606229 -25.548841 26.673930 0.820354 2.850116 0.064958 -0.032591 237481.000000 0 0 1
-5.129976 -4.297729 -24.951601 25.833496 0.697350 2.879548 0.073675 -0.034700 -94927.700000 0 0 1
-5.836976 -4.198429 -23.622901 24.692884 0.623550 2.846133 0.066897 -0.031447 64577.400000 0 1 0
-5.163676 -5.020429 -22.662301 23.779153 0.771333 2.833891 0.059233 -0.042462 481672.000000 0 1 0
-5.826776 -5.044329 -21.435401 22.778784 0.713547 2.796443 0.058295 -0.026657 17659.800000 0 1 0
-5.116676 -6.022429 -20.440601 21.915022 0.866533 2.772683 0.048076 -0.028044 81435.500000 0 1 0
-5.406576 -7.365229 -20.765301 22.686458 0.937570 2.727091 0.041310 -0.018412 658095.000000 0 1 0
-4.513676 -8.294129 -20.124501 22.229741 1.072416 2.702873 0.039467 -0.023812 -434777.000000 0 1 0
-5.127276 -9.718429 -20.151901 22.952907 1.085327 2.642396 0.047574 -0.020231 1000660.000000 0 1 0
-6.221076 -10.019229 -19.249901 22.575328 1.015141 2.591922 0.040963 -0.018642 892357.000000 0 1 0
-7.434376 -9.330829 -19.498601 22.858910 0.898038 2.592499 0.045055 -0.023896 -612326.000000 0 1 0
-8.451676 -9.481729 -18.343301 22.311672 0.842773 2.535955 0.031598 -0.017288 -520213.000000 0 1 0
-9.184376 -10.654229 -18.506501 23.245557 0.859354 2.491670 0.048902 -0.016457 75732.200000 0 1 0
-9.968276 -10.855329 -17.329501 22.748984 0.827971 2.436838 0.058050 -0.019965 -41359.800000 0 1 0
-10.825076 -12.145829 -17.406001 23.825874 0.842832 2.389924 0.071420 -0.010475 966055.000000 0 1 0
-12.112076 -12.017129 -18.081601 24.860773 0.781463 2.385197 0.093081 -0.031348 1162900.000000 0 1 0
-12.132876 -12.158129 -19.438101 25.939671 0.786438 2.417888 0.097574 -0.035177 -1144580.000000 0 0 1
-13.469176 -11.838829 -20.122701 26.953657 0.721067 2.413683 0.092286 -0.033853 115558.000000 0 0 1
-14.540976 -12.749929 -20.042101 27.851148 0.719864 2.374044 0.091348 -0.031729 134043.000000 0 0 1
-15.027276 -13.040329 -18.713201 27.313972 0.714725 2.325557 0.086890 -0.024753 -474482.000000 0 0 1
-16.349776 -13.849329 -18.704201 28.442331 0.702788 2.288449 0.084609 -0.011478 329674.000000 0 0 1
-15.987076 -15.136829 -19.225101 29.228662 0.758087 2.288622 0.091426 -0.020124 178103.000000 0 0 1
-16.792876 -15.540929 -20.313201 30.596524 0.746698 2.296826 0.068244 -0.007783 -213193.000000 0 0 1
-16.452676 -16.949929 -20.895501 31.537479 0.800284 2.295029 0.036902 -0.001175 -191126.000000 0 0 1
-16.759576 -17.996729 -20.040901 31.723861 0.820978 2.254579 0.059762 -0.002621 81986.300000 0 0 1
-16.580476 -19.294629 -20.633001 32.755390 0.860910 2.252236 0.047761 -0.004168 -12252.000000 0 0 1
-17.251376 -20.454629 -19.825001 33.302139 0.870148 2.208444 0.053965 -0.013648 -35206.900000 0 0 1
-16.889076 -21.702929 -20.333901 34.201250 0.909494 2.207486 0.052356 -0.011775 140.388000 0 0 1
-17.528276 -22.783729 -19.670401 34.831931 0.915036 2.170894 0.055067 -0.007822 153340.000000 0 0 1
-16.916576 -24.157929 -20.114901 35.698534 0.959903 2.169371 0.068948 -0.011894 183539.000000 0 0 1
-17.070676 -24.511129 -21.510001 36.808743 0.962460 2.194902 0.028909 -0.007030 86713.800000 0 0 1
-16.495776 -25.773959 -21.786601 37.564126 1.001471 2.189506 0.037276 -0.007767 -226162.000000 0 0 1
-16.699876 -26.227819 -23.250501 38.824865 1.003811 2.212868 0.030610 -0.006157 840927.000000 0 0 1
-18.004576 -26.794499 -23.539801 39.952874 0.979145 2.200851 0.054261 -0.012491 849746.000000 0 0 1
-18.078876 -28.166499 -23.336001 40.801548 1.000167 2.179664 0.066562 -0.022058 -231245.000000 0 0 1
-19.143776 -28.922769 -24.189401 42.286379 0.986106 2.179784 0.079324 -0.028629 -39406.600000 0 0 1
-18.942176 -29.027979 -25.628171 43.107224 0.992631 2.207467 0.077141 -0.018982 46889.600000 0 0 1
-19.266476 -27.883819 -26.400871 42.961732 0.966166 2.232575 0.072873 -0.014993 -37174.300000 0 0 1
-18.118676 -27.528289 -27.354571 42.829495 0.988689 2.263585 0.080296 -0.020069 -95688.000000 0 0 1
-18.245676 -28.108029 -28.676271 44.105493 0.995035 2.278611 0.089385 -0.022260 679028.000000 0 0 1
-17.091076 -27.782809 -29.485381 43.970183 1.019299 2.305782 0.068086 -0.011879 740049.000000 0 0 1
-17.354676 -27.968399 -30.956491 45.185401 1.015432 2.325536 0.088261 -0.012656 -26407.400000 0 0 1
-17.364976 -29.302549 -31.386371 46.317233 1.035829 2.315344 0.086812 -0.014421 -105301.000000 0 0 1
-17.800676 -29.437119 -32.689481 47.455349 1.026927 2.330694 0.093290 -0.008805 -24277.500000 0 0 1
-17.562576 -30.827489 -33.297081 48.656693 1.052950 2.324476 0.087175 -0.014430 1232790.000000 0 0 1
-16.166876 -31.039209 -33.666591 48.561710 1.090606 2.336819 0.088248 -0.014193 1237740.000000 0 0 1
-16.097276 -32.290799 33.318584 49.111567 1.108342 0.825178 0.077091 -0.013171 106083.000000 0 0 1
-14.736976 -32.730379 32.736114 48.580956 1.147731 0.831394 0.065251 -0.011607 425013.000000 0 0 1
-13.731676 -33.237319 33.627445 49.234981 1.179014 0.818936 0.069313 -0.012104 414369.000000 0 0 1
-12.813576 33.722410 32.865870 48.801169 -1.207674 0.831910 0.060392 -0.011457 -87388.500000 0 0 1
-11.859676 32.909205 33.747495 48.606184 -1.224908 0.803343 0.068568 -0.017780 -359943.000000 0 0 1
-11.068976 33.641377 -33.014931 48.417457 -1.252925 2.321127 0.071760 -0.014773 -356737.000000 0 0 1
-10.366876 32.807901 -32.126231 47.073614 -1.264738 2.321930 0.067535 -0.018566 -351467.000000 0 0 1
-9.353776 33.656417 -31.390951 46.964235 -1.299718 2.302854 0.057658 -0.020011 -617017.000000 0 0 1
-10.029676 -33.285739 -30.419241 46.193777 1.278129 2.289639 0.084377 -0.023352 -166188.000000 0 0 1
-9.531376 -31.999559 -30.050891 44.920763 1.281304 2.303626 0.085967 -0.024663 -610706.000000 0 0 1
-10.497976 -31.086369 -29.248141 43.954790 1.245118 2.298845 0.097681 -0.032786 137882.000000 0 0 1
-10.699976 -31.268719 -27.844411 43.214968 1.241092 2.270934 0.110620 -0.041336 -60756.600000 0 0 1
-11.127476 -32.622969 -27.482391 44.083564 1.242078 2.243900 0.089122 -0.034683 -129540.000000 0 0 1
-11.535776 -32.657749 -26.002151 43.309520 1.231245 2.214772 0.091577 -0.038091 426957.000000 0 0 1
-10.428376 -32.489109 -25.121121 42.371735 1.260204 2.205420 0.107059 -0.054880 5254.210000 0 0 1
-10.819076 -32.824629 -23.775001 41.949485 1.252407 2.173356 0.108383 -0.061083 151590.000000 0 0 1
-9.633376 -32.948839 -22.806801 41.213809 1.286351 2.157210 0.119575 -0.071813 -81235.100000 0 0 1
-8.877776 33.602888 -22.901901 41.622903 -1.312501 2.153428 0.099223 -0.056903 -416927.000000 0 0 1
-8.128476 33.522812 -21.709701 40.757357 -1.332912 2.132534 0.115374 -0.062380 34273.900000 0 0 1
-7.236576 32.262672 -21.537601 39.460313 -1.350147 2.148145 0.117637 -0.061519 -87012.200000 0 0 1
-6.058376 32.241363 -22.309401 39.672645 -1.385055 2.168006 0.094790 -0.070315 -283140.000000 0 0 1
-5.378376 31.068638 -22.016601 38.456702 -1.399382 2.180352 0.075179 -0.056333 -279339.000000 0 0 1
-3.897476 30.921338 -22.420001 38.392394 -1.445413 2.194407 0.093702 -0.066408 -192169.000000 0 0 1
-3.727076 31.094928 -23.802101 39.336061 -1.451504 2.220683 0.107267 -0.064894 -299053.000000 0 0 1
-2.582376 30.408528 -24.228401 38.966173 -1.486077 2.241810 0.093760 -0.069359 -239417.000000 0 0 1
-2.199476 30.781748 -25.693751 40.156227 -1.499464 2.265093 0.104081 -0.036546 -427452.000000 0 0 1
-1.473176 31.959433 -26.000061 41.225948 -1.524734 2.253215 0.110116 -0.059672 -71812.600000 0 0 1
-2.153776 33.208328 -25.988721 42.223754 -1.506031 2.233817 0.107697 -0.053800 -431840.000000 0 0 1
-1.378276 -33.392599 -26.654931 42.748692 1.529545 2.244041 0.052628 -0.030679 797436.000000 0 0 1
-0.103476 -33.052599 -26.045641 42.081592 1.567666 2.238178 0.104054 -0.042988 1205620.000000 0 0 1
0.681324 -32.095559 -26.779061 41.805588 -1.549572 2.266026 0.067804 -0.024553 300455.000000 0 0 1
2.006124 -31.691989 -26.108571 41.110390 -1.507580 2.258914 0.084658 -0.020810 -684629.000000 0 0 1
1.872624 -30.983179 -24.885601 39.783882 -1.510430 2.246594 0.072744 -0.019263 359831.000000 0 0 1
3.121824 -30.377759 -24.547401 39.180721 -1.468389 2.247873 0.062256 -0.021846 183211.000000 0 0 1
3.137624 -29.662949 -23.206701 37.792674 -1.465412 2.231982 0.078541 -0.023246 -164084.000000 0 0 1
3.112624 -30.518299 -22.094101 37.804818 -1.469156 2.194968 0.096526 -0.024275 377369.000000 0 0 1
3.263024 -29.749579 -20.876901 36.490132 -1.461550 2.179890 0.097661 -0.020280 -55203.600000 0 0 1
3.437024 -30.569719 -19.556601 36.452455 -1.458834 2.137076 0.097273 -0.014150 1016640.000000 0 0 1
2.135924 -31.115809 -19.207801 36.629160 -1.502259 2.122790 0.091583 -0.010153 1189130.000000 0 0 1
1.982224 -32.525679 -19.299801 37.872567 -1.509928 2.105514 0.091070 -0.014661 -449929.000000 0 0 1
2.704024 -33.481199 -18.349301 38.275309 -1.490209 2.070771 0.063081 -0.020662 1295900.000000 0 0 1
4.103124 -33.685909 -18.701201 38.746755 -1.449588 2.074477 0.072436 -0.013334 1236320.000000 0 0 1
4.729024 33.188777 -17.776201 37.945381 1.429260 2.058352 0.070982 -0.024404 160673.000000 0 0 1
5.810424 32.277031 -18.407001 37.608316 1.392687 2.082243 0.095162 -0.027889 -245955.000000 0 0 1
6.977624 32.945130 -18.767201 38.552259 1.362085 2.079218 0.127103 -0.026337 -177487.000000 0 0 1
7.916724 31.981988 -19.313601 38.190801 1.328137 2.101005 0.116764 -0.042764 -632948.000000 0 0 1
9.283024 32.505051 -19.631301 39.091442 1.292614 2.096925 0.113807 -0.050351 -1100820.000000 0 0 1
10.049124 32.604323 -18.455601 38.789638 1.271820 2.066655 0.097953 -0.040980 -455886.000000 0 0 1
11.309024 33.171481 -18.704601 39.725348 1.242228 2.061048 0.097346 -0.033041 -127092.000000 0 0 1
12.215124 33.207754 -17.457001 39.455178 1.218318 2.029127 0.072471 -0.031453 -283166.000000 0 0 1
12.893124 32.057931 -17.103701 38.554899 1.188410 2.030430 0.071986 -0.037080 -201167.000000 0 0 1
13.689624 32.358161 -15.968001 38.593179 1.170565 1.997368 0.067149 -0.036938 315710.000000 0 0 1
14.898224 31.437558 -15.690201 38.163590 1.128247 1.994490 0.075730 -0.035261 142593.000000 0 0 1
14.570324 30.216118 -15.138501 36.803293 1.121487 1.994715 0.079797 -0.036131 -923745.000000 0 0 1
15.682924 29.437938 -14.878801 36.522939 1.081297 1.990382 0.089352 -0.034359 -645261.000000 0 0 1
15.321324 28.174508 -14.056901 35.016316 1.072725 1.983883 0.093303 -0.036041 -320605.000000 0 0 1
15.118324 28.510398 -12.742601 34.695539 1.083224 1.946868 0.084899 -0.038709 -16716.200000 0 0 1
13.795724 28.579738 -12.219701 34.006537 1.121076 1.938350 0.108659 -0.037841 314898.000000 0 0 1
13.285124 27.155898 -11.875101 32.480076 1.115812 1.945086 0.100360 -0.034949 -199998.000000 0 0 1
12.477524 26.576938 -12.969301 32.097119 1.131856 1.986752 0.078265 -0.035087 657215.000000 0 0 1
11.979224 25.248308 -12.773501 30.726881 1.127792 1.999521 0.094709 -0.034340 34363.500000 0 0 1
11.211924 24.985168 -11.467701 29.689629 1.148988 1.967362 0.108459 -0.034906 -890433.000000 0 0 1
9.952524 25.614408 -11.481501 29.782134 1.200198 1.966564 0.089443 -0.023922 -173212.000000 0 0 1
9.421924 25.683548 -10.158801 29.182504 1.219193 1.926353 0.073302 -0.011825 441526.000000 0 0 1
8.412324 26.879578 -9.974001 29.879083 1.267489 1.911141 0.078525 -0.013095 784388.000000 0 0 1
9.048124 28.082218 -10.376001 31.275245 1.259098 1.908969 0.074002 -0.023986 130483.000000 0 0 1
8.081224 29.116798 -10.399501 31.956905 1.300066 1.902255 0.061997 -0.024602 465833.000000 0 0 1
8.604124 30.563978 -10.824001 33.546188 1.296386 1.899334 0.076358 -0.026111 -447412.000000 0 0 1
9.394924 31.189518 -9.817701 34.021139 1.278220 1.863536 0.067719 -0.022510 -41184.000000 0 0 1
9.948624 32.418288 -10.272101 35.432141 1.273037 1.864928 0.079251 -0.021758 27384.100000 0 0 1
11.041524 32.338560 -11.374501 36.014955 1.241772 1.892125 0.072149 -0.023754 -1018770.000000 0 0 1
12.343424 32.193706 -10.897701 36.160126 1.204672 1.876929 0.065144 -0.015350 -804105.000000 0 0 1
13.261824 32.418530 -11.929701 37.002093 1.182486 1.899067 0.072490 -0.015798 271772.000000 0 0 1
14.758124 32.246921 -11.553301 37.298055 1.141591 1.885733 0.093105 -0.020177 396800.000000 0 0 1
15.129624 33.142472 -10.524301 37.922156 1.142548 1.852012 0.093067 -0.010450 688085.000000 0 0 1
16.529724 33.467745 -10.499901 38.775890 1.112040 1.845004 0.104216 -0.020489 975534.000000 0 0 1
16.988224 -33.256189 -9.378701 38.503687 -1.098523 1.816851 0.109819 -0.017371 73692.000000 0 0 1
17.167924 -33.830019 -8.090801 38.790061 -1.101186 1.780918 0.101717 -0.016316 123247.000000 0 0 1
17.582324 -32.817449 -7.209201 37.922232 -1.078950 1.762065 0.093966 -0.015368 -890117.000000 0 0 1
18.023224 -33.455729 -5.911001 38.458580 -1.076656 1.725106 0.098434 -0.015712 640282.000000 0 0 1
19.143124 33.376956 -5.848401 38.918944 1.050058 1.721639 0.091517 -0.024042 799424.000000 0 0 1
20.418524 -33.826679 -6.197401 39.994601 -1.027718 1.726379 0.103641 -0.026278 -707782.000000 0 0 1
21.242624 32.985278 -7.075201 39.866479 0.998648 1.749214 0.080904 -0.020509 -86884.400000 0 0 1
21.573924 31.690448 -6.550901 38.892583 0.973093 1.740039 0.076073 -0.010452 338386.000000 0 0 1
22.634924 31.799341 -5.590001 39.430775 0.952192 1.713043 0.068719 -0.015271 -201667.000000 0 0 1
22.989824 30.507638 -4.851301 38.506923 0.925010 1.697117 0.043171 -0.011376 -208915.000000 0 0 1
23.670624 29.610118 -5.708201 38.335899 0.896415 1.720252 0.043636 -0.015505 -64107.800000 0 0 1
24.030424 28.413028 -5.114601 37.562223 0.868773 1.707384 0.044628 -0.005754 202376.000000 0 0 1
24.887124 27.524428 -6.107801 37.606759 0.835675 1.733931 0.034650 -0.000878 421528.000000 0 0 1
26.198924 28.044378 -6.329401 38.896428 0.819407 1.734248 0.052545 -0.004372 599492.000000 0 0 1
27.086824 27.044758 -6.860401 38.886760 0.784621 1.748145 0.031745 0.002755 379427.000000 0 0 1
27.722724 26.053188 -5.857101 38.491865 0.754362 1.723554 0.025968 0.003966 -64397.200000 0 0 1
28.817224 26.749558 -5.220501 39.663899 0.748205 1.702798 0.058771 -0.001674 639105.000000 0 0 1
29.587124 25.820288 -4.456601 39.521469 0.717518 1.683801 0.067930 -0.002448 1220040.000000 0 0 1
30.785124 26.518808 -3.645501 40.795352 0.711085 1.660276 0.080632 -0.008714 994097.000000 0 0 1
30.339024 27.265218 -2.592501 40.872602 0.732088 1.634268 0.084215 -0.014568 236098.000000 0 0 1
31.413424 27.450048 -1.669601 41.750401 0.718168 1.610797 0.089079 -0.025466 498593.000000 0 0 1
31.284824 28.741448 -0.800501 42.490609 0.743052 1.589637 0.112713 -0.025749 -108364.000000 0 0 1
31.592524 29.902098 -1.588701 43.528692 0.757916 1.607302 0.087613 -0.015657 -13347.700000 0 0 1
31.380124 31.121818 -0.897501 44.205037 0.781265 1.591101 0.100172 -0.018462 -48405.900000 0 0 1
34.464428 21.955471 19.028215 45.076740 0.567216 1.135003 0.123622 -0.041565 -87072.000000 0 0 1
34.829828 21.833571 20.362615 45.874370 0.559939 1.110875 0.125751 -0.041637 -361334.000000 0 0 1
35.490998 22.997671 20.627615 47.053186 0.574958 1.116990 0.144706 -0.030083 -352785.000000 0 0 1
35.656728 23.312471 22.106715 47.995629 0.579044 1.092127 0.112905 -0.016243 -182940.000000 0 0 1
34.529908 23.853971 22.754905 47.740048 0.604539 1.073966 0.088961 -0.010697 103797.000000 0 0 1
34.763568 24.042271 24.144735 48.677559 0.605062 1.051794 0.086664 -0.009883 98096.000000 0 0 1
33.426438 24.417971 24.818935 48.265346 0.630903 1.030700 0.086222 -0.010435 205857.000000 0 0 1
33.157808 25.787771 24.766185 48.762827 0.661012 1.038062 0.073381 -0.014080 1145290.000000 0 0 1
31.770348 26.036671 25.093505 48.134678 0.686535 1.022401 0.066762 -0.018460 1130620.000000 0 0 1
31.488508 27.518571 25.480705 48.970034 0.718220 1.023556 0.065056 -0.018421 -55314.300000 0 0 1
31.372328 28.352071 24.338555 48.789632 0.734871 1.048529 0.063062 -0.022217 165662.000000 0 0 1
31.292938 29.745471 24.717895 49.749526 0.760051 1.050835 0.073857 -0.033672 -143755.000000 0 0 1
31.507618 30.669071 23.551805 49.879950 0.771912 1.079046 0.074096 -0.027968 1102830.000000 0 0 1
32.859338 30.672371 23.028735 50.505971 0.750989 1.097345 0.057004 -0.026516 823292.000000 0 0 1
32.988928 31.716471 22.040015 50.793368 0.765735 1.121962 0.053022 -0.021987 -763443.000000 0 0 1
34.395448 32.132971 21.705015 51.833217 0.751404 1.138731 0.039534 -0.031499 -683084.000000 0 0 1
35.058888 32.984571 22.605465 53.180021 0.754922 1.131752 0.048804 -0.015416 825817.000000 0 0 1
36.415188 33.282271 22.232015 54.111348 0.740478 1.147403 0.050787 -0.007820 1014410.000000 0 0 1
37.041078 -33.224656 22.952735 54.797329 -0.731137 1.138600 0.054793 -0.002286 177672.000000 0 0 1
36.323638 -32.032256 22.617605 53.451176 -0.722700 1.133883 0.046115 -0.004427 510706.000000 0 0 1
36.826838 -30.931956 23.378865 53.474978 -0.698619 1.118322 0.059525 -0.002080 -910653.000000 0 0 1
35.962988 -29.683256 23.238535 52.100496 -0.690028 1.108468 0.063192 -0.009146 584617.000000 0 0 1
34.604798 -29.878656 23.646315 51.472074 -0.712237 1.093476 0.061697 -0.007295 911453.000000 0 0 1
33.699278 -30.301156 22.620225 50.650528 -0.732353 1.107841 0.059668 -0.004428 -232683.000000 0 0 1
32.992758 -31.627856 22.965875 51.149534 -0.764280 1.105156 0.050588 -0.006019 -127759.000000 0 0 1
31.795058 -31.643956 23.712435 50.739977 -0.783016 1.084525 0.063996 -0.015059 91563.600000 0 0 1
31.307698 -32.947556 23.886295 51.344606 -0.810914 1.086919 0.062181 -0.020841 -347921.000000 0 0 1
30.259098 -33.032456 24.981015 51.291396 -0.829189 1.062098 0.057359 -0.023217 -326318.000000 0 0 1
29.980598 33.349071 25.324265 51.500633 0.838538 1.056724 0.075839 -0.033517 290262.000000 0 0 1
29.130898 33.140971 26.452935 51.446001 0.849706 1.030735 0.071660 -0.025731 -634264.000000 0 0 1
28.797898 31.650571 26.785975 50.483325 0.832555 1.011499 0.075289 -0.024358 273305.000000 0 0 1
27.956398 30.980371 25.864715 49.095082 0.836662 1.015931 0.075702 -0.026199 425828.000000 0 0 1
26.627198 31.487571 25.791105 48.638009 0.868838 1.011881 0.066558 -0.025158 -345281.000000 0 0 1
25.930998 31.158771 24.441855 47.335927 0.876715 1.028214 0.113459 -0.035427 -3882.610000 0 0 1
26.166998 31.961071 23.284065 47.416975 0.884748 1.057503 0.114002 -0.041666 58691.000000 0 0 1
27.515698 31.948271 22.865975 47.965180 0.859803 1.073876 0.102011 -0.033686 -77892.000000 0 0 1
27.700298 32.755871 21.535215 48.000199 0.868828 1.105544 0.122997 -0.030702 722327.000000 0 0 1
29.090998 32.829171 21.183415 48.711166 0.845696 1.120894 0.105153 -0.023489 776288.000000 0 0 1
29.332098 33.674671 20.054915 48.954623 0.854212 1.148711 0.097778 -0.027299 -802987.000000 0 0 1
30.744538 -33.623856 19.737615 49.652430 -0.830100 1.161989 0.092027 -0.033845 -598273.000000 0 0 1
31.470078 33.102671 19.052015 49.488705 0.810676 1.175613 0.086440 -0.027969 183634.000000 0 0 1
32.593828 33.613671 18.338015 50.284384 0.800801 1.197501 0.069598 -0.025545 49953.500000 0 0 1
33.464558 32.555771 17.623015 49.903162 0.771634 1.209867 0.046110 -0.015969 131016.000000 0 0 1
34.364738 31.797471 18.407215 50.307454 0.746615 1.196203 0.031984 -0.017580 180036.000000 0 0 1
35.060178 30.792971 17.663615 49.894153 0.720690 1.208928 0.049802 -0.019049 287639.000000 0 0 1
36.016128 29.979171 18.559515 50.402061 0.694176 1.193693 0.070102 -0.029075 231253.000000 0 0 1
37.014278 30.775871 19.165015 51.812246 0.693631 1.191902 0.073665 -0.026783 404047.000000 0 0 1
-37.386216 30.041371 19.832215 51.899228 -0.676897 1.178697 0.103326 -0.026383 640661.000000 0 0 1
-36.268686 30.922971 20.444615 51.861643 -0.706006 1.165583 0.128210 -0.026549 114126.000000 0 0 1
-35.601719 31.629971 19.406615 51.425229 -0.726391 1.183836 0.135737 -0.029049 -77434.600000 0 0 1
-34.370860 32.228371 19.733815 51.082750 -0.753239 1.174168 0.117764 -0.017510 3677.660000 0 0 1
-34.359012 33.536471 20.536615 52.220582 -0.773284 1.166614 0.094410 -0.014934 -277973.000000 0 0 1
-34.581434 33.372771 21.945415 52.831985 -0.767614 1.142434 0.095732 -0.013300 259666.000000 0 0 1
-34.327595 -33.083956 22.573895 52.749528 0.766952 1.128579 0.086246 -0.011005 -36467.800000 0 0 1
-34.289694 -33.249556 24.139275 53.516546 0.769999 1.102842 0.090910 -0.019524 -197319.000000 0 0 1
-35.518074 -33.599056 24.735645 54.793086 0.757641 1.102421 0.085409 -0.010533 -280670.000000 0 0 1
-35.454344 33.732171 26.056905 55.442151 -0.760512 1.081524 0.094279 -0.013772 162907.000000 0 0 1
-36.860586 33.610371 26.687215 56.573556 -0.739309 1.079549 0.082871 -0.020851 423283.000000 0 0 1
-36.776386 32.664471 27.766395 56.484006 -0.726253 1.056893 0.103279 -0.026415 -3341.450000 0 0 1
37.384568 32.537671 28.389845 57.116454 0.716190 1.050598 0.105921 -0.030214 93744.500000 0 0 1
37.329748 31.636471 29.620145 57.199033 0.703033 1.026468 0.115851 -0.025919 -137262.000000 0 0 1
37.363468 30.198171 29.345905 56.295119 0.679737 1.022438 0.110626 -0.028282 -235323.000000 0 0 1
-37.015566 29.655271 28.610955 55.391100 -0.675446 1.028007 0.104894 -0.022051 -648051.000000 0 0 1
-37.319356 28.263271 28.025455 54.561643 -0.648179 1.031366 0.111959 -0.026700 -1115900.000000 0 0 1
37.064408 28.276271 27.119055 53.932931 0.651703 1.043928 0.098726 -0.027350 -238523.000000 0 0 1
36.542058 26.997871 26.811565 52.754783 0.636305 1.037668 0.110648 -0.027491 165439.000000 0 0 1
36.093688 25.962971 27.937205 52.510167 0.623576 1.009795 0.111139 -0.031367 -373362.000000 0 0 1
37.179818 25.570571 28.778355 53.519966 0.602460 1.003075 0.099948 -0.028207 385160.000000 0 0 1
36.927988 24.308471 29.341925 53.061536 0.582165 0.984861 0.100601 -0.024143 2662.440000 0 0 1
37.578098 23.226271 28.486275 52.564636 0.553608 0.998066 0.101587 -0.008894 -432149.000000 0 0 1
36.935018 23.007571 27.239645 51.337532 0.557102 1.011489 0.111107 -0.012981 -205184.000000 0 0 1
37.529668 22.169571 26.243965 50.879383 0.533569 1.028846 0.112078 -0.020979 -167369.000000 0 0 1
37.145978 20.696171 26.504475 50.106311 0.508322 1.013416 0.104796 -0.024598 844482.000000 0 0 1
35.793558 20.464871 26.061655 48.777040 0.519386 1.007115 0.121729 -0.010283 1324700.000000 0 0 1
35.141078 19.173971 26.215225 47.851589 0.499481 0.991011 0.111461 -0.008093 314407.000000 0 0 1
34.858998 18.647471 27.670385 48.254825 0.491207 0.960119 0.093863 0.008797 642307.000000 0 0 1
33.785738 19.295871 28.432745 48.189498 0.518917 0.939713 0.082897 -0.008781 1180860.000000 0 0 1
33.973058 20.683371 28.767475 49.087047 0.546877 0.944621 0.088052 -0.015866 -1028710.000000 0 0 1
32.909328 21.243071 29.720295 49.168973 0.573207 0.921718 0.079349 -0.019861 949139.000000 0 0 1
31.507918 21.164071 29.370045 47.992357 0.591484 0.912243 0.091682 -0.022060 1128610.000000 0 0 1
31.090078 21.811171 28.170335 47.285177 0.611764 0.932592 0.081485 -0.007871 -593112.000000 0 0 1
30.961748 23.358471 28.239215 47.976049 0.646330 0.941457 0.088889 -0.008349 -327059.000000 0 0 1
32.220618 24.000471 28.233565 49.105245 0.640216 0.958241 0.084788 -0.017380 -139598.000000 0 0 1
32.260578 25.310671 28.800395 50.108260 0.665261 0.958481 0.070465 -0.016699 -80816.800000 0 0 1
32.516598 25.266871 30.322305 51.138891 0.660587 0.936091 0.072964 -0.026150 174309.000000 0 0 1
33.645638 24.482371 30.700185 51.709930 0.629045 0.935147 0.065080 -0.013031 559609.000000 0 0 1
34.263698 24.724071 31.978662 52.989768 0.625064 0.922929 0.076099 -0.015968 84876.200000 0 0 1
33.783198 23.656071 32.910708 52.763898 0.610882 0.897284 0.077136 -0.016825 -308415.000000 0 0 1
34.077128 23.672971 -33.358441 53.239513 0.607152 2.247945 0.082250 -0.038572 39239.900000 0 0 1
33.558088 22.567271 -32.658731 51.980955 0.592019 2.250140 0.066178 -0.039142 -158634.000000 0 0 1
34.073558 22.438671 -31.247241 51.389604 0.582353 2.224393 0.071956 -0.044022 -629316.000000 0 0 1
33.422248 23.350171 -30.387761 50.849712 0.609814 2.211300 0.053725 -0.049286 -49158.100000 0 0 1
33.839268 23.295871 -29.064921 50.324579 0.602917 2.186520 0.077288 -0.055222 807008.000000 0 0 1
35.348958 23.701771 -28.815621 51.397109 0.590658 2.165963 0.087033 -0.023807 914969.000000 0 0 1
35.902598 23.238471 -27.612721 50.906635 0.574450 2.144110 0.075477 -0.019362 -1055350.000000 0 0 1
37.023448 23.896571 -27.210221 51.789747 0.573166 2.123979 0.086626 -0.006511 -635155.000000 0 0 1
-37.530476 23.197171 -26.119341 51.272462 -0.553614 2.105310 0.060970 0.003568 -97907.800000 0 0 1
-36.876526 22.048171 -26.529571 50.495724 -0.538868 2.123961 0.042590 0.013684 -181521.000000 0 0 1
-36.873346 20.950971 -25.629341 49.552497 -0.516699 2.114391 0.024496 0.016788 219871.000000 0 0 1
-35.777022 19.894771 -25.940421 48.463415 -0.507497 2.135609 0.037076 0.027001 1277.870000 0 0 1
-34.454681 20.106271 -25.539321 47.367120 -0.528241 2.140257 0.061863 0.029160 108542.000000 0 0 1
-33.656246 18.908571 -25.545621 46.290989 -0.511869 2.155376 0.027306 0.013199 -462028.000000 0 0 1
-32.392296 18.970271 -24.766501 44.972342 -0.529795 2.154005 0.027611 0.006002 -1189770.000000 0 0 1
-32.632236 18.977571 -23.413801 44.420908 -0.526750 2.125969 0.039319 0.005341 23516.700000 0 0 1
-31.505826 19.358171 -22.656201 43.366569 -0.550963 2.120500 0.060536 0.008548 54080.300000 0 0 1
-31.858576 19.712471 -21.211701 43.052138 -0.554092 2.085984 0.059714 0.014652 251058.000000 0 0 1
-32.456206 18.715471 -20.338301 42.630044 -0.523064 2.068135 0.042035 0.011825 200832.000000 0 0 1
-33.059696 19.353171 -19.251001 42.872949 -0.529616 2.036470 0.048617 0.013595 -858479.000000 0 0 1
-33.708506 18.261171 -18.334601 42.495780 -0.496478 2.016890 0.042774 0.009037 590135.000000 0 0 1
-34.637972 18.657471 -17.325901 42.989268 -0.494081 1.985620 0.051951 -0.002325 1344740.000000 0 0 1
-35.719541 19.568371 -17.678501 44.399731 -0.501179 1.980314 0.047304 0.004502 544415.000000 0 0 1
-36.825026 19.631171 -16.563301 44.897754 -0.489770 1.948634 0.037256 0.001689 281885.000000 0 0 1
-36.545576 20.486471 -15.480601 44.664568 -0.510925 1.924737 0.040363 -0.004794 238088.000000 0 0 1
-37.598866 20.380271 -14.541001 45.171571 -0.496715 1.898538 0.057097 -0.004734 -373040.000000 0 0 1
-37.392876 21.339671 -13.374401 45.083071 -0.518588 1.871991 0.055386 -0.008346 -65940.900000 0 0 1
-37.713306 22.692671 -13.675001 46.089656 -0.541680 1.872036 0.072181 -0.017148 -442266.000000 0 0 1
36.342308 22.910271 -13.694701 45.090894 0.562475 1.879384 0.060748 -0.010328 -868415.000000 0 0 1
35.902668 24.223471 -14.225001 45.586498 0.593542 1.888140 0.062255 -0.015462 -166446.000000 0 0 1
36.180408 25.245671 -13.291201 46.076261 0.609229 1.863415 0.061493 -0.014365 -112586.000000 0 0 1
35.944568 26.529271 -13.794601 46.755804 0.635816 1.870289 0.035831 0.005610 -218337.000000 0 0 1
37.127848 27.298371 -14.437901 48.292144 0.633996 1.874409 0.070857 0.004319 86425.500000 0 0 1
37.327768 27.120771 -15.811701 48.774054 0.628328 1.900944 0.074953 0.003040 59330.000000 0 0 1
-36.965686 27.841271 -16.241001 49.044555 -0.645524 1.908316 0.079292 -0.003168 -1123800.000000 0 0 1
-36.644796 27.600271 -17.742801 49.187630 -0.645536 1.939833 0.081179 -0.009962 -471943.000000 0 0 1
-35.994206 26.414471 -18.007901 48.141371 -0.633087 1.954182 0.085282 -0.010979 190343.000000 0 0 1
-34.621290 26.474271 -17.627601 47.013328 -0.652831 1.955138 0.109256 -0.002022 -271830.000000 0 0 1
-33.826316 25.281271 -18.178201 45.976182 -0.641825 1.977281 0.096734 -0.002485 -112496.000000 0 0 1
-33.855116 25.118571 -19.595701 46.487665 -0.638325 2.005922 0.073907 0.009007 -618281.000000 0 0 1
-32.838906 24.328371 -20.069901 45.530916 -0.637613 2.027283 0.069386 0.015677 -684824.000000 0 0 1
-32.827506 24.303771 -21.644501 46.225565 -0.637295 2.058090 0.069290 0.015464 -602354.000000 0 0 1
-33.850966 23.511871 -22.151701 46.790959 -0.607072 2.063964 0.067514 0.021552 -263377.000000 0 0 1
-33.979326 23.496971 -23.530301 47.543425 -0.605004 2.088542 0.052785 0.023426 -205856.000000 0 0 1
-34.779455 24.653571 -24.209301 49.025496 -0.616644 2.087263 0.046593 0.009791 -12392.800000 0 0 1
-34.072350 25.896771 -24.311001 49.219839 -0.649904 2.087397 0.047133 0.006739 371182.000000 0 0 1
-34.754586 26.662871 -25.316161 50.593457 -0.654403 2.094839 0.062558 -0.005099 148263.000000 0 0 1
-33.998893 27.897471 -25.731161 50.953766 -0.687141 2.100167 0.058350 -0.012358 -364193.000000 0 0 1
-32.818346 27.609671 -26.421691 50.373043 -0.699414 2.122948 0.036344 -0.013231 -591271.000000 0 0 1
-32.217856 28.834371 -26.894391 50.918753 -0.730035 2.127255 0.044179 -0.017585 468948.000000 0 0 1
-30.881726 28.503571 -27.631551 50.295498 -0.745373 2.152423 0.054050 -0.020619 -118430.000000 0 0 1
-29.858966 28.074271 -26.720581 48.925576 -0.754602 2.148555 0.059531 -0.018421 -456895.000000 0 0 1
-28.640276 28.285271 -27.370471 48.677147 -0.779162 2.167944 0.067982 -0.017954 -169121.000000 0 0 1
-27.973606 29.726571 -27.223151 49.064158 -0.815769 2.158977 0.052582 -0.030674 -767688.000000 0 0 1
-27.333426 29.996971 -26.002281 48.198061 -0.831824 2.140625 0.059808 -0.031312 -301026.000000 0 0 1
-28.225966 30.309971 -24.949701 48.351702 -0.820985 2.112976 0.057580 -0.026437 -196429.000000 0 0 1
-27.606016 30.772371 -23.607101 47.605946 -0.839584 2.089651 0.038035 -0.024142 -395924.000000 0 0 1
-26.931596 31.977171 -23.715101 48.065126 -0.870840 2.086785 0.037481 -0.023538 -43244.000000 0 0 1
-26.592656 32.462671 -22.442701 47.588540 -0.884471 2.061899 0.054224 -0.010118 -230730.000000 0 0 1
-26.007596 -33.837756 -22.496901 48.244164 0.915499 2.055915 0.046129 0.006301 143666.000000 0 0 1
-26.939366 -32.835956 -22.841501 48.225134 0.883726 2.064219 0.039122 -0.010785 -240165.000000 0 0 1
-26.227266 -31.770256 -23.338501 47.348751 0.880682 2.086223 0.063128 -0.022903 -345748.000000 0 0 1
17.688924 8.296271 -25.514561 32.135945 0.438549 2.488087 0.118210 -0.027093 186267.000000 0 0 1
16.304224 8.033871 -25.426771 31.255263 0.457829 2.520975 0.097371 -0.032159 2920.810000 0 0 1
16.161024 6.663571 -25.198771 30.668550 0.391085 2.535094 0.101492 -0.039965 835939.000000 0 0 1
14.723724 6.000571 -25.146641 29.751445 0.386993 2.577781 0.114688 -0.045400 935992.000000 0 0 1
13.968424 6.502871 -24.040701 28.554501 0.435702 2.571634 0.127730 -0.048211 -147704.000000 0 0 1
12.712424 5.894871 -24.067501 27.849593 0.434196 2.614346 0.135604 -0.048395 -444190.000000 0 0 1
11.793024 6.091271 -22.837801 26.414847 0.476772 2.615114 0.140601 -0.051291 -146624.000000 0 0 1
12.251924 5.397671 -21.691301 25.490332 0.414973 2.588610 0.128426 -0.038444 140305.000000 0 0 1
11.496424 5.450771 -20.492101 24.120632 0.442736 2.585961 0.130507 -0.033359 -174738.000000 0 1 0
11.510124 6.822671 -19.760801 23.864640 0.535074 2.546393 0.116073 -0.035945 44299.600000 0 1 0
11.265524 6.502471 -18.372201 22.510707 0.523487 2.525520 0.113143 -0.033159 -199368.000000 0 1 0
11.350524 7.668671 -17.523601 22.242291 0.594177 2.478107 0.108614 -0.041735 659016.000000 0 1 0
12.802024 8.069471 -17.094801 22.830690 0.562421 2.416992 0.100595 -0.035922 615978.000000 0 1 0
13.468824 7.315571 -16.079601 22.214418 0.497568 2.380143 0.132630 -0.045550 324391.000000 0 1 0
14.799024 7.769271 -15.991101 23.131969 0.483436 2.334081 0.119523 -0.039158 -260364.000000 0 1 0
15.489624 7.521371 -14.634901 22.598226 0.452041 2.275244 0.132412 -0.039398 80950.800000 0 1 0
16.790324 8.084771 -14.616301 23.683639 0.448749 2.235909 0.114197 -0.035832 358743.000000 0 1 0
17.436224 7.886871 -13.405801 23.365362 0.424787 2.181870 0.115158 -0.038124 55626.200000 0 1 0
18.271424 9.076471 -12.866501 24.119994 0.461050 2.133455 0.142614 -0.038975 370264.000000 0 1 0
17.450924 10.206471 -12.577501 23.809669 0.529218 2.127337 0.183116 -0.040977 779228.000000 0 1 0
18.303624 11.230071 -12.165201 24.680544 0.550319 2.086223 0.227982 -0.061932 -7095.640000 0 1 0
17.492724 12.507971 -11.787401 24.523205 0.620748 2.072207 0.257860 -0.065901 -116079.000000 0 1 0
16.581624 12.228671 -10.704001 23.217801 0.635442 2.049947 0.281340 -0.052377 569166.000000 0 1 0
15.866824 13.377471 -10.264401 23.153202 0.700480 2.030101 0.167240 -0.040564 305415.000000 0 1 0
14.623024 13.669171 -11.163801 22.919632 0.751697 2.079545 0.139564 -0.050382 -281827.000000 0 1 0
13.707124 14.686671 -10.723201 22.772145 0.819883 2.061097 0.180284 -0.054331 239975.000000 0 1 0
14.081024 16.049871 -10.791401 23.923377 0.850649 2.038773 0.199315 -0.053226 -194072.000000 0 1 0
13.192724 16.910771 -9.867001 23.608894 0.908285 2.001968 0.182219 -0.045397 107218.000000 0 1 0
13.469424 16.632471 -8.531501 23.040204 0.890092 1.950115 0.179288 -0.042282 104492.000000 0 1 0
12.518224 17.177171 -7.663101 22.593899 0.941021 1.916827 0.149773 -0.026290 -44447.000000 0 1 0
13.012324 17.271971 -6.171201 22.488337 0.925137 1.848781 0.132089 -0.014555 375491.000000 0 1 0
14.045424 18.213271 -5.886201 23.741199 0.913887 1.821341 0.163173 -0.014840 501226.000000 0 1 0
14.383524 18.169071 -4.496601 23.605515 0.901168 1.762457 0.151136 -0.007992 -222906.000000 0 1 0
15.626524 18.989171 -4.096901 24.931135 0.882237 1.735874 0.142059 -0.016092 205613.000000 0 1 0
16.836024 18.646171 -4.763001 25.569857 0.836370 1.758165 0.154196 -0.035467 -103002.000000 0 0 1
17.635324 19.710071 -4.999901 26.916363 0.840897 1.757638 0.098075 -0.031819 -1082820.000000 0 0 1
18.921124 19.315671 -5.715701 27.636449 0.795716 1.779117 0.100934 -0.018853 -467723.000000 0 0 1
19.899324 18.715671 -4.902201 27.754117 0.754755 1.748358 0.103503 -0.032781 -58383.100000 0 0 1
20.311524 17.491571 -5.501601 27.363857 0.710940 1.773230 0.150369 -0.041772 -367827.000000 0 0 1
21.319924 16.638371 -4.736701 27.455617 0.662684 1.744186 0.150448 -0.053390 -230425.000000 0 0 1
22.654624 17.060971 -4.932301 28.786044 0.645476 1.742989 0.106939 -0.048846 -261663.000000 0 0 1
23.486524 16.180171 -4.241601 28.834111 0.603246 1.718436 0.121374 -0.057535 -546998.000000 0 0 1
24.993424 16.343171 -4.488901 30.198025 0.579111 1.719998 0.106775 -0.045835 -277813.000000 0 0 1
25.445524 17.533971 -3.938001 31.151608 0.603359 1.697550 0.100050 -0.042563 -344104.000000 0 0 1
26.845824 17.520371 -3.816001 32.283487 0.578221 1.689276 0.091153 -0.028501 -375785.000000 0 0 1
27.333524 18.764071 -3.065701 33.295802 0.601598 1.663002 0.097657 -0.025276 -327703.000000 0 0 1
27.266024 19.964471 -3.905601 34.018670 0.632018 1.685858 0.092052 -0.030849 164490.000000 0 0 1
27.298324 21.066971 -3.071401 34.618626 0.657265 1.659634 0.111382 -0.009282 -257206.000000 0 0 1
27.280424 22.421871 -3.936201 35.531050 0.687955 1.681806 0.085294 -0.009580 303573.000000 0 0 1
28.427324 22.829571 -4.698501 36.761094 0.676619 1.698959 0.074360 -0.002693 469866.000000 0 0 1
28.679824 22.089371 -5.856901 36.671187 0.656308 1.731197 0.052388 -0.003037 240452.000000 0 0 1
29.950524 22.666371 -6.543401 38.126295 0.647835 1.743275 0.054304 -0.005566 334901.000000 0 0 1
29.549224 23.733771 -7.400201 38.616208 0.676686 1.763624 0.028820 0.003482 303470.000000 0 0 1
30.589824 24.432571 -8.064801 39.971601 0.673957 1.773954 0.033653 0.002817 217594.000000 0 0 1
31.383924 23.765571 -9.249401 40.438898 0.648127 1.801564 0.035202 -0.009244 121416.000000 0 0 1
30.615324 23.625471 -10.386201 40.041655 0.657237 1.833182 0.031527 -0.000052 -138398.000000 0 0 1
31.360924 22.887071 -11.343201 40.447420 0.630445 1.855052 0.017036 -0.011786 123803.000000 0 0 1
30.764824 22.790271 -12.781501 40.363816 0.637581 1.893000 0.033820 -0.003770 22118.000000 0 0 1
31.041324 23.820471 -13.715101 41.461822 0.654531 1.907935 0.033715 -0.010818 -129861.000000 0 0 1
30.694724 23.362471 -14.978101 41.380124 0.650582 1.941170 0.046270 -0.016938 13916.400000 0 0 1
31.044424 24.377171 -16.112201 42.633388 0.665673 1.958350 0.049411 -0.012961 350841.000000 0 0 1
32.445724 24.527371 -16.326301 43.827675 0.647299 1.952510 0.034969 -0.006718 274488.000000 0 0 1
32.643424 24.889071 -17.686301 44.697475 0.651423 1.977614 0.046964 -0.011647 -411951.000000 0 0 1
34.077224 25.297471 -17.971801 46.089097 0.638592 1.971358 0.032500 -0.009197 297584.000000 0 0 1
35.051524 24.240371 -17.868301 46.211266 0.605042 1.967809 0.047573 0.000301 166496.000000 0 0 1
36.419424 24.598071 -17.895901 47.452111 0.594032 1.957498 0.048719 0.001849 201612.000000 0 0 1
37.273024 23.296171 -17.838401 47.436257 0.558610 1.956326 0.044621 -0.005685 -30882.600000 0 0 1
37.345724 22.613471 -19.089501 47.649567 0.544466 1.982993 0.050173 0.005238 10154.500000 0 0 1
-36.940049 23.020471 -19.803701 47.819409 -0.557293 1.997789 0.068785 0.016975 -152373.000000 0 0 1
-36.669149 22.175071 -21.030301 47.735038 -0.543893 2.027022 0.074772 0.011254 16894.500000 0 0 1
-36.233449 20.864871 -20.710201 46.659598 -0.522470 2.030695 0.060790 0.012121 102112.000000 0 0 1
-35.791249 20.065571 -21.815701 46.471125 -0.510966 2.059460 0.062797 0.018239 -52907.300000 0 0 1
-35.835149 18.467071 -21.666901 45.767294 -0.475839 2.063960 0.052116 0.014365 405651.000000 0 0 1
-37.097549 17.817171 -21.474201 46.420050 -0.447747 2.051729 0.057854 0.002955 491519.000000 0 0 1
-36.979249 16.433871 -21.400701 45.776926 -0.418194 2.057257 0.045783 -0.003169 -272226.000000 0 0 1
37.066124 15.766971 -21.361801 45.594095 0.402188 2.058412 0.050416 -0.006832 -531911.000000 0 0 1
36.318524 16.169871 -22.468801 45.665599 0.418875 2.085215 0.059227 0.002495 -311809.000000 0 0 1
35.249824 15.273471 -22.709001 44.626537 0.408873 2.104665 0.090724 -0.002946 -359323.000000 0 0 1
35.537324 13.845371 -23.361401 44.725281 0.371510 2.120379 0.051003 -0.002840 -690781.000000 0 0 1
35.819924 13.754171 -24.699201 45.632168 0.366621 2.142740 0.061843 -0.004371 219181.000000 0 0 1
36.417824 12.511671 -25.035001 45.929850 0.330925 2.147269 0.033691 0.005007 -14623.700000 0 0 1
36.584224 12.333371 -26.613341 46.891230 0.325157 2.174329 0.026615 0.007918 -55178.900000 0 0 1
35.347224 12.154971 -27.267061 46.267291 0.331206 2.201035 0.017135 0.002766 185780.000000 0 0 1
34.786124 13.357771 -27.843101 46.516048 0.366635 2.212511 0.038590 0.001737 -130290.000000 0 0 1
35.221224 13.695471 -29.288041 47.810981 0.370850 2.230117 0.044016 -0.005049 45065.300000 0 0 1
36.561424 14.058371 -29.581371 49.085976 0.367085 2.217607 0.036518 0.007367 200107.000000 0 0 1
36.930524 14.016271 -30.972841 50.195980 0.362737 2.235770 0.046061 -0.001608 836969.000000 0 0 1
-36.960349 14.293671 -31.241001 50.461635 -0.369015 2.238398 0.060475 -0.001619 1626390.000000 0 0 1
-36.065849 13.240171 -30.816841 49.251653 -0.351836 2.246827 0.070126 0.000417 521136.000000 0 0 1
-35.890749 13.092171 -29.393781 48.203166 -0.349779 2.226591 0.052378 0.003438 -1007040.000000 0 0 1
-34.887749 11.988371 -29.115851 46.995839 -0.330986 2.238954 0.059040 -0.002468 -35681.600000 0 0 1
-35.360249 10.673371 -29.528411 47.288425 -0.293150 2.245201 0.062607 -0.004795 670848.000000 0 0 1
-34.233049 9.828271 -29.502061 46.247899 -0.279579 2.262579 0.065125 -0.006748 252967.000000 0 0 1
-34.631049 8.394271 -29.930181 46.535890 -0.237805 2.269419 0.077058 -0.007252 -508290.000000 0 0 1
-34.972049 8.377371 -31.299011 47.674444 -0.235114 2.286986 0.092643 -0.013577 173523.000000 0 0 1
-35.426549 7.133271 -31.803831 48.139460 -0.198697 2.292494 0.109491 -0.017510 -80701.200000 0 0 1
-36.796849 6.608171 -31.331411 48.778411 -0.177691 2.268319 0.109903 -0.012271 -638429.000000 0 0 1
-36.867649 6.115771 -29.977991 47.909354 -0.164388 2.246855 0.095040 -0.014750 -340866.000000 0 0 1
37.386324 5.410571 -29.778641 48.101757 0.143723 2.238362 0.074720 -0.001032 -709116.000000 0 0 1
37.273824 4.791771 -28.380421 47.092965 0.127855 2.217610 0.079530 -0.006475 -10682.800000 0 0 1
-37.268849 3.702671 -28.236121 46.903682 -0.099025 2.216803 0.097567 -0.000705 359529.000000 0 0 1
-37.531949 3.024671 -27.051761 46.363710 -0.080415 2.193789 0.105828 -0.003461 -268182.000000 0 0 1
-36.856349 1.662171 -26.896941 45.657406 -0.045068 2.200745 0.150246 -0.011998 24216.800000 0 0 1
-35.523749 1.668871 -26.409971 44.296822 -0.046945 2.209562 0.147906 -0.009758 254960.000000 0 0 1
-35.002749 0.355871 -26.422531 43.857374 -0.010167 2.217382 0.161447 -0.017044 266698.000000 0 0 1
-33.683249 0.209971 -25.611701 42.315063 -0.006234 2.220891 0.155624 -0.015449 222179.000000 0 0 1
-33.922549 0.497771 -24.266101 41.711279 -0.014673 2.191692 0.154861 -0.020029 920453.000000 0 0 1
-32.726749 0.442671 -23.490601 40.287025 -0.013525 2.193312 0.172995 -0.016689 759429.000000 0 0 1
-33.294249 0.213671 -22.060501 39.940185 -0.006418 2.155963 0.173477 -0.008444 -97920.300000 0 0 1
-33.535649 -1.180229 -21.905001 40.073205 0.035179 2.149124 0.180769 -0.026579 360220.000000 0 0 1
-33.852149 -1.459129 -20.514801 39.610026 0.043076 2.115213 0.164540 -0.032468 -761715.000000 0 0 1
-35.279549 -1.173029 -20.096201 40.618713 0.033237 2.088346 0.168793 -0.029857 -1424430.000000 0 0 1
-36.148849 -2.239629 -20.221101 41.480696 0.061877 2.080000 0.153130 -0.029595 466699.000000 0 0 1
-37.527449 -1.853229 -20.111501 42.617090 0.049343 2.062254 0.154504 -0.027784 639362.000000 0 0 1
36.983424 -3.064629 -19.981801 42.147811 -0.082676 2.064725 0.144117 -0.032152 -400311.000000 0 0 1
36.624824 -3.835329 -21.127801 42.455524 -0.104339 2.091679 0.124283 -0.021412 -134503.000000 0 0 1
37.701224 -4.506329 -21.704001 43.735031 -0.118963 2.090083 0.122909 -0.024626 -585708.000000 0 0 1
37.355024 -5.278529 -22.998501 44.183614 -0.140378 2.118257 0.112975 -0.021448 -733497.000000 0 0 1
36.788824 -6.488829 -22.641501 43.682492 -0.174585 2.115681 0.129769 -0.018479 182126.000000 0 0 1
36.155024 -7.172729 -23.716201 43.830264 -0.195845 2.142531 0.124173 -0.008046 547390.000000 0 0 1
34.732324 -6.705229 -24.152501 42.832672 -0.190708 2.169873 0.080677 0.005450 -224339.000000 0 0 1
34.584324 -5.497229 -24.864601 42.948148 -0.157633 2.188230 0.099254 -0.003952 -762529.000000 0 0 1
33.269324 -5.412529 -25.285411 42.136628 -0.161275 2.214399 0.069370 -0.003463 -676747.000000 0 0 1
33.012924 -4.297529 -26.298511 42.425624 -0.129449 2.239378 0.108781 -0.039648 30036.400000 0 0 1
33.505124 -4.576429 -27.597711 43.648261 -0.135749 2.255283 0.118082 -0.042029 303228.000000 0 0 1
33.224324 -3.524229 -28.460311 43.889238 -0.105679 2.276353 0.123036 -0.050098 59746.500000 0 0 1
32.576424 -3.855829 -29.833541 44.341076 -0.117814 2.308810 0.135416 -0.044426 113466.000000 0 0 1
31.948224 -2.756029 -30.415921 44.197432 -0.086052 2.329778 0.115667 -0.059374 -67734.200000 0 0 1
31.506024 -3.132229 -31.713321 44.812667 -0.099091 2.357015 0.114883 -0.058447 -531030.000000 0 0 1
30.867724 -1.938929 -32.478761 44.849145 -0.062732 2.380638 0.116638 -0.056168 -213934.000000 0 0 1
29.805124 -1.219529 -31.853361 43.640226 -0.040894 2.388984 0.106889 -0.054703 1425600.000000 0 0 1
28.524224 -1.871829 -31.669941 42.662868 -0.065528 2.407338 0.123424 -0.057148 944740.000000 0 0 1
27.745424 -2.298429 -32.959701 43.144330 -0.082651 2.440194 0.110407 -0.056155 -1219040.000000 0 0 1
28.270724 -3.417629 -33.601801 44.045375 -0.120306 2.438569 0.110359 -0.055754 -244462.000000 0 0 1
27.658824 -3.594429 32.801435 43.056528 -0.129232 0.704674 0.079760 -0.043895 -877568.000000 0 0 1
28.198324 -4.755729 31.862522 42.813348 -0.167081 0.731431 0.064562 -0.045101 946565.000000 0 0 1
29.548824 -4.670229 31.352645 43.335118 -0.156755 0.761948 0.069379 -0.042319 862827.000000 0 0 1
29.879024 -3.524929 30.568815 42.890951 -0.117431 0.777442 0.084899 -0.047379 -648632.000000 0 0 1
30.457024 -2.295429 31.334365 43.757763 -0.075224 0.772616 0.080853 -0.049686 -705911.000000 0 0 1
31.793324 -2.547029 31.702550 44.970596 -0.079941 0.788427 0.083228 -0.047315 -222134.000000 0 0 1
32.499424 -1.340829 31.675834 45.402300 -0.041234 0.798656 0.083626 -0.040174 -482782.000000 0 0 1
34.001924 -1.386629 31.979064 46.698117 -0.040758 0.816461 0.078663 -0.039247 -476612.000000 0 0 1
34.731824 -1.662029 30.815995 46.461678 -0.047817 0.845635 0.092224 -0.039862 -280152.000000 0 0 1
36.077324 -1.820629 31.226535 47.749184 -0.050422 0.857976 0.098801 -0.031022 72216.900000 0 0 1
37.030124 -2.354829 30.141995 47.804971 -0.063507 0.888573 0.119140 -0.032909 1169.950000 0 0 1
37.231524 -1.563529 28.983305 47.208718 -0.041970 0.909754 0.120995 -0.016270 607616.000000 0 0 1
-36.945649 -1.917029 28.394885 46.636097 0.051841 0.916173 0.129798 -0.015845 602696.000000 0 0 1
-36.773249 -1.224429 27.023395 45.651232 0.033284 0.937316 0.125994 -0.005263 127690.000000 0 0 1
-37.659549 -1.629529 26.000105 45.791948 0.043243 0.966980 0.128727 -0.026720 -293068.000000 0 0 1
-37.289549 -1.066229 24.815705 44.804760 0.028585 0.983799 0.130396 -0.024336 -43053.800000 0 0 1
-27.097116 15.005771 12.434599 33.377329 -0.505739 1.189045 0.116955 -0.005210 -409458.000000 0 0 1
-28.402026 14.587471 12.175499 34.171803 -0.474474 1.206489 0.107482 0.003939 -317468.000000 0 0 1
-29.378296 15.455071 12.717999 35.548431 -0.484286 1.204923 0.117536 -0.004093 -260836.000000 0 0 1
-30.661976 14.672071 13.021899 36.400498 -0.446309 1.204950 0.125548 0.001361 -43208.700000 0 0 1
-31.580956 15.454371 13.796899 37.769681 -0.455097 1.196852 0.123089 -0.007231 348458.000000 0 0 1
-32.745166 14.716071 14.146999 38.586866 -0.422365 1.195415 0.137392 -0.015922 538015.000000 0 0 1
-33.608976 15.313171 15.298899 39.976403 -0.427524 1.178081 0.119175 -0.012886 121008.000000 0 0 1
-33.017306 15.298271 16.561399 39.980739 -0.433893 1.143695 0.099731 -0.007153 93725.300000 0 0 1
-33.854346 15.947871 17.500799 41.312580 -0.440239 1.133359 0.112481 -0.025968 506531.000000 0 0 1
-32.976106 16.294571 18.741699 41.281810 -0.458943 1.099553 0.145590 -0.020209 316010.000000 0 0 1
-32.446046 15.158571 19.434999 40.746133 -0.437059 1.073583 0.151682 -0.024937 24211.300000 0 0 1
-31.630406 15.560171 20.551199 40.803839 -0.457177 1.042968 0.124928 -0.013780 234081.000000 0 0 1
-32.323766 15.848671 21.921399 42.149187 -0.455866 1.023839 0.134493 -0.024621 -713726.000000 0 0 1
-33.100166 16.994271 21.860999 43.154716 -0.474325 1.039591 0.144076 -0.027652 14220.300000 0 0 1
-33.738416 17.516071 23.060799 44.462275 -0.478868 1.025514 0.152782 -0.035247 21403.400000 0 0 1
-34.836652 16.566171 23.617699 45.230808 -0.443888 1.021415 0.145205 -0.040126 493804.000000 0 0 1
-36.099556 16.407171 22.958899 45.820129 -0.426588 1.045966 0.145478 -0.030867 746111.000000 0 0 1
-37.008226 17.467971 23.039999 46.963606 -0.441000 1.058027 0.145042 -0.035477 689542.000000 0 0 1
36.904898 17.087571 22.801299 46.624627 0.433625 1.059808 0.146159 -0.033483 1148090.000000 0 0 1
36.364008 16.327871 23.840899 46.447055 0.422032 1.031780 0.142867 -0.038676 -167169.000000 0 0 1
35.023178 15.949271 23.603199 45.145468 0.427329 1.020634 0.135871 -0.041436 295470.000000 0 0 1
34.383208 15.180371 24.790899 45.024853 0.415767 0.987708 0.077601 -0.023586 -102471.000000 0 0 1
33.936928 15.883871 25.906399 45.553858 0.437755 0.965874 0.109831 -0.029549 -9903.320000 0 0 1
34.101208 15.185771 27.186799 46.180321 0.418951 0.941335 0.097779 -0.019548 205345.000000 0 0 1
33.278238 13.862471 27.430299 45.299344 0.394702 0.920359 0.094139 -0.017097 183403.000000 0 0 1
33.810808 12.647971 26.865299 44.998736 0.357964 0.931011 0.089744 -0.025229 -487117.000000 0 0 1
32.951678 11.558571 26.941599 44.105140 0.337364 0.913663 0.076988 -0.019094 -389948.000000 0 0 1
33.596808 10.190371 26.699499 44.107283 0.294494 0.920615 0.081848 -0.012930 80533.100000 0 0 1
34.593518 9.780271 27.637499 45.345304 0.275529 0.915379 0.092568 -0.011619 200997.000000 0 0 1
35.054838 8.444871 27.428799 45.304487 0.236400 0.920487 0.110658 -0.004622 975317.000000 0 0 1
36.289688 8.064371 28.341999 46.746598 0.218669 0.919409 0.115258 -0.010071 1011600.000000 0 0 1
37.522058 8.735571 28.183899 47.734131 0.228737 0.939199 0.125146 -0.017632 160705.000000 0 0 1
-36.841526 8.008771 28.746299 47.410844 -0.214054 0.919367 0.131392 -0.025850 270688.000000 0 0 1
-35.468085 8.706571 28.739499 46.473091 -0.240716 0.904076 0.141907 -0.030252 -106185.000000 0 0 1
-34.763723 8.857771 27.553899 45.234875 -0.249490 0.915834 0.128435 -0.023873 -670234.000000 0 0 1
-33.505216 9.355071 27.884999 44.583517 -0.272278 0.895081 0.124361 -0.018687 -566644.000000 0 0 1
-32.790206 10.060371 26.690399 43.460166 -0.297693 0.909507 0.115092 -0.023396 204514.000000 0 0 1
-32.022666 9.100971 25.946999 42.208122 -0.276903 0.908741 0.103522 -0.023088 145747.000000 0 0 1
-31.366746 9.722871 24.896499 41.209739 -0.300582 0.922109 0.095694 -0.022107 -170389.000000 0 0 1
-30.631616 8.813871 23.927499 39.856059 -0.280169 0.926860 0.097064 -0.015763 331717.000000 0 0 1
-29.788866 9.485571 22.970799 38.794461 -0.308275 0.937115 0.095788 -0.022598 209924.000000 0 0 1
-29.031676 8.596771 22.214199 37.552807 -0.287891 0.937822 0.084834 -0.013457 178529.000000 0 0 1
-27.878366 9.288871 21.420399 36.363717 -0.321624 0.940902 0.078782 -0.012164 329639.000000 0 0 1
-26.762276 9.831571 22.197299 36.133077 -0.352062 0.909271 0.071773 -0.017881 1608470.000000 0 0 1
-25.755636 10.433071 21.357299 35.047624 -0.384877 0.915519 0.057003 -0.009383 1076830.000000 0 0 1
-24.960976 9.607371 20.256399 33.551059 -0.367418 0.922601 0.051061 -0.008928 -317627.000000 0 0 1
-25.757916 9.316671 19.111799 33.399572 -0.347061 0.961590 0.058128 -0.012636 493825.000000 0 0 1
-25.056986 8.645171 18.048199 32.067569 -0.332232 0.973005 0.064159 -0.024895 87756.600000 0 0 1
-24.798776 7.104271 18.234099 31.590067 -0.279004 0.955489 0.073088 -0.017328 633572.000000 0 0 1
-23.618476 6.812671 19.035699 31.090235 -0.280824 0.911865 0.074363 -0.016403 1253870.000000 0 0 1
-23.476076 5.472771 19.519199 31.017358 -0.229031 0.890145 0.091508 -0.018855 -170226.000000 0 0 1
-23.484676 4.332171 18.467899 30.188756 -0.182417 0.912528 0.105209 -0.025185 -451858.000000 0 0 1
-24.798276 4.109071 17.998799 30.915946 -0.164208 0.949383 0.124758 -0.030941 243340.000000 0 0 1
-24.995866 3.169871 16.915299 30.347466 -0.126142 0.979560 0.126388 -0.028732 -150470.000000 0 0 1
-24.872576 1.706971 17.325999 30.360320 -0.068521 0.963464 0.127750 -0.021281 132571.000000 0 0 1
-23.578976 1.160371 17.556799 29.420329 -0.049172 0.931342 0.111122 -0.020925 476238.000000 0 0 1
-23.684876 -0.108729 18.189399 29.863680 0.004591 0.915895 0.120344 -0.022136 -624272.000000 0 0 1
-22.391176 -0.833329 18.511199 29.064130 0.037200 0.880314 0.114467 -0.013588 -701086.000000 0 0 1
-21.529776 -0.357029 19.502299 29.051650 0.016582 0.834838 0.100840 -0.015677 -652797.000000 0 0 1
-20.626676 -1.309529 19.863599 28.665959 0.063402 0.805247 0.100904 -0.010480 -192799.000000 0 0 1
-19.623076 -0.825929 20.973699 28.734010 0.042065 0.752583 0.105641 -0.019899 639696.000000 0 0 1
-20.200376 -0.790629 22.244399 30.058170 0.039119 0.737659 0.109629 -0.025920 -102205.000000 0 0 1
-19.187176 -0.579829 23.193399 30.106771 0.030210 0.691373 0.121650 -0.030577 -154640.000000 0 0 1
-19.732876 -0.711729 24.633899 31.570903 0.036053 0.675695 0.114452 -0.025658 71059.500000 0 0 1
-20.474476 0.357471 25.170699 32.448359 -0.017458 0.682948 0.116337 -0.037188 100405.000000 0 0 1
-21.866176 0.247271 24.891799 33.132951 -0.011308 0.720812 0.087990 -0.028202 -47318.400000 0 0 1
-22.665076 1.390271 25.530999 34.168266 -0.061263 0.726937 0.085071 -0.030227 -118618.000000 0 0 1
-22.253776 2.593671 24.926699 33.515638 -0.116026 0.732158 0.080448 -0.025127 1281160.000000 0 0 1
-23.312476 2.977871 23.995799 33.587760 -0.127049 0.775000 0.080305 -0.019320 345970.000000 0 0 1
-22.925576 4.218871 23.115299 32.828310 -0.181989 0.789603 0.092696 -0.016829 -68831.500000 0 0 1
-22.234076 3.945171 21.938299 31.483447 -0.175610 0.799842 0.106235 -0.023881 1120080.000000 0 0 1
-20.828276 3.654571 22.102199 30.588889 -0.173694 0.763303 0.099988 -0.025602 558899.000000 0 0 1
-20.234576 2.862271 20.911499 29.239040 -0.140522 0.773899 0.095151 -0.028543 -284537.000000 0 0 1
-19.761576 3.509071 19.787199 28.184512 -0.175739 0.792511 0.098998 -0.018030 -5501.100000 0 0 1
-19.266376 2.603671 18.877699 27.098706 -0.134327 0.800111 0.094771 -0.024393 -19849.900000 0 0 1
-18.715476 3.147971 17.543399 25.844721 -0.166642 0.824669 0.072808 -0.021540 787123.000000 0 0 1
-17.480276 3.899071 17.651999 25.146687 -0.219463 0.792649 0.088469 -0.030656 892460.000000 0 0 1
-17.071076 4.471571 16.417399 24.102854 -0.256183 0.821479 0.087007 -0.028401 -51566.200000 0 1 0
-15.614176 4.967171 16.294399 23.108066 -0.307996 0.788177 0.083984 -0.025281 39371.600000 0 1 0
-15.268376 6.082871 17.174399 23.771508 -0.379123 0.763416 0.083828 -0.031352 175445.000000 0 1 0
-15.947376 7.337871 16.961399 24.410084 -0.431246 0.802582 0.099769 -0.041925 -65319.400000 0 1 0
-15.491876 8.177771 15.676099 23.507748 -0.485698 0.840825 0.064256 -0.033209 34594.500000 0 1 0
-15.975276 7.709071 14.450199 22.878974 -0.449601 0.887190 0.097744 -0.031020 -237236.000000 0 1 0
-17.344276 7.928771 14.242199 23.801881 -0.428776 0.929338 0.066613 -0.031022 -411864.000000 0 1 0
-17.837576 7.121071 13.035899 23.212570 -0.379832 0.974493 0.067802 -0.028249 -233408.000000 0 1 0
-17.822076 5.717971 13.282499 22.950955 -0.310461 0.953621 0.076855 -0.026220 110855.000000 0 1 0
-18.178576 4.921271 12.142699 22.408138 -0.264381 0.998115 0.060828 -0.031961 127664.000000 0 1 0
-17.785776 3.492671 12.416699 21.970594 -0.193907 0.970180 0.058567 -0.015395 -18757.200000 0 1 0
-18.370276 2.933671 13.571399 23.027295 -0.158359 0.940528 0.067100 -0.021862 120037.000000 0 1 0
-17.967876 1.580171 13.730699 22.668780 -0.087719 0.920139 0.059563 -0.017052 -261331.000000 0 1 0
-18.858476 0.829671 14.762399 23.963699 -0.043966 0.907101 0.074534 -0.021059 623962.000000 0 1 0
-20.200576 0.824271 14.261599 24.741380 -0.040782 0.956447 0.092975 -0.016886 235064.000000 0 1 0
-21.029776 0.073871 15.071599 25.872959 -0.003513 0.948967 0.102284 -0.030185 153096.000000 0 0 1
-22.494676 -0.165229 14.587799 26.811222 0.007345 0.995489 0.115779 -0.026794 338239.000000 0 0 1
-22.573576 -1.081029 13.590199 26.370977 0.047853 1.029384 0.125036 -0.029183 108175.000000 0 0 1
-23.895076 -1.357829 13.204599 27.334589 0.056764 1.066635 0.152541 -0.025712 -329722.000000 0 0 1
-23.959676 -2.470929 12.095299 26.953067 0.102765 1.105426 0.152809 -0.034770 -193642.000000 0 0 1
-23.684376 -3.768929 12.650699 27.114473 0.157808 1.085392 0.129794 -0.030086 375205.000000 0 0 1
-23.814176 -4.703829 11.604799 26.905619 0.195012 1.124846 0.128075 -0.033398 -204635.000000 0 0 1
-23.845976 -6.127629 12.171699 27.465044 0.251525 1.111664 0.116365 -0.030842 233090.000000 0 0 1
-25.010636 -6.446029 12.923399 28.880745 0.252242 1.106857 0.121866 -0.029249 437811.000000 0 0 1
-25.159496 -7.835929 13.180599 29.464049 0.301928 1.107002 0.131308 -0.036512 228755.000000 0 0 1
-26.027876 -8.098429 14.480599 30.866205 0.301649 1.082479 0.149987 -0.028300 -206757.000000 0 0 1
-27.296496 -7.583429 14.290199 31.730377 0.270983 1.103624 0.139481 -0.025974 -804897.000000 0 0 1
-28.203736 -7.772129 15.363099 33.043630 0.268897 1.087237 0.145265 -0.012806 602146.000000 0 0 1
-29.528176 -6.909029 15.205999 33.924479 0.229846 1.106011 0.151632 -0.020973 940146.000000 0 0 1
-30.466026 -7.262729 14.196199 34.386887 0.234020 1.145229 0.144291 -0.010096 744646.000000 0 0 1
-31.120976 -8.517929 14.079399 35.203689 0.267161 1.159344 0.145761 -0.021826 201051.000000 0 0 1
-31.737676 -9.262329 15.311099 36.434881 0.283954 1.137095 0.139934 -0.017121 171137.000000 0 0 1
-30.643436 -9.525529 16.191599 35.943341 0.301381 1.103498 0.141593 0.000780 385861.000000 0 0 1
-31.027826 -10.116829 17.414499 36.991093 0.315187 1.080627 0.140067 0.010161 -211959.000000 0 0 1
-29.863626 -10.402129 18.381199 36.577437 0.335178 1.044276 0.177818 -0.007136 941769.000000 0 0 1
-28.885946 -11.342429 17.811299 35.781153 0.374165 1.049754 0.182905 -0.011112 638306.000000 0 0 1
-27.740706 -11.440029 18.615299 35.312184 0.391143 1.015537 0.177453 -0.021968 -34637.900000 0 0 1
-26.621676 -12.377629 18.102399 34.490813 0.435213 1.018261 0.154590 -0.018064 100149.000000 0 0 1
-25.969746 -11.902429 16.906399 33.195208 0.429750 1.036422 0.139695 -0.016315 -2435.430000 0 0 1
-24.903276 -12.771229 16.684699 32.583072 0.473861 1.033207 0.121949 -0.023595 -502635.000000 0 0 1
-24.189076 -12.644829 15.349799 31.314843 0.481681 1.058504 0.120695 -0.023218 178226.000000 0 0 1
-23.240876 -11.580529 15.213699 30.094910 0.462273 1.040807 0.110961 -0.023504 -85259.400000 0 0 1
-22.574176 -11.759829 14.026899 29.062706 0.480260 1.067127 0.116070 -0.020140 -619698.000000 0 0 1
-21.307476 -10.927529 13.877699 27.676885 0.473874 1.045559 0.111429 -0.036619 -598064.000000 0 0 1
-21.525876 -9.536329 13.694699 27.236917 0.417032 1.043962 0.108293 -0.045897 142016.000000 0 0 1
-20.344076 -8.781129 13.470999 25.931785 0.407474 1.024556 0.109821 -0.046642 39460.700000 0 0 1
-19.835776 -8.694529 11.992199 24.756124 0.413103 1.065104 0.115577 -0.040347 -474033.000000 0 1 0
-19.208676 -9.861129 11.580499 24.501491 0.474285 1.078507 0.105993 -0.047584 29680.700000 0 1 0
-19.042676 -9.865629 10.152199 23.728069 0.478007 1.128677 0.120110 -0.035254 -897676.000000 0 1 0
-18.238476 -11.064929 9.552999 23.373798 0.545317 1.149761 0.078028 -0.028006 1271270.000000 0 1 0
-16.818976 -11.125229 9.810299 22.425223 0.584395 1.118016 0.086377 -0.034782 1587050.000000 0 1 0
-16.437476 -11.264229 11.218399 22.867574 0.600776 1.058040 0.097288 -0.027747 44243.700000 0 1 0
-14.942076 -11.690329 11.416599 22.142000 0.663902 1.029079 0.110140 -0.023440 795517.000000 0 1 0
-14.643376 -13.035629 10.998199 22.479245 0.727378 1.059555 0.100221 -0.028740 293894.000000 0 1 0
-13.253676 -13.282829 10.916599 21.708653 0.786497 1.043882 0.119003 -0.036178 113027.000000 0 1 0
-12.887576 -14.783429 10.867499 22.421907 0.853805 1.064797 0.134225 -0.037390 -138179.000000 0 1 0
-13.176876 -15.378529 9.626699 22.423259 0.862347 1.127059 0.102668 -0.040614 282826.000000 0 1 0
-13.039976 -16.785429 9.817199 23.413009 0.910324 1.138116 0.081757 -0.028977 15580.400000 0 1 0
-13.369276 -17.660629 8.612099 23.765597 0.922824 1.199980 0.063109 -0.019024 61465.700000 0 1 0
-12.603876 -17.329729 7.442299 22.684025 0.941984 1.236520 0.079546 -0.034904 67901.200000 0 1 0
-12.901476 -18.205229 6.342199 23.197024 0.954276 1.293864 0.060859 -0.025815 -225107.000000 0 1 0
-11.999376 -18.013029 5.109099 22.238640 0.983152 1.338986 0.057450 -0.021927 -76190.500000 0 1 0
-12.422676 -18.728629 3.990399 22.825593 0.985129 1.395072 0.076133 -0.028438 1267850.000000 0 1 0
-11.318076 -18.785229 3.017899 22.138007 1.028542 1.434048 0.080467 -0.032471 1242480.000000 0 1 0
-11.489776 -19.667529 1.780899 22.847281 1.042075 1.492769 0.093614 -0.033225 -129555.000000 0 1 0
-11.439076 -21.008929 2.088399 24.012267 1.072196 1.483714 0.091697 -0.041870 -417549.000000 0 1 0
-11.840376 -21.922929 1.105999 24.940580 1.075593 1.526436 0.100083 -0.044071 -590744.000000 0 1 0
-10.965076 -22.043529 -0.160401 24.620637 1.109208 1.577311 0.117134 -0.046330 -130817.000000 0 1 0
-11.120776 -21.065129 -1.166401 23.848937 1.085060 1.619724 0.124731 -0.056151 112789.000000 0 1 0
-12.166676 -21.324529 -2.090001 24.640041 1.052314 1.655720 0.132964 -0.043115 703074.000000 0 1 0
-13.515776 -20.554529 -1.873501 24.671337 0.989127 1.646808 0.151793 -0.029648 385597.000000 0 1 0
-14.086976 -20.882429 -0.618301 25.197242 0.977332 1.595337 0.133736 -0.022752 214440.000000 0 0 1
-14.992776 -19.850429 -0.186701 24.876851 0.923920 1.578301 0.133481 -0.011995 348519.000000 0 1 0
26.630524 -19.779529 -4.406401 33.463876 -0.638838 1.702856 0.115586 -0.020956 -63758.600000 0 0 1
25.525324 -20.026129 -3.567501 32.639165 -0.665255 1.680316 0.093722 -0.018019 61304.700000 0 0 1
25.706124 -21.124629 -2.718001 33.383264 -0.687878 1.652305 0.093613 -0.014660 362604.000000 0 0 1
24.372224 -21.349329 -1.904101 32.456506 -0.719379 1.629496 0.072650 -0.015680 530941.000000 0 0 1
23.391224 -21.824029 -2.791301 32.112754 -0.750751 1.657828 0.080937 -0.020735 -956391.000000 0 0 1
22.250124 -22.142029 -2.050701 31.457000 -0.782963 1.636033 0.052683 -0.015222 -812099.000000 0 0 1
21.175124 -22.763529 -2.928301 31.227217 -0.821533 1.664708 0.074446 -0.020128 -487008.000000 0 0 1
20.483524 -21.821829 -3.706901 30.158052 -0.817022 1.694024 0.080686 -0.022752 -633193.000000 0 0 1
19.746724 -22.451329 -4.763901 30.276890 -0.849404 1.728797 0.083898 -0.019155 683726.000000 0 0 1
18.646024 -21.428429 -5.292401 28.893966 -0.854718 1.755003 0.062708 -0.009099 914077.000000 0 0 1
17.578624 -21.038029 -4.407001 27.767397 -0.874743 1.730182 0.060208 -0.001731 693593.000000 0 0 1
17.971724 -20.389329 -3.164601 27.362791 -0.848337 1.686709 0.060041 -0.009769 -657850.000000 0 0 1
16.765424 -19.879429 -2.321301 26.108611 -0.870172 1.659823 0.066001 -0.001940 143752.000000 0 0 1
16.261324 -20.912829 -1.521101 26.534710 -0.909879 1.628153 0.069034 -0.012526 82441.300000 0 0 1
15.492824 -20.277529 -0.496901 25.523571 -0.918371 1.590266 0.077525 -0.009324 -34628.600000 0 0 1
15.167324 -21.085629 0.770499 25.985480 -0.947221 1.541141 0.092932 -0.009633 133001.000000 0 0 1
14.213824 -22.115329 0.584699 26.295674 -0.999560 1.548559 0.077078 -0.010504 -126089.000000 0 0 1
13.439424 -22.272629 1.731199 26.070772 -1.027877 1.504344 0.077732 -0.013368 -46853.800000 0 0 1
12.551724 -23.545829 1.658499 26.733920 -1.081039 1.508719 0.080662 -0.016857 189109.000000 0 0 1
13.280324 -24.729029 1.906599 28.134090 -1.077962 1.502976 0.097708 -0.025361 -2353.920000 0 0 1
12.514724 -25.864859 1.607899 28.778370 -1.120152 1.514895 0.081920 -0.022250 -97975.300000 0 0 1
12.934524 -27.144569 2.306099 30.157050 -1.126121 1.494252 0.094593 -0.021623 65873.900000 0 0 1
12.375524 -27.206149 3.602799 30.104955 -1.143892 1.450834 0.109865 -0.025476 294782.000000 0 0 1
12.977124 -28.274549 4.308399 31.407295 -1.140509 1.433184 0.098784 -0.027396 295865.000000 0 0 1
12.281324 -28.492319 5.685999 31.543205 -1.163821 1.389545 0.103874 -0.030911 -273243.000000 0 0 1
12.974124 -29.407419 6.428299 32.778762 -1.155297 1.373405 0.101103 -0.032802 -380641.000000 0 0 1
12.415324 -29.664059 7.691999 33.064536 -1.174418 1.336009 0.095209 -0.037312 -132006.000000 0 0 1
13.095324 -30.912179 8.314799 34.585925 -1.170087 1.328008 0.091650 -0.038717 -333467.000000 0 0 1
12.746624 -31.213839 9.617399 35.061012 -1.183100 1.292930 0.079225 -0.034900 -639815.000000 0 0 1
11.593724 -31.943279 9.896299 35.393845 -1.222634 1.287414 0.070900 -0.029603 -344334.000000 0 0 1
11.417324 -32.098849 11.414999 35.930399 -1.229059 1.247496 0.065766 -0.018561 155580.000000 0 0 1
12.565124 -32.764599 11.970999 37.077029 -1.204597 1.242038 0.058046 -0.019680 632473.000000 0 0 1
12.648124 -33.082429 13.317199 37.838736 -1.205622 1.211147 0.064319 -0.015180 -199766.000000 0 0 1
11.704324 33.507068 13.753399 38.064036 1.234737 1.201110 0.059108 -0.019440 17821.800000 0 0 1
11.998124 32.299862 13.133699 36.874519 1.215132 1.206627 0.069624 -0.021384 242313.000000 0 0 1
10.985724 31.328138 13.389299 35.796812 1.233528 1.187439 0.068440 -0.020925 210306.000000 0 0 1
10.892424 30.269758 12.258799 34.426463 1.225378 1.206720 0.074942 -0.021905 -89985.200000 0 0 1
10.428424 30.659988 10.977099 34.194789 1.242940 1.243993 0.060523 -0.018643 -241306.000000 0 0 1
11.274324 31.514788 10.280399 35.013981 1.227237 1.272797 0.048750 -0.016714 -342620.000000 0 0 1
10.786324 31.770669 8.841699 34.697203 1.243501 1.313130 0.040925 -0.015562 1333420.000000 0 0 1
9.453424 32.374476 8.881199 34.876205 1.286693 1.313311 0.042422 -0.020528 1082590.000000 0 0 1
8.989724 32.556978 7.560499 34.611171 1.301387 1.350580 0.034233 -0.019598 -356048.000000 0 0 1
9.571124 33.760208 6.801099 35.743713 1.294542 1.379355 0.049194 -0.011801 -195519.000000 0 0 1
9.206024 -32.771099 7.469499 34.849523 -1.296936 1.354785 0.050224 -0.023365 64754.400000 0 0 1
9.460224 -31.654279 6.679899 33.706235 -1.280385 1.371296 0.076780 -0.037784 -153234.000000 0 0 1
8.433824 -30.541959 6.960299 32.440506 -1.301372 1.354559 0.068032 -0.031217 -183175.000000 0 0 1
8.633424 -30.002049 8.215799 32.282477 -1.290605 1.313469 0.082204 -0.034769 -75840.800000 0 0 1
8.074024 -28.733009 8.302699 30.979194 -1.296859 1.299471 0.087534 -0.032377 -446751.000000 0 0 1
8.916024 -27.590899 7.723899 30.006863 -1.258238 1.310461 0.110033 -0.037954 -303926.000000 0 0 1
9.826524 -27.049029 8.661699 30.053878 -1.222335 1.278444 0.108710 -0.036528 -52155.500000 0 0 1
10.624724 -25.960689 8.204399 29.225918 -1.182331 1.286249 0.115097 -0.038032 -109899.000000 0 0 1
10.022424 -24.782429 7.437499 27.747688 -1.186488 1.299438 0.114614 -0.039032 -562394.000000 0 0 1
9.785324 -25.203809 6.119199 27.720555 -1.200462 1.348217 0.111286 -0.035575 -205968.000000 0 0 1
8.834824 -24.387029 5.448199 26.504041 -1.223228 1.363759 0.106869 -0.030680 397286.000000 0 0 1
8.541324 -24.856229 4.035299 26.590787 -1.239808 1.418452 0.096017 -0.025665 572948.000000 0 0 1
7.561224 -25.893729 3.939799 27.261316 -1.286686 1.425769 0.065574 -0.028765 272771.000000 0 0 1
8.212724 -27.153499 4.028799 28.652968 -1.277088 1.429722 0.072307 -0.030758 360350.000000 0 0 1
7.282124 -28.346919 3.676799 29.497390 -1.319341 1.445823 0.063831 -0.023579 -128512.000000 0 0 1
6.215624 -28.476569 4.581699 29.504931 -1.355895 1.414879 0.055625 -0.024691 -101436.000000 0 0 1
5.237924 -29.474309 4.275799 30.239927 -1.394921 1.428925 0.045362 -0.020040 287028.000000 0 0 1
5.542924 -30.994939 4.547099 31.813305 -1.393834 1.427374 0.038968 -0.013889 -623423.000000 0 0 1
6.541524 -31.379209 3.645699 32.260462 -1.365273 1.457546 0.042253 -0.007521 -223550.000000 0 0 1
6.774724 -32.782379 3.840299 33.694646 -1.367008 1.456575 0.036700 -0.010037 -232331.000000 0 0 1
7.925024 -33.314659 2.969099 34.372781 -1.337253 1.484309 0.039805 -0.007870 -298452.000000 0 0 1
7.619724 -33.584289 1.596999 34.474847 -1.347690 1.524456 0.050779 -0.009257 23694.000000 0 0 1
8.378724 33.083176 1.002099 34.142404 1.322750 1.541442 0.045826 -0.006652 21482.800000 0 0 1
7.817824 32.714043 -0.376101 33.637307 1.336221 1.581978 0.059023 -0.002127 72555.000000 0 0 1
6.681024 31.890948 -0.331601 32.584945 1.364287 1.580973 0.038670 0.001292 -772428.000000 0 0 1
5.517024 32.529101 -0.763101 33.002459 1.402792 1.593921 0.043626 -0.007948 27839.200000 0 0 1
4.255124 31.637628 -0.517601 31.926690 1.437103 1.587009 0.047831 -0.015395 262546.000000 0 0 1
4.121224 30.548288 -1.452301 30.859222 1.436697 1.617876 0.054946 -0.011806 -289760.000000 0 0 1
3.082624 29.682318 -1.064801 29.860951 1.467313 1.606463 0.062588 -0.025097 -125496.000000 0 0 1
2.874124 28.664628 -2.128001 28.886846 1.470863 1.644530 0.060125 -0.023942 -177558.000000 0 0 1
2.351524 29.192518 -3.316401 29.474248 1.490418 1.683554 0.073502 -0.038660 -109542.000000 0 0 1
2.114224 28.107598 -4.148801 28.490693 1.495719 1.716935 0.083009 -0.045374 -297307.000000 0 0 1
1.830924 28.607818 -5.585701 29.205472 1.506883 1.763237 0.094105 -0.047180 27325.100000 0 0 1
0.610324 29.326038 -5.639601 29.869619 1.549988 1.760744 0.104685 -0.048919 106691.000000 0 0 1
0.445524 30.226678 -6.729301 30.969890 1.556058 1.789829 0.097612 -0.039688 -149132.000000 0 0 1
0.341824 29.724368 -8.207801 30.838659 1.559297 1.840196 0.105246 -0.036545 -358875.000000 0 0 1
-0.918776 29.162128 -8.537001 30.399906 -1.539301 1.855448 0.094835 -0.029010 226213.000000 0 0 1
-1.149376 28.746798 -9.881601 30.419492 -1.530835 1.901643 0.093282 -0.023077 -208913.000000 0 0 1
-1.184776 29.880548 -10.950001 31.845775 -1.531167 1.921805 0.073612 -0.022778 260922.000000 0 0 1
0.011924 30.648588 -11.186201 32.626173 1.570407 1.920756 0.081955 -0.020617 444005.000000 0 0 1
-0.279676 31.984104 -11.454301 33.974434 -1.562052 1.914679 0.071360 -0.026069 245424.000000 0 0 1
-0.542376 32.944665 -10.264801 34.511031 -1.554335 1.872802 0.074420 -0.034473 -59953.300000 0 0 1
0.673524 33.114309 -9.574501 34.477271 1.550460 1.852200 0.071674 -0.039943 -65428.900000 0 0 1
0.540424 -33.695829 -8.454501 34.744489 -1.554759 1.816598 0.077445 -0.036111 -90368.100000 0 0 1
1.794024 -33.441809 -7.589801 34.339164 -1.517202 1.793661 0.069099 -0.037656 291298.000000 0 0 1
2.880624 -32.747599 -8.182201 33.877008 -1.483058 1.814735 0.070336 -0.032676 78915.000000 0 0 1
3.796924 -32.400799 -7.161101 33.399248 -1.454142 1.786883 0.068678 -0.034339 -610214.000000 0 0 1
5.022324 -31.550369 -7.632101 32.846590 -1.412936 1.805296 0.068516 -0.032276 363989.000000 0 0 1
5.833024 -32.218369 -8.568201 33.844668 -1.391690 1.826744 0.078266 -0.022279 -58523.400000 0 0 1
6.711424 -33.148139 -7.988101 34.751289 -1.371029 1.802735 0.093877 -0.010832 -1488690.000000 0 0 1
6.750024 33.182824 -8.637301 34.946611 1.370115 1.820541 0.084034 -0.015957 -849870.000000 0 0 1
5.646824 32.359067 -8.492301 33.928086 1.398031 1.823790 0.072368 -0.022443 -1042200.000000 0 0 1
4.739024 32.574281 -9.533501 34.269955 1.426326 1.852704 0.073388 -0.024539 -536689.000000 0 0 1
3.685524 31.477108 -9.649801 33.128690 1.454241 1.866363 0.065997 -0.034189 -374521.000000 0 0 1
4.208624 30.289078 -10.179101 32.229720 1.432732 1.892127 0.073807 -0.030966 -285269.000000 0 0 1
3.278224 29.260018 -10.351601 31.209791 1.459224 1.908878 0.068642 -0.027455 -414240.000000 0 0 1
3.871224 28.117918 -11.182601 30.506627 1.433978 1.946109 0.073056 -0.027816 33519.800000 0 0 1
3.948924 28.486748 -12.567901 31.385362 1.433051 1.982791 0.070382 -0.022839 511735.000000 0 0 1
4.916624 27.719638 -13.316801 31.143037 1.395252 2.012634 0.069367 -0.027391 554188.000000 0 0 1
5.206724 28.307468 -14.710001 32.323472 1.388895 2.043267 0.071159 -0.021551 408548.000000 0 0 1
4.120124 27.983588 -15.573901 32.289364 1.424613 2.074101 0.072698 -0.017390 495549.000000 0 0 1
4.421824 28.359698 -16.896101 33.306204 1.416122 2.102840 0.109660 -0.020207 447153.000000 0 0 1
3.305124 27.817098 -17.847101 33.214964 1.452534 2.138054 0.097343 -0.022487 400965.000000 0 0 1
3.340424 26.470668 -18.124801 32.254660 1.445266 2.167511 0.122612 -0.015242 137542.000000 0 0 1
2.468624 26.024368 -19.180501 32.423039 1.476221 2.203801 0.109711 -0.031558 367981.000000 0 0 1
3.115524 24.955798 -20.077201 32.180621 1.446597 2.244508 0.128758 -0.035777 109736.000000 0 0 1
3.301324 23.740958 -19.410401 30.843079 1.432626 2.251484 0.125605 -0.033137 30569.500000 0 0 1
4.411124 23.063898 -19.978401 30.830795 1.381822 2.275754 0.128997 -0.028236 124021.000000 0 0 1
4.905224 21.920398 -19.081401 29.473122 1.350649 2.274987 0.125950 -0.028770 -28666.400000 0 0 1
4.010624 20.852898 -18.870201 28.407973 1.380787 2.297296 0.141798 -0.028170 -353093.000000 0 0 1
4.561724 19.943098 -17.926801 27.201226 1.345928 2.290343 0.132898 -0.030256 85068.000000 0 0 1
3.738724 18.706098 -17.533901 25.910111 1.373529 2.314095 0.116303 -0.040219 -178021.000000 0 0 1
2.676024 18.957398 -16.634201 25.362190 1.430563 2.286126 0.110364 -0.039778 11354.100000 0 0 1
1.753824 17.883498 -16.553701 24.431955 1.473039 2.315213 0.068338 -0.029471 82321.900000 0 1 0
2.151124 16.751598 -15.545201 22.954229 1.443082 2.314782 0.067555 -0.027238 -310292.000000 0 1 0
3.209324 15.897498 -15.906601 22.716738 1.371598 2.346495 0.085337 -0.039337 -483490.000000 0 1 0
3.121824 14.931898 -16.938601 22.795253 1.364694 2.408451 0.087421 -0.038746 -332674.000000 0 1 0
3.037624 15.273498 -18.426101 24.125259 1.374476 2.439927 0.082564 -0.039735 538372.000000 0 1 0
4.308624 15.799798 -18.871001 24.986247 1.304569 2.426840 0.110614 -0.044317 559153.000000 0 1 0
4.387624 16.155198 -20.255101 26.277572 1.305601 2.450913 0.099748 -0.045353 -266656.000000 0 0 1
4.652824 14.940198 -21.209701 26.357346 1.268887 2.505963 0.110714 -0.053454 -109858.000000 0 0 1
3.658024 13.963498 -21.335401 25.759654 1.314583 2.546772 0.087699 -0.049860 -493532.000000 0 0 1
2.533124 14.325998 -22.109601 26.466685 1.395785 2.559611 0.086263 -0.050325 -134970.000000 0 0 1
1.597424 13.171698 -22.380701 26.018093 1.450109 2.606453 0.079668 -0.040566 -454630.000000 0 0 1
0.774024 12.673398 -21.373301 24.860252 1.509797 2.605553 0.076861 -0.034078 -210035.000000 0 1 0
0.048624 11.610398 -21.952001 24.833326 1.566608 2.655090 0.041093 -0.026739 -272588.000000 0 1 0
-0.508676 10.657298 -20.884501 23.452060 -1.523102 2.669281 0.019143 -0.019545 -1117560.000000 0 1 0
-1.595976 11.229998 -20.216401 23.181089 -1.429625 2.630289 0.018353 -0.018060 -479113.000000 0 1 0
-2.134676 10.445798 -19.205501 21.966402 -1.369215 2.634814 0.009773 -0.012238 17696.700000 0 1 0
-3.128376 9.367898 -19.718101 22.053294 -1.248494 2.677239 0.010656 -0.012033 -605695.000000 0 1 0
-2.533076 8.349898 -20.472901 22.254818 -1.276254 2.738701 0.004850 -0.011002 -260362.000000 0 1 0
-3.533276 7.456098 -20.934201 22.501516 -1.128264 2.766152 0.014899 -0.001926 -180461.000000 0 1 0
-2.982176 6.348098 -21.770101 22.872014 -1.131620 2.829922 0.021381 -0.004864 64100.600000 0 1 0
-2.296476 5.363498 -20.951101 21.748323 -1.166246 2.869994 0.020093 -0.004746 295439.000000 0 1 0
-1.865876 4.270798 -21.768101 22.261434 -1.158897 2.930675 0.044031 -0.006404 -201508.000000 0 1 0
-1.151376 3.103998 -21.070601 21.329104 -1.215596 2.985745 0.031873 -0.007159 1087720.000000 0 1 0
0.247824 3.434398 -20.844101 21.126596 1.498762 2.977877 0.031203 -0.011464 711225.000000 0 1 0
0.747324 2.407498 -20.047801 20.205664 1.269812 3.016509 0.035817 -0.013557 962546.000000 0 1 0
2.327024 2.379998 -20.114701 20.388247 0.796652 2.977599 0.033413 -0.017066 900122.000000 0 1 0
2.879024 1.928698 -21.295401 21.575513 0.590247 2.980279 0.051684 -0.019220 -76307.800000 0 1 0
4.278824 1.730298 -21.090001 21.589127 0.384282 2.926144 0.066642 -0.021913 489203.000000 0 1 0
4.968324 1.237198 -22.384501 22.962595 0.244053 2.916729 0.072980 -0.016768 791095.000000 0 1 0
6.395424 1.108798 -22.214901 23.143740 0.171667 2.857322 0.080223 -0.024009 719661.000000 0 1 0
6.925524 0.722898 -23.467601 24.478843 0.104005 2.853154 0.087858 -0.022049 -957770.000000 0 1 0
8.432924 0.557598 -23.433801 24.911205 0.066025 2.795464 0.084475 -0.030719 -668449.000000 0 1 0
9.082124 1.786798 -23.201401 24.979644 0.194257 2.761991 0.093826 -0.046865 -756788.000000 0 1 0
10.321524 1.861198 -23.828401 26.034412 0.178405 2.726963 0.102010 -0.042574 -615681.000000 0 0 1
13.502624 -20.266129 22.241315 32.980494 -0.983071 0.830674 0.113581 -0.008594 -391236.000000 0 0 1
12.654324 -21.379029 22.203915 33.319794 -1.036351 0.841442 0.102442 -0.002231 859799.000000 0 0 1
11.378424 -21.265229 21.523815 32.325735 -1.079486 0.842175 0.090979 0.009503 924667.000000 0 0 1
11.318824 -21.010129 20.020715 31.150768 -1.076645 0.872774 0.131015 -0.015188 -422020.000000 0 0 1
11.617524 -19.612029 19.755915 30.164462 -1.036008 0.856693 0.155863 -0.017288 85971.900000 0 0 1
11.582624 -19.349629 18.355015 29.077000 -1.031409 0.887625 0.154654 -0.020994 64977.500000 0 0 1
11.775924 -17.794329 18.050315 27.948603 -0.986185 0.868674 0.177296 -0.037215 458903.000000 0 0 1
10.604124 -17.059929 18.397215 27.238689 -1.014660 0.829279 0.206715 -0.042679 228843.000000 0 0 1
10.645324 -15.748629 17.922915 26.126101 -0.976393 0.814798 0.233281 -0.044422 -368180.000000 0 0 1
9.634524 -14.871729 18.628415 25.710119 -0.995940 0.760407 0.185686 -0.051713 567975.000000 0 0 1
8.308624 -15.305629 18.296215 25.259592 -1.073461 0.760738 0.137938 -0.038430 663312.000000 0 0 1
7.239424 -14.492629 18.775715 24.798650 -1.107529 0.711893 0.092161 -0.031625 853755.000000 0 1 0
5.825524 -15.032029 18.450615 24.501507 -1.201077 0.718126 0.022686 -0.010875 232770.000000 0 1 0
5.360224 -14.869429 17.099215 23.285512 -1.224810 0.746119 0.001368 -0.011527 353427.000000 0 1 0
4.005424 -15.201729 16.825415 23.026736 -1.313167 0.751464 -0.017973 -0.001446 181351.000000 0 1 0
3.601024 -16.657729 16.675915 23.843940 -1.357895 0.796270 -0.018695 -0.002020 -365529.000000 0 1 0
2.220624 -16.744729 16.424415 23.560105 -1.438949 0.799412 -0.020675 0.004250 -453830.000000 0 1 0
1.654224 -18.010329 16.241615 24.308403 -1.479205 0.839079 -0.001961 -0.016836 965652.000000 0 1 0
0.143524 -17.854629 15.841815 23.869887 -1.562758 0.845077 0.023240 -0.010997 483229.000000 0 1 0
0.031724 -17.403729 14.518115 22.664211 -1.568973 0.875550 0.023637 -0.016555 536696.000000 0 1 0
-1.309876 -17.467429 14.013115 22.431992 1.495947 0.896058 0.037607 -0.018777 398450.000000 0 1 0
-1.723376 -18.694029 13.213915 22.957445 1.478868 0.957479 0.033875 -0.004083 -182563.000000 0 1 0
-3.108776 -18.966429 13.298515 23.371787 1.408332 0.965509 0.046253 -0.010378 87666.700000 0 1 0
-3.360476 -20.176829 12.636215 24.043110 1.405760 1.017417 0.061890 -0.017303 -500554.000000 0 1 0
-4.821676 -20.577529 12.536315 24.573206 1.340631 1.035423 0.065830 -0.020628 -157705.000000 0 1 0
-5.484876 -20.982029 13.770615 25.689672 1.315110 1.005061 0.070960 -0.030022 -50377.300000 0 0 1
-6.815976 -21.284929 13.463815 26.091762 1.260889 1.028601 0.072313 -0.026196 -410166.000000 0 0 1
-7.594176 -22.138129 14.455015 27.508466 1.240339 1.017523 0.072328 -0.020420 -218710.000000 0 0 1
-8.950776 -21.816329 14.553215 27.710371 1.181461 1.017858 0.066916 -0.020660 -673153.000000 0 0 1
-9.645776 -22.546429 15.527915 29.025826 1.166541 1.006325 0.073393 -0.016261 341335.000000 0 0 1
-11.143476 -22.144629 15.521115 29.248362 1.104581 1.011410 0.085779 -0.018674 266117.000000 0 0 1
-11.222876 -20.770429 15.969315 28.502328 1.075408 0.976071 0.088858 -0.023998 -14821.900000 0 0 1
-12.546176 -20.291129 15.794515 28.611242 1.017023 0.985989 0.081362 -0.021448 189313.000000 0 0 1
-12.777976 -19.065329 16.671815 28.367461 0.980337 0.942572 0.097183 -0.025968 -146679.000000 0 0 1
-12.895076 -19.508429 18.008615 29.515623 0.986727 0.914561 0.090673 -0.029903 111278.000000 0 0 1
-13.409176 -18.477329 18.898415 29.637270 0.943023 0.879343 0.098658 -0.030638 -36111.300000 0 0 1
-13.896876 -18.975929 20.255015 31.039888 0.938692 0.859854 0.091826 -0.041202 360908.000000 0 0 1
-15.234076 -19.459129 20.128515 31.873059 0.906585 0.887283 0.084425 -0.036584 421827.000000 0 0 1
-15.736076 -19.908629 21.357115 33.167815 0.901927 0.871197 0.102441 -0.034956 -531888.000000 0 0 1
-17.116476 -20.526529 21.190215 34.107732 0.875741 0.900430 0.112676 -0.037533 -1061220.000000 0 0 1
-17.065576 -21.780929 20.536715 34.458662 0.906191 0.932309 0.119985 -0.042351 341478.000000 0 0 1
-18.349676 -22.176829 20.112215 35.114435 0.879555 0.960925 0.104186 -0.028833 559982.000000 0 0 1
-19.377676 -22.736929 21.175015 36.617530 0.864994 0.954183 0.106600 -0.035072 100861.000000 0 0 1
-20.029576 -21.709729 21.952815 36.802477 0.825630 0.931658 0.120502 -0.032422 -362142.000000 0 0 1
-21.118376 -22.229729 22.626575 38.106542 0.811030 0.935058 0.093192 -0.027939 -755686.000000 0 0 1
-21.781876 -21.060429 23.380215 38.270436 0.768560 0.913573 0.084816 -0.014521 -63892.900000 0 0 1
-22.638176 -20.317329 22.511515 37.842426 0.731422 0.933686 0.075379 -0.009954 255348.000000 0 0 1
-23.006776 -19.087729 23.105235 37.782337 0.692565 0.912797 0.072676 -0.015298 634264.000000 0 0 1
-23.925876 -18.074429 22.268815 37.350136 0.646970 0.932015 0.094809 -0.013355 376745.000000 0 0 1
-23.262376 -17.310629 21.292315 35.974417 0.639745 0.937415 0.098923 -0.010605 32690.500000 0 0 1
-24.022476 -16.203029 20.740915 35.634296 0.593402 0.949550 0.101588 -0.012936 -282940.000000 0 0 1
-23.452676 -15.633729 19.425715 34.231563 0.587962 0.967355 0.106420 -0.006686 -606614.000000 0 0 1
-22.298976 -14.902529 19.604015 33.221184 0.589136 0.939606 0.110084 -0.013656 -771554.000000 0 0 1
-21.650076 -14.697129 18.355415 31.963301 0.596389 0.959090 0.103167 -0.020336 271570.000000 0 0 1
-20.411576 -13.790429 18.184315 30.618257 0.594174 0.934893 0.090223 -0.030266 154113.000000 0 0 1
-20.015476 -13.710829 16.806315 29.513697 0.600596 0.964970 0.096621 -0.020496 -31490.700000 0 0 1
-19.157876 -12.618229 16.566815 28.296701 0.582428 0.945339 0.082801 -0.026733 -1056040.000000 0 0 1
-18.343076 -12.804229 15.304915 27.104559 0.609410 0.970773 0.063842 -0.030209 -494319.000000 0 0 1
-17.908576 -11.578529 14.758615 25.934458 0.573936 0.965418 0.061424 -0.027964 829653.000000 0 0 1
-16.827676 -10.886429 15.434615 25.296489 0.574218 0.914548 0.070440 -0.039075 73463.200000 0 0 1
-16.459476 -9.508529 14.803915 24.093202 0.523856 0.909116 0.083355 -0.049523 -15425.000000 0 1 0
-17.330976 -8.411329 15.092015 24.472068 0.451847 0.906248 0.101892 -0.045441 367897.000000 0 1 0
-17.049976 -7.212029 14.365315 23.432399 0.400170 0.910876 0.108691 -0.050295 -829979.000000 0 1 0
-17.376376 -5.955929 15.199715 23.842040 0.330211 0.879525 0.115689 -0.037678 133695.000000 0 1 0
-16.628776 -5.759529 16.371515 24.035700 0.333428 0.821487 0.115847 -0.028369 696339.000000 0 1 0
-15.198876 -5.784429 16.274715 23.007212 0.363656 0.785019 0.108089 -0.025447 103529.000000 0 1 0
-14.454276 -5.767029 17.637115 23.521321 0.379630 0.722983 0.097163 -0.025425 -28990.200000 0 1 0
-14.488076 -6.989329 18.375415 24.421526 0.449484 0.719057 0.075946 -0.021550 189918.000000 0 1 0
-13.883776 -8.083229 17.684015 23.891886 0.527234 0.737476 0.091961 -0.024277 -583900.000000 0 1 0
-13.834176 -9.319329 18.648015 25.019648 0.592818 0.729759 0.074425 -0.020926 538168.000000 0 0 1
-15.089476 -9.972929 18.818215 26.101280 0.584013 0.765597 0.075526 -0.020023 421053.000000 0 0 1
-15.968676 -9.317029 19.703815 27.019363 0.528166 0.753574 0.055768 -0.012958 -680013.000000 0 0 1
-17.363676 -9.977629 19.866815 28.208876 0.521554 0.789394 0.051655 -0.008139 1009090.000000 0 0 1
-18.337776 -10.067129 18.797115 28.123880 0.502062 0.838783 0.058169 -0.017263 732341.000000 0 0 1
-18.813876 -8.806329 18.408715 27.755975 0.437784 0.845664 0.068042 -0.017783 -940059.000000 0 0 1
-19.978076 -8.916029 17.416615 27.963504 0.419765 0.898437 0.096995 -0.018549 -204964.000000 0 0 1
-21.213676 -9.055029 18.073715 29.303119 0.403435 0.906145 0.106554 -0.020865 944095.000000 0 0 1
-22.325976 -9.056029 17.127115 29.560090 0.385348 0.952804 0.126075 -0.030453 644671.000000 0 0 1
-23.757376 -9.318429 17.572415 30.984444 0.373793 0.967771 0.147265 -0.025129 -437697.000000 0 0 1
-24.294576 -8.146629 18.139215 31.394667 0.323544 0.954790 0.156402 -0.018422 1483540.000000 0 0 1
-25.697866 -8.353229 18.458615 32.724260 0.314282 0.971496 0.171060 -0.017006 1110900.000000 0 0 1
-26.422586 -7.227029 19.209415 33.457206 0.266987 0.959232 0.164143 -0.017750 -66774.800000 0 0 1
-26.204916 -7.247229 20.585115 34.102301 0.269816 0.922752 0.167818 -0.025049 361701.000000 0 0 1
-26.985286 -6.233929 21.194715 34.875256 0.227029 0.917598 0.159421 -0.026669 -323836.000000 0 0 1
-26.982696 -6.308629 22.766385 35.863254 0.229677 0.883033 0.149232 -0.023847 1203640.000000 0 0 1
-25.816926 -5.852429 23.545735 35.428325 0.222922 0.843835 0.132278 -0.027294 1671780.000000 0 0 1
-24.696676 -6.747029 23.467485 34.729973 0.266688 0.828865 0.140251 -0.026451 847453.000000 0 0 1
-23.576776 -6.520629 24.569945 34.670811 0.269825 0.783194 0.126196 -0.018815 610010.000000 0 0 1
-23.019776 -5.239729 24.422645 33.968080 0.223805 0.768451 0.106072 -0.018152 -130807.000000 0 0 1
-22.288276 -4.894929 25.555675 34.261058 0.216187 0.728896 0.096414 -0.022516 -228216.000000 0 0 1
-21.710376 -3.461029 25.462615 33.640213 0.158088 0.712224 0.091255 -0.027098 -684956.000000 0 0 1
-20.778776 -3.135829 26.424895 33.761902 0.149785 0.671830 0.076862 -0.028460 -705618.000000 0 0 1
-21.163476 -3.050229 27.771135 35.049002 0.143141 0.656142 0.080325 -0.034692 -483845.000000 0 0 1
-22.119776 -1.938029 28.190765 35.885369 0.087392 0.667166 0.081478 -0.044664 818202.000000 0 0 1
-23.507076 -2.128329 27.859765 36.514092 0.090294 0.702875 0.093865 -0.041539 627190.000000 0 0 1
-24.257176 -1.012429 28.339825 37.317305 0.041713 0.708362 0.062302 -0.038784 674142.000000 0 0 1
-25.567766 -0.712729 27.561105 37.600973 0.027869 0.748090 0.066450 -0.033972 -38934.600000 0 0 1
-25.300576 -0.237529 26.245395 36.455402 0.009388 0.767093 0.070489 -0.034141 551853.000000 0 0 1
-26.423006 0.025571 25.372725 36.632650 -0.000968 0.805673 0.078969 -0.025282 459566.000000 0 0 1
-27.212766 -1.175029 24.789195 36.829601 0.043153 0.832433 0.076339 -0.015501 -76686.000000 0 0 1
-28.143886 -1.726129 25.700115 38.151720 0.061256 0.831688 0.070827 -0.019155 36490.000000 0 0 1
-28.504156 -3.078029 25.448425 38.335147 0.107568 0.844854 0.060011 -0.012429 -65018.100000 0 0 1
-27.463506 -4.175229 25.747755 37.876425 0.150873 0.823329 0.081669 -0.023260 -152453.000000 0 0 1
-27.014466 -4.158329 27.068865 38.468123 0.152731 0.790247 0.061508 -0.025436 119977.000000 0 0 1
-26.080506 -5.243029 27.174795 38.028300 0.198388 0.774753 0.099694 -0.032153 239837.000000 0 0 1
-25.887306 -5.564929 28.656915 39.017173 0.211745 0.745912 0.065548 -0.021849 -778996.000000 0 0 1
-27.017126 -6.118729 29.192495 40.243828 0.222719 0.759195 0.077768 -0.025680 -452992.000000 0 0 1
-26.636176 -6.800229 30.343035 40.944215 0.249961 0.736115 0.069102 -0.016525 414387.000000 0 0 1
-27.918246 -7.241129 31.115485 42.426829 0.253777 0.747498 0.076899 -0.024520 584853.000000 0 0 1
-28.589206 -8.372929 30.556755 42.675097 0.284903 0.772694 0.092315 -0.026978 1048600.000000 0 0 1
-29.858736 -8.607529 31.206385 44.039438 0.280666 0.783283 0.100290 -0.023916 1434270.000000 0 0 1
-30.932346 -9.294029 30.248175 44.250888 0.291882 0.818166 0.095989 -0.024670 247080.000000 0 0 1
-30.633146 -10.628829 29.894655 44.102744 0.333974 0.825974 0.092280 -0.022923 97802.600000 0 0 1
-31.567456 -11.223229 29.038965 44.336516 0.341594 0.856657 0.087390 -0.020313 -370803.000000 0 0 1
-30.992136 -12.459229 28.364565 43.821153 0.382240 0.866785 0.081236 -0.022923 -99775.500000 0 0 1
-30.039766 -12.055329 27.399535 42.408171 0.381637 0.868345 0.099120 -0.025640 -50940.900000 0 0 1
-29.271046 -13.169429 26.976955 41.928321 0.422782 0.871856 0.104107 -0.023583 -173326.000000 0 0 1
-27.921096 -12.687429 26.394725 40.462822 0.426509 0.860154 0.117821 -0.022532 -732619.000000 0 0 1
-26.986556 -12.045829 27.199355 40.164426 0.419826 0.826846 0.102496 -0.024129 -341914.000000 0 0 1
-27.230546 -10.776029 27.806355 40.383398 0.376823 0.811296 0.109439 -0.030041 -921912.000000 0 0 1
-27.167696 -9.559229 26.850005 39.374933 0.338331 0.820431 0.129337 -0.029483 618249.000000 0 0 1
-25.919736 -9.368429 26.157045 37.997252 0.346830 0.811525 0.110121 -0.026221 637106.000000 0 0 1
-25.568326 -10.319429 25.156585 37.324036 0.383608 0.831179 0.103372 -0.024709 -674238.000000 0 0 1
-26.357396 -10.249729 23.869145 37.006828 0.370879 0.869782 0.136721 -0.018479 249874.000000 0 0 1
-27.739796 -10.596829 23.936545 38.141149 0.364901 0.892358 0.137343 -0.021129 416673.000000 0 0 1
-28.400836 -10.288229 22.739575 37.809303 0.347547 0.925509 0.165157 -0.016232 637118.000000 0 0 1
-29.784766 -11.027229 22.596725 38.978764 0.354583 0.952413 0.158211 -0.018294 1563100.000000 0 0 1
-30.964006 -10.461229 23.203125 40.082315 0.325811 0.953433 0.145192 -0.015759 735069.000000 0 0 1
-31.070806 -10.517729 24.661775 41.039259 0.326401 0.926131 0.154505 -0.018181 -1424470.000000 0 0 1
-32.460946 -10.398729 25.211945 42.396801 0.310017 0.933946 0.103124 -0.017540 -1892190.000000 0 0 1
-33.002866 -9.126429 25.072405 42.439443 0.269792 0.938770 0.118196 -0.026252 -25853.000000 0 0 1
-34.395351 -9.024129 25.301665 43.642288 0.256582 0.952373 0.093050 -0.017511 199773.000000 0 0 1
-34.900124 -9.258329 26.736305 44.928447 0.259308 0.933423 0.077657 -0.019114 -809311.000000 0 0 1
-35.020725 -10.603729 27.181925 45.582313 0.294009 0.931880 0.080322 -0.024629 276845.000000 0 0 1
-35.797172 -10.571629 28.369525 46.883118 0.287158 0.920890 0.088413 -0.026826 -941015.000000 0 0 1
-36.371216 -11.850729 28.888855 47.936114 0.314980 0.923975 0.077524 -0.025342 1329650.000000 0 0 1
-37.662426 -12.318129 28.371105 48.735144 0.316100 0.949427 0.064058 -0.027093 1180000.000000 0 0 1
36.675948 -11.580029 28.829925 48.066483 -0.305833 0.927554 0.064454 -0.019785 -1006790.000000 0 0 1
35.366798 -11.898029 28.103095 46.713568 -0.324524 0.925288 0.069805 -0.020555 -230903.000000 0 0 1
35.407418 -11.575529 26.727705 45.848101 -0.315971 0.948427 0.061406 -0.012005 -106959.000000 0 0 1
34.206988 -12.013829 26.126675 44.688402 -0.337752 0.946359 0.066007 -0.006404 6963.800000 0 0 1
34.000388 -11.605029 24.619025 43.552262 -0.328922 0.970029 0.055701 -0.005562 -124468.000000 0 0 1
33.555728 -10.301129 24.535985 42.826566 -0.297853 0.960738 0.061080 -0.011967 70988.400000 0 0 1
33.951128 -9.751229 23.281075 42.305721 -0.279685 0.988066 0.049016 -0.003358 -99492.100000 0 0 1
33.640468 -8.233529 23.309515 41.746923 -0.240032 0.978397 0.062023 -0.002365 486661.000000 0 0 1
32.237928 -8.048929 23.115045 40.476840 -0.244671 0.962990 0.066777 -0.005545 185973.000000 0 0 1
31.986188 -6.694029 22.743435 39.814446 -0.206301 0.962786 0.080992 -0.005265 -361546.000000 0 0 1
30.469248 -6.522729 22.821935 38.623332 -0.210893 0.938641 0.083498 -0.006028 -256505.000000 0 0 1
29.860698 -7.347129 21.806715 37.698467 -0.241255 0.953968 0.088524 -0.005071 771376.000000 0 0 1
28.445898 -7.516229 22.002815 36.739443 -0.258325 0.928684 0.076584 -0.015518 674284.000000 0 0 1
15.577924 -17.299729 25.116155 34.245782 -0.837720 0.747473 0.123778 -0.016946 -7073.330000 0 0 1
14.935124 -18.517629 25.145125 34.615572 -0.892083 0.757711 0.117629 -0.011245 176744.000000 0 0 1
15.926224 -19.535129 25.243075 35.671820 -0.886819 0.784633 0.110738 -0.018092 -334940.000000 0 0 1
15.328824 -20.958929 25.430665 36.345128 -0.939323 0.795820 0.101414 -0.026088 968542.000000 0 0 1
14.521524 -21.236829 26.665685 37.053156 -0.971033 0.767483 0.094187 -0.030742 -306074.000000 0 0 1
13.312324 -20.596229 26.662855 36.226102 -0.996993 0.743636 0.097924 -0.022583 -1504000.000000 0 0 1
12.468724 -20.976829 27.933185 37.091229 -1.034501 0.718044 0.102007 -0.025115 334900.000000 0 0 1
12.941324 -20.441129 29.192125 37.914348 -1.006392 0.692035 0.101946 -0.027856 348170.000000 0 0 1
12.003224 -19.510829 29.764475 37.558938 -1.019269 0.655942 0.099698 -0.029055 434399.000000 0 0 1
11.979524 -18.049829 29.276435 36.419981 -0.984856 0.637046 0.108467 -0.019435 55619.200000 0 0 1
13.231924 -17.454529 29.490645 36.734760 -0.922144 0.638821 0.096923 -0.008000 -442022.000000 0 0 1
13.099124 -16.137329 28.871775 35.574989 -0.888945 0.623953 0.093365 -0.005947 295793.000000 0 0 1
14.270624 -15.118929 29.014625 35.694274 -0.814254 0.621742 0.088650 -0.008750 263700.000000 0 0 1
13.941924 -13.732629 28.699215 34.736254 -0.777836 0.598461 0.121738 -0.017445 -76951.300000 0 0 1
14.823424 -12.846629 29.334425 35.288501 -0.714078 0.589400 0.111756 -0.016121 -212615.000000 0 0 1
14.392724 -11.372329 29.182545 34.468846 -0.668702 0.561166 0.107853 -0.017582 -31340.900000 0 0 1
14.432224 -10.663929 27.988415 33.246953 -0.636357 0.570124 0.146046 -0.022165 504455.000000 0 0 1
15.680424 -10.617829 27.283735 33.211688 -0.595218 0.606742 0.134453 -0.020562 -3924.530000 0 0 1
15.705924 -9.436829 26.224935 31.991828 -0.541041 0.609842 0.131097 -0.020477 43678.700000 0 0 1
15.955824 -8.257129 26.979885 32.414236 -0.477549 0.587468 0.132608 -0.026003 -349796.000000 0 0 1
17.304224 -8.041129 27.272385 33.284815 -0.435004 0.610495 0.131048 -0.031222 -806071.000000 0 0 1
17.775124 -6.541729 27.418495 33.324513 -0.352644 0.604524 0.120303 -0.031348 148583.000000 0 0 1
19.174224 -6.420729 27.566955 34.187917 -0.323126 0.632865 0.105002 -0.038161 -56667.500000 0 0 1
19.616224 -5.135929 27.266945 33.980293 -0.256072 0.639433 0.111962 -0.035010 -889844.000000 0 0 1
21.110424 -4.958829 27.088885 34.699391 -0.230717 0.675054 0.113589 -0.035612 -1641270.000000 0 0 1
21.460824 -5.734829 25.921735 34.137833 -0.261122 0.708520 0.117129 -0.028228 -325851.000000 0 0 1
22.771024 -5.618829 25.468505 34.622761 -0.241921 0.744244 0.107941 -0.026265 -231380.000000 0 0 1
23.997624 -5.875629 26.379215 36.142385 -0.240118 0.752666 0.096417 -0.033925 -749011.000000 0 0 1
24.335324 -4.835029 27.215115 36.827273 -0.196129 0.739221 0.105141 -0.034718 256772.000000 0 0 1
25.449224 -5.143229 28.059475 38.228916 -0.199412 0.746624 0.094278 -0.045706 211841.000000 0 0 1
25.934224 -3.836629 28.731975 38.895117 -0.146872 0.739651 0.101995 -0.046809 -136177.000000 0 0 1
26.686824 -2.982629 27.876425 38.706301 -0.111302 0.766700 0.092615 -0.036685 214963.000000 0 0 1
26.930624 -1.729029 28.459135 39.219516 -0.064115 0.758836 0.090473 -0.043413 -211045.000000 0 0 1
28.032624 -1.031929 27.617945 39.365516 -0.036795 0.793188 0.094685 -0.038099 771443.000000 0 0 1
29.360424 -1.501429 27.879365 40.516019 -0.051093 0.811919 0.104571 -0.034842 704941.000000 0 0 1
30.262924 -0.983729 26.890365 40.495729 -0.032495 0.844601 0.100475 -0.023482 235152.000000 0 0 1
31.744024 -0.928629 27.274545 41.862230 -0.029245 0.861195 0.095327 -0.026806 -240483.000000 0 0 1
32.029024 0.096871 28.241705 42.702011 0.003024 0.848156 0.075775 -0.010735 47695.500000 0 0 1
33.424824 0.237071 28.416505 43.872233 0.007093 0.866221 0.096981 -0.019801 88114.300000 0 0 1
33.873724 1.393971 29.312795 44.817545 0.041129 0.857874 0.115148 -0.020894 -68895.700000 0 0 1
33.765924 2.698571 28.800025 44.461909 0.079750 0.866174 0.102787 -0.015985 260379.000000 0 0 1
34.160124 3.738771 29.769235 45.465370 0.109014 0.856922 0.092978 -0.014770 145048.000000 0 0 1
33.999824 5.175371 29.240215 45.141585 0.151058 0.866176 0.095914 -0.006188 -27495.200000 0 0 1
34.265224 6.197271 30.221475 46.106934 0.178928 0.855998 0.103755 -0.013251 -157997.000000 0 0 1
33.086824 6.657471 30.818065 45.703534 0.198561 0.830775 0.097251 -0.010178 -450134.000000 0 0 1
33.331224 7.467171 32.110718 46.880992 0.220390 0.816273 0.089390 -0.019815 -128097.000000 0 0 1
33.681724 6.637871 33.186962 47.748239 0.194583 0.802320 0.081705 -0.018427 224572.000000 0 0 1
34.225324 7.411171 -33.366321 48.369512 0.213248 2.332039 0.071557 -0.028712 -205138.000000 0 0 1
34.611824 6.463571 -32.224811 47.730437 0.184618 2.311953 0.072078 -0.024901 69603.000000 0 0 1
33.478024 5.776471 -31.695551 46.462390 0.170863 2.321532 0.042361 -0.022979 514850.000000 0 0 1
33.202524 4.510771 -32.261911 46.514359 0.135030 2.337258 0.070516 -0.031200 -157856.000000 0 0 1
33.824724 3.353071 -31.472241 46.323396 0.098808 2.317745 0.070170 -0.036754 -256785.000000 0 0 1
33.804424 2.078171 -32.041651 46.623227 0.061399 2.328488 0.079779 -0.036525 123075.000000 0 0 1
34.044724 1.084171 -31.038301 46.082478 0.031835 2.309781 0.068273 -0.033978 -12645.600000 0 0 1
34.347424 -0.286729 -31.726581 46.758996 -0.008348 2.316533 0.068840 -0.053700 -331589.000000 0 0 1
35.560024 -0.334729 -32.499681 48.175270 -0.009413 2.311237 0.086015 -0.041001 541385.000000 0 0 1
36.287024 -1.553729 -32.375271 48.655117 -0.042792 2.298830 0.093734 -0.034867 174917.000000 0 0 1
37.090824 -1.630629 -31.079101 48.417959 -0.043935 2.267759 0.091733 -0.032808 -1122900.000000 0 0 1
36.286624 -1.575929 -29.928291 47.062780 -0.043403 2.260000 0.085330 -0.035611 -490545.000000 0 0 1
37.040224 -1.386829 -28.768751 46.920598 -0.037424 2.230822 0.108395 -0.037442 -439171.000000 0 0 1
36.199424 -1.293929 -27.484451 45.469414 -0.035729 2.219884 0.115949 -0.042929 -208450.000000 0 0 1
35.659124 0.008471 -27.415271 44.979665 0.000238 2.226231 0.092650 -0.031471 420886.000000 0 0 1
34.814124 0.209371 -26.276421 43.617856 0.006014 2.217330 0.098008 -0.029658 101366.000000 0 0 1
34.255724 1.647771 -26.194331 43.154522 0.048065 2.223063 0.065511 -0.021723 224479.000000 0 0 1
33.374224 1.980371 -27.271861 43.145279 0.059269 2.255049 0.089817 -0.040420 421792.000000 0 0 1
32.822524 3.283071 -27.171571 42.736295 0.099693 2.259836 0.064812 -0.022631 -551893.000000 0 0 1
31.752124 3.341471 -28.249161 42.630716 0.104850 2.295145 0.079839 -0.033644 -675827.000000 0 0 1
30.883924 4.421071 -27.982801 41.909424 0.142185 2.301907 0.054728 -0.028470 87352.300000 0 0 1
30.181624 4.845671 -29.137341 42.230269 0.159192 2.332235 0.076689 -0.036702 -144550.000000 0 0 1
29.028824 5.785971 -28.752831 41.265911 0.196740 2.341680 0.082052 -0.028808 724812.000000 0 0 1
27.836924 5.186971 -28.159071 39.934100 0.184222 2.353415 0.085926 -0.031008 751786.000000 0 0 1
27.003724 6.180871 -27.709261 39.181723 0.225014 2.356324 0.102306 -0.032718 -372353.000000 0 0 1
25.582724 5.619071 -27.448281 37.940188 0.216210 2.379600 0.108501 -0.030062 397579.000000 0 0 1
24.729524 5.320471 -28.565541 38.155562 0.211916 2.416835 0.126643 -0.029207 779101.000000 0 0 1
23.431124 4.950171 -28.121081 36.936662 0.208203 2.436162 0.125010 -0.023812 204985.000000 0 0 1
22.452624 4.637471 -29.267341 37.178001 0.203681 2.477087 0.104537 -0.019008 -134187.000000 0 0 1
22.478824 3.310471 -29.686371 37.383651 0.146220 2.488322 0.094868 -0.023099 586683.000000 0 0 1
21.506924 3.041471 -30.725971 37.628229 0.140487 2.526235 0.072535 -0.025791 429576.000000 0 0 1
21.806224 3.584571 -32.122661 38.990075 0.162926 2.538998 0.081085 -0.018693 -410606.000000 0 0 1
23.064024 3.244371 -32.626931 40.087302 0.139751 2.521624 0.089158 -0.026421 -485057.000000 0 0 1
23.236024 3.648171 33.650665 41.055928 0.155734 0.610032 0.079484 -0.022521 1860900.000000 0 0 1
24.732624 3.575371 33.039207 41.425538 0.143566 0.647563 0.081882 -0.018264 1950360.000000 0 0 1
25.018124 2.223771 32.795779 41.308774 0.088653 0.653570 0.100582 -0.034387 865445.000000 0 0 1
26.415124 1.980971 32.520513 41.943615 0.074854 0.683545 0.106091 -0.034881 804073.000000 0 0 1
26.570224 0.474671 32.135741 41.700216 0.017863 0.690956 0.092378 -0.038642 -536372.000000 0 0 1
26.063224 0.084571 30.846725 40.383404 0.003245 0.701544 0.096620 -0.044106 1665560.000000 0 0 1
24.630824 -0.107529 30.695615 39.356192 -0.004366 0.676220 0.104814 -0.047281 1130390.000000 0 0 1
23.832124 -1.042129 31.663550 39.643872 -0.043700 0.645665 0.098919 -0.047933 -690716.000000 0 0 1
24.094824 -2.389229 31.477985 39.713128 -0.098836 0.655679 0.094725 -0.058134 -157970.000000 0 0 1
23.300824 -3.210129 32.237754 39.906217 -0.136907 0.630322 0.101317 -0.051759 -603942.000000 0 0 1
23.330224 -4.550429 31.544465 39.497583 -0.192626 0.645759 0.098510 -0.054504 -637855.000000 0 0 1
24.552224 -5.173829 31.708241 40.435044 -0.207689 0.669427 0.088540 -0.038510 -544067.000000 0 0 1
24.335824 -6.530429 31.774894 40.552716 -0.262170 0.670445 0.085022 -0.031758 206558.000000 0 0 1
25.642924 -7.383529 31.720368 41.451874 -0.280353 0.699392 0.081958 -0.031178 545166.000000 0 0 1
26.385924 -7.204429 30.524545 40.986201 -0.266544 0.730634 0.074781 -0.031069 -570406.000000 0 0 1
27.544924 -7.955229 30.405805 41.791405 -0.281159 0.756036 0.073726 -0.029883 -242607.000000 0 0 1
28.237724 -7.869629 29.036545 41.260406 -0.271795 0.790150 0.063574 -0.025166 29112.800000 0 0 1
27.445924 -8.504129 28.071445 40.169703 -0.300469 0.797048 0.053911 -0.019829 -294587.000000 0 0 1
27.849924 -8.153629 26.774245 39.483670 -0.284811 0.825609 0.063159 -0.013037 -118051.000000 0 0 1
27.157524 -8.936229 25.665355 38.420018 -0.317892 0.839251 0.052418 -0.018374 309144.000000 0 0 1
25.801724 -8.652429 25.348405 37.190525 -0.323558 0.820873 0.058441 -0.027047 242639.000000 0 0 1
25.373824 -9.532129 24.294865 36.399628 -0.359356 0.840020 0.063094 -0.025565 -393399.000000 0 0 1
24.011924 -9.135129 23.757885 34.992288 -0.363533 0.824470 0.077976 -0.020518 -508688.000000 0 0 1
22.935324 -9.424429 24.604815 34.932018 -0.389879 0.789271 0.069483 -0.019624 687433.000000 0 0 1
21.684124 -8.847729 24.187755 33.667953 -0.387408 0.769267 0.098171 -0.020415 1409790.000000 0 0 1
20.572824 -8.662529 25.269365 33.716781 -0.398534 0.723551 0.115336 -0.024728 403580.000000 0 0 1
19.850924 -9.791429 25.781655 33.979774 -0.458231 0.709427 0.124716 -0.022636 248742.000000 0 0 1
20.488224 -10.499329 26.790225 35.323072 -0.473563 0.709889 0.085631 -0.023523 -81087.200000 0 0 1
19.471324 -11.462329 27.444895 35.549117 -0.532052 0.688771 0.086685 -0.024484 222391.000000 0 0 1
19.010524 -12.617529 26.763695 35.169553 -0.585955 0.705958 0.117003 -0.028857 762176.000000 0 0 1
18.170424 -13.529129 27.518555 35.643689 -0.640016 0.688743 0.110119 -0.026347 522476.000000 0 0 1
18.838824 -14.977229 27.714645 36.705861 -0.671697 0.715071 0.104490 -0.013497 -108394.000000 0 0 1
18.090424 -15.869229 28.512525 37.310320 -0.720084 0.700997 0.088954 -0.006730 -125834.000000 0 0 1
18.629324 -17.130029 28.817535 38.352835 -0.743495 0.720646 0.076611 -0.004713 -554088.000000 0 0 1
19.021324 -18.014829 27.590545 38.047116 -0.758229 0.759518 0.089180 -0.013891 -358171.000000 0 0 1
20.217024 -17.554929 27.042325 38.055104 -0.715036 0.780432 0.080700 -0.005511 -294012.000000 0 0 1
20.453424 -18.197129 25.787265 37.609322 -0.727088 0.815284 0.070618 -0.000945 580650.000000 0 0 1
21.695824 -17.677329 24.960295 37.499508 -0.683689 0.842477 0.071232 -0.011790 1383330.000000 0 0 1
22.915624 -17.704629 25.711025 38.725141 -0.657809 0.844726 0.060571 -0.003305 780417.000000 0 0 1
24.066924 -17.217629 25.013335 38.747007 -0.620991 0.869046 0.033307 0.000889 229495.000000 0 0 1
25.267924 -17.225329 25.988435 40.132016 -0.598343 0.866400 0.051135 -0.006557 17305.300000 0 0 1
25.759924 -18.485329 26.433515 41.279678 -0.622441 0.875840 0.054196 -0.007707 49991.700000 0 0 1
26.551624 -19.246629 25.554385 41.574609 -0.627227 0.908837 0.043513 -0.013813 -386804.000000 0 0 1
27.159524 -20.551629 26.169405 42.951682 -0.647776 0.915650 0.051986 -0.017508 -221332.000000 0 0 1
28.186024 -20.250329 27.069305 44.014487 -0.623003 0.908399 0.048993 -0.006326 1381.570000 0 0 1
28.843024 -21.397229 27.676925 45.340640 -0.638265 0.914203 0.064921 -0.018479 326230.000000 0 0 1
28.014324 -22.291429 28.660085 45.859685 -0.672123 0.895727 0.077975 -0.013260 -33298.800000 0 0 1
27.809224 -21.859629 29.964065 46.357756 -0.666181 0.867985 0.086946 -0.013756 -157031.000000 0 0 1
27.410724 -22.953329 30.694405 47.120586 -0.697125 0.861367 0.093348 -0.018939 -241247.000000 0 0 1
26.956724 -22.671529 32.153255 47.691666 -0.699266 0.830929 0.085484 -0.023561 11936.900000 0 0 1
26.531124 -23.833129 32.819529 48.466897 -0.731880 0.826909 0.078661 -0.028220 -111861.000000 0 0 1
26.129324 -23.448129 -33.536241 48.551373 -0.731370 2.333304 0.084198 -0.028314 -390275.000000 0 0 1
25.639224 -24.720129 -32.713751 48.359530 -0.767149 2.313755 0.077099 -0.028641 844562.000000 0 0 1
24.355524 -25.250399 -33.054151 48.201153 -0.803436 2.326436 0.090708 -0.032186 198911.000000 0 0 1
24.148224 -25.755069 33.263917 48.507201 -0.817586 0.815160 0.094042 -0.040742 -76831.400000 0 0 1
22.783924 -26.457109 33.048271 48.075712 -0.859856 0.812864 0.111648 -0.051049 446657.000000 0 0 1
22.903524 -27.841609 33.368675 49.124282 -0.882404 0.824028 0.106450 -0.042121 239079.000000 0 0 1
21.625324 -28.431669 33.240470 48.794911 -0.920541 0.821357 0.123801 -0.039709 215176.000000 0 0 1
21.659024 -29.963809 33.286972 49.749027 -0.944906 0.837802 0.093021 -0.032459 -53245.500000 0 0 1
22.158524 -30.432729 -33.100381 50.127701 -0.941449 2.292043 0.056700 -0.023006 -22897.200000 0 0 1
23.090124 -31.452439 -33.274841 51.279867 -0.937531 2.276917 0.044112 -0.005913 -353326.000000 0 0 1
23.766324 -31.913189 -31.964321 51.039275 -0.930684 2.247555 0.031137 0.005255 -1104200.000000 0 0 1
24.739524 -32.862249 -32.172321 52.220970 -0.925490 2.234553 0.018648 0.011223 -241801.000000 0 0 1
25.183924 -33.436459 -30.883391 52.019330 -0.925258 2.206434 0.011347 0.016023 20159.700000 0 0 1
26.378824 -32.721729 -30.246301 51.782165 -0.892313 2.194575 0.018354 0.006222 -542968.000000 0 0 1
26.642124 -33.053519 -28.881871 51.346863 -0.892389 2.168185 0.037211 0.011992 -339432.000000 0 0 1
27.412324 -31.983429 -28.381321 50.792466 -0.862207 2.163699 0.049107 0.010880 -157519.000000 0 0 1
28.210424 -32.297529 -27.106091 50.731633 -0.852842 2.134480 0.044916 0.008232 866490.000000 0 0 1
29.383524 -33.116889 -27.322641 52.025441 -0.845061 2.123721 0.048189 0.005468 700535.000000 0 0 1
30.083224 -33.308729 -26.087431 51.913639 -0.836236 2.097303 0.053919 0.001642 394983.000000 0 0 1
-28.610726 -30.743456 8.651299 42.878651 0.821315 1.367639 0.100517 -0.028248 -116711.000000 0 0 1
-28.375296 -31.399856 9.870699 43.457325 0.835954 1.341661 0.104161 -0.033831 -186992.000000 0 0 1
-27.002756 -31.508156 10.174499 42.725088 0.862248 1.330347 0.093987 -0.038676 55037.300000 0 0 1
-26.688136 -32.617756 11.232299 43.615813 0.885051 1.310333 0.100129 -0.040923 85913.300000 0 0 1
-26.630546 33.824471 10.759399 44.373928 -0.903838 1.325884 0.098246 -0.032274 -386132.000000 0 0 1
-27.825436 33.136071 11.023999 44.651793 -0.872293 1.321329 0.081987 -0.036867 -148331.000000 0 0 1
-27.629236 31.631871 11.075099 43.435098 -0.852838 1.312969 0.092209 -0.028453 94280.200000 0 0 1
-27.297476 31.052271 9.858899 42.504042 -0.849659 1.336712 0.116317 -0.039685 -48279.000000 0 0 1
-27.369266 29.656371 9.801399 41.528839 -0.825483 1.332534 0.135589 -0.038991 -14769.800000 0 0 1
-26.901916 29.282471 8.356999 40.632691 -0.827743 1.363646 0.111025 -0.029581 -244878.000000 0 0 1
-25.519406 29.082171 8.213499 39.553436 -0.850556 1.361618 0.091771 -0.019519 -226099.000000 0 0 1
-25.248966 29.041171 6.821699 39.082419 -0.855136 1.395351 0.085799 -0.015223 -87439.800000 0 0 1
-23.787376 28.620971 6.560599 37.789426 -0.877367 1.396303 0.093497 -0.016082 -46039.500000 0 0 1
-23.550276 27.234671 6.744999 36.631104 -0.857820 1.385607 0.094938 -0.018912 344219.000000 0 0 1
-24.092576 26.421171 5.666499 36.202758 -0.831464 1.413629 0.077237 -0.026544 -222887.000000 0 0 1
-24.448676 24.939671 6.052099 35.445068 -0.795339 1.399210 0.098627 -0.015545 -397178.000000 0 0 1
-25.687386 24.685871 6.668999 36.245132 -0.765519 1.385745 0.119535 -0.018241 130034.000000 0 0 1
-26.015006 23.342771 6.884399 35.623874 -0.731311 1.376320 0.121369 -0.012767 -121196.000000 0 0 1
-26.510796 22.445871 5.723499 35.205083 -0.702557 1.407496 0.118447 -0.027337 15710.300000 0 0 1
-27.793386 22.726671 5.173299 36.273088 -0.685441 1.427687 0.122087 -0.036673 458595.000000 0 0 1
-27.898176 22.219571 3.859999 35.873627 -0.672574 1.462988 0.112681 -0.031351 -23020.000000 0 0 1
-27.601776 23.346071 2.827099 36.261406 -0.702061 1.492753 0.105970 -0.035452 756168.000000 0 0 1
-26.206826 23.714371 2.860999 35.459194 -0.735512 1.490024 0.105351 -0.036997 1048980.000000 0 0 1
-25.947846 24.642971 1.820999 35.831310 -0.759611 1.519953 0.098519 -0.042197 -350164.000000 0 0 1
-24.501076 25.153971 1.789399 35.160019 -0.798546 1.519881 0.077452 -0.036322 -116331.000000 0 0 1
-24.093476 25.941271 0.688999 35.410730 -0.822312 1.551338 0.066857 -0.038095 -390502.000000 0 0 1
-22.774876 26.399671 0.817599 34.875580 -0.858978 1.547351 0.074277 -0.040829 -951963.000000 0 0 1
-22.274576 26.950971 -0.521501 34.968322 -0.880113 1.585710 0.089817 -0.033059 -18042.700000 0 0 1
-21.896576 26.026871 -1.544501 34.047665 -0.871371 1.616175 0.086160 -0.029791 197261.000000 0 0 1
-20.723776 25.310171 -1.195001 32.733892 -0.884701 1.607311 0.076560 -0.043916 -443375.000000 0 0 1
-20.447476 24.247671 -2.292501 31.801012 -0.870219 1.642948 0.083968 -0.041388 -395739.000000 0 0 1
-21.425676 23.263571 -2.450101 31.721543 -0.826501 1.648111 0.088151 -0.034419 -24739.800000 0 0 1
-21.003976 22.260571 -3.396901 30.793489 -0.814434 1.681334 0.094997 -0.033931 863389.000000 0 0 1
-22.256876 21.714171 -4.202601 31.377310 -0.773056 1.705138 0.087520 -0.028884 787293.000000 0 0 1
-22.618976 22.556771 -5.255401 32.373526 -0.784021 1.733854 0.084445 -0.027014 422490.000000 0 0 1
-23.846176 22.144871 -5.866701 33.067410 -0.748423 1.749157 0.108059 -0.020320 524132.000000 0 0 1
-23.936476 22.642371 -7.299701 33.747851 -0.757622 1.788821 0.120167 -0.017977 165621.000000 0 0 1
-23.299876 21.878971 -8.328201 33.029267 -0.753958 1.825694 0.107915 -0.024437 173061.000000 0 0 1
-22.988476 22.736271 -9.385101 33.667316 -0.779883 1.853299 0.112640 -0.031387 -163008.000000 0 0 1
-22.787676 22.012671 -10.750101 33.457443 -0.768101 1.897905 0.107170 -0.028632 -75871.600000 0 0 1
-23.969976 21.496171 -11.299901 34.122322 -0.731042 1.908328 0.079194 -0.026129 -110898.000000 0 0 1
-23.686876 21.019571 -12.596801 34.081811 -0.725806 1.949380 0.077722 -0.019160 -171393.000000 0 0 1
-24.950576 20.755871 -13.418901 35.119856 -0.693880 1.962852 0.062431 -0.031353 -187959.000000 0 0 1
-25.520366 19.470371 -13.093701 34.667411 -0.651728 1.958102 0.081404 -0.025009 148295.000000 0 0 1
-26.800366 19.497671 -13.719001 35.869622 -0.628955 1.963263 0.096206 -0.035682 238657.000000 0 0 1
-27.252946 18.022771 -13.704301 35.430935 -0.584288 1.967944 0.165084 -0.041085 -340522.000000 0 0 1
-26.518256 17.349871 -14.673001 34.921811 -0.579365 2.004426 0.145271 -0.035020 -195766.000000 0 0 1
-27.007996 16.093071 -14.917601 34.798758 -0.537372 2.013830 0.137772 -0.044420 -369793.000000 0 0 1
-26.325546 15.410371 -16.119201 34.501341 -0.529598 2.056923 0.141146 -0.035581 -431729.000000 0 0 1
-25.039156 14.916571 -15.939501 33.219438 -0.537274 2.071251 0.134425 -0.031931 -466562.000000 0 0 1
-24.626876 14.281671 -17.132801 33.226225 -0.525526 2.112552 0.133689 -0.040575 -284845.000000 0 0 1
-23.770176 13.032371 -16.991701 31.993466 -0.501511 2.130694 0.140143 -0.032673 4213.150000 0 0 1
-22.433176 13.318171 -16.587901 30.915684 -0.535761 2.137143 0.125809 -0.036750 47520.900000 0 0 1
-21.761076 12.104071 -16.526101 29.885866 -0.507611 2.156726 0.128919 -0.037310 -411148.000000 0 0 1
-20.457976 12.285571 -15.713601 28.572387 -0.540807 2.153110 0.121759 -0.038644 118397.000000 0 0 1
-19.469976 13.110971 -16.362601 28.613148 -0.592646 2.179563 0.112106 -0.027681 930240.000000 0 0 1
-18.304476 13.169671 -15.544601 27.388477 -0.623679 2.174335 0.107438 -0.017204 177933.000000 0 0 1
-17.385976 14.392371 -15.703701 27.495794 -0.691473 2.178679 0.099716 -0.012805 -313190.000000 0 0 1
-16.691276 14.361271 -16.908001 27.761939 -0.710504 2.225640 0.130933 -0.020325 -139106.000000 0 0 1
-15.870376 15.512271 -16.974701 27.939933 -0.773988 2.223759 0.111641 -0.015210 -217794.000000 0 0 1
-14.917576 15.539571 -18.174901 28.184027 -0.805817 2.271643 0.128680 -0.020749 135105.000000 0 0 1
-13.934876 14.515771 -18.133601 27.087190 -0.805813 2.304269 0.122951 -0.020860 -134274.000000 0 0 1
-12.960976 14.763371 -19.145401 27.431558 -0.850318 2.343304 0.144405 -0.029641 567404.000000 0 0 1
-11.899376 13.609271 -19.151601 26.336120 -0.852330 2.385029 0.131236 -0.033380 363187.000000 0 0 1
-12.425576 12.455871 -19.775901 26.469415 -0.786616 2.414519 0.157760 -0.030904 386307.000000 0 0 1
-11.557776 11.306571 -19.641701 25.440463 -0.774412 2.452881 0.121958 -0.019296 504550.000000 0 0 1
-12.022376 10.170671 -20.631801 25.954793 -0.702155 2.489660 0.150392 -0.029583 179447.000000 0 0 1
-11.635776 10.459671 -21.958601 26.962495 -0.732220 2.522513 0.157133 -0.040468 -180490.000000 0 0 1
-11.819876 9.335271 -22.779401 27.308567 -0.668487 2.557383 0.143636 -0.012262 -86795.400000 0 0 1
-11.330276 9.229871 -24.245501 28.309185 -0.683592 2.599156 0.129255 -0.016838 365346.000000 0 0 1
-9.919676 9.057071 -24.388601 27.843031 -0.739974 2.638161 0.129851 -0.019432 343260.000000 0 0 1
-9.564676 8.418871 -25.639201 28.630910 -0.721770 2.680367 0.103987 -0.029309 -205258.000000 0 0 1
-9.530476 9.335571 -26.860121 29.990814 -0.775068 2.680600 0.154571 -0.040521 658770.000000 0 0 1
-8.276276 10.027071 -27.085341 30.044210 -0.880762 2.694057 0.146412 -0.052002 904538.000000 0 0 1
-8.093576 11.174771 -26.289761 29.690621 -0.943965 2.658272 0.105385 -0.039436 -708477.000000 0 0 1
-6.655076 11.635371 -26.461741 29.663035 -1.051243 2.672719 0.078588 -0.039949 -664703.000000 0 0 1
-6.328476 12.293171 -27.680761 30.941819 -1.095382 2.678347 0.076020 -0.055547 857646.000000 0 0 1
-4.899376 12.427871 -27.681011 30.735878 -1.195278 2.691965 0.080828 -0.046234 412354.000000 0 0 1
-4.354976 12.795271 -29.155711 32.136276 -1.242737 2.707501 0.092293 -0.041204 -3203.340000 0 0 1
-2.950676 12.839371 -29.060021 31.906751 -1.344904 2.715965 0.116110 -0.052399 -58305.300000 0 0 1
-2.270376 13.156171 -30.271411 33.084706 -1.399908 2.726222 0.125909 -0.054322 898290.000000 0 0 1
-0.790976 12.639371 -30.162251 32.713005 -1.508298 2.744079 0.149276 -0.065121 377419.000000 0 0 1
-0.702176 11.236471 -29.930311 31.977724 -1.508387 2.781811 0.120783 -0.043635 257614.000000 0 0 1
0.641024 10.753871 -29.913321 31.794078 1.511258 2.795914 0.115918 -0.044135 671043.000000 0 0 1
1.223224 10.318071 -31.293011 32.972889 1.452795 2.821012 0.131966 -0.048555 -87063.500000 0 0 1
1.496124 11.424771 -32.128271 34.131944 1.440583 2.797246 0.133564 -0.055051 109201.000000 0 0 1
1.644624 11.061171 -33.493491 35.311021 1.423193 2.819351 0.149857 -0.049115 20909.900000 0 0 1
2.012724 12.243871 33.215406 35.457392 1.407867 0.357514 0.145580 -0.056307 111037.000000 0 0 1
3.321524 12.772371 33.325629 35.843599 1.316376 0.377060 0.153755 -0.052658 43705.500000 0 0 1
3.647324 13.508871 32.190376 35.100041 1.307089 0.410043 0.154821 -0.048992 275593.000000 0 0 1
5.172024 13.740371 31.973525 35.183149 1.210789 0.430460 0.164259 -0.043235 23262.700000 0 0 1
5.768824 12.516871 31.596636 34.471710 1.138928 0.411314 0.165337 -0.044052 -587025.000000 0 0 1
7.149924 12.647371 31.435535 34.630482 1.056261 0.432927 0.136542 -0.030673 -383318.000000 0 0 1
7.789724 11.280871 31.072415 33.962227 0.966458 0.415509 0.129260 -0.023725 -46653.200000 0 0 1
7.325324 10.686871 29.911815 32.597336 0.969902 0.408758 0.124460 -0.023460 201338.000000 0 0 1
8.192824 9.588771 29.610475 32.184579 0.863743 0.402663 0.127726 -0.009578 380062.000000 0 0 1
7.800824 8.771571 28.352065 30.686038 0.843907 0.392540 0.110744 -0.014409 -86685.800000 0 0 1
6.822124 7.819071 28.640875 30.462748 0.853385 0.347599 0.106978 -0.018634 -254009.000000 0 0 1
6.603224 6.977571 27.471635 29.102918 0.812956 0.336404 0.108860 -0.016915 -190589.000000 0 0 1
5.806024 5.741271 27.815845 28.989539 0.779791 0.285528 0.123262 -0.026541 -285323.000000 0 0 1
6.444924 4.823471 28.668705 29.777468 0.642485 0.273746 0.096360 -0.025720 -51663.500000 0 0 1
5.511324 3.969871 29.318415 30.094917 0.624228 0.227655 0.115764 -0.038391 -350443.000000 0 0 1
6.100824 2.826271 30.112335 30.853859 0.433826 0.219683 0.120264 -0.033123 -109599.000000 0 0 1
6.457424 1.616171 29.440155 30.183325 0.245243 0.222367 0.109304 -0.020387 754189.000000 0 0 1
7.719524 1.610871 28.732725 29.795226 0.205723 0.267858 0.096811 -0.017297 648496.000000 0 0 1
7.968124 0.270971 28.015705 29.128065 0.033994 0.277251 0.082870 -0.022027 -145887.000000 0 0 1
8.282324 -0.740329 28.912675 30.084677 -0.089150 0.280044 0.055607 -0.028035 -54653.500000 0 0 1
8.380624 -1.988929 28.271305 29.554313 -0.233014 0.295735 0.076070 -0.024499 -530557.000000 0 0 1
8.852324 -3.099529 29.245775 30.712963 -0.336797 0.310342 0.060365 -0.024061 135109.000000 0 0 1
10.235624 -3.009429 29.536155 31.403967 -0.285957 0.346630 0.053513 -0.024859 -163624.000000 0 0 1
10.981724 -3.829029 28.691215 30.958772 -0.335492 0.385114 0.080139 -0.022983 -830287.000000 0 0 1
12.505224 -3.569729 28.772775 31.575247 -0.278064 0.424500 0.061641 -0.016132 30511.700000 0 0 1
13.347724 -4.512329 28.186585 31.512005 -0.325998 0.463549 0.090588 -0.023628 -28922.200000 0 0 1
13.600224 -5.649329 29.043645 32.564004 -0.393699 0.469280 0.103917 -0.022646 -644977.000000 0 0 1
12.948024 -7.002829 28.655715 32.215539 -0.495785 0.474547 0.118022 -0.023221 -87333.500000 0 0 1
11.555824 -6.811729 28.597785 31.587498 -0.532636 0.438590 0.105523 -0.019163 -502939.000000 0 0 1
10.788524 -7.974529 28.481815 31.483316 -0.636532 0.440206 0.115515 -0.021466 87656.900000 0 0 1
9.282024 -7.694529 28.290665 30.752618 -0.692158 0.402860 0.127149 -0.026737 421909.000000 0 0 1
8.556424 -7.431129 29.509905 31.611210 -0.715128 0.366669 0.159332 -0.031681 -679394.000000 0 0 1
7.223124 -7.184629 29.226115 30.950900 -0.782726 0.335416 0.163459 -0.042452 -342146.000000 0 0 1
6.387324 -6.732629 30.502395 31.882947 -0.811711 0.295353 0.152124 -0.045421 357124.000000 0 0 1
6.190624 -7.691629 31.566795 33.074878 -0.893104 0.303140 0.165580 -0.041174 299517.000000 0 0 1
5.588524 -7.146229 32.782368 34.014466 -0.907113 0.269976 0.174287 -0.037905 626111.000000 0 0 1
6.459624 -5.970229 33.424429 34.562449 -0.746046 0.257328 0.173129 -0.034022 381213.000000 0 0 1
6.461224 -4.751929 32.701463 33.670669 -0.634126 0.240516 0.164406 -0.032546 -149892.000000 0 0 1
7.203424 -3.784329 33.390892 34.368040 -0.483722 0.239030 0.139771 -0.023188 -99621.500000 0 0 1
7.278424 -2.528229 32.493606 33.394638 -0.334320 0.232824 0.124837 -0.029797 -96723.100000 0 0 1
6.005024 -2.011629 32.192901 32.809905 -0.323242 0.194240 0.148987 -0.040115 -145048.000000 0 0 1
6.115624 -0.959529 31.338895 31.944450 -0.155629 0.195022 0.118252 -0.024782 171698.000000 0 0 1
4.739624 -0.538529 30.743845 31.111703 -0.113137 0.153930 0.153978 -0.036663 358957.000000 0 0 1
3.898724 0.023271 31.738851 31.977418 0.005969 0.122227 0.148858 -0.037420 273464.000000 0 0 1
2.832624 0.785771 31.151615 31.290004 0.270596 0.094085 0.153941 -0.044839 968712.000000 0 0 1
1.622924 1.230171 32.054589 32.119214 0.648599 0.063446 0.141341 -0.047395 698836.000000 0 0 1
1.937424 2.261271 32.968546 33.102749 0.862376 0.090076 0.128052 -0.030618 5191.360000 0 0 1
1.036224 2.230371 -33.595581 33.685477 1.135870 3.068519 0.100511 -0.033467 -206052.000000 0 0 1
1.528824 3.244271 -32.506321 32.703570 1.130422 3.031706 0.092924 -0.025903 410726.000000 0 0 1
2.603524 2.693171 -31.744651 31.964893 0.802322 3.024136 0.077821 -0.010850 634086.000000 0 0 1
3.417924 3.703471 -31.094261 31.500015 0.825474 2.980914 0.072810 -0.016706 280799.000000 0 0 1
4.373024 3.027271 -30.097901 30.564217 0.605513 2.966688 0.083160 -0.007185 -284545.000000 0 0 1
3.620324 2.638071 -28.975901 29.320113 0.629718 2.988212 0.068842 -0.008183 -45229.300000 0 0 1
4.416424 2.491271 -27.862991 28.320620 0.513598 2.961578 0.089209 -0.019428 -614128.000000 0 0 1
3.852524 1.667071 -26.655881 26.984385 0.408393 2.985396 0.063236 -0.020950 -257643.000000 0 0 1
4.075024 0.293071 -26.806051 27.115606 0.071795 2.990345 0.083314 -0.014579 93765.100000 0 0 1
3.606524 -0.385929 -25.641281 25.896549 -0.106603 3.001069 0.085532 -0.014891 -203474.000000 0 0 1
4.219224 -1.755329 -25.284161 25.693809 -0.394250 2.962785 0.100107 -0.033765 334839.000000 0 0 1
5.565824 -1.671129 -24.808501 25.480047 -0.291685 2.911495 0.098286 -0.044111 267078.000000 0 0 1
6.016224 -2.993329 -24.681001 25.579421 -0.461680 2.875772 0.116324 -0.049453 -217649.000000 0 0 1
7.486124 -3.138929 -24.239001 25.562161 -0.397032 2.818435 0.135400 -0.057244 651558.000000 0 0 1
8.408224 -2.791329 -25.302451 26.808651 -0.320528 2.804792 0.137072 -0.046116 170378.000000 0 0 1
9.749924 -2.994329 -24.907101 26.914507 -0.297970 2.752927 0.123794 -0.036753 139881.000000 0 0 1
-30.786096 -3.826929 17.493015 35.615090 0.123673 1.057365 0.165955 -0.019933 635048.000000 0 0 1
-32.206346 -3.924129 17.457615 36.843124 0.121246 1.077154 0.142798 -0.013648 282161.000000 0 0 1
-32.709046 -5.011029 18.238815 37.784209 0.152018 1.067050 0.135475 -0.024204 758862.000000 0 0 1
-34.176421 -4.695229 18.692415 39.236199 0.136527 1.074232 0.133422 -0.019156 494465.000000 0 0 1
-35.120624 -4.844629 17.652115 39.604618 0.137077 1.108831 0.118389 -0.016378 565691.000000 0 0 1
-36.432506 -4.657129 18.218815 40.999287 0.127139 1.110326 0.092325 -0.007324 1148100.000000 0 0 1
-37.593796 -4.603829 17.182815 41.590117 0.121856 1.144890 0.074371 -0.009426 -196087.000000 0 0 1
36.535518 -4.617529 17.667815 40.845041 -0.125718 1.123469 0.065838 -0.007674 -667141.000000 0 0 1
35.679628 -4.516129 16.525315 39.579254 -0.125905 1.140077 0.072077 -0.016675 1780540.000000 0 0 1
34.169938 -4.970929 16.840015 38.417196 -0.144463 1.117039 0.069536 -0.008961 1543040.000000 0 0 1
33.545008 -4.163529 17.822815 38.213287 -0.123486 1.085576 0.081127 -0.016386 151157.000000 0 0 1
32.355128 -4.784829 18.238015 37.448286 -0.146821 1.062123 0.100833 -0.022184 149937.000000 0 0 1
31.548788 -4.227229 19.467615 37.311976 -0.133197 1.021892 0.110729 -0.022569 471088.000000 0 0 1
30.641308 -3.135929 19.391715 36.397286 -0.101988 1.008915 0.118246 -0.025273 221806.000000 0 0 1
31.163188 -1.905829 18.987615 36.541839 -0.061080 1.024398 0.128000 -0.022905 -295997.000000 0 0 1
30.075798 -0.816429 18.941415 35.552741 -0.027139 1.008927 0.114845 -0.016827 157406.000000 0 0 1
30.644858 0.491571 18.665615 35.885292 0.016040 1.023774 0.125501 -0.021413 210746.000000 0 0 1
29.811198 1.565471 19.039715 35.407188 0.052465 1.003047 0.099268 -0.025585 -224685.000000 0 0 1
30.290098 2.954471 18.519115 35.625505 0.097232 1.024147 0.098593 -0.024348 -209660.000000 0 0 1
30.161098 3.228971 17.118115 34.830274 0.106651 1.057017 0.114803 -0.019935 -412058.000000 0 0 1
28.997498 3.902971 16.745415 33.711971 0.133793 1.050981 0.124244 -0.027161 -256353.000000 0 0 1
28.977998 4.268871 15.217415 33.007838 0.146262 1.091647 0.131998 -0.019820 -193991.000000 0 0 1
28.163598 5.373971 14.941815 32.331497 0.188546 1.090385 0.169764 -0.033462 38372.400000 0 0 1
27.865998 5.470871 13.533015 31.457698 0.193862 1.126085 0.136273 -0.024276 77306.100000 0 0 1
27.240998 6.911571 13.238415 31.066017 0.248476 1.130577 0.163108 -0.006815 -112017.000000 0 0 1
25.945098 7.077071 13.745715 30.202280 0.266293 1.098287 0.093759 -0.006786 -68606.800000 0 0 1
25.376898 8.302571 13.346515 29.850446 0.316194 1.107261 0.139913 -0.028476 -535492.000000 0 0 1
23.939798 8.659371 13.769515 28.943016 0.347073 1.074985 0.114660 -0.035034 1325580.000000 0 0 1
22.763298 7.935671 13.264415 27.515220 0.335442 1.067774 0.116745 -0.023778 2025390.000000 0 0 1
22.813798 6.588871 13.617015 27.373449 0.281160 1.050136 0.114738 -0.025117 -861206.000000 0 0 1
21.513798 5.784471 13.289815 25.940756 0.262661 1.032919 0.123655 -0.026081 70065.200000 0 0 1
21.235798 5.687771 11.909715 25.003023 0.261696 1.074319 0.132296 -0.038189 185241.000000 0 0 1
20.127598 4.886671 11.660615 23.769091 0.238176 1.058042 0.123583 -0.029235 -558998.000000 0 1 0
19.807798 4.596971 10.182915 22.741433 0.228042 1.106527 0.137354 -0.032309 -32686.300000 0 1 0
20.894398 3.902171 9.606215 23.325569 0.184630 1.146333 0.145597 -0.033890 680462.000000 0 1 0
20.583098 3.583971 8.252715 22.463661 0.172394 1.194605 0.162920 -0.037120 208342.000000 0 1 0
21.759598 2.978671 7.413915 23.180137 0.136044 1.245237 0.171759 -0.035841 -494286.000000 0 1 0
22.170798 1.722571 7.927915 23.608545 0.077540 1.228334 0.183629 -0.038185 263083.000000 0 1 0
23.012098 0.948071 7.132415 24.110721 0.041176 1.270483 0.174910 -0.028592 -188947.000000 0 1 0
24.528098 1.295471 7.200215 25.595877 0.052767 1.285644 0.150729 -0.020645 -239653.000000 0 0 1
25.161198 0.884171 8.363415 26.529500 0.035126 1.250077 0.150814 -0.003495 187758.000000 0 0 1
25.204898 1.851771 9.374115 26.955333 0.073337 1.215610 0.147653 -0.005575 -681510.000000 0 0 1
25.843298 1.314771 10.639215 27.978520 0.050831 1.180715 0.128033 -0.005398 -273401.000000 0 0 1
27.244898 1.437871 10.573315 29.259989 0.052727 1.201073 0.140192 -0.014206 187876.000000 0 0 1
27.965698 0.427571 11.319615 30.172782 0.015288 1.186227 0.123494 -0.012453 1190680.000000 0 0 1
29.509798 0.703271 11.202615 31.572478 0.023827 1.208072 0.191653 -0.014546 828292.000000 0 0 1
30.070198 1.768771 11.918415 32.394351 0.058754 1.194029 0.189284 -0.023268 -500087.000000 0 0 1
31.395558 2.009571 11.578615 33.522884 0.063921 1.218137 0.178096 -0.026157 -426549.000000 0 0 1
32.086778 3.250371 12.240315 34.495675 0.100955 1.208057 0.176008 -0.034319 -175817.000000 0 0 1
33.398688 3.422171 11.782515 35.581052 0.102108 1.233279 0.183214 -0.045105 -155457.000000 0 0 1
34.043468 4.466471 12.474215 36.530989 0.130454 1.222316 0.167643 -0.047788 -1009260.000000 0 0 1
35.408848 4.790471 11.921315 37.667664 0.134474 1.248773 0.195561 -0.037348 -1086330.000000 0 0 1
36.340738 3.791071 12.229815 38.530376 0.103944 1.247802 0.192427 -0.045735 -704241.000000 0 0 1
37.625838 4.157471 11.848515 39.665799 0.110049 1.267457 0.188063 -0.033902 -265329.000000 0 0 1
-36.703336 3.249771 12.489915 38.906219 -0.088311 1.243983 0.184310 -0.024794 -193738.000000 0 0 1
-36.553876 1.942871 11.965115 38.511356 -0.053101 1.254877 0.162093 -0.023434 399131.000000 0 0 1
-37.598316 0.996271 12.215115 39.545353 -0.026492 1.256772 0.164841 -0.028082 100160.000000 0 0 1
37.529278 0.678571 13.713915 39.962215 0.018079 1.220504 0.158904 -0.020799 184293.000000 0 0 1
-36.913066 -0.125529 14.375515 39.613705 0.003401 1.199426 0.134138 -0.019781 635783.000000 0 0 1
-37.298376 -0.319829 15.759515 40.492387 0.008575 1.171037 0.135788 -0.019784 300853.000000 0 0 1
-36.189036 -1.018129 16.601815 39.828421 0.028126 1.140838 0.120750 -0.012739 -574021.000000 0 0 1
-35.119267 -0.188029 16.850715 38.953111 0.005354 1.123433 0.134130 -0.013520 -901188.000000 0 0 1
-34.159464 -0.780029 17.686215 38.474402 0.022831 1.093153 0.134951 -0.007414 -211315.000000 0 0 1
-34.326749 -0.628829 19.217615 39.345112 0.018317 1.060498 0.118066 -0.009541 -424883.000000 0 0 1
-35.302011 -1.486329 19.790215 40.498071 0.042078 1.060231 0.108540 -0.013979 143801.000000 0 0 1
-35.301517 -1.428129 21.192115 41.198815 0.040433 1.030504 0.104352 -0.014384 168170.000000 0 0 1
-35.985946 -2.670329 21.839015 42.178923 0.074069 1.026553 0.091080 -0.014367 278397.000000 0 0 1
-35.199534 -3.870229 21.824515 41.596818 0.109511 1.018471 0.106360 -0.013618 298214.000000 0 0 1
-35.796921 -4.941329 22.558865 42.599750 0.137171 1.012722 0.098306 -0.016332 56013.400000 0 0 1
-35.894156 -4.713729 24.100395 43.490674 0.130576 0.983454 0.101368 -0.028506 -396675.000000 0 0 1
-34.668783 -4.335729 24.627495 42.746188 0.124416 0.956807 0.119172 -0.028738 -877524.000000 0 0 1
-34.628896 -4.463029 26.032365 43.551844 0.128175 0.930126 0.122788 -0.036168 670640.000000 0 0 1
-33.493826 -3.614829 26.746205 43.014682 0.107509 0.899767 0.126981 -0.032216 646807.000000 0 0 1
-33.500806 -2.214629 26.587135 42.826211 0.066011 0.901015 0.119759 -0.026999 266946.000000 0 0 1
-32.636156 -1.855329 25.483045 41.448118 0.056788 0.908641 0.115682 -0.018824 474401.000000 0 0 1
-32.571406 -0.329429 25.268665 41.225119 0.010114 0.911016 0.093555 -0.014182 167763.000000 0 0 1
-33.830206 0.098771 24.788045 41.939716 -0.002920 0.938449 0.121103 -0.019592 129421.000000 0 0 1
-33.809026 1.412571 24.276145 41.645850 -0.041757 0.948480 0.113684 -0.004826 -359299.000000 0 0 1
-35.186941 2.009471 23.999355 42.639510 -0.057046 0.972975 0.145750 -0.012358 -478215.000000 0 0 1
-35.860248 1.565871 22.830325 42.539782 -0.043638 1.004297 0.152046 -0.012200 1051780.000000 0 0 1
-37.102406 2.289771 22.593645 43.500625 -0.061637 1.024663 0.148697 -0.005095 1471170.000000 0 0 1
-36.817496 3.713371 21.971315 43.035518 -0.100519 1.034985 0.151513 -0.001219 298310.000000 0 0 1
-36.143016 3.714271 20.705315 41.818937 -0.102406 1.052825 0.148036 -0.014706 524962.000000 0 0 1
-37.112496 3.553471 19.672115 42.153963 -0.095458 1.085271 0.164542 -0.023252 534058.000000 0 0 1
-36.423976 3.000371 18.462215 40.945838 -0.082188 1.103030 0.170356 -0.020908 -100303.000000 0 0 1
-35.641883 3.830671 17.657915 39.960228 -0.107066 1.113095 0.195361 -0.029176 -217476.000000 0 0 1
-35.107394 3.152171 16.576915 38.952014 -0.089546 1.131202 0.197269 -0.015935 -554418.000000 0 0 1
-34.023242 3.845771 15.750915 37.689020 -0.112556 1.139644 0.189775 -0.023684 -185433.000000 0 0 1
-34.533778 4.986871 15.083215 38.012551 -0.143414 1.162773 0.210853 -0.032072 556818.000000 0 0 1
-33.576446 5.528871 14.169115 36.860683 -0.163201 1.176242 0.213868 -0.026669 -23549.700000 0 0 1
-34.142350 6.656471 13.330115 37.251854 -0.192547 1.204845 0.231787 -0.028527 -158773.000000 0 0 1
-33.183216 7.312171 12.529515 36.215776 -0.216891 1.217526 0.262796 -0.028973 276012.000000 0 0 1
-33.778446 8.365671 11.801115 36.745533 -0.242778 1.243845 0.224783 -0.023467 44239.100000 0 0 1
-32.715496 9.162471 11.016915 35.715920 -0.273069 1.257223 0.248257 -0.026200 -22957.300000 0 0 1
-33.209316 10.350071 10.464515 36.324767 -0.302121 1.278573 0.210290 0.000115 -320002.000000 0 0 1
-32.213866 11.103971 9.837215 35.465506 -0.331941 1.289736 0.203212 -0.020534 -258645.000000 0 0 1
-32.649386 12.527171 9.394315 36.210020 -0.366366 1.308354 0.164889 -0.014427 45258.200000 0 0 1
-31.581026 13.224271 8.780115 35.345904 -0.396557 1.319763 0.162621 -0.016583 321043.000000 0 0 1
-31.937896 14.599071 8.562915 36.145340 -0.428749 1.331620 0.137635 -0.005393 410459.000000 0 0 1
-30.842246 15.363871 7.751015 35.318138 -0.462161 1.349533 0.132650 -0.012705 188375.000000 0 0 1
-29.604056 15.572871 8.381615 34.484285 -0.484261 1.325281 0.157559 -0.012205 -595434.000000 0 0 1
-28.719006 16.256971 7.580515 33.860517 -0.515097 1.345008 0.133296 -0.024678 -354905.000000 0 0 1
-27.294116 16.239871 8.207615 32.803462 -0.536731 1.317904 0.143371 -0.006980 -6014.680000 0 0 1
-27.136286 16.785971 9.494415 33.291001 -0.553970 1.281587 0.135796 -0.008429 127213.000000 0 0 1
-27.193946 18.202271 9.578315 34.096590 -0.589858 1.286047 0.130874 -0.012663 -187281.000000 0 0 1
-27.180216 18.772571 11.023415 34.823688 -0.604437 1.248707 0.140064 -0.003086 -260893.000000 0 0 1
-25.886776 18.801771 11.563215 34.019696 -0.628165 1.223988 0.127526 0.000393 -92741.800000 0 0 1
-25.695226 19.412971 12.866315 34.679246 -0.647017 1.190701 0.129101 -0.012361 -8626.650000 0 0 1
-26.200576 18.487271 14.073415 35.018715 -0.614478 1.157224 0.118603 -0.009043 164938.000000 0 0 1
-25.402276 17.350371 14.310015 33.927681 -0.599242 1.135389 0.115680 -0.010608 466882.000000 0 0 1
-25.927506 16.706771 15.497615 34.518514 -0.572404 1.105189 0.106268 -0.005288 -441108.000000 0 0 1
-24.934876 15.706571 16.039415 33.551561 -0.562118 1.072360 0.106926 -0.010122 -451066.000000 0 0 1
-23.830376 16.243471 16.766215 33.359303 -0.598290 1.044199 0.111584 -0.014046 24563.600000 0 0 1
-22.753076 15.344271 16.796715 32.175748 -0.593325 1.021567 0.085145 -0.028343 -177052.000000 0 0 1
-22.895276 14.109971 17.654315 32.170791 -0.552306 0.989906 0.094872 -0.015100 -769291.000000 0 0 1
-22.940976 14.331371 19.047915 33.083223 -0.558388 0.957266 0.101078 -0.013091 -70822.200000 0 0 1
-23.126176 13.138571 19.740915 33.123191 -0.516653 0.932305 0.093188 -0.015835 -513314.000000 0 0 1
-23.076876 13.315071 21.290815 34.104723 -0.523327 0.896590 0.087624 -0.013378 444026.000000 0 0 1
-21.780076 13.542971 21.839915 33.686283 -0.556299 0.865404 0.088771 -0.009566 230956.000000 0 0 1
-21.252276 14.835971 21.614515 33.748371 -0.609442 0.875698 0.101474 0.000385 -953481.000000 0 0 1
-19.805476 14.885671 22.106415 33.204422 -0.644520 0.842275 0.110081 -0.013913 361031.000000 0 0 1
-18.841576 14.343171 21.158815 31.755740 -0.650663 0.841562 0.088872 -0.015869 540450.000000 0 0 1
-18.194676 15.371971 20.441615 31.387949 -0.701503 0.861557 0.072866 -0.015016 -873512.000000 0 0 1
-16.995876 14.883271 19.568015 29.887770 -0.719226 0.856989 0.063534 -0.005590 814729.000000 0 0 1
-15.805376 14.477571 20.221715 29.467401 -0.741580 0.814489 0.063103 -0.005229 425598.000000 0 0 1
-15.111976 15.487471 20.936415 30.109252 -0.797669 0.801892 0.047154 -0.005216 -938327.000000 0 0 1
-14.014376 15.009071 21.893115 30.016386 -0.819657 0.753393 0.028100 -0.006240 -817807.000000 0 0 1
-12.879576 14.539071 21.255415 28.793415 -0.845849 0.740392 0.037611 -0.006882 -579811.000000 0 0 1
-11.984276 14.059671 22.239915 28.912126 -0.864918 0.693170 0.048694 -0.009349 1539670.000000 0 0 1
-10.550376 13.478771 21.843715 27.751317 -0.906669 0.664665 0.043851 -0.004997 493183.000000 0 0 1
-9.899376 12.694871 22.800545 27.910970 -0.908499 0.614776 0.038793 -0.008139 480123.000000 0 0 1
-8.687476 12.069971 22.374815 26.866127 -0.946932 0.586602 0.047964 0.003219 1280070.000000 0 0 1
-7.452376 13.058171 22.256315 26.858840 -1.052195 0.594122 0.048996 0.007290 -275769.000000 0 0 1
-7.348176 13.873171 21.024315 26.238948 -1.083697 0.641392 0.043377 0.000725 -130306.000000 0 0 1
-6.569476 15.033971 21.290215 26.878459 -1.158826 0.656567 0.041978 0.002448 -137798.000000 0 0 1
-7.245976 16.163571 22.154915 28.365568 -1.149365 0.674452 0.052135 0.000315 272512.000000 0 0 1
-8.338176 16.761771 21.486315 28.498138 -1.109189 0.716734 0.021748 0.000750 -197586.000000 0 0 1
-7.992076 18.011771 20.965015 28.772018 -1.153182 0.754433 0.034282 0.003198 -515813.000000 0 0 1
-8.937676 18.376871 19.766515 28.430733 -1.118125 0.802026 0.032748 0.009379 428233.000000 0 0 1
-10.217476 18.822171 20.057015 29.342031 -1.073465 0.818168 0.020453 0.005992 -229084.000000 0 0 1
-11.155876 17.940171 20.679515 29.562572 -1.014474 0.796075 0.026599 0.001596 -1172460.000000 0 0 1
-12.540776 18.473571 20.894015 30.579466 -0.974407 0.818565 0.026564 -0.003631 -924668.000000 0 0 1
-13.325876 18.526971 19.735015 30.171153 -0.947255 0.857801 0.032311 -0.003263 -174835.000000 0 0 1
-14.563876 19.178871 19.949315 31.271565 -0.921325 0.878979 0.018845 -0.004531 63446.200000 0 0 1
-15.326176 19.157771 18.602015 30.788745 -0.896057 0.922057 0.042557 -0.005628 -677017.000000 0 0 1
-15.909276 17.953271 18.168915 30.092100 -0.845687 0.922566 0.055900 -0.007703 118420.000000 0 0 1
-16.688476 18.205571 17.005815 29.985760 -0.828848 0.967780 0.070038 -0.024312 -832886.000000 0 0 1
-17.681576 17.079971 16.676715 29.706504 -0.768093 0.974741 0.070184 -0.029148 198515.000000 0 0 1
-18.680176 16.787571 17.631915 30.686413 -0.732087 0.958701 0.064770 -0.020947 434177.000000 0 0 1
-19.732376 17.769871 17.700015 31.912780 -0.733116 0.982869 0.081666 -0.020242 -154961.000000 0 0 1
35.813388 -9.496729 12.045799 38.960081 -0.259207 1.256462 0.090720 -0.034886 421744.000000 0 0 1
34.510098 -9.842529 11.521599 37.690443 -0.277831 1.260133 0.089896 -0.025012 827353.000000 0 0 1
34.152218 -11.007329 12.186799 37.895295 -0.311790 1.243387 0.093438 -0.018872 676458.000000 0 0 1
32.607478 -11.260629 12.099899 36.557584 -0.332516 1.233452 0.111152 -0.014065 1556690.000000 0 0 1
31.663888 -10.347829 12.769899 35.675618 -0.315861 1.204730 0.125373 -0.011172 1762580.000000 0 0 1
30.276598 -10.692229 12.707099 34.532109 -0.339480 1.193961 0.129982 -0.017161 1032290.000000 0 0 1
29.727698 -11.828729 13.662399 34.789596 -0.378697 1.167214 0.099358 -0.002267 -620362.000000 0 0 1
29.732198 -11.322729 14.988799 35.169190 -0.363867 1.130518 0.113253 -0.008887 462976.000000 0 0 1
28.678698 -11.696029 15.872499 34.802314 -0.387238 1.097215 0.105741 -0.010016 235061.000000 0 0 1
27.301298 -11.040529 15.682799 33.364717 -0.384290 1.081459 0.103060 -0.026893 -280442.000000 0 0 1
27.311098 -9.673929 15.970599 33.083848 -0.340423 1.067026 0.096154 -0.016044 -764946.000000 0 0 1
26.388698 -9.014829 15.194299 31.756846 -0.329187 1.071899 0.123181 -0.021255 -403577.000000 0 0 1
26.106098 -7.578029 15.686299 31.384946 -0.282514 1.047425 0.152603 -0.041012 1020690.000000 0 0 1
27.305498 -6.757329 15.662299 32.195642 -0.242597 1.062748 0.126257 -0.036234 849985.000000 0 0 1
27.122498 -5.414829 16.127799 32.016499 -0.197053 1.042880 0.143957 -0.038002 270568.000000 0 0 1
28.449898 -4.615329 16.059299 32.993924 -0.160825 1.062448 0.134648 -0.032061 163878.000000 0 0 1
28.922598 -4.389929 14.782199 32.776540 -0.150632 1.102912 0.157778 -0.033299 -47881.100000 0 0 1
30.225298 -3.853529 14.876399 33.907604 -0.126809 1.116608 0.136531 -0.028440 141648.000000 0 0 1
30.804528 -3.224329 13.585999 33.821511 -0.104291 1.157427 0.148358 -0.033370 -124017.000000 0 0 1
31.018418 -4.116529 12.507599 33.697598 -0.131941 1.190526 0.139268 -0.030859 254257.000000 0 0 1
31.007368 -3.374029 11.324899 33.182741 -0.108387 1.222509 0.150840 -0.035942 53582.300000 0 0 1
31.436738 -4.370529 10.158999 33.325295 -0.138141 1.261022 0.162662 -0.035510 -105090.000000 0 0 1
32.827658 -4.559629 10.135299 34.657894 -0.138013 1.274021 0.151420 -0.041186 24692.700000 0 0 1
33.232298 -5.316829 8.976299 34.831426 -0.158645 1.310148 0.149752 -0.044640 290901.000000 0 0 1
34.683268 -5.859829 9.059299 36.322687 -0.167372 1.318724 0.126752 -0.045029 225140.000000 0 0 1
35.730848 -4.918729 8.966299 37.165601 -0.136801 1.327140 0.125561 -0.053066 733753.000000 0 0 1
36.951698 -5.647129 8.696399 38.378971 -0.151651 1.342218 0.140644 -0.052012 1253040.000000 0 0 1
-37.258216 -4.735929 8.337199 38.472231 0.126433 1.352356 0.147905 -0.054881 419884.000000 0 0 1
-37.269076 -4.260929 7.004899 38.160295 0.113835 1.386184 0.161302 -0.047944 251148.000000 0 0 1
-36.077966 -3.546129 6.702099 36.866147 0.097976 1.387984 0.165003 -0.044753 251107.000000 0 0 1
-36.072726 -2.948729 5.337799 36.584541 0.081563 1.424371 0.171866 -0.042754 -93569.100000 0 0 1
-35.509133 -3.834929 4.402699 35.985955 0.107581 1.448144 0.202421 -0.052700 81052.200000 0 0 1
-35.664204 -3.327329 3.061099 35.949643 0.093027 1.485543 0.215961 -0.047271 247103.000000 0 0 1
-34.937611 -4.204329 1.991699 35.245992 0.119762 1.514258 0.257900 -0.053317 311797.000000 0 0 1
-35.495754 -5.563329 1.937199 35.981271 0.155467 1.516931 0.249101 -0.040945 930072.000000 0 0 1
-36.547876 -5.792029 0.960699 37.016452 0.157171 1.544840 0.230189 -0.044963 654872.000000 0 0 1
-36.096206 -6.014929 -0.503101 36.597384 0.165119 1.584544 0.260159 -0.047751 -595977.000000 0 0 1
-35.618029 -7.313529 -0.904701 36.372382 0.202517 1.595672 0.278892 -0.071011 675069.000000 0 0 1
-34.787596 -7.375829 -2.064101 35.620783 0.208931 1.628775 0.245422 -0.057748 1145490.000000 0 0 1
-33.374646 -6.639929 -2.003901 34.087699 0.196387 1.629617 0.238599 -0.056263 47425.000000 0 0 1
-32.514616 -7.366329 -1.190801 33.359872 0.222793 1.606500 0.256292 -0.053150 -970188.000000 0 0 1
-31.348926 -6.619729 -1.020401 32.056468 0.208106 1.602633 0.239734 -0.055707 -903088.000000 0 0 1
-30.455576 -7.336129 -0.012201 31.326682 0.236377 1.571186 0.217172 -0.046378 -515000.000000 0 0 1
-30.047776 -8.583529 -0.552601 31.254618 0.278252 1.588478 0.211393 -0.026760 541684.000000 0 0 1
-29.238566 -9.299029 0.410099 30.684423 0.307924 1.557431 0.234014 -0.036789 230174.000000 0 0 1
-28.890776 -10.699429 -0.008401 30.808355 0.354680 1.571069 0.188821 -0.022118 -259272.000000 0 0 1
-27.909136 -10.655529 -1.029001 29.891788 0.364713 1.605227 0.171700 -0.017396 169622.000000 0 0 1
-27.301366 -11.908129 -1.336001 29.815315 0.411296 1.615621 0.150543 -0.003085 -123029.000000 0 0 1
-28.078516 -12.993729 -2.107001 31.010957 0.433418 1.638792 0.153146 -0.008937 -175961.000000 0 0 1
-29.150886 -13.586029 -1.385301 32.191200 0.436128 1.613843 0.190636 -0.024921 458819.000000 0 0 1
-29.651046 -14.690029 -2.138001 33.159501 0.459985 1.635317 0.169756 -0.015456 279808.000000 0 0 1
-30.889426 -15.350529 -1.446201 34.523714 0.461205 1.612699 0.188244 -0.015779 348676.000000 0 0 1
-30.523296 -16.209029 -0.381901 34.562263 0.488169 1.581846 0.146741 -0.009060 612759.000000 0 0 1
-31.673086 -16.782129 0.244599 35.845279 0.487245 1.563973 0.181885 -0.017358 409386.000000 0 0 1
-31.825336 -18.289029 -0.124101 36.706348 0.521585 1.574177 0.169975 -0.019625 -352077.000000 0 0 1
-30.796696 -19.106129 0.348199 36.243646 0.555281 1.561189 0.185631 -0.028121 -38920.900000 0 0 1
-31.066926 -20.503629 0.102099 37.223153 0.583361 1.568053 0.159723 -0.025784 136747.000000 0 0 1
-31.908476 -21.203029 1.206499 38.329817 0.586498 1.539314 0.143064 -0.029161 -93512.000000 0 0 1
-31.220546 -21.262229 2.451199 37.852519 0.597883 1.505994 0.142567 -0.028703 711767.000000 0 0 1
-32.083816 -21.837629 3.466999 38.965027 0.597616 1.481701 0.129414 -0.029338 479452.000000 0 0 1
-31.310286 -22.091529 4.775999 38.615797 0.614453 1.446799 0.124512 -0.030135 -143681.000000 0 0 1
-30.902176 -20.834329 5.333499 37.649169 0.593202 1.428655 0.120373 -0.029455 -291520.000000 0 0 1
-30.083316 -21.126929 6.425099 37.318024 0.612255 1.397763 0.119560 -0.032477 -389983.000000 0 0 1
-29.524436 -19.779329 6.911199 36.203298 0.590259 1.378718 0.136127 -0.029958 -276662.000000 0 0 1
-28.532476 -20.098629 7.856999 35.774145 0.613681 1.349363 0.133070 -0.043269 -303333.000000 0 0 1
-27.966066 -18.840629 8.273999 34.720731 0.592853 1.330180 0.142993 -0.044332 -25442.900000 0 0 1
-26.993266 -19.012729 9.435199 34.338655 0.613640 1.292447 0.150830 -0.042154 -173708.000000 0 0 1
-27.633326 -19.306029 10.683899 35.361973 0.609819 1.263870 0.130905 -0.041226 251361.000000 0 0 1
-26.763126 -19.414529 11.816499 35.111515 0.627584 1.227554 0.124152 -0.030133 40585.100000 0 0 1
-26.156186 -18.133729 12.408299 34.160563 0.606206 1.199059 0.103202 -0.028196 -432706.000000 0 0 1
-25.191696 -17.434329 11.607099 32.761290 0.605382 1.208638 0.105340 -0.028415 485128.000000 0 0 1
-24.782976 -16.220429 12.285699 32.066128 0.579531 1.177607 0.112426 -0.018772 623060.000000 0 0 1
-23.863576 -16.384429 13.536499 31.955540 0.601667 1.133376 0.095532 -0.017531 -355137.000000 0 0 1
-24.707876 -16.770829 14.618899 33.248339 0.596331 1.115545 0.097377 -0.027915 210577.000000 0 0 1
-24.150476 -17.304729 15.825799 33.662368 0.621739 1.081355 0.106263 -0.024173 -755925.000000 0 0 1
-25.200786 -17.874029 16.765199 35.151563 0.616917 1.073626 0.102203 -0.005522 -366939.000000 0 0 1
-25.945056 -16.882129 17.415099 35.516727 0.576859 1.058322 0.123450 -0.012216 90806.000000 0 0 1
-26.906306 -17.441329 18.304299 36.921492 0.575126 1.052083 0.104826 0.004856 385495.000000 0 0 1
-27.790926 -16.354229 19.001699 37.428077 0.531901 1.038300 0.112879 0.008444 180965.000000 0 0 1
-27.039606 -15.685929 20.011799 37.116853 0.525666 1.001361 0.108895 -0.000357 89893.700000 0 0 1
-27.813796 -14.787729 20.737999 37.714039 0.488661 0.988582 0.119660 -0.005349 7450.080000 0 0 1
-26.992096 -14.047129 21.862899 37.468406 0.479847 0.947762 0.122771 -0.011755 159725.000000 0 0 1
-26.094276 -13.053229 21.397699 36.182310 0.463834 0.938020 0.132961 -0.013371 -779412.000000 0 0 1
-24.913076 -13.154829 22.082499 35.795916 0.485819 0.905999 0.132510 -0.019870 -1410290.000000 0 0 1
-23.740576 -12.479029 21.388299 34.304525 0.483950 0.897606 0.123901 -0.020914 -503401.000000 0 0 1
-23.670576 -11.100829 21.774199 34.024113 0.438518 0.876345 0.160439 -0.013455 515147.000000 0 0 1
-22.734776 -10.423429 20.936099 32.616532 0.429883 0.873841 0.129857 -0.017994 -537688.000000 0 0 1
-22.468776 -8.937629 21.408099 32.296034 0.378591 0.846150 0.136291 -0.012855 487875.000000 0 0 1
-21.745476 -8.829829 22.669099 32.630042 0.385714 0.802751 0.131824 -0.010224 785255.000000 0 0 1
-20.474776 -9.441029 22.759299 32.036466 0.432051 0.780704 0.090020 -0.003897 -373680.000000 0 0 1
-20.008876 -9.673229 24.219799 32.871342 0.450318 0.742462 0.059861 -0.002461 122413.000000 0 0 1
-20.269376 -11.000729 24.611699 33.728317 0.497242 0.752907 0.069864 -0.005517 64116.500000 0 0 1
-19.667476 -11.284129 25.862999 34.395289 0.520891 0.719805 0.070941 0.003123 -908192.000000 0 0 1
-19.887976 -12.676729 26.469199 35.452074 0.567471 0.727831 0.089144 -0.031302 561889.000000 0 0 1
-21.122576 -12.809129 27.153599 36.709058 0.545126 0.738176 0.093353 -0.019350 272072.000000 0 0 1
-22.336976 -12.844429 26.444199 36.921748 0.521857 0.772422 0.080973 -0.011932 -210745.000000 0 0 1
-23.612576 -13.115029 27.259499 38.374966 0.506999 0.780807 0.075916 -0.013743 78847.800000 0 0 1
-23.631176 -14.419029 27.801999 39.233812 0.547864 0.783251 0.069479 -0.013530 -169100.000000 0 0 1
-22.997776 -14.477329 29.103799 39.818612 0.561836 0.751143 0.067536 -0.013943 31297.300000 0 0 1
-23.498376 -15.425629 30.200999 41.258018 0.580900 0.749539 0.048710 -0.012189 -499340.000000 0 0 1
-23.338576 -16.808229 29.913599 41.497338 0.624149 0.765760 0.050543 -0.008179 -112912.000000 0 0 1
-23.423676 -17.621729 31.087999 42.727715 0.644974 0.756003 0.059199 -0.007122 30518.400000 0 0 1
-24.822376 -17.855229 31.707399 44.049049 0.623575 0.767253 0.048295 -0.008113 33225.200000 0 0 1
-25.293836 -16.702329 32.395099 44.364269 0.583604 0.752171 0.060222 -0.011737 -635902.000000 0 0 1
-26.489506 -16.978629 33.053399 45.634361 0.569992 0.760764 0.061976 -0.012817 -466600.000000 0 0 1
-27.206576 -15.831529 33.787599 46.178317 0.527005 0.750018 0.062415 -0.013406 -191994.000000 0 0 1
-26.661436 -15.539929 -32.584917 44.878707 0.527722 2.383380 0.073729 -0.016303 -343483.000000 0 0 1
-27.267826 -14.503229 -31.916317 44.413165 0.488826 2.372616 0.075370 -0.017786 -534728.000000 0 0 1
-26.509866 -14.025929 -30.638217 42.874235 0.486643 2.366858 0.079775 -0.015529 -149085.000000 0 0 1
-26.599296 -14.859629 -29.483617 42.398287 0.509458 2.339768 0.100958 -0.011786 -242251.000000 0 0 1
-25.949756 -14.316829 -28.419617 41.061369 0.504158 2.335226 0.118363 -0.013662 -515467.000000 0 0 1
-26.405576 -14.930629 -27.100317 40.676840 0.514616 2.299944 0.099948 -0.017990 280271.000000 0 0 1
-27.763026 -14.682329 -26.739317 41.247393 0.486456 2.276102 0.111917 -0.027210 317194.000000 0 0 1
-27.987056 -13.660429 -25.769317 40.422027 0.454081 2.262054 0.129985 -0.029804 -417318.000000 0 0 1
-27.265536 -13.734729 -24.382817 39.071396 0.466635 2.244722 0.120895 -0.038241 446834.000000 0 0 1
-25.884186 -13.321829 -24.578417 38.099354 0.475315 2.271968 0.077080 -0.027572 1069510.000000 0 0 1
-25.040996 -13.808129 -23.553617 37.047115 0.503933 2.259808 0.059862 -0.027400 27374.400000 0 0 1
-24.539476 -15.231329 -23.915517 37.498416 0.555492 2.262401 0.043039 -0.019315 -827501.000000 0 0 1
-23.653076 -15.346229 -25.008817 37.688402 0.575535 2.296374 0.037649 -0.008619 191815.000000 0 0 1
-23.196276 -16.696929 -25.130117 38.057554 0.623898 2.292039 0.049911 -0.012393 38693.800000 0 0 1
-22.293276 -17.099929 -26.322417 38.500225 0.654320 2.323610 0.023907 -0.003700 135181.000000 0 0 1
-22.904576 -17.251929 -27.594017 39.795457 0.645552 2.336988 0.035057 -0.005703 392985.000000 0 0 1
-24.032876 -18.124429 -27.728517 40.926088 0.646153 2.315191 0.047323 -0.002304 183445.000000 0 0 1
-24.689276 -17.948029 -29.096317 42.169749 0.628589 2.332259 0.063308 -0.010578 88582.200000 0 0 1
-23.894276 -18.472429 -30.162217 42.684030 0.658116 2.355534 0.056563 -0.011178 190737.000000 0 0 1
-24.523576 -18.211729 -31.385317 43.796244 0.638762 2.369742 0.052619 -0.013317 -694182.000000 0 0 1
-23.829876 -18.847729 -32.626917 44.582682 0.669185 2.391799 0.059033 -0.015029 -33442.900000 0 0 1
-22.643576 -18.150929 -32.968517 43.921644 0.675711 2.419798 0.052773 -0.014242 1513810.000000 0 0 1
-21.389976 -18.450029 -32.255117 42.875718 0.711738 2.422332 0.054439 -0.021498 1262880.000000 0 0 1
-20.685876 -19.622629 -32.999417 43.610945 0.759027 2.429012 0.066711 -0.019282 -750670.000000 0 0 1
-20.025176 -19.231729 33.454499 43.474942 0.765189 0.692719 0.074511 -0.023472 -108508.000000 0 0 1
-19.789176 -20.332629 32.584999 43.206590 0.798942 0.716411 0.080482 -0.024042 -784967.000000 0 0 1
-20.929076 -20.892629 31.744199 43.384586 0.784527 0.749994 0.069065 -0.018731 -746220.000000 0 0 1
-21.868676 -21.570429 32.531799 44.741930 0.778532 0.756710 0.074668 -0.012085 -250682.000000 0 0 1
-23.027876 -21.939729 31.802399 44.978076 0.761204 0.785458 0.075784 -0.005210 246125.000000 0 0 1
-22.883076 -23.300229 30.972699 45.009376 0.794430 0.811875 0.071697 -0.001900 -403002.000000 0 0 1
-22.646976 -24.480429 31.734199 46.035164 0.824283 0.810209 0.082100 0.002435 -110992.000000 0 0 1
-22.774576 -25.623879 30.953499 46.188565 0.844202 0.836379 0.083969 0.010126 58561.600000 0 0 1
-22.128576 -26.832729 31.658699 47.031292 0.881183 0.832348 0.079845 -0.001433 -278793.000000 0 0 1
-22.758576 -27.069979 32.855599 48.272424 0.871708 0.822176 0.090600 -0.005599 -146112.000000 0 0 1
-22.306576 -28.282659 33.518999 49.203815 0.902983 0.821358 0.096523 -0.018636 -380417.000000 0 0 1
-23.415376 -29.068229 -33.403517 50.090285 0.892692 2.300792 0.085392 -0.019450 779357.000000 0 0 1
-24.474776 -29.628789 33.394999 50.912727 0.880374 0.855387 0.076748 -0.019259 2034920.000000 0 0 1
-25.533156 -28.803499 32.807599 50.575905 0.845512 0.864947 0.081534 -0.015070 800421.000000 0 0 1
-26.682606 -28.463799 33.773099 51.602050 0.817686 0.857287 0.055766 -0.010145 -388384.000000 0 0 1
-27.768266 -27.755099 33.249099 51.448272 0.785161 0.868120 0.049947 -0.006012 -19824.300000 0 0 1
-28.778196 -27.549849 -33.433517 52.009411 0.763595 2.268991 0.037603 0.003862 600447.000000 0 0 1
-30.115766 -26.855409 33.799699 52.636413 0.728232 0.873516 0.041228 -0.000736 203156.000000 0 0 1
-31.042136 -27.639769 33.139599 53.158292 0.727483 0.897695 0.041435 -0.008863 -1309670.000000 0 0 1
-32.093436 -26.851209 32.743199 53.132788 0.696697 0.906821 0.038784 -0.010283 -884202.000000 0 0 1
