# x y z rho theta phi s1 s2 stress_xx np intf bulk
-0.778409 -10.897502 -14.393003 18.069864 1.499487 2.492313 -0.006806 0.006671 -1587910.000000 1 0 0
2.104891 -13.516302 -13.030203 18.891987 -1.416307 2.331900 -0.001848 0.010265 54084.300000 1 0 0
2.149591 -11.269502 -14.665403 18.619787 -1.382316 2.477741 0.002972 0.005241 2632980.000000 1 0 0
-5.520709 -6.362402 -16.536703 18.558581 0.856111 2.670459 0.014810 0.000737 -1058640.000000 1 0 0
4.517591 -14.113202 -11.514003 18.766016 -1.261006 2.231352 -0.005163 0.010432 143034.000000 1 0 0
14.052391 -10.585502 -7.894503 19.283302 -0.645602 1.992588 0.034901 -0.006429 -514210.000000 1 0 0
7.090591 10.816498 -10.786503 16.841074 0.990540 2.265930 0.017792 -0.010577 283381.000000 1 0 0
5.786991 -4.194202 -12.672003 14.548548 -0.627153 2.628061 -0.005652 0.000264 2000590.000000 1 0 0
13.630691 0.557998 -10.145103 17.000889 0.040914 2.210228 0.012478 0.000678 1303020.000000 1 0 0
14.052091 5.058998 -10.375503 18.185318 0.345571 2.177963 0.012309 -0.007866 -1256890.000000 1 0 0
4.028691 4.338098 -13.417003 14.665109 0.822362 2.726039 0.001771 -0.003454 2621830.000000 1 0 0
10.220791 -5.059402 -13.747303 17.861983 -0.459648 2.449074 0.010067 0.000589 -1191580.000000 1 0 0
2.565391 -7.535102 -12.052803 14.443997 -1.242647 2.557932 -0.007613 0.001513 1534710.000000 1 0 0
-5.537309 -1.975602 -15.180903 16.279576 0.342702 2.772104 0.009758 -0.002440 445631.000000 1 0 0
10.680691 0.066098 -9.677803 14.413237 0.006188 2.306963 0.004149 -0.004255 1209850.000000 1 0 0
-1.706809 -9.645402 -16.923303 19.553648 1.395654 2.616905 -0.000936 0.002760 -57402.300000 1 0 0
8.679891 1.795498 -17.964303 20.031987 0.203980 2.683236 0.017889 -0.008056 750560.000000 1 0 0
16.256591 -6.088102 -8.835203 19.478258 -0.358333 2.041589 0.018015 0.002756 -1541820.000000 1 0 0
10.065991 7.593398 -9.955303 16.065240 0.646287 2.239131 0.016526 -0.004525 461109.000000 1 0 0
13.748591 -2.290502 -10.728903 17.589187 -0.165083 2.226821 0.018982 0.002058 29734.400000 1 0 0
7.195291 -1.766002 -13.711503 15.585130 -0.240681 2.646198 -0.000919 -0.004035 -6566.420000 1 0 0
-2.715409 6.656998 -13.713303 15.483661 -1.183496 2.658716 -0.000508 -0.000342 1399200.000000 1 0 0
11.281391 1.800298 -14.023203 18.087595 0.158247 2.457977 0.013713 -0.007495 2057240.000000 1 0 0
-2.339909 10.790998 -12.920403 16.995812 -1.357263 2.434434 -0.003741 0.003732 -571255.000000 1 0 0
2.766891 -1.069402 -15.212503 15.499018 -0.368814 2.949014 -0.000159 0.000496 -91706.600000 1 0 0
-9.001109 0.478598 -15.315503 17.771146 -0.053121 2.609640 0.005418 0.005213 -1045170.000000 1 0 0
2.407491 -1.704002 -17.985803 18.226046 -0.615936 2.979048 0.003203 -0.003439 287343.000000 1 0 0
1.021291 7.911598 -13.143703 15.375088 1.442418 2.596097 0.005409 -0.000371 -611487.000000 1 0 0
9.318391 -9.166402 -9.904703 16.399953 -0.777176 2.219240 0.009204 0.001622 -1002280.000000 1 0 0
3.918191 7.292098 -13.378103 15.732150 1.077740 2.587479 0.001916 -0.002350 432513.000000 1 0 0
-2.711609 9.092398 -15.467503 18.145748 -1.280966 2.591362 -0.000757 0.004067 247330.000000 1 0 0
5.495191 -7.638402 -15.382503 18.032296 -0.947158 2.592604 0.000147 0.002199 157790.000000 1 0 0
4.309191 7.266198 -16.240403 18.306213 1.035506 2.661934 0.009672 -0.006269 508050.000000 1 0 0
-0.270209 5.067998 -13.372803 14.303478 -1.517530 2.778868 0.004491 -0.005058 2035190.000000 1 0 0
8.787291 4.310098 -16.589503 19.261491 0.456013 2.608576 0.013789 -0.008555 -529928.000000 1 0 0
5.300391 0.317798 -14.325903 15.278306 0.059886 2.786640 0.001299 -0.000118 991987.000000 1 0 0
6.260491 7.919398 -11.538903 15.331565 0.901859 2.422834 0.001337 -0.004166 994950.000000 1 0 0
2.732891 -8.471902 -15.040403 17.477286 -1.258752 2.607181 -0.005081 0.001592 761326.000000 1 0 0
4.093891 11.549398 -13.820903 18.470677 1.230147 2.416234 0.012554 -0.008722 -1073660.000000 1 0 0
0.639291 -4.612702 -13.784803 14.550137 -1.433080 2.815809 0.002502 0.001180 1521850.000000 1 0 0
8.498591 -0.057702 -11.650203 14.420701 -0.006789 2.511343 -0.003993 -0.003716 965349.000000 1 0 0
-0.916609 -5.150002 -16.281103 17.100789 1.394659 2.830721 -0.002866 -0.001423 479787.000000 1 0 0
4.423691 0.903598 -11.631003 12.476608 0.201492 2.771309 0.000336 -0.004168 856889.000000 1 0 0
-2.911909 -7.292602 -15.579803 17.446820 1.190897 2.674737 -0.002591 0.002003 2355050.000000 1 0 0
11.330991 -3.748702 -11.452103 16.540701 -0.319501 2.335550 0.012793 -0.001608 580391.000000 1 0 0
6.508291 -7.051102 -12.576003 15.818715 -0.825409 2.489817 -0.003079 0.003502 -1576860.000000 1 0 0
3.393791 -3.977802 -14.700403 15.602646 -0.864458 2.799855 -0.002182 -0.000109 2950320.000000 1 0 0
-0.537809 -1.630502 -18.299103 18.379471 1.252191 3.048042 0.007264 -0.004593 1432740.000000 1 0 0
14.786991 2.939398 -8.513403 17.313960 0.196225 2.084846 0.006675 -0.002993 -1395470.000000 1 0 0
6.848291 4.276598 -14.389703 16.500058 0.558223 2.630274 0.003995 -0.003471 2433050.000000 1 0 0
10.028391 -9.744402 -14.013003 19.796117 -0.771037 2.357269 0.023182 -0.004123 -1073940.000000 1 0 0
8.926491 -3.203902 -15.576303 18.236459 -0.344600 2.594672 0.009667 -0.007014 680924.000000 1 0 0
-5.255709 -2.116002 -18.075803 18.942930 0.382755 2.837852 0.003604 0.008280 1123820.000000 1 0 0
5.010791 -9.082102 -11.147303 15.226784 -1.066632 2.392174 -0.008408 0.004102 2834100.000000 1 0 0
-2.368509 3.910198 -17.039903 17.642499 -1.026177 2.879478 0.004155 0.000327 2564490.000000 1 0 0
9.468291 9.404098 -14.591703 19.773806 0.781997 2.400796 0.033756 -0.011653 404222.000000 1 0 0
9.793291 10.030798 -11.650903 18.228247 0.797378 2.264212 0.026583 -0.010882 -118321.000000 1 0 0
11.900091 -5.937302 -9.745203 16.487350 -0.462791 2.203183 0.016935 0.000225 -850689.000000 1 0 0
8.115091 6.940398 -13.746003 17.406218 0.707532 2.481145 0.008670 -0.003635 -1774180.000000 1 0 0
4.100191 -4.072502 -17.554403 18.481177 -0.782010 2.823562 0.006839 -0.001300 -362364.000000 1 0 0
9.287391 -7.547602 -12.377903 17.217271 -0.682420 2.373049 0.010164 -0.001286 -1309780.000000 1 0 0
12.035691 -8.700602 -8.877803 17.302419 -0.625930 2.109584 0.024139 -0.001215 1845020.000000 1 0 0
-2.928409 -2.549602 -13.917003 14.448495 0.716358 2.869515 0.003739 -0.002719 -2417850.000000 1 0 0
-0.338509 6.119398 -17.513003 18.554430 -1.515535 2.804958 0.011475 -0.000188 -127465.000000 1 0 0
0.940491 -8.600802 -17.469303 19.494483 -1.461880 2.681734 -0.006167 0.000727 -671186.000000 1 0 0
0.046891 8.608598 -15.938603 18.114889 1.565349 2.646368 0.002604 0.004201 56808.300000 1 0 0
1.781491 3.380398 -14.870603 15.353685 1.085778 2.890077 0.005319 -0.002767 1555630.000000 1 0 0
-1.920109 -0.504502 -15.836003 15.959960 0.256939 3.016878 0.006248 -0.001338 -7798.520000 1 0 0
14.036691 -4.296902 -8.539303 16.982690 -0.297061 2.097659 0.016704 0.000113 -734529.000000 1 0 0
0.468391 0.639798 -14.495903 14.517573 0.938855 3.086947 0.002996 -0.003292 1195360.000000 1 0 0
8.785491 2.737898 -12.676803 15.664682 0.302100 2.513688 0.000241 -0.002042 2354440.000000 1 0 0
5.929891 1.058398 -17.092103 18.122467 0.176625 2.802763 0.006837 -0.000750 217552.000000 1 0 0
15.226891 1.563198 -12.516003 19.772509 0.102302 2.256219 0.026378 -0.010444 -509978.000000 1 0 0
8.678191 -11.293602 -11.889203 18.552886 -0.915612 2.266372 0.011070 0.000969 647202.000000 1 0 0
-4.564909 0.773698 -15.105403 15.799057 -0.167893 2.844171 0.009250 -0.001406 934667.000000 1 0 0
2.421191 5.138698 -17.203603 18.117183 1.130479 2.822670 0.008124 -0.001238 1230400.000000 1 0 0
5.825891 -11.733302 -12.415103 18.048439 -1.109932 2.329356 -0.000199 0.003010 -19621.800000 1 0 0
12.796791 7.187598 -8.656403 17.039740 0.511760 2.103672 0.010604 -0.005190 -183210.000000 1 0 0
-4.986809 3.642198 -15.617203 16.793775 -0.630817 2.765046 0.002414 -0.001231 2145780.000000 1 0 0
-0.516309 -4.512102 -19.093403 19.626097 1.456864 2.908073 0.001723 -0.002283 431316.000000 1 0 0
9.754291 4.443298 -10.322803 14.881174 0.427437 2.337385 -0.000492 0.000560 -326655.000000 1 0 0
13.244491 3.676298 -12.889703 18.843464 0.270756 2.324085 0.020149 -0.011316 -986592.000000 1 0 0
-6.027109 5.860398 -17.147303 19.097128 -0.771375 2.685771 -0.004930 0.007206 -1306050.000000 1 0 0
-10.079309 3.170698 -15.586803 18.830672 -0.304774 2.545855 0.001721 0.008014 -801606.000000 1 0 0
10.756791 13.359198 -8.272903 19.042522 0.892894 2.020217 0.030221 -0.008485 1616680.000000 1 0 0
7.485491 13.360798 -12.305003 19.645778 1.060112 2.247650 0.038753 -0.017566 -596114.000000 1 0 0
5.259191 15.147298 -11.302003 19.617212 1.236615 2.184778 0.031805 -0.015181 -76873.300000 1 0 0
14.208091 9.540498 -9.814903 19.728742 0.591330 2.091502 0.033826 -0.011868 1013860.000000 1 0 0
8.330091 -17.270302 -2.089303 19.287792 -1.121379 1.679332 0.017092 0.002622 -7888.420000 1 0 0
0.555891 -15.947702 -0.036103 15.957428 -1.535953 1.573059 0.008629 -0.006641 2644870.000000 1 0 0
-9.072009 -11.594002 7.525397 16.533415 0.906833 1.098241 0.006536 -0.014185 -319908.000000 1 0 0
2.000191 -15.949802 -2.579903 16.280444 -1.446042 1.729934 0.009135 -0.005396 2661710.000000 1 0 0
-1.368609 -11.023002 -9.409903 14.557676 1.447269 2.273637 -0.001144 0.002467 1245270.000000 1 0 0
-4.880109 -12.660602 -12.896603 18.719740 1.202890 2.330809 0.007398 -0.002839 -405685.000000 1 0 0
-8.302709 -17.780002 -1.781303 19.703717 1.133921 1.661324 0.006203 -0.013881 -1189400.000000 1 0 0
-11.360209 -7.184202 -8.850203 16.093265 0.563903 2.153079 0.016227 -0.004253 2819280.000000 1 0 0
-13.547809 -11.604202 -4.594203 18.420297 0.708277 1.822867 -0.001258 -0.007066 -165632.000000 1 0 0
-5.711209 -13.291102 9.805597 17.476299 1.164950 0.975107 0.003646 -0.014037 -350593.000000 1 0 0
0.116691 -14.031502 -3.657003 14.500701 -1.562480 1.825744 0.008107 -0.003138 969524.000000 1 0 0
-14.706409 -11.677502 1.876697 18.872321 0.671097 1.471190 -0.002008 0.002287 217644.000000 1 0 0
-3.943009 -16.491602 -7.428903 18.512397 1.336110 1.983725 -0.003919 -0.007124 -523130.000000 1 0 0
0.515391 -15.254102 -9.231403 17.837378 -1.537022 2.114760 -0.002721 0.006928 738823.000000 1 0 0
4.485491 -14.227202 -2.564903 15.136434 -1.265385 1.741070 -0.001774 0.000832 221899.000000 1 0 0
-3.743609 -18.156202 -2.502203 18.706237 1.367457 1.704961 -0.002595 -0.010764 893591.000000 1 0 0
-1.009209 -13.443102 0.708397 13.499530 1.495864 1.518297 0.007024 -0.006005 2416930.000000 1 0 0
-8.471309 -11.340702 -10.457803 17.599438 0.929229 2.207082 0.010196 -0.009848 2304940.000000 1 0 0
-3.800509 -14.058002 -0.358303 14.567075 1.306763 1.595396 0.003623 -0.002398 4732540.000000 1 0 0
-1.547809 -14.947802 -7.229603 16.676320 1.467616 2.019197 -0.008818 0.003863 260025.000000 1 0 0
-14.190209 -7.913102 -1.843803 16.351722 0.508694 1.683796 0.003775 0.001361 1687950.000000 1 0 0
-10.684809 -7.321002 -11.680803 17.441427 0.600709 2.304623 0.017024 -0.004444 -410574.000000 1 0 0
-9.439309 -14.582102 6.888497 18.686617 0.996306 1.193259 -0.006819 -0.010330 -1800190.000000 1 0 0
-2.545009 -14.304602 -12.119503 18.920387 1.394723 2.266014 0.008449 -0.000617 132749.000000 1 0 0
2.342791 -17.923702 -4.619103 18.657006 -1.440824 1.820978 0.011963 -0.009261 33011.700000 1 0 0
-6.485609 -9.589602 -9.190203 14.781184 0.976143 2.241772 0.005330 -0.006330 3336890.000000 1 0 0
-11.022209 -15.328202 0.445297 18.884945 0.947379 1.547215 -0.001855 -0.004843 2175220.000000 1 0 0
-12.652509 -11.173802 4.018497 17.351892 0.723416 1.337086 0.006427 -0.005071 1181520.000000 1 0 0
-17.021609 -8.970302 -1.600603 19.307082 0.485010 1.653794 0.005378 0.004443 -556268.000000 1 0 0
-1.615609 -19.211702 -4.116003 19.713984 1.486899 1.781130 -0.007426 -0.009929 -267838.000000 1 0 0
3.211391 -14.283302 -8.760703 17.060940 -1.349639 2.110049 -0.012660 0.010587 912509.000000 1 0 0
-4.241409 -8.028102 -13.009703 15.864814 1.084750 2.532268 0.001047 0.000828 1459680.000000 1 0 0
5.461491 -16.635502 1.274197 17.555381 -1.253580 1.498151 0.018263 -0.002793 4179220.000000 1 0 0
-2.843809 -13.829902 -3.172103 14.471201 1.367996 1.791792 0.001364 -0.002133 -229776.000000 1 0 0
-0.488409 -13.961502 3.660797 14.441728 1.535828 1.314513 0.001154 -0.004045 -4424760.000000 1 0 0
1.164291 -16.102402 7.132397 17.649759 -1.498617 1.154794 0.009726 -0.010884 2238410.000000 1 0 0
-5.526809 -10.357602 -14.540403 18.688201 1.080632 2.462356 0.005568 -0.006159 30289.500000 1 0 0
-0.254109 -17.334202 -5.910303 18.315862 1.556138 1.899364 0.003898 -0.006366 345764.000000 1 0 0
-6.531609 -13.354302 -1.301603 14.922917 1.115905 1.658129 0.004701 -0.005343 2547400.000000 1 0 0
-1.826109 -17.777702 -0.233403 17.872768 1.468436 1.583856 0.004115 -0.008683 1751390.000000 1 0 0
-9.449609 -9.652802 -4.802003 14.336350 0.796035 1.912352 0.016177 -0.006352 704119.000000 1 0 0
-0.826109 -16.662902 4.936397 17.398355 1.521259 1.283117 0.015730 -0.008485 2129430.000000 1 0 0
-6.818309 -9.860302 -6.305203 13.545127 0.965804 2.054991 0.014982 -0.006416 2148650.000000 1 0 0
-6.042309 -14.509802 -8.567403 17.900956 1.176207 2.069856 0.003551 -0.007052 -404037.000000 1 0 0
-5.670109 -12.159402 -10.215703 16.863030 1.134458 2.221573 0.003694 -0.005058 1368050.000000 1 0 0
-10.620409 -12.191902 -8.647903 18.336351 0.854177 2.061930 0.014128 -0.018182 272066.000000 1 0 0
3.953491 -17.031502 6.710797 18.727972 -1.342708 1.204318 0.020996 -0.010231 1259080.000000 1 0 0
-6.767609 -14.406102 -4.135303 16.444970 1.131621 1.824988 0.003060 -0.007619 -2168870.000000 1 0 0
-2.871509 -12.261702 -7.038303 14.426802 1.340757 2.080436 0.003978 -0.000150 3112480.000000 1 0 0
-7.107609 -12.857002 4.415597 15.340081 1.065791 1.278818 0.001402 -0.005874 1995970.000000 1 0 0
2.493991 -16.442302 2.254597 16.782506 -1.420262 1.436047 0.008076 -0.006880 2757780.000000 1 0 0
-6.232409 -11.959102 7.247897 15.309966 1.090377 1.077638 0.002564 -0.008342 102814.000000 1 0 0
-11.326209 -12.931102 -1.037503 17.221290 0.851463 1.631078 -0.002257 0.000183 2371260.000000 1 0 0
-14.230809 -8.768402 4.477197 17.304511 0.552214 1.309089 0.006933 -0.005314 -247609.000000 1 0 0
-8.106609 -15.573402 4.434697 18.108409 1.090851 1.323383 -0.002706 -0.002327 929979.000000 1 0 0
-16.456309 -9.268702 1.134197 18.921029 0.512945 1.510817 -0.002640 0.004434 -1207650.000000 1 0 0
-6.665909 -17.092502 2.352497 18.496546 1.198949 1.443265 0.000212 -0.001434 881905.000000 1 0 0
-11.566609 -14.940302 -4.744803 19.481073 0.911993 1.816831 0.015390 -0.007669 -597694.000000 1 0 0
-10.103909 -9.970502 -12.634003 19.003103 0.778753 2.298075 0.018174 -0.004718 -339608.000000 1 0 0
-4.448809 -15.994702 -4.481603 17.196138 1.299511 1.834457 -0.002348 -0.006298 -837434.000000 1 0 0
-11.872109 -8.249302 0.065697 14.456911 0.607259 1.566252 0.001668 0.000046 -120058.000000 1 0 0
-9.676509 -11.212602 3.495297 15.217568 0.858802 1.339039 0.000330 -0.002863 2123550.000000 1 0 0
-14.343909 -13.058502 -0.649503 19.408608 0.738524 1.604267 0.004577 0.003098 873529.000000 1 0 0
5.531791 -14.958702 -7.102303 17.458699 -1.216589 1.989751 -0.005919 0.001890 1297640.000000 1 0 0
-7.529609 -10.489702 -1.255703 12.973267 0.948217 1.667740 0.005276 -0.002154 2277810.000000 1 0 0
-11.617309 -8.208502 -6.042503 15.454877 0.615125 1.972489 0.012528 -0.005593 -772607.000000 1 0 0
-14.370209 -6.715702 -9.208303 18.341112 0.437176 2.096773 0.010803 -0.006478 1774140.000000 1 0 0
-3.925309 -16.450402 1.450097 16.974291 1.336562 1.485263 0.000357 -0.008343 1427000.000000 1 0 0
-7.998509 -15.490702 0.159497 17.434547 1.094160 1.561648 0.002923 -0.004284 -426961.000000 1 0 0
1.027391 -18.533002 3.751097 18.936695 -1.515417 1.371391 0.010151 -0.007999 -877478.000000 1 0 0
-14.059509 -8.806902 -4.599003 17.215753 0.559607 1.841219 0.004375 -0.006220 -982210.000000 1 0 0
-3.255809 -14.354702 11.129597 18.453338 1.347759 0.923388 0.001331 -0.016157 510708.000000 1 0 0
-10.776009 -12.159802 -3.873403 16.702886 0.845658 1.804827 0.007879 -0.010431 1011460.000000 1 0 0
-10.096309 -10.672002 0.555397 14.701549 0.813111 1.533009 0.002156 -0.000133 2523280.000000 1 0 0
-0.166409 -13.115802 -11.088503 17.175763 1.558109 2.272592 -0.001519 0.001089 1497470.000000 1 0 0
-5.969309 -12.585002 -6.374903 15.318430 1.127904 2.000013 0.001330 -0.008684 2670810.000000 1 0 0
1.667391 -15.888802 10.014997 18.855619 -1.466238 1.010849 0.013099 -0.004912 283472.000000 1 0 0
-8.958609 -15.778702 -5.486203 18.955805 1.054416 1.864418 0.010981 -0.007872 -773239.000000 1 0 0
-3.353609 -15.475902 5.902497 16.899400 1.357397 1.214002 -0.000617 -0.004541 -654522.000000 1 0 0
-17.343609 -5.527202 -6.510403 19.332255 0.308512 1.914274 0.003078 -0.001169 110503.000000 1 0 0
18.819291 5.518198 -2.948703 19.832072 0.285225 1.720033 -0.006388 0.005134 -300905.000000 1 0 0
12.799391 -12.438102 -5.901903 18.797959 -0.771084 1.890163 0.028059 0.002387 852227.000000 1 0 0
10.920391 -13.541202 -1.522603 17.462457 -0.892131 1.658100 0.018624 -0.000328 2357720.000000 1 0 0
18.683791 -3.053402 4.644097 19.492946 -0.161993 1.330238 0.030430 -0.005928 -683175.000000 1 0 0
8.581991 -16.976602 4.964397 19.659624 -1.102743 1.315515 0.024722 -0.011143 1100230.000000 1 0 0
18.147991 -1.227002 6.767597 19.407614 -0.067508 1.214604 0.050108 -0.007185 -556908.000000 1 0 0
17.962491 -4.052402 -5.050503 19.093995 -0.221889 1.838489 0.027826 -0.005690 -301538.000000 1 0 0
5.280491 -11.785502 14.886897 19.707901 -1.149565 0.714567 -0.010421 0.006553 -51843.000000 1 0 0
15.935091 -8.857002 -0.844803 18.250680 -0.507299 1.617102 0.014992 -0.000738 -231927.000000 1 0 0
13.701091 -12.522002 -1.382303 18.612662 -0.740465 1.645132 0.015111 0.000987 -518219.000000 1 0 0
11.023691 -2.119802 13.842997 17.822567 -0.189976 0.681368 0.001322 -0.002356 -493026.000000 1 0 0
16.836591 -6.054102 -1.477603 17.952890 -0.345184 1.653194 0.011599 -0.006670 -629364.000000 1 0 0
17.804791 3.622898 -0.944603 18.194182 0.200738 1.622738 0.002734 0.003120 1450950.000000 1 0 0
9.647991 -11.172202 9.503997 17.556417 -0.858476 0.998766 0.012796 -0.002031 790786.000000 1 0 0
8.958391 -11.120602 4.268697 14.904440 -0.892670 1.280324 0.005235 -0.002468 514346.000000 1 0 0
13.984291 -10.177102 6.800697 18.584490 -0.629110 1.196160 0.026008 -0.007315 -244294.000000 1 0 0
16.247691 -0.496702 -4.787403 16.945601 -0.030561 1.857212 0.010153 -0.002136 -2219880.000000 1 0 0
15.818591 -0.497902 -1.767503 15.924817 -0.031465 1.682016 0.014090 -0.002798 1726990.000000 1 0 0
12.914791 -5.192902 -0.326003 13.923517 -0.382306 1.594212 0.010924 -0.004257 1163770.000000 1 0 0
14.205691 -7.498102 1.069797 16.098685 -0.485658 1.504295 0.017353 -0.003761 2280020.000000 1 0 0
15.564891 2.351998 3.599797 16.147949 0.149975 1.345981 0.018382 -0.005281 1791780.000000 1 0 0
15.780591 -7.085902 4.952997 17.993589 -0.422044 1.291931 0.026621 -0.013606 -1871090.000000 1 0 0
13.594991 -12.164702 3.277597 18.535005 -0.729931 1.393029 0.018186 -0.001014 2266100.000000 1 0 0
13.947991 -0.956202 9.252897 16.765348 -0.068448 0.986148 0.027623 -0.008111 2308980.000000 1 0 0
14.197991 -2.803602 -1.586703 14.558872 -0.194957 1.679999 0.008122 -0.002704 885828.000000 1 0 0
15.084491 1.836298 9.215097 17.771659 0.121138 1.025668 0.041928 -0.005268 -811635.000000 1 0 0
14.273991 -10.100502 -3.006403 17.742757 -0.615819 1.741062 0.014509 -0.001543 -645711.000000 1 0 0
7.154091 -12.630102 6.123397 15.754253 -1.055425 1.171595 -0.000577 -0.006158 -227839.000000 1 0 0
12.339591 -4.692902 6.983797 14.935269 -0.363420 1.084218 0.013033 -0.005389 1319550.000000 1 0 0
14.880791 -8.932602 -5.578803 18.230534 -0.540623 1.881800 0.024347 -0.000876 -889629.000000 1 0 0
14.184391 -4.555702 4.675197 15.614379 -0.310770 1.266716 0.015641 -0.006804 1830560.000000 1 0 0
17.119791 -4.218202 0.936097 17.656635 -0.241581 1.517755 0.016671 -0.009832 -1649630.000000 1 0 0
10.156091 -14.533002 1.205297 17.770961 -0.960856 1.502920 0.022393 0.001863 591570.000000 1 0 0
16.367291 -2.617802 8.614497 18.680221 -0.158598 1.091499 0.041970 -0.009118 713460.000000 1 0 0
16.036691 -2.665802 3.283597 16.585053 -0.164725 1.371494 0.023364 -0.007812 1863360.000000 1 0 0
7.682491 -15.282602 2.709197 17.318151 -1.104995 1.413714 0.008646 -0.001045 2912380.000000 1 0 0
16.472291 -7.068502 7.871397 19.577001 -0.405351 1.157016 0.030587 -0.010250 -598091.000000 1 0 0
10.235691 -8.592502 5.135297 14.316834 -0.698346 1.203933 0.005161 -0.002366 690912.000000 1 0 0
10.829391 -11.927602 2.193897 16.259046 -0.833619 1.435450 0.014975 -0.000569 -128254.000000 1 0 0
12.295291 -7.560702 12.044497 18.799157 -0.551323 0.875395 0.011747 -0.010369 258072.000000 1 0 0
15.072891 -9.867502 4.260997 18.512583 -0.579639 1.338546 0.021224 -0.006301 213486.000000 1 0 0
7.216391 -10.301602 7.812597 14.806619 -0.959727 1.014974 -0.001740 -0.001433 997866.000000 1 0 0
15.189891 -3.247002 -4.437103 16.154371 -0.210591 1.849042 0.013658 -0.002089 1021540.000000 1 0 0
11.742691 -9.135502 9.725397 17.774463 -0.661165 0.991834 0.012252 -0.007168 -2167850.000000 1 0 0
16.912291 -6.631902 2.387797 18.322371 -0.373708 1.440103 0.026986 -0.010639 2282340.000000 1 0 0
17.602691 3.850998 2.004297 18.130144 0.215380 1.460019 0.010265 0.000051 69570.100000 1 0 0
14.618191 -4.921002 8.820297 17.768101 -0.324720 1.051336 0.030526 -0.008293 910570.000000 1 0 0
12.656191 -12.704402 6.124497 18.949682 -0.787299 1.241690 0.017851 -0.002815 -358736.000000 1 0 0
18.305691 0.752698 -0.985503 18.347646 0.041095 1.624535 0.019378 -0.004413 226497.000000 1 0 0
11.671091 -2.203402 11.002697 16.190389 -0.186595 0.823604 0.005692 -0.002150 261142.000000 1 0 0
5.751691 -12.465302 10.627097 17.360901 -1.138489 0.912047 -0.009498 0.000225 -1829780.000000 1 0 0
10.739791 -5.133902 11.068197 16.254386 -0.445915 0.821756 0.000081 -0.001377 987239.000000 1 0 0
17.864291 1.099298 5.070197 18.602372 0.061459 1.294747 0.030834 -0.002214 259714.000000 1 0 0
12.241191 -7.782302 7.162497 16.177526 -0.566290 1.112140 0.017453 -0.008905 -378951.000000 1 0 0
10.542391 -8.086002 14.248197 19.481698 -0.654292 0.750478 0.005080 -0.007920 -742805.000000 1 0 0
14.204591 -0.350202 3.704397 14.683855 -0.024649 1.315764 0.016117 -0.004297 1539080.000000 1 0 0
11.595091 -7.645802 2.528697 14.117320 -0.582955 1.390704 0.010671 -0.001540 1656690.000000 1 0 0
9.210391 6.000698 3.556497 11.553716 0.577439 1.257892 0.000782 0.000200 835780.000000 1 0 0
-3.982809 14.851698 -9.964803 18.323018 -1.308789 2.145803 -0.004366 0.000407 188023.000000 1 0 0
8.786191 -6.525002 9.310197 14.368458 -0.638776 0.865892 -0.003611 0.000814 532361.000000 1 0 0
5.721791 -10.607802 -8.566603 14.786854 -1.076132 2.188714 -0.011141 0.003117 106112.000000 1 0 0
5.363591 1.004598 0.515097 5.481118 0.185154 1.476681 0.002878 0.001777 2856900.000000 1 0 0
-0.521309 9.914698 11.036297 14.844961 -1.518265 0.732601 0.003238 0.005955 -706375.000000 1 0 0
-6.281409 -5.176402 1.085797 8.211589 0.689254 1.438181 0.008490 -0.003724 2600080.000000 1 0 0
-1.087109 4.018598 -10.799203 11.573838 -1.306600 2.773652 0.006294 -0.004733 2368180.000000 1 0 0
10.866391 5.670398 1.266997 12.322222 0.480958 1.467792 0.000863 0.000838 837146.000000 1 0 0
-10.122109 -1.829602 -13.655703 17.096279 0.178822 2.496016 0.004112 0.000130 1522080.000000 1 0 0
7.416391 10.976198 -6.071903 14.572158 0.976580 2.000585 0.005361 -0.001737 1279650.000000 1 0 0
-12.401109 -2.930902 -9.729003 16.032192 0.232083 2.222877 0.001768 0.000585 -365613.000000 1 0 0
-3.972609 -8.660302 2.481297 9.845775 1.140719 1.316033 0.006558 -0.003712 -1849890.000000 1 0 0
7.980691 -6.666702 -5.958503 11.984995 -0.695930 2.091123 -0.005808 -0.001699 1618590.000000 1 0 0
14.363491 3.134498 -4.232903 15.298772 0.214858 1.851136 0.011005 -0.000887 382494.000000 1 0 0
-2.482609 -4.892902 9.728297 11.168868 1.101254 0.513523 0.002821 -0.002518 1692780.000000 1 0 0
3.477191 -1.954002 -4.592503 6.082768 -0.511970 2.426454 -0.001017 0.000981 -1897220.000000 1 0 0
-3.966809 8.372698 -3.430603 9.879609 -1.128345 1.925423 0.000900 -0.001277 1370.760000 1 0 0
5.885191 0.060198 11.759997 13.150537 0.010228 0.464022 -0.007284 -0.002527 596628.000000 1 0 0
7.196191 4.732698 12.463197 15.149749 0.581746 0.604710 0.005216 -0.006328 1066700.000000 1 0 0
1.086491 -14.539502 12.506497 19.209114 -1.496208 0.861802 0.001294 -0.000502 48556.900000 1 0 0
3.034991 8.773898 -9.068303 12.977926 1.237769 2.344442 0.003895 0.000277 1614960.000000 1 0 0
-4.426309 -8.886002 -4.584303 10.934764 1.108653 2.003406 0.009998 -0.004533 2455130.000000 1 0 0
5.729291 -6.626402 -4.062703 9.656062 -0.857878 2.005058 -0.005272 -0.002600 2327170.000000 1 0 0
-3.045209 3.378998 8.655297 9.777786 -0.837310 0.483872 0.001922 0.003329 1978150.000000 1 0 0
-3.856609 3.132198 -11.039303 12.105796 -0.682114 2.718692 0.000826 -0.005214 804201.000000 1 0 0
3.104491 -6.175002 8.580097 11.017558 -1.104950 0.678100 -0.010036 0.002470 40751.500000 1 0 0
-5.065509 -8.636202 10.408097 14.442017 1.040330 0.766011 0.007418 -0.008744 1457460.000000 1 0 0
-13.259909 -2.408902 6.472597 14.950669 0.179708 1.123055 0.003670 -0.000179 16889.900000 1 0 0
3.866991 -5.904602 -8.393003 10.966332 -0.990976 2.442370 -0.008301 -0.000510 3468240.000000 1 0 0
3.028391 -0.601302 12.386097 12.765113 -0.196006 0.244294 -0.000995 -0.001677 814335.000000 1 0 0
1.446891 -1.463102 -7.576403 7.850862 -0.790969 2.876395 0.001145 -0.002306 -2053600.000000 1 0 0
3.634591 -3.468502 3.443597 6.090905 -0.762020 0.969918 -0.002136 -0.000564 3078080.000000 1 0 0
1.466291 0.478498 -11.722303 11.823339 0.315436 3.010767 0.004331 -0.005004 -352458.000000 1 0 0
4.088691 3.549698 -10.605803 11.908014 0.714951 2.669556 -0.002277 -0.000423 3438930.000000 1 0 0
2.834391 3.305998 3.338297 5.487042 0.862052 0.916758 -0.005954 0.003395 -274113.000000 1 0 0
-5.356909 0.914698 2.543597 6.000253 -0.169120 1.133033 0.003955 -0.004646 514694.000000 1 0 0
-9.494809 -9.273802 5.698197 14.443831 0.773623 1.165265 0.005799 -0.005337 -611056.000000 1 0 0
-3.092109 3.900998 -0.604703 5.014438 -0.900556 1.691683 0.003385 -0.007733 -516007.000000 1 0 0
-15.839409 -6.515302 4.871597 17.806417 0.390240 1.293676 0.010237 -0.006889 992899.000000 1 0 0
1.002991 6.767898 -8.094203 10.598422 1.423669 2.439849 0.005246 -0.001694 1652670.000000 1 0 0
-1.578909 6.599798 -9.461103 11.643142 -1.335974 2.519379 0.003914 -0.002343 1098600.000000 1 0 0
2.069491 -0.368802 5.248897 5.654178 -0.176358 0.380923 0.000260 0.001790 2433940.000000 1 0 0
-3.409909 -0.544202 -6.357103 7.234389 0.158260 2.643999 0.007139 -0.005939 -588460.000000 1 0 0
1.885491 -1.192702 -2.414203 3.287247 -0.564023 2.395601 0.005076 0.000013 1107020.000000 1 0 0
2.429991 -8.620502 -7.711303 11.818718 -1.296040 2.281629 -0.009112 0.001906 1716890.000000 1 0 0
-2.430409 14.036798 -5.526503 15.280079 -1.399351 1.940866 0.004651 0.002678 3423290.000000 1 0 0
6.823391 -5.151002 -8.290103 11.908707 -0.646632 2.340800 -0.004900 -0.001524 3315840.000000 1 0 0
-14.200109 -5.013102 -2.271303 15.229350 0.339374 1.720495 0.004916 -0.001082 678041.000000 1 0 0
-2.656509 6.984898 -6.766403 10.081173 -1.207368 2.306612 0.005211 -0.002487 -3581800.000000 1 0 0
-5.646009 -1.124202 -8.142703 9.972204 0.196544 2.526188 0.012037 -0.008534 -831337.000000 1 0 0
-5.740909 -10.668402 3.451497 12.597050 1.077118 1.293254 0.004084 -0.004999 -3267830.000000 1 0 0
8.017391 -7.629602 6.630897 12.901867 -0.760620 1.031015 -0.006122 -0.000051 -105746.000000 1 0 0
8.752791 -6.059002 13.203697 16.960556 -0.605497 0.678533 -0.004245 0.002693 316543.000000 1 0 0
-4.690809 9.533098 -0.738203 10.650286 -1.113525 1.640165 -0.000067 0.000692 1494550.000000 1 0 0
2.858391 6.559098 12.196797 14.140510 1.159822 0.530522 0.003030 -0.001366 1589670.000000 1 0 0
6.076491 -2.872402 10.913897 12.817472 -0.441576 0.551984 -0.009073 0.000989 -295091.000000 1 0 0
-9.752909 -6.501602 -1.045903 11.767921 0.587979 1.659791 0.004565 -0.002600 -531201.000000 1 0 0
0.796591 -13.318002 6.216197 14.718860 -1.511054 1.134783 -0.000529 -0.005647 -1382870.000000 1 0 0
-0.504009 -3.095602 8.633297 9.185347 1.409398 0.348462 0.000373 -0.000289 953032.000000 1 0 0
4.265791 0.692798 3.413197 5.506983 0.161002 0.902316 -0.003734 0.004278 148674.000000 1 0 0
-10.206109 5.654098 8.306597 14.322466 -0.505903 0.952105 0.001110 -0.003052 1260710.000000 1 0 0
9.388591 7.921998 -0.009703 12.284290 0.700878 1.571586 -0.001815 0.004552 -103038.000000 1 0 0
4.319491 2.793998 8.206797 9.685863 0.574147 0.559922 -0.006916 0.003171 3444440.000000 1 0 0
1.317991 2.666598 -9.625003 10.074151 1.111752 2.841861 0.005963 -0.004008 2360240.000000 1 0 0
-1.480409 -10.148102 3.047697 10.698787 1.425938 1.281932 0.002016 -0.004921 -3471200.000000 1 0 0
-9.869909 9.635898 9.070297 16.508662 -0.773402 0.989119 0.002959 -0.005641 2256990.000000 1 0 0
9.849991 -2.003602 -7.769703 12.704528 -0.200674 2.228839 0.006196 -0.000013 719282.000000 1 0 0
-5.271209 -1.855202 6.667997 8.699977 0.338411 0.697518 0.005620 -0.003800 1369240.000000 1 0 0
3.205691 -7.960102 -4.978203 9.920795 -1.187947 2.096469 -0.009064 -0.002028 3108070.000000 1 0 0
-5.107009 4.961698 -13.025703 14.844828 -0.770967 2.641331 -0.003382 -0.006406 2106020.000000 1 0 0
-5.668609 9.598298 5.482997 12.422710 -1.037329 1.113673 0.002513 0.001119 1574830.000000 1 0 0
-0.459909 -1.820102 -9.441203 9.626037 1.323294 2.945311 0.003859 -0.005775 -1190530.000000 1 0 0
-16.858009 0.055198 6.275497 17.988257 -0.003274 1.214435 0.011295 -0.004185 -649078.000000 1 0 0
-6.022809 -2.802602 4.011397 7.760162 0.435530 1.027545 0.000537 -0.002674 2033190.000000 1 0 0
1.074091 -5.766702 -5.064903 7.749952 -1.386649 2.283048 -0.000046 0.000059 1607780.000000 1 0 0
-7.016209 1.388098 -8.548203 11.145662 -0.195319 2.444876 0.001694 -0.003992 -581842.000000 1 0 0
7.940491 1.909698 4.786697 9.466299 0.236019 1.040653 -0.001372 0.000449 349483.000000 1 0 0
0.513791 -8.028102 -0.540203 8.062643 -1.506884 1.637847 -0.000084 -0.002075 1767920.000000 1 0 0
5.425391 5.520598 -3.459503 8.478209 0.794096 1.991110 -0.000773 0.002614 27392.000000 1 0 0
-0.803209 -0.307202 -1.258203 1.524005 0.365302 2.542043 0.005392 -0.001862 296168.000000 1 0 0
9.091991 6.344998 -6.359003 12.781245 0.609293 2.091541 -0.000580 0.000371 2471790.000000 1 0 0
-15.050209 -7.142402 2.411297 16.832619 0.443099 1.427050 -0.001010 0.001859 150835.000000 1 0 0
-6.324809 6.903798 8.905097 12.921548 -0.829138 0.810458 0.000249 0.002443 -38265.300000 1 0 0
-9.404909 -3.241002 -9.639803 13.852155 0.331863 2.340478 0.009023 -0.003104 2757500.000000 1 0 0
14.890691 3.397398 -1.167103 15.317869 0.224316 1.647062 0.002330 0.000841 1530260.000000 1 0 0
12.062991 1.709898 -5.807003 13.496695 0.140809 2.015570 0.005563 -0.000149 -265016.000000 1 0 0
1.639591 -9.451602 12.726797 15.937139 -1.399033 0.645894 -0.008479 -0.001491 -322181.000000 1 0 0
-3.586909 6.295898 7.884197 10.708166 -1.052938 0.743242 0.002470 0.003694 1273230.000000 1 0 0
-4.092009 13.156598 -12.316503 18.480716 -1.269257 2.300235 -0.006079 0.003901 818269.000000 1 0 0
-10.305509 7.841898 6.509897 14.494055 -0.650468 1.104991 0.001274 -0.004489 1531780.000000 1 0 0
7.955791 -9.335202 -7.132403 14.188438 -0.865006 2.097505 -0.003033 0.000255 1366250.000000 1 0 0
5.765091 -3.777702 -0.329303 6.900416 -0.580072 1.618537 0.002311 -0.001587 -81877.800000 1 0 0
-1.599909 -4.452902 4.230997 6.347392 1.225864 0.841195 0.002087 -0.001893 640943.000000 1 0 0
9.923391 -1.961402 -2.682303 10.464967 -0.195139 1.830002 0.003491 -0.001395 -2988440.000000 1 0 0
13.482091 6.983298 1.463097 15.253652 0.477919 1.474731 -0.005881 -0.000586 781836.000000 1 0 0
5.385291 -3.742602 -3.264903 7.325846 -0.607340 2.032718 0.000323 -0.001780 -1754410.000000 1 0 0
-12.346809 -5.942402 1.907597 13.834549 0.448568 1.432469 0.002609 0.000382 1305050.000000 1 0 0
3.756691 -5.791702 -0.281303 6.909101 -0.995382 1.611522 0.000216 -0.001112 208200.000000 1 0 0
-5.228209 3.686998 -8.612103 10.728301 -0.614216 2.502683 0.001216 -0.004092 -26610.200000 1 0 0
-1.710109 -9.233002 7.275797 11.878974 1.387655 0.911585 -0.000346 -0.005349 2375670.000000 1 0 0
-7.442309 -7.412202 2.579597 10.815869 0.783371 1.329974 0.009133 -0.004364 -4152010.000000 1 0 0
-5.657009 13.133298 -8.447403 16.608549 -1.164076 2.104375 -0.001661 -0.005515 -64502.100000 1 0 0
9.192091 -13.897002 -4.131003 17.166432 -0.986418 1.813826 0.011234 0.003493 1712230.000000 1 0 0
-6.533009 -5.144502 -6.740403 10.704164 0.667049 2.251962 0.012723 -0.005122 2085380.000000 1 0 0
3.463291 0.349098 -6.227803 7.134549 0.100460 2.631927 0.000148 -0.002092 1477300.000000 1 0 0
-3.605609 5.735798 4.950497 8.390901 -1.009602 0.939757 0.005156 0.002772 652859.000000 1 0 0
-2.657409 -10.790202 -2.835603 11.468693 1.329322 1.820635 0.008618 -0.001826 2700870.000000 1 0 0
-12.593809 -0.414002 1.779297 12.725617 0.032862 1.430517 0.002157 -0.002551 834771.000000 1 0 0
8.291391 -12.077502 -6.066603 15.856131 -0.969178 1.963408 0.002588 0.001195 -118075.000000 1 0 0
6.169991 3.885898 0.960497 7.354696 0.562048 1.439826 -0.000405 0.002116 -377302.000000 1 0 0
3.434891 -4.781002 -11.033903 12.506137 -0.947798 2.651478 -0.005058 0.000352 427361.000000 1 0 0
-7.620309 4.286898 8.651097 12.299922 -0.512437 0.790703 -0.001088 0.000221 2724770.000000 1 0 0
8.236891 8.688298 4.101497 12.655243 0.812063 1.240742 0.000161 0.002862 1476090.000000 1 0 0
0.289591 10.654098 -6.344103 12.403278 1.543622 2.107710 0.006269 0.001243 1819950.000000 1 0 0
5.450391 8.055298 3.309297 10.273560 0.975933 1.242831 -0.003629 0.004174 3336500.000000 1 0 0
8.082891 6.685898 -3.803803 11.158104 0.691088 1.918671 -0.000996 0.001728 -198885.000000 1 0 0
10.485091 2.573098 -8.278103 13.604593 0.240650 2.224938 -0.000421 0.000320 -686167.000000 1 0 0
3.280491 -12.521402 -0.290303 12.947255 -1.314565 1.593220 -0.003133 -0.003710 -2364840.000000 1 0 0
0.660191 2.164698 5.197397 5.668748 1.274776 0.410677 0.000858 0.001475 795276.000000 1 0 0
-4.876909 13.481798 1.508297 14.415897 -1.223701 1.465977 0.004198 0.000961 772520.000000 1 0 0
8.168091 4.089598 -8.057203 12.180355 0.464191 2.293602 -0.005631 0.001882 722867.000000 1 0 0
-13.895809 -0.540902 -3.683803 14.385982 0.038906 1.829750 -0.003139 0.000447 1140140.000000 1 0 0
-8.615409 0.014898 -0.530903 8.631764 -0.001729 1.632341 -0.000793 -0.002998 -885640.000000 1 0 0
1.781991 -3.868502 -1.129203 4.406347 -1.139129 1.829955 0.002462 0.000940 -1696080.000000 1 0 0
8.120791 -5.556802 -0.311603 9.844917 -0.600090 1.602453 0.003019 -0.001384 2396670.000000 1 0 0
-2.341909 -1.151002 7.346697 7.796365 0.456809 0.341291 0.005928 -0.000878 1805790.000000 1 0 0
-5.821809 8.837698 -11.671403 15.755000 -0.988296 2.405066 -0.006269 0.000772 -1205680.000000 1 0 0
-6.128909 9.202198 -8.800703 14.131396 -0.983237 2.243083 -0.001758 -0.001543 -452891.000000 1 0 0
-1.529309 14.105398 -8.361603 16.468681 -1.462798 2.103341 0.006667 0.002108 796478.000000 1 0 0
-1.446009 7.257698 9.788297 12.270937 -1.374134 0.647356 0.000251 0.001665 547062.000000 1 0 0
10.040991 2.321498 -3.990703 11.051541 0.227210 1.940243 0.002206 0.000223 -963929.000000 1 0 0
-2.956409 -7.464502 -6.948703 10.618080 1.193689 2.284214 0.007639 -0.002878 1580780.000000 1 0 0
-5.564209 -4.976402 -1.556103 7.625382 0.729690 1.776309 0.010487 -0.003681 2311360.000000 1 0 0
5.711091 7.414398 -8.773303 12.828122 0.914448 2.323907 -0.000299 0.002438 -446150.000000 1 0 0
-9.525509 5.191898 -7.531303 13.206500 -0.499036 2.177634 -0.006775 0.001239 1183340.000000 1 0 0
-0.434009 6.122898 -5.280203 8.096838 -1.500032 2.281189 0.005562 -0.001675 -1210830.000000 1 0 0
-8.173009 2.810998 -6.388703 10.747805 -0.331263 2.207340 0.000140 -0.000336 -624998.000000 1 0 0
3.594691 1.401398 -1.986703 4.339667 0.371728 2.046316 0.002990 -0.000542 2582810.000000 1 0 0
-6.774309 12.503498 -3.468503 14.637597 -1.074276 1.810030 0.002483 0.004309 1795800.000000 1 0 0
-6.568409 3.098898 -2.393203 7.646868 -0.440825 1.889110 0.001143 -0.003928 -1129960.000000 1 0 0
12.077591 4.010198 -0.811903 12.751827 0.320583 1.634509 0.000826 -0.002420 1626550.000000 1 0 0
2.328991 12.504798 -5.531203 13.870414 1.386658 1.980979 0.010003 -0.000791 611804.000000 1 0 0
-9.220609 -1.418202 -4.329003 10.284512 0.152612 2.005261 0.001903 0.000222 -1614630.000000 1 0 0
-1.095009 5.783398 3.440297 6.817799 -1.383675 1.041872 0.002235 0.001164 249010.000000 1 0 0
11.566691 2.541998 12.015797 16.870966 0.216330 0.778144 0.028552 -0.004357 -280823.000000 1 0 0
-7.022209 -2.323002 -5.750403 9.368825 0.319476 2.231637 0.011365 -0.004098 -953864.000000 1 0 0
7.388591 -7.413002 10.899697 15.111164 -0.787047 0.765118 -0.007654 0.000576 -1561660.000000 1 0 0
-5.440109 -1.975402 -10.984203 12.415704 0.348313 2.656651 0.008399 -0.004697 -996695.000000 1 0 0
0.804491 -6.194302 4.463697 7.677316 -1.441643 0.950331 -0.000973 -0.001020 1038130.000000 1 0 0
-4.801009 -9.305202 7.349997 12.792925 1.094471 0.958759 0.003197 -0.006763 2220420.000000 1 0 0
-8.769409 9.343998 1.721397 12.929657 -0.817109 1.437264 -0.000446 0.000385 1009150.000000 1 0 0
-8.192309 7.322098 -9.062803 14.242944 -0.729366 2.260490 -0.005137 0.000730 -757161.000000 1 0 0
-1.326409 -10.594602 -0.074203 10.677568 1.446248 1.577746 0.004426 -0.003893 256474.000000 1 0 0
-3.938209 10.284498 7.801397 13.496006 -1.205094 0.954457 0.003621 0.002806 1927750.000000 1 0 0
-7.396909 12.030498 2.062597 14.272402 -1.019532 1.425772 -0.004512 -0.002271 1092440.000000 1 0 0
-8.222209 -8.191902 -2.754603 11.928948 0.783552 1.803817 0.014129 -0.004281 -317163.000000 1 0 0
5.420091 4.584498 -8.069403 10.747571 0.702071 2.420087 0.000100 0.002585 36741.200000 1 0 0
-8.892209 -0.203502 -10.316103 13.621115 0.022881 2.430059 0.001857 -0.003020 -892730.000000 1 0 0
-15.176609 -2.209002 -1.536303 15.413286 0.144538 1.670636 0.002374 0.002192 1094300.000000 1 0 0
-7.136509 -5.793602 8.691797 12.650807 0.681910 0.813369 0.008088 -0.006359 9721.310000 1 0 0
8.079691 3.436398 -1.048603 8.842500 0.402136 1.689663 0.000107 0.002931 1524840.000000 1 0 0
11.938191 7.233498 -5.838203 15.130384 0.544756 1.966936 0.001058 -0.000795 -139566.000000 1 0 0
3.771691 13.384398 -9.548003 16.868080 1.296121 2.172490 0.010486 -0.005308 1784920.000000 1 0 0
-9.745909 5.490898 -0.553703 11.199968 -0.513077 1.620254 -0.003264 -0.001241 290673.000000 1 0 0
11.223791 -1.268502 -5.218303 12.442398 -0.112541 2.003577 0.011731 -0.002290 -393592.000000 1 0 0
10.589991 1.711498 -1.250103 10.799995 0.160229 1.686807 0.005580 -0.001001 628854.000000 1 0 0
14.598691 4.940998 4.801697 16.142848 0.326353 1.268775 0.008498 -0.008237 2250370.000000 1 0 0
0.952791 -0.911902 10.339797 10.423569 -0.763474 0.126866 0.003307 -0.001085 1679790.000000 1 0 0
-7.947609 1.389398 -12.614103 14.973660 -0.173071 2.572554 -0.001250 -0.003737 -100572.000000 1 0 0
3.042891 -11.567202 -7.822403 14.291583 -1.313562 2.149983 -0.011534 0.004018 -22890.800000 1 0 0
2.935391 5.112698 -6.722803 8.941604 1.049611 2.421670 0.002002 -0.000624 -2591380.000000 1 0 0
6.514391 7.976898 0.596697 10.316213 0.885981 1.512923 -0.001334 0.003104 1043790.000000 1 0 0
-9.078309 -5.264702 6.726797 12.465255 0.525525 1.000782 0.006166 -0.001058 -1343460.000000 1 0 0
-0.225709 -6.881802 -11.838503 13.695265 1.538010 2.614798 -0.004896 0.002963 1612850.000000 1 0 0
6.368091 -13.429002 -4.608803 15.560583 -1.127997 1.871492 -0.003339 0.002181 3192140.000000 1 0 0
-3.248809 -0.389402 10.134997 10.650097 0.119291 0.312284 0.003629 0.002102 109657.000000 1 0 0
8.613891 8.463598 6.976597 13.946488 0.776598 1.046920 -0.001791 -0.000407 -1356650.000000 1 0 0
-7.886909 5.716398 -2.681403 10.102993 -0.627174 1.839422 0.002313 -0.004287 809952.000000 1 0 0
-5.336909 5.890398 -6.432003 10.224972 -0.834657 2.251125 0.001131 -0.002169 164447.000000 1 0 0
3.180691 -13.604502 2.572597 14.206249 -1.341125 1.388703 0.002241 -0.008378 -2321610.000000 1 0 0
-11.270909 -6.976502 6.423197 14.729645 0.554261 1.119566 0.007377 -0.005248 199804.000000 1 0 0
-12.909109 -3.777102 -6.861303 15.099307 0.284647 2.042508 0.008133 -0.000828 -755245.000000 1 0 0
6.072991 0.297598 -7.294703 9.496445 0.048964 2.446744 -0.001091 0.000499 -196732.000000 1 0 0
-1.529009 2.244698 -2.465503 3.668139 -0.972824 2.307892 0.004065 -0.004735 2928430.000000 1 0 0
7.577791 0.904898 -4.960503 9.102107 0.118852 2.147166 0.000525 0.000901 648143.000000 1 0 0
3.693691 -4.584602 10.932197 12.416717 -0.892606 0.494003 -0.009408 0.003090 153587.000000 1 0 0
6.014391 -2.536502 2.109997 6.859944 -0.399105 1.258145 0.003709 -0.000114 -824789.000000 1 0 0
-6.336209 7.672698 1.058097 10.006868 -0.880513 1.464861 0.000374 -0.002455 2123400.000000 1 0 0
6.083591 -3.464502 7.932097 10.579746 -0.517678 0.723122 -0.006136 -0.000184 -15829.600000 1 0 0
6.810191 -2.309102 -7.838403 10.637256 -0.326901 2.399243 -0.004780 -0.000965 1322330.000000 1 0 0
12.002991 -8.189402 -5.859803 15.667654 -0.598734 1.954122 0.015886 -0.001383 -102796.000000 1 0 0
5.529791 -9.657502 10.067597 15.006747 -1.050775 0.835413 -0.014213 0.003127 -237473.000000 1 0 0
-6.587909 7.557098 -4.408803 10.952069 -0.853809 1.985102 0.000553 -0.001118 591694.000000 1 0 0
-1.211109 -7.484902 9.735597 12.339870 1.410380 0.661691 0.002852 -0.004683 -1401440.000000 1 0 0
10.016191 -9.305902 0.767697 13.693548 -0.748654 1.514704 0.004283 -0.001701 1122480.000000 1 0 0
11.091791 5.986498 9.774897 15.950379 0.494919 0.911157 0.010048 -0.005856 2286420.000000 1 0 0
-15.229109 -4.240802 -4.993203 16.578366 0.271586 1.876734 0.001260 0.000350 1905330.000000 1 0 0
-4.719209 -4.613702 7.766497 10.191941 0.774094 0.704364 0.006866 -0.004816 -1635840.000000 1 0 0
2.927591 11.011398 -11.042703 15.867040 1.310939 2.340542 0.006218 0.001360 -1448870.000000 1 0 0
9.961191 -1.371802 1.471397 10.162292 -0.136854 1.425496 0.003762 -0.001546 6131.350000 1 0 0
-1.701109 -2.580002 0.660997 3.160237 0.987880 1.360080 0.005060 -0.001761 -249842.000000 1 0 0
1.556191 3.082898 0.830397 3.551838 1.103331 1.334819 -0.001081 0.000107 -670537.000000 1 0 0
-8.992609 -2.317802 4.316997 10.240883 0.252255 1.135647 0.002889 -0.003908 3579390.000000 1 0 0
9.973491 4.943798 -2.680403 11.449726 0.460197 1.807091 0.000413 0.001184 2177200.000000 1 0 0
2.594991 8.449798 2.523197 9.192366 1.272832 1.292739 -0.001662 0.002173 -132472.000000 1 0 0
-8.182209 0.014298 2.452897 8.541982 -0.001747 1.279538 -0.000292 -0.004558 1346150.000000 1 0 0
6.862191 2.032698 13.731497 15.484687 0.287983 0.480467 0.002719 -0.007329 -1146830.000000 1 0 0
6.760991 4.429398 3.802397 8.932457 0.579980 1.131080 -0.004257 0.001925 1960460.000000 1 0 0
-0.304609 3.346898 7.733097 8.431803 -1.480034 0.409966 -0.001318 0.003337 49702.600000 1 0 0
2.686491 -10.362502 9.204797 14.118320 -1.317130 0.860610 -0.014372 -0.003068 2674420.000000 1 0 0
1.430391 -4.622502 6.838797 8.377511 -1.270701 0.615772 -0.003478 0.000314 817183.000000 1 0 0
-0.097809 10.859998 -1.944203 11.033089 -1.561790 1.747937 0.008079 -0.000003 2584200.000000 1 0 0
8.741791 5.513698 8.028797 13.087451 0.562708 0.910345 -0.000700 -0.002716 -1910290.000000 1 0 0
2.632391 11.537098 -2.941103 12.193613 1.346469 1.814399 0.008660 -0.002581 481449.000000 1 0 0
1.615991 2.513998 -6.604303 7.249030 0.999501 2.716645 0.003193 -0.003749 1174820.000000 1 0 0
-13.662309 -2.188002 3.534997 14.280835 0.158800 1.320662 0.004254 -0.004492 650989.000000 1 0 0
-0.919609 -10.607402 -5.237803 11.865801 1.484318 2.027977 0.002835 0.000107 -89591.600000 1 0 0
-5.697109 2.891498 0.427497 6.403168 -0.469660 1.503983 0.003651 -0.005531 830831.000000 1 0 0
3.794091 7.356698 -5.036403 9.689246 1.094642 2.117405 0.002742 -0.000444 -2550490.000000 1 0 0
3.071591 9.856598 -6.506003 12.203085 1.268706 2.133109 0.006018 0.000642 2474210.000000 1 0 0
-12.219609 1.722098 -2.590903 12.609411 -0.140007 1.777744 -0.000504 -0.000143 839112.000000 1 0 0
-2.443309 9.695598 -5.682703 11.500761 -1.323934 2.087613 0.002094 -0.000036 1070040.000000 1 0 0
-1.320809 3.425098 1.673797 4.034530 -1.202742 1.142999 0.000973 -0.003098 318428.000000 1 0 0
12.863291 3.723098 9.612097 16.483875 0.281737 0.948231 0.024043 -0.006434 512503.000000 1 0 0
-2.482109 -9.532202 11.567997 15.193495 1.316061 0.705360 -0.002484 -0.011554 988992.000000 1 0 0
-0.511009 -8.958502 -7.484803 11.684954 1.513816 2.266011 -0.000734 0.000159 2635560.000000 1 0 0
2.382491 7.690098 -0.517603 8.067328 1.270361 1.635001 0.000304 0.002305 1440030.000000 1 0 0
-11.852209 -1.308902 -5.697503 13.215507 0.109990 2.016533 -0.001755 0.004363 189465.000000 1 0 0
-6.103109 -7.106302 -10.914603 14.383185 0.861198 2.432334 0.006033 -0.003114 1860730.000000 1 0 0
-4.747009 -2.223002 -1.432203 5.433879 0.437964 1.837517 0.005577 -0.001593 -2523330.000000 1 0 0
-10.467309 3.750498 4.465997 11.982317 -0.344055 1.188862 -0.001147 -0.004950 2400650.000000 1 0 0
6.792791 9.399898 -3.583103 12.138316 0.945033 1.870450 0.001780 0.000908 448933.000000 1 0 0
1.254691 -2.678502 -11.590303 11.961762 -1.132722 2.891729 0.001198 -0.001979 -1248870.000000 1 0 0
1.318291 8.749298 7.618497 11.676027 1.421247 0.859930 -0.002100 0.008470 1403310.000000 1 0 0
10.352791 0.317898 10.380297 14.663966 0.030697 0.784307 0.002318 -0.002048 -938075.000000 1 0 0
-5.268009 -0.804202 -3.971003 6.645865 0.151488 2.211195 0.007647 -0.004122 -128863.000000 1 0 0
11.665691 5.600198 5.362297 14.007312 0.447566 1.177948 0.002526 -0.002461 2939950.000000 1 0 0
9.850491 -3.415302 3.666197 11.051582 -0.333744 1.232654 0.009807 -0.002913 -737188.000000 1 0 0
7.314291 -1.730102 -3.508003 8.294467 -0.232268 2.007476 0.001527 0.001266 -2878550.000000 1 0 0
2.404791 9.168098 10.536997 14.172697 1.314275 0.732550 0.000958 0.004835 2532140.000000 1 0 0
2.455991 -10.896802 6.307997 12.828212 -1.349114 1.056723 -0.011771 -0.002306 1093410.000000 1 0 0
5.901591 -7.533902 -1.259203 9.652670 -0.906298 1.701620 -0.003095 -0.003273 1077290.000000 1 0 0
-0.236509 -5.601902 -2.346503 6.078101 1.528602 1.967151 0.002619 0.001553 1957060.000000 1 0 0
7.685491 -5.122602 2.690997 9.620254 -0.587907 1.287292 0.000281 -0.002053 1194560.000000 1 0 0
-2.749709 -12.492302 4.684797 13.622255 1.354139 1.219721 0.003059 -0.005576 -323560.000000 1 0 0
4.856091 -10.289402 -1.166103 11.437360 -1.129839 1.672929 -0.002824 -0.005005 1076140.000000 1 0 0
0.878791 0.263398 1.104497 1.435816 0.291207 0.693134 0.000233 0.000643 -1078330.000000 1 0 0
-1.601809 8.555898 2.464197 9.046627 -1.385722 1.294922 0.001408 0.002821 -304243.000000 1 0 0
-7.567609 0.608498 -3.098503 8.199981 -0.080236 1.958288 0.000180 -0.001379 -1294880.000000 1 0 0
4.443091 -6.349402 13.001897 15.136225 -0.960228 0.537499 -0.008004 0.002810 -1248260.000000 1 0 0
-5.097709 12.989698 8.449397 16.312915 -1.196822 1.026335 0.006578 -0.005165 1069120.000000 1 0 0
0.657191 6.071198 8.294397 10.299921 1.462969 0.634636 -0.004045 0.006812 345110.000000 1 0 0
7.949391 -0.530802 -0.778903 8.005077 -0.066674 1.668252 0.004422 0.000312 3650040.000000 1 0 0
2.449991 -9.238802 -2.391403 9.852752 -1.311578 1.815959 -0.006567 -0.003273 1673530.000000 1 0 0
-7.066209 12.191298 4.935797 14.930544 -1.045504 1.233874 -0.001709 -0.003443 983296.000000 1 0 0
-15.058509 0.255898 0.224397 15.062355 -0.016992 1.555898 0.004987 -0.002203 717677.000000 1 0 0
6.828191 -0.481102 3.916897 7.886554 -0.070342 1.051056 -0.000153 0.002227 -465858.000000 1 0 0
-4.203309 -4.995302 5.057797 8.258460 0.871286 0.911655 0.004890 -0.003965 616264.000000 1 0 0
2.964591 5.077998 6.953897 9.106676 1.042366 0.701919 -0.008230 0.004480 -718529.000000 1 0 0
2.015491 -7.189502 1.787497 7.677649 -1.297474 1.335822 -0.002282 -0.002842 995778.000000 1 0 0
-2.473509 6.478498 -1.714803 7.143510 -1.206075 1.813214 0.004425 -0.002250 2440600.000000 1 0 0
2.684891 -3.858902 -6.558103 8.068982 -0.962918 2.519661 -0.003929 -0.001660 -943844.000000 1 0 0
-5.135709 0.909198 -12.256603 13.320152 -0.175219 2.739272 0.003257 -0.002454 -983142.000000 1 0 0
-7.478609 6.412198 -11.832803 15.396789 -0.708777 2.447328 -0.002840 -0.003077 1049630.000000 1 0 0
-1.121909 11.248298 -8.980703 14.437310 -1.471385 2.242152 0.001734 0.002390 855864.000000 1 0 0
4.662991 5.939398 -0.662603 7.580170 0.905210 1.658321 -0.001374 0.001800 205695.000000 1 0 0
-2.617109 13.430898 3.509597 14.126413 -1.378351 1.319725 0.003146 0.004300 1374230.000000 1 0 0
1.516291 -7.922602 10.246597 13.040687 -1.381695 0.666904 -0.011455 -0.001696 -850798.000000 1 0 0
13.040591 -0.245202 -1.100803 13.089267 -0.018801 1.654995 0.011154 -0.004267 82851.400000 1 0 0
-1.019909 3.165298 -5.414603 6.354310 -1.259085 2.590810 0.005375 -0.005449 1909210.000000 1 0 0
6.533691 1.031298 7.325897 9.870231 0.156552 0.734417 -0.004557 0.001782 724477.000000 1 0 0
5.502891 -6.144802 6.803997 10.692744 -0.840453 0.881079 -0.010056 0.000958 1339560.000000 1 0 0
12.120691 -4.828802 2.571597 13.298180 -0.379121 1.376191 0.009810 -0.002276 -1262900.000000 1 0 0
4.321591 -9.162702 13.925497 17.220648 -1.130085 0.628941 -0.013035 0.003168 464693.000000 1 0 0
-2.742609 -4.268502 -1.487703 5.287274 0.999696 1.856022 0.007922 -0.002454 2235290.000000 1 0 0
-9.348909 -5.190102 -7.493003 13.056965 0.506793 2.182020 0.013022 -0.003631 164637.000000 1 0 0
-10.609209 -3.018602 7.798197 13.508484 0.277201 0.955401 0.001969 0.000020 517587.000000 1 0 0
12.123191 -0.650902 1.574297 12.242297 -0.053639 1.441844 0.011350 -0.003672 1119800.000000 1 0 0
-7.652609 4.754098 4.359997 10.008669 -0.555890 1.120067 0.002828 -0.004093 2296690.000000 1 0 0
-1.019409 10.551898 7.015097 12.711937 -1.474486 0.986214 -0.000115 0.007939 1859190.000000 1 0 0
7.318291 -10.015102 1.842597 12.540128 -0.939745 1.423326 -0.001599 -0.003943 2853050.000000 1 0 0
-4.362009 -1.633302 1.616297 4.930235 0.358278 1.236787 0.001875 -0.001482 1614470.000000 1 0 0
6.638891 -15.038702 -0.940803 16.465799 -1.155072 1.627964 0.010724 0.000390 -432622.000000 1 0 0
-10.471209 1.727498 2.383397 10.877088 -0.163503 1.349883 -0.003242 -0.002655 -332380.000000 1 0 0
-2.989609 8.390298 -11.352003 14.429235 -1.228505 2.476300 -0.004138 0.000681 -408576.000000 1 0 0
-1.140909 -5.204002 -6.908803 8.724383 1.354974 2.484704 -0.000980 -0.002192 -526060.000000 1 0 0
12.851191 -0.483802 6.419297 14.373397 -0.037629 1.107824 0.013971 -0.006094 2268550.000000 1 0 0
5.817891 -13.298702 3.751797 14.992642 -1.158404 1.317866 -0.000921 -0.005346 815316.000000 1 0 0
-5.570509 3.561698 -4.952403 8.260905 -0.568877 2.213671 0.003321 -0.004332 1907370.000000 1 0 0
-4.384909 8.027898 3.329797 9.734584 -1.070868 1.221690 0.004907 0.000451 448079.000000 1 0 0
14.098491 6.111198 -4.023803 15.884117 0.409018 1.826909 0.010292 0.001626 54362.400000 1 0 0
-6.698409 -8.489302 5.239897 12.016383 0.902773 1.119577 0.011667 -0.005925 444620.000000 1 0 0
1.744191 11.347298 2.768997 11.809772 1.418280 1.334126 0.002879 0.002291 2501190.000000 1 0 0
-7.422009 7.302398 5.958097 11.996256 -0.777275 1.051046 0.001124 -0.001386 -484475.000000 1 0 0
-17.319809 -4.042102 5.163397 18.519585 0.229276 1.288244 0.005703 -0.008630 -1589910.000000 1 0 0
7.433891 -13.148802 -8.569803 17.366498 -1.056232 2.086868 0.003209 0.002849 -1647570.000000 1 0 0
-2.356409 12.842198 -2.761403 13.345413 -1.389325 1.779220 0.003556 0.003168 336559.000000 1 0 0
-5.506709 14.024198 -5.694103 16.106669 -1.196636 1.932133 0.004937 0.004362 2208540.000000 1 0 0
-5.644409 2.437098 7.412897 9.630672 -0.407593 0.692398 0.004545 -0.000196 1860480.000000 1 0 0
-7.504009 5.079598 1.367897 9.164257 -0.595066 1.420972 0.001798 -0.003893 1528400.000000 1 0 0
10.679891 -5.678302 -5.157303 13.149181 -0.488671 1.973834 0.006597 -0.002554 2575940.000000 1 0 0
-9.562309 -0.705102 6.812297 11.761901 0.073604 0.953070 0.000195 -0.002131 70805.900000 1 0 0
-11.279509 -4.534002 -2.572103 12.425788 0.382202 1.779301 0.001823 -0.000362 606116.000000 1 0 0
6.575291 -4.288202 13.556597 15.665390 -0.577899 0.524878 -0.006355 -0.002022 -670550.000000 1 0 0
0.216691 10.314798 -11.638703 15.553180 1.549792 2.416317 0.003757 0.003639 -1568460.000000 1 0 0
-11.831009 -3.179802 1.458697 12.337411 0.262564 1.452285 0.004307 -0.003021 1808710.000000 1 0 0
5.200891 6.081398 5.527197 9.725358 0.863284 0.966323 -0.006108 0.003989 -4226430.000000 1 0 0
-7.199109 -0.013602 8.089497 10.829004 0.001889 0.727226 0.001309 -0.001488 1128100.000000 1 0 0
1.718291 2.025698 9.660197 10.018752 0.867321 0.268343 -0.001482 0.001675 2774010.000000 1 0 0
10.473391 -4.918102 -2.163503 11.771168 -0.439017 1.755644 0.001117 -0.003101 2825930.000000 1 0 0
-9.668109 -2.404402 -1.676503 10.102680 0.243749 1.737514 0.002002 -0.001448 -1221970.000000 1 0 0
-1.939409 -5.226202 -9.941803 11.397979 1.215455 2.630565 0.004735 -0.003401 1361240.000000 1 0 0
7.646991 -1.557902 6.529997 10.175677 -0.200977 0.874050 -0.004043 -0.000080 1272640.000000 1 0 0
1.494991 -11.911102 -2.462303 12.254480 -1.445937 1.773104 -0.000381 -0.000260 -2766780.000000 1 0 0
-0.818409 -1.463602 4.785497 5.070790 1.060937 0.337039 0.005502 -0.001844 3411570.000000 1 0 0
7.657391 1.426798 9.944497 12.631881 0.184217 0.664454 -0.006968 0.000405 570486.000000 1 0 0
-3.862809 10.753198 -7.919603 13.902254 -1.225928 2.176892 0.002052 0.002393 1513060.000000 1 0 0
-9.532109 12.726098 6.363997 17.126445 -0.927922 1.190076 0.004230 -0.003823 742584.000000 1 0 0
-2.491509 -2.424402 -11.094503 11.626407 0.771748 2.837939 0.007435 -0.005104 -2307170.000000 1 0 0
1.147891 -11.948202 11.109697 16.355505 -1.475018 0.824038 -0.010653 0.001854 800470.000000 1 0 0
1.278491 3.418198 -1.968203 4.146377 1.212881 2.065397 0.002653 -0.000726 1728810.000000 1 0 0
-1.861509 -9.434302 -12.037003 15.406515 1.375986 2.467531 -0.003534 0.002495 908792.000000 1 0 0
1.185191 -2.677602 1.624297 3.348518 -1.154087 1.064342 0.005802 -0.001314 4031910.000000 1 0 0
-1.085909 -2.218302 -6.636803 7.081470 1.115566 2.785330 0.004567 -0.005066 478186.000000 1 0 0
1.853091 5.869498 4.102297 7.396878 1.264985 0.982916 -0.008130 0.005183 -1280920.000000 1 0 0
-11.056009 8.573998 3.605097 14.448028 -0.659626 1.318610 -0.005117 -0.002541 1500040.000000 1 0 0
-16.492009 -1.577002 3.815697 17.000966 0.095332 1.344428 0.011878 -0.004526 400333.000000 1 0 0
-12.259709 0.325198 6.727697 13.988142 -0.026520 1.069050 -0.001097 -0.001804 84384.100000 1 0 0
-5.160809 3.059098 4.631897 7.579347 -0.535076 0.913320 0.004097 -0.001815 1237510.000000 1 0 0
5.137191 -6.023102 3.858597 8.806660 -0.864613 1.117262 -0.006306 -0.000561 1500730.000000 1 0 0
9.857091 3.380098 6.298897 12.176347 0.330345 1.027096 0.002133 0.001138 905586.000000 1 0 0
-12.200609 5.867098 3.179797 13.906430 -0.448240 1.340099 -0.001513 -0.001003 -79109.700000 1 0 0
-4.921209 12.378398 -1.230003 13.377442 -1.192391 1.662872 -0.001654 0.004723 603043.000000 1 0 0
-1.683709 -12.131602 10.324297 16.018794 1.432890 0.870412 0.009006 -0.010739 175216.000000 1 0 0
5.269791 6.330198 13.984797 16.230116 0.876559 0.532270 0.005218 -0.005031 1432930.000000 1 0 0
12.825791 -3.700802 -5.961003 14.619521 -0.280914 1.990777 0.004854 -0.001268 753098.000000 1 0 0
3.559391 -2.592602 6.458797 7.817091 -0.629522 0.598396 -0.005895 0.001354 536833.000000 1 0 0
7.191691 -11.873702 -0.643503 13.896738 -1.026209 1.617119 0.000230 -0.000447 -1217890.000000 1 0 0
-6.117409 -6.571902 -4.076803 9.860675 0.821200 1.997026 0.012833 -0.005001 614563.000000 1 0 0
0.306291 -8.964102 5.063797 10.300047 -1.536641 1.056837 -0.003146 -0.004925 2515580.000000 1 0 0
-10.338809 2.517598 -0.434303 10.649783 -0.238861 1.611588 -0.004046 -0.000757 -1845570.000000 1 0 0
-1.770209 8.975698 -0.318703 9.154145 -1.376073 1.605619 0.005214 0.000391 817406.000000 1 0 0
-3.526609 2.322198 -6.600203 7.835321 -0.582313 2.572454 0.006963 -0.006006 279004.000000 1 0 0
-12.689109 3.080198 6.406597 14.544607 -0.238137 1.114664 -0.002032 -0.003357 -716442.000000 1 0 0
11.365791 1.594898 7.896097 13.931018 0.139414 0.968180 0.008897 -0.007270 -1612110.000000 1 0 0
5.915891 2.677198 -3.236203 7.255216 0.424967 2.033146 -0.001452 0.001333 849952.000000 1 0 0
10.501391 -2.390202 6.434697 12.545820 -0.223795 1.032242 0.009247 -0.004013 2847270.000000 1 0 0
-0.935309 11.050998 4.118497 11.830528 -1.486362 1.215227 0.003588 0.004623 2370670.000000 1 0 0
-1.579609 -12.197702 7.406797 14.357567 1.442013 1.028761 -0.002909 -0.003424 -889557.000000 1 0 0
8.112891 8.680598 -7.752403 14.187020 0.819190 2.148908 0.003697 -0.001015 -224279.000000 1 0 0
-4.667009 -5.910502 -8.748403 11.543377 0.902421 2.430842 0.009868 -0.004992 422265.000000 1 0 0
-8.465509 -5.298202 -11.701003 15.383408 0.559216 2.435071 0.013859 -0.000464 1548480.000000 1 0 0
6.100591 -0.681602 -9.949703 11.690953 -0.111266 2.588797 -0.003615 -0.001074 -1027760.000000 1 0 0
-11.176509 -5.473902 -5.363603 13.551612 0.455429 1.977725 0.005786 -0.004684 -1265040.000000 1 0 0
3.909091 8.962798 -2.755003 10.158877 1.159523 1.845427 0.004300 -0.000861 2892850.000000 1 0 0
11.651391 -10.384602 -3.995503 16.110832 -0.727974 1.821413 0.011313 0.000140 937736.000000 1 0 0
3.831191 -11.256402 3.873697 12.505604 -1.242738 1.255859 -0.006188 -0.002521 1416400.000000 1 0 0
-1.025409 0.908598 3.234897 3.513058 -0.725073 0.400616 0.004539 -0.002041 -1058010.000000 1 0 0
-10.587909 -5.023202 4.439797 12.531886 0.442982 1.208652 0.003124 -0.002418 4231720.000000 1 0 0
4.475191 -8.674502 2.687897 10.124184 -1.094508 1.302081 -0.007397 -0.002373 4693610.000000 1 0 0
-3.656909 -5.724202 2.649697 7.291115 1.002299 1.198866 0.005458 -0.002921 2672800.000000 1 0 0
10.073791 4.973598 12.278597 16.642773 0.458608 0.741030 0.015323 -0.006133 -75011.800000 1 0 0
1.649191 -12.286502 -5.196003 13.441592 -1.437366 1.967697 -0.001275 0.000108 1781820.000000 1 0 0
9.750991 -10.720502 -1.746403 14.596606 -0.832722 1.690728 0.003870 -0.002498 173109.000000 1 0 0
9.577491 -4.501302 -9.260503 14.062253 -0.439351 2.289668 0.003089 -0.001104 364352.000000 1 0 0
-7.378009 -3.048702 -13.078903 15.322771 0.391846 2.593577 0.008742 -0.000222 2451110.000000 1 0 0
0.421291 6.228798 -2.524703 6.734206 1.503263 1.955093 0.001921 -0.001757 2387830.000000 1 0 0
-5.976009 -9.499602 0.951297 11.263218 1.009269 1.486235 0.008703 -0.001926 -177850.000000 1 0 0
-8.995009 -4.044002 0.604497 9.880767 0.422507 1.509579 0.001013 -0.002489 5353320.000000 1 0 0
1.917391 3.719298 12.111397 12.813880 1.094806 0.332657 0.000694 -0.000842 2086730.000000 1 0 0
6.698391 4.258998 9.626397 12.476980 0.566345 0.689550 -0.004604 0.001840 1702390.000000 1 0 0
-8.271709 9.877498 -3.617303 13.381742 -0.873645 1.844518 -0.002792 0.002842 2483720.000000 1 0 0
16.395791 2.172598 -6.086103 17.623359 0.131742 1.923401 0.016895 0.001024 -1711020.000000 1 0 0
-10.869009 2.676798 -5.127103 12.312099 -0.241473 2.000309 -0.003451 0.002846 2089750.000000 1 0 0
-13.816009 4.028498 1.530897 14.472545 -0.283716 1.464819 -0.001504 -0.000226 221171.000000 1 0 0
-17.475609 10.539098 3.216197 20.659463 -0.542677 1.414484 0.037862 -0.004500 -219377.000000 1 0 0
-14.398909 2.827698 -1.168203 14.720365 -0.193915 1.650240 0.003122 -0.001353 371543.000000 1 0 0
-14.350509 5.179698 5.168497 16.108375 -0.346389 1.244161 -0.000174 -0.002872 1758240.000000 1 0 0
-17.360709 7.641498 3.082497 19.216880 -0.414641 1.409695 0.012754 0.001055 -2811770.000000 1 0 0
-14.862109 12.648798 -3.486403 19.824969 -0.705119 1.747575 0.026755 -0.005527 -112777.000000 1 0 0
-8.425009 12.537898 -9.500803 17.845025 -0.979136 2.132237 -0.007186 -0.014386 2472290.000000 1 0 0
-12.328509 8.797698 -9.881403 18.084074 -0.619799 2.148874 -0.003682 0.004276 -749088.000000 1 0 0
-13.854509 -3.527602 -12.297903 18.858150 0.249320 2.281183 0.002592 0.008672 -392303.000000 1 0 0
-14.654709 5.731398 -7.605003 17.476999 -0.372807 2.020994 0.003872 0.009036 -583913.000000 1 0 0
-10.785709 13.743998 -8.530803 19.442315 -0.905419 2.025031 -0.000248 -0.010586 640349.000000 1 0 0
-10.866409 13.516898 3.865897 17.768808 -0.893674 1.351476 0.005771 -0.007778 -1287720.000000 1 0 0
-15.138209 3.214998 3.188397 15.800869 -0.209267 1.367615 -0.002467 -0.002850 2742420.000000 1 0 0
-11.061309 9.348098 -12.530403 19.150731 -0.701652 2.284058 -0.000036 -0.002297 123807.000000 1 0 0
-12.854509 11.663098 -9.177603 19.634018 -0.736842 2.057182 -0.003277 -0.009138 -923246.000000 1 0 0
-8.865509 14.628098 -3.550803 17.469594 -1.025933 1.775479 0.004583 -0.004744 1619780.000000 1 0 0
-16.665109 8.234998 -4.010903 19.016529 -0.458954 1.783309 0.017010 0.005378 -84807.600000 1 0 0
-16.824409 6.665098 0.396897 18.100878 -0.377189 1.548868 0.015332 0.001487 74436.600000 1 0 0
-10.546009 2.774498 -12.698703 16.738375 -0.257256 2.432047 0.003873 -0.002394 2301880.000000 1 0 0
-16.934509 0.961498 2.386197 17.128806 -0.056717 1.431033 0.006303 -0.006492 886019.000000 1 0 0
-12.617309 1.254198 -7.043203 14.504351 -0.099078 2.077837 -0.002598 0.002277 1472600.000000 1 0 0
-12.333909 9.036298 -5.474203 16.240286 -0.632297 1.914605 0.005180 0.000541 -2183300.000000 1 0 0
-9.502809 13.909698 1.259797 16.892903 -0.971449 1.496151 0.007750 -0.004989 -272885.000000 1 0 0
-12.218609 11.143598 2.745697 16.763443 -0.739416 1.406264 0.005119 -0.002213 -1039400.000000 1 0 0
-12.523609 6.815198 -3.659303 14.719993 -0.498370 1.822025 -0.002115 0.004819 414963.000000 1 0 0
-15.727309 3.651198 -9.328803 18.646878 -0.228116 2.094727 0.004409 0.002790 -66714.700000 1 0 0
-15.054709 5.840098 -4.680203 16.812356 -0.370054 1.852902 0.004640 0.007122 1425600.000000 1 0 0
-17.923209 5.188898 7.359697 20.058196 -0.281803 1.195103 0.012247 -0.006358 -75539.700000 1 0 0
-15.746909 10.140598 -2.094503 18.846321 -0.572127 1.682162 0.024871 0.000524 -1136310.000000 1 0 0
-8.737209 10.040098 -8.204803 15.635254 -0.854674 2.123233 -0.003898 -0.003502 1621300.000000 1 0 0
-16.981409 4.191698 -1.289803 17.538591 -0.242003 1.644404 0.003959 0.002214 822356.000000 1 0 0
-10.185209 5.400198 -4.582003 12.405457 -0.487515 1.949110 -0.000946 -0.000844 -579445.000000 1 0 0
-18.304609 2.659598 6.111997 19.480469 -0.144287 1.251656 0.016007 -0.007252 -1005020.000000 1 0 0
-10.432309 10.089498 -5.715203 15.597903 -0.768695 1.945942 -0.000746 -0.002163 2771610.000000 1 0 0
-15.384109 0.505998 -5.945903 16.500927 -0.032879 1.939426 -0.004489 0.003634 1517020.000000 1 0 0
-16.348709 -4.196802 -8.899703 19.081356 0.251280 2.056022 0.001424 -0.004565 -1645310.000000 1 0 0
-9.891609 9.652998 -1.077903 13.863123 -0.773190 1.648628 -0.003207 0.002059 1043240.000000 1 0 0
-17.368909 -2.996202 -3.224903 17.918042 0.170823 1.751763 0.007515 0.000369 118303.000000 1 0 0
-11.930009 5.061098 -11.629303 17.412079 -0.401220 2.302163 0.001343 0.003682 -281930.000000 1 0 0
-16.319409 7.153998 5.804197 18.740104 -0.413143 1.255897 0.008635 0.003005 -313700.000000 1 0 0
-12.067509 6.000698 -8.933603 16.169181 -0.461454 2.156167 0.001399 0.003249 368628.000000 1 0 0
-14.464309 8.428698 -0.099403 16.741238 -0.527620 1.576734 0.012018 0.000562 1291450.000000 1 0 0
-14.891309 11.930198 3.797497 19.455120 -0.675443 1.374342 0.018170 -0.006777 1939390.000000 1 0 0
-17.298309 4.112898 -4.129203 18.253705 -0.233429 1.798983 0.004320 0.003996 -585111.000000 1 0 0
-13.609209 13.537098 -0.935803 19.218203 -0.782742 1.619509 0.024251 -0.003467 -44108.500000 1 0 0
-10.013609 6.761898 -13.130403 17.843853 -0.593936 2.397718 -0.006059 -0.003098 813590.000000 1 0 0
-15.770809 -1.127602 -8.412103 17.909589 0.071378 2.059745 -0.006931 -0.001557 -548604.000000 1 0 0
-11.381209 11.967298 -0.056703 16.515186 -0.810495 1.574230 0.009063 -0.001791 1164210.000000 1 0 0
-11.875509 7.428798 -0.936003 14.038905 -0.558999 1.637518 -0.000951 0.005442 1545890.000000 1 0 0
-11.454509 0.108998 -11.769903 16.424015 -0.009515 2.369751 -0.001385 -0.003271 -326091.000000 1 0 0
-19.085509 -1.282702 -4.736803 19.706326 0.067107 1.813543 0.006193 0.003955 -1745070.000000 1 0 0
-17.990309 1.520998 -5.154803 18.775959 -0.084345 1.848910 0.000577 0.005773 -5752.850000 1 0 0
-13.301209 -0.040502 -9.516803 16.355223 0.003045 2.191837 0.000528 -0.001299 -606749.000000 1 0 0
-6.111709 11.278098 -13.255403 18.445980 -1.074186 2.372593 -0.016382 0.002300 -2180210.000000 1 0 0
16.402691 5.716498 6.939497 18.705166 0.335347 1.190718 0.033057 -0.009972 155897.000000 1 0 0
14.907491 10.035898 -5.391803 18.762305 0.592520 1.862281 0.022572 -0.004028 1460110.000000 1 0 0
2.465991 16.937398 4.429897 17.679948 1.426218 1.317537 0.014957 -0.005454 2108950.000000 1 0 0
-3.896709 18.340498 -5.894903 19.654722 -1.361445 1.875408 0.002255 -0.003507 695633.000000 1 0 0
5.546191 14.557198 5.752897 16.606266 1.206782 1.217034 0.002174 0.001057 247622.000000 1 0 0
9.957791 5.802998 15.105597 19.000301 0.527646 0.651758 0.025092 -0.012919 -673958.000000 1 0 0
4.730391 12.739898 -1.134403 13.637026 1.215269 1.654078 0.003215 0.000258 2172340.000000 1 0 0
3.615191 13.609998 13.182597 19.289441 1.311164 0.818373 0.006488 -0.003984 -286224.000000 1 0 0
-0.759709 12.376298 9.277797 15.486363 -1.509489 0.928426 -0.001066 0.002693 2372780.000000 1 0 0
-7.720909 14.061798 8.330397 18.076009 -1.068668 1.091839 0.012558 -0.009070 2829600.000000 1 0 0
11.511491 12.918998 -4.137003 17.791282 0.842947 1.805474 0.016197 0.002155 143880.000000 1 0 0
-5.795509 16.230398 0.917497 17.258492 -1.227830 1.517609 0.002211 -0.001722 1553890.000000 1 0 0
3.243591 10.635498 6.925797 13.099671 1.274779 1.013728 -0.004841 0.007662 1013790.000000 1 0 0
-1.156309 15.593898 2.452497 15.827869 -1.496780 1.415221 0.006250 -0.003900 -626711.000000 1 0 0
9.925291 8.796198 9.522997 16.327032 0.725161 0.948053 0.012755 -0.005368 1488270.000000 1 0 0
7.341491 12.307098 6.265897 15.640448 1.032936 1.158601 -0.002163 0.003372 988593.000000 1 0 0
11.843291 13.989198 -1.535603 18.393458 0.868278 1.654380 0.002968 0.001987 -839929.000000 1 0 0
9.652691 15.934098 -1.188003 18.667653 1.026132 1.634479 0.005623 -0.001753 127495.000000 1 0 0
10.138391 13.713798 2.971097 17.311345 0.934189 1.398315 -0.001338 0.002553 533277.000000 1 0 0
-5.946709 14.653198 6.256797 17.006677 -1.185274 1.194044 -0.001917 -0.004494 1102440.000000 1 0 0
-0.982909 18.223598 -6.187603 19.270497 -1.516912 1.897679 0.016757 -0.000089 992947.000000 1 0 0
-3.445909 15.781998 5.374797 17.024518 -1.355826 1.249592 0.000436 -0.003154 770333.000000 1 0 0
7.084891 12.220598 10.787697 17.773945 1.045400 0.918593 -0.003232 0.001557 3850820.000000 1 0 0
1.526591 14.666098 6.256097 16.017605 1.467080 1.169539 0.002645 0.002886 278316.000000 1 0 0
17.456391 7.516798 -1.303503 19.050642 0.406608 1.639273 -0.003960 0.006291 1239960.000000 1 0 0
2.153391 16.261398 -3.258503 16.723875 1.439139 1.766892 0.006995 -0.004900 2748100.000000 1 0 0
6.792991 11.073198 0.613897 13.005280 1.020537 1.523575 0.000717 0.001502 445138.000000 1 0 0
12.613191 9.273798 3.248397 15.988996 0.633991 1.366208 -0.000108 0.001709 -2503900.000000 1 0 0
6.075991 14.347898 -3.432303 15.954954 1.170217 1.787616 0.001603 0.001020 584545.000000 1 0 0
3.272691 16.500398 1.576897 16.895569 1.374997 1.477328 0.008759 -0.009671 -1691470.000000 1 0 0
2.870691 18.917198 -2.597703 19.309306 1.420195 1.705737 0.014782 -0.012093 -426504.000000 1 0 0
3.932091 11.899898 10.790897 16.538210 1.251660 0.859940 0.002284 -0.001736 2074030.000000 1 0 0
8.143391 11.482698 3.397297 14.481326 0.953931 1.333991 -0.004759 0.005720 669409.000000 1 0 0
0.884191 12.448398 0.295497 12.483258 1.499887 1.547123 0.008356 0.000019 -941975.000000 1 0 0
12.024591 9.877798 -4.529503 16.207347 0.687694 1.854041 0.010480 0.002762 -411548.000000 1 0 0
-1.268509 16.430798 9.879597 19.214231 -1.493746 1.030744 0.006295 -0.002261 1123430.000000 1 0 0
8.183391 14.786998 -8.090303 18.737028 1.065333 2.017263 0.022055 -0.003262 922071.000000 1 0 0
14.465391 7.580298 -1.343603 16.386389 0.482686 1.652884 -0.002751 0.003501 544168.000000 1 0 0
12.508091 8.266698 5.978997 16.141222 0.584005 1.191337 0.006057 -0.006557 -487048.000000 1 0 0
-3.066909 14.260198 10.249797 17.827437 -1.358955 0.958259 0.011106 -0.004842 1472430.000000 1 0 0
-4.639509 17.251098 -3.168303 18.142866 -1.308073 1.746327 0.009901 -0.004595 630367.000000 1 0 0
-7.212209 16.505698 -1.811403 18.103458 -1.158845 1.671022 0.009190 -0.004702 633458.000000 1 0 0
8.432891 11.290598 -1.872803 14.216140 0.929285 1.702918 0.003240 0.001336 -1047250.000000 1 0 0
8.623491 12.926098 -4.209403 16.098686 0.982467 1.835346 0.015769 0.001153 2192030.000000 1 0 0
2.580491 14.961198 -7.373503 16.877942 1.399998 2.022915 0.009049 -0.000932 571345.000000 1 0 0
11.375291 11.209598 9.849197 18.763236 0.778062 1.018175 0.012371 -0.003394 831863.000000 1 0 0
8.675591 15.830598 1.522497 18.116062 1.069469 1.486656 0.003341 0.001905 1756120.000000 1 0 0
6.057191 9.985698 7.726897 14.003881 1.025548 0.986313 -0.002062 0.008298 3144810.000000 1 0 0
14.438691 11.368898 2.651097 18.567605 0.667005 1.427526 0.006018 0.003875 2930560.000000 1 0 0
12.083491 12.672998 1.185997 17.550562 0.809206 1.503169 0.004383 0.007048 865957.000000 1 0 0
5.359991 15.865098 8.336797 18.706497 1.244988 1.108881 0.015104 -0.001263 -1971010.000000 1 0 0
11.409891 14.940098 5.225697 19.511537 0.918579 1.299660 0.005603 0.000713 206071.000000 1 0 0
6.046091 16.986398 1.861997 18.126223 1.228842 1.467891 -0.002187 -0.007306 397336.000000 1 0 0
-0.628409 16.217498 -4.142803 16.750073 -1.532067 1.820720 0.011342 -0.003068 1112150.000000 1 0 0
15.980691 6.278398 2.521897 17.353983 0.374348 1.424959 -0.008112 -0.004938 -419427.000000 1 0 0
7.692091 16.761998 -3.146803 18.709228 1.140565 1.739795 0.005483 -0.002395 -415953.000000 1 0 0
14.865291 8.074298 7.450397 18.484577 0.497580 1.155938 0.023346 -0.008904 -44360.700000 1 0 0
2.100691 12.950398 8.688597 15.735865 1.409986 0.985853 0.003521 0.004169 1507380.000000 1 0 0
15.975791 7.396098 -5.933203 18.577703 0.433576 1.895863 0.006769 0.004300 -314292.000000 1 0 0
-2.990809 17.049198 0.667897 17.322418 -1.397141 1.532230 0.002093 -0.004701 621765.000000 1 0 0
-2.879109 18.597698 4.449997 19.338204 -1.417206 1.338601 0.004731 -0.009815 2163410.000000 1 0 0
-0.749509 19.087298 0.819397 19.119574 -1.531549 1.527927 0.007196 -0.010637 1721930.000000 1 0 0
7.095891 16.806898 -6.081803 19.230492 1.171299 1.892579 0.020656 -0.005753 501560.000000 1 0 0
11.015191 9.986598 0.845897 14.892351 0.736461 1.513965 -0.000163 0.003183 -1976070.000000 1 0 0
9.273291 8.491798 14.235197 18.993299 0.741436 0.723512 0.025731 -0.014487 -208888.000000 1 0 0
6.427891 12.454098 -8.371603 16.325014 1.094331 2.109249 0.021070 -0.005767 73810.300000 1 0 0
6.509291 8.897598 13.293997 17.270451 0.939190 0.692341 0.011892 -0.011231 1334580.000000 1 0 0
16.566791 9.261298 2.865297 19.194795 0.509748 1.420962 -0.002665 -0.005573 -2354590.000000 1 0 0
2.672791 14.730098 -0.664403 14.985361 1.391298 1.615148 0.006833 -0.004043 -366780.000000 1 0 0
9.108091 12.890498 8.478397 17.916626 0.955672 1.077861 0.004799 -0.001000 1944870.000000 1 0 0
7.227191 9.337898 10.511997 15.809197 0.912134 0.843397 0.001356 -0.002259 -79050.500000 1 0 0
4.413691 15.834898 -5.278803 17.265295 1.298964 1.881519 0.010913 -0.004733 1766330.000000 1 0 0
0.205991 16.450898 -8.147503 18.359093 1.558275 2.030615 0.012725 0.002407 74856.000000 1 0 0
-2.509509 15.754398 -2.031103 16.081793 -1.412834 1.697433 0.003955 -0.001436 837587.000000 1 0 0
13.285891 10.434598 7.692497 18.562604 0.665768 1.143504 0.020431 -0.007902 1641340.000000 1 0 0
-0.882609 15.963998 6.968097 17.440832 -1.515565 1.159795 0.005168 -0.000764 2502120.000000 1 0 0
13.372091 13.257598 6.782097 20.014334 0.781099 1.225089 0.018734 -0.002149 -257757.000000 1 0 0
5.409691 17.371298 4.669297 18.783745 1.268900 1.319581 0.000966 -0.004458 350224.000000 1 0 0
10.812291 9.487398 -1.864603 14.504934 0.720224 1.699703 0.001565 0.002400 314357.000000 1 0 0
3.272691 12.748898 4.830497 14.020650 1.319518 1.219061 -0.000025 0.005930 2074120.000000 1 0 0
-0.091109 18.013398 3.484297 18.347510 -1.565739 1.379730 0.008116 -0.009123 1799150.000000 1 0 0
-7.707009 15.943698 -5.905503 18.667471 -1.120526 1.892678 0.015702 -0.008572 203934.000000 1 0 0
-12.430709 -9.015702 8.177797 17.397752 0.627489 1.081450 0.012724 -0.013475 -289616.000000 1 0 0
-13.235809 -11.588402 6.767997 18.848965 0.719132 1.203531 0.011220 -0.013620 -1470920.000000 1 0 0
-6.543709 -12.072702 12.358097 18.474112 1.074096 0.838013 0.013066 -0.016995 -712684.000000 1 0 0
-1.802409 -10.654702 14.342197 17.957449 1.403217 0.645703 0.001187 -0.006863 -19896.100000 1 0 0
-8.807509 2.803998 10.974597 14.348394 -0.308219 0.699963 0.002279 0.002605 2062400.000000 1 0 0
0.659791 10.082998 15.201297 18.253263 1.505453 0.586652 0.016398 -0.006894 -406601.000000 1 0 0
1.124091 -6.706302 16.680697 18.013432 -1.404723 0.387082 0.004613 -0.007945 1131520.000000 1 0 0
5.959791 2.458798 17.665597 18.805268 0.391291 0.349932 0.016150 -0.024731 757544.000000 1 0 0
-5.042909 -3.003302 17.597197 18.550259 0.537141 0.321942 0.019611 -0.012433 969630.000000 1 0 0
-4.322609 8.150698 13.027597 15.963619 -1.083175 0.616200 -0.000053 0.001077 1646400.000000 1 0 0
0.210491 -4.943102 18.717097 19.359966 -1.528239 0.258424 0.015800 -0.013182 2431540.000000 1 0 0
-11.622309 2.048298 11.114497 16.211281 -0.174447 0.815365 0.011156 0.001833 680091.000000 1 0 0
-3.361909 -6.139502 14.302497 15.923484 1.069808 0.455135 0.013738 -0.012778 -148952.000000 1 0 0
-7.480209 -2.338102 14.613297 16.582180 0.302950 0.492264 0.014357 -0.004326 -247511.000000 1 0 0
-6.121209 -1.111802 10.558397 12.255001 0.179672 0.532465 0.007523 -0.001810 1255580.000000 1 0 0
-3.937809 2.386998 11.130997 12.045879 -0.544947 0.392253 0.001202 0.003883 567325.000000 1 0 0
-6.391609 6.255398 13.497097 16.191180 -0.774628 0.585188 -0.009690 0.002081 -395292.000000 1 0 0
-8.901309 5.441398 12.489497 16.273588 -0.548689 0.695910 -0.004766 -0.000778 -610803.000000 1 0 0
-12.236609 -2.353002 15.812897 20.132534 0.189973 0.667390 0.012298 0.002033 1140450.000000 1 0 0
-3.451509 -7.571102 16.945297 18.877966 1.143064 0.456450 0.014586 -0.012826 -479236.000000 1 0 0
-0.533009 -5.358902 14.508997 15.476205 1.471660 0.355411 0.006709 -0.004268 1956870.000000 1 0 0
-14.224409 -2.346402 13.635097 19.843268 0.163484 0.813252 0.007217 0.001815 -718593.000000 1 0 0
-6.453009 1.389898 12.203197 13.874118 -0.212147 0.495848 0.003893 -0.000318 1582460.000000 1 0 0
2.261691 -2.319702 14.611297 14.966171 -0.798060 0.218202 -0.000252 -0.003064 732037.000000 1 0 0
-12.594509 4.036798 9.146297 16.080179 -0.310175 0.965758 0.003613 -0.000133 272297.000000 1 0 0
-9.036909 -3.070902 12.503897 15.730340 0.327575 0.651969 0.004786 -0.000115 838569.000000 1 0 0
-7.095209 -7.265302 15.202997 18.282717 0.797242 0.588903 0.022015 -0.014848 -1044920.000000 1 0 0
-3.368009 6.139598 19.341697 20.570352 -1.069050 0.347372 0.030812 -0.004611 -227907.000000 1 0 0
0.707691 5.452398 16.194197 17.102090 1.441723 0.327302 0.018516 -0.008317 1935990.000000 1 0 0
3.371191 1.461498 16.805897 17.202880 0.409070 0.215248 0.010490 -0.011811 424591.000000 1 0 0
-11.656209 11.678298 7.956797 18.318310 -0.786345 1.121465 0.008921 -0.002526 40356.200000 1 0 0
0.559291 -9.430402 15.472397 18.128441 -1.511558 0.548155 -0.010930 -0.000809 -477701.000000 1 0 0
-2.417909 -3.611602 18.790497 19.286595 0.980846 0.227303 0.027933 -0.019330 1902540.000000 1 0 0
-12.843209 2.239598 13.717897 18.924707 -0.172644 0.759955 0.008064 -0.000664 -1209520.000000 1 0 0
-5.380109 -0.633502 15.761997 16.666957 0.117209 0.331045 0.013156 -0.003562 1432250.000000 1 0 0
-4.402209 -6.005302 11.652497 13.828369 0.938229 0.568607 0.009054 -0.007793 953335.000000 1 0 0
2.403091 1.724398 14.029697 14.338089 0.622424 0.207779 0.002977 -0.004673 -404062.000000 1 0 0
0.134991 3.231398 14.365897 14.725460 1.529046 0.221440 0.012101 -0.002815 197210.000000 1 0 0
-12.870209 7.173998 12.193897 19.125890 -0.508515 0.879470 0.005151 0.000843 863824.000000 1 0 0
0.805591 1.529998 18.278497 18.360102 1.086150 0.094318 0.015308 -0.004774 1834470.000000 1 0 0
-1.941609 6.425898 12.487097 14.177080 -1.277365 0.493258 0.003030 0.002209 1961960.000000 1 0 0
-13.569709 -2.608602 10.893797 17.595926 0.189920 0.903189 0.014399 -0.001646 -446190.000000 1 0 0
-2.526809 3.619598 13.481797 14.186089 -0.961353 0.316427 0.004591 0.001806 265537.000000 1 0 0
3.635791 6.081598 16.380697 17.847466 1.031970 0.408251 0.016705 -0.011183 764893.000000 1 0 0
-3.730109 12.428498 12.442597 17.977750 -1.279224 0.806387 0.009382 -0.000468 -61849.600000 1 0 0
3.775491 -1.424302 17.094197 17.564013 -0.360741 0.231814 0.008453 -0.008109 4211.520000 1 0 0
-15.822309 0.485798 9.015097 18.216845 -0.030694 1.053103 0.005879 -0.002549 147724.000000 1 0 0
-4.705109 4.589698 15.165697 16.528816 -0.772982 0.408970 0.005043 0.002461 -731237.000000 1 0 0
-7.970509 -8.128702 10.486097 15.477824 0.795224 0.826449 0.011163 -0.013556 2679860.000000 1 0 0
-2.627909 -0.479802 14.781897 15.021338 0.180590 0.178788 0.012332 -0.002758 1805290.000000 1 0 0
-1.941209 1.023598 17.217397 17.356694 -0.485248 0.126778 0.015414 -0.006882 2667200.000000 1 0 0
-0.625009 -2.503702 14.485197 14.713263 1.326162 0.176300 0.010088 -0.003495 1015450.000000 1 0 0
5.069491 -8.269802 16.523297 19.160081 -1.020864 0.530841 -0.008519 0.000209 -125923.000000 1 0 0
-4.466709 10.043398 10.706197 15.344184 -1.152325 0.798563 0.000610 0.000572 -495937.000000 1 0 0
-6.128809 2.051098 15.223697 16.538750 -0.322949 0.401473 0.004429 0.001266 -857603.000000 1 0 0
-5.067009 6.853098 17.168997 19.168046 -0.934130 0.460772 0.013643 0.003786 493872.000000 1 0 0
-4.174709 9.218998 15.724697 18.699846 -1.145585 0.571853 0.009546 -0.000868 225849.000000 1 0 0
-4.591809 -9.933602 18.125297 21.172802 1.137802 0.543188 0.018828 -0.019124 -84655.400000 1 0 0
-6.781709 -4.143202 11.077197 13.633121 0.548423 0.622332 0.010156 -0.002206 718020.000000 1 0 0
-2.389509 -0.777202 19.491597 19.652892 0.314463 0.128206 0.022603 -0.012334 -730285.000000 1 0 0
-5.707409 -4.558402 15.202497 16.866223 0.673936 0.447902 0.018015 -0.013396 1557740.000000 1 0 0
-13.026209 0.067198 9.652697 16.212995 -0.005159 0.933073 0.002483 0.001441 658778.000000 1 0 0
-14.423809 8.751598 10.331797 19.783396 -0.545366 1.021314 0.009126 0.000647 -1154630.000000 1 0 0
-8.344009 10.647998 12.786397 18.614357 -0.906122 0.813567 0.004646 -0.010530 -1228130.000000 1 0 0
-10.368009 7.287598 10.745397 16.615302 -0.612665 0.867524 0.005683 0.000489 -664581.000000 1 0 0
-9.837409 -6.598902 14.745397 18.914197 0.590856 0.676779 0.019955 -0.011576 -655730.000000 1 0 0
-0.871209 -13.473802 14.478397 19.797129 1.506227 0.750514 0.004884 -0.008411 -63016.200000 1 0 0
3.971491 -5.633202 16.998697 18.342884 -0.956713 0.385212 0.000018 -0.005555 3136550.000000 1 0 0
-7.234809 9.380898 10.387797 15.755953 -0.913847 0.850918 0.001055 -0.003456 149956.000000 1 0 0
-10.387309 -6.653502 11.791397 17.064651 0.569697 0.807947 0.016488 -0.013684 3112700.000000 1 0 0
-10.970809 -3.900502 10.676097 15.797203 0.341597 0.828717 0.008992 0.000153 707799.000000 1 0 0
-10.105609 -10.173202 9.741597 17.335400 0.788731 0.974057 0.012995 -0.017694 1934240.000000 1 0 0
-9.837409 -3.720202 15.214697 18.495987 0.361546 0.604837 0.018994 -0.008535 2392690.000000 1 0 0
5.729191 -3.209802 16.101297 17.389026 -0.510682 0.387264 0.001047 -0.003793 119921.000000 1 0 0
-11.270809 0.370098 15.240097 18.958604 -0.032825 0.637037 0.013309 -0.000143 -1978310.000000 1 0 0
-3.282809 3.261798 18.713897 19.277606 -0.782188 0.242426 0.022478 -0.001710 -272535.000000 1 0 0
0.541391 7.335198 13.987397 15.803339 1.497123 0.484106 0.012043 -0.006937 871694.000000 1 0 0
-13.153709 -7.521402 12.155697 19.425564 0.519432 0.894694 0.018346 -0.009647 -863003.000000 1 0 0
-1.508709 -1.199002 12.167697 12.319361 0.671513 0.157076 0.006515 -0.002132 758891.000000 1 0 0
2.016091 -4.938102 13.206097 14.242559 -1.183179 0.383855 -0.003059 -0.003994 1069850.000000 1 0 0
-14.600109 -4.113802 8.536897 17.405894 0.274645 1.058179 0.007899 -0.006619 -988392.000000 1 0 0
8.006491 1.094598 16.261397 18.158609 0.135872 0.461198 0.012665 -0.011897 479529.000000 1 0 0
-1.224709 11.435198 13.378797 17.642445 -1.464103 0.710049 0.004754 -0.000368 2306430.000000 1 0 0
2.860191 -12.366102 -13.800003 18.749433 -1.343500 2.397972 0.003280 0.008822 -764142.000000 1 0 0
0.716091 -10.784402 -14.007703 17.692706 -1.504493 2.484419 -0.004851 0.006361 -1557410.000000 1 0 0
3.242191 -14.374802 -12.410503 19.265703 -1.348961 2.270742 -0.004344 0.008964 -1577270.000000 1 0 0
-5.271109 -10.327902 -16.119903 19.857024 1.098883 2.518022 0.007332 -0.007656 -146371.000000 1 0 0
-1.114009 -12.344802 -14.964303 19.431045 1.480799 2.449831 0.000940 0.003664 -313153.000000 1 0 0
5.740691 -15.007602 -12.021203 20.067211 -1.205450 2.213107 0.000360 0.013143 45267.400000 1 0 0
1.930891 -11.871902 -16.142203 20.130601 -1.409564 2.501221 0.008707 0.004758 -532064.000000 1 0 0
1.300791 -14.458202 -14.080503 20.223556 -1.481069 2.340946 0.010261 0.014980 -205260.000000 1 0 0
-1.159509 -10.817402 -15.982603 19.334018 1.464015 2.543937 -0.005522 0.004232 -420936.000000 1 0 0
-5.971209 -5.789102 -15.110203 17.247819 0.769915 2.638435 0.016840 0.001618 74215.300000 1 0 0
-6.272709 -7.753702 -16.763103 19.505599 0.890594 2.604890 0.014017 0.007055 331357.000000 1 0 0
4.811991 -12.594702 -11.595103 17.782806 -1.205846 2.281068 -0.007934 0.009638 -1246710.000000 1 0 0
-1.891309 -15.437902 -13.063903 20.311854 1.448893 2.269423 0.015059 0.000834 87068.600000 1 0 0
15.447691 -7.457202 -9.023603 19.382116 -0.449744 2.055067 0.001598 0.009546 -131423.000000 1 0 0
19.146991 -3.353702 -4.215203 19.890262 -0.173397 1.784339 0.017254 -0.010637 471572.000000 1 0 0
14.993091 -11.599502 -8.681803 20.849818 -0.658470 2.000275 0.039719 -0.011835 -47674.700000 1 0 0
17.905691 -3.413002 -6.548703 19.368734 -0.188351 1.915701 0.043222 0.000439 590175.000000 1 0 0
9.508991 -9.311702 -15.455803 20.396337 -0.774916 2.430690 0.028486 -0.003942 164780.000000 1 0 0
1.313391 1.853398 -15.122803 15.292457 0.954296 2.992498 0.006603 -0.002703 154673.000000 1 0 0
4.831091 -4.300602 -13.965603 15.390669 -0.727370 2.707869 -0.003937 0.001722 1547630.000000 1 0 0
13.004291 -5.450202 -8.738003 16.588218 -0.396869 2.125580 0.019139 0.001268 -1631910.000000 1 0 0
2.907491 0.903798 -12.104403 12.481463 0.301382 2.895166 0.003932 -0.004009 -3394650.000000 1 0 0
0.534391 6.408098 -12.946403 14.455402 1.487596 2.680597 0.004809 -0.002381 -42745.700000 1 0 0
3.061691 -1.078502 -16.729603 17.041618 -0.338684 2.949941 0.003270 0.000198 -198541.000000 1 0 0
13.129191 4.388798 -11.450003 17.964960 0.322600 2.261853 0.009675 -0.006737 227184.000000 1 0 0
-3.951909 9.392798 -16.447903 19.348792 -1.172541 2.586922 0.001317 0.002798 41917.000000 1 0 0
-0.172209 -5.222402 -17.689803 18.445386 1.537833 2.854378 0.000495 -0.001751 501124.000000 1 0 0
-0.600709 -8.667902 -17.509203 19.546497 1.501604 2.680961 -0.003340 -0.000122 -3700520.000000 1 0 0
5.455391 -10.207102 -12.234903 16.841587 -1.079954 2.383967 -0.002470 0.002226 376287.000000 1 0 0
1.456191 -10.022302 -18.044703 20.692470 -1.426511 2.630155 0.006071 0.001317 -669748.000000 1 0 0
10.967991 8.778898 -14.700603 20.334050 0.674991 2.378866 0.046918 -0.020476 614170.000000 1 0 0
10.915091 -3.872002 -12.993003 17.405451 -0.340890 2.413568 0.012547 -0.003247 60837.900000 1 0 0
4.881791 7.391098 -12.128503 15.018682 0.987078 2.510801 -0.003642 -0.003753 -702903.000000 1 0 0
9.618691 -5.995302 -12.587403 16.938287 -0.557374 2.408537 0.007740 -0.002239 -1488160.000000 1 0 0
-3.252509 0.315198 -15.895303 16.227718 -0.096608 2.938838 0.008927 0.001006 -2269720.000000 1 0 0
-0.745609 10.781598 -12.837303 16.780797 -1.501751 2.441837 -0.002809 0.005587 -877972.000000 1 0 0
6.726691 -5.494702 -12.526603 15.243225 -0.684932 2.535327 -0.005928 0.001711 80796.100000 1 0 0
17.525791 -6.426102 -7.992003 20.305670 -0.351444 1.975324 0.000301 -0.004549 -911119.000000 1 0 0
13.004091 4.905098 -13.904503 19.659643 0.360695 2.356413 0.019170 -0.014897 422079.000000 1 0 0
14.125891 0.831098 -11.627903 18.315012 0.058767 2.258654 0.022128 -0.006545 -20654.900000 1 0 0
15.040091 6.125398 -11.069103 19.653241 0.386759 2.169074 0.021907 -0.016460 415050.000000 1 0 0
8.271791 1.563198 -11.698903 14.412857 0.186777 2.517852 -0.003652 -0.001360 849859.000000 1 0 0
9.921291 1.234698 -8.958003 13.423945 0.123813 2.301394 -0.003016 0.000233 52457.700000 1 0 0
-0.108409 -5.841002 -13.052103 14.299876 1.552238 2.720744 -0.002782 0.001483 204049.000000 1 0 0
10.481891 -5.738102 -9.092203 15.015459 -0.500868 2.221219 0.005467 -0.002519 -2219110.000000 1 0 0
10.173791 8.519998 -11.264403 17.406412 0.697160 2.274625 0.023555 -0.014271 460475.000000 1 0 0
8.352491 8.245698 -14.659003 18.778765 0.778964 2.466447 0.020831 -0.005794 818871.000000 1 0 0
8.655491 10.607198 -10.701503 17.376776 0.886374 2.234262 0.030905 -0.009742 -1694610.000000 1 0 0
7.071191 1.725998 -17.968903 19.387168 0.239407 2.756717 0.007961 0.000088 -773318.000000 1 0 0
12.053591 2.659898 -12.909303 17.860969 0.217192 2.378593 0.010875 -0.008638 -1759640.000000 1 0 0
2.787991 -0.697302 -19.168303 19.382543 -0.245081 2.992773 0.005427 -0.007992 -326219.000000 1 0 0
10.256191 -2.254902 -15.594603 18.800683 -0.216415 2.548954 0.017922 -0.003711 848373.000000 1 0 0
8.296091 -0.748502 -13.102803 15.526391 -0.089980 2.575318 -0.000792 -0.004935 851687.000000 1 0 0
0.510491 4.322898 -14.564803 15.201366 1.453251 2.851176 0.003034 -0.000024 388354.000000 1 0 0
3.949491 -7.669202 -15.715403 17.927326 -1.095236 2.639583 -0.000783 -0.000911 -918161.000000 1 0 0
11.287791 -5.885702 -14.634903 19.396806 -0.480638 2.425689 0.023658 0.002908 -258061.000000 1 0 0
-5.850109 4.325798 -16.800003 18.307823 -0.636708 2.732899 0.001170 0.000022 643081.000000 1 0 0
11.324491 7.677198 -9.008203 16.380818 0.595759 2.153069 0.020382 -0.007088 -1277690.000000 1 0 0
9.482391 6.184798 -13.550503 17.657395 0.577949 2.445592 0.012281 -0.004429 -1503530.000000 1 0 0
12.038791 0.708698 -10.213503 15.803493 0.058800 2.273498 0.007700 -0.002905 -1230420.000000 1 0 0
5.585291 -7.339402 -13.840903 16.632285 -0.920292 2.553807 -0.002815 0.002307 -223636.000000 1 0 0
8.568691 -10.364102 -10.604103 17.125539 -0.879946 2.238518 0.006965 0.003350 -113723.000000 1 0 0
10.171291 4.434098 -15.847903 19.346121 0.411102 2.530771 0.028402 -0.014312 -986849.000000 1 0 0
9.909891 -0.444802 -10.995003 14.808574 -0.044855 2.407555 -0.002193 -0.002501 -297768.000000 1 0 0
-1.757109 5.379098 -13.901503 15.009128 -1.255068 2.755011 0.001763 -0.002198 -181151.000000 1 0 0
1.304991 -0.672502 -14.801703 14.874329 -0.475837 3.042733 0.001508 -0.001406 -1573460.000000 1 0 0
11.375391 -10.574902 -14.195303 21.041262 -0.748946 2.311275 0.038300 -0.004480 -63233.800000 1 0 0
9.286591 -7.837302 -10.815503 16.267734 -0.700964 2.298081 0.008155 -0.000341 -33156.200000 1 0 0
13.852791 -0.973502 -9.855703 17.028870 -0.070159 2.188009 0.004399 0.001441 494032.000000 1 0 0
3.933891 11.305698 -12.244403 17.123659 1.235943 2.367503 0.011598 -0.004729 -552808.000000 1 0 0
-1.203209 2.795598 -16.973803 17.244508 -1.164366 2.964171 0.004860 -0.001163 452447.000000 1 0 0
5.879891 -0.409602 -17.688303 18.644488 -0.069549 2.819942 -0.003941 0.002895 216993.000000 1 0 0
6.337091 -6.524902 -16.177803 18.559482 -0.799999 2.629402 0.004674 0.001867 169027.000000 1 0 0
-1.595309 -5.379802 -19.985503 20.758314 1.282520 2.867869 -0.001481 -0.002041 143369.000000 1 0 0
0.061991 -4.400502 -15.259603 15.881553 -1.556710 2.860808 -0.000411 0.000004 -136310.000000 1 0 0
0.435991 0.886398 -12.899803 12.937569 1.113675 3.065165 0.005146 -0.005849 839541.000000 1 0 0
15.570091 0.594898 -13.724703 20.764130 0.038189 2.292922 0.035715 -0.012472 718139.000000 1 0 0
-0.130109 7.072198 -16.288503 17.758047 -1.552401 2.731908 0.005182 0.000880 -278520.000000 1 0 0
-4.857509 -0.541902 -18.265103 18.907751 0.111100 2.880124 0.003827 0.003153 -72107.200000 1 0 0
10.355391 -8.492202 -13.127803 18.753422 -0.686863 2.346224 0.015435 -0.006266 860209.000000 1 0 0
4.340191 8.541098 -17.224103 19.709321 1.100647 2.633978 0.018174 -0.014080 -132094.000000 1 0 0
9.335891 0.804898 -16.846403 19.277137 0.086003 2.633977 0.017326 -0.007035 214359.000000 1 0 0
3.453391 4.925898 -18.419603 19.377104 0.959354 2.825914 0.013810 -0.002436 -463483.000000 1 0 0
1.421691 -8.412902 -15.932503 18.073261 -1.403389 2.649934 -0.006682 -0.000366 -247112.000000 1 0 0
4.572691 7.781298 -14.727703 17.273197 1.039506 2.591801 0.006312 -0.007544 323457.000000 1 0 0
-5.656709 -0.374402 -15.250903 16.270482 0.066091 2.785700 0.007437 -0.001080 -587330.000000 1 0 0
2.803891 3.360098 -13.688203 14.370768 0.875389 2.832149 0.003720 -0.002905 -1033300.000000 1 0 0
-2.475709 -10.357402 -18.137203 21.032428 1.336171 2.610679 -0.000877 0.001011 -35662.500000 1 0 0
6.193391 -9.049102 -15.575003 19.047967 -0.970603 2.528153 -0.000202 -0.002218 -93655.200000 1 0 0
-1.674809 5.363998 -17.173603 18.069590 -1.268156 2.825363 0.005691 -0.003281 -294470.000000 1 0 0
9.883491 -12.335702 -11.625303 19.621432 -0.895318 2.204930 0.020501 0.005069 218114.000000 1 0 0
10.866191 3.605898 -9.463303 14.853643 0.320411 2.261530 0.000279 -0.000345 -357209.000000 1 0 0
4.843891 -0.417502 -10.899503 11.934687 -0.085979 2.722019 -0.000443 -0.004497 255622.000000 1 0 0
6.258191 9.519598 -11.337503 16.072544 0.989236 2.353778 0.007233 -0.008416 704670.000000 1 0 0
10.774391 -9.530002 -9.469003 17.221221 -0.724188 2.152975 0.023205 -0.000952 -1492750.000000 1 0 0
3.136291 -2.410902 -14.537503 15.066113 -0.655369 2.875912 -0.000731 -0.001350 -222015.000000 1 0 0
9.097591 -4.518702 -14.678903 17.850911 -0.460998 2.536247 0.007157 -0.003759 -766872.000000 1 0 0
-3.958709 -6.570202 -16.553603 18.244470 1.028523 2.707666 -0.005634 -0.000833 -1761570.000000 1 0 0
5.878391 -7.689602 -11.275703 14.860247 -0.918105 2.432239 -0.005159 0.001406 284688.000000 1 0 0
5.443291 6.343198 -16.821003 18.783283 0.861601 2.680418 0.011458 -0.014647 -2226690.000000 1 0 0
9.253191 1.309198 -19.405403 21.538459 0.140553 2.692785 0.038184 -0.013897 542691.000000 1 0 0
13.129691 5.799298 -9.365803 17.138813 0.415925 2.148937 0.007020 -0.006206 287.338000 1 0 0
-1.562809 -0.908302 -17.298703 17.392887 0.526480 3.037478 0.006664 -0.001048 578486.000000 1 0 0
-0.379509 -0.674002 -19.575903 19.591179 1.057975 3.102100 0.008721 -0.004336 -267053.000000 1 0 0
2.891391 6.472698 -16.451203 17.913627 1.150685 2.734719 0.007037 -0.002460 743722.000000 1 0 0
7.512991 3.784998 -15.735903 17.843483 0.466678 2.650642 0.003765 -0.003327 524803.000000 1 0 0
3.110591 -9.972002 -14.752603 18.076390 -1.268429 2.525470 0.003476 -0.001712 502917.000000 1 0 0
8.861691 -10.560302 -13.274703 19.138111 -0.872634 2.337308 0.013516 -0.004327 14446.900000 1 0 0
3.774691 0.110798 -14.793603 15.267981 0.029344 2.891663 0.000499 -0.000968 -612529.000000 1 0 0
-1.103409 -3.017402 -18.821603 19.093846 1.220220 2.972524 0.004481 0.001817 310764.000000 1 0 0
9.329391 10.145098 -13.175803 19.067311 0.827260 2.333689 0.036964 -0.014464 287180.000000 1 0 0
4.618691 2.055998 -10.550603 11.699344 0.418811 2.694740 -0.000812 -0.000280 43027.100000 1 0 0
-0.617609 6.964298 -18.834103 20.089956 -1.482346 2.786138 0.011706 -0.001057 364670.000000 1 0 0
0.892991 -1.905002 -17.638603 17.763636 -1.132451 3.022874 0.008312 -0.003994 -2503500.000000 1 0 0
-4.446109 -2.188902 -14.039203 14.888196 0.457484 2.802255 0.009065 -0.005116 -3369660.000000 1 0 0
10.018291 6.027498 -10.436803 15.672388 0.541631 2.299544 0.011332 0.001261 233717.000000 1 0 0
8.452691 5.757098 -17.186003 19.998771 0.597926 2.604799 0.033773 -0.018848 -359981.000000 1 0 0
11.518191 0.234598 -13.690603 17.892914 0.020365 2.442057 0.007502 0.000730 724845.000000 1 0 0
6.805991 12.075298 -11.713903 18.147999 1.057549 2.272429 0.027687 -0.016950 -294865.000000 1 0 0
-0.908409 0.565498 -15.258203 15.295677 -0.556810 3.071578 0.004879 -0.003195 -1400690.000000 1 0 0
-4.261909 -2.950702 -19.001003 19.695396 0.605568 2.875263 0.005434 0.006846 -255113.000000 1 0 0
5.719091 -11.986702 -13.945903 19.258173 -1.125620 2.380605 0.008392 0.003516 -236405.000000 1 0 0
2.220391 -4.813802 -14.068503 15.034148 -1.138622 2.781233 -0.001889 0.001546 -695717.000000 1 0 0
11.880591 1.962098 -15.503403 19.630430 0.163674 2.481220 0.034317 -0.009152 154379.000000 1 0 0
9.682991 2.208598 -13.905603 17.088125 0.224254 2.521386 0.004831 -0.006570 2085150.000000 1 0 0
-2.191509 -4.198702 -16.447803 17.116134 1.089744 2.861223 -0.005840 -0.001651 -1146430.000000 1 0 0
-2.966009 10.041298 -14.180003 17.626609 -1.283582 2.505572 0.001125 -0.003520 -148465.000000 1 0 0
3.484291 5.806598 -13.568103 15.164112 1.030335 2.678669 0.002977 -0.001392 -164065.000000 1 0 0
-5.034709 -2.576302 -16.566603 17.505369 0.472970 2.812614 0.010777 0.000568 358926.000000 1 0 0
-4.251009 6.168198 -13.513003 15.450534 -0.967368 2.635402 -0.005156 0.000159 379882.000000 1 0 0
5.805391 -1.124002 -13.959803 15.160542 -0.191247 2.740919 0.001039 -0.003344 -2126370.000000 1 0 0
6.827991 -2.995102 -12.715403 14.740202 -0.413376 2.611251 -0.002974 -0.002888 1023540.000000 1 0 0
3.097691 -3.116402 -18.318903 18.838520 -0.788409 2.906176 0.002072 -0.003747 -207333.000000 1 0 0
7.334891 -12.094702 -11.993803 18.545451 -1.025644 2.274079 0.007395 0.004192 -1484900.000000 1 0 0
-6.050509 -5.384302 -17.677503 19.444626 0.727203 2.711963 0.031449 -0.001373 368757.000000 1 0 0
0.523891 8.767898 -11.885903 14.779215 1.511116 2.505177 0.005567 0.000106 112245.000000 1 0 0
0.525691 8.673898 -14.450403 16.861999 1.510264 2.600178 0.004453 0.003529 303600.000000 1 0 0
7.665391 -2.341502 -15.095503 17.091374 -0.296462 2.653488 -0.000370 -0.007239 151652.000000 1 0 0
14.364691 1.473998 -9.058203 17.046057 0.102255 2.131044 0.011576 0.001682 322154.000000 1 0 0
2.881091 10.853098 -14.606503 18.423907 1.311318 2.486188 0.014063 -0.000061 -228595.000000 1 0 0
6.161891 0.964998 -15.493803 16.702037 0.155346 2.758892 0.003877 0.000759 448735.000000 1 0 0
16.826491 -5.529602 -10.267503 20.472638 -0.317507 2.096155 0.050288 -0.006090 914185.000000 1 0 0
4.923891 -4.256902 -11.337803 13.073320 -0.712875 2.620443 -0.005703 0.002569 -539281.000000 1 0 0
8.672691 -3.706402 -17.067603 19.500155 -0.403872 2.636759 0.003886 -0.003750 47451.000000 1 0 0
13.292291 -9.697602 -8.954903 18.732826 -0.630294 2.069210 0.034905 -0.001103 20672.800000 1 0 0
2.371191 -7.871602 -13.589903 15.883014 -1.278208 2.597553 -0.007016 0.001805 37317.200000 1 0 0
-6.824809 -2.345202 -18.542103 19.896924 0.330988 2.770435 0.015322 0.006464 1627360.000000 1 0 0
-1.469009 -6.589502 -15.787803 17.170738 1.351451 2.737501 -0.004140 0.001244 669669.000000 1 0 0
1.583891 -7.466602 -18.410303 19.929830 -1.361765 2.748571 -0.001497 -0.000579 63640.700000 1 0 0
5.448491 10.895598 -14.387403 18.851989 1.107098 2.439012 0.018365 -0.022164 50381.700000 1 0 0
5.531191 -3.370602 -17.336503 18.507008 -0.547289 2.784032 0.011782 -0.000892 -416575.000000 1 0 0
4.171991 13.131798 -14.203403 19.788539 1.263180 2.371375 0.016010 -0.006063 75055.300000 1 0 0
9.273191 10.364298 -15.855503 21.090465 0.840904 2.421562 0.040991 -0.019339 239151.000000 1 0 0
2.557691 3.924598 -16.178803 16.843334 0.993221 2.859756 0.002346 -0.003922 338692.000000 1 0 0
16.586791 1.786698 -11.697203 20.374947 0.107304 2.182298 0.026639 -0.003608 257419.000000 1 0 0
9.970691 -3.676702 -10.593503 15.005170 -0.353281 2.354617 0.005820 -0.001354 49238.600000 1 0 0
14.698291 -2.170702 -12.036103 19.121179 -0.146624 2.251660 0.036341 -0.002982 617016.000000 1 0 0
-2.734609 -8.811402 -16.098803 18.555062 1.269872 2.621198 -0.003652 0.009061 -833196.000000 1 0 0
13.917591 8.244898 -8.961903 18.493063 0.534819 2.076712 0.022939 -0.005819 146172.000000 1 0 0
-8.224809 0.014098 -16.629103 18.551947 -0.001714 2.682271 0.000891 0.003498 -621783.000000 1 0 0
-3.403809 3.904198 -15.755803 16.585355 -0.853763 2.823977 -0.000631 -0.002187 625850.000000 1 0 0
15.016091 3.969598 -9.668303 18.295267 0.258444 2.127581 0.014307 -0.006220 830136.000000 1 0 0
5.322691 1.138798 -12.941803 14.039878 0.210774 2.743466 0.000703 -0.003565 382573.000000 1 0 0
7.844891 -7.836802 -12.806703 16.940172 -0.784882 2.427971 0.005683 0.001562 -4967400.000000 1 0 0
3.282391 -6.084302 -11.896003 13.758914 -1.076062 2.615157 -0.004166 0.000801 -731844.000000 1 0 0
-3.155909 3.701598 -18.458103 19.088299 -0.864806 2.883918 0.001187 0.002186 192549.000000 1 0 0
0.913691 5.185798 -17.710603 18.476818 1.396395 2.852599 0.007302 -0.004694 -1479720.000000 1 0 0
6.416391 7.178098 -10.181703 14.012931 0.841370 2.384147 -0.001847 0.001227 55430.900000 1 0 0
9.608591 3.841798 -11.777203 15.677594 0.380359 2.420693 0.005297 -0.001414 448577.000000 1 0 0
4.556391 1.819498 -17.481303 18.156740 0.379928 2.867975 0.007031 -0.002248 178784.000000 1 0 0
2.600091 8.045898 -13.013703 15.519453 1.258232 2.565397 0.006096 -0.005271 -1969400.000000 1 0 0
14.368191 -3.504502 -9.865403 17.777869 -0.239236 2.159070 0.020846 0.002079 685631.000000 1 0 0
-1.332009 9.356498 -16.180303 18.738210 -1.429385 2.612950 0.003577 0.004421 -2086050.000000 1 0 0
-5.182609 2.083198 -15.804403 16.762407 -0.382194 2.801873 0.007661 -0.001908 841289.000000 1 0 0
4.579891 4.249498 -11.942303 13.477842 0.747996 2.659592 -0.002200 -0.000006 381055.000000 1 0 0
9.123791 3.296898 -17.785903 20.259601 0.346752 2.642255 0.019764 -0.003691 955333.000000 1 0 0
-4.392109 14.421998 -13.262603 20.079375 -1.275177 2.292292 -0.005659 -0.001433 -320930.000000 1 0 0
15.379091 -4.960602 -8.071603 18.063078 -0.312019 2.034045 0.014392 0.001068 -563041.000000 1 0 0
1.177091 9.231598 -16.931803 19.320815 1.443974 2.639028 0.002064 0.006783 415653.000000 1 0 0
0.476091 -3.266902 -12.892703 13.308685 -1.426083 2.890911 0.001283 -0.002131 355913.000000 1 0 0
7.427791 3.473498 -13.155903 15.502098 0.437422 2.584230 0.000008 -0.002364 387547.000000 1 0 0
-2.858109 7.547498 -15.026703 17.056826 -1.208801 2.648723 -0.002127 0.003930 110326.000000 1 0 0
12.097891 -5.079802 -11.091103 17.180684 -0.397536 2.272548 0.022937 -0.000074 -1349760.000000 1 0 0
0.835791 -4.467802 -19.994503 20.504632 -1.385864 2.918064 0.006228 -0.002313 -582389.000000 1 0 0
3.445491 -4.510602 -16.186103 17.152459 -0.918480 2.804320 -0.001109 -0.002855 409989.000000 1 0 0
-5.743109 4.180598 -14.258303 15.929843 -0.629228 2.679381 -0.001334 -0.002646 1384020.000000 1 0 0
12.232991 -7.448702 -9.868003 17.392720 -0.546940 2.174098 0.017336 0.000457 203800.000000 1 0 0
-2.030909 -1.841502 -15.001303 15.249748 0.736525 2.960838 0.005400 -0.001792 242162.000000 1 0 0
7.103191 5.902698 -14.296103 17.019863 0.693355 2.568017 0.007534 -0.004146 -893977.000000 1 0 0
4.207091 -5.403802 -18.439203 19.669898 -0.909277 2.785978 0.008015 -0.006219 284845.000000 1 0 0
7.591791 7.492098 -12.371403 16.334578 0.778789 2.430080 0.006773 -0.005806 571049.000000 1 0 0
12.208391 -2.465002 -11.142803 16.711765 -0.199232 2.300655 0.012256 -0.001229 -616585.000000 1 0 0
7.441491 -0.779202 -10.719403 13.072434 -0.104330 2.532208 -0.004201 -0.002633 -2217660.000000 1 0 0
5.262591 4.043298 -14.475403 15.924208 0.655117 2.711720 0.000401 -0.004147 1001820.000000 1 0 0
14.636291 2.944798 -13.057403 19.834027 0.198548 2.289399 0.020400 -0.015542 -256501.000000 1 0 0
-6.187609 6.772498 -15.885503 18.344003 -0.830498 2.617899 -0.005760 0.009590 542448.000000 1 0 0
-11.206609 3.792798 -16.581003 20.369169 -0.326342 2.521844 0.020873 -0.003114 610238.000000 1 0 0
-4.801509 6.357098 -18.012903 19.695986 -0.923913 2.725183 -0.000624 0.011721 -715098.000000 1 0 0
-9.976609 1.623398 -15.789803 18.747960 -0.161307 2.572174 0.008263 0.002410 -462426.000000 1 0 0
-7.399409 6.112398 -17.952503 20.356940 -0.690434 2.650644 -0.000500 0.008589 60114.900000 1 0 0
-8.658809 3.844298 -15.795403 18.418696 -0.417833 2.601332 -0.001739 0.010756 -1313230.000000 1 0 0
9.011491 13.457598 -11.871003 20.080703 0.980751 2.203298 0.049181 -0.024956 -1211770.000000 1 0 0
13.948691 9.161998 -11.381603 20.200225 0.581166 2.169339 0.032425 -0.013075 734840.000000 1 0 0
8.510091 15.999498 -9.143903 20.298191 1.081958 2.038098 0.040170 -0.012463 163754.000000 1 0 0
7.493691 13.262098 -13.933103 20.643885 1.056475 2.311661 0.032680 -0.020424 110117.000000 1 0 0
4.665591 15.941198 -12.522803 20.801686 1.286073 2.216811 0.043366 -0.019700 -227590.000000 1 0 0
11.070091 11.000698 -11.519203 19.397276 0.782254 2.206640 0.039593 -0.011571 193299.000000 1 0 0
15.785291 9.949698 -9.576603 20.973393 0.562412 2.044974 0.033432 -0.006061 1853600.000000 1 0 0
13.226891 10.728698 -9.274003 19.392337 0.681489 2.069435 0.046926 -0.011966 579844.000000 1 0 0
10.445391 11.784198 -8.276703 17.789810 0.845552 2.054713 0.021945 -0.000642 150215.000000 1 0 0
5.420391 16.252198 -10.157303 19.916962 1.248880 2.105961 0.026420 -0.015589 73443.800000 1 0 0
6.696791 14.628498 -11.769303 19.933802 1.141483 2.202375 0.032171 -0.004008 -398042.000000 1 0 0
10.944091 13.907698 -9.776103 20.218046 0.904089 2.075483 0.047851 -0.003449 -176500.000000 1 0 0
8.205891 -18.664002 -1.293303 20.429250 -1.156571 1.634145 0.032343 0.005912 -228267.000000 1 0 0
7.337191 -17.344702 -3.324203 19.123896 -1.170602 1.745508 0.026196 -0.001246 -396050.000000 1 0 0
4.466791 -18.409002 6.023897 19.877900 -1.332755 1.262910 0.024304 0.008106 291301.000000 1 0 0
9.851291 -17.183602 -2.617203 19.979336 -1.050244 1.702169 0.023306 0.005964 -315168.000000 1 0 0
-9.571209 -12.268702 -9.838303 18.409815 0.908288 2.134600 0.012702 -0.013119 -559858.000000 1 0 0
-4.951209 -6.949002 -12.033703 14.751715 0.951726 2.524820 -0.000103 -0.001117 591304.000000 1 0 0
-10.736009 -9.427702 -5.671003 15.372174 0.720605 1.948636 0.012106 -0.007423 -1781020.000000 1 0 0
-4.655909 -11.540602 -13.977303 18.714379 1.187330 2.414147 0.007175 -0.002971 -104968.000000 1 0 0
-2.926209 -15.447602 7.445097 17.395993 1.383586 1.128542 0.001895 -0.003419 202539.000000 1 0 0
-4.804009 -11.894802 -11.523503 17.244011 1.186954 2.302665 0.004466 -0.002713 155610.000000 1 0 0
-14.240809 -12.924602 -4.064903 19.656282 0.736984 1.779099 -0.002408 -0.008515 -716211.000000 1 0 0
-3.248109 -12.284302 -3.165403 13.094810 1.312301 1.814944 0.005583 -0.004043 933900.000000 1 0 0
-2.632509 -17.524502 -1.558203 17.789499 1.421692 1.658500 -0.002426 -0.006265 -1274530.000000 1 0 0
-5.815409 -12.231202 3.722697 14.045631 1.126975 1.302548 0.001792 -0.003414 156823.000000 1 0 0
-8.898909 -10.754202 -11.872203 18.324646 0.879521 2.275597 0.013291 -0.005278 637342.000000 1 0 0
-9.805509 -11.862102 -7.272403 17.021907 0.880030 2.012232 0.011209 -0.016021 151555.000000 1 0 0
-10.853209 -14.994202 6.349897 19.568838 0.944257 1.240324 0.003995 -0.013005 -1988640.000000 1 0 0
-9.453809 -15.521002 0.739697 18.188545 1.023714 1.530117 0.004177 -0.003999 -1580710.000000 1 0 0
-14.740409 -7.646302 -8.023903 18.442576 0.478520 2.020918 -0.002354 -0.010545 -194922.000000 1 0 0
-2.405809 -16.532402 5.174697 17.489589 1.426290 1.270427 0.006010 -0.003790 -162359.000000 1 0 0
4.268591 -15.855402 5.644597 17.363068 -1.307812 1.239687 0.016217 -0.004725 -32612.400000 1 0 0
4.176591 -14.545102 -10.020903 18.149997 -1.291172 2.155696 -0.008830 0.008139 -182386.000000 1 0 0
-7.587609 -13.989202 -0.229603 15.916102 1.073814 1.585223 0.004009 -0.003199 1324130.000000 1 0 0
2.954391 -14.948002 9.762197 18.096179 -1.375667 1.000999 0.006899 -0.005523 -334881.000000 1 0 0
2.271191 -17.375102 10.267897 20.309657 -1.440818 1.040757 0.029921 -0.005325 -183096.000000 1 0 0
-8.250809 -17.224602 -5.618903 19.908160 1.124079 1.856926 0.011729 -0.005293 -245794.000000 1 0 0
-6.520409 -9.004002 -7.650903 13.495336 0.944034 2.173570 0.014365 -0.005827 285665.000000 1 0 0
-6.229809 -13.039302 -4.854903 15.244802 1.125089 1.894904 0.002344 -0.007666 839499.000000 1 0 0
2.060791 -19.521202 -4.637903 20.170134 -1.465619 1.802811 0.005271 -0.010797 44733.000000 1 0 0
-5.397909 -12.774302 8.307097 16.165645 1.170994 1.031102 0.002107 -0.012515 1242530.000000 1 0 0
2.138791 -17.442402 3.450997 17.908690 -1.448785 1.376884 0.011173 -0.007969 -4238.490000 1 0 0
-17.478009 -10.171502 -2.549103 20.382300 0.527049 1.696189 0.007950 -0.004747 539200.000000 1 0 0
-3.548609 -15.491102 2.651097 16.111958 1.345608 1.405502 -0.000971 -0.003242 -116957.000000 1 0 0
-10.124509 -10.428902 -14.188903 20.312376 0.800207 2.344144 0.019711 -0.009980 -315790.000000 1 0 0
5.995291 -14.618202 -5.596103 16.761614 -1.181592 1.911196 -0.007942 0.001176 290150.000000 1 0 0
-7.199509 -12.308902 -10.701303 17.828625 1.041552 2.214587 0.006563 -0.009567 -695981.000000 1 0 0
-7.298209 -14.321202 3.895097 16.538817 1.099491 1.333051 0.001465 -0.004185 847452.000000 1 0 0
3.198091 -14.989102 -3.133903 15.643603 -1.360587 1.772492 0.003158 -0.005271 -92456.900000 1 0 0
-7.536909 -11.316302 7.805897 15.677873 0.983240 1.049629 0.002951 -0.014209 -3000290.000000 1 0 0
-12.904509 -12.513102 -1.094403 18.008381 0.770000 1.631606 0.002111 0.005616 794784.000000 1 0 0
-1.972309 -13.663702 3.975497 14.366326 1.427440 1.290414 -0.002680 -0.001551 -3593380.000000 1 0 0
-3.207809 -14.023602 5.186697 15.292262 1.345922 1.224760 -0.002095 -0.003653 91497.500000 1 0 0
-14.434309 -10.344202 -4.303503 18.272162 0.621807 1.808552 0.000593 -0.006927 513018.000000 1 0 0
-6.016109 -8.597102 -10.346303 14.736000 0.960216 2.349154 -0.000419 -0.003813 218616.000000 1 0 0
0.903791 -19.525002 2.479497 19.702549 -1.524540 1.444615 0.016265 -0.005788 110674.000000 1 0 0
6.358891 -14.208402 -8.254103 17.619432 -1.149986 2.058350 -0.002334 0.007413 -2924220.000000 1 0 0
-3.931109 -16.648202 -5.815403 18.067517 1.338916 1.898501 -0.004974 -0.011168 -186247.000000 1 0 0
-3.707409 -13.672602 -13.044503 19.257310 1.306007 2.314991 0.010533 -0.001233 -1245190.000000 1 0 0
-8.258909 -14.815502 -4.382803 17.519065 1.062251 1.823656 0.009551 -0.008473 -1861040.000000 1 0 0
-4.472309 -14.218802 10.115397 18.013804 1.266059 0.974556 0.003556 -0.011005 -898991.000000 1 0 0
-0.286209 -12.092602 -9.881403 15.619061 1.547133 2.255767 -0.001147 0.001574 709861.000000 1 0 0
2.382991 -17.096502 7.003297 18.628344 -1.432304 1.185376 0.012570 -0.011795 -1391080.000000 1 0 0
-3.108709 -19.039202 -3.633503 19.630528 1.408945 1.756964 -0.006718 -0.015427 -1306320.000000 1 0 0
0.621991 -15.399202 -3.121903 15.724776 -1.530427 1.770658 0.005247 -0.004807 -867729.000000 1 0 0
6.038491 -17.910602 0.506797 18.907932 -1.245618 1.543990 0.020661 -0.002777 -299385.000000 1 0 0
-7.177309 -16.732702 3.857097 18.611133 1.165594 1.362037 0.000849 -0.000544 507126.000000 1 0 0
-5.167809 -13.470702 -9.444503 17.244265 1.204478 2.150397 0.002044 -0.004536 -33320.800000 1 0 0
5.615591 -15.245402 -2.152103 16.388676 -1.217872 1.702493 0.006475 0.002217 -939727.000000 1 0 0
-8.970709 -10.228502 -0.517803 13.614844 0.850817 1.608838 0.003179 -0.001638 1395500.000000 1 0 0
-7.351409 -18.062402 -3.062803 19.740171 1.184270 1.726582 0.004419 -0.019638 -64527.100000 1 0 0
7.882591 -16.013702 -1.209503 17.889572 -1.113376 1.638457 0.012329 0.004415 127330.000000 1 0 0
-8.030809 -10.125502 -9.526303 16.055221 0.900260 2.206006 0.010207 -0.008302 2004390.000000 1 0 0
-8.972109 -15.205102 -7.010003 18.995631 1.037709 1.948764 0.008519 -0.008323 -532750.000000 1 0 0
-11.440809 -10.498702 -11.959903 19.599850 0.742483 2.227114 0.021662 -0.001775 -1006100.000000 1 0 0
6.483691 -16.353102 2.500897 17.768418 -1.193327 1.429578 0.018521 -0.000110 609233.000000 1 0 0
-2.150609 -11.274702 -5.986603 12.945402 1.382314 2.051553 0.005715 -0.001671 -251127.000000 1 0 0
-12.329909 -15.339402 -3.389403 19.970277 0.893739 1.741344 -0.001882 -0.008987 -131915.000000 1 0 0
-0.562909 -19.682002 -2.976803 19.913800 1.542204 1.720843 0.009067 -0.011847 269609.000000 1 0 0
-5.935909 -15.567502 -4.757603 17.326769 1.206513 1.848950 -0.002594 -0.007137 -3702610.000000 1 0 0
1.842891 -15.879602 -1.003203 16.017628 -1.455259 1.633469 0.009246 -0.006434 778798.000000 1 0 0
-13.181009 -12.022702 5.254297 18.598172 0.739473 1.284379 0.008814 -0.007914 152948.000000 1 0 0
2.058491 -15.355402 -8.857603 17.846089 -1.437534 2.090166 -0.003734 0.012116 -1462300.000000 1 0 0
-11.817409 -16.701002 0.104297 20.459362 0.954997 1.565699 0.007677 -0.011263 707031.000000 1 0 0
-7.715009 -16.515302 -1.048003 18.258556 1.133778 1.628226 0.005999 -0.007208 611884.000000 1 0 0
-3.004609 -14.385602 -1.718103 14.796118 1.364894 1.687177 0.002145 -0.005038 364809.000000 1 0 0
-1.804409 -10.441102 -13.253103 16.968124 1.399669 2.467156 -0.003498 0.003373 26311.300000 1 0 0
1.509991 -19.402002 5.029197 20.100014 -1.493126 1.317901 0.021307 -0.007589 -135281.000000 1 0 0
-17.497409 -9.481402 2.375497 20.042437 0.496584 1.451994 0.013572 -0.000868 617482.000000 1 0 0
-2.640209 -15.798902 -7.969403 17.890986 1.405213 2.032465 -0.006315 0.001319 -1811100.000000 1 0 0
-10.613909 -12.127002 0.140597 16.116420 0.851836 1.562072 0.002994 -0.000750 629889.000000 1 0 0
-7.000909 -11.384002 -6.580403 14.896641 1.019436 2.028331 0.006534 -0.008720 210012.000000 1 0 0
-2.328409 -13.711702 -6.670103 15.424738 1.402589 2.017981 -0.005394 0.000973 432257.000000 1 0 0
-14.301509 -14.628502 -1.008903 20.482776 0.796701 1.620072 0.008406 0.002110 120055.000000 1 0 0
-9.579609 -11.191102 -4.369503 15.365618 0.862828 1.859144 0.015622 -0.009878 888303.000000 1 0 0
9.440691 -15.148502 -5.122803 18.570053 -1.013486 1.850284 0.014022 0.004552 250748.000000 1 0 0
-5.458009 -10.802002 -9.389503 15.317828 1.102936 2.230621 0.002915 -0.004822 -84312.800000 1 0 0
-10.425909 -16.041302 -4.965503 19.765605 0.994462 1.824736 0.014471 -0.007950 -1556450.000000 1 0 0
2.218691 -17.446202 -3.085203 17.855280 -1.444302 1.744457 0.013888 -0.006089 294150.000000 1 0 0
-0.352309 -14.516902 -8.148403 16.651157 1.546532 2.082152 -0.002338 0.004923 -565328.000000 1 0 0
-0.404309 -18.317702 -7.174703 19.676840 1.548728 1.944028 0.002664 -0.002585 133952.000000 1 0 0
-1.818209 -9.987002 -10.529203 14.625669 1.390711 2.374473 0.001090 -0.000134 251454.000000 1 0 0
-5.114609 -17.295202 2.126097 18.160493 1.283267 1.453455 0.004798 -0.003460 -1317850.000000 1 0 0
0.193491 -12.845502 -2.591803 13.105793 -1.555735 1.769869 0.004870 -0.002651 -994088.000000 1 0 0
2.485991 -14.972002 2.896497 15.450912 -1.406255 1.382216 0.008590 -0.006080 -1206760.000000 1 0 0
-9.383009 -12.976902 6.824597 17.407354 0.944764 1.167935 -0.004534 -0.011876 -777331.000000 1 0 0
-1.077509 -17.798102 -4.634103 18.423039 1.510329 1.825066 -0.001562 -0.010911 84692.000000 1 0 0
-9.784209 -17.595402 -2.325503 20.266644 1.063308 1.685795 0.013445 -0.014137 -956631.000000 1 0 0
1.165891 -16.335302 1.366897 16.433800 -1.499545 1.487524 0.006854 -0.007957 701072.000000 1 0 0
-0.401509 -17.994902 4.137397 18.468778 1.548488 1.344858 0.011694 -0.008881 -853564.000000 1 0 0
-17.369109 -9.428702 -0.123603 19.763644 0.497332 1.577050 0.002388 0.003658 576954.000000 1 0 0
-14.813309 -7.464302 -10.560103 19.663817 0.466756 2.137711 0.020861 -0.008159 534017.000000 1 0 0
2.696291 -12.763902 -8.845003 15.761385 -1.362613 2.166609 -0.013681 0.006315 324279.000000 1 0 0
-11.813409 -14.627802 1.700697 18.879131 0.891439 1.480591 0.000878 -0.003194 370274.000000 1 0 0
-2.175209 -15.423402 10.639697 18.863086 1.430687 0.971516 0.011873 -0.002218 -464093.000000 1 0 0
-7.122509 -15.940702 1.344397 17.511240 1.150596 1.493947 0.003786 -0.003281 -1511760.000000 1 0 0
-12.599109 -15.007502 -5.944303 20.476753 0.872418 1.865332 0.011336 -0.010946 -251792.000000 1 0 0
0.976391 -13.695202 -4.980103 14.605250 -1.499622 1.918756 0.004618 -0.001543 216184.000000 1 0 0
5.713991 -16.506802 -7.409803 18.974440 -1.237547 1.971987 0.001027 0.000637 74362.400000 1 0 0
-6.562009 -12.907502 5.962897 15.659493 1.100461 1.180151 0.003118 -0.006670 91905.600000 1 0 0
-2.636209 -13.505302 0.646497 13.775367 1.378022 1.523848 0.006309 -0.004737 1982710.000000 1 0 0
-4.330609 -15.474202 0.196097 16.069958 1.297918 1.558593 0.002589 -0.007025 217058.000000 1 0 0
-17.733909 -7.603602 -2.100603 19.409246 0.405052 1.679236 0.006073 0.004297 503984.000000 1 0 0
1.153591 -12.762702 -11.957603 17.527167 -1.480654 2.321608 -0.002680 0.008511 1058560.000000 1 0 0
1.289491 -17.224902 -5.551803 18.143389 -1.496074 1.881781 0.012960 -0.005072 -1621320.000000 1 0 0
-12.778909 -6.496902 -9.208303 17.038283 0.470352 2.141766 0.014084 -0.000554 229234.000000 1 0 0
-11.379709 -13.580802 -8.472403 19.639694 0.873354 2.016831 0.010113 -0.016435 127995.000000 1 0 0
-4.351409 -9.885502 3.517897 11.359292 1.156138 1.255926 0.006619 -0.005437 -5058440.000000 1 0 0
-7.055209 -14.138702 9.733697 18.558656 1.107949 1.018689 -0.000128 -0.015031 -1227750.000000 1 0 0
-5.226309 -15.731102 -7.954303 18.386212 1.250041 2.018197 -0.001555 -0.015687 -925094.000000 1 0 0
-0.288809 -13.471202 2.144997 13.643962 1.549361 1.412929 0.001477 -0.006782 591819.000000 1 0 0
-10.949709 -13.478402 -4.737603 18.000231 0.888546 1.837131 0.016971 -0.009968 -1091780.000000 1 0 0
-9.769009 -10.444602 6.693297 15.789980 0.818808 1.133055 0.008506 -0.009786 -663850.000000 1 0 0
-15.504809 -8.232902 -4.835803 18.208920 0.488131 1.839595 0.012146 -0.003220 -1005930.000000 1 0 0
-14.506709 -7.367802 5.274897 17.104200 0.469939 1.257288 0.012817 -0.005364 6165.930000 1 0 0
-1.532309 -19.360802 -0.002003 19.421345 1.491816 1.570899 0.013105 -0.008985 -276169.000000 1 0 0
-15.516409 -12.268102 -1.410103 19.830624 0.669016 1.641964 0.006964 0.004473 -49854.100000 1 0 0
-4.434809 -12.162002 -6.659203 14.557706 1.221135 2.045905 0.001655 -0.002584 497235.000000 1 0 0
-7.437209 -18.428202 1.986797 19.971431 1.187210 1.471150 0.007746 -0.001344 58331.900000 1 0 0
-2.573709 -11.728602 -8.559003 14.745868 1.354781 2.190058 0.001013 0.001968 698461.000000 1 0 0
-1.534209 -20.289402 -5.246003 21.012715 1.495324 1.823124 -0.002270 -0.009033 -204865.000000 1 0 0
-5.385209 -8.871802 -13.828203 17.289550 1.025244 2.497760 0.003947 -0.002301 1149710.000000 1 0 0
-8.237209 -19.062402 -0.817703 20.782094 1.162912 1.610153 0.005321 -0.006040 171348.000000 1 0 0
-17.042409 -7.273902 5.707597 19.388915 0.403404 1.271996 0.013124 -0.009479 613602.000000 1 0 0
-3.715609 -14.629502 -4.192703 15.665466 1.322075 1.841739 -0.002921 -0.003342 -3298710.000000 1 0 0
-3.117409 -14.994302 -10.789203 18.733772 1.365810 2.184529 0.007002 -0.001455 -277122.000000 1 0 0
-0.147509 -16.694802 6.388097 17.875848 1.561961 1.205358 0.019394 -0.010045 76882.900000 1 0 0
-11.153909 -11.661302 3.828297 16.584677 0.807634 1.337862 0.002075 -0.005696 -1869360.000000 1 0 0
-0.353709 -14.616502 -0.138603 14.621438 1.546602 1.580276 0.000913 -0.004838 754238.000000 1 0 0
-7.333409 -9.476002 -2.440303 12.228188 0.912178 1.771709 0.010371 -0.004423 -195470.000000 1 0 0
-11.032109 -14.450702 -0.894503 18.202482 0.918755 1.619958 -0.003334 -0.005509 210432.000000 1 0 0
0.223791 -14.583402 -10.572103 18.013746 -1.555452 2.198010 -0.003589 0.005094 -156759.000000 1 0 0
-1.444009 -14.055702 -3.900003 14.658033 1.468421 1.840106 0.001004 -0.002361 -1946550.000000 1 0 0
-11.284509 -8.157702 -7.597903 15.862420 0.625938 2.070297 0.014329 -0.006248 455046.000000 1 0 0
-0.394509 -17.119102 -0.474103 17.130209 1.547755 1.598476 0.005120 -0.010032 -500421.000000 1 0 0
-12.841609 -9.562002 4.357397 16.592942 0.640043 1.305075 0.009766 -0.004316 13970.100000 1 0 0
3.899991 -16.895102 1.625097 17.415377 -1.343934 1.477346 0.017427 -0.006780 1062560.000000 1 0 0
-3.990609 -17.940502 -8.104303 20.086470 1.351924 1.986103 0.003285 -0.007820 -167933.000000 1 0 0
-13.318209 -11.404502 2.589897 17.724134 0.708145 1.424149 -0.006673 0.002536 -1048340.000000 1 0 0
-8.565909 -12.157202 4.247897 15.466641 0.956993 1.292572 0.001797 -0.006812 1238350.000000 1 0 0
-8.231609 -9.325402 -5.806403 13.727229 0.847617 2.007533 0.016354 -0.007289 -563894.000000 1 0 0
3.829491 -17.624002 -5.158503 18.758481 -1.356834 1.849382 0.001019 0.005775 -222620.000000 1 0 0
-2.581209 -12.925002 11.398097 17.425124 1.373683 0.857780 0.004730 -0.010935 334609.000000 1 0 0
-0.082609 -16.708102 -9.545303 19.242669 1.565852 2.089839 -0.004860 0.004825 -87701.500000 1 0 0
-7.086609 -10.769902 -14.375003 19.309363 0.988817 2.410518 0.010894 -0.005877 -683089.000000 1 0 0
-4.722509 -19.005802 -1.562303 19.645951 1.327251 1.650403 0.008081 -0.011276 -907051.000000 1 0 0
-2.577709 -17.247102 1.074097 17.471714 1.422437 1.509281 0.007174 -0.010240 577336.000000 1 0 0
3.989791 -14.585502 -7.383403 16.827654 -1.303783 2.025021 -0.010407 0.004723 17248.000000 1 0 0
-0.798709 -15.855802 -6.170403 17.032858 1.520466 1.941493 -0.003581 -0.000744 351230.000000 1 0 0
-9.400909 -15.154002 8.381597 19.704620 1.015542 1.131434 -0.001462 -0.010228 -522803.000000 1 0 0
-7.285809 -12.006002 -1.723203 14.149082 1.025357 1.692888 0.005150 -0.004261 1012620.000000 1 0 0
-7.259509 -15.043002 -9.461203 19.196529 1.121179 2.086170 0.009957 -0.006430 -96486.000000 1 0 0
-5.107409 -13.094902 -0.571603 14.067296 1.198914 1.611441 0.006404 -0.003305 1743820.000000 1 0 0
-6.547709 -13.702802 -7.332403 16.864264 1.125036 2.020601 0.005766 -0.007882 15033.200000 1 0 0
5.668891 -15.421502 0.286897 16.432935 -1.218532 1.553337 0.009271 -0.000322 419254.000000 1 0 0
-14.531009 -12.901302 0.920497 19.453563 0.726060 1.523461 -0.003088 -0.000125 753278.000000 1 0 0
0.798591 -15.415002 11.250897 19.100856 -1.519037 0.940944 0.012475 -0.000026 -102219.000000 1 0 0
-9.343609 -10.864902 1.958397 14.463210 0.860536 1.434974 0.003338 -0.001154 367973.000000 1 0 0
-9.490009 -8.713302 -3.508603 13.352610 0.742756 1.836683 0.012948 -0.006207 -1485460.000000 1 0 0
-12.185809 -7.281002 -12.193203 18.713127 0.538578 2.280469 0.018436 -0.006194 -1120810.000000 1 0 0
-13.288709 -8.336202 -0.575203 15.697545 0.560262 1.607447 0.000949 0.000531 -1677880.000000 1 0 0
-11.349209 -9.661302 0.551697 14.914747 0.705234 1.533798 -0.002931 -0.000648 704058.000000 1 0 0
-15.724309 -12.069102 3.026597 20.051868 0.654635 1.419279 0.008819 -0.000184 -675255.000000 1 0 0
-10.540609 -12.478602 -2.319403 16.498472 0.869390 1.711846 0.009702 -0.009022 458701.000000 1 0 0
-3.332909 -8.924002 -12.114103 15.410956 1.213362 2.475223 -0.001852 0.002725 -2206940.000000 1 0 0
-0.323009 -15.501402 3.992297 16.010504 1.549962 1.318782 0.012361 -0.009606 -701880.000000 1 0 0
-15.771109 -7.812102 1.161297 17.638181 0.459915 1.504909 -0.001836 0.003422 511279.000000 1 0 0
-6.288209 -13.385202 -13.202103 19.824246 1.131609 2.299573 0.012522 -0.004021 -212645.000000 1 0 0
-15.330809 -10.370302 1.121197 18.542760 0.594735 1.510294 0.003627 0.000066 -238719.000000 1 0 0
-9.934509 -8.420202 -12.561503 18.093801 0.703082 2.338165 0.019556 -0.000792 416383.000000 1 0 0
-13.411309 -11.748402 -6.168303 18.866269 0.719400 1.903869 0.014195 -0.009832 66077.000000 1 0 0
-12.126209 -11.344202 -3.890403 17.054943 0.752092 1.800932 0.000943 -0.006203 -1950660.000000 1 0 0
-11.764709 -11.073202 -8.830103 18.411814 0.755129 2.070983 0.014975 -0.013995 440601.000000 1 0 0
-13.123309 -8.596702 -5.865803 16.749094 0.579932 1.928598 0.002125 -0.003407 -1923330.000000 1 0 0
-13.449709 -8.174002 -3.256903 16.072224 0.546095 1.774851 0.004971 -0.003995 304069.000000 1 0 0
-4.485209 -16.941502 -3.197003 17.814388 1.311987 1.751236 -0.000877 -0.011406 -278884.000000 1 0 0
-15.463009 -8.862602 -1.807103 17.914128 0.520442 1.671844 0.008473 0.002686 -2462600.000000 1 0 0
-9.557509 -15.676202 3.726297 18.734315 1.023288 1.370559 0.004281 -0.003847 -173533.000000 1 0 0
4.842691 -16.716702 8.014597 19.160729 -1.288823 1.139243 0.031685 -0.037348 71175.900000 1 0 0
-8.352909 -15.404202 6.046797 18.537105 1.073924 1.238516 -0.002352 -0.002820 -272907.000000 1 0 0
0.787891 -15.835902 8.679297 18.075585 -1.521084 1.069951 0.011262 -0.010681 422657.000000 1 0 0
-10.735309 -7.840302 -10.203603 16.758004 0.630792 2.225443 0.014965 -0.004779 1099960.000000 1 0 0
-4.882009 -15.944202 5.803597 17.655971 1.273667 1.235865 0.003289 -0.006021 -510081.000000 1 0 0
-1.499009 -13.180302 -11.890403 17.814294 1.457552 2.301594 0.003434 -0.000820 -2321980.000000 1 0 0
-6.393509 -14.361302 -2.559003 15.927098 1.151950 1.732166 0.005490 -0.005133 5415.920000 1 0 0
-17.631409 -6.986602 -7.099103 20.250344 0.377277 1.928973 0.012472 -0.006538 157156.000000 1 0 0
-17.280209 -4.105002 -10.185803 20.474551 0.233232 2.091495 0.010738 -0.006591 177524.000000 1 0 0
-15.220309 -5.329702 -9.022003 18.478638 0.336827 2.080868 -0.001886 -0.007949 164092.000000 1 0 0
-15.977909 -5.462602 -5.690203 17.818866 0.329427 1.895825 0.002772 -0.000941 -237459.000000 1 0 0
-15.269309 -4.344302 -12.389803 20.137824 0.277188 2.233500 0.016488 -0.001693 735363.000000 1 0 0
-18.566409 -5.280102 -5.489103 20.067916 0.277075 1.847854 0.008487 0.001317 -33840.100000 1 0 0
-17.300409 -4.441002 -7.632103 19.423585 0.251274 1.974612 0.000979 -0.003652 661937.000000 1 0 0
12.152591 -7.894102 8.744897 16.925588 -0.576081 1.027843 0.019120 -0.007684 234256.000000 1 0 0
16.029691 -3.407102 1.828497 16.489474 -0.209433 1.459679 0.019424 -0.008241 651213.000000 1 0 0
11.954491 -2.324102 12.598097 17.522082 -0.192017 0.768457 0.010644 -0.000477 -47294.100000 1 0 0
9.648891 -10.039302 5.202097 14.864404 -0.805225 1.213257 0.005825 -0.002898 285764.000000 1 0 0
16.896991 -2.056702 7.244097 18.499061 -0.121124 1.168434 0.037527 -0.012063 -373322.000000 1 0 0
5.092391 -12.806802 9.212197 16.577430 -1.192333 0.981583 -0.005915 0.000203 -246224.000000 1 0 0
15.033391 -9.015902 -2.141703 17.660018 -0.540217 1.692370 0.007185 -0.000787 43296.500000 1 0 0
11.037091 -8.542602 6.460397 15.379537 -0.658679 1.137280 0.016648 -0.005713 -2394180.000000 1 0 0
19.917791 -3.400002 3.681697 20.538581 -0.169072 1.390565 0.031147 -0.009105 -10774.600000 1 0 0
13.576191 -8.605702 6.841097 17.469164 -0.564961 1.168416 0.025581 -0.009246 -1359720.000000 1 0 0
8.199791 -11.072402 8.840097 16.370155 -0.933363 1.000344 0.000962 -0.002010 -1198520.000000 1 0 0
16.881791 0.097398 -0.717103 16.897295 0.005769 1.613248 0.016562 -0.004114 -438104.000000 1 0 0
12.324691 -12.424202 2.319197 17.653257 -0.789419 1.439040 0.011809 0.000098 -1214790.000000 1 0 0
10.219991 -11.732302 3.602797 15.971076 -0.854180 1.343255 0.010430 -0.002324 -1172150.000000 1 0 0
16.333491 2.909098 2.338497 16.754532 0.176258 1.430765 0.011922 -0.003918 -79492.600000 1 0 0
18.231791 -3.164602 0.486097 18.510786 -0.171864 1.544533 0.014989 -0.010078 -391264.000000 1 0 0
13.315491 -11.549002 -0.192303 17.627216 -0.714473 1.581706 0.016192 0.001559 -630874.000000 1 0 0
16.877691 -7.573002 -0.897603 18.520597 -0.421771 1.619280 0.018507 -0.005834 95828.300000 1 0 0
10.174391 -5.834802 9.746097 15.249576 -0.520691 0.877461 0.001703 -0.002247 310277.000000 1 0 0
11.117391 -13.186002 6.135397 18.306013 -0.870310 1.229024 0.017785 -0.004092 -201539.000000 1 0 0
13.024691 -1.784502 10.309197 16.706483 -0.136161 0.905773 0.022738 -0.004552 -430573.000000 1 0 0
15.627091 -2.054902 -1.473303 15.830326 -0.130746 1.664000 0.013609 -0.004434 225012.000000 1 0 0
10.339991 -12.532202 8.966997 18.557439 -0.880952 1.066488 0.019766 -0.010577 280428.000000 1 0 0
14.553191 1.149598 3.302197 14.967346 0.078829 1.348339 0.020227 -0.004946 933119.000000 1 0 0
14.884091 -5.872102 5.283497 16.850314 -0.375775 1.251862 0.024415 -0.010987 -1250040.000000 1 0 0
14.305291 -3.296202 -3.073903 14.998506 -0.226466 1.777206 0.007372 -0.003369 1425480.000000 1 0 0
14.125491 0.565998 9.631797 17.106179 0.040048 0.972713 0.034916 -0.005525 949639.000000 1 0 0
15.279791 -3.384002 4.478797 16.278302 -0.217951 1.292062 0.021120 -0.005089 93294.800000 1 0 0
18.201291 4.703298 -4.175203 19.257215 0.252873 1.789344 -0.027293 -0.007234 104424.000000 1 0 0
18.226491 -5.643302 -5.137903 19.759805 -0.300260 1.833837 0.039676 -0.007703 681795.000000 1 0 0
17.400391 -0.135902 5.927097 18.382670 -0.007810 1.242502 0.044050 -0.005368 801638.000000 1 0 0
16.960491 -6.723402 3.960697 18.669481 -0.377412 1.357024 0.029547 -0.012711 205244.000000 1 0 0
9.698291 -6.769902 14.229097 18.502855 -0.609417 0.693487 0.001001 -0.002272 -1057910.000000 1 0 0
8.432091 -12.333902 5.226897 15.828637 -0.971127 1.234262 0.003450 -0.005819 -1387030.000000 1 0 0
16.784691 -10.144502 -0.568403 19.620394 -0.543641 1.599770 0.019411 0.001282 -521893.000000 1 0 0
14.938091 -8.727902 0.397997 17.305526 -0.528774 1.547796 0.025606 -0.006850 13596.500000 1 0 0
9.950691 -12.996002 1.459297 16.432951 -0.917340 1.481876 0.015035 -0.001556 -253418.000000 1 0 0
16.748591 -8.399902 8.671497 20.646271 -0.464870 1.137348 0.030213 -0.010285 358167.000000 1 0 0
19.217491 -0.117002 -1.987303 19.320327 -0.006088 1.673839 0.028981 -0.002379 266620.000000 1 0 0
13.380391 -1.174902 7.729397 15.497059 -0.087583 1.048623 0.018079 -0.007572 -147816.000000 1 0 0
12.750291 -9.735202 -3.034603 16.326448 -0.652103 1.757754 0.008622 -0.000691 -2540090.000000 1 0 0
8.771591 -15.276502 1.526797 17.681726 -1.049572 1.484340 0.016961 0.006649 -22190.900000 1 0 0
11.389591 -8.474402 11.104997 18.023852 -0.639681 0.906979 0.013439 -0.008648 220713.000000 1 0 0
13.966391 -4.024302 -0.559903 14.545397 -0.280543 1.609299 0.012590 -0.006613 -1509200.000000 1 0 0
7.104791 -13.335702 10.753397 18.546012 -1.081282 0.952285 0.006001 0.002722 158828.000000 1 0 0
15.378091 -6.651302 1.811697 16.852529 -0.408221 1.463085 0.016861 -0.005828 1049960.000000 1 0 0
15.701891 -6.085502 -2.598003 17.039141 -0.369741 1.723866 0.008824 -0.002912 -197362.000000 1 0 0
11.221691 -8.542502 3.835097 14.615357 -0.650662 1.305286 0.014943 -0.004831 1116100.000000 1 0 0
10.620091 -14.539002 -0.333603 18.007782 -0.939922 1.589323 0.026135 -0.000066 500676.000000 1 0 0
13.329591 -12.888802 4.679197 19.123130 -0.768588 1.323599 0.017262 -0.001767 290463.000000 1 0 0
12.778291 -11.168702 6.519097 18.180298 -0.718284 1.204050 0.018047 -0.006621 -521228.000000 1 0 0
10.813691 -10.525102 1.449197 15.159613 -0.771875 1.475054 0.005998 -0.003452 356041.000000 1 0 0
13.889391 -7.794302 11.931997 19.900726 -0.511378 0.927825 0.032058 -0.012540 102296.000000 1 0 0
15.360691 -1.761702 -5.043103 16.263066 -0.114190 1.886090 0.014772 -0.000847 -536539.000000 1 0 0
12.923291 -11.347702 -7.069703 18.594690 -0.720573 1.960809 0.033449 -0.000823 5240.930000 1 0 0
17.669191 -5.343302 1.865697 18.553491 -0.293664 1.470068 0.030514 -0.008613 -122295.000000 1 0 0
10.485891 -9.879202 9.152797 17.068282 -0.755616 1.004813 0.004427 -0.004286 -1515610.000000 1 0 0
16.411091 1.821498 10.092697 19.352114 0.110539 1.022154 0.050515 -0.000058 57056.100000 1 0 0
18.133491 3.714398 0.577297 18.519004 0.202042 1.539618 -0.003296 0.002275 277687.000000 1 0 0
13.103091 -4.065402 5.739397 14.871421 -0.300845 1.174576 0.017671 -0.009949 -1859960.000000 1 0 0
12.092491 -6.249502 6.662097 15.154806 -0.477004 1.115640 0.019675 -0.007359 -235393.000000 1 0 0
16.478091 -10.242802 3.572397 19.728266 -0.556152 1.388712 0.015861 -0.004813 -155346.000000 1 0 0
16.145091 -8.018502 -5.272103 18.781784 -0.460966 1.855323 0.015590 -0.007624 -150605.000000 1 0 0
14.010691 -0.407902 5.281497 14.978654 -0.029105 1.210447 0.018075 -0.006750 916804.000000 1 0 0
18.356191 -4.470602 5.343997 19.634010 -0.238896 1.295138 0.047830 -0.004239 288860.000000 1 0 0
13.376991 -13.567502 7.215397 20.373585 -0.792469 1.208786 0.015725 0.000610 -455367.000000 1 0 0
14.768491 -13.560902 -0.856103 20.068366 -0.742797 1.613469 0.010727 0.004253 -202271.000000 1 0 0
17.743291 -6.100602 8.133497 20.449829 -0.331164 1.161756 0.043447 -0.005786 135576.000000 1 0 0
14.329191 3.250698 9.217397 17.345119 0.223083 1.010530 0.025871 -0.009715 -656934.000000 1 0 0
18.898891 3.602998 2.863697 19.451232 0.188385 1.423035 0.029633 -0.005280 -383900.000000 1 0 0
14.766791 -10.592102 8.139697 19.912444 -0.622237 1.149686 0.025797 -0.005964 -487866.000000 1 0 0
14.716891 -4.892502 10.425697 18.687392 -0.320947 0.978943 0.033165 -0.010678 164218.000000 1 0 0
17.696791 -7.962502 1.909597 19.499344 -0.422804 1.472708 0.032051 -0.012069 119354.000000 1 0 0
18.322291 -5.738502 -2.074703 19.311684 -0.303520 1.678437 0.016157 -0.008427 1085130.000000 1 0 0
14.279791 -13.002202 -5.512903 20.083869 -0.738603 1.848860 0.031735 0.001809 382682.000000 1 0 0
15.440991 -1.591202 9.357797 18.125245 -0.102688 1.028289 0.042205 -0.009391 313893.000000 1 0 0
12.901391 -10.142102 10.088997 19.263852 -0.666223 1.019576 0.015371 -0.014785 -2038100.000000 1 0 0
16.552991 2.026498 4.858197 17.369810 0.121819 1.287323 0.024013 -0.004293 376165.000000 1 0 0
14.998291 2.301998 0.026397 15.173946 0.152296 1.569057 0.005866 -0.002039 -1035400.000000 1 0 0
15.012091 -9.722702 -6.963703 19.193410 -0.574727 1.942086 0.026844 -0.006103 849063.000000 1 0 0
16.142791 -0.008702 -3.281903 16.473028 -0.000539 1.771367 0.007595 -0.000483 51845.000000 1 0 0
12.017891 2.501098 13.544897 18.279755 0.205186 0.736271 0.046283 -0.009189 -369539.000000 1 0 0
17.554991 -3.141802 9.601397 20.254270 -0.177094 1.076919 0.039916 -0.008171 556805.000000 1 0 0
7.795191 -18.306902 4.503497 20.400714 -1.168243 1.348211 0.038834 -0.006331 -96255.200000 1 0 0
6.561791 -11.305002 6.722397 14.698666 -1.044889 1.095786 -0.001668 -0.005055 395645.000000 1 0 0
18.105391 2.216698 -1.535203 18.305075 0.121827 1.654763 0.014478 0.001130 503929.000000 1 0 0
17.572491 -2.452402 3.672297 18.118843 -0.138664 1.366704 0.026247 -0.007581 -917647.000000 1 0 0
12.467091 -13.374802 -1.950503 18.387989 -0.820509 1.677071 0.019184 0.004207 -313310.000000 1 0 0
14.928591 -8.282602 4.348297 17.617378 -0.506532 1.321400 0.025126 -0.009140 -541748.000000 1 0 0
11.485291 -3.218902 14.985797 19.153260 -0.273253 0.672262 0.008082 -0.002632 454264.000000 1 0 0
11.954391 -13.622902 -6.542203 19.268922 -0.850540 1.917204 0.023925 -0.001369 -374282.000000 1 0 0
10.432291 -12.036602 -1.170703 15.971319 -0.856679 1.644162 0.013381 -0.004186 -1063550.000000 1 0 0
13.097191 -8.023302 2.080797 15.499661 -0.549631 1.436142 0.017492 -0.003074 -456412.000000 1 0 0
8.623591 -7.950202 10.048797 15.445076 -0.744791 0.862402 -0.001726 -0.001764 -1301970.000000 1 0 0
15.540991 -3.840102 8.053197 17.919899 -0.242243 1.104703 0.038235 -0.012705 -277370.000000 1 0 0
10.148291 -17.280202 5.326797 20.735669 -1.039783 1.310993 0.025017 -0.010456 906906.000000 1 0 0
15.122991 -6.377102 8.371197 18.424148 -0.399057 1.099143 0.032201 -0.004448 -289106.000000 1 0 0
16.531891 -4.905902 -0.398603 17.249063 -0.288476 1.593907 0.015367 -0.008201 -1350020.000000 1 0 0
13.909691 -10.598302 3.409797 17.816572 -0.651097 1.378225 0.023953 -0.004480 420044.000000 1 0 0
14.901091 -10.087402 -4.480103 18.543719 -0.595093 1.814807 0.025735 -0.003271 215445.000000 1 0 0
13.616291 -6.558502 -0.045903 15.113551 -0.448873 1.573834 0.012299 -0.004344 -586897.000000 1 0 0
17.750291 -0.828302 -5.138403 18.497624 -0.046630 1.852286 0.017136 -0.003642 -1494420.000000 1 0 0
14.420091 0.236398 -1.660803 14.517341 0.016392 1.685449 0.009460 -0.002835 -2540360.000000 1 0 0
4.731591 -12.852702 11.779097 18.064524 -1.218054 0.860502 -0.014369 0.004255 -425547.000000 1 0 0
11.949091 -7.775502 13.595797 19.699871 -0.576881 0.809105 0.014654 -0.005663 -175572.000000 1 0 0
11.929991 -6.043602 11.590997 17.697486 -0.468905 0.856678 0.004000 -0.004297 -12742.700000 1 0 0
13.125791 -4.690102 8.366397 16.256692 -0.343181 1.030205 0.020655 -0.010165 -1999870.000000 1 0 0
15.423191 -1.206202 3.122497 15.782260 -0.078048 1.371634 0.021710 -0.004915 399075.000000 1 0 0
15.094291 -10.448602 5.705697 19.224096 -0.605487 1.269457 0.024194 -0.006696 -43338.100000 1 0 0
13.569791 -8.047102 -5.605803 16.742763 -0.535268 1.912210 0.020876 -0.000678 -1739640.000000 1 0 0
9.447091 -2.194602 13.532297 16.648930 -0.228256 0.621849 -0.006295 -0.003451 -274943.000000 1 0 0
9.760991 -9.325802 13.622797 19.178846 -0.762602 0.780867 0.012129 -0.003209 -263798.000000 1 0 0
20.241791 6.066498 -3.456903 21.412209 0.291183 1.732951 0.012110 -0.000597 -534563.000000 1 0 0
11.216491 -3.692502 10.533997 15.824327 -0.318029 0.842387 0.007500 -0.000804 675396.000000 1 0 0
10.154291 -14.067602 -2.869603 17.585269 -0.945575 1.734712 0.015566 0.002705 418999.000000 1 0 0
14.864191 -12.930802 2.600697 19.872429 -0.715951 1.439550 0.016416 0.007247 594134.000000 1 0 0
11.263591 -0.547602 14.299897 18.211409 -0.048579 0.667751 0.020936 -0.003676 262445.000000 1 0 0
19.093991 -2.158302 5.880597 20.095278 -0.112558 1.273814 0.042987 -0.004364 441819.000000 1 0 0
18.941691 -0.625602 8.069597 20.598481 -0.033016 1.168256 0.051683 0.000230 444617.000000 1 0 0
19.223291 0.745998 0.319097 19.240407 0.038788 1.554211 0.029507 -0.007389 158274.000000 1 0 0
18.440091 0.679098 3.643597 18.808879 0.036811 1.375847 0.020467 -0.007523 80851.800000 1 0 0
16.642891 -3.839802 -4.193603 17.587388 -0.226749 1.811559 0.012653 -0.005264 -1305510.000000 1 0 0
10.887891 -8.425702 15.795697 20.953345 -0.658597 0.716893 0.014917 -0.008128 651017.000000 1 0 0
16.423891 -7.528302 6.337597 19.146401 -0.429797 1.233426 0.023014 -0.009806 393732.000000 1 0 0
18.970491 2.001198 5.795897 19.936819 0.105101 1.275824 0.040592 -0.001582 183636.000000 1 0 0
15.586891 1.585098 7.674497 17.445963 0.101346 1.115308 0.044781 -0.005473 476661.000000 1 0 0
8.536291 -15.756702 3.964597 18.353745 -1.074304 1.353070 0.013771 -0.007075 493128.000000 1 0 0
11.337591 -15.187102 2.100797 19.068361 -0.929521 1.460400 0.022506 0.006510 374258.000000 1 0 0
7.884091 -16.297502 6.224197 19.144401 -1.120224 1.239659 0.021511 -0.004045 13851.200000 1 0 0
14.411591 -11.606902 -2.468503 18.668359 -0.678017 1.703414 0.010966 0.000106 364480.000000 1 0 0
13.546091 -4.896602 3.237797 14.763354 -0.346863 1.349686 0.012101 -0.004289 -1915420.000000 1 0 0
-0.988009 10.288598 -5.517303 11.716315 -1.475060 2.061116 0.003837 0.000760 -1655760.000000 1 0 0
8.328091 -1.804302 -8.108503 11.762671 -0.213355 2.331377 -0.003185 -0.002042 -2553000.000000 1 0 0
2.934891 -10.181602 7.617397 13.050032 -1.290150 0.947509 -0.012697 -0.000967 539228.000000 1 0 0
-6.278709 1.258598 8.238797 10.434751 -0.197833 0.660715 0.001768 0.000357 -469726.000000 1 0 0
7.206991 -6.243602 -7.253703 11.980797 -0.713896 2.221120 -0.007748 -0.000358 -248722.000000 1 0 0
-11.488809 -4.481002 -4.150403 13.011455 0.371884 1.895450 0.001408 -0.001840 -370069.000000 1 0 0
2.097991 -3.195902 2.879797 4.786292 -0.989891 0.925198 0.001531 -0.000682 2824470.000000 1 0 0
-3.603709 -4.239202 8.784097 10.397976 0.866249 0.564625 0.005185 -0.003368 -1907330.000000 1 0 0
-4.799809 -1.030502 -2.473803 5.497254 0.211486 2.037570 0.004549 -0.001364 -134424.000000 1 0 0
4.953291 -5.267902 -3.608503 8.081286 -0.816169 2.033675 -0.000548 -0.002117 431050.000000 1 0 0
2.713491 14.392298 -8.850903 17.112561 1.384446 2.114392 0.013048 -0.003404 185155.000000 1 0 0
5.405091 -5.356902 13.764297 15.727914 -0.780920 0.505049 -0.008653 0.000894 -930723.000000 1 0 0
-4.711809 -0.878902 9.826997 10.933594 0.184412 0.453797 0.008109 -0.000517 -2616010.000000 1 0 0
-0.993809 12.091198 -2.487803 12.384421 -1.488788 1.773054 0.004416 0.001372 51319.200000 1 0 0
3.156091 9.531098 -10.447103 14.489469 1.251025 2.376060 0.005911 0.000194 -160921.000000 1 0 0
-10.748809 2.683298 1.115597 11.134700 -0.244637 1.470437 -0.004413 -0.001029 99383.700000 1 0 0
5.683391 -9.016602 -0.779703 10.686813 -1.008377 1.643821 -0.005207 -0.003391 211006.000000 1 0 0
-6.969509 5.546898 9.405197 12.953759 -0.672224 0.758223 -0.002460 0.000656 -3437.130000 1 0 0
-5.419809 -1.819602 5.094897 7.657889 0.323908 0.842883 0.005552 -0.005032 799450.000000 1 0 0
6.627391 -3.839402 -7.416703 10.661651 -0.525077 2.340111 -0.004493 -0.001846 392281.000000 1 0 0
6.345691 4.796598 11.082697 13.641896 0.647255 0.622537 -0.001476 -0.003068 319433.000000 1 0 0
3.646991 -9.744302 3.504997 10.978933 -1.212667 1.245861 -0.008988 -0.002366 828565.000000 1 0 0
-6.565209 6.710898 -5.738103 11.002906 -0.796372 2.119414 -0.001090 -0.002832 572249.000000 1 0 0
-11.145809 8.387198 5.207097 14.889191 -0.645098 1.213521 -0.000509 -0.003154 662752.000000 1 0 0
-9.109509 -5.356502 5.083397 11.726730 0.531558 1.122437 0.004952 -0.001851 617199.000000 1 0 0
3.357691 9.953498 -8.022003 13.217365 1.245446 2.222987 0.004795 0.000001 773842.000000 1 0 0
-8.084709 -8.541202 6.006397 13.205736 0.812848 1.098612 0.008920 -0.005616 -941211.000000 1 0 0
-7.845809 -5.697702 -7.535003 12.279934 0.628101 2.231412 0.011647 -0.005498 68071.600000 1 0 0
9.202191 -1.571202 6.956097 11.642005 -0.169111 0.930417 0.000099 -0.004064 1203620.000000 1 0 0
-4.141809 -0.393202 -4.966203 6.478608 0.094651 2.444254 0.008806 -0.006508 -1414630.000000 1 0 0
9.080091 1.207298 -4.582903 10.242491 0.132186 2.034697 -0.000624 0.000547 -3099130.000000 1 0 0
-1.757309 -10.596602 10.673797 15.142855 1.406455 0.788552 -0.007134 -0.008349 -349082.000000 1 0 0
-12.866409 0.289398 -2.745403 13.159235 -0.022489 1.780970 -0.000624 -0.002549 122330.000000 1 0 0
-9.787709 -5.166102 -5.984703 12.581912 0.485651 2.066510 0.009315 -0.003471 -1971000.000000 1 0 0
-5.469009 8.301398 -0.137003 9.941933 -0.988256 1.584577 0.002024 -0.001011 380998.000000 1 0 0
6.246191 9.597098 0.528397 11.462914 0.993830 1.524684 0.001476 0.001570 459509.000000 1 0 0
-0.556209 -11.989002 0.139397 12.002707 1.524436 1.559182 0.006203 -0.004001 -419852.000000 1 0 0
6.177491 4.725998 2.310797 8.113953 0.653054 1.282006 -0.001426 0.001297 362353.000000 1 0 0
3.474391 -7.469002 -8.228203 11.643054 -1.135395 2.355626 -0.008845 0.000050 795389.000000 1 0 0
-6.528409 -9.897402 4.566997 12.705753 0.987696 1.203125 0.007124 -0.005279 -2128190.000000 1 0 0
0.004291 6.590098 -9.294903 11.394061 1.570145 2.524851 0.006605 -0.002660 -1648360.000000 1 0 0
-17.300209 -2.907702 4.047897 18.003817 0.166517 1.344022 0.013654 -0.003979 1055.030000 1 0 0
-8.279809 0.827698 -9.323703 12.496870 -0.099635 2.412956 0.000382 -0.003324 32746.500000 1 0 0
-9.940509 -5.871502 -11.883103 16.567932 0.533527 2.370623 0.012702 0.002878 -121288.000000 1 0 0
2.185491 9.497798 6.492697 11.710664 1.344628 0.983123 -0.003278 0.007904 106847.000000 1 0 0
-11.395109 1.679198 -1.240203 11.584745 -0.146308 1.678057 -0.001963 -0.001186 -2223500.000000 1 0 0
-5.918209 -5.318602 -3.070303 8.528744 0.732088 1.939059 0.016912 -0.005172 654450.000000 1 0 0
-6.948709 -8.341502 1.362297 10.941712 0.876238 1.445967 0.007933 -0.002531 -832340.000000 1 0 0
-0.027109 10.922598 -7.834703 13.441966 -1.568314 2.193033 0.005988 0.001902 1256600.000000 1 0 0
-2.870909 9.184698 -4.249903 10.519623 -1.267843 1.986679 0.003615 -0.002273 -278436.000000 1 0 0
3.415491 -4.859802 9.390597 11.111551 -0.958191 0.564006 -0.007244 0.000575 -680401.000000 1 0 0
-9.085109 1.553898 -0.470503 9.229040 -0.169399 1.621799 -0.004406 -0.001409 -1872320.000000 1 0 0
2.453191 3.508098 -10.404203 11.250437 0.960545 2.751259 0.001805 -0.001709 1844820.000000 1 0 0
-13.697409 0.488698 1.071197 13.747920 -0.035663 1.492800 0.002691 -0.001830 266257.000000 1 0 0
9.369091 -12.605102 -5.026503 16.490427 -0.931611 1.880539 0.012875 0.001156 -2050370.000000 1 0 0
-4.677409 9.434798 -8.318503 13.419801 -1.110545 2.239371 -0.000612 0.000170 -2334800.000000 1 0 0
-2.313509 7.151698 8.414297 11.282708 -1.257930 0.729108 0.002088 0.003746 -216925.000000 1 0 0
-10.730009 -1.318802 -4.587703 11.743907 0.122294 1.972129 0.001471 0.000180 -3882710.000000 1 0 0
2.814291 -7.269702 9.654697 12.408947 -1.201437 0.679251 -0.012485 0.000847 -1162940.000000 1 0 0
-16.253209 -6.649502 3.316797 17.871313 0.388343 1.384121 0.011501 0.001002 -124737.000000 1 0 0
-10.820309 0.026898 6.130297 12.436251 -0.002486 1.055333 -0.001406 -0.002921 -1214910.000000 1 0 0
-8.328209 9.956698 9.370697 16.009524 -0.874226 0.945521 0.002971 -0.004952 -315338.000000 1 0 0
0.252491 -6.137702 -3.781003 7.213260 -1.529682 2.122541 -0.000769 0.001495 133887.000000 1 0 0
4.822191 1.549198 -3.008303 5.890962 0.310849 2.106753 0.001381 0.001048 -39650.700000 1 0 0
0.382991 5.441898 3.762597 6.627071 1.500534 0.967012 -0.000581 0.004245 -3492770.000000 1 0 0
5.969491 -11.344802 -1.527403 12.910163 -1.086419 1.689384 -0.005957 -0.001100 -2384700.000000 1 0 0
6.058591 -13.437402 5.328397 15.673612 -1.147215 1.223922 -0.000545 -0.007359 -585252.000000 1 0 0
8.094891 -8.245502 -5.989703 13.015072 -0.794615 2.049031 -0.005635 -0.000674 514338.000000 1 0 0
-13.178609 -1.374802 -4.840203 14.106501 0.103945 1.921031 -0.001300 0.000831 -2337730.000000 1 0 0
-6.724909 -1.450702 -7.040603 9.843730 0.212465 2.367760 0.011191 -0.005127 -590534.000000 1 0 0
-5.585109 13.063298 -4.467003 14.892861 -1.166775 1.875429 -0.000222 0.002529 1545840.000000 1 0 0
-4.186909 6.939398 -6.690703 10.509565 -1.027915 2.260916 0.001529 -0.001126 -4022080.000000 1 0 0
-9.423709 -3.651002 -8.079703 12.938999 0.369621 2.245218 0.008774 -0.002285 551177.000000 1 0 0
-2.088309 -6.326402 9.141897 11.311882 1.251964 0.629762 0.003609 -0.002817 -576431.000000 1 0 0
7.434391 -6.051602 10.070697 13.903633 -0.683220 0.760747 -0.008365 0.001573 530019.000000 1 0 0
9.602491 -5.145402 12.237597 16.384193 -0.491907 0.727386 -0.000591 0.003210 -181684.000000 1 0 0
-6.484409 2.799498 -9.048303 11.478525 -0.407555 2.478807 0.000212 -0.003461 -848601.000000 1 0 0
7.409191 5.478598 8.851397 12.777260 0.636704 0.805506 -0.002792 -0.002339 -1173570.000000 1 0 0
12.678791 3.285998 11.132797 17.189785 0.253593 0.866313 0.031661 -0.005840 -346080.000000 1 0 0
-7.519009 -7.294002 -3.888903 11.174145 0.770210 1.926262 0.014728 -0.007542 -914846.000000 1 0 0
2.420591 1.458698 -5.716303 6.376769 0.542344 2.682435 -0.000014 -0.000972 407707.000000 1 0 0
12.819591 6.850798 -7.138303 16.193539 0.490788 2.027299 0.005136 -0.000069 412737.000000 1 0 0
0.742191 -7.729502 1.031097 7.833212 -1.475069 1.438782 0.000038 -0.004077 117721.000000 1 0 0
-10.327009 -6.030802 -8.472603 14.656148 0.528559 2.187185 0.011671 -0.002971 69295.300000 1 0 0
-6.729809 0.294198 3.074297 7.404606 -0.043688 1.142648 0.002406 -0.005058 -651584.000000 1 0 0
10.642991 -7.967902 1.319197 13.360427 -0.642638 1.471896 0.003352 -0.001580 -561442.000000 1 0 0
6.287391 0.914698 10.517697 12.287795 0.144468 0.543417 -0.005150 -0.001221 -968610.000000 1 0 0
-13.014509 5.388598 1.880297 14.210909 -0.392556 1.438094 -0.002596 0.000916 285623.000000 1 0 0
2.074091 7.442798 3.690797 8.562656 1.299021 1.125158 -0.005392 0.004979 -23769.000000 1 0 0
10.112591 -9.452002 -0.787903 13.864546 -0.751646 1.627656 0.001807 -0.001573 688356.000000 1 0 0
6.693491 -11.792202 -9.088703 16.323706 -1.054526 2.161300 -0.008793 0.003426 -84171.300000 1 0 0
10.288291 3.453498 11.908497 16.111731 0.323854 0.739034 0.011327 -0.003819 -1579790.000000 1 0 0
-11.050909 -3.122502 -1.852203 11.631993 0.275377 1.730711 -0.001134 0.000445 -1184330.000000 1 0 0
12.429591 1.038098 6.814297 14.212918 0.083325 1.070775 0.011299 -0.004224 621155.000000 1 0 0
-9.616109 9.061998 3.115297 13.575509 -0.755741 1.339254 -0.005202 -0.002783 332914.000000 1 0 0
-6.676709 7.674298 -8.782503 13.438960 -0.854800 2.283010 -0.002295 -0.001271 -1203920.000000 1 0 0
8.579791 5.473298 12.168497 15.863232 0.567843 0.696506 0.012032 -0.005930 -2498870.000000 1 0 0
1.283891 4.853398 -2.655703 5.679490 1.312186 2.057365 0.000998 -0.000048 688680.000000 1 0 0
1.350291 0.456898 9.539497 9.645416 0.326277 0.148333 0.002148 0.001101 875722.000000 1 0 0
2.591691 12.773198 -3.976503 13.626593 1.370613 1.866925 0.010388 -0.000731 375848.000000 1 0 0
2.143291 0.517198 13.045297 13.230305 0.236784 0.167430 -0.000140 -0.003740 -158669.000000 1 0 0
-12.305609 -1.734902 0.850097 12.456346 0.140062 1.502497 -0.001349 -0.001996 -253156.000000 1 0 0
3.269291 8.810998 -1.278403 9.484528 1.215496 1.705996 0.004024 0.000681 358940.000000 1 0 0
3.653291 -2.889502 -5.850403 7.478166 -0.669187 2.469196 -0.001823 0.000512 -1605520.000000 1 0 0
-7.677109 -7.196502 9.252697 14.012139 0.753097 0.849532 0.006777 -0.007730 -337206.000000 1 0 0
-7.084109 10.950798 -3.746803 13.569934 -0.996601 1.850541 0.000778 0.003157 740622.000000 1 0 0
0.306791 0.481798 2.522297 2.586162 1.003783 0.222698 0.000663 0.000428 -2962010.000000 1 0 0
-7.122909 4.469298 -2.073103 8.660728 -0.560362 1.812511 0.005351 -0.005835 -917396.000000 1 0 0
-6.937609 -3.863102 -5.874303 9.877318 0.508075 2.207722 0.008481 -0.003460 101501.000000 1 0 0
2.981091 -6.167602 13.558897 15.191113 -1.120560 0.467818 -0.009302 -0.000805 -1698600.000000 1 0 0
-5.545009 -0.534202 -11.757403 13.010343 0.096043 2.699122 0.008590 -0.004673 -1326090.000000 1 0 0
11.831091 2.419698 -0.638003 12.092837 0.201738 1.623580 0.004344 -0.000184 -1866530.000000 1 0 0
6.110891 -10.953302 10.795197 16.548538 -1.061905 0.860135 -0.007248 -0.001584 86572.400000 1 0 0
-8.203009 6.503598 -10.414703 14.766590 -0.670354 2.353626 -0.003523 -0.002285 271425.000000 1 0 0
2.990091 7.905198 11.310997 14.119896 1.209185 0.641719 0.002342 0.003006 820981.000000 1 0 0
-6.255209 -10.177702 -0.411503 11.953351 1.019711 1.605229 0.011861 -0.003146 -585280.000000 1 0 0
11.207191 4.250098 6.104597 13.451044 0.362474 1.099728 0.004774 -0.003530 491039.000000 1 0 0
-7.833909 10.599498 1.538397 13.269746 -0.934319 1.454602 -0.005237 0.000577 453870.000000 1 0 0
4.213891 -2.792502 -3.513703 6.156383 -0.585244 2.178205 -0.000769 -0.000449 -4870590.000000 1 0 0
6.339791 6.539898 6.494497 11.186676 0.800934 0.951384 -0.004822 0.002296 -5817640.000000 1 0 0
-0.405509 10.474198 -10.178003 14.610442 -1.532101 2.341479 0.000516 0.003865 -89930.200000 1 0 0
14.037991 6.497298 -2.489003 15.667649 0.433478 1.730335 0.003704 0.002046 680214.000000 1 0 0
1.500191 9.594798 -6.125303 11.481727 1.415697 2.133509 0.003621 0.000194 1382490.000000 1 0 0
0.678991 7.315598 7.293597 10.352563 1.478247 0.789048 -0.005063 0.006743 265946.000000 1 0 0
12.171491 6.211198 1.967697 13.805651 0.471859 1.427781 -0.000470 -0.002778 -1065440.000000 1 0 0
-6.733409 6.756598 -3.045203 10.013175 -0.787117 1.879810 -0.000966 -0.002531 115327.000000 1 0 0
1.057491 9.832198 11.130397 14.888793 1.463654 0.726402 0.003685 0.002422 -851108.000000 1 0 0
-3.658409 13.596598 -10.882203 17.795330 -1.307953 2.228777 -0.005087 -0.000552 -362725.000000 1 0 0
-10.113809 -5.536602 -2.202903 11.738649 0.500868 1.759578 0.004392 -0.001297 -522861.000000 1 0 0
-4.075809 3.922298 -12.383303 13.614067 -0.766207 2.713107 -0.001620 -0.007616 -165731.000000 1 0 0
-3.172609 8.466898 2.436697 9.364364 -1.212282 1.307557 0.002605 0.002775 -2894840.000000 1 0 0
7.114391 8.974698 7.096297 13.472832 0.900512 1.016069 -0.000810 0.003972 -1110610.000000 1 0 0
-1.309409 -2.325802 -8.194503 8.618224 1.058033 2.826715 0.004890 -0.005986 -2289670.000000 1 0 0
0.811791 -1.256902 4.821097 5.047949 -0.997332 0.300932 0.002607 -0.000452 750852.000000 1 0 0
2.719591 -8.866002 -6.168403 11.137835 -1.273164 2.157747 -0.010101 -0.000070 115226.000000 1 0 0
5.347591 3.882498 8.863597 11.055943 0.627981 0.640655 -0.005383 0.002776 43289.600000 1 0 0
6.236091 -7.488802 -2.842603 10.151422 -0.876419 1.854611 -0.003532 -0.003360 917860.000000 1 0 0
1.885891 2.299598 -8.194103 8.717113 0.883921 2.793432 0.002855 -0.002975 159044.000000 1 0 0
-5.333909 10.970798 -0.571603 12.212114 -1.118256 1.617620 -0.001925 0.002959 631312.000000 1 0 0
-5.391609 3.299598 -3.417703 7.185923 -0.549187 2.066455 0.002353 -0.004043 -121264.000000 1 0 0
2.023091 13.778098 -6.451603 15.347706 1.425004 2.004641 0.004267 -0.000214 888255.000000 1 0 0
-5.416609 -2.436302 2.543397 6.460966 0.422674 1.166191 -0.002734 -0.003613 484565.000000 1 0 0
10.396291 -3.312702 -2.022103 11.097106 -0.308471 1.754039 0.002683 -0.000697 -14099.400000 1 0 0
2.423391 -3.465002 7.065197 8.233837 -0.960479 0.539300 -0.004273 -0.000816 -2816440.000000 1 0 0
-2.865709 9.939798 -11.655903 15.584349 -1.290102 2.415725 -0.003182 0.004466 -2675890.000000 1 0 0
0.654091 -2.091102 9.215597 9.472475 -1.267641 0.233417 0.002336 -0.001576 1245400.000000 1 0 0
9.362891 2.642198 4.991697 10.934440 0.275047 1.096726 0.000534 -0.002535 -119744.000000 1 0 0
13.464991 2.048098 -5.073103 14.533997 0.150948 1.927354 0.007999 -0.001131 -989898.000000 1 0 0
-6.498909 3.730098 7.648197 10.707211 -0.521051 0.775168 0.002960 -0.000118 -195050.000000 1 0 0
10.667391 0.047098 1.728597 10.806641 0.004415 1.410149 0.003598 -0.002629 1467130.000000 1 0 0
15.436091 6.703198 -4.640303 17.456752 0.409683 1.839848 0.011260 0.002679 -379138.000000 1 0 0
8.042091 -4.910102 -9.308903 13.245377 -0.548141 2.350128 -0.004890 0.002035 -252718.000000 1 0 0
4.476591 5.635498 -2.214103 7.530004 0.899506 1.869245 -0.000214 0.000500 -85169.600000 1 0 0
-1.690909 -10.512202 1.486797 10.750634 1.411310 1.432053 0.003216 -0.004296 -979886.000000 1 0 0
-2.881309 12.280798 -12.924703 18.060119 -1.340345 2.368349 -0.005027 0.003528 -89058.700000 1 0 0
8.359091 4.233698 -9.644103 13.446461 0.468817 2.370604 -0.003970 0.001296 -2340800.000000 1 0 0
4.177391 7.697798 -8.924103 12.503852 1.073595 2.365575 0.000382 0.000637 -2335510.000000 1 0 0
-1.722709 -5.000102 -2.447803 5.827562 1.238999 2.004284 0.005709 -0.000506 -269487.000000 1 0 0
-3.267209 -9.072702 6.966597 11.896304 1.225140 0.945164 0.003556 -0.005008 -874619.000000 1 0 0
1.092491 7.273498 -1.413003 7.489585 1.421709 1.760596 0.001886 -0.001912 1040640.000000 1 0 0
0.403691 -0.672202 -2.202303 2.337725 -1.029972 2.799548 0.003911 -0.000980 -1568600.000000 1 0 0
4.192391 -6.680102 7.540597 10.911485 -1.010334 0.807828 -0.011648 0.002102 -1067060.000000 1 0 0
-13.905409 3.942098 6.019097 15.656630 -0.276246 1.176191 -0.005539 -0.000142 -2101340.000000 1 0 0
4.337791 6.176998 12.678097 14.754860 0.958563 0.536997 0.002299 -0.000366 -1048460.000000 1 0 0
8.296491 10.182798 -7.203103 14.980181 0.887123 2.072411 0.013032 -0.003230 293159.000000 1 0 0
12.525591 5.275698 9.541697 16.606246 0.398642 0.958700 0.020469 -0.003894 422242.000000 1 0 0
7.589691 3.956898 0.296097 8.564352 0.480583 1.536216 0.001486 0.004172 -1873870.000000 1 0 0
-10.907709 -7.603902 -0.988703 13.333228 0.608786 1.645018 0.006271 -0.000775 -1574280.000000 1 0 0
10.417291 6.710498 0.195297 12.393098 0.572265 1.555037 0.003071 0.002239 -513336.000000 1 0 0
14.590491 3.456698 4.198897 15.571189 0.232625 1.297758 0.012742 -0.005495 628747.000000 1 0 0
2.176791 5.552698 8.310297 10.228974 1.197185 0.622493 -0.008465 0.005113 76083.900000 1 0 0
4.311791 0.099598 11.778697 12.543491 0.023095 0.351002 -0.002938 -0.001290 -2169810.000000 1 0 0
-1.519409 -1.491202 -0.510103 2.189176 0.776029 1.805969 0.005990 -0.004146 -1168890.000000 1 0 0
3.077491 -5.142802 -9.532603 11.260101 -1.031549 2.580327 -0.007399 -0.000081 194628.000000 1 0 0
-3.965809 -5.286402 -1.263903 6.728383 0.927173 1.759765 0.008245 -0.003776 1123120.000000 1 0 0
-1.133209 -8.535402 8.573997 12.151159 1.438803 0.787511 -0.001576 -0.001766 -349733.000000 1 0 0
4.013591 8.623698 -5.977303 11.234110 1.135198 2.131837 0.004184 -0.000606 471306.000000 1 0 0
-14.293409 -1.688702 -2.752503 14.653652 0.117600 1.759756 -0.000100 0.000607 -670215.000000 1 0 0
8.725391 -10.607702 -6.502603 15.196698 -0.882454 2.012960 -0.005909 -0.001222 431804.000000 1 0 0
14.712191 5.946198 1.584297 15.947283 0.384094 1.471286 -0.007576 -0.002718 10739.600000 1 0 0
-5.777909 0.416098 -8.599603 10.368729 -0.071891 2.548791 0.008540 -0.007864 -765573.000000 1 0 0
-7.916909 -4.579602 -12.997403 15.892850 0.524429 2.528399 0.008305 -0.000246 761183.000000 1 0 0
0.863291 -10.643202 12.008597 16.069518 -1.489862 0.726821 -0.007627 -0.001429 -795723.000000 1 0 0
0.324191 11.778398 3.385497 12.259582 1.543279 1.291009 0.003533 0.003102 214022.000000 1 0 0
5.102491 -13.241702 -3.644003 14.651172 -1.202996 1.822152 -0.005088 -0.000036 255341.000000 1 0 0
-7.512809 1.571498 -7.070503 10.435704 -0.206203 2.315196 -0.000238 -0.000805 394970.000000 1 0 0
1.511991 2.779598 4.013297 5.110659 1.072602 0.667648 -0.002064 0.001293 -1962560.000000 1 0 0
17.187491 5.418898 2.134797 18.147498 0.305417 1.452887 -0.004537 -0.006027 -1276670.000000 1 0 0
2.439591 -8.274002 -3.620903 9.355301 -1.284071 1.968219 -0.006649 -0.000210 529659.000000 1 0 0
-0.360809 -9.355002 -0.528703 9.376874 1.532247 1.627210 0.005653 -0.001858 -355275.000000 1 0 0
0.804491 12.016498 -5.707503 13.327379 1.503947 2.013356 0.007944 0.002054 270904.000000 1 0 0
6.109991 -5.043902 7.795797 11.115187 -0.690108 0.793486 -0.008487 0.001677 -951383.000000 1 0 0
-5.970909 -1.940502 -9.497703 11.385239 0.314225 2.557499 0.011654 -0.006165 -379956.000000 1 0 0
2.216191 -1.315802 11.214797 11.507151 -0.535791 0.225896 -0.005039 -0.000930 -512697.000000 1 0 0
17.964691 2.258898 -5.885103 19.038571 0.125085 1.885058 0.010250 0.002887 -1417220.000000 1 0 0
-8.887409 4.865098 7.810397 12.792870 -0.500856 0.914070 0.001347 -0.002860 450062.000000 1 0 0
11.275591 -7.127802 -4.966703 14.234207 -0.563720 1.927222 0.010738 -0.002664 -381815.000000 1 0 0
10.862191 0.439598 8.868197 14.029446 0.040448 0.886519 0.005113 -0.003441 -111545.000000 1 0 0
-8.487309 -7.334602 -1.439803 11.309458 0.712672 1.698452 0.009498 -0.005355 -1685740.000000 1 0 0
10.196491 -10.551402 -3.290803 15.037616 -0.802502 1.791420 0.007411 -0.000587 1133260.000000 1 0 0
7.640091 -13.890502 -3.687003 16.276088 -1.067936 1.799309 0.004512 -0.001161 -274258.000000 1 0 0
1.608491 -1.144302 -11.625603 11.792002 -0.618345 2.973399 0.004226 -0.004188 -227860.000000 1 0 0
-11.873309 -2.597202 -6.595703 13.828384 0.215351 2.067999 0.002292 0.000587 -89866.300000 1 0 0
2.759691 -12.142202 -6.331903 13.969322 -1.347312 2.041229 -0.007208 0.002357 455546.000000 1 0 0
-5.593309 1.519598 1.122897 5.903828 -0.265278 1.379432 0.002560 -0.004238 303034.000000 1 0 0
0.180191 6.853998 -4.002803 7.939281 1.544512 2.099225 0.005021 -0.002137 917524.000000 1 0 0
5.323091 -11.803902 3.567497 13.431100 -1.147144 1.301955 -0.008786 -0.005348 -2089280.000000 1 0 0
-4.421409 -9.222802 1.077997 10.284503 1.123764 1.465786 0.009970 -0.002402 -1105040.000000 1 0 0
7.106691 -6.187002 -4.730403 10.543280 -0.716326 2.036068 -0.002589 -0.002480 -175509.000000 1 0 0
-6.964609 -6.008902 2.199697 9.457872 0.711865 1.336068 0.006637 -0.003032 -164338.000000 1 0 0
-6.371709 -0.803202 7.005097 9.503431 0.125396 0.742009 0.004379 -0.002375 -1804560.000000 1 0 0
4.108191 -4.969802 3.167297 7.183866 -0.880027 1.114206 -0.004744 0.000186 -492742.000000 1 0 0
-2.567209 10.680598 -8.808703 14.080447 -1.334909 2.246694 -0.001062 0.001542 -2575220.000000 1 0 0
-2.194609 -4.993902 2.813397 6.137635 1.156744 1.094620 0.001660 -0.002163 1171800.000000 1 0 0
15.163691 4.942098 6.309197 17.151322 0.315061 1.194095 0.019002 -0.011880 -253896.000000 1 0 0
6.806291 0.261398 0.118597 6.812341 0.038387 1.553386 0.003879 0.000728 3976510.000000 1 0 0
-9.642009 9.235798 0.446697 13.359186 -0.763884 1.537353 -0.004093 0.000225 -2173920.000000 1 0 0
7.251591 10.477098 -2.555903 12.995684 0.965367 1.768760 -0.001150 0.002222 -151222.000000 1 0 0
1.687891 -4.344102 -5.343703 7.090512 -1.200201 2.424381 -0.001916 -0.000565 -187556.000000 1 0 0
0.885991 -8.252302 -7.897503 11.456702 -1.463843 2.331367 -0.007186 0.001040 345850.000000 1 0 0
-10.398509 0.226398 -10.593803 14.846175 -0.021769 2.365379 -0.002005 -0.003603 -2931420.000000 1 0 0
5.779891 -2.431402 0.498597 6.290267 -0.398194 1.491448 0.002865 -0.000700 48168.200000 1 0 0
-3.391709 5.380298 -1.087603 6.452455 -1.008327 1.740161 0.002871 -0.005631 787034.000000 1 0 0
-0.362809 4.572398 -5.066303 6.834170 -1.491615 2.405830 0.004877 -0.002986 -804582.000000 1 0 0
3.985291 -9.865502 10.073397 14.652099 -1.186879 0.812748 -0.014348 0.003120 -2197430.000000 1 0 0
7.265491 -13.520802 -0.808003 15.370501 -1.077712 1.623389 0.005127 -0.001344 603465.000000 1 0 0
13.104591 -0.061602 0.480097 13.113527 -0.004701 1.534177 0.010040 -0.005913 272216.000000 1 0 0
9.244691 2.392498 -0.725203 9.576757 0.253241 1.646594 0.003732 0.001259 140875.000000 1 0 0
-0.726209 -5.729702 4.634097 7.404844 1.444724 0.894614 -0.001113 -0.000299 -398784.000000 1 0 0
11.375991 -3.711502 3.355097 12.427594 -0.315369 1.297433 0.011505 -0.004248 -1987150.000000 1 0 0
1.761991 -8.210702 11.774897 14.462657 -1.359405 0.619518 -0.011603 0.001542 362087.000000 1 0 0
9.400891 -5.936002 -6.094203 12.678808 -0.563210 2.072204 -0.003866 -0.002461 -715818.000000 1 0 0
3.254891 6.389198 -0.147903 7.172032 1.099628 1.591420 -0.002028 0.001805 -1255060.000000 1 0 0
6.398591 -1.418702 11.447197 13.190641 -0.218191 0.519984 -0.008018 0.000099 352248.000000 1 0 0
-4.874409 -7.554302 -3.845303 9.778225 0.997768 1.974962 0.013516 -0.004201 421559.000000 1 0 0
-3.450909 -8.488502 -5.799503 10.844246 1.184665 2.135067 0.010781 -0.002160 -228571.000000 1 0 0
9.643691 5.325398 2.183697 11.230725 0.504543 1.375110 0.002758 -0.000922 -486768.000000 1 0 0
8.878191 -1.470302 0.232597 9.002120 -0.164119 1.544955 0.005028 0.000274 1908140.000000 1 0 0
-3.839209 9.673498 9.265897 13.934595 -1.192983 0.843361 -0.000097 0.002201 1066.280000 1 0 0
-14.332609 -3.550102 -6.155303 15.997333 0.242807 1.965756 -0.000886 0.000555 -229308.000000 1 0 0
10.664391 6.310998 -5.927103 13.736393 0.534355 2.016939 -0.000692 -0.001950 -165334.000000 1 0 0
-1.788809 4.558998 2.679897 5.582665 -1.196886 1.070097 0.002159 -0.001312 392328.000000 1 0 0
6.878891 -3.781002 2.648897 8.284430 -0.502577 1.245337 0.001096 -0.001537 -2075090.000000 1 0 0
8.242191 -11.047702 -1.518803 13.866946 -0.929825 1.680543 0.004905 -0.002676 -3067350.000000 1 0 0
4.557391 0.478998 1.805997 4.925533 0.104719 1.195380 0.000176 0.003209 -19684.500000 1 0 0
-10.850209 2.354498 3.751597 11.719436 -0.213687 1.244943 -0.001860 -0.004327 -175413.000000 1 0 0
-0.819009 -3.050802 4.398397 5.415170 1.308523 0.622821 0.002536 -0.001222 427820.000000 1 0 0
8.536391 -8.814002 -8.542403 14.950895 -0.801397 2.178963 -0.000023 0.000519 -97114.400000 1 0 0
12.033791 -4.761202 0.951997 12.976420 -0.376753 1.497367 0.006434 -0.001705 373222.000000 1 0 0
2.978891 4.827798 3.587197 6.711886 1.017950 1.006934 -0.008537 0.003533 -50267.700000 1 0 0
6.153691 7.359898 2.027597 9.805466 0.874421 1.362511 -0.004490 0.002213 -19960.900000 1 0 0
-1.529109 -1.323902 -10.441603 10.635693 0.713595 2.950257 0.007710 -0.006861 -576621.000000 1 0 0
-0.981909 -8.609602 5.979097 10.528010 1.457239 0.966816 -0.004990 -0.003912 592159.000000 1 0 0
-4.272609 -0.176102 2.208097 4.812680 0.041193 1.094143 0.003428 -0.002579 115771.000000 1 0 0
-8.466809 6.305798 -7.917603 13.196150 -0.640143 2.214289 -0.006427 -0.000306 -602290.000000 1 0 0
6.559091 11.183798 -9.293403 15.952002 1.040376 2.192702 0.012494 -0.006473 170383.000000 1 0 0
-11.274409 -5.716502 3.111597 13.018169 0.469258 1.329440 0.007406 -0.001110 1396850.000000 1 0 0
1.533791 -6.302702 3.039197 7.163329 -1.332082 1.132639 -0.002855 -0.001741 318579.000000 1 0 0
10.079191 2.114198 7.214797 12.574308 0.206761 0.959691 0.005058 -0.000531 -2117110.000000 1 0 0
-3.985609 -2.465702 -10.632603 11.619682 0.554021 2.726431 0.006872 -0.005310 -2875060.000000 1 0 0
-8.262609 11.861198 5.912397 15.617784 -0.962350 1.182547 0.003560 -0.001321 -66414.300000 1 0 0
6.901691 5.956398 -3.028203 9.606354 0.712013 1.891494 0.001615 0.002932 -2095430.000000 1 0 0
3.907491 -9.882202 -2.390203 10.892175 -1.194256 1.792039 -0.007999 -0.005220 -1521320.000000 1 0 0
8.338091 -13.010302 -7.322903 17.100194 -1.000856 2.013335 0.005152 0.001717 -527076.000000 1 0 0
-1.110409 9.494298 3.682597 10.243838 -1.454370 1.203071 0.001025 0.003470 142496.000000 1 0 0
0.432491 -13.108502 4.669497 13.922071 -1.537815 1.228764 0.000564 -0.005562 -1411760.000000 1 0 0
-11.243309 -7.045802 -5.094803 14.213104 0.559797 1.937412 0.007062 -0.005396 -384467.000000 1 0 0
3.666491 10.414698 -3.401503 11.553325 1.232297 1.869642 0.008634 -0.001721 142907.000000 1 0 0
11.691391 -8.157602 -7.415903 16.069558 -0.609210 2.050468 0.020921 -0.000026 230534.000000 1 0 0
11.650591 -4.752502 -6.013603 13.945823 -0.387315 2.016632 0.006967 -0.002483 -1180890.000000 1 0 0
1.278491 -10.335902 -2.529203 10.717382 -1.447727 1.809034 -0.004735 -0.001568 -601452.000000 1 0 0
2.378391 -12.016702 -3.788703 12.822330 -1.375398 1.870751 -0.003232 -0.000397 -1647770.000000 1 0 0
-7.661809 -5.597802 7.222097 11.924655 0.630976 0.920221 0.007427 -0.002403 -3629860.000000 1 0 0
-7.248409 -0.890402 9.457797 11.949150 0.122229 0.657531 0.003508 -0.000740 -186894.000000 1 0 0
16.075791 2.659698 -7.583803 17.972733 0.163962 2.006404 0.012932 -0.001903 -125827.000000 1 0 0
-1.989809 6.410698 -5.425803 8.631091 -1.269836 2.250593 0.004101 -0.001150 -893536.000000 1 0 0
7.625091 1.191598 8.429497 11.428838 0.155019 0.741341 -0.004308 -0.000945 -694346.000000 1 0 0
7.941391 8.292398 -3.802703 12.095045 0.807017 1.890623 0.001599 0.001561 363744.000000 1 0 0
8.039191 0.549898 3.977297 8.986093 0.068296 1.112294 0.000193 -0.000572 418163.000000 1 0 0
-7.055509 5.879498 5.394197 10.651106 -0.694731 1.039740 0.003118 -0.004376 355487.000000 1 0 0
-6.089909 -2.051202 -4.522603 7.858012 0.324885 2.184061 0.009117 -0.003776 -1170180.000000 1 0 0
-15.152709 -2.061402 3.038297 15.591190 0.135212 1.374669 0.006988 -0.004407 -1211670.000000 1 0 0
1.066291 1.287498 -10.403403 10.536860 0.879102 2.982265 0.004583 -0.004669 653231.000000 1 0 0
1.503891 -9.293602 9.421197 13.318847 -1.410367 0.785042 -0.009970 -0.002647 -429169.000000 1 0 0
-0.215509 -6.774002 -1.233403 6.888746 1.538993 1.750813 0.001456 0.000232 546190.000000 1 0 0
-0.446709 -10.303202 -8.343903 13.265603 1.527467 2.251047 -0.002324 0.000847 -130484.000000 1 0 0
-4.272409 6.528698 3.756997 8.659816 -0.991331 1.122043 0.005547 0.000573 -310925.000000 1 0 0
10.885991 -1.182802 -8.704703 13.988412 -0.108229 2.242448 0.006836 -0.000183 583019.000000 1 0 0
2.994491 -1.125102 6.277297 7.045374 -0.359405 0.471294 -0.003348 0.001957 265795.000000 1 0 0
1.863391 -12.316902 6.724297 14.156075 -1.420648 1.075819 -0.006228 -0.005131 -659929.000000 1 0 0
2.886391 -4.988602 -1.286803 5.905359 -1.046263 1.790463 0.003066 -0.000095 -1988450.000000 1 0 0
-0.910509 9.515898 -1.605703 9.693277 -1.475404 1.737215 0.005751 -0.001647 584146.000000 1 0 0
4.547291 -2.459602 2.648397 5.808744 -0.495825 1.097376 -0.000039 0.001076 -2261620.000000 1 0 0
17.858791 6.792398 -2.651103 19.289931 0.363443 1.708667 0.002489 0.008296 788886.000000 1 0 0
-7.097409 3.522098 -5.509703 9.650659 -0.460644 2.178416 0.000062 -0.003103 -679710.000000 1 0 0
-13.920309 -6.048502 2.221197 15.339266 0.409897 1.425481 0.000008 0.000304 316151.000000 1 0 0
6.651291 -6.172902 3.324697 9.664264 -0.748112 1.219602 -0.003186 -0.001704 468669.000000 1 0 0
-4.736409 2.085798 3.457397 6.223963 -0.414821 0.981835 0.004510 -0.004019 507655.000000 1 0 0
6.828391 -12.124102 -5.398403 14.925265 -1.057869 1.940882 -0.002640 0.002681 -346532.000000 1 0 0
2.713991 -12.244102 3.245697 12.954471 -1.352666 1.317552 -0.001413 -0.005768 -233404.000000 1 0 0
3.316591 11.362798 -6.044203 13.290799 1.286804 2.042906 0.005643 0.001338 -1028370.000000 1 0 0
-5.570109 -8.350902 6.347997 11.876900 0.982558 1.006901 0.009893 -0.002904 -860021.000000 1 0 0
-3.984109 6.487098 6.358797 9.919167 -1.020031 0.874916 0.005074 0.000795 307384.000000 1 0 0
4.327791 4.418398 -6.957203 9.308850 0.795757 2.414899 0.000638 0.001546 -2408260.000000 1 0 0
-0.444009 -2.725602 1.612097 3.197641 1.409312 1.042397 0.003930 -0.000493 -130915.000000 1 0 0
-13.287909 -0.820702 6.401397 14.772270 0.061685 1.122602 -0.000435 -0.004323 -403446.000000 1 0 0
-0.512709 -9.201902 -5.914803 10.950925 1.515136 2.141375 -0.000202 0.000514 221345.000000 1 0 0
2.050791 -1.684302 -3.911703 4.726948 -0.687591 2.545494 0.002850 0.001469 -455031.000000 1 0 0
11.387691 -2.021202 1.063297 11.614446 -0.175661 1.479118 0.006407 -0.003083 1007480.000000 1 0 0
0.533791 -4.234902 -2.006603 4.716543 -1.445412 2.010244 0.002626 0.000217 -1701340.000000 1 0 0
1.152791 -7.382402 -11.297903 13.545161 -1.415893 2.557280 -0.007286 0.002013 -1692500.000000 1 0 0
-4.511509 4.138398 -9.951803 11.684110 -0.742290 2.590090 0.000793 -0.003747 72820.900000 1 0 0
-1.061309 5.758798 -2.160903 6.241765 -1.388548 1.924315 0.003903 -0.003312 151077.000000 1 0 0
-11.364509 1.765698 -3.929803 12.153728 -0.154137 1.900055 -0.002024 0.001062 -153489.000000 1 0 0
-1.790109 -11.244002 4.149897 12.118321 1.412916 1.221275 0.006026 -0.005628 132591.000000 1 0 0
-3.495809 -5.360102 -9.602503 11.539473 0.992883 2.553759 0.004186 0.000700 -1573950.000000 1 0 0
-12.903109 -3.795702 -8.447603 15.882681 0.286099 2.131610 0.005176 0.002715 -105084.000000 1 0 0
11.336091 4.405598 0.547097 12.174382 0.370670 1.525843 0.004163 -0.000057 109297.000000 1 0 0
-8.900709 -2.383802 -3.093303 9.719756 0.261680 1.894678 0.003584 -0.001309 76306.200000 1 0 0
-2.378309 -6.062702 -6.397903 9.129396 1.196958 2.347318 0.003839 -0.002068 -382000.000000 1 0 0
-0.163609 2.780798 -1.819603 3.327245 -1.512029 2.149429 0.001698 -0.003687 -1514970.000000 1 0 0
8.035691 6.054698 -5.232403 11.340623 0.645722 2.050353 0.000707 0.000231 -719690.000000 1 0 0
-9.800309 -0.950102 -0.987203 9.895621 0.096644 1.670724 -0.000641 -0.001708 -349349.000000 1 0 0
6.301491 0.497598 -8.855403 10.880007 0.078802 2.521656 -0.001807 0.000486 396889.000000 1 0 0
-4.142409 2.429398 7.980597 9.314046 -0.530411 0.541698 0.003306 0.003489 -242451.000000 1 0 0
-10.224709 -3.288802 1.412397 10.833086 0.311201 1.440046 0.002882 -0.003495 1315520.000000 1 0 0
-1.833909 -8.144502 -7.891803 11.488111 1.349319 2.328085 0.003220 -0.003440 15709.900000 1 0 0
-9.487409 -9.803802 4.187797 14.271058 0.801798 1.272966 0.003181 -0.004628 8665.530000 1 0 0
-1.118009 -10.688602 7.324997 13.005835 1.466577 0.972533 -0.001057 -0.005478 -51155.200000 1 0 0
9.520091 3.804298 -3.730703 10.909765 0.380168 1.919798 -0.000603 0.001461 -591394.000000 1 0 0
12.822191 -0.807602 3.039197 13.202179 -0.062902 1.338509 0.012308 -0.004187 1244.520000 1 0 0
6.552391 12.081998 -6.818303 15.342678 1.073863 2.031302 0.011122 -0.000180 -3087.650000 1 0 0
-11.752109 -0.021202 -6.620203 13.488499 0.001804 2.083808 -0.001082 0.002413 789918.000000 1 0 0
-7.484309 -6.588102 -11.536403 15.248166 0.721799 2.428858 0.014097 -0.002175 -284262.000000 1 0 0
4.052691 6.111398 6.640797 9.893113 0.985242 0.834896 -0.007576 0.004985 -3248260.000000 1 0 0
-4.231509 -1.317202 -7.477603 8.692251 0.301777 2.606577 0.007370 -0.008737 -1545650.000000 1 0 0
9.634891 9.197498 0.915497 13.351526 0.762177 1.502174 0.001793 0.002693 -1579550.000000 1 0 0
-8.964009 4.020398 4.921497 10.988093 -0.421610 1.106388 0.000711 -0.006540 -354431.000000 1 0 0
-6.953709 7.877898 -12.154103 16.066660 -0.847630 2.428710 -0.005692 -0.001844 -1057920.000000 1 0 0
11.064191 -3.735602 7.165897 13.701136 -0.325612 1.020412 0.009293 -0.003293 -385291.000000 1 0 0
11.868591 6.817698 6.377897 15.100399 0.521407 1.134742 0.008924 -0.005558 294882.000000 1 0 0
-9.950409 -0.738602 -14.816103 17.862617 0.074092 2.548914 0.002312 0.003447 552550.000000 1 0 0
1.681691 -13.097502 12.099797 17.910269 -1.443097 0.829047 -0.004189 0.000691 361039.000000 1 0 0
2.977291 2.943398 13.064997 13.719403 0.779674 0.310108 -0.000972 -0.002048 -305536.000000 1 0 0
-2.500609 -1.520402 11.001597 11.384191 0.546290 0.259990 0.007174 -0.000451 -746716.000000 1 0 0
2.569691 -10.112902 -8.315803 13.342664 -1.321962 2.243687 -0.014588 0.003432 -1372760.000000 1 0 0
13.819691 3.629898 -7.497403 16.136018 0.256859 2.054022 0.008261 -0.002318 -3809400.000000 1 0 0
7.322191 -1.585202 4.980697 8.996371 -0.213203 0.984075 -0.002741 0.000654 289626.000000 1 0 0
-1.254709 8.763498 10.235397 13.532795 -1.428588 0.713096 0.004428 0.002294 -330465.000000 1 0 0
-12.309509 -4.632702 0.938997 13.185888 0.359955 1.499524 0.002764 0.000104 206539.000000 1 0 0
-4.872609 4.937598 -5.263603 8.707911 -0.792023 2.219887 0.005446 -0.004277 -155327.000000 1 0 0
-11.231409 0.395498 1.964797 11.408830 -0.035199 1.397716 -0.003544 -0.001945 -1982460.000000 1 0 0
-1.374809 2.294198 -4.091803 4.888384 -1.030925 2.562658 0.003694 -0.004714 801735.000000 1 0 0
3.116591 -9.851302 13.140197 16.716042 -1.264396 0.666350 -0.010822 0.002015 -1890110.000000 1 0 0
8.969091 4.660398 -1.480503 10.215468 0.479210 1.716236 0.001698 0.000458 -970871.000000 1 0 0
4.020591 2.229398 3.736497 5.924254 0.506288 0.888326 -0.006746 0.004823 1155280.000000 1 0 0
-5.534109 -3.279302 7.401297 9.806089 0.534932 0.715500 0.006239 -0.004920 -125854.000000 1 0 0
1.801391 -5.886102 7.745697 9.893787 -1.273806 0.671507 -0.008508 -0.000608 -868123.000000 1 0 0
-5.897109 -6.053502 -9.714003 12.875660 0.798484 2.425607 0.009686 -0.002586 -712663.000000 1 0 0
-11.686509 -5.733102 5.435797 14.106411 0.456079 1.175218 0.002639 -0.003209 -875830.000000 1 0 0
10.484091 6.148598 4.456597 12.945373 0.530411 1.219344 0.002712 -0.000679 -1602550.000000 1 0 0
1.368391 -3.728402 0.415397 3.993248 -1.219042 1.466583 0.009045 -0.000120 -337256.000000 1 0 0
8.707491 4.256398 7.008597 11.960676 0.454664 0.944720 -0.000130 0.002494 147915.000000 1 0 0
-7.828309 12.110598 3.533297 14.846993 -0.996955 1.330510 -0.004664 -0.000187 -29776.500000 1 0 0
-6.047809 13.184498 -6.946703 16.083024 -1.140726 2.017425 0.005963 -0.005438 248503.000000 1 0 0
4.461191 -6.934902 -1.099403 8.318881 -0.999149 1.703342 -0.000583 -0.004961 -1728060.000000 1 0 0
-1.862409 -8.154902 11.050497 13.859455 1.346268 0.647945 -0.001908 -0.008369 -516094.000000 1 0 0
11.591991 8.858598 -5.723303 15.671797 0.652527 1.944641 0.007595 0.000220 635313.000000 1 0 0
-3.396309 -2.866902 -1.942903 4.850661 0.701072 1.982907 0.008369 -0.002095 -2455050.000000 1 0 0
-2.025709 5.946598 4.731997 7.864943 -1.242475 0.925222 0.001697 0.001941 145878.000000 1 0 0
0.425891 -11.337202 -5.549703 12.629835 -1.533248 2.025740 -0.002283 0.000365 -1277370.000000 1 0 0
-8.833209 6.286098 -1.590303 10.957631 -0.618498 1.716443 0.000677 -0.001630 -1352170.000000 1 0 0
2.897791 -0.024902 3.870797 4.835378 -0.008593 0.642641 -0.003028 0.002702 220248.000000 1 0 0
-10.072009 3.984798 -1.013503 10.878932 -0.376734 1.664094 -0.000460 -0.001705 -48130.000000 1 0 0
6.578991 5.467598 13.750997 16.194681 0.693401 0.556506 0.011873 -0.003527 -987573.000000 1 0 0
-8.806609 -1.631602 5.721897 10.628198 0.183193 1.002295 0.002117 -0.003552 -706268.000000 1 0 0
12.964291 -1.784602 -1.511803 13.173579 -0.136795 1.685810 0.010446 -0.004042 -1340740.000000 1 0 0
5.110191 -5.612102 5.380997 9.304024 -0.832174 0.954090 -0.007211 -0.000603 145924.000000 1 0 0
-9.064309 -1.116502 3.263397 9.698352 0.122558 1.227609 -0.000673 -0.002513 629458.000000 1 0 0
2.049491 5.420998 5.626597 8.077514 1.209341 0.800183 -0.005856 0.003931 -844508.000000 1 0 0
9.231591 3.074198 -7.455303 12.257835 0.321458 2.224596 -0.004385 0.000264 -1145300.000000 1 0 0
2.291891 -2.414502 -1.493703 3.648799 -0.811444 1.992558 0.002235 0.000564 -3217.810000 1 0 0
-6.342209 0.349298 -4.005803 7.509466 -0.055020 2.133451 -0.001163 -0.000775 -2805730.000000 1 0 0
-4.014809 4.185598 4.933997 7.614608 -0.806222 0.865887 0.006103 -0.001470 865424.000000 1 0 0
-6.414109 1.784198 -12.496803 14.159599 -0.271309 2.652092 -0.000299 -0.003460 -2394790.000000 1 0 0
-0.045609 3.201698 6.177297 6.957870 -1.556552 0.478222 -0.000832 0.002907 1361640.000000 1 0 0
-8.672309 9.512298 -2.104403 13.043054 -0.831558 1.732847 -0.003110 0.002988 11074.300000 1 0 0
-1.216809 -3.773902 -6.243703 7.396403 1.258893 2.575781 -0.000534 -0.001307 352330.000000 1 0 0
-3.361109 6.969498 -2.904603 8.264846 -1.121441 1.929906 0.003518 0.000628 473192.000000 1 0 0
6.969991 -0.389002 -4.230703 8.162778 -0.055753 2.115649 0.000829 0.000465 -64222.700000 1 0 0
-5.196409 -10.797202 6.866997 13.810789 1.122242 1.050405 0.003117 -0.007594 532245.000000 1 0 0
9.748191 8.386398 -1.472103 12.943183 0.710445 1.684779 0.002491 0.003208 -320678.000000 1 0 0
13.809791 4.614898 -4.435303 15.221023 0.322509 1.866479 0.005793 -0.004016 592878.000000 1 0 0
4.713691 1.040298 -6.942303 8.455571 0.217215 2.534015 -0.002711 0.000241 -1118740.000000 1 0 0
8.919091 -4.742602 3.572297 10.714652 -0.488713 1.230886 0.001289 -0.001574 -659703.000000 1 0 0
-8.782209 -3.306902 -0.776103 9.416216 0.360125 1.653312 0.001266 -0.002067 -375436.000000 1 0 0
-8.532109 -4.397402 -10.370103 14.130572 0.475887 2.394808 0.012354 -0.004688 181397.000000 1 0 0
10.466791 -1.213002 10.679197 15.002345 -0.115376 0.778689 0.001287 -0.001018 455239.000000 1 0 0
2.173091 -11.708602 9.894697 15.482852 -1.387287 0.877502 -0.010677 -0.004041 165497.000000 1 0 0
-6.418909 -10.515402 2.058497 12.490536 1.022744 1.405236 0.009639 -0.002827 -1177230.000000 1 0 0
-3.763809 -1.320802 6.662297 7.765113 0.337496 0.539476 0.006349 -0.002019 -847839.000000 1 0 0
4.628091 -7.547002 3.776097 9.624727 -1.020701 1.167630 -0.008759 -0.000998 -56759.300000 1 0 0
11.464691 -9.520802 -5.291503 15.814070 -0.693032 1.911985 0.013850 -0.000691 142424.000000 1 0 0
11.262091 1.082998 11.473397 16.113548 0.095868 0.778405 0.011144 -0.003130 62302.900000 1 0 0
-10.244309 -3.417302 4.337697 11.637845 0.321973 1.188854 0.003763 -0.002751 749318.000000 1 0 0
2.149891 8.699298 9.036797 12.726489 1.328517 0.781188 -0.002478 0.006534 137476.000000 1 0 0
6.627291 8.795998 4.112297 11.755916 0.925095 1.213432 -0.005001 0.004319 147667.000000 1 0 0
-4.287809 3.645798 0.431097 5.644732 -0.704651 1.494350 0.003667 -0.007396 -647436.000000 1 0 0
4.859691 7.108698 4.387297 9.664293 0.971144 1.099581 -0.005531 0.004710 -1124240.000000 1 0 0
-8.098509 13.181998 1.188297 15.516539 -1.019884 1.494139 -0.006707 0.000087 -842514.000000 1 0 0
8.810391 8.159198 -9.115303 15.075949 0.747043 2.220092 0.004758 -0.005669 -1207740.000000 1 0 0
7.060491 1.894998 6.109097 9.526942 0.262215 0.874678 -0.004506 0.001360 -967353.000000 1 0 0
11.467891 -6.152502 2.971097 13.348903 -0.492418 1.346344 0.008790 -0.000637 -455905.000000 1 0 0
11.476391 4.780098 -2.106503 12.609292 0.394663 1.738643 0.000028 0.000511 382604.000000 1 0 0
-3.965509 14.445198 -5.877403 16.091391 -1.302876 1.944699 0.002132 0.005485 674395.000000 1 0 0
7.206991 -3.040302 6.925397 10.447262 -0.399203 0.846123 -0.004724 -0.001225 -841879.000000 1 0 0
-8.039509 -0.447502 0.886197 8.100574 0.055605 1.461178 0.000386 -0.003353 244806.000000 1 0 0
-3.232309 1.016098 10.832697 11.350225 -0.304576 0.303140 0.003506 0.002642 -366482.000000 1 0 0
7.153791 -1.283702 -1.938503 7.522128 -0.177554 1.831444 0.004369 0.000735 -2556880.000000 1 0 0
-7.834409 5.357598 2.884597 9.919815 -0.599808 1.275742 0.002807 -0.003123 603656.000000 1 0 0
9.434091 -2.156002 2.726397 10.054037 -0.224675 1.296183 0.002733 -0.002821 -1462000.000000 1 0 0
0.249091 3.583198 1.529797 3.904054 1.501392 1.168157 -0.000031 -0.001341 -3636280.000000 1 0 0
-7.600609 -3.056802 4.003297 9.118096 0.382383 1.116256 0.002522 -0.003133 -321971.000000 1 0 0
-2.204009 8.510298 -6.759903 11.089595 -1.317383 2.226316 0.002156 -0.001062 -488178.000000 1 0 0
4.489091 9.784498 7.443797 13.088104 1.140652 0.965817 -0.004759 0.008140 -172750.000000 1 0 0
-11.798109 -2.976902 6.694797 13.888039 0.247161 1.067798 0.003940 -0.001857 -1195690.000000 1 0 0
-4.736509 2.397398 -5.601303 7.717294 -0.468558 2.383010 0.006106 -0.006103 -988078.000000 1 0 0
-2.884909 2.876598 -1.822403 4.463034 -0.783956 1.991423 0.001642 -0.005866 1167540.000000 1 0 0
2.469591 5.136798 11.494697 12.830185 1.122655 0.460320 -0.000981 -0.001653 576128.000000 1 0 0
-0.719909 1.742098 4.550797 4.925742 -1.178926 0.392696 0.004230 -0.000217 -65350.100000 1 0 0
5.054991 1.535598 7.624397 9.275906 0.294920 0.605957 -0.007137 0.002805 -454650.000000 1 0 0
3.215191 -8.276002 1.849497 9.069195 -1.200247 1.365424 -0.004421 -0.003395 718898.000000 1 0 0
5.092091 6.545498 -4.643603 9.504524 0.909644 2.081244 0.002514 -0.000885 -2860210.000000 1 0 0
-4.108209 2.750498 -7.969203 9.378210 -0.589970 2.586321 0.006546 -0.005467 -262561.000000 1 0 0
-8.704009 -2.126602 -12.954503 15.751233 0.239630 2.536490 0.006438 -0.000783 527036.000000 1 0 0
-7.828309 8.182498 1.255397 11.393495 -0.807516 1.460387 0.000245 -0.001859 -1322820.000000 1 0 0
7.339291 0.883798 -6.550403 9.876946 0.119843 2.295884 -0.001572 0.000544 -88661.600000 1 0 0
9.020491 8.810598 5.508197 13.759947 0.773628 1.158945 0.000526 0.002011 581200.000000 1 0 0
9.374691 -1.131602 -1.412703 9.547831 -0.120127 1.719302 0.004168 0.000449 1036700.000000 1 0 0
5.416791 0.104398 4.250397 6.886102 0.019271 0.905563 -0.004823 0.003572 -3873910.000000 1 0 0
-4.151509 -7.220502 -7.980203 11.534917 1.048991 2.334817 0.012733 -0.007809 -377331.000000 1 0 0
-2.082409 7.439498 -0.512803 7.742450 -1.297869 1.637077 0.005515 -0.002424 270179.000000 1 0 0
13.264891 -3.438002 -7.457003 15.600772 -0.253600 2.069161 0.008905 -0.000139 898686.000000 1 0 0
-4.775009 -5.054502 1.674897 7.152201 0.813825 1.334422 0.007162 -0.003727 1081910.000000 1 0 0
-8.924909 1.429498 2.460697 9.367630 -0.158821 1.304997 -0.001185 -0.004312 -1792410.000000 1 0 0
-0.981009 11.115098 10.154697 15.087268 -1.482765 0.832452 0.002313 0.000152 321594.000000 1 0 0
-8.615009 0.393798 7.420097 11.376788 -0.045679 0.860295 -0.000036 -0.002897 -267066.000000 1 0 0
-6.274509 12.750798 -1.977103 14.347866 -1.113499 1.709034 0.004512 0.002810 380608.000000 1 0 0
-13.003309 -0.771702 3.286897 13.434480 0.059277 1.323626 0.001844 -0.003402 437224.000000 1 0 0
-6.677809 12.787398 8.585597 16.787589 -1.089533 1.033954 0.010673 -0.007558 631264.000000 1 0 0
-8.044009 0.981198 -14.141503 16.298802 -0.121379 2.621233 0.003443 -0.000940 -248930.000000 1 0 0
7.152791 2.881298 3.846897 8.617593 0.382936 1.108058 -0.002027 0.003250 -451541.000000 1 0 0
-1.682309 0.736398 -2.052203 2.753903 -0.412604 2.411628 0.006246 -0.003391 279546.000000 1 0 0
-6.183209 9.675798 -10.327803 15.443984 -1.002165 2.303291 -0.005298 -0.001650 -76322.600000 1 0 0
-10.102509 13.706298 5.278997 17.826696 -0.935622 1.270159 -0.001154 -0.004889 710178.000000 1 0 0
-5.716509 8.097298 2.461197 10.212845 -0.956070 1.327410 0.000991 -0.000390 -818095.000000 1 0 0
-2.489909 -10.682902 -1.211303 11.035909 1.341810 1.680778 0.007534 -0.001544 433314.000000 1 0 0
-2.228709 -12.382202 8.830997 15.371161 1.392710 0.958782 0.001220 -0.006630 184483.000000 1 0 0
-14.753509 -6.429602 -1.827603 16.197097 0.410984 1.683872 0.012591 0.000641 339912.000000 1 0 0
-2.776309 -9.316902 3.248497 10.250136 1.281188 1.248314 0.002928 -0.004434 -2205250.000000 1 0 0
4.714791 -2.756402 7.549997 9.318233 -0.529040 0.626236 -0.005519 0.002246 -1664120.000000 1 0 0
-14.969009 -1.254002 -0.280703 15.024065 0.083578 1.589481 -0.001445 -0.002378 -265360.000000 1 0 0
5.542191 8.839298 -2.790103 10.799711 1.010764 1.832110 0.002094 0.002954 267829.000000 1 0 0
-5.570109 -5.702502 8.426897 11.599881 0.797142 0.757634 0.009277 -0.006026 -2872010.000000 1 0 0
3.538491 3.609198 7.101397 8.716483 0.795290 0.618569 -0.007081 0.003415 -238401.000000 1 0 0
3.290391 2.303598 9.385597 10.208951 0.610792 0.404372 -0.002881 0.000686 1161070.000000 1 0 0
9.858891 -3.071102 5.196597 11.560018 -0.301979 1.104555 0.008529 -0.001474 -1249500.000000 1 0 0
6.549991 10.066598 -5.044303 13.026272 0.993953 1.968433 0.005047 -0.000920 220625.000000 1 0 0
-4.472009 12.109498 -8.496103 15.453885 -1.217034 2.152887 -0.002791 -0.001018 -1665180.000000 1 0 0
-3.359109 -7.213402 2.124697 8.235965 1.134983 1.309868 0.006856 -0.004533 1213880.000000 1 0 0
-7.422009 -4.050802 1.137897 8.531707 0.499599 1.437025 0.006251 -0.003394 3409990.000000 1 0 0
-1.990909 -3.979602 -10.950203 11.819809 1.106926 2.755608 0.003943 -0.002735 -646879.000000 1 0 0
-5.226809 8.358998 -4.356503 10.778288 -1.011988 1.986892 0.002161 -0.001770 -2067960.000000 1 0 0
-10.942809 -3.257502 -10.225403 15.326945 0.289331 2.301175 0.008369 0.002872 383640.000000 1 0 0
4.610291 -11.442402 -7.799503 14.595054 -1.187781 2.134586 -0.011787 0.002662 -2866010.000000 1 0 0
-9.379209 -3.888802 7.338597 12.527863 0.393045 0.944952 0.003973 -0.002110 -812141.000000 1 0 0
-5.768009 -9.662202 -5.113703 12.360341 1.032610 1.997331 0.012578 -0.006763 836855.000000 1 0 0
4.889191 4.366298 -9.497903 11.540317 0.728963 2.537503 -0.001395 0.004303 63891.000000 1 0 0
-3.344809 -7.226202 -14.020203 16.123642 1.137289 2.625073 -0.004378 0.001274 -375580.000000 1 0 0
0.662791 -0.873102 -8.805503 8.873471 -0.921482 3.017742 0.003870 -0.006441 -95194.200000 1 0 0
-7.755809 2.154098 -2.919503 8.562488 -0.270912 1.918739 0.001764 -0.002666 105209.000000 1 0 0
-2.275509 7.551498 -12.494003 14.775086 -1.278118 2.578509 -0.003616 -0.001466 -559861.000000 1 0 0
-9.934709 8.992398 7.577397 15.394110 -0.735653 1.056150 0.003663 -0.004735 -63220.100000 1 0 0
-10.591509 -3.176902 -14.394003 18.151035 0.291409 2.486535 0.010043 0.009070 -70278.900000 1 0 0
-3.286909 4.763898 7.905897 9.798046 -0.966839 0.631937 0.004065 0.002245 -168545.000000 1 0 0
8.738891 -2.324002 -3.665303 9.757236 -0.259922 1.955894 0.001534 0.000674 -5032980.000000 1 0 0
1.994391 -8.390602 -1.124303 8.697347 -1.337433 1.700429 -0.004422 -0.001422 541344.000000 1 0 0
-13.651209 -2.777002 4.978797 14.793771 0.200687 1.227549 0.009145 -0.006586 233607.000000 1 0 0
6.905991 2.817698 -2.004503 7.723352 0.387391 1.833340 0.002794 0.001222 1027840.000000 1 0 0
-11.090109 4.526698 8.957297 14.957095 -0.387533 0.928712 0.003475 -0.002357 -1382300.000000 1 0 0
-1.700109 -2.461302 7.899497 8.446919 0.966315 0.361993 0.003258 -0.001518 -1594150.000000 1 0 0
3.014691 12.021398 -9.816303 15.810192 1.325086 2.240667 0.007268 -0.005454 582591.000000 1 0 0
3.646391 -5.046602 -7.058203 9.411832 -0.945100 2.418751 -0.008086 -0.001631 159997.000000 1 0 0
8.190491 -13.837302 -9.747703 18.803531 -1.036344 2.115772 0.007568 0.009680 -840238.000000 1 0 0
-6.271009 -5.843502 -0.401903 8.581002 0.750124 1.617650 0.012297 -0.003965 -388808.000000 1 0 0
-1.177009 -3.990802 9.781397 10.629562 1.283997 0.402187 0.000434 -0.001278 249131.000000 1 0 0
2.783991 3.374698 1.771997 4.720081 0.881020 1.185950 -0.005583 0.003554 -293468.000000 1 0 0
-9.120309 13.560398 7.661797 18.049032 -0.978718 1.132388 0.005781 -0.006954 500410.000000 1 0 0
4.018591 -11.141402 -0.060703 11.844138 -1.224630 1.575921 -0.004929 -0.004699 -577365.000000 1 0 0
-12.575509 -1.411902 -9.202403 15.646760 0.111806 2.199547 0.001718 0.002158 -90607.600000 1 0 0
-4.215009 0.889698 -13.539803 14.208593 -0.208025 2.833556 0.004778 -0.003467 219636.000000 1 0 0
3.966991 -3.083602 5.011897 7.096811 -0.660755 0.786654 -0.003937 0.002647 -122978.000000 1 0 0
1.586191 -1.191002 1.220797 2.329127 -0.644049 1.019087 0.004491 0.000554 350168.000000 1 0 0
8.025891 -9.071502 7.260097 14.121476 -0.846478 1.030818 0.001278 -0.001261 -1304170.000000 1 0 0
0.064991 2.403898 -6.270703 6.716001 1.543767 2.775396 0.004069 -0.005327 -918322.000000 1 0 0
-3.759909 -9.698902 -3.359503 10.931234 1.200970 1.883183 0.012437 -0.002804 839045.000000 1 0 0
-9.338509 2.314398 -5.464003 11.064335 -0.242939 2.087296 -0.001413 0.001134 -676314.000000 1 0 0
8.935591 -7.680402 5.278097 12.910913 -0.710000 1.149648 -0.001889 -0.001151 875177.000000 1 0 0
-5.504309 -4.215002 4.493197 8.261506 0.653514 0.995753 0.003987 -0.003327 -221121.000000 1 0 0
-0.172309 -12.520502 10.435097 16.299813 1.557035 0.876041 0.000470 -0.003159 -2738770.000000 1 0 0
-14.216909 -8.324502 2.991497 16.744160 0.529716 1.391173 -0.003007 -0.002191 -1681850.000000 1 0 0
10.876091 -1.197102 -3.646803 11.533498 -0.109626 1.892509 0.008472 -0.000996 -1174920.000000 1 0 0
-13.550609 3.000598 2.762997 14.151210 -0.217920 1.374286 -0.003333 -0.004371 260443.000000 1 0 0
-6.394709 6.120998 0.857797 8.893522 -0.763532 1.474194 0.001081 -0.002448 663601.000000 1 0 0
7.138691 -6.847202 -0.480403 9.903326 -0.764560 1.619325 -0.000324 -0.003417 1004880.000000 1 0 0
-6.799109 7.896298 10.023597 14.458627 -0.859922 0.804793 -0.003011 0.000985 54856.900000 1 0 0
-12.630009 -5.053902 -1.918003 13.738187 0.380636 1.710865 -0.000633 -0.002720 -1311600.000000 1 0 0
-9.413409 -5.565402 0.255797 10.938528 0.533939 1.547409 0.003701 -0.001192 -651342.000000 1 0 0
-1.743109 1.935598 2.163597 3.386166 -0.837676 0.877661 0.006198 -0.003716 10740.000000 1 0 0
-6.926209 7.416098 7.508097 12.623090 -0.819542 0.933791 0.000613 -0.001194 218544.000000 1 0 0
5.695291 7.163398 -0.489403 9.164613 0.899078 1.624223 -0.000990 0.001954 -1143670.000000 1 0 0
0.028191 -4.017202 7.426097 8.443081 -1.563779 0.495884 -0.000397 -0.000772 718009.000000 1 0 0
6.543391 0.620198 13.085397 14.643368 0.094500 0.465481 -0.002214 -0.004809 258123.000000 1 0 0
5.851591 6.110098 -7.879203 11.560980 0.807006 2.320653 -0.000667 0.002059 -775275.000000 1 0 0
9.916491 5.226098 9.032597 14.395718 0.485022 0.892522 0.001841 -0.002880 -2318470.000000 1 0 0
-1.119109 -5.149602 -8.544703 10.039061 1.356804 2.588960 0.007877 -0.003505 681681.000000 1 0 0
9.963091 -3.535402 -8.084903 13.308941 -0.340989 2.223679 0.005083 -0.003962 239091.000000 1 0 0
8.361191 -5.524702 1.278697 10.102817 -0.583899 1.443888 0.002373 -0.001541 1221500.000000 1 0 0
15.739991 3.128798 -4.980803 16.803128 0.196222 1.871740 0.014362 0.001142 -1978940.000000 1 0 0
-6.923609 3.609198 1.119497 7.887708 -0.480533 1.428386 0.002516 -0.005570 -126811.000000 1 0 0
-1.810709 3.936998 0.279697 4.342448 -1.139723 1.506342 0.004414 -0.006007 -1770600.000000 1 0 0
-2.541209 10.063198 7.030697 12.536204 -1.323443 0.975407 0.001247 0.005412 73745.500000 1 0 0
5.447691 -5.812402 -8.802903 11.872340 -0.817777 2.406045 -0.007454 -0.000970 798141.000000 1 0 0
-1.316609 -0.855702 6.180997 6.377336 0.576325 0.248782 0.006606 -0.002599 55217.100000 1 0 0
-5.627209 5.015498 -7.794803 10.843415 -0.727984 2.372945 0.000901 -0.002570 -517.172000 1 0 0
6.804291 -1.245502 2.561997 7.376549 -0.181042 1.216088 0.000679 0.002208 -1615870.000000 1 0 0
8.752891 7.474698 3.240297 11.957581 0.706794 1.296383 -0.000477 0.001148 -600625.000000 1 0 0
-5.201109 -4.903402 -7.601603 10.434522 0.755944 2.386934 0.013140 -0.006987 1220550.000000 1 0 0
-2.123309 7.978998 -10.046403 13.003963 -1.310712 2.453667 -0.000615 -0.002027 707823.000000 1 0 0
-2.888409 -2.239602 1.715697 4.037616 0.659545 1.131914 0.002700 0.000413 -56382.200000 1 0 0
6.079291 -2.135602 -9.243803 11.267940 -0.337825 2.532842 -0.006643 0.001007 817829.000000 1 0 0
1.129991 -7.624802 5.145797 9.267886 -1.423668 0.982158 -0.006647 -0.001494 305910.000000 1 0 0
1.933891 11.861998 1.293797 12.088046 1.409186 1.463560 0.006397 0.001537 27487.200000 1 0 0
-1.018509 7.105098 2.526797 7.609500 -1.428417 1.232312 0.002468 0.002519 372747.000000 1 0 0
8.869491 7.891298 -6.674903 13.619647 0.727102 2.082994 0.002911 -0.002792 -597198.000000 1 0 0
3.711291 -11.300402 5.412497 13.067819 -1.253473 1.143749 -0.006390 -0.004878 -20578.000000 1 0 0
7.822491 -7.105702 12.397897 16.290802 -0.737419 0.705887 -0.005861 0.000674 22121.800000 1 0 0
-8.760609 0.030498 -3.960103 9.614136 -0.003481 1.995339 0.000613 -0.000924 -1072530.000000 1 0 0
-3.215009 -5.025902 11.148097 12.644210 1.001705 0.491394 0.009149 -0.006910 821454.000000 1 0 0
-8.198609 0.145598 -11.701003 14.288172 -0.017757 2.530339 0.000234 -0.003441 -2293340.000000 1 0 0
1.561191 -5.125602 5.373397 7.588314 -1.275137 0.783972 -0.001498 0.001313 -379604.000000 1 0 0
6.663091 3.708898 -7.718203 10.850040 0.507922 2.362217 -0.002966 0.001980 -1485400.000000 1 0 0
16.300491 4.088598 -1.213703 16.849205 0.245757 1.642892 -0.000195 0.003430 -1632390.000000 1 0 0
7.923091 7.402798 0.078997 10.843571 0.751463 1.563511 0.001589 0.000664 -2450610.000000 1 0 0
5.361591 -10.395002 14.036497 18.270905 -1.094600 0.694704 -0.008907 0.002642 240545.000000 1 0 0
-5.173409 -9.139802 8.877497 13.751731 1.055729 0.869047 0.003270 -0.011387 385418.000000 1 0 0
-12.571909 -3.156402 2.856297 13.273063 0.245983 1.353905 0.004436 -0.001442 -254419.000000 1 0 0
-2.192209 -1.371502 -5.890803 6.433378 0.559049 2.727949 0.004715 -0.005817 -1865840.000000 1 0 0
-2.356209 12.958298 -4.374603 13.878269 -1.390931 1.891477 0.003795 0.003543 496308.000000 1 0 0
3.956091 -0.507602 -4.982103 6.381980 -0.127612 2.466504 0.000350 0.000972 -591174.000000 1 0 0
-8.818709 3.802498 -7.429803 12.142100 -0.407098 2.229262 -0.003495 -0.000696 -290101.000000 1 0 0
-4.522409 7.971198 -11.373603 14.606540 -1.054735 2.463332 -0.003027 0.000585 -1855170.000000 1 0 0
-10.110109 -6.353702 7.358197 14.025937 0.561077 1.018535 0.002910 -0.002311 -453543.000000 1 0 0
8.039691 5.278598 4.295597 10.533394 0.580978 1.150745 -0.003450 0.001793 -1835630.000000 1 0 0
-6.733809 -7.501702 3.999197 10.844966 0.839288 1.193121 0.009382 -0.004229 -661054.000000 1 0 0
-4.096909 11.861498 7.996497 14.880315 -1.238229 1.003460 0.003542 0.000424 -34307.600000 1 0 0
-7.164909 9.961998 -7.815303 14.548412 -0.947284 2.137902 -0.000017 -0.004178 370347.000000 1 0 0
13.076791 5.402998 4.646297 14.892378 0.391812 1.253508 0.001122 -0.005124 -201092.000000 1 0 0
5.351591 4.001998 -3.903103 7.738845 0.642101 2.099428 0.000072 0.002472 508570.000000 1 0 0
-2.859409 -4.184002 5.137797 7.216582 0.971288 0.778535 0.004175 -0.001729 -2366540.000000 1 0 0
12.424191 -2.297402 -5.366003 13.727074 -0.182848 1.972413 0.007092 -0.004385 -2024260.000000 1 0 0
-5.213109 9.736998 7.028197 13.091264 -1.079238 1.004084 -0.000050 0.003875 -338600.000000 1 0 0
1.824791 3.816198 -0.541203 4.264520 1.124765 1.698048 -0.002674 0.000706 676606.000000 1 0 0
-0.071609 9.518898 7.782997 12.295918 -1.563274 0.885408 -0.000691 0.007929 -306028.000000 1 0 0
-5.562009 2.155098 5.847997 8.353410 -0.369656 0.795297 0.004502 -0.002075 591358.000000 1 0 0
8.943691 0.856898 10.698197 13.970516 0.095519 0.698559 -0.000491 -0.001548 -2913490.000000 1 0 0
0.443591 -2.879502 -10.249103 10.655159 -1.417947 2.864633 0.000908 -0.003939 -2337840.000000 1 0 0
1.257991 10.784398 -2.778103 11.207303 1.454672 1.821291 0.007409 -0.001501 -1148010.000000 1 0 0
2.339891 -4.375602 11.787597 12.789387 -1.079730 0.398433 -0.006537 -0.000988 11972.500000 1 0 0
6.641891 -3.130302 9.405297 11.932021 -0.440423 0.662853 -0.010100 -0.000049 645393.000000 1 0 0
-10.620809 -8.200302 5.659197 14.562728 0.657494 1.171676 0.004969 -0.004322 -1667160.000000 1 0 0
-2.895009 0.871798 -6.806003 7.447334 -0.292501 2.723548 0.007584 -0.006831 682107.000000 1 0 0
11.049091 2.637398 -5.125703 12.462388 0.234314 1.994669 0.001135 -0.001280 -2880090.000000 1 0 0
-2.062009 -3.998402 -0.029303 4.498884 1.094661 1.577310 0.003134 -0.001265 1081170.000000 1 0 0
-1.356809 -6.481202 -10.724803 12.604297 1.364431 2.588463 -0.001105 -0.000350 1561400.000000 1 0 0
0.345191 6.764198 -6.567503 9.434279 1.519808 2.340792 0.005337 0.000857 -3515340.000000 1 0 0
2.122491 3.947898 -6.078803 7.552663 1.077503 2.506228 0.002468 -0.002281 -1461490.000000 1 0 0
1.525991 -14.684602 6.458297 16.114459 -1.467250 1.158432 0.003385 -0.007561 16039.500000 1 0 0
-1.770909 5.433398 -10.501703 11.955906 -1.255723 2.643236 0.005221 -0.003728 -55735.100000 1 0 0
13.661091 4.353598 -0.727003 14.356454 0.308511 1.621457 0.003309 -0.001785 1022270.000000 1 0 0
-2.423109 3.405998 -6.180303 7.461127 -0.952444 2.546923 0.006105 -0.005684 340051.000000 1 0 0
5.726391 7.845398 14.201297 17.205193 0.940281 0.599872 0.009944 -0.006749 768896.000000 1 0 0
15.907491 0.641198 -5.842403 16.958569 0.040286 1.922513 0.008744 -0.001184 205326.000000 1 0 0
6.095291 -8.323602 10.697397 14.861670 -0.938726 0.767285 -0.014065 0.004171 -82960.800000 1 0 0
0.144791 -5.985302 -6.376003 8.746326 -1.546610 2.387645 -0.001176 -0.001145 -437785.000000 1 0 0
8.742391 5.477998 -7.586703 12.806089 0.559750 2.204867 -0.002616 0.001474 -263988.000000 1 0 0
-16.125209 -0.932102 5.253297 16.984944 0.057740 1.256349 0.008980 -0.004519 -382914.000000 1 0 0
-0.285709 4.032398 -12.181803 12.835037 -1.500061 2.821179 0.001665 -0.004462 668876.000000 1 0 0
-11.402709 3.795198 5.776697 13.333999 -0.321300 1.122722 0.001342 -0.005189 -503911.000000 1 0 0
5.142291 -9.632202 -9.679603 14.591682 -1.080426 2.296102 -0.012637 0.002252 -156764.000000 1 0 0
1.525691 11.133798 -11.678603 16.207374 1.434612 2.375425 0.006202 0.000177 -4414270.000000 1 0 0
5.838191 2.334498 1.193797 6.399962 0.380391 1.383165 -0.000250 0.002795 -244471.000000 1 0 0
5.635291 4.677898 4.982497 8.858020 0.692832 0.973409 -0.006785 0.003145 358976.000000 1 0 0
0.353291 -1.503902 -6.426103 6.609186 -1.340064 2.905669 0.003004 -0.001169 -121764.000000 1 0 0
12.789691 6.808598 -4.578503 15.195259 0.489192 1.876864 0.003585 -0.001156 -439418.000000 1 0 0
7.352791 3.148198 12.673397 14.986317 0.404547 0.562987 -0.000297 -0.006393 -246803.000000 1 0 0
-2.491609 -0.254302 8.681097 9.035166 0.101711 0.280879 0.004553 0.000362 1019860.000000 1 0 0
2.245991 -15.167102 13.474897 20.412210 -1.423782 0.849792 0.002899 0.002725 724150.000000 1 0 0
18.891191 4.614998 -1.669703 19.518279 0.239601 1.656447 0.002540 0.001120 1445800.000000 1 0 0
-0.392709 -13.240402 7.228397 15.090135 1.541145 1.071264 -0.003435 -0.005469 -2182420.000000 1 0 0
4.312191 1.528298 -0.541303 4.606918 0.340601 1.688566 0.001842 0.001523 140321.000000 1 0 0
2.687791 -0.513402 -7.328303 7.822520 -0.188739 2.784226 -0.000385 -0.000549 -136775.000000 1 0 0
7.235791 -11.354702 0.886397 13.493392 -1.003436 1.505058 -0.003285 -0.002144 338492.000000 1 0 0
-11.881109 -7.344002 1.344797 14.032234 0.553640 1.474813 0.006209 0.000319 30985.800000 1 0 0
0.237791 -7.001202 10.086497 12.280505 -1.536845 0.607036 -0.006551 -0.003066 -2345070.000000 1 0 0
-4.549409 -7.126302 10.497197 13.478592 1.002621 0.678038 0.009410 -0.007029 -1416260.000000 1 0 0
11.864191 0.714398 -1.660603 12.001125 0.060142 1.709612 0.007229 -0.000644 1630790.000000 1 0 0
6.438391 -9.800902 -7.413703 13.873484 -0.989573 2.134570 -0.013061 0.000210 -411558.000000 1 0 0
-10.984609 4.899798 3.523897 12.533455 -0.419573 1.285794 -0.004455 -0.002499 106614.000000 1 0 0
5.889991 -9.207202 1.976497 11.107255 -1.001685 1.391897 -0.007648 -0.002915 3918700.000000 1 0 0
11.515891 -1.211802 5.936597 13.012586 -0.104843 1.097054 0.011483 -0.004517 -106547.000000 1 0 0
-6.496109 3.695598 4.110897 8.529733 -0.517233 1.067918 0.002498 -0.003727 -1589530.000000 1 0 0
9.517091 6.326998 -3.267703 11.886287 0.586712 1.849296 0.002776 0.001514 -917046.000000 1 0 0
-2.264409 6.509898 10.935797 12.926638 -1.236046 0.562379 -0.000378 0.001897 275004.000000 1 0 0
1.910091 9.786298 3.011297 10.415757 1.378040 1.277500 -0.000050 0.002527 -122065.000000 1 0 0
2.874691 6.240598 -5.591203 8.858356 1.139127 2.253868 0.001824 0.000042 -2520160.000000 1 0 0
11.765791 0.162898 -5.766803 13.104060 0.013844 2.026481 0.004886 -0.001672 255201.000000 1 0 0
-2.643609 -12.364902 6.252997 14.106007 1.360168 1.111535 0.001811 -0.003580 -483976.000000 1 0 0
10.934691 1.776198 -2.796303 11.425483 0.161030 1.818051 0.003687 0.000094 610059.000000 1 0 0
-8.947709 5.342898 0.781397 10.450772 -0.538303 1.495957 0.000442 -0.003975 -1118600.000000 1 0 0
1.252391 -10.187402 5.539997 11.663756 -1.448475 1.075860 -0.008832 -0.003236 -149326.000000 1 0 0
9.378191 -5.711802 -1.277703 11.054758 -0.547048 1.686635 0.002719 -0.003115 97930.900000 1 0 0
-7.768309 8.613998 -4.438003 12.419479 -0.836974 1.936217 -0.001045 0.000024 -297614.000000 1 0 0
-7.502709 -0.039702 -1.609403 7.673486 0.005292 1.782101 0.000056 -0.001827 -2236220.000000 1 0 0
4.137791 8.810798 2.727297 10.108889 1.131741 1.297619 -0.001855 0.002359 77474.200000 1 0 0
-1.296709 -10.490902 -3.687303 11.195386 1.447817 1.906421 0.007271 -0.001624 20129.900000 1 0 0
3.198691 7.903198 -3.705003 9.296193 1.186216 1.980732 0.005941 -0.001677 -260769.000000 1 0 0
-4.360609 1.598098 -11.055103 11.991002 -0.351285 2.743881 0.001757 -0.005460 -161609.000000 1 0 0
1.278091 2.745798 11.031197 11.439416 1.135151 0.267954 0.000242 0.000488 515326.000000 1 0 0
2.147891 5.565998 -8.017903 9.994025 1.202508 2.501884 0.003103 0.000018 1000110.000000 1 0 0
15.539791 5.973798 3.990197 17.119960 0.367003 1.335560 0.005318 -0.009503 153562.000000 1 0 0
-4.484409 8.938298 4.620397 11.015951 -1.105784 1.137981 0.005968 0.002865 177718.000000 1 0 0
-0.759009 -8.292902 -12.453503 14.981257 1.479525 2.552189 -0.005560 0.001799 845050.000000 1 0 0
14.192691 -4.164002 -5.281303 15.705526 -0.285382 1.913750 0.008024 0.000843 805671.000000 1 0 0
-6.012809 -6.123302 -5.604903 10.250055 0.794502 2.149354 0.012998 -0.005268 800100.000000 1 0 0
-8.963409 2.575998 -12.259903 15.404015 -0.279849 2.491273 -0.000987 -0.005173 1955070.000000 1 0 0
10.561491 5.261998 13.760797 18.127141 0.462227 0.708826 0.022132 -0.011560 586532.000000 1 0 0
-0.396609 10.957298 5.610497 12.316548 -1.534616 1.097834 0.001524 0.007330 763203.000000 1 0 0
0.549091 11.250398 -0.584103 11.278924 1.522029 1.622607 0.007269 -0.000320 7280.080000 1 0 0
-1.501709 -0.539202 3.667697 3.999734 0.344722 0.410340 0.004569 -0.001557 -102142.000000 1 0 0
-4.761309 6.684298 8.859697 12.076595 -0.951855 0.747155 0.001173 0.001526 -2229150.000000 1 0 0
3.431991 -8.749302 -11.414103 14.785486 -1.196981 2.452747 -0.013887 0.004307 1344340.000000 1 0 0
6.705791 -3.813502 12.018197 14.281019 -0.517078 0.570649 -0.006035 0.002020 -540049.000000 1 0 0
-2.448909 -1.940502 -12.588903 12.970859 0.670086 2.898311 0.003284 -0.006817 875676.000000 1 0 0
-15.991809 -4.962702 5.284397 17.558224 0.300905 1.265093 0.001445 -0.006043 611368.000000 1 0 0
-8.974609 7.316798 5.857697 12.976585 -0.683987 1.102457 -0.005007 -0.002221 -4140020.000000 1 0 0
-12.831309 1.601698 5.904097 14.215002 -0.124185 1.142477 -0.003004 -0.005679 506222.000000 1 0 0
-3.451409 3.566498 10.168797 11.315324 -0.801796 0.454058 0.003173 0.003420 614197.000000 1 0 0
1.941091 -12.276902 -1.041003 12.472924 -1.413985 1.654355 0.000762 -0.002028 -3460560.000000 1 0 0
10.215591 -5.122102 -3.726403 12.019996 -0.464767 1.886007 0.007674 -0.001875 452693.000000 1 0 0
3.026791 -13.376502 1.012997 13.752034 -1.348267 1.497068 -0.000721 -0.001898 501205.000000 1 0 0
10.023591 -1.689502 -6.226203 11.920252 -0.166983 2.120367 0.006733 0.000249 370171.000000 1 0 0
11.947191 -5.356502 -1.637703 13.195058 -0.421479 1.695232 0.008980 -0.002286 943176.000000 1 0 0
1.570991 1.048398 5.795297 6.095295 0.588474 0.315046 -0.000767 0.002566 109424.000000 1 0 0
-10.779609 11.858598 6.683997 17.363817 -0.833024 1.175655 0.001645 -0.003498 -1627270.000000 1 0 0
4.627691 -14.048002 3.055497 15.102912 -1.252572 1.367078 -0.001379 -0.006026 -3278020.000000 1 0 0
5.248891 -3.439402 -1.751103 6.515114 -0.580066 1.842918 0.003389 -0.000541 -1383180.000000 1 0 0
2.007591 -2.955602 -7.685003 8.474979 -0.974133 2.706396 -0.002081 -0.000345 -397308.000000 1 0 0
-2.831309 14.946598 -8.859003 17.603949 -1.383586 2.098140 0.004794 -0.001245 -510325.000000 1 0 0
-2.305409 6.162898 -8.122603 10.453368 -1.212834 2.460733 0.006812 -0.003767 -190456.000000 1 0 0
2.628491 -3.471902 -11.441003 12.241716 -0.922782 2.777905 -0.003177 0.000330 -1115490.000000 1 0 0
14.566291 2.778898 -2.652503 15.064358 0.188511 1.747797 0.006570 -0.000740 591009.000000 1 0 0
-3.457009 13.292098 2.159897 13.903091 -1.316353 1.414811 0.001514 0.002609 -1716750.000000 1 0 0
7.905091 -5.012402 14.038997 16.873295 -0.565097 0.588049 -0.005475 0.000866 -947077.000000 1 0 0
-11.546109 7.247198 2.833597 13.923498 -0.560520 1.365853 -0.006253 0.001207 668869.000000 1 0 0
-2.275309 11.928398 4.047197 12.800137 -1.382313 1.249092 0.003927 0.004730 258618.000000 1 0 0
1.796791 1.536998 0.779897 2.489791 0.707628 1.252196 -0.002988 0.002144 -930732.000000 1 0 0
-6.929909 8.659298 5.272597 12.280365 -0.895881 1.127021 0.000572 -0.000269 -995083.000000 1 0 0
-1.061609 9.195498 1.120797 9.324183 -1.455856 1.450302 0.003940 0.002286 622534.000000 1 0 0
5.008291 13.111798 -8.579803 16.450387 1.205931 2.119470 0.014988 -0.008550 -1771330.000000 1 0 0
8.908791 6.878798 7.185897 13.353709 0.657518 1.002591 -0.003755 -0.000443 -1894630.000000 1 0 0
7.097791 -13.756102 2.893397 15.747404 -1.094451 1.386008 0.007985 -0.004445 129045.000000 1 0 0
4.087291 -13.466002 -1.238103 14.126997 -1.276107 1.658550 -0.004500 0.003488 -3115360.000000 1 0 0
12.039991 -11.837802 -4.576103 17.493875 -0.776931 1.835458 0.013573 0.001162 -852922.000000 1 0 0
3.017191 -0.112302 -1.993603 3.618080 -0.037203 2.154372 0.003569 0.000689 1479510.000000 1 0 0
-13.553909 -3.089702 -10.812803 17.611684 0.224127 2.231859 0.002653 -0.002089 402409.000000 1 0 0
-6.413209 13.643498 5.080697 15.908733 -1.131390 1.245737 0.000705 -0.006711 215357.000000 1 0 0
7.267491 -4.268702 -0.632503 8.452118 -0.531081 1.645700 0.000058 0.000302 -482327.000000 1 0 0
11.707891 2.104998 -7.388603 14.003470 0.177893 2.126600 0.004966 -0.000538 -1965380.000000 1 0 0
-7.421609 -4.652102 9.744797 13.102801 0.559916 0.732180 0.011202 -0.003547 47878.200000 1 0 0
0.967291 2.706598 8.422197 8.899142 1.227560 0.328877 -0.001272 0.002392 -1331180.000000 1 0 0
1.607691 8.102398 -8.704703 12.000224 1.374919 2.382380 0.004428 0.000191 162843.000000 1 0 0
-8.567609 -2.113002 -5.563003 10.431476 0.241801 2.133281 0.009117 -0.003682 -1610480.000000 1 0 0
6.581691 -0.487302 7.103997 9.696540 -0.073904 0.748615 -0.004303 0.001912 663730.000000 1 0 0
-10.987009 6.550098 7.198897 14.677952 -0.537597 1.058183 0.003296 -0.002032 918105.000000 1 0 0
-5.897509 11.078798 4.910797 13.477251 -1.081625 1.197833 -0.001474 0.000132 547818.000000 1 0 0
6.079391 -1.249102 -6.875603 9.262460 -0.202645 2.407305 -0.004202 0.000269 -616696.000000 1 0 0
4.498491 -5.811902 11.495397 13.644002 -0.912103 0.568845 -0.010403 0.000633 -1763580.000000 1 0 0
-8.988909 -7.342802 2.795097 11.938584 0.684945 1.334480 0.007515 -0.004020 -2811490.000000 1 0 0
-1.280209 12.831498 -9.174003 15.825568 -1.471355 2.189151 0.009763 0.001210 498627.000000 1 0 0
-4.555809 9.319298 -2.283703 10.621676 -1.116102 1.787492 -0.000357 -0.001649 960447.000000 1 0 0
-3.173409 9.689598 -0.214503 10.198277 -1.254299 1.591831 0.003475 -0.000510 -1100690.000000 1 0 0
-3.483509 10.700398 -6.355103 12.923648 -1.256068 2.084886 0.005122 0.001752 248765.000000 1 0 0
4.870491 -4.874802 0.371597 6.900975 -0.785841 1.516923 -0.000422 -0.001756 -1451460.000000 1 0 0
-2.274909 2.959098 -10.878303 11.500824 -0.915381 2.811066 0.005537 -0.004192 -509835.000000 1 0 0
-3.677609 12.234398 -2.190703 12.961654 -1.278793 1.740626 0.000110 0.003345 -1828210.000000 1 0 0
-0.271709 0.427498 0.023597 0.507087 -1.004626 1.524245 0.001252 -0.000692 -1181950.000000 1 0 0
-4.814409 -1.587302 0.056397 5.069639 0.318475 1.559672 0.001394 -0.001073 167340.000000 1 0 0
2.388991 2.352498 -2.442103 4.147938 0.777702 2.200309 0.001851 -0.000631 1152240.000000 1 0 0
6.026991 -9.651702 8.588397 14.256246 -1.012594 0.924254 -0.009273 0.000151 -1147860.000000 1 0 0
-4.262209 -5.486202 6.553797 9.550764 0.910303 0.814535 0.005786 -0.005062 -216274.000000 1 0 0
-6.265409 5.384398 -11.968403 14.542687 -0.709917 2.537441 -0.004652 -0.004248 481315.000000 1 0 0
-12.862409 3.045398 7.992097 15.446347 -0.232486 1.026975 -0.000333 -0.002810 447106.000000 1 0 0
4.791391 -7.633702 -4.910103 10.263525 -1.010284 2.069632 -0.009820 -0.002220 886233.000000 1 0 0
-5.960009 2.443598 -1.097703 6.534358 -0.389096 1.739586 0.002261 -0.005728 -648174.000000 1 0 0
-6.823609 -2.708402 -14.586403 16.329734 0.377845 2.675302 0.008945 -0.001520 -287798.000000 1 0 0
2.735791 -6.110902 0.917097 6.757865 -1.149865 1.434668 -0.000149 -0.001707 125224.000000 1 0 0
4.932791 -7.870302 13.191897 16.133823 -1.010932 0.613471 -0.013414 0.002975 8890.170000 1 0 0
-10.001209 -1.608502 8.040297 12.932820 0.159465 0.899889 0.003776 0.000796 -736689.000000 1 0 0
-4.578209 13.435198 -0.088603 14.194097 -1.242375 1.577039 0.001067 0.003038 547083.000000 1 0 0
6.842891 2.201298 -4.433503 8.445521 0.311236 2.123456 -0.000288 0.002105 -1041230.000000 1 0 0
5.154591 4.559398 -0.069603 6.882061 0.724203 1.580910 -0.002092 0.001705 -796098.000000 1 0 0
-5.813709 12.220498 1.948897 13.672527 -1.126749 1.427768 0.000074 0.000843 -231109.000000 1 0 0
6.489891 -7.353502 6.487397 11.759209 -0.847702 0.986411 -0.009720 0.001533 -2413900.000000 1 0 0
-0.306709 4.948398 7.775397 9.221579 -1.508894 0.567636 -0.003413 0.003714 -1235780.000000 1 0 0
-5.848909 -3.358102 -1.493803 6.907824 0.521189 1.788766 0.007944 -0.003523 -817086.000000 1 0 0
2.427691 -6.591102 -5.163303 8.717569 -1.217887 2.204691 -0.005088 -0.000377 -226842.000000 1 0 0
-14.301809 -4.831702 -3.854203 15.580178 0.325800 1.820770 0.000893 -0.001737 -977077.000000 1 0 0
-12.392309 -5.162402 -6.328603 14.841527 0.394718 2.011318 0.007638 -0.004183 -1485780.000000 1 0 0
-14.704709 -3.759402 -1.356303 15.238147 0.250298 1.659921 0.000539 -0.001769 275762.000000 1 0 0
11.907491 2.888198 8.658097 15.003089 0.237958 0.955638 0.009850 -0.005918 -1249740.000000 1 0 0
8.632491 -6.617502 7.690497 13.321223 -0.654029 0.955364 -0.001960 -0.001635 -358979.000000 1 0 0
-8.799809 -1.774702 -9.865103 13.338158 0.199006 2.403295 0.003928 -0.002707 -245984.000000 1 0 0
-8.745109 5.258598 -3.955103 10.944068 -0.541389 1.940557 0.000614 -0.001027 -1530840.000000 1 0 0
-4.056509 -6.233302 4.132397 8.507998 0.993873 1.063624 0.008447 -0.003616 -1310000.000000 1 0 0
-0.266509 -9.263702 3.600997 9.942554 1.542035 1.200190 -0.002502 -0.004477 204026.000000 1 0 0
7.812491 -10.583402 3.230897 13.545557 -0.934901 1.329954 -0.001974 -0.001426 328942.000000 1 0 0
0.003591 6.576098 9.677597 11.700469 1.570250 0.596847 -0.001010 0.000718 -54268.300000 1 0 0
-0.063709 3.499298 -9.643503 10.258962 -1.552592 2.793449 0.007084 -0.004190 1038160.000000 1 0 0
4.538891 -3.249902 10.905897 12.251612 -0.621392 0.473100 -0.006030 0.001003 -2168310.000000 1 0 0
8.507391 -9.122202 1.279097 12.538994 -0.820258 1.468609 -0.000543 -0.000707 -482457.000000 1 0 0
-0.225809 -0.628102 11.381897 11.401451 1.225675 0.058575 0.007852 0.000876 -1274720.000000 1 0 0
10.917591 5.904898 11.323097 16.801016 0.495800 0.831250 0.020574 -0.008538 -287585.000000 1 0 0
-6.326509 -2.954002 -11.846903 13.751362 0.436839 2.609028 0.009489 -0.002975 -146597.000000 1 0 0
-1.651209 2.705798 8.284797 8.870496 -1.022875 0.365424 0.003631 0.003925 -1051100.000000 1 0 0
-1.716009 13.560798 -6.864903 15.295974 -1.444923 2.036223 0.005490 0.004223 408605.000000 1 0 0
7.725391 3.034698 9.838997 12.872332 0.374303 0.700760 -0.002000 -0.001533 555919.000000 1 0 0
6.572891 8.430998 -7.897603 13.291229 0.908613 2.207063 0.004352 0.000400 -1374650.000000 1 0 0
6.621291 -3.050902 -4.000203 8.315715 -0.431775 2.072638 -0.000015 0.000642 -1459180.000000 1 0 0
2.126491 8.204598 0.997297 8.534166 1.317194 1.453669 -0.000822 0.003659 581791.000000 1 0 0
-17.587509 6.281798 6.226697 19.686371 -0.343051 1.248975 0.009934 -0.001375 6771.170000 1 0 0
-14.420109 3.009798 -10.113603 17.868503 -0.205768 2.172444 0.000285 -0.002172 689308.000000 1 0 0
-18.351309 0.131198 -4.410903 18.874422 -0.007149 1.806675 0.011025 0.002212 854767.000000 1 0 0
-12.952809 7.984698 0.074897 15.216316 -0.552424 1.565874 -0.005013 0.004828 -1126480.000000 1 0 0
-12.716709 -4.479302 -12.842003 18.619771 0.338667 2.331867 0.015240 0.010989 -572331.000000 1 0 0
-17.262609 -0.662002 -8.757303 19.368177 0.038330 2.039970 -0.009237 -0.001107 -610557.000000 1 0 0
-16.694709 -2.109502 -2.075103 16.954921 0.125691 1.693493 0.008827 -0.000655 214433.000000 1 0 0
-15.394709 4.007498 1.830297 16.012717 -0.254665 1.456243 0.003257 -0.000949 -1021020.000000 1 0 0
-13.197409 5.984198 4.335197 15.125348 -0.425709 1.280101 -0.000043 -0.000466 -695520.000000 1 0 0
-9.926109 14.112898 2.748897 17.471633 -0.957835 1.412805 0.006268 -0.008114 -561667.000000 1 0 0
-11.769209 2.502798 -6.470803 13.661975 -0.209535 2.064211 -0.002651 0.003950 831425.000000 1 0 0
-15.977309 10.739698 3.717897 19.607098 -0.591813 1.380021 0.026434 -0.001998 44549.600000 1 0 0
-12.683409 1.155898 -8.632603 15.385928 -0.090884 2.166476 -0.001916 0.001045 548248.000000 1 0 0
-12.224309 14.334098 4.009997 19.260846 -0.864671 1.361068 0.021590 -0.013959 -536510.000000 1 0 0
-10.407709 11.148298 -1.018803 15.285382 -0.819741 1.637498 0.001623 0.002131 32547.200000 1 0 0
-17.134509 5.619698 8.682497 20.013949 -0.316921 1.122066 0.014574 -0.002972 140185.000000 1 0 0
-11.647009 12.668398 -9.366303 19.592569 -0.827379 2.069234 0.001301 -0.009385 -1323850.000000 1 0 0
-17.260509 -0.480902 2.980997 17.522636 0.027854 1.399842 0.008778 -0.003838 200084.000000 1 0 0
-12.767709 14.920198 -0.992403 19.662440 -0.862983 1.621290 0.009577 -0.007156 21292.300000 1 0 0
-16.300409 4.747198 -10.333603 19.875175 -0.283393 2.117560 0.016779 0.002383 164080.000000 1 0 0
-11.852309 7.593798 -8.982403 16.698100 -0.569811 2.138776 0.000174 0.003708 -104741.000000 1 0 0
-14.601009 13.489898 -2.182603 19.998264 -0.745865 1.680154 0.031735 -0.011493 493473.000000 1 0 0
-11.994409 10.582198 -5.476703 16.906893 -0.722928 1.900680 0.007340 -0.005885 2364860.000000 1 0 0
-17.653909 2.754198 -1.034703 17.897394 -0.154763 1.628642 -0.001229 0.003144 -777011.000000 1 0 0
-9.252609 15.367398 0.724097 17.952493 -1.028839 1.530451 0.007492 -0.010320 20547.600000 1 0 0
-8.136909 13.246198 -3.660703 15.970967 -1.019941 1.802062 -0.001440 0.002446 -1524350.000000 1 0 0
-17.845709 11.673598 2.150697 21.432865 -0.579280 1.470281 0.054995 0.007026 77717.000000 1 0 0
-7.894509 15.680698 -7.490403 19.087003 -1.104389 1.974073 0.017571 -0.018167 -459938.000000 1 0 0
-6.327909 15.327198 -5.378203 17.432455 -1.179257 1.884430 0.004934 -0.000975 -1334340.000000 1 0 0
-17.246909 5.218998 -0.066803 18.019386 -0.293845 1.574504 0.010077 0.000304 630504.000000 1 0 0
-5.376709 12.237898 -12.233003 18.119644 -1.156835 2.311929 -0.018640 -0.001430 -1178120.000000 1 0 0
-11.280509 3.588198 -11.561803 16.546913 -0.307968 2.344415 0.009491 -0.003729 320804.000000 1 0 0
-11.777309 11.085098 1.206797 16.218532 -0.755130 1.496319 0.003923 -0.000290 149387.000000 1 0 0
-12.904309 0.131698 -11.074503 17.005386 -0.010205 2.280007 0.001909 -0.003190 817645.000000 1 0 0
-14.004909 -2.251402 -13.238703 19.402823 0.159394 2.321711 -0.000498 0.005755 75550.700000 1 0 0
-18.766109 -2.353002 -3.612603 19.254983 0.124735 1.759534 0.008052 0.004984 321681.000000 1 0 0
-18.287109 4.779998 -5.206503 19.605469 -0.255666 1.839585 0.019972 0.004556 230161.000000 1 0 0
-8.250109 15.427898 -2.324103 17.648960 -1.079735 1.702865 0.010060 -0.005826 -288625.000000 1 0 0
-16.138509 9.113898 -5.241203 19.260966 -0.514082 1.846387 0.018974 0.002797 87886.000000 1 0 0
-18.253409 1.876698 2.240297 18.485883 -0.102454 1.449308 0.007975 -0.007592 -104404.000000 1 0 0
-15.676509 -2.736602 -8.701503 18.137201 0.172826 2.071177 -0.001953 -0.001390 -379075.000000 1 0 0
-9.731909 10.634998 -7.074303 16.057989 -0.829710 2.027005 -0.000625 -0.005846 697378.000000 1 0 0
-13.668009 12.122498 -7.896703 19.902948 -0.725544 1.978781 0.002598 -0.007694 -416009.000000 1 0 0
-10.950509 6.577498 -3.879103 13.350077 -0.540902 1.865617 -0.001366 0.001047 -509097.000000 1 0 0
-13.115709 5.028498 -12.705003 18.940029 -0.366110 2.306086 0.012531 -0.001841 605374.000000 1 0 0
-17.628609 9.106598 2.547997 20.004756 -0.476824 1.443080 0.026314 -0.006180 727957.000000 1 0 0
-13.429909 8.751798 -6.601803 17.336096 -0.577545 1.961471 0.000138 0.003353 -733259.000000 1 0 0
-15.769809 6.968298 -3.774303 17.649063 -0.416077 1.786314 0.006238 0.006766 -987563.000000 1 0 0
-14.878709 -0.221602 -9.426303 17.614774 0.014893 2.135465 0.000172 -0.001524 -481945.000000 1 0 0
-10.052609 5.729598 -6.131403 13.094936 -0.518039 2.058080 -0.003621 0.000106 432478.000000 1 0 0
-12.697209 12.239098 -0.929903 17.660106 -0.767029 1.623476 0.019197 -0.003921 -412115.000000 1 0 0
-10.557309 3.487298 -14.109603 17.963822 -0.319037 2.474212 -0.002514 0.002994 550537.000000 1 0 0
-10.827009 6.156098 -11.927803 17.245119 -0.517001 2.334585 -0.006223 -0.000932 -1701690.000000 1 0 0
-5.702809 11.470498 -14.784403 19.562028 -1.109414 2.427626 -0.009068 -0.009438 -410870.000000 1 0 0
-15.540309 13.339298 3.377997 20.756901 -0.709332 1.407328 0.020941 -0.008441 327410.000000 1 0 0
-15.062509 11.092798 -3.185903 18.975756 -0.634773 1.739489 0.028164 0.001698 723005.000000 1 0 0
-18.203209 7.785098 -4.289503 20.257453 -0.404136 1.784161 0.029443 0.002985 826142.000000 1 0 0
-4.266309 16.222898 -10.706603 19.900130 -1.313638 2.138879 0.001696 -0.002822 98031.600000 1 0 0
-15.767909 4.416898 -4.477903 16.976088 -0.273119 1.837732 0.003181 0.008500 774.651000 1 0 0
-18.524509 -1.872702 -6.113003 19.596766 0.100751 1.888030 0.001007 0.000308 56663.800000 1 0 0
-10.877809 8.569698 -5.901703 15.053124 -0.667267 1.973664 -0.001526 0.002328 -545689.000000 1 0 0
-11.398909 13.909598 -7.034603 19.310559 -0.884278 1.943664 0.002715 -0.000575 340526.000000 1 0 0
-9.562409 10.417398 -4.410103 14.812524 -0.828165 1.873108 -0.008565 0.000132 -321822.000000 1 0 0
-11.028709 6.306498 -0.204603 12.706148 -0.519445 1.586900 -0.002895 0.002697 -1879000.000000 1 0 0
-14.531609 9.359798 -1.392503 17.341065 -0.572216 1.651184 0.017075 0.003120 647337.000000 1 0 0
-18.828509 3.454398 4.765297 19.726978 -0.181448 1.326821 0.018099 -0.003559 488723.000000 1 0 0
-14.533409 13.440098 0.409397 19.799591 -0.746334 1.550118 0.016576 0.000411 640598.000000 1 0 0
-16.835809 2.520198 -9.024503 19.267525 -0.148589 2.058251 0.007783 0.001080 415405.000000 1 0 0
-9.146609 8.630498 -8.869103 15.388533 -0.756374 2.185045 0.000576 0.004182 -1776680.000000 1 0 0
-17.583209 4.768398 -2.703103 18.417753 -0.264821 1.718095 0.001592 0.007058 951245.000000 1 0 0
-13.489909 5.813898 -4.378203 15.328004 -0.406926 1.860465 -0.002198 0.009532 -1217720.000000 1 0 0
-12.219309 9.661398 3.321997 15.927642 -0.669024 1.360686 -0.003111 -0.000372 1085250.000000 1 0 0
-17.630909 2.564898 -4.007903 18.261734 -0.144464 1.792068 0.010330 0.004109 783481.000000 1 0 0
-11.300809 1.370298 -12.749703 17.092130 -0.120668 2.412741 0.002870 -0.000595 68274.800000 1 0 0
-11.147909 11.971798 3.578997 16.745419 -0.821019 1.355405 0.004567 -0.006313 -62199.400000 1 0 0
-16.181909 13.231298 -4.220903 21.324574 -0.685417 1.770048 0.028294 -0.006115 548389.000000 1 0 0
-10.987809 4.087498 -4.387203 12.517473 -0.356141 1.928887 -0.003748 0.002048 -410670.000000 1 0 0
-10.793809 15.205898 -9.170503 20.780370 -0.953494 2.027850 0.000928 -0.013799 155681.000000 1 0 0
-15.437909 7.167398 -0.257203 17.022537 -0.434659 1.585906 0.011068 0.004388 223981.000000 1 0 0
-12.786109 8.310898 -4.119503 15.796389 -0.576371 1.834634 0.000162 0.003158 623905.000000 1 0 0
-19.291309 1.987798 -5.954903 20.287109 -0.102679 1.868715 0.025976 0.004224 69497.600000 1 0 0
-12.332609 10.136398 -9.012903 18.332273 -0.687964 2.084770 -0.005347 -0.002101 556093.000000 1 0 0
-16.465309 11.022098 -0.999603 19.839159 -0.589902 1.621203 0.020945 -0.000724 -52391.200000 1 0 0
-10.587109 6.343698 -14.547003 19.077334 -0.539824 2.438008 0.001847 -0.005956 -177200.000000 1 0 0
-13.612309 12.967898 -4.455803 19.321375 -0.761159 1.803506 0.020051 -0.006314 396917.000000 1 0 0
-18.050309 7.564698 -0.059903 19.571456 -0.396854 1.573857 0.030943 0.000835 -285211.000000 1 0 0
-12.722009 6.706998 -2.099203 14.534097 -0.485167 1.715736 -0.004133 0.006908 630839.000000 1 0 0
-13.765609 8.425898 -10.539803 19.276286 -0.549267 2.149305 -0.001011 0.001277 -64829.800000 1 0 0
-15.031409 1.336798 -0.937803 15.119846 -0.088700 1.632861 0.004288 -0.000051 -583125.000000 1 0 0
-13.447009 2.729098 -2.454703 13.938995 -0.200232 1.747823 -0.001612 0.001039 -72305.500000 1 0 0
-11.220409 8.955498 -10.995903 18.083374 -0.673608 2.224420 -0.000582 -0.006009 -439104.000000 1 0 0
-15.302609 4.325298 -7.977103 17.790790 -0.275465 2.035753 0.003702 0.006735 524326.000000 1 0 0
-18.543609 10.670198 4.423697 21.846914 -0.522143 1.366900 0.042661 -0.005428 669471.000000 1 0 0
-15.143709 6.201998 -6.212603 17.504089 -0.388706 1.933628 0.002117 0.009583 708736.000000 1 0 0
-7.664709 11.456198 -12.994503 18.943319 -0.981149 2.326729 -0.014791 0.007332 -1406650.000000 1 0 0
-16.805509 9.202298 -2.743703 19.355499 -0.500980 1.713029 0.026733 -0.001550 68625.900000 1 0 0
-20.628309 -1.094102 -5.021703 21.258920 0.052989 1.809266 0.014393 0.003330 -569905.000000 1 0 0
-15.440709 4.363098 4.284097 16.607396 -0.275391 1.309883 0.005211 -0.000869 466872.000000 1 0 0
-6.801809 12.531998 -9.345403 17.048523 -1.073532 2.150965 -0.001252 -0.010319 234177.000000 1 0 0
-17.313209 1.476298 5.728897 18.296090 -0.085064 1.252318 0.012464 -0.007738 179336.000000 1 0 0
-10.410009 14.377698 -3.063103 18.013025 -0.944119 1.741676 0.013883 -0.008650 1065130.000000 1 0 0
-10.001709 8.336998 -13.193303 18.536530 -0.694870 2.362777 -0.004678 0.000125 187740.000000 1 0 0
-13.624109 11.806198 2.802897 18.244421 -0.714034 1.416555 0.015551 -0.003743 -1339750.000000 1 0 0
-16.694709 6.724998 1.952297 18.103877 -0.382937 1.462748 0.008857 0.001536 758001.000000 1 0 0
-9.256509 13.280898 -8.382303 18.229871 -0.962101 2.048579 0.002847 -0.017181 -391287.000000 1 0 0
-5.552209 9.823098 -12.901803 17.139918 -1.056343 2.423002 -0.008462 0.001448 -615477.000000 1 0 0
-15.870009 1.782198 3.283197 16.303766 -0.111831 1.368033 -0.001206 -0.002975 -315557.000000 1 0 0
-18.570809 -4.945102 4.899597 19.832676 0.260245 1.321165 0.014755 0.000927 -1607000.000000 1 0 0
-5.238809 14.576798 -9.077803 17.953681 -1.225778 2.100901 -0.002971 -0.003358 -1175900.000000 1 0 0
-15.377009 -0.802602 -6.893603 16.870635 0.052148 1.991733 -0.004939 0.002663 623719.000000 1 0 0
-8.882209 11.017898 -9.429503 17.005977 -0.892309 2.158536 -0.009034 -0.009063 483024.000000 1 0 0
-16.725309 1.307698 -6.149503 17.867916 -0.078028 1.922145 -0.006248 0.002302 -91673.700000 1 0 0
-11.021109 8.646898 -1.563203 14.095293 -0.665265 1.681927 0.001659 0.001072 -950035.000000 1 0 0
-10.674009 10.920198 -12.721203 19.874964 -0.796798 2.265375 -0.001181 -0.006835 -430668.000000 1 0 0
-13.824709 11.753598 -10.413803 20.921686 -0.704603 2.091801 0.003181 -0.009985 -465505.000000 1 0 0
-13.077409 5.726998 -7.724703 16.232319 -0.412772 2.066765 0.000312 0.008790 -1233340.000000 1 0 0
-8.877409 15.479498 -4.903403 18.505853 -1.050094 1.838964 0.008212 -0.007254 302223.000000 1 0 0
-8.555609 6.122398 -12.922303 16.663376 -0.621120 2.458289 -0.005624 -0.005274 -1030750.000000 1 0 0
-16.369209 7.658898 4.319197 18.581313 -0.437627 1.336202 0.014974 0.005653 84268.100000 1 0 0
-12.646409 5.365898 -10.264303 17.148774 -0.401279 2.212479 0.002483 0.002980 224941.000000 1 0 0
-12.457509 9.106998 -13.258603 20.344962 -0.631259 2.280606 0.016845 -0.004424 -1303860.000000 1 0 0
-10.757209 5.198398 -8.594603 14.717611 -0.450156 2.194404 -0.005772 0.005029 -804699.000000 1 0 0
-17.684309 -4.457102 -2.546503 18.414267 0.246895 1.709531 0.003794 -0.001403 591114.000000 1 0 0
-8.960209 13.024798 -10.926403 19.217622 -0.968214 2.175553 0.004124 -0.018288 -523622.000000 1 0 0
-15.029609 6.268898 6.086497 17.384869 -0.395163 1.213115 0.001318 -0.002102 -975640.000000 1 0 0
-16.323909 -3.151202 -4.459403 17.212970 0.190696 1.832858 0.001277 0.000364 556059.000000 1 0 0
-11.212709 -1.260002 -12.596703 16.911220 0.111903 2.411140 0.001302 0.002377 490807.000000 1 0 0
-15.257109 6.909198 -8.576003 18.816594 -0.425222 2.044031 -0.000556 0.008884 130001.000000 1 0 0
-14.761509 9.316298 1.226397 17.498560 -0.562989 1.500653 0.014517 0.000731 -98528.200000 1 0 0
-19.499809 5.369798 7.733997 21.653914 -0.268717 1.205567 0.026924 -0.007844 692545.000000 1 0 0
-16.385609 0.632498 0.930397 16.424186 -0.038582 1.514118 0.005119 -0.002648 -1174030.000000 1 0 0
-17.527509 3.693698 7.030597 19.242824 -0.207698 1.196775 0.009020 -0.003155 589597.000000 1 0 0
-15.385309 4.033198 -1.442803 15.970476 -0.256377 1.661262 0.003008 0.002269 -1182070.000000 1 0 0
-10.577809 13.286698 0.278297 16.985401 -0.898426 1.554411 0.008730 -0.008632 -891710.000000 1 0 0
-13.545509 3.375798 0.106497 13.960235 -0.244243 1.563168 0.000588 -0.000584 -170797.000000 1 0 0
-15.119609 0.234498 -4.372003 15.740774 -0.015508 1.852248 -0.002348 0.000985 88461.000000 1 0 0
-18.664309 6.829598 3.443497 20.170709 -0.350784 1.399238 0.010436 0.001280 -833243.000000 1 0 0
-14.093609 1.399098 -6.458303 15.565891 -0.098948 1.998630 -0.003743 0.003495 976171.000000 1 0 0
-14.353409 12.059598 5.279597 19.476355 -0.698772 1.296284 0.015635 -0.006851 62101.900000 1 0 0
17.673991 5.296098 6.005897 19.403335 0.291140 1.256099 0.026049 -0.011736 56221.900000 1 0 0
18.395291 7.014398 -0.090303 19.687475 0.364295 1.575383 -0.002073 -0.004055 100640.000000 1 0 0
16.663891 5.068298 8.403897 19.339038 0.295258 1.121251 0.039903 -0.008177 266772.000000 1 0 0
11.754591 12.189498 11.089197 20.241654 0.803560 0.991016 0.021031 -0.003415 460516.000000 1 0 0
-2.348009 16.312398 -0.572503 16.490459 -1.427838 1.605521 0.002022 -0.004163 122626.000000 1 0 0
15.253191 12.452998 3.558897 20.010066 0.684673 1.391990 0.015912 -0.001155 246687.000000 1 0 0
13.540391 11.638598 6.685197 19.065440 0.710010 1.212537 0.017938 -0.004701 719814.000000 1 0 0
-0.594609 15.798098 8.549397 17.972915 -1.533176 1.075057 0.002173 -0.000140 259175.000000 1 0 0
0.704091 12.982398 9.496597 16.100427 1.516615 0.939942 0.002423 0.003699 -54684.500000 1 0 0
0.788491 15.564398 -3.804203 16.041950 1.520180 1.810218 0.006158 -0.002415 639425.000000 1 0 0
5.579591 10.184598 13.530797 17.830882 1.069608 0.709265 0.010579 -0.011851 393866.000000 1 0 0
-1.396509 16.602498 -2.828903 16.899582 -1.486879 1.738983 0.005916 -0.000504 -259829.000000 1 0 0
8.798491 10.034498 3.486997 13.793613 0.850934 1.315225 -0.003276 0.003700 630282.000000 1 0 0
12.663791 13.827698 -4.758703 19.344821 0.829305 1.819341 0.025442 -0.002975 4113.920000 1 0 0
2.403891 11.589298 7.919897 14.241323 1.366273 0.981085 0.001678 0.003468 381547.000000 1 0 0
-0.277509 15.021498 -8.677803 17.350120 -1.552324 2.094578 0.008105 0.003392 -1594820.000000 1 0 0
2.506191 15.957498 0.303097 16.155947 1.415015 1.552035 0.008038 -0.005581 -420454.000000 1 0 0
1.947591 13.504198 5.291597 14.634120 1.427563 1.200820 0.004231 0.005237 -48572.400000 1 0 0
17.658191 9.101698 -1.556403 19.926741 0.475921 1.648982 -0.007675 0.003919 322967.000000 1 0 0
-7.113709 15.082398 7.292797 18.200782 -1.130080 1.158531 0.007799 -0.009650 -585798.000000 1 0 0
8.567791 15.910198 -0.069803 18.070593 1.076818 1.574659 0.004361 -0.003109 -813147.000000 1 0 0
15.555691 10.262898 2.163297 18.761302 0.583200 1.455233 -0.000548 -0.001768 392524.000000 1 0 0
14.276491 7.422898 8.780897 18.330897 0.479471 1.071256 0.025600 -0.008847 -815498.000000 1 0 0
4.289091 18.604898 -1.919703 19.189158 1.344219 1.671005 0.016806 -0.011280 -350959.000000 1 0 0
-0.372609 17.576798 -4.854703 18.238717 -1.549601 1.840220 0.010371 -0.004485 718845.000000 1 0 0
1.452991 13.710598 -0.542703 13.798051 1.465215 1.610138 0.009024 -0.002342 -257282.000000 1 0 0
10.175391 14.593598 4.294597 18.301783 0.961918 1.333933 -0.002570 -0.001961 -186046.000000 1 0 0
-1.567809 15.328898 -5.101103 16.231278 -1.468873 1.890490 0.008507 -0.001135 666584.000000 1 0 0
15.109391 8.705298 -6.241303 18.521063 0.522699 1.914508 0.015595 0.000056 272768.000000 1 0 0
-2.276109 18.459698 0.852797 18.619033 -1.448114 1.524978 0.000889 -0.008741 1500490.000000 1 0 0
-3.771709 19.339998 3.376297 19.991516 -1.378193 1.401096 0.011280 -0.013508 -278499.000000 1 0 0
1.808491 17.732698 -2.615503 18.015551 1.469161 1.716492 0.006049 -0.005904 -19483.500000 1 0 0
3.023191 12.105398 3.400097 12.932170 1.326063 1.304751 0.000663 0.004606 1000400.000000 1 0 0
-2.551109 16.277198 1.964197 16.592571 -1.415332 1.452140 0.004356 -0.004229 -32977.300000 1 0 0
11.931191 12.833998 -2.615403 17.717369 0.821837 1.718956 0.007202 0.005993 583937.000000 1 0 0
7.342191 11.725298 4.746197 14.625894 1.011346 1.240306 -0.009312 0.004668 -236651.000000 1 0 0
7.244691 16.000398 2.181797 17.699111 1.145631 1.447210 0.000760 -0.001428 -1546210.000000 1 0 0
5.479291 12.126298 10.454897 16.922607 1.146403 0.904846 -0.000042 0.003090 860254.000000 1 0 0
-1.284809 14.178398 3.103997 14.570947 -1.480426 1.356125 0.004411 0.000216 -969515.000000 1 0 0
4.774191 16.073198 1.585897 16.842080 1.282068 1.476494 0.005599 -0.010311 -2563070.000000 1 0 0
7.362891 13.145598 12.061397 19.300161 1.060229 0.895745 0.004455 0.002267 163210.000000 1 0 0
0.509491 17.436798 -9.346603 19.790414 1.541585 2.062671 0.020614 0.003802 168352.000000 1 0 0
9.830491 9.454098 15.357097 20.539205 0.765883 0.726210 0.027898 -0.016418 -418119.000000 1 0 0
13.510991 7.480898 -0.076803 15.443983 0.505672 1.575769 -0.007139 0.002124 -13972.200000 1 0 0
12.421191 13.501898 -0.135603 18.346815 0.827063 1.578187 0.004490 0.001558 457962.000000 1 0 0
9.469091 12.366198 3.441997 15.950984 0.917308 1.353300 -0.002980 0.005464 63987.700000 1 0 0
-0.561009 12.807998 0.892897 12.851335 -1.527023 1.501261 0.007516 0.002130 -327432.000000 1 0 0
15.937891 7.122598 -0.925203 17.481527 0.420271 1.623746 -0.005767 0.003541 -645553.000000 1 0 0
-4.178009 18.506198 -2.332603 19.114815 -1.348756 1.693132 0.003275 -0.002584 -108286.000000 1 0 0
11.545091 9.181598 -3.188003 15.091529 0.671857 1.783644 0.004772 0.002262 -350768.000000 1 0 0
14.717091 9.655098 7.798897 19.251922 0.580614 1.153711 0.023433 -0.010933 651613.000000 1 0 0
4.560391 13.729398 4.767697 15.232350 1.250100 1.252448 0.002533 0.003602 670310.000000 1 0 0
2.224291 16.026098 5.744097 17.169099 1.432886 1.229658 0.009505 0.004917 4855.710000 1 0 0
6.180691 18.402198 5.602397 20.204670 1.246767 1.289832 0.006900 -0.013365 -546606.000000 1 0 0
10.658791 17.163398 -0.897203 20.223675 1.015065 1.615175 0.010770 -0.007025 -567228.000000 1 0 0
10.060491 13.567198 -4.337803 17.438431 0.932738 1.822185 0.019018 -0.003531 -827023.000000 1 0 0
16.497691 7.804298 2.308397 18.395912 0.441859 1.444980 -0.009082 -0.003322 71565.700000 1 0 0
4.039091 13.969098 -0.450603 14.548299 1.289328 1.601774 0.004328 -0.003351 -623699.000000 1 0 0
5.728591 13.226198 -2.298503 14.595622 1.162064 1.728934 0.004879 0.000012 -377556.000000 1 0 0
-6.203309 17.020598 -2.946403 18.353830 -1.221299 1.732027 0.008499 -0.002214 -605066.000000 1 0 0
18.046291 9.794298 2.621797 20.699534 0.497246 1.443795 0.006049 -0.004533 -779152.000000 1 0 0
7.883691 12.766798 9.501297 17.760022 1.017597 1.006310 0.002622 -0.000361 207416.000000 1 0 0
-2.454309 15.946298 6.583197 17.425457 -1.418084 1.183386 0.002016 0.001870 -36934.400000 1 0 0
10.970691 15.951598 6.381797 20.384722 0.968340 1.252375 0.002859 -0.001736 -27551.600000 1 0 0
13.517891 12.032198 1.491897 18.158550 0.727315 1.488544 0.005604 0.006102 568729.000000 1 0 0
17.544891 7.809498 -5.818203 20.066463 0.418784 1.864967 -0.003095 0.015025 759816.000000 1 0 0
9.540791 9.272098 8.013297 15.530983 0.771117 1.028674 0.004699 -0.003010 -83052.700000 1 0 0
-2.113209 14.214198 -1.972803 14.505207 -1.423208 1.707226 0.005058 -0.001340 643695.000000 1 0 0
10.992691 11.594298 0.868997 16.000693 0.812027 1.516460 0.000096 0.007371 -724990.000000 1 0 0
11.753291 9.705698 -0.546903 15.252525 0.690267 1.606661 -0.001701 0.005459 -1447630.000000 1 0 0
-0.297709 16.149698 11.152097 19.628312 -1.552364 0.966523 0.012435 -0.004997 133815.000000 1 0 0
2.173691 20.105398 -1.730403 20.296459 1.463100 1.656156 0.014659 -0.011216 -208612.000000 1 0 0
9.247091 14.352498 1.841097 17.172435 0.998450 1.463378 -0.000710 0.001333 -377051.000000 1 0 0
8.552191 11.695998 -5.178703 15.386855 0.939432 1.914065 0.014600 -0.003235 200183.000000 1 0 0
10.626091 9.933398 10.376797 17.867964 0.751719 0.951148 0.009171 -0.004693 -69528.100000 1 0 0
-4.971609 15.879598 5.857697 17.640611 -1.267382 1.232312 -0.006574 -0.002825 342069.000000 1 0 0
14.469991 9.153098 -1.815203 17.217863 0.564015 1.676418 0.009820 0.008037 -136175.000000 1 0 0
12.222891 9.446298 6.998397 16.959044 0.657957 1.145419 0.007503 -0.005368 -2001610.000000 1 0 0
3.206291 12.922498 9.815797 16.541497 1.327591 0.935514 -0.000021 0.000617 -733025.000000 1 0 0
8.510591 12.647398 -2.632303 15.469837 0.978482 1.741785 0.006253 0.000918 -892700.000000 1 0 0
9.742591 16.984598 2.036697 19.686107 1.050005 1.467152 0.008073 -0.002167 1108570.000000 1 0 0
9.559591 14.215798 -7.516603 18.707592 0.978792 1.984272 0.031096 -0.013723 796056.000000 1 0 0
6.350091 11.494998 7.215397 14.984011 1.066095 1.068386 -0.002455 0.005711 -1046710.000000 1 0 0
5.563791 16.920298 -5.605503 18.672812 1.253110 1.875694 0.014074 -0.004900 -429529.000000 1 0 0
-4.146109 17.301598 -4.693603 18.400147 -1.335594 1.828732 0.001588 -0.000426 179389.000000 1 0 0
-0.062709 18.644798 -0.544003 18.652838 -1.567433 1.599965 0.006748 -0.002989 -516882.000000 1 0 0
6.484391 15.762798 -2.842503 17.279842 1.180524 1.736046 0.003317 0.002489 -232769.000000 1 0 0
-0.722409 20.715998 0.835197 20.745409 -1.535938 1.530526 0.011566 -0.006599 82605.500000 1 0 0
-1.272909 18.830298 4.126897 19.319206 -1.503300 1.355521 0.007859 -0.010256 1082350.000000 1 0 0
7.296091 13.836498 -4.365003 16.239916 1.085542 1.842925 0.012237 0.002437 626658.000000 1 0 0
-0.816709 12.000898 7.750997 14.309665 -1.502847 0.998384 0.001720 0.008662 197356.000000 1 0 0
7.650591 10.784698 11.068197 17.243731 0.953794 0.873865 0.001678 -0.001713 45355.100000 1 0 0
1.477291 16.129198 -7.239903 17.741184 1.479460 1.991151 0.010655 -0.002344 -126528.000000 1 0 0
9.004891 7.076098 14.858297 18.759750 0.666026 0.656668 0.024893 -0.010400 226101.000000 1 0 0
11.561591 11.413698 -4.739803 16.923611 0.778961 1.854664 0.015979 0.001279 137114.000000 1 0 0
-3.297909 17.051898 4.409697 17.918953 -1.379751 1.322151 0.000691 -0.007767 -311067.000000 1 0 0
3.962491 15.497698 -6.756303 17.364550 1.320477 1.970435 0.013782 -0.005793 -51645.600000 1 0 0
-4.469709 13.932098 9.589097 17.493783 -1.260349 0.990654 0.011239 -0.007539 -864720.000000 1 0 0
6.301291 17.981398 0.651997 19.064681 1.233735 1.536590 -0.005275 -0.006228 -203774.000000 1 0 0
9.881391 10.743898 -2.086203 14.745355 0.827192 1.712755 0.005358 0.002962 -1758430.000000 1 0 0
7.350791 18.206998 -2.479803 19.790865 1.187075 1.696427 0.008291 -0.002297 82083.300000 1 0 0
3.495591 10.367098 10.468597 15.142239 1.245587 0.807440 0.000316 0.002455 761310.000000 1 0 0
0.172691 18.544098 1.986397 18.650983 1.561484 1.464090 0.009342 -0.010508 152875.000000 1 0 0
-0.973709 17.178598 -7.391003 18.726432 -1.514175 1.976519 0.014454 0.001289 -574180.000000 1 0 0
10.332891 8.491798 13.032797 18.674396 0.687906 0.798340 0.028605 -0.011975 29709.200000 1 0 0
3.710891 11.509398 5.741997 13.386840 1.258897 1.127490 -0.004715 0.006829 368899.000000 1 0 0
13.132791 13.786998 8.301597 20.771809 0.809695 1.159654 0.016859 -0.008263 -115070.000000 1 0 0
-0.307809 17.439398 6.720197 18.691934 -1.553148 1.203039 0.005983 -0.000424 -557386.000000 1 0 0
12.128991 13.684498 5.895097 19.212758 0.845585 1.258933 0.007750 0.004288 -592141.000000 1 0 0
4.930291 14.500898 -4.510803 15.966564 1.243059 1.857212 0.007140 -0.000917 -1116710.000000 1 0 0
3.842391 17.642298 4.882097 18.704265 1.356351 1.306723 0.007821 -0.004551 -425948.000000 1 0 0
7.162291 11.586798 2.123897 13.786343 1.017144 1.416122 -0.001715 0.003651 704144.000000 1 0 0
6.556491 8.566598 11.712497 15.923466 0.917540 0.744319 0.005356 -0.006201 232611.000000 1 0 0
-5.448509 14.937098 1.807497 16.002193 -1.221030 1.457602 0.006242 0.000372 -62637.500000 1 0 0
6.928191 13.816598 6.026097 16.589517 1.105998 1.199045 -0.004515 0.006111 -424097.000000 1 0 0
5.891991 15.926698 4.951097 17.688658 1.216465 1.287104 -0.000320 -0.002328 469050.000000 1 0 0
1.324091 18.067798 4.250297 18.608159 1.497643 1.340352 0.019488 -0.007060 548635.000000 1 0 0
7.464891 18.084398 -6.929703 20.755501 1.179321 1.911206 0.020516 -0.005952 206904.000000 1 0 0
-2.408609 18.931698 -5.907303 19.977658 -1.444250 1.870980 0.013464 0.004311 -897714.000000 1 0 0
13.586491 9.863098 -4.495503 17.380535 0.627930 1.832422 0.009187 -0.000671 -2127600.000000 1 0 0
-1.417209 18.007198 9.682497 20.494351 -1.492256 1.078731 0.015647 -0.008969 -93062.700000 1 0 0
3.502491 11.861298 -1.669303 12.479760 1.283669 1.704959 0.007841 -0.001764 344582.000000 1 0 0
4.240391 13.998198 -10.925103 18.256186 1.276659 2.212340 0.019377 -0.015519 -201973.000000 1 0 0
11.596291 13.532298 2.422697 17.985175 0.862290 1.435680 0.006720 0.005279 -1293310.000000 1 0 0
15.838791 6.296598 -7.066803 18.451400 0.378386 1.963833 0.005220 -0.004920 -43675.200000 1 0 0
2.619291 16.143698 3.022697 16.631788 1.409949 1.388038 0.009404 -0.003257 -55296.600000 1 0 0
13.398291 10.591298 3.537997 17.441537 0.668919 1.366530 -0.000940 0.004968 -1442400.000000 1 0 0
-4.749509 19.685698 -5.823703 21.071309 -1.334054 1.850822 0.001761 -0.001130 -358861.000000 1 0 0
5.567091 11.990798 0.102497 13.220524 1.136131 1.563043 0.003608 0.002335 1399630.000000 1 0 0
5.113691 15.285998 9.811797 18.870160 1.247965 1.023988 0.015200 -0.001212 164748.000000 1 0 0
7.969391 9.275798 13.828397 18.460124 0.861009 0.724101 0.014659 -0.012472 -1602810.000000 1 0 0
-4.922509 13.723498 7.054297 16.196561 -1.226399 1.120155 -0.001096 -0.000460 -1074750.000000 1 0 0
-4.551509 17.212298 0.707897 17.817984 -1.312280 1.531057 0.006353 -0.002931 -1923300.000000 1 0 0
-0.574409 16.497098 3.593597 16.893731 -1.535992 1.356441 0.006934 -0.007316 -1537980.000000 1 0 0
7.914491 16.794598 -4.733803 19.160026 1.130410 1.820448 0.012797 -0.008341 152261.000000 1 0 0
3.153991 16.388898 -4.520103 17.290893 1.380674 1.835284 0.005436 -0.005214 -297844.000000 1 0 0
9.414891 14.441698 8.401697 19.177887 0.993070 1.117320 0.002859 0.002828 280330.000000 1 0 0
12.759091 10.840598 9.107597 19.059415 0.704283 1.072587 0.017889 -0.010837 468954.000000 1 0 0
3.563691 12.263198 12.323097 17.746680 1.287985 0.803226 0.004350 0.001863 645595.000000 1 0 0
-3.188209 19.176498 5.875797 20.308317 -1.406047 1.277270 0.007970 -0.011079 172795.000000 1 0 0
-2.756409 15.850498 10.147797 19.021406 -1.398618 1.008071 0.017871 -0.006365 554690.000000 1 0 0
2.146291 14.227698 7.695597 16.317358 1.421072 1.079669 0.006195 0.002464 128602.000000 1 0 0
4.456591 17.159198 8.127097 19.502538 1.316690 1.140962 0.017763 -0.007497 -124676.000000 1 0 0
-2.004409 13.418198 9.439797 16.528021 -1.422513 0.962904 0.010738 -0.001037 -592048.000000 1 0 0
5.790591 17.825698 3.199097 19.013697 1.256705 1.401740 -0.008030 -0.007943 449905.000000 1 0 0
7.328891 15.470198 -6.947103 18.474358 1.128374 1.956316 0.020878 -0.003330 -338795.000000 1 0 0
10.913991 7.544798 9.354997 16.234382 0.604860 0.956668 0.009661 -0.008515 -89513.700000 1 0 0
9.024891 16.086498 -2.603403 18.627984 1.059530 1.711013 0.009157 -0.015006 -612854.000000 1 0 0
14.702391 11.326698 -6.372803 19.623124 0.656429 1.901554 0.036682 -0.004901 543383.000000 1 0 0
11.253191 6.331398 15.919397 20.497515 0.512489 0.681466 0.050566 -0.021135 393097.000000 1 0 0
8.470991 8.461798 10.099397 15.663893 0.784855 0.870092 0.003368 -0.005294 -1228700.000000 1 0 0
16.328991 9.221098 4.438597 19.270852 0.514065 1.338383 0.013207 -0.009386 -20359.800000 1 0 0
-3.324409 14.301298 4.660197 15.404423 -1.342397 1.263457 -0.000131 0.000902 -1257000.000000 1 0 0
4.722291 14.683798 12.728997 19.998533 1.259644 0.880849 0.005901 0.000172 -270982.000000 1 0 0
16.211391 10.366198 -4.480703 19.757124 0.568915 1.799576 0.014796 -0.010445 792097.000000 1 0 0
14.696791 14.028998 6.275897 21.264885 0.762155 1.271205 0.021264 0.004910 -190955.000000 1 0 0
6.234791 9.541098 9.257997 14.683858 0.991988 0.888614 -0.002494 0.003700 523910.000000 1 0 0
10.462791 12.100198 8.890297 18.300879 0.857842 1.063535 0.008014 -0.002637 733198.000000 1 0 0
8.026391 11.318998 -0.317303 13.879602 0.953984 1.593659 -0.000479 0.000741 -998452.000000 1 0 0
7.445991 13.541198 -8.783803 17.775321 1.068048 2.087661 0.026720 -0.004759 -1708930.000000 1 0 0
2.810991 15.304398 -2.155103 15.708938 1.389149 1.708420 0.004708 -0.004036 660481.000000 1 0 0
12.183891 13.553298 -7.563503 19.731844 0.838555 1.964179 0.021910 -0.016503 275030.000000 1 0 0
-7.975409 14.788498 9.731597 19.416766 -1.076207 1.045816 0.021519 -0.012320 139393.000000 1 0 0
11.489491 9.500598 2.232597 15.074955 0.690926 1.422150 0.005741 0.004793 -3080000.000000 1 0 0
12.043591 8.694098 4.551797 15.535581 0.625264 1.273442 0.002163 -0.001841 -220656.000000 1 0 0
14.059491 7.905198 6.069997 17.233871 0.512213 1.210862 0.006391 -0.008814 -2221350.000000 1 0 0
16.260291 7.318998 7.183497 19.224137 0.422949 1.187833 0.034513 -0.011579 -168406.000000 1 0 0
13.506991 8.202198 2.454297 15.991824 0.545738 1.416715 -0.006994 0.001391 -2024690.000000 1 0 0
-4.223209 17.584298 -7.300103 19.502167 -1.335091 1.954463 0.001896 -0.002591 -68771.500000 1 0 0
2.960991 19.591198 -4.069003 20.227192 1.420793 1.773343 0.005003 -0.008446 281471.000000 1 0 0
-0.051609 14.834398 6.214197 16.083478 -1.567317 1.174102 0.006082 0.003378 -834881.000000 1 0 0
6.888691 16.232798 8.249097 19.468061 1.169461 1.133243 0.005904 0.001744 -1741260.000000 1 0 0
12.789291 15.221698 -1.966303 19.978298 0.872018 1.669378 0.012053 -0.002636 -274564.000000 1 0 0
12.434691 15.800698 4.321597 20.565987 0.904051 1.359085 0.005143 0.000925 -147438.000000 1 0 0
3.084391 18.066398 1.338997 18.376646 1.401701 1.497868 0.016731 -0.009949 -893778.000000 1 0 0
10.408791 14.536298 -1.160103 17.916270 0.949376 1.635593 0.008054 0.007319 -1702230.000000 1 0 0
-6.408209 15.841498 -0.573203 17.098151 -1.186399 1.604327 0.001139 -0.003997 521743.000000 1 0 0
-3.986109 15.913698 -2.630003 16.614806 -1.325363 1.729758 0.007997 -0.003780 -556426.000000 1 0 0
-6.875009 17.114298 1.727097 18.524249 -1.188815 1.477426 0.004020 -0.004500 -13216.700000 1 0 0
-0.015909 19.415398 -6.417503 20.448528 -1.569977 1.890028 0.017797 -0.004180 -649218.000000 1 0 0
4.975391 14.778998 7.226597 17.187118 1.246061 1.136838 0.011049 0.002838 -308055.000000 1 0 0
8.774191 12.338898 6.994297 16.677980 0.952659 1.138042 0.006413 0.002328 151418.000000 1 0 0
-7.440409 17.523098 -5.743503 19.884830 -1.169260 1.863810 0.013481 -0.010522 429687.000000 1 0 0
-7.997209 17.803498 -1.343103 19.563328 -1.148614 1.639504 0.025975 -0.009962 -83588.200000 1 0 0
-13.753509 -9.035502 9.110397 18.809536 0.581252 1.065176 0.020409 -0.020586 506110.000000 1 0 0
-12.521309 -12.661902 7.657097 19.383964 0.790981 1.164704 0.007394 -0.017780 -451242.000000 1 0 0
-3.893409 -14.843302 12.527397 19.809541 1.314274 0.886159 0.005842 -0.014439 321244.000000 1 0 0
-2.240409 -14.119102 14.969797 20.699355 1.413429 0.762370 0.025320 -0.011074 -878071.000000 1 0 0
-7.155709 -13.496902 12.839997 19.955853 1.083302 0.871839 0.014138 -0.021515 118990.000000 1 0 0
-9.849909 -11.490802 8.923797 17.569672 0.862137 1.038041 0.005765 -0.016170 678314.000000 1 0 0
-10.684509 -10.528702 11.224797 18.735217 0.778053 0.928385 0.027252 -0.023242 292654.000000 1 0 0
-5.903009 -12.117402 10.902797 17.336318 1.117480 0.890660 0.008274 -0.013158 605152.000000 1 0 0
-12.534509 -10.189902 7.116597 17.652024 0.682586 1.155829 0.008867 -0.013772 -464764.000000 1 0 0
-7.786809 -11.043202 12.379597 18.325969 0.956641 0.829124 0.019423 -0.023645 -198859.000000 1 0 0
-14.764409 -11.437402 7.240097 20.030500 0.659098 1.200970 0.019070 -0.012197 -131215.000000 1 0 0
-11.086909 -9.118402 9.020897 16.954096 0.688279 1.009744 0.011224 -0.015236 -523306.000000 1 0 0
-5.478909 -11.685002 13.477297 18.659991 1.132350 0.763737 0.020232 -0.018673 -832056.000000 1 0 0
3.830491 -12.492302 14.821197 19.758496 -1.273270 0.722556 -0.018525 0.006239 -26319.200000 1 0 0
6.342991 -12.833402 14.296797 20.231860 -1.111754 0.786047 -0.003407 0.004569 -219322.000000 1 0 0
6.607191 -8.547702 16.112097 19.398914 -0.912750 0.590671 -0.007056 0.000858 130736.000000 1 0 0
0.770691 -1.725202 14.494497 14.617138 -1.150669 0.129630 0.008231 -0.004451 -924926.000000 1 0 0
-0.056209 -6.280402 15.724197 16.932129 1.561847 0.380011 0.007402 -0.005732 -462566.000000 1 0 0
-1.301309 -4.546702 18.197997 18.802473 1.292039 0.254254 0.019047 -0.023203 243586.000000 1 0 0
-5.167509 12.591498 13.092897 18.885786 -1.181360 0.804784 0.011580 -0.005099 -804486.000000 1 0 0
-4.089909 8.856598 11.648297 15.193733 -1.138179 0.697187 0.000050 0.004067 -141334.000000 1 0 0
-0.524109 -3.889302 15.113997 15.615194 1.436847 0.254047 0.008054 -0.004263 -481309.000000 1 0 0
-4.566509 9.202398 14.201897 17.528007 -1.110169 0.626234 0.007869 -0.003938 505748.000000 1 0 0
-13.410409 -2.561902 16.893497 21.720789 0.188764 0.679707 0.010292 0.006624 -261107.000000 1 0 0
-0.324209 0.871698 17.344197 17.369115 -1.214722 0.053571 0.010645 -0.004114 699210.000000 1 0 0
-3.232309 -7.276002 15.410097 17.345291 1.152741 0.476880 0.009780 -0.012062 439425.000000 1 0 0
-7.335709 5.528498 12.516897 15.525773 -0.645828 0.633093 -0.007622 0.002745 -2737460.000000 1 0 0
-9.783509 10.255698 13.362897 19.479821 -0.808957 0.814837 0.008642 -0.002665 -477209.000000 1 0 0
-5.523309 2.200398 11.160497 12.645370 -0.379113 0.489484 0.002192 0.002636 -829849.000000 1 0 0
-7.076509 -7.494902 16.794697 19.705643 0.814104 0.550470 0.021354 -0.016844 -428547.000000 1 0 0
-4.858209 3.084298 18.457597 19.333856 -0.565661 0.302222 0.014548 -0.002185 -606089.000000 1 0 0
1.047191 -8.337102 16.582297 18.589687 -1.445845 0.469011 0.002546 -0.008739 637951.000000 1 0 0
-14.977609 -3.764302 13.795497 20.707836 0.246229 0.841699 0.012152 -0.003041 305749.000000 1 0 0
-14.262209 2.087298 13.045897 19.441267 -0.145320 0.835184 0.004381 0.002165 -1282200.000000 1 0 0
-5.543909 0.922198 16.146897 17.097007 -0.164835 0.334945 0.013278 -0.003303 3938.540000 1 0 0
4.711491 5.675498 15.311597 16.995718 0.877942 0.448937 0.013344 -0.005554 -729361.000000 1 0 0
-1.070809 -12.002402 13.870897 18.374060 1.481816 0.715268 -0.000868 -0.008301 -124280.000000 1 0 0
-5.909109 -4.091602 16.741697 18.219308 0.605622 0.405517 0.024022 -0.013013 324481.000000 1 0 0
-13.084209 -1.521902 9.861497 16.454842 0.115796 0.928162 0.006696 0.002190 -829956.000000 1 0 0
-14.639709 10.327998 10.164697 20.598779 -0.614393 1.054732 0.008411 0.003214 392725.000000 1 0 0
-3.521809 -3.479402 17.633997 18.315765 0.779341 0.273701 0.021236 -0.013910 -1131670.000000 1 0 0
-7.822309 9.434198 11.876897 17.066145 -0.878536 0.801078 -0.002174 -0.002644 66639.300000 1 0 0
-4.457609 10.700298 16.292297 19.995140 -1.176073 0.618390 0.015284 -0.006568 319773.000000 1 0 0
-12.365909 13.029498 8.433197 19.844454 -0.811523 1.131873 0.010674 -0.003886 -7557.370000 1 0 0
-12.541609 3.201398 10.481397 16.655347 -0.249925 0.890130 0.007142 0.001173 612594.000000 1 0 0
-10.113909 -3.492702 13.621797 17.321763 0.332514 0.665841 0.012986 -0.003613 -1317670.000000 1 0 0
-4.359309 -6.436302 17.688897 19.321662 0.975468 0.414058 0.015903 -0.014714 -191548.000000 1 0 0
1.160891 -3.747402 18.200097 18.618116 -1.270386 0.212305 0.011146 -0.007002 -1095770.000000 1 0 0
-5.922809 1.803298 13.676197 15.012326 -0.295550 0.425099 0.002893 0.002694 -548791.000000 1 0 0
-10.424209 8.814698 10.316997 17.111501 -0.701933 0.923631 0.007319 -0.003334 -377806.000000 1 0 0
4.473791 2.607898 17.145297 17.910253 0.527772 0.293319 0.015631 -0.021770 -645243.000000 1 0 0
0.511191 -5.460002 13.309797 14.395264 -1.477444 0.390824 0.003510 -0.003499 -884765.000000 1 0 0
-4.311409 5.878098 20.620997 21.871575 -0.937959 0.339799 0.039885 -0.004552 -260730.000000 1 0 0
-10.742009 11.018698 9.105097 17.880304 -0.798113 1.036512 0.009699 -0.006339 924320.000000 1 0 0
0.692091 4.116598 13.128397 13.776073 1.404232 0.307856 0.011613 -0.002939 -1160500.000000 1 0 0
-3.046509 7.187998 13.352997 15.467743 -1.169915 0.529063 0.000557 0.004546 409606.000000 1 0 0
0.825491 8.888098 14.156997 16.736197 1.478186 0.562563 0.009059 -0.001990 331919.000000 1 0 0
-4.058109 -6.767402 13.024597 15.228464 1.030630 0.544706 0.012047 -0.012107 -154226.000000 1 0 0
-5.281309 8.291098 16.424597 19.141628 -1.003625 0.539323 0.015300 0.003252 715523.000000 1 0 0
1.438091 -10.763402 15.644597 19.043958 -1.437974 0.606761 -0.014645 -0.001455 -501862.000000 1 0 0
-15.115009 -1.229302 14.314597 20.853833 0.081151 0.814235 0.005814 0.002722 133356.000000 1 0 0
-13.610309 -5.390402 8.375997 16.865772 0.377099 1.051088 0.015942 -0.008509 -25797.800000 1 0 0
-14.300309 -1.932502 12.134197 18.853969 0.134323 0.871619 0.015023 -0.000735 112483.000000 1 0 0
9.349191 1.463198 17.076097 19.522843 0.155246 0.506036 0.020755 -0.011062 -3980.560000 1 0 0
5.122891 -6.725802 16.760197 18.771911 -0.919863 0.467198 -0.004861 -0.007295 912294.000000 1 0 0
-6.106909 -2.667502 10.924797 12.796917 0.411823 0.547737 0.009357 -0.002602 315986.000000 1 0 0
0.649891 -6.368502 18.159197 19.254522 -1.469101 0.338923 0.013358 -0.011409 -32233.000000 1 0 0
-8.304909 12.097098 12.028797 18.973752 -0.969174 0.884120 0.007961 -0.010701 -73634.500000 1 0 0
-6.624509 -5.802702 14.750597 17.179511 0.719365 0.538233 0.021483 -0.013284 -587736.000000 1 0 0
-4.275009 -8.934702 16.945297 19.627728 1.124519 0.528955 0.014343 -0.019959 145687.000000 1 0 0
2.528591 -6.015002 16.346297 17.600439 -1.172845 0.379787 -0.000301 -0.007429 423423.000000 1 0 0
2.297391 5.239098 16.020097 17.010869 1.157539 0.342980 0.019992 -0.011755 22123.000000 1 0 0
0.888791 -8.862002 14.004297 16.596547 -1.470838 0.566456 -0.003860 -0.005244 -446981.000000 1 0 0
-9.856709 -2.798402 11.145697 15.139760 0.276629 0.743377 0.000354 -0.001221 665620.000000 1 0 0
-1.151009 10.153098 12.465097 16.117967 -1.457913 0.686662 0.006011 -0.000999 -397852.000000 1 0 0
-12.362109 -3.542202 11.355997 17.155979 0.279060 0.847410 0.010860 -0.001554 -1821590.000000 1 0 0
-2.050609 6.907798 19.826197 21.095041 -1.282228 0.348602 0.031168 -0.004252 -366042.000000 1 0 0
0.147391 -13.420102 15.690697 20.647490 -1.559814 0.707587 -0.001895 -0.008142 -817575.000000 1 0 0
4.007791 -8.699402 15.441997 18.171331 -1.139082 0.555191 -0.012481 0.001193 -702113.000000 1 0 0
4.580691 -4.332902 16.243397 17.424257 -0.757606 0.370272 -0.002797 -0.002140 -21724.800000 1 0 0
7.941991 1.880398 14.873797 16.965876 0.232485 0.501861 0.001898 -0.007826 -342185.000000 1 0 0
-6.257609 -0.171902 11.826297 13.380901 0.027464 0.486832 0.008692 -0.000555 48829.100000 1 0 0
-3.387609 -10.982202 18.135597 21.470550 1.271593 0.564842 0.023201 -0.019141 -415074.000000 1 0 0
3.308891 -1.608102 13.619697 14.107831 -0.452380 0.263824 -0.002415 -0.002828 740336.000000 1 0 0
-2.618709 8.868598 15.929997 18.419405 -1.283677 0.525948 0.019692 0.003246 -500062.000000 1 0 0
-3.290309 4.059998 14.797897 15.693549 -0.889733 0.339478 0.007747 -0.000337 -1750810.000000 1 0 0
-4.803009 -9.256502 19.551597 22.158896 1.092159 0.489993 0.031525 -0.013961 -17860.600000 1 0 0
-5.655409 -2.908002 19.092597 20.123802 0.474942 0.321517 0.025509 -0.014824 -648672.000000 1 0 0
-6.570509 -8.654702 10.984697 15.451182 0.921443 0.779978 0.012265 -0.014742 -688804.000000 1 0 0
-11.645409 2.367898 12.680297 17.378505 -0.200598 0.752980 0.010558 -0.003832 -210113.000000 1 0 0
-11.645509 -7.575302 11.670397 18.143904 0.576721 0.872109 0.019613 -0.010218 -2089350.000000 1 0 0
-10.945009 -7.420702 15.490897 20.367325 0.595807 0.706597 0.028562 -0.020220 -727680.000000 1 0 0
0.310991 5.703598 17.726797 18.624368 1.516325 0.311723 0.018908 -0.006313 -38696.500000 1 0 0
-2.156609 -0.145102 13.251397 13.426524 0.067181 0.161690 0.008746 -0.000086 353289.000000 1 0 0
-5.923009 -10.793702 17.756897 21.607717 1.068916 0.606260 0.026219 -0.015369 315283.000000 1 0 0
0.334191 2.722998 19.234797 19.429458 1.448678 0.141673 0.020485 -0.006281 57811.900000 1 0 0
-0.570009 10.992898 14.770697 18.421244 -1.518990 0.640446 0.014540 -0.003630 -6770.630000 1 0 0
-12.769109 -2.386402 14.314297 19.329877 0.184757 0.736942 0.014598 0.002156 -564915.000000 1 0 0
-13.665209 8.485098 11.707897 19.894966 -0.555665 0.941612 0.010525 0.000443 156734.000000 1 0 0
-18.171209 -0.697202 6.791397 19.411388 0.038350 1.213368 0.020489 -0.008623 -401726.000000 1 0 0
-2.015309 -7.651602 17.637997 19.331514 1.313261 0.421696 0.012899 -0.016663 -1478890.000000 1 0 0
5.555591 2.612598 14.403797 15.657574 0.439578 0.402907 0.010405 -0.011557 -3212500.000000 1 0 0
-13.958009 -6.556902 11.154997 19.032943 0.439164 0.944573 0.012823 -0.013616 255428.000000 1 0 0
3.282891 7.621298 16.446897 18.421780 1.164064 0.467281 0.015032 -0.012352 -142985.000000 1 0 0
0.937991 1.894198 14.590097 14.742413 1.111003 0.143873 0.009112 -0.002635 -2017900.000000 1 0 0
-14.420409 0.790398 9.660397 17.375160 -0.054756 0.981244 0.002734 -0.000552 -2963290.000000 1 0 0
-9.540709 -5.253602 15.520597 18.960865 0.503343 0.611897 0.018790 -0.005327 -298067.000000 1 0 0
-2.765209 0.075598 18.216797 18.425629 -0.027332 0.150700 0.019188 -0.009972 283526.000000 1 0 0
6.716891 3.842498 17.248897 18.905181 0.519626 0.421711 0.025173 -0.024814 -831436.000000 1 0 0
-4.172009 -0.871402 14.743597 15.347269 0.205908 0.281406 0.014597 -0.001660 -797819.000000 1 0 0
4.803391 -8.948102 17.941897 20.616808 -1.078140 0.515075 -0.008173 0.003384 -256298.000000 1 0 0
1.939791 6.813998 13.467297 15.217143 1.293456 0.484285 0.009746 -0.002546 -1315330.000000 1 0 0
-3.709409 -1.041602 20.352797 20.714270 0.273750 0.187091 0.031062 -0.006494 -1370830.000000 1 0 0
-10.713609 1.495998 16.223497 19.499264 -0.138738 0.588083 0.014864 -0.002302 12718.700000 1 0 0
-4.006209 7.150798 18.295997 20.048121 -1.060120 0.421187 0.024257 0.001812 -687656.000000 1 0 0
-12.609709 0.980698 14.675397 19.373534 -0.077617 0.711326 0.016281 0.000762 -394153.000000 1 0 0
-16.091709 -4.678502 8.598697 18.835314 0.282940 1.096716 0.015838 -0.006711 -1296090.000000 1 0 0
-2.438209 0.750498 15.742397 15.947764 -0.298604 0.160656 0.015205 -0.003850 -181466.000000 1 0 0
-13.685009 -9.040902 12.214097 20.449977 0.583821 0.930707 0.022023 -0.020536 383550.000000 1 0 0
6.231391 -3.143402 14.570597 16.155913 -0.467198 0.446708 -0.001888 -0.002753 946394.000000 1 0 0
-15.793209 0.329698 7.424397 17.454393 -0.020873 1.131437 0.005298 -0.005666 138940.000000 1 0 0
-13.878309 5.915698 12.404597 19.531436 -0.402933 0.882646 0.001533 -0.002199 369801.000000 1 0 0
0.422591 9.535798 16.730597 19.261955 1.526509 0.518462 0.023454 -0.008612 -89267.000000 1 0 0
-10.482309 -5.416602 10.826597 16.013544 0.476948 0.828353 0.013358 -0.007482 117722.000000 1 0 0
-3.191909 -11.020102 15.014497 18.896191 1.288867 0.652484 0.012199 -0.011647 -1864070.000000 1 0 0
-3.462209 2.659698 12.625997 13.359517 -0.655053 0.332915 0.003880 0.002813 -1002580.000000 1 0 0
-12.415009 -7.655302 7.315797 16.317383 0.552548 1.105885 0.012675 -0.010980 -131805.000000 1 0 0
-8.146609 -1.943502 13.199497 15.632375 0.234188 0.565410 0.007956 -0.000918 -228569.000000 1 0 0
-9.781809 6.543598 9.499597 15.124312 -0.589586 0.891686 0.002024 0.000530 -732071.000000 1 0 0
-17.628609 -3.378702 6.610097 19.127908 0.189364 1.217947 0.001000 -0.011848 335297.000000 1 0 0
-1.430209 0.001398 20.525097 20.574866 -0.000978 0.069569 0.019640 -0.005012 -740592.000000 1 0 0
-2.944309 2.826898 20.187097 20.595611 -0.765057 0.199504 0.033648 -0.001791 -421797.000000 1 0 0
-3.734709 11.339898 11.306697 16.443319 -1.252642 0.812595 0.000189 -0.004057 -538521.000000 1 0 0
-4.166909 -4.886502 14.846497 16.175893 0.864714 0.408252 0.016502 -0.011580 297874.000000 1 0 0
-0.241709 -14.460602 13.347397 19.680458 1.554083 0.825478 0.010029 -0.008441 -808531.000000 1 0 0
-12.192709 0.391898 8.322797 14.767691 -0.032131 0.972081 0.002033 -0.000583 -563384.000000 1 0 0
-7.708609 2.026498 15.434897 17.371396 -0.257071 0.476679 -0.000073 0.004924 -957762.000000 1 0 0
3.639691 -2.253802 18.447097 18.937327 -0.554439 0.228033 0.011294 -0.007831 -690296.000000 1 0 0
-2.059009 4.867798 12.620597 13.682633 -1.170633 0.396597 0.001835 0.002849 -342771.000000 1 0 0
-10.434809 -6.209702 13.312697 18.018700 0.536805 0.739469 0.014598 -0.011766 -159347.000000 1 0 0
2.317891 -3.861402 14.313297 15.005116 -1.030177 0.304842 -0.001844 -0.002949 -1024410.000000 1 0 0
6.716991 1.174298 17.173197 18.477436 0.173076 0.377973 0.008555 -0.007253 -1558730.000000 1 0 0
-1.930609 -5.743602 13.862297 15.128764 1.246529 0.412086 0.005457 -0.007314 -2974100.000000 1 0 0
-12.984909 3.565598 14.576397 19.844211 -0.267990 0.745806 0.012363 0.003932 348826.000000 1 0 0
-13.294609 -6.933702 13.673797 20.292747 0.480733 0.831421 0.024185 -0.004941 -553769.000000 1 0 0
-9.417309 6.887998 11.954397 16.704426 -0.631503 0.773253 -0.000505 0.003242 -474015.000000 1 0 0
-1.131509 -2.544602 12.978797 13.274204 1.152383 0.211363 0.006056 -0.003407 538098.000000 1 0 0
0.101991 6.655198 15.354797 16.735348 1.555472 0.409030 0.017669 -0.007526 307863.000000 1 0 0
-16.370409 -0.880802 9.667697 19.032353 0.053753 1.037980 0.006798 -0.001828 -283932.000000 1 0 0
-1.287809 2.745398 13.942397 14.268360 -1.132190 0.214162 0.007688 0.000313 -2586080.000000 1 0 0
-11.186709 -3.526002 16.132397 19.945661 0.305339 0.628658 0.016499 -0.004832 1074410.000000 1 0 0
-5.127009 -1.481402 17.108397 17.921440 0.281280 0.302372 0.023216 -0.007697 284484.000000 1 0 0
-11.848209 6.808698 11.065797 17.583808 -0.521579 0.890122 0.010344 0.002997 -2178750.000000 1 0 0
-2.916609 4.797698 18.604697 19.433458 -1.024575 0.293096 0.026867 -0.001571 213006.000000 1 0 0
5.219691 -1.713002 16.453497 17.346386 -0.317106 0.322248 0.004369 -0.005481 -3529.870000 1 0 0
-7.966309 -4.162402 12.136797 15.102633 0.481486 0.637441 0.012721 -0.005113 -1498110.000000 1 0 0
-11.565009 -0.932202 16.113097 19.855738 0.080431 0.624068 0.022333 -0.003013 374646.000000 1 0 0
2.011291 1.994098 17.293697 17.524089 0.781106 0.162333 0.011028 -0.015244 -2086310.000000 1 0 0
-8.945509 -7.439102 11.537497 16.385244 0.693716 0.789586 0.014933 -0.016243 2245370.000000 1 0 0
-7.162409 6.830898 14.748797 17.761990 -0.761712 0.591048 -0.010526 0.002260 -1307250.000000 1 0 0
-5.682009 3.485498 15.705897 17.061920 -0.550234 0.401378 0.003942 0.002976 -473408.000000 1 0 0
-9.340609 4.219398 11.603497 15.481972 -0.424289 0.723513 -0.001873 0.000313 85351.300000 1 0 0
-10.183709 0.097398 14.141397 17.426891 -0.009564 0.624133 0.007447 0.002479 -809670.000000 1 0 0
8.176491 -0.461302 15.879897 17.867259 -0.056358 0.476140 0.004618 -0.004377 172341.000000 1 0 0
-8.519609 -7.484702 14.598797 18.485924 0.720824 0.660436 0.023309 -0.013240 -2478200.000000 1 0 0
0.085291 4.068698 15.701497 16.220314 1.549837 0.253604 0.015135 -0.005874 142209.000000 1 0 0
-8.076009 3.076498 9.582597 12.903989 -0.363971 0.733841 -0.000413 0.001344 -426595.000000 1 0 0
-2.103709 -9.631402 13.150897 16.435802 1.355752 0.643272 -0.003584 -0.008737 508721.000000 1 0 0
-6.009309 10.356098 10.432197 15.880532 -1.045012 0.854073 0.005652 -0.005710 -2293960.000000 1 0 0
-8.587509 -2.813002 15.640197 18.063058 0.316554 0.523916 0.019583 -0.008662 -450108.000000 1 0 0
4.105191 5.650798 17.848897 19.166827 0.942519 0.372998 0.024395 -0.019396 -193113.000000 1 0 0
-6.801909 -1.066702 15.165197 16.654940 0.155557 0.426178 0.014512 -0.003696 -36581.200000 1 0 0
-0.949709 -9.888202 15.487797 18.399738 1.475045 0.570298 -0.002431 -0.005515 -1407230.000000 1 0 0
-4.405209 5.741598 16.217997 17.759371 -0.916350 0.419708 0.008667 0.003465 105965.000000 1 0 0
3.710491 0.087298 17.548997 17.937187 0.023523 0.208423 0.013390 -0.007046 -512771.000000 1 0 0
1.265591 0.343898 19.233097 19.277760 0.265323 0.068083 0.013320 -0.006519 -421277.000000 1 0 0
-6.511409 6.352698 17.728497 19.926235 -0.773061 0.474095 0.008092 0.003289 436952.000000 1 0 0
-12.214509 0.626698 10.894797 16.379365 -0.051263 0.843097 0.009762 0.002236 -545770.000000 1 0 0
-5.287509 5.207098 13.896997 15.754306 -0.777736 0.490478 -0.004364 0.003933 -1806240.000000 1 0 0
-8.718909 -9.378102 9.866397 16.165208 0.821808 0.914297 0.016114 -0.015973 -363811.000000 1 0 0
7.021891 -3.540302 16.998597 18.729469 -0.466987 0.433299 0.005865 -0.003777 -177044.000000 1 0 0
-16.853909 1.684898 9.316497 19.331069 -0.099640 1.067924 0.015976 -0.007275 58528.600000 1 0 0
-4.073709 -9.504002 11.290297 15.309865 1.165854 0.741506 0.003642 -0.012756 290002.000000 1 0 0
-11.145209 -3.799202 9.104397 14.884209 0.328529 0.912612 0.004778 -0.000780 -307188.000000 1 0 0
3.855291 -5.444102 18.577697 19.739107 -0.954615 0.344744 0.004508 -0.002390 15427.400000 1 0 0
2.651191 -1.855502 16.073897 16.396398 -0.610642 0.198665 0.003355 -0.006620 -691213.000000 1 0 0
-3.057709 -4.233502 20.146997 20.812823 0.945283 0.253626 0.028847 -0.019002 -646419.000000 1 0 0
-6.294109 -3.377302 14.371697 16.048914 0.492483 0.461258 0.018582 -0.006412 -74424.900000 1 0 0
-9.497109 5.112098 13.937197 17.623112 -0.493800 0.658604 0.004719 0.001813 13282.200000 1 0 0
-5.805909 -5.234402 11.754797 14.116756 0.733679 0.586859 0.009589 -0.004012 -77361.800000 1 0 0
5.948491 2.431998 19.290197 20.332508 0.388106 0.321581 0.026384 -0.026564 202341.000000 1 0 0
-2.767209 11.903398 13.582897 18.271383 -1.342381 0.732661 0.010667 -0.007382 -97787.800000 1 0 0
3.330291 1.275198 15.228697 15.640658 0.365686 0.230024 0.002541 -0.008168 -862931.000000 1 0 0
-5.711409 7.435998 12.735297 15.814615 -0.915827 0.634638 -0.008620 -0.003208 -834910.000000 1 0 0
-1.765009 -1.715802 15.330797 15.527156 0.771262 0.159204 0.013664 -0.002978 848540.000000 1 0 0
-7.432309 10.586998 14.110697 19.142506 -0.958714 0.741969 0.019760 -0.010341 -16663.500000 1 0 0
-10.129209 2.001798 10.571797 14.777380 -0.195112 0.773594 0.000557 0.002439 -1011920.000000 1 0 0
-13.739809 5.135198 9.249297 17.340764 -0.357671 1.008199 -0.001767 0.002619 -86979.300000 1 0 0
0.365991 -5.056302 20.311497 20.934590 -1.498539 0.244592 0.012360 -0.012688 -110493.000000 1 0 0
-14.370409 -2.918702 7.505897 16.473189 0.200379 1.097702 0.003064 -0.005184 383854.000000 1 0 0
-2.426709 2.545698 17.557497 17.906289 -0.809324 0.197698 0.015347 -0.003897 523141.000000 1 0 0
-6.160209 -8.427602 14.549397 17.906915 0.939595 0.622366 0.014720 -0.014515 135722.000000 1 0 0
-7.958309 1.857598 11.964397 14.489036 -0.229311 0.599256 -0.000148 0.002184 -297264.000000 1 0 0
-14.412909 -3.591002 10.010597 17.911987 0.244180 0.977765 0.001739 -0.005851 -579346.000000 1 0 0
-0.490609 7.061598 12.815597 14.640574 -1.501432 0.504641 0.008699 -0.000989 -469480.000000 1 0 0
-1.752009 -2.194902 19.078097 19.283696 0.897143 0.146156 0.023916 -0.022289 287989.000000 1 0 0
-12.845209 10.689698 7.483297 18.310346 -0.694065 1.149776 0.006332 -0.004200 406489.000000 1 0 0
-19.556809 2.138998 6.968597 20.871163 -0.108941 1.230373 0.018672 -0.009766 318765.000000 1 0 0
-16.132409 8.468398 6.694997 19.411115 -0.483393 1.218658 0.012495 0.002940 346338.000000 1 0 0
-12.111909 7.473998 13.628697 19.705339 -0.552883 0.807060 0.006677 0.005816 516732.000000 1 0 0
-15.856909 8.020598 10.394197 20.586668 -0.468286 1.041531 0.002413 -0.001492 -495713.000000 1 0 0
2.045491 10.853798 15.094997 18.704222 1.384523 0.631679 0.018478 -0.013129 -676630.000000 1 0 0
2.169791 14.309198 13.208497 19.594018 1.420307 0.831039 0.002504 0.001808 -502169.000000 1 0 0
-3.120709 13.763998 11.775297 18.380536 -1.347836 0.875465 0.005470 -0.005327 232922.000000 1 0 0
9.126491 4.647498 15.821597 18.847149 0.471006 0.574491 0.025846 -0.011278 -254030.000000 1 0 0
-0.293509 12.625798 12.802597 17.983421 -1.547554 0.778581 0.005933 -0.006826 54124.200000 1 0 0
3.962591 13.269498 14.714097 20.206097 1.280602 0.755103 0.014305 -0.003608 -11805.900000 1 0 0
-2.890209 -4.144302 -13.788503 14.685073 0.961822 2.790353 -0.002007 -0.002846 -105997.000000 1 0 0
5.731391 -11.576502 16.410297 20.884494 -1.111086 0.666865 -0.014585 0.004968 161593.000000 1 0 0
7.670291 -13.616102 7.324797 17.259324 -1.057780 1.132501 -0.000983 -0.004287 -114244.000000 1 0 0
-0.106509 15.596898 1.260197 15.648088 -1.563968 1.490175 0.005939 -0.004434 -1798350.000000 1 0 0
-13.714109 8.237098 8.972097 18.341895 -0.540882 1.059671 0.003962 0.000559 285231.000000 1 0 0
-15.493709 -9.718402 4.703297 18.884474 0.560214 1.319091 0.014228 -0.006382 -957594.000000 1 0 0
9.392791 -11.241402 11.122497 18.393031 -0.874749 0.921391 0.010687 -0.001574 88609.600000 1 0 0
-5.889509 -10.822602 -16.644803 20.709044 1.072428 2.504360 0.012253 -0.008629 128177.000000 1 0 0
-1.872809 -12.770202 -14.582603 19.474028 1.425180 2.417081 0.006377 0.002421 -119205.000000 1 0 0
5.570591 -15.365102 -12.884703 20.811857 -1.222987 2.238397 0.012775 0.008087 226350.000000 1 0 0
2.584791 -11.709602 -16.812003 20.650408 -1.353539 2.522016 0.017595 0.003465 135682.000000 1 0 0
0.714091 -14.006502 -14.675603 20.299393 -1.519858 2.378870 0.025413 0.014442 261678.000000 1 0 0
-6.501709 -6.337702 -14.544303 17.145712 0.772625 2.583518 0.018638 0.001511 16973.300000 1 0 0
-5.878309 -8.232402 -17.482703 20.198313 0.950706 2.617049 0.003883 0.001430 -58791.900000 1 0 0
-2.418309 -16.218002 -13.191103 21.044643 1.422774 2.248255 0.018638 -0.001363 268042.000000 1 0 0
15.747591 -8.082802 -9.672503 20.171158 -0.474209 2.070906 -0.001666 0.009068 -59619.400000 1 0 0
18.816491 -2.897202 -3.450403 19.348369 -0.152772 1.750086 0.005941 -0.012336 100253.000000 1 0 0
15.812291 -11.196702 -8.944903 21.340243 -0.616142 2.003312 0.035423 -0.015136 305766.000000 1 0 0
18.567091 -2.731902 -6.580703 19.887328 -0.146089 1.908053 0.133460 0.001854 -201546.000000 1 0 0
8.910691 -9.918202 -15.876103 20.732144 -0.838856 2.443038 0.035208 0.006515 169237.000000 1 0 0
-4.768209 9.367198 -15.962603 19.112428 -1.099949 2.559283 -0.003510 -0.007470 424246.000000 1 0 0
2.210891 -9.829302 -18.588503 21.143218 -1.349550 2.644916 0.011373 0.012938 71542.000000 1 0 0
10.984191 7.861198 -14.945803 20.145171 0.621174 2.406703 0.046568 -0.045401 456750.000000 1 0 0
18.019791 -5.692702 -7.644803 20.385356 -0.305992 1.955209 -0.001929 -0.015028 216609.000000 1 0 0
12.064391 5.035498 -13.953503 19.120827 0.395403 2.388759 0.016287 -0.013135 200914.000000 1 0 0
15.826391 6.340898 -10.581303 20.066031 0.381070 2.126244 0.015550 -0.022960 203372.000000 1 0 0
3.673191 -0.352802 -19.157503 19.509657 -0.095754 2.951304 0.011368 -0.004126 179900.000000 1 0 0
10.338091 -1.661302 -14.857503 18.176398 -0.159335 2.527690 0.013980 -0.003786 170027.000000 1 0 0
12.194291 -5.840902 -14.354503 19.719752 -0.446696 2.386087 0.025672 0.009070 -14214.900000 1 0 0
10.060091 6.584498 -12.911003 17.642422 0.579544 2.391779 0.020796 -0.010800 492702.000000 1 0 0
10.773491 4.968098 -16.352603 20.202914 0.432080 2.513957 0.043653 -0.022488 263020.000000 1 0 0
11.927791 -10.267302 -14.904303 21.675515 -0.710724 2.328989 0.053906 -0.006030 217493.000000 1 0 0
-1.332009 2.192198 -17.696203 17.881151 -1.024798 2.997641 -0.000156 0.002158 333819.000000 1 0 0
6.655391 -0.932402 -17.521803 18.766384 -0.139191 2.775352 0.009908 0.016914 70787.100000 1 0 0
7.058391 -6.102102 -15.726603 18.286131 -0.712862 2.606123 -0.000053 0.000534 293846.000000 1 0 0
-1.913209 -5.017102 -20.804003 21.485768 1.206481 2.889005 0.001122 -0.002482 342995.000000 1 0 0
15.943491 -0.253002 -13.514703 20.902299 -0.015867 2.273870 0.032511 -0.002635 57419.500000 1 0 0
-3.952209 -0.494002 -18.549003 18.971808 0.124349 2.930078 0.002736 0.000439 136676.000000 1 0 0
4.691291 8.312998 -18.076903 20.442323 1.057016 2.655764 0.033945 -0.014248 103228.000000 1 0 0
8.920291 0.864298 -15.994203 18.333934 0.096590 2.630852 0.011292 -0.050714 -116591.000000 1 0 0
4.224491 4.548298 -18.013003 19.052601 0.822292 2.809725 0.012845 -0.015637 262958.000000 1 0 0
-2.289709 -11.275302 -18.296003 21.612934 1.370448 2.580230 0.003525 0.001968 220017.000000 1 0 0
6.514091 -9.094902 -16.468003 19.908434 -0.949257 2.544880 0.024619 -0.004312 258195.000000 1 0 0
9.545091 -13.217502 -11.523303 19.964910 -0.945355 2.186065 -0.005145 0.044231 81630.200000 1 0 0
6.252891 6.805498 -17.003803 19.353107 0.827691 2.643737 0.020296 -0.021597 160424.000000 1 0 0
8.838991 1.582498 -20.215503 22.120095 0.177159 2.723580 0.044411 -0.013635 45648.300000 1 0 0
-0.835109 -0.982602 -20.350303 20.391119 0.866363 3.078310 0.007390 -0.000644 85831.300000 1 0 0
-0.718009 6.410998 -19.599803 20.634164 -1.459265 2.823621 0.014029 -0.003665 148566.000000 1 0 0
8.682091 6.030398 -18.066403 20.931778 0.607078 2.612190 0.036117 -0.022937 199815.000000 1 0 0
12.060291 0.043598 -12.934203 17.684630 0.003615 2.391141 -0.000428 -0.006903 -125293.000000 1 0 0
-3.883809 -2.427402 -19.697903 20.223344 0.558603 2.913141 -0.011430 -0.000192 423875.000000 1 0 0
5.487391 -11.256302 -14.507603 19.164716 -1.117203 2.429499 -0.003037 -0.001206 -19726.600000 1 0 0
11.331791 2.227598 -16.232003 19.921084 0.194104 2.523207 0.033762 -0.002094 -467363.000000 1 0 0
-2.730709 -4.262202 -17.227403 17.955683 1.001001 2.855806 -0.009471 0.000641 168168.000000 1 0 0
-6.771409 -4.821102 -17.421603 19.303037 0.618720 2.696409 0.025326 -0.007966 48256.500000 1 0 0
3.100591 10.509598 -15.464603 18.953080 1.283910 2.525152 0.010530 -0.009185 123122.000000 1 0 0
17.462791 -6.099902 -10.682803 21.360715 -0.336059 2.094527 0.062409 -0.008171 -47331.200000 1 0 0
9.283291 -3.374202 -17.715103 20.282741 -0.348624 2.632953 -0.005955 -0.001824 -8783.370000 1 0 0
-7.279209 -1.533002 -18.732703 20.155672 0.207567 2.763583 0.012838 0.008380 590619.000000 1 0 0
1.151091 -7.434402 -19.255403 20.672830 -1.417183 2.769134 -0.000491 -0.009771 297199.000000 1 0 0
5.269791 10.209298 -15.019503 18.909943 1.094292 2.488593 0.015861 -0.006615 232042.000000 1 0 0
6.215391 -4.010702 -17.493303 18.992958 -0.573054 2.741543 0.018560 -0.016154 291784.000000 1 0 0
4.826591 13.534298 -14.762003 20.600727 1.228237 2.369678 0.020224 -0.010234 135366.000000 1 0 0
9.704591 11.190098 -15.670103 21.562688 0.856374 2.384336 0.059587 -0.019459 -107652.000000 1 0 0
17.183791 1.059998 -11.563303 20.739244 0.061608 2.162236 0.041810 -0.003704 260117.000000 1 0 0
14.374791 -2.804902 -12.665203 19.362579 -0.192705 2.283798 0.022228 0.004550 141031.000000 1 0 0
-8.452709 0.523498 -17.397903 19.349660 -0.061854 2.688579 -0.001577 0.000174 354757.000000 1 0 0
-3.060809 4.436398 -19.052603 19.800299 -0.966860 2.865905 0.003689 0.003233 31295.300000 1 0 0
3.758791 1.614598 -17.007403 17.492489 0.405720 2.905541 0.001707 -0.001565 578138.000000 1 0 0
-4.778209 14.178398 -14.095703 20.555950 -1.245744 2.326394 -0.015282 -0.004607 274202.000000 1 0 0
0.937891 9.308898 -17.847903 20.151498 1.470383 2.658766 0.005583 -0.000272 352745.000000 1 0 0
1.482791 -5.085602 -19.675003 20.375666 -1.287095 2.878586 0.003656 0.001008 549023.000000 1 0 0
3.776591 -6.191302 -18.127803 19.524654 -1.023068 2.761033 0.006484 -0.010924 52954.100000 1 0 0
-6.859109 7.440798 -15.815603 18.776212 -0.826054 2.572372 -0.002776 0.002769 -16179.300000 1 0 0
-11.825909 3.119298 -16.836903 20.810176 -0.257894 2.513365 0.031351 -0.009409 345486.000000 1 0 0
-4.045709 6.675498 -17.533403 19.192453 -1.025938 2.722742 -0.003960 0.017477 437268.000000 1 0 0
-7.978309 5.364698 -17.861903 20.284994 -0.591969 2.647813 -0.000558 0.003910 337368.000000 1 0 0
-8.293409 4.134798 -14.968103 17.604581 -0.462498 2.587236 -0.014241 -0.013524 319528.000000 1 0 0
9.536991 13.913298 -12.518103 21.005641 0.969896 2.209232 0.047645 -0.027411 307632.000000 1 0 0
14.353291 9.786998 -11.971603 21.097904 0.598450 2.174179 0.057727 -0.020022 -120643.000000 1 0 0
8.271691 15.630398 -9.986203 20.308975 1.084058 2.084853 0.012193 -0.013838 126424.000000 1 0 0
7.802791 12.418498 -14.241803 20.443375 1.009813 2.341509 0.041272 -0.042581 225544.000000 1 0 0
3.856591 15.518998 -12.786603 20.474614 1.327223 2.245300 0.040465 -0.023460 164863.000000 1 0 0
10.879491 11.871698 -11.191303 19.609839 0.828982 2.178152 0.036976 -0.014884 148057.000000 1 0 0
16.312991 10.270498 -10.298503 21.855342 0.561893 2.061461 0.055942 -0.010512 330526.000000 1 0 0
13.229491 11.410698 -9.935303 20.098102 0.711718 2.087872 0.046962 -0.013125 112714.000000 1 0 0
11.035391 11.364398 -7.661703 17.596337 0.800085 2.021295 0.019973 -0.007556 135547.000000 1 0 0
5.511191 17.158698 -10.426503 20.820810 1.260015 2.095288 0.047838 -0.006035 -29870.700000 1 0 0
11.829191 13.797298 -10.102903 20.793361 0.862047 2.078156 0.056896 -0.024472 162748.000000 1 0 0
8.233491 -19.474202 -1.788503 21.218710 -1.170799 1.655185 0.028977 0.002164 238678.000000 1 0 0
7.673991 -17.151202 -4.191203 19.251495 -1.150080 1.790262 0.025906 0.006410 207309.000000 1 0 0
3.854491 -18.550602 5.311497 19.677244 -1.365929 1.297475 0.032087 -0.018255 119511.000000 1 0 0
10.391991 -17.960802 -2.538003 20.905151 -1.046266 1.692502 0.023857 0.006846 684572.000000 1 0 0
-3.327409 -14.657602 7.787797 16.928282 1.347570 1.092749 0.020878 -0.032274 132943.000000 1 0 0
-15.167609 -12.983302 -4.264903 20.415971 0.707961 1.781247 -0.005769 -0.005357 49835.500000 1 0 0
-9.355409 -12.610202 -6.897903 17.149983 0.932505 1.984726 0.010921 -0.013754 114298.000000 1 0 0
-11.490909 -15.256702 7.003297 20.343405 0.925269 1.219352 0.000597 -0.009650 274333.000000 1 0 0
-15.610709 -8.016802 -8.112503 19.333289 0.474425 2.003815 0.074400 -0.012747 -52016.200000 1 0 0
4.347391 -15.034502 6.116297 16.803129 -1.289313 1.198240 0.013180 -0.014950 101474.000000 1 0 0
2.877291 -14.269102 9.102197 17.167879 -1.371820 1.011974 -0.000572 -0.002149 366897.000000 1 0 0
3.220291 -17.392902 10.230897 20.434152 -1.387720 1.046416 0.022830 -0.007432 276671.000000 1 0 0
-7.312409 -17.362602 -5.564803 19.644294 1.172184 1.858007 -0.034858 -0.009124 -4842.510000 1 0 0
2.034691 -19.827502 -3.739003 20.279298 -1.468535 1.756233 0.021907 -0.014283 117087.000000 1 0 0
-16.786509 -10.391802 -3.162303 19.994414 0.554314 1.729623 -0.095189 -0.010676 -188227.000000 1 0 0
-4.236609 -14.900702 2.934897 15.766845 1.293784 1.383561 0.001440 -0.002798 93058.700000 1 0 0
-10.820009 -9.947402 -14.621203 20.731690 0.743405 2.353584 0.022904 -0.004782 173421.000000 1 0 0
0.522291 -20.338302 2.788397 20.535201 -1.545122 1.434589 0.016823 -0.003641 294719.000000 1 0 0
5.530591 -18.704202 0.628297 19.514850 -1.283301 1.538595 0.007917 0.008991 214203.000000 1 0 0
-7.665709 -18.773202 -3.609003 20.596628 1.183127 1.746929 0.004733 -0.022559 136373.000000 1 0 0
-9.670109 -15.561202 -7.547103 19.814660 1.014772 1.961549 0.018411 -0.011893 74828.600000 1 0 0
-11.550009 -11.438502 -12.046003 20.232356 0.780548 2.208539 -0.000959 -0.001643 371691.000000 1 0 0
-13.238009 -15.592102 -3.507803 20.752426 0.866871 1.740643 -0.002760 0.006708 203586.000000 1 0 0
-0.358509 -20.609002 -2.939503 20.820667 1.553402 1.712452 0.013878 -0.007439 328608.000000 1 0 0
-12.318909 -16.601002 -0.696403 20.684143 0.932397 1.604471 0.013205 -0.013487 114083.000000 1 0 0
1.331191 -20.334902 5.014397 20.986293 -1.505426 1.329526 0.024231 -0.004398 -15911.400000 1 0 0
-18.312909 -8.999802 2.300397 20.534140 0.456781 1.458533 0.025721 0.007066 84521.800000 1 0 0
-14.902809 -15.221202 -0.573403 21.309798 0.795967 1.597708 0.003621 -0.002071 -166721.000000 1 0 0
9.660391 -15.981102 -4.721703 19.261704 -1.027083 1.818454 0.018162 0.013042 -21240.400000 1 0 0
0.078091 -19.103002 -6.944103 20.326125 -1.566708 1.919452 0.005987 -0.006428 181065.000000 1 0 0
-10.225509 -16.754202 -2.333803 19.766410 1.022819 1.689142 0.011672 -0.010304 602820.000000 1 0 0
-14.548409 -6.971702 -11.328003 19.712546 0.446875 2.182984 0.014591 -0.007521 -1065.080000 1 0 0
-12.758009 -14.621102 1.801197 19.488143 0.853341 1.478239 0.012399 -0.021724 386362.000000 1 0 0
-2.430809 -15.974802 9.909597 18.955296 1.419790 1.020678 0.011387 -0.016997 400367.000000 1 0 0
-12.578809 -14.246202 -6.512203 20.089537 0.847476 1.900919 0.013899 -0.014074 96512.200000 1 0 0
4.881191 -16.957002 -7.489403 19.169170 -1.290517 1.972189 0.000222 0.002611 75711.400000 1 0 0
-17.853209 -7.560902 -3.042103 19.625460 0.400603 1.726432 0.012503 0.003924 37958.300000 1 0 0
-11.917609 -13.738502 -9.239403 20.399569 0.856252 2.040836 0.008687 -0.019862 121211.000000 1 0 0
-7.867309 -13.648002 9.779997 18.542137 1.047878 1.015203 0.015505 -0.013858 556931.000000 1 0 0
-15.918609 -8.352202 -5.682603 18.853471 0.483197 1.876966 0.024424 0.000188 482696.000000 1 0 0
-0.638909 -19.581802 0.233697 19.593616 1.538180 1.558869 0.014232 -0.007547 21645.100000 1 0 0
-15.236809 -11.407302 -1.698803 19.109495 0.642648 1.659812 0.015026 -0.003224 240143.000000 1 0 0
-6.953909 -18.920102 1.333297 20.201604 1.218581 1.504749 0.004003 -0.005939 146531.000000 1 0 0
-2.345409 -20.738102 -5.453503 21.571057 1.458178 1.826386 0.000326 -0.006256 19743.200000 1 0 0
-9.046109 -19.549502 -0.922103 21.560737 1.137408 1.613577 0.006965 -0.008181 212404.000000 1 0 0
-17.736309 -7.492802 5.096797 19.917231 0.399713 1.312019 0.018315 -0.002862 63618.400000 1 0 0
-3.240509 -15.926202 -10.926803 19.584173 1.370066 2.162698 0.008319 0.006186 82152.200000 1 0 0
-3.167809 -18.280702 -8.435603 20.380836 1.399213 1.997529 0.001360 0.001004 161560.000000 1 0 0
4.209991 -18.319002 -5.682603 19.636747 -1.344903 1.864382 0.010082 0.033879 588092.000000 1 0 0
0.418991 -17.451502 -9.231803 19.747320 -1.546792 2.057253 -0.002210 0.009572 37624.200000 1 0 0
-7.639409 -10.026002 -14.583903 19.276190 0.919685 2.428857 0.010035 -0.012901 357988.000000 1 0 0
-5.468609 -19.248102 -2.098103 20.119571 1.293979 1.675268 0.010346 -0.019332 55636.400000 1 0 0
-9.632009 -16.073902 8.434997 20.549820 1.030941 1.147832 -0.008298 -0.005192 221341.000000 1 0 0
-7.098909 -15.279602 -10.367203 19.782306 1.135867 2.122413 0.001889 -0.005808 162442.000000 1 0 0
-12.686209 -8.088402 -12.198903 19.369444 0.567591 2.252094 0.020739 -0.011524 319844.000000 1 0 0
-15.601209 -12.908302 3.454497 20.541556 0.691221 1.401822 0.011909 -0.002380 33539.500000 1 0 0
-6.314109 -14.318602 -13.027303 20.361752 1.155475 2.265025 0.003082 0.003020 496415.000000 1 0 0
-14.293809 -11.654902 -6.507303 19.557472 0.684050 1.909990 0.021652 -0.019476 57850.100000 1 0 0
-11.911409 -10.462102 -8.117703 17.811073 0.720711 2.044030 0.026741 -0.009476 388309.000000 1 0 0
-10.026109 -14.854602 3.636797 18.286835 0.977081 1.370586 -0.001940 -0.005046 599062.000000 1 0 0
5.624091 -17.250902 7.933597 19.803181 -1.255645 1.158600 0.053160 -0.051669 227772.000000 1 0 0
-5.048609 -16.634002 5.171997 18.136373 1.276121 1.281610 0.002892 0.003154 431056.000000 1 0 0
-18.552109 -7.201202 -7.192003 21.160410 0.370259 1.917586 0.023230 -0.003243 52626.900000 1 0 0
-16.951409 -3.553102 -10.885603 20.456567 0.206614 2.131914 0.014822 -0.007371 -293886.000000 1 0 0
-15.687109 -4.407202 -13.240703 20.995834 0.273884 2.253167 0.004667 -0.001475 223164.000000 1 0 0
-19.258609 -4.725202 -5.829003 20.668789 0.240602 1.856695 0.013246 0.003052 9981.200000 1 0 0
5.675991 -13.268602 8.621697 16.810899 -1.166577 1.032279 0.015954 -0.004764 -82856.900000 1 0 0
19.713991 -3.715502 2.809097 20.256787 -0.186285 1.431674 0.020201 -0.006532 -220163.000000 1 0 0
18.681191 -2.728402 1.200397 18.917506 -0.145025 1.507299 0.045601 -0.025000 213174.000000 1 0 0
14.003591 -11.165902 0.338897 17.913480 -0.673129 1.551877 0.015333 0.000733 36006.800000 1 0 0
10.925791 -13.926302 5.571797 18.556932 -0.905551 1.265837 0.014934 0.007060 555063.000000 1 0 0
9.679391 -13.201302 8.831097 18.599819 -0.938125 1.076065 0.011944 -0.011352 168679.000000 1 0 0
17.687791 5.214498 -4.789603 19.052277 0.286686 1.824915 -0.013996 0.004514 28003.700000 1 0 0
19.022691 -6.012502 -4.774403 20.513602 -0.306134 1.805694 0.039559 -0.009594 -72984.800000 1 0 0
17.647991 -10.079002 -0.177403 20.324107 -0.518908 1.579525 0.029398 -0.000906 254111.000000 1 0 0
17.354391 -9.048702 8.332997 21.271877 -0.480626 1.168277 0.051922 -0.008971 -25180.000000 1 0 0
19.966191 0.352698 -2.335703 20.105439 0.017663 1.687232 0.034589 -0.002987 62540.300000 1 0 0
7.298591 -13.689502 11.613497 19.378989 -1.080980 0.928191 0.004171 0.006880 353612.000000 1 0 0
15.999491 -6.400302 -3.443503 17.572857 -0.380534 1.768028 0.012129 -0.002449 367727.000000 1 0 0
14.352391 -7.067702 11.531797 19.721204 -0.457582 0.946236 0.036833 -0.035427 304595.000000 1 0 0
16.588991 1.025198 10.579297 19.701959 0.061721 1.003959 0.064513 -0.015054 321287.000000 1 0 0
16.596791 -10.277602 2.630497 19.697769 -0.554455 1.436853 0.016830 -0.004523 239644.000000 1 0 0
16.197091 -7.226802 -5.794503 18.658743 -0.419672 1.886570 0.019532 -0.000493 339344.000000 1 0 0
19.110091 -4.971302 5.632897 20.533849 -0.254499 1.292911 0.174213 -0.016243 -156830.000000 1 0 0
13.253291 -13.405102 8.143197 20.534316 -0.791093 1.163024 0.025023 -0.002458 187342.000000 1 0 0
14.973391 -14.199502 -1.528903 20.692169 -0.758877 1.644752 0.010620 0.000850 184752.000000 1 0 0
18.563391 -6.567702 8.025397 21.263612 -0.340055 1.183783 0.053942 -0.015986 226388.000000 1 0 0
19.661291 3.422998 2.326297 20.092161 0.172371 1.454755 0.028037 -0.007412 178359.000000 1 0 0
15.690091 -10.796302 8.048297 20.676416 -0.602693 1.170979 0.040875 -0.016976 413375.000000 1 0 0
14.000191 -4.418002 10.830097 18.243221 -0.305677 0.935209 0.027775 -0.008518 -102250.000000 1 0 0
18.560391 -7.802702 1.547597 20.193200 -0.397964 1.494082 0.033648 -0.016583 88779.500000 1 0 0
18.616091 -4.912802 -1.708303 19.329065 -0.258018 1.659292 0.004140 -0.008786 228878.000000 1 0 0
14.533091 -13.651302 -6.158603 20.868569 -0.754122 1.870371 0.032956 -0.000545 554689.000000 1 0 0
13.748291 -9.713102 10.126097 19.644279 -0.615072 1.029237 0.022921 -0.014447 424409.000000 1 0 0
14.306991 2.257898 0.676497 14.499853 0.156527 1.524124 0.003362 -0.003997 -51712.800000 1 0 0
12.945391 2.693498 13.617097 18.980606 0.205139 0.770702 0.040678 -0.013844 42289.300000 1 0 0
18.175791 -3.614202 9.059297 20.627474 -0.196287 1.116104 0.041353 -0.012453 38444.800000 1 0 0
6.897491 -18.367202 4.808597 20.200299 -1.211558 1.330443 0.021395 -0.019295 393463.000000 1 0 0
12.401991 -3.167002 15.229897 19.894448 -0.250019 0.698924 0.017401 0.010857 316706.000000 1 0 0
11.373591 -13.311302 -7.226403 18.941231 -0.863735 1.962233 0.022752 -0.004527 189055.000000 1 0 0
10.597891 -17.788802 4.662197 21.224817 -1.033499 1.349333 0.015579 -0.004272 532429.000000 1 0 0
18.324891 -0.107402 -4.908503 18.971204 -0.005861 1.832508 0.031228 -0.010436 185180.000000 1 0 0
4.159291 -13.572502 11.540697 18.294813 -1.273433 0.888189 -0.010712 -0.004441 115437.000000 1 0 0
8.962191 -2.617702 14.231097 17.020498 -0.284178 0.580634 -0.007335 -0.003111 292609.000000 1 0 0
8.819191 -9.357302 13.743097 18.820466 -0.814994 0.752151 -0.000079 -0.013646 434655.000000 1 0 0
20.903291 5.613298 -2.947403 21.843623 0.262347 1.706141 0.023041 0.001177 356116.000000 1 0 0
14.621391 -13.506902 1.885297 19.994395 -0.745797 1.476365 0.014640 0.005248 276859.000000 1 0 0
10.535291 0.061398 14.262797 17.731991 0.005828 0.636209 0.003334 -0.023095 60108.200000 1 0 0
19.454591 0.166798 7.962697 21.021738 0.008574 1.182314 0.065172 -0.003198 -38257.900000 1 0 0
20.053391 1.131398 0.064297 20.085385 0.056360 1.567595 0.039162 -0.005874 95207.600000 1 0 0
17.794391 0.490798 2.972697 18.047664 0.027575 1.405329 0.015120 -0.006242 -99314.000000 1 0 0
10.124991 -8.714502 16.282497 21.061284 -0.710669 0.687081 0.012971 0.001814 187623.000000 1 0 0
18.913791 2.909898 5.524797 19.917891 0.152654 1.289732 0.023664 0.000966 208586.000000 1 0 0
15.151891 2.012998 6.946397 16.789413 0.132081 1.144242 0.027290 -0.008722 -32044.400000 1 0 0
11.322191 -16.131002 1.994497 19.808565 -0.958803 1.469937 0.003469 0.013000 256155.000000 1 0 0
8.604991 -16.169602 6.829497 19.548502 -1.081744 1.213907 0.026008 -0.003449 443581.000000 1 0 0
6.023991 6.937798 7.297297 11.733374 0.855782 0.899596 0.000156 0.000932 -759390.000000 1 0 0
18.391491 2.372798 -6.726103 19.726063 0.128307 1.918751 0.010777 0.003316 194191.000000 1 0 0
14.146691 4.458698 -7.167703 16.473762 0.305321 2.020944 0.015435 -0.006627 259662.000000 1 0 0
-10.488209 -3.978902 -13.895403 17.858231 0.362596 2.462424 0.010129 0.002431 -123851.000000 1 0 0
7.615291 -14.196902 -10.412903 19.182628 -1.078451 2.144599 -0.001944 0.013734 -51501.700000 1 0 0
1.993091 -15.726602 14.199697 21.282148 -1.444735 0.840337 0.006221 -0.001418 297257.000000 1 0 0
-9.542709 -7.879602 2.240497 12.576615 0.690228 1.391692 0.007145 -0.002184 493620.000000 1 0 0
-13.601009 3.088598 -9.639103 16.954032 -0.223299 2.175530 -0.000022 -0.000761 344332.000000 1 0 0
-12.988909 -4.944202 -13.624503 19.462373 0.363713 2.346254 0.017461 0.012407 232293.000000 1 0 0
-17.828309 -0.519502 -8.007503 19.550923 0.029131 1.992781 0.019431 -0.020887 428448.000000 1 0 0
-12.323009 14.971698 4.707297 19.954121 -0.882136 1.332646 0.024262 -0.021770 290441.000000 1 0 0
-17.543409 6.180198 9.331497 20.809682 -0.338705 1.105798 0.025497 -0.004281 101857.000000 1 0 0
-12.912709 15.385998 -0.177203 20.087269 -0.872576 1.579618 0.024340 -0.021335 209121.000000 1 0 0
-15.710809 4.910298 -11.060303 19.831058 -0.302924 2.162440 0.003638 0.010236 -41363.400000 1 0 0
-18.160709 2.682998 -0.234303 18.359323 -0.146675 1.583559 0.019385 -0.001411 -46339.000000 1 0 0
-9.647109 15.546198 -0.121403 18.296604 -1.015407 1.577432 0.006534 -0.011181 -18688.600000 1 0 0
-18.348809 12.414398 2.467897 22.290953 -0.594833 1.459856 0.060936 -0.005750 65701.800000 1 0 0
-8.671609 16.140598 -7.785503 19.908033 -1.077791 1.972594 0.036464 -0.032096 53296.700000 1 0 0
-14.766409 -1.795102 -12.900303 19.689770 0.120973 2.285214 -0.005339 -0.012766 113409.000000 1 0 0
-18.786709 5.489998 -4.820803 20.157397 -0.284311 1.812295 0.021856 0.003309 -87188.800000 1 0 0
-16.879009 9.386498 -5.770203 20.156947 -0.507518 1.861121 0.029137 0.010999 -60781.200000 1 0 0
-19.047709 1.359798 2.173997 19.219535 -0.071268 1.457440 0.012488 -0.010735 340822.000000 1 0 0
-14.375809 11.570298 -7.585903 19.951982 -0.677688 1.960817 0.018261 -0.007635 132766.000000 1 0 0
-12.766909 4.864198 -13.573203 19.258406 -0.364021 2.352929 0.013971 -0.006896 32106.300000 1 0 0
-14.217709 9.279298 -6.541803 18.194609 -0.578241 1.938578 0.007222 -0.001725 58265.600000 1 0 0
-6.394809 11.440598 -15.434603 20.248650 -1.061102 2.437584 -0.008887 -0.019048 -190149.000000 1 0 0
-14.939109 13.909298 2.912997 20.618708 -0.749716 1.429043 0.024524 -0.015587 -38155.300000 1 0 0
-18.687709 8.440898 -4.777003 21.054666 -0.424252 1.799675 0.042789 -0.004267 232923.000000 1 0 0
-3.792409 16.932298 -10.288603 20.172765 -1.350458 2.106010 0.000314 -0.000867 158194.000000 1 0 0
-19.021109 -2.535202 -6.578903 20.285753 0.132503 1.901080 -0.006570 -0.001353 -28015.700000 1 0 0
-10.777309 13.708798 -6.344903 18.556382 -0.904552 1.919762 0.005461 -0.018947 135154.000000 1 0 0
-19.543309 2.968598 4.370997 20.244977 -0.150746 1.353177 0.029783 -0.004058 14005.700000 1 0 0
-15.185809 12.766098 0.258497 19.840587 -0.699047 1.557767 0.023966 -0.002563 20291.000000 1 0 0
-16.971509 2.005098 -9.811103 19.705590 -0.117600 2.091954 -0.016778 0.011717 273976.000000 1 0 0
-16.184309 14.168298 -4.377203 21.950682 -0.719076 1.771553 0.010722 0.040889 235082.000000 1 0 0
-10.859809 15.983898 -8.629203 21.163260 -0.974015 1.990779 0.023154 -0.013120 50437.100000 1 0 0
-19.197309 2.341698 -6.831503 20.510720 -0.121381 1.910354 0.027578 0.002606 162047.000000 1 0 0
-17.384609 10.880498 -0.806603 20.524631 -0.559224 1.610106 0.045205 0.010717 9078.970000 1 0 0
-11.498509 6.510598 -14.756903 19.808326 -0.515205 2.411308 0.009560 -0.007233 291840.000000 1 0 0
-13.693209 12.698698 -5.363303 19.430026 -0.747734 1.850459 0.031584 -0.009124 297755.000000 1 0 0
-18.869109 7.182398 0.233297 20.191200 -0.363709 1.559242 0.033868 -0.002113 214253.000000 1 0 0
-14.521009 8.846898 -10.146603 19.801032 -0.547192 2.108806 -0.000265 -0.001054 580301.000000 1 0 0
-18.937809 11.533598 4.462397 22.618079 -0.547029 1.372200 0.050922 -0.006039 266897.000000 1 0 0
-7.865309 12.308198 -13.363603 19.797492 -1.002172 2.311781 -0.023089 0.007105 477089.000000 1 0 0
-20.722209 -0.447702 -5.711603 21.499600 0.021602 1.839686 -0.002135 0.007156 159390.000000 1 0 0
-10.705609 13.480098 -3.160003 17.501678 -0.899615 1.752346 0.013343 0.000475 527664.000000 1 0 0
-18.840209 -5.003602 3.990497 19.897577 0.259589 1.368875 0.024427 0.000265 -4636.220000 1 0 0
-11.425109 11.493898 -12.625103 20.543515 -0.788400 2.232617 0.014619 -0.010309 347186.000000 1 0 0
-14.731709 11.990798 -10.260103 21.588705 -0.683186 2.066048 0.005310 0.016382 414717.000000 1 0 0
-12.514309 9.608398 -14.063403 21.135481 -0.654792 2.298817 0.021974 -0.002746 481509.000000 1 0 0
-17.853609 -5.153802 -3.169703 18.850996 0.281030 1.739744 -0.034263 0.000811 -180845.000000 1 0 0
-9.453509 12.341398 -11.364703 19.257087 -0.917134 2.202050 0.004568 -0.018812 -47350.600000 1 0 0
-15.230309 7.748398 -8.131603 18.924137 -0.470622 2.014951 -0.018667 0.011292 -19627.700000 1 0 0
-14.445609 8.970998 2.053097 17.128036 -0.555731 1.450640 0.015101 0.001870 -140168.000000 1 0 0
-19.800509 6.270098 7.694897 22.149170 -0.306673 1.215986 0.031908 -0.006085 312822.000000 1 0 0
-18.618409 5.943798 3.783597 19.907021 -0.309016 1.379570 0.001730 0.000065 65646.900000 1 0 0
-14.362009 12.960898 5.579597 20.134152 -0.734163 1.290000 0.015427 -0.008380 103458.000000 1 0 0
17.844791 5.974398 5.363097 19.567647 0.323068 1.293164 0.011721 -0.015400 62702.400000 1 0 0
18.331191 7.519198 0.711997 19.826191 0.389256 1.534877 0.009710 0.002261 -178479.000000 1 0 0
17.101691 4.230098 8.312697 19.479797 0.242483 1.129918 0.046421 -0.008175 -61706.300000 1 0 0
12.521391 12.731998 10.947097 20.945834 0.793738 1.020854 0.037774 -0.008630 196941.000000 1 0 0
15.576391 12.222598 4.421997 20.287186 0.665334 1.351062 0.019044 -0.005088 208233.000000 1 0 0
5.636391 10.426998 14.447597 18.687543 1.075232 0.687060 0.010526 -0.005292 352746.000000 1 0 0
13.528491 13.439298 -4.822203 19.669480 0.782091 1.818483 0.035740 0.003001 161077.000000 1 0 0
17.334491 9.398598 -2.398803 19.863849 0.496828 1.691854 -0.035955 0.001553 -51691.400000 1 0 0
14.823191 7.665498 9.518997 19.211928 0.477257 1.052417 0.039169 -0.008973 242842.000000 1 0 0
4.629491 19.332098 -1.411903 19.928765 1.335751 1.641703 0.004107 -0.010810 461625.000000 1 0 0
-4.667109 19.515598 3.640597 20.393490 -1.336057 1.391317 0.002582 0.000730 205363.000000 1 0 0
6.981991 14.011198 11.971097 19.707081 1.108498 0.917948 0.018198 0.019092 -91102.000000 1 0 0
0.007191 17.358898 -10.149103 20.108100 1.570382 2.099862 0.021399 0.012405 -55002.500000 1 0 0
10.739091 9.416698 15.631897 21.174477 0.719883 0.740335 0.040817 -0.012302 148585.000000 1 0 0
-1.359209 12.514598 0.469397 12.596942 -1.462611 1.533525 0.000603 0.005233 638980.000000 1 0 0
-4.798609 19.202198 -2.514203 19.951749 -1.325913 1.697146 0.006860 0.003187 166887.000000 1 0 0
5.919591 18.411798 6.515797 20.408123 1.259724 1.245832 0.010408 -0.013215 238064.000000 1 0 0
11.474991 17.260998 -1.373503 20.772674 0.984092 1.636965 0.016795 -0.010839 339961.000000 1 0 0
18.256691 10.604898 3.070297 21.335355 0.526240 1.426388 0.003824 -0.003132 283341.000000 1 0 0
11.743291 16.317798 6.795897 21.221679 0.946996 1.244820 0.016294 0.004194 78172.800000 1 0 0
18.090291 7.564498 -6.556403 20.675267 0.396056 1.893480 -0.003198 0.012059 499612.000000 1 0 0
0.531591 15.721598 10.974497 19.180480 1.536996 0.961647 0.001071 0.002582 387021.000000 1 0 0
1.241291 20.238498 -1.854103 20.361122 1.509540 1.661984 0.005864 -0.004912 277953.000000 1 0 0
14.216191 9.730298 -1.104603 17.262646 0.600215 1.634828 -0.004527 -0.000206 -132456.000000 1 0 0
9.604191 17.833298 1.632997 20.320770 1.076783 1.490349 0.006832 -0.005219 249911.000000 1 0 0
0.459891 17.852198 -0.510503 17.865416 1.545041 1.599375 0.002891 -0.000762 58168.700000 1 0 0
0.159891 21.043798 0.964197 21.066482 1.563198 1.525011 0.012719 -0.003207 237210.000000 1 0 0
6.296891 17.493598 -0.163103 18.593101 1.225281 1.579569 0.003767 -0.017149 -11271.600000 1 0 0
6.767291 18.849298 -2.866303 20.231361 1.226108 1.712951 -0.009986 -0.011273 67525.700000 1 0 0
10.619191 9.308598 12.641197 18.953023 0.719726 0.840655 0.031511 -0.013452 167478.000000 1 0 0
12.540591 14.507798 8.481697 20.968591 0.858000 1.154369 0.007975 -0.004170 243270.000000 1 0 0
0.461391 17.655598 7.234097 19.085733 1.544669 1.182047 0.010713 0.003294 222806.000000 1 0 0
7.979391 17.983798 -7.722003 21.135681 1.153195 1.944809 0.039237 -0.010008 -27014.800000 1 0 0
-1.030709 18.408098 8.912797 20.478242 -1.514863 1.120500 0.038788 -0.022460 -107523.000000 1 0 0
16.025791 6.646398 -7.930103 19.075826 0.393141 1.999525 0.034165 -0.002904 -142787.000000 1 0 0
-5.077109 19.892498 -6.691103 21.593040 -1.320904 1.885856 -0.001674 -0.003392 240170.000000 1 0 0
4.622491 15.895498 10.350097 19.523289 1.287796 1.012029 0.012765 0.004375 174235.000000 1 0 0
8.972591 14.846398 7.664797 18.965022 1.027176 1.154742 0.004847 0.002320 35288.900000 1 0 0
-2.411309 19.421198 6.364697 20.579279 -1.447270 1.256364 0.008484 -0.009810 54463.300000 1 0 0
4.649491 17.814698 8.787097 20.400841 1.315499 1.125503 0.013854 -0.008303 101741.000000 1 0 0
14.057091 11.194898 -7.057503 19.306369 0.672535 1.945023 -0.038176 -0.026952 -9710.330000 1 0 0
11.950091 6.772798 15.448097 20.671700 0.515617 0.726797 0.059783 -0.023056 380145.000000 1 0 0
17.138391 9.118098 4.925097 20.027999 0.488940 1.322337 0.027655 -0.012746 230372.000000 1 0 0
4.351191 15.512498 12.449697 20.360880 1.297328 0.912902 -0.015119 0.019676 337758.000000 1 0 0
16.496091 11.268898 -4.399703 20.456453 0.599311 1.787567 0.040787 0.019707 232268.000000 1 0 0
15.384991 13.795398 6.887697 21.781904 0.730977 1.249062 0.028900 0.011045 257047.000000 1 0 0
12.828991 14.209298 -7.800103 20.671932 0.836404 1.957706 0.052556 -0.019314 462769.000000 1 0 0
-8.226709 15.702698 9.671697 20.193940 -1.088209 1.071349 0.020232 -0.009400 242293.000000 1 0 0
-4.777409 16.812798 -7.315503 18.947570 -1.293941 1.967188 -0.000093 0.000527 152174.000000 1 0 0
2.265491 19.360598 -4.673703 20.045167 1.454311 1.806121 0.000739 -0.018265 69473.000000 1 0 0
7.272891 16.629798 9.021897 20.269183 1.158519 1.109506 0.005910 -0.000780 554391.000000 1 0 0
13.474491 15.326898 -1.316703 20.450169 0.849626 1.635227 0.033461 -0.010168 68416.200000 1 0 0
12.265691 16.734798 4.283597 21.186077 0.938300 1.367203 0.007468 -0.007599 271397.000000 1 0 0
2.401091 18.419898 0.781597 18.592170 1.441174 1.528745 0.005381 -0.012410 -240272.000000 1 0 0
-7.022909 17.958098 1.316397 19.327375 -1.198010 1.502633 -0.014027 0.014549 266618.000000 1 0 0
0.106191 20.073698 -5.743503 20.879475 1.565506 1.849468 0.014552 0.004299 219287.000000 1 0 0
-7.623309 17.960298 -6.566803 20.586647 -1.169389 1.895453 0.031899 -0.015258 133741.000000 1 0 0
-7.514709 18.611298 -1.212103 20.107721 -1.187043 1.631113 0.020496 -0.007800 11737.700000 1 0 0
-14.525709 -9.523202 8.849097 19.493438 0.580309 1.099600 0.026428 -0.007879 487678.000000 1 0 0
-13.054609 -13.401802 7.922797 20.317525 0.798521 1.170220 0.007183 -0.014521 -23527.400000 1 0 0
-3.537709 -15.707202 12.699797 20.506497 1.349264 0.902938 0.018566 -0.003572 212214.000000 1 0 0
-2.443409 -14.085902 15.897297 21.380059 1.399041 0.732422 0.029656 -0.011981 465689.000000 1 0 0
-8.013809 -13.519702 13.246797 20.554345 1.035724 0.870458 0.011514 -0.013948 244888.000000 1 0 0
-10.019109 -10.856002 11.818497 18.918567 0.825467 0.896044 0.028374 -0.018578 -500869.000000 1 0 0
-7.731609 -10.449402 13.119097 18.468310 0.933785 0.780791 0.024020 -0.013307 399995.000000 1 0 0
-14.974509 -12.230102 7.719697 20.818382 0.684858 1.190914 0.009975 -0.001319 184357.000000 1 0 0
-4.828609 -12.367602 13.594097 19.001908 1.198572 0.773590 0.027218 -0.019953 284319.000000 1 0 0
3.356791 -12.512302 13.997997 19.072747 -1.308689 0.746711 -0.019489 0.008591 512428.000000 1 0 0
6.388391 -13.631902 14.809597 21.117871 -1.132554 0.793601 -0.001154 0.008404 331107.000000 1 0 0
7.188991 -8.977502 16.727997 20.300321 -0.895581 0.602315 0.000761 0.000809 591793.000000 1 0 0
-5.197009 13.368498 13.638697 19.792415 -1.200025 0.810568 0.007249 -0.001620 530475.000000 1 0 0
-13.841809 -1.775102 17.205297 22.153305 0.127546 0.681471 0.029579 -0.011363 176684.000000 1 0 0
-9.881609 9.360598 13.665897 19.287917 -0.758328 0.783396 -0.002354 0.005339 378078.000000 1 0 0
-7.531809 -8.314802 16.946097 20.323245 0.834769 0.584789 0.030707 -0.014232 69489.200000 1 0 0
-5.111609 2.207898 18.192597 19.025613 -0.407732 0.297009 0.021181 -0.004321 499163.000000 1 0 0
-15.431109 -3.686902 14.626597 21.578918 0.234530 0.826004 0.016637 -0.002086 39459.100000 1 0 0
-14.679509 2.928898 12.904397 19.763347 -0.196937 0.859329 0.010476 0.015835 240851.000000 1 0 0
-14.647009 10.740798 9.309097 20.409775 -0.632734 1.097177 -0.013286 0.006188 -54844.300000 1 0 0
-4.108509 11.407098 15.762197 19.885889 -1.225089 0.655682 0.001227 -0.002268 274536.000000 1 0 0
-13.127809 13.112498 7.871797 20.155450 -0.784815 1.169563 0.014369 -0.018371 96913.400000 1 0 0
-4.059509 -6.273102 18.575397 20.021908 0.996442 0.382449 0.021673 -0.016745 327507.000000 1 0 0
0.726191 -2.962802 17.887097 18.145352 -1.330432 0.168917 0.011641 -0.017839 101748.000000 1 0 0
-4.747509 6.662698 20.932097 22.474053 -0.951697 0.372585 0.031054 -0.001717 145991.000000 1 0 0
2.108191 -10.747602 16.317797 19.652631 -1.377101 0.591131 -0.011918 -0.006682 371898.000000 1 0 0
-14.872409 -0.329402 14.130997 20.517849 0.022145 0.811078 -0.013865 0.012121 -63265.800000 1 0 0
-14.108409 -6.077302 7.948797 17.296363 0.406737 1.093291 0.022174 -0.005344 131632.000000 1 0 0
10.150391 1.045598 16.782297 19.641008 0.102649 0.546301 0.030910 0.000327 636491.000000 1 0 0
-7.445909 12.150498 11.626497 18.391618 -1.021013 0.886455 0.010896 -0.020320 126219.000000 1 0 0
-2.113109 7.855498 19.805597 21.411113 -1.308019 0.389722 0.038492 -0.014036 395672.000000 1 0 0
1.000491 -13.741002 15.422897 20.680471 -1.498114 0.729105 -0.008043 -0.005165 445239.000000 1 0 0
-3.394909 -11.606502 17.419597 21.205628 1.286234 0.606828 0.024904 -0.024220 434927.000000 1 0 0
-2.264509 9.361698 16.660797 19.244520 -1.333464 0.524164 0.028195 -0.002986 594010.000000 1 0 0
-5.299409 -9.816902 20.136397 23.020204 1.075799 0.505924 0.057907 -0.016104 216101.000000 1 0 0
-6.603009 -2.953502 19.140997 20.462177 0.420603 0.361314 0.026992 -0.012762 414301.000000 1 0 0
-10.678409 -8.284502 15.782897 20.778865 0.659821 0.708152 0.046468 -0.019131 197750.000000 1 0 0
-0.291309 6.414798 17.910897 19.027210 -1.525415 0.344244 0.026123 -0.007552 198655.000000 1 0 0
-5.975209 -11.566102 18.307497 22.464245 1.093946 0.618133 0.033580 -0.020350 273843.000000 1 0 0
0.243091 3.487898 18.678797 19.003210 1.501213 0.185042 0.019752 -0.008109 120205.000000 1 0 0
-18.062309 -1.223802 7.574497 19.624416 0.067651 1.174534 -0.009358 0.000397 194114.000000 1 0 0
-1.508509 -8.427802 17.430097 19.419365 1.393680 0.456587 0.009666 -0.017767 263555.000000 1 0 0
5.616591 3.434098 14.877097 16.268594 0.548775 0.416607 0.010845 -0.013243 356944.000000 1 0 0
-14.199009 -6.995802 10.347697 18.911053 0.457788 0.991808 0.039382 -0.004654 149221.000000 1 0 0
3.841491 8.165098 16.989897 19.237528 1.131045 0.488230 0.020498 -0.007886 145831.000000 1 0 0
6.245691 4.638698 17.464597 19.119057 0.638815 0.419076 0.029416 -0.035582 -27321.200000 1 0 0
5.546891 -9.346502 18.378897 21.352025 -1.035190 0.534042 0.003502 0.009740 164313.000000 1 0 0
-4.449309 -0.547002 20.020497 20.516234 0.122327 0.220278 0.023573 -0.003940 543151.000000 1 0 0
-11.026709 1.228098 17.079497 20.366781 -0.110918 0.576096 0.027393 -0.004576 240471.000000 1 0 0
-16.640009 -4.004602 8.983097 19.329324 0.236170 1.087456 0.009654 -0.008381 335593.000000 1 0 0
-13.049209 -9.560102 12.692297 20.561416 0.632284 0.905507 0.021084 -0.021034 91814.800000 1 0 0
-14.545409 6.055198 13.066397 20.468636 -0.394475 0.878428 0.001035 -0.000586 399972.000000 1 0 0
1.230291 9.214398 17.113597 19.475471 1.438063 0.497610 0.023394 -0.019108 336309.000000 1 0 0
-3.901609 -10.473902 14.697597 18.464683 1.214212 0.650164 0.015883 -0.017125 357362.000000 1 0 0
-18.034409 -4.017202 7.184697 19.824169 0.219174 1.199932 0.042763 0.000633 -266027.000000 1 0 0
-0.792809 -0.596702 20.897097 20.920642 0.645190 0.047448 0.022399 -0.015049 369747.000000 1 0 0
-2.072409 2.459398 20.271697 20.525234 -0.870586 0.157340 0.021900 -0.007707 123512.000000 1 0 0
-8.024309 1.777298 16.295597 18.250885 -0.217970 0.467126 -0.001435 0.011318 506894.000000 1 0 0
2.756891 -2.174402 18.788897 19.114160 -0.667822 0.184745 0.007088 -0.008533 -247568.000000 1 0 0
-12.174509 4.054398 14.659797 19.482466 -0.321472 0.719006 -0.008558 0.006953 123398.000000 1 0 0
-13.078409 -6.015502 13.561697 19.777529 0.431103 0.815214 0.005975 -0.000729 -35486.100000 1 0 0
-17.307509 -0.991102 9.777697 19.903153 0.057202 1.057256 0.012235 -0.006907 148691.000000 1 0 0
-7.229609 7.767198 14.602897 18.051072 -0.821230 0.628387 -0.005111 -0.003961 -161856.000000 1 0 0
-9.681509 0.901198 14.077497 17.109053 -0.092817 0.604459 0.015067 -0.000319 91897.200000 1 0 0
7.556791 -0.747602 15.219197 17.008467 -0.098610 0.462811 0.005313 -0.003546 159994.000000 1 0 0
4.244791 6.376498 18.445797 19.973117 0.983468 0.393608 0.033772 -0.011526 118629.000000 1 0 0
1.931591 0.582698 19.867097 19.969280 0.292986 0.101206 0.022636 -0.011451 190387.000000 1 0 0
-7.273909 6.842498 17.443597 20.099966 -0.754847 0.519954 0.008328 0.002484 667712.000000 1 0 0
7.752591 -3.036502 16.659797 18.624496 -0.373310 0.463463 0.002565 0.000917 370524.000000 1 0 0
-16.464009 2.550298 9.356497 19.107895 -0.153680 1.059089 0.015137 -0.003326 218664.000000 1 0 0
3.992891 -6.186502 19.154297 20.520796 -0.997648 0.366997 0.002415 -0.007789 105050.000000 1 0 0
-3.594709 -3.584102 20.585597 21.202229 0.783921 0.241766 0.026937 -0.013704 354520.000000 1 0 0
-9.917209 5.738198 14.515197 18.492401 -0.524543 0.668217 0.009228 0.004296 138594.000000 1 0 0
6.546491 3.070198 19.661197 20.948636 0.438528 0.352411 0.039263 -0.036016 185569.000000 1 0 0
-7.412809 11.383598 14.627997 19.962824 -0.993590 0.748424 0.020585 -0.010512 69098.100000 1 0 0
-14.576609 4.904598 8.863197 17.750743 -0.324571 1.047989 -0.000728 -0.006444 364138.000000 1 0 0
0.357391 -5.953802 20.622897 21.468101 -1.510841 0.281536 0.001650 -0.003883 4329.130000 1 0 0
-6.078609 -8.524002 13.607797 17.169165 0.951321 0.655781 0.012681 -0.009918 259993.000000 1 0 0
-12.749609 10.493498 6.558697 17.767457 -0.688635 1.192712 -0.008676 -0.007359 135262.000000 1 0 0
-19.346809 1.672298 7.768997 20.915375 -0.086224 1.190227 -0.008524 -0.007348 67193.000000 1 0 0
-15.362009 9.000098 6.532697 18.964947 -0.529963 1.219131 -0.008416 -0.002078 102594.000000 1 0 0
-12.268909 8.345698 13.972097 20.381273 -0.597335 0.815457 -0.011140 0.008929 134505.000000 1 0 0
-16.482709 8.613598 10.793297 21.502768 -0.481551 1.044945 0.004671 -0.000394 298542.000000 1 0 0
2.516591 10.779498 14.273297 18.062608 1.341443 0.659641 0.010893 -0.052109 510085.000000 1 0 0
1.652691 14.132898 13.985597 19.951620 1.454386 0.794032 0.007769 -0.017945 546466.000000 1 0 0
8.859291 4.858098 16.708597 19.526018 0.501585 0.543876 0.031542 -0.015905 71510.800000 1 0 0
-0.433109 13.443398 13.265797 18.891636 -1.538590 0.792307 0.007606 0.001699 176178.000000 1 0 0
4.776191 12.839398 14.950097 20.277267 1.214663 0.741756 0.034698 0.004592 28732.600000 1 0 0
-3.619709 -4.548202 -13.333303 14.545288 0.898588 2.730476 -0.001517 -0.003957 115981.000000 1 0 0
5.892291 -12.387502 16.878197 21.749548 -1.126806 0.682457 -0.027788 0.022137 210859.000000 1 0 0
8.509291 -14.041902 7.192997 17.925464 -1.025982 1.157891 0.007686 -0.001329 319906.000000 1 0 0
-0.402209 15.291698 0.410597 15.302496 -1.544500 1.543961 0.004365 -0.003305 -327585.000000 1 0 0
-14.081209 7.453598 8.579797 18.095565 -0.486835 1.076811 0.006970 -0.002008 108535.000000 1 0 0
-15.759509 -9.895602 5.597997 19.432515 0.560691 1.278582 0.001626 -0.002502 130651.000000 1 0 0
8.619491 -10.756002 11.384897 17.877446 -0.895223 0.880416 -0.015436 0.005239 95576.900000 1 0 0
-25.261269 5.879798 31.267508 40.624633 -0.228688 0.692474 0.061431 -0.010757 -133301.000000 0 0 1
-24.118009 5.099798 31.022328 39.624123 -0.208382 0.671458 0.048592 -0.009376 -514833.000000 0 0 1
-23.084509 5.426498 31.895258 39.744797 -0.230879 0.639320 0.049240 -0.008660 -210307.000000 0 0 1
-21.739209 4.805198 31.460738 38.541681 -0.217540 0.615858 0.034502 -0.013429 -125205.000000 0 0 1
-21.649309 3.467198 31.976478 38.771241 -0.158804 0.601041 0.001625 -0.010124 1199800.000000 0 0 1
-20.319509 2.878498 31.993348 38.009768 -0.140725 0.570347 0.014489 -0.004481 673502.000000 0 0 1
-20.307109 1.567598 32.811425 38.618980 -0.077042 0.555534 0.000752 -0.000990 -84960.200000 0 0 1
-21.030509 0.473098 32.236058 38.492461 -0.022492 0.578170 0.005500 0.005168 365258.000000 0 0 1
-21.160909 -0.541802 33.259361 39.424138 0.025598 0.566789 0.003982 0.008093 -282254.000000 0 0 1
-21.809209 -1.842002 32.832010 39.458528 0.084260 0.587978 -0.005162 -0.017208 -908046.000000 0 0 1
-20.886909 -2.726002 32.252788 38.521895 0.129779 0.578546 -0.001236 -0.018553 -64200.300000 0 0 1
-21.098309 -4.150302 32.417938 38.900981 0.194233 0.585664 0.004556 -0.023349 219677.000000 0 0 1
-22.505909 -4.839002 32.136058 39.530470 0.211786 0.621606 -0.011704 -0.012535 1403780.000000 0 0 1
-23.590309 -4.378202 32.959723 40.767814 0.183505 0.629242 -0.021724 -0.004536 438165.000000 0 0 1
-23.521809 -4.693802 34.345129 41.891468 0.196964 0.609630 -0.021753 -0.009797 -785570.000000 0 0 1
-24.839709 -4.380002 -33.642763 42.047961 0.174536 2.498266 -0.021153 -0.002543 165586.000000 0 0 1
-24.953509 -4.998502 -32.431203 41.224332 0.197696 2.476242 -0.015614 -0.013768 -566332.000000 0 0 1
-26.079169 -4.586302 -31.764933 41.354180 0.174081 2.446695 0.003772 -0.016799 -1075240.000000 0 0 1
-26.025179 -5.023302 -30.316473 40.269492 0.190672 2.423162 -0.001203 -0.019818 -772680.000000 0 0 1
-26.303849 -6.365702 -30.187863 40.542838 0.237441 2.410719 -0.006117 -0.009444 468699.000000 0 0 1
-25.886719 -6.868202 -28.924133 39.419537 0.259342 2.394623 -0.015916 -0.015227 -494204.000000 0 0 1
-25.886909 -8.432002 -28.857493 39.673487 0.314887 2.385285 -0.002539 -0.010209 -575336.000000 0 0 1
-27.186339 -8.918002 -28.746983 40.558807 0.316972 2.358554 0.011711 -0.017301 -708525.000000 0 0 1
-27.308889 -10.287202 -28.888503 41.062727 0.360258 2.351137 0.015660 -0.003245 441327.000000 0 0 1
-28.812529 -10.579302 -28.634203 41.976196 0.351895 2.321500 0.062224 -0.002973 519913.000000 0 0 1
-29.018539 -11.213002 -27.362183 41.430617 0.368735 2.292193 0.068769 -0.008412 -32685.900000 0 0 1
-30.351529 -11.614702 -27.097753 42.313175 0.365480 2.265827 0.069476 -0.009846 -99733.900000 0 0 1
-30.418129 -12.468202 -25.818533 41.800900 0.389006 2.236554 0.065150 -0.008315 -39150.800000 0 0 1
-30.158149 -11.677902 -24.661803 40.670528 0.369443 2.222297 0.079237 -0.005171 254280.000000 0 0 1
-30.084919 -12.446102 -23.481803 40.142283 0.392260 2.195632 0.081688 -0.008519 -329884.000000 0 0 1
-29.973449 -11.547802 -22.242903 39.070527 0.367742 2.176452 0.089560 -0.009567 53986.000000 0 0 1
-29.823029 -12.165802 -20.928503 38.411223 0.387327 2.147011 0.089061 -0.013278 682071.000000 0 0 1
-28.586389 -12.884202 -20.830903 37.644532 0.423445 2.157187 0.067288 -0.020036 188306.000000 0 0 1
-28.198239 -13.253402 -19.351803 36.678135 0.439368 2.126583 0.072984 -0.027422 95513.800000 0 0 1
-27.831419 -12.110902 -18.607003 35.601719 0.410438 2.120745 0.074353 -0.027086 74617.800000 0 0 1
-27.293889 -12.500202 -17.366703 34.681606 0.429475 2.095258 0.063762 -0.013734 69729.800000 0 0 1
-26.795539 -11.315502 -16.485003 33.433468 0.399573 2.086410 0.070139 -0.019896 782995.000000 0 0 1
-25.630239 -10.571302 -16.928603 32.484445 0.391197 2.118970 0.069054 -0.028653 1070420.000000 0 0 1
-25.539399 -9.554802 -15.966703 31.598904 0.357999 2.100518 0.070642 -0.025497 -747450.000000 0 0 1
-24.229809 -8.792302 -15.991803 30.333578 0.348095 2.126096 0.061268 -0.024356 -326542.000000 0 0 1
-23.149909 -9.375202 -15.271903 29.275309 0.384790 2.119598 0.049851 -0.024757 916906.000000 0 0 1
-21.957009 -8.595102 -15.520303 28.228812 0.373115 2.152925 0.061003 -0.045897 634551.000000 0 0 1
-20.879709 -8.883102 -14.430603 26.890780 0.402245 2.137244 0.045293 -0.010271 -512323.000000 0 0 1
-20.083909 -10.005402 -14.752503 26.853450 0.462191 2.152407 0.039459 -0.006415 190369.000000 0 0 1
-18.973509 -10.065302 -13.874603 25.569688 0.487743 2.144348 0.044689 -0.002377 213362.000000 0 0 1
-17.935609 -11.153202 -14.261203 25.484542 0.556329 2.164702 0.047969 0.000309 10323.500000 0 0 1
-17.225509 -10.947502 -15.490203 25.622497 0.566143 2.220003 0.051656 -0.021007 82776.400000 0 0 1
-17.978209 -11.043902 -16.691603 26.903408 0.550863 2.240083 0.046284 -0.025614 -627359.000000 0 0 1
-17.304609 -10.565702 -17.947303 27.077467 0.548156 2.295366 0.042093 -0.018787 -469233.000000 0 0 1
-18.026109 -10.986902 -19.080503 28.455548 0.547375 2.305729 0.030201 -0.019642 209306.000000 0 0 1
-17.427409 -10.667802 -20.313103 28.812128 0.549289 2.353247 0.029211 -0.021192 -340242.000000 0 0 1
-18.360809 -11.077802 -21.465803 30.341682 0.542871 2.356707 0.040693 -0.020132 45803.600000 0 0 1
-19.383009 -10.112102 -21.640103 30.761172 0.480856 2.351089 0.024458 -0.029049 18559.200000 0 0 1
-20.400909 -10.683802 -22.453203 32.163442 0.482421 2.343533 0.040100 -0.014718 265038.000000 0 0 1
-21.504709 -9.678502 -22.859503 32.843306 0.422907 2.340632 0.037204 -0.022135 -285063.000000 0 0 1
-21.075609 -8.627102 -23.600203 32.796002 0.388533 2.374031 0.021954 -0.033079 -229610.000000 0 0 1
-22.058909 -8.292802 -24.556503 34.035097 0.359594 2.376770 0.015412 -0.029784 87483.800000 0 0 1
-21.463609 -7.501502 -25.768363 34.365209 0.336228 2.418615 0.006166 -0.027569 91861.000000 0 0 1
-20.555809 -8.268802 -26.514473 34.553316 0.382454 2.445494 0.022169 -0.030578 -28690.600000 0 0 1
-19.699909 -7.550002 -27.346653 34.538795 0.365984 2.484492 0.018193 -0.040846 -146678.000000 0 0 1
-18.587409 -8.391402 -28.028633 34.662828 0.424064 2.512578 0.035909 -0.036685 -144859.000000 0 0 1
-18.985109 -9.228802 -29.127593 35.972515 0.452472 2.514468 0.034854 -0.030274 -386354.000000 0 0 1
-17.901109 -9.889202 -29.682593 36.045837 0.504711 2.538293 0.017015 -0.022877 -622913.000000 0 0 1
-18.226909 -11.017402 -30.711773 37.374006 0.543691 2.535257 0.016489 -0.014386 -392898.000000 0 0 1
-18.777009 -10.584402 -31.922133 38.517894 0.513293 2.547686 0.013880 -0.013496 324934.000000 0 0 1
-18.839609 -11.784202 -32.766363 39.590817 0.558960 2.545660 0.002023 -0.007723 -142680.000000 0 0 1
-19.374709 -11.714702 -34.220469 41.032354 0.543823 2.557092 -0.004686 -0.005308 379008.000000 0 0 1
-18.549609 -10.866402 33.690403 39.965109 0.529915 0.567969 -0.013308 -0.006010 571729.000000 0 0 1
-18.907509 -11.035202 32.318428 39.035245 0.528304 0.595391 -0.000603 -0.013520 -319980.000000 0 0 1
-18.448809 -12.263302 31.547578 38.548629 0.586654 0.612203 0.005669 -0.008318 -2049090.000000 0 0 1
-17.096109 -12.205202 31.400188 37.778508 0.620005 0.589596 0.013598 -0.011983 -1305880.000000 0 0 1
-16.630709 -13.115102 30.411368 37.059920 0.667756 0.608336 0.025464 -0.013515 -132646.000000 0 0 1
-16.625009 -14.613802 30.722958 37.866268 0.721105 0.624331 0.022815 -0.006666 -658539.000000 0 0 1
-17.877109 -15.316102 30.605248 38.611594 0.708396 0.655663 0.015897 -0.008554 734582.000000 0 0 1
-17.743509 -16.646102 31.082078 39.471767 0.753498 0.664134 0.025319 -0.016770 -299377.000000 0 0 1
-18.191809 -16.782602 32.573608 40.910116 0.745127 0.649769 0.013877 -0.021688 -142824.000000 0 0 1
-17.335309 -16.111202 33.460260 40.983811 0.748816 0.615601 0.023825 -0.015835 -126589.000000 0 0 1
-18.005109 -15.852402 -34.103056 41.695336 0.721902 2.528566 0.007317 -0.013504 -473768.000000 0 0 1
-17.078709 -15.231802 -33.117553 40.254967 0.728299 2.536932 0.028250 -0.010920 -668765.000000 0 0 1
-16.560309 -14.027302 -33.610753 40.008646 0.702775 2.568240 0.016924 -0.006143 181871.000000 0 0 1
-15.333409 -13.621502 -33.001663 38.855739 0.726344 2.585527 0.019870 -0.007174 237882.000000 0 0 1
-15.373009 -13.237602 -31.500513 37.467930 0.710899 2.569431 0.020396 -0.006815 -639859.000000 0 0 1
-15.432909 -14.359402 -30.628923 37.181958 0.749381 2.538804 0.020924 -0.008610 -47097.800000 0 0 1
-15.513309 -14.008702 -29.274483 35.970847 0.734477 2.521525 0.015424 -0.002330 -320792.000000 0 0 1
-15.674409 -15.269602 -28.343673 35.807983 0.772317 2.484131 0.025870 -0.002955 94036.500000 0 0 1
-14.485909 -15.934702 -27.959263 35.291311 0.832988 2.485271 0.027636 -0.007551 277663.000000 0 0 1
-13.778709 -16.565002 -29.067233 36.182263 0.876966 2.503706 0.028604 -0.012354 242759.000000 0 0 1
-12.356509 -17.030402 -28.624403 35.525686 0.943124 2.507717 0.017367 -0.004764 1035990.000000 0 0 1
-11.384209 -15.947902 -28.619443 34.684410 0.950844 2.541244 0.015634 -0.009779 188251.000000 0 0 1
-10.075109 -16.445102 -28.470333 34.387629 1.021126 2.546192 0.026253 -0.017979 289223.000000 0 0 1
-9.004109 -15.343202 -28.414813 33.524460 1.040104 2.582213 0.022344 -0.015081 -194341.000000 0 0 1
-9.230509 -14.537602 -27.282473 32.262633 1.005081 2.578554 0.014000 -0.009064 287952.000000 0 0 1
-8.119509 -13.723002 -26.837773 31.217195 1.036523 2.605500 0.014185 -0.012782 556026.000000 0 0 1
-7.964709 -12.375902 -27.547743 31.232638 0.998957 2.650924 0.010411 -0.023136 -202646.000000 0 0 1
-7.620909 -12.328202 -28.897583 32.328518 1.017124 2.676707 0.024379 -0.019793 192255.000000 0 0 1
-7.511009 -10.984702 -29.324673 32.202723 0.971046 2.715595 0.018906 -0.017010 -537592.000000 0 0 1
-6.567009 -10.845202 -30.486943 33.018142 1.026326 2.747484 0.010476 -0.006302 -862304.000000 0 0 1
-5.203609 -10.966302 -30.150183 32.501859 1.127749 2.758853 0.019838 -0.005395 215284.000000 0 0 1
-4.289509 -10.604602 -31.167003 33.199993 1.186421 2.789826 0.025567 -0.008940 -212799.000000 0 0 1
-4.216809 -9.069502 -31.474173 33.025156 1.135585 2.833905 0.019965 -0.007774 -1043290.000000 0 0 1
-3.102309 -8.626502 -32.239643 33.517688 1.225572 2.864554 0.020662 -0.009691 302944.000000 0 0 1
-3.294009 -7.311002 -32.794323 33.760463 1.147481 2.901780 0.017395 -0.009672 -441127.000000 0 0 1
-1.999709 -6.747702 -33.369263 34.103343 1.282688 2.933733 0.028526 -0.012857 -360528.000000 0 0 1
-1.531709 -7.375302 34.207775 35.027319 1.366026 0.216745 0.028485 -0.019011 1771070.000000 0 0 1
-0.158609 -6.891602 33.942366 34.635293 1.547786 0.200367 0.019956 -0.006325 2215500.000000 0 0 1
0.479991 -7.545102 32.658258 33.521944 -1.507266 0.227492 0.020929 -0.012851 -225293.000000 0 0 1
-0.016909 -6.945402 31.483998 32.240983 1.568362 0.217124 0.010569 -0.007792 275884.000000 0 0 1
0.364491 -7.729902 30.369028 31.339465 -1.523678 0.249505 0.023749 -0.012927 -200480.000000 0 0 1
-0.182009 -7.139502 29.059558 29.924296 1.545309 0.240989 0.009753 -0.010271 -86260.900000 0 0 1
0.318991 -5.855202 28.633258 29.227531 -1.516370 0.202000 0.007711 -0.012454 88826.400000 0 0 1
0.193891 -5.537602 27.243438 27.801214 -1.535797 0.200651 0.011193 -0.005930 -701161.000000 0 0 1
-0.863209 -4.484302 26.900998 27.285853 1.380627 0.168154 0.002798 0.002861 1087810.000000 0 0 1
-2.169209 -5.033402 27.240668 27.786590 1.163886 0.198553 -0.003661 0.002033 806389.000000 0 0 1
-3.198509 -4.101802 26.935958 27.433575 0.908506 0.190757 -0.002123 -0.003298 250578.000000 0 0 1
-4.633409 -4.586302 27.211548 27.981618 0.780289 0.235150 0.002314 -0.003857 139342.000000 0 0 1
-5.062009 -5.687902 26.424868 27.499996 0.843556 0.280546 0.001129 0.000680 -509770.000000 0 0 1
-6.277709 -6.268202 26.794818 28.225206 0.784640 0.319724 -0.009561 0.002120 -30889.100000 0 0 1
-6.455109 -7.755302 26.610878 28.459655 0.876640 0.362428 0.000077 -0.001625 -158990.000000 0 0 1
-5.663909 -8.505902 27.468808 29.308115 0.983339 0.356161 -0.000781 -0.007793 -395566.000000 0 0 1
-5.983209 -9.908502 27.506028 29.842231 1.027554 0.398318 0.000402 -0.009457 40556.700000 0 0 1
-5.394909 -10.554502 28.772178 31.118174 1.098270 0.390786 0.003041 -0.011586 -11762.200000 0 0 1
-5.504609 -11.937802 28.839118 31.693951 1.138744 0.427693 0.008193 -0.012273 -32086.900000 0 0 1
-4.995709 -12.299902 30.086988 32.885734 1.184992 0.415549 0.009809 -0.021837 -142701.000000 0 0 1
-4.921609 -13.813102 30.334518 33.692833 1.228520 0.450279 0.018804 -0.022167 618728.000000 0 0 1
-6.284409 -14.252802 30.308798 34.077256 1.155515 0.474734 0.035194 -0.028694 402216.000000 0 0 1
-6.359109 -15.650002 30.224518 34.624880 1.184843 0.509654 0.045034 -0.029804 190906.000000 0 0 1
-6.252009 -16.411302 31.584808 36.138878 1.206813 0.507455 0.047969 -0.027009 -274330.000000 0 0 1
-7.532109 -16.502902 32.136398 36.902933 1.142624 0.513896 0.051776 -0.026544 -556695.000000 0 0 1
-7.435809 -16.996402 33.439422 38.240866 1.158392 0.506512 0.052423 -0.026494 -60036.400000 0 0 1
-8.857809 -17.223902 34.009896 39.138173 1.095795 0.517679 0.063547 -0.021218 680428.000000 0 0 1
-9.648709 -18.306002 33.453250 39.336080 1.085721 0.553962 0.058366 -0.023139 423780.000000 0 0 1
-9.990009 -18.300902 32.042848 38.229143 1.071125 0.576861 0.055678 -0.027259 -700188.000000 0 0 1
-10.490809 -19.713202 31.640108 38.726784 1.081744 0.614593 0.056564 -0.027656 -150487.000000 0 0 1
-11.697209 -20.007802 32.312578 39.764802 1.041753 0.622210 0.053116 -0.019336 98759.100000 0 0 1
-12.155909 -21.323602 32.212718 40.498411 1.052676 0.651118 0.048663 -0.014383 -276694.000000 0 0 1
-11.573409 -22.291902 33.244638 41.666277 1.091926 0.647028 0.051017 -0.011409 -150837.000000 0 0 1
-10.238209 -22.705202 32.953898 41.307463 1.147178 0.647207 0.042803 -0.011520 168050.000000 0 0 1
-9.630909 -23.341402 34.087514 42.420915 1.179466 0.637553 0.034458 -0.017095 222309.000000 0 0 1
-10.033509 -24.765402 -34.242668 43.434511 1.185865 2.478959 0.044047 -0.007280 -134386.000000 0 0 1
-9.608309 -25.588892 33.427521 43.179974 1.211598 0.685435 0.048833 -0.008719 61877.200000 0 0 1
-9.569309 -26.978942 33.716924 44.229695 1.229945 0.703915 0.050043 -0.008960 -1025790.000000 0 0 1
-8.953909 -27.668332 32.486648 43.601506 1.257817 0.730140 0.045996 -0.013284 246812.000000 0 0 1
-7.572209 -27.474062 32.230208 43.022653 1.301860 0.724026 0.044214 -0.021989 -135966.000000 0 0 1
-6.821009 -28.283632 33.104649 44.072755 1.334151 0.721015 0.042077 -0.021071 -720498.000000 0 0 1
-5.321809 -27.885482 33.185102 43.671189 1.382219 0.707659 0.043069 -0.022861 419422.000000 0 0 1
-4.966509 -26.706092 33.936643 43.469268 1.386928 0.675004 0.042379 -0.014559 142650.000000 0 0 1
-5.088109 -25.581472 33.101653 42.142852 1.374460 0.667352 0.047248 -0.008288 -172505.000000 0 0 1
-4.766009 -24.281802 33.861655 41.939628 1.376981 0.631081 0.052311 -0.017208 472840.000000 0 0 1
-3.405009 -24.283802 34.280832 42.148221 1.431487 0.620926 0.052221 -0.014868 371434.000000 0 0 1
-2.967009 -23.152002 -33.763633 41.046330 1.443338 2.536719 0.052464 -0.013541 101714.000000 0 0 1
34.285339 -15.704202 1.796497 37.753594 -0.429523 1.523194 0.082047 -0.029371 -854339.000000 0 0 1
34.963109 -16.596602 2.621697 38.790972 -0.443195 1.503160 0.073274 -0.032667 -121346.000000 0 0 1
34.232339 -17.078102 3.739897 38.438281 -0.462758 1.473346 0.077965 -0.040687 -184573.000000 0 0 1
35.062629 -16.963802 5.033697 39.274631 -0.450615 1.442276 0.059094 -0.025970 17473.500000 0 0 1
-35.322200 -17.865202 5.041497 39.902881 0.468260 1.444114 0.060144 -0.027904 27996.300000 0 0 1
-34.691424 -17.739502 6.332897 39.475187 0.472687 1.409673 0.044813 -0.017895 -426743.000000 0 0 1
-33.452599 -18.589202 6.521297 38.822186 0.507200 1.402018 0.038867 -0.023273 -752232.000000 0 0 1
-33.592629 -20.000902 6.601697 39.649504 0.537027 1.403516 0.052352 -0.026749 -165898.000000 0 0 1
-32.467549 -20.619702 7.194897 39.129022 0.565820 1.385868 0.040608 -0.019518 31419.500000 0 0 1
-32.671289 -22.161402 7.390297 40.164130 0.596023 1.385739 0.038415 -0.013749 -448458.000000 0 0 1
-32.522329 -22.868802 6.176597 40.234740 0.612852 1.416673 0.051942 -0.017185 169917.000000 0 0 1
-32.997859 -24.193202 6.277497 41.395370 0.632646 1.418562 0.057913 -0.021213 -33277.500000 0 0 1
-32.405209 -25.036342 5.111797 41.267983 0.657810 1.446609 0.055627 -0.015920 25006.500000 0 0 1
-32.909099 -24.684502 3.890397 41.321527 0.643553 1.476507 0.059484 -0.015974 -133699.000000 0 0 1
-32.169429 -25.355332 2.905197 41.063429 0.667493 1.499988 0.050154 -0.011979 -150768.000000 0 0 1
-32.685199 -25.060602 1.474297 41.213221 0.654120 1.535016 0.054257 -0.013806 162529.000000 0 0 1
-33.814499 -25.895602 1.083497 42.604888 0.653545 1.545362 0.055663 -0.015483 1175630.000000 0 0 1
-34.502674 -25.356452 -0.079403 42.818109 0.633775 1.572651 0.048804 -0.012949 296390.000000 0 0 1
-35.342800 -24.084102 0.231397 42.769276 0.598163 1.565386 0.057610 -0.016533 -619507.000000 0 0 1
34.733529 -24.300002 0.112997 42.390104 -0.610466 1.568131 0.043709 -0.006752 158398.000000 0 0 1
33.992849 -23.102102 0.369597 41.101794 -0.596914 1.561804 0.063232 -0.024821 626070.000000 0 0 1
32.462679 -23.392102 0.328797 40.014048 -0.624408 1.562579 0.037058 -0.019262 403259.000000 0 0 1
31.936699 -23.251402 -0.958303 39.515804 -0.629302 1.595050 0.037960 -0.020281 -475012.000000 0 0 1
30.538159 -23.114902 -0.921103 38.310916 -0.647914 1.594841 0.030801 -0.014641 -35612.500000 0 0 1
30.011799 -23.084502 -2.384103 37.937926 -0.655664 1.633680 0.019871 -0.009462 -8703.860000 0 0 1
30.415839 -21.867702 -3.028203 37.583103 -0.623336 1.651457 0.045713 -0.023163 189292.000000 0 0 1
30.249509 -21.907202 -4.443103 37.612491 -0.626795 1.689201 0.043370 -0.033963 -186801.000000 0 0 1
30.392989 -20.453302 -4.971103 36.970031 -0.592348 1.705668 0.046427 -0.030813 734970.000000 0 0 1
29.301219 -19.655002 -4.471903 35.565130 -0.590853 1.696868 0.042237 -0.027475 583192.000000 0 0 1
29.276159 -18.262902 -4.807203 34.838718 -0.557747 1.709222 0.040511 -0.026869 881951.000000 0 0 1
28.204569 -17.537702 -3.843703 33.434155 -0.556297 1.686014 0.056303 -0.020698 760966.000000 0 0 1
28.597909 -17.305902 -2.473403 33.517941 -0.544195 1.644657 0.050031 -0.021052 284753.000000 0 0 1
29.159949 -18.376002 -1.671203 34.507579 -0.562315 1.619245 0.038185 -0.007703 404788.000000 0 0 1
28.181769 -19.563702 -1.340603 34.332896 -0.606821 1.609853 0.036806 -0.008953 412455.000000 0 0 1
27.264169 -19.343502 -0.280803 33.430298 -0.617063 1.579196 0.033846 0.005455 68596.000000 0 0 1
26.596549 -20.533302 0.099497 33.600637 -0.657451 1.567835 0.017194 0.007960 -359146.000000 0 0 1
25.694649 -20.258902 1.285997 32.745868 -0.667657 1.531514 0.020519 0.009135 -394256.000000 0 0 1
24.913949 -21.388402 1.739097 32.881500 -0.709403 1.517882 0.014864 0.018028 259031.000000 0 0 1
24.202749 -21.055602 2.907797 32.211282 -0.715973 1.480401 0.005520 0.018225 1125340.000000 0 0 1
22.722749 -20.502202 2.760397 30.729195 -0.734071 1.480845 -0.002282 0.014663 582596.000000 0 0 1
22.545249 -19.217402 2.200497 29.705874 -0.705881 1.496652 0.028562 -0.000863 174399.000000 0 0 1
22.667049 -18.125402 3.035397 29.181140 -0.674519 1.466589 0.041104 -0.008138 -239662.000000 0 0 1
22.611749 -16.786502 2.243097 28.250829 -0.638606 1.491313 0.042300 -0.006207 486162.000000 0 0 1
21.306149 -16.587802 1.700497 27.055477 -0.661521 1.507903 0.028918 -0.007503 243765.000000 0 0 1
21.249249 -15.340502 1.044697 26.228858 -0.625294 1.530956 0.038053 -0.011804 361764.000000 0 0 1
19.813249 -14.938702 0.605897 24.821297 -0.646040 1.546384 0.022596 -0.005212 28137.900000 0 1 0
18.892449 -14.855002 1.685897 24.092280 -0.666327 1.500762 0.021615 -0.007857 551641.000000 0 1 0
17.937149 -13.804502 1.457997 22.681079 -0.655930 1.506469 0.025949 -0.006337 113813.000000 0 1 0
18.469349 -12.419102 1.931897 22.340169 -0.591973 1.484212 0.040802 -0.008124 -225413.000000 0 1 0
19.405849 -11.879402 1.016797 22.775887 -0.549310 1.526138 0.041266 -0.011070 260551.000000 0 1 0
19.961349 -10.692502 1.516097 22.695453 -0.491767 1.503945 0.052048 -0.014767 -312807.000000 0 1 0
20.805249 -9.920102 0.505897 23.054777 -0.444922 1.548851 0.053936 -0.018862 -205907.000000 0 1 0
20.031749 -9.580502 -0.617503 22.213471 -0.446110 1.598598 0.047424 -0.010703 550075.000000 0 1 0
20.870449 -8.914102 -1.529703 22.745919 -0.403662 1.638099 0.049506 -0.015120 -52812.800000 0 1 0
20.185549 -8.550702 -2.883503 22.110755 -0.400689 1.701581 0.042930 -0.010215 256510.000000 0 1 0
21.086949 -7.965702 -3.847703 22.867371 -0.361184 1.739862 0.054485 -0.010317 1173860.000000 0 1 0
22.065149 -8.847302 -4.445703 24.184909 -0.381336 1.755669 0.055062 -0.010798 -123466.000000 0 1 0
21.570849 -10.035302 -5.309903 24.376298 -0.435443 1.790387 0.036232 -0.008177 -413522.000000 0 1 0
20.958749 -9.557402 -6.494703 23.933120 -0.427841 1.845611 0.018125 -0.013270 -816486.000000 0 1 0
19.580349 -9.445602 -6.472203 22.682568 -0.449470 1.860156 0.007169 -0.006675 -1544730.000000 0 1 0
18.968449 -9.410902 -7.846403 22.581700 -0.460550 1.925665 0.010731 0.001882 -448754.000000 0 1 0
19.142649 -10.679502 -8.505603 23.512508 -0.508881 1.940939 0.018961 0.004030 -242979.000000 0 1 0
20.357449 -10.832102 -9.147403 24.807965 -0.488993 1.948437 0.021288 -0.000623 -887620.000000 0 1 0
20.280749 -12.136502 -9.935203 25.638091 -0.539260 1.968733 0.019939 -0.003530 237634.000000 0 0 1
19.259049 -12.150202 -10.939903 25.263013 -0.562818 2.018659 0.028438 -0.001484 502907.000000 0 0 1
19.329949 -13.353402 -11.640903 26.219666 -0.604534 2.030827 0.030166 -0.001206 -259149.000000 0 0 1
17.991049 -13.708202 -12.297903 25.745506 -0.651103 2.068799 0.040721 -0.012584 -246536.000000 0 0 1
17.798749 -15.144402 -12.420703 26.465491 -0.704998 2.059313 0.035763 -0.013527 605755.000000 0 0 1
16.690049 -15.471302 -13.275003 26.346624 -0.747522 2.098858 0.045797 -0.012287 317812.000000 0 0 1
16.517449 -16.979002 -13.599503 27.314083 -0.799176 2.091964 0.036767 -0.010802 -475810.000000 0 0 1
15.947749 -17.778502 -12.583603 26.995423 -0.839628 2.055717 0.026184 -0.006931 290992.000000 0 0 1
16.134649 -19.162202 -12.794003 28.128338 -0.870963 2.042993 0.026953 -0.008003 -492271.000000 0 0 1
15.102149 -20.029502 -12.034903 27.822558 -0.924743 2.018126 0.027195 -0.005347 430608.000000 0 0 1
13.786549 -19.845202 -12.567903 27.236981 -0.963633 2.050400 0.023143 -0.010949 341884.000000 0 0 1
12.880649 -20.589602 -11.745103 26.977588 -1.011773 2.021240 0.020141 -0.002235 403294.000000 0 0 1
11.396849 -20.272102 -12.050903 26.192948 -1.058640 2.048884 0.028975 -0.002825 332051.000000 0 0 1
10.510349 -21.149502 -11.395403 26.222587 -1.109588 2.020351 0.028202 -0.000459 736579.000000 0 0 1
9.117449 -20.889402 -11.664603 25.603866 -1.159257 2.043820 0.023244 0.003572 1022710.000000 0 0 1
8.144749 -21.557002 -10.698203 25.406551 -1.209552 2.005433 0.019218 0.005697 -226008.000000 0 0 1
8.148749 -22.963002 -10.723503 26.621328 -1.229795 1.985388 0.027624 -0.001088 -46909.000000 0 0 1
7.428049 -23.436902 -9.592603 26.390951 -1.263873 1.942798 0.025447 -0.012079 170430.000000 0 0 1
7.433849 -24.971202 -9.461103 27.718865 -1.281454 1.919121 0.029515 -0.007485 160701.000000 0 0 1
8.688249 -25.489752 -9.098403 28.425236 -1.242294 1.896612 0.018956 0.002432 -485017.000000 0 0 1
8.763949 -26.863792 -9.435603 29.790950 -1.255446 1.893073 0.013078 0.002179 -623269.000000 0 0 1
10.086149 -27.564922 -9.271803 30.781840 -1.220023 1.876758 0.009067 0.011252 -676544.000000 0 0 1
10.455149 -27.781202 -7.944503 30.728170 -1.210852 1.832308 0.012821 0.010879 343368.000000 0 0 1
11.848149 -28.084822 -7.849703 31.476240 -1.171580 1.822841 0.014469 0.019975 557045.000000 0 0 1
12.361049 -28.315882 -6.352303 31.542613 -1.159191 1.773571 0.015151 0.009523 124234.000000 0 0 1
11.883649 -29.418992 -5.612203 32.221034 -1.186894 1.745868 0.023691 0.007101 677037.000000 0 0 1
10.479149 -29.428222 -5.299803 31.684708 -1.228705 1.738853 0.024362 0.003461 674705.000000 0 0 1
10.196649 -30.495412 -4.220803 32.430803 -1.248116 1.701315 0.041577 -0.013347 22260.100000 0 0 1
10.275549 -31.882992 -4.619403 33.814952 -1.259018 1.707833 0.045025 -0.007528 464833.000000 0 0 1
9.220249 -32.352232 -5.509703 34.088660 -1.293161 1.733137 0.041653 -0.007693 720160.000000 0 0 1
9.282349 -33.799482 -5.904003 35.544679 -1.302774 1.737671 0.043910 -0.005732 -34068.800000 0 0 1
8.941249 34.065851 -4.844303 35.551307 1.314116 1.707484 0.042677 -0.010979 -123922.000000 0 0 1
9.290349 32.812617 -5.221103 34.499831 1.294884 1.722717 0.046901 -0.006810 11357.300000 0 0 1
8.979249 31.672322 -4.209003 33.188532 1.294541 1.697960 0.040708 -0.010264 1146600.000000 0 0 1
7.562649 31.408362 -4.230403 32.581823 1.334510 1.701003 0.029584 -0.013702 337524.000000 0 0 1
7.176249 30.470162 -3.233703 31.470402 1.339494 1.673732 0.013226 -0.011863 336524.000000 0 0 1
5.701349 30.043802 -3.456103 30.774666 1.383258 1.683337 0.006373 -0.016882 11432.300000 0 0 1
5.460549 29.245612 -4.638403 30.110434 1.386208 1.725459 0.018913 -0.023680 -227493.000000 0 0 1
5.288749 30.028982 -5.822703 31.042141 1.396463 1.759488 0.003733 -0.023393 -736691.000000 0 0 1
5.619749 29.375502 -7.147603 30.750446 1.381773 1.805381 0.023555 -0.026628 -541101.000000 0 0 1
4.766749 28.363862 -7.540003 29.733520 1.404295 1.827182 0.025169 -0.033136 -264855.000000 0 0 1
5.164449 27.075102 -6.963903 28.429362 1.382315 1.818269 0.013576 -0.029145 60335.800000 0 0 1
4.261649 25.882002 -7.457003 27.269884 1.407604 1.847776 0.011256 -0.030234 722147.000000 0 0 1
2.907849 26.062442 -7.012803 27.145642 1.459683 1.832100 0.006614 -0.024352 517100.000000 0 0 1
1.964049 26.556042 -7.968503 27.795286 1.496972 1.861562 0.011150 -0.024043 511767.000000 0 0 1
1.561949 25.657992 -9.207503 27.304768 1.509996 1.914750 0.028676 -0.029791 -1142900.000000 0 0 1
2.582549 25.482922 -10.117003 27.539111 1.469797 1.946974 0.023063 -0.026622 -715139.000000 0 0 1
2.273849 24.779222 -11.347703 27.348686 1.479288 1.998659 0.038555 -0.021495 -717342.000000 0 0 1
2.017749 23.271462 -11.281603 25.940448 1.484308 2.020728 0.052628 -0.019911 -167154.000000 0 0 1
0.879449 22.945062 -10.527603 25.260240 1.532487 2.000681 0.063496 -0.019473 -277716.000000 0 0 1
0.814149 21.534362 -10.396703 23.926618 1.533007 2.020307 0.040462 -0.015894 -540848.000000 0 1 0
-0.234951 21.036962 -9.392803 23.039829 -1.559628 1.990705 0.050637 -0.008299 -837679.000000 0 1 0
-1.500951 21.281562 -9.912103 23.524616 -1.500385 2.005730 0.055826 -0.010707 -853941.000000 0 1 0
-2.465751 20.759062 -8.972203 22.749045 -1.452571 1.976210 0.041547 -0.009924 261013.000000 0 1 0
-3.887751 21.013362 -9.516303 23.393077 -1.387852 1.989745 0.038665 -0.006304 -515231.000000 0 1 0
-4.846451 20.202162 -8.936303 22.615768 -1.335348 1.977012 0.023944 -0.012008 -680366.000000 0 1 0
-5.716851 19.718062 -9.912103 22.797679 -1.288604 2.020597 0.018022 -0.008170 -177453.000000 0 1 0
-6.568051 18.447562 -9.473503 21.753140 -1.228752 2.021390 0.016319 -0.016256 801422.000000 0 1 0
-7.740651 18.735162 -8.695103 22.057398 -1.178995 1.975997 0.038044 -0.015118 108370.000000 0 1 0
-8.925151 18.717362 -9.460603 22.792564 -1.125849 1.998821 0.034388 -0.025026 -135929.000000 0 1 0
-10.072851 18.999862 -8.456103 23.107635 -1.083318 1.945443 0.045622 -0.030304 -46892.500000 0 1 0
-10.278351 17.974762 -7.527303 22.031724 -1.051354 1.919476 0.036964 -0.025562 -153917.000000 0 1 0
-11.220751 18.399562 -6.545303 22.523102 -1.023174 1.865654 0.041731 -0.020784 33469.600000 0 1 0
-11.779051 17.219662 -5.727203 21.634779 -0.970858 1.838712 0.030874 -0.021808 13563.100000 0 1 0
-12.880951 17.537762 -4.902003 22.305193 -0.937309 1.792375 0.045363 -0.016713 305698.000000 0 1 0
-13.343751 16.411062 -4.148403 21.554301 -0.888122 1.764468 0.048969 -0.013788 -495249.000000 0 1 0
-14.534251 16.682262 -3.233003 22.360560 -0.854100 1.715890 0.042982 -0.017601 333965.000000 0 1 0
-15.726251 16.715962 -4.069703 23.308815 -0.815896 1.746295 0.059833 -0.028907 7127.970000 0 1 0
-16.704651 17.340962 -3.328403 24.307049 -0.804086 1.708159 0.059227 -0.024599 -314130.000000 0 1 0
-18.044851 17.542562 -4.101903 25.498701 -0.771285 1.732365 0.071308 -0.030148 369157.000000 0 0 1
-17.887251 18.644962 -4.980603 26.313395 -0.806136 1.761225 0.065837 -0.028479 -73764.500000 0 0 1
-19.087751 18.772662 -5.688503 27.369950 -0.777076 1.780160 0.056749 -0.024722 -250333.000000 0 0 1
-18.962151 19.697162 -6.873503 28.191957 -0.804408 1.817090 0.044832 -0.019463 160284.000000 0 0 1
-18.426851 20.983762 -6.529103 28.679196 -0.850186 1.800470 0.035107 -0.024569 222109.000000 0 0 1
-18.538851 21.848762 -7.655903 29.659236 -0.867169 1.831881 0.025285 -0.014182 132962.000000 0 0 1
-18.525251 23.265762 -7.069603 30.568937 -0.898349 1.804177 0.030570 -0.016454 552530.000000 0 0 1
-17.223751 23.594162 -6.579303 29.943769 -0.940218 1.792326 0.025603 -0.015476 390653.000000 0 0 1
-17.292951 24.539842 -5.598903 30.538463 -0.956930 1.755179 0.035488 -0.021953 -274202.000000 0 0 1
-15.953751 25.141912 -5.145903 30.217847 -1.005360 1.741924 0.032358 -0.020700 -524754.000000 0 0 1
-15.922751 25.905362 -3.936303 30.661316 -1.019674 1.699532 0.029047 -0.016627 609257.000000 0 0 1
-14.632451 26.443922 -3.586003 30.434340 -1.065393 1.688898 0.031399 -0.017068 911593.000000 0 0 1
-14.135751 27.672932 -4.454103 31.391873 -1.098534 1.713164 0.034176 -0.014361 -342904.000000 0 0 1
-14.780151 28.841912 -4.102403 32.667086 -1.097235 1.696711 0.045350 -0.013851 -447875.000000 0 0 1
-14.324651 29.979842 -4.821403 33.574283 -1.125058 1.714899 0.028486 -0.012493 -414370.000000 0 0 1
-15.037751 31.319602 -4.537103 35.037648 -1.123164 1.700653 0.024540 -0.020551 853346.000000 0 0 1
-16.421651 31.247082 -4.958703 35.646031 -1.086925 1.710358 0.038606 -0.010060 647692.000000 0 0 1
-17.103651 32.352502 -4.470603 36.867405 -1.084480 1.692357 0.051485 -0.012536 -682707.000000 0 0 1
12.296191 -8.528402 18.961068 24.154752 -0.606405 0.668128 0.030078 -0.009068 -245018.000000 0 1 0
12.499491 -9.864602 19.323468 25.038851 -0.668121 0.689225 0.034607 -0.015309 -158283.000000 0 0 1
12.907191 -10.652202 18.253368 24.763893 -0.689974 0.742033 0.036331 -0.020122 -180389.000000 0 1 0
13.345991 -12.063902 18.753568 25.987488 -0.734985 0.764630 0.055418 -0.032732 -566748.000000 0 0 1
14.512391 -11.996302 19.519568 27.120735 -0.690766 0.767385 0.053517 -0.033165 -201759.000000 0 0 1
14.892591 -13.194502 20.195868 28.350612 -0.725014 0.777940 0.050589 -0.032281 31589.700000 0 0 1
15.728691 -14.245702 19.377568 28.737117 -0.735963 0.830774 0.039562 -0.027714 -455635.000000 0 0 1
15.115491 -14.777002 18.204568 27.897027 -0.774075 0.859834 0.044125 -0.029759 118074.000000 0 0 1
15.482891 -16.080802 17.794368 28.547358 -0.804339 0.897805 0.044928 -0.028790 -712006.000000 0 0 1
14.811291 -16.451102 16.402868 27.551174 -0.837803 0.933083 0.040425 -0.029080 1477150.000000 0 0 1
13.363291 -16.598402 16.467668 26.930811 -0.892956 0.912866 0.064571 -0.030197 1422680.000000 0 0 1
12.743791 -16.350202 15.228668 25.722473 -0.908726 0.937212 0.073203 -0.033716 250955.000000 0 0 1
12.166691 -17.587102 14.449768 25.809500 -0.965597 0.976577 0.049697 -0.019103 476486.000000 0 0 1
13.255591 -18.389502 14.012368 26.650158 -0.946231 1.017154 0.041189 -0.014863 678173.000000 0 0 1
12.726591 -19.377202 13.160968 26.658078 -0.989668 1.054462 0.040589 -0.017174 85808.700000 0 0 1
13.765291 -20.500202 12.828468 27.826446 -0.979475 1.091655 0.038105 -0.020777 109938.000000 0 0 1
14.064791 -21.297402 13.994668 29.107532 -0.987145 1.069239 0.004789 -0.018173 25659.500000 0 0 1
14.617691 -22.547702 13.592168 30.113498 -0.995617 1.102502 0.009108 -0.021995 -265945.000000 0 0 1
15.441791 -23.307702 14.700368 31.587952 -0.985671 1.086734 0.000612 -0.020401 159174.000000 0 0 1
16.721791 -22.775202 14.943168 31.962891 -0.937477 1.084317 -0.004066 -0.015424 -242903.000000 0 0 1
17.311791 -23.423102 16.039068 33.250436 -0.934314 1.067436 -0.000596 -0.019172 406726.000000 0 0 1
18.782991 -22.954402 16.316168 33.851479 -0.885012 1.067869 0.012816 -0.013291 288405.000000 0 0 1
19.601491 -23.269202 15.268868 34.041336 -0.870743 1.105666 0.012124 -0.025406 -1308010.000000 0 0 1
20.866291 -22.690602 15.353468 34.438271 -0.827257 1.108700 0.019027 -0.019307 -237784.000000 0 0 1
21.985691 -23.537002 14.718368 35.411741 -0.819463 1.142155 0.012901 -0.024383 3265.180000 0 0 1
22.309891 -24.677402 15.537768 36.716858 -0.835742 1.133846 0.015131 -0.024467 51290.800000 0 0 1
23.536291 -25.191842 15.075668 37.627937 -0.819360 1.158569 0.014290 -0.026482 -106824.000000 0 0 1
24.106691 -26.392122 15.885268 39.115449 -0.830624 1.152601 0.023336 -0.022291 -425985.000000 0 0 1
24.568891 -25.997092 17.135868 39.662541 -0.813635 1.124041 0.023411 -0.012010 -100961.000000 0 0 1
24.968991 -27.113532 17.805668 40.934532 -0.826551 1.120781 0.019680 -0.004437 -133613.000000 0 0 1
25.331191 -26.743472 19.286268 41.579354 -0.812512 1.088469 0.016925 -0.006536 288833.000000 0 0 1
24.217791 -26.192942 19.976768 40.885729 -0.824559 1.060312 0.015145 -0.005721 537636.000000 0 0 1
24.648691 -25.774942 21.275068 41.527510 -0.807730 1.032921 0.014518 -0.001779 37526.800000 0 0 1
23.496491 -25.794202 22.292368 41.405019 -0.831980 1.002262 0.015350 -0.004169 -109291.000000 0 0 1
23.225591 -27.205012 22.510968 42.264458 -0.864144 1.009101 0.011428 -0.004747 -506233.000000 0 0 1
22.059491 -27.422112 23.224568 42.166028 -0.893353 0.987488 0.016287 -0.011104 -900760.000000 0 0 1
21.697591 -28.879522 23.172368 42.915858 -0.926455 1.000420 0.038391 -0.011487 -706518.000000 0 0 1
22.729291 -29.742392 23.532868 44.215681 -0.918266 1.009565 0.031008 -0.019813 133838.000000 0 0 1
22.366791 -31.095682 23.279968 44.823785 -0.947241 1.024687 0.038090 -0.019321 -484318.000000 0 0 1
23.419491 -32.032922 23.842148 46.292857 -0.939497 1.029755 0.008335 -0.009078 -472601.000000 0 0 1
23.375291 -32.056572 25.288348 47.048152 -0.940748 1.003328 0.009629 -0.012076 297044.000000 0 0 1
24.516191 -32.626542 25.894558 48.332835 -0.926388 1.005395 0.026811 -0.013100 -886511.000000 0 0 1
24.374491 -32.885372 27.435678 49.277580 -0.932954 0.980319 0.025897 -0.016619 236133.000000 0 0 1
23.541591 -33.975422 27.809448 49.818683 -0.964851 0.978566 0.003534 -0.003726 1066230.000000 0 0 1
22.152191 -33.927332 27.478898 48.957872 -0.992364 0.974869 0.006279 -0.008038 262501.000000 0 0 1
21.341391 33.527112 27.770758 48.484402 1.003941 0.960907 0.031638 -0.017785 165349.000000 0 0 1
20.956391 33.487809 29.152508 49.096562 1.011628 0.935049 0.015599 -0.009602 -169331.000000 0 0 1
20.104891 32.441512 29.451438 48.208356 1.015998 0.913574 0.017660 -0.013353 -480761.000000 0 0 1
19.804691 32.543592 30.949638 49.083513 1.024107 0.888534 0.010667 -0.015012 -658810.000000 0 0 1
20.953591 32.500172 31.720808 50.015236 0.998140 0.883793 0.005477 -0.001948 -394019.000000 0 0 1
20.635191 32.716262 33.056742 50.881363 1.008086 0.863629 -0.001633 0.000677 406737.000000 0 0 1
21.879791 32.593392 34.006275 51.937282 0.979596 0.856936 -0.003973 0.013581 536133.000000 0 0 1
22.246691 31.272122 34.346347 51.502742 0.952467 0.840777 0.010826 0.005833 827485.000000 0 0 1
23.440691 31.337922 -33.571943 51.561679 0.928578 2.279833 0.011505 0.013852 914372.000000 0 0 1
23.962791 29.917582 -33.208423 50.715643 0.895470 2.284710 0.028058 -0.003153 -252647.000000 0 0 1
24.416891 29.195222 -34.330953 51.255828 0.874291 2.304730 0.034612 -0.005271 -146150.000000 0 0 1
23.542691 28.225282 33.967025 50.046814 0.875606 0.824798 0.033481 -0.012506 -616020.000000 0 0 1
23.991991 27.501102 32.685403 48.992467 0.853440 0.840418 0.047408 -0.013764 346211.000000 0 0 1
25.147391 26.663122 32.806880 49.189478 0.814645 0.840690 0.036021 -0.010440 450063.000000 0 0 1
25.630591 26.121392 31.618228 48.362865 0.794882 0.858239 0.051971 -0.021890 -469804.000000 0 0 1
26.955591 25.426482 31.960128 48.934238 0.756215 0.859094 0.032765 -0.013081 -638862.000000 0 0 1
26.793991 24.470252 33.004010 49.050748 0.740101 0.832736 0.048811 -0.010946 28046.100000 0 0 1
27.450691 24.890232 34.142627 50.386338 0.736518 0.826279 0.051309 -0.015925 -1091130.000000 0 0 1
27.083791 24.140192 -33.332793 49.268202 0.727996 2.313875 0.039941 -0.012421 -705864.000000 0 0 1
25.866691 24.440872 -32.701403 48.330360 0.757064 2.313962 0.035727 -0.012714 1100580.000000 0 0 1
24.637591 23.952962 -33.287533 47.841563 0.771309 2.340311 0.038619 -0.015953 501231.000000 0 0 1
24.519491 22.418262 -33.315293 47.049896 0.740662 2.357578 0.022570 -0.017930 -1038710.000000 0 0 1
24.203891 21.817062 -32.049373 45.705305 0.733581 2.347901 0.010202 -0.019649 430087.000000 0 0 1
24.130091 20.422362 -32.153003 45.090462 0.702368 2.364675 0.016680 -0.016617 -244255.000000 0 0 1
24.095491 19.732962 -30.807793 43.807563 0.686188 2.350759 0.022316 -0.016530 -14890.800000 0 0 1
22.923191 19.992862 -30.056763 42.762089 0.717224 2.350239 0.021808 -0.011136 246487.000000 0 0 1
22.991091 19.331062 -28.801373 41.614893 0.699133 2.335181 0.024282 -0.008993 -183781.000000 0 0 1
21.733691 19.555462 -27.943083 40.442370 0.732692 2.333579 0.045179 -0.011771 -130169.000000 0 0 1
21.665691 18.869462 -26.674533 39.204457 0.716524 2.319098 0.053126 -0.010086 12967.600000 0 0 1
22.428991 19.520062 -25.686083 39.292077 0.716165 2.283288 0.050661 -0.008499 15780.600000 0 0 1
22.435191 18.668862 -24.372803 38.024962 0.694024 2.266556 0.059179 -0.010140 -112641.000000 0 0 1
23.306991 17.579662 -24.576403 38.160974 0.646226 2.270537 0.058738 -0.014882 187931.000000 0 0 1
23.097691 16.518062 -23.684103 36.976837 0.620814 2.265961 0.067461 -0.015657 -165571.000000 0 0 1
24.236491 15.475962 -23.724903 37.279806 0.568277 2.260620 0.061080 -0.015758 -181902.000000 0 0 1
25.514591 15.884962 -23.268103 38.009617 0.556860 2.229590 0.059919 -0.020617 583101.000000 0 0 1
26.493091 14.859262 -23.463503 38.382516 0.511153 2.228507 0.050567 -0.018789 246808.000000 0 0 1
26.500291 13.861962 -22.247203 37.274086 0.481946 2.210371 0.046589 -0.014076 -805813.000000 0 0 1
25.282291 13.172162 -22.179803 36.119853 0.480309 2.231992 0.038575 -0.012744 -175986.000000 0 0 1
25.195691 12.639662 -20.906103 35.094858 0.464974 2.208937 0.027456 -0.019792 109772.000000 0 0 1
23.773891 12.090562 -20.602003 33.701960 0.470476 2.228498 0.015050 -0.007946 858409.000000 0 0 1
22.797991 13.155462 -20.694203 33.482303 0.523370 2.237074 0.034769 -0.011982 112431.000000 0 0 1
21.502591 12.662962 -20.954303 32.585194 0.532221 2.269286 0.030425 -0.012363 727345.000000 0 0 1
20.389691 13.801662 -20.912603 32.304216 0.595050 2.274918 0.053438 -0.017432 83175.500000 0 0 1
20.589691 14.778562 -21.914103 33.504764 0.622550 2.283735 0.053739 -0.012248 355553.000000 0 0 1
19.778791 15.953362 -21.884303 33.535549 0.678746 2.281768 0.055222 -0.019345 -223306.000000 0 0 1
18.402691 15.897762 -22.553903 33.167400 0.712499 2.318562 0.043793 -0.011141 -53322.800000 0 0 1
17.474591 15.003862 -21.930703 31.803034 0.709472 2.331704 0.033744 -0.011383 -137069.000000 0 0 1
16.440391 14.742562 -22.837503 31.767612 0.731005 2.373004 0.033773 -0.009972 472806.000000 0 0 1
15.253791 13.946762 -22.132803 30.282855 0.740668 2.390391 0.014303 -0.004254 1136610.000000 0 0 1
14.071591 14.001162 -22.903503 30.308624 0.782889 2.427482 0.018214 -0.002844 166757.000000 0 0 1
12.875391 13.492962 -22.328403 29.092839 0.808815 2.445710 0.031682 -0.004689 792467.000000 0 0 1
11.635391 13.912062 -23.184403 29.435427 0.874279 2.477759 0.029346 -0.001730 127777.000000 0 0 1
11.309691 15.285462 -23.082803 29.906024 0.933792 2.452534 0.005725 -0.001611 86138.400000 0 0 1
10.938991 15.831762 -24.332003 31.021808 0.966169 2.472446 0.004545 -0.007107 -698134.000000 0 0 1
11.027691 17.341962 -24.369103 31.877999 1.004400 2.440982 -0.004096 0.003691 630317.000000 0 0 1
12.340191 17.916362 -24.201503 32.542113 0.967649 2.409381 -0.008262 -0.000736 1329240.000000 0 0 1
13.291991 17.671862 -25.277253 33.584390 0.925917 2.422872 0.000498 -0.008762 220979.000000 0 0 1
12.922491 18.339062 -26.647513 34.833919 0.956961 2.441818 -0.001123 -0.017846 -37509.500000 0 0 1
13.919891 18.156462 -27.664843 35.899360 0.916716 2.450613 0.003329 -0.018810 278661.000000 0 0 1
13.436991 17.476562 -28.810273 36.276918 0.915335 2.488447 0.004125 -0.023647 -888979.000000 0 0 1
14.306891 17.561962 -30.050253 37.631468 0.887185 2.495663 0.011574 -0.028678 -535634.000000 0 0 1
15.498491 16.825562 -29.973313 37.705467 0.826430 2.489693 0.004088 -0.028910 -58493.100000 0 0 1
16.182691 16.844162 -31.243963 39.010133 0.805424 2.499625 0.008219 -0.025605 1191670.000000 0 0 1
17.550191 16.048562 -31.351153 39.350481 0.740735 2.492638 0.012399 -0.019751 490349.000000 0 0 1
18.615891 16.649462 -30.676223 39.557384 0.729695 2.458282 0.022886 -0.025173 -865561.000000 0 0 1
19.784291 15.938062 -30.869753 39.979766 0.678141 2.452990 0.025544 -0.018093 -728534.000000 0 0 1
20.929391 16.751862 -31.462183 41.334408 0.674984 2.435899 0.027430 -0.017551 -285286.000000 0 0 1
20.630591 17.055962 -32.791343 42.329650 0.690830 2.456983 0.013235 -0.022171 -182897.000000 0 0 1
21.735591 17.724962 -33.281233 43.522990 0.684110 2.441344 0.017526 -0.020171 -642669.000000 0 0 1
21.665891 18.167962 33.966749 44.195313 0.697810 0.694209 0.015267 -0.008414 -102066.000000 0 0 1
22.735391 19.052862 33.712785 44.905027 0.697502 0.721588 0.023716 -0.004625 243414.000000 0 0 1
22.693091 19.477262 32.379718 44.077049 0.709287 0.745695 0.031077 -0.002802 -1248830.000000 0 0 1
23.634491 20.638962 32.107698 44.893877 0.717841 0.773899 0.042177 -0.004408 -696791.000000 0 0 1
24.954491 20.157562 32.149758 45.416526 0.679463 0.784294 0.033167 -0.010245 -230461.000000 0 0 1
25.837091 21.281662 32.035168 46.332671 0.689018 0.807349 0.031502 -0.020027 485448.000000 0 0 1
27.350791 20.936362 32.014228 47.024545 0.653332 0.821944 0.041221 -0.013108 229435.000000 0 0 1
27.870091 20.293762 33.177211 47.846694 0.629373 0.804590 0.028272 -0.017620 642967.000000 0 0 1
29.245591 20.015962 32.866817 48.333953 0.600186 0.823041 0.029502 -0.014602 951741.000000 0 0 1
30.043391 19.426162 34.100489 49.424938 0.573984 0.809383 0.026886 -0.011533 175456.000000 0 0 1
30.229791 20.143862 -33.458623 49.387194 0.587789 2.315122 0.026080 -0.017005 1075520.000000 0 0 1
29.018091 20.170862 -32.651263 48.114637 0.607439 2.316670 0.025837 -0.018396 833939.000000 0 0 1
29.253491 20.494762 -31.139283 47.386253 0.611123 2.287811 0.028980 -0.022028 -196642.000000 0 0 1
29.805291 19.412162 -30.455253 46.826380 0.577288 2.278890 0.024560 -0.026441 118063.000000 0 0 1
30.473991 19.906362 -29.307363 46.731669 0.578639 2.248674 0.014667 -0.025714 204877.000000 0 0 1
31.980591 19.615662 -29.088183 47.472674 0.550186 2.230313 0.036299 -0.024891 241909.000000 0 0 1
32.761191 20.346562 -30.046153 48.888133 0.555759 2.232662 0.014244 -0.026459 417259.000000 0 0 1
34.098691 20.321762 -29.555433 49.489578 0.537450 2.210808 0.031381 -0.015193 681550.000000 0 0 1
35.229291 21.144962 -30.249573 51.022045 0.540574 2.205418 0.037543 -0.017186 606928.000000 0 0 1
-35.467267 20.410062 -31.188903 51.451388 -0.522181 2.222047 0.032787 -0.024273 597981.000000 0 0 1
-34.434467 21.239962 -31.767793 51.439879 -0.552697 2.236447 0.036131 -0.023978 420215.000000 0 0 1
-33.725167 20.449362 -32.913813 51.370053 -0.545078 2.266232 0.038221 -0.026483 -212097.000000 0 0 1
-32.555967 19.770462 -32.525443 50.086591 -0.545752 2.277571 0.042712 -0.019628 381218.000000 0 0 1
-31.851167 19.175462 -33.620213 50.124983 -0.541913 2.305986 0.039199 -0.013265 124978.000000 0 0 1
-30.905867 18.039062 -33.183713 48.803065 -0.528331 2.318493 0.027387 -0.006208 371388.000000 0 0 1
-31.702267 16.898562 -32.784293 48.635429 -0.489729 2.310518 0.029453 -0.007994 910793.000000 0 0 1
-31.087067 15.684062 -33.219093 48.123837 -0.467257 2.332677 0.025996 -0.002381 370706.000000 0 0 1
-32.174267 14.549062 -33.252563 48.503522 -0.424678 2.326183 0.023432 -0.001466 249113.000000 0 0 1
-31.800667 13.281362 -33.736193 48.226629 -0.395624 2.345542 0.021032 0.003510 97230.600000 0 0 1
-32.894667 12.373762 -33.682153 48.679118 -0.359790 2.334944 0.017415 0.006948 43146.200000 0 0 1
-32.533567 10.914162 -33.808293 48.172114 -0.323676 2.348750 0.018736 0.004530 -165542.000000 0 0 1
-32.004467 10.457362 33.712606 47.646428 -0.315811 0.784760 0.012377 0.001229 112288.000000 0 0 1
-32.212867 9.043862 33.561298 47.390093 -0.273707 0.783862 0.031947 -0.006071 -366880.000000 0 0 1
-31.361167 8.328962 32.500558 45.925817 -0.259589 0.784594 0.046708 -0.007159 -362868.000000 0 0 1
-30.140367 7.985562 33.097856 45.471738 -0.258995 0.755575 0.031859 0.003750 23123.500000 0 0 1
-29.278567 7.290162 32.142838 44.085632 -0.244031 0.753790 0.043233 0.000185 545281.000000 0 0 1
20.038891 -4.431502 -31.417493 37.526713 -0.217642 2.562946 0.036885 -0.032469 -505955.000000 0 0 1
21.177191 -4.377402 -32.235043 38.816660 -0.203833 2.550700 0.050147 -0.034904 -391818.000000 0 0 1
22.087091 -3.375702 -31.848963 38.904902 -0.151662 2.529829 0.038960 -0.032643 -61251.300000 0 0 1
21.938491 -1.912102 -32.303323 39.095501 -0.086938 2.543244 0.043760 -0.030166 -860119.000000 0 0 1
23.012591 -1.191402 -31.828653 39.294553 -0.051726 2.514951 0.034106 -0.025757 -346543.000000 0 0 1
23.058591 0.079698 -32.480963 39.833628 0.003456 2.524243 0.031686 -0.021456 -80593.700000 0 0 1
24.127591 1.087698 -31.973513 40.070304 0.045051 2.494658 0.022832 -0.013601 -62840.900000 0 0 1
25.433391 0.706798 -32.339563 41.148563 0.027783 2.474982 0.021405 -0.017538 -531491.000000 0 0 1
26.334691 1.566898 -31.693723 41.236673 0.059429 2.447416 0.012808 -0.007107 -413286.000000 0 0 1
27.777891 1.525698 -32.195463 42.549816 0.054870 2.428976 0.009248 -0.013255 -362355.000000 0 0 1
28.035491 2.230398 -33.413203 43.673854 0.079389 2.441934 0.009318 -0.014325 -98537.800000 0 0 1
28.458391 1.405998 34.299145 44.590225 0.049365 0.693196 -0.002920 -0.015714 -545728.000000 0 0 1
28.986291 2.298998 33.153866 44.098404 0.079148 0.719985 -0.007482 -0.016434 199769.000000 0 0 1
28.010991 3.017798 32.372718 42.915214 0.107322 0.716146 -0.005562 -0.009842 468908.000000 0 0 1
28.137691 4.396598 32.628818 43.309346 0.155000 0.717594 0.007598 -0.000657 -171559.000000 0 0 1
27.339891 5.348598 31.734868 42.227704 0.193193 0.720437 0.010437 -0.003448 -270135.000000 0 0 1
27.553391 6.637798 32.054478 42.787139 0.236402 0.724001 0.023786 -0.009292 -115265.000000 0 0 1
27.126491 7.564798 31.105328 41.959672 0.271962 0.735769 0.024860 -0.008266 -186194.000000 0 0 1
27.455891 9.024198 31.482348 42.736405 0.317557 0.742673 0.023765 -0.009659 -344160.000000 0 0 1
28.782691 9.393498 31.278688 43.532027 0.315461 0.769122 0.022423 -0.014203 -638648.000000 0 0 1
29.033691 10.772698 31.439848 44.130151 0.355296 0.777835 0.023767 -0.010086 -239024.000000 0 0 1
30.424091 11.120298 30.864178 44.742416 0.350424 0.809557 0.020892 -0.008568 -318311.000000 0 0 1
31.423591 10.617498 31.746028 45.912783 0.325840 0.807313 0.020134 -0.008992 1801930.000000 0 0 1
32.794191 10.914698 31.289188 46.621914 0.321292 0.835069 0.018972 -0.003538 1867470.000000 0 0 1
33.316291 12.381698 31.457018 47.463941 0.355823 0.846303 0.026497 -0.003564 -658776.000000 0 0 1
33.518991 12.754798 32.831610 48.622240 0.363605 0.829508 0.033714 -0.004300 67600.500000 0 0 1
33.861591 14.105098 33.061070 49.382137 0.394693 0.837268 0.037770 0.001722 -81121.500000 0 0 1
32.774391 15.170698 32.816626 48.797968 0.433515 0.833215 0.043558 -0.008113 -1534920.000000 0 0 1
32.548891 15.480898 31.451378 47.835945 0.443954 0.853321 0.039673 -0.010666 791589.000000 0 0 1
31.566791 16.559598 31.326438 47.455540 0.483125 0.849815 0.044845 -0.013997 28255.500000 0 0 1
30.162991 16.172798 31.748748 46.683492 0.492171 0.822918 0.036305 -0.010091 -2103270.000000 0 0 1
29.737291 15.152698 30.827008 45.433635 0.471260 0.825069 0.049383 -0.002735 854526.000000 0 0 1
28.342591 14.874598 31.054348 44.597406 0.483301 0.800530 0.031617 -0.005021 767475.000000 0 0 1
27.548691 14.217298 29.941528 43.099385 0.476428 0.802781 0.027522 -0.001945 -65305.400000 0 0 1
27.832191 12.852198 29.627798 42.633511 0.432602 0.802458 0.030359 -0.003178 95513.200000 0 0 1
26.891591 12.490598 28.626908 41.214955 0.434830 0.802966 0.022110 -0.009658 155056.000000 0 0 1
26.800191 10.935198 28.387458 40.542281 0.387407 0.795127 0.027763 -0.004733 801348.000000 0 0 1
27.936391 10.358198 27.683598 40.670822 0.355064 0.822113 0.029953 -0.007059 785061.000000 0 0 1
27.631391 9.037698 27.337928 39.906592 0.316113 0.816127 0.036068 -0.007605 677349.000000 0 0 1
28.771891 8.165598 26.649208 40.058445 0.276533 0.842957 0.024803 -0.008062 574293.000000 0 0 1
29.240791 8.552898 25.360108 39.639765 0.284561 0.876605 0.026055 -0.002599 311872.000000 0 0 1
30.300691 7.704798 24.933508 39.989694 0.249001 0.897587 0.032196 0.001716 28716.500000 0 0 1
30.813091 8.100898 23.564768 39.627887 0.257087 0.933965 0.033750 0.000891 -240161.000000 0 0 1
31.361791 9.424198 23.448068 40.276412 0.291915 0.949391 0.035400 -0.008001 588275.000000 0 0 1
30.393491 10.439098 23.136368 39.598366 0.330841 0.946809 0.041768 -0.013497 222186.000000 0 0 1
29.838991 10.478298 21.625968 38.312434 0.337709 0.971013 0.032193 0.007106 12663.800000 0 0 1
30.825291 10.704198 20.642368 38.611990 0.334226 1.006750 0.046762 -0.010977 207325.000000 0 0 1
30.384691 10.392098 19.285168 37.458548 0.329546 1.029975 0.036934 -0.010056 -1070430.000000 0 0 1
31.275991 10.947998 18.133568 37.773967 0.336715 1.070079 0.040026 -0.031913 682897.000000 0 0 1
32.465391 10.188498 17.893668 38.444641 0.304093 1.086665 0.045757 -0.029002 869124.000000 0 0 1
33.535991 10.374798 18.826768 39.833984 0.300025 1.078523 0.059860 -0.020564 -46606.900000 0 0 1
34.886391 9.756998 18.405168 40.632616 0.272711 1.100708 0.077916 -0.029199 -60330.600000 0 0 1
34.674991 8.389598 18.243068 40.069313 0.237388 1.098101 0.081453 -0.022968 397114.000000 0 0 1
-35.688167 7.775898 17.612568 40.550122 -0.214532 1.121490 0.078189 -0.018346 -235664.000000 0 0 1
35.589291 6.264398 17.331468 40.077676 0.174234 1.123592 0.076064 -0.017810 -289648.000000 0 0 1
34.642591 6.055398 16.286868 38.756148 0.173048 1.137087 0.049570 -0.007909 372395.000000 0 0 1
34.737991 4.765398 15.747368 38.437178 0.136330 1.148681 0.051010 -0.003137 -147605.000000 0 0 1
33.549291 3.851098 16.099468 37.410944 0.114289 1.125926 0.046924 -0.007227 -220696.000000 0 0 1
33.591191 3.194398 17.373468 37.952730 0.094811 1.095316 0.053417 0.003789 -45470.400000 0 0 1
32.382091 2.568498 17.738668 37.011584 0.079153 1.070970 0.039831 0.007638 -73791.100000 0 0 1
32.424791 1.727698 19.054468 37.648702 0.053233 1.040125 0.033327 0.003311 -29191.100000 0 0 1
33.309591 0.634598 19.042968 38.374030 0.019049 1.051527 0.039741 0.005645 -96048.900000 0 0 1
33.169891 -0.155902 20.192268 38.832894 -0.004700 1.023971 0.043097 -0.002201 18692.600000 0 0 1
33.788491 -1.507102 19.981768 39.283642 -0.044574 1.037176 0.053633 -0.005848 -60292.400000 0 0 1
33.607291 -2.298402 21.113168 39.755484 -0.068284 1.010927 0.080469 0.001652 161030.000000 0 0 1
33.934491 -3.682602 20.903568 40.025871 -0.108098 1.021307 0.045494 0.001186 -140972.000000 0 0 1
33.409491 -4.540302 22.076268 40.300993 -0.135071 0.991082 0.055456 0.000092 102109.000000 0 0 1
33.967091 -4.172902 23.314868 41.409654 -0.122239 0.972749 0.052429 -0.003998 489583.000000 0 0 1
33.124291 -4.677102 24.342768 41.372265 -0.140271 0.941738 0.054918 -0.014819 180851.000000 0 0 1
33.537991 -4.258502 25.756888 42.501164 -0.126300 0.919739 0.032098 -0.009872 -401741.000000 0 0 1
32.586391 -4.480502 26.738518 42.389811 -0.136639 0.888242 0.046586 -0.010319 -418753.000000 0 0 1
32.887691 -3.754802 27.904698 43.294006 -0.113678 0.870375 0.041419 -0.010776 -218822.000000 0 0 1
32.022391 -4.169202 29.088458 43.462100 -0.129468 0.837553 0.039602 -0.018257 -201572.000000 0 0 1
32.287091 -5.462702 29.512268 44.082551 -0.167604 0.837291 0.043275 -0.021300 360119.000000 0 0 1
31.383591 -5.862302 30.550538 44.188593 -0.184667 0.807417 0.050812 -0.030261 153725.000000 0 0 1
31.640991 -7.364102 30.883018 44.823466 -0.228668 0.810699 0.040599 -0.025909 191899.000000 0 0 1
32.911491 -7.530502 31.476678 46.159029 -0.224939 0.820414 0.042837 -0.022246 -74244.600000 0 0 1
33.335691 -8.878302 31.307378 46.585882 -0.260288 0.833842 0.028681 -0.014097 111840.000000 0 0 1
34.577991 -9.320402 32.085998 48.083455 -0.263290 0.840221 0.036238 -0.007103 184965.000000 0 0 1
34.228391 -9.474102 33.457362 48.792791 -0.270030 0.815227 0.022674 -0.017158 659131.000000 0 0 1
35.426491 -9.719002 34.189141 50.183589 -0.267755 0.821285 0.014871 -0.019675 102601.000000 0 0 1
35.233091 -9.981902 -33.032613 49.316960 -0.276076 2.304739 0.032665 -0.017817 -319801.000000 0 0 1
34.712391 -8.902302 -32.228003 48.195905 -0.251048 2.303239 0.032649 -0.022605 256694.000000 0 0 1
35.332291 -7.643202 -32.349853 48.510847 -0.213041 2.300781 0.025212 -0.016837 -443265.000000 0 0 1
34.724291 -6.623602 -31.445893 47.312712 -0.188484 2.297807 0.034360 -0.016979 -395449.000000 0 0 1
35.182391 -6.703902 -30.119603 46.796724 -0.188290 2.270023 0.022112 -0.009151 362643.000000 0 0 1
34.533291 -5.711602 -29.311183 45.654310 -0.163910 2.267932 0.028479 -0.012627 -146894.000000 0 0 1
34.926291 -5.707102 -27.855533 45.037179 -0.161973 2.237630 0.032355 -0.008012 268784.000000 0 0 1
-35.209067 -5.277502 -27.634403 45.068732 0.148783 2.230853 0.042855 -0.011601 73420.400000 0 0 1
-34.900067 -4.972102 -26.303273 43.984072 0.141515 2.211822 0.042206 -0.014803 476475.000000 0 0 1
-33.384967 -4.719102 -26.059773 42.613820 0.140424 2.228793 0.052140 -0.011234 -484555.000000 0 0 1
-33.048067 -4.282602 -24.756803 41.514030 0.128869 2.209740 0.057133 -0.010457 305717.000000 0 0 1
-31.648867 -4.230102 -24.531103 40.265612 0.132870 2.225888 0.064115 -0.011678 587531.000000 0 0 1
-30.756467 -3.207802 -25.298483 39.953266 0.103921 2.256479 0.043971 -0.014339 -479818.000000 0 0 1
-30.551467 -3.605402 -26.616953 40.679887 0.117467 2.284056 0.043473 -0.013075 -303105.000000 0 0 1
-29.739167 -2.696402 -27.303573 40.462003 0.090421 2.311484 0.035074 -0.013689 -120830.000000 0 0 1
-29.264067 -3.305802 -28.667303 41.099005 0.112488 2.342724 0.024370 -0.018763 134330.000000 0 0 1
-30.256567 -3.510702 -29.676183 42.526000 0.115515 2.343168 0.042052 -0.021088 -21370.600000 0 0 1
-29.771567 -4.254902 -30.782203 43.034804 0.141957 2.367830 0.032040 -0.012237 -573569.000000 0 0 1
-30.877967 -4.607002 -31.853853 44.602032 0.148108 2.366247 0.034476 -0.013690 -159163.000000 0 0 1
-31.830667 -5.563102 -31.356953 45.026636 0.173024 2.341178 0.030929 -0.016098 1043880.000000 0 0 1
-32.841867 -5.108702 -30.436473 45.067349 0.154318 2.312243 0.044292 -0.019830 -265483.000000 0 0 1
-33.875667 -4.125502 -31.043983 46.133604 0.121187 2.308938 0.062851 -0.022177 -1329080.000000 0 0 1
-33.429567 -2.875602 -31.485263 46.012246 0.085808 2.324412 0.060511 -0.015549 -211896.000000 0 0 1
-33.102767 -1.996402 -30.391633 44.982554 0.060236 2.312617 0.057902 -0.014101 -317258.000000 0 0 1
-32.783467 -0.616802 -30.956323 45.093570 0.018812 2.327448 0.045434 -0.010824 299794.000000 0 0 1
-33.880967 -0.020502 -31.658543 46.370073 0.000605 2.322298 0.067847 -0.007587 323969.000000 0 0 1
-33.676767 1.334998 -32.065553 46.519958 -0.039621 2.331299 0.079217 -0.003052 -269006.000000 0 0 1
-34.993267 1.998698 -32.475853 47.782890 -0.057055 2.318088 0.055392 -0.003456 -277587.000000 0 0 1
-35.441967 1.679998 -33.768803 48.982522 -0.047366 2.331464 0.051983 -0.001589 -340130.000000 0 0 1
34.733791 2.197498 -33.877623 48.569111 0.063183 2.342718 0.018325 -0.002712 -421182.000000 0 0 1
33.993691 1.896798 33.528755 47.784373 0.055741 0.793061 0.019978 -0.001062 -133408.000000 0 0 1
34.470391 2.438298 32.321708 47.316445 0.070618 0.818802 0.023562 -0.000572 523128.000000 0 0 1
35.399791 1.591798 31.616708 47.489949 0.044936 0.842290 0.021122 -0.006173 159915.000000 0 0 1
35.574291 1.964398 30.162728 46.681679 0.055164 0.868285 0.028061 -0.008781 -232468.000000 0 0 1
-35.325267 3.239698 29.869268 46.373950 -0.091455 0.870956 0.033487 -0.012351 331573.000000 0 0 1
-34.769267 3.258298 28.535298 45.097468 -0.093439 0.885700 0.041341 -0.019177 29120.600000 0 0 1
-34.202867 4.597198 28.163678 44.543945 -0.133609 0.886320 0.046354 -0.015195 -402383.000000 0 0 1
-33.499367 4.661998 26.960218 43.252689 -0.138279 0.897817 0.046003 -0.011703 259042.000000 0 0 1
-32.924567 5.957398 26.763988 42.846572 -0.179004 0.896117 0.046430 -0.003931 -242143.000000 0 0 1
-32.251067 6.041398 25.351708 41.464911 -0.185178 0.912966 0.047641 -0.002736 530452.000000 0 0 1
-31.053367 5.229198 25.298828 40.394143 -0.166829 0.893999 0.044129 -0.002988 855772.000000 0 0 1
-30.178967 5.611198 24.277278 39.136195 -0.183832 0.901636 0.039540 -0.000716 -288726.000000 0 0 1
-30.520767 5.190798 22.848768 38.477627 -0.168462 0.934999 0.055837 -0.003749 -288016.000000 0 0 1
-30.510567 3.846398 22.657768 38.197695 -0.125406 0.935804 0.041074 0.003478 82653.800000 0 0 1
-31.300067 3.521898 21.526768 38.151011 -0.112049 0.971270 0.056124 -0.006220 -764159.000000 0 0 1
-31.142967 2.043898 21.139368 37.695288 -0.065536 0.975449 0.042569 0.005115 516506.000000 0 0 1
-29.841267 1.731898 20.638968 36.324477 -0.057972 0.966500 0.031560 0.011090 601274.000000 0 0 1
-29.533067 2.214498 19.333668 35.368019 -0.074844 0.992447 0.041066 0.003007 -252042.000000 0 0 1
-28.480567 1.385298 18.573168 34.029756 -0.048602 0.993462 0.040550 0.005079 -119557.000000 0 0 1
-28.947767 0.090798 18.212168 34.200358 -0.003137 1.009228 0.037091 0.002271 142598.000000 0 0 1
-27.919967 -0.795602 17.845568 33.145464 0.028488 1.002257 0.040769 0.006360 -128141.000000 0 0 1
-27.468967 -0.699002 16.371068 31.985068 0.025441 1.033477 0.057624 0.004221 -15072.400000 0 0 1
-26.885967 0.550698 16.080768 31.332883 -0.020480 1.031860 0.054378 0.002613 185149.000000 0 0 1
-26.924067 0.760098 14.679568 30.675280 -0.028224 1.071797 0.068275 0.001016 -34985.600000 0 0 1
-26.519267 2.165298 14.183768 30.151937 -0.081469 1.081041 0.060717 -0.003157 467480.000000 0 0 1
-25.123067 2.445698 14.224368 28.973825 -0.097043 1.057630 0.052907 -0.002012 446771.000000 0 0 1
-24.884267 3.668098 13.603968 28.596322 -0.146352 1.075009 0.052945 -0.004327 -518857.000000 0 0 1
-23.421867 3.993598 13.318568 27.238152 -0.168883 1.059891 0.048047 0.000268 -942747.000000 0 0 1
-22.755067 4.452798 14.424168 27.307089 -0.193242 1.014293 0.037161 0.005235 -318957.000000 0 0 1
-21.464667 4.849498 14.027768 26.096510 -0.222199 1.003286 0.032902 0.001560 -865508.000000 0 0 1
-20.622167 5.334498 15.144968 26.136195 -0.253129 0.952726 0.014782 0.003892 -776367.000000 0 0 1
-20.830067 6.716398 15.441868 26.785312 -0.311913 0.956351 0.018623 0.008462 234880.000000 0 0 1
-20.161567 7.029598 16.600768 27.046063 -0.335483 0.909936 0.014642 0.006680 -504519.000000 0 0 1
-20.324367 8.513598 16.994068 27.827317 -0.396681 0.913855 0.007402 0.007433 -502957.000000 0 0 1
-19.701867 9.393498 16.094768 27.119051 -0.444901 0.935414 0.013705 0.007227 444746.000000 0 0 1
-20.075467 10.756598 16.293668 28.003792 -0.491882 0.949810 0.016087 0.005558 -128558.000000 0 0 1
-19.527867 11.472998 17.569668 28.664621 -0.531192 0.911021 0.021807 0.000924 -140305.000000 0 0 1
-20.144667 11.009198 18.765568 29.650575 -0.500157 0.885515 0.027590 0.002933 614594.000000 0 0 1
-19.528467 11.530098 19.949968 30.204394 -0.533349 0.849313 0.027076 0.006447 -283714.000000 0 0 1
-12.071109 -33.806566 -21.057003 41.617220 1.227842 2.101301 0.048325 -0.018253 291641.000000 0 0 1
-12.990109 -34.013766 -19.971103 41.527391 1.205984 2.072493 0.067439 -0.016755 -224742.000000 0 0 1
-14.129809 -33.216966 -20.089703 41.311191 1.168604 2.078649 0.061018 -0.037124 -349847.000000 0 0 1
-15.276009 -33.754966 -19.203503 41.731627 1.145819 2.048979 0.049744 -0.021574 -944232.000000 0 0 1
-15.769809 33.868998 -19.698103 42.235189 -1.135036 2.056003 0.028683 -0.030167 -199829.000000 0 0 1
-16.571409 32.956098 -18.971603 41.480570 -1.104885 2.045822 0.038724 -0.024008 1188270.000000 0 0 1
-17.974609 33.486498 -18.435703 42.241061 -1.078166 2.022435 0.050276 -0.023652 338024.000000 0 0 1
-17.881109 34.299098 -17.318503 42.380334 -1.090232 1.991765 0.051828 -0.020377 317347.000000 0 0 1
-19.165709 -34.289366 -16.729703 42.696229 1.061115 1.973417 0.033763 -0.007982 371029.000000 0 0 1
-19.300009 33.866998 -15.293103 41.872938 -1.052821 1.944672 0.042151 -0.019735 -534963.000000 0 0 1
-19.379509 32.460998 -15.261103 40.769879 -1.032579 1.954463 0.039761 -0.019925 103476.000000 0 0 1
-19.686609 32.034998 -13.952903 40.105949 -1.019758 1.926128 0.046263 -0.015417 -37984.200000 0 0 1
-19.849909 30.508798 -13.740503 38.905103 -0.993979 1.931764 0.032584 -0.015885 -840266.000000 0 0 1
-18.647709 29.864298 -13.623203 37.751887 -1.012618 1.939988 0.039558 -0.028126 -1017720.000000 0 0 1
-18.827709 28.451398 -13.659603 36.749822 -0.986205 1.951627 0.037675 -0.030143 -256182.000000 0 0 1
-17.548009 27.690398 -13.273303 35.367659 -1.005950 1.955511 0.046778 -0.024253 -823722.000000 0 0 1
-16.512909 28.011398 -14.107103 35.444674 -1.038128 1.980136 0.058621 -0.026841 -1046060.000000 0 0 1
-15.397909 27.172198 -13.885803 34.179518 -1.055238 1.989155 0.064749 -0.032696 -65788.100000 0 0 1
-14.113009 27.598498 -14.601903 34.264700 -1.098095 2.011029 0.055277 -0.027168 -340643.000000 0 0 1
-14.176909 27.623198 -16.007103 34.932122 -1.096625 2.046804 0.042270 -0.028457 -159903.000000 0 0 1
-13.161209 28.413698 -16.581803 35.433203 -1.137020 2.057793 0.057474 -0.025712 51510.200000 0 0 1
-13.309909 28.315698 -18.105203 36.148732 -1.131391 2.095380 0.066018 -0.034488 142211.000000 0 0 1
-12.759809 27.148898 -18.654403 35.325092 -1.131441 2.127132 0.050618 -0.025455 150250.000000 0 0 1
-13.084809 27.100998 -20.013103 36.141397 -1.120990 2.157651 0.045411 -0.027852 -340409.000000 0 0 1
-12.329509 25.909898 -20.585803 35.314514 -1.126646 2.193123 0.031554 -0.021014 -114795.000000 0 0 1
-10.995609 26.262898 -20.883403 35.309485 -1.174296 2.203638 0.017916 -0.010171 -23807.800000 0 0 1
-10.319509 25.175898 -21.526003 34.694191 -1.181788 2.240112 0.039620 -0.014528 207568.000000 0 0 1
-9.064309 25.507198 -22.340903 35.098359 -1.229352 2.260778 0.037084 -0.014631 -183823.000000 0 0 1
-9.367909 26.416198 -23.404803 36.515175 -1.230005 2.266546 0.036801 -0.005493 100117.000000 0 0 1
-8.318509 26.511698 -24.351303 36.946633 -1.266757 2.290410 0.016102 -0.009592 -622142.000000 0 0 1
-8.653609 27.157398 -25.688873 38.370919 -1.262322 2.304316 0.009717 -0.003110 14654.100000 0 0 1
-9.630309 26.457198 -26.463983 38.640245 -1.221708 2.325237 0.017372 0.003849 117025.000000 0 0 1
-9.920409 27.150498 -27.595243 39.963252 -1.220481 2.332998 0.032952 0.004094 -737110.000000 0 0 1
-11.124909 26.659198 -28.356933 40.479527 -1.175465 2.346930 0.019582 0.006106 -654931.000000 0 0 1
-11.321009 27.151798 -29.657183 41.772406 -1.175762 2.360253 0.026404 0.006574 1264330.000000 0 0 1
-12.700309 26.810798 -29.979703 42.177000 -1.128408 2.361441 0.025630 0.010586 1404660.000000 0 0 1
-13.119209 27.196698 -31.407323 43.568268 -1.121342 2.375862 0.026544 0.002922 -138647.000000 0 0 1
-12.421009 26.392698 -32.360713 43.566865 -1.130925 2.408013 0.029543 -0.002082 264414.000000 0 0 1
-12.632309 24.987598 -32.450193 42.859892 -1.102724 2.429694 0.020461 -0.006568 -285713.000000 0 0 1
-11.805009 24.363098 -33.563813 43.121321 -1.119589 2.462842 0.026899 -0.005390 -264648.000000 0 0 1
-12.285209 24.582998 33.889315 43.631821 -1.107353 0.681369 0.034680 -0.008882 -161340.000000 0 0 1
-11.434309 23.952398 32.995590 42.345835 -1.125411 0.677419 0.036516 -0.015269 -666693.000000 0 0 1
-12.033109 24.021498 31.597388 41.475571 -1.106404 0.704661 0.045689 -0.010976 -643485.000000 0 0 1
-13.211909 23.285298 31.428918 41.286033 -1.054698 0.705561 0.069635 -0.017705 -359327.000000 0 0 1
-13.586209 23.202198 30.079688 40.344946 -1.041064 0.729418 0.080257 -0.012568 774941.000000 0 0 1
-14.995709 22.531598 29.854868 40.297113 -0.983573 0.736434 0.056001 -0.015243 936083.000000 0 0 1
-14.903509 21.193598 30.166228 39.765368 -0.957921 0.709626 0.050967 -0.021391 177535.000000 0 0 1
-16.207409 20.637498 30.319848 40.098374 -0.905060 0.713407 0.039498 -0.021662 535781.000000 0 0 1
-16.167009 19.115498 30.507398 39.464867 -0.868772 0.687198 0.049892 -0.029259 -30502.400000 0 0 1
-15.973509 18.459398 29.305228 38.140513 -0.857468 0.694539 0.051813 -0.027358 4879.320000 0 0 1
-15.557709 17.128398 29.466398 37.465890 -0.833415 0.665698 0.034872 -0.034139 -197205.000000 0 0 1
-15.092109 16.494398 28.167208 35.961486 -0.829764 0.670903 0.021464 -0.024756 1247060.000000 0 0 1
-13.765809 16.939398 27.741618 35.299264 -0.888389 0.666649 0.039765 -0.023492 1092120.000000 0 0 1
-13.384309 16.018398 26.693888 33.886464 -0.874746 0.663657 0.028565 -0.010677 356786.000000 0 0 1
-12.072609 16.521598 26.022578 33.104163 -0.939751 0.666352 0.033663 -0.004944 295106.000000 0 0 1
-12.270309 17.581898 25.057828 32.978453 -0.961485 0.707754 0.037066 0.000401 -152589.000000 0 0 1
-12.576909 18.925598 25.440058 34.110899 -0.984264 0.729055 0.037677 -0.002354 -157676.000000 0 0 1
-11.455609 19.742398 26.114298 34.683567 -1.045022 0.718293 0.030609 -0.004081 -99434.200000 0 0 1
-11.297009 19.623798 27.546638 35.658563 -1.048452 0.688010 0.040450 -0.015342 251318.000000 0 0 1
-12.444609 19.976798 28.312898 36.817943 -1.013670 0.693525 0.067389 -0.022277 346919.000000 0 0 1
-12.077009 19.686898 29.819208 37.717546 -1.020543 0.659020 0.059126 -0.027436 856286.000000 0 0 1
-10.856209 20.365298 30.176288 37.989617 -1.081041 0.652893 0.047289 -0.031078 592892.000000 0 0 1
-10.738709 20.196898 31.578188 38.992518 -1.082111 0.626896 0.035976 -0.029126 -494980.000000 0 0 1
-9.628709 20.978598 32.243978 39.654605 -1.140502 0.621303 0.039776 -0.031555 41181.200000 0 0 1
-8.314709 20.606998 31.848208 38.834148 -1.187285 0.609196 0.044542 -0.030865 698062.000000 0 0 1
-7.289209 21.321798 32.536388 39.577369 -1.241386 0.605714 0.037446 -0.024521 826149.000000 0 0 1
-6.066709 20.515598 33.082975 39.397689 -1.283278 0.574031 0.041889 -0.023317 108683.000000 0 0 1
-6.362409 19.668798 34.250787 40.005728 -1.257942 0.543030 0.043419 -0.029750 876493.000000 0 0 1
-5.174209 19.120298 -33.885583 39.250363 -1.306513 2.612606 0.035906 -0.023029 812755.000000 0 0 1
-4.437109 18.024798 34.043222 38.775279 -1.329429 0.499208 0.026241 -0.021210 -57594.600000 0 0 1
-5.192509 16.823398 33.894241 38.194351 -1.271425 0.479089 0.025399 -0.021098 191727.000000 0 0 1
-4.773809 16.020998 32.777017 36.793946 -1.281201 0.471636 0.033836 -0.013357 78226.700000 0 0 1
-5.477209 14.634198 32.721555 36.260994 -1.212662 0.445513 0.038761 -0.011719 -25169.800000 0 0 1
-4.914109 13.639398 33.547935 36.546485 -1.224986 0.407909 0.042122 -0.010925 -505297.000000 0 0 1
-5.662809 12.506598 33.481820 36.187217 -1.145628 0.389132 0.052955 -0.005376 -495065.000000 0 0 1
-5.025009 11.175198 33.980051 36.121733 -1.148227 0.346081 0.080494 -0.003218 207911.000000 0 0 1
-4.675009 11.096198 -33.370213 35.476082 -1.172050 2.795307 0.064218 -0.014986 45640.400000 0 0 1
-3.886809 9.932398 -33.092013 34.768393 -1.197790 2.829797 0.067984 -0.013368 491438.000000 0 0 1
-3.755809 9.704098 -31.589933 33.259577 -1.201518 2.823391 0.052081 -0.015468 484021.000000 0 0 1
-4.982109 9.101498 -31.201583 32.881567 -1.069956 2.820554 0.065594 -0.019010 332536.000000 0 0 1
-4.885209 8.872498 -29.798633 31.472925 -1.067492 2.813945 0.065798 -0.014788 145437.000000 0 0 1
-6.003909 7.896498 -29.321333 30.953872 -0.920720 2.815368 0.065482 -0.021554 81354.200000 0 0 1
-5.682209 7.049998 -28.260283 29.675471 -0.892415 2.831519 0.055215 -0.019329 366266.000000 0 0 1
-6.645809 5.993998 -28.141963 29.530744 -0.733876 2.833691 0.071893 -0.031854 -20628.900000 0 0 1
-6.502409 5.303498 -26.782743 28.066416 -0.684193 2.837981 0.055638 -0.031805 -246004.000000 0 0 1
-6.899109 6.079398 -25.654623 27.252825 -0.722323 2.797425 0.037333 -0.018857 -47308.100000 0 0 1
-5.974509 7.056198 -25.246203 26.885971 -0.868219 2.790537 0.035868 -0.017061 -161346.000000 0 0 1
-6.561809 7.951698 -24.135903 26.245545 -0.880872 2.737906 0.020202 -0.007138 45594.200000 0 0 1
-6.743309 7.174698 -22.938203 24.962165 -0.816383 2.736127 0.015633 -0.002947 632306.000000 0 1 0
-7.886409 7.690098 -22.227203 24.806886 -0.772796 2.681496 0.024630 0.000530 624024.000000 0 1 0
-7.622309 7.930898 -20.701203 23.442238 -0.805236 2.653167 0.011655 0.001522 -119506.000000 0 1 0
-6.828409 9.077398 -20.424003 23.370199 -0.925861 2.634034 -0.006424 0.006779 -60140.300000 0 1 0
-6.682409 9.383098 -19.027803 22.243075 -0.951946 2.597212 -0.001484 0.009359 -239102.000000 0 1 0
-7.939809 9.564398 -18.129103 21.981416 -0.877944 2.540551 -0.006417 0.011911 1091.830000 0 1 0
-7.641809 9.809798 -16.758003 20.867679 -0.908994 2.503209 -0.016850 0.012560 452563.000000 0 1 0
-8.850409 10.115198 -16.056903 20.939702 -0.851988 2.444662 -0.001740 0.005764 572499.000000 0 1 0
-9.389609 11.552998 -16.208203 22.007780 -0.888334 2.398642 -0.001942 0.004789 -834510.000000 0 1 0
-8.457709 12.465998 -15.764103 21.804607 -0.974672 2.378890 -0.021283 0.004245 -364371.000000 0 1 0
-8.851209 13.855798 -15.949503 22.906630 -1.002328 2.341003 -0.006149 -0.002575 751794.000000 0 1 0
-7.644209 14.769498 -15.501503 22.734744 -1.093194 2.321074 -0.001529 -0.007960 355231.000000 0 1 0
-7.293109 14.665898 -14.154403 21.647751 -1.109324 2.283459 -0.002298 -0.015162 274327.000000 0 1 0
-8.241309 15.233298 -13.231203 21.795350 -1.074884 2.223159 -0.010413 -0.029812 -458745.000000 0 1 0
-7.593909 16.039698 -12.086603 21.471501 -1.128618 2.168703 -0.000639 -0.031944 94282.500000 0 1 0
-7.185909 17.348598 -12.375003 22.488927 -1.178103 2.153485 0.001378 -0.029965 39361.700000 0 1 0
-6.234809 17.538798 -13.420303 22.947479 -1.229242 2.195463 0.015389 -0.019269 -306151.000000 0 1 0
-6.176409 18.899098 -14.111503 24.381519 -1.254928 2.188027 0.046304 -0.010372 196696.000000 0 1 0
-5.533109 19.805298 -13.199403 24.435412 -1.298367 2.141442 0.042502 -0.019637 145353.000000 0 1 0
-5.634109 21.082098 -13.709503 25.771079 -1.309653 2.131725 0.047467 -0.014607 -398810.000000 0 0 1
-5.087309 22.139198 -12.731603 26.040709 -1.344930 2.081638 0.056240 -0.015216 -939472.000000 0 0 1
-5.194709 23.483798 -13.176603 27.424380 -1.353098 2.071987 0.051040 -0.019595 696060.000000 0 0 1
-6.467909 24.158498 -13.280703 28.316849 -1.309203 2.058959 0.047025 -0.019913 812934.000000 0 0 1
-7.288809 24.259498 -11.962003 28.013202 -1.278925 2.011983 0.023708 -0.014708 -256135.000000 0 0 1
-7.668709 22.948198 -11.494903 26.787342 -1.248289 2.014311 0.034849 -0.012685 -311940.000000 0 0 1
-8.429209 22.882898 -10.299903 26.471996 -1.217857 1.970436 0.044588 -0.014323 631978.000000 0 0 1
-7.638109 23.249698 -8.933703 26.051875 -1.253379 1.920820 0.043590 -0.016722 586491.000000 0 0 1
-7.450909 24.643198 -8.808903 27.210293 -1.277184 1.900470 0.038318 -0.015986 -158131.000000 0 0 1
-6.778509 25.004698 -7.612103 27.002356 -1.306069 1.856576 0.038799 -0.013598 223080.000000 0 0 1
-6.619809 26.574598 -7.420303 28.374144 -1.326662 1.835389 0.028077 -0.016064 374497.000000 0 0 1
-5.704309 27.271298 -8.261903 29.060659 -1.364600 1.859071 0.027752 -0.015702 -153280.000000 0 0 1
-6.043809 27.247298 -9.603303 29.515527 -1.352517 1.902193 0.032743 -0.013974 -19480.000000 0 0 1
-5.388009 28.372798 -10.463403 30.716919 -1.383130 1.918394 0.029953 -0.005900 169734.000000 0 0 1
-5.966609 29.631998 -10.293403 31.931331 -1.372096 1.899018 0.026321 -0.005412 463124.000000 0 0 1
-7.101709 29.828398 -11.168503 32.632852 -1.337062 1.920104 0.031627 -0.009128 828737.000000 0 0 1
-8.060909 31.000798 -10.819003 33.809445 -1.316407 1.896525 0.029218 -0.001529 240163.000000 0 0 1
-9.034509 30.671998 -9.843003 33.455620 -1.284345 1.869426 0.031615 -0.004438 252607.000000 0 0 1
-10.153509 31.552198 -9.879103 34.586582 -1.259461 1.860464 0.030066 0.001719 514800.000000 0 0 1
-11.351209 31.109198 -9.004503 34.317827 -1.220925 1.836290 0.031012 -0.002576 112328.000000 0 0 1
-11.991809 29.962998 -9.491203 33.640269 -1.190100 1.856818 0.031171 -0.013518 -344898.000000 0 0 1
-13.225609 29.813998 -8.818303 33.786886 -1.153274 1.834852 0.041070 -0.015311 471866.000000 0 0 1
-14.159009 28.684698 -9.364903 33.331529 -1.112275 1.855593 0.045551 -0.015065 153096.000000 0 0 1
-13.863309 27.317298 -8.996603 31.927496 -1.101173 1.856447 0.036204 -0.015328 -373626.000000 0 0 1
-14.832609 26.513298 -9.592703 31.858770 -1.060734 1.876643 0.043176 -0.017651 -402827.000000 0 0 1
-14.918909 25.064198 -9.073403 30.546923 -1.033893 1.872379 0.042282 -0.013991 -203330.000000 0 0 1
-13.843409 24.188698 -9.352503 29.397320 -1.050987 1.894565 0.036643 -0.011689 115419.000000 0 0 1
-14.222109 22.935998 -8.915303 28.422016 -1.015744 1.889858 0.042201 -0.014098 212367.000000 0 0 1
-13.195309 21.870598 -9.352803 27.201363 -1.027928 1.921795 0.045459 -0.015461 3687.920000 0 0 1
-13.267909 21.583998 -10.725303 27.512515 -1.019630 1.971247 0.039400 -0.014584 -63743.300000 0 0 1
-12.484709 20.502098 -11.133503 26.460515 -1.023823 2.005078 0.035917 -0.020242 -278102.000000 0 0 1
-12.720909 20.119098 -12.588403 26.927078 -1.006979 2.057257 0.040056 -0.010633 -580425.000000 0 0 1
-14.008809 19.680398 -12.868203 27.370704 -0.952185 2.060252 0.057661 -0.014763 -910503.000000 0 0 1
-14.036909 19.441298 -14.237603 27.887420 -0.945447 2.106607 0.064705 -0.007255 -6897.440000 0 0 1
-15.397009 18.981598 -14.813503 28.579867 -0.889291 2.115681 0.064496 -0.009299 93796.000000 0 0 1
-16.250509 20.117098 -14.833103 29.812709 -0.891320 2.091560 0.051403 -0.012020 -534130.000000 0 0 1
-17.559209 19.673598 -15.084803 30.379723 -0.842126 2.090407 0.044246 -0.008451 75570.100000 0 0 1
-18.541009 20.734498 -15.688003 31.934337 -0.841189 2.084330 0.021254 -0.010221 253062.000000 0 0 1
-18.914509 21.843598 -14.902603 32.511367 -0.857140 2.046969 0.027136 -0.022681 206473.000000 0 0 1
-19.551209 22.852598 -15.675903 33.914966 -0.863097 2.051284 0.027252 -0.018909 -39814.000000 0 0 1
-19.700009 24.158198 -14.894103 34.547694 -0.886700 2.016527 0.019932 -0.011966 495458.000000 0 0 1
-20.819309 24.154198 -13.992503 34.823254 -0.859415 1.984294 0.030803 -0.011331 580489.000000 0 0 1
-21.055009 25.400098 -13.444103 35.626146 -0.878660 1.957747 0.035736 -0.025991 -235011.000000 0 0 1
-25.232749 -1.275502 3.640697 25.525932 0.050506 1.427681 0.043380 -0.024441 -114479.000000 0 0 1
-25.660809 -0.398802 4.690697 26.089055 0.015540 1.390018 0.049979 -0.020213 -127661.000000 0 0 1
-26.842289 -0.802402 5.315897 27.375374 0.029884 1.375369 0.071224 -0.030834 -385299.000000 0 0 1
-27.248169 -0.002902 6.591897 28.034190 0.000106 1.333436 0.070974 -0.029427 -67512.300000 0 0 1
-27.836739 1.283498 6.235797 28.555500 -0.046075 1.350648 0.071575 -0.023514 216417.000000 0 0 1
-28.232849 2.101398 7.319197 29.241756 -0.074294 1.317807 0.071778 -0.001531 -20888.200000 0 0 1
-27.135169 2.675698 8.259597 28.490309 -0.098289 1.276665 0.073395 -0.006675 86426.800000 0 0 1
-26.516749 1.760098 9.149097 28.105905 -0.066280 1.239232 0.069098 -0.012819 597229.000000 0 0 1
-25.460079 2.258798 9.969897 27.435682 -0.088488 1.198890 0.068348 -0.016606 638127.000000 0 0 1
-24.618409 1.112998 10.637097 26.841249 -0.045179 1.163317 0.058197 -0.017205 260446.000000 0 0 1
-23.858409 0.233598 9.784597 25.787915 -0.009791 1.181621 0.053269 -0.020535 294845.000000 0 0 1
-24.570209 -0.753602 9.079797 26.205072 0.030662 1.216970 0.056542 -0.019620 -771239.000000 0 0 1
-23.715809 -1.657002 8.185097 25.143211 0.069756 1.239215 0.061409 -0.023591 -291401.000000 0 0 1
-22.718109 -2.265702 8.965797 24.528176 0.099402 1.196594 0.046069 -0.025369 206754.000000 0 1 0
-21.564209 -2.592802 8.223197 23.224097 0.119662 1.208866 0.049105 -0.026690 684826.000000 0 1 0
-20.240909 -2.886602 9.019797 22.346892 0.141657 1.155319 0.032437 -0.015495 620025.000000 0 1 0
-19.595109 -1.735202 9.596997 21.887932 0.088322 1.116911 0.020114 -0.005991 550498.000000 0 1 0
-20.252209 -1.145702 10.697597 22.932579 0.056511 1.085489 0.023776 -0.008343 -534429.000000 0 1 0
-19.672009 0.278898 11.033397 22.556630 -0.014176 1.059690 0.009440 -0.004238 -120197.000000 0 1 0
-20.101509 1.204598 10.042897 22.502922 -0.059854 1.108178 0.008706 -0.001441 451109.000000 0 1 0
-20.434909 2.447598 10.663797 23.179577 -0.119207 1.092743 0.017093 0.001552 -351828.000000 0 1 0
-21.195609 3.419298 9.727297 23.570442 -0.159943 1.145390 0.018202 -0.012691 -317455.000000 0 1 0
-21.513509 4.587198 10.436297 24.347274 -0.210078 1.127806 0.025633 -0.010153 522317.000000 0 1 0
-22.302709 5.553998 9.790197 24.982107 -0.244064 1.168113 0.037842 -0.011480 -171978.000000 0 1 0
-22.450609 6.934798 10.514497 25.742492 -0.299594 1.150042 0.044757 -0.009407 -85149.100000 0 0 1
-23.212009 6.790498 11.688797 26.861426 -0.284601 1.120589 0.037078 -0.005816 190236.000000 0 0 1
-23.367809 7.994598 12.389197 27.630785 -0.329638 1.105840 0.047499 -0.006169 64610.800000 0 0 1
-24.334809 7.748798 13.575697 28.922765 -0.308273 1.082211 0.051159 -0.003989 805303.000000 0 0 1
-25.683739 7.437698 13.225097 29.830806 -0.281877 1.111478 0.064109 -0.001783 873974.000000 0 0 1
-26.506619 6.973798 14.302197 30.915814 -0.257266 1.089851 0.056472 -0.003693 -171775.000000 0 0 1
-27.945459 6.630798 13.966497 31.937113 -0.232968 1.118188 0.071087 0.001975 -669892.000000 0 0 1
-28.070909 5.393298 13.301397 31.527619 -0.189818 1.135260 0.074630 0.008515 144802.000000 0 0 1
-28.830789 5.467498 12.104597 31.743176 -0.187415 1.179563 0.064117 -0.002341 -163561.000000 0 0 1
-29.063129 4.082998 11.454097 31.504487 -0.139574 1.198699 0.066336 0.000577 -325563.000000 0 0 1
-30.027239 3.358398 12.161597 32.570207 -0.111382 1.188129 0.065810 0.000804 -76403.200000 0 0 1
-30.281169 2.246098 11.381297 32.427274 -0.074039 1.212180 0.062914 0.005989 285435.000000 0 0 1
-31.453169 1.407598 12.005697 33.695993 -0.044722 1.206497 0.053912 0.009156 359773.000000 0 0 1
-31.002539 0.350098 12.827597 33.553349 -0.011292 1.178507 0.059058 0.000322 -51978.200000 0 0 1
-32.045909 -0.207602 13.592697 34.810125 0.006478 1.169642 0.051239 0.007400 -11907.500000 0 0 1
-31.621819 -1.477202 14.419997 34.785886 0.046681 1.143364 0.043544 0.008490 -279422.000000 0 0 1
-31.714909 -2.753402 13.692197 34.653902 0.086600 1.164606 0.034158 0.007846 248414.000000 0 0 1
-31.806009 -3.791602 14.654797 35.224445 0.118650 1.141710 0.027015 0.011977 -296360.000000 0 0 1
-31.753439 -5.209802 14.071597 35.120261 0.162622 1.158550 0.032532 0.012495 239602.000000 0 0 1
-32.824739 -5.498402 13.172897 35.794149 0.165967 1.193920 0.025400 -0.001496 421168.000000 0 0 1
-32.759079 -6.844102 12.697997 35.794387 0.205960 1.208152 0.033380 -0.000534 -501654.000000 0 0 1
-34.012839 -7.272202 11.915397 36.765946 0.210636 1.240749 0.040343 0.015373 76772.500000 0 0 1
-35.214855 -7.437702 12.626397 38.142251 0.208150 1.233397 0.020665 0.013180 628049.000000 0 0 1
35.501125 -6.179002 12.820097 38.247416 -0.172325 1.228991 0.024447 0.010901 527982.000000 0 0 1
33.980639 -6.218102 12.541797 36.751126 -0.180987 1.222536 0.027564 0.008705 624841.000000 0 0 1
33.133159 -6.939702 13.452797 36.427235 -0.206464 1.192534 0.020450 0.011388 -135696.000000 0 0 1
31.795479 -6.733502 13.081397 35.034490 -0.208692 1.188140 0.030597 0.013075 -59518.600000 0 0 1
30.870089 -7.832502 13.706297 34.672367 -0.248481 1.164392 0.014033 0.000788 140320.000000 0 0 1
30.513109 -7.636902 15.063297 34.875135 -0.245245 1.124175 0.029184 0.010802 -65182.000000 0 0 1
29.479209 -8.503202 15.444597 34.349145 -0.280825 1.104439 0.049676 0.011994 -54010.600000 0 0 1
29.148289 -8.439902 16.939397 34.753387 -0.281843 1.061667 0.035632 -0.007522 -445696.000000 0 0 1
30.211749 -8.883502 17.690797 36.119672 -0.285981 1.058956 0.031183 -0.008760 -222980.000000 0 0 1
29.684509 -9.054702 18.999497 36.388715 -0.296066 1.021454 0.035314 -0.017319 268785.000000 0 0 1
30.766539 -9.580402 19.970697 37.910325 -0.301874 1.015979 0.045442 -0.013134 1032580.000000 0 0 1
31.816179 -8.649902 20.336997 38.738656 -0.265455 1.018105 0.050655 -0.015703 289146.000000 0 0 1
33.034089 -8.919302 19.696697 39.481196 -0.263715 1.048481 0.021669 -0.008274 18602.700000 0 0 1
34.233169 -8.165202 20.359897 40.658404 -0.234143 1.046326 0.027353 -0.005460 320136.000000 0 0 1
34.506119 -8.598202 21.668797 41.642984 -0.244206 1.023539 0.021536 -0.007316 1150290.000000 0 0 1
-35.578279 -8.307902 21.987097 42.641149 0.229400 1.029052 0.004319 -0.002317 1165210.000000 0 0 1
-35.277467 -8.715702 23.474297 43.260903 0.242211 0.997241 0.002716 0.000755 -399868.000000 0 0 1
35.500801 -8.028002 24.449997 43.846985 -0.222395 0.979279 0.008394 -0.003113 -75868.600000 0 0 1
35.037459 -8.844502 25.491597 44.222961 -0.247264 0.956439 0.006217 -0.007990 -110273.000000 0 0 1
34.588859 -8.099802 26.785297 44.490989 -0.230029 0.924744 0.024619 -0.006885 809669.000000 0 0 1
-35.726005 -7.609802 27.487097 45.714298 0.209868 0.925694 0.001367 -0.014977 643423.000000 0 0 1
35.388649 -6.624702 28.531797 45.938074 -0.185057 0.900660 0.008036 -0.020911 139727.000000 0 0 1
-34.824161 -6.162602 29.275097 45.910033 0.175150 0.879337 0.010012 -0.010597 297354.000000 0 0 1
-34.314857 -7.100602 30.192197 46.254694 0.204045 0.859603 0.007441 -0.011692 -128617.000000 0 0 1
-32.954979 -6.924902 30.536597 45.458428 0.207119 0.834231 0.014605 -0.018828 173820.000000 0 0 1
-32.567029 -7.699702 31.815697 46.175051 0.232163 0.810655 0.010633 -0.010229 -366139.000000 0 0 1
-32.617889 -9.090202 31.846597 46.484021 0.271791 0.816044 0.013294 -0.008570 152739.000000 0 0 1
-32.350859 -9.646702 33.121897 47.293731 0.289795 0.794917 0.006411 -0.009878 -196889.000000 0 0 1
-32.317799 -11.152702 33.031997 47.538781 0.332298 0.802595 0.017490 -0.010391 -162504.000000 0 0 1
-33.662139 -11.563202 33.121897 48.620030 0.330879 0.821342 0.010587 -0.011366 91946.900000 0 0 1
-33.750179 -12.976402 33.344197 49.186350 0.367059 0.825873 0.013258 -0.010063 165475.000000 0 0 1
-35.235766 -13.351402 33.545197 50.448978 0.362200 0.843392 0.012406 -0.009943 92156.000000 0 0 1
-35.488244 -14.714802 33.869797 51.216248 0.393062 0.848233 0.018323 -0.020684 1276690.000000 0 0 1
34.550999 -14.943802 33.918197 50.670828 -0.408218 0.837418 0.013312 -0.019107 1216490.000000 0 0 1
34.378129 -16.449302 34.111497 51.147136 -0.446285 0.840717 0.011848 -0.013801 -259212.000000 0 0 1
34.670339 -16.974202 -33.348173 51.012318 -0.455284 2.283297 0.021974 -0.016602 242771.000000 0 0 1
34.645759 -18.379102 -33.384073 51.503557 -0.487738 2.276001 0.019785 -0.027406 -327583.000000 0 0 1
35.118289 -19.076802 -32.105873 51.264078 -0.497620 2.247574 0.026280 -0.030979 -14558.900000 0 0 1
34.091889 -19.037302 -31.147273 49.948257 -0.509278 2.244124 0.023684 -0.026763 -78436.700000 0 0 1
34.419929 -19.825802 -29.983873 49.767726 -0.522584 2.217396 0.022041 -0.024533 -778553.000000 0 0 1
33.237739 -19.749302 -29.003273 48.331895 -0.536131 2.214404 0.000112 -0.022412 136521.000000 0 0 1
32.123129 -20.476402 -29.482073 48.170230 -0.567491 2.229433 0.015667 -0.022597 -97761.300000 0 0 1
31.230219 -19.755802 -30.288773 47.781043 -0.564036 2.257392 0.010577 -0.015845 -543040.000000 0 0 1
29.866819 -20.489202 -30.511473 47.358043 -0.601281 2.270868 -0.000218 -0.011540 437705.000000 0 0 1
28.972109 -19.644002 -31.222473 46.905360 -0.595829 2.299159 -0.013424 -0.007358 107894.000000 0 0 1
27.702469 -20.269302 -31.303073 46.455934 -0.631672 2.310167 -0.006931 -0.004773 -47059.500000 0 0 1
26.746799 -19.638202 -32.283073 46.295216 -0.633329 2.342463 0.002127 0.002738 -153902.000000 0 0 1
27.126719 -19.941502 -33.620573 47.580094 -0.633912 2.355492 0.000492 -0.002119 -212761.000000 0 0 1
26.219849 -19.377502 34.248897 47.285886 -0.636449 0.760786 0.020750 -0.006631 -535245.000000 0 0 1
26.702939 -19.585002 32.810697 46.617176 -0.632818 0.790018 0.025690 -0.000724 152605.000000 0 0 1
27.748319 -18.711402 32.376997 46.565607 -0.593286 0.801961 0.013712 -0.005561 455909.000000 0 0 1
27.831319 -18.677202 30.936397 45.612288 -0.591056 0.825422 0.022714 -0.003434 66317.200000 0 0 1
26.777669 -17.821502 30.166297 44.098242 -0.587219 0.817468 0.029627 -0.005120 -72043.300000 0 0 1
26.858339 -16.439302 30.409497 43.776233 -0.549250 0.802852 0.041257 -0.008684 564311.000000 0 0 1
25.822949 -15.718102 29.739897 42.406897 -0.546783 0.793579 0.055305 -0.013616 241651.000000 0 0 1
25.673449 -14.214002 30.140997 42.067131 -0.505638 0.772028 0.064427 -0.017009 -366461.000000 0 0 1
26.692919 -13.336502 29.744297 42.131905 -0.463349 0.786990 0.054320 -0.008962 -48918.100000 0 0 1
26.634159 -12.152702 30.489597 42.269163 -0.428066 0.765090 0.068913 -0.010113 4795.170000 0 0 1
28.036799 -11.525402 30.624297 43.089959 -0.390023 0.780295 0.061314 -0.012871 -23005.300000 0 0 1
28.545929 -11.004002 29.394097 42.426066 -0.367930 0.805389 0.056746 -0.017091 649427.000000 0 0 1
29.971089 -10.871402 29.535797 43.460521 -0.347970 0.823578 0.045398 -0.011354 537101.000000 0 0 1
30.499699 -10.241602 28.293197 42.844218 -0.323963 0.849480 0.048149 -0.019383 -459300.000000 0 0 1
30.314629 -8.882702 28.334997 42.435259 -0.285038 0.839651 0.054931 -0.022211 -20520.400000 0 0 1
30.401689 -8.336702 27.011897 41.513924 -0.267639 0.862329 0.051292 -0.017855 -23935.000000 0 0 1
30.187999 -6.821602 26.920397 41.018987 -0.222238 0.854904 0.058829 -0.022551 148333.000000 0 0 1
28.830039 -6.454502 27.025297 40.039960 -0.220249 0.829888 0.071601 -0.016217 -277946.000000 0 0 1
28.800529 -5.079102 26.927597 39.753783 -0.174560 0.826629 0.076290 -0.015717 875645.000000 0 0 1
27.324399 -4.587902 26.747197 38.510832 -0.166353 0.803020 0.064780 -0.009874 337336.000000 0 0 1
26.724209 -4.963202 25.572297 37.319688 -0.183627 0.815887 0.080872 -0.009441 149431.000000 0 0 1
25.357049 -4.602402 25.447897 36.218193 -0.179549 0.791713 0.065748 -0.011219 241620.000000 0 0 1
24.682349 -5.010402 24.099897 34.858679 -0.200274 0.807427 0.063327 -0.005782 -251338.000000 0 0 1
25.040549 -4.215302 23.037897 34.286186 -0.166775 0.833985 0.070384 -0.001136 187996.000000 0 0 1
24.440249 -4.628402 21.836897 33.099818 -0.187160 0.850339 0.066448 -0.005970 166726.000000 0 0 1
24.920549 -3.686202 20.631597 32.562012 -0.146853 0.884587 0.082048 -0.005828 154632.000000 0 0 1
24.365749 -2.393102 20.766397 32.103893 -0.097902 0.867350 0.069279 -0.002014 247695.000000 0 0 1
24.844649 -1.453902 19.797497 31.801121 -0.058453 0.898811 0.071168 -0.006393 -654708.000000 0 0 1
23.722249 -0.607102 19.235597 30.547044 -0.025587 0.889624 0.022164 -0.000502 -402078.000000 0 0 1
22.876149 -1.402302 18.439797 29.416165 -0.061223 0.893281 0.042998 -0.008418 56664.400000 0 0 1
21.703849 -0.711102 18.022297 28.219956 -0.032752 0.878071 0.045803 -0.005712 1108840.000000 0 0 1
20.559749 -1.646402 17.465097 27.026719 -0.079908 0.868181 0.042200 -0.011117 179842.000000 0 0 1
21.013849 -2.268502 16.299497 26.690852 -0.107536 0.913881 0.055827 -0.011990 -381313.000000 0 0 1
20.002149 -3.047602 15.771397 25.653671 -0.151201 0.908688 0.073520 -0.020529 -785820.000000 0 0 1
20.304949 -3.582202 14.344997 25.117764 -0.174623 0.962939 0.072375 -0.023801 -424431.000000 0 0 1
19.331449 -4.423502 13.793997 24.156710 -0.224951 0.963047 0.078111 -0.025137 158226.000000 0 1 0
19.516549 -4.655702 12.429497 23.602196 -0.234175 1.016171 0.072969 -0.023688 83232.700000 0 1 0
18.434949 -5.605102 11.802897 22.595860 -0.295166 1.021194 0.056745 -0.023989 125068.000000 0 1 0
18.419149 -6.927202 12.310597 23.212108 -0.359723 1.011780 0.073674 -0.025720 486879.000000 0 1 0
17.226349 -7.594602 11.966897 22.307660 -0.415237 1.004574 0.045337 -0.018360 -420511.000000 0 1 0
17.231449 -9.126602 12.251297 23.028504 -0.487084 1.009829 0.056119 -0.025879 -165836.000000 0 1 0
17.944149 -9.804902 11.222597 23.325421 -0.500084 1.068851 0.031299 -0.029389 497260.000000 0 1 0
17.715049 -11.197802 11.176097 23.751187 -0.563693 1.080883 0.043426 -0.029788 -187534.000000 0 1 0
18.677349 -11.789302 10.160897 24.312031 -0.563051 1.139623 0.060680 -0.023139 -151503.000000 0 1 0
18.228249 -11.438402 8.851697 23.269264 -0.560402 1.180564 0.061441 -0.016098 450769.000000 0 1 0
18.961549 -12.083202 7.837197 23.811043 -0.567358 1.235402 0.060075 -0.030650 -156690.000000 0 1 0
18.649849 -11.435802 6.512197 22.825493 -0.550058 1.281473 0.051769 -0.019637 -95177.200000 0 1 0
19.245549 -10.160602 6.451397 22.699108 -0.485753 1.282610 0.073287 -0.014584 505568.000000 0 1 0
19.444949 -9.793102 5.089297 22.358708 -0.466549 1.341163 0.043333 -0.019272 -462.242000 0 1 0
19.916449 -8.285302 4.916497 22.124265 -0.394225 1.346704 0.060902 -0.019871 -98900.000000 0 1 0
20.489649 -7.900302 3.702297 22.269879 -0.368010 1.403774 0.052125 -0.022072 360751.000000 0 1 0
20.917149 -6.589202 3.828997 22.262208 -0.305174 1.397941 0.064310 -0.017977 -413445.000000 0 1 0
21.544349 -6.028502 2.514697 22.512786 -0.272840 1.458862 0.065762 -0.020537 307520.000000 0 1 0
20.583549 -5.608602 1.566597 21.391427 -0.266022 1.497496 0.037131 -0.032762 692817.000000 0 1 0
21.321649 -5.434702 0.386097 22.006767 -0.249577 1.553251 0.056140 -0.019612 406017.000000 0 1 0
-25.606889 -15.735702 -0.108803 30.055564 0.551021 1.574416 0.046388 -0.017419 -675853.000000 0 0 1
-24.576609 -15.407802 -1.040803 29.025736 0.559986 1.606662 0.034721 -0.012021 261744.000000 0 0 1
-23.332809 -16.014402 -0.783603 28.310688 0.601504 1.598479 0.047009 -0.010531 283553.000000 0 0 1
-22.550609 -15.611802 0.528997 27.432429 0.605540 1.551511 0.044578 -0.006505 -942288.000000 0 0 1
-23.129009 -15.928702 1.781397 28.139793 0.603095 1.507449 0.043009 -0.004450 125554.000000 0 0 1
-22.401909 -15.317202 2.883297 27.290577 0.599733 1.464947 0.061456 0.004949 517793.000000 0 0 1
-22.810409 -15.915402 4.252697 28.137168 0.609198 1.419073 0.064907 0.004061 -370220.000000 0 0 1
-22.400009 -17.287702 4.457897 28.644334 0.657290 1.414532 0.072693 -0.014562 39655.500000 0 0 1
-22.976509 -17.832102 5.579697 29.614808 0.659998 1.381254 0.076654 -0.017793 -355357.000000 0 0 1
-22.943509 -19.337102 5.482197 30.502174 0.700307 1.390083 0.052924 -0.015434 43666.500000 0 0 1
-23.417609 -20.071902 6.568697 31.534322 0.708618 1.360957 0.042654 -0.014240 -149679.000000 0 0 1
-23.804409 -21.410702 6.265697 32.624025 0.732507 1.377538 0.051292 -0.019357 96411.700000 0 0 1
-24.362109 -22.220202 7.462497 33.807375 0.739449 1.348228 0.043457 -0.016494 -15374.600000 0 0 1
-23.372409 -22.421402 8.432397 33.467807 0.764634 1.316096 0.042291 -0.011345 -368242.000000 0 0 1
-23.804909 -23.462702 9.273097 34.686631 0.778159 1.300166 0.044085 -0.009453 -321897.000000 0 0 1
-22.993509 -23.805702 10.477797 34.715949 0.802751 1.264200 0.042338 -0.010613 -338430.000000 0 0 1
-23.085909 -22.903302 11.529897 34.503028 0.781428 1.230071 0.047982 -0.008920 -54591.400000 0 0 1
-22.198209 -23.237902 12.569097 34.507141 0.808277 1.197973 0.053510 -0.008500 -272722.000000 0 0 1
-22.458509 -22.309702 13.783597 34.526728 0.782074 1.160136 0.044901 -0.004400 -369030.000000 0 0 1
-23.666909 -22.693202 14.364597 35.797285 0.764398 1.157887 0.046306 -0.004904 -299754.000000 0 0 1
-24.097909 -21.848302 15.449097 36.010167 0.736475 1.127388 0.045029 0.004513 -32938.800000 0 0 1
-25.522549 -22.124602 15.991197 37.371338 0.714204 1.128628 0.029498 0.005191 -122659.000000 0 0 1
-26.540609 -21.796702 15.077797 37.507867 0.687570 1.157107 0.027740 0.007514 60433.800000 0 0 1
-26.964479 -22.792802 14.112597 38.023155 0.701753 1.190541 0.023559 0.002690 448167.000000 0 0 1
-28.163319 -23.703002 14.616197 39.606036 0.699613 1.192821 0.031495 -0.001246 221470.000000 0 0 1
-27.976919 -24.483002 15.781997 40.388078 0.718895 1.169341 0.036377 0.003988 -431888.000000 0 0 1
-29.025339 -25.384422 15.984097 41.741233 0.718581 1.177827 0.023611 -0.003377 -416038.000000 0 0 1
-28.681979 -26.883142 15.507797 42.259330 0.753036 1.195049 0.025818 -0.005391 -74543.400000 0 0 1
-29.081149 -27.207532 14.190697 42.276931 0.752125 1.228490 0.029745 -0.017295 -97084.600000 0 0 1
-30.235459 -28.008892 14.261397 43.612710 0.747189 1.237668 0.028669 -0.020620 -261900.000000 0 0 1
-30.909769 -28.284052 12.904597 43.839822 0.741069 1.272013 0.031779 -0.028140 -236234.000000 0 0 1
-30.173899 -29.105502 12.008597 43.609641 0.767377 1.291826 0.044139 -0.031519 236519.000000 0 0 1
-30.867959 -29.540232 10.840497 44.079162 0.763422 1.322315 0.037062 -0.021260 -127742.000000 0 0 1
-30.134319 -30.700432 10.192297 44.209463 0.794704 1.338158 0.043297 -0.028562 -281561.000000 0 0 1
-30.276389 -31.936932 10.880197 45.332174 0.812083 1.328420 0.024983 -0.015101 18013.900000 0 0 1
-29.519239 -32.988262 10.317597 45.453973 0.840839 1.341810 0.038971 -0.017459 -496630.000000 0 0 1
-29.771949 -34.364458 10.988497 46.776404 0.856881 1.333665 0.026060 -0.012337 275302.000000 0 0 1
-31.137529 34.015129 10.963197 47.400068 -0.829537 1.337392 0.022323 -0.006664 178806.000000 0 0 1
-31.310719 32.647482 11.361197 46.640069 -0.806296 1.324728 0.019362 -0.008765 -281995.000000 0 0 1
-32.654349 32.418692 12.078697 47.572818 -0.781777 1.314087 0.022156 -0.003395 1046370.000000 0 0 1
-33.902839 32.364952 11.352197 48.226186 -0.762195 1.333171 0.005722 0.000225 989314.000000 0 0 1
-34.317835 33.489631 10.627197 49.114219 -0.773185 1.352694 0.009732 0.003681 362598.000000 0 0 1
35.718346 33.298490 9.974897 49.840629 0.750351 1.369300 0.005718 0.007708 1060470.000000 0 0 1
35.686835 32.481092 8.845297 49.059259 0.738406 1.389507 -0.005294 0.007645 -40332.200000 0 0 1
34.355739 32.204822 8.475497 47.846645 0.753094 1.392718 -0.011124 0.012856 -170502.000000 0 0 1
34.163999 31.529192 7.076397 47.024932 0.745312 1.419741 -0.009269 0.008440 -47728.900000 0 0 1
34.439169 30.133692 7.135697 46.314295 0.718820 1.416109 -0.002236 0.000997 133910.000000 0 0 1
34.305659 29.657752 5.801297 45.717782 0.712861 1.443560 0.009117 -0.003465 -63332.300000 0 0 1
34.485799 28.092332 5.688197 44.842001 0.683584 1.443604 0.016015 -0.007178 -153922.000000 0 0 1
33.488849 27.363762 6.362397 43.712225 0.685082 1.424726 0.019607 -0.005025 164797.000000 0 0 1
33.982469 27.066092 7.638997 44.110496 0.672586 1.396740 0.001215 -0.001460 -52025.600000 0 0 1
33.160949 25.916722 8.272097 42.892338 0.663385 1.376723 -0.003139 -0.000005 -76164.800000 0 0 1
33.282499 24.763912 7.481297 42.153836 0.639684 1.392375 0.007328 -0.006917 135169.000000 0 0 1
32.088089 24.009102 7.540197 40.779125 0.642364 1.384823 0.004113 -0.008857 -434082.000000 0 0 1
32.139219 22.628062 6.845197 39.897561 0.613448 1.398374 0.017633 -0.005828 -106262.000000 0 0 1
32.968849 21.614962 7.356597 40.103256 0.580314 1.386310 0.030333 -0.006458 1134900.000000 0 0 1
34.394439 21.840062 7.155897 41.366322 0.565750 1.396933 0.041560 -0.009930 1497270.000000 0 0 1
35.260219 20.544862 7.358797 41.467172 0.527575 1.392391 0.036796 -0.005309 -125761.000000 0 0 1
35.206889 19.725962 6.163597 40.824362 0.510707 1.419238 0.055482 -0.015435 110010.000000 0 0 1
-35.659882 18.464962 6.391197 40.662383 -0.477792 1.412965 0.065746 -0.017250 -122386.000000 0 0 1
35.559193 17.373062 5.325397 39.932936 0.454460 1.437039 0.063194 -0.020736 -31413.900000 0 0 1
-35.400056 17.503962 3.984197 39.691643 -0.459207 1.470248 0.073623 -0.021721 -125704.000000 0 0 1
35.505856 16.509662 3.200897 39.287155 0.435245 1.489232 0.069495 -0.026249 -723965.000000 0 0 1
-35.177952 15.970362 1.959297 38.683066 -0.426165 1.520125 0.078210 -0.012895 531490.000000 0 0 1
-33.976899 15.264862 2.243097 37.315910 -0.422248 1.510649 0.082150 -0.027377 762513.000000 0 0 1
-32.801529 16.026762 2.461897 36.590413 -0.454484 1.503463 0.089132 -0.025383 -17283.100000 0 0 1
-31.492539 15.263262 2.725797 35.102381 -0.451303 1.493065 0.065824 -0.019143 -72831.900000 0 0 1
-31.308069 14.572262 3.970897 34.760812 -0.435626 1.456312 0.074604 -0.024341 900219.000000 0 0 1
-29.991579 13.990162 4.110497 33.348398 -0.436465 1.447223 0.060155 -0.019143 851590.000000 0 0 1
-29.661179 13.450962 5.484797 33.027215 -0.425750 1.403954 0.072435 -0.024177 -268880.000000 0 0 1
-30.257559 12.207262 5.796997 33.138230 -0.383473 1.394958 0.060843 -0.021590 233688.000000 0 0 1
-29.895689 11.731962 7.064397 32.883079 -0.373963 1.354275 0.053874 -0.014763 -161938.000000 0 0 1
-29.921209 10.164162 7.114197 32.391368 -0.327467 1.349359 0.048736 -0.009574 -594431.000000 0 0 1
-31.187659 9.605362 7.081397 33.392802 -0.298767 1.357110 0.037879 -0.009690 -738756.000000 0 0 1
-31.183909 8.191362 6.803397 32.951795 -0.256876 1.362835 0.036495 -0.003136 -727886.000000 0 0 1
-32.547459 7.537362 6.715397 34.077052 -0.227569 1.372433 0.027450 0.001313 -691167.000000 0 0 1
-33.215359 7.478862 7.952497 34.963347 -0.221469 1.341336 0.031804 0.003202 -604876.000000 0 0 1
-34.441143 6.853262 7.776297 35.967073 -0.196419 1.352869 0.041447 -0.000367 -268696.000000 0 0 1
-35.157293 6.289762 9.040297 36.841870 -0.177031 1.322884 0.038896 -0.004663 167117.000000 0 0 1
35.592120 7.099362 9.923797 37.625546 0.196881 1.303887 0.043472 0.006034 168061.000000 0 0 1
-35.042562 7.850662 10.783697 37.495363 -0.220393 1.279075 0.048847 -0.003342 -202235.000000 0 0 1
35.679488 8.768562 11.765297 38.578955 0.240983 1.260893 0.049488 -0.018044 -110985.000000 0 0 1
34.838829 8.152562 12.752097 37.984527 0.229872 1.228429 0.048077 -0.018316 574566.000000 0 0 1
34.337279 9.212862 13.552997 38.047461 0.262131 1.206585 0.059476 -0.025327 -56840.300000 0 0 1
33.547499 8.702762 14.823297 37.694866 0.253821 1.166639 0.051457 -0.025783 234336.000000 0 0 1
32.245199 8.197162 14.568297 36.320540 0.248940 1.158075 0.033450 -0.018655 315465.000000 0 0 1
31.686569 7.806662 15.806497 36.260557 0.241561 1.119742 0.031887 -0.010287 -58365.900000 0 0 1
30.204419 7.387562 15.743297 34.853040 0.239876 1.102121 -0.005607 0.003244 -421525.000000 0 0 1
29.293489 8.453162 15.875697 34.374441 0.280936 1.090721 -0.009099 0.001464 648720.000000 0 0 1
27.921769 8.128162 16.110297 33.245058 0.283276 1.064899 -0.007004 0.009046 748745.000000 0 0 1
27.627149 7.548462 17.519997 33.573635 0.266716 1.021792 -0.010244 0.013535 -699163.000000 0 0 1
27.797319 8.472162 18.590797 34.497626 0.295839 1.001665 0.010157 0.002042 168071.000000 0 0 1
27.122899 8.038862 19.786997 34.522460 0.288138 0.960436 0.020322 0.011030 55982.700000 0 0 1
27.619539 6.845262 20.705997 35.191403 0.242946 0.941740 0.020736 0.012337 201474.000000 0 0 1
26.877459 6.799062 21.935397 35.352322 0.247768 0.901442 0.008699 0.012185 412553.000000 0 0 1
27.303559 5.673762 22.692997 35.953415 0.204887 0.887726 0.017774 0.010530 -222310.000000 0 0 1
26.611219 5.472962 24.084897 36.306922 0.202835 0.845484 0.031370 0.007328 1654590.000000 0 0 1
25.198449 5.167262 24.072297 35.229787 0.202259 0.818532 0.017515 0.014574 1177340.000000 0 0 1
24.233849 6.185562 23.951897 34.629958 0.249909 0.807022 0.025966 0.013717 -1045450.000000 0 0 1
22.805449 5.768062 24.093397 33.672702 0.247729 0.773432 0.028558 0.006788 -937725.000000 0 0 1
22.298849 5.011562 22.985197 32.414097 0.221072 0.782560 0.005404 0.014767 635469.000000 0 0 1
20.872749 5.047162 23.031297 31.489461 0.237252 0.750428 0.010748 0.002062 -428247.000000 0 0 1
20.193649 4.287262 21.840197 30.052592 0.209201 0.757243 0.014586 0.007922 336142.000000 0 0 1
18.822649 4.542162 21.605397 29.012352 0.236787 0.730716 0.021659 0.000869 299699.000000 0 0 1
17.937449 3.932662 22.538797 29.072587 0.215828 0.683671 0.030591 -0.001663 -16838.600000 0 0 1
16.521449 3.771162 21.909797 27.698721 0.224414 0.658348 0.048341 -0.002699 -163811.000000 0 0 1
16.456349 2.860762 20.860497 26.723692 0.172119 0.675172 0.039516 -0.003726 843689.000000 0 0 1
15.180649 2.752062 20.178097 25.400424 0.179340 0.652777 0.058377 -0.017567 949514.000000 0 0 1
14.130149 1.873662 20.895497 25.294140 0.131831 0.598644 0.068539 -0.017567 -413923.000000 0 0 1
14.536449 0.516762 20.888097 25.453644 0.035534 0.608279 0.040775 -0.006371 637947.000000 0 0 1
13.788549 -0.252338 21.838097 25.828090 -0.018298 0.563263 0.049307 -0.007890 222409.000000 0 0 1
14.266249 -1.700438 21.831597 26.134957 -0.118633 0.582044 0.034602 -0.002661 -136925.000000 0 0 1
13.852049 -2.388238 20.669597 24.996303 -0.170732 0.597213 0.043411 0.001491 198256.000000 0 1 0
13.681449 -3.747938 20.870597 25.235113 -0.267383 0.596964 0.030952 0.013789 -44876.600000 0 0 1
13.490249 -4.514938 19.513497 24.148459 -0.322963 0.629938 0.040472 0.003120 451908.000000 0 1 0
12.134649 -4.432738 19.082297 23.044152 -0.350236 0.595130 0.024373 0.003755 232178.000000 0 1 0
12.023749 -5.121338 17.888197 22.153696 -0.402662 0.630965 0.030586 0.002240 103249.000000 0 1 0
10.587749 -5.489938 17.471697 21.154197 -0.478352 0.598962 0.023074 -0.002856 -57382.000000 0 1 0
9.897649 -6.257638 18.433797 21.838644 -0.563785 0.565929 0.014892 0.006722 -452393.000000 0 1 0
8.573849 -6.397838 17.961997 20.906376 -0.641067 0.537163 0.013105 -0.007928 169862.000000 0 1 0
7.642849 -6.997538 19.071497 21.704854 -0.741349 0.497718 0.006666 -0.002013 -350488.000000 0 1 0
7.549149 -8.435238 19.144397 22.240747 -0.840776 0.533996 -0.003098 -0.000725 -440363.000000 0 1 0
8.667349 -9.127638 19.639697 23.327118 -0.811259 0.569954 0.015868 -0.008373 -142799.000000 0 1 0
8.737649 -10.566938 19.129397 23.535941 -0.879875 0.621899 0.033745 -0.018745 161857.000000 0 1 0
8.997749 -10.522138 17.748497 22.509643 -0.863334 0.662456 0.027387 -0.009500 12121.500000 0 1 0
9.283649 -11.819038 17.247597 22.876962 -0.904970 0.716775 0.026114 -0.016361 132151.000000 0 1 0
9.402249 -11.886438 15.693097 21.816576 -0.901563 0.767974 0.030639 -0.017223 149670.000000 0 1 0
9.979449 -13.089238 15.177097 22.388877 -0.919396 0.825914 0.021508 -0.014862 103835.000000 0 1 0
9.791149 -13.133838 13.756797 21.391909 -0.930188 0.872277 0.019936 -0.011043 -106264.000000 0 1 0
10.617849 -14.196838 12.955897 21.957782 -0.928639 0.939692 0.043444 -0.019459 802149.000000 0 1 0
12.027949 -14.046638 12.818997 22.501250 -0.862664 0.964654 0.029036 -0.017586 637762.000000 0 1 0
12.414349 -13.050438 11.799397 21.532667 -0.810372 0.990853 0.022400 -0.016319 640259.000000 0 1 0
13.945949 -13.141738 11.446697 22.320879 -0.755718 1.032325 0.029473 -0.013206 986350.000000 0 1 0
14.279449 -14.219638 10.556297 22.749421 -0.783299 1.088263 0.026981 -0.012673 -616713.000000 0 1 0
15.597249 -14.165638 10.127297 23.377374 -0.737335 1.122746 0.029796 -0.019320 -739394.000000 0 1 0
16.058249 -15.588638 9.735597 24.406041 -0.770560 1.160478 0.014740 -0.018956 53143.700000 0 1 0
16.657649 -16.385438 10.735597 25.714060 -0.777160 1.140105 0.022940 -0.013125 -115887.000000 0 0 1
15.688149 -17.088738 11.447297 25.868583 -0.828103 1.112392 0.039590 -0.007136 -186510.000000 0 0 1
16.164349 -17.682338 12.790097 27.157648 -0.830217 1.080420 0.027297 -0.009671 -181582.000000 0 0 1
17.260649 -18.567938 12.665097 28.339072 -0.821869 1.107485 0.048242 -0.022893 196516.000000 0 0 1
17.745649 -19.122938 13.907197 29.563574 -0.822737 1.081033 0.037753 -0.023319 99444.200000 0 0 1
19.081749 -19.860838 13.755697 30.786121 -0.805402 1.107594 0.017602 -0.031171 252305.000000 0 0 1
20.178049 -19.066238 13.323397 30.792661 -0.757075 1.123332 0.017387 -0.029687 -417625.000000 0 0 1
21.275149 -19.844838 12.956097 31.848234 -0.750628 1.151840 0.021158 -0.037001 106096.000000 0 0 1
22.076349 -19.085238 11.820897 31.485633 -0.712858 1.185927 0.024564 -0.028886 -476543.000000 0 0 1
21.745949 -19.425138 10.459897 30.977923 -0.729088 1.226370 0.017537 -0.027178 1327890.000000 0 0 1
20.377749 -19.169038 10.015597 29.715599 -0.754844 1.227016 0.024199 -0.029857 1180980.000000 0 0 1
20.017249 -17.670138 9.982297 28.505618 -0.723200 1.213026 0.067572 -0.020726 -422416.000000 0 0 1
20.689549 -16.936238 8.975397 28.203747 -0.685973 1.246930 0.057696 -0.026353 -68559.700000 0 0 1
20.364049 -15.582438 9.046797 27.191017 -0.653154 1.231618 0.051247 -0.029168 6120.260000 0 0 1
-34.333572 25.139598 8.180497 43.332598 -0.632022 1.380873 0.048289 -0.005596 -799060.000000 0 0 1
-33.450259 24.355798 8.825797 42.308621 -0.629350 1.360648 0.045501 -0.014968 -579898.000000 0 0 1
-32.461349 25.009698 9.583797 42.084122 -0.656458 1.341051 0.051629 -0.014015 -59211.800000 0 0 1
-31.435779 24.063198 10.251697 40.894290 -0.653330 1.317406 0.063400 -0.030920 -19823.500000 0 0 1
-30.658539 23.373198 9.300597 39.657956 -0.651372 1.334071 0.067137 -0.023912 294748.000000 0 0 1
-29.819989 22.330498 9.816297 38.525869 -0.642760 1.313158 0.066821 -0.022178 106194.000000 0 0 1
-29.069529 21.642398 8.673097 37.264642 -0.639975 1.335899 0.051273 -0.026657 77597.100000 0 0 1
-29.877689 20.679198 7.995697 37.205332 -0.605423 1.354199 0.053870 -0.025826 766985.000000 0 0 1
-29.097589 19.994398 7.022797 35.996740 -0.602049 1.374442 0.052246 -0.026504 89081.900000 0 0 1
-30.011729 19.121298 6.181197 36.118349 -0.567273 1.398812 0.057494 -0.016825 -66783.100000 0 0 1
-30.572589 17.983798 6.860297 36.127052 -0.531722 1.379743 0.069191 -0.019441 846854.000000 0 0 1
-31.508689 17.279798 6.021097 36.436829 -0.501625 1.404787 0.059643 -0.017298 304548.000000 0 0 1
-32.101579 16.024698 6.709797 36.501010 -0.462997 1.385920 0.068500 -0.025725 77522.800000 0 0 1
-33.142529 16.381398 7.619197 37.746915 -0.459054 1.367550 0.055920 -0.021207 396441.000000 0 0 1
-33.932489 15.273098 7.988697 38.059172 -0.422939 1.359322 0.061751 -0.018817 536142.000000 0 0 1
-34.886446 15.573698 9.232897 39.304587 -0.419865 1.333674 0.058355 -0.026353 1115600.000000 0 0 1
35.365879 16.242398 8.861097 39.913406 0.430534 1.346923 0.072122 -0.025474 581648.000000 0 0 1
34.673169 16.768798 9.964097 39.783219 0.450462 1.317641 0.069576 -0.027000 -351999.000000 0 0 1
33.785839 17.918098 9.518497 39.409935 0.487627 1.326859 0.052267 -0.026178 112666.000000 0 0 1
32.557999 17.568198 8.866697 38.043176 0.494821 1.335564 0.043516 -0.027557 318673.000000 0 0 1
31.782949 18.721798 8.879097 37.940743 0.532330 1.334580 0.024208 -0.021192 -882333.000000 0 0 1
30.396189 18.750398 8.265497 36.658208 0.552729 1.343366 0.004408 -0.015787 -964714.000000 0 0 1
29.864639 19.979298 8.601497 36.946648 0.589613 1.335832 -0.006078 -0.006389 -479198.000000 0 0 1
28.553749 20.232998 8.160897 35.934538 0.616470 1.341693 -0.012992 -0.006532 -40695.700000 0 0 1
28.208069 20.382698 6.618597 35.425349 0.625723 1.382860 -0.016647 -0.003068 -717377.000000 0 0 1
28.363339 19.127398 5.977997 34.728559 0.593317 1.397800 -0.004013 -0.004817 -93276.300000 0 0 1
28.052669 19.044798 4.636197 34.222082 0.596420 1.434905 0.001853 -0.008727 -1222580.000000 0 0 1
26.659739 19.327098 4.159397 33.190044 0.627278 1.445145 0.010345 -0.000594 -2540350.000000 0 0 1
25.678249 18.543598 4.814597 32.037757 0.625439 1.419946 0.017986 0.001825 593626.000000 0 0 1
24.320649 18.879398 4.531797 31.120135 0.660103 1.424654 0.025287 -0.003844 500333.000000 0 0 1
23.880349 20.317298 4.778097 31.715830 0.704956 1.419567 0.028426 -0.010472 -1681400.000000 0 0 1
24.307849 21.256098 3.792997 32.512768 0.718521 1.453868 0.019852 -0.012393 155398.000000 0 0 1
23.815949 22.549498 4.070297 33.049155 0.758090 1.447324 0.024721 -0.013149 -42567.000000 0 0 1
24.879949 23.663198 3.903597 34.557154 0.760338 1.457594 0.015227 -0.006248 101417.000000 0 0 1
26.021749 23.530998 4.712997 35.398469 0.735176 1.437259 0.004343 -0.005850 -153493.000000 0 0 1
26.961539 24.547398 4.582697 36.749156 0.738564 1.445769 0.004117 -0.001589 -292092.000000 0 0 1
28.295069 24.367098 5.390797 37.728333 0.710948 1.427421 -0.012640 -0.004633 208724.000000 0 0 1
29.166729 23.293798 5.097897 37.673435 0.673913 1.435062 -0.018037 -0.005254 339850.000000 0 0 1
29.628069 23.148798 3.750097 37.785613 0.663242 1.471386 -0.011000 -0.003374 -620535.000000 0 0 1
30.317199 24.373798 3.079897 39.021793 0.677151 1.491787 0.014514 -0.014460 -305642.000000 0 0 1
29.504679 25.564298 2.876697 39.145048 0.713966 1.497242 -0.013975 -0.011933 243326.000000 0 0 1
30.339099 26.537898 2.273597 40.371899 0.718665 1.514450 0.031489 -0.009879 -603756.000000 0 0 1
29.957559 28.013098 2.587597 41.096042 0.751869 1.507790 0.026569 -0.005212 238947.000000 0 0 1
28.755809 28.515598 2.042597 40.548836 0.781204 1.520401 0.053859 -0.011123 -198680.000000 0 0 1
27.569859 27.964598 2.567297 39.353613 0.792506 1.505513 0.031440 -0.002928 -824330.000000 0 0 1
26.382449 28.760998 1.993797 39.079456 0.828505 1.519755 0.009777 0.004489 -318581.000000 0 0 1
26.247549 30.054198 2.612597 39.987677 0.852907 1.505415 0.015930 -0.003360 363128.000000 0 0 1
24.959649 30.612398 2.396997 39.570805 0.886769 1.510184 0.018172 0.007310 318853.000000 0 0 1
24.873149 31.993098 3.100497 40.642895 0.909955 1.494436 0.019654 0.001964 -135150.000000 0 0 1
24.694049 31.955598 4.528397 40.638193 0.912886 1.459132 0.018651 -0.019733 -613393.000000 0 0 1
25.913249 31.953698 5.177197 41.464909 0.889407 1.445612 0.017213 -0.018248 -943347.000000 0 0 1
25.812549 31.781998 6.708297 41.489569 0.888675 1.408397 0.041655 -0.031662 -133479.000000 0 0 1
25.404449 30.470398 7.191197 40.318042 0.875817 1.391475 0.035136 -0.035857 293454.000000 0 0 1
26.302449 29.386398 6.935897 40.043550 0.840720 1.396709 0.016011 -0.028174 -132458.000000 0 0 1
25.781549 28.001298 7.271397 38.750925 0.826647 1.382033 0.024816 -0.024839 1236840.000000 0 0 1
24.550949 27.710998 6.515797 37.591277 0.845790 1.396584 0.025056 -0.035480 1289770.000000 0 0 1
24.065249 26.458398 6.800497 36.406453 0.832730 1.382899 0.043493 -0.035578 -395534.000000 0 0 1
22.699349 26.206698 6.115197 35.205782 0.856992 1.396212 0.060135 -0.029351 -64432.800000 0 0 1
22.722449 25.944498 4.697197 34.806470 0.851508 1.435431 0.025683 -0.022314 114978.000000 0 0 1
22.818549 27.111398 3.917897 35.651985 0.871165 1.460681 0.028210 -0.016829 -196897.000000 0 0 1
22.922249 26.805998 2.425597 35.353565 0.863339 1.502133 0.034911 -0.002789 -388916.000000 0 0 1
24.037349 26.092198 1.997197 35.532883 0.826366 1.514560 0.014796 0.013674 -157583.000000 0 0 1
23.879549 25.976898 0.572597 35.289658 0.827441 1.554570 0.022603 0.012525 -139440.000000 0 0 1
25.084149 25.292598 -0.076703 35.622127 0.789536 1.572950 0.031868 0.006501 -310084.000000 0 0 1
26.254049 26.095298 -0.217303 37.017386 0.782366 1.576667 0.027189 0.011847 1982170.000000 0 0 1
27.394149 25.427398 -0.889303 37.386934 0.748181 1.594585 0.033175 0.014113 1920090.000000 0 0 1
28.132509 24.203898 -0.208103 37.112128 0.710474 1.576404 0.027483 0.003724 -245507.000000 0 0 1
27.341719 22.998098 -0.224003 35.728592 0.699325 1.577066 0.020041 0.002540 432713.000000 0 0 1
27.824299 22.020398 0.637097 35.489371 0.669480 1.552844 0.015691 -0.001802 -163959.000000 0 0 1
26.644419 21.194898 1.171797 34.066433 0.671974 1.536392 0.008590 -0.011529 68174.100000 0 0 1
26.276849 20.108598 0.324797 33.089787 0.653196 1.560981 0.030442 -0.021362 -147852.000000 0 0 1
25.038149 19.639398 0.754397 31.830551 0.665143 1.547094 0.029043 -0.013769 -822140.000000 0 0 1
24.559149 18.412198 0.007197 30.694639 0.643314 1.570562 0.035297 -0.015884 -534266.000000 0 0 1
23.212949 18.169598 0.338297 29.480328 0.664125 1.559321 0.036570 -0.015448 -51370.900000 0 0 1
22.734749 17.118998 -0.497503 28.463598 0.645411 1.588276 0.045760 -0.031607 -561788.000000 0 0 1
21.345449 16.651498 -0.126403 27.072432 0.662486 1.575465 0.035323 -0.013439 -1139660.000000 0 0 1
20.809749 15.641798 -0.965403 26.050787 0.644561 1.607863 0.037128 -0.016518 1144640.000000 0 0 1
19.409149 15.346498 -0.787503 24.755812 0.669034 1.602613 0.042823 -0.015859 1337040.000000 0 1 0
18.378849 16.391098 -1.344303 24.662874 0.728292 1.625330 0.041090 -0.022766 -388294.000000 0 1 0
18.287549 17.603998 -0.552203 25.389764 0.766356 1.592547 0.035295 -0.015944 517213.000000 0 0 1
17.164549 18.404698 -0.947203 25.184357 0.820250 1.608416 0.023738 -0.025096 542655.000000 0 0 1
17.100349 19.815098 -0.422703 26.177065 0.858806 1.586945 0.024983 -0.012315 -301429.000000 0 0 1
17.035749 19.935298 0.984997 26.241248 0.863666 1.533251 0.035464 -0.010684 142294.000000 0 0 1
16.945749 21.295398 1.402997 27.251070 0.898654 1.519289 0.043877 -0.010076 -249374.000000 0 0 1
15.958949 22.284998 0.772197 27.420895 0.949327 1.542632 0.033834 -0.019898 798636.000000 0 0 1
14.590849 22.096698 1.192697 26.506216 0.987202 1.525784 0.011508 -0.015405 947189.000000 0 0 1
13.717849 23.134998 0.831397 26.909083 1.035578 1.539895 -0.000460 -0.012933 538338.000000 0 0 1
12.323549 23.127498 1.519497 26.249951 1.081213 1.512878 -0.008894 -0.012584 472113.000000 0 0 1
12.450249 23.596598 2.840997 26.830569 1.085291 1.464711 -0.014384 0.004036 -220538.000000 0 0 1
11.194849 23.546398 3.450597 26.299508 1.126991 1.439213 -0.021232 0.002678 -314054.000000 0 0 1
11.126449 23.743598 4.970297 26.688203 1.132576 1.383467 -0.013483 -0.000520 57895.200000 0 0 1
11.768149 22.772498 5.798597 26.281167 1.093823 1.348329 0.000876 -0.023403 212835.000000 0 0 1
10.934149 22.542398 6.911397 25.990051 1.119182 1.301633 -0.003905 -0.010602 -680939.000000 0 0 1
11.495749 21.470598 7.923797 25.611040 1.079217 1.256245 0.009348 -0.008328 1098600.000000 0 0 1
12.713549 21.809298 8.644697 26.683527 1.043014 1.240872 0.016429 -0.005844 123529.000000 0 0 1
13.834049 21.802198 7.875497 26.995189 1.005377 1.274754 0.030809 -0.005305 -1963200.000000 0 0 1
15.168349 21.805798 8.634997 27.930894 0.963022 1.256491 0.045892 -0.009927 -482469.000000 0 0 1
15.404149 20.561198 9.259297 27.309069 0.927817 1.224883 0.052886 -0.007643 368715.000000 0 0 1
16.762749 20.475798 9.657697 28.169472 0.884780 1.220855 0.057344 -0.016970 285525.000000 0 0 1
17.135049 21.226798 10.996797 29.412861 0.891658 1.187610 0.043793 -0.013139 -551478.000000 0 0 1
16.344549 20.910398 12.121597 29.177425 0.907347 1.142365 0.045376 -0.014830 -74181.900000 0 0 1
16.651749 21.588198 13.293197 30.332163 0.913780 1.117141 0.049983 -0.006529 -698341.000000 0 0 1
17.659849 20.990598 14.268297 30.920216 0.871362 1.091161 0.040372 -0.002410 -348665.000000 0 0 1
18.946849 21.296698 13.792397 31.666428 0.843723 1.120144 0.040712 0.000027 -238835.000000 0 0 1
19.967849 20.798998 14.669397 32.349722 0.805783 1.100150 0.027771 -0.003275 713841.000000 0 0 1
21.404249 21.302998 14.393197 33.453307 0.783027 1.126030 0.028410 -0.002963 203771.000000 0 0 1
21.965749 20.813998 13.200097 33.014530 0.758482 1.159468 0.039654 -0.001591 -424345.000000 0 0 1
23.310449 21.180498 13.088997 34.107366 0.737561 1.176933 0.031219 0.002892 -367971.000000 0 0 1
24.036049 20.689698 11.812997 33.842904 0.710718 1.214235 0.031473 0.002098 34134.700000 0 0 1
23.630749 21.352498 10.593797 33.564416 0.734795 1.249680 0.031846 -0.002625 135083.000000 0 0 1
24.513449 21.078198 9.552297 33.711215 0.710192 1.283504 0.044674 -0.014881 -567184.000000 0 0 1
24.373149 22.002198 8.359997 33.882690 0.734317 1.321488 0.033142 -0.015102 -263746.000000 0 0 1
24.742449 23.329398 8.628997 35.084315 0.756012 1.322296 0.027580 -0.017414 641610.000000 0 0 1
26.128249 23.553698 8.370997 36.159863 0.733624 1.337177 0.010074 -0.016309 153543.000000 0 0 1
26.644959 24.877798 9.012997 37.551202 0.751113 1.328411 0.009768 -0.014908 -688229.000000 0 0 1
28.011159 25.084998 8.844597 38.627828 0.730343 1.339777 -0.007004 -0.009760 -342460.000000 0 0 1
28.532099 26.154998 9.608097 39.880824 0.741958 1.327482 0.003058 -0.001910 366928.000000 0 0 1
29.706219 26.895298 8.911097 41.051482 0.735777 1.351983 -0.002280 -0.005488 -94899.500000 0 0 1
29.329369 27.751598 7.874397 41.138415 0.757764 1.378196 0.006297 -0.008655 -147588.000000 0 0 1
30.465329 28.325898 7.271097 42.229867 0.749024 1.397755 -0.002143 0.001950 -379376.000000 0 0 1
30.249979 29.238098 6.076797 42.507118 0.768390 1.427345 0.014126 -0.002279 -76610.100000 0 0 1
29.953229 30.551798 6.495497 43.275857 0.795291 1.420132 0.023358 -0.003147 72035.700000 0 0 1
29.837509 31.399998 5.352397 43.644988 0.810908 1.447852 0.036514 -0.010260 39864.200000 0 0 1
29.904219 32.881898 5.844997 44.829070 0.832788 1.440040 0.009488 0.000146 -381893.000000 0 0 1
28.723019 33.334298 6.415897 44.467415 0.859569 1.426008 0.015993 -0.010310 -647169.000000 0 0 1
28.821579 -34.096966 6.775997 45.157509 -0.869047 1.420175 0.016490 -0.000447 6550.030000 0 0 1
27.472789 -33.569766 7.338997 43.994820 -0.884949 1.403198 0.047539 -0.016005 554280.000000 0 0 1
26.457649 -33.756166 6.352797 43.357168 -0.906020 1.423744 0.046975 -0.017778 -182436.000000 0 0 1
25.243049 -33.096066 6.648297 42.151643 -0.919204 1.412412 0.039521 -0.024715 -10106.100000 0 0 1
24.230649 -33.370066 5.542297 41.610128 -0.942755 1.437203 0.044592 -0.014021 -522280.000000 0 0 1
24.693449 -32.848966 4.314397 41.321121 -0.926191 1.466194 0.023245 0.016219 -443187.000000 0 0 1
23.748149 -32.779766 3.277097 40.610676 -0.943832 1.490013 0.036737 0.002439 -373229.000000 0 0 1
24.150549 -32.011166 1.965497 40.147565 -0.924459 1.521820 0.037597 0.013607 -110007.000000 0 0 1
24.192249 -30.643866 2.053097 39.096377 -0.902512 1.518258 0.039564 0.022762 262985.000000 0 0 1
24.995749 -30.047066 1.021497 39.098045 -0.876913 1.544667 0.026109 0.023643 42155.300000 0 0 1
25.365549 -28.546766 1.239597 38.208187 -0.844337 1.538347 0.017699 0.019313 616209.000000 0 0 1
24.234849 -27.652466 1.209197 36.789251 -0.851169 1.537922 0.023923 0.025326 715684.000000 0 0 1
23.540049 -27.516766 -0.025903 36.211973 -0.863129 1.571512 0.034290 0.017191 -138359.000000 0 0 1
22.430249 -26.455066 0.032497 34.684112 -0.867545 1.569859 0.023660 0.021871 -260229.000000 0 0 1
22.878949 -25.143866 0.049497 33.995040 -0.832527 1.569340 0.016619 0.016084 -304914.000000 0 0 1
22.999449 -24.530666 1.340597 33.653015 -0.817603 1.530950 -0.003659 0.023381 41678.300000 0 0 1
21.691649 -24.212166 2.107397 32.576030 -0.840252 1.506059 -0.002681 0.019333 117309.000000 0 0 1
21.801849 -23.543466 3.331097 32.260063 -0.823787 1.467354 -0.005875 0.015581 -1368030.000000 0 0 1
20.583249 -23.550066 3.952197 31.526110 -0.852521 1.445103 0.004664 0.012986 -1006200.000000 0 0 1
20.518949 -22.911066 5.382097 31.223568 -0.840422 1.397558 -0.000771 -0.001111 -84181.700000 0 0 1
20.664149 -21.500866 5.476597 30.319753 -0.805239 1.389171 0.021277 0.002650 69676.800000 0 0 1
19.590649 -20.737166 4.916997 28.948238 -0.813820 1.400114 0.009571 0.002635 -314679.000000 0 0 1
19.441549 -19.296066 5.369597 27.913161 -0.781643 1.377222 0.018641 -0.004160 19922.500000 0 0 1
18.989349 -19.035466 6.680097 27.705019 -0.786611 1.327282 0.037700 -0.008272 -553062.000000 0 0 1
17.605449 -19.109366 6.866397 26.875028 -0.826337 1.312438 0.008710 0.002922 -469138.000000 0 0 1
18.342591 -26.497842 -12.015403 34.394130 -0.965304 1.927668 0.072085 -0.019695 -68678.300000 0 0 1
18.613391 -25.205862 -12.519303 33.742062 -0.934725 1.950914 0.070001 -0.015017 -381718.000000 0 0 1
17.530791 -24.648602 -13.215603 33.008096 -0.952574 1.982722 0.043995 -0.012105 -47144.100000 0 0 1
17.796391 -23.148502 -13.624203 32.220856 -0.915376 2.007371 0.040637 -0.026553 21191.400000 0 0 1
17.725591 -22.121802 -12.615003 31.027552 -0.895280 1.989498 0.046223 -0.019988 187407.000000 0 0 1
18.931291 -21.872902 -11.884703 31.274011 -0.857365 1.960613 0.043102 -0.019491 -268792.000000 0 0 1
19.188791 -22.766602 -10.635503 31.617112 -0.870469 1.913871 0.047316 -0.016043 530897.000000 0 0 1
18.286391 -22.588202 -9.488903 30.572181 -0.890256 1.886386 0.044815 -0.015762 2642160.000000 0 0 1
16.854591 -22.775402 -9.776003 29.972761 -0.933703 1.903038 0.044864 -0.003914 1383390.000000 0 0 1
15.918991 -22.161102 -8.739803 28.651577 -0.947874 1.880774 0.030978 0.001784 -859108.000000 0 0 1
15.972891 -20.697102 -8.630203 27.531503 -0.913523 1.889638 0.029216 -0.006208 276003.000000 0 0 1
15.143291 -20.113502 -7.617103 26.303849 -0.925447 1.864586 0.026651 -0.005269 2121780.000000 0 0 1
13.550491 -20.187802 -7.864403 25.554099 -0.979647 1.883629 0.025007 0.005185 1648910.000000 0 0 1
13.007491 -21.450402 -7.800903 26.271061 -1.025685 1.872282 0.013632 0.006650 -1677390.000000 0 0 1
11.696591 -21.454302 -8.199803 25.774679 -1.071656 1.894557 0.018220 0.005963 -1233210.000000 0 0 1
10.983091 -22.814002 -7.997403 26.553068 -1.122124 1.876732 0.018569 0.007395 -138738.000000 0 0 1
10.808991 -23.001802 -6.637903 26.267450 -1.131502 1.826271 0.014904 0.005631 -139156.000000 0 0 1
10.159891 -24.178102 -6.321303 26.977080 -1.172989 1.807317 0.012152 0.008900 -250187.000000 0 0 1
10.690691 -24.693902 -4.990903 27.367659 -1.162229 1.754188 0.016477 0.002040 -33277.300000 0 0 1
10.143191 -25.881372 -4.507503 28.161096 -1.197283 1.731549 0.036413 -0.000532 -310489.000000 0 0 1
10.785991 -26.079852 -3.314003 28.416173 -1.178642 1.687686 0.020915 -0.005089 -121372.000000 0 0 1
10.032991 -27.096892 -2.423603 28.996143 -1.216185 1.654478 0.047537 -0.011817 369049.000000 0 0 1
9.020391 -26.493292 -1.641703 28.034927 -1.242629 1.629389 0.031848 -0.006764 108740.000000 0 0 1
8.239191 -27.493982 -0.939103 28.717333 -1.279640 1.603504 0.045031 -0.015538 441595.000000 0 0 1
7.389991 -26.918782 0.191997 27.915402 -1.302868 1.563918 0.048084 -0.006503 -457546.000000 0 0 1
6.159491 -26.376202 -0.179403 27.086446 -1.341383 1.577420 0.048806 -0.016941 -672457.000000 0 0 1
5.592091 -25.704082 0.954797 26.322670 -1.356578 1.534516 0.048448 -0.005342 1176650.000000 0 0 1
4.160991 -25.027902 0.763097 25.382908 -1.406049 1.540728 0.037147 -0.012491 1264610.000000 0 0 1
3.127491 -25.965592 0.628197 26.160806 -1.450926 1.546781 0.031655 -0.010670 93168.700000 0 0 1
1.847791 -25.354392 0.753197 25.432790 -1.498046 1.541177 0.018982 -0.005285 280422.000000 0 0 1
0.602491 -26.183712 0.460997 26.194699 -1.547790 1.553197 0.020366 -0.001754 -127019.000000 0 0 1
0.328391 -27.348102 1.227797 27.377619 -1.558789 1.525935 0.023680 0.001141 -491340.000000 0 0 1
0.937191 -28.502692 0.793897 28.529144 -1.537927 1.542965 0.022400 -0.007359 -570801.000000 0 0 1
0.508191 -29.758982 1.589897 29.805755 -1.553721 1.517429 0.033288 0.002880 -67957.000000 0 0 1
0.903291 -29.827132 2.962297 29.987480 -1.540521 1.471850 0.023909 0.003192 -44539.900000 0 0 1
0.004191 -30.534422 3.784497 30.768057 -1.570659 1.447483 0.042607 -0.000422 -149087.000000 0 0 1
0.319791 -30.496592 5.325897 30.959806 -1.560311 1.397910 0.042099 -0.002160 -264162.000000 0 0 1
1.641391 -30.720652 5.754997 31.298125 -1.517418 1.385867 0.031855 0.004894 -85169.200000 0 0 1
1.719791 -30.883192 7.137897 31.743957 -1.515167 1.343999 0.039036 0.007571 335661.000000 0 0 1
3.196391 -31.152662 7.537897 32.210637 -1.468550 1.334587 0.031888 0.008489 436604.000000 0 0 1
3.417291 -32.512882 7.220697 33.479902 -1.466075 1.353416 0.030990 -0.002716 76081.400000 0 0 1
4.753091 -32.922072 7.463797 34.090511 -1.427413 1.350068 0.021748 -0.005135 262909.000000 0 0 1
4.831791 34.339441 7.351297 35.448343 1.431007 1.361900 0.013675 0.002479 -120935.000000 0 0 1
4.855691 33.794106 6.067397 34.676111 1.428089 1.394918 0.011957 -0.001575 47565.700000 0 0 1
4.975491 32.406672 6.150697 33.358342 1.418453 1.385353 0.003065 -0.003074 -166831.000000 0 0 1
5.481491 31.879292 4.761197 32.695642 1.400516 1.424655 0.011473 -0.004387 117020.000000 0 0 1
6.847591 32.161852 4.544597 33.195295 1.361018 1.433460 0.013058 -0.005734 -408627.000000 0 0 1
7.499891 31.042832 3.990197 32.184274 1.333741 1.446497 0.011144 0.000264 -316395.000000 0 0 1
8.952491 31.366042 3.633897 32.820435 1.292769 1.459848 -0.011150 -0.000378 -336676.000000 0 0 1
9.735691 31.597152 4.773197 33.405795 1.271907 1.427420 0.000299 -0.007997 -1512350.000000 0 0 1
11.014091 31.942062 4.413397 34.074677 1.238748 1.440910 0.011341 -0.005192 -1062100.000000 0 0 1
11.943391 32.359542 5.582497 34.942079 1.217222 1.410344 0.014867 -0.020930 -191868.000000 0 0 1
12.330991 31.226682 6.308797 34.160796 1.194706 1.385051 0.009837 -0.015017 -171002.000000 0 0 1
13.475391 31.618392 7.053797 35.086535 1.167920 1.368377 0.027372 -0.022864 13608.500000 0 0 1
14.138091 30.502412 7.850097 34.524003 1.136767 1.341409 0.024925 -0.017926 -473669.000000 0 0 1
13.453891 30.037512 8.971197 34.113659 1.149688 1.304687 0.025567 -0.011770 -113687.000000 0 0 1
14.154391 28.984122 9.587697 33.650410 1.116512 1.281873 0.030226 -0.016498 76313.400000 0 0 1
13.905991 28.995202 11.093297 34.017049 1.123605 1.238611 0.022004 -0.012438 246429.000000 0 0 1
14.600191 30.045532 11.769997 35.417968 1.118463 1.232037 0.032690 -0.018156 233310.000000 0 0 1
14.007691 30.213852 13.016397 35.756382 1.136675 1.198205 0.037998 -0.014797 -333950.000000 0 0 1
14.704691 31.234722 13.913897 37.221397 1.130797 1.187678 0.045853 -0.016537 522612.000000 0 0 1
15.959891 30.756542 14.418397 37.530963 1.092135 1.176484 0.060694 -0.020140 619244.000000 0 0 1
16.739591 31.906412 14.740597 38.929658 1.087626 1.182462 0.053242 -0.014374 1295280.000000 0 0 1
18.200791 31.671222 15.340197 39.618894 1.049203 1.173210 0.051938 -0.010229 1651700.000000 0 0 1
19.223591 31.077402 14.573997 39.341489 1.016833 1.191304 0.031738 -0.010849 39685.900000 0 0 1
19.159091 29.728552 14.613197 38.267521 0.998320 1.178978 0.021069 -0.001800 669842.000000 0 0 1
20.491491 28.930162 14.281797 38.220744 0.954516 1.187838 0.027499 -0.009065 781602.000000 0 0 1
21.619891 29.103852 15.113397 39.279367 0.931885 1.175841 0.025445 -0.007104 -217180.000000 0 0 1
22.721691 28.577062 14.400097 39.246485 0.899049 1.195107 0.020697 -0.005404 331238.000000 0 0 1
24.027691 28.790832 15.253897 40.483618 0.875334 1.184466 0.028918 -0.006720 332896.000000 0 0 1
24.077091 27.871582 16.315397 40.283044 0.858312 1.153797 0.007257 -0.003569 -111551.000000 0 0 1
25.099091 28.163572 17.241797 41.478076 0.842870 1.142101 0.015024 -0.006303 -111400.000000 0 0 1
26.117491 27.041942 17.658197 41.535550 0.802787 1.131686 -0.004060 -0.000474 176752.000000 0 0 1
25.636391 25.890522 18.345597 40.793439 0.790330 1.104345 0.008046 0.004403 -391189.000000 0 0 1
25.254591 26.184162 19.642197 41.342722 0.803468 1.075711 0.019306 0.003655 -350816.000000 0 0 1
24.574891 24.939102 20.175697 40.409688 0.792754 1.048030 0.023713 0.006415 -791967.000000 0 0 1
25.471891 23.919632 20.421297 40.472156 0.753981 1.041905 0.005761 0.004264 -376899.000000 0 0 1
24.833191 22.637462 20.501197 39.362942 0.739177 1.022979 0.012849 0.000001 462302.000000 0 0 1
25.846291 21.435562 20.390297 39.284581 0.692381 1.025068 -0.003292 -0.004241 611090.000000 0 0 1
25.158791 20.157362 20.278197 38.085290 0.675476 1.009314 -0.007824 0.016367 653361.000000 0 0 1
25.999091 18.993062 20.300397 38.063044 0.630922 1.008257 -0.010828 0.004212 263078.000000 0 0 1
26.759091 18.565162 21.543697 39.049265 0.606545 0.986389 0.025630 0.019378 -120780.000000 0 0 1
25.896391 17.980062 22.520097 38.743522 0.606895 0.950519 0.011105 0.027477 -31089.100000 0 0 1
26.459491 17.748462 23.791297 39.763531 0.590844 0.929394 0.035681 0.023819 -799147.000000 0 0 1
25.602791 17.051262 24.797997 39.511886 0.587536 0.892319 0.011878 0.030321 -614166.000000 0 0 1
25.491991 15.667962 24.515397 38.682443 0.551102 0.884391 0.013227 0.024069 445553.000000 0 0 1
24.433091 15.068262 25.247197 38.228908 0.552620 0.849416 0.009355 0.026353 384902.000000 0 0 1
23.672291 13.950262 24.443997 36.776299 0.532520 0.843748 0.006598 0.017243 441434.000000 0 0 1
22.525091 13.360562 25.051097 36.241438 0.535361 0.807609 0.001472 0.012122 473764.000000 0 0 1
22.085491 12.173562 24.393597 35.085782 0.503765 0.802020 0.005988 0.010365 -364763.000000 0 0 1
20.776491 11.684162 25.012697 34.551661 0.512294 0.761326 0.003085 0.003815 -1058030.000000 0 0 1
19.703591 12.546262 24.836197 34.095115 0.567004 0.754756 -0.002095 0.001051 -967596.000000 0 0 1
18.571091 11.757462 25.077697 33.346878 0.564407 0.719667 0.008533 -0.000000 -125248.000000 0 0 1
17.254291 12.560662 25.297497 33.097495 0.629254 0.700791 0.006492 -0.004160 105119.000000 0 0 1
17.218291 13.262762 26.515797 34.284952 0.656349 0.686618 0.005342 0.003989 -284220.000000 0 0 1
15.973691 13.868862 26.695097 34.060716 0.714984 0.670115 0.021485 0.002923 -456073.000000 0 0 1
15.810691 14.217562 28.200097 35.318020 0.732394 0.646060 0.001906 0.012428 -131497.000000 0 0 1
15.590891 13.022762 28.956497 35.371556 0.695886 0.611761 0.027033 0.008801 146830.000000 0 0 1
15.441491 13.267562 30.328697 36.528040 0.709820 0.591177 0.013223 0.001111 522502.000000 0 0 1
16.812591 13.152262 31.113197 37.731635 0.663846 0.601316 0.007776 0.006908 259002.000000 0 0 1
17.685591 14.136962 30.711897 38.155661 0.674344 0.635271 0.007602 0.001723 -829097.000000 0 0 1
18.963391 13.608262 30.450897 38.367332 0.622445 0.653983 0.003033 0.011665 -560293.000000 0 0 1
19.873591 14.810562 30.061297 38.961442 0.640447 0.689498 0.001295 0.008182 -531583.000000 0 0 1
19.544991 15.392462 28.801397 38.058574 0.667097 0.712446 0.004468 0.010755 364614.000000 0 0 1
19.846391 14.617562 27.679897 37.063851 0.634828 0.727534 0.012074 0.008840 -750905.000000 0 0 1
19.793191 15.294862 26.309797 36.303012 0.657893 0.760157 -0.005904 0.013882 -494832.000000 0 0 1
20.682891 16.370062 26.232397 37.200801 0.669523 0.788152 -0.006055 0.023312 -22151.400000 0 0 1
20.552691 17.085462 25.071897 36.645957 0.693537 0.817338 -0.011801 0.018514 -230822.000000 0 0 1
21.808691 17.858862 24.617097 37.424049 0.686152 0.852918 -0.007129 0.022354 -298301.000000 0 0 1
21.562791 18.514262 23.364697 36.791860 0.709478 0.882722 -0.009471 0.007016 310758.000000 0 0 1
22.705191 19.160862 22.814197 37.458670 0.700941 0.915934 0.004880 0.011032 113395.000000 0 0 1
22.897791 20.639162 23.216097 38.591075 0.733566 0.925303 0.013897 0.007011 -21850.800000 0 0 1
21.870691 21.490862 22.744097 38.176934 0.776639 0.932591 0.003411 0.011881 137960.000000 0 0 1
21.921291 22.707662 23.402597 39.292016 0.803017 0.932775 0.008662 0.015821 -22703.100000 0 0 1
20.945391 23.762672 22.871297 39.070068 0.848330 0.945433 -0.005670 0.010963 -161587.000000 0 0 1
21.377191 24.356862 21.648397 38.972993 0.850458 0.981866 0.009480 0.009379 366111.000000 0 0 1
20.600091 25.524062 21.315197 39.117504 0.891750 0.994524 0.003960 0.005758 -240170.000000 0 0 1
21.087991 26.313312 20.077497 39.245378 0.895191 1.033763 -0.001153 0.001169 -264777.000000 0 0 1
20.884391 25.681372 18.789897 38.062461 0.888051 1.054504 -0.006763 0.001693 539639.000000 0 0 1
21.536391 26.530422 17.804197 38.531401 0.888924 1.090469 0.008929 -0.009351 110158.000000 0 0 1
21.593291 25.780302 16.438097 37.431341 0.873552 1.116140 0.010277 0.003538 -803340.000000 0 0 1
20.349391 25.686782 15.821297 36.389861 0.900822 1.121011 0.016754 -0.000971 -681587.000000 0 0 1
20.452291 25.058342 14.580897 35.479844 0.886263 1.147286 0.024048 0.006787 -144287.000000 0 0 1
19.080791 24.964102 13.877497 34.349206 0.918187 1.154898 0.027152 -0.002491 254347.000000 0 0 1
18.350391 26.170142 13.728197 34.786155 0.959268 1.165114 0.031884 -0.001109 227301.000000 0 0 1
17.471091 26.486482 14.818897 35.019602 0.987686 1.133866 0.026619 -0.001014 1024970.000000 0 0 1
15.915591 26.354912 14.495097 34.029330 1.027518 1.130775 0.037090 -0.008470 1046980.000000 0 0 1
15.438491 25.034422 14.509297 32.796174 1.018195 1.112514 0.035857 -0.007052 49207.300000 0 0 1
15.242691 24.414062 15.794297 32.830564 1.012671 1.068904 0.035322 -0.003224 -49075.600000 0 0 1
14.165191 24.955122 16.787097 33.244810 1.054521 1.041468 0.069006 -0.019672 -61378.000000 0 0 1
14.511491 26.234382 17.293297 34.610466 1.065540 1.047596 0.053506 -0.019500 276962.000000 0 0 1
13.473791 26.757142 18.096697 34.999688 1.104306 1.027392 0.067863 -0.022079 -135636.000000 0 0 1
14.013591 28.010792 18.808597 36.534211 1.106915 1.029997 0.064570 -0.023964 -398421.000000 0 0 1
14.087791 29.103232 17.969797 36.991588 1.119980 1.063540 0.065328 -0.025480 185540.000000 0 0 1
14.648791 30.276882 18.566497 38.418635 1.120170 1.066413 0.054796 -0.019737 -86225.700000 0 0 1
14.590891 31.434762 17.638297 38.886346 1.136226 1.100012 0.052083 -0.014886 -93026.900000 0 0 1
13.311791 32.023622 17.655397 38.915668 1.176841 1.099902 0.048397 -0.013254 -205640.000000 0 0 1
13.147591 33.157066 16.839697 39.443955 1.193290 1.129704 0.037222 -0.016788 112456.000000 0 0 1
11.712791 33.737235 17.020297 39.561105 1.236639 1.126051 0.032085 -0.015015 389474.000000 0 0 1
11.476291 -33.704202 16.452797 39.222099 -1.242609 1.137926 0.029963 -0.009941 159316.000000 0 0 1
12.095391 -32.491052 17.095397 38.655136 -1.214423 1.112686 0.030121 -0.017090 222030.000000 0 0 1
11.838891 -32.117682 18.565497 38.940757 -1.217640 1.073828 0.036681 -0.023276 38099.600000 0 0 1
12.608891 -32.923222 19.470797 40.274491 -1.205049 1.066202 0.053347 -0.025396 536254.000000 0 0 1
12.334491 -32.557182 20.817197 40.564337 -1.208649 1.031899 0.061222 -0.030336 -202689.000000 0 0 1
13.415691 -33.145382 21.740197 41.847739 -1.186199 1.024522 0.073559 -0.023159 432575.000000 0 0 1
14.739391 -32.754542 21.418797 41.819547 -1.147946 1.033085 0.066919 -0.023953 151425.000000 0 0 1
15.734591 -33.118452 22.334197 42.932803 -1.127266 1.023696 0.070172 -0.019480 807.259000 0 0 1
17.095791 -32.460882 22.019997 42.788494 -1.086050 1.030227 0.092876 -0.026739 -73713.000000 0 0 1
17.161891 -31.085942 22.246797 41.902103 -1.066358 1.011107 0.082742 -0.035791 -341608.000000 0 0 1
18.455491 -30.608342 22.027997 41.984621 -1.028206 1.018471 0.077306 -0.027065 -662259.000000 0 0 1
-4.730109 13.009098 18.384368 23.012943 -1.222057 0.645381 0.015431 -0.000847 -210020.000000 0 1 0
-4.362309 14.325398 18.135468 23.518970 -1.275202 0.690230 0.016178 -0.003493 154801.000000 0 1 0
-5.555309 15.059598 17.984368 24.105817 -1.217395 0.728672 0.015745 -0.001656 299690.000000 0 1 0
-5.158609 16.549098 17.641668 24.732819 -1.268626 0.776615 0.021045 -0.005553 129321.000000 0 1 0
-4.541309 17.185998 18.739968 25.829603 -1.312456 0.759002 0.018020 -0.001567 187547.000000 0 0 1
-4.500109 18.584698 18.593268 26.671175 -1.333228 0.799410 0.019999 -0.000932 -549928.000000 0 0 1
-3.856609 19.322998 19.759468 27.904986 -1.373798 0.783995 0.020750 -0.007232 -576270.000000 0 0 1
-4.721809 19.560998 20.820568 28.955555 -1.333938 0.768358 0.016740 -0.002728 -476831.000000 0 0 1
-4.196209 20.403398 21.826968 30.171565 -1.367962 0.762041 0.024175 -0.004131 329496.000000 0 0 1
-5.249609 20.777098 22.951368 31.400820 -1.323313 0.751133 0.017220 0.002245 507944.000000 0 0 1
-5.482209 19.651398 23.765668 31.321542 -1.298740 0.709382 0.013157 -0.001847 -110695.000000 0 0 1
-6.122209 19.915498 24.998158 32.542532 -1.272556 0.694820 0.014973 -0.006697 12678.200000 0 0 1
-5.155409 20.467598 26.050158 33.527772 -1.324048 0.680954 0.004754 -0.012773 -495114.000000 0 0 1
-4.795809 21.855198 25.782358 34.137654 -1.354784 0.714766 0.024104 -0.008633 1273150.000000 0 0 1
-3.539409 22.344898 26.321568 34.708022 -1.413703 0.709986 0.019242 -0.000482 951196.000000 0 0 1
-2.207809 21.732298 25.906358 33.886672 -1.469553 0.700531 0.018231 0.001768 -997657.000000 0 0 1
-1.986409 20.529898 26.502698 33.582965 -1.474340 0.661338 0.035796 -0.001818 277541.000000 0 0 1
-0.638909 20.136998 26.250488 33.090709 -1.539079 0.654605 0.040332 -0.000820 444130.000000 0 0 1
-0.108809 18.791198 26.841308 32.765481 -1.565006 0.610791 0.045423 0.003273 -86399.800000 0 0 1
-0.700109 17.654298 26.223158 31.619905 -1.531161 0.592899 0.051637 0.001974 -63540.200000 0 0 1
-0.085909 16.395898 26.527358 31.185470 -1.565557 0.553610 0.049727 0.003662 26341.700000 0 0 1
1.295891 16.187798 25.855418 30.532389 1.490913 0.560820 0.067331 0.001051 -76056.300000 0 0 1
1.270191 15.938798 24.472328 29.232747 1.491273 0.578736 0.058066 -0.011937 -313586.000000 0 0 1
1.032191 14.573898 24.219308 28.284957 1.500090 0.542809 0.066027 -0.009634 -335793.000000 0 0 1
1.236891 14.326398 22.733468 26.899556 1.484673 0.563999 0.071813 -0.018083 -99850.600000 0 0 1
2.625491 14.200698 22.565868 26.791256 1.387976 0.569288 0.058403 -0.014432 -541360.000000 0 0 1
2.993791 13.759698 21.320568 25.551099 1.356559 0.583701 0.051730 -0.017734 -776138.000000 0 0 1
4.477491 13.700598 21.035668 25.500071 1.254928 0.600725 0.042860 -0.014731 -744855.000000 0 0 1
4.878091 14.775298 20.220068 25.513846 1.251912 0.655877 0.034150 -0.017650 -1252880.000000 0 0 1
6.250391 14.811898 20.086668 25.728077 1.171483 0.674964 0.041962 -0.015963 -985241.000000 0 0 1
6.715291 15.961598 19.119368 25.795697 1.172560 0.735963 0.038697 -0.021613 21929.200000 0 0 1
6.319591 15.694198 17.772968 24.538204 1.187990 0.760781 0.031769 -0.026054 38264.300000 0 1 0
6.711391 16.684998 16.852568 24.646318 1.188360 0.817871 0.023984 -0.019030 8939.360000 0 1 0
6.534491 16.106798 15.409268 23.228733 1.185388 0.845482 0.014961 -0.014296 -195404.000000 0 1 0
7.465191 15.169198 14.952868 22.570377 1.113466 0.846645 0.011143 -0.014290 -295916.000000 0 1 0
7.483691 13.899798 15.555968 22.162991 1.076900 0.792750 0.016912 -0.019635 343436.000000 0 1 0
8.587491 12.936398 14.947268 21.552638 0.984764 0.804427 0.014263 -0.018871 1169780.000000 0 1 0
9.904991 13.472698 15.019068 22.476540 0.936841 0.838995 0.017761 -0.018522 940087.000000 0 1 0
10.887991 12.700998 14.269068 21.987951 0.862106 0.864594 0.019295 -0.012521 475824.000000 0 1 0
12.217991 13.417598 14.068768 22.961739 0.832159 0.911318 0.030021 -0.009881 -956632.000000 0 1 0
12.884691 13.523498 15.301868 24.146375 0.809583 0.884453 0.036699 -0.011532 -240944.000000 0 1 0
14.182791 14.056798 15.264668 25.134741 0.780937 0.918122 0.029065 -0.007662 410257.000000 0 0 1
15.325291 13.147898 14.671168 24.959466 0.709075 0.942460 0.017921 -0.008239 -215783.000000 0 1 0
16.566291 13.830998 14.630368 26.072709 0.695655 0.975037 0.026504 -0.019576 -384702.000000 0 0 1
17.410991 13.145098 13.790768 25.809329 0.646686 1.007078 0.029324 -0.017318 -645246.000000 0 0 1
18.845591 13.715798 13.792468 27.083419 0.629140 1.036473 0.025450 -0.017152 -156493.000000 0 0 1
19.515291 13.533498 15.002168 28.090340 0.606338 1.007391 -0.001077 -0.016566 191093.000000 0 0 1
20.881691 13.903498 14.819568 29.137122 0.587418 1.037221 0.016094 -0.023806 202459.000000 0 0 1
21.748391 13.704098 16.059468 30.310086 0.562273 1.012386 0.020607 -0.013135 -383358.000000 0 0 1
22.116391 12.378398 16.300868 30.134329 0.510255 0.999242 0.014146 -0.006134 141871.000000 0 0 1
23.065791 12.296998 17.335868 31.365255 0.489797 0.985185 0.003671 -0.006300 -186793.000000 0 0 1
23.647191 10.875398 17.399068 31.308010 0.431058 0.981545 0.006755 0.012623 -957927.000000 0 0 1
22.687591 10.048098 17.970068 30.636814 0.416925 0.944002 -0.010179 0.015726 192170.000000 0 0 1
22.866691 8.668898 17.780068 30.235181 0.362366 0.942139 -0.013761 0.023334 -815982.000000 0 0 1
21.608891 7.967598 18.221968 29.367787 0.353252 0.901449 0.014967 0.015124 -624039.000000 0 0 1
21.633791 6.573898 18.013768 28.909045 0.295005 0.898072 0.025108 0.018553 -828010.000000 0 0 1
20.353491 6.126598 18.241668 28.009967 0.292383 0.861558 0.020296 0.015159 -1019190.000000 0 0 1
20.130291 4.640798 17.908768 27.340256 0.226579 0.856570 0.053524 0.006040 -677131.000000 0 0 1
20.001491 4.357998 16.527968 26.310179 0.214531 0.891563 0.075363 -0.006563 279847.000000 0 0 1
19.977791 2.978198 16.197568 25.890983 0.147986 0.894888 0.065069 -0.006909 289854.000000 0 0 1
18.710891 2.132698 16.568468 25.083061 0.113492 0.849253 0.085020 -0.007817 398487.000000 0 0 1
18.975191 1.379598 17.738368 26.011745 0.072578 0.820389 0.066549 -0.013403 551508.000000 0 0 1
17.777391 0.848498 18.331768 25.550133 0.047693 0.770615 0.066144 -0.010443 387061.000000 0 0 1
18.027591 0.130398 19.676368 26.686523 0.007233 0.741710 0.046334 -0.010009 -142012.000000 0 0 1
18.319191 -1.225002 19.345668 26.671113 -0.066770 0.759266 0.044423 -0.010646 -857379.000000 0 0 1
17.295591 -2.076202 19.734868 26.323242 -0.119471 0.723169 0.032360 0.002500 -579078.000000 0 0 1
17.388491 -3.509402 19.176468 26.123025 -0.199148 0.746481 0.023567 -0.004290 -128970.000000 0 0 1
17.056291 -3.520002 17.820368 24.917323 -0.203518 0.773915 0.034171 -0.012406 236004.000000 0 1 0
16.971691 -4.855002 17.385568 24.776346 -0.278624 0.793015 0.048293 -0.009837 -139080.000000 0 1 0
16.688691 -4.957302 15.822568 23.525325 -0.288744 0.833112 0.042796 -0.017980 -1131490.000000 0 1 0
15.393291 -4.682002 15.442968 22.301565 -0.295268 0.805901 0.035058 -0.015815 -840332.000000 0 1 0
15.131991 -4.727702 14.032268 21.171510 -0.302822 0.846258 0.041835 -0.018149 359246.000000 0 1 0
15.686191 -3.491202 13.241468 20.822621 -0.218996 0.881600 0.046084 -0.015558 -116418.000000 0 1 0
14.857191 -2.395502 13.451768 20.184762 -0.159859 0.841384 0.037887 -0.013833 187988.000000 0 1 0
15.431391 -1.245402 12.895168 20.148553 -0.080531 0.876292 0.042773 -0.013052 272893.000000 0 1 0
14.418791 -0.122802 13.234668 19.572252 -0.008517 0.828210 0.043136 -0.005337 -281709.000000 0 1 0
14.794791 1.181698 12.938768 19.689946 0.079703 0.853797 0.045932 -0.003062 144552.000000 0 1 0
15.799991 1.765598 13.763868 21.028578 0.111285 0.857234 0.061219 -0.010564 31258.600000 0 1 0
16.085491 3.176298 13.260668 21.087371 0.194955 0.890731 0.060711 -0.010229 176328.000000 0 1 0
14.981891 4.079698 13.362968 20.485846 0.265862 0.860178 0.054749 -0.012196 563078.000000 0 1 0
15.277691 5.321998 12.751068 20.599059 0.335205 0.903312 0.069800 -0.016007 67990.500000 0 1 0
14.056191 6.254998 12.677068 19.935134 0.418688 0.881602 0.053517 -0.023208 -155004.000000 0 1 0
14.407891 7.326298 11.855768 20.045478 0.470418 0.937948 0.041704 -0.030384 520515.000000 0 1 0
13.554591 8.449498 12.125468 20.053626 0.557425 0.921467 0.036708 -0.025119 -156266.000000 0 1 0
13.849191 9.341598 13.394268 21.411958 0.593422 0.894959 0.055796 -0.025864 -104768.000000 0 1 0
13.625491 8.813898 14.701168 21.896647 0.574171 0.834715 0.066022 -0.025060 384738.000000 0 1 0
14.024191 9.716098 15.717668 23.197534 0.605884 0.826360 0.068001 -0.026463 -38584.200000 0 1 0
13.629591 9.164498 17.146368 23.743456 0.591959 0.763889 0.069165 -0.021348 -123923.000000 0 1 0
12.252891 9.371798 17.361068 23.224354 0.652947 0.726450 0.057991 -0.024699 -142088.000000 0 1 0
11.677691 8.688798 18.470268 23.516260 0.639683 0.667413 0.063272 -0.021355 -69020.000000 0 1 0
12.171091 9.035898 19.869068 24.991254 0.638624 0.651721 0.067506 -0.017484 -775718.000000 0 1 0
13.456991 8.497498 20.053868 25.601869 0.563228 0.670844 0.064197 -0.016109 -387366.000000 0 0 1
13.946191 8.728098 21.381668 26.978726 0.559204 0.655837 0.057070 -0.006532 391805.000000 0 0 1
15.445691 8.284398 21.379668 27.645810 0.492308 0.686701 0.047941 -0.006270 103045.000000 0 0 1
16.154191 9.223398 20.645568 27.789718 0.518793 0.733373 0.054659 -0.002439 -300626.000000 0 0 1
17.276491 8.680098 19.962768 27.790886 0.465584 0.769411 0.048368 -0.003104 275675.000000 0 0 1
17.983291 9.772898 19.082968 27.983351 0.497795 0.820384 0.040255 -0.002389 -104492.000000 0 0 1
18.643891 10.691198 19.911568 29.297900 0.520663 0.823546 0.016453 -0.003178 317261.000000 0 0 1
19.416091 11.616198 19.123068 29.624523 0.539152 0.869099 0.014238 0.001982 981189.000000 0 0 1
20.499591 12.466698 19.894868 31.168214 0.546386 0.878500 0.003158 0.002242 44285.000000 0 0 1
19.843791 13.498298 20.632468 31.649310 0.597332 0.860697 0.005237 -0.004127 432740.000000 0 0 1
20.545991 14.190898 21.674068 33.064854 0.604450 0.855950 -0.007487 0.009451 -287248.000000 0 0 1
21.879791 14.899798 21.392168 34.034601 0.597850 0.891119 -0.015283 0.007031 462057.000000 0 0 1
22.994891 14.083798 21.040968 34.202934 0.549542 0.908182 -0.018822 0.009372 1310500.000000 0 0 1
24.267191 14.769998 21.062968 35.365209 0.546749 0.932803 -0.009924 0.009923 855794.000000 0 0 1
25.490291 13.862498 20.940368 35.782996 0.498097 0.945664 -0.009437 0.003680 -272793.000000 0 0 1
25.673191 13.280598 19.639368 34.945555 0.477387 0.973996 -0.014008 -0.007488 784084.000000 0 0 1
26.858091 12.456698 19.598268 35.505190 0.434268 0.986056 0.010752 -0.018391 659394.000000 0 0 1
27.047791 11.718398 18.282768 34.686647 0.408836 1.015631 0.019615 -0.016440 -680862.000000 0 0 1
27.572291 12.581498 17.322568 34.908404 0.428088 1.051546 0.018679 -0.024038 88054.300000 0 0 1
27.847691 11.867298 16.135468 34.302769 0.402844 1.081071 0.020882 -0.022875 983496.000000 0 0 1
26.622991 11.571898 15.119768 32.730717 0.410023 1.090610 0.012538 -0.026221 1080500.000000 0 0 1
26.050591 12.751398 14.580568 32.462662 0.455201 1.104984 0.029946 -0.027826 -456902.000000 0 0 1
25.017791 12.395198 13.732468 31.114490 0.460005 1.113691 0.026008 -0.022632 -344442.000000 0 0 1
24.489291 13.510898 12.781368 30.751148 0.504152 1.142151 0.026417 -0.019167 22174.000000 0 0 1
23.796991 14.612198 13.311268 30.935465 0.550676 1.125981 0.016591 -0.027795 93752.900000 0 0 1
23.951391 15.712098 12.554968 31.275652 0.580581 1.157719 0.017679 -0.019118 -832890.000000 0 0 1
23.074691 16.868998 12.923468 31.369101 0.631269 1.146169 0.014053 -0.018005 -1509350.000000 0 0 1
21.743791 16.528598 12.745468 30.140238 0.649967 1.134184 0.025161 -0.021530 -923639.000000 0 0 1
20.931191 17.628298 13.070268 30.326615 0.699950 1.125214 0.028585 -0.017743 -547564.000000 0 0 1
20.068091 18.169898 11.881768 29.564335 0.735797 1.157211 0.045242 -0.006853 255862.000000 0 0 1
18.930691 17.426198 11.539068 28.199176 0.744041 1.149221 0.046400 -0.004463 426564.000000 0 0 1
17.785391 17.358198 12.403168 27.775272 0.773243 1.107886 0.033021 -0.001738 -103715.000000 0 0 1
16.613091 16.699098 11.681168 26.292667 0.787980 1.110432 0.035921 0.002113 -638728.000000 0 0 1
16.649091 15.344598 11.405068 25.352012 0.744647 1.104178 0.039635 -0.005742 -78206.200000 0 0 1
15.454991 14.842098 10.870368 24.027266 0.765171 1.101321 0.039956 -0.013305 -156082.000000 0 1 0
15.759991 13.521198 10.085368 23.084947 0.709088 1.118668 0.049927 -0.017742 -351266.000000 0 1 0
16.016791 12.409198 10.924668 23.018996 0.659161 1.076294 0.063068 -0.015344 414952.000000 0 1 0
16.270691 11.279898 10.201268 22.271896 0.606191 1.095015 0.050217 -0.016341 -580408.000000 0 1 0
16.902891 10.172898 10.974668 22.575184 0.541774 1.063131 0.058748 -0.022972 -1125690.000000 0 1 0
17.397091 9.062198 10.220268 22.118682 0.480230 1.090474 0.056470 -0.021408 810765.000000 0 1 0
18.109291 8.057698 10.982168 22.660118 0.418645 1.064836 0.073770 -0.014447 445557.000000 0 1 0
19.380991 8.466898 11.736168 24.187782 0.411878 1.064192 0.058673 -0.017109 -797259.000000 0 1 0
19.099291 9.279398 12.884568 24.837517 0.452264 1.025403 0.049041 -0.020029 26780.200000 0 1 0
20.262491 9.491898 13.645768 26.208236 0.438088 1.023164 0.047715 -0.014927 -715963.000000 0 0 1
19.883991 9.648698 15.126168 26.781923 0.451778 0.970617 0.038731 -0.005022 578207.000000 0 0 1
19.124891 8.561398 15.726868 26.199110 0.420904 0.926942 0.047694 -0.004490 1125010.000000 0 0 1
17.781991 8.374698 15.303868 24.910703 0.440151 0.909236 0.058845 -0.013727 -163499.000000 0 1 0
17.218891 6.953298 15.649468 24.284654 0.383793 0.870534 0.065121 -0.012702 -308074.000000 0 1 0
16.954891 6.780798 17.056068 24.987137 0.380447 0.819490 0.083606 -0.008856 158748.000000 0 1 0
16.267291 5.607498 17.415568 24.482050 0.331954 0.779364 0.094035 -0.003134 302237.000000 0 1 0
14.733991 5.600898 17.161668 23.302004 0.363265 0.742931 0.094560 -0.025432 532740.000000 0 1 0
14.036291 4.361098 17.561068 22.900387 0.301246 0.696884 0.091943 -0.016555 748896.000000 0 1 0
13.736191 3.562698 16.405468 21.691361 0.253774 0.713137 0.096580 -0.020552 -140101.000000 0 1 0
13.315891 2.106398 16.711868 21.471758 0.156887 0.678813 0.068025 -0.011854 -216760.000000 0 1 0
14.391291 1.335198 17.183768 22.453817 0.092513 0.699299 0.055329 -0.002385 -4985.730000 0 1 0
14.195191 -0.056502 17.035468 22.174621 -0.003980 0.694706 0.045422 -0.000747 -334414.000000 0 1 0
13.220091 -0.899402 17.879968 22.254729 -0.067928 0.637774 0.038181 -0.001321 -732665.000000 0 1 0
11.914891 -0.530802 17.566368 21.232608 -0.044520 0.596459 0.038885 -0.002725 -910058.000000 0 1 0
11.100191 -1.339202 18.407568 21.537090 -0.120066 0.545840 0.027852 -0.002972 -91682.300000 0 1 0
-25.715239 14.336298 28.690858 41.109224 -0.508585 0.798310 0.023884 -0.000622 -146893.000000 0 0 1
-24.661009 14.419598 29.631928 41.159948 -0.529103 0.767107 0.019759 0.003017 -68310.300000 0 0 1
-24.159509 13.148498 29.650398 40.443924 -0.498408 0.747893 0.023786 0.007467 -179481.000000 0 0 1
-23.011809 12.972598 30.703118 40.503248 -0.513328 0.710492 0.017558 0.001395 208583.000000 0 0 1
-23.382109 13.134798 32.086608 41.818612 -0.511816 0.696206 0.017802 -0.006307 -789711.000000 0 0 1
-22.319509 12.937998 32.922201 41.826111 -0.525338 0.664669 0.014407 -0.001578 -882563.000000 0 0 1
-22.750409 13.206798 -34.333536 43.252657 -0.525964 2.487812 0.007676 0.008229 -11370.200000 0 0 1
-23.447009 12.166698 -33.703533 42.821944 -0.478655 2.476828 0.023999 0.004290 -110380.000000 0 0 1
-24.017509 12.581598 -32.504123 42.327950 -0.482546 2.446371 0.009928 0.008935 107535.000000 0 0 1
-24.941409 11.534798 -31.788003 42.019074 -0.433180 2.428762 0.008639 -0.001124 310941.000000 0 0 1
-24.260009 10.460598 -31.111043 40.815060 -0.407099 2.437569 0.023882 -0.008060 528077.000000 0 0 1
-23.731409 9.361398 -31.889033 40.837801 -0.375733 2.466854 0.026604 -0.007749 -326056.000000 0 0 1
-22.877609 8.392398 -31.086103 39.498900 -0.351597 2.476747 0.029971 -0.005763 -553340.000000 0 0 1
-23.546209 7.588098 -30.172113 39.017427 -0.311755 2.454823 0.033680 -0.004140 432215.000000 0 0 1
-22.632909 6.830098 -29.338993 37.678579 -0.293087 2.463332 0.023439 -0.002933 399299.000000 0 0 1
-23.369509 5.975398 -28.268393 37.161019 -0.250329 2.435187 0.024226 0.000156 -108388.000000 0 0 1
-24.049109 4.934598 -28.923863 37.938104 -0.202379 2.437804 0.032200 -0.009930 209299.000000 0 0 1
-24.392409 3.901298 -27.998993 37.338363 -0.158596 2.418665 0.038704 -0.000661 -252856.000000 0 0 1
-25.044809 2.573698 -28.533433 38.052900 -0.102404 2.418610 0.032377 -0.000919 1625670.000000 0 0 1
-26.444129 2.531398 -28.929233 39.275952 -0.095435 2.398772 0.038749 -0.012411 1519560.000000 0 0 1
-26.837299 3.434998 -29.974643 40.379686 -0.127301 2.407322 0.039250 -0.014393 713219.000000 0 0 1
-28.280039 3.147098 -30.568413 41.762336 -0.110827 2.391992 0.049759 -0.018798 873874.000000 0 0 1
-29.388559 3.442998 -29.745373 41.956273 -0.116623 2.358821 0.049293 -0.019955 -429574.000000 0 0 1
-30.599849 3.358298 -30.415733 43.275232 -0.109311 2.350184 0.051889 -0.021912 -275310.000000 0 0 1
-31.105849 4.750498 -30.966443 44.148178 -0.151549 2.348185 0.053291 -0.020848 -464065.000000 0 0 1
-30.218819 5.310998 -31.911593 44.268877 -0.173975 2.375836 0.055667 -0.020332 13785.900000 0 0 1
-30.559349 6.578698 -32.423453 45.038132 -0.212040 2.374471 0.063569 -0.017303 -975314.000000 0 0 1
-30.002059 7.811598 -31.681823 44.326995 -0.254713 2.367034 0.031448 -0.009803 949101.000000 0 0 1
-28.555479 7.818798 -31.569473 43.280256 -0.267260 2.388270 0.040704 -0.011039 1660880.000000 0 0 1
-27.974079 7.218898 -30.377513 41.922009 -0.252547 2.381279 0.023027 -0.011111 -409600.000000 0 0 1
-28.113949 8.152698 -29.113063 41.284755 -0.282246 2.353469 0.011329 -0.007199 -654384.000000 0 0 1
-29.393179 8.499998 -28.669243 41.930113 -0.281503 2.323670 0.011217 -0.005138 -470305.000000 0 0 1
-29.957289 7.448498 -27.963443 41.651812 -0.243696 2.306841 0.021212 0.004305 755958.000000 0 0 1
-31.318399 7.856298 -27.207653 42.223452 -0.245781 2.270999 -0.000865 0.002989 1189190.000000 0 0 1
-31.179749 8.649998 -26.019313 41.521125 -0.270618 2.248046 -0.017533 0.005099 98191.800000 0 0 1
-30.457999 8.140498 -24.896103 40.171798 -0.261165 2.239209 -0.009805 0.006455 -41199.700000 0 0 1
-29.886659 9.202698 -23.983803 39.409705 -0.298707 2.225061 -0.008361 0.003294 -458836.000000 0 0 1
-30.821499 9.922098 -23.192503 39.828445 -0.311445 2.192364 -0.005237 0.000124 62663.300000 0 0 1
-30.186669 10.828298 -22.300903 39.061711 -0.344414 2.178416 -0.004164 -0.000137 -536979.000000 0 0 1
-31.073949 11.680998 -21.400703 39.497166 -0.359568 2.143408 -0.007253 0.001491 -481058.000000 0 0 1
-31.506379 10.948498 -20.252303 39.021498 -0.334447 2.116481 -0.013527 -0.005343 202482.000000 0 0 1
-32.222539 11.748698 -19.306203 39.358016 -0.349632 2.083492 -0.013060 0.001557 84524.800000 0 0 1
-31.413139 12.784598 -18.435303 38.601705 -0.386511 2.068692 -0.016186 0.005180 174220.000000 0 0 1
-30.794689 12.217798 -17.273803 37.362705 -0.377702 2.051415 0.006902 0.009904 514487.000000 0 0 1
-31.722419 11.900198 -16.244903 37.574239 -0.358889 2.017884 0.003914 0.008780 -142432.000000 0 0 1
-32.145849 13.110798 -15.339803 37.954686 -0.387258 1.986858 -0.006783 0.010514 4580.130000 0 0 1
-32.920929 14.133198 -15.981003 39.229164 -0.405513 1.990375 -0.008256 0.006659 308685.000000 0 0 1
-33.745029 14.831398 -15.065503 39.820431 -0.414099 1.958794 -0.012365 0.007034 -42600.000000 0 0 1
-34.345528 16.045598 -15.808403 41.072888 -0.437050 1.965881 -0.013926 0.000311 476701.000000 0 0 1
-35.267388 15.650498 -16.846003 42.101242 -0.417658 1.982456 -0.011571 -0.006291 768389.000000 0 0 1
35.443093 16.785498 -17.296303 42.861730 0.442297 1.986176 -0.008070 -0.006960 -50818.800000 0 0 1
34.983069 16.692598 -18.799203 43.079786 0.445211 2.022369 -0.015755 -0.003081 1312730.000000 0 0 1
33.819929 15.838098 -19.051503 41.923653 0.437973 2.042532 0.007487 -0.007693 1022380.000000 0 0 1
32.592179 16.494898 -18.889003 41.123305 0.468516 2.048033 0.032488 -0.016173 -1024860.000000 0 0 1
31.420849 15.531398 -19.005003 39.870844 0.459079 2.067652 0.035699 -0.022356 -644985.000000 0 0 1
31.144719 15.207398 -20.320603 40.176926 0.454229 2.101080 0.033448 -0.018126 908854.000000 0 0 1
30.094009 14.203098 -20.476003 39.072293 0.440963 2.122401 0.033277 -0.015904 740501.000000 0 0 1
30.502989 12.711798 -20.278803 38.771794 0.394853 2.121198 0.031616 0.001113 -41649.100000 0 0 1
30.697719 12.305998 -18.969003 38.126246 0.381262 2.091547 0.024847 -0.003719 325041.000000 0 0 1
31.513219 11.137198 -18.816303 38.355878 0.339713 2.083542 0.033427 0.001770 249966.000000 0 0 1
31.944519 10.798898 -17.365303 37.929174 0.325991 2.046355 0.029940 0.004161 -13328.900000 0 0 1
30.904229 10.207698 -16.609003 36.539396 0.319019 2.042664 0.035746 -0.003852 189899.000000 0 0 1
31.278649 10.002298 -15.280203 36.219946 0.309504 2.006306 0.014612 -0.002910 -253376.000000 0 0 1
30.867829 11.076698 -14.242903 35.754390 0.344531 1.980518 0.020689 -0.007432 -918602.000000 0 0 1
29.488039 11.027498 -14.074403 34.485344 0.357863 1.991198 0.029448 -0.003581 -465518.000000 0 0 1
29.061189 12.111298 -13.287303 34.172923 0.394864 1.970153 0.024289 -0.009132 -187129.000000 0 0 1
27.557719 12.458198 -13.287803 33.033321 0.424579 1.984774 0.039223 -0.006263 19756.800000 0 0 1
26.775339 11.437798 -12.661303 31.749813 0.403713 1.980986 0.029373 -0.006070 243554.000000 0 0 1
25.380549 11.389198 -12.860503 30.647653 0.421803 2.003828 0.028263 -0.005997 -138142.000000 0 0 1
24.966149 10.678898 -14.132403 30.611636 0.404185 2.050671 0.019315 -0.013959 -1032370.000000 0 0 1
25.198049 9.263098 -14.221703 30.380973 0.352278 2.057950 0.019105 -0.009893 1658930.000000 0 0 1
26.593329 8.946198 -14.475203 31.571682 0.324515 2.047088 0.024428 -0.017739 1083600.000000 0 0 1
27.265329 7.786398 -13.660903 31.474536 0.278174 2.019758 0.029549 -0.014803 -219881.000000 0 0 1
26.858789 6.479098 -13.922403 30.938755 0.236706 2.037560 0.031785 -0.023478 -161477.000000 0 0 1
25.918749 6.046698 -13.003403 29.621489 0.229195 2.025266 0.039929 -0.021850 -688411.000000 0 0 1
25.547949 4.590198 -13.361503 29.194133 0.177773 2.046178 0.036926 -0.018585 -212704.000000 0 0 1
24.867449 3.969298 -12.282703 28.018032 0.158283 2.024598 0.042188 -0.020713 270097.000000 0 0 1
24.414149 2.647098 -12.553003 27.579624 0.108003 2.043343 0.034678 -0.022671 140576.000000 0 0 1
23.579049 2.061198 -11.362503 26.255029 0.087195 2.018364 0.036384 -0.021222 225440.000000 0 0 1
24.372749 1.776798 -10.200903 26.481056 0.072772 1.966237 0.040176 -0.018418 819572.000000 0 0 1
23.568449 1.592698 -9.040703 25.293137 0.067475 1.936318 0.043823 -0.009898 -385084.000000 0 0 1
24.446349 1.503098 -7.725003 25.681880 0.061408 1.876323 0.059948 -0.006386 152758.000000 0 0 1
24.764849 0.204798 -7.250703 25.805278 0.008270 1.855609 0.050369 -0.014237 423896.000000 0 0 1
25.508149 -0.594302 -8.136903 26.781114 -0.023294 1.879506 0.054012 -0.014148 -748390.000000 0 0 1
25.553249 -2.037402 -7.630503 26.745918 -0.079563 1.860112 0.062079 -0.021183 -338975.000000 0 0 1
26.455969 -2.235902 -6.577703 27.352947 -0.084314 1.813652 0.069102 -0.022854 223951.000000 0 0 1
26.486349 -3.603502 -6.214203 27.443182 -0.135221 1.799216 0.077290 -0.028715 -462851.000000 0 0 1
27.727389 -4.158402 -5.502103 28.572251 -0.148865 1.764575 0.080969 -0.021795 -261286.000000 0 0 1
28.891729 -4.277902 -6.253403 29.868671 -0.146999 1.781720 0.072251 -0.016816 826089.000000 0 0 1
30.112159 -4.666702 -5.595403 30.981103 -0.153754 1.752400 0.077355 -0.015557 1562770.000000 0 0 1
31.340319 -4.950402 -6.524903 32.392845 -0.156662 1.773614 0.067649 -0.012323 474908.000000 0 0 1
31.024199 -6.082802 -7.303203 32.447468 -0.193610 1.797819 0.070404 -0.017783 261640.000000 0 0 1
31.798019 -6.139602 -8.484103 33.478183 -0.190734 1.827012 0.065571 -0.015545 -683216.000000 0 0 1
31.082459 -6.846002 -9.648903 33.257906 -0.216792 1.865152 0.058913 -0.010874 208285.000000 0 0 1
29.822899 -6.394402 -10.095603 32.128101 -0.211215 1.890441 0.058121 -0.013292 852417.000000 0 0 1
28.728229 -6.866002 -9.272003 30.958410 -0.234598 1.874963 0.071576 -0.013582 -94809.000000 0 0 1
27.530319 -5.910702 -9.238703 29.634583 -0.211487 1.887835 0.066178 -0.011887 -525560.000000 0 0 1
26.662939 -6.040502 -10.334103 29.226592 -0.222790 1.932198 0.046754 -0.007142 628155.000000 0 0 1
25.507549 -5.203602 -10.348803 28.014465 -0.201241 1.949170 0.046966 -0.010080 332193.000000 0 0 1
24.231949 -5.832902 -9.786003 26.776407 -0.236217 1.944935 0.052368 -0.009111 -1017290.000000 0 0 1
24.308649 -6.207902 -8.427703 26.466481 -0.250034 1.894868 0.057805 -0.014221 1425590.000000 0 0 1
23.061049 -6.761702 -7.961103 25.316235 -0.285215 1.890691 0.043171 -0.019725 945066.000000 0 0 1
21.900649 -5.903902 -7.384203 23.854160 -0.263317 1.885523 0.032315 -0.012053 119787.000000 0 1 0
21.342949 -5.160702 -8.442403 23.525061 -0.237245 1.937852 0.035516 -0.010480 346853.000000 0 1 0
21.298249 -3.809002 -8.136203 23.115400 -0.176970 1.930484 0.027031 -0.010822 -179592.000000 0 1 0
21.265049 -2.875802 -9.404203 23.428862 -0.134421 1.983835 0.030605 -0.004297 -224813.000000 0 1 0
22.563049 -2.820802 -9.939303 24.816080 -0.124373 1.982879 0.042049 -0.009927 440792.000000 0 1 0
22.535149 -2.117102 -11.185703 25.247475 -0.093672 2.029786 0.041856 -0.008339 -400543.000000 0 0 1
23.906249 -2.120402 -11.869603 26.774845 -0.088465 2.030086 0.038634 -0.009429 -440800.000000 0 0 1
24.709749 -1.042802 -11.422603 27.242155 -0.042177 2.003469 0.037176 -0.020736 796698.000000 0 0 1
25.997449 -1.165602 -12.029503 28.669407 -0.044805 2.003794 0.042313 -0.020342 284246.000000 0 0 1
27.066009 -0.127402 -11.602903 29.448471 -0.004707 1.975784 0.045475 -0.006730 293323.000000 0 0 1
28.300359 -0.402502 -12.279203 30.852085 -0.014222 1.980135 0.042163 -0.007474 699742.000000 0 0 1
29.326629 0.537098 -11.979103 31.683411 0.018312 1.958526 0.040543 -0.005162 238689.000000 0 0 1
29.368009 1.771598 -12.899403 32.124961 0.060251 1.983992 0.046028 -0.008852 -291703.000000 0 0 1
29.700249 1.438798 -14.269003 32.981500 0.048406 2.018211 0.050056 -0.014055 507064.000000 0 0 1
29.645189 2.592098 -15.039903 33.342989 0.087216 2.038756 0.051963 -0.012830 -65404.300000 0 0 1
29.870259 2.301898 -16.581303 34.241360 0.076911 2.076300 0.046565 -0.017461 -799510.000000 0 0 1
28.831129 1.595398 -17.113003 33.565371 0.055280 2.105796 0.040457 -0.014091 -838439.000000 0 0 1
28.979669 1.660998 -18.528303 34.436581 0.057253 2.138908 0.035858 -0.011181 141925.000000 0 0 1
27.848699 0.971098 -19.353803 33.927316 0.034856 2.177849 0.011905 -0.005231 5785.040000 0 0 1
27.706459 -0.401102 -19.121103 33.666383 -0.014476 2.174819 0.018220 -0.002679 252447.000000 0 0 1
27.240169 -1.024002 -20.334003 34.008044 -0.037574 2.211697 0.003743 -0.000294 -110576.000000 0 0 1
27.029379 -2.534402 -20.163303 33.816702 -0.093491 2.209622 0.000869 -0.003308 -78199.800000 0 0 1
25.934349 -2.893002 -19.341603 32.481649 -0.111092 2.208638 0.012922 -0.004265 227409.000000 0 0 1
25.696849 -4.299602 -19.253103 32.395935 -0.165784 2.207199 0.010876 -0.005517 -245458.000000 0 0 1
26.535989 -5.055302 -18.205503 32.575376 -0.188252 2.163823 0.005657 -0.000103 928559.000000 0 0 1
27.899309 -5.203802 -18.672603 33.972299 -0.184402 2.152732 -0.005694 0.004084 1243100.000000 0 0 1
28.794579 -5.442802 -17.560103 34.162978 -0.186818 2.110649 0.004178 0.004963 332486.000000 0 0 1
30.267149 -5.322402 -18.008503 35.619299 -0.174068 2.100854 0.004079 0.001121 -243123.000000 0 0 1
30.678189 -6.295302 -18.913103 36.585346 -0.202395 2.114090 -0.012822 0.005581 59196.100000 0 0 1
32.084279 -6.141802 -19.015403 37.798257 -0.189139 2.097951 0.009771 0.006307 67665.700000 0 0 1
32.780609 -7.381902 -19.595203 38.897722 -0.221496 2.098745 0.001877 0.019699 -356226.000000 0 0 1
32.847319 -8.438202 -18.666603 38.711648 -0.251454 2.073956 0.002205 0.011177 -43307.600000 0 0 1
33.392359 -9.548502 -19.311403 39.738568 -0.278516 2.078259 0.004487 0.019029 -372544.000000 0 0 1
34.220929 -10.361702 -18.302303 40.167289 -0.294013 2.043901 0.014717 0.007449 -690516.000000 0 0 1
33.436929 -10.948402 -17.298003 39.206079 -0.316432 2.027740 -0.003211 0.007099 -514.111000 0 0 1
34.202919 -11.571702 -16.291803 39.612710 -0.326236 1.994651 0.018108 -0.005607 -358326.000000 0 0 1
35.145399 -10.770802 -15.312303 39.820546 -0.297377 1.965498 0.038396 -0.007076 -157412.000000 0 0 1
35.662791 -11.462102 -14.186603 40.055888 -0.310974 1.932823 0.028029 -0.004700 348176.000000 0 0 1
-35.103686 -12.668402 -14.405403 40.003410 0.346339 1.939176 0.016003 0.007063 -239398.000000 0 0 1
-33.668189 -12.630702 -14.993503 38.960065 0.358904 1.965834 0.021474 0.004159 -299840.000000 0 0 1
-33.656429 -12.264302 -16.343503 39.373575 0.349443 1.998836 0.031313 0.001176 231668.000000 0 0 1
-32.377339 -12.309502 -16.991303 38.581346 0.363312 2.026843 0.057528 0.000394 239013.000000 0 0 1
-32.216909 -11.615502 -18.346203 38.851413 0.346034 2.062598 0.082201 -0.000324 136687.000000 0 0 1
-32.292089 -10.218702 -18.392703 38.542086 0.306476 2.068274 0.071734 -0.001170 708986.000000 0 0 1
-33.633909 -9.709802 -18.327803 39.514914 0.281049 2.053098 0.050771 -0.000552 292319.000000 0 0 1
-33.725599 -8.183902 -18.453203 39.305381 0.238060 2.059501 0.066553 -0.009269 -427949.000000 0 0 1
-35.051253 -7.743002 -18.414403 40.343954 0.217413 2.044781 0.066290 -0.005126 -344423.000000 0 0 1
-35.209432 -6.364402 -18.301603 40.189033 0.178827 2.043604 0.054968 -0.006534 -160463.000000 0 0 1
23.640291 27.468198 -27.000723 45.192967 0.860156 2.211119 0.027657 0.008197 -369797.000000 0 0 1
24.370391 26.584598 -26.170823 44.559722 0.828825 2.198540 0.025305 0.001132 204040.000000 0 0 1
25.729991 26.576898 -26.588733 45.555731 0.801588 2.194016 0.031825 -0.007848 299926.000000 0 0 1
26.645891 25.629998 -25.784773 45.074991 0.765967 2.179789 0.019530 -0.003711 -402904.000000 0 0 1
26.854591 26.010798 -24.475703 44.685464 0.769438 2.150449 0.027011 0.003614 136934.000000 0 0 1
27.483191 24.979498 -23.729003 44.072289 0.737711 2.139347 0.025267 0.012707 -51304.100000 0 0 1
28.113291 25.537798 -22.456203 44.122753 0.737431 2.104759 0.019649 0.010833 132572.000000 0 0 1
27.120391 26.231498 -21.723403 43.537493 0.768739 2.093193 0.023852 0.015300 424839.000000 0 0 1
27.770091 27.280998 -20.988603 44.226149 0.776514 2.065277 0.009581 0.018497 176334.000000 0 0 1
26.838691 28.288398 -20.290003 43.957173 0.811690 2.050578 0.024124 0.022747 -261779.000000 0 0 1
26.234991 27.810798 -19.119003 42.746363 0.814547 2.034503 0.028493 0.014197 8370.880000 0 0 1
25.433791 28.835498 -18.544103 42.687790 0.847998 2.020182 0.037444 0.007882 -71980.800000 0 0 1
24.628691 28.331298 -17.332003 41.347711 0.855198 2.003335 0.044219 0.004324 154761.000000 0 0 1
23.553991 27.533698 -17.821603 40.379507 0.863141 2.027902 0.042167 0.008822 784777.000000 0 0 1
22.387691 27.582798 -16.986303 39.377074 0.888990 2.016813 0.037613 0.008290 1181600.000000 0 0 1
21.211791 26.614198 -17.344203 38.197866 0.897881 2.042116 0.039409 0.016969 531683.000000 0 0 1
20.612791 26.913698 -18.602503 38.668946 0.917206 2.072672 0.035779 0.013903 4917.980000 0 0 1
19.743691 25.872898 -19.021903 37.696856 0.918962 2.099717 0.037015 0.014222 30449.800000 0 0 1
18.941191 26.159398 -20.302303 38.147953 0.944099 2.131992 0.030533 0.019731 178725.000000 0 0 1
17.847891 27.022198 -20.211603 38.174013 0.987082 2.128760 0.013794 0.016819 -585390.000000 0 0 1
16.877591 26.903998 -21.221503 38.197256 1.010526 2.159853 0.004609 0.020023 -434379.000000 0 0 1
15.804091 27.955998 -21.038403 38.391686 1.056267 2.150760 0.000754 0.017527 -780838.000000 0 0 1
14.996991 27.590998 -19.960303 37.210034 1.072921 2.136989 0.006843 0.017674 -546942.000000 0 0 1
14.256591 28.702198 -19.536903 37.533414 1.109786 2.118256 -0.002521 0.017414 -98080.500000 0 0 1
13.854291 28.520498 -18.027503 36.473978 1.118601 2.087776 0.004852 0.012461 115141.000000 0 0 1
12.943991 27.452798 -17.832003 35.202036 1.130208 2.101989 0.002974 0.012354 -156725.000000 0 0 1
12.290991 27.504498 -16.586803 34.390230 1.150547 2.074088 0.019358 0.006240 -78697.600000 0 0 1
11.345991 26.357398 -16.384503 33.043848 1.164304 2.089600 0.029130 -0.001428 -395345.000000 0 0 1
12.122491 25.204998 -16.087303 32.265276 1.122500 2.092773 0.025865 -0.001265 -174934.000000 0 0 1
11.370391 24.030098 -16.174303 31.118154 1.128840 2.117379 0.037337 -0.003894 -332467.000000 0 0 1
12.185991 22.729898 -16.202603 30.457692 1.078671 2.131723 0.027969 -0.007618 -159887.000000 0 0 1
12.884191 22.547898 -17.385903 31.251875 1.051661 2.160742 0.030956 -0.003214 -435535.000000 0 0 1
13.707491 21.399998 -17.399103 30.799091 1.001102 2.171136 0.035025 -0.001529 185765.000000 0 0 1
12.855791 20.147498 -17.788503 29.793017 1.002844 2.210639 0.035111 -0.008225 643061.000000 0 0 1
11.982491 19.775398 -16.711103 28.529063 1.026029 2.196610 0.037747 -0.012908 -68657.800000 0 0 1
11.543691 18.415898 -16.706503 27.413671 1.010880 2.226128 0.045134 -0.013969 -76204.500000 0 0 1
12.575191 17.278798 -16.926003 27.261362 0.941667 2.240660 0.023991 -0.019068 -59872.800000 0 0 1
13.476391 17.152898 -15.843303 26.960068 0.904859 2.198958 0.041190 -0.021614 593230.000000 0 0 1
14.560091 16.243598 -16.152703 27.143333 0.839997 2.208173 0.037715 -0.021078 430487.000000 0 0 1
15.302391 15.662898 -14.916603 26.495181 0.797040 2.168799 0.061268 -0.007932 -669734.000000 0 0 1
16.168991 16.487098 -14.168503 27.092566 0.795139 2.121124 0.039739 -0.000405 216111.000000 0 0 1
17.506191 16.609998 -14.590203 28.199872 0.759135 2.114589 0.026528 0.001671 -104899.000000 0 0 1
18.381091 15.325998 -14.804203 28.140987 0.695009 2.124772 0.024419 -0.008452 -974138.000000 0 0 1
18.645791 14.409698 -13.745703 27.280932 0.657942 2.098855 0.029503 -0.013100 786199.000000 0 0 1
19.441391 14.985898 -12.663103 27.620626 0.656696 2.047064 0.025298 -0.003091 -80527.500000 0 0 1
20.062091 13.904098 -11.787803 27.106526 0.606049 2.020690 0.027669 -0.007351 -101925.000000 0 0 1
19.157291 13.071698 -11.063403 25.695719 0.598772 2.015903 0.045319 -0.014663 590016.000000 0 0 1
19.899991 12.081898 -10.395403 25.496006 0.545646 1.990759 0.053190 -0.007691 -67355.600000 0 0 1
20.367991 10.855398 -11.219903 25.662832 0.489669 2.023284 0.052706 -0.014992 -1249390.000000 0 0 1
21.342291 11.157598 -12.168803 26.982682 0.481715 2.038666 0.043485 -0.011978 78108.600000 0 0 1
21.646191 10.025898 -12.980303 27.158138 0.433753 2.069119 0.024752 -0.013330 -374621.000000 0 0 1
22.294491 8.789398 -12.269303 26.922735 0.375532 2.043980 0.028145 -0.007446 -886258.000000 0 0 1
21.427491 8.126998 -11.363603 25.579620 0.362517 2.031127 0.029707 -0.015797 783550.000000 0 0 1
22.087391 7.105498 -10.561203 25.492743 0.311244 1.997951 0.024350 -0.005799 -625424.000000 0 0 1
22.228191 5.720598 -11.272003 25.570995 0.251892 2.027300 0.032667 -0.015463 -643941.000000 0 0 1
21.122191 4.882898 -11.415303 24.500996 0.227183 2.055461 0.039546 -0.028904 193863.000000 0 1 0
20.211891 5.288198 -12.447003 24.318994 0.255902 2.108101 -0.000506 -0.026838 146641.000000 0 1 0
19.270191 4.167998 -12.961503 23.594767 0.213011 2.152368 0.014012 -0.035777 458664.000000 0 1 0
19.994891 3.199198 -13.750303 24.476547 0.158656 2.167326 0.025546 -0.030044 433100.000000 0 1 0
19.150191 2.181898 -14.168903 23.921712 0.113447 2.204711 0.036117 -0.018371 -699757.000000 0 1 0
19.893091 1.020098 -14.760103 24.791860 0.051234 2.208511 0.049639 -0.018468 -502071.000000 0 1 0
20.856891 0.449298 -13.904803 25.071006 0.021539 2.158699 0.055379 -0.018124 -321200.000000 0 0 1
22.023391 0.216198 -14.638703 26.445569 0.009816 2.157406 0.034717 -0.025611 -582033.000000 0 0 1
22.354191 -1.186702 -15.177703 27.045901 -0.053037 2.166611 0.033376 -0.014475 -918679.000000 0 0 1
21.387991 -1.651102 -16.055703 26.794736 -0.077045 2.213312 0.029658 -0.012930 -24541.800000 0 0 1
21.986091 -2.536302 -16.989503 27.900972 -0.114852 2.225497 0.027770 -0.013637 -40468.800000 0 0 1
20.929091 -3.140902 -17.928903 27.736937 -0.148962 2.273641 0.022001 -0.008039 -589893.000000 0 0 1
20.114491 -4.037802 -17.289803 26.829720 -0.198108 2.271070 0.037279 -0.008902 -58983.300000 0 0 1
19.272991 -4.752002 -18.189303 26.923604 -0.241741 2.312560 0.045937 -0.012208 347716.000000 0 0 1
18.359291 -5.840802 -17.593403 26.090350 -0.308014 2.310848 0.053265 -0.008303 77771.100000 0 0 1
19.231191 -6.788902 -17.026803 26.567648 -0.339358 2.266447 0.047216 -0.003811 597984.000000 0 0 1
18.540691 -7.888702 -16.413803 25.988493 -0.402278 2.254385 0.054254 0.002417 -142289.000000 0 0 1
19.416291 -8.990102 -15.795503 26.595342 -0.433627 2.206719 0.060521 0.001118 -18520.300000 0 0 1
20.205391 -9.680502 -16.768703 27.984984 -0.446792 2.213302 0.058246 -0.005207 504705.000000 0 0 1
20.971091 -10.702202 -16.184303 28.570185 -0.471878 2.173019 0.051668 -0.008409 -447907.000000 0 0 1
21.705291 -11.555002 -17.211703 30.014670 -0.489198 2.181499 0.040792 -0.008844 -145499.000000 0 0 1
22.771791 -10.946102 -17.913703 30.972122 -0.448078 2.187540 0.031864 -0.002347 215366.000000 0 0 1
23.303491 -11.667002 -19.003803 32.253932 -0.464171 2.200856 0.034565 -0.000798 -191956.000000 0 0 1
22.379091 -11.832002 -20.254903 32.420381 -0.486349 2.245618 0.047242 -0.005552 399023.000000 0 0 1
21.143791 -12.502002 -20.069003 31.719471 -0.533987 2.255835 0.070757 -0.022242 156311.000000 0 0 1
21.183891 -13.917202 -20.056003 32.321649 -0.581260 2.240193 0.061762 -0.014197 -593613.000000 0 0 1
19.791891 -14.500502 -19.736903 31.488551 -0.632303 2.248231 0.061472 -0.017132 -270565.000000 0 0 1
18.947391 -14.016202 -20.740403 31.394615 -0.636904 2.292462 0.060453 -0.008061 -1812180.000000 0 0 1
17.639891 -14.369002 -20.506303 30.629111 -0.683565 2.304337 0.060901 -0.008294 -1073730.000000 0 0 1
16.719991 -13.777902 -21.584403 30.582268 -0.689227 2.354322 0.053125 -0.008920 -409100.000000 0 0 1
16.813791 -14.411002 -22.856503 31.824523 -0.708598 2.372014 0.045762 -0.007833 274898.000000 0 0 1
16.260991 -13.494302 -23.784803 31.815607 -0.692683 2.415212 0.057799 -0.007385 -124625.000000 0 0 1
16.159191 -14.021602 -25.176103 33.038779 -0.714690 2.437218 0.047865 -0.011461 -582820.000000 0 0 1
15.214491 -15.026602 -25.285463 33.115467 -0.779185 2.439596 0.058303 -0.014794 -216234.000000 0 0 1
15.226191 -15.658602 -26.559493 34.386558 -0.799398 2.453376 0.057178 -0.014224 -177303.000000 0 0 1
16.184091 -16.864602 -26.780323 35.546101 -0.805986 2.424009 0.053733 -0.012093 750549.000000 0 0 1
17.552791 -16.468902 -26.966503 36.145781 -0.753550 2.412904 0.044673 -0.010942 691520.000000 0 0 1
18.356891 -17.628502 -27.081813 37.164016 -0.765160 2.387234 0.044598 -0.006061 -308401.000000 0 0 1
19.877791 -17.524102 -27.079053 37.887938 -0.722551 2.367012 0.041626 -0.008448 -343132.000000 0 0 1
20.331491 -16.823402 -25.980983 37.032524 -0.691259 2.348397 0.041413 -0.004138 -558136.000000 0 0 1
21.709991 -16.887202 -25.745653 37.674128 -0.661091 2.323175 0.039781 -0.003135 -400732.000000 0 0 1
22.144491 -16.378502 -24.335103 36.753653 -0.636825 2.294432 0.030778 0.001258 -8173.000000 0 0 1
21.927491 -15.004702 -24.029503 35.824195 -0.600102 2.306032 0.043511 -0.000938 -335626.000000 0 0 1
20.553691 -14.707902 -24.015103 34.864047 -0.621109 2.330658 0.063355 -0.004873 -225924.000000 0 0 1
20.234591 -13.277502 -23.518803 33.747071 -0.580706 2.341882 0.067524 -0.007004 -182763.000000 0 0 1
20.764691 -12.264502 -24.352703 34.273088 -0.533510 2.361074 0.064941 -0.015107 306597.000000 0 0 1
20.525191 -11.032402 -23.713403 33.246396 -0.493200 2.364938 0.064616 -0.011709 56909.800000 0 0 1
20.946491 -9.868602 -24.627403 33.803162 -0.440289 2.387004 0.067281 -0.016891 -45363.200000 0 0 1
20.499791 -8.615302 -24.138803 32.819913 -0.397851 2.397190 0.078094 -0.022169 -36033.200000 0 0 1
20.282991 -7.675802 -25.133783 33.196757 -0.361779 2.429683 0.059436 -0.018873 -276963.000000 0 0 1
19.641391 -6.413202 -24.518903 32.063843 -0.315601 2.441357 0.069926 -0.024936 -682065.000000 0 0 1
18.450591 -6.672402 -23.860103 30.890933 -0.347003 2.453405 0.080586 -0.020939 -637117.000000 0 0 1
18.123691 -5.663602 -22.894203 29.743724 -0.302882 2.449192 0.084733 -0.022941 -42197.800000 0 0 1
18.679991 -6.039402 -21.518903 29.128674 -0.312701 2.402015 0.074728 -0.023877 -276270.000000 0 0 1
17.977791 -6.959002 -20.698703 28.285420 -0.369327 2.391726 0.079402 -0.018387 202139.000000 0 0 1
18.384491 -8.324302 -20.890003 29.046097 -0.425171 2.373449 0.081933 -0.019834 -171575.000000 0 0 1
17.923891 -9.371402 -19.821103 28.318989 -0.481755 2.346086 0.071861 -0.014406 704046.000000 0 0 1
16.494791 -9.443602 -19.811203 27.454390 -0.519969 2.376913 0.059903 -0.013530 475080.000000 0 0 1
16.064691 -10.588302 -19.083903 27.099479 -0.582749 2.352115 0.058940 -0.011441 -37278.500000 0 0 1
14.527791 -10.793202 -18.964303 26.214399 -0.638964 2.379555 0.057258 -0.005684 192927.000000 0 0 1
13.815591 -10.048602 -17.999603 24.815936 -0.628839 2.382302 0.067309 -0.005822 146044.000000 0 1 0
13.850391 -8.641302 -18.161003 24.419817 -0.557810 2.409384 0.067036 -0.015406 -727023.000000 0 1 0
12.719691 -7.890402 -17.412003 22.961420 -0.555234 2.431522 0.059653 -0.001403 114122.000000 0 1 0
11.464691 -7.977802 -18.059503 22.830464 -0.607941 2.483281 0.044377 -0.009330 185342.000000 0 1 0
10.705491 -6.808402 -17.715803 21.790171 -0.566451 2.520113 0.027610 -0.002702 -193006.000000 0 1 0
9.211691 -6.871502 -18.052803 21.400385 -0.640907 2.574700 0.024552 0.001005 -242707.000000 0 1 0
8.896491 -6.799902 -19.463503 22.454714 -0.652613 2.619523 0.023247 -0.002206 -405317.000000 0 1 0
7.583591 -6.328402 -19.552403 21.905615 -0.695418 2.673820 0.021053 -0.008699 -311776.000000 0 1 0
7.129491 -6.039402 -21.016603 23.000035 -0.702809 2.723251 0.023852 -0.009965 107347.000000 0 1 0
7.012291 -7.192802 -21.778103 23.983211 -0.798105 2.709416 0.028076 -0.012567 -258969.000000 0 1 0
6.415291 -6.911402 -22.974503 24.834476 -0.822608 2.752109 0.033708 -0.014584 -390299.000000 0 1 0
6.508791 -7.958602 -24.110803 26.211343 -0.885277 2.738523 0.032783 -0.002608 -248156.000000 0 0 1
5.883991 -9.162002 -23.803603 26.175850 -0.999912 2.712570 0.041335 -0.004941 -55867.900000 0 0 1
5.783591 -9.882302 -24.979403 27.478726 -1.041295 2.711783 0.043907 0.008268 -3043.350000 0 0 1
4.947991 -11.167602 -24.736203 27.587636 -1.153723 2.682920 0.043270 -0.001091 57637.400000 0 0 1
5.591191 -12.178402 -23.952603 27.446349 -1.140395 2.631514 0.043785 -0.011499 582086.000000 0 0 1
4.696291 -13.223402 -23.457203 27.334116 -1.229541 2.602482 0.062453 -0.020062 -4913.770000 0 0 1
5.474191 -14.180802 -22.537503 27.184572 -1.202392 2.548212 0.073651 -0.021758 -95165.400000 0 0 1
6.388791 -15.003202 -23.256003 28.403422 -1.168224 2.530070 0.073696 -0.017736 1054270.000000 0 0 1
7.692791 -14.418002 -23.515903 28.636611 -1.080667 2.534278 0.067899 -0.013129 1637970.000000 0 0 1
8.706191 -14.125602 -22.310403 27.804397 -1.018448 2.502112 0.060670 -0.005104 175933.000000 0 0 1
9.131691 -15.321402 -21.610403 28.020397 -1.033317 2.451581 0.058669 0.001986 473206.000000 0 0 1
8.196691 -15.804302 -20.676303 27.285000 -1.092351 2.430716 0.057557 -0.000787 257864.000000 0 0 1
9.025991 -15.946702 -19.367703 26.662215 -1.055745 2.383880 0.055679 -0.005316 980578.000000 0 0 1
10.057491 -16.942302 -19.341703 27.609712 -1.035072 2.346950 0.070718 -0.010321 62487.100000 0 0 1
10.444691 -17.393502 -18.067903 27.167528 -1.030014 2.298364 0.042921 -0.002358 411711.000000 0 0 1
9.357191 -18.213102 -17.214703 26.751077 -1.096200 2.269877 0.042854 -0.003817 394641.000000 0 0 1
8.954791 -19.515702 -17.681503 27.815220 -1.140607 2.259682 0.038143 -0.006280 130606.000000 0 0 1
8.097991 -19.616502 -18.807603 28.356843 -1.179291 2.295946 0.047635 -0.000510 -258740.000000 0 0 1
6.619591 -19.371502 -18.462703 27.567108 -1.241519 2.304650 0.049144 -0.003022 -693868.000000 0 0 1
6.394091 -18.006202 -18.430403 26.547833 -1.229581 2.338151 0.052429 -0.000661 548173.000000 0 0 1
5.040291 -17.710802 -18.045903 25.782390 -1.293538 2.346098 0.050408 0.002676 833070.000000 0 0 1
4.884391 -16.225802 -17.679403 24.488675 -1.278398 2.377401 0.048855 0.007559 322.166000 0 1 0
5.356891 -15.971502 -16.376903 23.494427 -1.247184 2.342078 0.040055 0.009460 213238.000000 0 1 0
4.980891 -14.666802 -16.009403 22.276116 -1.243414 2.372699 0.023377 0.010403 111536.000000 0 1 0
10.460491 30.219498 -17.963003 36.678460 1.237555 2.082591 0.025132 -0.015258 -438138.000000 0 0 1
9.359291 29.933398 -18.766503 36.548410 1.267756 2.110020 0.042354 -0.011107 -348228.000000 0 0 1
8.442091 29.014598 -18.219803 35.285649 1.287653 2.113382 0.042627 -0.015870 158598.000000 0 0 1
7.406491 28.508398 -19.241803 35.182835 1.316615 2.149464 0.051312 -0.013860 192310.000000 0 0 1
6.549691 29.543198 -19.731603 36.125270 1.352626 2.148617 0.063217 -0.027746 -116411.000000 0 0 1
5.983391 29.105098 -20.938803 36.350257 1.368042 2.184659 0.051696 -0.023038 -411553.000000 0 0 1
4.844691 29.984998 -21.434303 37.175267 1.410610 2.185326 0.060254 -0.033125 539830.000000 0 0 1
3.562491 29.711898 -20.841303 36.467083 1.451465 2.179141 0.060168 -0.026394 -39110.200000 0 0 1
2.591691 30.574498 -21.291003 37.347337 1.486232 2.177401 0.056259 -0.029096 -657377.000000 0 0 1
1.180291 30.257998 -20.715703 36.688961 1.531809 2.170782 0.052399 -0.023017 275347.000000 0 0 1
0.639691 28.969598 -20.987403 35.778735 1.548718 2.197637 0.054507 -0.039482 -81279.400000 0 0 1
0.345891 28.727398 -22.351603 36.400236 1.558756 2.231979 0.062550 -0.037874 -713999.000000 0 0 1
-0.176009 27.329898 -22.591803 35.459045 -1.564356 2.261557 0.065068 -0.038728 -351735.000000 0 0 1
-1.425809 27.102698 -22.014903 34.946318 -1.518237 2.252302 0.062670 -0.039046 -435669.000000 0 0 1
-1.963109 25.850698 -22.361103 34.236403 -1.495002 2.282518 0.060242 -0.051001 28651.900000 0 0 1
-3.127409 25.446698 -21.406703 33.400031 -1.448509 2.266491 0.039958 -0.041066 -117547.000000 0 0 1
-4.240809 26.316398 -21.502503 34.247553 -1.411023 2.249591 0.033579 -0.034932 -405945.000000 0 0 1
-5.176609 25.743198 -20.646503 33.403407 -1.372356 2.237114 0.026881 -0.029832 -930303.000000 0 0 1
-6.125209 26.798398 -20.093403 34.050215 -1.346090 2.201993 0.033802 -0.028490 -524651.000000 0 0 1
-7.155209 26.197198 -19.364803 33.353947 -1.304171 2.190243 0.042342 -0.027618 -489946.000000 0 0 1
-7.987809 27.156798 -18.702903 33.927796 -1.284727 2.154665 0.040544 -0.030778 535135.000000 0 0 1
-9.237609 26.560098 -18.024903 33.401637 -1.236083 2.140807 0.051415 -0.026422 39525.200000 0 0 1
-9.051109 25.892098 -16.823103 32.176701 -1.234504 2.120970 0.052177 -0.022278 91108.700000 0 0 1
-10.300109 25.376298 -16.345103 31.893748 -1.185219 2.108874 0.029941 -0.018453 765512.000000 0 0 1
-10.126509 24.555098 -15.025303 30.516532 -1.179647 2.085602 0.031188 -0.011337 33320.100000 0 0 1
-9.672709 23.218998 -15.208603 29.393618 -1.176074 2.114620 0.034819 -0.011897 -264060.000000 0 0 1
-9.799209 22.575598 -13.997203 28.312609 -1.161275 2.087918 0.051800 -0.007860 -117578.000000 0 0 1
-9.150709 21.139098 -13.790403 26.847200 -1.162270 2.110245 0.054382 -0.005893 -224475.000000 0 0 1
-9.825009 20.003998 -14.408203 26.538407 -1.114252 2.144705 0.033730 -0.008918 -49823.200000 0 0 1
-10.158309 20.007298 -15.810903 27.449369 -1.100984 2.184626 0.052840 -0.006802 -358590.000000 0 0 1
-9.061309 20.025698 -16.873003 27.709820 -1.145879 2.225492 0.042165 -0.011130 -321373.000000 0 0 1
-8.332709 18.817498 -16.893003 26.625285 -1.153932 2.258122 0.042833 -0.011237 -219935.000000 0 0 1
-7.343409 18.802698 -17.910103 26.985902 -1.198462 2.296529 0.035452 -0.014164 244574.000000 0 0 1
-6.728809 17.351098 -17.922703 25.837197 -1.200849 2.337380 0.023169 -0.015251 393998.000000 0 0 1
-7.659809 16.334498 -18.325703 25.716141 -1.132309 2.364015 0.031136 -0.016067 15696.700000 0 0 1
-7.590909 15.894898 -19.637803 26.380163 -1.125254 2.410455 0.036629 -0.015874 -29460.000000 0 0 1
-6.303409 15.113398 -19.939903 25.802083 -1.175658 2.454041 0.020142 -0.003464 -183048.000000 0 0 1
-6.275509 13.881598 -19.202703 24.511723 -1.146219 2.470928 0.003872 0.000655 -1516800.000000 0 1 0
-5.060909 13.294798 -19.126103 23.836364 -1.207065 2.502089 0.008119 0.017977 -1253200.000000 0 1 0
-4.272709 13.577198 -17.833203 22.817087 -1.265911 2.467979 0.004303 0.015550 -319647.000000 0 1 0
-3.791309 14.876898 -17.700903 23.431135 -1.321263 2.427127 0.001978 -0.004402 -595485.000000 0 1 0
-3.539709 15.161798 -16.366503 22.589203 -1.341442 2.381145 0.010418 0.003639 103043.000000 0 1 0
-2.770109 16.519398 -16.162403 23.276325 -1.404654 2.338342 0.034375 -0.005228 194444.000000 0 1 0
-3.513609 17.700498 -16.428203 24.403666 -1.374840 2.309305 0.021117 -0.010476 -86295.600000 0 1 0
-2.700609 18.855798 -16.495203 25.197741 -1.428539 2.284490 0.035145 -0.017470 -82406.900000 0 0 1
-3.396409 20.000898 -17.207703 26.602191 -1.402588 2.274247 0.052282 -0.022882 -16923.200000 0 0 1
-3.574909 19.693698 -18.566103 27.300584 -1.391226 2.318644 0.041782 -0.029469 -221925.000000 0 0 1
-4.035009 20.735998 -19.385003 28.671262 -1.378608 2.313270 0.055277 -0.025869 9204.260000 0 0 1
-3.056009 21.943698 -19.646003 29.611324 -1.432420 2.296233 0.048646 -0.025241 -891628.000000 0 0 1
-1.941309 21.574398 -20.382303 29.743261 -1.481056 2.325777 0.062551 -0.027781 -801913.000000 0 0 1
-0.916009 22.534098 -20.268903 30.322485 -1.530169 2.302912 0.064353 -0.029813 415650.000000 0 0 1
0.058691 22.312198 -19.048303 29.337271 1.568166 2.277443 0.081848 -0.029922 -162450.000000 0 0 1
-0.478309 22.659098 -17.798003 28.817224 -1.549691 2.236505 0.081840 -0.028313 69970.100000 0 0 1
0.439791 22.219198 -16.776703 27.844998 1.551006 2.217430 0.082374 -0.027791 392635.000000 0 0 1
-0.124609 22.467098 -15.380003 27.227385 -1.565250 2.171075 0.081518 -0.026902 475842.000000 0 0 1
-1.125909 21.480398 -15.022003 26.236153 -1.518429 2.180432 0.066172 -0.015425 343341.000000 0 0 1
-1.154409 21.304498 -13.619903 25.312370 -1.516663 2.138946 0.086148 -0.016478 144907.000000 0 0 1
-1.876809 20.037898 -13.093303 24.009880 -1.477406 2.147579 0.051750 -0.011240 109949.000000 0 1 0
-1.134409 18.815498 -13.175603 22.997964 -1.510578 2.180840 0.051232 -0.007908 -400827.000000 0 1 0
-1.884609 17.674998 -12.870803 21.945726 -1.464572 2.197507 0.030223 -0.006401 -213064.000000 0 1 0
-1.248209 16.271398 -12.984303 20.854461 -1.494234 2.242876 0.012793 0.001242 -649348.000000 0 1 0
-0.205209 15.916398 -12.104303 19.997199 -1.557904 2.220939 0.021287 -0.001148 64506.800000 0 1 0
0.204191 14.550798 -12.190703 18.983694 1.556764 2.268118 0.020261 0.005379 320388.000000 0 1 0
0.706891 13.983498 -13.560303 19.491530 1.520288 2.340194 0.015605 0.002676 -1091560.000000 0 1 0
-0.304609 13.579898 -14.397203 19.793582 -1.548369 2.385274 0.019495 -0.011597 -781362.000000 0 1 0
0.150091 12.707598 -15.366003 19.940402 1.558986 2.450573 0.025235 -0.010038 -161783.000000 0 1 0
-0.401709 12.858398 -16.838803 21.190683 -1.539566 2.489198 0.014796 0.003257 8983.680000 0 1 0
0.011291 14.039398 -17.478203 22.418573 1.569992 2.464872 0.027282 -0.003206 50481.600000 0 1 0
-0.350209 14.084298 -18.862503 23.543239 -1.545936 2.500070 0.030433 0.001496 -206723.000000 0 1 0
-1.080509 15.363698 -19.212903 24.624101 -1.500583 2.465858 0.031192 -0.010905 -210513.000000 0 1 0
-0.170109 16.431998 -19.385603 25.413404 -1.560444 2.438444 0.033813 -0.011043 75396.200000 0 0 1
-0.840409 17.607998 -19.805303 26.514108 -1.523104 2.414293 0.046545 -0.022882 130206.000000 0 0 1
0.174691 18.719698 -20.125603 27.486315 1.561465 2.392349 0.058367 -0.021965 50270.400000 0 0 1
0.867491 18.368298 -21.302203 28.141264 1.523604 2.429466 0.061248 -0.020924 222612.000000 0 0 1
1.767391 19.469798 -21.585703 29.122831 1.480268 2.405645 0.065163 -0.020150 481987.000000 0 0 1
2.239391 19.441698 -23.085903 30.264722 1.456117 2.438427 0.068372 -0.025968 -357514.000000 0 0 1
3.279191 18.554198 -23.275803 29.946191 1.395867 2.461086 0.057450 -0.024600 -688778.000000 0 0 1
3.633391 18.562398 -24.650903 31.071388 1.377501 2.487111 0.064192 -0.034220 303303.000000 0 0 1
4.531091 17.383998 -25.114793 30.878585 1.315822 2.520667 0.047861 -0.016854 -182706.000000 0 0 1
5.780091 17.318798 -24.426703 30.496131 1.248674 2.499722 0.033245 -0.012651 69997.000000 0 0 1
6.602991 16.275598 -24.836803 30.419753 1.185387 2.526066 0.028628 -0.010747 -108032.000000 0 0 1
7.199691 16.390598 -26.238123 31.763601 1.156912 2.542848 0.023719 -0.019320 -1457240.000000 0 0 1
8.284191 17.315898 -26.364323 32.612048 1.124565 2.512264 0.002888 -0.010896 477379.000000 0 0 1
8.669691 17.422198 -27.710943 33.861377 1.109052 2.529355 0.010278 -0.016480 -4023.650000 0 0 1
9.364491 16.233898 -28.424053 34.046438 1.047574 2.558677 0.000776 -0.018650 -325992.000000 0 0 1
10.717691 16.079998 -28.000203 34.021267 0.982893 2.537505 0.015621 -0.016253 127372.000000 0 0 1
11.114091 14.764898 -28.236893 33.746813 0.925546 2.562076 0.007236 -0.014627 -299603.000000 0 0 1
10.598191 13.688998 -27.203373 32.244904 0.911979 2.574840 0.011864 -0.012975 -1145460.000000 0 0 1
9.230591 13.630998 -27.050393 31.665939 0.975553 2.594888 0.030402 -0.009923 -1021520.000000 0 0 1
8.761391 12.795898 -26.033293 30.302299 0.970411 2.604343 0.031805 0.000603 1376890.000000 0 0 1
7.289691 12.193298 -26.172323 29.779298 1.031964 2.644298 0.035924 -0.008163 1039120.000000 0 0 1
6.302191 13.178698 -26.211433 30.007248 1.124732 2.633149 0.045094 -0.008790 -719813.000000 0 0 1
5.067991 12.513598 -26.115563 29.398934 1.185988 2.664463 0.058424 -0.016782 -562268.000000 0 0 1
3.807191 13.310998 -26.356353 29.771374 1.292215 2.657917 0.072774 -0.017957 -653681.000000 0 0 1
3.468091 13.641298 -27.692323 31.064086 1.321836 2.671349 0.072245 -0.020246 214105.000000 0 0 1
4.150591 14.793298 -28.166483 32.084573 1.297257 2.642218 0.076027 -0.022524 -131822.000000 0 0 1
4.137991 14.875898 -29.681513 33.457548 1.299488 2.661906 0.082565 -0.030290 -321868.000000 0 0 1
5.033591 13.918498 -30.144803 33.582298 1.223783 2.685181 0.079355 -0.027052 -332139.000000 0 0 1
4.776191 13.646598 -31.499483 34.659184 1.234129 2.711279 0.070241 -0.022019 109876.000000 0 0 1
5.871991 12.649698 -32.100473 34.999079 1.136197 2.731742 0.057266 -0.010138 813238.000000 0 0 1
7.226591 13.048198 -32.042253 35.343812 1.065011 2.705922 0.051923 -0.007266 137796.000000 0 0 1
7.836291 13.067498 -30.758693 34.325853 1.030614 2.681653 0.046869 -0.012554 -774732.000000 0 0 1
7.916991 11.789998 -29.911423 33.111569 0.979455 2.698319 0.052097 -0.006885 -480109.000000 0 0 1
8.871991 10.903598 -30.428833 33.518869 0.887772 2.708833 0.022260 0.005113 -215205.000000 0 0 1
8.554291 9.578998 -30.026863 32.658010 0.841848 2.737433 0.024960 0.004719 41404.400000 0 0 1
9.587391 8.495598 -30.429093 33.015496 0.725095 2.743136 0.016199 0.007911 -469242.000000 0 0 1
10.793491 8.652898 -29.757943 32.816265 0.675763 2.706438 0.016922 0.004952 -733266.000000 0 0 1
11.444791 7.416998 -29.688143 32.670796 0.575016 2.710970 0.006834 0.005854 -567940.000000 0 0 1
12.619891 7.396298 -28.680863 32.195633 0.530123 2.669967 0.008643 0.017579 662249.000000 0 0 1
13.404491 6.204998 -28.418553 32.028058 0.433533 2.662258 0.024998 0.002766 510818.000000 0 0 1
14.259891 5.865598 -29.479503 33.268466 0.390240 2.659679 0.016747 0.001446 -573960.000000 0 0 1
15.128491 4.604198 -29.211343 33.217050 0.295433 2.645414 0.020967 -0.003638 120356.000000 0 0 1
15.913991 4.688198 -28.042773 32.582686 0.286492 2.607370 0.015336 -0.006588 -305770.000000 0 0 1
16.668391 3.552498 -27.856123 32.656073 0.209986 2.592532 0.033615 -0.012133 -248720.000000 0 0 1
17.547591 3.835098 -26.587683 32.086303 0.215171 2.547453 0.021801 -0.006026 244748.000000 0 0 1
18.528591 4.876698 -26.675443 32.843114 0.257362 2.518724 0.022622 -0.008553 478028.000000 0 0 1
19.139491 5.095198 -25.408253 32.215842 0.260180 2.479469 0.021690 -0.004876 -365194.000000 0 0 1
20.273891 6.098398 -25.475283 33.124178 0.292191 2.448203 0.015144 -0.000893 -837033.000000 0 0 1
19.808791 7.383198 -25.724573 33.296448 0.356773 2.453710 0.025226 -0.003336 -31167.500000 0 0 1
20.720691 8.226798 -26.407423 34.559792 0.377946 2.440454 0.034096 -0.013436 -655563.000000 0 0 1
20.703391 8.217398 -27.931763 35.725893 0.377840 2.468400 0.042044 -0.012537 303711.000000 0 0 1
19.491891 8.571098 -28.604323 35.659569 0.414278 2.501683 0.043248 -0.007994 189116.000000 0 0 1
18.552191 7.509898 -28.632333 34.934122 0.384636 2.531525 0.048093 -0.004758 243669.000000 0 0 1
17.157391 8.103998 -29.061583 34.707729 0.441270 2.563165 0.038507 0.003092 255875.000000 0 0 1
16.973991 8.312498 -30.461353 35.848403 0.455390 2.586263 0.033342 0.006452 24564.300000 0 0 1
15.895191 9.120198 -30.846173 35.879263 0.520910 2.605520 0.014234 0.006587 -89717.900000 0 0 1
15.287091 8.902198 -32.281773 36.811101 0.527329 2.640291 0.004701 0.014268 294521.000000 0 0 1
14.667391 7.617898 -32.453823 36.419986 0.479028 2.670558 0.003611 0.016951 267465.000000 0 0 1
13.347091 7.809698 -32.923823 36.374639 0.529409 2.702485 -0.000317 0.017179 222440.000000 0 0 1
12.693191 6.501098 -33.475533 36.386710 0.473338 2.738860 -0.001435 0.011850 122516.000000 0 0 1
12.471591 5.500698 -32.479633 35.223924 0.415393 2.744244 0.009396 0.005208 34094.600000 0 0 1
11.858291 4.344598 -32.959213 35.295953 0.351189 2.775675 0.012118 -0.009115 -73918.500000 0 0 1
11.542391 3.349698 -31.833143 34.026405 0.282450 2.780588 0.015440 -0.012146 -432840.000000 0 0 1
12.717291 2.660798 -31.465813 34.042719 0.206252 2.750004 0.020566 -0.014766 76599.900000 0 0 1
12.566191 1.602898 -30.526483 33.050637 0.126871 2.748236 0.021931 -0.012039 -27531.300000 0 0 1
11.820191 0.359498 -31.173983 33.341616 0.030405 2.779019 0.024672 -0.009702 -121055.000000 0 0 1
12.490691 -0.557702 -31.984203 34.341194 -0.044620 2.768942 0.029105 -0.010898 169364.000000 0 0 1
13.466591 -1.331902 -31.255303 34.059022 -0.098584 2.732999 0.032316 -0.013992 301496.000000 0 0 1
13.932291 -2.592602 -31.945773 34.948000 -0.183981 2.724065 0.028175 -0.018930 -181384.000000 0 0 1
13.079991 -3.728402 -31.890363 34.669618 -0.277682 2.738459 0.041988 -0.016362 -43997.300000 0 0 1
13.463691 -4.807802 -32.689133 35.678640 -0.342981 2.729314 0.039366 -0.020131 -109263.000000 0 0 1
12.752691 -6.175202 -32.420533 35.381566 -0.450950 2.729567 0.049749 -0.018530 -110966.000000 0 0 1
13.044391 -6.734502 -31.194693 34.476347 -0.476583 2.701740 0.050581 -0.010147 111114.000000 0 0 1
12.661491 -8.085502 -31.216333 34.643154 -0.568312 2.693055 0.063208 -0.018057 -65565.400000 0 0 1
13.113791 -8.775202 -29.923473 33.828833 -0.589726 2.656336 0.049032 -0.014620 1599070.000000 0 0 1
14.574691 -8.920202 -29.863943 34.407073 -0.549221 2.621875 0.074062 -0.014235 1719130.000000 0 0 1
15.022391 -9.435502 -28.686503 33.728569 -0.560822 2.587752 0.091813 -0.008232 -152141.000000 0 0 1
14.929191 -10.982602 -28.510003 34.004684 -0.634251 2.565163 0.074550 -0.010341 356336.000000 0 0 1
13.583291 -11.472602 -28.427383 33.529725 -0.701357 2.582669 0.061995 -0.011540 639909.000000 0 0 1
13.477291 -12.836902 -28.806683 34.296478 -0.761067 2.567953 0.073333 -0.019404 178118.000000 0 0 1
-10.324709 -3.183402 -18.221103 21.183537 0.299080 2.606368 0.029659 0.018171 491383.000000 0 1 0
-11.158309 -2.615102 -19.239503 22.394309 0.230209 2.604353 0.034758 0.012915 175539.000000 0 1 0
-12.142409 -3.493302 -19.742003 23.439026 0.280129 2.572278 0.033514 0.014357 -416094.000000 0 1 0
-12.907509 -2.786502 -20.821703 24.655865 0.212619 2.576414 0.026074 -0.007680 -35896.500000 0 1 0
-13.702409 -1.657302 -20.483103 24.699396 0.120365 2.548642 0.009176 0.000274 59759.600000 0 1 0
-14.726209 -1.298102 -21.367303 25.982839 0.087922 2.536347 0.017104 -0.003493 353908.000000 0 0 1
-15.343809 0.099898 -21.117603 26.103555 -0.006511 2.513234 0.026045 0.006948 -8941.940000 0 0 1
-14.380009 1.090998 -21.304803 25.726826 -0.075724 2.546535 0.030815 0.003481 -301925.000000 0 0 1
-14.940709 2.349198 -21.104803 25.964518 -0.155958 2.519795 0.024273 0.017885 -23531.000000 0 0 1
-14.313109 3.558998 -21.859103 26.369527 -0.243711 2.548030 0.037517 -0.001422 283320.000000 0 0 1
-13.123109 4.090798 -21.298703 25.349267 -0.302178 2.568466 0.033399 -0.004629 301391.000000 0 0 1
-12.764109 5.289898 -21.916003 25.907850 -0.392888 2.579087 0.038961 -0.012680 -309007.000000 0 0 1
-11.582909 6.018398 -21.274703 24.959925 -0.479199 2.591267 0.026726 -0.009860 -344907.000000 0 1 0
-11.884809 6.549398 -20.020303 24.185860 -0.503667 2.545916 0.035801 -0.013663 1374480.000000 0 1 0
-10.707509 6.570798 -19.165903 22.916325 -0.550405 2.561374 0.021642 -0.007647 838101.000000 0 1 0
-11.102709 7.047998 -17.728903 22.073931 -0.565615 2.503377 0.025550 -0.008809 380753.000000 0 1 0
-11.755909 8.330798 -17.831803 22.925461 -0.616506 2.461980 0.031207 -0.005964 -274692.000000 0 1 0
-12.764309 8.419698 -16.894203 22.786684 -0.583114 2.405961 0.043287 -0.003161 -845630.000000 0 1 0
-13.447009 9.766498 -17.024503 23.791600 -0.628157 2.368233 0.049149 0.002955 -430012.000000 0 1 0
-12.817209 10.754698 -16.224503 23.306198 -0.698122 2.340810 0.027177 0.004970 17801.800000 0 1 0
-13.473409 11.987198 -16.212403 24.250107 -0.727091 2.303053 0.045053 -0.005743 -583214.000000 0 1 0
-12.690109 13.118698 -15.576303 23.995006 -0.802003 2.277260 0.043449 -0.000798 -493868.000000 0 1 0
-12.593609 13.148298 -14.181403 23.077888 -0.806943 2.232551 0.051954 -0.006070 -364935.000000 0 1 0
-11.977009 14.303598 -13.691603 23.140909 -0.873697 2.203916 0.047851 -0.014997 -1433460.000000 0 1 0
-12.438509 14.668098 -12.231103 22.791873 -0.867466 2.137250 0.026168 -0.015862 -276594.000000 0 1 0
-13.738609 15.135898 -12.101803 23.754966 -0.833752 2.105334 0.018389 -0.015419 -386401.000000 0 1 0
-14.766009 14.222498 -12.494603 24.008948 -0.766651 2.118133 0.025299 -0.011107 -1639460.000000 0 1 0
-16.156609 14.757398 -12.187603 25.047045 -0.740168 2.078977 0.017503 -0.002510 -656878.000000 0 0 1
-17.164709 13.900398 -12.662503 25.459522 -0.680703 2.091347 0.019745 -0.001975 705765.000000 0 0 1
-18.406509 14.124798 -11.964603 26.104812 -0.654532 2.046911 0.073660 -0.008549 863115.000000 0 0 1
-19.707509 13.511398 -12.524403 26.977851 -0.600994 2.053581 0.065284 -0.006750 11117.900000 0 0 1
-19.900309 12.102898 -12.276203 26.328836 -0.546410 2.055860 0.070327 -0.008418 525692.000000 0 0 1
-21.158809 11.785098 -12.869003 27.426173 -0.508189 2.059208 0.087895 -0.007349 20673.900000 0 0 1
-21.806309 10.536798 -12.400403 27.208624 -0.450117 2.044014 0.078147 -0.008437 -13444.800000 0 0 1
-21.035409 9.330098 -12.624403 26.247185 -0.417471 2.072570 0.069375 -0.006137 754453.000000 0 0 1
-21.606909 8.288498 -11.821803 25.986780 -0.366293 2.043074 0.062171 -0.004459 231799.000000 0 0 1
-20.706109 7.019598 -11.794303 24.841966 -0.326852 2.065503 0.069837 -0.002836 100716.000000 0 1 0
-20.634209 6.435298 -13.056203 25.251694 -0.302316 2.114189 0.075036 -0.003019 180545.000000 0 0 1
-19.509709 5.592998 -13.080003 24.145328 -0.279190 2.143278 0.063310 -0.005101 -208776.000000 0 1 0
-19.549609 4.418698 -14.079403 24.493707 -0.222290 2.183177 0.067671 -0.010926 -294065.000000 0 1 0
-20.215709 3.246598 -13.660203 24.613338 -0.159238 2.159150 0.061922 -0.017028 274637.000000 0 1 0
-19.957509 2.124498 -14.514803 24.768834 -0.106052 2.196923 0.063383 -0.026133 -379684.000000 0 1 0
-20.813209 0.885798 -14.223903 25.224863 -0.042534 2.169878 0.058335 -0.018580 55577.700000 0 0 1
-22.119009 0.886298 -14.777603 26.616041 -0.040048 2.159417 0.062917 -0.021993 373244.000000 0 0 1
-22.575309 -0.456102 -14.669403 26.926641 0.020201 2.146937 0.057464 -0.025394 -1074770.000000 0 0 1
-23.819109 -0.825502 -15.440303 28.397788 0.034643 2.145654 0.064724 -0.020293 -147804.000000 0 0 1
-24.951209 -0.220002 -14.763003 28.992369 0.008817 2.105055 0.083543 -0.033353 114896.000000 0 0 1
-26.122029 -0.702602 -15.336703 30.299645 0.026890 2.101532 0.076895 -0.022523 -267516.000000 0 0 1
-27.458019 -0.162202 -14.779003 31.183137 0.005907 2.064559 0.073906 -0.023912 38474.700000 0 0 1
-27.817919 -0.517902 -13.402603 30.882594 0.018615 2.019708 0.082262 -0.019006 253267.000000 0 0 1
-29.100639 -0.045302 -13.029303 31.884353 0.001557 1.991763 0.087828 -0.021372 400618.000000 0 0 1
-29.566919 -0.672402 -11.638503 31.782221 0.022738 1.945713 0.088373 -0.018261 21640.700000 0 0 1
-29.797809 -2.060502 -11.440203 31.984892 0.069040 1.936574 0.098598 -0.017305 27051.800000 0 0 1
-28.703999 -2.893402 -11.672003 31.121166 0.100462 1.955247 0.100231 -0.023834 -515153.000000 0 0 1
-28.999319 -4.358102 -11.329303 31.437345 0.149167 1.939469 0.090104 -0.015869 -28073.300000 0 0 1
-29.886429 -5.034902 -12.226703 32.680899 0.166901 1.954248 0.083376 -0.010005 577911.000000 0 0 1
-30.421239 -6.203402 -11.591703 33.140633 0.201159 1.928125 0.073430 -0.010676 136288.000000 0 0 1
-29.577179 -7.493802 -11.850703 32.732335 0.248143 1.941261 0.068046 -0.011905 745877.000000 0 0 1
-28.210699 -7.479802 -11.444803 31.349234 0.259177 1.944509 0.059338 -0.005597 532536.000000 0 0 1
-27.514499 -8.596302 -11.931803 31.197948 0.302819 1.963248 0.062200 -0.009930 581903.000000 0 0 1
-25.991929 -8.591102 -11.554503 29.713531 0.319225 1.970194 0.059805 -0.019211 255200.000000 0 0 1
-25.244289 -7.519702 -12.129503 28.999050 0.289508 2.002339 0.056144 -0.014325 1780550.000000 0 0 1
-23.849009 -7.476002 -11.709503 27.600331 0.303770 2.008932 0.062969 -0.020186 1252980.000000 0 0 1
-23.617909 -7.107402 -10.196103 26.688599 0.292312 1.962799 0.053952 -0.020301 -818204.000000 0 0 1
-23.962209 -5.755702 -9.773503 26.511072 0.235733 1.948361 0.052472 -0.008583 1423930.000000 0 0 1
-25.361819 -5.655402 -9.453903 27.651071 0.219399 1.919734 0.053883 -0.010481 451365.000000 0 0 1
-25.837549 -4.348902 -8.851503 27.655759 0.166754 1.896589 0.065624 -0.020202 -320741.000000 0 0 1
-25.623119 -4.279702 -7.441703 27.022935 0.165497 1.849786 0.054611 -0.009758 342565.000000 0 0 1
-25.807889 -2.978402 -6.969603 26.897832 0.114898 1.832901 0.072583 -0.014441 -47066.600000 0 0 1
-25.621809 -2.972202 -5.438203 26.360674 0.115487 1.778588 0.066131 -0.006968 437714.000000 0 0 1
-24.287409 -3.250202 -5.004603 25.009760 0.133032 1.772262 0.041867 -0.004705 526507.000000 0 0 1
-24.218809 -3.140102 -3.570203 24.681112 0.128936 1.715959 0.026735 -0.004238 -259118.000000 0 1 0
-22.962309 -3.797302 -2.992503 23.465767 0.163888 1.698671 0.018006 0.004149 -212178.000000 0 1 0
-22.886409 -5.182902 -3.152203 23.676709 0.222706 1.704328 0.033526 0.000338 695774.000000 0 1 0
-21.574609 -5.635102 -2.830503 22.477319 0.255484 1.697059 0.030995 -0.006848 440416.000000 0 1 0
-21.594809 -7.180802 -2.746403 22.922531 0.321022 1.690897 0.049398 -0.005215 26150.600000 0 1 0
-22.155409 -7.697802 -1.546403 23.505524 0.334397 1.636633 0.047830 0.006830 479816.000000 0 1 0
-22.867309 -8.896002 -1.790203 24.601981 0.371011 1.643627 0.050515 0.000314 123053.000000 0 1 0
-23.195309 -9.684902 -0.456003 25.140159 0.395533 1.588936 0.039606 -0.007280 391823.000000 0 0 1
-22.038709 -10.348102 0.054997 24.347298 0.438986 1.568537 0.030419 0.004664 480256.000000 0 1 0
-22.303609 -11.104802 1.227997 24.945452 0.461960 1.521549 0.017371 0.002871 -430330.000000 0 1 0
-20.979109 -11.509302 1.840597 23.999476 0.501774 1.494028 0.014565 0.003588 -563768.000000 0 1 0
-20.312909 -12.473602 1.111297 23.862942 0.550703 1.524209 0.023998 0.007437 -206904.000000 0 1 0
-19.167309 -12.932902 1.781997 23.190972 0.593569 1.493880 0.004585 0.007352 -179707.000000 0 1 0
-18.424909 -14.085302 1.113797 23.218819 0.652698 1.522808 0.009127 0.011917 -231178.000000 0 1 0
-19.201109 -15.287502 1.088697 24.567775 0.672406 1.526468 0.019828 0.009537 614431.000000 0 1 0
-18.511709 -16.396902 0.483997 24.734106 0.724891 1.551227 0.012117 0.001368 355147.000000 0 1 0
-17.290009 -17.032402 1.200597 24.299970 0.777893 1.521369 0.012355 0.001898 602359.000000 0 1 0
-16.078509 -16.279702 1.061097 22.905743 0.791616 1.524455 0.009862 0.000874 1097930.000000 0 1 0
-14.957509 -16.754802 1.838897 22.535128 0.842013 1.489104 0.017654 -0.011620 771775.000000 0 1 0
-14.857609 -16.610002 3.374297 22.539445 0.841029 1.420525 0.015818 -0.012977 -408367.000000 0 1 0
-14.725809 -15.245802 3.793897 21.533174 0.802746 1.393683 0.008322 -0.016341 -108610.000000 0 1 0
-13.888809 -15.066902 4.908697 21.071446 0.826062 1.335681 -0.010175 -0.013140 -302342.000000 0 1 0
-14.438309 -15.403302 6.307497 22.034314 0.817724 1.280477 0.026567 -0.011967 -742577.000000 0 1 0
-15.395109 -14.514502 6.880097 22.248952 0.755964 1.256411 0.020540 -0.010476 389073.000000 0 1 0
-15.739609 -14.839902 8.224897 23.143183 0.755985 1.207463 0.025752 -0.008690 -69702.200000 0 1 0
-16.695809 -16.022302 8.490297 24.648516 0.764816 1.219138 0.027809 -0.007670 -325384.000000 0 1 0
-16.069009 -17.233702 8.198597 24.948558 0.820357 1.235954 0.023678 -0.001455 307425.000000 0 1 0
-16.846109 -18.315102 8.764297 26.382707 0.827153 1.232163 0.032006 -0.002307 385409.000000 0 0 1
-16.567009 -18.629002 10.244597 26.952871 0.843917 1.180900 0.030152 -0.002426 144257.000000 0 0 1
-15.309309 -19.264502 10.407297 26.717182 0.899302 1.170669 0.027392 -0.004717 136319.000000 0 0 1
-15.136809 -19.634602 11.774997 27.446150 0.914037 1.127387 0.026712 -0.009156 406186.000000 0 0 1
-13.763409 -20.339702 11.982597 27.326133 0.975895 1.116864 0.020683 -0.007278 864149.000000 0 0 1
-12.630309 -19.470502 11.991197 26.123054 0.995343 1.093896 0.003376 -0.005257 41436.600000 0 0 1
-11.433009 -20.216202 12.118497 26.196688 1.056103 1.089875 -0.003499 -0.001021 559419.000000 0 0 1
-10.232009 -19.327902 12.550297 25.214515 1.083914 1.049804 0.007030 -0.007415 418632.000000 0 0 1
-9.772109 -18.467502 11.515297 23.856756 1.084100 1.067078 0.008878 -0.011456 -634831.000000 0 1 0
-8.713509 -17.682602 11.968397 23.061704 1.112947 1.025148 0.009428 -0.011268 104220.000000 0 1 0
-7.884309 -16.883402 10.894197 21.584604 1.133907 1.041738 0.000074 -0.012003 550148.000000 0 1 0
-7.015509 -17.772602 10.197297 21.657969 1.194835 1.080561 0.011654 -0.003221 40915.700000 0 1 0
-6.145709 -17.094702 9.310097 20.412655 1.225675 1.097195 0.014399 -0.007709 -454638.000000 0 1 0
-5.118209 -17.951302 8.648897 20.573010 1.293050 1.136910 0.011901 -0.007024 -979128.000000 0 1 0
-3.957609 -18.185202 9.357997 20.831139 1.356510 1.104892 0.026313 -0.001349 -728416.000000 0 1 0
-2.942709 -18.767302 8.547297 20.830925 1.415263 1.147994 0.033312 -0.005875 631749.000000 0 1 0
-1.585109 -19.008902 9.247297 21.198194 1.487601 1.119391 0.022135 -0.009034 -258691.000000 0 1 0
-0.645009 -19.597702 8.416897 21.338466 1.537896 1.165330 0.030060 -0.004956 -1008410.000000 0 1 0
0.493691 -19.880402 9.192897 21.908525 -1.545968 1.137788 0.037329 -0.007077 380669.000000 0 1 0
1.703391 -20.323802 8.261297 22.004715 -1.487179 1.185932 0.040885 -0.022063 792272.000000 0 1 0
1.747691 -21.690202 7.867197 23.138973 -1.490395 1.223882 0.034483 -0.008712 -187789.000000 0 1 0
2.151891 -22.531202 8.936297 24.333991 -1.475578 1.194762 0.040976 -0.015090 -117497.000000 0 1 0
1.929091 -23.998902 8.535397 25.544504 -1.490586 1.230105 0.027596 -0.002691 -138808.000000 0 0 1
1.755291 -24.851202 9.602797 26.699756 -1.500281 1.202894 0.032787 -0.001596 -239189.000000 0 0 1
1.489391 -26.073392 9.074097 27.647410 -1.513735 1.236391 0.035771 -0.007054 -629317.000000 0 0 1
1.671491 -27.291172 9.993297 29.111302 -1.509626 1.220391 0.041569 -0.007368 309360.000000 0 0 1
0.867891 -27.427012 11.158397 29.622695 -1.539163 1.184582 0.031122 -0.009798 -462474.000000 0 0 1
-0.503909 -27.659062 11.007397 29.773149 1.552580 1.192101 0.017746 -0.003360 -488499.000000 0 0 1
-1.126909 -27.907592 12.347597 30.537956 1.530438 1.154544 0.012562 -0.009641 -245031.000000 0 0 1
-0.736009 -29.091222 13.017497 31.879400 1.545502 1.150166 0.004033 -0.008545 -206279.000000 0 0 1
-1.307409 -29.111122 14.305397 32.462457 1.525916 1.114446 0.001767 -0.015888 -115270.000000 0 0 1
-0.678009 -30.229262 15.257197 33.868127 1.548371 1.103484 -0.014072 -0.000315 410515.000000 0 0 1
-0.822009 -29.932532 16.615997 34.245051 1.543341 1.064194 -0.010963 -0.001322 -143543.000000 0 0 1
-0.084909 -30.865112 17.350297 35.407558 1.568045 1.058687 -0.020610 0.002290 -201691.000000 0 0 1
-0.443809 -30.801992 18.845697 36.112601 1.556389 1.021767 -0.022046 0.000568 163284.000000 0 0 1
-1.829709 -31.055432 18.991697 36.448213 1.511947 1.022704 -0.025492 -0.001038 -23077.900000 0 0 1
-2.188109 -30.889772 20.333997 37.046420 1.500078 0.989774 -0.008012 -0.007523 -655030.000000 0 0 1
-3.665709 -30.692102 20.646797 37.171666 1.451924 0.981899 0.024852 -0.016255 -741249.000000 0 0 1
-4.229809 -29.539022 20.049697 35.950458 1.428569 0.979180 0.027681 -0.020664 63862.900000 0 0 1
-5.523209 -29.287272 20.569597 36.212684 1.384398 0.966696 0.049705 -0.024159 164989.000000 0 0 1
-5.527409 -28.249332 21.683397 36.038129 1.377572 0.925194 0.064244 -0.028940 -670263.000000 0 0 1
-4.926109 -28.634122 22.902797 36.996184 1.400428 0.903253 0.054987 -0.028147 174339.000000 0 0 1
-4.974109 -27.538972 23.803297 36.738722 1.392102 0.865962 0.059197 -0.026324 -132350.000000 0 0 1
-3.873109 -27.672242 24.891197 37.420925 1.431736 0.843078 0.061366 -0.026652 14043.200000 0 0 1
-4.043609 -28.705482 25.858397 38.846006 1.430852 0.842413 0.065679 -0.028894 62120.200000 0 0 1
-3.323809 -29.863752 25.570797 39.455761 1.459953 0.865725 0.039551 -0.026485 -221108.000000 0 0 1
-3.791509 -31.050782 26.419797 40.945479 1.449291 0.869455 0.051604 -0.017186 -90497.800000 0 0 1
-3.330409 -30.943502 27.749297 41.696708 1.463580 0.842628 0.046546 -0.021886 350051.000000 0 0 1
-3.816409 -32.054312 28.534397 43.084286 1.452293 0.846922 0.048010 -0.018527 -292485.000000 0 0 1
-3.059809 -32.098892 29.871497 43.954609 1.475759 0.823581 0.068989 -0.023797 -112125.000000 0 0 1
-1.676009 -32.237742 29.626997 43.815978 1.518854 0.828246 0.059271 -0.022183 19751.100000 0 0 1
-0.922309 -31.761382 30.714597 44.193014 1.541766 0.802362 0.064276 -0.019149 -346354.000000 0 0 1
-27.988299 2.874498 -10.045903 29.875203 -0.102345 1.913742 0.092653 -0.007804 -376440.000000 0 0 1
-28.780969 2.521998 -11.150303 30.968272 -0.087404 1.939124 0.077219 -0.015775 300524.000000 0 0 1
-29.591779 3.644498 -11.547403 31.973399 -0.122542 1.940304 0.049502 -0.014740 330750.000000 0 0 1
-30.477029 3.312598 -12.782103 33.214526 -0.108267 1.965825 0.044263 -0.016836 -240319.000000 0 0 1
-31.483759 2.381598 -12.515503 33.963759 -0.075501 1.948187 0.052514 -0.012904 -66386.800000 0 0 1
-32.308919 2.242298 -13.661403 35.150079 -0.069291 1.969972 0.051065 -0.011914 176134.000000 0 0 1
-33.585499 1.400998 -13.431803 36.198921 -0.041690 1.950942 0.044650 -0.005371 233194.000000 0 0 1
-33.244299 0.075998 -13.101103 35.732731 -0.002286 1.946193 0.065862 -0.008781 589215.000000 0 0 1
-34.406386 -0.756502 -13.155603 36.843474 0.021984 1.935923 0.040366 -0.003997 -8595.710000 0 0 1
-33.999429 -2.174702 -12.763303 36.381209 0.063876 1.929244 0.052364 -0.007007 175039.000000 0 0 1
-33.404779 -2.798302 -13.898203 36.288701 0.083574 1.963827 0.041839 -0.002354 89453.200000 0 0 1
-33.022959 -4.137702 -13.567203 35.940303 0.124648 1.957884 0.057410 -0.007297 -153961.000000 0 0 1
-33.538889 -5.289902 -14.403703 36.882337 0.156436 1.972005 0.050438 -0.010130 -52023.000000 0 0 1
-33.350329 -6.494202 -13.719003 36.641918 0.192320 1.954554 0.057154 -0.014476 120367.000000 0 0 1
-33.830459 -7.543502 -14.499403 37.571759 0.219391 1.966993 0.060278 -0.007338 -663100.000000 0 0 1
-33.675169 -8.939502 -13.751803 37.457226 0.259478 1.946722 0.060387 -0.007136 -173981.000000 0 0 1
-32.362139 -9.351702 -13.387203 36.248856 0.281307 1.949067 0.048293 -0.010193 375421.000000 0 0 1
-31.632919 -9.771102 -14.527203 36.154607 0.299593 1.984286 0.040679 -0.011377 -143728.000000 0 0 1
-30.305959 -10.474802 -14.105703 35.030608 0.332781 1.985226 0.041875 -0.010913 135348.000000 0 0 1
-30.579439 -11.843402 -13.836603 35.592413 0.369510 1.970072 0.033892 -0.008845 768062.000000 0 0 1
-29.431789 -12.689502 -13.700903 34.856397 0.407068 1.974761 0.047508 -0.010392 225903.000000 0 0 1
-29.838419 -14.108602 -14.118303 35.898612 0.441679 1.974996 0.056395 -0.008524 -47557.600000 0 0 1
-29.946869 -14.163002 -15.521903 36.583262 0.441764 2.008974 0.057344 -0.007407 117126.000000 0 0 1
-30.164909 -15.407702 -16.139903 37.520867 0.472236 2.015464 0.052228 -0.010282 -776891.000000 0 0 1
-29.020249 -16.399802 -15.938203 36.947999 0.514374 2.016805 0.049980 -0.004551 -67599.800000 0 0 1
-27.855609 -15.836902 -16.543103 36.061290 0.516962 2.047384 0.063437 -0.018332 -579766.000000 0 0 1
-26.784709 -16.740802 -16.506703 35.639112 0.558609 2.052357 0.068651 -0.020207 314799.000000 0 0 1
-25.451499 -15.992302 -16.848403 34.458688 0.561001 2.081676 0.079150 -0.025373 563137.000000 0 0 1
-25.458169 -15.501202 -18.150303 34.897552 0.546930 2.117767 0.084304 -0.036002 1984590.000000 0 0 1
-24.041109 -15.525202 -18.567503 34.113912 0.573401 2.146326 0.053897 -0.031092 1761700.000000 0 0 1
-23.988309 -15.372602 -20.142703 34.892468 0.569907 2.186189 0.061134 -0.027968 -13693.000000 0 0 1
-24.651009 -16.380802 -20.852303 36.205268 0.586507 2.184558 0.054998 -0.030346 -1136940.000000 0 0 1
-25.928799 -16.143802 -21.267003 37.218414 0.556886 2.179020 0.065899 -0.033499 -1377810.000000 0 0 1
-26.520659 -17.399102 -21.893003 38.540598 0.580622 2.174931 0.071966 -0.034221 -300551.000000 0 0 1
-25.965019 -17.501902 -23.198803 38.970286 0.593102 2.208429 0.062013 -0.025186 383152.000000 0 0 1
-26.513399 -18.608202 -23.878903 40.242111 0.611961 2.206049 0.044044 -0.017863 -359639.000000 0 0 1
-25.862519 -18.843802 -25.244553 40.758388 0.629673 2.238737 0.031764 -0.017077 1125250.000000 0 0 1
-24.530709 -19.414202 -25.263753 40.210995 0.669490 2.250136 0.042049 -0.023756 1033650.000000 0 0 1
-24.469709 -20.826002 -24.973903 40.696251 0.705128 2.231492 0.035353 -0.020301 856586.000000 0 0 1
-22.962709 -21.303302 -24.816903 39.962424 0.747929 2.240822 0.030258 -0.014865 1196230.000000 0 0 1
-22.240309 -21.078302 -26.011753 40.193749 0.758580 2.274648 0.029109 -0.017419 -225061.000000 0 0 1
-20.875709 -21.342902 -25.780833 39.445735 0.796464 2.283098 0.032812 -0.015214 100786.000000 0 0 1
-19.929709 -21.222402 -27.005963 39.710272 0.816800 2.318661 0.030599 -0.016999 -129774.000000 0 0 1
-20.043809 -22.261302 -27.983933 40.992930 0.837767 2.322183 0.038032 -0.005554 -270381.000000 0 0 1
-20.459509 -21.747602 -29.247823 41.796948 0.815907 2.345858 0.035935 -0.006054 231018.000000 0 0 1
-19.452009 -21.964302 -30.420693 42.263811 0.845983 2.374283 0.027864 -0.004270 337995.000000 0 0 1
-19.397509 -23.278902 -30.944723 43.309889 0.876098 2.366699 0.035699 -0.003741 11581.000000 0 0 1
-18.547509 -23.318602 -32.082923 43.784486 0.898869 2.393145 0.023485 -0.001750 -167494.000000 0 0 1
-18.594509 -24.671502 -32.859553 45.101984 0.924942 2.387015 0.024186 -0.000814 -110107.000000 0 0 1
-17.919309 -24.705502 -34.113371 45.773197 0.943281 2.411735 0.025729 -0.001465 -395123.000000 0 0 1
-18.719509 -24.651302 33.493160 45.605904 0.921324 0.746008 0.045013 -0.003649 -715026.000000 0 0 1
-17.956409 -24.910702 32.190548 44.488280 0.946226 0.761831 0.047424 -0.008799 -290453.000000 0 0 1
-17.290009 -23.712202 31.796788 43.269488 0.940766 0.745344 0.039837 -0.005672 -40260.400000 0 0 1
-16.793709 -23.688002 30.447118 42.073472 0.954086 0.761698 0.047065 -0.017022 348259.000000 0 0 1
-15.957909 -22.383902 30.231718 40.861359 0.951452 0.737933 0.039625 -0.013568 555007.000000 0 0 1
-16.799509 -21.217402 30.067088 40.452829 0.901088 0.732862 0.046053 -0.020831 501498.000000 0 0 1
-16.089409 -20.022202 29.736548 39.294019 0.893877 0.712438 0.042444 -0.021138 19274.500000 0 0 1
-15.281309 -19.455602 30.938688 39.613650 0.904993 0.674514 0.041821 -0.027830 -8288.860000 0 0 1
-14.929409 -18.124302 30.763688 38.701189 0.881756 0.651949 0.046116 -0.029833 -306707.000000 0 0 1
-14.237109 -17.597502 31.905348 39.119286 0.890567 0.617046 0.037192 -0.027307 -112568.000000 0 0 1
-13.809309 -16.147702 31.669818 38.136893 0.863298 0.590927 0.042222 -0.027268 -172847.000000 0 0 1
-12.623309 -16.053102 30.863558 37.008231 0.904436 0.584542 0.056627 -0.032791 547667.000000 0 0 1
-12.312109 -14.710502 30.625688 36.137510 0.873921 0.559583 0.040849 -0.031058 491438.000000 0 0 1
-10.782209 -14.476902 30.405588 35.360097 0.930640 0.535754 0.049637 -0.034085 609831.000000 0 0 1
-10.462309 -13.122402 30.429988 34.751136 0.897712 0.504007 0.049190 -0.035991 -658285.000000 0 0 1
-9.123609 -12.955702 30.787438 34.625955 0.957247 0.475327 0.038521 -0.026917 -705604.000000 0 0 1
-8.615209 -11.524402 30.773828 33.971490 0.928857 0.437362 0.042201 -0.024374 -528026.000000 0 0 1
-9.145009 -10.780702 31.820128 34.819179 0.867304 0.418086 0.046717 -0.024055 -106248.000000 0 0 1
-8.973009 -9.424102 31.612428 34.185877 0.809913 0.390492 0.040625 -0.017630 95733.100000 0 0 1
-9.873109 -8.493802 32.487548 35.000910 0.710441 0.381274 0.033051 -0.017032 1055880.000000 0 0 1
-11.199209 -8.207502 31.987768 34.871229 0.632444 0.409522 0.043468 -0.016879 800441.000000 0 0 1
-12.035409 -7.620002 32.958772 35.905377 0.564426 0.407955 0.041593 -0.021136 -81687.800000 0 0 1
-11.916009 -6.093402 33.258403 35.850274 0.472696 0.382585 0.042639 -0.013918 -386207.000000 0 0 1
-12.194009 -5.201002 32.205258 34.827043 0.403158 0.390497 0.040295 -0.010020 267963.000000 0 0 1
-12.421709 -3.890902 32.694416 35.190379 0.303553 0.378899 0.042322 -0.008399 -305751.000000 0 0 1
-11.866009 -2.797602 31.748488 34.008752 0.231538 0.366635 0.023050 -0.006609 -420067.000000 0 0 1
-10.477309 -2.765502 31.894868 33.685376 0.258066 0.327511 0.029982 -0.007441 -378267.000000 0 0 1
-9.892609 -1.710902 31.131518 32.710278 0.171253 0.311956 0.022613 -0.000332 854481.000000 0 0 1
-8.355209 -1.478602 31.355638 32.483408 0.175154 0.264277 0.015607 -0.001609 592979.000000 0 0 1
-8.147509 -0.998102 32.613278 33.630403 0.121897 0.246568 0.021770 -0.009226 -196260.000000 0 0 1
-6.809309 -0.602202 32.788200 33.493214 0.088209 0.205542 0.024375 -0.018299 -292006.000000 0 0 1
-6.521109 0.120898 34.149963 34.767218 -0.018537 0.188715 0.049598 -0.026811 -393518.000000 0 0 1
-7.095409 1.393798 34.362813 35.115387 -0.193967 0.207405 0.046571 -0.015958 160953.000000 0 0 1
-6.505609 2.515598 33.704009 34.418184 -0.368972 0.204069 0.051255 -0.013170 -443799.000000 0 0 1
-7.383409 3.715598 33.891997 34.885353 -0.466233 0.239211 0.052829 -0.008105 -903868.000000 0 0 1
-8.563709 3.722698 33.181652 34.470532 -0.410063 0.274322 0.029853 0.001775 -586123.000000 0 0 1
-9.241909 4.958198 33.353387 34.963481 -0.492412 0.304659 0.026249 0.012336 404367.000000 0 0 1
-10.516209 5.136498 32.456768 34.502406 -0.454354 0.346078 0.018162 0.016441 310888.000000 0 0 1
-11.017809 6.397198 32.804241 35.191398 -0.526050 0.370445 0.018021 0.016767 -78955.300000 0 0 1
-12.160009 6.712798 32.030498 34.912466 -0.504407 0.409169 -0.009233 0.019303 -10611.000000 0 0 1
-12.851209 8.019198 32.422698 35.786763 -0.557882 0.437067 0.015518 0.002811 -732232.000000 0 0 1
-13.688309 8.053798 33.484098 37.059658 -0.531825 0.442886 0.012716 0.000373 -725272.000000 0 0 1
-14.114009 9.351098 33.654803 37.673519 -0.585140 0.466100 0.010337 0.006433 -99331.900000 0 0 1
-15.197209 9.464198 -33.980373 38.408228 -0.556986 2.656681 0.007488 0.001943 125080.000000 0 0 1
-14.758609 9.263698 -32.623493 36.985469 -0.560525 2.651018 0.015939 -0.008378 470175.000000 0 0 1
-15.675309 9.885798 -31.676193 36.699121 -0.562659 2.612236 0.029757 -0.009632 -537264.000000 0 0 1
-14.945109 10.172798 -30.351843 35.328126 -0.597640 2.604385 0.050356 -0.025357 -1285.930000 0 0 1
-14.139109 11.320598 -30.201223 35.216249 -0.675142 2.601368 0.049691 -0.027794 -568211.000000 0 0 1
-12.949709 11.136298 -30.901753 35.307654 -0.710251 2.636674 0.059035 -0.034898 -954602.000000 0 0 1
-12.060209 12.417898 -31.097583 35.590905 -0.800010 2.633658 0.057481 -0.030904 518851.000000 0 0 1
-12.570709 13.298998 -32.088133 36.939604 -0.813543 2.623297 0.054289 -0.031544 -111262.000000 0 0 1
-11.766509 14.423998 -32.164613 37.162680 -0.886520 2.616961 0.053533 -0.027802 -297491.000000 0 0 1
-11.943409 15.553598 -31.114853 36.778982 -0.915945 2.579226 0.069444 -0.029329 -303299.000000 0 0 1
-13.171909 16.222298 -31.106183 37.473414 -0.888803 2.550059 0.066955 -0.031811 -220027.000000 0 0 1
-13.240009 17.264098 -30.154263 37.183686 -0.916560 2.516577 0.049363 -0.027281 385392.000000 0 0 1
-14.712909 17.813098 -30.137053 37.973913 -0.880425 2.487541 0.032250 -0.034334 550948.000000 0 0 1
-15.056609 18.362198 -31.414993 39.379862 -0.883991 2.494339 0.042108 -0.033543 130965.000000 0 0 1
-16.310309 19.011798 -31.524153 40.264710 -0.861731 2.470146 0.035045 -0.032562 220110.000000 0 0 1
-16.675209 20.316798 -30.757343 40.457991 -0.883525 2.434462 0.001020 -0.032112 -692595.000000 0 0 1
-15.933809 21.483198 -31.131363 41.043584 -0.932637 2.431797 0.015720 -0.024772 165278.000000 0 0 1
-16.509609 22.744298 -30.860053 41.739827 -0.942912 2.402891 -0.001750 -0.026016 70224.200000 0 0 1
-17.922909 23.004698 -31.466983 42.902422 -0.908931 2.394187 0.010220 -0.024149 -322671.000000 0 0 1
-18.957409 22.480698 -30.692243 42.506222 -0.870219 2.377578 0.000888 -0.033446 -178571.000000 0 0 1
-20.042909 22.244198 -31.590173 43.525413 -0.837407 2.382974 0.014520 -0.033747 -1488140.000000 0 0 1
-21.245909 21.604598 -30.987833 43.340432 -0.793769 2.367401 0.010369 -0.041378 -979271.000000 0 0 1
-22.184109 22.400898 -30.241263 43.686026 -0.790261 2.335386 0.034931 -0.041839 888263.000000 0 0 1
-22.977809 23.317998 -30.999893 45.085498 -0.792746 2.328947 0.043570 -0.037612 173887.000000 0 0 1
-24.163609 22.703898 -31.847713 45.974164 -0.754263 2.336065 0.041511 -0.042752 -207310.000000 0 0 1
-23.772909 21.845398 -32.885843 46.085261 -0.743170 2.365401 0.038941 -0.038884 300793.000000 0 0 1
-24.844509 21.600698 -33.794643 47.179632 -0.715670 2.369278 0.043991 -0.032238 13650.000000 0 0 1
-24.590209 20.512998 33.906757 46.638285 -0.695246 0.756831 0.033369 -0.021777 -145624.000000 0 0 1
-24.325009 19.207098 -34.287910 46.219903 -0.668369 2.406611 0.030764 -0.020664 483240.000000 0 0 1
-23.914909 18.384498 33.333190 44.955691 -0.655391 0.735541 0.027559 -0.018865 -271911.000000 0 0 1
-23.545409 16.948298 33.696856 44.464696 -0.623900 0.710810 0.007574 -0.003919 -143384.000000 0 0 1
-24.648809 16.107598 33.970600 44.955758 -0.578820 0.714158 0.016308 0.000908 459726.000000 0 0 1
-25.266689 15.554398 32.828014 44.249558 -0.551818 0.734921 0.022142 -0.000657 -690190.000000 0 0 1
-26.174119 14.350298 33.062259 44.543557 -0.501509 0.734381 0.021855 0.002935 -121956.000000 0 0 1
-27.394279 14.733598 33.716429 45.872900 -0.493455 0.745135 0.018838 0.002790 433650.000000 0 0 1
-28.424689 13.789398 33.469816 46.025417 -0.451673 0.756558 0.016363 0.004757 137269.000000 0 0 1
-28.556789 12.513598 34.330906 46.375548 -0.412998 0.737309 0.020092 0.003781 -211810.000000 0 0 1
-27.518409 11.589098 34.053727 45.290466 -0.398597 0.719863 0.018381 -0.001805 -16849.800000 0 0 1
-27.977339 10.238898 34.199921 45.356379 -0.350832 0.716625 0.028126 0.000771 -738385.000000 0 0 1
-26.851609 9.190298 -34.328184 44.540933 -0.329765 2.450752 0.032791 -0.005460 120078.000000 0 0 1
-26.074799 9.035298 33.223143 43.189223 -0.333566 0.693136 0.049035 -0.007710 298939.000000 0 0 1
-24.981009 9.945698 33.259641 42.768814 -0.378894 0.679860 0.036880 -0.014419 -795010.000000 0 0 1
-23.723209 9.522398 32.456718 41.314710 -0.381709 0.667136 0.035207 -0.010155 7907.450000 0 0 1
-23.744909 9.560698 31.060788 40.249226 -0.382782 0.689269 0.030225 -0.006017 -238186.000000 0 0 1
-22.473109 9.281398 30.534828 39.032815 -0.391663 0.672469 0.027551 -0.005104 37607.300000 0 0 1
-22.402909 9.365698 28.999568 37.823029 -0.395975 0.697084 0.033378 -0.008734 -5478.620000 0 0 1
-22.649309 10.622198 28.436348 37.874109 -0.438530 0.721505 0.032900 -0.001762 133402.000000 0 0 1
-22.412109 10.505098 27.031328 36.651772 -0.438315 0.741409 0.028501 -0.008736 -672513.000000 0 0 1
-22.798809 11.809698 26.290728 36.748565 -0.477941 0.773569 0.025860 -0.009310 257744.000000 0 0 1
-24.122109 12.256998 26.452778 37.839921 -0.470125 0.796699 0.026970 -0.005542 222481.000000 0 0 1
-25.155919 11.581998 25.741788 37.810086 -0.431476 0.821917 0.023170 -0.001740 1967220.000000 0 0 1
-26.652729 12.117398 25.998178 39.154879 -0.426706 0.844663 0.025995 0.007913 1764080.000000 0 0 1
-26.836719 13.414098 25.450238 39.342879 -0.463521 0.867306 0.026175 0.005356 262203.000000 0 0 1
-28.130309 14.007998 25.571118 40.514446 -0.462021 0.887748 0.021662 0.002199 623456.000000 0 0 1
-28.228929 15.409298 24.868748 40.654317 -0.499666 0.912573 0.015912 0.001144 361401.000000 0 0 1
-27.401509 16.405898 25.494318 40.865100 -0.539480 0.897118 0.019468 0.000765 198834.000000 0 0 1
-27.385149 17.520898 24.684558 40.819795 -0.569168 0.921382 0.017042 0.001418 -208770.000000 0 0 1
-22.281109 -9.454002 31.636908 39.833653 0.401282 0.653064 0.017175 -0.015134 -8959.990000 0 0 1
-21.431409 -8.736602 30.759158 38.493626 0.387087 0.645047 0.017681 -0.016301 -140453.000000 0 0 1
-21.856809 -8.839102 29.406068 37.690405 0.384302 0.675810 0.021304 -0.017767 -106521.000000 0 0 1
-20.893109 -8.377902 28.281638 36.146400 0.381358 0.672255 0.021025 -0.014988 -1088070.000000 0 0 1
-20.575409 -7.011002 28.350518 35.724690 0.328408 0.654121 0.019666 -0.016026 1148010.000000 0 0 1
-19.224809 -6.715302 28.791368 35.265159 0.336055 0.615603 0.017395 -0.019596 692530.000000 0 0 1
-18.027609 -7.209602 27.958118 34.038645 0.380437 0.606998 0.026031 -0.013628 -1243390.000000 0 0 1
-17.726709 -8.603302 28.081078 34.304518 0.451843 0.611858 0.024863 -0.017098 13869.200000 0 0 1
-17.416909 -9.094002 29.381718 35.345932 0.481199 0.589423 0.032683 -0.018083 -856446.000000 0 0 1
-16.048309 -8.768002 30.006448 35.139906 0.500037 0.547336 0.036008 -0.018823 -99763.600000 0 0 1
-14.967409 -9.487702 29.438918 34.361165 0.564967 0.541862 0.026055 -0.016982 -58958.100000 0 0 1
-13.753409 -9.211502 30.124348 34.372727 0.590142 0.502456 0.031421 -0.018791 1412630.000000 0 0 1
-12.560409 -10.159902 29.615998 33.735661 0.680134 0.499371 0.036733 -0.021993 1039550.000000 0 0 1
-12.013209 -9.823602 28.346148 32.316009 0.685461 0.500891 0.048066 -0.016369 144355.000000 0 0 1
-10.827209 -10.560502 28.100738 31.912444 0.772929 0.493759 0.050517 -0.016918 95538.900000 0 0 1
-10.334909 -10.459502 26.641278 30.429742 0.791390 0.504324 0.046043 -0.015666 -517961.000000 0 0 1
-11.276509 -10.906802 25.743248 30.146854 0.768734 0.547309 0.041484 -0.013501 -395728.000000 0 0 1
-10.807309 -10.678102 24.443128 28.779963 0.779385 0.556118 0.037209 -0.002179 587094.000000 0 0 1
-11.918009 -11.081202 23.408968 28.509853 0.749030 0.607490 0.038273 -0.002098 -16638.900000 0 0 1
-12.052809 -12.461302 23.075768 28.862524 0.802060 0.644324 0.047810 -0.005257 882197.000000 0 0 1
-13.249609 -12.857202 22.365068 29.000966 0.770368 0.690098 0.041794 0.002273 857937.000000 0 0 1
-14.574209 -12.799502 23.144368 30.197625 0.720656 0.697532 0.030281 0.003865 -1163400.000000 0 0 1
-15.703909 -13.271202 22.490368 30.472187 0.701636 0.740603 0.019547 0.009441 97945.100000 0 0 1
-16.796809 -13.093802 23.421568 31.656757 0.662141 0.737934 0.011682 0.011166 257602.000000 0 0 1
-18.045309 -13.903402 23.050468 32.407743 0.656475 0.779501 0.023207 0.006416 -650464.000000 0 0 1
-17.834209 -15.317802 23.151668 32.995360 0.709638 0.793066 0.016907 0.009141 762584.000000 0 0 1
-18.965709 -16.222302 23.086368 33.997670 0.707591 0.824319 0.021195 0.009456 684272.000000 0 0 1
-19.863209 -16.234802 24.369848 35.383687 0.685219 0.811059 0.021528 0.007171 65145.100000 0 0 1
-19.214009 -16.865802 25.460718 36.081596 0.720406 0.787466 0.024662 0.003175 401423.000000 0 0 1
-19.986709 -16.652202 26.653128 37.244511 0.694638 0.773277 0.021880 -0.000161 199171.000000 0 0 1
-19.669209 -17.610702 27.853158 38.377246 0.730237 0.758639 0.028635 -0.007483 -108024.000000 0 0 1
-19.848809 -18.948502 27.538478 38.876583 0.762197 0.783629 0.036968 -0.004445 140563.000000 0 0 1
-19.742409 -19.720802 28.688058 40.020962 0.784851 0.771557 0.028460 -0.009711 -559942.000000 0 0 1
-19.780309 -21.277002 28.466828 40.673477 0.821836 0.795557 0.038682 -0.002451 -467861.000000 0 0 1
-20.983109 -21.887302 28.070328 41.319343 0.806486 0.823919 0.031493 -0.000448 -232541.000000 0 0 1
-20.771009 -23.223402 27.754188 41.725965 0.841084 0.843096 0.040979 0.009735 833610.000000 0 0 1
-22.123609 -23.918102 27.355728 42.542514 0.824354 0.872360 0.042075 0.015180 951812.000000 0 0 1
-22.958809 -24.263802 28.445408 43.874596 0.813026 0.865402 0.038085 0.017165 551801.000000 0 0 1
-24.228509 -24.781502 28.023248 44.569562 0.796681 0.890848 0.036015 0.018691 658755.000000 0 0 1
-24.941409 -25.557532 29.157008 46.101978 0.797598 0.886090 0.017716 0.013252 -241357.000000 0 0 1
-25.597259 -24.725302 30.094178 46.607078 0.768073 0.868857 0.007048 0.022737 -4487.810000 0 0 1
-26.236639 -25.565442 31.017518 48.000411 0.772442 0.868211 0.013667 0.028234 -558169.000000 0 0 1
-27.507789 -24.936102 31.589168 48.747955 0.736400 0.865827 0.007541 0.020370 -140117.000000 0 0 1
-28.482429 -24.803202 30.534998 48.567825 0.716460 0.890905 0.020058 0.013859 320715.000000 0 0 1
-29.442749 -23.858202 30.981348 48.948270 0.681005 0.885451 0.013972 0.002260 146502.000000 0 0 1
-30.736709 -23.724802 30.105178 49.131794 0.657353 0.911269 0.010789 0.000343 -70897.700000 0 0 1
-31.600659 -24.758602 30.453318 50.388437 0.664589 0.921820 0.012549 -0.000919 432683.000000 0 0 1
-32.754839 -24.750902 29.567928 50.593962 0.647102 0.946636 0.013656 -0.004876 838378.000000 0 0 1
-33.973039 -25.521672 30.116868 52.082135 0.644290 0.954205 0.011537 -0.002245 -66959.200000 0 0 1
-33.667399 -26.884002 30.313918 52.679948 0.673836 0.957660 0.015069 -0.003396 -106671.000000 0 0 1
-34.732351 -27.568972 30.932168 54.066472 0.670921 0.961716 0.021565 -0.010163 -140624.000000 0 0 1
-34.450614 -28.967952 31.339718 54.846740 0.699161 0.962579 0.023614 -0.014248 -16712.100000 0 0 1
-33.456059 -28.989462 32.347048 54.827258 0.713992 0.939761 0.022224 -0.003716 49934.000000 0 0 1
-32.766819 -30.235472 32.390168 55.108721 0.745241 0.942521 0.019407 -0.008754 300909.000000 0 0 1
-31.756649 -30.341782 33.586887 55.291839 0.762618 0.917953 0.020639 -0.011551 190408.000000 0 0 1
-32.350349 -30.243242 -33.888573 55.764093 0.751748 2.223974 0.026268 -0.008626 -67296.700000 0 0 1
-31.365749 -30.529522 -32.916023 54.766107 0.771889 2.215584 0.020856 -0.010665 25215.100000 0 0 1
-31.654889 -30.100822 -31.439493 53.819450 0.760239 2.194648 0.028638 -0.019248 -156901.000000 0 0 1
-31.813419 -28.690312 -31.231963 53.015687 0.733826 2.200751 0.027282 -0.016172 -217806.000000 0 0 1
-30.616269 -28.022172 -30.919103 51.755086 0.741188 2.211066 0.025608 -0.009944 -341963.000000 0 0 1
-30.564179 -26.476202 -31.062373 50.990482 0.713852 2.225822 0.020458 -0.001694 59792.300000 0 0 1
-31.316279 -25.832922 -30.030053 50.496072 0.689743 2.207690 0.026744 -0.008493 141319.000000 0 0 1
-31.200989 -24.463502 -30.129273 49.796965 0.664947 2.220615 0.033368 -0.011380 -100541.000000 0 0 1
-30.078909 -23.799602 -29.313203 48.274483 0.669376 2.223353 0.035923 -0.011173 -171750.000000 0 0 1
-29.930709 -22.377702 -29.464143 47.589333 0.641996 2.238435 0.040433 -0.011826 -626211.000000 0 0 1
-28.861499 -21.963302 -28.712833 46.257967 0.650497 2.240446 0.032213 -0.012790 -821206.000000 0 0 1
-28.559849 -20.437402 -28.879363 45.468340 0.621119 2.259003 0.038741 -0.022401 84534.500000 0 0 1
-27.939429 -20.022102 -30.100253 45.689402 0.621797 2.290021 0.034915 -0.008248 389488.000000 0 0 1
-27.767679 -18.588002 -30.025903 44.923409 0.589900 2.302825 0.026753 -0.013458 -394851.000000 0 0 1
-27.334309 -17.981802 -31.407243 45.353330 0.581872 2.335747 0.034587 -0.010565 383512.000000 0 0 1
-28.291099 -18.057002 -32.484653 46.708610 0.568076 2.339877 0.033754 -0.018032 948065.000000 0 0 1
-29.376439 -17.139202 -32.237163 46.861093 0.528149 2.329430 0.038398 -0.020446 -206205.000000 0 0 1
-30.208409 -16.528602 -33.372163 47.952517 0.500654 2.340527 0.026377 -0.020821 358979.000000 0 0 1
-31.103539 -17.458102 -34.021763 49.291945 0.511470 2.332575 0.034094 -0.024986 -552976.000000 0 0 1
-32.411279 -17.083902 -33.835063 49.871457 0.485090 2.316441 0.041645 -0.026922 -1337330.000000 0 0 1
-33.341889 -17.723502 33.890740 50.738411 0.488582 0.839345 0.029982 -0.027028 -581538.000000 0 0 1
-33.634779 -19.116302 34.016538 51.515592 0.516822 0.849558 0.020198 -0.026937 595044.000000 0 0 1
-34.498512 -19.517802 32.922228 51.526352 0.514861 0.877677 0.015511 -0.023860 -4459.530000 0 0 1
-34.795704 -21.008702 33.055918 52.390841 0.543189 0.888021 0.014498 -0.023884 -112922.000000 0 0 1
-33.691799 -21.869102 32.921255 51.934612 0.575737 0.884213 0.011893 -0.021300 29720.500000 0 0 1
-34.113657 -23.180202 33.313601 53.017538 0.596834 0.891365 0.014955 -0.019136 418573.000000 0 0 1
-32.870729 -24.145302 33.445586 52.745499 0.633542 0.883960 0.017084 -0.009878 1259740.000000 0 0 1
-31.954739 -23.967002 -34.196254 52.582376 0.643520 2.278824 0.016310 -0.015047 1100070.000000 0 0 1
-31.117319 -22.771702 -34.288823 51.600013 0.631752 2.297637 0.027213 -0.015096 -400992.000000 0 0 1
-29.789919 -22.821302 -33.520723 50.317889 0.653710 2.299870 0.028267 -0.009924 -679860.000000 0 0 1
-28.928579 -23.799502 -34.067903 50.634978 0.688429 2.308802 0.033147 -0.003310 -107087.000000 0 0 1
-27.596419 -23.756102 -33.620533 49.560619 0.710754 2.316341 0.034219 -0.001979 81319.300000 0 0 1
-27.332789 -24.123302 -32.093573 48.569666 0.723106 2.292646 0.033946 0.004035 -861157.000000 0 0 1
-27.264049 -25.495522 -31.722213 48.986210 0.751890 2.275193 0.032927 0.001753 -189382.000000 0 0 1
-26.670809 -25.706892 -30.481423 47.971799 0.766997 2.259327 0.024249 -0.000895 -175522.000000 0 0 1
-26.265689 -27.192852 -30.129573 48.343860 0.802740 2.243669 0.022868 -0.006832 -298566.000000 0 0 1
-27.340369 -28.083202 -29.918343 49.307902 0.798800 2.222782 0.008653 -0.003478 -65607.400000 0 0 1
-27.049929 -29.269512 -29.258993 49.441801 0.824788 2.204070 0.004027 -0.004967 -799642.000000 0 0 1
-27.895389 -30.466892 -29.687033 50.869481 0.829431 2.193942 0.003599 0.003114 -348920.000000 0 0 1
-27.667819 -30.921082 -30.982113 51.783326 0.840868 2.212178 0.019117 -0.005202 277598.000000 0 0 1
-28.221189 -32.209392 -31.138803 52.948139 0.851299 2.199504 0.027549 0.000802 -266435.000000 0 0 1
-28.098149 -32.731362 -32.571633 54.053300 0.861419 2.217531 0.020990 -0.010589 -79151.800000 0 0 1
-26.759999 -32.655972 -33.024373 53.601485 0.884306 2.234590 0.028807 -0.004557 116352.000000 0 0 1
-26.601489 -33.179892 -34.334532 54.657154 0.894998 2.250008 0.025688 -0.007096 -49334.000000 0 0 1
-25.116649 -33.057782 33.988279 53.655066 0.921065 0.884781 0.025482 -0.003071 178735.000000 0 0 1
-24.825209 -33.800252 32.834540 53.262135 0.937310 0.906544 0.022664 0.001968 -97145.700000 0 0 1
-23.889609 33.963491 33.156586 53.137476 -0.957798 0.896974 0.019842 0.008257 -217839.000000 0 0 1
-23.568309 33.036967 31.960838 51.656573 -0.951139 0.903687 0.031439 0.000021 251248.000000 0 0 1
-24.685109 32.240132 31.561218 51.428506 -0.917345 0.910069 0.030932 -0.018022 190741.000000 0 0 1
-24.406809 31.505632 30.392988 50.120165 -0.911686 0.919268 0.036412 -0.012019 633820.000000 0 0 1
-25.670429 30.735502 29.842438 49.942098 -0.874955 0.930366 0.041937 -0.015820 669099.000000 0 0 1
-26.224939 29.789732 30.741378 50.201672 -0.848953 0.911757 0.042998 -0.020314 860159.000000 0 0 1
-27.571349 29.516842 30.313448 50.500776 -0.819464 0.926974 0.035824 -0.027311 998935.000000 0 0 1
-28.195019 28.258392 31.009978 50.548141 -0.786521 0.910344 0.034994 -0.036252 523158.000000 0 0 1
-27.276229 27.118232 30.920038 49.350177 -0.782494 0.893686 0.032567 -0.031504 553292.000000 0 0 1
-27.639789 25.838922 31.456048 49.204581 -0.751736 0.877220 0.033744 -0.029610 946320.000000 0 0 1
-28.762519 25.056412 30.612278 48.910304 -0.716644 0.894529 0.030542 -0.028742 1190660.000000 0 0 1
-28.182649 24.814692 29.333298 47.649481 -0.721934 0.907642 0.031906 -0.019480 107923.000000 0 0 1
-29.084709 24.245712 28.396568 47.330116 -0.694910 0.927335 0.029405 -0.016445 118160.000000 0 0 1
-28.391749 23.938292 27.049388 45.943472 -0.700499 0.941280 0.026166 -0.011335 -47496.300000 0 0 1
-27.285879 23.082762 27.189438 44.906554 -0.702144 0.920444 0.018479 -0.009725 -155929.000000 0 0 1
-26.422909 23.129062 26.069898 43.735148 -0.719023 0.932179 0.007994 -0.010365 -1761.820000 0 0 1
-25.156599 22.309362 26.447638 42.778963 -0.725485 0.904296 0.004204 -0.006455 -344902.000000 0 0 1
-25.391369 20.919062 26.734818 42.391972 -0.689124 0.888396 0.011171 -0.005527 522992.000000 0 0 1
-24.185909 20.240562 27.077478 41.567155 -0.696824 0.861348 0.000670 0.000034 113046.000000 0 0 1
-24.314309 19.236262 28.208268 41.915698 -0.669321 0.832571 0.009868 -0.000858 -270450.000000 0 0 1
-23.181609 18.406362 28.406288 41.025582 -0.671076 0.805980 -0.003457 0.006086 225637.000000 0 0 1
-23.373009 17.396462 29.398888 41.391171 -0.639841 0.780915 0.003349 0.004422 -120416.000000 0 0 1
-22.145109 16.457762 29.483168 40.379710 -0.639121 0.752258 0.005909 0.001610 -38403.600000 0 0 1
-21.157409 16.950962 30.358898 40.701766 -0.675462 0.728932 0.012835 0.003248 186780.000000 0 0 1
-20.041309 16.063462 30.413638 39.808017 -0.675666 0.701294 0.008136 0.003334 416267.000000 0 0 1
-18.874909 16.546962 31.305958 40.126390 -0.719772 0.675837 0.005150 -0.008754 -108504.000000 0 0 1
-19.243309 16.669762 32.647198 41.400790 -0.713860 0.662325 0.002647 -0.014321 -250309.000000 0 0 1
-18.168209 17.183462 33.337400 41.674182 -0.757550 0.643579 0.008223 -0.014355 -1207750.000000 0 0 1
-18.138309 16.802562 -33.872343 41.936380 -0.747188 2.511050 0.003959 -0.017934 -40328.600000 0 0 1
-19.003909 17.493662 -32.990833 41.899545 -0.744042 2.477343 0.011443 -0.019415 245066.000000 0 0 1
-20.354509 17.075662 -33.134063 42.470583 -0.698022 2.465726 0.010613 -0.016753 -87705.300000 0 0 1
-21.350809 17.922962 -32.287173 42.656197 -0.698338 2.429378 0.012644 -0.015573 13060.300000 0 0 1
-21.411909 17.478562 -30.929573 41.480218 -0.684602 2.412301 0.012511 -0.014011 390096.000000 0 0 1
-22.507509 18.134662 -30.303663 41.877988 -0.678217 2.379826 0.008626 -0.020307 -25803.900000 0 0 1
-22.726009 17.813762 -28.780623 40.769178 -0.664815 2.354547 0.014100 -0.024717 34186.100000 0 0 1
-23.300509 16.608062 -28.302783 40.246602 -0.619250 2.350733 0.005429 -0.013122 1301610.000000 0 0 1
-24.706609 16.419462 -28.634233 41.230263 -0.586555 2.338515 0.018910 -0.012835 1351240.000000 0 0 1
-25.339629 15.117162 -28.027413 40.695961 -0.537902 2.330494 0.035459 -0.004868 -83794.400000 0 0 1
-24.835709 13.833562 -28.373503 40.165104 -0.508204 2.355226 0.011928 -0.001434 105172.000000 0 0 1
-25.727769 12.826562 -27.896283 40.057975 -0.462486 2.341162 0.002327 -0.000156 126759.000000 0 0 1
-25.179559 11.434162 -28.006923 39.359090 -0.426262 2.362533 0.016726 -0.004477 -38290.100000 0 0 1
-24.094709 11.175962 -27.149723 37.981108 -0.434299 2.367166 0.017215 -0.004900 113285.000000 0 0 1
-23.175209 10.239862 -27.711833 37.548512 -0.416052 2.400939 0.016384 -0.000523 495440.000000 0 0 1
-22.182009 9.636062 -26.668923 36.001759 -0.409813 2.405008 0.021933 -0.008139 436477.000000 0 0 1
-22.789909 8.675562 -25.803213 35.502833 -0.363737 2.384438 0.029040 -0.006501 379012.000000 0 0 1
-21.789509 7.979262 -25.061503 34.154506 -0.351031 2.394649 0.038100 0.000127 125423.000000 0 0 1
-22.356609 6.862262 -24.126403 33.600475 -0.297817 2.371775 0.036576 0.007359 59308.100000 0 0 1
-23.105309 5.897562 -24.816603 34.416570 -0.249911 2.376135 0.032022 0.002023 13206.000000 0 0 1
-23.388609 4.859762 -23.968003 33.839466 -0.204868 2.357863 0.025368 0.010611 -384713.000000 0 0 1
34.826159 25.263098 -10.267103 44.232328 0.627574 1.805051 -0.010051 0.002038 32512.800000 0 0 1
-35.514462 24.727698 -9.620103 44.331506 -0.608219 1.789540 -0.004731 0.004044 -60795.300000 0 0 1
-35.270702 23.399298 -10.059303 43.505622 -0.585752 1.804126 0.016451 -0.002088 -89013.900000 0 0 1
-34.256167 22.651898 -9.178503 42.081330 -0.584243 1.790677 0.009784 -0.002430 -441517.000000 0 0 1
-34.796944 21.818098 -8.232103 41.888235 -0.560045 1.768609 0.028532 -0.001457 -562323.000000 0 0 1
-33.823859 21.162798 -7.469003 40.591914 -0.559086 1.755853 0.006643 -0.001693 -751284.000000 0 0 1
-34.248762 20.400398 -6.266203 40.353677 -0.537217 1.726709 0.019599 0.006449 -425470.000000 0 0 1
-34.949918 19.243098 -6.665103 40.450181 -0.503297 1.736324 0.027184 -0.000211 522770.000000 0 0 1
-35.418778 18.413998 -5.552003 40.303721 -0.479436 1.708990 0.031067 -0.008724 -405625.000000 0 0 1
35.106979 17.314398 -5.902703 39.586996 0.458184 1.720462 0.024810 -0.004136 -105099.000000 0 0 1
33.838249 17.698398 -6.423503 38.723659 0.481901 1.737447 0.038078 -0.004156 215762.000000 0 0 1
33.326499 16.622298 -7.179803 37.927640 0.462664 1.761248 0.055390 -0.007454 116808.000000 0 0 1
32.415269 17.017598 -8.362703 37.553736 0.483437 1.795365 0.032853 -0.008980 -60379.800000 0 0 1
31.972439 15.872298 -9.043703 36.823298 0.460793 1.818932 0.036517 -0.008172 72498.100000 0 0 1
31.390849 16.279998 -10.278403 36.824846 0.478434 1.853670 0.034102 -0.008016 -514407.000000 0 0 1
30.886149 15.069298 -11.128303 36.123082 0.453919 1.883956 0.034390 -0.007284 -30177.900000 0 0 1
29.705539 14.364698 -10.804803 34.720417 0.450417 1.887246 0.034162 -0.005669 441619.000000 0 0 1
29.641009 13.861898 -9.418703 34.050750 0.437442 1.851059 0.031963 -0.008300 -899980.000000 0 0 1
28.510259 12.849598 -9.200403 32.597461 0.423437 1.856928 0.031229 -0.000464 -275161.000000 0 0 1
28.808059 11.638998 -9.805003 32.580801 0.383966 1.876479 0.036329 0.001167 566728.000000 0 0 1
27.740659 10.694598 -9.781403 31.298473 0.367962 1.888641 0.037465 -0.004399 -158867.000000 0 0 1
28.197429 9.357598 -10.325003 31.452589 0.320424 1.905270 0.047394 -0.006776 519448.000000 0 0 1
29.308179 8.845498 -9.541803 32.066465 0.293116 1.872936 0.055765 -0.002470 1131320.000000 0 0 1
29.474729 7.442998 -9.638603 31.891387 0.247350 1.877830 0.055660 -0.001918 -754373.000000 0 0 1
30.500359 6.967898 -8.635203 32.455974 0.224599 1.840099 0.065474 -0.006750 536445.000000 0 0 1
31.853309 7.214898 -9.091003 33.901835 0.222745 1.842275 0.056058 -0.006391 541140.000000 0 0 1
32.753519 6.729598 -8.153103 34.417344 0.202642 1.809959 0.063365 -0.014168 -444937.000000 0 0 1
34.205559 6.876498 -8.646703 35.945403 0.198390 1.813730 0.059796 -0.010966 -144642.000000 0 0 1
34.600469 5.949298 -9.673103 36.416418 0.170278 1.839648 0.053420 -0.004618 -489251.000000 0 0 1
-35.597810 6.206998 -10.157303 37.535339 -0.172629 1.844819 0.050706 -0.003493 -1697270.000000 0 0 1
-35.139675 5.326898 -11.350503 37.309604 -0.150447 1.879921 0.039118 0.000054 981064.000000 0 0 1
-33.750729 5.342298 -11.789003 36.147371 -0.156984 1.903011 0.038532 -0.001991 1778560.000000 0 0 1
-33.209769 6.570598 -12.285103 36.013682 -0.195329 1.918908 0.029897 -0.000180 -454322.000000 0 0 1
-32.516529 7.443798 -11.186003 35.183255 -0.225046 1.894347 0.026576 0.003170 -1121890.000000 0 0 1
-33.244179 8.223098 -10.253103 35.748019 -0.242487 1.861698 0.034703 -0.000906 -189921.000000 0 0 1
-33.658589 9.433798 -10.853303 36.601794 -0.273267 1.871847 0.031438 -0.000407 -466590.000000 0 0 1
-34.563453 10.215398 -9.943703 37.388018 -0.287374 1.839996 0.042669 -0.004009 -381874.000000 0 0 1
-33.873779 10.894698 -8.932803 36.686814 -0.311177 1.816757 0.037296 0.001405 128466.000000 0 0 1
-34.744112 11.754198 -8.187303 37.581198 -0.326221 1.790414 0.042703 -0.005867 214715.000000 0 0 1
-33.994989 12.799798 -7.300803 37.051259 -0.360103 1.769140 0.053348 -0.013305 66650.300000 0 0 1
-33.264629 13.717298 -8.050603 36.871561 -0.391124 1.790911 0.038323 -0.014052 -35507.500000 0 0 1
-32.402869 14.479298 -7.186803 36.211133 -0.420233 1.770592 0.041421 -0.008826 296953.000000 0 0 1
-31.621319 15.616098 -7.954603 36.153092 -0.458713 1.792637 0.017061 -0.002176 188184.000000 0 0 1
-32.423389 16.524698 -8.696303 37.416139 -0.471341 1.805363 0.017629 -0.002822 30527.000000 0 0 1
-31.765709 17.783498 -8.890403 37.474689 -0.510361 1.810318 0.010239 -0.001020 205594.000000 0 0 1
-32.457979 18.710898 -9.886203 38.747324 -0.522935 1.828794 -0.002270 -0.002046 -9168.550000 0 0 1
-32.154489 18.348198 -11.231403 38.687361 -0.518541 1.865349 -0.009227 -0.000175 -320555.000000 0 0 1
-33.014669 19.028598 -12.093303 39.978793 -0.522862 1.878103 -0.007973 -0.003972 -506862.000000 0 0 1
-32.537749 19.105398 -13.542403 40.088876 -0.530937 1.915385 -0.023432 0.005033 -84592.700000 0 0 1
-31.537179 20.109298 -13.673203 39.823787 -0.567636 1.921270 -0.023716 -0.000354 192924.000000 0 0 1
-31.553449 20.589498 -15.005403 40.555020 -0.578150 1.949807 -0.035782 0.003603 -530348.000000 0 0 1
-30.632699 21.823098 -15.241103 40.582029 -0.619008 1.955800 -0.015158 -0.010957 207440.000000 0 0 1
-29.225059 21.643598 -15.172903 39.405157 -0.637447 1.966057 -0.019444 -0.007904 700620.000000 0 0 1
-28.576219 22.920398 -14.956403 39.568155 -0.676008 1.958422 -0.010291 -0.008525 -315613.000000 0 0 1
-28.000489 23.684398 -16.109303 40.056057 -0.702084 1.984681 -0.012839 -0.021494 -1086480.000000 0 0 1
-28.855079 24.039298 -17.201703 41.308619 -0.694603 2.000300 -0.005069 -0.010023 366609.000000 0 0 1
-28.158249 24.707898 -18.288103 41.687191 -0.720225 2.024946 -0.003654 -0.010978 294685.000000 0 0 1
-27.350579 26.050898 -17.996303 41.839818 -0.761065 2.015426 -0.000883 -0.006973 263519.000000 0 0 1
-28.135029 27.105898 -17.557303 42.831863 -0.766770 1.993154 0.001440 -0.001543 -349999.000000 0 0 1
-27.323759 28.220298 -17.332303 42.934622 -0.801538 1.986343 0.008534 -0.003347 170351.000000 0 0 1
-28.078069 29.482798 -16.744403 44.022589 -0.809798 1.960981 0.002390 -0.002280 49926.500000 0 0 1
-28.299279 29.452098 -15.329903 43.626611 -0.805357 1.929850 -0.001330 0.002499 253451.000000 0 0 1
-27.124489 29.486298 -14.549803 42.624834 -0.827094 1.919145 0.007064 0.005632 -98580.700000 0 0 1
-27.427139 30.230098 -13.220503 42.905576 -0.833974 1.884023 0.010005 0.001569 -37691.300000 0 0 1
-27.486649 31.616298 -13.411603 43.988376 -0.855157 1.880619 0.023448 0.001310 168901.000000 0 0 1
-27.755069 32.390298 -12.238603 44.376330 -0.862313 1.850209 0.020809 -0.001646 -14828.300000 0 0 1
-27.164089 33.821998 -12.380303 45.111941 -0.894138 1.848799 0.003098 -0.006799 118597.000000 0 0 1
-27.716979 -34.151766 -13.394503 45.978112 0.889033 1.866406 0.001039 -0.010455 -68904.800000 0 0 1
-26.842779 -33.066366 -13.635303 44.719580 0.888911 1.880637 0.018140 -0.009041 174621.000000 0 0 1
-27.232349 -32.236966 -14.890403 44.749826 0.869355 1.910012 0.015427 -0.006286 7643.240000 0 0 1
-26.644529 -32.714166 -16.081703 45.152727 0.887298 1.934954 0.011720 -0.008209 41148.700000 0 0 1
-27.099109 -31.936266 -17.174603 45.268684 0.867152 1.959936 0.022007 0.005885 -35647.800000 0 0 1
-26.355359 -32.341366 -18.474103 45.627419 0.887029 1.987655 0.005993 0.010973 -264765.000000 0 0 1
-26.497469 -33.634666 -19.015503 46.850784 0.903537 1.988731 0.007746 0.012957 102125.000000 0 0 1
-25.706899 34.138798 -18.366103 46.514685 -0.925371 1.976696 0.003462 0.010765 -257488.000000 0 0 1
-25.825909 32.754698 -19.070903 45.864443 -0.903129 1.999630 0.013964 -0.002213 475665.000000 0 0 1
-27.118339 32.153398 -18.993103 46.151742 -0.870143 1.994935 0.013389 -0.010008 625980.000000 0 0 1
-27.945619 32.627498 -20.093003 47.426153 -0.862538 2.008289 0.013120 -0.002635 -247788.000000 0 0 1
-29.396759 32.146198 -20.090603 47.970614 -0.830044 2.002931 0.010969 -0.005907 -313262.000000 0 0 1
-29.705519 30.744398 -20.281303 47.317725 -0.802582 2.013761 0.007594 -0.006839 206899.000000 0 0 1
-31.072839 30.592698 -20.603903 48.228159 -0.777612 2.012209 0.016192 -0.006100 17279.100000 0 0 1
-31.454169 29.132798 -20.944103 47.715198 -0.747102 2.025215 0.018696 -0.006922 -611071.000000 0 0 1
-32.818539 28.964598 -21.204703 48.637885 -0.723100 2.021913 0.024774 -0.008922 -335264.000000 0 0 1
-33.074229 27.662498 -21.669003 48.256234 -0.696531 2.036488 0.024139 -0.001974 -273571.000000 0 0 1
-34.571026 27.312398 -21.741603 49.130644 -0.668637 2.029210 0.014991 0.006189 52366.600000 0 0 1
-35.143230 27.925698 -22.905903 50.394162 -0.671455 2.042646 0.008302 0.009361 377592.000000 0 0 1
35.122639 27.275098 -23.322403 50.214193 0.660289 2.053819 0.015527 0.010749 530469.000000 0 0 1
34.398249 27.827598 -24.529203 50.589490 0.680194 2.077008 0.018218 0.006013 -411972.000000 0 0 1
35.087069 27.610198 -25.692193 51.512273 0.666705 2.092962 0.017752 0.000069 -211367.000000 0 0 1
34.274729 27.933198 -26.853103 51.731129 0.683808 2.116582 0.027423 0.000408 124182.000000 0 0 1
35.111349 28.098398 -28.155083 53.056908 0.674903 2.130173 0.026047 0.002229 330016.000000 0 0 1
35.665606 26.903298 -28.723633 53.111863 0.646261 2.142201 0.016247 0.007256 -178351.000000 0 0 1
-35.211288 27.130398 -29.938473 53.592961 -0.656494 2.163526 0.004542 0.005457 -1587750.000000 0 0 1
-34.676655 25.832398 -30.551753 52.945187 -0.640262 2.185902 0.006278 0.005038 421485.000000 0 0 1
-33.614529 25.160998 -29.886993 51.538769 -0.642550 2.189394 0.014420 0.006868 612502.000000 0 0 1
-32.397729 25.902398 -29.765503 51.054209 -0.674444 2.193234 0.009490 0.014809 -98144.400000 0 0 1
-31.344219 25.117098 -28.928193 49.499182 -0.675552 2.194958 0.010573 0.008032 -489030.000000 0 0 1
-30.792419 23.940598 -29.412253 48.850854 -0.660860 2.216903 0.036798 -0.000830 295094.000000 0 0 1
-31.529899 22.798798 -28.960313 48.503808 -0.626052 2.210644 0.030936 0.000655 45139.800000 0 0 1
-31.302469 21.476898 -29.710243 48.205811 -0.601342 2.234858 0.025665 -0.006925 111845.000000 0 0 1
-29.976709 20.983098 -29.573123 47.047456 -0.610713 2.250523 0.036846 -0.007150 275664.000000 0 0 1
-29.771819 19.787298 -30.273273 46.844097 -0.586593 2.273464 0.026207 -0.012950 -868780.000000 0 0 1
-28.404419 19.134598 -30.134963 45.618635 -0.592821 2.292393 0.040417 -0.014559 -1089710.000000 0 0 1
-27.567949 19.683398 -31.106233 45.989408 -0.620057 2.313631 0.046377 -0.016926 52164.200000 0 0 1
-26.335289 18.985598 -31.299303 45.095972 -0.624628 2.337909 0.040008 -0.020406 336956.000000 0 0 1
-26.299639 17.582998 -32.033003 45.021618 -0.589315 2.362431 0.020821 -0.011360 -648224.000000 0 0 1
-26.864679 16.630098 -31.214713 44.414293 -0.554296 2.350133 0.005824 -0.005969 -78906.800000 0 0 1
-27.211229 15.563898 -32.032383 44.819186 -0.519551 2.366995 -0.007959 0.007863 -183207.000000 0 0 1
-27.599189 14.310398 -31.231783 44.067301 -0.478344 2.358492 0.004419 0.005239 -898750.000000 0 0 1
-28.907009 14.413598 -30.790293 44.625207 -0.462543 2.332251 0.008666 0.000386 -472891.000000 0 0 1
-29.660749 13.183798 -30.803433 44.748453 -0.418259 2.330034 0.008451 0.004372 158360.000000 0 0 1
-29.514399 12.150598 -29.615183 43.540738 -0.390538 2.318793 0.000820 -0.003825 -351584.000000 0 0 1
-30.009089 12.700698 -28.427283 43.243075 -0.400369 2.288138 -0.000368 -0.002551 278647.000000 0 0 1
-30.129339 11.750598 -27.389653 42.379791 -0.371861 2.273509 -0.007094 -0.000208 26377.300000 0 0 1
-29.886029 12.398698 -25.966443 41.486848 -0.393256 2.247076 -0.012358 -0.004191 186126.000000 0 0 1
-28.514629 12.647398 -25.719243 40.429200 -0.417469 2.260301 -0.000508 -0.006359 -79267.400000 0 0 1
-28.328089 13.228398 -24.459003 39.695264 -0.436877 2.234666 -0.002338 -0.005809 -289220.000000 0 0 1
-26.883389 13.539298 -24.039203 38.521584 -0.466548 2.244705 0.008013 -0.001176 -685533.000000 0 0 1
-26.309399 14.483498 -24.963203 39.052755 -0.503232 2.264277 0.011415 -0.003220 84288.400000 0 0 1
-24.968609 14.865498 -24.744203 38.166609 -0.537006 2.276173 0.019853 -0.014276 300976.000000 0 0 1
-24.393509 15.319298 -23.345603 37.077505 -0.560759 2.251890 0.022899 -0.001802 -235667.000000 0 0 1
-24.925409 16.654498 -23.075503 37.830241 -0.589045 2.226825 0.032803 -0.000915 344395.000000 0 0 1
-24.983909 17.039698 -21.724403 37.235691 -0.598561 2.193741 0.023872 0.002861 1030970.000000 0 0 1
-26.439529 17.222598 -21.118403 37.969113 -0.577356 2.160602 0.015988 0.002889 1259220.000000 0 0 1
-27.240029 16.045498 -21.069603 37.992175 -0.532323 2.158651 0.018432 0.010817 921267.000000 0 0 1
-28.541649 16.380798 -20.569903 38.808210 -0.521027 2.129444 0.020970 0.017667 227088.000000 0 0 1
-29.625069 15.269398 -20.704203 39.235994 -0.475909 2.126668 -0.016273 0.009582 389445.000000 0 0 1
-30.365459 15.038398 -21.887603 40.339579 -0.459838 2.144306 -0.011520 0.009315 668668.000000 0 0 1
-31.123189 16.180698 -22.328903 41.581820 -0.479434 2.137658 -0.034433 0.014546 -541080.000000 0 0 1
-31.462129 16.071998 -23.819503 42.609194 -0.472279 2.164003 -0.028987 0.015985 -329444.000000 0 0 1
-32.549079 15.220998 -24.094103 43.262537 -0.437420 2.161478 -0.013527 0.008926 -15022.300000 0 0 1
-32.724349 15.183898 -25.510753 44.184073 -0.434430 2.186306 -0.002318 -0.001285 -107600.000000 0 0 1
-33.950979 14.360498 -25.968603 45.091698 -0.400156 2.184509 -0.003173 -0.001120 -45319.500000 0 0 1
-33.836249 12.905598 -25.935613 44.543262 -0.364381 2.192298 -0.004046 -0.004176 139065.000000 0 0 1
-33.734119 12.388098 -24.657603 43.582716 -0.351939 2.172158 -0.012024 -0.003439 -386328.000000 0 0 1
-33.642749 10.866698 -24.740903 43.151268 -0.312424 2.181389 -0.006705 -0.002533 -193462.000000 0 0 1
-34.892757 10.279298 -25.008003 44.142595 -0.286492 2.173082 0.000941 0.003905 -202949.000000 0 0 1
-34.878395 9.506398 -26.192523 44.642158 -0.266095 2.197801 -0.001280 0.007035 -370517.000000 0 0 1
35.288079 8.797898 -26.552573 45.029886 0.244335 2.201441 0.019939 0.009083 -375409.000000 0 0 1
34.832019 7.858298 -25.619543 43.947507 0.221891 2.193161 0.020709 0.010017 167309.000000 0 0 1
33.772029 7.097898 -26.216493 43.338604 0.207156 2.220465 0.032290 0.008203 489680.000000 0 0 1
33.007069 6.187698 -25.194193 41.982158 0.185315 2.214443 0.041287 0.000174 523905.000000 0 0 1
33.885169 5.228098 -24.584903 42.189515 0.153082 2.192875 0.040033 -0.006771 516170.000000 0 0 1
33.195309 4.362098 -23.677603 41.007137 0.130658 2.186339 0.056246 -0.007366 168085.000000 0 0 1
34.174879 3.503998 -22.867603 41.268967 0.102174 2.158091 0.043627 -0.010561 -53995.800000 0 0 1
34.764599 2.510698 -23.650503 42.121577 0.072095 2.166972 0.045198 -0.010567 -102371.000000 0 0 1
-35.690250 1.813698 -22.985103 42.489980 -0.050774 2.142367 0.050808 -0.010481 -27156.800000 0 0 1
-34.887725 0.746898 -23.814003 42.247106 -0.021405 2.169635 0.047733 -0.010312 -133848.000000 0 0 1
-35.673221 -0.251002 -24.347303 43.190657 0.007036 2.169675 0.054849 -0.017211 -331192.000000 0 0 1
-34.881427 -1.403702 -24.487603 42.641846 0.040220 2.182499 0.054474 -0.017725 300920.000000 0 0 1
-22.804809 29.541898 27.143398 46.147016 -0.913396 0.941972 0.036114 -0.007521 1284740.000000 0 0 1
-24.199909 29.786398 26.744718 46.777612 -0.888511 0.962169 0.025051 -0.013365 2364880.000000 0 0 1
-24.691709 28.937798 25.674498 45.893970 -0.864408 0.977097 0.017318 -0.003611 -182114.000000 0 0 1
-24.775109 27.406698 25.826948 45.077315 -0.835787 0.960698 0.021929 -0.010899 -203472.000000 0 0 1
-25.986229 26.927998 26.412338 45.804069 -0.803194 0.956189 0.020662 -0.009513 663838.000000 0 0 1
-26.101809 27.091998 27.839928 46.801094 -0.804011 0.933709 0.027724 -0.010344 -707338.000000 0 0 1
-25.360249 25.995798 28.574218 46.210493 -0.797773 0.904156 0.020416 -0.002203 -775858.000000 0 0 1
-23.981809 25.990698 28.780148 45.595399 -0.825576 0.887688 0.029624 -0.003322 -623380.000000 0 0 1
-23.577009 26.659198 29.955198 46.517761 -0.846675 0.871144 0.024717 -0.014613 -677874.000000 0 0 1
-22.155809 26.304898 30.357808 45.874002 -0.870807 0.847626 0.033961 -0.009017 -1119030.000000 0 0 1
-21.194909 26.869098 29.473468 45.164786 -0.902909 0.859817 0.046682 -0.012314 981708.000000 0 0 1
-19.852509 26.714098 29.997108 44.806156 -0.931695 0.837279 0.073008 -0.016227 1119050.000000 0 0 1
-19.192209 25.304598 29.821508 43.565880 -0.921911 0.816858 0.063970 -0.012596 -693587.000000 0 0 1
-18.832309 25.031398 28.482148 42.337448 -0.925795 0.832889 0.064399 -0.012387 110902.000000 0 0 1
-19.790809 24.285598 27.754888 41.854512 -0.887024 0.845807 0.057070 -0.013493 -25678.700000 0 0 1
-19.817609 22.722798 27.999998 41.146847 -0.853585 0.822366 0.054509 -0.003285 133345.000000 0 0 1
-20.240609 22.215698 29.265538 41.948673 -0.831885 0.798683 0.030324 -0.005521 80808.700000 0 0 1
-20.609409 20.872998 29.260038 41.431625 -0.791752 0.786645 0.019493 0.001200 130395.000000 0 0 1
-21.033809 20.322498 30.642688 42.360351 -0.768200 0.762109 0.015645 0.000067 645256.000000 0 0 1
-19.937109 20.510398 31.556828 42.591057 -0.799571 0.736348 0.019589 -0.012134 830658.000000 0 0 1
-20.370509 20.195198 32.868018 43.624652 -0.781077 0.717537 0.010290 -0.007376 72382.200000 0 0 1
-19.374109 20.619998 34.015267 44.244534 -0.816540 0.693831 0.016043 -0.015015 34177.600000 0 0 1
-19.338609 22.026698 34.238300 45.071259 -0.850291 0.708024 0.019566 -0.017860 92322.900000 0 0 1
-18.465909 22.726598 33.379760 44.403788 -0.888465 0.720111 0.036393 -0.007443 -442769.000000 0 0 1
-16.988009 22.809498 33.813606 44.183997 -0.930646 0.699303 0.045851 -0.003956 74209.500000 0 0 1
-16.220809 21.657698 33.469540 43.039292 -0.927959 0.679876 0.044923 -0.020867 -677747.000000 0 0 1
-14.914609 21.736898 33.924374 42.962791 -0.969431 0.660603 0.044103 -0.024462 -706907.000000 0 0 1
-14.123609 20.347898 33.693965 41.818615 -0.964037 0.633911 0.049141 -0.030589 918311.000000 0 0 1
-12.752309 20.226998 34.084688 41.635547 -1.008281 0.611751 0.039260 -0.035989 869496.000000 0 0 1
-12.510209 20.447698 -33.273573 41.009076 -1.021735 2.517290 0.044165 -0.027893 -927469.000000 0 0 1
-11.052509 20.315598 -32.867103 40.188654 -1.072540 2.528410 0.041089 -0.024971 -13464.700000 0 0 1
-10.205009 21.473298 -33.023413 40.691406 -1.127151 2.517609 0.034306 -0.024268 1668080.000000 0 0 1
-8.821009 21.156898 -32.689873 39.925585 -1.175778 2.530062 0.037860 -0.020462 1274810.000000 0 0 1
-7.863909 22.367398 -32.929463 40.576977 -1.232715 2.517563 0.039189 -0.018548 63102.800000 0 0 1
-7.910009 23.421398 -31.928993 40.380573 -1.245098 2.482751 0.032570 -0.011244 97850.300000 0 0 1
-7.345709 23.062798 -30.689823 39.086025 -1.262446 2.473794 0.019429 -0.010601 -223031.000000 0 0 1
-6.966609 24.263398 -29.784703 39.043241 -1.291194 2.438528 0.021052 -0.005490 229130.000000 0 0 1
-6.013009 25.150298 -30.360383 39.880404 -1.336119 2.436090 0.024434 -0.006609 232498.000000 0 0 1
-5.781109 26.236498 -29.503573 39.902830 -1.353916 2.402953 0.014605 0.007372 -353352.000000 0 0 1
-4.531709 27.054098 -29.840963 40.533242 -1.404832 2.398249 0.015918 0.003645 -365629.000000 0 0 1
-3.331209 26.381598 -29.458623 39.684961 -1.445191 2.407311 0.031242 -0.004190 1105930.000000 0 0 1
-2.124209 26.915098 -30.041853 40.391183 -1.492037 2.409493 0.042429 -0.003255 853497.000000 0 0 1
-1.620109 28.246598 -29.424453 40.820258 -1.513503 2.375795 0.043271 -0.010310 -952734.000000 0 0 1
-1.171009 28.082498 -28.105283 39.748017 -1.529122 2.356166 0.056760 -0.025493 302709.000000 0 0 1
-0.766509 29.272898 -27.526163 40.189299 -1.544617 2.325280 0.056792 -0.029523 -920344.000000 0 0 1
-0.272209 29.142298 -26.065123 39.099083 -1.561456 2.300492 0.074967 -0.041504 1114690.000000 0 0 1
0.865891 28.261398 -25.844103 38.306319 1.540167 2.311313 0.099006 -0.051098 859659.000000 0 0 1
2.099991 28.691798 -26.347103 39.010243 1.497735 2.312289 0.105263 -0.053202 -635994.000000 0 0 1
3.273491 28.719498 -25.354403 38.449591 1.457305 2.290842 0.091221 -0.053746 20039.300000 0 0 1
3.963191 27.495598 -25.169663 37.486354 1.427643 2.306940 0.099431 -0.044483 206900.000000 0 0 1
5.133991 27.679898 -24.411303 37.261862 1.387403 2.285149 0.073425 -0.037716 12369.100000 0 0 1
5.770691 26.463698 -23.718103 36.002453 1.356097 2.290007 0.064434 -0.038761 878334.000000 0 0 1
6.916291 26.783498 -22.891903 35.905850 1.318087 2.262115 0.051531 -0.040695 422249.000000 0 0 1
7.643091 25.628298 -22.567003 34.992801 1.280965 2.271694 0.031364 -0.026380 250047.000000 0 0 1
9.107191 25.832498 -22.124003 35.209805 1.231854 2.250224 0.011577 -0.004120 -173359.000000 0 0 1
9.286391 26.372098 -20.799503 34.847438 1.232226 2.210395 0.018595 -0.000436 -17343.000000 0 0 1
10.639891 26.692198 -20.524603 35.312038 1.191485 2.191042 0.029532 -0.001344 262915.000000 0 0 1
11.505291 25.603698 -19.880503 34.397027 1.148474 2.187037 0.011364 0.009973 -370007.000000 0 0 1
11.710191 24.580498 -20.839703 34.287354 1.126205 2.224078 0.004831 -0.001842 -237803.000000 0 0 1
12.104691 23.370798 -20.227103 33.194178 1.092899 2.226046 -0.004087 0.006442 -867285.000000 0 0 1
12.290891 22.250698 -21.219603 33.112401 1.066126 2.266382 -0.005107 0.000434 -352530.000000 0 0 1
11.205191 22.067898 -22.128503 33.199685 1.100960 2.300337 -0.009741 -0.003332 283503.000000 0 0 1
11.524091 21.134798 -23.163303 33.406930 1.071595 2.336949 -0.023716 0.004070 -277686.000000 0 0 1
10.752491 21.357298 -24.470203 34.213171 1.104387 2.367746 -0.007034 0.003839 -485444.000000 0 0 1
9.415691 20.984298 -24.341303 33.488730 1.149023 2.384521 -0.003438 0.001306 -572975.000000 0 0 1
8.785391 20.887298 -25.614533 34.198927 1.172651 2.417327 -0.007460 -0.001168 -789224.000000 0 0 1
7.288691 20.585498 -25.657493 33.692650 1.230501 2.436445 0.023532 -0.008616 -115809.000000 0 0 1
6.372191 21.655798 -25.434573 34.007292 1.284624 2.415712 0.044714 -0.011382 383187.000000 0 0 1
6.420491 22.218498 -24.119003 33.415725 1.289489 2.377176 0.053950 -0.010856 -706851.000000 0 0 1
4.968891 22.267098 -23.600403 32.825182 1.351244 2.373119 0.071594 -0.016590 163330.000000 0 0 1
4.287791 23.448298 -23.979703 33.811743 1.389933 2.359177 0.074601 -0.022826 -1112290.000000 0 0 1
2.918791 23.287198 -23.968803 33.545737 1.446108 2.366721 0.092823 -0.030120 -912202.000000 0 0 1
2.162491 24.543698 -24.481903 34.733745 1.482915 2.353001 0.084278 -0.029332 -1003100.000000 0 0 1
0.807091 24.358898 -24.644803 34.660837 1.537675 2.361754 0.089796 -0.045777 -1099340.000000 0 0 1
0.378291 25.054598 -25.727513 35.913520 1.555699 2.369388 0.080771 -0.036716 -705582.000000 0 0 1
-1.099609 24.973398 -26.081123 36.126233 -1.526794 2.377404 0.079740 -0.028704 -674917.000000 0 0 1
-1.459209 23.751398 -26.640593 35.720854 -1.509437 2.412530 0.089316 -0.032348 941292.000000 0 0 1
-2.590009 23.970698 -27.548393 36.608967 -1.463165 2.422652 0.079520 -0.022976 974216.000000 0 0 1
-3.246009 22.702798 -28.146093 36.306420 -1.428780 2.457887 0.070183 -0.022632 -621604.000000 0 0 1
-2.476809 22.010098 -29.073433 36.549193 -1.458737 2.490563 0.089117 -0.025934 -259961.000000 0 0 1
-2.980409 20.731298 -29.421333 36.114878 -1.428011 2.522938 0.074998 -0.025455 886933.000000 0 0 1
-4.223209 20.829598 -30.445743 37.130189 -1.370758 2.532160 0.053738 -0.019423 901730.000000 0 0 1
-3.964809 21.192198 -31.813963 38.431201 -1.385846 2.546000 0.063458 -0.021309 -18998.600000 0 0 1
-3.266709 22.390698 -32.090063 39.265594 -1.425923 2.527430 0.065308 -0.014838 -97306.700000 0 0 1
-2.790409 22.442298 -33.529643 40.443542 -1.447094 2.548200 0.045576 -0.014398 605628.000000 0 0 1
-1.851509 21.347998 -33.814753 40.032520 -1.484283 2.576767 0.049592 -0.012619 639553.000000 0 0 1
-1.163509 21.632498 33.759954 40.113006 -1.517063 0.570518 0.042563 -0.002564 -508449.000000 0 0 1
-0.104709 20.598598 33.428349 39.265350 -1.565713 0.552253 0.046086 0.008977 -323070.000000 0 0 1
-0.627009 19.329298 33.057156 38.298700 -1.538369 0.529340 0.039002 0.022328 -473016.000000 0 0 1
0.383291 18.571298 32.532518 37.462044 1.550160 0.518804 0.048021 0.010477 -652978.000000 0 0 1
-0.175109 17.259398 32.020378 36.376120 -1.560651 0.494390 0.053819 0.007434 -44947.000000 0 0 1
-0.959409 17.444898 30.879408 35.479329 -1.515855 0.514885 0.035589 0.007511 -79030.100000 0 0 1
-1.472909 16.258998 30.365818 34.476185 -1.480453 0.493297 0.041879 0.005891 589911.000000 0 0 1
-2.535709 16.344298 29.177528 33.539440 -1.416880 0.515702 0.050145 0.003051 871238.000000 0 0 1
-3.800409 16.925098 29.451938 34.180677 -1.349917 0.532275 0.033594 0.001299 281675.000000 0 0 1
-3.827809 18.319998 29.328748 34.791520 -1.364818 0.567987 0.027752 -0.001900 -599664.000000 0 0 1
-5.214509 18.813798 29.722528 35.560916 -1.300419 0.581171 0.030990 -0.017985 -581092.000000 0 0 1
-6.191909 18.413298 28.841978 34.774257 -1.246402 0.592753 0.023952 -0.012832 -794541.000000 0 0 1
-7.515609 18.645698 29.259578 35.500272 -1.187642 0.601996 0.025773 -0.022136 71052.900000 0 0 1
-8.603009 17.895198 28.465358 34.706289 -1.122672 0.609073 0.032021 -0.019449 -18313.500000 0 0 1
-8.860509 16.569998 28.819418 34.403957 -1.079751 0.577780 0.051443 -0.023658 234025.000000 0 0 1
-9.663509 16.345598 30.022658 35.523541 -1.036873 0.563954 0.054049 -0.031306 322267.000000 0 0 1
-10.555209 15.065398 29.972378 35.167060 -0.959650 0.550457 0.059310 -0.033802 358089.000000 0 0 1
-9.849909 13.806898 30.079608 34.531637 -0.951130 0.513412 0.060488 -0.018205 187894.000000 0 0 1
-8.957309 13.541898 31.142758 35.121044 -0.986413 0.480581 0.050652 -0.014230 -441448.000000 0 0 1
-9.357609 13.600298 32.600658 36.542247 -0.968139 0.468745 0.062149 -0.024361 -630782.000000 0 0 1
-9.880409 12.321098 32.912452 36.505635 -0.894892 0.447407 0.058591 -0.007378 372229.000000 0 0 1
-9.998909 12.083398 34.285240 37.702312 -0.879516 0.429036 0.040033 -0.005561 -115881.000000 0 0 1
-10.413009 10.609298 -34.237528 37.325545 -0.794735 2.731962 0.043231 -0.013491 396081.000000 0 0 1
-9.307409 9.691398 34.338650 36.874028 -0.805607 0.372989 0.045518 -0.010204 828962.000000 0 0 1
-9.318409 8.699098 -33.428373 35.776573 -0.751039 2.777269 0.070445 -0.011901 164296.000000 0 0 1
-8.464809 9.020498 -32.137443 34.435993 -0.817168 2.774157 0.054700 -0.015974 -17078.400000 0 0 1
-8.924109 10.107698 -31.328353 34.106758 -0.847508 2.735163 0.056352 -0.015297 73667.100000 0 0 1
-7.899709 10.785598 -30.633443 33.423679 -0.938634 2.730086 0.063897 -0.023501 -328903.000000 0 0 1
-7.110209 11.818798 -31.446503 34.338340 -1.029200 2.728252 0.045699 -0.015353 -351619.000000 0 0 1
-7.906309 12.925198 -31.825393 35.248065 -1.021820 2.697260 0.052622 -0.016538 -142927.000000 0 0 1
-7.132109 13.955198 -32.377933 35.971448 -1.098331 2.690797 0.033259 -0.012242 -295577.000000 0 0 1
-7.716909 15.397098 -32.554173 36.829275 -1.106195 2.654978 0.036591 -0.017727 -75924.400000 0 0 1
-8.714009 15.535198 -33.547443 37.982986 -1.059608 2.653487 0.054868 -0.019122 227661.000000 0 0 1
-8.919409 16.932398 -33.767933 38.814111 -1.085966 2.625981 0.059496 -0.026795 -927629.000000 0 0 1
-9.296309 17.265098 33.549036 38.859269 -1.076868 0.528931 0.050829 -0.031524 1363610.000000 0 0 1
-10.538509 16.772198 32.980929 38.472178 -1.009805 0.540858 0.053583 -0.033325 1316340.000000 0 0 1
-11.752509 17.038998 33.675905 39.528667 -0.966988 0.551124 0.051152 -0.040564 -862140.000000 0 0 1
-12.925209 16.767098 32.729328 38.979552 -0.914073 0.574151 0.043808 -0.035971 -642896.000000 0 0 1
-13.217109 15.420198 32.470538 38.298959 -0.862178 0.558940 0.037850 -0.030919 735534.000000 0 0 1
-14.323109 14.936298 33.242922 39.157838 -0.806352 0.556807 0.045172 -0.024426 230682.000000 0 0 1
-14.216109 13.402498 33.376463 38.674449 -0.755948 0.529597 0.036271 -0.014778 -147622.000000 0 0 1
-14.600509 12.656098 32.269098 37.611785 -0.714182 0.539527 0.018661 -0.018780 6875.470000 0 0 1
-13.521509 12.115298 31.513168 36.368824 -0.730602 0.522672 0.028369 -0.006487 -46476.700000 0 0 1
-13.852909 11.573598 30.155258 35.145282 -0.695994 0.539400 0.004187 -0.000691 -1034350.000000 0 0 1
-14.427109 10.309998 30.271868 35.083094 -0.620475 0.529891 0.011873 0.008251 -157610.000000 0 0 1
-14.685109 9.798698 28.979158 33.933147 -0.588409 0.547156 0.004811 0.006529 -195203.000000 0 0 1
-15.202009 8.355998 28.822968 33.640560 -0.502585 0.541780 0.000543 0.012473 -841305.000000 0 0 1
-14.351409 7.371498 29.233678 33.390266 -0.474502 0.504296 -0.008871 0.011093 -385890.000000 0 0 1
-14.980809 6.126198 29.007668 33.217461 -0.388186 0.508931 -0.004812 0.013052 451927.000000 0 0 1
-13.953909 4.928398 29.035998 32.589720 -0.339515 0.471351 0.000766 0.012523 1118580.000000 0 0 1
-13.095709 4.698498 27.860538 31.141340 -0.344476 0.463154 0.001118 0.008367 716030.000000 0 0 1
-13.831009 4.357598 26.680858 30.366983 -0.305215 0.497844 0.007037 0.010229 -30890.100000 0 0 1
-13.039909 4.273398 25.331528 28.809503 -0.316687 0.496455 0.014156 0.019508 -315165.000000 0 0 1
-12.308409 3.089398 25.237818 28.248695 -0.245919 0.465905 0.008323 0.013834 -71274.600000 0 0 1
-11.814309 2.784498 23.930158 26.832513 -0.231464 0.469412 0.000871 0.010989 772009.000000 0 0 1
-10.704309 1.623298 24.024068 26.350961 -0.150502 0.423403 -0.002918 0.008188 437572.000000 0 0 1
-9.415509 2.113998 24.250608 26.100053 -0.220860 0.378716 -0.004627 0.003859 569048.000000 0 0 1
-8.451809 1.056098 24.560948 25.995934 -0.124311 0.333814 -0.005012 0.008877 1275020.000000 0 0 1
-6.941809 1.345298 24.356728 25.362348 -0.191424 0.282542 0.001894 0.000822 -536700.000000 0 0 1
-6.549509 1.335998 22.999368 23.951031 -0.201224 0.282841 0.010702 0.000302 416719.000000 0 1 0
-5.174309 1.594098 22.725668 23.361733 -0.298853 0.233886 0.024222 -0.001922 599627.000000 0 1 0
-4.498609 2.896198 23.299168 23.905578 -0.572003 0.225721 0.039557 -0.002532 -707724.000000 0 1 0
-4.320709 2.852898 24.720408 25.256803 -0.583571 0.206462 0.042774 0.000147 -139861.000000 0 0 1
-4.057709 4.147098 25.169448 25.829528 -0.796292 0.226561 0.038121 -0.004168 -15025.600000 0 0 1
4.033291 -23.767502 13.430997 27.596255 -1.402700 1.062492 0.052835 -0.003227 378287.000000 0 0 1
3.921291 -25.035882 14.023897 28.962762 -1.415432 1.065343 0.040435 -0.009079 534404.000000 0 0 1
2.565491 -25.431682 13.764997 29.031489 -1.470259 1.076809 0.032221 -0.002330 848170.000000 0 0 1
2.151291 -26.798532 14.405897 30.501135 -1.490692 1.078890 0.014852 0.005232 671.655000 0 0 1
2.230391 -26.584992 15.794797 31.003420 -1.487096 1.036247 0.023834 -0.003139 60195.400000 0 0 1
2.099791 -27.767252 16.520697 32.378432 -1.495319 1.035335 0.015822 -0.004451 -321523.000000 0 0 1
1.696991 -27.489522 17.940997 32.869940 -1.509142 0.993432 -0.010194 0.000030 233169.000000 0 0 1
2.693591 -26.719632 18.635897 32.687778 -1.470326 0.964147 0.023001 -0.016261 635112.000000 0 0 1
2.642491 -27.060712 19.990797 33.747546 -1.473454 0.936808 0.012276 -0.018972 166822.000000 0 0 1
3.368891 -26.085152 20.950697 33.626125 -1.442358 0.898163 0.013354 -0.012510 -130075.000000 0 0 1
2.583991 -24.980502 21.252397 32.899345 -1.467723 0.868487 0.007950 -0.012526 -70347.500000 0 0 1
3.163391 -24.325802 22.334797 33.175214 -1.441479 0.832218 0.036973 -0.032531 574861.000000 0 0 1
2.293791 -23.054602 22.833097 32.528856 -1.471629 0.792688 0.040968 -0.028151 -190670.000000 0 0 1
2.064291 -22.020302 21.867197 31.101918 -1.477325 0.791074 0.039303 -0.019134 -132010.000000 0 0 1
3.133991 -21.664002 20.992597 30.328864 -1.427129 0.806311 0.045788 -0.011818 150543.000000 0 0 1
2.786091 -20.380402 20.152897 28.796916 -1.434934 0.795639 0.030047 -0.010238 29485.700000 0 0 1
2.660991 -19.193302 20.914697 28.511195 -1.433033 0.747250 0.017083 -0.009253 -134319.000000 0 0 1
2.167991 -18.215802 20.074597 27.193843 -1.452337 0.740393 -0.005921 -0.014545 -34127.600000 0 0 1
1.585391 -16.937802 20.741097 26.825281 -1.477467 0.686937 0.015702 -0.014410 314511.000000 0 0 1
2.561691 -15.985202 21.099997 26.595090 -1.411894 0.654456 -0.000360 0.010574 338373.000000 0 0 1
1.864391 -14.767102 21.376697 26.048156 -1.445208 0.608230 0.016203 0.007720 494728.000000 0 0 1
2.614791 -13.487802 20.934797 25.040441 -1.379308 0.580772 -0.022121 0.012262 -1061760.000000 0 0 1
2.908191 -13.322702 19.541497 23.829017 -1.355879 0.609260 -0.033137 0.006767 -302278.000000 0 1 0
1.833091 -13.189602 18.641397 22.909114 -1.432701 0.620288 -0.019825 0.009010 -217200.000000 0 1 0
0.825591 -12.073702 18.907097 22.448479 -1.502523 0.569364 -0.015113 -0.001508 -661586.000000 0 1 0
1.449591 -10.787302 18.851497 21.768007 -1.437217 0.523613 -0.018120 -0.002928 -293608.000000 0 1 0
1.227091 -9.866402 19.907797 22.252461 -1.447061 0.463186 -0.011667 -0.008180 421827.000000 0 1 0
-0.190309 -9.210402 19.981297 22.002726 1.550137 0.432005 0.001262 -0.015981 605323.000000 0 1 0
-0.316709 -8.373202 21.105497 22.707990 1.532990 0.377930 0.003758 -0.017947 -694892.000000 0 1 0
-1.614609 -7.863802 21.046997 22.526039 1.368289 0.364391 0.007598 -0.019065 -452057.000000 0 1 0
-1.938609 -7.230902 22.412597 23.629826 1.308856 0.322369 0.006796 -0.012577 -151102.000000 0 1 0
-2.207109 -8.165702 23.474797 24.952277 1.306814 0.345850 0.001349 -0.008034 102943.000000 0 1 0
-2.381409 -7.424902 24.688597 25.890676 1.260429 0.305918 -0.001170 -0.001393 -77300.200000 0 0 1
-2.572809 -8.349902 25.940197 27.372140 1.271903 0.324889 -0.002100 -0.005764 -79718.000000 0 0 1
-1.418609 -9.088802 26.260397 27.824939 1.415962 0.336936 -0.006317 -0.005846 44012.700000 0 0 1
-1.737709 -10.145202 27.175997 29.059931 1.401159 0.362055 0.004427 -0.011566 -222416.000000 0 0 1
-0.581509 -11.142602 27.380097 29.566289 1.518656 0.386967 0.008078 -0.012127 -805840.000000 0 0 1
0.444191 -10.573602 28.086697 30.014345 -1.528812 0.360343 0.009989 -0.012861 -937569.000000 0 0 1
1.508691 -11.486702 28.210697 30.496949 -1.440201 0.389673 0.027689 -0.022161 -282702.000000 0 0 1
2.643791 -11.116502 29.170497 31.328647 -1.337308 0.373345 0.042543 -0.025152 -126606.000000 0 0 1
2.296091 -10.975602 30.594697 32.584833 -1.364571 0.351305 0.036836 -0.023901 -151924.000000 0 0 1
3.241591 -10.221102 31.315397 33.100346 -1.263684 0.329900 0.052932 -0.018926 -92279.800000 0 0 1
2.851591 -10.033602 32.820897 34.438583 -1.293893 0.307719 0.039263 -0.017214 -413947.000000 0 0 1
2.807491 -11.216802 33.574697 35.509984 -1.325542 0.331669 0.029851 -0.017543 132049.000000 0 0 1
2.467691 -11.146302 -33.779273 35.656260 -1.352920 2.815680 0.017604 -0.017090 -43365.600000 0 0 1
3.330491 -10.276202 -32.752573 34.488020 -1.257381 2.823008 0.018132 -0.006880 247209.000000 0 0 1
3.100091 -8.873102 -32.822073 34.141339 -1.234673 2.862692 0.022054 -0.012432 806507.000000 0 0 1
4.140391 -8.131802 -32.154073 33.423846 -1.099847 2.865068 0.030973 -0.009037 -122615.000000 0 0 1
3.697491 -6.710902 -31.712573 32.625066 -1.067210 2.904525 0.021223 -0.006026 -218091.000000 0 0 1
3.619291 -5.684102 -32.700273 33.387365 -1.003800 2.938367 0.044436 -0.009053 -19651.800000 0 0 1
3.274191 -4.527802 -32.090373 32.573200 -0.944715 2.969200 0.033443 -0.004399 -133305.000000 0 0 1
3.164291 -3.354302 -33.076173 33.396067 -0.814539 3.003071 0.037681 -0.006618 -150734.000000 0 0 1
2.093091 -3.539202 -33.974473 34.222388 -1.036723 3.021152 0.038666 -0.011453 -41675.600000 0 0 1
2.132991 -2.655702 33.654497 33.826433 -0.894123 0.100868 0.056375 -0.012680 -54325.000000 0 0 1
1.568191 -3.267102 32.358697 32.560996 -1.123281 0.111529 0.048977 -0.013184 -477879.000000 0 0 1
0.207691 -3.045102 32.163597 32.308091 -1.502697 0.094612 0.036811 -0.020200 -875077.000000 0 0 1
-0.184309 -3.715502 31.006297 31.228663 1.521232 0.119407 0.037482 -0.020915 -706473.000000 0 0 1
-1.692909 -3.706202 30.838497 31.106507 1.142321 0.131364 0.018817 -0.016000 -604484.000000 0 0 1
-2.483809 -2.568902 30.673897 30.881330 0.802238 0.115971 0.010029 -0.013359 -702740.000000 0 0 1
-3.821209 -2.953802 30.638497 31.016836 0.658061 0.156350 -0.000604 -0.010084 -426436.000000 0 0 1
-4.857809 -1.887102 30.244797 30.690507 0.370525 0.170634 -0.001887 -0.001355 -506662.000000 0 0 1
-4.999409 -1.789102 28.861697 29.346082 0.343662 0.181943 -0.006909 -0.005641 299484.000000 0 0 1
-6.055609 -1.000902 28.285397 28.943668 0.163804 0.213682 -0.021774 -0.005630 519514.000000 0 0 1
-6.111609 0.524098 28.492197 29.145012 -0.085545 0.212052 0.013677 0.000099 -3069.970000 0 0 1
-6.604909 0.938398 29.764397 30.502865 -0.141131 0.220491 0.009032 0.007320 -170999.000000 0 0 1
-6.863909 2.314498 29.743397 30.612740 -0.325225 0.238887 0.017591 0.001476 -765777.000000 0 0 1
-8.348009 2.623598 29.912097 31.165784 -0.304504 0.284601 -0.003925 0.008042 -749589.000000 0 0 1
-9.018909 2.113298 28.771397 30.225817 -0.230166 0.311478 -0.011251 0.014314 124158.000000 0 0 1
-10.411309 2.402098 28.915397 30.826379 -0.226752 0.353958 -0.006887 0.016030 534389.000000 0 0 1
-11.301309 1.574598 27.950397 30.189794 -0.138438 0.387590 0.003895 0.016431 -56537.900000 0 0 1
-11.277209 0.221498 28.325897 30.489030 -0.019639 0.378954 0.003821 0.016841 -90238.600000 0 0 1
-11.842709 -0.610502 27.401197 29.857128 0.051505 0.408434 0.003027 0.018110 -1499610.000000 0 0 1
-11.925109 -2.055202 27.866597 30.380575 0.170666 0.409675 0.009158 0.009649 -320101.000000 0 0 1
-10.772709 -2.814902 28.160297 30.281632 0.255585 0.376529 0.010413 0.007412 533958.000000 0 0 1
-9.618409 -2.722602 27.324197 29.095328 0.275845 0.350717 0.010941 0.004617 -224482.000000 0 0 1
-9.721009 -3.240102 25.878697 27.833491 0.321729 0.377013 0.005740 0.005170 -450468.000000 0 0 1
-10.706309 -2.552802 25.107597 27.414107 0.234069 0.413141 0.004725 0.012626 482349.000000 0 0 1
-10.721909 -3.104202 23.770397 26.260754 0.281814 0.439021 0.011407 0.005120 126162.000000 0 0 1
-9.640009 -2.480802 22.839997 24.914847 0.251879 0.410999 0.016976 0.000706 550252.000000 0 1 0
-8.293209 -2.728202 23.178297 24.768001 0.317817 0.360229 0.011577 -0.002798 -190247.000000 0 1 0
-7.436809 -2.383402 22.099697 23.438928 0.310145 0.339675 0.011955 -0.002475 660171.000000 0 1 0
-5.910209 -2.324102 22.479497 23.359362 0.374661 0.275337 0.020503 -0.004387 1003720.000000 0 1 0
-5.182109 -3.562802 22.614897 23.472993 0.602301 0.271226 0.021610 -0.006310 117730.000000 0 1 0
-5.719909 -4.450302 23.525697 24.616681 0.661205 0.298832 0.018881 -0.007174 -672985.000000 0 1 0
-5.493209 -5.910002 23.111997 24.479949 0.821932 0.335883 0.022569 -0.007283 238528.000000 0 1 0
-6.406809 -6.391202 22.111597 23.891785 0.784179 0.388470 0.024249 -0.012173 455244.000000 0 1 0
-6.000509 -6.044902 20.821497 22.496259 0.789084 0.388301 0.029007 -0.018578 -394607.000000 0 1 0
-7.166409 -6.189602 19.836797 21.981063 0.712392 0.445374 0.030093 -0.012789 399029.000000 0 1 0
-8.189809 -5.232002 20.162397 22.382338 0.568492 0.449148 0.036306 -0.012528 -607963.000000 0 1 0
-9.144909 -5.103902 19.208097 21.877618 0.509051 0.499172 0.038439 -0.006483 -230493.000000 0 1 0
-9.938709 -3.776302 19.263597 22.002831 0.363111 0.504316 0.028930 -0.008640 219738.000000 0 1 0
-9.156109 -2.808402 18.662297 20.976243 0.297614 0.474137 0.027505 -0.014493 296322.000000 0 1 0
-9.791209 -1.554802 18.797597 21.251702 0.157481 0.485328 0.021961 -0.011742 566098.000000 0 1 0
-8.728209 -0.484502 18.361697 20.336379 0.055453 0.444330 0.020608 -0.003499 163984.000000 0 1 0
-7.549009 -0.314902 19.073397 20.515389 0.041690 0.377167 0.018840 0.002451 -144666.000000 0 1 0
-7.670809 0.589898 20.149897 21.568673 -0.076751 0.364729 0.021904 0.001027 -232648.000000 0 1 0
-7.637309 2.136598 19.912797 21.433922 -0.272784 0.379009 0.019571 -0.004247 -316350.000000 0 1 0
-8.736309 2.560398 19.155597 21.208857 -0.285092 0.443656 0.012410 -0.007226 113289.000000 0 1 0
-8.451509 3.906898 18.807997 20.986486 -0.433013 0.459678 0.005337 -0.003516 97294.900000 0 1 0
-9.377609 4.496398 17.726797 20.552287 -0.447099 0.530564 0.005652 0.004650 -1636090.000000 0 1 0
-10.669109 4.598898 18.157097 21.555972 -0.406982 0.569217 0.004720 0.009673 -1203470.000000 0 1 0
-11.562509 5.157698 17.209797 21.365172 -0.419582 0.634266 0.011175 0.025215 67248.800000 0 1 0
-11.549509 6.711098 17.208397 21.784373 -0.526386 0.660082 0.009657 0.026497 -718836.000000 0 1 0
-10.313909 7.292898 16.874197 21.078463 -0.615471 0.642597 0.004773 0.017407 -55785.600000 0 1 0
-10.461009 8.685798 16.676897 21.517312 -0.692947 0.684009 0.000056 0.013479 -136418.000000 0 1 0
-9.146109 9.472698 16.785097 21.333607 -0.802937 0.665203 -0.003152 0.011242 -218153.000000 0 1 0
-8.750409 9.625698 18.133697 22.317139 -0.832994 0.622290 0.012664 0.024072 12342.100000 0 1 0
-7.918509 10.777198 18.367697 22.720543 -0.937129 0.629337 0.019360 0.017329 118653.000000 0 1 0
-8.401309 12.200298 17.982997 23.298443 -0.967752 0.689044 0.017893 0.016361 -176670.000000 0 1 0
-8.244509 12.518598 16.634897 22.392120 -0.988413 0.733418 0.011841 0.000752 -389446.000000 0 1 0
-9.170809 13.501498 16.321497 23.082146 -0.974137 0.785401 0.031104 -0.010868 -198392.000000 0 1 0
-8.853309 14.138098 14.952997 22.402210 -1.011333 0.839979 0.031998 -0.009130 171887.000000 0 1 0
-7.679609 14.908498 14.936397 22.457419 -1.095129 0.843171 0.026792 0.000035 -179353.000000 0 1 0
-7.400209 15.515398 13.655197 21.953475 -1.125751 0.899494 0.017677 -0.007966 -173210.000000 0 1 0
-6.230609 16.518498 13.683997 22.336809 -1.210107 0.911424 -0.008796 -0.003805 112963.000000 0 1 0
-4.974309 15.871798 13.817397 21.623556 -1.267087 0.877602 -0.008712 -0.014810 -380634.000000 0 1 0
-4.021809 16.921698 13.796697 22.200623 -1.337454 0.900197 -0.007947 -0.016730 1965130.000000 0 1 0
-2.472509 16.452098 13.766897 21.594265 -1.421627 0.879514 0.013983 -0.029815 2033290.000000 0 1 0
-1.854509 16.109098 14.975097 22.072512 -1.456179 0.825146 0.020497 -0.021667 -132241.000000 0 1 0
-2.320609 14.874198 15.464397 21.581811 -1.416028 0.771956 0.024377 -0.013542 -785815.000000 0 1 0
-1.332009 14.444698 16.488697 21.961345 -1.478842 0.721516 0.029364 -0.005893 -590923.000000 0 1 0
-0.153209 13.849398 15.933197 21.111515 -1.559734 0.715575 0.015150 -0.027303 17303.300000 0 1 0
0.738191 13.487498 16.956197 21.678795 1.516119 0.672678 0.015809 0.002305 75275.700000 0 1 0
1.692691 14.601398 17.477797 22.837238 1.455385 0.699258 0.010278 -0.008882 -133707.000000 0 1 0
1.058891 15.578298 18.313397 24.066266 1.502929 0.706009 0.008034 -0.013255 1056170.000000 0 1 0
2.087091 16.531098 18.745897 25.080706 1.445208 0.726622 0.029849 -0.018115 832724.000000 0 0 1
1.363791 17.812898 19.109297 26.159597 1.494383 0.751759 0.032546 -0.020443 443664.000000 0 0 1
0.765291 18.522498 18.009097 25.845622 1.529503 0.799877 0.026811 -0.015477 154672.000000 0 0 1
-0.523309 18.052298 17.656797 25.257114 -1.541816 0.796683 0.034725 -0.014500 -251738.000000 0 0 1
-1.324309 18.967898 16.689897 25.299953 -1.501091 0.850402 0.021404 -0.008164 -283835.000000 0 0 1
-1.816609 20.104598 17.267697 26.564418 -1.480683 0.863171 0.018728 0.001844 -360851.000000 0 0 1
-2.703909 20.794298 16.447797 26.650403 -1.441491 0.905657 0.022721 -0.006565 -665552.000000 0 0 1
-3.290509 22.035798 17.093997 28.082176 -1.422566 0.916358 0.020721 -0.007050 -152215.000000 0 0 1
-4.518809 21.782998 17.762797 28.468151 -1.366251 0.897005 0.025432 -0.003787 83211.900000 0 0 1
-4.979309 22.966398 18.299097 29.784323 -1.357292 0.909188 0.026478 -0.008043 1540.280000 0 0 1
-6.087609 22.740498 19.376097 30.489709 -1.309230 0.882145 0.019206 -0.005661 169105.000000 0 0 1
-7.379009 22.710398 18.804397 30.394363 -1.256639 0.903734 0.000062 -0.002305 -297404.000000 0 0 1
-8.271909 22.224998 19.782697 30.882521 -1.214492 0.875544 -0.018482 0.003125 -14276.200000 0 0 1
-9.775209 22.439498 19.480297 31.282068 -1.159961 0.898569 -0.014528 0.002998 154728.000000 0 0 1
-10.047409 23.804198 19.669797 32.472930 -1.171397 0.920115 -0.011429 0.009800 -865159.000000 0 0 1
-11.080209 24.131098 18.847897 32.562619 -1.140345 0.953515 -0.020345 0.011837 -992174.000000 0 0 1
-11.747909 25.502898 18.939997 33.869377 -1.139121 0.977367 -0.013591 0.002467 -131275.000000 0 0 1
-12.505409 25.725598 20.102197 34.961264 -1.118324 0.958211 -0.009982 0.021434 40716.700000 0 0 1
-12.968009 27.044798 20.204897 36.163908 -1.123682 0.977975 0.018007 0.004720 -380010.000000 0 0 1
-13.668909 27.303698 21.549197 37.372435 -1.106649 0.956227 0.030507 -0.002810 491604.000000 0 0 1
-14.976109 26.713898 21.669897 37.516671 -1.059843 0.955002 0.030310 -0.001933 852321.000000 0 0 1
-15.524909 26.808698 22.979897 38.572072 -1.045886 0.932578 0.025200 0.000326 1163300.000000 0 0 1
-17.010709 26.276998 23.093097 38.899049 -0.996278 0.935188 0.037164 -0.001010 1093350.000000 0 0 1
-17.145009 24.865398 23.058597 37.999188 -0.967144 0.918745 0.044614 0.000505 1096010.000000 0 0 1
-18.556509 24.520298 23.019297 38.411939 -0.922969 0.928202 0.052138 0.007861 1209810.000000 0 0 1
26.548291 24.694398 23.681498 43.306332 0.749235 0.992215 0.019399 -0.009686 90577.300000 0 0 1
26.535891 23.909198 24.852048 43.513533 0.733375 0.962910 0.028604 -0.012011 131999.000000 0 0 1
26.427391 22.603698 24.439448 42.504362 0.707571 0.958208 0.030743 -0.003538 -109931.000000 0 0 1
26.308391 21.623898 25.624168 42.618334 0.687976 0.925735 0.053865 -0.001211 -269905.000000 0 0 1
25.013891 21.754198 26.152698 42.224442 0.715812 0.902852 0.034572 0.001954 30851.600000 0 0 1
24.976091 21.125798 27.439418 42.696910 0.702075 0.872837 0.044800 -0.001276 9907.410000 0 0 1
23.605791 21.366298 28.106148 42.470079 0.735642 0.847596 0.035510 -0.001939 -16826.700000 0 0 1
23.366591 22.731798 28.489908 43.294423 0.771629 0.852570 0.043967 -0.020895 267976.000000 0 0 1
22.255891 22.855798 29.359098 43.355147 0.798696 0.826877 0.046364 -0.014137 -132482.000000 0 0 1
21.876391 24.207498 30.040888 44.351261 0.835939 0.826655 0.048046 -0.022432 -294774.000000 0 0 1
21.475991 25.312898 29.293328 44.272565 0.867220 0.847768 0.036963 -0.019871 64869.500000 0 0 1
21.197091 26.485198 30.070378 45.332218 0.895850 0.845532 0.038340 -0.025145 592914.000000 0 0 1
19.826791 26.595798 30.840078 45.294023 0.930191 0.821824 0.039693 -0.019490 767034.000000 0 0 1
18.735691 26.943498 29.999228 44.462702 0.963185 0.830231 0.032271 -0.016188 547867.000000 0 0 1
17.451691 27.309798 30.440518 44.463600 1.002174 0.816719 0.034820 -0.018987 589828.000000 0 0 1
16.508891 26.238298 31.019208 43.854111 1.009189 0.785086 0.014400 -0.001894 -477556.000000 0 0 1
16.961691 25.793898 32.250188 44.644135 0.989107 0.763553 0.020061 -0.013606 -235684.000000 0 0 1
16.198391 24.739698 32.728599 44.108975 0.991087 0.734756 0.006101 -0.013448 -184293.000000 0 0 1
16.650491 24.136098 34.120001 44.988493 0.966909 0.709917 0.018522 -0.013763 -176010.000000 0 0 1
16.685191 25.145298 -33.660803 45.207646 0.984954 2.410705 0.014198 -0.009080 237109.000000 0 0 1
17.052091 24.716298 -32.359713 44.145444 0.966872 2.393555 0.012218 -0.001992 -416804.000000 0 0 1
17.384091 25.911598 -31.412213 44.275780 0.979869 2.359538 0.012349 0.012026 -498914.000000 0 0 1
16.361091 26.720498 -30.905993 44.009666 1.021378 2.349356 0.024309 -0.012857 -153643.000000 0 0 1
16.861591 27.941898 -30.409993 44.607517 1.027843 2.320912 0.028726 -0.011539 -9004.520000 0 0 1
16.190891 28.422898 -29.085053 43.771525 1.052998 2.297586 0.034440 -0.004304 -46850.600000 0 0 1
16.605691 27.639498 -27.999193 42.704164 1.029792 2.285846 0.022855 0.003696 472151.000000 0 0 1
16.078691 28.158998 -26.767753 42.047189 1.051976 2.260894 0.018493 0.008616 -319024.000000 0 0 1
16.769891 27.330898 -25.708543 41.099105 1.020446 2.246601 0.013702 0.013670 1022700.000000 0 0 1
18.201191 27.515798 -25.745453 41.847710 0.986392 2.233458 0.037725 0.011733 644060.000000 0 0 1
18.832891 26.787998 -24.702803 41.018326 0.958037 2.217098 0.038012 0.011020 868377.000000 0 0 1
20.377291 27.004798 -24.557003 41.803582 0.924370 2.198685 0.035300 0.007069 873369.000000 0 0 1
20.861791 26.312898 -23.425203 40.942924 0.900439 2.179913 0.042319 0.007883 -575600.000000 0 0 1
22.253991 26.451998 -23.286003 41.679566 0.871376 2.163603 0.034642 0.008805 -19914.900000 0 0 1
22.790191 26.337798 -21.854303 41.117915 0.857485 2.131170 0.029097 0.007720 50323.900000 0 0 1
22.678191 24.956798 -21.406503 39.942214 0.833196 2.136413 0.039929 0.009543 -14979.900000 0 0 1
23.202491 24.882698 -20.127803 39.530149 0.820326 2.105023 0.038201 0.005697 -340917.000000 0 0 1
22.795891 23.624398 -19.334103 38.099506 0.803244 2.103035 0.045279 0.000155 -76950.000000 0 0 1
23.614791 22.520998 -19.668003 38.100972 0.761694 2.113213 0.048961 0.004455 370360.000000 0 0 1
23.266591 21.506498 -18.743103 36.812601 0.746107 2.104992 0.051974 0.005675 -396175.000000 0 0 1
23.299591 20.002498 -19.235703 36.235109 0.709403 2.130409 0.060848 -0.005069 362263.000000 0 0 1
22.412491 19.596798 -20.265303 36.014396 0.718473 2.168445 0.050916 -0.009560 -769240.000000 0 0 1
21.055291 19.733598 -20.094203 35.164146 0.753006 2.179056 0.046206 -0.001720 -1329740.000000 0 0 1
20.276891 19.619598 -21.434803 35.433483 0.768925 2.220475 0.051130 -0.001239 -214741.000000 0 0 1
20.501991 20.591798 -22.474303 36.734835 0.787584 2.229128 0.051143 0.003553 -69970.700000 0 0 1
20.314891 21.962698 -22.074103 37.179577 0.824354 2.206465 0.048367 0.007911 -114224.000000 0 0 1
19.737891 22.918898 -23.121203 38.071646 0.859833 2.223464 0.043673 0.004863 343257.000000 0 0 1
18.356191 22.647398 -23.307803 37.324363 0.889673 2.245244 0.035536 0.005003 -179075.000000 0 0 1
17.969791 23.191298 -24.539803 38.248551 0.911580 2.267363 0.032482 0.000489 239270.000000 0 0 1
16.426591 23.298198 -24.626503 37.670991 0.956684 2.283294 0.024286 0.002876 21762.300000 0 0 1
15.821891 24.382398 -24.012503 37.701908 0.995190 2.261272 0.007262 0.000209 605351.000000 0 0 1
14.397091 24.293398 -24.184603 37.179839 1.035811 2.279008 -0.003132 0.003992 725930.000000 0 0 1
13.640391 25.473498 -23.604503 37.311284 1.079174 2.255750 -0.003338 0.013044 -219492.000000 0 0 1
13.867991 26.696098 -24.223403 38.623517 1.091689 2.248707 -0.004107 0.018405 162550.000000 0 0 1
12.908491 27.672598 -23.821803 38.728286 1.134329 2.233310 0.000434 0.013834 258359.000000 0 0 1
12.991591 28.970998 -24.633703 40.186061 1.149245 2.230637 0.006576 0.007277 -270102.000000 0 0 1
12.857491 28.744898 -26.015153 40.845715 1.150193 2.261283 0.007219 -0.000815 -21469.500000 0 0 1
12.487391 29.909198 -26.806463 42.060451 1.175287 2.261827 0.022591 -0.010163 -104954.000000 0 0 1
13.372191 31.183298 -26.692003 43.170321 1.165690 2.237368 0.029631 -0.014266 -981157.000000 0 0 1
14.663591 31.080398 -27.139963 43.790292 1.129966 2.239247 0.025712 -0.001667 -1303190.000000 0 0 1
15.237891 32.345598 -27.181333 44.913872 1.130538 2.220798 0.031847 -0.002416 -560986.000000 0 0 1
16.689391 32.311198 -27.667553 45.695107 1.094020 2.221167 0.027026 0.014135 -459416.000000 0 0 1
17.548891 31.929198 -26.623193 45.124624 1.068246 2.201846 0.007926 0.022289 291005.000000 0 0 1
18.838991 31.578998 -27.114463 45.687359 1.032905 2.206170 0.007531 0.023432 -242722.000000 0 0 1
19.675691 30.627298 -26.221613 44.863540 0.999766 2.195029 0.012401 0.024328 -41995.000000 0 0 1
20.394191 31.277498 -25.157643 45.023460 0.992988 2.163695 0.019992 0.023797 405928.000000 0 0 1
21.453591 32.143298 -25.489893 46.294523 0.982261 2.153882 0.025737 0.012652 -183785.000000 0 0 1
22.816491 31.499798 -25.867143 46.711226 0.943922 2.157678 0.032550 0.009521 -248817.000000 0 0 1
22.805791 31.139898 -27.253813 47.250055 0.938677 2.185602 0.026226 0.013001 772105.000000 0 0 1
24.002591 31.557598 -27.929663 48.498170 0.920548 2.184490 0.026731 0.019345 -157191.000000 0 0 1
23.852391 31.204298 -29.424973 49.076204 0.918146 2.213769 0.019882 0.021492 -799812.000000 0 0 1
22.911091 31.873198 -30.158023 49.500760 0.947551 2.225903 0.017238 0.016008 -888503.000000 0 0 1
21.662491 31.230498 -30.065103 48.461510 0.964357 2.240038 0.011443 0.013854 -441056.000000 0 0 1
20.511391 31.889698 -30.863743 48.890087 0.999218 2.254010 0.002505 0.013785 75443.600000 0 0 1
19.779191 32.917098 -30.206323 48.858711 1.029731 2.237296 -0.000698 0.012809 311843.000000 0 0 1
18.972591 33.740298 -31.030843 49.611290 1.058549 2.246542 -0.000407 0.015383 745971.000000 0 0 1
17.416191 33.531398 -30.960673 48.849172 1.091750 2.257254 0.019862 0.002533 573166.000000 0 0 1
16.908691 32.334098 -31.535223 48.227254 1.088968 2.283508 0.028505 -0.001715 187234.000000 0 0 1
17.239291 31.901298 -32.871643 48.943139 1.075358 2.307202 0.023042 -0.008053 -954089.000000 0 0 1
16.912891 32.823698 -34.045773 50.225050 1.095012 2.315650 0.040908 -0.017336 -607286.000000 0 0 1
17.602891 34.037798 -34.145043 51.325602 1.093517 2.298643 0.031430 -0.006376 -106400.000000 0 0 1
17.483791 -34.014266 33.381976 50.764255 -1.096001 0.853183 0.049721 -0.015940 -63781.700000 0 0 1
16.098791 -33.647866 32.774458 49.653953 -1.124538 0.849901 0.056791 -0.019634 -56414.300000 0 0 1
15.257791 34.016098 32.463118 49.434291 1.149152 0.854372 0.059222 -0.022222 302204.000000 0 0 1
13.872091 34.321998 32.420478 49.208961 1.186696 0.851530 0.042731 -0.017663 477241.000000 0 0 1
13.363191 -33.831866 31.109518 47.864101 -1.194618 0.863271 0.047507 -0.018069 -915327.000000 0 0 1
13.716791 -32.457566 30.901678 46.867448 -1.170954 0.850853 0.075876 -0.023118 257282.000000 0 0 1
13.019991 -31.842966 29.831648 45.534842 -1.182657 0.856430 0.087489 -0.032231 -72327.900000 0 0 1
13.384791 -30.321266 29.675498 44.487830 -1.155090 0.840558 0.075337 -0.035664 -83920.900000 0 0 1
12.909691 -29.459966 30.711908 44.472137 -1.157789 0.808495 0.068827 -0.020346 285574.000000 0 0 1
13.428391 -28.166866 30.663678 43.748773 -1.125926 0.794133 0.071856 -0.024144 -742176.000000 0 0 1
12.952791 -27.255966 31.794308 43.835379 -1.127162 0.759309 0.059164 -0.015593 1164820.000000 0 0 1
11.520491 -27.048266 31.808078 43.313788 -1.168144 0.746067 0.041561 -0.009122 1589420.000000 0 0 1
10.816291 -26.219366 30.835128 41.895733 -1.179535 0.743658 0.022254 -0.010460 -34517.400000 0 0 1
11.130491 -24.674366 30.832508 41.028718 -1.147032 0.720485 0.001346 -0.002518 -239928.000000 0 0 1
10.485691 -24.062466 31.947568 41.347298 -1.159839 0.687769 0.022050 -0.010976 137632.000000 0 0 1
11.004491 -22.847166 32.384748 41.132271 -1.121931 0.664327 0.010531 -0.009776 -34650.100000 0 0 1
10.215391 -22.293566 33.622428 41.615201 -1.141126 0.630155 0.017567 -0.009059 -114201.000000 0 0 1
10.257691 -22.957966 -33.850373 42.167952 -1.150604 2.502691 0.019857 -0.005313 -309630.000000 0 0 1
11.495091 -23.235266 -33.253213 42.163858 -1.111377 2.479433 0.027586 -0.009321 -115432.000000 0 0 1
12.084191 -22.031466 -32.431933 41.027350 -1.069108 2.482414 0.031310 -0.016917 -20226.200000 0 0 1
12.331291 -20.887666 -33.196683 41.114171 -1.037493 2.510574 0.018964 -0.012290 -122636.000000 0 0 1
13.440691 -20.244566 -32.626013 40.681093 -0.984700 2.501423 0.034690 -0.016434 -284989.000000 0 0 1
13.819891 -18.984966 -33.414143 40.840216 -0.941565 2.529013 0.026784 -0.015658 -469369.000000 0 0 1
14.294791 -19.322666 34.039018 41.669668 -0.933859 0.614819 0.039982 0.001118 231360.000000 0 0 1
14.186691 -18.278766 33.023573 40.322845 -0.910781 0.611166 0.011513 0.002449 -165337.000000 0 0 1
15.159291 -17.080966 33.040562 40.165187 -0.844933 0.604798 0.030112 -0.002310 -960835.000000 0 0 1
14.922391 -16.199766 34.138051 40.626551 -0.826419 0.572980 0.027232 -0.004200 467004.000000 0 0 1
15.764291 -15.047066 34.219035 40.569316 -0.762124 0.567084 0.034845 -0.008959 276496.000000 0 0 1
17.278891 -15.237466 -34.277570 41.300027 -0.722699 2.549841 0.048728 -0.007435 -97975.100000 0 0 1
17.958291 -15.855366 33.395302 41.099137 -0.723287 0.622274 0.045745 -0.002072 -707514.000000 0 0 1
19.329091 -15.935866 33.643039 41.945437 -0.689473 0.640049 0.063236 -0.002656 -754825.000000 0 0 1
20.020291 -16.592666 32.464268 41.593958 -0.692052 0.675324 0.075378 -0.014082 -665563.000000 0 0 1
20.261991 -15.750966 31.368658 40.529420 -0.660786 0.685705 0.063516 -0.011640 575970.000000 0 0 1
20.780691 -16.584766 30.289458 40.303137 -0.673572 0.720401 0.064190 -0.015341 -271389.000000 0 0 1
21.048491 -15.753766 29.027828 39.164204 -0.642509 0.735966 0.070746 -0.006344 -179694.000000 0 0 1
21.833591 -14.596666 29.324228 39.365959 -0.589300 0.730391 0.064913 -0.005782 570023.000000 0 0 1
22.031791 -13.799566 28.157278 38.323102 -0.559568 0.745522 0.061878 -0.013329 -36922.300000 0 0 1
22.757191 -12.453066 28.258178 38.360047 -0.500702 0.742683 0.046888 0.001700 -215341.000000 0 0 1
21.900091 -11.404066 28.639258 37.813672 -0.480095 0.711507 0.053286 -0.007344 -338813.000000 0 0 1
22.526391 -10.197266 28.890068 38.027076 -0.425081 0.707908 0.049758 -0.010749 -555165.000000 0 0 1
21.624991 -8.972666 29.122758 37.366884 -0.393303 0.677131 0.047771 -0.010669 -315768.000000 0 0 1
20.749691 -9.152166 30.198368 37.765768 -0.415407 0.644130 0.046749 -0.016902 -934101.000000 0 0 1
19.748791 -8.222566 30.053128 36.889237 -0.394528 0.618610 0.026737 -0.014668 45911.600000 0 0 1
18.498591 -8.310366 31.015308 37.056840 -0.422224 0.579081 0.015109 -0.004424 467483.000000 0 0 1
18.763691 -7.915166 32.385328 38.256181 -0.399186 0.561348 0.019805 -0.010408 260465.000000 0 0 1
19.518391 -8.841466 33.140277 39.464124 -0.425330 0.573961 0.023846 -0.014090 -432319.000000 0 0 1
19.684891 -8.306666 -34.182938 40.310903 -0.399311 2.582963 0.020026 -0.019466 367134.000000 0 0 1
18.463491 -8.335566 -33.442183 39.099383 -0.424069 2.596950 0.014934 -0.029131 619205.000000 0 0 1
18.627791 -7.439466 -32.361393 38.073613 -0.379967 2.586723 0.024338 -0.030526 331116.000000 0 0 1
17.263991 -7.024266 -31.727313 36.796849 -0.386418 2.610450 0.023224 -0.026759 137879.000000 0 0 1
17.347391 -5.996966 -30.738203 35.801295 -0.332838 2.603286 0.037558 -0.026887 -100091.000000 0 0 1
16.184791 -5.736566 -29.980463 34.549729 -0.340626 2.621450 0.045615 -0.018699 -273458.000000 0 0 1
16.366191 -4.706066 -28.868113 33.516671 -0.279994 2.608631 0.044775 -0.015036 -425724.000000 0 0 1
17.065491 -5.043066 -27.671363 32.899359 -0.287335 2.570094 0.049511 -0.021782 134722.000000 0 0 1
16.604091 -6.143866 -26.921413 32.221195 -0.354399 2.559873 0.065497 -0.023655 -383794.000000 0 0 1
15.199191 -5.987666 -26.327103 30.983607 -0.375277 2.586233 0.065972 -0.017903 -209626.000000 0 0 1
15.211091 -4.872966 -25.474243 30.067593 -0.310026 2.581550 0.063882 -0.015339 95369.200000 0 0 1
13.957291 -4.849666 -24.798003 28.866350 -0.334414 2.604232 0.057970 -0.014432 371034.000000 0 0 1
13.738891 -3.572966 -23.944503 27.836351 -0.254426 2.606435 0.065701 -0.013731 76293.300000 0 0 1
13.388891 -2.352966 -24.641903 28.142890 -0.173964 2.637472 0.039465 -0.017813 298470.000000 0 0 1
13.149991 -1.270966 -23.737803 27.166540 -0.096352 2.633735 0.043140 -0.016153 -37804.200000 0 0 1
13.681791 0.090034 -24.284203 27.873321 0.006580 2.628508 0.036633 -0.021698 -146316.000000 0 0 1
12.872391 0.719034 -25.303043 28.398230 0.055801 2.670356 0.027204 -0.017410 267878.000000 0 0 1
13.486091 1.894034 -25.802353 29.175734 0.139531 2.655954 0.029161 -0.008487 -258043.000000 0 0 1
12.772491 2.620034 -26.965063 29.951890 0.202324 2.691207 0.015263 -0.008259 752516.000000 0 0 1
11.568391 3.278034 -26.479983 29.081999 0.276123 2.715356 0.025185 -0.014870 1049450.000000 0 0 1
10.826691 3.768034 -27.578553 29.866233 0.334920 2.747649 0.023773 -0.013655 390090.000000 0 0 1
9.554191 4.626034 -27.265263 29.258799 0.450919 2.770317 0.029464 -0.014916 413691.000000 0 0 1
9.782591 5.886034 -26.667883 29.008972 0.541657 2.737089 0.032945 -0.016172 -457420.000000 0 0 1
8.731391 6.763034 -26.904753 29.083355 0.659039 2.752072 0.038808 -0.016280 -244093.000000 0 0 1
8.232391 5.083798 -31.726613 33.169191 0.553214 2.845584 0.015032 -0.010728 -163347.000000 0 0 1
7.907591 4.106798 -30.781923 32.045632 0.479007 2.859825 0.011939 -0.003591 335284.000000 0 0 1
7.828291 2.846898 -31.296873 32.386436 0.348799 2.881466 0.014073 -0.001719 -237974.000000 0 0 1
7.491391 1.879798 -30.177023 31.149756 0.245852 2.891027 0.019746 -0.006654 458402.000000 0 0 1
8.609791 1.755298 -29.281553 30.571538 0.201116 2.850060 0.024992 -0.013668 1070190.000000 0 0 1
8.228091 0.786098 -28.300023 29.482380 0.095249 2.857428 0.019612 -0.011759 -134903.000000 0 0 1
9.402891 0.220598 -27.508603 29.072087 0.023456 2.812143 0.021786 -0.019867 -362703.000000 0 0 1
10.324791 -0.549202 -28.225003 30.059170 -0.053142 2.790453 0.025482 -0.010074 252436.000000 0 0 1
11.351091 -1.043702 -27.359013 29.638694 -0.091689 2.746821 0.024424 -0.015651 114387.000000 0 0 1
12.062091 -2.254802 -27.987623 30.559535 -0.184800 2.728389 0.031642 -0.012375 -111533.000000 0 0 1
11.302991 -3.438102 -28.016563 30.405689 -0.295284 2.742528 0.032184 -0.011899 21881.500000 0 0 1
12.121491 -4.511602 -28.384433 31.192325 -0.356312 2.714035 0.044234 -0.007508 55574.700000 0 0 1
11.417691 -5.842502 -27.988533 30.787278 -0.472969 2.711901 0.041995 0.000783 188022.000000 0 0 1
11.354991 -5.863402 -26.586953 29.498837 -0.476659 2.693530 0.051157 -0.003130 635173.000000 0 0 1
10.437191 -6.835702 -26.028053 28.863841 -0.579838 2.694604 0.053519 -0.007280 396358.000000 0 0 1
10.288591 -6.603002 -24.499803 27.380560 -0.570574 2.678753 0.052993 -0.006421 279175.000000 0 0 1
11.442091 -6.914702 -23.706403 27.216320 -0.543591 2.628104 0.059165 -0.006234 515003.000000 0 0 1
11.214591 -6.816202 -22.324003 25.895729 -0.546133 2.610142 0.056567 -0.004593 -112403.000000 0 0 1
12.558291 -6.933902 -21.589303 25.920796 -0.504483 2.555115 0.064645 -0.004626 191493.000000 0 0 1
13.209891 -5.665402 -21.371803 25.755620 -0.405149 2.549531 0.058321 -0.008904 287892.000000 0 0 1
14.468591 -5.881502 -20.742803 25.965286 -0.386098 2.496205 0.066972 -0.011235 460436.000000 0 0 1
15.031191 -4.641002 -20.011403 25.454505 -0.299472 2.475373 0.075265 -0.016390 -148548.000000 0 0 1
15.652191 -3.699502 -20.827403 26.314599 -0.232097 2.484018 0.070341 -0.014150 -171233.000000 0 0 1
16.237091 -2.741702 -20.018803 25.921276 -0.167276 2.453238 0.058715 -0.007705 210886.000000 0 0 1
17.281291 -1.840002 -20.810203 27.112602 -0.106074 2.445802 0.038232 -0.009391 -27503.200000 0 0 1
18.432391 -2.580102 -21.046203 28.095420 -0.139073 2.417495 0.052337 -0.014558 -618339.000000 0 0 1
19.295591 -1.830902 -21.890703 29.238244 -0.094604 2.416897 0.047166 -0.010523 363164.000000 0 0 1
20.694891 -2.444102 -22.163203 30.421369 -0.117557 2.386985 0.017868 -0.004817 -248129.000000 0 0 1
21.547291 -2.449202 -21.031403 30.209340 -0.113181 2.340871 -0.001538 0.004676 2423960.000000 0 0 1
22.989991 -2.646602 -21.277003 31.436524 -0.114615 2.314236 -0.008528 -0.003483 2581420.000000 0 0 1
23.813691 -1.658102 -22.150203 32.564899 -0.069516 2.318813 -0.005454 -0.001626 -1004290.000000 0 0 1
23.400391 -1.790702 -23.472603 33.192590 -0.076376 2.356275 0.000587 -0.004296 217572.000000 0 0 1
24.192191 -1.098402 -24.424703 34.395272 -0.045372 2.360462 0.003008 0.005739 -911047.000000 0 0 1
25.426191 -1.766002 -24.949903 35.666618 -0.069345 2.345537 0.009017 -0.001410 -1731780.000000 0 0 1
26.387491 -1.914502 -23.944303 35.683254 -0.072426 2.306385 0.008422 0.000799 -1170500.000000 0 0 1
27.459491 -2.680702 -24.304303 36.768314 -0.097316 2.292963 0.001926 0.006526 -510675.000000 0 0 1
28.621891 -1.965302 -25.056503 38.090726 -0.068557 2.288705 0.013698 -0.001085 -625307.000000 0 0 1
28.274891 -1.702102 -26.428403 38.740510 -0.060126 2.321550 0.026768 -0.001842 212748.000000 0 0 1
28.820091 -0.474302 -26.820503 39.372097 -0.016456 2.320205 0.022800 -0.013535 -803061.000000 0 0 1
28.403891 0.055498 -28.188103 40.016912 0.001954 2.352381 0.017652 -0.015413 23564.200000 0 0 1
27.022391 0.315298 -28.332113 39.153769 0.011668 2.379817 0.014590 -0.008124 146149.000000 0 0 1
26.574491 1.543898 -27.891993 38.555810 0.058032 2.379538 0.010535 0.000489 297903.000000 0 0 1
25.045391 1.820898 -28.119423 37.699990 0.072576 2.412642 0.023749 -0.005655 653979.000000 0 0 1
24.164991 1.175198 -27.244783 36.436329 0.048594 2.415443 0.025000 -0.001708 957757.000000 0 0 1
22.788391 1.427598 -27.600473 35.820872 0.062564 2.450443 0.035079 -0.007067 802481.000000 0 0 1
21.827891 1.213498 -26.420153 34.292184 0.055537 2.450331 0.037905 -0.012113 -258467.000000 0 0 1
22.009291 2.001898 -25.249523 33.555251 0.090707 2.422610 0.032378 -0.008678 149912.000000 0 0 1
20.881591 1.771098 -24.451503 32.203317 0.084614 2.433010 0.031235 -0.006048 -209599.000000 0 0 1
21.085591 2.252198 -22.993503 31.278998 0.106409 2.396625 0.013072 0.005369 -325652.000000 0 0 1
21.131191 3.680598 -22.796703 31.301177 0.172448 2.386637 0.014983 0.002054 443029.000000 0 0 1
21.146091 4.005498 -21.393003 30.345704 0.187202 2.353186 0.005270 0.003586 -346871.000000 0 0 1
20.641891 5.447298 -21.059703 29.987861 0.258013 2.349383 0.000465 0.012179 -132687.000000 0 0 1
21.473791 6.493198 -21.572003 31.122928 0.293637 2.336608 -0.006578 0.010753 255179.000000 0 0 1
21.206691 7.756198 -21.109103 30.910784 0.350630 2.322527 -0.011053 0.008900 -580601.000000 0 0 1
21.675491 8.106398 -19.684603 30.381313 0.357884 2.275644 -0.015291 0.005251 10204.900000 0 0 1
23.077091 8.094098 -19.418203 31.227122 0.337335 2.241883 -0.015692 0.003863 769418.000000 0 0 1
23.456891 8.438998 -18.076703 30.793012 0.345349 2.198193 -0.005835 -0.010005 -94721.200000 0 0 1
23.360791 9.931198 -17.539703 30.854439 0.401974 2.175437 0.002859 -0.021118 587866.000000 0 0 1
21.975791 10.290698 -17.436403 29.880797 0.437946 2.193868 0.003106 -0.026087 703556.000000 0 0 1
21.917591 11.711598 -17.182403 30.212204 0.490746 2.175750 0.008145 -0.021919 447653.000000 0 0 1
20.424391 12.149598 -16.949103 29.189734 0.536630 2.190327 0.010820 -0.029005 943437.000000 0 0 1
19.548291 11.910398 -18.040003 29.145068 0.547216 2.238230 0.014197 -0.027173 245105.000000 0 0 1
18.969591 10.615198 -18.055103 28.258000 0.510176 2.263913 0.017244 -0.026828 -936033.000000 0 0 1
18.189591 10.460698 -19.369403 28.556281 0.521904 2.316228 0.021617 -0.013504 -60420.800000 0 0 1
18.916491 10.582198 -20.625203 29.920153 0.510044 2.331376 0.018665 -0.005198 392926.000000 0 0 1
18.059691 10.438298 -21.717803 30.112680 0.524077 2.376355 0.012582 -0.001914 -340081.000000 0 0 1
18.885691 10.389598 -22.991803 31.515648 0.502944 2.388440 0.026758 -0.004765 -138448.000000 0 0 1
19.230791 11.673998 -23.467903 32.509199 0.545585 2.377319 0.024691 -0.006363 105184.000000 0 0 1
20.050691 11.705598 -24.592003 33.820376 0.528423 2.384937 0.033641 -0.009337 -191547.000000 0 0 1
20.020491 13.120298 -25.096163 34.681114 0.580122 2.379838 0.054747 -0.016425 -56170.000000 0 0 1
20.838991 13.354498 -26.223323 36.059241 0.569910 2.385072 0.048276 -0.016242 224624.000000 0 0 1
20.912091 14.732798 -26.594743 36.900559 0.613747 2.375628 0.056891 -0.015026 276253.000000 0 0 1
19.686391 15.347598 -27.348033 37.027256 0.662180 2.401776 0.053793 -0.021820 1522870.000000 0 0 1
18.410091 15.233898 -26.666723 35.806664 0.691271 2.410944 0.041075 -0.012966 698996.000000 0 0 1
17.345291 15.679198 -27.472903 36.075709 0.734991 2.436474 0.030400 -0.020172 246886.000000 0 0 1
15.983491 15.448998 -26.751203 34.781754 0.768395 2.448253 0.025413 -0.017696 119066.000000 0 0 1
15.810091 14.075098 -26.527193 33.937580 0.727408 2.468098 0.019371 -0.007725 1070400.000000 0 0 1
14.432491 13.742898 -26.204433 32.921670 0.760928 2.491393 0.002433 -0.003363 972856.000000 0 0 1
14.299991 12.264998 -25.748833 31.904895 0.708943 2.509935 0.005818 -0.001119 -6697.030000 0 0 1
13.001791 11.702098 -25.731143 31.113942 0.732836 2.544542 0.006325 -0.000462 -8090.800000 0 0 1
12.952091 10.429598 -25.201793 30.193767 0.677931 2.558327 0.014519 0.000454 -523206.000000 0 0 1
11.598491 9.718198 -25.170023 29.368323 0.697418 2.600306 0.035372 -0.013357 -613463.000000 0 0 1
10.865991 10.199898 -24.093803 28.330532 0.753789 2.587643 0.050341 -0.021198 -485403.000000 0 0 1
9.648991 9.497098 -23.968403 27.527845 0.777465 2.627413 0.056175 -0.017937 -320947.000000 0 0 1
8.827191 10.129598 -22.849003 26.506697 0.853994 2.610015 0.046437 -0.017421 -568281.000000 0 0 1
8.077791 11.258698 -23.222003 27.042012 0.948441 2.603598 0.039137 -0.018871 301710.000000 0 0 1
7.435191 11.950998 -22.083303 26.187415 1.014256 2.574152 0.041765 -0.010145 690610.000000 0 0 1
8.407391 12.671698 -21.106003 26.013833 0.985005 2.517233 0.034049 -0.012474 -368100.000000 0 0 1
9.284291 11.915598 -20.388103 25.374284 0.908886 2.503939 0.039923 -0.028412 -997131.000000 0 0 1
10.210991 12.690698 -19.693803 25.557074 0.893254 2.450549 0.043241 -0.025515 -255099.000000 0 0 1
11.231491 11.739298 -18.964703 24.972334 0.807501 2.433231 0.051104 -0.032362 211087.000000 0 1 0
12.268391 11.175698 -19.778403 25.818499 0.738823 2.443478 0.059961 -0.028934 322199.000000 0 0 1
11.877891 10.182798 -20.693203 25.941903 0.708711 2.494226 0.062941 -0.028066 -236540.000000 0 0 1
13.015991 9.399098 -21.455103 26.797024 0.625417 2.499180 0.063363 -0.021373 416492.000000 0 0 1
13.663991 8.384298 -20.724203 26.201025 0.550363 2.483188 0.070599 -0.030655 1168770.000000 0 0 1
14.899491 8.026598 -21.390703 27.276057 0.494139 2.472251 0.062603 -0.023721 766627.000000 0 0 1
15.688491 6.790998 -20.940103 27.032098 0.408513 2.456940 0.093291 -0.023087 -177805.000000 0 0 1
16.498291 7.074698 -19.853403 26.765698 0.405097 2.406469 0.053490 -0.018272 -166153.000000 0 0 1
17.090191 5.937598 -19.248103 26.416267 0.334381 2.387139 0.043737 -0.021428 228594.000000 0 0 1
17.783391 6.331798 -17.896703 26.012163 0.342055 2.329544 0.075774 -0.018692 571271.000000 0 0 1
19.104991 6.898598 -18.059803 27.179916 0.346519 2.297559 0.046330 -0.017703 854808.000000 0 0 1
19.673591 7.248898 -16.831603 26.886792 0.353023 2.247232 0.030926 -0.024484 -154887.000000 0 0 1
20.427191 6.152198 -16.073903 26.711234 0.292536 2.216506 0.017127 -0.024068 -715400.000000 0 0 1
21.555491 5.599498 -16.690703 27.831154 0.254154 2.213939 -0.004153 -0.017070 347357.000000 0 0 1
22.122891 4.494098 -15.924703 27.626353 0.200415 2.185151 0.024717 -0.026153 8839.200000 0 0 1
23.403191 3.913098 -16.548703 28.928900 0.165671 2.179796 -0.011545 0.011521 -277359.000000 0 0 1
23.931891 2.805498 -15.842003 28.837047 0.116696 2.152398 -0.001398 -0.003109 464521.000000 0 0 1
25.119991 2.378198 -16.502503 30.149666 0.094392 2.149994 0.005141 -0.006148 76282.400000 0 0 1
25.950891 1.253698 -15.880603 30.450190 0.048273 2.119436 0.019462 -0.019199 -506967.000000 0 0 1
25.393391 -0.035602 -15.828803 29.922844 -0.001402 2.128203 0.028516 -0.020546 -248801.000000 0 0 1
26.377291 -1.008302 -15.605403 30.664422 -0.038208 2.104713 0.030363 -0.015032 -776809.000000 0 0 1
25.847191 -2.348102 -15.910003 30.442061 -0.090597 2.120732 0.021861 -0.011761 -167611.000000 0 0 1
25.159591 -3.051602 -14.841803 29.369992 -0.120700 2.100571 0.026501 -0.012512 706797.000000 0 0 1
25.036991 -4.406502 -15.090503 29.563347 -0.174215 2.106500 0.019192 -0.005816 -1400230.000000 0 0 1
24.473191 -5.196402 -13.886003 28.613996 -0.209223 2.077488 0.020524 -0.003718 1149060.000000 0 0 1
23.082891 -5.008802 -13.542703 27.227059 -0.213679 2.091394 0.032450 0.000286 1529040.000000 0 0 1
22.126591 -5.272002 -14.566603 27.010479 -0.233904 2.140395 0.041630 -0.001035 -183973.000000 0 0 1
20.636491 -5.247702 -14.103503 25.540398 -0.249014 2.155802 0.044864 -0.005107 297396.000000 0 0 1
20.155591 -6.293402 -13.251903 24.929254 -0.302649 2.131262 0.040340 -0.001167 564636.000000 0 1 0
20.386891 -6.096202 -11.893503 24.377129 -0.290563 2.080474 0.045535 -0.001046 -561228.000000 0 1 0
20.421791 -7.353502 -11.051703 24.357005 -0.345627 2.041752 0.052469 0.000470 -1345480.000000 0 1 0
19.219191 -7.980202 -10.872703 23.479280 -0.393558 2.052259 0.052807 -0.000041 -463462.000000 0 1 0
18.868191 -8.894102 -11.903503 24.016808 -0.440491 2.089359 0.045046 0.000822 719133.000000 0 1 0
17.387291 -9.425802 -11.703503 22.981201 -0.496764 2.105126 0.066335 -0.004992 934829.000000 0 1 0
16.360591 -8.496902 -11.950703 21.970107 -0.479009 2.145937 0.058123 -0.002882 -170219.000000 0 1 0
15.186291 -9.172802 -12.351603 21.617720 -0.543369 2.178964 0.057588 -0.002215 439072.000000 0 1 0
13.983091 -8.186802 -12.557803 20.499975 -0.529674 2.230113 0.043377 -0.000132 113392.000000 0 1 0
14.083691 -7.223102 -13.617003 20.879328 -0.473890 2.281248 0.040934 -0.004421 358618.000000 0 1 0
15.032491 -6.191802 -13.361903 21.044112 -0.390718 2.258737 0.040194 -0.005874 85036.600000 0 1 0
14.930391 -5.100202 -14.463603 21.403842 -0.329171 2.312775 0.034867 -0.006967 -45770.700000 0 1 0
13.839891 -4.206602 -14.295103 20.336864 -0.295075 2.350285 0.037796 -0.010696 71298.000000 0 1 0
13.664591 -3.167902 -15.291103 20.750289 -0.227809 2.399285 0.035564 -0.014128 -93814.300000 0 1 0
14.865191 -2.230902 -15.558003 21.633360 -0.148964 2.373399 0.050959 -0.015159 -385883.000000 0 1 0
15.856191 -2.713802 -16.448903 23.007606 -0.169509 2.367325 0.048592 -0.011226 622180.000000 0 1 0
17.056691 -1.944302 -16.396703 23.739479 -0.113501 2.333244 0.061307 -0.002777 626209.000000 0 1 0
18.121091 -2.311802 -15.352603 23.862539 -0.126890 2.269697 0.054106 -0.004703 -539859.000000 0 1 0
17.642691 -1.959002 -14.066203 22.648627 -0.110585 2.240893 0.046570 -0.000293 716558.000000 0 1 0
18.588991 -2.495402 -13.141403 22.901399 -0.133443 2.181965 0.039329 -0.003808 283537.000000 0 1 0
18.011391 -2.534802 -11.707203 21.630858 -0.139815 2.142692 0.030633 0.003911 -257615.000000 0 1 0
18.051491 -1.338302 -10.958903 21.159984 -0.074003 2.115199 0.043816 0.000123 725653.000000 0 1 0
17.483091 -1.540002 -9.632803 20.020514 -0.087858 2.072759 0.034763 -0.004109 -674228.000000 0 1 0
17.719391 -0.372102 -8.670003 19.730287 -0.020997 2.025756 0.044523 -0.004866 303449.000000 0 1 0
19.057091 -0.071502 -8.236703 20.761048 -0.003752 1.978757 0.049239 -0.002660 1492960.000000 0 1 0
19.895791 0.605398 -9.203503 21.929740 0.030419 2.003891 0.039096 0.003708 -109050.000000 0 1 0
19.398091 1.961698 -9.794803 21.819082 0.100786 2.036341 0.031292 -0.004710 -665201.000000 0 1 0
19.217391 3.026298 -8.915503 21.399832 0.156194 2.000516 0.020223 0.002386 612858.000000 0 1 0
18.609091 4.167798 -9.512603 21.310993 0.220330 2.033502 0.015021 -0.011512 -205611.000000 0 1 0
18.738791 5.465598 -8.730703 21.383176 0.283800 1.991385 0.034864 -0.006460 -639651.000000 0 1 0
17.939891 6.468198 -9.290903 21.213160 0.346041 2.024145 0.024920 -0.019653 179910.000000 0 1 0
18.608791 7.691398 -9.542103 22.282200 0.391937 2.013339 0.049905 -0.003271 -352719.000000 0 1 0
-25.858269 -29.705072 5.827597 39.812087 0.854521 1.423891 0.032441 -0.008541 -61319.800000 0 0 1
-25.850869 -28.627182 6.724997 39.153653 0.836316 1.398181 0.036007 -0.013111 -932912.000000 0 0 1
-24.674409 -27.908232 6.728597 37.854589 0.846821 1.392098 0.029361 -0.013644 -983724.000000 0 0 1
-24.748409 -26.656172 7.739797 37.187897 0.822494 1.361137 0.035375 -0.008752 -531976.000000 0 0 1
-25.614029 -25.610742 7.290197 36.947741 0.785334 1.372182 0.035710 -0.012853 2579790.000000 0 0 1
-27.053869 -25.830082 7.616097 38.172109 0.762261 1.369928 0.019576 -0.011410 2528470.000000 0 0 1
-27.535359 -25.848372 9.064897 38.839499 0.753808 1.335230 0.017412 -0.007130 -394707.000000 0 0 1
-26.840089 -26.874732 9.782997 39.221788 0.786043 1.318707 0.017782 -0.011328 -28120.500000 0 0 1
-27.408079 -27.111282 11.068797 40.109134 0.779954 1.291201 0.023372 -0.009911 139268.000000 0 0 1
-26.407209 -27.823462 12.013997 40.197286 0.811508 1.267282 0.014546 -0.011370 484160.000000 0 0 1
-25.228099 -27.095572 12.304497 39.013173 0.821074 1.249925 0.026513 -0.003581 -48572.700000 0 0 1
-25.309499 -26.433652 13.535897 39.019600 0.807120 1.216533 0.030176 -0.003806 -131856.000000 0 0 1
-23.951709 -25.992852 14.132897 38.066409 0.826244 1.190420 0.043674 -0.004612 164147.000000 0 0 1
-23.150809 -27.104652 14.509997 38.485869 0.863911 1.184218 0.056347 -0.012939 -506472.000000 0 0 1
-22.004809 -26.713492 15.203697 37.801781 0.881750 1.156883 0.060529 -0.016769 -29203.000000 0 0 1
-21.242609 -27.918622 15.840197 38.491684 0.920371 1.146672 0.054132 -0.018324 40266.300000 0 0 1
-22.087009 -28.505612 16.817197 39.789747 0.911592 1.134427 0.050925 -0.010663 259791.000000 0 0 1
-21.546309 -29.700042 17.315097 40.572756 0.943184 1.129882 0.058101 -0.012176 128683.000000 0 0 1
-22.523009 -30.564782 18.237397 42.120001 0.935736 1.122993 0.063510 -0.023099 55739.200000 0 0 1
-23.336409 -31.300692 17.361397 42.728672 0.930146 1.152376 0.034933 -0.010134 -16540.200000 0 0 1
-24.301809 -31.969852 18.153197 44.070261 0.920832 1.146242 0.033120 -0.008353 -211427.000000 0 0 1
-25.312039 -32.859512 17.414997 44.985875 0.914422 1.173289 0.021462 -0.009171 67889.700000 0 0 1
-24.704909 -34.040275 16.866397 45.316092 0.942993 1.189424 0.021612 -0.008589 457170.000000 0 0 1
-25.657009 33.814063 16.327197 45.478020 -0.921708 1.203586 0.011039 -0.007399 -470864.000000 0 0 1
-25.437029 33.578747 14.831497 44.660363 -0.922491 1.232272 0.007449 -0.008167 450011.000000 0 0 1
-24.295909 32.791823 14.482597 43.305202 -0.933136 1.229795 0.004923 -0.002871 181382.000000 0 0 1
-23.078209 33.510578 14.470197 43.185058 -0.967705 1.229112 0.019253 -0.007880 -588447.000000 0 0 1
-21.946309 32.470462 14.689097 41.853805 -0.976439 1.212198 0.041951 -0.021484 -151656.000000 0 0 1
-21.709009 31.615032 13.573697 40.682141 -0.969075 1.230621 0.041528 -0.009998 -638627.000000 0 0 1
-20.592909 30.818602 13.698497 39.515857 -0.981735 1.216790 0.041843 -0.013167 -624893.000000 0 0 1
-20.321609 29.866492 12.528997 38.235467 -0.973336 1.236949 0.031917 -0.011941 55317.700000 0 0 1
-19.737309 30.540422 11.414797 38.112680 -0.997049 1.266626 0.020351 -0.002179 97240.600000 0 0 1
-19.781809 29.619742 10.304597 37.078752 -0.981969 1.289177 0.026775 -0.003557 50415.900000 0 0 1
-19.347109 30.275692 8.987197 37.036440 -1.002171 1.325691 0.022300 -0.005793 1011450.000000 0 0 1
-17.930309 30.575782 8.944897 36.556609 -1.040421 1.323600 0.011629 -0.009203 822478.000000 0 0 1
-17.509109 31.235652 7.779597 36.643649 -1.059890 1.356864 0.029628 -0.011302 157964.000000 0 0 1
-16.852009 30.339672 6.686397 35.343936 -1.063783 1.380468 0.026674 -0.012856 151900.000000 0 0 1
-17.703009 29.269812 6.214197 34.766862 -1.026839 1.391092 0.023677 -0.004602 242830.000000 0 0 1
-17.439009 28.046852 6.795797 33.718360 -1.014515 1.367860 0.022675 -0.003795 -539753.000000 0 0 1
-18.533109 27.076402 6.384097 33.427001 -0.970566 1.378630 0.026981 -0.002770 -196363.000000 0 0 1
-18.364309 26.537842 5.098297 32.672581 -0.965457 1.414114 0.031929 -0.009493 141304.000000 0 0 1
-19.511709 25.818002 4.698797 32.700990 -0.923631 1.426607 0.033770 -0.010574 -677640.000000 0 0 1
-19.396909 25.010642 3.381497 31.830910 -0.911145 1.464362 0.042095 -0.015560 -901645.000000 0 0 1
-19.096109 25.601762 2.111497 32.008906 -0.929931 1.504782 0.043300 -0.013909 712154.000000 0 0 1
-17.868609 26.331772 1.937997 31.881111 -0.974581 1.509971 0.040640 -0.012511 229633.000000 0 0 1
-16.514909 25.645352 2.165297 30.579647 -0.998670 1.499929 0.040951 -0.015526 -661086.000000 0 0 1
-16.137409 24.470902 1.440997 29.348211 -0.987804 1.521677 0.061757 -0.022045 79429.100000 0 0 1
-15.985809 24.662902 0.037097 29.390580 -0.995707 1.569534 0.053812 -0.021134 -202929.000000 0 0 1
-15.590009 23.466062 -0.773003 28.183364 -0.984390 1.598227 0.056886 -0.029187 -93251.500000 0 0 1
-16.722709 22.726362 -1.159503 28.239706 -0.936427 1.611867 0.062685 -0.032181 -24597.500000 0 0 1
-16.473809 21.640362 -2.079803 27.276680 -0.920132 1.647119 0.058624 -0.031812 129395.000000 0 0 1
-15.440809 20.518562 -1.805103 25.742735 -0.925679 1.640975 0.063194 -0.032010 317789.000000 0 0 1
-16.082509 19.553162 -1.042903 25.338921 -0.882485 1.611966 0.073048 -0.038984 84425.000000 0 0 1
-15.142409 18.912062 -0.219003 24.228219 -0.895644 1.579836 0.087646 -0.034634 -54936.800000 0 1 0
-15.795309 18.004262 0.870697 23.966714 -0.850660 1.534459 0.080439 -0.028694 313876.000000 0 1 0
-16.353309 16.835862 0.224297 23.471840 -0.799937 1.561240 0.069164 -0.031868 331917.000000 0 1 0
-17.122509 16.122262 1.165797 23.547117 -0.755320 1.521267 0.074392 -0.038228 80571.100000 0 1 0
-17.797009 14.824162 0.612797 23.170344 -0.694517 1.544346 0.087805 -0.035581 381274.000000 0 1 0
-18.826509 15.084962 -0.346103 24.127025 -0.675510 1.585142 0.101321 -0.039425 242816.000000 0 1 0
-19.486709 13.933462 -0.791403 23.968720 -0.620738 1.603820 0.072561 -0.028057 -218680.000000 0 1 0
-20.614909 14.397962 -1.761603 25.206726 -0.609668 1.640740 0.077041 -0.016157 -142965.000000 0 0 1
-21.573909 13.440962 -2.178803 25.511570 -0.557174 1.656305 0.071479 -0.015662 1245910.000000 0 0 1
-22.631509 13.113762 -1.246203 26.186046 -0.525170 1.618405 0.065875 -0.016970 715157.000000 0 0 1
-23.825309 14.119162 -1.137003 27.718024 -0.534969 1.611828 0.049356 -0.013602 -318566.000000 0 0 1
-23.449109 15.348762 -0.589503 28.031995 -0.579572 1.591828 0.037618 -0.016766 -596488.000000 0 0 1
-24.486509 16.245762 -0.503303 29.389917 -0.585778 1.587922 0.022373 -0.008168 -894669.000000 0 0 1
-24.090709 17.561562 0.270097 29.813482 -0.629910 1.561737 0.011346 -0.013664 201951.000000 0 0 1
-23.748109 17.141462 1.570697 29.330351 -0.625210 1.517219 0.009307 -0.012977 64883.200000 0 0 1
-23.239209 18.126462 2.441397 29.573466 -0.662423 1.488149 0.005932 -0.021554 472883.000000 0 0 1
-24.346309 18.978862 3.174197 31.032491 -0.662139 1.468331 0.011500 -0.020512 366758.000000 0 0 1
-25.235609 18.149662 3.932597 31.332276 -0.623502 1.444952 0.015454 -0.020507 163767.000000 0 0 1
-26.562369 18.572362 4.071597 32.666037 -0.610188 1.445828 0.015289 -0.019688 -72210.300000 0 0 1
-27.498449 18.464762 2.863497 33.246229 -0.591330 1.484559 0.031883 -0.018609 -757908.000000 0 0 1
-28.814009 18.877262 3.132697 34.589188 -0.579981 1.480103 0.034459 -0.016330 -303839.000000 0 0 1
-29.466169 19.251362 1.969197 35.252628 -0.578718 1.514908 0.029514 -0.016574 863568.000000 0 0 1
-30.865899 19.967362 2.212397 36.827897 -0.574198 1.510686 0.045652 -0.026018 166340.000000 0 0 1
-31.841149 19.112162 2.664697 37.232165 -0.540592 1.499165 0.067143 -0.015346 -212416.000000 0 0 1
-33.115069 19.708662 2.893397 38.644675 -0.536851 1.495854 0.066352 -0.016767 379118.000000 0 0 1
-33.243869 20.481062 4.269097 39.279179 -0.552163 1.461895 0.052272 -0.017309 -519799.000000 0 0 1
-32.365449 21.590062 4.452797 39.159679 -0.588283 1.456841 0.052286 -0.019863 351718.000000 0 0 1
-32.478559 22.185362 5.745297 39.749912 -0.599278 1.425752 0.060819 -0.019304 -2901.450000 0 0 1
-31.399969 23.262862 6.052097 39.544237 -0.637623 1.417146 0.061588 -0.029950 -2873.400000 0 0 1
-31.588909 24.478332 5.331097 40.317100 -0.659249 1.438179 0.049185 -0.022069 359795.000000 0 0 1
-30.705699 25.496762 5.780497 40.327893 -0.692981 1.426963 0.042569 -0.028164 -165391.000000 0 0 1
-31.313439 26.902072 5.758697 41.682317 -0.709766 1.432196 0.037180 -0.022836 -1128240.000000 0 0 1
-32.360189 27.122352 6.617597 42.738699 -0.697568 1.415332 0.045736 -0.015102 -532410.000000 0 0 1
-32.751419 28.468132 6.457897 43.872479 -0.715546 1.423063 0.036956 -0.009165 -628247.000000 0 0 1
-33.807589 28.843102 7.466097 45.062404 -0.706323 1.404345 0.023357 -0.001735 -1304100.000000 0 0 1
-33.306819 28.875072 8.774497 44.945587 -0.714248 1.374310 0.022628 -0.012068 74351.400000 0 0 1
-34.143338 29.304512 9.836397 46.057320 -0.709281 1.355570 0.019677 -0.005968 -142145.000000 0 0 1
-35.273814 28.362502 10.280797 46.415173 -0.677216 1.347448 0.005774 -0.000313 -63588.700000 0 0 1
-34.702531 27.222122 10.879197 45.427597 -0.665182 1.328962 0.015456 -0.009800 317188.000000 0 0 1
-35.632970 26.587212 11.744397 45.983902 -0.641027 1.312532 0.010250 -0.007320 -124810.000000 0 0 1
-35.044185 25.365362 12.521397 45.036451 -0.626528 1.289056 0.033646 -0.006390 -512731.000000 0 0 1
-34.135709 25.844412 13.450897 44.878802 -0.648035 1.266401 0.039495 -0.018391 -702898.000000 0 0 1
-33.615209 24.716102 14.090797 44.038830 -0.634004 1.245106 0.046688 -0.020349 -744487.000000 0 0 1
-32.497289 25.031772 15.038397 43.690008 -0.656350 1.219403 0.048175 -0.019318 -818755.000000 0 0 1
-32.927629 25.995402 15.929497 44.874699 -0.668288 1.207907 0.046369 -0.025941 169705.000000 0 0 1
-31.876869 26.535972 16.743797 44.728597 -0.694218 1.187109 0.057171 -0.015304 249148.000000 0 0 1
-32.277329 27.886572 17.385697 46.062451 -0.712547 1.183769 0.054788 -0.015940 -627780.000000 0 0 1
-32.271239 28.957152 16.485197 46.386542 -0.731324 1.207468 0.058036 -0.009978 140110.000000 0 0 1
-32.694029 30.164432 17.120297 47.664422 -0.745177 1.203403 0.047141 -0.006516 -93815.000000 0 0 1
-32.480049 31.399342 16.200897 47.993139 -0.768482 1.226465 0.033915 0.000849 6373.300000 0 0 1
-31.117919 31.698402 15.994797 47.211727 -0.794639 1.225167 0.030445 0.004201 -295057.000000 0 0 1
-30.807259 32.833500 15.296497 47.551118 -0.817226 1.243287 0.013984 0.012142 -603932.000000 0 0 1
-29.325109 32.994246 14.915497 46.594574 -0.844207 1.244948 0.021102 0.006341 -11246.300000 0 0 1
-28.809009 32.095842 13.879897 45.307324 -0.839313 1.259440 0.019688 -0.001182 275497.000000 0 0 1
-28.568899 30.774412 14.307697 44.361657 -0.822546 1.242402 0.024150 -0.004684 -282086.000000 0 0 1
-29.587119 29.698272 13.844497 44.148104 -0.787273 1.251823 0.041749 -0.007487 203204.000000 0 0 1
-29.539169 29.534772 12.418897 43.578599 -0.785324 1.281814 0.056336 -0.017793 453487.000000 0 0 1
-30.497049 28.514542 12.052597 43.455888 -0.751816 1.289759 0.057398 -0.023955 654906.000000 0 0 1
-30.470149 28.221302 10.507897 42.840259 -0.747100 1.322987 0.056904 -0.016763 -473833.000000 0 0 1
-29.310719 27.578312 10.100997 41.493514 -0.754955 1.324890 0.052145 -0.013173 -635303.000000 0 0 1
-29.238929 27.651412 8.678997 41.168441 -0.757501 1.358386 0.048560 -0.014014 -844959.000000 0 0 1
-28.093899 26.806562 8.200097 39.687536 -0.761954 1.362681 0.060923 -0.018120 -535945.000000 0 0 1
-27.811769 27.148692 6.843997 39.463734 -0.773334 1.396490 0.058372 -0.025980 -579720.000000 0 0 1
-26.839279 26.339032 6.260297 38.121947 -0.775991 1.405831 0.039269 -0.020123 -571694.000000 0 0 1
-26.535419 26.709732 4.763497 37.950351 -0.788672 1.444945 0.039124 -0.020094 -141941.000000 0 0 1
-25.769859 27.884322 4.564897 38.242115 -0.824787 1.451143 0.028819 -0.009249 223059.000000 0 0 1
-25.616649 28.209832 3.218797 38.240921 -0.833538 1.486525 0.020036 -0.009233 -511601.000000 0 0 1
-24.686209 29.385412 2.938497 38.490858 -0.872087 1.494379 0.018570 -0.009768 -1771200.000000 0 0 1
-23.399509 29.002792 3.168297 37.399694 -0.891922 1.485980 0.020855 -0.004956 -1739000.000000 0 0 1
-22.553409 30.110352 2.850697 37.728186 -0.927919 1.495165 0.031525 -0.005096 262990.000000 0 0 1
-21.082209 29.667752 3.027497 36.521238 -0.952985 1.487804 0.025442 -0.005612 82482.000000 0 0 1
-20.093809 30.549682 2.536397 36.653480 -0.988998 1.501542 0.024092 -0.003864 -1012460.000000 0 0 1
-18.853809 29.978852 2.817397 35.526545 -1.009395 1.491409 0.026692 -0.003208 94897.000000 0 0 1
-17.672509 30.957442 2.469297 35.732034 -1.052075 1.501635 0.024944 -0.008284 450610.000000 0 0 1
-17.653209 32.160712 3.214097 36.827675 -1.068793 1.483411 0.032279 -0.009758 292433.000000 0 0 1
-16.530009 32.969289 2.837997 36.990127 -1.106049 1.493998 0.040912 -0.006172 442190.000000 0 0 1
-16.246909 34.122660 3.824197 37.986083 -1.126424 1.469952 0.043354 -0.008586 -9677.320000 0 0 1
-17.132909 -33.541922 3.734197 37.848928 1.098553 1.471975 0.040477 -0.014230 -86823.000000 0 0 1
-16.727309 -32.472222 4.520597 36.806030 1.095121 1.447663 0.043320 -0.017593 118874.000000 0 0 1
-17.842209 -31.431642 4.835597 36.464716 1.054502 1.437794 0.045017 -0.012722 274821.000000 0 0 1
-18.278309 -30.580692 3.747997 35.823495 1.032064 1.465981 0.039195 -0.010907 134225.000000 0 0 1
-19.278009 -29.701512 4.186797 35.656005 0.995083 1.453103 0.038560 -0.012903 -151751.000000 0 0 1
-19.844309 -28.781492 3.056097 35.092885 0.967165 1.483600 0.035508 -0.018243 -46311.200000 0 0 1
-18.950309 -27.727452 2.836797 33.704202 0.971265 1.486529 0.032528 -0.009174 -111486.000000 0 0 1
-19.364109 -26.780982 1.879697 33.101706 0.944765 1.513980 0.027531 -0.003670 -79159.500000 0 0 1
-18.452209 -25.518112 1.779697 31.540852 0.944733 1.514341 0.029082 -0.002713 731699.000000 0 0 1
-17.191409 -25.838862 1.179397 31.057725 0.983719 1.532813 0.043235 -0.006811 101246.000000 0 0 1
-16.199209 -24.871702 1.479897 29.718782 0.993500 1.520979 0.040751 -0.011987 375371.000000 0 0 1
-14.861809 -25.208402 0.777997 29.273575 1.038090 1.544216 0.056902 -0.011592 -213077.000000 0 0 1
-14.923409 -25.105672 -0.645603 29.213348 1.034487 1.592898 0.055155 -0.005262 35469.300000 0 0 1
-14.810709 -23.806302 -1.215803 28.063772 1.014261 1.614133 0.054780 -0.013505 -211520.000000 0 0 1
-15.066409 -23.751402 -2.773303 28.263350 1.005510 1.669078 0.026572 0.001143 604026.000000 0 0 1
-13.982709 -24.165902 -3.634603 28.155236 1.046251 1.700249 0.056481 -0.005396 513030.000000 0 0 1
-14.319209 -24.036502 -5.008003 28.423111 1.033524 1.747916 0.036169 0.002980 917942.000000 0 0 1
-13.222409 -24.732502 -5.942803 28.667850 1.079840 1.779609 0.070004 -0.008324 1186270.000000 0 0 1
-13.235309 -26.132412 -5.953703 29.891854 1.101985 1.771312 0.041312 -0.011353 -306181.000000 0 0 1
-12.049709 -26.535582 -6.604203 29.882237 1.144541 1.793644 0.066879 -0.008325 317557.000000 0 0 1
22.935391 13.110698 28.526318 38.880244 0.519303 0.747049 0.007921 0.004896 -497027.000000 0 0 1
23.669091 11.931698 28.776878 39.124161 0.466926 0.744352 0.015390 -0.003451 206324.000000 0 0 1
22.983691 11.019698 29.595458 39.058609 0.447079 0.710985 0.015153 -0.009849 -329580.000000 0 0 1
22.851191 11.455398 31.083798 40.244323 0.464690 0.688221 0.023241 -0.008508 -174331.000000 0 0 1
21.994891 12.514698 31.372218 40.306438 0.517300 0.678775 0.007207 -0.001753 -323807.000000 0 0 1
22.283891 13.025898 32.695808 41.656472 0.528977 0.668275 0.024212 -0.008036 -451637.000000 0 0 1
21.242791 13.920698 33.432056 41.985049 0.580102 0.649668 -0.000677 -0.003538 -188608.000000 0 0 1
20.044391 13.273798 33.778771 41.460544 0.584918 0.618549 -0.002302 0.003393 -167254.000000 0 0 1
19.404391 14.033998 -33.977513 41.568677 0.626152 2.527649 0.001728 0.004783 -624283.000000 0 0 1
18.247191 13.357898 -33.265413 40.224136 0.631915 2.544549 0.006490 0.007412 -743447.000000 0 0 1
17.110391 13.119098 -34.032893 40.287889 0.654124 2.576880 0.003751 0.012776 -481182.000000 0 0 1
16.107291 12.492898 -33.269343 39.017515 0.659688 2.591885 0.004549 0.007827 343504.000000 0 0 1
14.794591 12.329498 -34.085849 39.150243 0.694765 2.627302 0.005291 0.012856 492028.000000 0 0 1
15.101791 11.417898 33.609413 38.574929 0.647370 0.513000 0.002678 0.015116 683676.000000 0 0 1
13.894291 11.008298 32.945766 37.411996 0.670022 0.493626 0.002222 0.024534 666016.000000 0 0 1
14.094891 9.836898 31.907248 36.242282 0.609319 0.494118 0.006504 0.024866 -4206.910000 0 0 1
14.319291 8.528898 32.448418 36.478542 0.537195 0.474501 0.004851 0.019416 -158470.000000 0 0 1
14.958491 7.748198 31.496898 35.718981 0.477928 0.491137 0.007494 0.005462 -204635.000000 0 0 1
15.394591 6.373698 32.000758 36.078608 0.392535 0.480047 0.024728 0.001922 -169977.000000 0 0 1
14.390791 5.394998 32.231848 35.708443 0.358676 0.444933 0.016403 0.009765 -356166.000000 0 0 1
14.890991 4.142598 32.545188 36.029044 0.271334 0.443386 0.024027 -0.001439 -101944.000000 0 0 1
13.800391 3.064498 32.516608 35.456617 0.218513 0.410099 0.014720 -0.006382 -144371.000000 0 0 1
14.276591 1.873598 33.034057 36.035820 0.130490 0.411053 0.028304 -0.012041 -713005.000000 0 0 1
13.273191 0.915698 33.137183 35.708388 0.068879 0.381803 0.036837 -0.019863 -545030.000000 0 0 1
13.651791 -0.549302 33.510628 36.188884 -0.040215 0.387141 0.031279 -0.017707 -352508.000000 0 0 1
14.237191 -1.289202 32.487988 35.494070 -0.090305 0.414526 0.041252 -0.015504 -54861.100000 0 0 1
14.329991 -2.599202 32.975495 36.048408 -0.179431 0.415893 0.030012 -0.017614 -208372.000000 0 0 1
14.810691 -3.656502 31.940968 35.397062 -0.242042 0.445577 0.028764 -0.014797 -1473490.000000 0 0 1
15.017891 -5.032702 32.229908 35.911448 -0.323352 0.456768 0.026527 -0.013053 257181.000000 0 0 1
16.208091 -5.349702 32.931394 37.091754 -0.318805 0.478175 0.010739 -0.011869 1191790.000000 0 0 1
17.587091 -4.892402 32.279028 37.083379 -0.271322 0.514692 0.023134 -0.014567 -139179.000000 0 0 1
17.797391 -3.492402 32.414008 37.143127 -0.193769 0.510135 0.029120 -0.020403 -34441.600000 0 0 1
18.831891 -3.013902 31.577908 36.890215 -0.158697 0.543320 0.037907 -0.025640 -256579.000000 0 0 1
18.809691 -1.497802 31.641668 36.840779 -0.079462 0.537725 0.046238 -0.022862 -243210.000000 0 0 1
19.106991 -0.971702 32.940703 38.093454 -0.050812 0.526176 0.037077 -0.027613 141388.000000 0 0 1
18.861691 0.415898 33.073380 38.076040 0.022046 0.518398 0.042879 -0.016194 238374.000000 0 0 1
19.964991 1.322398 32.398748 38.079239 0.066139 0.553244 0.051925 -0.016078 -24076.400000 0 0 1
20.099391 1.109298 30.997448 36.960220 0.055135 0.575959 0.059628 -0.022908 25915.600000 0 0 1
20.842991 2.096998 30.261868 36.805004 0.100272 0.605493 0.043233 -0.019492 150317.000000 0 0 1
20.165991 3.501498 30.045078 36.354290 0.171920 0.598020 0.040321 -0.008981 -98091.200000 0 0 1
20.098591 4.261398 31.226408 37.379157 0.208931 0.581943 0.051126 -0.013927 287516.000000 0 0 1
19.552691 5.550398 30.973718 37.047076 0.276593 0.580727 0.049688 -0.007369 -195669.000000 0 0 1
19.436591 6.279998 32.311458 38.226297 0.312514 0.563730 0.047714 -0.003773 -89757.200000 0 0 1
18.406891 5.641798 33.039914 38.239762 0.297414 0.527596 0.040496 0.000317 9047.890000 0 0 1
18.480891 5.905598 -34.291755 39.399795 0.309296 2.626716 0.039457 0.004219 -634721.000000 0 0 1
17.309091 5.428298 -33.458593 38.059801 0.303895 2.644779 0.031432 0.000483 -446491.000000 0 0 1
17.356891 4.066298 -33.253523 37.730534 0.230125 2.649492 0.027963 -0.006291 93018.500000 0 0 1
16.081991 3.571198 -32.904493 36.797956 0.218516 2.677423 0.024855 -0.011400 82275.000000 0 0 1
16.164991 2.055398 -33.137323 36.927141 0.126473 2.684570 0.030618 -0.023303 266458.000000 0 0 1
17.080591 1.307498 -32.322853 36.581730 0.076400 2.654247 0.031769 -0.016020 526097.000000 0 0 1
16.983091 -0.071502 -32.683233 36.832380 -0.004210 2.662363 0.034399 -0.020275 -292662.000000 0 0 1
17.915291 -0.908302 -31.786983 36.499246 -0.050656 2.627815 0.028412 -0.020254 -263382.000000 0 0 1
17.594691 -1.034602 -30.421483 35.158359 -0.058734 2.616486 0.037726 -0.019939 214183.000000 0 0 1
17.837391 0.054498 -29.569633 34.533153 0.003055 2.598797 0.036647 -0.014506 -164020.000000 0 0 1
17.868191 -0.340002 -28.072883 33.278741 -0.019026 2.574689 0.043975 -0.015847 -35653.700000 0 0 1
16.579791 -0.658502 -27.587023 32.192653 -0.039696 2.600090 0.045290 -0.017655 -35461.800000 0 0 1
16.446691 -1.237202 -26.302733 31.046064 -0.075084 2.581520 0.054322 -0.018104 -335521.000000 0 0 1
17.285291 -2.447302 -25.789343 31.142588 -0.140648 2.546516 0.061259 -0.020527 -592847.000000 0 0 1
18.572991 -2.110402 -25.327913 31.478770 -0.113142 2.505803 0.047216 -0.015050 69313.700000 0 0 1
19.497991 -3.174902 -25.640833 32.368256 -0.161416 2.485136 0.043384 -0.009920 660585.000000 0 0 1
20.150391 -3.264102 -27.061693 33.897313 -0.160592 2.495335 0.048458 -0.018217 -1163430.000000 0 0 1
21.357491 -2.613102 -27.135133 34.630711 -0.121746 2.471166 0.038238 -0.008163 -1019370.000000 0 0 1
21.895091 -2.739302 -28.454813 36.007987 -0.124464 2.481991 0.031660 -0.016199 362763.000000 0 0 1
23.364091 -2.227502 -28.553833 36.961654 -0.095051 2.453606 0.032318 -0.020806 -47586.300000 0 0 1
24.220791 -3.224702 -28.109303 37.244843 -0.132359 2.426018 0.030992 -0.021090 837863.000000 0 0 1
25.585591 -2.931702 -28.540003 38.441502 -0.114087 2.407482 0.021888 -0.017357 1519520.000000 0 0 1
26.625391 -4.058702 -28.339093 39.095891 -0.151273 2.381629 0.005598 -0.009733 -69166.400000 0 0 1
26.430891 -5.217002 -29.205593 39.733811 -0.194878 2.396509 0.015610 -0.017541 436608.000000 0 0 1
27.364091 -6.265402 -28.961853 40.334076 -0.225085 2.371792 0.016519 -0.014279 104168.000000 0 0 1
27.237491 -7.055402 -27.699743 39.483356 -0.253462 2.348373 -0.003328 -0.005937 -158638.000000 0 0 1
27.317091 -6.363702 -26.475653 38.570460 -0.228875 2.327355 -0.013206 0.006392 174387.000000 0 0 1
26.892391 -7.220502 -25.428523 37.708701 -0.262310 2.310868 -0.029694 0.012867 -108678.000000 0 0 1
26.910391 -6.523002 -24.049803 36.675765 -0.237810 2.285960 -0.037451 0.017381 -312562.000000 0 0 1
28.192891 -6.226402 -23.564903 37.268107 -0.217361 2.255324 -0.041486 0.021003 -123454.000000 0 0 1
28.137191 -5.665602 -22.276203 36.332214 -0.198699 2.230807 -0.031956 0.004859 -682037.000000 0 0 1
29.514891 -5.312602 -21.756003 37.049645 -0.178090 2.198407 -0.018546 0.009202 -799239.000000 0 0 1
30.106891 -4.252502 -22.456503 37.799513 -0.140319 2.206936 0.002966 0.001391 -123491.000000 0 0 1
31.292991 -3.820802 -21.817203 38.338494 -0.121496 2.176168 0.016656 -0.000043 75286.700000 0 0 1
31.927891 -2.569902 -22.405803 39.089828 -0.080318 2.181187 0.027571 -0.010421 -637563.000000 0 0 1
31.106391 -1.484002 -22.242703 38.269409 -0.047671 2.191016 0.016327 -0.011521 -159737.000000 0 0 1
31.676991 -0.270502 -22.700103 38.971780 -0.008539 2.192567 0.038224 -0.016366 -362855.000000 0 0 1
30.663691 0.835198 -22.606903 38.105532 0.027231 2.205912 0.037839 -0.012454 304504.000000 0 0 1
29.579991 0.779298 -23.576903 37.834555 0.026339 2.243570 0.036752 -0.009306 -279638.000000 0 0 1
28.576891 1.535198 -23.083503 36.767426 0.053670 2.249552 0.037622 -0.003456 -1675110.000000 0 0 1
27.446891 1.694298 -24.079103 36.551411 0.061652 2.289984 0.013060 0.002665 -163802.000000 0 0 1
26.449491 2.616298 -23.625703 35.561137 0.098596 2.297445 0.009792 0.003405 418398.000000 0 0 1
25.279191 2.646198 -24.415803 35.244451 0.104299 2.336100 0.009957 0.001521 40690.700000 0 0 1
24.344791 3.798598 -23.934103 34.350247 0.154785 2.341676 0.015239 0.000614 -388756.000000 0 0 1
24.762991 5.178498 -24.067603 34.918077 0.206152 2.331262 0.017671 0.003198 277152.000000 0 0 1
23.726191 6.039598 -23.617103 34.017296 0.249260 2.338198 0.006580 0.005768 -49236.500000 0 0 1
24.245391 7.425498 -23.103803 34.303975 0.297194 2.309733 0.007779 0.005546 -369952.000000 0 0 1
24.682291 8.215198 -24.139703 35.488452 0.321304 2.318849 0.008147 0.007636 15479.600000 0 0 1
24.835791 9.520098 -23.594303 35.554745 0.366046 2.296424 0.009778 0.006217 -255177.000000 0 0 1
25.832891 10.436298 -24.315603 36.979766 0.383944 2.288343 0.022933 0.005265 -307243.000000 0 0 1
25.534291 10.738398 -25.661913 37.760389 0.398094 2.318012 0.032094 -0.004409 147815.000000 0 0 1
24.392991 11.527898 -25.916023 37.410569 0.441481 2.336086 0.038609 -0.007670 34880.500000 0 0 1
24.093291 11.820798 -27.394953 38.349725 0.456120 2.366485 0.038563 -0.010422 -234152.000000 0 0 1
23.600191 10.748998 -28.180613 38.296957 0.427387 2.397710 0.038500 -0.007706 428971.000000 0 0 1
24.560091 9.761498 -28.579143 38.926242 0.378309 2.395265 0.033153 -0.007491 383752.000000 0 0 1
25.440191 10.166998 -29.813003 40.489336 0.380199 2.398408 0.029292 -0.005768 -668307.000000 0 0 1
26.261891 11.308798 -29.571043 41.134200 0.406618 2.373003 0.018922 -0.001994 318913.000000 0 0 1
26.918891 11.816698 -30.684173 42.494465 0.413647 2.377593 0.013084 -0.001040 -228221.000000 0 0 1
28.010391 10.958498 -31.345093 43.441749 0.372923 2.376825 0.010215 -0.006346 -1107440.000000 0 0 1
27.494091 9.981398 -32.204553 43.505018 0.348242 2.404237 0.007681 0.001449 105165.000000 0 0 1
28.388391 8.887698 -32.373663 43.965281 0.303409 2.398450 0.007562 0.002198 -144237.000000 0 0 1
27.852791 7.707898 -33.239813 44.046280 0.269980 2.425927 0.010314 0.004353 898899.000000 0 0 1
26.639891 7.129098 -32.690903 42.769182 0.261483 2.440839 0.014019 0.003983 629909.000000 0 0 1
26.170691 5.969898 -33.344253 42.806354 0.224276 2.463795 0.016895 0.005179 -745781.000000 0 0 1
24.909191 5.597298 -32.590623 41.399834 0.221037 2.477078 0.018868 0.000121 -1031160.000000 0 0 1
23.841791 6.461298 -32.835073 41.089188 0.264650 2.496621 0.033623 -0.004618 -428682.000000 0 0 1
23.415491 7.163298 -31.681603 40.041504 0.296880 2.483596 0.035454 0.002521 213158.000000 0 0 1
21.900091 7.507898 -31.692503 39.247895 0.330269 2.510690 0.042131 -0.001954 287071.000000 0 0 1
21.506791 8.378998 -32.709293 40.033080 0.371507 2.527084 0.040633 0.001690 -458107.000000 0 0 1
20.138591 8.681898 -32.570763 39.265669 0.407032 2.549003 0.035080 0.001536 -93719.700000 0 0 1
19.792891 9.782198 -33.571973 40.181181 0.459019 2.559865 0.031525 0.008602 -149952.000000 0 0 1
19.556891 9.346498 33.863488 40.206527 0.445823 0.569374 0.027834 0.006167 -58744.500000 0 0 1
19.119191 10.400798 32.990205 39.523078 0.498223 0.583195 0.012779 0.006444 566275.000000 0 0 1
17.979691 10.020898 31.961228 38.015888 0.508465 0.572160 0.013566 0.009164 111138.000000 0 0 1
18.230991 8.950098 31.033828 37.088701 0.456363 0.579482 0.011304 0.003171 704481.000000 0 0 1
19.357291 9.055298 30.122438 36.933242 0.437556 0.617046 0.016665 -0.001716 373029.000000 0 0 1
19.186691 10.059498 28.912308 36.128163 0.482895 0.643050 0.018882 -0.005830 -8623.310000 0 0 1
18.224991 9.781598 27.904828 34.734844 0.492585 0.637868 0.005484 0.008553 298170.000000 0 0 1
16.906091 10.190598 28.214298 34.434152 0.542459 0.610486 0.005172 0.005519 -151887.000000 0 0 1
15.873891 9.441998 27.348578 33.001158 0.536597 0.593987 0.021110 -0.000090 -733487.000000 0 0 1
15.924691 9.848998 25.988528 32.031268 0.553892 0.624341 0.022587 -0.001989 1379220.000000 0 0 1
14.706991 9.434298 25.275988 30.727465 0.570365 0.604852 0.034499 -0.000644 1330260.000000 0 0 1
14.469391 7.933698 25.099448 30.038128 0.501544 0.581597 0.039146 -0.000336 -387537.000000 0 0 1
14.307591 7.198298 26.356758 30.841552 0.466133 0.546043 0.036266 -0.000985 -82373.000000 0 0 1
14.029691 5.859198 26.032658 30.147333 0.395610 0.528599 0.035939 -0.000628 -76841.000000 0 0 1
14.041491 5.041898 27.385858 31.186045 0.344733 0.498826 0.046545 0.006694 521963.000000 0 0 1
15.230491 4.250998 27.559278 31.773458 0.272184 0.520907 0.028863 0.000252 740358.000000 0 0 1
15.388191 3.823798 28.865158 32.933496 0.243556 0.502320 0.019514 0.000095 501508.000000 0 0 1
16.576391 2.815598 29.038948 33.555399 0.168250 0.524842 0.039970 -0.005654 325603.000000 0 0 1
16.193391 1.465598 28.843828 33.111030 0.090260 0.513309 0.036838 -0.009242 304962.000000 0 0 1
15.483591 0.921598 29.970528 33.746459 0.059451 0.477582 0.035738 -0.006429 173719.000000 0 0 1
15.306991 -0.607902 29.739938 33.453511 -0.039693 0.475655 0.041867 -0.007317 -444920.000000 0 0 1
14.418291 -0.926702 28.682408 32.115828 -0.064184 0.466623 0.039021 -0.010503 581959.000000 0 0 1
15.052191 -1.203802 27.395628 31.281592 -0.079805 0.503758 0.049976 -0.004302 -836282.000000 0 0 1
16.195791 -2.263602 27.190308 31.729172 -0.138865 0.541474 0.031208 -0.005078 1460050.000000 0 0 1
17.446791 -1.966702 27.839658 32.913599 -0.112252 0.562657 0.035894 -0.011273 527864.000000 0 0 1
18.057691 -0.738602 27.506198 32.912257 -0.040880 0.581311 0.035386 -0.012285 -1255830.000000 0 0 1
19.493391 -0.727002 28.134368 34.235413 -0.037278 0.606248 0.051470 -0.006871 649370.000000 0 0 1
20.420091 -1.323302 27.260168 34.085891 -0.064713 0.643919 0.033487 -0.008308 37798.200000 0 0 1
21.789591 -1.059402 27.505598 35.106502 -0.048581 0.670534 0.042385 -0.012966 607038.000000 0 0 1
22.806491 -1.838002 26.643798 35.119884 -0.080417 0.709554 0.038370 -0.006099 -225438.000000 0 0 1
23.009091 -1.545802 25.241128 34.189506 -0.067081 0.740293 0.036185 0.003251 -175245.000000 0 0 1
21.999091 -1.956802 24.367508 32.887148 -0.088716 0.736323 0.035763 0.011635 -405460.000000 0 0 1
21.885091 -1.053202 23.111968 31.846970 -0.048087 0.758717 0.033541 -0.012039 221206.000000 0 0 1
21.109491 0.194198 23.244468 31.399898 0.009199 0.737321 0.012522 0.002017 728150.000000 0 0 1
20.831991 0.734198 21.950368 30.270936 0.035229 0.759573 0.019930 0.001816 -128729.000000 0 0 1
-30.223939 -27.396166 -10.265203 42.064365 0.736361 1.817321 -0.003893 0.012727 145114.000000 0 0 1
-29.914579 -26.291366 -9.383003 40.916485 0.721024 1.802176 0.007676 0.014311 -38894.500000 0 0 1
-30.485909 -26.616366 -8.097903 41.272238 0.717736 1.768285 0.024161 0.002683 -454310.000000 0 0 1
-30.741429 -25.367966 -7.265403 40.513643 0.689922 1.751104 0.049367 -0.001791 370002.000000 0 0 1
-29.602939 -24.606966 -6.834703 39.096674 0.693498 1.746515 0.046515 -0.007146 -82513.900000 0 0 1
-28.864459 -25.265166 -5.811403 38.797655 0.719002 1.721150 0.027623 -0.002678 381043.000000 0 0 1
-27.548459 -24.503266 -5.472503 37.272992 0.726962 1.718151 0.012036 0.003237 10139.900000 0 0 1
-27.624239 -23.363866 -4.632003 36.474981 0.702036 1.698131 0.028026 -0.006853 -232953.000000 0 0 1
-28.434869 -22.239666 -4.956203 36.437734 0.663747 1.707238 0.054227 -0.015965 -39939.400000 0 0 1
-28.390339 -21.096266 -3.953303 35.590622 0.639057 1.682103 0.046062 -0.020328 673991.000000 0 0 1
-27.217559 -20.266066 -4.012303 34.170273 0.640033 1.688489 0.047759 -0.033641 713679.000000 0 0 1
-27.525219 -19.150166 -3.257903 33.689471 0.607856 1.667652 0.060322 -0.028428 638037.000000 0 0 1
-26.308549 -18.159266 -3.235303 32.130451 0.604147 1.671660 0.054792 -0.026905 650468.000000 0 0 1
-26.381469 -17.368466 -4.443903 31.896611 0.582229 1.710573 0.050923 -0.036298 -673061.000000 0 0 1
-25.413059 -16.416166 -4.452303 30.580011 0.573540 1.716911 0.053154 -0.036450 -813588.000000 0 0 1
-25.639789 -15.434666 -5.613703 30.448996 0.541875 1.756221 0.052250 -0.044976 994997.000000 0 0 1
-26.920069 -14.776666 -5.416703 31.183019 0.502005 1.745389 0.046424 -0.034231 966574.000000 0 0 1
-27.279929 -13.809666 -6.369803 31.232608 0.468612 1.776185 0.051427 -0.042696 464563.000000 0 0 1
-28.695989 -13.172066 -6.110203 32.160499 0.430331 1.761949 0.042575 -0.031369 147551.000000 0 0 1
-29.692209 -14.024766 -6.579703 33.490504 0.441274 1.768547 0.045547 -0.026661 -727904.000000 0 0 1
-30.901879 -13.322566 -6.454503 34.264814 0.407047 1.760300 0.026501 -0.022039 -529337.000000 0 0 1
-32.110429 -14.000066 -7.112203 35.744439 0.411149 1.771107 0.015102 -0.022048 -376101.000000 0 0 1
-32.534399 -15.243966 -6.581403 36.526435 0.438172 1.751968 0.024070 -0.027695 -26578.200000 0 0 1
-32.671249 -16.211866 -7.598803 37.255562 0.460613 1.776202 0.030700 -0.016973 -470104.000000 0 0 1
-33.671719 -17.362466 -7.265203 38.574902 0.476081 1.760268 0.031440 -0.021238 839906.000000 0 0 1
-35.052278 -17.008466 -7.327003 39.643853 0.451763 1.756686 0.033414 -0.025825 499173.000000 0 0 1
-35.566356 -16.224266 -6.263303 39.590674 0.427972 1.729665 0.045627 -0.024172 -112837.000000 0 0 1
34.367529 -16.135166 -6.038203 38.443862 -0.438942 1.728515 0.052457 -0.029666 -229858.000000 0 0 1
33.747799 -15.306566 -6.982103 37.708814 -0.425808 1.757029 0.074003 -0.025010 704056.000000 0 0 1
32.320689 -15.185966 -6.926903 36.376125 -0.439240 1.762391 0.071421 -0.027012 847341.000000 0 0 1
31.775489 -14.435566 -5.672103 35.358733 -0.426423 1.731908 0.077129 -0.028943 -927623.000000 0 0 1
31.842539 -15.161966 -4.449803 35.547620 -0.444390 1.696304 0.078854 -0.031681 685527.000000 0 0 1
31.214269 -14.483066 -3.315503 34.569963 -0.434426 1.666851 0.080931 -0.031028 -690183.000000 0 0 1
31.222469 -15.287266 -1.960103 34.819321 -0.455312 1.627120 0.083167 -0.025401 439684.000000 0 0 1
32.454339 -15.589766 -1.269403 36.026883 -0.447813 1.606038 0.091182 -0.023095 1305250.000000 0 0 1
33.472449 -16.289266 -2.020103 37.280368 -0.452908 1.625010 0.076550 -0.022956 -81037.900000 0 0 1
33.223099 -17.798566 -2.291903 37.759980 -0.491820 1.631530 0.071766 -0.030097 -599365.000000 0 0 1
33.281339 -18.617466 -1.148603 38.152023 -0.510029 1.600907 0.078344 -0.034412 105464.000000 0 0 1
33.003789 -19.993366 -1.497103 38.616397 -0.544666 1.609575 0.069924 -0.032790 137887.000000 0 0 1
33.974759 -20.857166 -2.379203 39.937028 -0.550579 1.630405 0.067975 -0.032258 89669.200000 0 0 1
34.011179 -20.302866 -3.677803 39.780559 -0.538172 1.663381 0.059801 -0.035747 107057.000000 0 0 1
35.059709 -20.859666 -4.462703 41.039305 -0.536717 1.679754 0.068066 -0.035989 56361.000000 0 0 1
35.334169 -20.209366 -5.872503 41.126734 -0.519539 1.714076 0.082128 -0.035831 -89512.500000 0 0 1
34.214289 -20.414366 -6.714003 40.403487 -0.537961 1.737745 0.062546 -0.039087 267268.000000 0 0 1
34.145149 -19.425066 -7.716903 40.034672 -0.517235 1.764766 0.054340 -0.039993 -533258.000000 0 0 1
33.018639 -19.618666 -8.724403 39.385756 -0.536121 1.794161 0.044841 -0.043135 -386813.000000 0 0 1
33.148979 -20.816666 -9.509003 40.281628 -0.560734 1.809109 0.045708 -0.039408 470381.000000 0 0 1
32.082799 -20.870366 -10.457803 39.676742 -0.576738 1.837523 0.045783 -0.041143 132205.000000 0 0 1
32.041449 -22.267566 -11.034103 40.549357 -0.607336 1.846387 0.042138 -0.027430 144791.000000 0 0 1
31.506859 -23.194266 -10.067403 40.398128 -0.634588 1.822655 0.035792 -0.028649 132105.000000 0 0 1
31.438939 -24.478666 -10.699303 41.256358 -0.661561 1.833132 0.023015 -0.015199 -242814.000000 0 0 1
30.733099 -25.492266 -9.802103 41.115207 -0.692456 1.811520 0.025864 -0.013537 -382038.000000 0 0 1
29.352179 -25.274266 -9.792903 39.952971 -0.710885 1.818430 0.027989 -0.020104 -384529.000000 0 0 1
28.636029 -26.295266 -9.091703 39.926460 -0.742811 1.800523 0.019337 -0.010227 -353440.000000 0 0 1
27.215749 -25.845866 -8.790503 38.548395 -0.759587 1.800859 0.034129 -0.023411 -399166.000000 0 0 1
26.413169 -25.573666 -9.914903 38.078514 -0.769251 1.834213 0.038259 -0.027601 -867501.000000 0 0 1
25.301649 -24.807566 -9.671503 36.730461 -0.775538 1.837248 0.052604 -0.025424 -663468.000000 0 0 1
24.520149 -24.398266 -10.926903 36.275478 -0.782907 1.876768 0.076461 -0.031867 -372527.000000 0 0 1
23.851349 -25.389766 -11.635003 36.727379 -0.816631 1.893144 0.059634 -0.030450 114837.000000 0 0 1
23.051049 -24.841666 -12.667603 36.179102 -0.822769 1.928513 0.064165 -0.012173 48727.800000 0 0 1
22.201349 -25.941166 -13.375303 36.670734 -0.862925 1.944150 0.069512 -0.023209 29800.000000 0 0 1
22.886349 -26.901166 -14.196203 38.065600 -0.865863 1.952972 0.059145 -0.016531 -17959.500000 0 0 1
22.363649 -28.220866 -14.098103 38.669194 -0.900676 1.943980 0.063873 -0.011895 -443984.000000 0 0 1
23.216949 -29.353666 -14.650303 40.190743 -0.901605 1.943913 0.049246 -0.012110 -403111.000000 0 0 1
23.241849 -29.276766 -16.047403 40.679623 -0.899806 1.976301 0.044301 -0.012117 317352.000000 0 0 1
23.674949 -30.561866 -16.488003 42.028385 -0.911701 1.973934 0.035269 -0.019099 -386952.000000 0 0 1
23.645849 -30.631366 -18.038803 42.694323 -0.913395 2.007010 0.037135 -0.015507 -865297.000000 0 0 1
22.362849 -30.501966 -18.537103 42.119961 -0.938160 2.026509 0.041427 -0.017665 -939697.000000 0 0 1
22.266849 -30.688166 -19.931703 42.835136 -0.943105 2.054783 0.028261 -0.017234 6282.970000 0 0 1
20.850649 -30.316466 -20.426703 42.084295 -0.968328 2.077589 0.027154 -0.014128 131845.000000 0 0 1
20.828049 -30.340766 -21.837303 42.792961 -0.969208 2.106331 0.025054 -0.008353 -51188.400000 0 0 1
19.484049 -30.232566 -22.268703 42.302853 -0.998317 2.125171 0.025251 -0.009689 -259866.000000 0 0 1
19.300249 -30.343066 -23.804603 43.126099 -1.004278 2.155529 0.022747 -0.005739 -520109.000000 0 0 1
19.727649 -29.216466 -24.564003 42.967107 -0.976893 2.179364 0.023595 -0.002659 419314.000000 0 0 1
19.694549 -29.482666 -25.950203 43.937636 -0.981868 2.202616 0.020370 -0.000368 -524097.000000 0 0 1
20.223549 -28.280466 -26.791833 43.892813 -0.950003 2.227352 0.015646 -0.005667 133028.000000 0 0 1
19.395149 -27.116166 -26.930753 42.857015 -0.949901 2.250273 0.033243 -0.015574 235563.000000 0 0 1
18.354749 -27.304066 -27.883933 43.126819 -0.978949 2.273858 0.033545 -0.011335 614.877000 0 0 1
17.645449 -25.964266 -28.191933 42.193484 -0.973890 2.302527 0.032333 -0.008440 -249078.000000 0 0 1
16.856049 -25.547166 -27.108303 40.885745 -0.987562 2.295650 0.031706 -0.007029 -274821.000000 0 0 1
16.391049 -24.225266 -27.331233 40.031566 -0.975942 2.322305 0.036925 -0.002459 -25349.900000 0 0 1
15.295849 -23.879466 -26.277183 38.661121 -1.001097 2.318122 0.046887 -0.011692 511576.000000 0 0 1
14.057749 -24.521766 -26.624543 38.830447 -1.050258 2.326308 0.064471 -0.019171 544720.000000 0 0 1
12.943949 -24.337266 -25.743103 37.716783 -1.081989 2.322025 0.056076 -0.019455 440220.000000 0 0 1
13.066049 -24.840966 -24.267203 37.103805 -1.086575 2.283703 0.047157 -0.017267 -127729.000000 0 0 1
13.977649 -24.099666 -23.433503 36.404638 -1.045217 2.270114 0.030778 -0.015376 121839.000000 0 0 1
14.183849 -24.677866 -22.150703 36.067053 -1.049142 2.232109 0.036990 -0.020749 -12313.000000 0 0 1
15.428949 -24.119166 -21.449103 35.775001 -1.001698 2.213742 0.033852 -0.028086 -188088.000000 0 0 1
15.340849 -22.759266 -21.095103 34.616892 -0.977701 2.226084 0.042514 -0.034990 312727.000000 0 0 1
16.584249 -22.209366 -20.665903 34.574164 -0.929396 2.211459 0.041328 -0.030430 -56505.000000 0 0 1
16.429349 -20.772766 -20.036503 33.209829 -0.901624 2.218467 0.034462 -0.016507 344933.000000 0 0 1
15.664649 -20.598366 -18.840003 32.009680 -0.920622 2.200088 0.025871 -0.025720 -515041.000000 0 0 1
14.298549 -20.747266 -18.996503 31.555739 -0.967371 2.216798 0.034819 -0.025861 -1128770.000000 0 0 1
13.562649 -20.596166 -17.617203 30.306985 -0.988466 2.191112 0.039282 -0.024082 -272747.000000 0 0 1
13.596949 -19.310466 -17.069903 29.140225 -0.957308 2.196644 0.044613 -0.017047 363145.000000 0 0 1
13.049749 -19.242266 -15.742503 28.078233 -0.974864 2.165986 0.029463 -0.012206 -259038.000000 0 0 1
13.160549 -17.852866 -15.020103 26.786720 -0.935559 2.166063 0.035268 -0.006658 -1162610.000000 0 0 1
12.114449 -16.951266 -15.081503 25.720751 -0.950297 2.197349 0.037389 -0.014327 -224577.000000 0 0 1
12.463749 -15.730166 -14.444203 24.726871 -0.900739 2.194629 0.041511 -0.010874 -699152.000000 0 1 0
11.250949 -14.851766 -14.293703 23.483372 -0.922481 2.225184 0.040966 -0.010349 -966298.000000 0 1 0
10.658149 -14.405066 -15.458803 23.665939 -0.933798 2.282611 0.043006 -0.003561 -1344820.000000 0 1 0
9.459949 -13.858666 -15.138703 22.599416 -0.971843 2.304832 0.042584 -0.007057 -1288460.000000 0 1 0
8.584249 -13.301166 -16.279703 22.707688 -0.997679 2.370177 0.040180 -0.003883 -54443.500000 0 1 0
8.953549 -12.101466 -16.983003 22.694359 -0.933808 2.416346 0.040105 0.002256 1177510.000000 0 1 0
10.160249 -12.244766 -17.811803 23.883578 -0.878169 2.412495 0.055520 0.000330 1360700.000000 0 1 0
10.380149 -11.028166 -18.718303 24.077849 -0.815658 2.461330 0.058464 0.001171 -123945.000000 0 1 0
9.630549 -11.187866 -19.887803 24.767732 -0.860064 2.503062 0.056552 0.005937 106173.000000 0 1 0
9.552449 -9.902066 -20.440903 24.640022 -0.803367 2.549154 0.056644 -0.003941 185969.000000 0 1 0
9.060549 -9.979066 -21.897303 25.713171 -0.833603 2.589824 0.050516 -0.001511 198825.000000 0 0 1
10.042849 -10.651466 -22.671103 26.986876 -0.814800 2.568225 0.052172 0.003810 -91773.900000 0 0 1
9.739449 -10.784766 -24.040803 28.091427 -0.836285 2.597903 0.057537 0.007868 89266.900000 0 0 1
10.809449 -11.556966 -24.848303 29.459223 -0.818807 2.574528 0.081342 0.008938 -118206.000000 0 0 1
10.789249 -12.971466 -24.615603 29.842834 -0.876983 2.540718 0.076032 0.003172 217411.000000 0 0 1
11.942549 -13.662366 -25.105613 30.977032 -0.852465 2.515731 0.066467 -0.012330 390289.000000 0 0 1
11.868749 -15.190066 -24.727003 31.353309 -0.907532 2.479418 0.058689 -0.011829 -170542.000000 0 0 1
10.815349 -15.906366 -25.305733 31.786229 -0.973662 2.491657 0.067115 -0.020103 -368682.000000 0 0 1
10.734649 -17.183566 -24.700203 31.946951 -1.012410 2.454610 0.070124 -0.021523 610505.000000 0 0 1
9.538249 -18.020566 -25.277153 32.475429 -1.083986 2.462825 0.078774 -0.029307 596668.000000 0 0 1
9.761049 -18.519266 -26.580583 33.834430 -1.085724 2.474474 0.075135 -0.032382 -108691.000000 0 0 1
8.572649 -19.120466 -27.085283 34.244636 -1.149316 2.483132 0.074327 -0.030308 105940.000000 0 0 1
8.728449 -20.146866 -28.221003 35.756217 -1.161966 2.480402 0.059708 -0.033509 -350335.000000 0 0 1
9.471949 -21.298566 -27.929663 36.378741 -1.152340 2.446114 0.059717 -0.030457 -20497.400000 0 0 1
9.824049 -22.057166 -29.066413 37.787390 -1.151782 2.448399 0.060921 -0.028680 -37058.200000 0 0 1
10.596049 -23.390566 -28.836733 38.612848 -1.145446 2.414059 0.044955 -0.023312 166578.000000 0 0 1
10.785249 -24.143566 -30.048523 40.026830 -1.150679 2.419932 0.036319 -0.013033 206201.000000 0 0 1
11.372549 -25.447866 -30.007263 40.955642 -1.150527 2.393044 0.041436 -0.000742 -29870.800000 0 0 1
10.663449 -26.459566 -29.045053 40.711582 -1.187698 2.365184 0.032267 -0.001005 -35828.400000 0 0 1
11.136149 -26.409166 -27.712953 39.868103 -1.171743 2.339377 0.043774 -0.007205 -446297.000000 0 0 1
10.304949 -27.003266 -26.717813 39.360004 -1.206236 2.316932 0.035250 -0.001480 56645.700000 0 0 1
9.255049 -26.001166 -26.197813 38.053147 -1.228833 2.330151 0.029731 -0.006851 -333871.000000 0 0 1
9.770849 -24.805566 -25.690043 37.023829 -1.195562 2.337658 0.043665 -0.006687 -756819.000000 0 0 1
8.748449 -23.876566 -25.394083 35.937240 -1.219584 2.355511 0.040758 -0.006658 -208373.000000 0 0 1
9.204049 -22.393766 -25.128993 34.895008 -1.180835 2.374788 0.056933 -0.017517 306277.000000 0 0 1
9.959149 -22.368066 -23.892103 34.210344 -1.151908 2.343939 0.051149 -0.014947 159370.000000 0 0 1
10.947549 -21.361366 -24.000303 33.943649 -1.097204 2.356133 0.060146 -0.020785 -171567.000000 0 0 1
11.913749 -21.273766 -22.818903 33.394803 -1.060292 2.323079 0.049988 -0.016476 -227496.000000 0 0 1
11.318049 -20.812266 -21.599703 32.059255 -1.072713 2.310059 0.044474 -0.025617 -113987.000000 0 0 1
11.063849 -19.412666 -21.487103 30.999290 -1.052781 2.336644 0.057315 -0.030407 -403415.000000 0 0 1
12.232249 -18.502066 -21.108303 30.618864 -0.986637 2.331441 0.061307 -0.020801 -793315.000000 0 0 1
13.315349 -18.544266 -21.966003 31.681124 -0.948072 2.336919 0.062526 -0.029147 -838408.000000 0 0 1
14.104149 -17.398866 -21.774603 31.237492 -0.889604 2.342094 0.056183 -0.023273 113066.000000 0 0 1
15.366649 -17.323766 -22.680803 32.413972 -0.845195 2.345806 0.039139 -0.010900 55645.900000 0 0 1
16.461149 -18.079966 -22.210603 33.032794 -0.832230 2.308216 0.043846 -0.007921 527552.000000 0 0 1
17.662249 -17.457866 -22.686503 33.636432 -0.779579 2.311032 0.048839 0.002416 224785.000000 0 0 1
18.936149 -17.922366 -21.970003 34.095014 -0.757900 2.271003 0.033860 0.002740 -197644.000000 0 0 1
19.212549 -19.279366 -22.173603 35.106761 -0.787134 2.254418 0.029786 -0.001484 -1174210.000000 0 0 1
20.553049 -19.535966 -22.055803 35.924090 -0.760033 2.231859 0.018285 -0.000651 -1133830.000000 0 0 1
20.759649 -21.032066 -21.743803 36.689287 -0.791917 2.205138 0.012617 -0.002317 -264138.000000 0 0 1
20.373549 -21.346366 -20.452903 35.903622 -0.808712 2.176890 0.022439 -0.004741 200197.000000 0 0 1
20.607349 -22.686666 -20.185603 36.698859 -0.833389 2.153201 0.025458 -0.002514 -298089.000000 0 0 1
-16.493609 12.958298 28.637228 35.497147 -0.665933 0.632170 0.009695 -0.015806 -566020.000000 0 0 1
-17.802309 13.463498 28.541538 36.232684 -0.647507 0.663683 0.005507 -0.015021 -26472.600000 0 0 1
-18.265009 13.534398 27.193378 35.443903 -0.637717 0.696296 0.003489 -0.016098 596072.000000 0 0 1
-19.504009 14.456698 26.921998 36.251847 -0.637856 0.733795 0.017240 -0.015688 601144.000000 0 0 1
-19.218509 15.859398 26.964118 36.714237 -0.689928 0.745967 0.029257 -0.013880 734693.000000 0 0 1
-20.276009 16.564598 26.258258 37.080973 -0.684995 0.783946 0.026531 -0.008933 24397.900000 0 0 1
-20.203509 18.103298 26.459488 37.894797 -0.730627 0.797867 0.019505 0.005978 73436.800000 0 0 1
-19.085909 18.771398 25.924538 37.265520 -0.777091 0.801443 0.027196 -0.000930 -168620.000000 0 0 1
-17.885409 18.535798 26.619488 37.041339 -0.803254 0.768948 0.043607 -0.000196 300737.000000 0 0 1
-16.634409 19.375098 26.073998 36.495909 -0.861362 0.774978 0.053909 -0.003115 943077.000000 0 0 1
-16.685309 20.774498 26.202258 37.370277 -0.894130 0.793784 0.057233 0.000031 485744.000000 0 0 1
-15.507009 21.437198 25.699598 36.884822 -0.944558 0.799936 0.069698 -0.002683 660394.000000 0 0 1
-15.493509 22.984098 25.641868 37.760071 -0.977667 0.824296 0.055122 -0.004251 -223204.000000 0 0 1
-15.309009 23.645598 26.852758 38.917228 -0.996226 0.809312 0.060219 -0.011636 68416.300000 0 0 1
-15.846009 24.953398 26.772598 39.881575 -1.005021 0.834832 0.059135 -0.016299 37027.600000 0 0 1
-15.191209 25.989498 27.763568 40.951710 -1.041842 0.825814 0.050975 -0.007624 342425.000000 0 0 1
-13.816209 26.218098 27.508068 40.434763 -1.085805 0.822614 0.040446 -0.008976 50810.700000 0 0 1
-13.195109 27.059198 28.444868 41.417648 -1.117087 0.813745 0.049358 -0.004345 886571.000000 0 0 1
-11.629009 26.922598 28.380058 40.810389 -1.163060 0.801802 0.053216 -0.012079 728754.000000 0 0 1
-11.034009 27.690398 27.386708 40.478874 -1.191603 0.827704 0.050252 -0.010741 -477486.000000 0 0 1
-9.639909 27.585398 27.527368 40.145211 -1.234605 0.815238 0.031678 -0.007491 -278872.000000 0 0 1
-8.860909 28.115898 26.308988 39.511799 -1.265493 0.842162 0.045915 -0.013637 -622985.000000 0 0 1
-7.470309 28.199798 26.402228 39.346051 -1.311838 0.835204 0.031574 -0.016415 -182257.000000 0 0 1
-6.913309 28.575898 25.168298 38.701667 -1.333429 0.862797 0.047340 -0.017751 -749876.000000 0 0 1
-5.401909 28.413498 25.114248 38.304477 -1.382921 0.855756 0.035606 -0.014949 -1140630.000000 0 0 1
-4.634909 29.313798 25.872048 39.371868 -1.413981 0.853804 0.046645 -0.013253 -694083.000000 0 0 1
-3.264009 29.117598 25.803918 39.042675 -1.459165 0.848758 0.034731 -0.014992 -375873.000000 0 0 1
-2.563109 29.799798 24.576118 38.711536 -1.484997 0.882979 0.031153 -0.016608 -596843.000000 0 0 1
-2.772409 29.081998 23.398068 37.428845 -1.475753 0.895492 0.026967 -0.012561 -32596.000000 0 0 1
-2.361009 29.903098 22.331368 37.395984 -1.492004 0.930841 0.019961 -0.015066 -458243.000000 0 0 1
-2.912909 29.394198 21.028868 36.259029 -1.472021 0.952114 0.017581 -0.007074 731059.000000 0 0 1
-4.334509 29.509598 20.906068 36.423454 -1.424954 0.959447 0.013552 0.003215 576418.000000 0 0 1
-5.033809 28.346798 21.335968 35.834393 -1.395049 0.933027 0.030677 0.000089 -237354.000000 0 0 1
-6.539609 28.399498 20.988868 35.914211 -1.344470 0.946635 0.025463 -0.008098 -136814.000000 0 0 1
-6.862109 28.448598 19.599868 35.221671 -1.334107 0.980663 0.024913 -0.006587 -246670.000000 0 0 1
-7.756309 27.459598 19.184568 34.383681 -1.295506 0.978876 0.005939 -0.001632 -1577370.000000 0 0 1
-7.224109 26.134498 18.696668 32.935773 -1.301110 0.967123 -0.003943 0.000272 -441590.000000 0 0 1
-6.329609 26.286898 17.632968 32.279816 -1.334505 0.992911 0.000907 -0.000747 -998793.000000 0 0 1
-5.030409 26.531798 18.029668 32.470144 -1.383421 0.982110 0.013100 -0.000026 -1819200.000000 0 0 1
-4.053809 26.760098 16.873668 31.894465 -1.420452 1.013319 0.009673 0.003150 -202699.000000 0 0 1
-3.644609 25.587398 16.184468 30.494837 -1.429310 1.011337 0.023769 -0.006688 40664.700000 0 0 1
-2.926609 25.887898 14.987968 30.056405 -1.458225 1.048743 0.038799 -0.020589 54962.700000 0 0 1
-2.220909 24.628198 14.435568 28.633306 -1.480862 1.042395 0.028873 -0.013226 776862.000000 0 0 1
-1.084609 24.206098 15.219568 28.613752 -1.526019 1.009957 0.028040 -0.014380 527906.000000 0 0 1
-0.446009 23.099398 14.611068 27.336138 -1.551490 1.006885 0.032404 -0.023731 -630416.000000 0 0 1
0.802991 22.631398 15.359368 27.363025 1.535330 0.974818 0.022323 -0.020978 -657649.000000 0 0 1
1.818191 23.567098 15.112668 28.055421 1.493799 1.001936 0.033404 -0.029794 -868561.000000 0 0 1
2.998591 23.118598 15.719268 28.116837 1.441812 0.977533 0.032700 -0.026302 -944506.000000 0 0 1
4.125091 24.132498 15.551868 29.004386 1.401497 1.004879 0.029356 -0.023832 -842121.000000 0 0 1
5.341291 23.453798 15.644768 28.694404 1.346879 0.994145 0.035710 -0.023012 -217835.000000 0 0 1
6.428991 24.380298 15.707768 29.706310 1.312969 1.013647 0.052371 -0.022011 88020.800000 0 0 1
7.855891 23.824898 15.918868 29.711128 1.252288 1.005356 0.065150 -0.018876 116721.000000 0 0 1
8.427491 23.245998 14.776068 28.805055 1.222998 1.032158 0.044532 -0.017703 -93669.700000 0 0 1
9.089091 24.176698 13.937468 29.349230 1.211198 1.075965 0.043834 -0.017309 -560870.000000 0 0 1
9.610691 23.440198 12.693268 28.335972 1.181691 1.106319 0.036727 -0.013607 -1218380.000000 0 0 1
10.683891 22.632798 12.885568 28.150079 1.129755 1.095339 0.033644 -0.009672 -1033020.000000 0 0 1
11.217091 22.080998 11.680868 27.383139 1.100771 1.130098 0.027662 -0.003682 110972.000000 0 0 1
12.484391 21.245398 11.963368 27.392501 1.039524 1.118826 0.034622 -0.001907 28406.200000 0 0 1
12.264191 20.152898 12.819968 26.849604 1.024109 1.073020 0.035555 -0.003293 -54142.800000 0 0 1
13.415491 19.336198 12.947068 26.860576 0.964242 1.067849 0.038564 -0.003980 233359.000000 0 0 1
13.962091 19.168098 14.435768 27.762337 0.941261 1.023973 0.044257 -0.010678 287029.000000 0 0 1
15.117391 18.328998 14.444068 27.805014 0.881127 1.024557 0.037409 -0.003962 379052.000000 0 0 1
15.520691 18.039198 15.766468 28.546209 0.860303 0.985659 0.026767 -0.017529 -541703.000000 0 0 1
16.744291 17.145798 15.705268 28.653187 0.797245 0.990686 0.019486 -0.016898 -500223.000000 0 0 1
17.233391 16.771998 16.979468 29.437935 0.771831 0.956004 0.021616 -0.019862 -187379.000000 0 0 1
18.227891 15.787098 16.920368 29.458230 0.713765 0.958944 0.016520 -0.017063 -71556.400000 0 0 1
18.815691 15.463398 18.362768 30.501445 0.687914 0.924756 0.020600 -0.014380 -76368.400000 0 0 1
19.406291 16.539598 19.046468 31.826567 0.705816 0.929237 0.014937 -0.007113 539679.000000 0 0 1
18.475291 17.257298 19.853568 32.145215 0.751325 0.905082 0.001718 -0.005602 -183553.000000 0 0 1
19.145491 18.443498 20.592768 33.626991 0.766725 0.911719 -0.012390 0.004804 -138106.000000 0 0 1
18.234791 19.347198 21.198368 34.002830 0.814989 0.897675 -0.000810 0.011551 -137123.000000 0 0 1
18.887791 20.390398 21.793368 35.319511 0.823635 0.905827 -0.008341 0.019676 -1037160.000000 0 0 1
18.007091 21.538298 22.168368 35.771359 0.874457 0.902405 0.001391 0.017294 -709198.000000 0 0 1
17.353391 21.195598 23.346868 35.992635 0.884741 0.864978 -0.001661 0.013066 -188807.000000 0 0 1
16.568591 22.224798 23.894928 36.598189 0.930181 0.859391 -0.000657 0.005527 138564.000000 0 0 1
15.908691 21.800898 25.265358 36.968959 0.940397 0.818358 0.013264 0.005582 138423.000000 0 0 1
14.901191 20.804798 25.161238 35.888341 0.949255 0.793860 0.015428 0.000744 -67994.300000 0 0 1
14.272991 20.520898 26.394408 36.352308 0.963074 0.758204 0.019077 0.001007 -122461.000000 0 0 1
13.084891 19.537798 26.245328 35.238575 0.980682 0.730577 0.048876 -0.005268 -127539.000000 0 0 1
13.359991 18.168998 26.105268 34.497636 0.936758 0.712506 0.030405 -0.004777 -102985.000000 0 0 1
14.065791 17.767198 24.963278 33.714760 0.901154 0.737093 0.031952 -0.003959 8220.470000 0 0 1
13.159691 17.669998 23.678298 32.342976 0.930665 0.749396 0.053684 -0.011307 -268385.000000 0 0 1
12.888491 18.877898 22.954668 32.394521 0.971756 0.783288 0.056224 -0.005949 75632.500000 0 0 1
13.917391 19.450398 22.141768 32.592478 0.949722 0.823917 0.044749 -0.003092 435669.000000 0 0 1
14.710291 18.510598 21.191968 31.751132 0.899298 0.840031 0.045174 -0.007478 95229.500000 0 0 1
13.825391 17.831398 20.265568 30.328096 0.911274 0.838995 0.063780 -0.015247 426521.000000 0 0 1
14.464591 16.965898 19.369068 29.533487 0.864813 0.855509 0.054610 -0.017683 -309112.000000 0 0 1
13.441591 16.203698 18.529768 28.046185 0.878302 0.849062 0.042294 -0.012294 160858.000000 0 0 1
12.780791 17.004798 17.542868 27.572885 0.926273 0.881187 0.053949 -0.011713 100660.000000 0 0 1
11.627491 16.299098 17.126668 26.347332 0.951145 0.863167 0.038307 -0.010431 -7566.140000 0 0 1
10.849091 16.863498 15.934468 25.612255 0.999112 0.899320 0.038378 -0.006247 -93938.500000 0 0 1
10.141091 18.044998 16.178868 26.272028 1.058795 0.907369 0.038756 -0.012667 -68299.500000 0 0 1
9.892591 18.583798 14.910768 25.798293 1.081626 0.954551 0.024488 -0.003317 -798951.000000 0 0 1
9.007491 19.809898 14.835368 26.337333 1.144044 0.972443 0.034192 -0.009884 -568673.000000 0 0 1
7.694791 19.427998 15.140868 25.805092 1.193685 0.943770 0.021068 -0.011553 -781621.000000 0 0 1
6.800091 20.488598 14.921168 26.242430 1.250340 0.966006 0.026924 -0.015523 1480740.000000 0 0 1
5.388791 20.217998 15.633468 26.119185 1.310317 0.929115 0.024955 -0.017148 1549910.000000 0 0 1
4.350991 19.618598 14.895868 25.014144 1.352550 0.932911 0.024389 -0.020737 -755979.000000 0 0 1
3.250191 19.220398 15.621768 24.980534 1.403280 0.895207 0.023500 -0.022183 -519076.000000 0 1 0
2.143891 18.625698 14.761368 23.862332 1.456197 0.903830 0.019213 -0.024593 -308683.000000 0 1 0
1.311491 19.570998 14.106268 24.160521 1.503884 0.947326 0.021481 -0.028146 585880.000000 0 1 0
0.305891 18.862598 13.366568 23.120474 1.554581 0.954365 0.018995 -0.029795 99712.200000 0 1 0
-0.747409 19.609598 12.580568 23.310205 -1.532700 1.000713 0.029817 -0.034955 384752.000000 0 1 0
-1.853509 20.294898 13.158868 24.258487 -1.479720 0.997453 0.019054 -0.025843 561890.000000 0 1 0
-2.950609 20.371798 12.269568 23.963692 -1.426959 1.033277 0.022790 -0.031796 559636.000000 0 1 0
-4.265909 21.000598 12.780568 24.951273 -1.370390 1.033027 0.020655 -0.023478 303620.000000 0 1 0
-4.952309 20.291098 13.784768 25.025464 -1.331413 0.987438 0.019549 -0.029316 38143.900000 0 0 1
-5.994309 21.101098 14.314268 26.193250 -1.294012 0.992633 0.001678 -0.016064 -668387.000000 0 0 1
-6.619209 20.481498 15.578968 26.570847 -1.258212 0.944290 0.004133 -0.013214 -1171930.000000 0 0 1
-7.585809 19.497698 15.276168 25.904942 -1.199755 0.940108 0.012966 -0.013702 95280.600000 0 0 1
-8.265009 18.967398 16.430768 26.420498 -1.159857 0.899636 0.007658 0.002596 -104534.000000 0 0 1
-9.357709 20.006998 16.887468 27.803476 -1.133303 0.918029 0.007018 0.010604 -529487.000000 0 0 1
-10.417009 20.198998 15.974068 27.779209 -1.094653 0.958147 0.006260 -0.002985 22983.400000 0 0 1
-11.419009 19.195898 16.115368 27.542355 -1.034160 0.945778 0.007804 0.003753 -700795.000000 0 0 1
-12.526409 19.453698 15.080168 27.618268 -0.998715 0.993188 0.010893 -0.003744 -359194.000000 0 0 1
-13.248709 20.679198 15.102668 28.831373 -1.001002 1.019458 -0.001833 -0.001574 670105.000000 0 0 1
-14.194709 20.686398 14.003368 28.731710 -0.969402 1.061705 0.008360 -0.012702 184709.000000 0 0 1
-15.141209 21.903098 14.084068 30.122465 -0.965946 1.084268 0.004147 -0.013027 -511663.000000 0 0 1
-16.141409 21.727298 15.026968 30.958526 -0.931849 1.063987 0.007070 -0.020790 -401150.000000 0 0 1
-17.148909 22.710698 14.974768 32.157496 -0.924037 1.086405 0.023897 -0.030661 841739.000000 0 0 1
-18.390409 22.524298 15.928768 33.155343 -0.886093 1.069653 0.061363 -0.035649 388762.000000 0 0 1
-19.262409 21.425998 15.510768 32.721517 -0.838523 1.076942 0.061154 -0.033335 1712690.000000 0 0 1
-20.493509 21.314198 16.292468 33.759790 -0.805026 1.067176 0.053693 -0.027727 1516320.000000 0 0 1
-21.496009 22.492998 16.064768 35.015570 -0.808059 1.094164 0.046831 -0.035010 -997441.000000 0 0 1
-22.223009 22.425898 14.845968 34.888190 -0.789942 1.131249 0.056256 -0.033224 402501.000000 0 0 1
-23.053209 23.551198 14.578868 36.036825 -0.796083 1.154304 0.062438 -0.039306 36045.100000 0 0 1
-22.343409 24.729698 13.902868 36.111987 -0.836048 1.175596 0.057883 -0.037317 197626.000000 0 0 1
-21.252309 25.275798 14.643768 36.124321 -0.871658 1.153411 0.049439 -0.042024 280100.000000 0 0 1
-20.596509 26.272198 13.939668 36.176773 -0.905909 1.175241 0.038865 -0.027707 -188781.000000 0 0 1
-19.128109 26.642398 14.283168 35.773046 -0.948120 1.160074 0.036721 -0.021010 -316229.000000 0 0 1
-18.320409 25.889998 13.460968 34.454710 -0.954971 1.169420 0.039044 -0.019025 -1343840.000000 0 0 1
-17.001309 26.302998 13.670568 34.172747 -0.996981 1.159233 0.009905 -0.010316 -998125.000000 0 0 1
-16.012409 25.671898 12.679668 32.805755 -1.013109 1.173955 0.018249 -0.017657 -492522.000000 0 0 1
-14.736109 26.181898 12.965868 32.722445 -1.058152 1.163381 0.009821 -0.010826 -463429.000000 0 0 1
-13.787409 25.828898 11.976268 31.633141 -1.080477 1.182514 0.009386 -0.014250 -398615.000000 0 0 1
-12.414209 26.431998 12.267368 31.674144 -1.131709 1.173096 0.002940 -0.008398 -911929.000000 0 0 1
-11.429709 25.741698 11.498268 30.421759 -1.152930 1.183202 0.000223 -0.011151 1063490.000000 0 0 1
-10.081409 26.219798 11.684968 30.424515 -1.203726 1.176602 0.006704 -0.008929 928158.000000 0 0 1
-9.758509 27.631798 11.130168 31.346856 -1.231307 1.207813 0.015599 -0.014081 -705533.000000 0 0 1
-8.456209 28.004698 11.526668 31.442561 -1.277545 1.195450 0.026884 -0.019977 201952.000000 0 0 1
-8.057009 29.254598 10.976268 32.268024 -1.302049 1.223710 0.037418 -0.023913 -656420.000000 0 0 1
-6.795709 29.825498 11.590468 32.712092 -1.346772 1.208612 0.032479 -0.025489 -1228010.000000 0 0 1
-5.680309 29.093198 11.295068 31.721580 -1.377977 1.206739 0.046064 -0.028409 -1227010.000000 0 0 1
-4.515609 29.618398 11.862968 32.223753 -1.419502 1.193785 0.052191 -0.033099 23029.800000 0 0 1
-3.197309 29.238798 11.135968 31.450594 -1.461878 1.208868 0.064344 -0.036993 72755.200000 0 0 1
-3.050209 29.912798 9.894468 31.654064 -1.469178 1.252887 0.074378 -0.043832 176487.000000 0 0 1
-1.890909 29.443298 9.232068 30.914631 -1.506662 1.267538 0.067979 -0.041108 163314.000000 0 0 1
-1.649709 30.182598 7.929368 31.250370 -1.516193 1.314255 0.061952 -0.041601 -427484.000000 0 0 1
-2.590809 29.954798 6.942368 30.857717 -1.484520 1.343874 0.070024 -0.042265 -416803.000000 0 0 1
-2.410909 30.764398 5.809568 31.400824 -1.492589 1.384711 0.065378 -0.036279 22776.000000 0 0 1
10.919691 -34.330766 -26.806093 44.904429 -1.262842 2.210501 0.050203 -0.025950 22799.000000 0 0 1
11.488491 -34.122066 -25.531663 44.138041 -1.246030 2.187624 0.038359 -0.021058 -4911.480000 0 0 1
12.598091 -33.265466 -25.621343 43.837842 -1.208774 2.195007 0.042894 -0.015498 -142901.000000 0 0 1
13.350791 -33.103466 -24.246003 43.150339 -1.187444 2.167472 0.031695 -0.003404 -189956.000000 0 0 1
12.637691 -32.406266 -23.235803 41.830370 -1.198960 2.159733 0.032625 -0.004397 126490.000000 0 0 1
13.043991 -32.646066 -21.914703 41.426628 -1.190671 2.128219 0.019764 -0.004030 -572689.000000 0 0 1
14.409891 -32.164466 -21.414103 41.240292 -1.149601 2.116772 0.003767 -0.004316 -391550.000000 0 0 1
15.468291 -32.960366 -21.858003 42.466764 -1.132009 2.111464 0.016255 0.005169 -454748.000000 0 0 1
16.739391 -32.597666 -21.365703 42.418255 -1.096395 2.098663 0.016268 -0.001872 -46189.400000 0 0 1
17.698691 -33.754366 -21.706103 43.860641 -1.087869 2.088502 0.004216 0.005853 -49508.100000 0 0 1
19.091391 -33.556266 -21.492803 44.186477 -1.053531 2.078774 0.017009 0.003178 367921.000000 0 0 1
19.706891 33.985398 -21.703803 44.882334 1.045315 2.075526 0.009981 0.011704 -2550.180000 0 0 1
21.239791 34.037598 -21.458203 45.498805 1.012909 2.061925 0.028029 0.011437 235651.000000 0 0 1
21.960791 -34.019466 -22.458103 46.302989 -0.997566 2.077188 0.019378 0.008946 1188500.000000 0 0 1
23.364491 -33.965866 -22.082903 46.767875 -0.968250 2.062560 0.017193 0.006576 1675960.000000 0 0 1
24.268691 -33.285766 -23.185703 47.270376 -0.940805 2.083450 0.034709 -0.001874 304796.000000 0 0 1
24.212291 -31.867666 -23.276903 46.299000 -0.921068 2.097575 0.034623 -0.005255 104534.000000 0 0 1
23.025791 -31.358766 -23.877703 45.647606 -0.937439 2.121266 0.019494 0.001184 118937.000000 0 0 1
23.062091 -29.789566 -23.813603 44.568666 -0.912007 2.134491 0.020856 -0.016044 -218262.000000 0 0 1
24.023291 -29.280366 -24.733103 45.234774 -0.883705 2.149300 0.023356 -0.012280 161323.000000 0 0 1
24.207691 -27.892566 -24.566603 44.356798 -0.856007 2.157766 0.031408 -0.014834 33491.300000 0 0 1
24.744591 -27.167566 -25.812483 44.907190 -0.832039 2.183151 0.019831 -0.011543 547832.000000 0 0 1
23.702891 -26.894066 -26.723293 44.712998 -0.848385 2.211379 0.010051 -0.012720 -356119.000000 0 0 1
24.340791 -26.485666 -27.886083 45.514813 -0.827573 2.230245 0.006216 -0.011762 -666837.000000 0 0 1
23.473491 -25.983366 -29.052753 45.499479 -0.836103 2.263382 0.000845 -0.006215 -160814.000000 0 0 1
22.898791 -24.729866 -28.844863 44.361549 -0.823824 2.278673 0.018371 -0.006828 292142.000000 0 0 1
21.692791 -24.822766 -28.056893 43.288984 -0.852586 2.275923 0.013261 -0.004311 -48858.300000 0 0 1
21.155191 -23.376466 -27.869313 42.079685 -0.835238 2.294679 0.020003 -0.003280 -114045.000000 0 0 1
20.641691 -22.852266 -29.080333 42.355298 -0.836179 2.327572 0.028848 -0.003835 271179.000000 0 0 1
20.018491 -21.576766 -28.879533 41.234988 -0.822843 2.346705 0.036145 0.006053 213109.000000 0 0 1
19.028591 -21.166566 -30.010013 41.360750 -0.838538 2.382655 0.046630 -0.004934 -43171.200000 0 0 1
17.939191 -22.035666 -30.117613 41.405987 -0.887518 2.385283 0.031448 -0.012789 259617.000000 0 0 1
16.729291 -21.317166 -30.401463 40.725173 -0.905405 2.413587 0.027960 -0.015371 199601.000000 0 0 1
15.484991 -22.186166 -30.242463 40.578535 -0.961443 2.411754 0.032595 -0.021967 -548773.000000 0 0 1
15.421491 -23.154866 -31.315233 41.888113 -0.983245 2.415226 0.029514 -0.012960 251677.000000 0 0 1
14.863091 -24.396666 -30.837993 42.036777 -1.023620 2.394394 0.031456 -0.016494 -33686.100000 0 0 1
14.871391 -25.592966 -31.730593 43.393418 -1.044410 2.390921 0.045732 -0.012200 -131732.000000 0 0 1
14.286191 -26.660866 -31.030913 43.333758 -1.078883 2.368982 0.050485 -0.002637 -32809.400000 0 0 1
14.878191 -27.930166 -31.285753 44.500035 -1.081338 2.350474 0.052655 -0.011368 245640.000000 0 0 1
14.291791 -29.023366 -30.317853 44.337155 -1.113228 2.323757 0.054632 -0.018263 237591.000000 0 0 1
14.682891 -29.027366 -28.937703 43.538097 -1.102496 2.297825 0.063797 -0.024731 95244.600000 0 0 1
14.099091 -27.967266 -28.129423 42.097705 -1.103852 2.302575 0.054539 -0.021906 8054.700000 0 0 1
14.552491 -27.926666 -26.649113 41.253471 -1.090414 2.273109 0.050958 -0.017196 4956.600000 0 0 1
14.290791 -29.069766 -25.833553 41.432481 -1.113889 2.244020 0.050779 -0.021390 402868.000000 0 0 1
15.183591 -29.192666 -24.710803 41.150662 -1.091185 2.214917 0.041157 -0.019408 -197692.000000 0 0 1
14.711891 -28.371566 -23.412803 39.617482 -1.092424 2.203059 0.024612 -0.012563 245386.000000 0 0 1
13.741291 -28.876566 -22.549903 39.130260 -1.126644 2.184963 0.037313 -0.014751 714564.000000 0 0 1
12.456491 -29.140666 -23.156003 39.249752 -1.166843 2.201813 0.036781 -0.010378 661652.000000 0 0 1
11.190491 -28.668666 -22.387303 38.056679 -1.198646 2.199704 0.017242 -0.003165 282503.000000 0 0 1
11.089391 -27.244566 -22.383303 36.962863 -1.184243 2.221268 0.010805 -0.010890 602.277000 0 0 1
9.864491 -26.719366 -21.919603 35.940252 -1.217130 2.226718 0.017580 -0.009698 -294568.000000 0 0 1
9.866991 -25.181866 -21.641003 34.638373 -1.197354 2.245633 0.024814 -0.014173 -43119.500000 0 0 1
10.323591 -24.745566 -20.364203 33.669279 -1.175560 2.220349 0.023890 -0.018661 -4187.220000 0 0 1
10.117191 -23.346566 -20.241103 32.513412 -1.161876 2.242788 0.027329 -0.016520 -331257.000000 0 0 1
10.717291 -22.721366 -18.967603 31.478418 -1.130058 2.217500 0.018928 -0.011701 -90518.400000 0 0 1
9.959991 -23.057366 -17.833503 30.803853 -1.163041 2.188221 0.027080 -0.015979 168676.000000 0 0 1
10.353291 -22.220866 -16.775603 29.704855 -1.134777 2.170918 0.021861 -0.014266 -398788.000000 0 0 1
9.465291 -22.448066 -15.568003 28.911419 -1.171764 2.139420 0.012812 -0.005791 -196329.000000 0 0 1
9.578191 -23.815866 -15.172403 29.818435 -1.188415 2.104617 0.016809 -0.005988 716.842000 0 0 1
9.024591 -24.062466 -13.895603 29.215292 -1.211983 2.066474 0.019166 -0.003505 62821.600000 0 0 1
9.011591 -25.571366 -13.626803 30.344576 -1.231977 2.036519 0.019774 -0.007947 149775.000000 0 0 1
10.338491 -25.990066 -13.391503 31.011293 -1.192200 2.017313 0.012996 -0.005829 -137852.000000 0 0 1
10.276091 -27.381066 -13.431903 32.182866 -1.211763 2.001337 0.005795 -0.019819 -529547.000000 0 0 1
11.554091 -28.039366 -12.897603 32.955292 -1.179931 1.972913 0.015558 -0.018696 879759.000000 0 0 1
12.854991 -27.786866 -13.451103 33.440887 -1.137490 1.984753 0.023741 -0.011952 802869.000000 0 0 1
13.029891 -28.058866 -14.808603 34.298291 -1.136051 2.017239 0.026701 -0.015910 -1338920.000000 0 0 1
14.385391 -27.658066 -15.341703 34.745877 -1.091186 2.028111 0.010829 -0.015735 -732420.000000 0 0 1
15.474991 -28.462766 -14.986003 35.695724 -1.072809 2.004050 0.041931 -0.011648 -459471.000000 0 0 1
16.651291 -27.923066 -15.549003 36.037961 -1.033082 2.016909 0.050783 -0.018571 244006.000000 0 0 1
17.871391 -28.836666 -15.279103 37.207404 -1.015985 1.993960 0.047088 -0.019459 201861.000000 0 0 1
17.969291 -29.906466 -16.223903 38.477359 -1.029752 2.006058 0.036309 -0.015526 -328905.000000 0 0 1
19.239191 -30.489066 -16.102203 39.484308 -1.007880 1.990854 0.045219 -0.014568 17680.800000 0 0 1
19.721091 -31.449866 -17.192203 40.909502 -1.010714 2.004517 0.029707 -0.016655 -349876.000000 0 0 1
19.272991 -32.784066 -17.113303 41.702618 -1.039339 1.993651 0.019103 -0.009326 -165050.000000 0 0 1
19.794191 -33.656066 -18.096703 43.035235 -1.039149 2.004803 0.013051 -0.008129 27212.700000 0 0 1
19.681291 33.605398 -17.662803 42.762725 1.040989 1.996588 0.010646 -0.005879 -207000.000000 0 0 1
20.397091 33.295198 -16.459803 42.373773 1.021154 1.969738 0.027517 -0.013959 72640.000000 0 0 1
20.303391 31.936698 -16.030703 41.099438 1.004512 1.971479 0.028523 -0.016818 -537959.000000 0 0 1
21.337291 31.605898 -14.951903 40.960618 0.976975 1.944463 0.031291 -0.020314 570379.000000 0 0 1
22.670391 31.279798 -15.433703 41.600139 0.943645 1.950883 0.032281 -0.017645 1051600.000000 0 0 1
23.592091 31.000098 -14.404603 41.534148 0.920272 1.924968 0.038011 -0.015420 85349.100000 0 0 1
23.291491 29.792498 -13.432203 40.131167 0.907258 1.912091 0.037882 -0.009965 -1164100.000000 0 0 1
23.377291 28.516598 -14.049303 39.459815 0.884111 1.934824 0.039700 -0.001421 120117.000000 0 0 1
22.987091 27.447298 -13.170803 38.147485 0.873605 1.923312 0.019796 -0.001494 1789690.000000 0 0 1
21.417091 27.316798 -12.884603 37.025832 0.905872 1.926222 0.021767 -0.008488 901261.000000 0 0 1
20.640891 26.786898 -13.969403 36.588639 0.914267 1.962535 0.030705 -0.001670 -28544.500000 0 0 1
19.252191 26.874898 -13.767503 35.811327 0.949172 1.965403 0.040831 -0.004647 -219734.000000 0 0 1
18.602191 28.285598 -13.820303 36.566615 0.989058 1.958376 0.038866 -0.016285 -791868.000000 0 0 1
18.446791 28.922598 -15.059903 37.464669 1.003046 1.984470 0.031891 -0.011765 123006.000000 0 0 1
17.710291 28.193398 -16.049003 36.960690 1.009920 2.019966 0.014056 -0.000773 -382445.000000 0 0 1
17.759091 28.903998 -17.410703 38.130814 1.019844 2.044971 0.011803 0.007122 -48504.500000 0 0 1
17.064991 30.143898 -17.570603 38.840631 1.055663 2.040225 0.016862 0.001125 -104857.000000 0 0 1
17.465391 30.934898 -18.644103 40.119950 1.056824 2.054102 0.007460 0.008488 -290210.000000 0 0 1
16.462391 32.075698 -18.989103 40.748580 1.096616 2.055568 0.001400 0.013415 131994.000000 0 0 1
16.481091 33.192498 -18.096003 41.241164 1.109928 2.025042 0.003974 -0.009650 -67250.400000 0 0 1
15.526691 34.148198 -18.521803 41.835807 1.144053 2.029433 -0.002601 -0.003931 38712.700000 0 0 1
15.592091 -33.333066 -17.732303 40.849005 -1.133266 2.019829 0.001806 -0.008818 -356525.000000 0 0 1
14.613091 -32.426366 -18.092303 39.904174 -1.147398 2.041366 -0.002338 -0.005821 -524651.000000 0 0 1
14.440491 -31.410666 -17.129103 38.581912 -1.139879 2.030818 0.011531 -0.009713 304930.000000 0 0 1
13.201791 -30.545166 -17.488903 37.591970 -1.162838 2.054690 0.014760 -0.017905 53772.700000 0 0 1
11.972391 -31.209866 -17.531203 37.745688 -1.204499 2.053816 0.007276 -0.014059 574060.000000 0 0 1
10.862391 -30.232766 -17.511403 36.587715 -1.225868 2.069872 -0.007583 -0.009938 1580110.000000 0 0 1
9.518291 -30.915266 -17.895803 36.967706 -1.272123 2.076122 0.020701 -0.011237 -552261.000000 0 0 1
8.849091 -31.598166 -16.808803 36.868501 -1.297741 2.044193 0.022177 -0.014585 185036.000000 0 0 1
7.911891 -32.590566 -17.177403 37.680316 -1.332637 2.044148 0.036600 -0.005850 294418.000000 0 0 1
6.579391 -32.053566 -17.791103 37.245709 -1.368346 2.068795 0.035200 0.004418 -416625.000000 0 0 1
6.694991 -31.472266 -19.054903 37.395398 -1.361194 2.105460 0.023355 0.006015 -166800.000000 0 0 1
6.587191 -32.409966 -20.110403 38.706915 -1.370282 2.117127 0.034582 -0.002205 -847210.000000 0 0 1
6.690191 -31.908466 -21.580803 39.097825 -1.364122 2.155520 0.027048 0.011114 546092.000000 0 0 1
7.981991 -31.457666 -22.004403 39.210849 -1.322303 2.166609 0.022740 0.001755 1842880.000000 0 0 1
9.127091 -32.382466 -22.026503 40.213117 -1.296070 2.150462 0.023670 -0.004224 893056.000000 0 0 1
9.137791 -33.588566 -23.035303 41.741061 -1.305174 2.155392 0.032167 -0.014589 -690813.000000 0 0 1
8.241991 34.166098 -22.706603 41.843070 1.334086 2.144398 0.049801 -0.022983 -404574.000000 0 0 1
7.925791 33.383298 -23.782203 41.747526 1.337694 2.176897 0.053437 -0.032740 -363799.000000 0 0 1
6.669391 32.518098 -23.576903 40.715818 1.368504 2.188372 0.065322 -0.040239 152401.000000 0 0 1
5.401491 33.117698 -23.702703 41.082553 1.409120 2.185790 0.072596 -0.037816 22469.400000 0 0 1
4.927791 33.836498 -22.580003 40.976191 1.426178 2.154420 0.056742 -0.029631 -864610.000000 0 0 1
3.558391 -34.314866 -22.895403 41.404971 -1.467467 2.156712 0.057395 -0.023293 -1189630.000000 0 0 1
2.555691 33.518398 -22.848603 40.645704 1.494696 2.167768 0.062262 -0.029098 -911686.000000 0 0 1
1.447491 34.110898 -23.523303 41.460757 1.528387 2.174096 0.049484 -0.013337 -610510.000000 0 0 1
0.194191 33.437398 -22.987603 40.577422 1.564989 2.173063 0.032753 -0.014295 -831351.000000 0 0 1
-0.169309 33.698198 -21.656603 40.057529 -1.565772 2.141991 0.017377 -0.008107 -25253.300000 0 0 1
-1.428709 33.184998 -21.274603 39.444823 -1.527770 2.140462 0.007729 -0.000025 294459.000000 0 0 1
-1.796209 33.523998 -19.805003 38.978493 -1.517268 2.103775 0.014253 -0.003870 295378.000000 0 0 1
-0.917709 32.858098 -18.894003 37.914115 -1.542874 2.092476 0.024573 -0.012038 30793.900000 0 0 1
-1.357409 32.894398 -17.547003 37.306585 -1.529554 2.060479 0.006961 -0.005805 77392.600000 0 0 1
-0.534409 32.060098 -16.528103 36.073725 -1.554129 2.046738 -0.011108 0.007328 310948.000000 0 0 1
0.339491 32.712598 -15.620403 36.252259 1.560419 2.016265 0.001036 0.003894 -99227.400000 0 0 1
1.087691 31.672998 -15.007203 35.065339 1.536469 2.013051 0.017693 0.007993 415323.000000 0 0 1
2.252491 32.140898 -14.086503 35.164479 1.500829 1.982956 0.020251 -0.005254 150146.000000 0 0 1
3.405991 32.611998 -14.756003 35.956680 1.466734 1.993670 0.024650 -0.013559 -376901.000000 0 0 1
4.280491 33.122198 -13.776103 36.127325 1.442275 1.962021 0.035231 -0.023084 166201.000000 0 0 1
5.671891 33.453798 -14.406003 36.862717 1.402849 1.972298 0.049058 -0.034528 224322.000000 0 0 1
6.466391 32.294398 -14.459203 35.969583 1.373177 1.984479 0.043825 -0.026226 -366337.000000 0 0 1
7.651491 32.539398 -15.204803 36.722524 1.339847 1.997690 0.037301 -0.015234 -92952.100000 0 0 1
8.676191 31.447498 -15.063103 35.932137 1.301599 2.003371 0.031378 -0.016815 -562897.000000 0 0 1
9.239591 31.260198 -13.813003 35.402953 1.283408 1.971607 0.026266 -0.025858 -483467.000000 0 0 1
10.066791 30.103898 -13.749003 34.592196 1.248085 1.979543 0.026686 -0.016498 17489.500000 0 0 1
9.438091 28.694798 -13.667303 33.155153 1.253029 1.995689 0.032940 -0.022353 -399193.000000 0 0 1
8.730191 28.254298 -14.820003 33.078000 1.271116 2.035359 0.035869 -0.020336 -108320.000000 0 0 1
8.200891 27.002098 -14.482403 31.719204 1.275937 2.044945 0.025073 -0.015412 -246064.000000 0 0 1
7.398291 26.311898 -15.596503 31.469058 1.296697 2.089338 0.028916 -0.011982 247705.000000 0 0 1
8.266091 25.757598 -16.566403 31.721094 1.260260 2.120286 0.027849 -0.009533 113995.000000 0 0 1
7.538391 24.900998 -17.451803 31.328142 1.276833 2.161643 0.020423 -0.000825 207896.000000 0 0 1
8.536191 24.193298 -18.354803 31.544905 1.231600 2.191813 0.015574 0.005746 -326116.000000 0 0 1
7.894791 23.382498 -19.345203 31.357707 1.245178 2.235620 0.034297 -0.004251 -309999.000000 0 0 1
8.708691 22.322798 -19.758903 31.057412 1.198831 2.260367 0.015393 -0.002355 -628979.000000 0 0 1
8.050891 21.250198 -20.636603 30.696207 1.208644 2.308088 0.013555 -0.008448 86136.500000 0 0 1
7.190491 20.279398 -20.060503 29.417358 1.230055 2.321191 0.034142 -0.014979 -295837.000000 0 0 1
6.372491 19.713698 -21.022103 29.515544 1.258146 2.363478 0.035716 -0.007929 -199192.000000 0 0 1
24.814891 -12.672302 -9.280103 29.368118 -0.472150 1.892299 0.046569 -0.008665 68854.100000 0 0 1
25.395691 -11.843902 -8.284103 29.220635 -0.436387 1.858240 0.060255 -0.019846 403162.000000 0 0 1
24.717091 -12.102702 -7.076903 28.416413 -0.455333 1.822488 0.060384 -0.016463 -221835.000000 0 0 1
25.143191 -11.276202 -5.867803 28.173816 -0.421589 1.780604 0.053479 -0.019672 -567804.000000 0 0 1
25.062991 -9.840802 -5.896903 27.563896 -0.374148 1.786399 0.063617 -0.025074 643261.000000 0 0 1
26.065891 -9.114502 -6.621903 28.396380 -0.336382 1.806159 0.062706 -0.022978 -538100.000000 0 0 1
26.319691 -7.750202 -5.941003 28.072892 -0.286370 1.784036 0.091898 -0.022197 107792.000000 0 0 1
26.977591 -7.834102 -4.664203 28.476628 -0.282620 1.735328 0.096912 -0.031770 -89258.300000 0 0 1
28.342591 -8.113302 -4.728303 29.857746 -0.278803 1.729827 0.099201 -0.031887 -987271.000000 0 0 1
29.000591 -7.862402 -3.350703 30.233737 -0.264748 1.681851 0.098321 -0.026072 -333224.000000 0 0 1
29.276991 -6.507802 -3.026603 30.143889 -0.218728 1.671371 0.098164 -0.020473 441504.000000 0 0 1
30.052591 -6.519902 -1.835203 30.806417 -0.213639 1.630404 0.080368 -0.015491 -74857.400000 0 0 1
30.227391 -5.164102 -1.124103 30.685937 -0.169208 1.607437 0.072033 -0.017667 -795534.000000 0 0 1
28.995591 -4.799302 -0.631303 29.396873 -0.164031 1.592273 0.084862 -0.015826 -893144.000000 0 0 1
28.974591 -3.526302 -0.086503 29.188512 -0.121108 1.573760 0.073068 -0.006642 62104.300000 0 0 1
29.783091 -3.266702 1.259397 29.988163 -0.109246 1.528787 0.067658 -0.004442 -101204.000000 0 0 1
29.072791 -3.549802 2.414997 29.388101 -0.121499 1.488528 0.081341 -0.015604 283896.000000 0 0 1
29.836091 -3.250402 3.569897 30.224189 -0.108514 1.452406 0.061518 -0.011851 -167607.000000 0 0 1
29.321691 -4.127602 4.704597 29.982193 -0.139851 1.413232 0.067439 -0.016858 -96996.400000 0 0 1
29.694291 -5.483402 4.630797 30.549352 -0.182605 1.418626 0.060387 -0.023096 166451.000000 0 0 1
29.336191 -6.173402 5.773197 30.529540 -0.207410 1.380549 0.064575 -0.025481 23368.200000 0 0 1
29.913691 -7.641102 5.653797 31.387590 -0.250090 1.389679 0.054436 -0.020755 373763.000000 0 0 1
31.272091 -7.799402 6.012597 32.786059 -0.244418 1.386364 0.054791 -0.018014 219471.000000 0 0 1
31.865091 -8.989302 5.483297 33.559769 -0.274960 1.406671 0.055715 -0.017487 60163.600000 0 0 1
33.393691 -9.114002 5.562397 35.059149 -0.266437 1.411466 0.073781 -0.021089 26591.800000 0 0 1
34.089591 -8.333102 4.572097 35.389898 -0.239746 1.441242 0.067497 -0.017096 -484125.000000 0 0 1
35.398991 -8.080802 4.997497 36.651915 -0.224432 1.434020 0.072725 -0.016137 -533166.000000 0 0 1
-35.238867 -7.631602 3.812097 36.256740 0.213274 1.465460 0.067246 -0.019922 -351178.000000 0 0 1
-34.872067 -8.718002 2.978097 36.068458 0.244978 1.488134 0.077245 -0.023927 43307.000000 0 0 1
-33.998967 -8.279102 1.975197 35.048177 0.238862 1.514410 0.085713 -0.026719 -373466.000000 0 0 1
-33.527267 -9.334602 0.997697 34.816775 0.271541 1.542137 0.073328 -0.023170 -363216.000000 0 0 1
-32.725367 -10.287402 1.621697 34.342542 0.304574 1.523558 0.067787 -0.025047 96209.600000 0 0 1
-32.840667 -11.545002 0.975497 34.824532 0.338051 1.542781 0.065452 -0.029979 -809405.000000 0 0 1
-32.722667 -12.820102 1.855997 35.193361 0.373401 1.518035 0.052554 -0.033547 784777.000000 0 0 1
-31.450867 -13.245402 2.377797 34.208941 0.398602 1.501232 0.042889 -0.027511 510999.000000 0 0 1
-30.533067 -13.647802 1.397097 33.473610 0.420343 1.529047 0.041799 -0.015994 -854232.000000 0 0 1
-29.164367 -13.999002 1.986297 32.411074 0.447523 1.509473 0.034751 -0.013401 9693.120000 0 0 1
-28.510967 -12.941302 2.778097 31.433586 0.426097 1.482301 0.030478 -0.016823 702803.000000 0 0 1
-27.178467 -13.366302 3.030497 30.438643 0.457064 1.471070 0.028302 -0.011937 355460.000000 0 0 1
-26.268967 -12.207502 3.566097 29.185592 0.435021 1.448303 0.024439 -0.005994 169070.000000 0 0 1
-25.038867 -12.672002 4.093497 28.359852 0.468510 1.425949 0.025608 0.004156 441187.000000 0 0 1
-24.472967 -11.749402 5.081597 27.618783 0.447599 1.385751 0.023267 0.005899 317593.000000 0 0 1
-23.084267 -12.161002 5.618297 26.689672 0.484864 1.358705 0.025873 0.018866 29598.700000 0 0 1
-23.012767 -13.210602 6.541097 27.329350 0.521124 1.329107 0.024651 0.004716 17739.000000 0 0 1
-21.715367 -13.366402 7.095697 26.468222 0.551758 1.299393 0.027806 0.008679 166462.000000 0 0 1
-21.562667 -12.621102 8.458697 26.377839 0.529557 1.244355 0.045539 -0.000587 -463211.000000 0 0 1
-21.344767 -11.231202 8.366697 25.529210 0.484372 1.236896 0.049294 -0.005724 201709.000000 0 0 1
-22.445967 -10.419702 8.703097 26.232337 0.434610 1.232617 0.045222 -0.009029 -814734.000000 0 0 1
-22.735367 -10.238702 10.243697 26.956655 0.423139 1.180993 0.031578 -0.002310 -215435.000000 0 0 1
-23.422967 -11.282302 10.922497 28.199763 0.448882 1.173067 0.027586 -0.010394 434917.000000 0 0 1
-24.803267 -11.384802 10.628297 29.287821 0.430316 1.199427 0.033157 -0.005564 98379.700000 0 0 1
-25.837467 -10.935102 11.679097 30.390006 0.400368 1.176339 0.025064 -0.001132 -427274.000000 0 0 1
-25.988767 -11.822702 12.759197 31.272822 0.426934 1.150538 0.030837 -0.000988 462887.000000 0 0 1
-27.151767 -11.668902 13.570497 32.519842 0.405900 1.140325 0.027506 0.001777 174302.000000 0 0 1
-27.070667 -12.505302 14.829797 33.303550 0.432747 1.109296 0.019386 -0.002370 -206799.000000 0 0 1
-27.065367 -13.896102 14.555997 33.727033 0.474332 1.124550 0.010897 -0.001246 312808.000000 0 0 1
-26.812767 -14.558502 15.759397 34.339963 0.497429 1.094014 0.010557 -0.002022 -975867.000000 0 0 1
-26.535467 -16.062202 15.650697 34.742908 0.544315 1.103503 0.010583 0.007652 -471338.000000 0 0 1
-27.652367 -16.901402 15.541797 35.942429 0.548621 1.123635 0.010424 0.007566 -284887.000000 0 0 1
-27.255867 -18.249402 15.569797 36.308973 0.590002 1.127617 0.006594 0.013520 -36150.100000 0 0 1
-28.359367 -19.145302 16.172897 37.846517 0.593816 1.129260 -0.004215 0.017104 38713.800000 0 0 1
-28.480167 -18.923102 17.585697 38.450753 0.586453 1.095776 0.008150 0.016703 -86562.400000 0 0 1
-29.061567 -19.994402 18.267197 39.724568 0.602628 1.092974 0.015878 0.016078 30791.300000 0 0 1
-28.119267 -21.229702 18.470397 39.781264 0.646686 1.087953 0.011437 0.017447 5218.220000 0 0 1
-27.028067 -21.033502 19.327797 39.325416 0.661312 1.057004 0.026010 0.012984 85631.700000 0 0 1
-26.349967 -22.223502 19.704197 39.704662 0.700649 1.051500 0.036352 0.011128 497003.000000 0 0 1
-24.919767 -22.080702 20.317397 39.004472 0.725066 1.022892 0.046825 0.012719 507731.000000 0 0 1
-23.899967 -21.983202 19.328097 37.789482 0.743648 1.033904 0.052467 0.004031 510296.000000 0 0 1
-22.661267 -21.824402 20.029097 37.296143 0.766588 1.003886 0.047872 0.007991 548812.000000 0 0 1
-21.450267 -21.507902 19.118897 35.892005 0.786740 1.009034 0.041297 0.004458 45004.800000 0 0 1
-21.162967 -22.417202 18.031597 35.714711 0.814170 1.041555 0.043280 -0.002233 -261288.000000 0 0 1
-19.906867 -22.283002 17.445197 34.599862 0.841659 1.042343 0.039812 -0.005192 -648569.000000 0 0 1
-19.724067 -23.204802 16.190997 34.491304 0.866303 1.082160 0.036787 0.000655 -539963.000000 0 0 1
-19.636467 -24.597102 16.580097 35.573977 0.897078 1.085948 0.048025 -0.014168 -765307.000000 0 0 1
-18.507167 -25.141202 17.143197 35.615790 0.936232 1.068617 0.051487 -0.018113 -131082.000000 0 0 1
-17.173367 -25.180672 16.306997 34.567455 0.972249 1.079528 0.042743 -0.019563 501687.000000 0 0 1
-16.512067 -23.949302 16.220997 33.306728 0.967180 1.062123 0.041911 -0.016898 -355643.000000 0 0 1
-15.280367 -24.087702 15.552597 32.489849 1.005492 1.071633 0.044498 -0.016681 -371964.000000 0 0 1
-14.407367 -22.838502 15.586397 31.178601 1.008011 1.047305 0.046601 -0.014983 -604607.000000 0 0 1
-14.822967 -21.683402 14.808197 30.152495 0.971156 1.057433 0.028270 -0.008450 212887.000000 0 0 1
-15.982367 -21.007002 15.294897 30.506787 0.920412 1.045626 0.041068 -0.009593 276634.000000 0 0 1
-15.715367 -19.810102 16.203297 30.032644 0.900154 1.000926 0.029342 -0.009757 -491420.000000 0 0 1
-15.212067 -18.704702 15.491497 28.657623 0.888013 0.999680 0.024512 -0.007249 4052.530000 0 0 1
-15.257267 -17.597402 16.375697 28.471322 0.856505 0.957991 0.015579 -0.001029 -407730.000000 0 0 1
-14.466067 -16.417702 15.746097 26.958257 0.848507 0.947036 0.018167 -0.003474 -212123.000000 0 0 1
-14.952067 -15.713002 14.600697 26.146569 0.810207 0.978320 0.027300 -0.013593 -141125.000000 0 0 1
-15.126167 -16.444502 13.403197 26.055100 0.827132 1.030468 0.025841 -0.015736 110893.000000 0 0 1
-16.058767 -15.741102 12.360897 25.660438 0.775409 1.068191 0.024507 -0.011292 609782.000000 0 0 1
-17.432067 -15.767302 12.746397 26.738650 0.735296 1.073896 0.022781 -0.013495 291951.000000 0 0 1
-18.172867 -14.703402 12.170797 26.354723 0.680256 1.090765 0.036071 -0.018090 -1419160.000000 0 0 1
-19.647467 -14.872602 12.391697 27.582085 0.647949 1.104853 0.037518 -0.019488 -1027020.000000 0 0 1
-20.345667 -15.929002 11.735397 28.379549 0.664238 1.144484 0.041700 -0.016850 93190.900000 0 0 1
-20.427667 -15.819502 10.276597 27.805659 0.658945 1.192232 0.046291 -0.013511 -412032.000000 0 0 1
-21.219867 -17.037202 9.722897 28.897815 0.676500 1.227643 0.038598 -0.002217 278287.000000 0 0 1
-20.532267 -18.264702 9.792997 29.173209 0.727018 1.228464 0.039928 0.005299 274617.000000 0 0 1
-21.209067 -19.150202 8.868497 29.919976 0.734429 1.269868 0.041020 -0.006595 513876.000000 0 0 1
-20.665467 -20.599802 9.012497 30.539130 0.783807 1.271222 0.045215 -0.000879 226608.000000 0 0 1
-19.503767 -20.814102 8.250197 29.693257 0.817887 1.289244 0.059163 -0.002823 -533272.000000 0 0 1
-19.177967 -22.221002 8.236797 30.486262 0.858771 1.297216 0.054019 -0.005721 764830.000000 0 0 1
-17.871167 -22.666902 7.457697 29.812485 0.903153 1.317958 0.047486 -0.008852 1310710.000000 0 0 1
-16.739967 -22.066902 8.110397 28.860928 0.921813 1.285943 0.038443 -0.005675 206395.000000 0 0 1
-15.514367 -22.395702 7.498397 28.257548 0.964960 1.302220 0.047968 0.001183 269417.000000 0 0 1
-14.267867 -21.788802 8.191097 27.302344 0.991036 1.266089 0.000507 0.001664 666876.000000 0 0 1
-13.024067 -22.190202 7.653797 26.844217 1.040044 1.281666 0.021178 0.010136 55013.100000 0 0 1
-11.861967 -21.793802 8.322897 26.171486 1.072354 1.247162 0.018054 0.010797 1742430.000000 0 0 1
-10.480267 -22.406202 7.769697 25.927631 1.133289 1.266451 0.010079 0.016453 1572530.000000 0 0 1
-10.481567 -23.777102 7.765997 27.120555 1.155598 1.280380 0.011749 0.021421 -599119.000000 0 0 1
-9.315367 -24.313502 7.223497 27.020388 1.204912 1.300170 0.029835 0.015174 -325513.000000 0 0 1
-9.282567 -25.823782 7.241897 28.380959 1.225721 1.312775 0.009461 0.015625 21745.200000 0 0 1
-10.275167 -26.450902 6.404797 29.090388 1.200276 1.348809 0.016830 0.005626 249363.000000 0 0 1
-10.320167 -27.855562 6.371497 30.381477 1.215987 1.359511 0.028211 0.008535 -310326.000000 0 0 1
-9.172767 -28.563112 5.629197 30.523415 1.260059 1.385312 0.025958 0.009384 -288553.000000 0 0 1
-7.977967 -28.471782 6.369897 30.246750 1.297597 1.358610 0.018738 0.007985 -231865.000000 0 0 1
-6.920967 -29.314932 5.911297 30.695414 1.338952 1.377006 0.021510 0.012242 689435.000000 0 0 1
-7.068467 -30.774622 6.498797 32.237787 1.345027 1.367816 0.032845 0.006002 -218304.000000 0 0 1
-7.024567 -30.753802 7.923397 32.525699 1.346236 1.324716 0.029215 0.007698 70422.600000 0 0 1
-6.664367 -32.049442 8.393497 33.793954 1.365778 1.319796 0.057070 -0.006057 -187104.000000 0 0 1
-6.845367 -32.095372 9.918297 34.283299 1.360663 1.277297 0.053240 -0.008653 -458364.000000 0 0 1
-5.962067 -31.378122 10.728297 33.693162 1.383028 1.246743 0.039855 -0.003129 -94087.300000 0 0 1
-6.053067 -31.702992 12.147597 34.485989 1.382136 1.210825 0.042050 -0.008457 -635007.000000 0 0 1
-5.198067 -30.816902 13.029397 33.859512 1.403693 1.175797 0.040864 -0.011946 -174892.000000 0 0 1
-5.654067 -29.504492 13.062997 32.758593 1.381458 1.160626 0.033925 -0.001922 212739.000000 0 0 1
-4.761067 -28.717132 13.836197 32.230138 1.406499 1.127086 0.020014 -0.008479 -87762.200000 0 0 1
-5.376067 -28.189022 15.198797 32.473474 1.382344 1.083728 0.022216 -0.000481 132483.000000 0 0 1
-5.871067 -29.115842 16.111697 33.790360 1.371819 1.073770 0.029927 -0.010206 334317.000000 0 0 1
-4.830067 -29.945312 16.632997 34.593465 1.410877 1.069214 0.015832 -0.015300 387859.000000 0 0 1
-5.322067 -31.335662 17.100797 36.092733 1.402561 1.077194 0.018802 -0.015300 57562.600000 0 0 1
-5.543067 -32.294642 16.011197 36.469548 1.400812 1.116278 0.016709 -0.009644 219660.000000 0 0 1
-6.124067 -33.517682 16.441797 37.832154 1.390078 1.121204 0.016048 -0.007915 204449.000000 0 0 1
-5.487067 33.949380 15.808997 37.849607 -1.410557 1.139907 0.014120 -0.013403 210629.000000 0 0 1
-5.990067 33.702579 14.506697 37.177803 -1.394900 1.169950 0.035560 -0.017379 261170.000000 0 0 1
-5.100067 32.828899 13.903297 36.014566 -1.416675 1.174454 0.037922 -0.019638 78841.100000 0 0 1
-3.974067 33.420655 13.010197 36.083218 -1.452442 1.201927 0.040250 -0.022633 44052.700000 0 0 1
-4.430067 33.983385 11.793997 36.243542 -1.441168 1.239351 0.040194 -0.021690 -143976.000000 0 0 1
-3.371067 34.376349 10.967697 36.240694 -1.473045 1.263340 0.054876 -0.027231 -679758.000000 0 0 1
-3.747067 -34.253891 9.454597 35.731764 1.461839 1.303008 0.049060 -0.028110 -951914.000000 0 0 1
-4.024067 33.397670 8.577197 34.715498 -1.450885 1.321140 0.058202 -0.033531 765032.000000 0 0 1
-5.043067 32.466252 8.994297 34.064460 -1.416695 1.303590 0.070244 -0.036841 814362.000000 0 0 1
-6.453067 33.018284 9.335197 34.914110 -1.377790 1.300127 0.066803 -0.033912 -531702.000000 0 0 1
-7.224767 33.467712 8.260597 35.221052 -1.358186 1.334055 0.064801 -0.024811 1012120.000000 0 0 1
-8.621667 33.679119 8.645197 35.823953 -1.320184 1.327066 0.054911 -0.019577 1242080.000000 0 0 1
-9.449067 33.800669 7.385897 35.865325 -1.298202 1.363378 0.058701 -0.022800 -511011.000000 0 0 1
-9.262267 -33.738752 6.691797 35.621245 1.302868 1.381814 0.055521 -0.014999 168850.000000 0 0 1
-10.040767 -33.740532 5.505197 35.630713 1.281554 1.415668 0.046354 -0.006301 -519098.000000 0 0 1
-9.908167 -32.500142 4.606897 34.287818 1.274882 1.436029 0.032642 -0.003438 45789.800000 0 0 1
-10.696867 -31.328482 4.844497 33.456926 1.241766 1.425487 0.038022 -0.006431 138220.000000 0 0 1
-12.072867 -31.577172 4.625697 34.121386 1.205616 1.434812 0.049928 -0.003212 -205211.000000 0 0 1
-13.042367 -30.663892 5.394397 33.756142 1.168644 1.410303 0.051549 -0.013798 -156864.000000 0 0 1
-13.412467 -31.002792 6.693397 34.436448 1.162488 1.375182 0.037427 -0.007433 -619584.000000 0 0 1
-14.474167 -30.248752 7.128897 34.282790 1.124492 1.361324 0.037881 -0.010891 -583856.000000 0 0 1
32.886229 -12.989502 -12.760403 37.590678 -0.376174 1.917135 0.036955 -0.022210 -621250.000000 0 0 1
31.781569 -13.193402 -11.952703 36.428026 -0.393479 1.905107 0.056890 -0.022050 -414347.000000 0 0 1
31.726149 -14.563802 -11.538403 36.766664 -0.430352 1.890018 0.053359 -0.031434 248945.000000 0 0 1
32.781269 -15.145802 -10.514903 37.610771 -0.432810 1.854144 0.046625 -0.029167 1239110.000000 0 0 1
34.096649 -15.269502 -11.079303 38.967809 -0.421048 1.859093 0.054070 -0.031149 682774.000000 0 0 1
35.048979 -15.760002 -10.136803 39.743721 -0.422568 1.828700 0.041302 -0.025248 948831.000000 0 0 1
-34.950468 -15.758002 -10.672103 39.796276 0.423574 1.842288 0.018699 -0.026807 660699.000000 0 0 1
-34.406904 -14.431002 -10.680203 38.809220 0.397136 1.849592 0.010302 -0.012840 1280610.000000 0 0 1
-32.957189 -14.465702 -10.752503 37.563934 0.413605 1.861102 0.010317 -0.016111 1293650.000000 0 0 1
-32.292939 -13.107302 -11.048003 36.560821 0.385572 1.877777 0.016388 -0.018353 -218384.000000 0 0 1
-32.322019 -12.151202 -10.031003 35.958109 0.359596 1.853511 0.028153 -0.020651 229658.000000 0 0 1
-31.692379 -11.009302 -10.516103 35.159636 0.334339 1.874541 0.025585 -0.012590 -480149.000000 0 0 1
-32.130329 -9.785202 -9.718303 34.965034 0.295623 1.852449 0.020953 -0.017964 -6655.020000 0 0 1
-31.583109 -9.842102 -8.425903 34.137305 0.302088 1.820198 0.029940 -0.016101 595284.000000 0 0 1
-32.390379 -8.973402 -7.586503 34.455966 0.270261 1.792795 0.044068 -0.019192 188069.000000 0 0 1
-31.901899 -8.935102 -6.172603 33.699677 0.273083 1.755001 0.036934 -0.011809 -1136950.000000 0 0 1
-30.685619 -8.263502 -6.009603 32.342047 0.263055 1.757696 0.036720 -0.018203 -474038.000000 0 0 1
-30.215269 -8.385702 -4.699803 31.707580 0.270719 1.719568 0.038286 -0.016223 -257720.000000 0 0 1
-29.412539 -9.724702 -4.477603 31.300418 0.319317 1.714341 0.035150 -0.013097 -1022010.000000 0 0 1
-30.024499 -10.899502 -4.023103 32.194022 0.348227 1.696088 0.055195 -0.015974 71196.700000 0 0 1
-30.606739 -10.883002 -2.735803 32.599031 0.341633 1.654818 0.038905 -0.018321 -28345.200000 0 0 1
-31.300759 -12.218402 -2.318903 33.680917 0.372164 1.639700 0.051230 -0.016204 -547536.000000 0 0 1
-32.543219 -12.491502 -2.881303 34.977144 0.366501 1.653267 0.054223 -0.021494 -244778.000000 0 0 1
-33.073809 -13.743602 -2.463203 35.900290 0.393834 1.639463 0.056172 -0.025947 -920254.000000 0 0 1
-34.579311 -13.711102 -2.362603 37.273381 0.377496 1.634225 0.036520 -0.016054 -1015190.000000 0 0 1
-35.086369 -12.914502 -1.318503 37.410909 0.352688 1.606047 0.050236 -0.018762 -400359.000000 0 0 1
34.989269 -12.962502 -1.297803 37.335770 -0.354794 1.605564 0.081416 -0.022743 -590001.000000 0 0 1
34.523619 -12.036602 -0.204603 36.562302 -0.335470 1.576392 0.071734 -0.024413 -231241.000000 0 0 1
34.989139 -12.421502 1.077097 37.144228 -0.341131 1.541795 0.077060 -0.020980 323087.000000 0 0 1
34.754719 -11.364802 2.005297 36.620629 -0.316040 1.516010 0.069068 -0.015665 -264039.000000 0 0 1
35.124349 -11.738802 3.482697 37.197427 -0.322537 1.477032 0.076608 -0.024070 -216588.000000 0 0 1
34.185959 -12.401002 4.285897 36.617394 -0.347989 1.453482 0.075417 -0.030856 -71678.900000 0 0 1
34.733709 -12.588002 5.605697 37.367261 -0.347691 1.420212 0.069383 -0.027601 145900.000000 0 0 1
33.641049 -12.816802 6.694197 36.616975 -0.364009 1.386946 0.073243 -0.033080 271555.000000 0 0 1
32.868499 -11.697402 7.027497 35.588666 -0.341908 1.372026 0.077599 -0.026930 -135648.000000 0 0 1
32.779879 -11.547802 8.465997 35.770733 -0.338707 1.331855 0.043398 -0.008305 9926.890000 0 0 1
31.898479 -10.320902 8.871897 34.680608 -0.312924 1.312103 0.038583 -0.024855 -1000900.000000 0 0 1
30.541819 -10.496602 8.713497 33.450058 -0.331033 1.307264 0.049613 -0.022632 -1202050.000000 0 0 1
29.912809 -9.403802 9.340597 32.717799 -0.304591 1.281279 0.041206 -0.005705 109054.000000 0 0 1
28.375669 -9.492602 9.117097 31.279539 -0.322830 1.275031 0.046541 -0.009447 216323.000000 0 0 1
27.909109 -8.973602 7.884897 30.358121 -0.311090 1.308054 0.059293 -0.016659 -169622.000000 0 0 1
26.955499 -9.815002 7.301297 29.601387 -0.349197 1.321570 0.067027 -0.028152 -150877.000000 0 0 1
26.143449 -9.277502 6.048297 28.392497 -0.341006 1.356127 0.075864 -0.032709 -144861.000000 0 0 1
25.075949 -8.580902 6.623397 27.318574 -0.329706 1.325906 0.077887 -0.024521 -136800.000000 0 0 1
24.059649 -8.059302 5.793297 26.026551 -0.323224 1.346324 0.078324 -0.029516 77684.000000 0 0 1
24.433249 -6.782402 5.013497 25.848013 -0.270772 1.375598 0.068868 -0.020963 -474693.000000 0 0 1
25.243549 -7.048902 3.864797 26.492649 -0.272300 1.424392 0.067316 -0.024453 646900.000000 0 0 1
25.973449 -5.881002 3.469897 26.856031 -0.222669 1.441230 0.081128 -0.017883 264249.000000 0 0 1
26.516149 -6.021902 2.026797 27.266781 -0.223315 1.496396 0.086412 -0.026479 852600.000000 0 0 1
25.477949 -5.839202 1.024097 26.158573 -0.225296 1.531637 0.092440 -0.032671 985214.000000 0 0 1
26.094449 -5.748502 -0.263203 26.721430 -0.216833 1.580646 0.094068 -0.032622 414502.000000 0 0 1
25.170049 -6.145602 -1.548103 25.955662 -0.239478 1.630476 0.094256 -0.032368 503239.000000 0 0 1
24.069249 -5.304702 -1.721903 24.706954 -0.216925 1.640546 0.082661 -0.026972 -490599.000000 0 1 0
23.485049 -5.575002 -2.968803 24.319580 -0.233071 1.693176 0.071219 -0.021902 -126332.000000 0 1 0
22.276549 -4.613102 -3.158703 22.967428 -0.204197 1.708763 0.042919 -0.019948 -231188.000000 0 1 0
22.467649 -3.213002 -3.087303 22.905241 -0.142043 1.705994 0.037818 -0.018735 437093.000000 0 1 0
23.287249 -2.634302 -4.128303 23.796605 -0.112643 1.745161 0.052596 -0.020312 235750.000000 0 1 0
22.479949 -1.760502 -5.110803 23.120722 -0.078155 1.793686 0.049499 -0.008872 115590.000000 0 1 0
21.923149 -0.568402 -4.567903 22.401189 -0.025921 1.776150 0.025484 0.000149 455873.000000 0 1 0
21.343749 0.287098 -5.526103 22.049396 0.013450 1.824121 0.044369 0.001322 -96767.300000 0 1 0
20.902249 1.654298 -4.817703 21.513972 0.078980 1.796645 0.030351 0.008362 -244008.000000 0 1 0
21.995649 2.540298 -4.675903 22.630196 0.114982 1.778918 0.039208 0.003650 316902.000000 0 1 0
22.598449 2.432698 -3.398103 22.981624 0.107236 1.719202 0.048809 0.002967 -41663.700000 0 1 0
23.699449 3.504098 -3.208903 24.171050 0.146792 1.703948 0.051167 -0.006844 57708.100000 0 1 0
23.267749 4.816498 -3.108803 23.963544 0.204120 1.700894 0.027079 0.002048 422412.000000 0 1 0
24.389049 5.627898 -2.826403 25.189035 0.226785 1.683241 0.039168 -0.003818 201712.000000 0 0 1
23.962649 7.092998 -2.966703 25.165860 0.287785 1.688957 0.028293 -0.005211 -303120.000000 0 0 1
22.900149 7.410898 -2.123703 24.162954 0.312981 1.658801 0.037407 -0.009397 230004.000000 0 1 0
22.207249 8.553498 -2.686803 23.948761 0.367654 1.683223 0.022340 -0.007212 -726935.000000 0 1 0
21.171149 9.052098 -1.722503 23.089501 0.404043 1.645467 0.008848 -0.003804 -1010630.000000 0 1 0
21.646049 9.725798 -0.532103 23.736590 0.422280 1.593215 -0.001518 -0.002283 410774.000000 0 1 0
20.589049 10.154798 0.299397 22.959061 0.458204 1.557755 -0.021740 0.001619 -163874.000000 0 1 0
21.042049 10.381598 1.768497 23.530257 0.458333 1.495567 -0.005458 -0.012662 -1013470.000000 0 1 0
21.961349 11.376598 2.034097 24.816635 0.477966 1.488739 0.012796 -0.018097 40699.100000 0 1 0
21.516749 12.718498 1.814997 25.060425 0.533848 1.498308 0.016858 -0.009227 -553596.000000 0 0 1
20.552449 13.333098 2.849997 24.663681 0.575486 1.454983 0.015797 -0.001293 80214.200000 0 1 0
19.198049 12.887798 2.645597 23.273582 0.591209 1.456876 0.040927 -0.003064 1318740.000000 0 1 0
18.240049 13.586198 3.479097 23.008439 0.640200 1.419004 0.035930 -0.006794 179338.000000 0 1 0
18.291349 13.366198 4.964097 23.192045 0.631060 1.355084 0.030661 -0.001932 -976946.000000 0 1 0
17.762349 12.147398 5.342197 22.172041 0.599828 1.327459 0.014695 -0.002789 99561.300000 0 1 0
18.009849 11.992898 6.688197 22.647654 0.587477 1.271011 0.022740 -0.012866 -73876.800000 0 1 0
18.121949 10.569098 7.234997 22.191351 0.527991 1.238698 0.005751 -0.020934 -370780.000000 0 1 0
19.199449 9.855898 6.676297 22.590496 0.474265 1.270780 0.001581 -0.027780 287191.000000 0 1 0
19.363849 8.582398 7.277797 22.396038 0.417199 1.239828 0.021088 -0.024555 -392659.000000 0 1 0
20.294949 7.796798 6.380397 22.657989 0.366790 1.285339 0.033003 -0.027735 -475313.000000 0 1 0
19.745449 7.582398 5.132597 21.765088 0.366644 1.332736 0.009330 -0.024022 159230.000000 0 1 0
20.624749 6.864098 4.327497 22.163559 0.321278 1.374281 0.013120 -0.022728 -316749.000000 0 1 0
20.351849 6.858598 2.807397 21.659169 0.325048 1.440814 0.019226 -0.017988 -677972.000000 0 1 0
21.217949 5.880998 2.357097 22.143699 0.270383 1.464149 0.007451 -0.019102 108738.000000 0 1 0
21.179749 5.660098 0.960597 21.944048 0.261139 1.527007 0.028754 -0.005392 -806004.000000 0 1 0
22.310449 4.813298 0.402397 22.827306 0.212485 1.553168 0.050047 -0.007870 -173059.000000 0 1 0
22.066349 3.421298 0.692097 22.340726 0.153821 1.539812 0.036440 -0.001860 791755.000000 0 1 0
23.273149 2.724998 0.425197 23.435995 0.116557 1.552652 0.048592 0.000695 317702.000000 0 1 0
23.138949 1.193398 0.335097 23.172127 0.051530 1.556335 0.065843 -0.002975 205745.000000 0 1 0
22.307549 0.745098 -0.773403 22.333385 0.033389 1.605433 0.046524 -0.008472 1006500.000000 0 1 0
22.459549 -0.638602 -1.194103 22.500334 -0.028426 1.623892 0.053727 -0.009207 -969186.000000 0 1 0
22.286949 -1.861302 -0.243903 22.365868 -0.083322 1.581702 0.064123 -0.004025 193351.000000 0 1 0
23.178149 -1.931302 0.862197 23.274447 -0.083132 1.533743 0.064397 -0.006141 576899.000000 0 1 0
24.514049 -2.309002 0.593397 24.629702 -0.093914 1.546701 0.081212 -0.015727 75242.300000 0 1 0
25.522449 -2.033902 1.729997 25.661743 -0.079523 1.503330 0.077624 -0.013336 -73410.500000 0 0 1
25.398849 -0.745202 2.288197 25.512599 -0.029332 1.480987 0.073333 -0.010870 -305553.000000 0 0 1
26.347949 -0.390502 3.213897 26.546112 -0.014820 1.449430 0.080084 -0.006872 -688777.000000 0 0 1
26.029949 0.998798 3.798397 26.324583 0.038352 1.426000 0.078598 -0.003958 -112479.000000 0 0 1
26.137349 2.146698 2.923197 26.387770 0.081948 1.459790 0.091079 -0.006554 50853.400000 0 0 1
27.438859 2.402498 2.443097 27.651975 0.087336 1.482329 0.093302 -0.016426 -7704.520000 0 0 1
27.598619 3.573598 1.472697 27.867960 0.128768 1.517926 0.106081 -0.025546 -22401.100000 0 0 1
27.081109 3.370598 0.149297 27.290469 0.123826 1.565326 0.105955 -0.013886 348055.000000 0 0 1
27.650639 4.206298 -0.840903 27.981385 0.150966 1.600853 0.111386 -0.008872 565817.000000 0 0 1
29.070729 3.902998 -1.445003 29.367137 0.133461 1.620021 0.102106 -0.012528 407362.000000 0 0 1
30.083589 4.247698 -0.550203 30.386971 0.140269 1.588904 0.110665 -0.015554 -507379.000000 0 0 1
31.369539 4.079898 -1.094603 31.652673 0.129333 1.605385 0.079374 -0.010017 463164.000000 0 0 1
32.536819 4.362098 -0.083203 32.828028 0.133272 1.573331 0.041605 -0.006107 323761.000000 0 0 1
32.532849 3.380698 0.993397 32.723115 0.103545 1.540434 0.039953 -0.008845 276501.000000 0 0 1
32.010109 3.900998 2.218397 32.323152 0.121270 1.502110 0.050576 0.000200 102365.000000 0 0 1
31.996839 2.883798 3.357797 32.301529 0.089885 1.466657 0.056707 -0.007450 231958.000000 0 0 1
31.089889 1.765598 3.177697 31.301698 0.056729 1.469103 0.063769 -0.010822 497774.000000 0 0 1
31.176089 0.635698 4.022697 31.440972 0.020388 1.442500 0.060374 -0.014551 790643.000000 0 0 1
32.531859 -0.169102 3.925897 32.768325 -0.005198 1.450700 0.059703 -0.010699 937954.000000 0 0 1
33.693669 0.420598 4.461697 33.990395 0.012482 1.439153 0.060819 -0.015390 1096680.000000 0 0 1
34.890589 -0.372202 4.193897 35.143712 -0.010667 1.451176 0.058324 -0.021104 418934.000000 0 0 1
-35.318154 0.449298 4.469197 35.602635 -0.012721 1.444934 0.076371 -0.030551 -398505.000000 0 0 1
-34.989540 1.509498 3.589597 35.205563 -0.043115 1.468658 0.055057 -0.023021 157524.000000 0 0 1
-34.759183 1.162798 2.231897 34.850169 -0.033441 1.506710 0.067123 -0.024696 -683523.000000 0 0 1
-34.557929 2.351398 1.259297 34.660718 -0.067938 1.534456 0.046336 -0.019281 453938.000000 0 0 1
-33.430829 3.210098 1.344997 33.611517 -0.095729 1.530770 0.060105 -0.024204 149350.000000 0 0 1
-32.238399 2.805198 0.756697 32.369061 -0.086796 1.547417 0.071334 -0.019971 -636444.000000 0 0 1
-30.977089 3.623598 1.073097 31.206763 -0.116448 1.536403 0.063056 -0.021380 -103475.000000 0 0 1
-30.634119 3.411898 2.458597 30.921433 -0.110919 1.491201 0.065228 -0.024436 11369.600000 0 0 1
-29.789859 4.430398 2.935097 30.260187 -0.147640 1.473648 0.059029 -0.017958 -811186.000000 0 0 1
-29.834329 4.504698 4.456397 30.499819 -0.149858 1.424159 0.058961 -0.016926 3307.830000 0 0 1
-31.022409 4.946398 5.081797 31.822655 -0.158115 1.410419 0.046857 -0.004995 1019270.000000 0 0 1
-32.188529 4.082598 4.998097 32.829103 -0.126160 1.417956 0.050456 -0.006841 272437.000000 0 0 1
-32.290449 3.043798 6.105197 33.003200 -0.093985 1.384737 0.049732 0.000923 -560999.000000 0 0 1
-32.606029 3.661498 7.357497 33.625771 -0.111827 1.350206 0.042900 0.005005 293333.000000 0 0 1
-32.608549 2.742698 8.512197 33.812680 -0.083912 1.316313 0.045232 0.005392 5099.310000 0 0 1
-33.788909 1.740198 8.683597 34.930266 -0.051457 1.319564 0.045210 0.000132 -157971.000000 0 0 1
-33.751759 0.651298 7.795097 34.646341 -0.019294 1.343863 0.058336 -0.013707 341348.000000 0 0 1
-34.824124 -0.262002 7.990797 35.730115 0.007523 1.345246 0.061882 -0.012625 158465.000000 0 0 1
-34.833213 -1.086002 9.301797 36.070148 0.031167 1.309968 0.059565 -0.001732 -127918.000000 0 0 1
-33.705819 -1.971202 9.257197 35.009478 0.058416 1.303194 0.055517 -0.020604 719656.000000 0 0 1
-33.755469 -2.800402 10.366897 35.422401 0.082772 1.273784 0.048346 -0.004693 -613274.000000 0 0 1
-32.493189 -3.603002 10.606397 34.369821 0.110434 1.257079 0.033643 -0.006106 -655570.000000 0 0 1
-32.352989 -4.625402 9.620997 34.068663 0.142004 1.284501 0.046515 -0.012970 -213559.000000 0 0 1
-31.125549 -5.291402 9.692997 33.026549 0.168392 1.272920 0.062539 -0.022071 -251715.000000 0 0 1
-30.916609 -6.295702 8.528797 32.683527 0.200888 1.306789 0.059174 -0.019218 246828.000000 0 0 1
-31.721239 -7.449102 8.721697 33.731204 0.230651 1.309260 0.051391 -0.016796 15219.400000 0 0 1
-31.828899 -8.243002 7.565697 33.738193 0.253411 1.344626 0.053238 -0.022948 56109.100000 0 0 1
-32.784789 -9.437702 7.829397 35.003029 0.280290 1.345210 0.051283 -0.021204 654710.000000 0 0 1
-34.086794 -9.027502 8.247797 36.213692 0.258895 1.341026 0.065127 -0.028046 199062.000000 0 0 1
-34.783767 -10.191802 8.670597 37.268787 0.285027 1.335994 0.070021 -0.022798 54577.100000 0 0 1
7.577991 -24.032702 10.925397 27.465633 -1.265344 1.161696 0.065849 -0.016767 136410.000000 0 0 1
6.867191 -24.213902 9.700697 26.973596 -1.294448 1.202918 0.067923 -0.015587 -250688.000000 0 0 1
5.706591 -24.987202 9.824897 27.449117 -1.346267 1.204745 0.061333 -0.019046 60094.100000 0 0 1
5.365091 -25.831312 8.619497 27.754938 -1.366011 1.255017 0.052901 -0.004878 79809.600000 0 0 1
4.630691 -25.266802 7.531397 26.768947 -1.389536 1.285597 0.066642 -0.003716 -216106.000000 0 0 1
4.585391 -26.248862 6.516197 27.431540 -1.397852 1.330960 0.062690 -0.001423 62655.600000 0 0 1
3.799591 -25.858322 5.203497 26.648942 -1.424902 1.374273 0.056576 -0.000723 382695.000000 0 0 1
2.399091 -25.866252 5.223197 26.497177 -1.478311 1.372374 0.029080 -0.002850 -419438.000000 0 0 1
1.758591 -27.120062 5.069697 27.645836 -1.506042 1.386373 0.026254 -0.004786 -99316.100000 0 0 1
0.214291 -27.053662 5.122497 27.535187 -1.562876 1.383672 0.036330 -0.006142 -276468.000000 0 0 1
-0.219509 -26.560702 6.388097 27.318983 1.562532 1.334778 0.040400 -0.006118 671324.000000 0 0 1
-1.641009 -26.630392 6.625497 27.491233 1.509252 1.327396 0.014786 -0.003025 1098980.000000 0 0 1
-2.236609 -28.062142 6.785497 28.957369 1.491262 1.334270 0.019819 0.000929 -844969.000000 0 0 1
-2.073509 -28.756372 7.959397 29.909536 1.498815 1.301435 0.025575 -0.001526 61584.600000 0 0 1
-2.525909 -30.145182 8.005597 31.292200 1.487200 1.312086 0.027826 -0.000569 142293.000000 0 0 1
-2.163409 -30.792692 9.366997 32.258500 1.500654 1.276180 0.029489 -0.001739 -112976.000000 0 0 1
-0.813309 -31.125182 9.511097 32.556096 1.544672 1.274328 0.031922 -0.004076 -540598.000000 0 0 1
-0.567909 -31.667362 10.796997 33.462210 1.552865 1.242255 0.024078 0.001444 261408.000000 0 0 1
0.918891 -31.818692 11.206297 33.746920 -1.541925 1.232300 0.026544 0.001808 -28997.000000 0 0 1
1.545591 -32.973042 10.669097 34.690632 -1.523956 1.258179 0.035341 0.001638 -40731.400000 0 0 1
2.917791 -33.026642 10.999897 34.932368 -1.482679 1.250454 0.029533 0.003428 134245.000000 0 0 1
3.252291 -33.671142 12.388897 36.025102 -1.474505 1.219733 0.025346 0.003563 -645451.000000 0 0 1
2.904191 -32.800832 13.485297 35.583453 -1.482486 1.182106 0.004184 0.011331 148715.000000 0 0 1
3.550091 -33.190462 14.696097 36.471704 -1.464240 1.156064 -0.000340 0.016667 -491245.000000 0 0 1
3.193691 -32.331022 15.955897 36.195100 -1.472335 1.114273 -0.007714 0.016518 -63173.100000 0 0 1
3.552991 -30.945522 15.874397 34.960629 -1.456482 1.099474 -0.000734 0.005465 -22093.800000 0 0 1
4.914791 -30.678322 16.120997 35.002874 -1.411942 1.092168 0.000824 0.017798 -295702.000000 0 0 1
5.364791 -29.467772 15.384597 33.672190 -1.390712 1.096297 0.013846 0.009224 -369197.000000 0 0 1
5.604291 -29.636692 14.006597 33.255471 -1.383903 1.136048 0.018472 0.013115 392841.000000 0 0 1
4.447791 -29.669932 13.138997 32.752419 -1.421995 1.158012 0.012007 0.022735 251503.000000 0 0 1
4.740591 -29.568662 11.589597 32.110711 -1.411824 1.201535 0.022134 0.013250 236029.000000 0 0 1
5.306791 -30.747302 10.982897 33.078432 -1.399886 1.232346 0.028084 0.009536 -671096.000000 0 0 1
6.669791 -30.948492 11.156197 33.567186 -1.358530 1.231998 0.022513 0.008015 -870406.000000 0 0 1
7.001791 -32.310722 10.501897 34.688581 -1.357394 1.263222 0.009810 0.008099 81001.300000 0 0 1
6.458491 -33.385732 11.306197 35.835029 -1.379706 1.249806 -0.010998 0.005392 475449.000000 0 0 1
6.770091 34.135828 10.656297 36.395681 1.375009 1.273653 0.004169 0.001442 -171359.000000 0 0 1
6.750191 32.916287 11.654697 35.565138 1.368529 1.236928 0.010290 -0.002910 336742.000000 0 0 1
5.425591 32.519642 11.984397 35.079766 1.405479 1.222143 0.007096 -0.004033 169994.000000 0 0 1
5.414391 31.295272 12.659397 34.190204 1.399482 1.191503 0.018098 0.000277 -315612.000000 0 0 1
4.306491 31.133252 13.693997 34.283390 1.433344 1.159896 0.003067 -0.003633 -171660.000000 0 0 1
4.442891 31.802852 14.945797 35.419452 1.431994 1.135184 0.004008 -0.003370 740047.000000 0 0 1
3.264991 31.496882 15.713797 35.350208 1.467504 1.110160 0.016372 -0.001458 853523.000000 0 0 1
3.602391 31.727302 17.214297 36.275763 1.457738 1.076355 0.009921 -0.000862 -16580.400000 0 0 1
3.803091 33.057330 17.578397 37.633106 1.456255 1.084789 0.011052 0.003649 37124.700000 0 0 1
4.199191 33.058342 18.903797 38.312410 1.444449 1.054788 0.004457 0.005757 -97540.500000 0 0 1
4.592691 -34.332488 19.544497 39.771848 -1.437815 1.057082 0.004237 0.001370 -889973.000000 0 0 1
3.506291 -33.581642 19.913097 39.198880 -1.466762 1.037933 -0.009230 -0.000107 -1053200.000000 0 0 1
3.814491 -32.470152 20.667997 38.678511 -1.453855 1.007054 -0.002333 -0.005949 -507075.000000 0 0 1
2.578991 -31.758052 21.177897 38.258703 -1.489767 0.984182 -0.017011 -0.007907 -774809.000000 0 0 1
1.647791 -32.586462 21.776297 39.227539 -1.520273 0.982280 -0.005344 -0.003126 -757187.000000 0 0 1
0.807791 -31.862582 22.618697 39.083016 -1.545449 0.953620 -0.007531 -0.000315 -506932.000000 0 0 1
-0.237409 -32.735892 23.351297 40.211666 1.563544 0.951196 0.000263 -0.000619 569732.000000 0 0 1
-1.330509 -33.087752 22.445697 40.004736 1.530606 0.975111 -0.004192 -0.005147 484373.000000 0 0 1
-2.070509 -34.152579 22.965497 41.208005 1.510245 0.979658 0.012613 -0.009338 -329771.000000 0 0 1
-3.501509 -33.742212 23.346697 41.180890 1.467394 0.968022 0.030752 -0.001472 -607486.000000 0 0 1
-4.388809 -33.543522 22.320997 40.529698 1.440696 0.987555 0.020967 -0.010255 -989775.000000 0 0 1
-5.638609 -33.174072 22.820697 40.658298 1.402435 0.974865 0.032881 -0.011175 -356462.000000 0 0 1
-6.787709 -32.907352 21.856897 40.083547 1.367382 0.994069 0.035171 -0.007280 -185168.000000 0 0 1
-7.424409 -33.989332 21.236997 40.760355 1.355741 1.022750 0.018315 0.003320 291989.000000 0 0 1
-8.661509 -33.506742 20.737097 40.345392 1.317833 1.030967 0.041719 -0.015089 -333326.000000 0 0 1
-9.859109 34.346889 20.709197 41.301110 -1.291267 1.045557 0.070364 -0.022344 -327159.000000 0 0 1
-10.422909 34.209731 22.000897 41.987882 -1.275055 1.019277 0.084553 -0.029000 -293200.000000 0 0 1
-11.734109 33.714940 22.031197 41.949495 -1.235870 1.017865 0.067092 -0.025299 -47879.000000 0 0 1
-12.293109 33.499580 23.454497 42.701942 -1.219090 0.989317 0.064939 -0.026883 160982.000000 0 0 1
-12.673009 -34.110167 24.211897 43.707260 1.215070 0.983688 0.056595 -0.023897 598827.000000 0 0 1
-11.503109 -33.436992 24.700397 43.133091 1.239456 0.961055 0.057459 -0.020152 545160.000000 0 0 1
-11.673709 -32.003752 25.181297 42.362877 1.221033 0.934253 0.053929 -0.012573 -101716.000000 0 0 1
-12.182409 -32.001442 26.497997 43.297196 1.207053 0.912206 0.054364 -0.010940 124672.000000 0 0 1
-12.694209 -30.711672 26.740497 42.654471 1.178847 0.893216 0.060463 -0.017380 -360702.000000 0 0 1
-13.534409 -30.522462 28.005897 43.579022 1.153424 0.872849 0.056920 -0.018558 -57373.500000 0 0 1
-12.776009 -30.375382 29.226497 44.046321 1.172655 0.845256 0.058154 -0.010302 625831.000000 0 0 1
-13.624509 -30.050252 30.337797 44.822169 1.145126 0.827324 0.057270 -0.013804 -16598.200000 0 0 1
-12.974409 -29.449012 31.596497 45.098982 1.155810 0.794554 0.053001 -0.007956 -19340.100000 0 0 1
-13.895209 -29.180952 32.667697 45.954143 1.126391 0.780053 0.045181 -0.006451 654745.000000 0 0 1
-13.235609 -28.710552 33.827797 46.301155 1.138831 0.751591 0.042355 -0.005834 -349661.000000 0 0 1
-12.482809 -29.791612 -34.122373 46.986136 1.174015 2.383607 0.041150 0.001094 -111153.000000 0 0 1
-11.200309 -30.014702 34.064997 46.762734 1.213639 0.754718 0.037787 -0.002660 -77625.400000 0 0 1
-10.615409 -31.180622 -34.108173 47.416090 1.242655 2.373645 0.038364 0.002423 -421015.000000 0 0 1
-9.144709 -31.316052 34.227797 47.284912 1.286683 0.761411 0.033521 -0.002093 -430189.000000 0 0 1
-8.327709 -30.449652 -33.759773 46.219631 1.303833 2.389734 0.033224 -0.009592 -96450.000000 0 0 1
-7.130209 -31.083472 -33.352473 46.145526 1.345308 2.378594 0.041547 -0.013419 -69798.900000 0 0 1
-6.283409 -30.243052 -32.389073 44.756848 1.365947 2.379898 0.037456 -0.013756 -110033.000000 0 0 1
-6.760509 -30.208162 -31.109073 43.886353 1.350627 2.358670 0.031842 -0.012605 494643.000000 0 0 1
-5.693309 -29.749362 -30.252773 42.809679 1.381707 2.355592 0.030924 -0.007097 654357.000000 0 0 1
-6.061809 -29.726842 -28.790873 41.825172 1.369637 2.330025 0.024803 -0.005448 -313103.000000 0 0 1
-5.915109 -31.011942 -28.231473 42.352628 1.382324 2.300410 0.017869 0.001190 82890.900000 0 0 1
-6.949709 -31.385022 -27.330773 42.193474 1.352879 2.275422 0.019411 -0.003406 193809.000000 0 0 1
-6.636209 -32.631802 -26.465973 42.536120 1.370166 2.242346 0.018073 0.000299 -210003.000000 0 0 1
-5.681609 -32.515372 -25.462673 41.687862 1.397807 2.227859 0.003814 0.001274 -294082.000000 0 0 1
-5.588709 -33.700882 -24.745973 42.182298 1.406459 2.197704 0.008856 -0.002211 82805.100000 0 0 1
-4.822309 -33.614852 -23.365973 41.221131 1.428311 2.173467 0.013945 -0.007932 96575.900000 0 0 1
-5.414109 -32.825422 -22.379073 40.095434 1.407332 2.162945 0.014740 -0.006038 -174326.000000 0 0 1
-5.209509 -31.447072 -22.468873 38.998815 1.406628 2.184798 0.005878 0.004364 -212306.000000 0 0 1
-5.419509 -30.740772 -21.081273 37.666779 1.396292 2.164794 0.024180 -0.006973 502042.000000 0 0 1
-6.762909 -30.815162 -20.559773 37.656545 1.354755 2.148356 0.038578 -0.021008 735597.000000 0 0 1
-7.305109 -29.656262 -19.983973 36.499557 1.329279 2.150185 0.038858 -0.026575 -138923.000000 0 0 1
-7.693609 -28.530432 -21.020773 36.263619 1.307398 2.189115 0.051877 -0.029987 -585013.000000 0 0 1
-6.607909 -27.693392 -21.362573 35.594212 1.336566 2.214510 0.047114 -0.022945 -254476.000000 0 0 1
-6.785609 -26.918962 -22.514673 35.743328 1.323865 2.252219 0.058665 -0.035854 -626343.000000 0 0 1
-5.952609 -27.460982 -23.717873 36.770594 1.357333 2.271850 0.046668 -0.024261 1103680.000000 0 0 1
-4.564609 -27.101212 -23.791773 36.350513 1.403934 2.284331 0.042845 -0.013118 859001.000000 0 0 1
-3.729209 -27.742072 -22.787673 36.094426 1.437173 2.254070 0.026347 -0.015685 130312.000000 0 0 1
-2.265509 -27.228992 -23.081573 35.767437 1.487785 2.272243 0.033483 -0.018082 456797.000000 0 0 1
-2.016909 -25.832112 -23.182673 34.767834 1.492877 2.300683 0.029961 -0.016925 -110022.000000 0 0 1
-2.433309 -25.045892 -22.125573 33.507591 1.473946 2.292035 0.043032 -0.025170 -904445.000000 0 0 1
-2.208909 -23.512502 -22.256473 32.451003 1.477125 2.326565 0.044585 -0.021066 137355.000000 0 0 1
-3.035509 -22.927302 -23.263973 32.803779 1.439165 2.359139 0.050775 -0.028892 305444.000000 0 0 1
-4.422609 -22.887102 -22.998873 32.746406 1.379913 2.349466 0.057283 -0.031088 -159741.000000 0 0 1
-5.302909 -22.987002 -24.303773 33.870289 1.344071 2.371081 0.055617 -0.034176 137108.000000 0 0 1
-5.370409 -21.887202 -25.177773 33.790696 1.330182 2.411496 0.065562 -0.029678 48570.400000 0 0 1
-5.724809 -22.265302 -26.496973 35.080004 1.319130 2.426954 0.055185 -0.025555 97006.800000 0 0 1
-5.957909 -21.095202 -27.384073 35.076940 1.295536 2.466559 0.065790 -0.017401 -150197.000000 0 0 1
-6.096709 -21.397402 -28.764873 36.365321 1.293224 2.483234 0.065509 -0.018394 99421.800000 0 0 1
-4.905909 -21.581002 -29.516673 36.892297 1.347270 2.498220 0.058085 -0.021940 -90328.800000 0 0 1
-5.122209 -21.925702 -30.979273 38.297373 1.341296 2.513099 0.070318 -0.025741 78724.900000 0 0 1
-5.638909 -20.884202 -31.813073 38.471013 1.307077 2.544433 0.071906 -0.026119 -351163.000000 0 0 1
-6.778709 -21.268402 -32.516473 39.441309 1.262253 2.539985 0.061158 -0.023926 -428479.000000 0 0 1
-6.931009 -20.534602 -33.896773 40.233071 1.245275 2.572723 0.055845 -0.020811 133397.000000 0 0 1
-5.938009 -20.976402 33.945697 40.343274 1.294933 0.570888 0.052229 -0.014774 -209846.000000 0 0 1
-5.802809 -20.170002 32.804797 38.944272 1.290666 0.569163 0.056744 -0.011087 -284700.000000 0 0 1
-4.502209 -20.471802 32.067097 38.310094 1.354320 0.578945 0.047846 -0.012761 -1350340.000000 0 0 1
-4.339709 -21.858702 31.692097 38.743063 1.374810 0.612859 0.049610 -0.011400 64525.200000 0 0 1
-3.331409 -22.181302 30.739997 38.053329 1.421721 0.630363 0.051622 -0.008001 -1010610.000000 0 0 1
-1.939609 -22.031202 31.251197 38.285418 1.482984 0.615874 0.039354 -0.011544 -1850690.000000 0 0 1
-1.387409 -20.724802 31.019297 37.331476 1.503952 0.590045 0.032174 -0.006400 300394.000000 0 0 1
-0.283909 -20.368402 31.861697 37.816929 1.556859 0.568843 0.042684 -0.008177 181292.000000 0 0 1
-0.604209 -19.964502 33.306297 38.836270 1.540541 0.540196 0.032131 -0.014143 -46052.700000 0 0 1
-1.436209 -18.806402 33.354097 38.317610 1.494576 0.514652 0.022091 -0.014827 -106207.000000 0 0 1
-1.951309 -18.682102 -34.096273 38.927938 1.466726 2.638057 0.027607 -0.018784 -215504.000000 0 0 1
-2.952009 -17.536502 -33.907873 38.288211 1.404025 2.658571 0.019432 -0.027143 -72136.100000 0 0 1
-2.554009 -16.189802 -34.254073 37.973335 1.414332 2.695306 0.019350 -0.026779 165559.000000 0 0 1
-3.500009 -15.224802 -33.734173 37.175787 1.344834 2.707907 0.026928 -0.032695 369501.000000 0 0 1
-3.032509 -13.746402 -33.996873 36.796020 1.353670 2.749020 0.015055 -0.031303 -115387.000000 0 0 1
-2.014709 -13.244902 -33.144573 35.749814 1.419841 2.757465 0.014838 -0.024327 -57503.000000 0 0 1
-1.907209 -11.833102 -33.323873 35.413843 1.410995 2.796323 0.010147 -0.019204 -122195.000000 0 0 1
-1.270209 -11.217502 34.129097 35.947754 1.458042 0.319450 0.012554 -0.020113 -532313.000000 0 0 1
-2.102409 -11.298802 32.994197 34.938519 1.386827 0.335183 0.005116 -0.018210 123422.000000 0 0 1
-1.497409 -10.843802 31.747897 33.582127 1.433575 0.332036 0.017329 -0.014769 165373.000000 0 0 1
-0.745909 -12.027302 31.042197 33.299105 1.508858 0.370288 0.015049 -0.018095 454958.000000 0 0 1
-1.638109 -12.947502 30.399497 33.082482 1.444946 0.405513 0.011702 -0.023943 905737.000000 0 0 1
-0.801709 -14.035002 29.943697 33.079435 1.513736 0.438933 0.012617 -0.027344 468816.000000 0 0 1
-1.040909 -15.447702 30.531497 34.232840 1.503515 0.469317 0.013554 -0.023615 -158398.000000 0 0 1
-2.105609 -16.119502 29.908397 34.040919 1.440907 0.497871 0.020053 -0.021476 28448.600000 0 0 1
-2.361709 -17.303002 30.640097 35.267366 1.435143 0.518034 0.024097 -0.015966 -145348.000000 0 0 1
-2.819709 -18.431702 29.691297 35.060683 1.418992 0.560754 0.026354 0.002586 178003.000000 0 0 1
-4.151609 -18.333502 29.188697 34.717909 1.348103 0.572150 0.038020 -0.001861 401192.000000 0 0 1
-4.454109 -19.342202 28.224597 34.504895 1.344463 0.612891 0.041649 -0.006095 347976.000000 0 0 1
-3.737609 -19.151202 26.774997 33.130631 1.378056 0.629768 0.045262 -0.004778 131010.000000 0 0 1
-4.283909 -19.871502 25.698597 32.766543 1.358465 0.669239 0.064187 -0.006835 -249099.000000 0 0 1
-4.196209 -21.279102 25.749997 33.667057 1.376096 0.699999 0.052107 -0.006016 -199031.000000 0 0 1
-28.949499 -33.923666 -0.571103 44.600614 0.864348 1.583601 0.007548 -0.022558 -334358.000000 0 0 1
-28.206779 -32.837166 -0.083903 43.288669 0.861107 1.572735 0.013648 -0.019790 -294879.000000 0 0 1
-28.587809 -32.397066 1.187197 43.223167 0.847779 1.543326 0.013627 -0.018331 -16814.400000 0 0 1
-27.775029 -31.129366 1.584597 41.749259 0.842282 1.532832 0.024800 -0.014921 205226.000000 0 0 1
-26.391529 -31.375466 1.676597 41.033446 0.871462 1.529926 0.026617 -0.014980 -637353.000000 0 0 1
-25.661359 -30.196166 1.861897 39.670902 0.866406 1.523846 0.033884 -0.002560 992073.000000 0 0 1
-24.145409 -30.489366 2.179797 38.953225 0.900996 1.514808 0.012604 -0.002454 745362.000000 0 0 1
-24.003009 -30.981566 3.477497 39.345837 0.911642 1.482298 0.017817 -0.005710 -584629.000000 0 0 1
-22.666909 -31.240266 3.771197 38.780987 0.943117 1.473399 0.013878 0.000646 -513513.000000 0 0 1
-22.309009 -31.803366 5.200997 39.194341 0.959087 1.437706 0.027902 -0.002484 -22095.500000 0 0 1
-22.710809 -30.915466 6.196997 38.858071 0.937218 1.410635 0.025354 -0.002369 -117436.000000 0 0 1
-22.479609 -31.511366 7.446697 39.417665 0.951146 1.380736 0.020154 -0.006364 -202117.000000 0 0 1
-22.980409 -30.653166 8.633697 39.271574 0.927493 1.349140 0.022082 -0.010453 -430258.000000 0 0 1
-22.218009 -29.525166 8.989497 38.028758 0.925690 1.332151 0.033386 -0.011471 -503999.000000 0 0 1
-22.731509 -28.820466 10.045797 38.055996 0.902966 1.303656 0.028290 -0.011769 -283413.000000 0 0 1
-21.859409 -27.634066 10.493497 36.763961 0.901548 1.281342 0.033058 -0.014771 -658972.000000 0 0 1
-20.596609 -27.976366 10.921697 36.416766 0.936176 1.266200 0.031761 -0.017834 -1215770.000000 0 0 1
-20.168109 -27.078566 11.903397 35.800729 0.930632 1.231853 0.047225 -0.017333 83689.000000 0 0 1
-18.794209 -27.345266 12.540997 35.471996 0.968650 1.209437 0.050005 -0.018016 22684.300000 0 0 1
-18.952009 -28.439666 13.369597 36.697948 0.982983 1.197900 0.057629 -0.017183 -81809.300000 0 0 1
-17.741609 -28.646566 14.059997 36.511285 1.016286 1.175495 0.068202 -0.021889 24759.200000 0 0 1
-17.841609 -29.741966 15.142997 37.844655 1.030465 1.159131 0.092255 -0.034678 -62650.300000 0 0 1
-17.862609 -31.073766 14.698997 38.739028 1.049078 1.181609 0.094483 -0.029011 -95088.400000 0 0 1
-18.067009 -32.000966 15.710097 39.966058 1.056831 1.166811 0.101125 -0.028663 175451.000000 0 0 1
-17.854609 -33.450766 15.248397 40.868746 1.080509 1.188441 0.100504 -0.029113 186625.000000 0 0 1
-17.824209 -34.276566 16.349897 41.951216 1.091268 1.170451 0.114292 -0.029891 60481.700000 0 0 1
-17.434409 33.195098 15.971497 40.754900 -1.087184 1.168110 0.100138 -0.024287 -36105.200000 0 0 1
-17.630009 32.153198 17.094497 40.458215 -1.069249 1.134570 0.098802 -0.025248 -195873.000000 0 0 1
-18.853109 31.448298 17.120197 40.466484 -1.030748 1.133964 0.102884 -0.024898 114607.000000 0 0 1
-18.937709 30.465398 18.132797 40.194224 -1.014636 1.102766 0.087620 -0.013397 -152630.000000 0 0 1
-19.379309 30.948798 19.534597 41.412392 -1.011354 1.079568 0.072988 -0.018768 -114781.000000 0 0 1
-18.523809 31.908298 20.159997 42.043983 -1.044814 1.070714 0.076330 -0.017215 223228.000000 0 0 1
-18.963009 32.333898 21.456497 43.190947 -1.040381 1.050909 0.068438 -0.013922 24226.000000 0 0 1
-18.307109 33.676998 21.873597 44.133261 -1.072873 1.052241 0.047634 0.005756 -954303.000000 0 0 1
-17.116009 33.517098 22.532697 43.864292 -1.098653 1.031315 0.043627 -0.009660 -1271380.000000 0 0 1
-16.983709 33.980398 23.872597 44.866633 -1.107302 1.009742 0.043813 -0.010547 -186941.000000 0 0 1
-17.728609 33.212298 24.980197 45.181529 -1.080478 0.984974 0.026337 -0.014499 279067.000000 0 0 1
-19.128409 33.471098 25.022397 45.960100 -1.051604 0.995078 0.006200 -0.014684 370785.000000 0 0 1
-19.743209 32.487498 25.865097 45.980812 -1.024722 0.973366 0.009551 -0.009805 240452.000000 0 0 1
-21.288509 32.610198 25.882397 46.760284 -0.992443 0.984221 0.057553 -0.017510 228799.000000 0 0 1
-21.896009 32.278698 24.634497 46.132505 -0.974754 1.007478 0.045393 -0.016639 989058.000000 0 0 1
-23.321309 32.422698 24.660597 46.938895 -0.947241 1.017639 0.028203 -0.020392 1007980.000000 0 0 1
-24.076609 32.054098 23.323597 46.380367 -0.926576 1.043873 0.024729 -0.012675 293612.000000 0 0 1
-23.604609 32.915598 22.274197 46.225037 -0.948669 1.068015 0.018939 0.001078 376231.000000 0 0 1
-23.805409 32.220698 21.032897 45.246587 -0.934487 1.087331 0.012991 -0.001746 -152266.000000 0 0 1
-23.435409 33.024998 19.749397 45.054496 -0.953639 1.117040 0.024627 -0.004291 -287055.000000 0 0 1
-22.076409 33.370698 19.792097 44.639651 -0.986344 1.111436 0.056486 -0.011803 -154069.000000 0 0 1
-21.701109 34.232298 18.708297 44.640662 -1.005796 1.138357 0.068270 -0.016380 624120.000000 0 0 1
-20.270709 -33.919266 18.880997 43.793953 1.032131 1.125049 0.079822 -0.022946 582999.000000 0 0 1
-20.265909 -32.794766 19.738997 43.310874 1.017274 1.097580 0.077888 -0.026343 -3634.750000 0 0 1
-19.050209 -32.115166 19.563397 42.154725 1.035404 1.088194 0.083715 -0.032790 -234724.000000 0 0 1
-18.898109 -30.965666 20.575597 41.705709 1.022843 1.054857 0.073269 -0.030848 -283849.000000 0 0 1
-19.519709 -29.789766 20.170597 40.930456 0.990740 1.055490 0.088859 -0.033819 78213.000000 0 0 1
-19.886009 -29.062066 21.336297 41.173956 0.970712 1.026053 0.080997 -0.028937 148582.000000 0 0 1
-20.783809 -27.798766 21.090497 40.614618 0.928800 1.024784 0.058521 -0.024242 -47020.900000 0 0 1
-20.048809 -26.801366 20.399197 39.196878 0.928543 1.023443 0.055260 -0.013887 459989.000000 0 0 1
-20.755009 -25.586166 20.139497 38.613749 0.889275 1.022115 0.048847 0.002515 -566545.000000 0 0 1
-21.877209 -25.665866 19.127897 38.771451 0.864919 1.054859 0.052101 -0.010281 370854.000000 0 0 1
-23.235009 -25.833266 19.595997 39.890179 0.838301 1.057274 0.050250 -0.004800 885626.000000 0 0 1
-24.028409 -25.761366 18.442097 39.763342 0.820190 1.088521 0.053545 -0.006601 77357.500000 0 0 1
-25.580789 -25.836066 18.603297 40.840687 0.790363 1.097853 0.035318 -0.002586 794182.000000 0 0 1
-26.088949 -27.053866 19.151897 42.182225 0.803553 1.099516 0.027714 -0.010287 1413.110000 0 0 1
-26.212529 -28.064166 18.159597 42.478996 0.819500 1.129075 0.026764 -0.014307 -636102.000000 0 0 1
-26.961889 -29.322566 18.648897 43.983380 0.827316 1.132940 0.022455 -0.016359 195994.000000 0 0 1
-28.302699 -28.952366 18.946497 44.701812 0.796745 1.133114 0.017173 -0.016256 402524.000000 0 0 1
-29.211369 -29.686466 18.112397 45.416399 0.793464 1.160580 0.013390 -0.008968 267051.000000 0 0 1
-30.680319 -29.202466 18.118597 46.068965 0.760724 1.166586 0.013756 -0.008033 230594.000000 0 0 1
-30.845989 -27.878266 17.722097 45.196742 0.734905 1.167872 0.021804 -0.006281 880999.000000 0 0 1
-32.255569 -27.567366 17.796497 46.011919 0.707190 1.173659 0.016129 0.008097 835511.000000 0 0 1
-32.665589 -26.256266 17.069097 45.252473 0.677048 1.184028 0.012264 -0.006268 -314267.000000 0 0 1
-32.860889 -26.430166 15.625697 44.972815 0.677360 1.215949 0.028457 -0.020031 50279.500000 0 0 1
-33.358529 -25.353266 14.942197 44.484254 0.649885 1.228237 0.022712 -0.015123 -167374.000000 0 0 1
-32.377529 -24.177166 14.628897 42.974927 0.641403 1.223448 0.018264 -0.007317 -101507.000000 0 0 1
-31.858049 -23.614466 15.803697 42.688817 0.637871 1.191565 0.011422 -0.006408 -77846.500000 0 0 1
-31.368169 -22.267766 15.645297 41.528192 0.617329 1.184523 0.012321 -0.000194 -365598.000000 0 0 1
-32.382759 -21.148266 15.918297 41.824448 0.578532 1.180354 0.012273 -0.003549 -214257.000000 0 0 1
-32.807049 -21.092766 17.243297 42.644326 0.571392 1.154527 0.015292 -0.003276 566077.000000 0 0 1
-33.793529 -20.062366 17.424297 42.989618 0.535756 1.153474 0.031646 -0.014660 -15812.900000 0 0 1
-33.873229 -19.459466 18.824797 43.364034 0.521443 1.121745 0.014996 -0.001150 -397387.000000 0 0 1
-34.706874 -20.184166 19.699797 44.721915 0.526751 1.114646 0.018341 -0.005801 260653.000000 0 0 1
-34.852997 -19.445266 20.904797 45.053971 0.508905 1.088297 0.013649 -0.003487 -241413.000000 0 0 1
35.143979 -19.338666 21.423497 45.475812 -0.503050 1.080263 0.018186 -0.006528 707816.000000 0 0 1
34.484029 -20.634366 21.655797 45.649741 -0.539223 1.076525 0.017050 -0.003899 244103.000000 0 0 1
35.186739 -21.600766 22.428097 46.986373 -0.550570 1.073180 0.014239 -0.002138 -921955.000000 0 0 1
34.408169 -22.838566 22.780697 47.164418 -0.585984 1.066712 0.024200 0.001627 -486367.000000 0 0 1
33.378089 -22.689466 23.715497 46.811681 -0.597020 1.039542 0.032779 -0.005594 -65699.700000 0 0 1
32.967789 -23.962466 24.187297 47.393040 -0.628516 1.035198 0.026944 -0.006736 -518291.000000 0 0 1
32.244339 -23.958566 25.531397 47.597926 -0.639026 1.004634 0.034711 -0.007105 207187.000000 0 0 1
30.962979 -23.315766 25.432197 46.358685 -0.645432 0.990112 0.039406 -0.007046 588131.000000 0 0 1
30.238099 -23.629066 26.619997 46.704386 -0.663317 0.964330 0.030654 -0.004554 442010.000000 0 0 1
28.986899 -24.539866 26.352097 46.226382 -0.702508 0.964210 0.024337 -0.009742 134158.000000 0 0 1
27.913019 -23.825066 25.773397 44.844603 -0.706550 0.958526 0.024152 -0.006949 -800634.000000 0 0 1
26.839219 -24.676966 25.575197 44.535234 -0.743450 0.959086 0.012521 -0.001259 175782.000000 0 0 1
25.478349 -23.915166 25.323097 43.154846 -0.753761 0.943700 0.024009 0.000815 353734.000000 0 0 1
25.345649 -23.283366 24.087097 42.008396 -0.743015 0.960161 0.028908 -0.007565 54732.900000 0 0 1
26.261249 -22.233866 23.842197 41.862255 -0.702541 0.964851 0.030449 -0.010098 -280139.000000 0 0 1
26.083749 -21.574266 22.427997 40.605738 -0.691057 0.985633 0.040358 -0.010520 163608.000000 0 0 1
25.278149 -20.399266 22.414097 39.465259 -0.678990 0.966789 0.039665 -0.012442 224761.000000 0 0 1
25.219649 -19.938366 21.077997 38.442829 -0.668976 0.990473 0.033088 -0.009976 78901.100000 0 0 1
24.524649 -18.547266 20.876297 37.165566 -0.647502 0.974344 0.040446 -0.004798 89490.400000 0 0 1
25.235649 -17.380066 21.339097 37.339815 -0.603109 0.962484 0.044472 -0.018353 254922.000000 0 0 1
25.398149 -17.328466 22.724697 38.232886 -0.598729 0.934307 0.041642 -0.008229 -206731.000000 0 0 1
25.543749 -15.870366 23.245997 38.009578 -0.555935 0.912737 0.063178 -0.003283 -220029.000000 0 0 1
24.368549 -15.119366 23.077897 36.810471 -0.555318 0.893179 0.050234 -0.005781 -182132.000000 0 0 1
24.462749 -13.988266 23.846197 36.915292 -0.519440 0.868502 0.048223 -0.007487 718661.000000 0 0 1
23.117149 -13.166366 23.780297 35.682745 -0.517729 0.841377 0.034235 -0.008180 768256.000000 0 0 1
22.067149 -13.815466 24.443297 35.711356 -0.559365 0.816922 0.042602 -0.008971 -188916.000000 0 0 1
20.852849 -13.094066 24.286797 34.585321 -0.560701 0.792274 0.036571 -0.009149 739649.000000 0 0 1
19.579449 -13.803866 24.860097 34.524281 -0.614086 0.766885 0.037965 -0.009254 245438.000000 0 0 1
19.128249 -14.764166 23.898297 33.985278 -0.657340 0.790914 0.030256 -0.011946 186142.000000 0 0 1
17.876949 -15.292266 24.292697 33.816769 -0.707631 0.769351 0.029119 -0.008096 132279.000000 0 0 1
17.241049 -16.433566 23.463197 33.434077 -0.761424 0.792910 0.020096 -0.008432 -3178.390000 0 0 1
17.962349 -17.605166 23.671597 34.538853 -0.775356 0.815696 0.015742 -0.007695 -177669.000000 0 0 1
17.421749 -18.602766 22.886097 34.254251 -0.818170 0.839111 0.007444 -0.003453 -367085.000000 0 0 1
17.763049 -20.030866 23.346197 35.521915 -0.845331 0.853654 -0.000492 -0.000444 -266085.000000 0 0 1
17.267249 -20.464566 24.614797 36.370931 -0.869934 0.827428 0.000780 0.004522 130604.000000 0 0 1
17.392849 -21.878066 24.927997 37.450848 -0.899118 0.842473 0.019022 0.001053 -191190.000000 0 0 1
16.877049 -22.960066 23.933797 37.213251 -0.936925 0.872188 0.007765 -0.002933 321361.000000 0 0 1
17.693149 -23.173866 22.739297 36.975008 -0.918714 0.908422 0.005910 0.000291 -154862.000000 0 0 1
18.595449 -24.193766 22.977697 38.198215 -0.915494 0.925371 0.020824 -0.009300 -665317.000000 0 0 1
19.644549 -24.425866 21.875897 38.224156 -0.893468 0.961482 0.015850 0.006680 13833.200000 0 0 1
19.077749 -24.984866 20.710497 37.644770 -0.918665 0.988245 0.028532 -0.005126 289628.000000 0 0 1
20.123749 -25.238266 19.792397 37.863892 -0.897673 1.020752 0.022285 -0.013815 230024.000000 0 0 1
19.609649 -25.794866 18.468297 37.295998 -0.920789 1.052752 0.030214 -0.023826 184960.000000 0 0 1
19.095849 -27.137166 18.618097 38.048795 -0.957606 1.059485 0.049004 -0.028804 146391.000000 0 0 1
18.330949 -27.462366 17.450497 37.346019 -0.982222 1.084601 0.050435 -0.027663 101592.000000 0 0 1
17.466749 -28.730766 17.683297 37.990041 -1.024555 1.086629 0.050010 -0.029001 1168700.000000 0 0 1
16.390749 -28.507366 18.660097 37.809070 -1.048988 1.054647 0.052619 -0.038530 844527.000000 0 0 1
15.674649 -29.641566 19.037797 38.558459 -1.084370 1.054413 0.073393 -0.039625 -286302.000000 0 0 1
14.398049 -29.405766 19.841297 38.284200 -1.115476 1.025977 0.059303 -0.029849 -391874.000000 0 0 1
13.364349 -28.786166 19.117497 37.050343 -1.136145 1.028637 0.052997 -0.030265 -727326.000000 0 0 1
12.178749 -28.847566 19.866397 37.083389 -1.171320 1.005433 0.026198 -0.027996 -875418.000000 0 0 1
11.052449 -28.270666 19.037197 35.830184 -1.198115 1.010642 0.035454 -0.031215 -774026.000000 0 0 1
10.940149 -29.124766 17.950797 35.918936 -1.211473 1.047476 0.025684 -0.032173 -145776.000000 0 0 1
10.266249 -28.476966 16.905597 34.671785 -1.224789 1.061470 0.035096 -0.020814 -50125.000000 0 0 1
10.257049 -29.332866 15.642997 34.789761 -1.234409 1.104430 0.026023 -0.012763 130889.000000 0 0 1
9.207549 -30.279966 15.702397 35.330165 -1.275600 1.110239 0.016501 -0.001214 107251.000000 0 0 1
9.360549 -31.242566 14.690697 35.770580 -1.279698 1.147583 0.005058 0.002060 457210.000000 0 0 1
8.138149 -32.219266 14.563797 36.282431 -1.323385 1.157751 -0.004921 0.005602 390792.000000 0 0 1
7.966949 -33.050566 15.673197 37.436096 -1.334256 1.138821 0.006973 0.000501 -145027.000000 0 0 1
7.018249 -34.054966 15.385697 38.022575 -1.367556 1.154204 -0.007835 0.006398 -320445.000000 0 0 1
6.990949 33.617298 16.465497 38.080293 1.365762 1.123656 0.010269 -0.003657 -355690.000000 0 0 1
8.178849 32.910498 16.679797 37.791667 1.327213 1.113681 0.021237 -0.010790 -456418.000000 0 0 1
7.892649 31.659398 17.295097 36.928739 1.326478 1.083389 0.024915 -0.015352 261556.000000 0 0 1
9.186749 30.883898 17.707197 36.766239 1.281671 1.068299 0.042125 -0.014861 128775.000000 0 0 1
9.837549 30.352298 16.596297 35.964934 1.257368 1.091159 0.048326 -0.019350 -75819.300000 0 0 1
10.853749 29.464298 17.081897 35.745488 1.217851 1.072562 0.059981 -0.027121 320052.000000 0 0 1
11.597549 28.692298 15.906297 34.795997 1.186671 1.096031 0.057968 -0.024725 -278623.000000 0 0 1
10.827549 27.882598 15.110097 33.511045 1.200394 1.103024 0.057971 -0.022769 -239190.000000 0 0 1
11.726349 27.313898 14.173697 32.930988 1.165274 1.125854 0.055786 -0.014663 451902.000000 0 0 1
-9.483009 -9.205202 18.908868 23.069644 0.770534 0.610009 0.049620 -0.012524 15053.200000 0 1 0
-9.466209 -9.366002 17.523668 22.009317 0.780077 0.649819 0.036003 -0.021207 -159303.000000 0 1 0
-9.185809 -10.734902 17.248768 22.296573 0.863005 0.686284 0.035603 -0.020407 -219443.000000 0 1 0
-9.486609 -11.027702 15.746868 21.437579 0.860380 0.745800 0.026891 -0.020449 243666.000000 0 1 0
-10.894009 -10.819602 15.635868 21.914004 0.781971 0.776301 0.039703 -0.019424 350987.000000 0 1 0
-11.459609 -11.280702 14.455568 21.622680 0.777531 0.838556 0.042087 -0.026644 -114371.000000 0 1 0
-11.613909 -12.830202 14.295868 22.447022 0.835115 0.880363 0.025175 -0.021074 -745367.000000 0 1 0
-10.403909 -13.469602 13.983568 22.027520 0.913113 0.883017 0.030921 -0.017323 -130107.000000 0 1 0
-10.490009 -14.862802 14.043068 22.981534 0.956195 0.913399 0.041097 -0.019315 67855.900000 0 1 0
-10.241909 -15.524602 15.460068 24.185195 0.987618 0.877291 0.046289 -0.019075 -646272.000000 0 1 0
-11.313809 -15.275402 16.270368 25.021292 0.933303 0.862869 0.033285 -0.005363 -1015610.000000 0 0 1
-11.035909 -15.606302 17.611568 25.990676 0.955292 0.826287 0.062258 -0.003615 110143.000000 0 0 1
-12.069109 -15.021202 18.630168 26.802669 0.893942 0.802256 0.035480 0.003596 -482175.000000 0 0 1
-12.237609 -13.622502 18.583568 26.089857 0.838900 0.778040 0.049417 0.003755 424546.000000 0 0 1
-13.390809 -13.221502 17.833868 25.926217 0.779036 0.812246 0.051621 -0.004117 475889.000000 0 0 1
-14.757209 -13.411102 18.520468 27.214713 0.737646 0.822309 0.035867 0.003767 -596145.000000 0 0 1
-15.225409 -14.723002 18.687968 28.245708 0.768624 0.847817 0.033930 0.007693 125158.000000 0 0 1
-16.050809 -14.896602 19.837468 29.547628 0.748120 0.834737 0.033407 0.007320 26743.300000 0 0 1
-16.408909 -16.369402 20.168868 30.724466 0.784193 0.854702 0.017864 0.010544 65534.000000 0 0 1
-17.456009 -16.972202 19.424768 31.146260 0.771346 0.897376 0.013173 0.013390 203198.000000 0 0 1
-17.495509 -18.303602 19.687168 32.073342 0.807967 0.909910 0.005548 0.010458 -693492.000000 0 0 1
-18.635609 -18.986502 18.979668 32.680284 0.794725 0.951124 0.023247 0.008647 -826749.000000 0 0 1
-18.576209 -19.019802 17.567368 31.865982 0.797197 0.986888 0.030753 0.001817 147056.000000 0 0 1
-19.259509 -17.957902 16.895668 31.287034 0.750439 1.000334 0.031337 -0.010561 -556802.000000 0 0 1
-18.928709 -17.912702 15.353368 30.247096 0.757827 1.038402 0.034277 -0.018828 -169602.000000 0 0 1
-19.362709 -19.022202 14.558068 30.800909 0.776528 1.078500 0.031986 -0.012803 109659.000000 0 0 1
-19.046909 -18.734302 13.214368 29.805676 0.777124 1.111463 0.035309 -0.012215 127522.000000 0 0 1
-19.237109 -19.962002 12.338968 30.344654 0.803889 1.152037 0.041773 -0.005540 -61444.200000 0 0 1
-18.340509 -20.962502 12.759168 30.636532 0.852012 1.141238 0.038747 -0.003675 136817.000000 0 0 1
-18.717609 -22.209002 12.186268 31.497520 0.870501 1.173533 0.032953 -0.002552 -553693.000000 0 0 1
-17.756709 -23.286402 12.661068 31.903916 0.919321 1.162714 0.031931 -0.007850 -254011.000000 0 0 1
-17.656409 -24.384502 11.831568 32.347159 0.944089 1.196338 0.044200 -0.019051 -15331.600000 0 0 1
-16.777409 -24.363302 10.718168 31.463170 0.967739 1.223180 0.037794 -0.012351 -182783.000000 0 0 1
-16.877909 -25.647982 9.890968 32.257000 0.988776 1.259146 0.045384 -0.011423 343654.000000 0 0 1
-18.173709 -25.917992 9.375368 33.013990 0.959265 1.282852 0.044598 -0.008368 -81123.900000 0 0 1
-18.097809 -26.960062 8.426668 33.546749 0.979605 1.316885 0.052694 -0.012206 -334214.000000 0 0 1
-19.358409 -26.913022 7.598568 34.011718 0.947238 1.345485 0.043750 -0.018447 -478240.000000 0 0 1
-19.418909 -25.691002 6.881868 32.931470 0.923553 1.360269 0.048200 -0.020261 -252275.000000 0 0 1
-20.426209 -25.703552 5.909068 33.358952 0.899305 1.392721 0.048060 -0.019701 -147889.000000 0 0 1
-20.596209 -24.256002 5.339168 32.265526 0.866815 1.404556 0.047365 -0.020208 -246501.000000 0 0 1
-21.370309 -24.225502 4.187068 32.574477 0.847936 1.441901 0.038957 -0.014626 -152784.000000 0 0 1
-21.128709 -22.996002 3.519468 31.426503 0.827691 1.458570 0.042174 -0.018718 -14738.800000 0 0 1
-21.697409 -23.024102 2.114668 31.707391 0.815055 1.504054 0.023652 -0.010600 -130025.000000 0 0 1
-20.991309 -23.738102 1.127668 31.708109 0.846730 1.535225 0.008091 -0.011762 156180.000000 0 0 1
-21.676709 -23.585402 -0.136832 32.033882 0.827543 1.575068 0.002623 0.000769 108219.000000 0 0 1
-21.082209 -24.455302 -1.250132 32.312291 0.859336 1.609495 -0.002123 0.004045 -521528.000000 0 0 1
-19.867209 -23.942402 -1.730032 31.159872 0.878152 1.626346 0.008824 0.003970 114168.000000 0 0 1
-19.162909 -24.673302 -2.769032 31.363298 0.910446 1.659200 0.008213 0.007699 424886.000000 0 0 1
-18.997109 -26.217592 -2.757832 32.493967 0.943754 1.655771 0.005097 0.012930 -1479720.000000 0 0 1
-20.111809 -26.903642 -3.165132 33.738833 0.928865 1.664747 0.022399 0.010962 -964481.000000 0 0 1
-19.751509 -28.161982 -3.798432 34.607043 0.959162 1.680777 0.030005 0.017216 -484715.000000 0 0 1
-20.965709 -28.778442 -4.450832 35.882720 0.941184 1.695155 0.028823 0.012224 -304012.000000 0 0 1
-21.260409 -28.081942 -5.665932 35.674966 0.922776 1.730293 0.020261 0.015349 129977.000000 0 0 1
-22.131909 -28.943422 -6.432432 36.998909 0.917978 1.745539 0.025342 0.002939 599258.000000 0 0 1
-22.743009 -28.287822 -7.697432 37.103851 0.893630 1.779770 0.022222 0.021253 497365.000000 0 0 1
-21.664809 -28.132212 -8.627332 36.540610 0.914551 1.809149 0.043887 0.015739 578778.000000 0 0 1
-22.041009 -28.057202 -9.995932 37.053088 0.904914 1.843954 0.037632 0.014682 84894.700000 0 0 1
-22.908209 -26.929032 -10.619932 36.915332 0.865903 1.862604 0.022416 0.025870 358679.000000 0 0 1
-22.251609 -25.626932 -10.826432 35.624225 0.855779 1.879587 0.016282 0.029705 383699.000000 0 0 1
-21.928709 -24.907002 -9.648632 34.558980 0.848903 1.853750 -0.009151 0.033137 174674.000000 0 0 1
-21.475209 -23.426802 -9.867432 33.277107 0.828834 1.871846 -0.005826 0.027563 816624.000000 0 0 1
-22.599809 -22.667402 -10.355932 33.642351 0.786891 1.883702 -0.000083 0.023990 695220.000000 0 0 1
-22.344209 -21.280802 -10.374332 32.554001 0.761027 1.895134 0.007711 0.023153 -141436.000000 0 0 1
-23.577609 -20.497902 -10.816332 33.061468 0.715638 1.904091 0.024558 0.022411 -278611.000000 0 0 1
-24.028909 -20.645702 -12.162532 33.934653 0.709812 1.937361 0.021474 0.024894 444810.000000 0 0 1
-25.226529 -19.991102 -12.566132 34.553286 0.670129 1.943005 0.023967 0.010567 145225.000000 0 0 1
-25.396739 -18.445502 -12.527232 33.795894 0.628156 1.950530 0.034022 0.006785 -156460.000000 0 0 1
-24.397609 -17.869002 -13.405132 33.079331 0.632147 1.988040 0.041697 0.023494 958108.000000 0 0 1
-24.186709 -16.490002 -13.194832 32.109510 0.598392 1.994273 0.054766 0.003543 128649.000000 0 0 1
-23.183609 -16.175302 -12.040832 30.726239 0.609184 1.973465 0.030753 0.005630 -17267.000000 0 0 1
-23.753909 -16.383902 -10.733132 30.787669 0.603803 1.926892 0.054173 -0.004451 840611.000000 0 0 1
-22.710609 -16.445102 -9.746432 29.685115 0.626728 1.905328 0.033334 -0.003182 392431.000000 0 0 1
-23.169309 -16.893102 -8.386432 29.875174 0.630000 1.855336 0.015465 -0.011932 -168066.000000 0 0 1
-23.398309 -18.278402 -8.315132 30.833784 0.663162 1.843853 0.019328 -0.003875 229979.000000 0 0 1
-24.239409 -18.664202 -7.218932 31.432696 0.656175 1.802528 0.028090 -0.003876 199471.000000 0 0 1
-24.243609 -20.194702 -6.943932 32.307844 0.694536 1.787417 0.025968 0.006509 -1087740.000000 0 0 1
-24.963709 -20.886402 -7.903632 33.494715 0.696705 1.809009 0.020590 -0.008224 -83310.000000 0 0 1
-25.299989 -22.224602 -7.531132 34.507105 0.720777 1.790816 0.025532 0.009290 197745.000000 0 0 1
-25.455449 -23.248502 -8.715032 35.558747 0.740116 1.818407 0.004778 0.027670 62602.200000 0 0 1
-25.969789 -24.437502 -8.173732 36.584578 0.755009 1.796118 0.001976 0.022282 -431196.000000 0 0 1
-26.069319 -25.492782 -9.103332 37.581405 0.774217 1.815460 -0.008937 0.030592 302933.000000 0 0 1
-26.783519 -26.826492 -8.637432 38.879593 0.786200 1.794824 -0.005250 0.021598 -66126.200000 0 0 1
-26.040149 -27.533262 -7.644232 38.660111 0.813261 1.769837 0.007922 0.012940 -4947.920000 0 0 1
-26.729759 -28.580342 -6.977732 39.749273 0.818844 1.747254 0.011260 0.006811 164931.000000 0 0 1
-26.037249 -29.095372 -5.647332 39.450873 0.840810 1.714438 0.020421 0.001512 89477.500000 0 0 1
-26.191019 -28.159302 -4.575932 38.727960 0.821597 1.689229 0.003745 -0.003430 150370.000000 0 0 1
-25.347019 -28.422472 -3.463032 38.240043 0.842533 1.661481 0.014772 -0.002956 158402.000000 0 0 1
-25.850009 -29.533032 -2.484632 39.326789 0.851801 1.634018 0.007499 -0.003171 -163644.000000 0 0 1
-25.813969 -30.831852 -3.041532 40.326356 0.873751 1.646291 0.013925 -0.013971 -142299.000000 0 0 1
-26.098919 -31.927742 -2.161832 41.294162 0.885513 1.623172 0.011995 -0.019274 -384347.000000 0 0 1
-25.021509 -32.304192 -1.135532 40.876964 0.911762 1.598579 0.015494 -0.020034 -326739.000000 0 0 1
-23.858409 -32.811322 -1.797132 40.608327 0.942087 1.615066 0.025568 -0.017837 572566.000000 0 0 1
-22.685209 -32.701062 -0.971832 39.811086 0.964301 1.595210 0.031644 -0.006624 771883.000000 0 0 1
-21.922109 -31.355912 -1.051232 38.273714 0.960649 1.598266 0.048195 -0.006286 -501528.000000 0 0 1
-22.502309 -30.264152 -0.346932 37.714628 0.931449 1.579995 0.028300 -0.001768 -285116.000000 0 0 1
-22.084109 -29.016412 -0.870032 36.474881 0.920235 1.594652 0.019746 -0.003806 -118178.000000 0 0 1
-22.646009 -27.740012 -0.192632 35.810433 0.886155 1.576176 0.012225 0.003935 1083900.000000 0 0 1
-24.092409 -27.631692 -0.276132 36.661026 0.853718 1.578328 0.004502 -0.000187 1358510.000000 0 0 1
-24.722709 -26.401712 0.079568 36.170002 0.818228 1.568597 0.016592 -0.017564 255773.000000 0 0 1
-24.312409 -25.806032 1.470368 35.485300 0.815191 1.529348 0.019787 -0.006510 -691841.000000 0 0 1
-24.747409 -26.485122 2.634268 36.343298 0.819303 1.498250 0.005353 -0.006308 24558.500000 0 0 1
-24.270109 -25.912712 3.824968 35.709063 0.818119 1.463476 0.020977 -0.017644 -8002.090000 0 0 1
-25.117969 -24.704102 4.291168 35.491113 0.777091 1.449592 0.031707 -0.018566 -115709.000000 0 0 1
-25.097779 -23.528502 3.484468 34.577889 0.753137 1.469853 0.032974 -0.019008 45284.000000 0 0 1
-26.170139 -22.633502 3.689468 34.796031 0.713058 1.464565 0.027669 -0.016620 -320292.000000 0 0 1
-26.167309 -21.578602 2.573568 34.014517 0.689586 1.495063 0.021483 -0.017612 -68437.200000 0 0 1
-25.137279 -20.637102 2.812768 32.644822 0.687401 1.484527 0.029141 -0.013573 -18290.900000 0 0 1
-24.967609 -19.808002 1.665368 31.914133 0.670672 1.518590 0.020791 -0.011696 526280.000000 0 0 1
-23.605909 -19.013702 1.710968 30.359302 0.678064 1.514409 0.040188 -0.010801 -162967.000000 0 0 1
-22.579809 -19.868602 1.306468 30.105082 0.721614 1.527386 0.040673 -0.013824 -1251130.000000 0 0 1
-21.447109 -19.095902 1.574768 28.759552 0.727470 1.516013 0.045641 -0.009412 -928184.000000 0 0 1
-20.109009 -19.827202 1.410368 28.275065 0.778342 1.520895 0.043397 -0.015511 -396818.000000 0 0 1
-19.722209 -19.965102 0.067968 28.063774 0.791518 1.568374 0.016866 -0.008511 595267.000000 0 0 1
-18.522809 -20.771002 0.102968 27.830551 0.842551 1.567097 0.027476 -0.003446 756248.000000 0 0 1
-17.918409 -21.150602 -1.278832 27.749824 0.867941 1.616897 0.014589 -0.003501 -42344.600000 0 0 1
-17.478909 -19.988102 -1.910132 26.621140 0.852269 1.642611 0.009175 -0.009630 -293519.000000 0 0 1
-17.333509 -20.326502 -3.256832 26.911413 0.864706 1.692114 0.015401 -0.001473 86920.700000 0 0 1
-16.701309 -19.200102 -4.142232 25.782469 0.854888 1.732156 0.021994 0.000789 397699.000000 0 0 1
-15.286509 -19.145602 -4.061132 24.833933 0.897011 1.735066 0.041215 -0.010865 225572.000000 0 1 0
-14.758909 -18.410302 -5.189332 24.159755 0.895040 1.787276 0.046121 -0.012198 1017490.000000 0 1 0
-13.191709 -18.441302 -5.296832 23.284313 0.949852 1.800291 0.055990 -0.013365 1059390.000000 0 1 0
-12.511509 -19.700102 -5.413732 23.957053 1.004968 1.798742 0.045866 -0.015049 620433.000000 0 1 0
-11.140409 -19.431502 -5.743132 23.123052 1.050228 1.821796 0.039885 -0.018221 416006.000000 0 1 0
-10.248609 -20.622102 -5.824232 23.753458 1.109574 1.818517 0.044897 -0.023599 -471876.000000 0 1 0
-10.655209 -21.564702 -6.787132 24.992699 1.111877 1.845815 0.059276 -0.019968 -240382.000000 0 1 0
-9.657609 -22.535202 -7.026232 25.504366 1.165917 1.849897 0.062598 -0.022088 -65621.800000 0 0 1
-10.062409 -23.603102 -8.110932 26.909956 1.167811 1.876968 0.066682 -0.014826 -316218.000000 0 0 1
-10.356809 -23.003902 -9.343532 26.902502 1.147760 1.925498 0.051501 -0.001174 -129673.000000 0 0 1
-10.864209 -23.963602 -10.232632 28.231047 1.145149 1.941703 0.056038 0.001883 -348009.000000 0 0 1
-11.514109 -23.339502 -11.444832 28.430463 1.112498 1.985103 0.068729 0.000091 -385816.000000 0 0 1
-10.745709 -22.642002 -12.403232 27.963739 1.127681 2.030349 0.052432 0.004226 -692458.000000 0 0 1
-11.579909 -22.143702 -13.398632 28.354209 1.088963 2.062972 0.058949 -0.000157 -679789.000000 0 0 1
-11.016509 -21.057802 -14.250132 27.710301 1.088796 2.110934 0.051073 0.001230 -441587.000000 0 0 1
-10.856409 -19.877202 -13.511432 26.372781 1.070895 2.108686 0.045068 0.003697 -152267.000000 0 0 1
-10.660909 -18.774802 -14.352832 25.925894 1.054367 2.157489 0.024615 0.011403 -110829.000000 0 0 1
-10.291809 -17.550902 -13.520032 24.428401 1.040439 2.157304 0.038719 0.005096 -1060940.000000 0 1 0
-11.324809 -16.991202 -12.795232 24.097100 0.982902 2.130561 0.046327 -0.000532 -762451.000000 0 1 0
-10.985509 -16.131602 -11.708032 22.759350 0.972941 2.111136 0.043512 -0.008561 179596.000000 0 1 0
-10.459709 -14.659902 -12.019132 21.651277 0.951073 2.159308 0.038681 -0.009173 -107875.000000 0 1 0
-11.440209 -13.837702 -12.554332 21.908255 0.879961 2.181008 0.034928 -0.006800 -501475.000000 0 1 0
-11.445409 -13.891802 -13.956732 22.776521 0.881653 2.230355 0.040184 -0.003850 -702471.000000 0 1 0
-12.673809 -13.265202 -14.571632 23.429116 0.808194 2.242021 0.029781 -0.006664 -788180.000000 0 1 0
-12.879009 -11.907702 -14.211932 22.575235 0.746232 2.251753 0.032876 -0.005526 -106891.000000 0 1 0
-13.990309 -11.311202 -14.868232 23.339588 0.679904 2.261447 0.026676 -0.016390 -86203.100000 0 1 0
-14.240409 -9.896302 -14.353232 22.510915 0.607325 2.262191 0.027187 -0.015285 -531314.000000 0 1 0
-13.294109 -8.873802 -14.454232 21.550001 0.588578 2.305989 0.027862 -0.008319 -367839.000000 0 1 0
-13.131909 -8.288202 -15.704432 22.085527 0.563009 2.361820 0.021180 -0.007332 321256.000000 0 1 0
-11.959109 -7.257702 -15.765732 21.077306 0.545460 2.415833 0.013736 0.000624 708198.000000 0 1 0
-10.655109 -7.770802 -15.977832 20.717332 0.630123 2.451568 0.014201 0.003935 530524.000000 0 1 0
-9.618709 -6.823602 -15.779132 19.699292 0.617013 2.499760 0.009647 0.009054 311492.000000 0 1 0
11.457991 22.504098 16.111768 29.955117 1.099854 1.002895 0.073536 -0.017412 -156878.000000 0 0 1
12.293291 22.276298 17.245868 30.737248 1.066530 0.975114 0.087268 -0.022200 91999.900000 0 0 1
12.474591 20.861198 17.309668 29.840067 1.031863 0.951968 0.072838 -0.016162 575264.000000 0 0 1
13.764991 20.523498 18.146368 30.659087 0.980011 0.937412 0.065397 -0.016590 357268.000000 0 0 1
14.958591 21.092498 17.688468 31.329456 0.953929 0.970853 0.044677 -0.009388 66300.100000 0 0 1
15.996891 20.872398 18.665068 32.248136 0.916873 0.953546 0.032628 -0.009954 559159.000000 0 0 1
17.411391 21.216798 18.159668 32.910220 0.883595 0.986282 0.009456 0.005337 -807224.000000 0 0 1
17.692491 22.625698 18.326468 34.070601 0.907150 1.002856 0.014371 0.000868 394881.000000 0 0 1
18.871391 23.165598 17.728868 34.743159 0.887198 1.035282 0.010232 0.001761 575385.000000 0 0 1
20.236591 22.731098 18.320068 35.522490 0.843388 1.028935 -0.003128 0.004758 -391246.000000 0 0 1
20.474391 21.435998 17.966668 34.662716 0.808338 1.025901 0.013837 -0.001660 1374350.000000 0 0 1
21.710991 20.945698 18.609768 35.445915 0.767459 1.018059 0.017852 0.002839 1446720.000000 0 0 1
21.861491 19.431298 18.448568 34.581061 0.726613 1.008078 0.026631 -0.012219 -277664.000000 0 0 1
22.089691 18.970598 17.118468 33.776915 0.709580 1.039316 0.015691 -0.009686 193725.000000 0 0 1
21.858691 17.545598 17.022268 32.793414 0.676375 1.025027 0.017544 -0.007957 362339.000000 0 0 1
22.930291 16.666498 17.779668 33.461724 0.628509 1.010611 0.002480 -0.003714 -587768.000000 0 0 1
24.188491 16.731298 17.245068 34.094161 0.605137 1.040479 0.013444 -0.015157 -405564.000000 0 0 1
25.167291 15.893798 17.889268 34.727961 0.563278 1.029642 0.003492 -0.017981 1601500.000000 0 0 1
26.579291 15.779798 17.188768 35.368269 0.535765 1.063296 0.028480 -0.028692 283651.000000 0 0 1
27.410191 16.920798 17.270068 36.549791 0.553056 1.078662 0.025598 -0.024297 733990.000000 0 0 1
28.824591 16.857798 17.295068 37.605342 0.529198 1.092903 0.039910 -0.026674 304288.000000 0 0 1
29.570691 15.891798 16.379268 37.353118 0.493131 1.116870 0.047354 -0.034141 -1135000.000000 0 0 1
29.422291 16.060998 14.979168 36.715151 0.499673 1.150552 0.044444 -0.038132 27220.800000 0 0 1
29.467091 14.798598 14.358668 35.964973 0.465412 1.160108 0.072105 -0.040632 -7781.770000 0 0 1
28.731491 14.798998 13.021368 34.843435 0.475638 1.187790 0.059732 -0.025470 -192330.000000 0 0 1
29.484791 15.568698 12.095968 35.468996 0.485815 1.222785 0.048947 -0.014398 409181.000000 0 0 1
28.744791 15.849498 10.928568 34.596289 0.503907 1.249403 0.030037 -0.009709 1115480.000000 0 0 1
27.388291 16.669198 11.052268 33.913615 0.546737 1.238838 0.013688 -0.009662 627026.000000 0 0 1
27.504091 18.082398 11.261068 34.788788 0.581590 1.241161 -0.004194 -0.003847 -158210.000000 0 0 1
27.947691 18.518898 12.520668 35.788129 0.585201 1.213380 0.003884 -0.007183 -1171430.000000 0 0 1
27.159291 18.160698 13.741868 35.443998 0.589391 1.172654 0.002153 -0.016679 -262624.000000 0 0 1
25.950491 18.905398 13.857368 34.969540 0.629610 1.163346 -0.004485 0.002280 119564.000000 0 0 1
25.345691 18.816898 15.149468 35.014084 0.638626 1.123346 0.007120 -0.003815 -32568.200000 0 0 1
25.921791 19.674398 16.316868 36.404139 0.649230 1.106029 0.012638 -0.014522 -138261.000000 0 0 1
26.068791 21.121098 16.162768 37.241344 0.680933 1.121868 -0.001454 -0.006896 737338.000000 0 0 1
24.847391 21.805498 16.506068 36.950276 0.720288 1.107711 0.019651 -0.007823 515314.000000 0 0 1
24.868691 23.325598 16.294768 37.789612 0.753391 1.124977 0.015195 0.002688 -190201.000000 0 0 1
24.705491 23.675798 14.938768 37.337267 0.764118 1.159167 0.036623 -0.006735 42264.100000 0 0 1
24.854491 25.038598 14.727968 38.230749 0.789088 1.175330 0.026660 -0.002954 -346027.000000 0 0 1
24.696591 25.483398 13.237968 37.875704 0.801077 1.213747 0.028659 -0.009424 823087.000000 0 0 1
23.349491 25.352898 12.742068 36.746816 0.826511 1.216689 0.044044 -0.005437 989034.000000 0 0 1
23.383991 25.749298 11.426868 36.611620 0.833502 1.253383 0.050873 -0.021153 8634.520000 0 0 1
22.658491 24.728298 10.536568 35.155586 0.829049 1.266405 0.050391 -0.022182 -1781230.000000 0 0 1
21.308191 24.615798 10.786768 34.297680 0.857298 1.250862 0.053834 -0.020377 -1117340.000000 0 0 1
20.861391 23.324398 10.394668 32.973843 0.841083 1.250087 0.048978 -0.012366 16213.500000 0 0 1
20.698991 23.119498 8.870168 32.274437 0.840581 1.292378 0.056899 -0.003043 -1246060.000000 0 0 1
19.585691 23.711798 8.299668 31.854876 0.880408 1.307208 0.070529 -0.009544 -722214.000000 0 0 1
19.634491 23.835298 6.885568 31.639307 0.881736 1.351414 0.061059 -0.025139 -357343.000000 0 0 1
18.298991 24.174898 6.206968 30.948428 0.922867 1.368868 0.058193 -0.021396 -1456010.000000 0 0 1
17.459891 23.049098 6.199868 29.572742 0.922507 1.359581 0.064691 -0.010634 4855.840000 0 0 1
16.429991 23.118198 5.224568 28.839067 0.952928 1.388628 0.082033 -0.022144 658106.000000 0 0 1
15.215191 24.069698 5.517268 29.005045 1.007086 1.379413 0.037918 -0.020086 -402516.000000 0 0 1
15.628191 25.431998 5.713068 30.391874 1.019777 1.381691 0.049905 -0.026441 -30863.600000 0 0 1
14.627691 26.211498 6.337468 30.678583 1.061783 1.362722 0.028983 -0.026729 4116.830000 0 0 1
14.425391 27.588998 5.594768 31.631411 1.089023 1.392987 0.028993 -0.026005 -308010.000000 0 0 1
13.818391 27.392898 4.313968 30.982723 1.103594 1.431105 0.018341 -0.004118 394107.000000 0 0 1
13.761591 28.639998 3.699768 31.989360 1.122868 1.454881 0.012044 -0.006884 154404.000000 0 0 1
13.111591 28.394898 2.269968 31.358202 1.138207 1.498345 0.015796 -0.005869 22488.600000 0 0 1
14.045591 27.872198 1.368568 31.241175 1.104011 1.526976 0.029016 -0.010461 154953.000000 0 0 1
13.456591 26.915398 0.463068 30.095397 1.107182 1.555409 0.013006 -0.003083 31750.000000 0 0 1
14.426591 26.512798 -0.647932 30.190641 1.072466 1.592259 0.020429 -0.005987 85246.300000 0 0 1
14.217091 27.108598 -1.898632 30.669310 1.087781 1.632743 0.019711 -0.005213 -507864.000000 0 0 1
15.379491 26.982998 -2.681132 31.173697 1.052751 1.656909 0.041011 -0.002151 -58429.600000 0 0 1
15.523891 27.570698 -4.111432 31.906715 1.057983 1.700014 0.043690 -0.005752 -937245.000000 0 0 1
14.550091 27.035098 -4.965932 31.100839 1.077063 1.731155 0.063298 -0.019649 -300370.000000 0 0 1
14.822991 27.395498 -6.297432 31.778799 1.074832 1.770281 0.068549 -0.023197 332552.000000 0 0 1
13.593991 27.109198 -7.197332 31.169004 1.105987 1.803812 0.079258 -0.032570 460080.000000 0 0 1
13.250591 25.745898 -7.255032 29.850711 1.095483 1.816299 0.066041 -0.032732 -321841.000000 0 0 1
11.962191 25.508198 -7.766232 29.224588 1.132292 1.839771 0.044796 -0.032408 -610.080000 0 0 1
11.713291 24.105198 -8.247232 28.040660 1.118473 1.869328 0.052155 -0.019023 1705.170000 0 0 1
12.322391 23.693598 -9.462232 28.333051 1.091220 1.911303 0.047889 -0.022950 -187133.000000 0 0 1
11.767691 22.502098 -9.940932 27.269857 1.088950 1.943934 0.061086 -0.013113 -115864.000000 0 0 1
12.402591 21.946898 -11.216532 27.591687 1.056420 1.989437 0.062705 -0.017372 -28534.600000 0 0 1
11.688491 20.793098 -11.623532 26.534511 1.058686 2.024228 0.063064 -0.012975 -178993.000000 0 0 1
11.863691 20.297098 -12.952232 26.841753 1.041850 2.074349 0.054966 -0.012885 -37941.800000 0 0 1
13.192391 19.599998 -13.334432 27.129434 0.978366 2.084621 0.051735 -0.009485 25453.700000 0 0 1
14.277291 20.473798 -13.389732 28.324943 0.961855 2.063170 0.047390 -0.007187 -544628.000000 0 0 1
15.489191 19.868598 -13.824132 28.736438 0.908630 2.072667 0.048456 -0.006045 2038.070000 0 0 1
16.670591 20.737498 -13.456532 29.816618 0.893690 2.039029 0.042137 0.009709 -747225.000000 0 0 1
16.939091 21.918898 -14.245732 31.149828 0.912857 2.045786 0.041229 0.003176 -192793.000000 0 0 1
16.024491 22.982898 -14.102332 31.366761 0.961928 2.037108 0.046718 -0.004826 -72707.100000 0 0 1
16.551191 24.313498 -14.658432 32.862711 0.973113 2.033144 0.036329 -0.006920 50359.400000 0 0 1
16.701591 24.350198 -16.062632 33.613739 0.969602 2.069012 0.024066 0.000710 -17502.000000 0 0 1
15.473291 24.610498 -16.733832 33.542816 1.009521 2.093102 0.032530 0.003770 279884.000000 0 0 1
15.491691 24.610498 -18.288032 34.352893 1.008986 2.132180 0.011353 0.017630 93860.700000 0 0 1
15.871691 23.358198 -18.819232 33.936404 0.973968 2.158611 0.012784 0.017668 -139126.000000 0 0 1
15.666491 23.423998 -20.223232 34.685757 0.981303 2.193264 0.010678 0.018333 -555541.000000 0 0 1
16.066391 22.167398 -21.000532 34.504273 0.943635 2.225136 0.017332 0.014092 -283645.000000 0 0 1
15.187191 21.072698 -20.918732 33.351203 0.946309 2.248782 0.012569 0.011941 -375863.000000 0 0 1
15.729591 19.992798 -21.586332 33.363180 0.904179 2.274454 0.018750 0.009976 -17269.900000 0 0 1
14.777491 18.766398 -21.675932 32.255201 0.903758 2.307721 0.007699 0.009988 -441634.000000 0 0 1
14.365391 18.253798 -20.388732 30.907378 0.904044 2.291179 0.012115 -0.000470 135454.000000 0 0 1
13.526391 17.125298 -20.441332 29.901290 0.902276 2.323517 0.012480 -0.004074 -350911.000000 0 0 1
12.085891 17.354398 -20.912632 29.741925 0.962479 2.350595 0.015020 -0.003290 -909835.000000 0 0 1
11.196891 17.476098 -19.836132 28.709868 1.000989 2.333553 0.021770 -0.005005 68653.500000 0 0 1
9.849391 17.759198 -20.168032 28.620782 1.064422 2.352746 0.013040 0.000085 333958.000000 0 0 1
8.783091 17.213398 -19.225932 27.259498 1.098984 2.353633 0.021390 -0.012374 -246928.000000 0 0 1
8.785091 15.795498 -19.272732 26.421843 1.063223 2.388276 0.028455 -0.016457 711754.000000 0 0 1
7.648891 15.214298 -18.587432 25.208591 1.104956 2.399928 0.029624 -0.018418 732175.000000 0 0 1
7.653891 15.119198 -17.053832 24.041743 1.102172 2.359361 0.026599 -0.033451 -240053.000000 0 1 0
7.600191 16.396898 -16.432832 24.426607 1.136761 2.308706 0.028873 -0.034381 -389729.000000 0 1 0
6.811091 16.453798 -15.284232 23.467556 1.178320 2.280082 0.033363 -0.038138 122624.000000 0 1 0
6.087591 17.842698 -15.073532 24.137772 1.242000 2.245261 0.043186 -0.021349 -304357.000000 0 1 0
6.988191 18.880198 -14.924932 25.060932 1.216299 2.208741 0.034201 -0.024193 -566772.000000 0 0 1
7.135091 19.661698 -16.116032 26.404893 1.222682 2.227289 0.037927 -0.018579 422246.000000 0 0 1
8.430691 20.564698 -15.968032 27.367159 1.181734 2.193796 0.022626 -0.002559 912339.000000 0 0 1
8.215591 21.781098 -15.205432 27.804988 1.210108 2.149405 0.012220 -0.014647 24384.200000 0 0 1
8.016091 21.595898 -13.809932 26.858048 1.215374 2.110850 0.003252 -0.012365 -206847.000000 0 0 1
8.019691 22.893498 -13.028332 27.534799 1.233850 2.063669 0.015891 -0.017132 220648.000000 0 0 1
6.799891 23.606998 -13.253332 27.913790 1.290343 2.065528 0.021219 -0.013066 -6546.970000 0 0 1
6.554091 24.677398 -12.412232 28.390026 1.311199 2.023284 0.010827 -0.016942 220343.000000 0 0 1
5.801191 24.345498 -11.071432 27.366653 1.336873 1.987293 0.000067 -0.020646 -306880.000000 0 0 1
6.673791 23.772498 -10.098432 26.676759 1.297105 1.959023 -0.006813 -0.019681 -203944.000000 0 0 1
6.052491 23.177498 -8.981232 25.583033 1.315364 1.929501 0.002972 -0.024576 -266359.000000 0 0 1
6.935891 23.045998 -7.733932 25.279207 1.278460 1.881722 0.001139 -0.025344 -21222.300000 0 0 1
7.152891 24.282598 -7.049232 26.277369 1.284330 1.842385 -0.003487 -0.027179 -219043.000000 0 0 1
8.103491 24.211498 -6.026432 26.233206 1.247820 1.802592 0.009827 -0.023317 -204849.000000 0 0 1
8.358691 25.538798 -5.360732 27.401375 1.254491 1.767704 0.000018 -0.025825 -17564.500000 0 0 1
8.854491 26.451198 -6.298232 28.596077 1.247773 1.792865 0.019926 -0.028134 -123793.000000 0 0 1
9.141491 27.680598 -5.732132 29.709253 1.251824 1.764955 0.013773 -0.025167 98769.000000 0 0 1
9.383691 28.893598 -6.648232 31.098114 1.256775 1.786242 0.017526 -0.021938 897441.000000 0 0 1
10.716591 29.021198 -7.173332 31.757392 1.217061 1.798642 0.029082 -0.025191 512636.000000 0 0 1
10.733491 30.126998 -8.059432 32.981787 1.228542 1.817656 0.034060 -0.024343 316408.000000 0 0 1
12.105891 30.203598 -8.777732 33.702500 1.189592 1.834282 0.045238 -0.028293 445322.000000 0 0 1
13.188491 30.414098 -7.887332 34.075852 1.161638 1.804379 0.048234 -0.021845 -484389.000000 0 0 1
14.278991 30.891798 -8.635732 35.110805 1.137822 1.819303 0.047937 -0.024399 491312.000000 0 0 1
15.565091 31.291898 -7.829032 35.815481 1.109218 1.791169 0.047741 -0.024676 684360.000000 0 0 1
16.349391 30.176598 -7.459432 35.122255 1.074278 1.784811 0.048121 -0.016509 -299148.000000 0 0 1
17.477791 30.602198 -6.714032 35.875423 1.051876 1.759055 0.046064 -0.005787 -157269.000000 0 0 1
18.422291 29.487898 -6.363432 35.346997 1.012383 1.751811 0.040705 -0.006905 -883477.000000 0 0 1
17.991991 28.546198 -5.376032 34.168683 1.008412 1.728791 0.049713 -0.005440 -443560.000000 0 0 1
18.997391 27.647498 -4.906132 33.902141 0.968761 1.716021 0.040916 -0.005657 -126321.000000 0 0 1
19.314591 26.474398 -5.868932 33.292515 0.940507 1.748006 0.039563 -0.001648 118880.000000 0 0 1
19.840891 26.926298 -7.143732 34.201161 0.935758 1.781220 0.031609 -0.002510 281369.000000 0 0 1
19.574191 25.984998 -8.133132 33.533818 0.925194 1.815775 0.027907 -0.013599 -613424.000000 0 0 1
20.240291 26.302598 -9.535632 34.531498 0.914921 1.850575 0.024695 -0.013520 929278.000000 0 0 1
21.667091 26.393098 -9.677132 35.492328 0.883418 1.846947 0.027794 -0.009326 931481.000000 0 0 1
22.327391 25.143298 -9.430232 34.923160 0.844648 1.844218 0.030854 -0.006849 -732830.000000 0 0 1
23.849991 25.274498 -9.334232 35.982638 0.814388 1.833207 0.025957 -0.005363 116460.000000 0 0 1
24.541591 25.579698 -10.573432 36.992001 0.806107 1.860669 0.028457 -0.005923 1658270.000000 0 0 1
25.980791 25.623398 -10.366232 37.934401 0.778473 1.847584 0.027955 -0.000193 1746030.000000 0 0 1
26.893691 25.735698 -11.619032 38.994855 0.763399 1.873355 0.026531 -0.000957 248979.000000 0 0 1
26.745291 26.920998 -12.362432 39.910907 0.788672 1.885727 0.029281 -0.000300 296580.000000 0 0 1
27.795591 27.021898 -13.338732 40.996337 0.771285 1.902193 0.032148 0.002428 542547.000000 0 0 1
27.537591 27.994298 -14.496732 41.858749 0.793622 1.924447 0.039913 -0.000105 -254007.000000 0 0 1
27.677391 29.352298 -14.141332 42.750119 0.814759 1.907937 0.030039 -0.008244 -67518.900000 0 0 1
27.542191 30.129598 -15.327232 43.603773 0.830232 1.929982 0.029102 -0.003118 -187128.000000 0 0 1
27.846191 31.668098 -15.160132 44.811923 0.849528 1.915912 0.029911 -0.010347 537749.000000 0 0 1
29.204891 32.009698 -14.887732 45.816929 0.831185 1.901744 0.025207 -0.009352 392517.000000 0 0 1
29.388691 33.411798 -15.003832 46.959114 0.849372 1.896007 0.024621 -0.015303 104981.000000 0 0 1
14.681691 -32.794466 -28.685823 45.977228 -1.149867 2.244537 0.053144 -0.014714 612638.000000 0 0 1
15.915691 -33.083666 -28.018433 46.183014 -1.122404 2.222677 0.041493 -0.007300 830294.000000 0 0 1
16.278191 -32.095066 -27.045753 45.017169 -1.101416 2.215282 0.040453 -0.009923 -607243.000000 0 0 1
17.418191 -32.593566 -26.136043 45.263967 -1.080004 2.186354 0.014507 0.001679 127298.000000 0 0 1
18.769191 -32.491766 -26.523133 45.950778 -1.046965 2.186101 0.016550 -0.001707 311616.000000 0 0 1
19.191591 -33.075066 -27.741713 47.242775 -1.045030 2.198411 0.010675 0.007442 -1045140.000000 0 0 1
20.693691 -32.827266 -27.948453 47.822320 -1.008337 2.194965 0.018519 0.009449 -210925.000000 0 0 1
20.984791 -31.478266 -28.205823 47.189100 -0.982810 2.211449 0.013465 -0.000813 514559.000000 0 0 1
22.352991 -31.234366 -27.868963 47.454409 -0.949642 2.198489 0.007450 0.006684 544928.000000 0 0 1
23.074891 -30.051666 -28.594053 47.467601 -0.915975 2.217289 -0.000377 0.011523 -26335.400000 0 0 1
23.244491 -30.303866 -29.966943 48.545323 -0.916474 2.236100 -0.000403 0.012614 219763.000000 0 0 1
23.896791 -29.248966 -30.669563 48.653682 -0.885767 2.252819 0.004548 0.001265 189933.000000 0 0 1
23.876591 -29.481966 -32.181413 49.748581 -0.890065 2.274284 0.008403 0.008063 88825.100000 0 0 1
25.025391 -30.231666 -32.508953 50.961317 -0.879340 2.262583 0.011676 -0.002730 65562.300000 0 0 1
25.029291 -30.501966 -33.920743 52.033183 -0.883632 2.280892 0.008266 -0.004716 -369435.000000 0 0 1
26.352891 -31.112166 -34.338000 53.306097 -0.868030 2.270729 0.009245 -0.009841 106829.000000 0 0 1
27.506091 -30.277566 34.336903 53.407293 -0.833324 0.872485 0.017932 -0.020455 949895.000000 0 0 1
28.712191 -31.028366 34.143051 54.340568 -0.824149 0.891410 0.027652 -0.012333 868643.000000 0 0 1
30.057691 -30.287866 34.202338 54.686557 -0.789212 0.895120 0.037755 -0.020518 -27400.900000 0 0 1
30.162391 -29.362166 33.123671 53.563833 -0.771955 0.904096 0.020250 -0.013581 150546.000000 0 0 1
31.461691 -28.839466 32.875655 53.873569 -0.741940 0.914436 0.024417 -0.020549 292389.000000 0 0 1
31.475491 -27.872266 31.658698 52.629297 -0.724759 0.925367 0.014746 -0.012081 -133667.000000 0 0 1
32.758491 -27.282866 31.596098 53.063989 -0.694452 0.932991 0.010680 -0.020333 279003.000000 0 0 1
32.806491 -26.437866 30.449268 51.984464 -0.678312 0.945006 0.011793 -0.005661 -253819.000000 0 0 1
33.292691 -27.001866 29.101018 51.810938 -0.681439 0.974385 0.005371 -0.001846 -362018.000000 0 0 1
32.480891 -27.986366 28.473128 51.468087 -0.711205 0.984573 -0.010890 -0.008304 248416.000000 0 0 1
31.514891 -27.481766 27.590068 50.096384 -0.717142 0.987546 0.003327 -0.006929 -96161.700000 0 0 1
31.259891 -28.368266 26.323138 49.747833 -0.736942 1.013220 -0.005121 -0.003980 113629.000000 0 0 1
30.137191 -27.909666 25.590848 48.395157 -0.747042 1.013623 -0.005771 -0.001638 182148.000000 0 0 1
29.515491 -29.006166 24.938998 48.316410 -0.776695 1.028435 -0.009511 0.002508 -456830.000000 0 0 1
28.140291 -28.673266 24.363758 46.985369 -0.794779 1.025655 -0.011273 0.004894 -627843.000000 0 0 1
27.151491 -28.583666 25.345768 46.868298 -0.811089 0.999424 -0.017588 0.005100 294910.000000 0 0 1
25.895191 -28.219266 24.753318 45.602792 -0.828319 0.997026 -0.011461 0.005721 655343.000000 0 0 1
24.684691 -28.043866 25.676368 45.332861 -0.849019 0.968670 -0.000253 -0.004492 -466221.000000 0 0 1
24.731291 -26.902966 26.558108 45.174544 -0.827432 0.942336 -0.012115 -0.001853 -525706.000000 0 0 1
23.563791 -26.857166 27.295088 44.962000 -0.850623 0.918428 -0.005796 -0.006838 -983932.000000 0 0 1
23.583691 -25.715366 28.334028 44.947610 -0.828611 0.888755 -0.006412 0.012515 -645670.000000 0 0 1
22.515991 -25.756766 29.263638 45.019344 -0.852432 0.863181 0.015942 0.003816 223075.000000 0 0 1
22.378791 -24.629266 30.085378 44.861353 -0.833236 0.835738 0.016972 0.008324 -287016.000000 0 0 1
21.721791 -23.360366 29.437338 43.406218 -0.821729 0.825510 0.022948 0.000959 -261071.000000 0 0 1
22.484891 -22.673266 28.441338 42.761630 -0.789570 0.843151 0.037368 -0.007437 207464.000000 0 0 1
21.997691 -21.389566 28.180028 41.659644 -0.771383 0.827885 0.047054 -0.002326 -721.024000 0 0 1
22.685891 -20.190866 28.912928 41.931827 -0.727273 0.809967 0.047475 0.000507 43563.600000 0 0 1
22.373791 -20.155366 30.284228 42.707842 -0.733283 0.782572 0.045687 0.006056 397811.000000 0 0 1
23.361491 -19.363866 30.919648 43.321394 -0.692104 0.775991 0.061404 0.001586 -86929.000000 0 0 1
22.958291 -18.923866 32.349568 43.951000 -0.689366 0.743599 0.082845 -0.008602 -468629.000000 0 0 1
22.951991 -19.841166 33.431518 45.145677 -0.712831 0.736945 0.050370 -0.008649 271941.000000 0 0 1
22.330391 -19.377366 -34.135529 45.159307 -0.714713 2.427811 0.045189 -0.009664 -313277.000000 0 0 1
22.259591 -20.444066 -33.023443 44.766025 -0.742909 2.400439 0.034036 -0.007619 250607.000000 0 0 1
23.401391 -20.815966 -32.254373 44.958582 -0.726994 2.370894 0.026604 -0.002512 173561.000000 0 0 1
23.131691 -22.044766 -31.647553 44.973486 -0.761343 2.351379 0.024682 0.005239 459202.000000 0 0 1
24.217191 -22.357366 -30.553813 44.942849 -0.745487 2.318337 0.013618 0.003215 420342.000000 0 0 1
25.420891 -22.840766 -31.075523 46.191021 -0.731988 2.308731 0.009207 0.002798 -256904.000000 0 0 1
26.196391 -23.613566 -30.153443 46.401310 -0.733591 2.278171 0.001988 0.001263 801420.000000 0 0 1
27.489791 -24.272466 -30.712993 47.834393 -0.723322 2.267991 -0.001724 0.002578 482448.000000 0 0 1
28.387191 -23.488466 -31.513193 48.483213 -0.691245 2.278356 0.007593 -0.002660 358247.000000 0 0 1
28.169891 -23.500866 -32.933013 49.299258 -0.695282 2.302344 0.010296 -0.005588 -42049.200000 0 0 1
28.577791 -24.793066 -33.700893 50.666917 -0.714603 2.298486 0.010184 -0.012085 -181225.000000 0 0 1
27.768091 -25.891066 -33.336483 50.524601 -0.750432 2.291358 0.026679 -0.011277 -110494.000000 0 0 1
28.077291 -27.124566 -33.916703 51.714786 -0.768141 2.286093 0.022117 -0.016133 -62489.400000 0 0 1
27.547391 -27.255166 33.370294 51.139802 -0.780066 0.859877 0.013915 -0.002656 -312729.000000 0 0 1
28.142591 -26.373266 32.451208 50.404717 -0.752954 0.871325 0.001284 -0.005840 -106260.000000 0 0 1
27.620591 -26.386766 31.113528 49.266724 -0.762557 0.887268 0.007227 -0.002366 -7821.960000 0 0 1
28.637391 -25.662866 30.158018 48.869100 -0.730674 0.905721 0.004705 -0.011123 277425.000000 0 0 1
28.802891 -24.271966 30.143208 48.242594 -0.700236 0.895888 0.004762 -0.012181 157572.000000 0 0 1
29.242091 -23.719666 31.409578 49.033499 -0.681502 0.875551 0.001403 -0.007933 -1363570.000000 0 0 1
29.765391 -22.206566 31.237528 48.527242 -0.640970 0.871458 0.012190 -0.011210 1270500.000000 0 0 1
31.082691 -22.095266 30.668668 48.937732 -0.617974 0.893501 0.010106 -0.006464 1515400.000000 0 0 1
32.148191 -22.708166 31.429798 50.368633 -0.614981 0.896951 0.008081 -0.013785 -411843.000000 0 0 1
33.579491 -22.348866 31.010578 50.879367 -0.587230 0.915376 0.007252 -0.020238 -210949.000000 0 0 1
33.910091 -22.726866 29.685298 50.473970 -0.590451 0.942051 0.015062 -0.014979 1159810.000000 0 0 1
35.240991 -22.230266 29.387998 50.987906 -0.562764 0.956514 -0.001641 -0.025002 1028080.000000 0 0 1
35.652391 -22.459966 27.933618 50.555218 -0.562166 0.985392 0.007659 -0.019516 -180438.000000 0 0 1
-35.367767 -23.781566 27.635948 50.795545 0.591967 0.995525 0.000288 -0.003878 305442.000000 0 0 1
-35.238767 -23.931866 26.229108 50.024704 0.596585 1.018876 -0.000308 0.003869 -57966.500000 0 0 1
-35.068467 -25.367466 25.820228 50.398312 0.626239 1.032908 -0.005216 -0.007136 454321.000000 0 0 1
35.158991 -26.040066 26.017048 50.903109 -0.637482 1.034322 -0.002596 -0.002407 679316.000000 0 0 1
35.290391 -27.390466 25.679828 51.527691 -0.660025 1.049079 -0.006925 0.007267 199830.000000 0 0 1
-35.526667 -28.280966 26.788418 52.721688 0.672327 1.037807 -0.002831 0.003765 -604845.000000 0 0 1
-35.410367 -29.611966 26.208258 53.081403 0.696458 1.054414 0.001399 -0.000067 812580.000000 0 0 1
-34.309767 -30.388366 26.742308 53.063772 0.724861 1.042613 0.009541 -0.010619 1635990.000000 0 0 1
-32.857467 -29.850666 26.445788 51.672576 0.737486 1.033523 0.030231 -0.008694 -8641.870000 0 0 1
-32.478867 -29.853166 25.083368 50.747056 0.743299 1.053787 0.024903 -0.007292 129978.000000 0 0 1
-31.139467 -29.420866 24.934958 49.568194 0.757027 1.043680 0.014799 -0.005574 216945.000000 0 0 1
-30.556867 -29.427166 23.494868 48.494216 0.766567 1.065018 0.010290 -0.003682 -202925.000000 0 0 1
-30.256667 -30.699566 23.038468 48.874331 0.792664 1.079939 0.012814 -0.009651 309959.000000 0 0 1
-29.684767 -30.682666 21.745668 47.911225 0.801927 1.099688 0.011345 -0.007368 -482450.000000 0 0 1
-29.571467 -32.112466 21.115668 48.492820 0.826569 1.120270 0.013523 -0.003654 191462.000000 0 0 1
-28.591167 -32.962166 21.709268 48.736552 0.856291 1.109129 0.014567 -0.015374 -309338.000000 0 0 1
-27.312067 -32.773466 21.201168 47.639675 0.876043 1.109587 0.032167 -0.010122 -1029020.000000 0 0 1
-26.579667 -34.066266 20.897968 47.997023 0.908224 1.120312 0.025140 -0.002222 -635653.000000 0 0 1
-27.231867 33.952998 19.882968 47.850946 -0.894809 1.142283 0.012567 0.000321 331700.000000 0 0 1
-28.330567 33.143098 20.274068 48.084548 -0.863525 1.135550 0.016133 -0.001125 70434.300000 0 0 1
-28.044467 32.040298 21.313568 47.616604 -0.851804 1.106708 0.020485 0.003540 -120295.000000 0 0 1
-27.235567 30.941698 20.873968 46.204841 -0.849016 1.102048 0.018350 0.002905 234252.000000 0 0 1
-27.190867 29.944198 21.860468 45.976932 -0.833551 1.075303 0.024249 -0.003103 -70710.500000 0 0 1
-26.246467 28.785098 21.521368 44.504249 -0.831496 1.066056 0.025124 -0.000871 -59027.900000 0 0 1
-24.874467 29.094698 21.584168 43.944475 -0.863436 1.057365 0.032279 0.004843 -18055.600000 0 0 1
-24.116767 28.066298 20.962368 42.529477 -0.860940 1.055388 0.026681 0.000360 -92785.700000 0 0 1
-22.584767 28.187698 21.030068 41.795715 -0.895307 1.043541 0.021827 0.010147 -115210.000000 0 0 1
-22.083367 28.006598 22.332668 42.080787 -0.903103 1.011359 0.028054 0.002934 -63862.000000 0 0 1
-20.878767 28.675398 22.555968 42.035378 -0.941454 1.004400 0.046229 -0.007541 -416814.000000 0 0 1
-20.361767 28.760398 23.986488 42.627616 -0.954735 0.973150 0.038092 -0.004869 -511087.000000 0 0 1
-19.894067 27.521298 24.528408 41.890793 -0.944892 0.945260 0.037024 -0.009721 472032.000000 0 0 1
-19.728867 27.500798 25.951008 42.649465 -0.948493 0.916663 0.043229 -0.009688 -272605.000000 0 0 1
-18.322467 27.965398 26.362078 42.576231 -0.990786 0.903106 0.054889 -0.008765 -797939.000000 0 0 1
-18.082367 29.334698 26.149278 43.258308 -1.018394 0.921669 0.032726 -0.009194 52660.500000 0 0 1
-16.809767 29.752098 26.608468 43.310116 -1.056514 0.909208 0.033498 -0.005987 -248967.000000 0 0 1
-16.643367 29.922598 28.128878 44.312496 -1.063195 0.883067 0.030528 0.000786 -388108.000000 0 0 1
-16.587067 28.721598 28.850388 43.959138 -1.047076 0.854892 0.041330 0.003962 177497.000000 0 0 1
-16.670367 28.947998 30.266138 45.076899 -1.048306 0.834655 0.037802 0.010344 -144946.000000 0 0 1
-16.340267 27.687198 31.107398 44.735394 -1.037633 0.801870 0.037550 0.006370 -231322.000000 0 0 1
-14.951267 27.455798 31.253758 44.205866 -1.072141 0.785542 0.043776 0.007439 385445.000000 0 0 1
-14.616267 26.300698 32.056778 43.965884 -1.063559 0.753749 0.053403 -0.000788 -555277.000000 0 0 1
-14.977867 26.328398 33.514594 45.174650 -1.053569 0.734913 0.061907 -0.000380 377795.000000 0 0 1
-16.360567 26.054498 33.797135 45.702859 -1.010088 0.738473 0.065985 -0.003884 532509.000000 0 0 1
-16.662767 26.734098 -33.763533 46.177223 -1.013436 2.390836 0.055242 0.003526 137180.000000 0 0 1
-18.006667 26.321498 -33.123383 45.980646 -0.970818 2.375142 0.036810 -0.000852 -139949.000000 0 0 1
-19.142767 26.589998 -33.903373 47.147770 -0.946824 2.373285 0.024789 -0.002177 181781.000000 0 0 1
-20.258567 26.008098 -33.183133 46.775538 -0.909034 2.359460 0.020391 -0.012719 628610.000000 0 0 1
-21.617267 26.205498 -33.922023 48.007687 -0.881048 2.355472 0.034138 -0.023093 -430188.000000 0 0 1
-21.832367 25.499098 33.567648 47.472552 -0.862713 0.785414 0.032608 -0.026539 102287.000000 0 0 1
-21.937067 24.101598 33.729600 46.902109 -0.832379 0.768220 0.024831 -0.028621 -546389.000000 0 0 1
-22.252667 23.276798 32.459868 45.723446 -0.807888 0.781415 0.022958 -0.018757 -850356.000000 0 0 1
-23.611167 23.320598 32.188218 46.232227 -0.779207 0.800666 0.015478 -0.026270 -831574.000000 0 0 1
-23.735867 23.025898 30.804148 45.193792 -0.770217 0.820848 0.018131 -0.016124 -1197550.000000 0 0 1
-25.177167 22.886598 30.444388 45.656838 -0.737777 0.840878 0.014508 -0.010339 -1120470.000000 0 0 1
-25.688967 21.605398 30.812878 45.564785 -0.699268 0.828145 0.015377 -0.016740 440623.000000 0 0 1
-26.963867 21.196898 30.331408 45.785946 -0.666221 0.846697 0.018075 -0.014379 194043.000000 0 0 1
-27.378167 19.812398 30.795728 45.721680 -0.626427 0.831798 0.030519 -0.016627 -466301.000000 0 0 1
-27.861467 19.735598 32.140878 46.891270 -0.616306 0.815597 0.039114 -0.019824 91083.900000 0 0 1
-27.851067 18.465498 32.673951 46.735892 -0.585466 0.796632 0.035242 -0.012116 -102344.000000 0 0 1
-28.805467 17.394298 32.068638 46.483481 -0.543249 0.809455 0.026808 -0.009003 123472.000000 0 0 1
-30.177867 17.537498 32.392508 47.618715 -0.526435 0.822696 0.022098 -0.014523 357.984000 0 0 1
-30.902667 16.440198 31.952908 47.394549 -0.488918 0.830930 0.023204 -0.005058 156630.000000 0 0 1
-32.444267 16.621598 31.822288 48.389730 -0.473449 0.853135 0.020042 -0.003962 290312.000000 0 0 1
-32.963267 16.914998 33.085381 49.672291 -0.474110 0.841865 0.021942 -0.011647 -333675.000000 0 0 1
-34.355967 17.028098 33.103400 50.656921 -0.460151 0.858621 0.036192 -0.015700 -476686.000000 0 0 1
-34.908867 17.335598 -34.224000 51.869395 -0.460921 2.291364 0.046989 -0.012081 447274.000000 0 0 1
35.182791 17.713498 -34.135026 52.122901 0.466420 2.284840 0.039441 -0.015247 576543.000000 0 0 1
34.791691 18.068098 -32.858143 51.152473 0.478986 2.268366 0.036643 -0.024815 1829520.000000 0 0 1
33.201991 18.261398 -32.673653 50.034173 0.502850 2.282370 0.032807 -0.023873 2032200.000000 0 0 1
32.504891 17.036498 -32.749943 49.187081 0.482758 2.299394 0.028721 -0.016817 27731.500000 0 0 1
31.342591 16.999398 -31.950513 47.876642 0.496969 2.301442 0.021621 -0.022948 -52380.000000 0 0 1
30.412691 15.786198 -32.185983 47.011417 0.478784 2.324909 0.016242 -0.019911 -377738.000000 0 0 1
29.880491 15.741598 -33.497643 47.568201 0.484872 2.352096 0.019666 -0.018055 57657.100000 0 0 1
29.037491 14.655498 -33.828183 46.928728 0.467408 2.375812 0.014708 -0.017296 78894.100000 0 0 1
29.779191 13.317698 -34.154065 47.229879 0.420535 2.379142 0.012934 -0.012562 108708.000000 0 0 1
30.323091 12.567498 -33.109783 46.622844 0.392903 2.360525 0.011263 -0.004217 116912.000000 0 0 1
30.956291 11.382298 -33.553463 47.049798 0.352346 2.364775 0.017761 -0.000914 -99921.100000 0 0 1
17.347291 -21.033802 10.318997 29.151862 -0.881155 1.208980 0.021074 -0.027414 -205782.000000 0 0 1
17.180591 -22.300702 10.908697 30.190954 -0.914363 1.201110 0.031039 -0.029542 -691003.000000 0 0 1
18.371691 -22.881502 11.292297 31.441981 -0.894286 1.203442 0.036776 -0.022531 -909989.000000 0 0 1
18.160291 -24.250302 11.968897 32.574957 -0.928020 1.194556 0.044716 -0.024835 241612.000000 0 0 1
17.441891 -25.280422 11.259897 32.712453 -0.966856 1.219401 0.026962 -0.017953 76451.800000 0 0 1
16.049491 -25.204912 11.441797 31.996695 -1.003785 1.205107 0.035994 -0.014883 51553.500000 0 0 1
15.174491 -26.177102 10.554497 32.045331 -1.045448 1.235169 0.044480 -0.004701 360836.000000 0 0 1
15.044391 -25.749312 9.202697 31.209781 -1.042028 1.271481 0.041320 -0.012453 -140786.000000 0 0 1
14.366391 -26.634972 8.359597 31.395824 -1.076143 1.301281 0.046982 -0.003314 -123173.000000 0 0 1
14.120691 -26.129092 6.933997 30.499241 -1.075338 1.341441 0.054281 -0.008978 -6013.650000 0 0 1
13.194791 -25.055372 6.898797 29.145627 -1.086076 1.331827 0.063246 -0.024443 39999.200000 0 0 1
12.998591 -24.562402 5.592497 28.346975 -1.084057 1.372206 0.054627 -0.011442 -98723.000000 0 0 1
12.470091 -23.148602 5.673197 26.898812 -1.076672 1.358292 0.070195 -0.013406 -466302.000000 0 0 1
11.761791 -22.740102 4.570497 26.006565 -1.093462 1.394135 0.061688 -0.010198 -528148.000000 0 0 1
11.210091 -21.516002 4.918797 24.754778 -1.090481 1.370764 0.069862 -0.008440 -345894.000000 0 1 0
10.484091 -20.858902 3.722997 23.640445 -1.105055 1.412654 0.052419 -0.006198 86265.100000 0 1 0
11.222691 -20.285002 2.637397 23.332080 -1.065461 1.457517 0.032584 -0.000896 76479.700000 0 1 0
10.299591 -19.732602 1.711197 22.324546 -1.089737 1.494070 0.028422 0.013777 356204.000000 0 1 0
10.990691 -19.009302 0.545197 21.964655 -1.046580 1.545972 0.010648 0.008745 -42524.600000 0 1 0
11.757991 -17.870702 0.841797 21.408432 -0.988854 1.531465 0.007495 0.007520 -510004.000000 0 1 0
12.414291 -17.512902 -0.323403 21.469070 -0.954145 1.585861 0.012551 0.004589 -759288.000000 0 1 0
13.622491 -16.586502 -0.043703 21.463602 -0.883202 1.572832 0.014174 0.006706 -860085.000000 0 1 0
14.515491 -17.408502 0.615997 22.674542 -0.875773 1.543626 0.010118 0.006849 -1104500.000000 0 1 0
15.745791 -16.732702 0.672197 22.986194 -0.815775 1.541549 0.016085 -0.000388 603760.000000 0 1 0
16.969691 -17.477802 1.342697 24.397680 -0.800147 1.515735 0.009121 0.010507 836572.000000 0 1 0
17.377191 -18.737102 0.852097 25.568962 -0.823036 1.537465 0.010911 0.008846 -737601.000000 0 0 1
18.384091 -19.254402 1.625897 26.671152 -0.808517 1.509798 0.013655 0.013760 -554626.000000 0 0 1
18.830791 -20.596102 1.073797 27.927605 -0.830143 1.532338 -0.006524 0.012101 -323045.000000 0 0 1
17.942691 -21.631002 1.322597 28.135203 -0.878331 1.523770 -0.000904 0.022271 -483042.000000 0 0 1
18.180691 -22.789102 0.555997 29.158015 -0.897410 1.551727 0.010678 0.022123 405248.000000 0 0 1
17.160191 -23.976402 0.771597 29.494667 -0.949603 1.544633 0.009140 0.022366 605245.000000 0 0 1
17.356891 -24.616502 2.004197 30.186928 -0.956661 1.504355 0.002635 0.019330 -175703.000000 0 0 1
16.177591 -25.261602 2.382097 30.092148 -1.001198 1.491553 0.010282 0.013963 -308497.000000 0 0 1
16.435991 -26.007592 3.782597 30.997495 -1.007201 1.448462 0.025209 -0.000458 577553.000000 0 0 1
17.364491 -27.079152 3.843197 32.397163 -1.000597 1.451889 0.016881 0.009384 -197531.000000 0 0 1
18.719491 -26.733722 3.887397 32.866747 -0.959923 1.452241 0.019818 0.018365 -401628.000000 0 0 1
19.693291 -27.939662 3.921497 34.406810 -0.956822 1.456574 0.030166 0.016970 -43750.400000 0 0 1
19.982991 -28.418572 2.611597 34.838995 -0.957948 1.495764 0.030702 0.023320 -567699.000000 0 0 1
20.769591 -29.553362 2.581597 36.213834 -0.958205 1.499448 0.051498 0.026813 -508401.000000 0 0 1
20.164991 -30.899292 2.940097 37.014015 -0.992593 1.491281 0.048866 0.021383 -220847.000000 0 0 1
20.212391 -31.076192 4.331697 37.323371 -0.994130 1.454476 0.058520 0.019591 2205.320000 0 0 1
19.425391 -32.181792 4.747097 37.888633 -1.027723 1.445175 0.052009 -0.000006 69300.100000 0 0 1
19.134891 -32.353452 6.224697 38.100351 -1.036700 1.406684 0.050451 -0.007910 116499.000000 0 0 1
20.237191 -32.953082 6.884397 39.279058 -1.020058 1.394617 0.045336 -0.022356 115996.000000 0 0 1
19.793491 -33.569372 7.986297 39.780221 -1.038037 1.368662 0.044784 -0.022480 -25662.700000 0 0 1
20.892991 34.373418 8.692097 41.153390 1.024644 1.357981 0.049430 -0.029175 -57604.100000 0 0 1
21.886791 -33.616322 9.294997 41.176276 -0.993665 1.343097 0.057503 -0.030021 217182.000000 0 0 1
22.939991 34.311180 9.761597 42.412134 0.981466 1.338554 0.067722 -0.034317 651700.000000 0 0 1
24.056191 -33.731342 10.600597 42.765365 -0.951286 1.320307 0.067232 -0.028296 115600.000000 0 0 1
24.663491 -32.763642 9.795997 42.162846 -0.925525 1.336316 0.050489 -0.024997 -125321.000000 0 0 1
25.664791 -32.038382 10.447597 42.359081 -0.895407 1.321581 0.038719 -0.014652 -232993.000000 0 0 1
26.252191 -30.847832 9.653797 41.640870 -0.865709 1.336833 0.033158 -0.018775 -305252.000000 0 0 1
25.465091 -29.695882 9.540397 40.265810 -0.861947 1.331586 0.032211 -0.016886 -144492.000000 0 0 1
25.734691 -28.962232 8.381497 39.640064 -0.844338 1.357748 0.038489 -0.013247 -259728.000000 0 0 1
25.467791 -27.445302 8.564197 38.408312 -0.822754 1.345928 0.027566 0.000884 -154961.000000 0 0 1
26.272591 -26.776802 9.558197 38.711824 -0.794902 1.321310 0.019815 -0.014458 168883.000000 0 0 1
25.933191 -25.452302 9.851897 37.648505 -0.776040 1.306033 0.030181 -0.018595 -267204.000000 0 0 1
27.069991 -24.838002 10.703697 38.265910 -0.742426 1.287295 0.049839 -0.020812 936751.000000 0 0 1
28.275191 -24.640102 9.949997 38.802365 -0.716810 1.311472 0.023153 -0.009305 256875.000000 0 0 1
29.337591 -24.105102 10.725597 39.456161 -0.687801 1.295496 0.032298 -0.012607 762744.000000 0 0 1
30.535591 -23.712602 9.781397 39.879638 -0.660282 1.322995 0.036075 -0.010932 580549.000000 0 0 1
30.242191 -22.730302 8.830397 38.848844 -0.644530 1.341491 0.017755 -0.009654 -192227.000000 0 0 1
31.369491 -22.561702 7.999497 39.459692 -0.623512 1.366656 0.027434 -0.013713 -191616.000000 0 0 1
30.984191 -21.747902 6.733797 38.449127 -0.612002 1.394753 0.035446 -0.008767 -195101.000000 0 0 1
30.481891 -20.513302 7.093597 37.420053 -0.592352 1.380075 0.035348 -0.004257 -228207.000000 0 0 1
30.557791 -19.604802 5.981697 36.795483 -0.570422 1.407506 0.030917 -0.008657 125068.000000 0 0 1
30.251091 -18.110402 6.377197 35.829929 -0.539441 1.391858 0.048800 -0.012953 151655.000000 0 0 1
31.299891 -17.689402 7.212697 36.669076 -0.514407 1.372808 0.062077 -0.014242 208381.000000 0 0 1
31.103391 -16.308802 7.372297 35.885216 -0.482931 1.363882 0.066521 -0.016600 210181.000000 0 0 1
31.743591 -15.781702 8.700997 36.502398 -0.461374 1.330111 0.068864 -0.028775 462685.000000 0 0 1
33.154191 -15.630402 8.561797 37.640593 -0.440544 1.341326 0.048225 -0.019877 176047.000000 0 0 1
33.622191 -15.235902 9.863297 38.208233 -0.425471 1.309694 0.044182 -0.026627 672262.000000 0 0 1
35.179991 -15.254502 9.965497 39.618717 -0.409143 1.316530 0.042643 -0.030799 567342.000000 0 0 1
-35.624567 -14.291302 9.173797 39.465296 0.381510 1.336198 0.052130 -0.020653 -577580.000000 0 0 1
-34.336167 -14.695602 8.805097 38.372683 0.404402 1.339271 0.048095 -0.024209 -223835.000000 0 0 1
-33.558667 -13.555402 8.121897 37.093102 0.383891 1.350048 0.047876 -0.021787 -189236.000000 0 0 1
-34.002367 -13.163902 6.835197 37.096754 0.369377 1.385484 0.054983 -0.024342 872395.000000 0 0 1
-32.840967 -12.821002 6.029097 35.766705 0.372200 1.401420 0.034853 -0.016343 1481880.000000 0 0 1
-31.910567 -13.920802 5.397297 35.230723 0.411356 1.416992 0.014140 -0.013444 337399.000000 0 0 1
-31.181567 -14.604902 6.401997 35.022548 0.438035 1.386966 0.024981 -0.005847 -262193.000000 0 0 1
-30.275667 -15.514702 5.847097 34.518264 0.473556 1.400584 0.018535 -0.000183 -371900.000000 0 0 1
-29.709367 -16.351002 6.950397 34.616611 0.503124 1.368640 0.008447 -0.016595 -434124.000000 0 0 1
-30.700067 -17.144302 7.539997 35.962102 0.509304 1.359564 0.018167 -0.022447 -324680.000000 0 0 1
-30.607367 -17.050602 8.946497 36.160389 0.508259 1.320789 0.004149 -0.015715 248424.000000 0 0 1
-31.624367 -17.898002 9.764597 37.626937 0.515011 1.308281 -0.011191 -0.018671 -162906.000000 0 0 1
-32.967367 -17.463502 9.702597 38.548172 0.487141 1.316359 0.013668 -0.014042 695788.000000 0 0 1
-33.871367 -18.109102 10.659497 39.860180 0.490977 1.300080 0.040136 -0.026767 622320.000000 0 0 1
-34.250367 -19.611802 10.353797 40.803327 0.520030 1.314242 0.039836 -0.023285 -602426.000000 0 0 1
-33.246067 -20.635002 10.548497 40.526227 0.555483 1.307476 0.040952 -0.015906 71056.100000 0 0 1
-32.916567 -20.893602 11.890697 40.760663 0.565576 1.274772 0.024007 -0.030918 178707.000000 0 0 1
-34.095167 -21.536602 12.725497 42.287633 0.563375 1.265132 0.033170 -0.037777 586979.000000 0 0 1
-34.493967 -22.893002 12.565897 43.264594 0.585933 1.276107 0.028413 -0.037116 296177.000000 0 0 1
-35.490867 -23.023102 11.539597 43.850053 0.575464 1.304500 0.037004 -0.022442 111704.000000 0 0 1
35.525991 -24.493202 11.566297 44.674290 -0.603607 1.308910 0.037172 -0.014230 -43490.900000 0 0 1
34.801891 -24.834202 12.753797 44.615788 -0.619787 1.280894 0.078572 -0.016120 134139.000000 0 0 1
34.494191 -26.226902 12.845497 45.196310 -0.650078 1.282608 0.034847 -0.007225 -179719.000000 0 0 1
33.768391 -26.386742 14.191497 45.143803 -0.663298 1.251012 0.043113 -0.010041 -74716.100000 0 0 1
32.566491 -25.654022 14.125097 43.797529 -0.667222 1.242417 0.031752 -0.006046 -105801.000000 0 0 1
31.898991 -25.412792 15.381697 43.588442 -0.672704 1.210144 0.027979 0.000736 -119691.000000 0 0 1
31.513891 -23.919102 15.454897 42.474729 -0.649237 1.198387 0.047179 -0.009038 -360545.000000 0 0 1
32.544791 -23.108302 15.947597 42.982356 -0.617437 1.190682 0.050887 -0.017629 -114569.000000 0 0 1
33.539991 -22.777702 14.987097 43.224620 -0.596575 1.216718 0.041806 -0.018701 -132150.000000 0 0 1
34.763991 -22.070002 15.594297 44.031831 -0.565653 1.208781 0.042095 -0.022776 -365126.000000 0 0 1
34.676191 -20.748702 16.070697 43.488092 -0.539210 1.192280 0.045656 -0.019834 -24087.000000 0 0 1
33.793591 -20.538902 17.153897 43.105794 -0.546117 1.161516 0.038080 -0.020023 -100761.000000 0 0 1
34.074091 -19.150302 17.813597 42.954650 -0.512024 1.143175 0.029007 -0.014759 -612408.000000 0 0 1
33.775291 -18.037602 16.959097 41.877635 -0.490513 1.153853 0.037975 -0.025468 218448.000000 0 0 1
33.448691 -16.876702 17.673997 41.424729 -0.467285 1.130007 0.036788 -0.022602 500957.000000 0 0 1
34.662291 -15.992502 18.187497 42.284981 -0.432277 1.126174 0.036918 -0.020330 706034.000000 0 0 1
35.369491 -16.554602 19.325097 43.571953 -0.437760 1.111272 0.024888 -0.010198 565070.000000 0 0 1
-35.209567 -15.539702 19.772497 43.268321 0.415636 1.096206 0.005905 -0.006753 -42713.000000 0 0 1
-34.771667 -15.552902 21.250997 43.618419 0.420595 1.061913 -0.003101 -0.003454 234889.000000 0 0 1
-33.849367 -16.557502 21.693897 43.480521 0.454932 1.048428 -0.000767 0.007817 528336.000000 0 0 1
-33.646267 -16.492302 23.070897 44.003791 0.455751 1.018911 0.003267 0.001744 23245.200000 0 0 1
-32.846367 -17.690002 23.666997 44.180841 0.494024 1.005478 0.003096 0.008168 -596788.000000 0 0 1
-33.432567 -18.954802 23.417797 45.004603 0.515768 1.023545 0.003437 0.004482 63919.300000 0 0 1
-32.684167 -20.101002 23.771497 45.137447 0.551381 1.016145 -0.004986 0.009868 -269262.000000 0 0 1
-31.529567 -20.515802 22.821097 43.997888 0.576856 1.025483 0.007027 0.020318 -80399.000000 0 0 1
-30.442867 -19.623602 22.806897 42.801968 0.572573 1.008835 0.005430 0.026171 547660.000000 0 0 1
-29.260867 -20.340902 22.388197 42.085413 0.607468 1.009870 0.015625 0.015093 357381.000000 0 0 1
-27.955167 -19.546802 22.408797 40.813270 0.610202 0.989561 0.025929 0.018441 -428945.000000 0 0 1
-27.164367 -19.605502 23.563597 40.957559 0.625165 0.957804 0.027337 0.019431 -49210.700000 0 0 1
-26.204667 -18.594202 23.456297 39.782242 0.617124 0.940211 0.032223 0.014823 -427305.000000 0 0 1
-25.832767 -18.037402 24.882997 40.147768 0.609542 0.902327 0.022082 0.005276 -685548.000000 0 0 1
-24.934467 -16.957302 24.813497 39.051087 0.597228 0.882255 0.022121 0.004175 26625.300000 0 0 1
-24.713167 -16.391002 26.076197 39.488905 0.585633 0.849522 0.019997 -0.001188 473146.000000 0 0 1
-23.765267 -17.162702 27.077897 39.906876 0.625455 0.825041 0.020957 0.001119 17270.200000 0 0 1
-24.347267 -18.331502 27.554697 41.086430 0.645366 0.835709 0.023250 -0.000530 392601.000000 0 0 1
-23.322567 -19.079102 28.254997 41.307374 0.685652 0.817539 0.030849 -0.008682 646633.000000 0 0 1
-23.873267 -20.431102 28.876697 42.675830 0.707860 0.827590 0.032476 0.000735 -375169.000000 0 0 1
-24.956567 -20.254802 29.732497 43.784799 0.681775 0.824315 0.023109 -0.008793 -369182.000000 0 0 1
-25.189967 -21.413902 30.503397 44.983851 0.704550 0.825627 0.020387 0.000921 -494025.000000 0 0 1
-26.374567 -21.246202 31.470597 46.232211 0.678120 0.822069 0.020033 -0.004567 -618350.000000 0 0 1
-26.030667 -20.414602 32.555397 46.413419 0.665064 0.793406 0.026587 -0.014695 735477.000000 0 0 1
-27.054667 -20.315702 33.549797 47.647367 0.644085 0.789603 0.026992 -0.018576 924239.000000 0 0 1
-28.342467 -19.479402 33.221397 47.816354 0.602143 0.802695 0.018540 -0.022270 484124.000000 0 0 1
-29.127067 -19.943902 32.134397 47.736409 0.600398 0.832318 0.022946 -0.022953 -103333.000000 0 0 1
-30.470067 -19.548002 32.261897 48.491023 0.570410 0.842878 0.020027 -0.028630 -358610.000000 0 0 1
-31.302967 -20.258702 31.171897 48.600184 0.574391 0.874482 0.018144 -0.003424 -434393.000000 0 0 1
-31.567867 -19.483302 30.018797 47.720619 0.552962 0.890462 0.014725 -0.014925 -9757.740000 0 0 1
-32.578267 -20.074202 29.270397 48.177518 0.552234 0.917820 0.013932 -0.016666 -516593.000000 0 0 1
-33.097167 -19.267602 28.119097 47.511541 0.527193 0.937460 0.013294 -0.014268 -988386.000000 0 0 1
-34.277967 -19.782202 27.607197 48.254242 0.523420 0.961708 0.001866 -0.015567 -528171.000000 0 0 1
-34.759767 -18.931202 26.626497 47.703272 0.498711 0.978619 0.003758 -0.008590 -798423.000000 0 0 1
35.481591 -19.379502 25.854697 47.989309 -0.499909 1.001832 -0.002207 -0.003548 -239507.000000 0 0 1
34.298591 -19.403802 26.642597 47.568150 -0.514841 0.976298 0.018297 -0.013738 -51084.700000 0 0 1
33.235391 -20.013002 25.947097 46.672940 -0.542006 0.981310 0.053701 -0.020762 -208597.000000 0 0 1
32.057391 -20.141202 26.930797 46.460867 -0.560959 0.952504 0.049706 -0.021058 -369005.000000 0 0 1
31.216191 -19.025902 27.113297 45.514464 -0.547367 0.932650 0.039623 -0.025069 -77602.800000 0 0 1
30.257391 -19.346102 28.071697 45.582909 -0.568876 0.907347 0.039048 -0.011691 -500170.000000 0 0 1
-29.136899 -6.135202 34.064196 45.243442 0.207533 0.718325 0.017355 -0.005625 -219765.000000 0 0 1
-30.019499 -5.745302 33.045870 45.013424 0.189099 0.746406 0.014512 0.000172 216611.000000 0 0 1
-29.610109 -4.547702 32.371508 44.106175 0.152395 0.746684 0.020513 -0.002353 118792.000000 0 0 1
-30.325409 -4.379702 30.983258 43.574929 0.143432 0.779829 0.010534 -0.007804 191784.000000 0 0 1
-30.005289 -5.263202 29.889558 42.677914 0.173643 0.794906 0.020107 -0.009724 726182.000000 0 0 1
-28.700769 -5.149202 29.271678 41.316819 0.177521 0.783470 0.013478 -0.011778 900760.000000 0 0 1
-28.536959 -6.195602 28.129298 40.546281 0.213790 0.804103 0.010706 -0.022148 415965.000000 0 0 1
-29.404859 -5.953802 26.981718 40.349803 0.199776 0.838344 0.006974 -0.018901 577774.000000 0 0 1
-29.125129 -6.920202 25.974178 39.633575 0.233277 0.856140 0.005463 -0.019072 -165724.000000 0 0 1
-29.842629 -6.580202 24.674408 39.277321 0.217024 0.891546 -0.005719 -0.009784 -413643.000000 0 0 1
-29.349639 -5.443802 24.062218 38.340926 0.183397 0.892348 0.012006 -0.009768 -266452.000000 0 0 1
-30.260009 -4.950402 23.106268 38.393674 0.162159 0.925012 0.019701 -0.008810 -1024050.000000 0 0 1
-29.826739 -3.638002 22.464368 37.516893 0.121372 0.928819 0.021173 -0.009475 -449547.000000 0 0 1
-28.635379 -3.792102 21.761168 36.165085 0.131661 0.925147 0.025706 -0.003937 -692258.000000 0 0 1
-28.199269 -2.556202 21.230868 35.390432 0.090401 0.927415 0.030638 -0.002347 787124.000000 0 0 1
-26.721079 -2.652602 20.705568 33.908301 0.098946 0.913935 0.022759 0.004502 716563.000000 0 0 1
-26.500009 -3.534902 19.630368 33.167715 0.132610 0.937442 0.034909 -0.004038 -342700.000000 0 0 1
-25.185599 -3.384202 19.157468 31.824138 0.133570 0.924819 0.035159 0.001910 -323670.000000 0 0 1
-24.837509 -4.121002 17.849668 30.862520 0.164421 0.954079 0.043636 -0.000190 -15276.000000 0 0 1
-25.552489 -3.620302 16.674568 30.725844 0.140744 0.997161 0.043767 0.002209 498670.000000 0 0 1
-25.074779 -4.078502 15.395768 29.705359 0.161242 1.025955 0.054172 -0.007882 -461362.000000 0 0 1
-26.224599 -4.250602 14.425368 30.230588 0.160687 1.073356 0.057173 -0.011021 -161501.000000 0 0 1
-26.769769 -3.039802 13.909568 30.320570 0.113069 1.094208 0.064218 -0.012347 -21446.900000 0 0 1
-28.021449 -3.198602 13.301268 31.182629 0.113656 1.130110 0.069181 -0.018984 204105.000000 0 0 1
-28.672149 -2.064502 12.458368 31.329941 0.071880 1.161842 0.059162 -0.003621 -253492.000000 0 0 1
-27.962849 -2.028902 11.254568 30.210969 0.072430 1.189060 0.077184 -0.012803 99441.400000 0 0 1
-28.280639 -0.918102 10.443168 30.161187 0.032453 1.217231 0.074756 -0.007992 158145.000000 0 0 1
-29.605479 -1.057102 9.643968 31.154582 0.035691 1.256074 0.061453 -0.007610 373196.000000 0 0 1
-29.383519 -1.634002 8.368368 30.595600 0.055552 1.293750 0.056868 -0.015252 -221262.000000 0 0 1
-30.636319 -1.852502 7.784668 31.664126 0.060394 1.322398 0.059592 -0.018790 -250971.000000 0 0 1
-30.615399 -2.614602 6.405868 31.387481 0.085195 1.365262 0.065878 -0.023877 -347275.000000 0 0 1
-30.114179 -1.902802 5.255768 30.628541 0.063102 1.398346 0.074883 -0.031447 342509.000000 0 0 1
-30.901739 -0.822902 4.790468 31.281675 0.026623 1.417052 0.090148 -0.031110 -248002.000000 0 0 1
-30.557929 -0.233802 3.429468 30.750657 0.007651 1.459039 0.071758 -0.026404 -80120.900000 0 0 1
-31.092439 -1.047702 2.406968 31.203060 0.033684 1.493581 0.070252 -0.032731 442571.000000 0 0 1
-30.608759 -0.648302 1.125568 30.636307 0.021177 1.534048 0.066744 -0.036117 -363865.000000 0 0 1
-31.554859 -1.144002 0.058068 31.575643 0.036239 1.568957 0.071151 -0.024378 -344836.000000 0 0 1
-32.849119 -0.589602 0.096868 32.854553 0.017947 1.567848 0.074224 -0.019091 337523.000000 0 0 1
-33.640299 -1.123402 -0.984632 33.673450 0.033382 1.600041 0.065221 -0.014628 -669635.000000 0 0 1
-35.120003 -1.055202 -0.686832 35.142564 0.030037 1.590342 0.055378 -0.012017 -1008390.000000 0 0 1
-35.649044 -2.038502 0.181668 35.707742 0.057120 1.565709 0.059998 -0.014009 660342.000000 0 0 1
34.405999 -1.841102 0.261468 34.456216 -0.053460 1.563208 0.052187 -0.005396 624107.000000 0 0 1
33.707279 -3.077502 0.929968 33.860250 -0.091048 1.543328 0.050567 -0.015926 -386807.000000 0 0 1
33.988549 -3.125402 2.268168 34.207224 -0.091697 1.504441 0.057236 -0.011200 354009.000000 0 0 1
33.382409 -4.307802 2.797768 33.775285 -0.128335 1.487867 0.049878 -0.008764 133205.000000 0 0 1
33.605309 -4.423302 4.339868 34.171872 -0.130873 1.443451 0.058471 -0.002701 264682.000000 0 0 1
32.744399 -3.495902 4.994068 33.307022 -0.106360 1.420288 0.062191 -0.013348 131958.000000 0 0 1
32.985319 -3.381602 6.358168 33.762298 -0.102161 1.381344 0.060920 -0.017595 -262134.000000 0 0 1
32.195569 -2.217002 6.951568 33.012029 -0.068752 1.358631 0.062700 -0.016031 1846090.000000 0 0 1
30.732999 -2.372402 6.930468 31.593938 -0.077041 1.349637 0.058223 -0.014732 1969550.000000 0 0 1
30.160009 -1.173802 7.534368 31.109012 -0.038900 1.326171 0.078392 -0.015792 -90408.600000 0 0 1
28.659909 -1.293002 7.819968 29.735738 -0.045085 1.304684 0.064773 -0.007843 -776094.000000 0 0 1
27.790089 -1.223302 6.729968 28.619538 -0.043991 1.333420 0.061430 -0.009798 214722.000000 0 0 1
26.456479 -1.468702 7.166368 27.449211 -0.055457 1.306658 0.073894 -0.001061 252368.000000 0 0 1
25.983049 -2.947202 6.993568 27.068706 -0.112945 1.309468 0.070680 -0.010521 -741811.000000 0 0 1
26.568759 -3.819102 7.950368 27.994515 -0.142766 1.282836 0.067778 -0.008055 346416.000000 0 0 1
26.062349 -5.104502 7.807568 27.681403 -0.193409 1.284865 0.065487 -0.015020 -231045.000000 0 0 1
26.474719 -6.112402 8.922068 28.598523 -0.226901 1.253524 0.058382 -0.006766 -212018.000000 0 0 1
25.867849 -5.804302 10.148468 28.387091 -0.220727 1.205204 0.054690 0.000995 301124.000000 0 0 1
26.182349 -6.718002 11.147668 29.238971 -0.251167 1.179637 0.054043 -0.000493 -184602.000000 0 0 1
25.147249 -6.677002 12.295968 28.777722 -0.259528 1.129321 0.051274 -0.006846 -531629.000000 0 0 1
23.929249 -7.157102 11.865768 27.651935 -0.290626 1.127287 0.060109 -0.018252 -985738.000000 0 0 1
22.859449 -6.933902 12.754668 27.079789 -0.294507 1.080369 0.069532 -0.018556 -12099.000000 0 0 1
21.811549 -8.027302 12.631968 26.452748 -0.352646 1.072956 0.075640 -0.019312 -171363.000000 0 0 1
22.229549 -9.243002 13.233268 27.471900 -0.394051 1.068201 0.061730 -0.019845 34808.600000 0 0 1
21.142749 -10.113002 13.327168 26.961121 -0.446154 1.053755 0.080192 -0.031733 -138129.000000 0 0 1
21.480949 -11.116902 14.425268 28.162120 -0.477568 1.033026 0.057192 -0.023267 -15841.600000 0 0 1
21.372349 -10.627802 15.759968 28.602518 -0.461460 0.987235 0.063069 -0.026119 -15258.800000 0 0 1
21.661649 -11.630602 16.663568 29.701388 -0.492747 0.975159 0.049865 -0.024449 -388978.000000 0 0 1
21.434449 -11.386402 18.173168 30.320781 -0.488310 0.928091 0.062501 -0.023710 -357975.000000 0 0 1
20.116049 -11.534602 18.640668 29.751924 -0.520633 0.893695 0.071555 -0.030518 -359358.000000 0 0 1
19.925349 -11.834902 19.992968 30.607241 -0.535968 0.858980 0.075274 -0.032480 247365.000000 0 0 1
20.292449 -10.805402 21.133868 31.227881 -0.489296 0.827440 0.063493 -0.023123 217385.000000 0 0 1
19.317849 -9.747102 21.225168 30.309949 -0.467293 0.795020 0.054623 -0.024850 220404.000000 0 0 1
19.564249 -8.586002 20.391368 29.534508 -0.413553 0.808720 0.066453 -0.020571 -1172030.000000 0 0 1
20.645149 -7.590002 20.883168 30.330463 -0.352303 0.811348 0.061659 -0.007517 380657.000000 0 0 1
21.937149 -8.149202 21.002268 31.444288 -0.355681 0.839386 0.059620 -0.011267 -113627.000000 0 0 1
22.611349 -8.349302 19.784568 31.183538 -0.353722 0.883492 0.065807 -0.019670 -1473350.000000 0 0 1
24.002749 -8.919702 20.050168 32.522335 -0.355797 0.906501 0.061886 -0.025769 -479543.000000 0 0 1
23.949249 -10.253402 20.485468 33.141412 -0.404519 0.904444 0.046184 -0.024970 660964.000000 0 0 1
25.137949 -10.940402 20.041868 33.960055 -0.410491 0.939539 0.050835 -0.031173 688294.000000 0 0 1
24.982649 -12.489902 20.061268 34.388732 -0.463602 0.947928 0.051900 -0.033589 -76681.500000 0 0 1
24.029649 -13.172502 19.254668 33.491507 -0.501443 0.958300 0.062048 -0.034286 260377.000000 0 0 1
23.977849 -14.532902 19.561468 34.187622 -0.544891 0.961635 0.061674 -0.032782 -311114.000000 0 0 1
22.922249 -15.198502 18.710568 33.264235 -0.585492 0.973410 0.040617 -0.016705 -631596.000000 0 0 1
23.370649 -15.116602 17.345268 32.795689 -0.574136 1.013506 0.041663 -0.015593 221039.000000 0 0 1
22.503749 -15.556702 16.337468 31.864440 -0.604859 1.032449 0.029853 -0.011150 -553072.000000 0 0 1
22.028549 -17.024002 16.360968 32.291715 -0.657944 1.039488 0.030934 -0.014967 -781910.000000 0 0 1
23.094449 -17.889002 16.255168 33.430532 -0.659061 1.063018 0.063250 -0.012441 -520995.000000 0 0 1
22.751349 -19.245702 16.504868 34.065108 -0.702118 1.064994 0.046032 -0.008289 -618608.000000 0 0 1
23.940049 -20.188602 16.545068 35.418143 -0.700590 1.084748 0.036442 -0.010023 -459532.000000 0 0 1
24.511349 -20.407802 15.270668 35.362097 -0.694297 1.124268 0.043944 -0.023691 -96413.700000 0 0 1
25.378949 -21.505602 15.233668 36.587520 -0.702971 1.141356 0.030238 -0.024058 -183538.000000 0 0 1
26.179049 -21.513802 13.896568 36.623775 -0.687890 1.181604 0.026597 -0.029148 -405806.000000 0 0 1
25.396349 -21.755402 12.768968 35.795511 -0.708333 1.206042 0.030876 -0.027972 -132833.000000 0 0 1
26.123549 -21.486602 11.589768 35.755232 -0.688310 1.240692 0.016797 -0.029612 -580553.000000 0 0 1
25.353149 -21.252802 10.259868 34.637099 -0.697645 1.270074 0.011040 -0.023725 70787.500000 0 0 1
24.614349 -22.342102 9.756868 34.644367 -0.737045 1.285305 0.006768 -0.020651 -363866.000000 0 0 1
23.305549 -22.499102 10.243668 33.974857 -0.767794 1.264523 0.002154 -0.012033 -758511.000000 0 0 1
22.488249 -23.363602 9.311068 33.738335 -0.804487 1.291188 0.003747 -0.013675 -674361.000000 0 0 1
22.861849 -24.735602 9.302168 34.943447 -0.824745 1.301341 -0.003829 -0.000270 -172848.000000 0 0 1
22.405549 -25.489542 8.162668 34.904935 -0.849700 1.334756 0.011896 0.010320 223530.000000 0 0 1
20.904749 -25.906292 8.218268 34.288255 -0.891840 1.328758 0.016682 0.031625 203303.000000 0 0 1
20.004149 -24.840902 8.030168 32.889512 -0.892838 1.324147 0.006863 0.014571 -464755.000000 0 0 1
18.709649 -25.384512 8.271068 32.601150 -0.935635 1.314288 0.022825 0.009046 314107.000000 0 0 1
17.616349 -24.309202 8.031168 31.076884 -0.943699 1.309401 0.026524 -0.008073 -190913.000000 0 0 1
17.411749 -23.985502 6.690868 30.384881 -0.942880 1.348773 0.031663 -0.004907 293318.000000 0 0 1
16.347749 -23.025102 6.675168 29.016583 -0.953393 1.338671 0.036705 -0.015711 258293.000000 0 0 1
16.282449 -22.346202 5.292268 28.151003 -0.941103 1.381675 0.042489 -0.005193 -247240.000000 0 0 1
15.435649 -21.218602 5.325468 26.774035 -0.941879 1.370557 0.062066 -0.007127 -92108.600000 0 0 1
15.328049 -20.601202 4.043368 25.994373 -0.931123 1.414614 0.057794 -0.001291 -15134.300000 0 0 1
14.532149 -19.289102 4.065668 24.490457 -0.925131 1.404014 0.056134 0.007865 29236.300000 0 1 0
15.241549 -18.217902 4.658468 24.205332 -0.874119 1.377132 0.028113 0.006392 278658.000000 0 1 0
14.446749 -17.018902 4.661468 22.805281 -0.866962 1.364943 0.022580 0.015402 196102.000000 0 1 0
15.292449 -15.748002 4.706868 22.450238 -0.800073 1.359571 0.005807 0.007426 -1311730.000000 0 1 0
15.799749 -15.589202 5.967268 22.983985 -0.778691 1.308160 0.018856 -0.001182 -73821.900000 0 1 0
16.927149 -14.742402 6.070268 23.253278 -0.716522 1.306687 0.023607 -0.003382 591195.000000 0 1 0
18.248549 -15.225302 5.413468 24.374679 -0.695326 1.346835 0.032622 -0.017813 -995546.000000 0 1 0
19.213849 -14.252402 5.214468 24.484559 -0.638218 1.356183 0.051674 -0.025391 -797497.000000 0 1 0
20.476349 -14.780002 4.936068 25.731189 -0.625213 1.377768 0.065288 -0.030970 -543812.000000 0 0 1
21.514549 -13.667502 4.939268 25.962912 -0.565949 1.379386 0.071278 -0.034162 -482843.000000 0 0 1
21.672449 -13.061902 6.177768 26.047517 -0.542400 1.331342 0.088311 -0.032996 631917.000000 0 0 1
22.828849 -12.202102 6.167668 26.609919 -0.490868 1.336888 0.092440 -0.033816 533099.000000 0 0 1
22.908849 -11.413802 7.583268 26.694497 -0.462228 1.282754 0.095985 -0.034427 -51294.600000 0 0 1
23.376849 -12.291102 8.604368 27.777390 -0.484059 1.255854 0.090925 -0.027475 299012.000000 0 0 1
23.424549 -11.588402 9.841868 27.926026 -0.459408 1.210634 0.095490 -0.032182 16236.800000 0 0 1
23.705949 -12.557502 11.064368 29.018668 -0.487140 1.179611 0.076808 -0.026247 207725.000000 0 0 1
22.569549 -13.321402 11.426268 28.590276 -0.533211 1.159655 0.080502 -0.026062 437147.000000 0 0 1
22.979149 -14.388202 12.238268 29.746207 -0.559420 1.146782 0.070689 -0.028411 -107261.000000 0 0 1
21.817749 -15.361102 12.503368 29.467131 -0.613449 1.132590 0.066640 -0.027640 -254696.000000 0 0 1
20.863849 -14.740902 13.322068 28.810968 -0.615094 1.090101 0.041622 -0.020840 367591.000000 0 0 1
19.679849 -15.576302 13.460268 28.479755 -0.669527 1.078528 0.017370 -0.020303 1512360.000000 0 0 1
18.545449 -14.778202 14.254768 27.668165 -0.672826 1.029550 0.017543 -0.023021 13995.400000 0 0 1
18.604749 -14.566302 15.662368 28.348256 -0.664248 0.985438 0.020186 -0.018830 -58388.300000 0 0 1
18.368749 -13.269502 16.172668 27.839644 -0.625599 0.950935 0.046430 -0.031488 -1140330.000000 0 0 1
16.905849 -12.930402 16.194468 26.744416 -0.652936 0.920368 0.043600 -0.033327 -943292.000000 0 0 1
16.269149 -12.846602 14.872868 25.513184 -0.668385 0.948444 0.048853 -0.041907 793457.000000 0 0 1
14.854449 -12.641302 14.939068 24.568942 -0.705081 0.917198 0.074417 -0.039605 833597.000000 0 1 0
14.384649 -11.188602 14.668468 23.393736 -0.661067 0.893067 0.061489 -0.035848 -98210.300000 0 1 0
14.908149 -10.387702 15.690668 24.007380 -0.608562 0.858496 0.048819 -0.026649 142695.000000 0 1 0
14.704049 -9.019702 15.416268 23.134939 -0.550226 0.841476 0.049905 -0.025368 -976569.000000 0 1 0
15.309649 -8.131802 16.477968 23.917253 -0.488260 0.810747 0.057830 -0.017789 355498.000000 0 1 0
16.718049 -7.949502 16.466968 24.775972 -0.443860 0.843792 0.063878 -0.032968 210091.000000 0 1 0
17.514349 -9.014902 16.849468 25.921525 -0.475350 0.863188 0.076330 -0.025787 -1169660.000000 0 0 1
18.979849 -8.848602 16.457068 26.633954 -0.436252 0.904730 0.067023 -0.022898 -874450.000000 0 0 1
19.682249 -7.869602 17.116968 27.245406 -0.380362 0.891493 0.078895 -0.035180 -261338.000000 0 0 1
20.823149 -7.474702 16.407668 27.544260 -0.344636 0.932680 0.078112 -0.019001 68492.200000 0 0 1
21.507249 -6.067402 16.667168 27.877762 -0.274964 0.929960 0.072945 -0.013029 69399.500000 0 0 1
22.286649 -5.981702 17.827468 29.159803 -0.262218 0.913004 0.067207 -0.013515 121660.000000 0 0 1
22.387449 -4.606602 18.167968 29.197495 -0.202935 0.899190 0.066206 -0.018305 -365336.000000 0 0 1
-5.463709 -32.845366 -6.359803 33.898633 1.405959 1.759527 0.019420 -0.012688 -367389.000000 0 0 1
-6.164809 -31.649066 -6.398103 32.872541 1.378419 1.766680 0.026531 -0.017115 -206787.000000 0 0 1
-5.626709 -30.693266 -5.517203 31.688736 1.389489 1.745794 0.032641 -0.019979 -660965.000000 0 0 1
-6.397009 -29.355066 -5.591303 30.559848 1.356232 1.754795 0.044071 -0.022404 2343000.000000 0 0 1
-7.811909 -29.231666 -5.204503 30.701842 1.309658 1.741137 0.043988 -0.021762 2379410.000000 0 0 1
-8.737209 -30.064666 -5.931103 31.865357 1.287973 1.758018 0.039628 -0.014826 -781018.000000 0 0 1
-10.194109 -29.743466 -5.646703 31.944935 1.240609 1.748494 0.051175 -0.001868 -414985.000000 0 0 1
-11.102109 -30.383766 -6.494803 32.994129 1.220472 1.768938 0.038676 -0.002847 370920.000000 0 0 1
-12.471409 -29.993966 -6.302003 33.089111 1.176746 1.762422 0.045099 -0.000365 1119520.000000 0 0 1
-13.467309 -30.644466 -7.304003 34.260767 1.156734 1.785634 0.041463 -0.003172 260975.000000 0 0 1
-13.531609 -29.936066 -8.506603 33.935745 1.146266 1.824166 0.053010 -0.005838 167283.000000 0 0 1
-14.534009 -30.493366 -9.349603 35.049934 1.126020 1.840817 0.054542 -0.004540 140253.000000 0 0 1
-14.675909 -29.707766 -10.704603 34.821289 1.111953 1.883272 0.072703 -0.003573 -406802.000000 0 0 1
-15.256509 -28.411266 -10.692403 33.974823 1.077998 1.890953 0.080364 -0.010093 224542.000000 0 0 1
-14.469009 -27.452966 -9.983903 32.599017 1.085746 1.882062 0.074301 -0.006275 -57688.400000 0 0 1
-15.026009 -26.019866 -9.750103 31.589221 1.047099 1.884573 0.085147 0.000344 -192368.000000 0 0 1
-15.170309 -25.280266 -10.913403 31.437756 1.030314 1.925319 0.084503 -0.009693 131933.000000 0 0 1
-15.488409 -23.957366 -10.539903 30.412757 0.996886 1.924700 0.058973 0.008166 -231921.000000 0 0 1
-16.089109 -23.069566 -11.673303 30.452099 0.961806 1.964199 0.069960 0.007933 -59423.100000 0 0 1
-17.405509 -23.520466 -11.910103 31.591369 0.933716 1.957357 0.066269 0.002058 -524537.000000 0 0 1
-17.877309 -22.992566 -13.116003 31.941913 0.909910 1.993931 0.071713 -0.005774 -905449.000000 0 0 1
-19.347709 -23.322666 -13.307103 33.096217 0.878285 1.984576 0.061262 0.008288 -743519.000000 0 0 1
-19.658709 -24.647666 -13.605603 34.337803 0.897527 1.978201 0.089138 0.002679 -195826.000000 0 0 1
-19.503309 -25.588566 -12.557403 34.537547 0.919540 1.942912 0.096855 -0.002555 -1087690.000000 0 0 1
-19.474009 -27.086766 -13.081803 35.833832 0.947466 1.944503 0.096040 -0.008872 305650.000000 0 0 1
-18.492509 -27.472366 -14.030703 35.966157 0.978332 1.971546 0.092156 -0.010962 129945.000000 0 0 1
-17.130909 -27.376866 -13.670503 35.069124 1.011662 1.971228 0.096053 -0.011329 -39299.400000 0 0 1
-16.345809 -28.662266 -14.010203 35.846851 1.052509 1.972335 0.085568 -0.015677 -131401.000000 0 0 1
-16.321609 -28.825366 -15.414903 36.536501 1.055583 2.006341 0.083166 -0.019517 30229.500000 0 0 1
-15.596709 -29.962666 -15.905703 37.336444 1.090854 2.010874 0.095036 -0.023831 294515.000000 0 0 1
-16.201909 -31.385766 -15.607703 38.615652 1.094258 1.986879 0.075639 -0.027694 -47874.800000 0 0 1
-16.268309 -31.777566 -14.242203 38.435816 1.097640 1.950392 0.075995 -0.026802 -88614.100000 0 0 1
-16.456909 -33.208166 -14.091103 39.650616 1.110700 1.934119 0.043143 -0.015121 -1509220.000000 0 0 1
-17.056409 -33.563966 -12.742803 39.747200 1.100629 1.897155 0.060490 -0.021738 -460318.000000 0 0 1
-18.453209 -33.412166 -12.660303 40.214140 1.066197 1.891066 0.074848 -0.017674 28085.800000 0 0 1
-19.009509 -32.079266 -12.755103 39.409813 1.035851 1.900384 0.084334 -0.020679 -794794.000000 0 0 1
-18.480709 -31.041366 -11.770003 37.995210 1.033797 1.885754 0.094613 -0.019748 -488970.000000 0 0 1
-18.792509 -31.285866 -10.410303 37.951788 1.029884 1.848662 0.082390 -0.021952 71556.600000 0 0 1
-18.397609 -30.182666 -9.646803 36.640499 1.023390 1.837220 0.084695 -0.012453 -83167.700000 0 0 1
-18.675209 -30.319666 -8.116503 36.522913 1.018736 1.794898 0.062392 -0.008377 593552.000000 0 0 1
-17.730409 -31.219866 -7.488603 36.675968 1.054299 1.776425 0.069853 -0.011478 405550.000000 0 0 1
-18.048209 -31.571466 -6.179203 36.887367 1.051474 1.739105 0.068818 -0.009530 -388117.000000 0 0 1
-17.084209 -32.612366 -5.579403 37.236627 1.088246 1.721199 0.072926 -0.014704 -111759.000000 0 0 1
-15.889009 -32.028566 -5.134703 36.120006 1.110283 1.713436 0.066460 -0.008991 -198964.000000 0 0 1
-15.879809 -32.015666 -3.746603 35.933386 1.110353 1.675251 0.051134 -0.007626 -378788.000000 0 0 1
-14.706009 -31.289266 -3.048803 34.707061 1.131434 1.658754 0.050542 -0.003999 -488268.000000 0 0 1
-13.577109 -32.106766 -3.146603 35.001192 1.170728 1.660818 0.042084 -0.000027 -509257.000000 0 0 1
-12.464309 -31.395666 -2.581503 33.877884 1.192873 1.647071 0.051188 -0.002760 122543.000000 0 0 1
-11.181709 -32.223266 -2.597203 34.206943 1.236790 1.646796 0.047844 -0.010644 -752518.000000 0 0 1
-11.125009 -33.354466 -1.690803 35.201492 1.248861 1.618847 0.043790 -0.002507 696672.000000 0 0 1
-9.807609 -33.961666 -1.684403 35.389563 1.289660 1.618410 0.042531 -0.004982 651953.000000 0 0 1
-8.765709 -33.314866 -0.799103 34.458040 1.313511 1.593989 0.033653 -0.003980 -948904.000000 0 0 1
-8.994309 -33.241966 0.587897 34.442293 1.306552 1.553726 0.040923 -0.001685 184468.000000 0 0 1
-7.829309 -32.855066 1.339397 33.801589 1.336861 1.531161 0.039213 -0.005584 1144370.000000 0 0 1
-6.916709 -34.062166 1.729497 34.800333 1.370459 1.521078 0.043125 -0.007777 2015.820000 0 0 1
-7.652909 33.858398 2.608797 34.810400 -1.348505 1.495783 0.053572 -0.010865 -72167.500000 0 0 1
-6.971309 32.912898 3.423797 33.816866 -1.362070 1.469377 0.050500 -0.017199 -318126.000000 0 0 1
-6.259809 33.484598 4.675197 34.384022 -1.385984 1.434404 0.051916 -0.015752 -331796.000000 0 0 1
-5.242209 34.384698 4.438297 35.064037 -1.419504 1.443879 0.053843 -0.009306 -532192.000000 0 0 1
-4.608509 -33.979066 5.660497 34.754230 1.435991 1.407195 0.052292 -0.016467 117598.000000 0 0 1
-3.481109 -32.961066 5.397697 33.581024 1.465574 1.409359 0.045182 -0.009417 -185374.000000 0 0 1
-3.833309 -31.717166 4.904997 32.322313 1.450521 1.418455 0.035925 0.002442 -74654.600000 0 0 1
-3.881809 -31.667966 3.517497 32.098307 1.448826 1.460991 0.027539 -0.005958 -114564.000000 0 0 1
-4.263509 -30.324266 2.841097 30.754032 1.431115 1.478283 0.026981 -0.001109 381497.000000 0 0 1
-3.252309 -29.311966 2.907997 29.634867 1.460293 1.472511 0.029128 0.005534 310272.000000 0 0 1
-3.558209 -28.236266 2.105297 28.537341 1.445442 1.496956 0.028641 0.004280 71025.200000 0 0 1
-2.791909 -26.977766 2.553897 27.241825 1.467674 1.476909 0.023527 0.002534 -8104.370000 0 0 1
-3.047009 -25.824066 1.760597 26.062739 1.453348 1.503193 0.029320 -0.003763 -202330.000000 0 0 1
-2.691409 -24.644466 2.487897 24.915518 1.462018 1.470776 0.016826 -0.002857 133438.000000 0 1 0
-3.698909 -24.057466 3.532397 24.595151 1.418238 1.426676 0.012145 -0.002869 53833.900000 0 1 0
-3.900809 -24.891266 4.675497 25.625216 1.415347 1.387312 0.018258 0.002647 467499.000000 0 0 1
-4.928009 -24.401466 5.556897 25.506782 1.371521 1.351175 0.010787 0.008264 172964.000000 0 0 1
-5.567309 -25.508266 6.359397 26.872077 1.355911 1.331875 0.015232 0.005368 -378991.000000 0 0 1
-4.784009 -26.030066 7.403597 27.482073 1.389037 1.298029 0.014769 0.001844 -223701.000000 0 0 1
-5.663109 -26.697666 8.275697 28.518824 1.361775 1.276378 0.018705 0.004113 404407.000000 0 0 1
-4.994209 -27.487766 9.498997 29.508480 1.391068 1.243053 0.010551 0.003594 985523.000000 0 0 1
-4.264509 -26.775366 10.549697 29.092995 1.412853 1.199719 0.014344 0.002589 380758.000000 0 0 1
-5.184009 -26.027366 11.311397 28.848665 1.374194 1.167889 0.017497 -0.000760 29098.700000 0 0 1
-4.636809 -25.128966 12.432297 28.417019 1.388328 1.117986 -0.000312 0.003952 113806.000000 0 0 1
-3.993709 -25.802266 13.503697 29.394838 1.417234 1.093488 -0.005565 0.001158 76098.900000 0 0 1
-3.301909 -24.926566 14.393897 28.972756 1.439098 1.050879 0.001831 0.002201 28074.600000 0 0 1
-2.268109 -25.526966 15.320497 29.857796 1.482178 1.031986 0.008903 -0.000875 102365.000000 0 0 1
-2.901209 -26.227566 16.415797 31.077011 1.460627 1.014282 -0.003195 0.007652 -46165.700000 0 0 1
-1.945009 -26.904966 17.156197 31.968662 1.498630 1.004326 -0.014650 0.020952 -496354.000000 0 0 1
-2.445109 -27.287966 18.522097 33.070829 1.481431 0.976322 -0.006419 -0.007258 -175863.000000 0 0 1
-2.649609 -26.172866 19.312897 32.634757 1.469905 0.937520 0.001416 -0.002863 -21619.600000 0 0 1
-2.645709 -26.491566 20.667997 33.704139 1.471257 0.910668 0.011899 -0.014475 -225841.000000 0 0 1
-2.668809 -25.191766 21.454197 33.196840 1.465250 0.868107 0.017073 -0.015852 -66001.900000 0 0 1
-2.208709 -25.442166 22.770497 34.215169 1.484201 0.842621 -0.006896 -0.019841 -34289.600000 0 0 1
-2.100609 -24.285566 23.570397 33.908184 1.484515 0.802204 -0.000700 -0.018544 616058.000000 0 0 1
-1.121209 -23.089466 23.183897 32.739482 1.522275 0.783946 0.006616 -0.017237 -213029.000000 0 0 1
-1.732309 -22.184266 22.284697 31.492067 1.492867 0.784659 0.033178 -0.008653 -711696.000000 0 0 1
-0.906809 -21.168666 21.857997 30.441859 1.527985 0.769837 0.046789 -0.010409 -1594460.000000 0 0 1
-1.550509 -20.190266 20.897897 29.099365 1.494152 0.769647 0.042319 0.010344 -226168.000000 0 0 1
-2.312509 -19.191066 21.574397 28.967211 1.450875 0.730581 0.045672 -0.011301 470311.000000 0 0 1
-3.597409 -19.546966 22.083997 29.710742 1.388794 0.732806 0.065789 -0.022051 151640.000000 0 0 1
-4.802209 -19.366166 21.094797 29.036186 1.327730 0.757581 0.059166 -0.024846 113391.000000 0 0 1
-4.914209 -20.279466 19.993997 28.899241 1.333055 0.806745 0.057933 -0.019739 -261187.000000 0 0 1
-4.898009 -21.650666 20.313197 30.089331 1.348312 0.829701 0.050064 -0.013417 -319715.000000 0 0 1
-5.185909 -22.487766 19.086797 29.948274 1.344148 0.879774 0.035329 -0.005479 -192795.000000 0 0 1
-5.628909 -23.792866 19.291497 31.143972 1.338488 0.902780 0.031955 -0.011746 -178009.000000 0 0 1
-5.790209 -24.458766 18.061097 30.950945 1.338342 0.947716 0.026611 -0.012669 -240007.000000 0 0 1
-6.315109 -25.847166 18.116697 32.189615 1.331166 0.973013 0.020928 -0.015987 -253935.000000 0 0 1
-7.702309 -25.785766 18.329597 32.560796 1.280529 0.972864 0.045372 -0.017663 -900479.000000 0 0 1
-8.250809 -27.033466 18.000997 33.509999 1.274569 1.003703 0.062987 -0.022626 -689382.000000 0 0 1
-9.764009 -27.028166 17.961697 33.889234 1.224132 1.012182 0.064848 -0.025982 -942881.000000 0 0 1
-10.394509 -26.171966 16.999297 32.893673 1.192739 1.027693 0.074754 -0.030655 928862.000000 0 0 1
-11.830909 -26.175466 17.072397 33.415448 1.146293 1.034549 0.071071 -0.026936 1074620.000000 0 0 1
-12.405109 -25.214866 18.138797 33.446856 1.113589 0.997604 0.062009 -0.030024 -586764.000000 0 0 1
-12.474909 -23.859166 17.702697 32.222176 1.089032 0.989157 0.051031 -0.026282 -172872.000000 0 0 1
-12.643809 -22.913666 18.728397 32.181592 1.066571 0.949660 0.048083 -0.015350 150818.000000 0 0 1
-11.327009 -22.423166 19.399397 31.740134 1.103039 0.913227 0.041049 -0.017259 95422.000000 0 0 1
-10.693309 -23.333466 20.253797 32.695777 1.141076 0.902739 0.053243 -0.013431 -699727.000000 0 0 1
-9.320009 -23.113066 20.126297 32.033486 1.187504 0.891444 0.058191 -0.023230 -363206.000000 0 0 1
-8.532109 -24.140466 20.999997 33.114330 1.231064 0.883866 0.062452 -0.022979 124389.000000 0 0 1
-8.737309 -23.991266 22.386797 33.957181 1.221539 0.850955 0.063374 -0.018789 363676.000000 0 0 1
-7.721409 -24.764966 22.999797 34.668637 1.268561 0.845419 0.057776 -0.015343 335664.000000 0 0 1
-7.683909 -24.302266 24.510497 35.361095 1.264562 0.804948 0.064575 -0.021208 -87773.600000 0 0 1
-6.558809 -24.773666 25.199097 35.940882 1.311985 0.793820 0.061794 -0.020691 -122229.000000 0 0 1
-6.596609 -24.319566 26.507097 36.572978 1.305923 0.760092 0.062578 -0.015668 -126572.000000 0 0 1
-5.415109 -24.800466 27.365097 37.326064 1.355823 0.747874 0.052441 -0.018290 776614.000000 0 0 1
-4.152009 -24.269366 26.891597 36.460929 1.401356 0.741368 0.050765 -0.011835 768549.000000 0 0 1
-3.098209 -24.663166 27.768597 37.268830 1.445830 0.730128 0.046085 -0.013433 184109.000000 0 0 1
-1.764709 -24.035766 27.324497 36.434330 1.497508 0.722786 0.038928 -0.012005 -735537.000000 0 0 1
-1.796509 -22.607766 27.351197 35.530642 1.491499 0.692281 0.044352 -0.010238 -26605.000000 0 0 1
-0.621609 -21.921466 26.954797 34.749074 1.542448 0.682976 0.043888 -0.012785 -150634.000000 0 0 1
0.431491 -21.773366 28.039297 35.503068 -1.550982 0.660361 0.045155 -0.010108 -269506.000000 0 0 1
1.105391 -22.979766 28.434297 36.575959 -1.522731 0.680268 0.042432 -0.009762 654648.000000 0 0 1
2.021091 -22.761366 29.528997 37.338000 -1.482234 0.658589 0.039279 -0.015027 236330.000000 0 0 1
2.557591 -24.027466 30.161497 38.646815 -1.464751 0.675428 0.044299 -0.019203 -1465360.000000 0 0 1
3.412591 -24.727166 29.305797 38.495562 -1.433653 0.705516 0.033243 -0.020035 163304.000000 0 0 1
4.238491 -25.620466 30.070297 39.731548 -1.406847 0.712337 0.015230 -0.009967 -1007950.000000 0 0 1
5.433391 -24.908166 30.754197 39.946954 -1.356024 0.692150 0.012700 -0.012715 -228704.000000 0 0 1
6.608691 -24.648766 29.956397 39.352537 -1.308843 0.705586 0.006769 -0.011866 951424.000000 0 0 1
7.157091 -25.726566 29.270197 39.621012 -1.299459 0.739576 0.011697 -0.010673 -1470410.000000 0 0 1
8.304291 -25.289466 28.330597 38.873398 -1.253520 0.754241 0.018041 -0.010898 -129555.000000 0 0 1
7.892391 -24.441066 27.247897 37.444672 -1.258451 0.755857 0.021429 -0.011809 955550.000000 0 0 1
9.049391 -24.011266 26.485397 36.876939 -1.210378 0.769570 0.010141 -0.010758 726108.000000 0 0 1
8.845691 -22.814566 25.584997 35.402581 -1.200920 0.763114 0.016667 -0.003092 237243.000000 0 0 1
7.973891 -23.020766 24.460797 34.523459 -1.237352 0.783388 0.023411 -0.005230 353424.000000 0 0 1
7.857491 -21.810766 23.712597 33.162282 -1.225013 0.774105 0.023057 0.005292 101000.000000 0 0 1
7.207391 -22.002066 22.318297 32.158106 -1.254235 0.803742 0.045206 0.007774 -99366.900000 0 0 1
7.895591 -22.916266 21.519797 32.412919 -1.238993 0.844739 0.043061 0.005241 124966.000000 0 0 1
7.232591 -23.108266 20.266197 31.575641 -1.267468 0.873914 0.061991 -0.005286 446059.000000 0 0 1
7.928091 -24.255166 19.428997 32.072631 -1.254881 0.920049 0.055297 -0.018106 1697040.000000 0 0 1
9.276991 -23.893366 19.016897 31.915480 -1.200446 0.932470 0.035065 -0.015146 871315.000000 0 0 1
9.761891 -24.750266 18.019397 32.133610 -1.195113 0.975487 0.047757 -0.019952 199100.000000 0 0 1
11.039591 -24.143066 17.391397 31.736744 -1.141924 0.990838 0.021781 -0.016632 -210086.000000 0 0 1
10.773591 -22.909766 16.745797 30.353737 -1.131221 0.986409 0.026882 -0.012405 559083.000000 0 0 1
11.940691 -22.413066 16.046297 30.040128 -1.081289 1.007280 0.027894 -0.025405 431591.000000 0 0 1
-11.992209 22.405698 11.225097 27.781850 -1.079363 1.154863 0.013408 -0.013995 -540080.000000 0 0 1
-13.061009 21.673798 10.691997 27.471117 -1.028454 1.171024 0.011600 -0.019346 -196478.000000 0 0 1
-12.708609 20.377798 10.273897 26.121186 -1.013169 1.166560 0.026184 -0.020731 457736.000000 0 0 1
-13.708309 19.839598 9.168397 25.798971 -0.966165 1.207477 0.040269 -0.021795 -112379.000000 0 0 1
-13.814709 20.609398 7.975397 26.061474 -0.980275 1.259784 0.043785 -0.014125 849826.000000 0 0 1
-14.740609 19.996998 7.003897 25.811239 -0.935576 1.296000 0.056833 -0.013453 1151350.000000 0 0 1
-16.263409 19.974498 7.271797 26.764866 -0.887451 1.295646 0.050577 -0.016892 -356316.000000 0 0 1
-16.589909 18.965998 8.190297 26.495568 -0.852126 1.256529 0.043992 -0.020224 170044.000000 0 0 1
-17.906609 19.020798 8.717797 27.539742 -0.815561 1.248703 0.050683 -0.018988 122434.000000 0 0 1
-18.340509 17.937298 9.712097 27.430745 -0.774284 1.208889 0.030745 -0.014900 -123533.000000 0 0 1
-18.606709 16.709398 9.091997 26.609735 -0.731726 1.222093 0.025416 -0.008381 -17910.300000 0 0 1
-19.035209 15.680998 9.954197 26.595468 -0.689079 1.187174 0.027143 -0.009835 -481928.000000 0 0 1
-18.000809 15.063098 10.926497 25.890430 -0.696781 1.135115 0.026843 -0.002966 -1896.710000 0 0 1
-17.058909 14.227898 10.270097 24.472727 -0.695158 1.137731 0.010074 0.009106 -212989.000000 0 1 0
-16.438409 13.287498 11.136497 23.891431 -0.679794 1.085886 0.016659 0.005278 -89663.100000 0 1 0
-17.270009 12.259598 11.974897 24.330004 -0.617325 1.056197 0.017784 0.004422 -137905.000000 0 1 0
-17.947409 11.394698 11.031097 23.950652 -0.565682 1.092152 0.002811 0.002965 -153724.000000 0 1 0
-18.645309 10.494698 11.841897 24.454381 -0.512663 1.065297 0.012344 0.003937 -429990.000000 0 1 0
-19.597309 9.558698 11.062797 24.450127 -0.453804 1.101270 0.016071 -0.000818 -321390.000000 0 1 0
-19.016309 8.646798 10.103797 23.205039 -0.426759 1.120298 0.003856 0.001550 200683.000000 0 1 0
-18.739309 9.265398 8.814897 22.687259 -0.459187 1.171750 0.020621 0.003445 -779821.000000 0 1 0
-19.915809 9.586298 7.903097 23.473293 -0.448609 1.227403 0.036713 0.000863 -511510.000000 0 1 0
-20.401709 8.429898 7.310097 23.253611 -0.391830 1.251010 0.020740 -0.005140 913102.000000 0 1 0
-21.390909 8.626498 6.250797 23.896860 -0.383330 1.306144 0.033647 -0.002351 827293.000000 0 1 0
-21.695109 7.312998 5.510597 23.548341 -0.325119 1.334594 0.045429 -0.003594 23246.300000 0 1 0
-22.421809 6.356798 6.276297 24.135830 -0.276260 1.307732 0.040445 0.000022 372289.000000 0 1 0
-22.189709 5.121298 5.659197 23.465664 -0.226824 1.327226 0.046698 -0.005639 -387882.000000 0 1 0
-23.087409 3.972398 6.192797 24.231367 -0.170391 1.312360 0.059196 -0.003608 -958.542000 0 1 0
-24.230409 3.963698 5.357497 25.130189 -0.162147 1.355958 0.063261 -0.010134 -15439.500000 0 0 1
-24.878709 2.695698 5.311497 25.581809 -0.107933 1.361647 0.059403 -0.018376 11348.000000 0 0 1
-25.936019 2.758198 4.154197 26.411022 -0.105948 1.412850 0.060032 -0.022014 -31623.400000 0 0 1
-25.368219 2.912998 2.888197 25.697739 -0.114328 1.458167 0.055675 -0.018526 301652.000000 0 0 1
-26.361789 2.704698 1.897497 26.568022 -0.102241 1.499315 0.060049 -0.017425 -92682.800000 0 0 1
-25.812579 2.610398 0.495097 25.948960 -0.100786 1.551716 0.070312 -0.018437 -353344.000000 0 0 1
-25.287519 3.793798 -0.035003 25.570544 -0.148916 1.572165 0.071594 -0.023909 322371.000000 0 0 1
-25.368419 3.892798 -1.474003 25.707649 -0.152263 1.628165 0.085703 -0.019951 156250.000000 0 0 1
-26.658659 4.582298 -2.031903 27.125821 -0.170224 1.645773 0.093597 -0.026011 146642.000000 0 0 1
-27.806639 3.806398 -1.892903 28.129716 -0.136043 1.638139 0.077450 -0.022954 -13300.800000 0 0 1
-28.992939 4.558998 -2.133603 29.426642 -0.155968 1.643366 0.071280 -0.011509 1050270.000000 0 0 1
-30.246489 3.611498 -2.327603 30.550135 -0.118840 1.647060 0.063823 -0.005287 316516.000000 0 0 1
-30.128839 3.034598 -3.626603 30.497671 -0.100382 1.689992 0.058964 -0.006128 545753.000000 0 0 1
-31.106549 2.021998 -3.812703 31.404499 -0.064911 1.692503 0.070178 -0.009185 -4272.570000 0 0 1
-31.095449 1.511498 -5.238603 31.569836 -0.048570 1.737504 0.059371 -0.016573 619796.000000 0 0 1
-29.899309 0.836298 -5.719303 30.452890 -0.027963 1.759727 0.072533 -0.016327 1190690.000000 0 0 1
-30.057809 -0.002902 -6.913803 30.842707 0.000097 1.796881 0.076093 -0.013697 -253046.000000 0 0 1
-30.463239 0.731798 -8.216103 31.560241 -0.024018 1.834161 0.068367 -0.014028 -415302.000000 0 0 1
-31.776509 1.227098 -8.158303 32.830020 -0.038597 1.821929 0.061477 -0.020118 -59941.700000 0 0 1
-32.155439 1.721498 -9.429403 33.553680 -0.053486 1.855658 0.065869 -0.011133 -245927.000000 0 0 1
-33.662729 2.034398 -9.339503 34.993491 -0.060361 1.840964 0.067038 -0.010943 4678.930000 0 0 1
-34.052009 2.970598 -8.275703 35.168893 -0.087017 1.808337 0.041155 -0.008515 82734.900000 0 0 1
-35.427246 2.845898 -8.002503 36.431153 -0.080159 1.792263 0.051011 -0.006791 -139389.000000 0 0 1
35.595014 3.701598 -6.793203 36.426013 0.103620 1.758388 0.064534 -0.009983 439200.000000 0 0 1
34.260939 3.405498 -6.362703 35.012760 0.099073 1.753537 0.079050 -0.011506 729778.000000 0 0 1
33.827599 4.393398 -5.411603 34.538295 0.129153 1.728129 0.072400 -0.015426 289142.000000 0 0 1
32.362499 4.132998 -4.956303 32.999666 0.127022 1.721559 0.085823 -0.021885 388092.000000 0 0 1
32.253209 2.925998 -4.129803 32.647913 0.090472 1.697631 0.082933 -0.017076 325868.000000 0 0 1
31.156469 2.094198 -4.533403 31.554128 0.067115 1.714966 0.095450 -0.019736 335946.000000 0 0 1
31.046699 0.829398 -3.627403 31.268890 0.026708 1.687065 0.104049 -0.009145 21328.600000 0 0 1
32.093119 -0.095102 -3.887303 32.327828 -0.002963 1.691334 0.071555 -0.005555 166442.000000 0 0 1
31.892459 -1.381402 -3.279503 32.090378 -0.043287 1.673171 0.067395 -0.005337 -403116.000000 0 0 1
33.059099 -2.300902 -3.537003 33.327295 -0.069488 1.677126 0.051696 -0.004971 -189446.000000 0 0 1
32.801759 -3.550302 -3.000503 33.129489 -0.107815 1.661490 0.040793 -0.005821 73151.900000 0 0 1
33.962679 -4.305802 -3.272403 34.390582 -0.126108 1.666095 0.054987 -0.009079 202382.000000 0 0 1
33.890969 -5.792502 -2.865103 34.501589 -0.169280 1.653935 0.050264 -0.007491 -180378.000000 0 0 1
33.752179 -6.041802 -1.494403 34.321221 -0.177129 1.614352 0.054338 -0.001879 -157648.000000 0 0 1
33.738869 -7.427302 -1.313503 34.571685 -0.216685 1.608799 0.062807 -0.009225 -317425.000000 0 0 1
33.383049 -7.879002 0.063997 34.300302 -0.231777 1.568931 0.059144 -0.004944 -820171.000000 0 0 1
32.103809 -7.469302 0.415497 32.963884 -0.228594 1.558191 0.054957 -0.011339 -498903.000000 0 0 1
31.536489 -7.785302 1.691297 32.527243 -0.242027 1.518777 0.051630 -0.016307 -311401.000000 0 0 1
31.311159 -9.328402 1.954497 32.729617 -0.289553 1.511044 0.059582 -0.011448 165490.000000 0 0 1
30.196969 -9.962202 1.319497 31.825202 -0.318664 1.529324 0.067318 -0.019857 754590.000000 0 0 1
28.916919 -9.565802 1.791597 30.510696 -0.319471 1.512042 0.067489 -0.029580 -1018240.000000 0 0 1
27.840259 -10.629702 1.474197 29.836954 -0.364728 1.521368 0.082633 -0.030271 254393.000000 0 0 1
26.630729 -10.406902 2.284697 28.683082 -0.372538 1.491059 0.099739 -0.038937 1130660.000000 0 0 1
25.707649 -9.453802 1.934797 27.459079 -0.352393 1.500277 0.102036 -0.035439 -929340.000000 0 0 1
24.996949 -9.677902 0.543497 26.810532 -0.369392 1.550523 0.096863 -0.031017 -1088320.000000 0 0 1
25.904349 -9.722802 -0.535603 27.674086 -0.359064 1.590151 0.088157 -0.029745 -53844.000000 0 0 1
25.372649 -9.956602 -1.818903 27.316911 -0.373950 1.637431 0.088466 -0.022838 -490806.000000 0 0 1
24.647049 -11.281602 -2.097103 27.187302 -0.429260 1.648008 0.074179 -0.017078 -603909.000000 0 0 1
23.308549 -11.298602 -1.711503 25.959124 -0.451366 1.636775 0.064742 -0.014216 -634657.000000 0 0 1
22.853149 -12.617302 -1.690603 26.159527 -0.504457 1.635468 0.051259 -0.011257 292937.000000 0 0 1
21.307549 -12.699402 -1.586603 24.855659 -0.537477 1.634672 0.042920 -0.007037 320329.000000 0 1 0
20.472149 -12.283802 -2.649803 24.021285 -0.540438 1.681332 0.037746 -0.002480 160109.000000 0 1 0
19.109049 -12.358502 -2.291103 22.872199 -0.574077 1.671134 0.031265 -0.002609 54246.300000 0 1 0
18.204449 -11.857102 -3.442903 21.996509 -0.577310 1.727963 0.021197 0.002428 -96043.900000 0 1 0
18.306649 -12.738202 -4.508703 22.753540 -0.607918 1.770270 0.025942 -0.002518 188061.000000 0 1 0
17.641449 -12.184202 -5.608703 22.161522 -0.604428 1.826662 0.033377 -0.005724 -448867.000000 0 1 0
17.710549 -12.933202 -6.969003 23.010829 -0.630744 1.878486 0.028046 -0.007062 -400460.000000 0 1 0
17.137449 -14.223802 -7.029503 23.354285 -0.692758 1.876531 0.043333 -0.004618 188973.000000 0 1 0
17.024849 -14.624402 -8.342803 23.944122 -0.709698 1.926690 0.034767 -0.008736 65433.500000 0 1 0
15.991149 -15.750502 -8.627303 24.046320 -0.777817 1.937755 0.031332 -0.008869 713348.000000 0 1 0
14.615149 -15.382202 -8.404303 22.822073 -0.810963 1.947926 0.041112 -0.005549 1311810.000000 0 1 0
13.663549 -16.233702 -9.075603 23.077960 -0.871154 1.974969 0.040270 -0.007671 575234.000000 0 1 0
13.473249 -15.997102 -10.611503 23.452925 -0.870830 2.040318 0.047315 -0.018143 -438391.000000 0 1 0
12.724749 -14.855602 -11.061403 22.471377 -0.862505 2.085462 0.031177 -0.016053 559614.000000 0 1 0
13.431649 -13.637302 -10.876203 22.015381 -0.792995 2.087512 0.044023 -0.009635 69767.400000 0 1 0
13.383249 -12.794702 -12.203403 22.175184 -0.762919 2.153541 0.056943 -0.002626 189252.000000 0 1 0
14.551449 -12.848002 -13.021603 23.374729 -0.723307 2.161662 0.059994 -0.007065 196281.000000 0 1 0
14.373049 -12.198002 -14.280003 23.649403 -0.703722 2.219082 0.073865 -0.007657 -504455.000000 0 1 0
15.589849 -11.921402 -15.172203 24.806430 -0.652837 2.228908 0.071915 -0.015959 -160233.000000 0 1 0
16.236549 -13.118002 -15.621003 26.071502 -0.679558 2.213248 0.064759 -0.014686 -90829.100000 0 0 1
17.376949 -12.771502 -16.351103 27.063410 -0.633811 2.219530 0.065089 -0.012544 -259845.000000 0 0 1
18.476349 -13.836502 -16.488603 28.367204 -0.642782 2.191067 0.061940 -0.015362 -441685.000000 0 0 1
19.084549 -14.223202 -15.283503 28.286126 -0.640469 2.141611 0.035253 -0.017390 407368.000000 0 0 1
20.184749 -15.110602 -15.510903 29.603082 -0.642614 2.122293 0.023120 -0.011065 291169.000000 0 0 1
21.316949 -14.902902 -14.503203 29.780055 -0.610129 2.079460 0.013563 -0.017943 -183530.000000 0 0 1
21.842649 -13.579702 -14.425603 29.489110 -0.556227 2.081950 0.010102 -0.008703 -59365.300000 0 0 1
22.862249 -13.459402 -13.476403 29.756535 -0.532082 2.040799 0.012156 -0.008117 -258688.000000 0 0 1
23.400649 -12.060302 -13.322903 29.504932 -0.475878 2.039296 0.023584 -0.003323 -264850.000000 0 0 1
22.538249 -11.172102 -12.602103 28.135414 -0.460198 2.035221 0.012187 0.005085 383961.000000 0 0 1
22.931549 -9.777502 -12.573503 27.920395 -0.403037 2.037936 0.024184 -0.006228 655803.000000 0 0 1
24.083549 -9.368502 -11.542003 28.302014 -0.370988 1.990857 0.031687 -0.007677 597219.000000 0 0 1
25.294549 -10.000202 -11.825003 29.658876 -0.376491 1.980896 0.031887 0.000916 241072.000000 0 0 1
26.331249 -9.696702 -10.877003 30.094350 -0.352847 1.940598 0.046048 -0.004806 332137.000000 0 0 1
27.687519 -10.368202 -11.143403 31.595470 -0.358308 1.931240 0.067442 -0.002645 -181320.000000 0 0 1
28.252819 -9.951302 -12.360403 32.404163 -0.338654 1.962155 0.049171 -0.003004 1222050.000000 0 0 1
29.542419 -10.621502 -12.552803 33.810408 -0.345143 1.951173 0.033961 -0.005665 1214940.000000 0 0 1
30.198769 -10.045202 -13.822603 34.697782 -0.321123 1.980537 0.012021 0.001265 -363119.000000 0 0 1
29.719249 -10.557802 -15.041203 34.941934 -0.341345 2.015802 -0.001718 0.006717 581618.000000 0 0 1
30.562599 -10.128002 -16.136403 36.014336 -0.319996 2.035385 -0.016298 0.013826 146221.000000 0 0 1
30.198909 -10.733202 -17.543703 36.537067 -0.341492 2.071635 -0.046777 0.021428 -220136.000000 0 0 1
28.993259 -10.346302 -18.162103 35.742370 -0.342766 2.103819 -0.027090 0.018384 -9778.520000 0 0 1
29.008899 -9.101002 -18.800803 35.746533 -0.304006 2.124625 -0.035485 0.021671 61359.000000 0 0 1
27.623219 -8.896902 -19.462403 34.942556 -0.311589 2.161545 -0.061531 0.019523 313821.000000 0 0 1
27.429319 -9.574502 -20.658303 35.648339 -0.335838 2.188914 -0.062441 0.023362 68395.700000 0 0 1
26.092749 -9.361302 -21.069803 34.819565 -0.344466 2.220705 -0.022779 0.019743 230034.000000 0 0 1
25.730149 -9.846702 -22.503203 35.572352 -0.365497 2.255707 -0.006963 0.003636 12997.800000 0 0 1
25.558349 -11.237702 -22.650203 35.952007 -0.414246 2.252365 -0.014344 0.001147 112477.000000 0 0 1
24.789949 -11.605602 -23.765903 36.249824 -0.437851 2.285792 0.003939 -0.007192 -715327.000000 0 0 1
24.890449 -13.095102 -24.145703 37.067926 -0.484316 2.280212 -0.002130 0.003387 543815.000000 0 0 1
26.030449 -13.521202 -24.889103 38.469139 -0.479077 2.274425 -0.010503 0.006038 640087.000000 0 0 1
27.264019 -13.505302 -24.165203 38.854561 -0.459923 2.242014 -0.040020 0.011527 -357103.000000 0 0 1
28.428669 -14.077402 -24.946703 40.357161 -0.459787 2.237181 -0.037036 0.018664 -502021.000000 0 0 1
28.872839 -13.304402 -26.050323 41.100697 -0.431793 2.257275 -0.037822 0.006053 -1060460.000000 0 0 1
30.180419 -13.681102 -26.273183 42.288419 -0.425604 2.241179 -0.050915 0.002934 -1625480.000000 0 0 1
30.638279 -13.060802 -27.542523 43.218969 -0.402963 2.261758 -0.028386 -0.001343 -494445.000000 0 0 1
30.292579 -13.867902 -28.657753 43.945715 -0.429320 2.281170 -0.015086 -0.012134 141583.000000 0 0 1
30.851279 -13.342602 -29.833813 44.943107 -0.408190 2.296702 -0.008000 -0.012934 -14558.800000 0 0 1
30.765439 -14.342502 -30.965013 45.946182 -0.436235 2.310327 -0.001334 -0.017604 112928.000000 0 0 1
31.437509 -15.567502 -30.660103 46.590836 -0.459791 2.289051 0.004822 -0.013786 -15735.300000 0 0 1
31.568609 -16.444602 -31.786283 47.721796 -0.480240 2.299730 0.006297 -0.011338 628173.000000 0 0 1
30.262319 -16.979902 -32.497443 47.541653 -0.511318 2.323422 0.000490 -0.009181 922504.000000 0 0 1
29.599999 -15.982002 -33.286473 47.324133 -0.495081 2.350927 -0.007383 -0.005944 -88259.400000 0 0 1
28.507719 -16.504202 -33.989033 47.332157 -0.524789 2.371859 -0.008919 -0.011795 118016.000000 0 0 1
27.807579 -15.469302 33.748291 46.384350 -0.507666 0.756010 0.012702 -0.004623 64614.900000 0 0 1
27.185699 -14.335902 34.317872 46.068391 -0.485274 0.730362 0.018659 -0.010605 -402463.000000 0 0 1
28.046799 -13.276602 -34.264620 46.227213 -0.442120 2.405685 0.018596 -0.013463 -997884.000000 0 0 1
27.356389 -11.981902 -33.793443 45.099166 -0.412824 2.417822 0.027672 -0.014624 33939.300000 0 0 1
26.458929 -11.527602 33.951280 44.560632 -0.410881 0.704536 0.056126 -0.018426 -34353.900000 0 0 1
25.969549 -10.292702 -34.334660 44.263146 -0.377345 2.458610 0.036510 -0.022079 -47207.200000 0 0 1
20.023591 -29.823566 9.506297 37.158566 -0.979523 1.312090 0.019288 0.003260 567128.000000 0 0 1
20.726991 -29.273666 8.330997 36.823379 -0.954693 1.342578 0.018422 0.002358 869195.000000 0 0 1
21.872291 -30.029966 7.968097 37.995876 -0.941297 1.359518 0.033560 -0.000271 198340.000000 0 0 1
22.370091 -29.854266 6.528997 37.872497 -0.927737 1.397537 0.031031 0.002614 -155161.000000 0 0 1
22.951491 -28.593866 6.273097 37.198547 -0.894428 1.401348 0.027901 0.012460 50995.800000 0 0 1
23.485491 -28.537166 4.982997 37.293008 -0.882200 1.436778 0.024668 0.020226 -127286.000000 0 0 1
23.726591 -27.038966 4.560497 36.260929 -0.850554 1.444693 0.010651 0.014841 311131.000000 0 0 1
24.683191 -26.327766 5.346397 36.482806 -0.817627 1.423721 0.013526 0.007432 359865.000000 0 0 1
24.649291 -24.925466 5.034397 35.414850 -0.790969 1.428158 0.008575 0.009185 -39758.000000 0 0 1
25.400091 -23.947666 5.952097 35.413032 -0.755974 1.401918 0.000406 0.002334 108197.000000 0 0 1
26.760391 -23.682766 5.655797 36.179829 -0.724462 1.413828 -0.005971 0.003382 281114.000000 0 0 1
27.398491 -22.699066 6.496297 36.168036 -0.691866 1.390202 0.015253 -0.007029 189674.000000 0 0 1
26.787591 -21.272366 6.398697 34.799884 -0.671141 1.385873 0.008561 -0.007186 -146474.000000 0 0 1
27.088391 -20.438166 5.235597 34.335274 -0.646374 1.417715 0.008193 0.001399 -109507.000000 0 0 1
26.593691 -19.135866 5.369697 33.199991 -0.623736 1.408345 0.018730 -0.005759 -266862.000000 0 0 1
26.833491 -18.376166 4.009797 32.768860 -0.600467 1.448123 0.029028 -0.001915 -182737.000000 0 0 1
28.163991 -18.141066 3.616597 33.695526 -0.572232 1.463257 0.055084 -0.006340 -149003.000000 0 0 1
28.190891 -17.489366 2.320797 33.256434 -0.555278 1.500955 0.055442 -0.003342 -925268.000000 0 0 1
29.349791 -16.584166 2.151997 33.779815 -0.514326 1.507047 0.065856 -0.019444 -882472.000000 0 0 1
29.161591 -15.475066 3.051397 33.153991 -0.487878 1.478629 0.076951 -0.024886 -619177.000000 0 0 1
30.298591 -14.710366 3.248597 33.837152 -0.451991 1.474641 0.078359 -0.024035 -521983.000000 0 0 1
30.264491 -13.507266 4.268397 33.415638 -0.419779 1.442710 0.091306 -0.028103 168880.000000 0 0 1
29.800491 -13.894166 5.552597 33.345891 -0.436276 1.403502 0.076530 -0.027124 -2443.070000 0 0 1
29.723491 -12.735966 6.349397 32.954599 -0.404816 1.376913 0.062652 -0.029635 -190454.000000 0 0 1
29.018191 -13.092666 7.653397 32.742141 -0.423842 1.334866 0.077592 -0.025929 -821494.000000 0 0 1
27.643891 -13.337366 7.604897 31.621267 -0.449526 1.327916 0.062160 -0.024660 -707818.000000 0 0 1
27.066391 -13.222666 8.884397 31.406384 -0.454427 1.283996 0.067233 -0.012116 28884.400000 0 0 1
27.260691 -14.346866 9.942397 32.370189 -0.484453 1.258603 0.063398 -0.014553 124496.000000 0 0 1
28.381591 -14.207666 10.824297 33.534130 -0.464123 1.242126 0.059352 -0.007508 316428.000000 0 0 1
28.658291 -15.522466 11.312597 34.499557 -0.496402 1.236711 0.058489 -0.020273 41650.900000 0 0 1
29.551091 -15.481466 12.566997 35.649295 -0.482575 1.210536 0.053806 -0.015344 789829.000000 0 0 1
30.933291 -15.123866 12.403097 36.598315 -0.454743 1.225051 0.037609 -0.011549 790468.000000 0 0 1
31.538391 -15.393966 13.684697 37.668491 -0.454084 1.198996 0.039264 -0.012622 -758849.000000 0 0 1
33.050191 -15.365766 13.642297 38.917017 -0.435194 1.212640 0.041803 -0.017860 -891986.000000 0 0 1
33.670791 -14.143066 13.303397 38.868096 -0.397662 1.221464 0.041947 -0.019352 -401555.000000 0 0 1
34.795491 -13.998466 14.092697 40.066038 -0.382494 1.211371 0.023193 -0.013359 -941963.000000 0 0 1
35.666791 -12.750066 14.021197 40.389085 -0.343320 1.216263 0.026845 -0.008676 -183610.000000 0 0 1
-34.808367 -12.839666 13.007197 39.314967 0.353383 1.233596 0.040711 -0.011559 273957.000000 0 0 1
-34.055867 -11.633566 13.048197 38.280509 0.329174 1.222967 0.042478 -0.006009 -265023.000000 0 0 1
-32.996067 -11.434166 11.941697 36.906432 0.333581 1.241300 0.036905 -0.009291 863790.000000 0 0 1
-31.789667 -12.208166 12.040597 36.119222 0.366663 1.230934 0.017980 -0.000626 656838.000000 0 0 1
-31.955967 -13.565166 11.757197 36.652820 0.401443 1.244252 0.012041 -0.004961 -136174.000000 0 0 1
-30.709767 -14.428666 12.130297 36.033600 0.439230 1.227452 0.004094 0.000147 2123170.000000 0 0 1
-29.515467 -14.173766 11.289497 34.633960 0.447695 1.238763 0.007792 0.001206 1128490.000000 0 0 1
-28.501467 -15.081566 11.595197 34.267125 0.486695 1.225605 0.009504 0.002128 -222154.000000 0 0 1
-27.132767 -14.899966 10.914597 32.822621 0.502191 1.231808 0.016532 -0.004408 65853.700000 0 0 1
-27.186667 -14.895866 9.460697 32.411518 0.501238 1.274591 0.010536 -0.004215 188464.000000 0 0 1
-25.866667 -14.979966 8.952097 31.202947 0.524927 1.279808 0.019350 -0.005567 291511.000000 0 0 1
-25.779167 -14.918766 7.405197 30.691562 0.524621 1.327114 0.034772 -0.001073 -23216.900000 0 0 1
-26.288267 -16.057466 6.769797 31.539584 0.548339 1.354469 0.038690 0.001742 85233.100000 0 0 1
-26.132267 -15.809966 5.405397 31.017233 0.544086 1.395631 0.037247 0.000984 -626506.000000 0 0 1
-26.437967 -16.933466 4.395097 31.702133 0.569666 1.431711 0.030222 -0.001654 155948.000000 0 0 1
-27.834667 -17.187066 4.323897 32.997879 0.553166 1.439383 0.006936 -0.011200 82609.900000 0 0 1
-28.222667 -18.205366 3.445997 33.761356 0.572896 1.468549 0.012765 -0.012099 281246.000000 0 0 1
-29.765067 -18.365966 3.565797 35.156547 0.552848 1.469195 0.018458 -0.015459 68256.900000 0 0 1
-30.445867 -17.311166 2.997497 35.151277 0.517002 1.485418 0.031248 -0.015747 308498.000000 0 0 1
-31.840967 -17.453066 3.314097 36.461486 0.501408 1.479778 0.043065 -0.016919 1357800.000000 0 0 1
-32.894167 -16.605866 2.508797 36.933387 0.467502 1.502816 0.044991 -0.022809 560837.000000 0 0 1
-33.089767 -17.105966 1.251197 37.270796 0.477121 1.537220 0.045354 -0.016114 386966.000000 0 0 1
-34.049767 -16.305366 0.506297 37.755899 0.446600 1.557386 0.066162 -0.016807 162159.000000 0 0 1
-34.603967 -17.012566 -0.710303 38.566390 0.456934 1.589215 0.070673 -0.020588 -459367.000000 0 0 1
-33.584967 -17.081366 -1.658003 37.715674 0.470505 1.614771 0.070971 -0.022469 104494.000000 0 0 1
-33.943767 -18.071066 -2.655203 38.545983 0.489217 1.639735 0.072997 -0.022715 187122.000000 0 0 1
-32.870667 -18.343666 -3.746003 37.828605 0.509007 1.669985 0.060673 -0.016815 -11055.700000 0 0 1
-33.227467 -19.375566 -4.587403 38.736564 0.527914 1.689501 0.063765 -0.028759 -240593.000000 0 0 1
-32.138867 -20.173466 -5.007803 38.274712 0.560536 1.702011 0.057815 -0.025920 -171705.000000 0 0 1
-32.547767 -21.388766 -5.888203 39.389178 0.581385 1.720847 0.070067 -0.027723 -34285.300000 0 0 1
-33.153867 -22.379866 -5.070803 40.320594 0.593771 1.696892 0.085961 -0.035728 -246957.000000 0 0 1
-33.774867 -23.333466 -5.891703 41.471731 0.604561 1.713344 0.068961 -0.025241 -138506.000000 0 0 1
-34.075967 -24.674566 -5.167503 42.387602 0.626721 1.693011 0.062146 -0.024542 -12825.000000 0 0 1
-33.022167 -25.499466 -4.716203 41.987246 0.657554 1.683359 0.062136 -0.021060 -604124.000000 0 0 1
-33.496367 -26.708266 -4.254603 43.051594 0.673122 1.669784 0.042888 -0.017006 -88465.400000 0 0 1
-32.356367 -27.632366 -3.863803 42.724830 0.706812 1.661355 0.036487 -0.008931 -1109010.000000 0 0 1
-31.330467 -27.872466 -4.826203 42.210955 0.727055 1.685382 0.044122 -0.007959 670741.000000 0 0 1
-30.422367 -28.933366 -4.508403 42.225416 0.760317 1.677770 0.035434 -0.006620 836782.000000 0 0 1
-29.566067 -28.702666 -3.212903 41.331805 0.770582 1.648609 0.029136 -0.006322 -310802.000000 0 0 1
-30.384067 -28.871066 -2.035303 41.962751 0.759870 1.619318 0.028783 -0.014076 220863.000000 0 0 1
-29.562767 -28.617766 -0.923203 41.155632 0.769157 1.593230 0.023575 -0.013588 -34096.400000 0 0 1
-30.327567 -28.562666 0.379297 41.662106 0.755438 1.561692 0.024623 -0.011805 -349698.000000 0 0 1
-30.679467 -29.773566 0.894497 42.760906 0.770414 1.549876 0.022477 -0.006944 -420227.000000 0 0 1
-31.577067 -29.500666 1.944997 43.257178 0.751415 1.525818 0.034785 -0.005466 -407816.000000 0 0 1
-32.181967 -30.831766 2.371897 44.630737 0.763974 1.517626 0.019282 -0.001589 -467234.000000 0 0 1
-33.235167 -30.676366 3.306897 45.349215 0.745383 1.497811 0.019066 -0.004434 310323.000000 0 0 1
-33.885967 -31.863266 3.790297 46.667899 0.754644 1.489488 0.014338 -0.000127 825326.000000 0 0 1
-34.794567 -32.708166 2.788597 47.835785 0.754500 1.512468 0.016022 0.002329 -149203.000000 0 0 1
-35.543767 -33.652966 3.502897 49.072923 0.758080 1.499354 0.021236 0.001266 -558121.000000 0 0 1
35.093691 -34.277566 2.595897 49.124916 -0.773634 1.517929 0.020978 0.001968 -1602010.000000 0 0 1
33.990991 33.610098 3.224897 47.910606 0.779764 1.503435 0.016758 0.000681 -32869.500000 0 0 1
33.179191 34.235498 4.255697 47.864799 0.801066 1.481768 0.006405 0.001584 866335.000000 0 0 1
32.544591 -33.299166 3.878597 46.722889 -0.796858 1.487688 0.005809 0.003129 -531578.000000 0 0 1
31.462391 -33.257566 2.759797 45.864630 -0.813129 1.510587 0.010125 -0.000210 -617103.000000 0 0 1
32.028491 -33.596066 1.489597 46.440702 -0.809281 1.538716 0.017845 -0.000734 -416286.000000 0 0 1
31.194491 -33.347066 0.407797 45.664969 -0.818738 1.561866 0.018023 0.004543 -901952.000000 0 0 1
31.730291 -34.042466 -0.852903 46.544907 -0.820538 1.589122 0.034183 -0.004727 779889.000000 0 0 1
32.839391 -33.595766 -1.630903 47.008095 -0.796783 1.605497 0.022226 0.001047 866150.000000 0 0 1
34.095791 -33.538966 -0.928203 47.835623 -0.777166 1.590202 0.023452 0.003692 442232.000000 0 0 1
35.351491 -33.358266 -1.816903 48.639521 -0.756397 1.608159 0.019878 0.000575 -59394.100000 0 0 1
35.731891 34.272698 -2.496203 49.574357 0.764557 1.621170 0.024702 -0.008006 120081.000000 0 0 1
-34.903767 -34.219766 -3.602003 49.012649 0.775503 1.644354 0.024242 -0.004015 -271789.000000 0 0 1
-34.128167 33.408398 -4.264203 47.948267 -0.774741 1.659847 0.029962 -0.009713 412220.000000 0 0 1
-32.919367 33.074998 -3.573603 46.801825 -0.787756 1.647227 0.044359 -0.007502 326400.000000 0 0 1
-32.229367 32.122598 -4.369603 45.713092 -0.783739 1.666530 0.050434 -0.011309 -641756.000000 0 0 1
-30.987767 31.526598 -3.746203 44.364424 -0.794017 1.655339 0.057023 -0.013307 -5572.620000 0 0 1
-29.927067 32.534498 -3.583603 44.350480 -0.827119 1.651686 0.021287 -0.023807 1408870.000000 0 0 1
-28.663167 31.927698 -3.237903 43.028352 -0.839224 1.646118 0.016224 -0.025076 1185920.000000 0 0 1
-28.498467 31.702298 -1.730703 42.663728 -0.838567 1.611374 0.018738 -0.019714 -169659.000000 0 0 1
-29.466167 30.732598 -1.344703 42.597603 -0.806433 1.602369 0.022055 -0.008857 -60255.900000 0 0 1
-29.535467 30.495798 0.044797 42.453969 -0.801394 1.569741 0.022465 -0.006051 107210.000000 0 0 1
-30.903667 29.843798 0.337797 42.962810 -0.767953 1.562934 0.019697 -0.008439 -49242.300000 0 0 1
-30.991867 28.439298 -0.059203 42.062965 -0.742475 1.572204 0.025113 -0.013719 271049.000000 0 0 1
-32.319767 28.186698 -0.532003 42.887531 -0.717196 1.583201 0.019429 -0.012049 700938.000000 0 0 1
-32.611867 26.726698 -0.986403 42.176098 -0.686542 1.594186 0.017818 -0.010616 -22379.000000 0 0 1
-32.897367 25.904798 0.134497 41.872585 -0.667037 1.567584 0.025993 -0.012681 -112687.000000 0 0 1
-33.619667 24.789298 -0.303703 41.771803 -0.635353 1.578067 0.041596 -0.000902 -361135.000000 0 0 1
-33.588767 23.637398 0.752497 41.079169 -0.613224 1.552477 0.047944 -0.011264 1618320.000000 0 0 1
-32.294167 23.028198 1.128297 39.679770 -0.619448 1.542357 0.043608 -0.015505 1740510.000000 0 0 1
-31.643667 23.761898 2.155697 39.630752 -0.644090 1.516375 0.048917 -0.019594 -1652080.000000 0 0 1
-30.158367 23.556898 2.294897 38.336942 -0.663114 1.510899 0.040020 -0.028630 -673762.000000 0 0 1
-29.327367 24.325198 1.427497 38.129352 -0.692434 1.533349 0.062538 -0.032840 125482.000000 0 0 1
-29.247867 25.750898 1.829597 39.011458 -0.721901 1.523880 0.035795 -0.025169 -513352.000000 0 0 1
-28.681267 26.658498 0.741397 39.164273 -0.748863 1.551865 0.031090 -0.024557 -329064.000000 0 0 1
-27.318367 26.569898 0.434797 38.110913 -0.771510 1.559387 0.032967 -0.026071 -632219.000000 0 0 1
-26.869367 27.542598 -0.419303 38.480299 -0.797770 1.581693 0.034382 -0.019962 -381998.000000 0 0 1
-25.689867 27.103098 -1.260703 37.364911 -0.812161 1.604543 0.024524 -0.016978 -772107.000000 0 0 1
-26.017367 26.245398 -2.351303 37.030432 -0.789761 1.634336 0.036263 -0.025582 244762.000000 0 0 1
-24.903167 25.635398 -3.038503 35.868842 -0.799886 1.655609 0.031453 -0.012251 862508.000000 0 0 1
-24.045667 24.621098 -2.182003 34.484108 -0.797222 1.634114 0.029171 -0.019696 267726.000000 0 0 1
-24.652367 23.390298 -1.821403 34.031790 -0.759134 1.624343 0.012937 -0.022548 -560161.000000 0 0 1
-23.630267 22.548198 -1.389903 32.691629 -0.761970 1.613325 0.016858 -0.039615 -880846.000000 0 0 1
-24.030967 21.111198 -0.918503 32.000214 -0.720809 1.599503 0.019141 -0.037722 -663566.000000 0 0 1
-24.880367 21.070298 0.209097 32.604200 -0.702671 1.564383 0.005533 -0.030244 550209.000000 0 0 1
-26.237367 21.462998 0.028597 33.897795 -0.685640 1.569953 0.001829 -0.035165 626196.000000 0 0 1
-27.142467 20.675098 -1.010703 34.134948 -0.650963 1.600410 0.002417 -0.031199 -453229.000000 0 0 1
-27.268967 19.304298 -0.638203 33.416460 -0.616023 1.589896 0.001649 -0.022167 376909.000000 0 0 1
-28.079167 18.618798 -1.599403 33.729176 -0.585517 1.618233 0.028397 -0.021266 145556.000000 0 0 1
-28.084767 17.126998 -1.328203 32.921912 -0.547618 1.611151 0.004206 -0.017350 -403643.000000 0 0 1
-28.890667 16.773898 -0.257703 33.408093 -0.526032 1.578510 0.026659 -0.023968 -28339.100000 0 0 1
-29.223667 15.384498 -0.099703 33.025981 -0.484575 1.573815 0.031530 -0.026490 -402639.000000 0 0 1
-28.101367 14.423698 0.296997 31.588259 -0.474210 1.561394 0.035752 -0.019555 -755952.000000 0 0 1
-27.716167 14.562898 1.647297 31.352472 -0.483784 1.518231 0.056720 -0.016732 1398850.000000 0 0 1
-26.322467 14.298898 1.964497 30.019827 -0.497623 1.505310 0.043756 -0.009117 1232240.000000 0 0 1
-25.914967 12.815998 1.951197 28.976585 -0.459270 1.503408 0.043492 -0.013069 -583095.000000 0 0 1
-25.923067 12.214398 0.672597 28.664426 -0.440326 1.547330 0.045202 -0.019304 390935.000000 0 0 1
-25.489867 10.876298 0.762897 27.723802 -0.403302 1.543275 0.045858 -0.012724 -261770.000000 0 0 1
-25.668367 10.184398 -0.607003 27.621649 -0.377717 1.592774 0.058772 -0.020844 -146432.000000 0 0 1
-27.024467 9.964898 -0.907103 28.817422 -0.353268 1.602279 0.061197 -0.032561 29288.900000 0 0 1
-27.119767 9.126698 -2.029003 28.686150 -0.324628 1.641587 0.076948 -0.031664 1099780.000000 0 0 1
-28.593967 8.887798 -2.566503 30.053200 -0.301361 1.656299 0.087437 -0.035411 846712.000000 0 0 1
-28.623167 8.196498 -3.751203 30.008995 -0.278896 1.696127 0.113052 -0.031092 -142108.000000 0 0 1
-29.887267 7.968498 -4.305403 31.229508 -0.260557 1.709100 0.091664 -0.030148 -640157.000000 0 0 1
-10.758109 18.187798 -19.709103 28.896049 -1.036649 2.321385 0.083817 -0.014958 170881.000000 0 0 1
-11.255009 17.257198 -20.662803 29.179403 -0.992882 2.357642 0.096821 -0.020979 330888.000000 0 0 1
-10.627009 17.452898 -21.979203 30.010370 -1.023861 2.392617 0.089883 -0.024891 468177.000000 0 0 1
-10.826809 16.176998 -22.873403 30.035106 -0.980992 2.436506 0.092345 -0.028021 172447.000000 0 0 1
-10.049709 15.051398 -22.487203 28.865473 -0.982084 2.463921 0.085110 -0.020946 4830.470000 0 0 1
-10.317009 13.910598 -23.255603 28.996008 -0.932651 2.501479 0.066975 -0.017555 -125902.000000 0 0 1
-9.506609 12.711598 -22.794803 27.777030 -0.928661 2.533318 0.047711 -0.011340 54642.600000 0 0 1
-8.115409 12.721698 -22.996103 27.504949 -1.002961 2.560879 0.040264 -0.011098 227045.000000 0 0 1
-7.333709 11.718198 -22.349903 26.279604 -1.011594 2.587666 0.025110 -0.006411 717540.000000 0 0 1
-5.789909 11.798998 -22.386603 25.959572 -1.114607 2.610717 0.023277 0.002740 522937.000000 0 0 1
-5.236509 11.431998 -23.667103 26.800063 -1.141262 2.653223 0.020458 -0.004240 -481445.000000 0 0 1
-3.895709 11.054398 -23.543303 26.299494 -1.231974 2.679676 0.017290 -0.003682 -297285.000000 0 0 1
-3.207909 10.741798 -24.889603 27.297788 -1.280590 2.718396 0.029518 -0.003647 -730660.000000 0 0 1
-3.401709 9.415998 -25.329233 27.236055 -1.224118 2.765179 0.022175 -0.012772 255650.000000 0 0 1
-2.852609 9.150798 -26.677933 28.347603 -1.268610 2.796666 0.023127 -0.009842 120838.000000 0 0 1
-2.386009 7.677898 -26.789593 27.970081 -1.269494 2.850026 0.022733 0.004623 259082.000000 0 0 1
-1.135809 7.293598 -26.228633 27.247529 -1.416310 2.867259 0.027400 -0.004327 369464.000000 0 0 1
-1.226609 6.058798 -25.521773 26.259750 -1.371045 2.903956 0.032649 -0.005863 -578949.000000 0 0 1
0.123891 5.677098 -24.948103 25.586180 1.548977 2.917795 0.006205 -0.001198 -582106.000000 0 0 1
0.484491 6.477698 -23.855303 24.723891 1.496142 2.875739 0.011752 -0.006567 244322.000000 0 1 0
1.466491 5.807798 -23.049203 23.814846 1.323463 2.887335 0.014069 -0.003485 151790.000000 0 1 0
1.744191 6.397998 -21.641003 22.634257 1.304649 2.844246 0.019107 -0.004041 -304715.000000 0 1 0
2.421291 7.576498 -21.778703 23.185726 1.261475 2.791425 0.015521 -0.004504 -359473.000000 0 1 0
2.209191 8.374198 -20.640903 22.384249 1.312864 2.744314 0.015742 -0.003243 330114.000000 0 1 0
3.147691 9.636198 -20.561503 22.924652 1.255070 2.683543 0.030494 -0.012213 150971.000000 0 1 0
2.835891 10.560298 -19.452103 22.314714 1.308443 2.629491 0.032287 -0.011754 280204.000000 0 1 0
3.549891 11.802298 -19.490903 23.060600 1.278624 2.577742 0.037964 -0.010529 138941.000000 0 1 0
4.862391 11.794998 -18.679003 22.620123 1.179781 2.542361 0.038942 -0.016423 41728.900000 0 1 0
5.827991 10.900398 -19.171303 22.810590 1.079808 2.568921 0.038786 -0.016955 -454798.000000 0 1 0
6.806291 10.658998 -18.169703 22.137704 1.002513 2.533533 0.038743 -0.017331 207360.000000 0 1 0
7.745391 9.454198 -18.451703 22.132291 0.884425 2.556572 0.051275 -0.030564 -202865.000000 0 1 0
7.042491 8.265498 -18.672103 21.600059 0.865122 2.614845 0.045398 -0.031498 -61679.500000 0 1 0
6.806591 7.966298 -20.031303 22.606297 0.863740 2.659645 0.044972 -0.024356 16029.100000 0 1 0
6.231291 6.602398 -20.335503 22.270010 0.814307 2.721703 0.048691 -0.020179 323302.000000 0 1 0
7.249891 5.640398 -20.036403 22.041607 0.661180 2.711738 0.044826 -0.026782 557069.000000 0 1 0
7.103691 4.385298 -20.692103 22.312696 0.553062 2.758115 0.036318 -0.011503 -103999.000000 0 1 0
7.248591 4.348998 -22.264603 23.815298 0.540404 2.778736 0.038871 -0.011158 -405343.000000 0 1 0
6.176891 4.959798 -22.927803 24.257735 0.676543 2.808926 0.044433 -0.012724 -234691.000000 0 1 0
6.210891 4.750198 -24.333303 25.558740 0.652917 2.830678 0.046956 -0.008798 -351704.000000 0 0 1
5.099091 5.499698 -25.048103 26.146795 0.823178 2.850671 0.028651 -0.004993 -277552.000000 0 0 1
5.403991 6.843998 -25.270543 26.732822 0.902432 2.809310 0.033611 -0.007561 100337.000000 0 0 1
5.024091 7.636298 -24.180303 25.850369 0.988872 2.780170 0.047257 -0.013506 -612813.000000 0 0 1
4.778591 9.097898 -24.713903 26.765345 1.087160 2.747524 0.049532 -0.012212 1152770.000000 0 0 1
3.526991 9.308298 -25.402223 27.282907 1.208604 2.768124 0.058833 -0.005460 487836.000000 0 0 1
2.387991 9.473598 -24.618203 26.485986 1.323872 2.763798 0.040375 -0.003687 140016.000000 0 0 1
1.097291 9.827298 -25.437353 27.291734 1.459599 2.770836 0.030736 0.001131 515471.000000 0 0 1
1.107591 11.196298 -25.684743 28.040861 1.472192 2.728729 0.045408 -0.009624 185168.000000 0 0 1
-0.059109 11.600998 -26.354033 28.794473 -1.565701 2.726915 0.050466 -0.015308 -410859.000000 0 0 1
0.091391 13.127798 -26.676213 29.731595 1.563835 2.684262 0.046298 -0.017771 -53792.900000 0 0 1
-0.082209 13.989998 -25.565113 29.142783 -1.564920 2.640871 0.038278 -0.013480 73512.000000 0 0 1
-0.107709 15.373998 -25.968233 30.178147 -1.563791 2.607043 0.039995 -0.020544 -27511.300000 0 0 1
-0.584009 16.295998 -24.749903 29.638797 -1.534974 2.559022 0.045508 -0.015057 735596.000000 0 0 1
-1.863009 15.825498 -24.308103 29.065462 -1.453614 2.561337 0.036398 -0.013041 171919.000000 0 0 1
-2.070409 16.223998 -22.954003 28.184942 -1.443868 2.522502 0.034675 -0.022635 191368.000000 0 0 1
-3.181409 15.350498 -22.250903 27.218777 -1.366438 2.527825 0.028948 -0.022180 1676800.000000 0 0 1
-4.580509 15.487898 -22.546103 27.734145 -1.283245 2.519974 0.024829 -0.018417 615873.000000 0 0 1
-4.926309 15.162398 -23.858103 28.694527 -1.256652 2.552511 0.029467 -0.023163 -968154.000000 0 0 1
-6.377709 15.149598 -24.334503 29.365856 -1.172334 2.547518 0.019337 -0.019099 -113955.000000 0 0 1
-6.937609 16.477998 -24.484003 30.317012 -1.172299 2.510866 0.033075 -0.014172 415249.000000 0 0 1
-8.069309 16.385898 -25.350443 31.245101 -1.113203 2.517239 0.064293 -0.022226 227984.000000 0 0 1
-8.666409 17.732698 -25.839293 32.514985 -1.116210 2.489291 0.068729 -0.024079 27334.400000 0 0 1
-9.205409 18.597498 -24.832103 32.361085 -1.111172 2.445486 0.069319 -0.023221 382119.000000 0 0 1
-10.105409 19.531898 -25.431473 33.621037 -1.093342 2.428612 0.066655 -0.015843 240496.000000 0 0 1
-10.693409 20.480598 -24.364303 33.577122 -1.089607 2.382734 0.050629 -0.008673 -161595.000000 0 0 1
-9.887409 21.580198 -24.025003 33.773756 -1.141169 2.362215 0.063410 -0.005541 110703.000000 0 0 1
-10.352209 22.806298 -24.566703 35.083021 -1.144688 2.346537 0.057514 -0.010618 -100952.000000 0 0 1
-10.167909 23.121998 -26.105853 36.325318 -1.156499 2.372682 0.039096 -0.003302 186553.000000 0 0 1
-10.930409 22.253298 -26.967673 36.632479 -1.114228 2.398188 0.045417 -0.006860 482562.000000 0 0 1
-10.816609 22.776798 -28.247963 37.864614 -1.127433 2.412870 0.054291 -0.000364 -251063.000000 0 0 1
-11.559209 21.970598 -29.288073 38.394188 -1.086470 2.438468 0.048831 -0.004160 -129121.000000 0 0 1
-10.874809 20.802098 -29.782703 37.920946 -1.089095 2.474121 0.055495 -0.014079 206499.000000 0 0 1
-10.830609 19.632698 -28.898713 36.577049 -1.066678 2.481732 0.067152 -0.014230 -421167.000000 0 0 1
-9.795709 18.646998 -29.439373 36.198662 -1.087096 2.520550 0.049258 -0.014401 -1331760.000000 0 0 1
-8.510009 19.183698 -29.464873 36.174760 -1.153272 2.522688 0.041167 -0.016271 -108357.000000 0 0 1
-7.443109 18.476298 -30.093973 36.089066 -1.187839 2.556898 0.036264 -0.012455 612082.000000 0 0 1
-7.060409 17.119798 -29.496653 34.827997 -1.179636 2.580969 0.051309 -0.019412 -944375.000000 0 0 1
-8.034109 16.098398 -29.600163 34.639211 -1.107899 2.595437 0.040050 -0.019693 -203729.000000 0 0 1
-7.749509 14.989798 -28.789783 33.370654 -1.093653 2.611435 0.027740 -0.020576 -462105.000000 0 0 1
-8.903509 13.989198 -28.606053 33.064730 -1.004001 2.616252 0.049213 -0.028313 200115.000000 0 0 1
-9.846309 14.516898 -27.655123 32.748984 -0.974807 2.576348 0.070813 -0.033832 534126.000000 0 0 1
-11.005609 13.695998 -27.519553 32.650108 -0.893886 2.573377 0.094411 -0.042343 231051.000000 0 0 1
-12.046809 14.223798 -26.545133 32.435877 -0.868077 2.529397 0.078735 -0.031570 -479489.000000 0 0 1
-12.656209 15.373298 -27.007023 33.554392 -0.882033 2.506258 0.072247 -0.027390 -574626.000000 0 0 1
-13.608009 15.721498 -26.010963 33.300354 -0.857334 2.467225 0.061776 -0.031798 398180.000000 0 0 1
-14.499309 16.948898 -26.440133 34.591556 -0.863134 2.440832 0.045464 -0.028638 324760.000000 0 0 1
-13.850909 18.182398 -26.443103 34.952610 -0.919801 2.428805 0.040600 -0.016163 316275.000000 0 0 1
-14.873509 19.158998 -26.613253 36.007689 -0.910662 2.402528 0.018802 -0.012135 216435.000000 0 0 1
-14.313009 20.588998 -26.617423 36.568515 -0.963314 2.386019 0.032588 -0.012904 321619.000000 0 0 1
-15.282609 21.530398 -27.096173 37.832774 -0.953513 2.369151 -0.002909 -0.005003 376049.000000 0 0 1
-14.748709 22.829598 -27.231533 38.474295 -0.997214 2.357154 0.007820 -0.003705 37948.000000 0 0 1
-14.426309 23.588698 -25.882673 37.874237 -1.021908 2.323185 -0.009891 -0.008274 562585.000000 0 0 1
-13.613709 24.739598 -26.193883 38.516234 -1.067738 2.318660 0.011292 -0.010414 488789.000000 0 0 1
-13.438209 25.505598 -25.000003 38.159155 -1.085882 2.285179 0.022984 -0.011467 -74041.700000 0 0 1
-12.947409 26.915798 -25.279003 39.129574 -1.122436 2.273172 0.027081 -0.007518 -133782.000000 0 0 1
-13.966809 27.766498 -25.738333 40.354826 -1.104744 2.262436 0.031440 -0.016048 89396.900000 0 0 1
-14.355509 28.891598 -24.916103 40.762940 -1.109652 2.228428 0.039003 -0.013716 205212.000000 0 0 1
-15.680409 29.599598 -25.309063 41.982855 -1.083632 2.217856 0.029733 -0.016169 601089.000000 0 0 1
-16.842409 28.884798 -24.917703 41.700003 -1.042904 2.211234 0.020450 -0.016896 91134.500000 0 0 1
-17.980909 29.252198 -25.694093 42.885785 -1.019648 2.213208 0.020131 -0.014180 557776.000000 0 0 1
-19.115909 28.187598 -25.562003 42.583737 -0.974874 2.214643 0.041719 -0.007372 -87831.400000 0 0 1
-19.682709 28.118298 -24.319503 42.065258 -0.960073 2.187241 0.039609 -0.009986 -315749.000000 0 0 1
-20.607609 27.042998 -24.308203 41.795766 -0.919640 2.191484 0.045427 -0.026814 82184.400000 0 0 1
-21.338909 26.881398 -22.897103 41.258162 -0.899837 2.159125 0.053607 -0.024483 764542.000000 0 0 1
-22.368709 27.859298 -22.641903 42.298409 -0.894279 2.135647 0.049066 -0.017120 390676.000000 0 0 1
-22.556109 28.072098 -21.270003 41.823842 -0.893921 2.104310 0.032027 -0.010330 292835.000000 0 0 1
-23.923009 28.740298 -20.982703 42.878770 -0.876618 2.082140 0.022283 -0.004357 260956.000000 0 0 1
-25.088559 27.972298 -21.076703 43.082626 -0.839693 2.081987 0.021685 -0.011540 338020.000000 0 0 1
-26.281689 28.736898 -20.886003 44.190062 -0.829994 2.063081 0.024737 -0.005552 1349690.000000 0 0 1
-27.629519 27.973398 -21.147303 44.644258 -0.791583 2.064266 0.015292 -0.007122 641382.000000 0 0 1
-27.753889 27.456998 -22.453103 45.036729 -0.780021 2.092723 0.015742 -0.008564 232839.000000 0 0 1
-29.119299 27.159998 -22.704303 45.837588 -0.750598 2.089000 0.013136 -0.001238 138147.000000 0 0 1
-29.481609 26.660998 -24.096603 46.482474 -0.735200 2.115777 0.010422 0.005180 -59775.100000 0 0 1
-28.844729 25.473998 -24.475803 45.607103 -0.723423 2.137278 0.024933 0.002854 -249002.000000 0 0 1
-29.011689 25.221298 -25.870053 46.336288 -0.715621 2.163145 0.029718 0.004519 10803.400000 0 0 1
-29.003739 23.725898 -26.323673 45.793786 -0.685638 2.183194 0.033288 0.001253 -478763.000000 0 0 1
-27.711659 23.206798 -26.338453 44.723658 -0.697156 2.200513 0.043517 -0.009536 -339045.000000 0 0 1
-27.832099 21.958098 -27.010163 44.568293 -0.667966 2.221869 0.047407 -0.014209 -435792.000000 0 0 1
-26.718929 20.945998 -26.820093 43.266077 -0.664870 2.239395 0.049156 -0.010495 -442657.000000 0 0 1
-26.778579 20.359998 -25.536943 42.234551 -0.650066 2.220117 0.047635 -0.007425 417648.000000 0 0 1
-26.021849 19.144398 -25.436553 41.117670 -0.634289 2.237792 0.032518 -0.009929 122603.000000 0 0 1
-26.937099 17.914498 -25.313043 41.076595 -0.586882 2.234756 0.030914 0.000554 -184684.000000 0 0 1
-27.727119 17.647698 -26.442753 42.183570 -0.566811 2.248299 0.023118 0.003164 -1507.480000 0 0 1
-28.443379 16.467098 -26.263883 42.071162 -0.524793 2.244997 0.006928 -0.001957 -348594.000000 0 0 1
-29.256349 15.985998 -27.500653 43.217728 -0.500084 2.260525 -0.003082 -0.005472 -214562.000000 0 0 1
-30.505469 16.563698 -27.723553 44.424488 -0.497434 2.244724 0.001661 -0.005346 -276628.000000 0 0 1
-30.997829 16.225998 -29.023573 45.458951 -0.482236 2.263288 0.012446 -0.006641 395845.000000 0 0 1
-32.210389 17.120298 -29.455743 46.885547 -0.488540 2.250095 0.025612 -0.014005 139730.000000 0 0 1
-33.363319 16.782198 -28.734763 47.121543 -0.466055 2.226606 0.008641 -0.008362 -298095.000000 0 0 1
-34.518535 17.359298 -29.320933 48.503521 -0.465963 2.219949 0.017759 -0.006283 1169250.000000 0 0 1
35.600827 16.842998 -28.672163 48.715484 0.441903 2.200077 0.007164 -0.006640 930653.000000 0 0 1
35.382879 17.457298 -27.397583 48.034705 0.458340 2.177753 0.002370 -0.010142 -160877.000000 0 0 1
34.089679 17.145798 -26.943673 46.712376 0.466014 2.185602 0.006186 -0.014164 -171142.000000 0 0 1
33.597279 18.056898 -25.812023 46.055285 0.493158 2.165734 0.007317 -0.011839 -146442.000000 0 0 1
33.234179 19.326298 -26.311983 46.586875 0.526719 2.170980 0.007070 -0.015398 98691.700000 0 0 1
32.706379 20.202598 -25.316293 46.030065 0.553330 2.153154 0.016105 -0.012833 -731709.000000 0 0 1
32.017159 21.525098 -25.784953 46.403579 0.591892 2.159962 0.012398 -0.014893 145257.000000 0 0 1
30.667229 21.510998 -26.183503 45.703149 0.611687 2.180841 0.013111 -0.013830 498585.000000 0 0 1
29.725519 21.385998 -25.057903 44.371904 0.623660 2.170896 0.022375 -0.012927 161933.000000 0 0 1
28.292089 21.196898 -25.566933 43.628189 0.642999 2.196933 0.005765 -0.011980 -295768.000000 0 0 1
28.061159 19.924598 -26.102553 43.194462 0.617434 2.219687 0.007413 -0.016419 -164034.000000 0 0 1
26.772389 19.888298 -26.674203 42.706186 0.638920 2.245413 0.020357 -0.015253 -204091.000000 0 0 1
26.193149 18.430198 -26.719773 41.709705 0.613156 2.266092 0.032002 -0.012941 8020.530000 0 0 1
26.945779 17.471598 -27.482313 42.268301 0.575248 2.278627 0.019115 -0.011157 -118896.000000 0 0 1
28.081499 17.024898 -26.781303 42.375181 0.545015 2.254933 0.015768 -0.009486 -679709.000000 0 0 1
28.940529 16.214698 -27.747763 43.248225 0.510699 2.267370 0.013349 -0.006521 -527695.000000 0 0 1
28.445569 15.015798 -28.338803 42.868547 0.485701 2.293031 0.020494 -0.010343 280599.000000 0 0 1
27.672699 14.055998 -27.589643 41.527554 0.469977 2.297446 0.024428 -0.008757 -210306.000000 0 0 1
28.411739 13.172898 -26.597043 41.087162 0.434141 2.274875 0.022476 -0.002582 -350534.000000 0 0 1
29.075589 13.842998 -25.559253 41.113184 0.444349 2.241682 0.022664 -0.004241 -89342.900000 0 0 1
29.651369 12.950198 -24.651903 40.677114 0.411780 2.221867 0.026813 -0.001008 -283768.000000 0 0 1
-14.503509 -31.713866 -24.011303 42.339860 1.141869 2.173788 0.065576 -0.005881 168486.000000 0 0 1
-13.684509 -30.717666 -24.591703 41.660445 1.151697 2.202213 0.063674 -0.015902 196567.000000 0 0 1
-13.952109 -30.637966 -25.974633 42.520911 1.143472 2.227952 0.046446 -0.014743 213626.000000 0 0 1
-13.264109 -29.374866 -26.623663 41.804770 1.146657 2.261211 0.046391 -0.015392 144940.000000 0 0 1
-13.727509 -28.061066 -26.252213 40.804983 1.115825 2.269673 0.055968 -0.001381 -267279.000000 0 0 1
-12.981309 -27.077566 -26.866913 40.293175 1.123754 2.300684 0.039661 -0.004651 -417496.000000 0 0 1
-13.485909 -25.688066 -26.521413 39.308165 1.087359 2.311361 0.017966 0.005890 -228173.000000 0 0 1
-13.045409 -25.245366 -25.260833 38.021321 1.093843 2.297468 0.020325 -0.015460 138783.000000 0 0 1
-13.504309 -23.908466 -25.063003 37.177079 1.056636 2.310612 0.017553 -0.010784 -176017.000000 0 0 1
-13.130009 -23.351666 -23.655003 35.738727 1.058579 2.294130 0.025492 -0.008139 486787.000000 0 0 1
-11.739909 -23.079666 -23.471403 34.948579 1.100238 2.307160 0.026319 -0.018916 285675.000000 0 0 1
-11.543109 -22.268666 -22.376203 33.612963 1.092572 2.299230 0.016345 -0.009683 -1036590.000000 0 0 1
-10.078309 -22.085066 -22.096103 32.826212 1.142682 2.309221 0.019317 -0.011997 -1081790.000000 0 0 1
-9.574709 -21.057966 -22.924803 32.567769 1.144054 2.351685 0.021615 -0.008011 204931.000000 0 0 1
-8.187809 -20.877666 -22.669203 31.887457 1.197049 2.361592 0.033525 -0.005921 412665.000000 0 0 1
-7.565309 -19.642166 -23.440203 31.503836 1.203151 2.409897 0.035668 0.002079 123425.000000 0 0 1
-8.045409 -18.395566 -22.972203 30.509795 1.158507 2.423322 0.016894 0.001059 -105936.000000 0 0 1
-8.397909 -17.460266 -23.954903 30.809465 1.122486 2.461505 0.008369 -0.002006 93988.900000 0 0 1
-7.274109 -16.776766 -24.823803 30.831700 1.161679 2.506706 0.024774 -0.012218 365917.000000 0 0 1
-6.736909 -17.539966 -25.850193 31.957297 1.204081 2.513072 0.025729 -0.015985 467983.000000 0 0 1
-5.682009 -16.853566 -26.549703 31.956449 1.245624 2.551356 0.021328 -0.021549 519182.000000 0 0 1
-5.234409 -17.461966 -27.843843 33.280608 1.279559 2.561914 0.031343 -0.010574 406901.000000 0 0 1
-6.263609 -17.236766 -28.827953 34.167086 1.222246 2.575000 0.053804 -0.013625 719628.000000 0 0 1
-5.950409 -17.964966 -29.955723 35.432933 1.250946 2.578148 0.051794 -0.023878 -522804.000000 0 0 1
-6.877909 -17.635566 -31.097073 36.405312 1.198938 2.594788 0.057714 -0.023424 -352130.000000 0 0 1
-6.581409 -16.550266 -31.986213 36.610710 1.192307 2.633522 0.053899 -0.023802 -87634.600000 0 0 1
-6.537409 -15.284366 -31.373733 35.505784 1.166625 2.654341 0.038516 -0.024245 -302057.000000 0 0 1
-7.063609 -14.151366 -32.294353 35.959435 1.107832 2.686175 0.045227 -0.025223 -324421.000000 0 0 1
-6.338109 -14.037366 -33.452473 36.827805 1.146682 2.710114 0.038227 -0.030207 -415397.000000 0 0 1
-6.980909 -13.206966 34.294616 37.406921 1.084549 0.410807 0.042255 -0.023806 -209996.000000 0 0 1
-7.233309 -11.717466 -34.119091 36.793099 1.017746 2.757992 0.030489 -0.018740 604928.000000 0 0 1
-6.066309 -10.882466 -34.072033 36.278528 1.062260 2.791028 0.027310 -0.016045 329493.000000 0 0 1
-5.584809 -10.601266 33.378408 35.463996 1.085935 0.344657 0.023787 -0.021771 61034.500000 0 0 1
-4.607109 -9.403566 33.254658 34.864377 1.115235 0.305059 0.009265 -0.016834 -110881.000000 0 0 1
-4.480409 -8.852466 31.942608 33.448025 1.102265 0.301162 0.010496 -0.011271 -397071.000000 0 0 1
-3.553909 -7.825266 31.843638 32.983061 1.144490 0.263615 0.000533 -0.013990 -1427280.000000 0 0 1
-3.719909 -6.862166 30.644148 31.622632 1.074047 0.249413 -0.003712 -0.010068 -193663.000000 0 0 1
-4.843909 -6.032566 30.699558 31.659409 0.894253 0.246870 0.007022 -0.013805 -759271.000000 0 0 1
-6.058409 -6.640266 30.397278 31.698453 0.831186 0.287515 0.007158 -0.014128 -1372270.000000 0 0 1
-7.242609 -5.689366 30.424888 31.788332 0.665862 0.293944 0.004280 -0.009306 173719.000000 0 0 1
-8.404009 -6.328066 29.891928 31.689101 0.645407 0.338399 0.014258 -0.005230 -433057.000000 0 0 1
-9.560409 -5.550166 29.905768 31.883549 0.525985 0.354072 0.014960 -0.005078 -223239.000000 0 0 1
-10.683709 -6.199266 29.079428 31.594076 0.525774 0.401675 0.028847 -0.005978 -248961.000000 0 0 1
-10.476209 -6.115566 27.712018 30.250736 0.528391 0.412610 0.020632 -0.003068 354837.000000 0 0 1
-11.500009 -6.786166 26.999748 30.121232 0.533109 0.459286 0.035066 -0.011519 83117.200000 0 0 1
-11.317109 -6.604366 25.451308 28.626276 0.528254 0.475445 0.022244 -0.007741 240395.000000 0 0 1
-10.219109 -7.391766 24.984158 27.987078 0.626211 0.467488 0.015766 -0.000555 462307.000000 0 0 1
-9.587509 -6.901966 23.797238 26.568139 0.623952 0.460780 0.016054 -0.003947 -612987.000000 0 0 1
-10.302009 -6.818166 22.524668 25.690065 0.584646 0.501661 0.026726 -0.003033 158748.000000 0 0 1
-11.506609 -6.024866 22.532768 26.008204 0.482349 0.522906 0.024143 -0.003507 411059.000000 0 0 1
-12.307909 -6.175466 21.414868 25.460117 0.465045 0.571456 0.028617 -0.001155 -178593.000000 0 0 1
-13.436209 -5.129066 21.362168 25.752305 0.364662 0.592541 0.025495 0.007646 -2364.090000 0 0 1
-13.008109 -3.843766 21.031668 25.026316 0.287314 0.572809 0.014426 0.006350 124967.000000 0 0 1
-14.097309 -2.935966 21.139668 25.578107 0.205329 0.597979 0.015630 0.005586 396962.000000 0 0 1
-13.766709 -1.565966 20.540868 24.777041 0.113263 0.593429 0.008931 0.005443 346963.000000 0 1 0
-12.729009 -0.881966 21.263468 24.797996 0.069177 0.540470 0.009669 0.002514 328319.000000 0 1 0
-12.789609 0.544034 21.129968 24.705174 -0.042512 0.544695 0.011113 -0.004434 -266046.000000 0 1 0
-12.443009 1.160034 19.678868 23.311628 -0.092959 0.565790 0.021387 -0.008268 10971.700000 0 1 0
-13.282309 0.920034 18.579068 22.857120 -0.069157 0.621794 0.026980 -0.002567 -358216.000000 0 1 0
-14.545809 1.525034 18.496268 23.580038 -0.104462 0.669062 0.019680 0.002793 -71223.000000 0 1 0
-15.428309 0.770034 17.478568 23.326508 -0.049869 0.723791 0.027707 0.000026 -183626.000000 0 1 0
-15.793009 -0.506966 18.012568 23.960984 0.032090 0.720091 0.011320 0.003949 534619.000000 0 1 0
-16.824909 -1.090966 17.211868 24.093903 0.064752 0.775078 0.014787 0.010626 244042.000000 0 1 0
-16.878509 -2.636966 17.438368 24.411766 0.154979 0.775112 0.020847 0.008313 -104829.000000 0 1 0
-17.360309 -3.033966 18.689768 25.688377 0.173017 0.756042 0.018348 0.008006 -136032.000000 0 0 1
-17.182009 -4.444366 18.764168 25.827656 0.253116 0.757560 0.024820 0.009068 -247309.000000 0 0 1
-17.733209 -5.109666 20.003268 27.215916 0.280542 0.745153 0.023664 0.012207 -276406.000000 0 0 1
-17.106509 -4.736566 21.190168 27.642194 0.270119 0.697286 0.018714 0.005611 690347.000000 0 0 1
-18.067609 -4.670866 22.292968 29.072872 0.252983 0.696961 0.019218 -0.002203 648820.000000 0 0 1
-18.576309 -6.031866 22.890468 30.090466 0.313967 0.706372 0.028839 -0.007187 96652.700000 0 0 1
-17.604209 -6.732166 23.622568 30.220125 0.365258 0.673436 0.028210 -0.006425 -203179.000000 0 0 1
-16.531109 -7.252166 22.896968 29.157205 0.413416 0.667626 0.021723 0.000434 -239149.000000 0 0 1
-15.319809 -7.701766 23.766058 29.305959 0.465831 0.625000 0.022206 -0.002962 184981.000000 0 0 1
-15.578509 -8.933966 24.417928 30.310739 0.520691 0.634131 0.021198 -0.008276 721339.000000 0 0 1
-14.608409 -9.168966 25.468978 30.759460 0.560503 0.595256 0.034188 -0.006268 692711.000000 0 0 1
-15.090309 -10.247566 26.494648 32.166697 0.596549 0.602949 0.023490 -0.006467 -59673.900000 0 0 1
-15.081209 -11.609966 26.064938 32.274063 0.656072 0.630704 0.020992 -0.011053 -101571.000000 0 0 1
-14.204609 -12.369766 26.873228 32.816953 0.716462 0.611335 0.035845 -0.011521 -20538.900000 0 0 1
-14.421009 -13.877066 26.646538 33.325312 0.766179 0.644187 0.026474 -0.017147 309268.000000 0 0 1
-15.561509 -14.346266 27.375558 34.603426 0.744788 0.658154 0.018102 -0.019705 449182.000000 0 0 1
-15.767309 -15.778066 27.314178 35.264993 0.785739 0.684807 0.031727 -0.012785 -603074.000000 0 0 1
-14.729709 -16.670966 27.942288 35.716339 0.847142 0.672384 0.040512 -0.017559 -1336450.000000 0 0 1
-13.546309 -16.769066 27.240458 34.738258 0.891308 0.669450 0.045266 -0.025928 -867563.000000 0 0 1
-12.716109 -17.651866 27.951568 35.420022 0.946521 0.661379 0.053082 -0.021813 -763374.000000 0 0 1
-11.356709 -17.868766 27.297578 34.545989 1.004638 0.659692 0.056567 -0.023748 -427325.000000 0 0 1
-10.462209 -18.534866 28.171058 35.307330 1.056918 0.647024 0.054694 -0.025166 -218862.000000 0 0 1
-9.236609 -18.790866 27.545558 34.600135 1.113933 0.649955 0.056608 -0.017972 -318270.000000 0 0 1
-8.223809 -19.553366 28.408948 35.454668 1.172673 0.641373 0.056514 -0.019800 -291225.000000 0 0 1
-8.579109 -20.883166 28.761428 36.564019 1.181002 0.665506 0.054825 -0.011798 301589.000000 0 0 1
-7.564509 -21.543166 29.529238 37.327010 1.233113 0.658198 0.055678 -0.011604 474934.000000 0 0 1
-8.081509 -22.817566 30.273038 38.760920 1.230403 0.674500 0.055038 -0.012093 194809.000000 0 0 1
-8.084809 -23.903366 29.371038 38.721995 1.244646 0.709772 0.062076 -0.014032 105402.000000 0 0 1
-8.539809 -25.068066 30.040838 40.047325 1.242462 0.722532 0.057627 -0.012065 -207714.000000 0 0 1
-8.601309 -26.269666 29.099698 40.135649 1.254374 0.759713 0.060404 -0.020398 428619.000000 0 0 1
-9.826409 -26.352966 28.342768 39.929308 1.213888 0.781548 0.062547 -0.018615 752326.000000 0 0 1
-9.850509 -27.434966 27.480538 40.061076 1.226083 0.814866 0.066351 -0.018059 -150445.000000 0 0 1
-11.216709 -27.653366 26.781968 40.097344 1.185456 0.839381 0.069062 -0.009726 -90505.000000 0 0 1
-11.518109 -26.986166 25.568918 38.919013 1.167389 0.853994 0.074680 -0.011432 304521.000000 0 0 1
-11.622709 -25.578266 25.570348 37.989179 1.144291 0.832410 0.065154 -0.002792 -364704.000000 0 0 1
-11.853609 -24.985666 24.131178 36.702933 1.127824 0.853337 0.070122 -0.018053 -426369.000000 0 0 1
-13.089109 -25.279666 23.553468 36.947965 1.093032 0.879578 0.058236 -0.010308 -311288.000000 0 0 1
-13.184909 -24.668866 22.310668 35.779333 1.079950 0.897504 0.064270 -0.011002 127629.000000 0 0 1
-14.570009 -24.824566 21.643268 36.013543 1.040051 0.926075 0.046969 -0.013880 21743.900000 0 0 1
-14.968709 -26.182666 21.283968 36.913433 1.051443 0.956246 0.063045 -0.016189 -400535.000000 0 0 1
-16.241909 -26.240866 20.743168 37.184159 1.016556 0.979004 0.058094 -0.019810 -799078.000000 0 0 1
-16.523809 -27.607566 20.079468 37.926231 1.031462 1.012862 0.065800 -0.028247 115438.000000 0 0 1
-15.646909 -28.060066 19.036168 37.343925 1.062120 1.035899 0.062720 -0.030370 203140.000000 0 0 1
-15.704109 -29.487566 18.787168 38.328752 1.081436 1.058525 0.084704 -0.023671 -14531.000000 0 0 1
-14.604809 -29.834966 17.763268 37.669077 1.115568 1.079736 0.089224 -0.032324 116398.000000 0 0 1
-14.772209 -29.256066 16.484468 36.686145 1.103214 1.104772 0.085922 -0.037886 -236880.000000 0 0 1
-13.567309 -29.350966 15.779368 35.979710 1.137807 1.116797 0.086030 -0.036127 -115611.000000 0 0 1
-13.725309 -28.816966 14.369368 35.004005 1.126294 1.147787 0.064054 -0.023849 -107826.000000 0 0 1
-13.911409 -27.413466 14.280068 33.896102 1.101194 1.135930 0.054773 -0.021986 98296.000000 0 0 1
-14.225509 -26.820766 12.990468 33.022278 1.083132 1.166486 0.047670 -0.020361 39275.900000 0 0 1
-13.111609 -26.952266 11.934568 32.261011 1.118027 1.191854 0.038130 -0.015966 49259.400000 0 0 1
-13.380309 -26.233266 10.785068 31.361355 1.099140 1.219733 0.025971 -0.005961 401221.000000 0 0 1
-12.425409 -26.574866 9.767768 30.919631 1.133434 1.249383 0.023513 -0.001855 471972.000000 0 0 1
-12.923409 -26.055466 8.372368 30.265465 1.110357 1.290510 0.027295 0.004748 182697.000000 0 0 1
-14.071609 -26.730366 7.869768 31.216276 1.086231 1.315942 0.044748 -0.007659 -81072.100000 0 0 1
-14.399609 -26.092066 6.676768 30.540529 1.066513 1.350396 0.043271 -0.008644 -140742.000000 0 0 1
-15.426809 -26.744966 5.741968 31.404615 1.047602 1.386924 0.041013 -0.007971 -80368.500000 0 0 1
-14.949809 -27.837066 4.974768 31.986675 1.077952 1.414636 0.056564 -0.009970 168203.000000 0 0 1
-15.675609 -27.955166 3.738468 32.267510 1.059744 1.454677 0.058455 -0.003754 19317.200000 0 0 1
-15.162009 -29.117166 2.882568 32.954591 1.090707 1.483214 0.057839 -0.004521 67540.800000 0 0 1
-13.883609 -28.779266 2.378668 32.041517 1.121314 1.496491 0.050066 0.000094 -179303.000000 0 0 1
-13.313109 -29.851066 1.699068 32.729373 1.151287 1.518860 0.049323 -0.003166 -146240.000000 0 0 1
-12.037109 -29.549566 0.900168 31.919887 1.183967 1.542592 0.039204 -0.003856 -206504.000000 0 0 1
-12.175309 -28.970666 -0.398532 31.427639 1.172945 1.583478 0.054982 -0.001477 -76783.500000 0 0 1
-12.284009 -27.561066 -0.336932 30.176527 1.151523 1.581962 0.052531 -0.008483 -258707.000000 0 0 1
-11.896209 -26.864066 -1.652132 29.426644 1.153921 1.626970 0.062934 -0.010620 -314340.000000 0 0 1
-10.518109 -26.812766 -1.871332 28.862726 1.196963 1.635677 0.057226 -0.014701 -795214.000000 0 0 1
-10.209109 -25.935066 -2.936632 28.026369 1.195784 1.675770 0.073193 -0.022862 239136.000000 0 0 1
-8.798609 -26.293366 -3.446732 27.939875 1.247877 1.694474 0.064682 -0.027135 -31428.600000 0 0 1
-8.393809 -25.494166 -4.524232 27.219060 1.252730 1.737787 0.064160 -0.031952 -448917.000000 0 0 1
-7.135409 -25.919266 -4.992032 27.343058 1.302157 1.754396 0.056070 -0.023784 1234.190000 0 0 1
-6.409509 -24.845866 -5.791732 26.304810 1.318330 1.792793 0.043264 -0.024479 -571984.000000 0 0 1
-6.978709 -24.690666 -7.041132 26.606558 1.295336 1.838626 0.054478 -0.024963 78680.300000 0 0 1
-6.275009 -23.647266 -7.738332 25.660295 1.311415 1.877133 0.045311 -0.017564 -111197.000000 0 0 1
-6.619509 -23.636266 -9.244932 26.228987 1.297734 1.931006 0.043728 -0.011424 -290357.000000 0 0 1
-5.890909 -24.690566 -9.794132 27.207571 1.336585 1.939041 0.026432 -0.012485 -267023.000000 0 0 1
-5.941509 -24.851166 -11.223432 27.907838 1.336118 1.984672 0.024144 -0.004427 -195279.000000 0 0 1
-7.271809 -25.281266 -11.865832 28.858614 1.290721 1.994535 0.029033 -0.007093 -194117.000000 0 0 1
-7.215309 -25.570466 -13.275732 29.701086 1.295773 2.034181 0.037243 -0.005424 -830097.000000 0 0 1
-8.329209 -26.171166 -13.816032 30.743917 1.262673 2.036880 0.049882 -0.000669 -1272060.000000 0 0 1
-8.374009 -25.877966 -15.325432 31.219578 1.257835 2.083909 0.056071 -0.013773 154214.000000 0 0 1
-7.460409 -26.690566 -16.061232 32.031347 1.298238 2.096038 0.035373 -0.020599 644304.000000 0 0 1
-6.169409 -26.068666 -16.133032 31.271580 1.338412 2.112855 0.047614 -0.025613 -20098.900000 0 0 1
-5.173509 -26.947066 -16.899232 32.225667 1.381117 2.122810 0.030756 -0.018609 -1081150.000000 0 0 1
-5.553009 -27.006166 -18.243232 33.060315 1.368003 2.155337 0.055382 -0.022755 483948.000000 0 0 1
-4.510509 -27.654866 -18.963832 33.834350 1.409120 2.165774 0.041470 -0.029082 -177730.000000 0 0 1
-25.190259 14.329198 -5.272103 29.456241 -0.517192 1.750747 0.047978 -0.019369 -178596.000000 0 0 1
-25.294749 12.979298 -4.827603 28.837341 -0.474090 1.738996 0.043361 -0.016161 413721.000000 0 0 1
-24.033809 12.377498 -5.069703 27.505060 -0.475578 1.756175 0.064191 -0.019018 -122512.000000 0 0 1
-23.926509 10.999298 -4.436203 26.704724 -0.430901 1.737691 0.070919 -0.030086 -20560.400000 0 0 1
-24.301309 9.873998 -5.246003 26.750140 -0.385939 1.768187 0.071247 -0.030489 -35741.700000 0 0 1
-25.694059 9.838998 -5.437003 28.045526 -0.365704 1.765895 0.068609 -0.031049 -609111.000000 0 0 1
-26.074439 9.162598 -6.765103 28.453404 -0.337923 1.810856 0.082874 -0.024430 -59752.400000 0 0 1
-25.673889 10.014798 -7.823003 28.646887 -0.371923 1.847394 0.106736 -0.012558 206176.000000 0 0 1
-25.943019 9.457998 -9.112103 29.077902 -0.349594 1.889535 0.103170 -0.014568 -530889.000000 0 0 1
-26.413559 10.507098 -10.147203 30.183455 -0.378601 1.913659 0.077419 -0.010591 -477860.000000 0 0 1
-25.570159 11.527898 -10.612103 29.989034 -0.423547 1.932498 0.085730 -0.003970 -226774.000000 0 0 1
-25.866589 12.015098 -11.907703 30.906899 -0.434849 1.966304 0.068114 -0.004206 -241574.000000 0 0 1
-25.069469 13.246798 -12.416803 30.953722 -0.486111 1.983558 0.063659 -0.000435 -81926.900000 0 0 1
-25.132699 14.457998 -11.621403 31.236890 -0.522034 1.952003 0.067913 -0.000251 104575.000000 0 0 1
-24.679709 15.518198 -12.445003 31.698274 -0.561316 1.974262 0.062433 0.002222 45311.500000 0 0 1
-24.534309 16.936798 -11.829003 32.073552 -0.604207 1.948523 0.083338 -0.006354 84348.200000 0 0 1
-23.542709 16.977398 -10.826803 30.979200 -0.624768 1.927819 0.083113 0.003358 -182404.000000 0 0 1
-23.220809 18.272098 -10.423203 31.332390 -0.666692 1.909925 0.047060 0.002342 332216.000000 0 0 1
-22.041709 18.310598 -9.374303 30.149502 -0.693197 1.886965 0.045902 -0.004025 204606.000000 0 0 1
-22.198909 17.901598 -8.037003 29.628570 -0.678642 1.845497 0.058120 -0.006449 -463262.000000 0 0 1
-22.997409 18.796798 -7.354403 30.598818 -0.685228 1.813522 0.038866 -0.006113 -421027.000000 0 0 1
-23.301909 18.334898 -5.891403 30.230053 -0.666666 1.766937 0.027258 -0.007793 297595.000000 0 0 1
-22.199909 18.361898 -4.986103 29.237929 -0.691058 1.742169 0.031331 -0.021654 23963.800000 0 0 1
-22.618709 17.984098 -3.722303 29.135705 -0.671745 1.698904 0.014120 -0.018124 -136613.000000 0 0 1
-21.510909 17.600298 -2.716903 27.926175 -0.685742 1.668239 0.019553 -0.030429 -334743.000000 0 0 1
-20.876209 18.681998 -2.077003 28.091762 -0.729987 1.644800 0.034441 -0.030950 374899.000000 0 0 1
-19.977209 18.377698 -1.011503 27.163428 -0.743719 1.608043 0.074440 -0.041427 362471.000000 0 0 1
-19.446409 19.647698 -0.257203 27.645271 -0.790547 1.580100 0.064707 -0.042795 496839.000000 0 0 1
-20.469809 20.249098 0.543597 28.798169 -0.779978 1.551919 0.052738 -0.037844 572416.000000 0 0 1
-20.141909 21.591898 0.785797 29.538518 -0.820128 1.544191 0.060471 -0.032146 -29228.600000 0 0 1
-21.203309 22.271598 1.633197 30.794021 -0.809966 1.517735 0.028717 -0.027801 -219037.000000 0 0 1
-20.943709 21.891598 3.005497 30.445263 -0.807523 1.471917 0.056203 -0.024890 169315.000000 0 0 1
-22.064709 22.054598 3.834197 31.431795 -0.785169 1.448507 0.028701 -0.017560 -453036.000000 0 0 1
-21.883109 21.472598 5.246497 31.104158 -0.775930 1.401311 0.043496 -0.017747 -486226.000000 0 0 1
-20.993309 22.325798 5.957497 31.219418 -0.816148 1.378792 0.040825 -0.013086 443830.000000 0 0 1
-20.275209 21.777998 7.034497 30.575308 -0.821118 1.338646 0.041327 -0.012623 -104151.000000 0 0 1
-21.032309 21.880598 8.348697 31.477283 -0.805163 1.302355 0.029394 -0.023924 62801.900000 0 0 1
-22.194809 21.022998 8.425697 31.710698 -0.758291 1.301861 0.040002 -0.022922 1207880.000000 0 0 1
-22.678209 20.633598 9.726797 32.166086 -0.738226 1.263594 0.055538 -0.024861 -106285.000000 0 0 1
-23.183209 21.791698 10.584397 33.531608 -0.754468 1.249650 0.051448 -0.024535 -922558.000000 0 0 1
-24.414209 22.295298 10.137397 34.581798 -0.740066 1.273284 0.064834 -0.023385 23199.700000 0 0 1
-25.002809 23.224498 11.007397 35.856388 -0.748541 1.258772 0.070468 -0.021324 -139620.000000 0 0 1
-26.477579 23.564798 10.709097 37.027647 -0.727257 1.277386 0.068529 -0.025076 -71424.300000 0 0 1
-27.182609 24.100398 11.820797 38.202810 -0.725368 1.256211 0.065909 -0.023093 212962.000000 0 0 1
-27.165439 25.524898 11.785497 39.094494 -0.754273 1.264571 0.061823 -0.022406 -315865.000000 0 0 1
-27.468259 26.093498 13.201497 40.120511 -0.759737 1.235503 0.066529 -0.024971 -373353.000000 0 0 1
-26.425539 25.996398 14.112797 39.664756 -0.777212 1.207024 0.048064 -0.025530 -435603.000000 0 0 1
-26.810099 26.511298 15.383297 40.721937 -0.779794 1.183416 0.052889 -0.019312 55858.200000 0 0 1
-25.736779 26.445798 16.490697 40.419118 -0.798985 1.150542 0.042372 -0.024738 -45106.200000 0 0 1
-25.466069 25.189398 17.098297 39.691034 -0.779936 1.125434 0.048321 -0.031478 -231309.000000 0 0 1
-24.351509 25.361098 17.930397 39.467460 -0.805704 1.099201 0.036162 -0.027053 -330851.000000 0 0 1
-23.977509 24.048898 18.645697 38.741870 -0.786885 1.068682 0.036015 -0.021475 -665951.000000 0 0 1
-22.875609 24.167298 19.491197 38.564991 -0.812849 1.040937 0.033369 -0.029677 -55537.600000 0 0 1
-22.370809 22.879498 19.822697 37.641252 -0.796639 1.016175 0.033428 -0.032149 -1498260.000000 0 0 1
-20.955009 22.914298 20.300797 37.098515 -0.830030 0.991765 0.047030 -0.029832 -1476580.000000 0 0 1
-20.030309 23.066698 19.202797 36.083698 -0.855737 1.009630 0.052936 -0.037552 813795.000000 0 0 1
-18.745309 22.557798 19.593597 35.272509 -0.877442 0.981842 0.044435 -0.030199 513688.000000 0 0 1
-18.524109 20.964598 19.580497 34.147516 -0.847122 0.960135 0.050548 -0.016390 -387220.000000 0 0 1
-19.038709 20.162498 20.677197 34.591115 -0.814058 0.930092 0.056444 -0.016095 10287.100000 0 0 1
-18.432309 20.462398 21.926297 35.202589 -0.837545 0.898403 0.048543 -0.006831 -219717.000000 0 0 1
-19.300509 20.260098 23.182497 36.337438 -0.809650 0.878926 0.039975 -0.005335 -464247.000000 0 0 1
-20.120809 21.346898 23.428897 37.542646 -0.814957 0.896867 0.038300 -0.010858 -353126.000000 0 0 1
-20.893209 21.311498 24.594397 38.672865 -0.795309 0.881544 0.023172 -0.005125 2855.640000 0 0 1
-21.926509 22.435298 24.725397 39.943205 -0.796867 0.903310 0.026881 -0.006761 -426658.000000 0 0 1
-21.281909 23.702898 24.778997 40.357722 -0.839164 0.909698 0.039723 -0.010202 352225.000000 0 0 1
-22.217409 24.750698 24.916297 41.557577 -0.839282 0.927844 0.030207 -0.006854 -79558.000000 0 0 1
-23.095509 25.173298 23.731597 41.596709 -0.828418 0.963662 0.025741 -0.012372 114430.000000 0 0 1
-23.983709 24.128898 23.332997 41.253494 -0.788416 0.969635 0.013847 -0.010848 -282189.000000 0 0 1
-24.723909 24.531798 22.211197 41.308813 -0.781498 1.003105 0.015175 -0.021367 -96667.100000 0 0 1
-25.754449 23.418598 21.872097 41.110960 -0.737931 1.009805 0.018445 -0.014743 -685017.000000 0 0 1
-26.901449 23.466998 22.635297 42.269902 -0.717317 1.005703 0.015961 -0.013759 -725195.000000 0 0 1
-27.884999 22.586698 22.118297 42.153899 -0.680806 1.018430 0.030916 -0.012937 642972.000000 0 0 1
-29.279789 22.820098 22.791497 43.560478 -0.662041 1.020177 0.036210 -0.005079 46206.200000 0 0 1
-30.056769 23.782698 22.097497 44.241671 -0.669388 1.047807 0.045704 -0.007149 -242053.000000 0 0 1
-31.362489 23.824898 22.607197 45.412739 -0.649656 1.049717 0.057239 -0.008596 -207900.000000 0 0 1
-32.428699 23.088498 21.759697 45.367209 -0.618719 1.070558 0.065888 -0.019543 -641572.000000 0 0 1
-32.199199 21.703898 21.839697 44.551318 -0.593097 1.058461 0.057436 -0.016731 386943.000000 0 0 1
-32.805639 20.943698 20.789097 44.125219 -0.568190 1.080215 0.046510 -0.012941 108981.000000 0 0 1
-34.337919 20.773998 20.741697 45.175986 -0.544078 1.093780 0.051385 -0.012148 -209219.000000 0 0 1
-34.781967 20.066898 19.647197 44.704340 -0.523286 1.115763 0.052358 -0.012040 321873.000000 0 0 1
35.259469 20.066498 19.620797 45.065177 0.517396 1.120328 0.056974 -0.013200 820332.000000 0 0 1
34.694329 19.373698 18.326997 43.759747 0.509278 1.138662 0.057358 -0.008973 -122525.000000 0 0 1
35.055779 18.015998 18.348097 43.475700 0.474724 1.135112 0.060339 -0.018443 420375.000000 0 0 1
34.333829 17.232498 17.406697 42.175395 0.465175 1.145356 0.058472 -0.026592 -73968.900000 0 0 1
34.672439 15.745298 17.421097 41.875853 0.426271 1.141735 0.068294 -0.032291 -341632.000000 0 0 1
33.823989 14.992398 16.575497 40.541107 0.417224 1.149596 0.070688 -0.035940 353858.000000 0 0 1
34.290689 13.672298 16.518097 40.442930 0.379400 1.150063 0.073185 -0.037708 -122991.000000 0 0 1
33.390369 12.838098 15.616197 39.033308 0.367060 1.159199 0.068820 -0.040762 -143487.000000 0 0 1
33.427929 13.228598 14.221797 38.661114 0.376824 1.194092 0.065486 -0.041660 -379110.000000 0 0 1
32.549299 12.515098 13.448497 37.375749 0.367070 1.202723 0.064452 -0.035821 -765387.000000 0 0 1
32.567729 12.723698 11.911497 36.938235 0.372450 1.242458 0.074770 -0.034392 -592706.000000 0 0 1
33.791189 12.402398 11.325897 37.735128 0.351766 1.265955 0.079590 -0.033308 -284833.000000 0 0 1
33.830609 12.642898 9.906297 37.449802 0.357641 1.303088 0.075289 -0.030396 -232281.000000 0 0 1
35.248869 12.589298 9.279697 38.562754 0.343034 1.327772 0.070033 -0.028540 -175079.000000 0 0 1
-35.612645 11.328098 9.365497 38.526599 -0.307971 1.325244 0.069858 -0.018906 358975.000000 0 0 1
-34.317704 11.197698 8.772197 37.148953 -0.315403 1.332409 0.058346 -0.012058 455468.000000 0 0 1
-34.230347 11.107498 7.222097 36.704930 -0.313773 1.372743 0.048855 -0.017675 -292275.000000 0 0 1
-34.343200 12.353798 6.574897 37.085051 -0.345304 1.392562 0.056097 -0.019100 -84121.100000 0 0 1
-33.814269 12.149898 5.311697 36.321329 -0.344947 1.424028 0.065689 -0.027278 -85296.700000 0 0 1
-34.620095 12.941598 4.242097 37.202571 -0.357734 1.456521 0.098798 -0.033479 -402713.000000 0 0 1
35.687354 12.231798 3.855597 37.921890 0.330200 1.468948 0.103127 -0.031989 884526.000000 0 0 1
34.468829 13.012098 3.803397 37.038908 0.360964 1.467928 0.075928 -0.036032 1119160.000000 0 0 1
33.928689 13.556098 5.175397 36.901334 0.380116 1.430083 0.087298 -0.025161 -911717.000000 0 0 1
33.077879 14.721698 5.044397 36.555717 0.418740 1.432363 0.074486 -0.020658 521850.000000 0 0 1
32.567169 15.242298 6.251097 36.496909 0.437743 1.398670 0.060484 -0.015473 107345.000000 0 0 1
31.415119 14.477898 6.945197 35.281086 0.431846 1.372649 0.068259 -0.027600 -449467.000000 0 0 1
31.840979 13.366098 7.674497 35.375110 0.397438 1.352111 0.084060 -0.020875 321936.000000 0 0 1
30.806229 12.390398 7.868497 34.124170 0.382405 1.338118 0.086629 -0.012858 193552.000000 0 0 1
30.571889 11.467898 6.626297 33.317576 0.358869 1.370578 0.094055 -0.019603 -175662.000000 0 0 1
29.961869 12.034398 5.478797 32.749924 0.381934 1.402714 0.084489 -0.031265 193715.000000 0 0 1
30.114809 11.162798 4.386697 32.415319 0.354973 1.435052 0.103260 -0.035226 -387585.000000 0 0 1
29.346499 11.559698 3.141597 31.697212 0.375240 1.471521 0.077767 -0.051366 -612063.000000 0 0 1
28.006929 11.179298 3.235097 30.328710 0.379784 1.463925 0.071612 -0.048410 -263071.000000 0 0 1
27.216279 11.690098 2.167397 29.699863 0.405698 1.497755 0.083242 -0.047371 760539.000000 0 0 1
25.814949 10.988398 2.068497 28.132458 0.402430 1.497203 0.117179 -0.035816 729480.000000 0 0 1
25.943149 9.749998 1.405997 27.750428 0.359491 1.520109 0.061993 -0.035947 -174051.000000 0 0 1
24.808649 8.957298 1.640697 26.427148 0.346490 1.508673 0.058429 -0.036156 -453368.000000 0 0 1
25.100149 7.449398 1.597397 26.230949 0.288506 1.509861 0.063080 -0.030732 116065.000000 0 0 1
25.783249 6.843198 2.675197 26.809737 0.259431 1.470845 0.082555 -0.023224 1330170.000000 0 0 1
27.218899 6.994598 2.690897 28.231787 0.251533 1.475337 0.117894 -0.037464 830010.000000 0 0 1
27.920009 6.361098 3.926897 28.903477 0.224009 1.434512 0.125984 -0.033070 -1997270.000000 0 0 1
29.260179 6.392398 3.992597 30.215255 0.215088 1.438270 0.134124 -0.028912 -1847690.000000 0 0 1
29.610289 5.769598 5.214497 30.614514 0.192440 1.399634 0.110027 -0.021646 649167.000000 0 0 1
31.141259 5.812098 5.550197 32.161517 0.184514 1.397355 0.116256 -0.023612 738815.000000 0 0 1
31.505349 7.104498 5.970697 32.843723 0.221792 1.387989 0.111718 -0.032306 398318.000000 0 0 1
32.855609 7.113198 6.453597 34.230652 0.213208 1.381128 0.066400 -0.016321 664352.000000 0 0 1
33.020259 8.310298 7.372797 34.839011 0.246552 1.357559 0.078783 -0.025885 -160610.000000 0 0 1
32.216389 8.182998 8.511097 34.311747 0.248741 1.320127 0.072608 -0.021796 -48254.700000 0 0 1
32.676239 8.973498 9.546397 35.205028 0.268011 1.296192 0.067063 -0.009058 -141403.000000 0 0 1
31.872839 8.679098 10.853797 34.770814 0.265858 1.253338 0.060265 -0.012498 166940.000000 0 0 1
30.655069 9.407698 10.956297 33.886258 0.297765 1.241554 0.055309 -0.011486 205515.000000 0 0 1
30.040999 9.108098 12.182797 33.672535 0.294380 1.200596 0.041605 -0.020897 -266152.000000 0 0 1
28.620319 9.674098 12.378697 32.648782 0.325958 1.181922 0.041984 -0.026066 -404988.000000 0 0 1
28.518569 11.134498 12.336997 33.007383 0.372229 1.187732 0.039648 -0.022533 22565.200000 0 0 1
28.532829 11.810998 11.105497 32.816978 0.392469 1.225573 0.050132 -0.024374 10957.200000 0 0 1
27.338009 11.730898 10.096797 31.415379 0.405343 1.243592 0.042699 -0.024612 129969.000000 0 0 1
27.409779 12.643198 9.053397 31.513655 0.432183 1.279405 0.028093 -0.016665 -107931.000000 0 0 1
26.238949 12.628498 8.273597 30.272328 0.448566 1.293969 0.024350 -0.010742 -348315.000000 0 0 1
26.125949 13.825698 7.285097 30.443189 0.486729 1.329150 0.013212 -0.009647 37899.400000 0 0 1
25.925749 15.022898 7.960897 31.003352 0.525179 1.311112 0.008508 0.000131 242555.000000 0 0 1
26.228049 16.128798 7.109997 31.600645 0.551336 1.343858 0.001153 0.003559 -515268.000000 0 0 1
25.857649 17.499698 7.723497 32.163797 0.594965 1.328296 0.017121 -0.000563 1303970.000000 0 0 1
24.497149 17.988498 7.812497 31.380432 0.633384 1.319189 0.016819 -0.000639 1589860.000000 0 0 1
23.460049 17.244298 8.482397 30.326404 0.633864 1.287311 0.021372 0.001257 28862.000000 0 0 1
22.298149 18.202798 8.713197 30.074393 0.684623 1.276861 0.037141 -0.002196 -581369.000000 0 0 1
21.669049 18.599198 7.500397 29.525139 0.709310 1.313947 0.040309 -0.002378 570475.000000 0 0 1
20.651249 19.590598 7.753897 29.502348 0.759047 1.304849 0.077027 -0.016117 409925.000000 0 0 1
19.995749 20.153998 6.444797 29.112695 0.789340 1.347573 0.070687 -0.008341 144004.000000 0 0 1
20.789649 20.867298 5.476297 29.960699 0.787262 1.386980 0.043770 -0.003249 28789.700000 0 0 1
20.056749 21.150998 4.292397 29.462902 0.811946 1.424588 0.054936 -0.010697 27727.900000 0 0 1
17.650191 17.331498 33.579517 41.707242 0.776288 0.634911 0.008853 -0.011653 -160358.000000 0 0 1
17.039991 17.929698 32.486858 40.831744 0.810835 0.650754 0.002497 -0.006961 100372.000000 0 0 1
16.996691 17.098998 31.345118 39.544654 0.788399 0.655651 0.006570 -0.015087 -133878.000000 0 0 1
16.415891 17.641398 29.998378 38.478605 0.821366 0.676750 0.000898 -0.004808 -450058.000000 0 0 1
17.267691 18.295298 29.144078 38.500238 0.814286 0.712111 -0.009599 0.011716 -885561.000000 0 0 1
16.736091 18.404398 27.862658 37.351657 0.832838 0.728829 0.015098 0.003644 17057.000000 0 0 1
17.760191 19.000298 26.827788 37.365304 0.819120 0.769891 0.007565 0.009005 42244.200000 0 0 1
18.173491 20.305198 27.278648 38.557768 0.840741 0.784878 0.009323 0.006019 -80125.800000 0 0 1
19.159191 20.693198 26.367648 38.607459 0.823871 0.818979 0.007288 0.019178 -589936.000000 0 0 1
19.783691 22.106898 26.635038 39.868968 0.840800 0.839192 0.005505 0.012728 -240081.000000 0 0 1
18.963891 23.206998 26.303288 39.875517 0.885678 0.850463 -0.013133 0.007215 318707.000000 0 0 1
19.456991 24.426798 26.914888 41.226862 0.898167 0.859458 -0.008795 0.005966 111745.000000 0 0 1
18.775491 25.739798 26.388858 41.369410 0.940588 0.879050 0.002311 0.009809 214152.000000 0 0 1
18.950491 25.999698 25.036478 40.766783 0.940954 0.909502 0.008698 0.008962 199040.000000 0 0 1
18.022091 26.985398 24.679768 40.768841 0.981978 0.920580 0.014413 -0.000446 -394328.000000 0 0 1
18.150391 27.531298 23.213768 40.327262 0.987936 0.957416 0.007216 -0.004024 -659276.000000 0 0 1
19.268191 28.375498 23.141968 41.376113 0.974274 0.977246 0.008474 -0.005425 -225028.000000 0 0 1
19.213591 29.377598 22.105068 41.483001 0.991599 1.008807 0.012759 -0.009892 -766556.000000 0 0 1
20.429391 30.247698 21.921868 42.577594 0.976770 1.029942 0.019979 -0.010046 -578727.000000 0 0 1
21.446191 29.617398 21.155868 42.245711 0.944073 1.046295 0.009481 -0.010490 761773.000000 0 0 1
22.682191 30.369598 21.261268 43.460738 0.929300 1.059617 0.024780 -0.022390 866856.000000 0 0 1
23.479891 30.371298 19.966268 43.270924 0.912678 1.091196 0.021927 -0.025696 -30815.400000 0 0 1
22.925291 31.339698 19.078868 43.263713 0.939234 1.114095 0.025735 -0.015326 343104.000000 0 0 1
23.558791 31.265098 17.842868 43.021982 0.925048 1.143141 0.026913 -0.000564 -228758.000000 0 0 1
22.810291 32.157298 16.872068 42.884355 0.953833 1.166435 0.010170 -0.013704 -301451.000000 0 0 1
23.078091 33.560798 17.038268 44.150063 0.968407 1.174595 0.032369 -0.012060 179436.000000 0 0 1
22.744791 -34.272866 15.980168 44.128456 -0.984893 1.200246 0.040132 -0.010158 -89062.100000 0 0 1
23.577691 34.315198 14.693568 44.151345 0.968786 1.231525 0.027048 -0.005288 -45069.400000 0 0 1
23.283291 33.080698 14.028668 42.816443 0.957502 1.236985 0.041548 -0.002006 680278.000000 0 0 1
22.136991 33.111698 13.155168 41.946268 0.981488 1.251794 0.036438 -0.007565 469090.000000 0 0 1
21.822791 31.770898 12.484768 40.515350 0.968930 1.257550 0.043518 -0.028880 -292457.000000 0 0 1
22.828591 31.378998 11.577668 40.494796 0.941844 1.280846 0.057226 -0.036796 15635.100000 0 0 1
22.464991 30.193398 10.970468 39.200361 0.931123 1.287152 0.056015 -0.038129 -799241.000000 0 0 1
23.564691 29.625198 10.054768 39.166891 0.898850 1.311174 0.048391 -0.036139 1133740.000000 0 0 1
24.717991 28.947698 10.641268 39.524485 0.864051 1.298201 0.037932 -0.028341 813396.000000 0 0 1
25.625391 29.831598 11.199268 40.890201 0.861100 1.293365 0.036711 -0.026392 -481710.000000 0 0 1
26.997691 29.216698 11.641468 41.448939 0.824852 1.286103 0.035924 -0.019097 779989.000000 0 0 1
26.978791 28.470498 12.829768 41.267752 0.812294 1.254666 0.029900 -0.012099 459921.000000 0 0 1
28.258491 27.840498 12.966368 41.734426 0.777947 1.254880 0.034658 0.002612 654283.000000 0 0 1
28.376791 26.746998 14.098768 41.465883 0.755841 1.223870 0.015221 -0.008179 -160692.000000 0 0 1
29.595991 26.901098 14.787268 42.641002 0.737735 1.216655 0.006422 -0.010959 -80678.000000 0 0 1
29.775491 25.995298 15.831768 42.579106 0.717721 1.189827 0.008304 -0.022274 -177069.000000 0 0 1
30.931091 26.435798 16.718568 43.989707 0.707198 1.180939 0.018010 -0.028672 188262.000000 0 0 1
32.258091 26.321298 16.218168 44.681362 0.684397 1.199339 0.016671 -0.025279 614183.000000 0 0 1
33.213491 26.625498 17.260468 45.934485 0.675744 1.185577 0.022905 -0.022138 -885709.000000 0 0 1
34.576091 26.812398 16.716168 46.838457 0.659598 1.205860 0.034923 -0.032404 -1513270.000000 0 0 1
34.714791 27.850098 15.783168 47.221320 0.676114 1.230000 0.024209 -0.016264 -245522.000000 0 0 1
-35.392467 28.101798 15.526468 47.785029 -0.671075 1.239866 0.028879 -0.013833 -215741.000000 0 0 1
-35.254167 29.106398 14.350168 47.916239 -0.690166 1.266644 0.011394 -0.009065 -37801.800000 0 0 1
-35.652467 30.398698 14.785068 49.130209 -0.706024 1.265122 0.007692 -0.002099 121851.000000 0 0 1
35.643691 31.438198 13.766668 49.480846 0.722788 1.288854 0.001341 0.016992 62189.000000 0 0 1
34.770591 32.636198 14.262668 49.774884 0.753744 1.280179 -0.011450 0.016210 -234319.000000 0 0 1
34.599391 33.661598 13.350868 50.084596 0.771661 1.300968 -0.033539 0.018406 1249710.000000 0 0 1
33.471091 -34.230066 13.652868 49.783654 -0.796608 1.292993 -0.030144 0.023243 2064770.000000 0 0 1
31.998191 34.063398 13.370568 48.610404 0.816650 1.292149 0.003914 0.018223 708559.000000 0 0 1
31.541191 32.980198 14.207468 47.795317 0.807697 1.268978 -0.005345 0.007430 -377408.000000 0 0 1
30.546591 32.237198 13.585268 46.442337 0.812319 1.273936 0.015633 0.009515 -709479.000000 0 0 1
29.996591 31.091898 14.448768 45.555115 0.803326 1.248051 0.033030 0.002773 112859.000000 0 0 1
29.015291 31.533398 15.380768 45.528127 0.826962 1.226186 0.006487 0.001841 167068.000000 0 0 1
28.571991 30.529998 16.262268 44.865363 0.818515 1.199881 0.009891 -0.006687 -34842.900000 0 0 1
27.496591 31.011298 17.262268 44.897094 0.845398 1.176146 0.001474 -0.006410 -18822.200000 0 0 1
27.177691 30.089198 18.299968 44.484554 0.836195 1.146831 -0.008207 -0.003676 -82692.100000 0 0 1
27.894291 30.445698 19.457068 45.646572 0.829104 1.130448 -0.010676 -0.010367 -104123.000000 0 0 1
27.810591 29.458498 20.626468 45.460788 0.814165 1.099861 0.010894 -0.016758 -198017.000000 0 0 1
26.609991 29.351598 21.351668 45.005574 0.834350 1.076488 0.007900 -0.024202 -198343.000000 0 0 1
26.627791 28.415498 22.404768 44.927201 0.817865 1.048709 0.006862 -0.018329 -370612.000000 0 0 1
25.390991 28.386698 23.299068 44.646989 0.841046 1.021777 0.008122 -0.014830 -65806.600000 0 0 1
24.267691 27.718698 22.719668 43.283142 0.851684 1.018189 0.009857 -0.012889 475423.000000 0 0 1
23.134491 27.646898 23.575568 43.073925 0.874025 0.991628 0.007653 -0.012775 177399.000000 0 0 1
23.045291 26.513498 24.651558 42.915619 0.855266 0.958902 0.022471 -0.008967 -804667.000000 0 0 1
24.109091 26.404398 25.547118 43.944234 0.830806 0.950406 0.017526 -0.014900 -312444.000000 0 0 1
23.827591 25.554398 26.621598 43.925970 0.820352 0.919704 0.028214 -0.014519 -587827.000000 0 0 1
24.933991 25.487598 27.687048 45.143041 0.796377 0.910541 0.037113 -0.017577 -141583.000000 0 0 1
25.255591 26.686298 28.391358 46.433529 0.812936 0.912916 0.046853 -0.019687 154429.000000 0 0 1
26.120691 27.501698 27.650908 46.938328 0.811147 0.940864 0.027144 -0.006663 -1198120.000000 0 0 1
26.670991 28.705498 28.367948 48.374454 0.822121 0.944159 0.006481 -0.000090 -567088.000000 0 0 1
27.574091 28.282698 29.372248 49.223678 0.798084 0.931402 0.022925 0.001997 -10634.600000 0 0 1
27.788991 29.402898 30.195988 50.483226 0.813610 0.929619 0.028458 0.000439 983942.000000 0 0 1
29.304391 29.728798 30.527938 51.715605 0.792587 0.939361 0.014682 0.005339 1068410.000000 0 0 1
29.973991 30.032198 29.327978 51.580067 0.786368 0.966004 -0.005216 0.006006 -1451700.000000 0 0 1
31.338191 30.056098 29.484068 52.485822 0.764518 0.974293 0.010317 0.000989 -1071370.000000 0 0 1
32.027191 30.288898 28.153448 52.304636 0.757511 1.002426 0.006443 0.006058 -363465.000000 0 0 1
31.618191 31.508598 27.566118 52.463250 0.783662 1.017568 -0.003085 0.006654 237766.000000 0 0 1
32.488191 31.810298 26.513918 52.634261 0.774856 1.042875 0.010528 -0.002057 -316308.000000 0 0 1
32.265691 33.208498 25.963678 53.084760 0.799797 1.059740 -0.010326 -0.004491 -282896.000000 0 0 1
32.718891 34.216798 26.807978 54.405724 0.807773 1.055558 -0.006813 -0.002260 162595.000000 0 0 1
32.266291 -33.267366 26.417538 53.345267 -0.800673 1.052711 -0.006089 -0.005987 -645476.000000 0 0 1
33.085691 -32.136766 26.998908 53.445072 -0.770850 1.041216 -0.009096 0.001174 -324771.000000 0 0 1
33.005791 -32.109466 28.392898 54.097659 -0.771634 1.018263 -0.004100 -0.002871 479171.000000 0 0 1
34.096591 -31.364166 28.893788 54.599811 -0.743681 1.013148 0.000699 -0.011648 -183704.000000 0 0 1
33.853291 -30.799166 30.312508 54.895192 -0.738194 0.985809 0.015706 -0.010596 -240809.000000 0 0 1
33.760491 -31.661966 31.415158 55.938922 -0.753333 0.974481 0.023108 -0.009983 637305.000000 0 0 1
32.562391 -32.432666 31.509358 55.722767 -0.783402 0.969798 0.016976 -0.012404 -51606.000000 0 0 1
32.593491 -33.367666 32.735664 56.985617 -0.797134 0.958858 0.030044 -0.016686 -140409.000000 0 0 1
32.537391 -32.645666 33.969768 57.257021 -0.787059 0.935662 0.029301 -0.025235 231383.000000 0 0 1
32.794991 -33.296266 -33.521943 57.514115 -0.792983 2.193025 0.030001 -0.025807 91278.800000 0 0 1
32.059791 34.161198 -33.096763 57.360382 0.817121 2.185843 0.026214 -0.020467 -163155.000000 0 0 1
32.490591 33.136898 -33.960633 57.506670 0.795246 2.202538 0.026581 -0.017206 -3890.220000 0 0 1
31.696291 31.990198 -33.853733 56.339177 0.790013 2.215412 0.040043 -0.006289 -196171.000000 0 0 1
31.836191 30.972298 33.772714 55.798051 0.771645 0.920695 0.024896 0.003887 1599870.000000 0 0 1
33.178691 30.371598 33.752957 56.236302 0.741256 0.927047 0.008872 -0.002898 1552460.000000 0 0 1
33.191591 29.390398 32.763306 55.126322 0.724733 0.934362 0.009521 -0.003505 -376722.000000 0 0 1
34.527591 28.716598 32.443068 55.401717 0.693774 0.945180 0.010860 -0.001187 -426339.000000 0 0 1
34.827891 27.713498 33.347396 55.615365 0.672130 0.927786 0.016220 0.004306 -1209750.000000 0 0 1
-35.419267 27.176298 33.128439 55.592887 -0.654465 0.932396 0.002851 -0.000261 -1576260.000000 0 0 1
-35.071567 25.887098 33.945839 55.249223 -0.635856 0.909155 0.020342 -0.003855 -250550.000000 0 0 1
35.615691 24.836998 33.509042 54.847149 0.608953 0.913532 0.010362 -0.002585 -43566.500000 0 0 1
35.573291 23.754098 -34.313993 54.837636 0.588753 2.246874 0.018861 -0.013249 4140.930000 0 0 1
35.074991 22.500998 33.753056 53.626661 0.570385 0.890005 0.020522 -0.016235 -301831.000000 0 0 1
-35.352567 21.981798 32.974958 53.106979 -0.556286 0.900886 0.031830 -0.018143 291549.000000 0 0 1
35.728491 20.815098 32.265238 52.448441 0.527520 0.908182 0.037452 -0.017839 422090.000000 0 0 1
-34.540967 20.274698 31.428578 50.910679 -0.530788 0.905455 0.026998 -0.026407 333004.000000 0 0 1
-34.150767 20.990698 30.283158 50.238968 -0.551120 0.923813 0.018520 -0.021389 240852.000000 0 0 1
-32.942667 20.484898 29.736558 48.878556 -0.556320 0.916783 0.023362 -0.016018 213873.000000 0 0 1
-33.167367 19.332698 28.684258 47.923002 -0.527738 0.929108 0.020625 -0.010501 -452195.000000 0 0 1
-33.995967 18.263898 29.067358 48.313632 -0.492992 0.925245 0.017856 -0.010497 244113.000000 0 0 1
-34.354167 17.485698 27.904358 47.587935 -0.470808 0.944220 0.015507 -0.010253 -168421.000000 0 0 1
-35.250567 16.285998 28.204778 47.993184 -0.432794 0.942604 0.028390 -0.002268 -593912.000000 0 0 1
-34.571567 15.260698 28.863788 47.552081 -0.415699 0.918525 0.016562 -0.004793 -166590.000000 0 0 1
-35.404767 14.231198 29.306988 48.113658 -0.382192 0.915846 0.023391 -0.004383 -534539.000000 0 0 1
-34.640767 12.980998 29.696028 47.437781 -0.358536 0.894384 0.019660 0.005375 -344747.000000 0 0 1
-33.814167 13.186698 30.824698 47.617737 -0.371835 0.866712 0.015227 0.005915 125968.000000 0 0 1
-33.106267 12.037498 31.165538 47.034211 -0.348740 0.846492 0.032028 0.005098 646271.000000 0 0 1
-31.543667 12.234698 31.196798 46.020984 -0.370002 0.825918 0.022387 0.006191 189174.000000 0 0 1
-31.016767 12.132698 29.897728 44.756187 -0.372868 0.839261 0.021513 0.003465 597242.000000 0 0 1
-29.646767 12.524198 29.758978 43.833584 -0.399707 0.824522 0.033556 0.007261 868093.000000 0 0 1
-28.576967 11.466798 30.145788 43.091751 -0.381592 0.795998 0.032235 0.003781 -298179.000000 0 0 1
-28.113067 10.621998 29.105778 41.836798 -0.361251 0.801405 0.032845 -0.005482 753670.000000 0 0 1
-26.942767 10.003598 29.703408 41.331309 -0.355515 0.768914 0.041073 -0.007847 551104.000000 0 0 1
-26.524267 8.724198 28.955388 40.225152 -0.317768 0.767235 0.042910 -0.007440 -174092.000000 0 0 1
-27.403567 7.647498 29.011508 40.633819 -0.272146 0.775638 0.041989 -0.010434 -42837.200000 0 0 1
-28.506667 7.664698 28.120948 40.769662 -0.262662 0.809650 0.045830 -0.006299 458065.000000 0 0 1
-29.350267 6.329698 28.083908 41.112153 -0.212408 0.818791 0.046840 -0.009611 175395.000000 0 0 1
-29.891467 6.069898 29.425438 42.381598 -0.200341 0.803353 0.050223 -0.009808 154014.000000 0 0 1
-30.473167 4.794898 29.291838 42.539590 -0.156069 0.811270 0.061903 -0.015748 -354666.000000 0 0 1
-31.138467 4.273498 30.601038 43.866735 -0.136390 0.798767 0.055473 -0.011841 -449736.000000 0 0 1
-32.376067 4.897598 30.745958 44.916702 -0.150134 0.816864 0.049910 -0.011836 -627838.000000 0 0 1
-32.968567 4.602598 32.021898 46.189958 -0.138709 0.804786 0.049437 -0.013938 -559738.000000 0 0 1
-34.377767 5.101898 32.207648 47.383465 -0.147332 0.823411 0.039282 -0.008520 -819931.000000 0 0 1
-34.541867 6.451698 32.576198 47.916319 -0.184651 0.823230 0.037927 -0.005299 -407794.000000 0 0 1
35.588691 6.791198 32.355758 48.575409 0.188558 0.841838 0.024361 0.004884 -123239.000000 0 0 1
35.187891 8.238398 32.737091 48.762444 0.229983 0.834756 0.021128 0.001826 -181681.000000 0 0 1
35.215791 8.473298 34.081445 49.734230 0.236122 0.815820 0.018803 0.001332 207842.000000 0 0 1
34.911191 9.860198 34.332777 49.947516 0.275267 0.812925 0.028076 -0.001644 -109989.000000 0 0 1
34.785491 10.215298 -32.879273 48.943123 0.285635 2.307413 0.020201 -0.000216 -830505.000000 0 0 1
33.756991 9.695998 -32.135613 47.605088 0.279700 2.311823 0.031712 0.000720 -666027.000000 0 0 1
33.835091 10.004798 -30.751483 46.803451 0.287501 2.287675 0.024906 0.007140 444997.000000 0 0 1
32.767891 9.266598 -29.855193 45.287273 0.275599 2.290604 0.027496 0.010583 232946.000000 0 0 1
32.945891 7.870898 -29.813283 45.124435 0.234508 2.292535 0.023085 0.012797 14284.000000 0 0 1
31.899991 7.178098 -29.170283 43.818260 0.221332 2.299242 0.017419 0.019109 -257816.000000 0 0 1
34.668459 6.309098 -20.030103 40.532848 0.180014 2.087676 0.050500 -0.015526 -211502.000000 0 0 1
34.256829 7.111998 -18.908303 39.769772 0.204700 2.066265 0.049025 -0.012430 311455.000000 0 0 1
34.627689 8.491298 -19.051403 40.424435 0.240472 2.061543 0.027938 -0.012639 273403.000000 0 0 1
-35.368157 8.735998 -18.546003 40.880049 -0.242155 2.041674 0.026832 -0.009888 1873280.000000 0 0 1
-34.309950 8.085498 -19.342603 40.208012 -0.231438 2.072664 0.025041 -0.018617 998107.000000 0 0 1
-34.021889 8.829098 -20.496003 40.688180 -0.253911 2.098712 0.015887 -0.014124 -1177540.000000 0 0 1
-32.971719 8.151998 -21.355603 40.120457 -0.242381 2.132096 0.003333 -0.007173 -476938.000000 0 0 1
-33.358879 6.946198 -22.072003 40.598495 -0.205293 2.145595 0.002343 0.000135 669015.000000 0 0 1
-34.152413 7.179698 -23.279103 41.950590 -0.207208 2.159060 0.007915 0.002619 568610.000000 0 0 1
-34.147011 5.940398 -24.186903 42.264796 -0.172242 2.180068 0.022584 0.004802 -173099.000000 0 0 1
-32.968499 5.752198 -24.917103 41.723755 -0.172737 2.210792 0.006215 0.005382 -331777.000000 0 0 1
-32.942469 4.458998 -25.427403 41.852619 -0.134539 2.223764 0.009754 0.006605 -508121.000000 0 0 1
-31.708189 4.193698 -26.263103 41.385347 -0.131496 2.258286 0.016256 0.002710 695250.000000 0 0 1
-30.448439 4.407898 -25.566133 40.002052 -0.143767 2.264151 0.016593 0.000326 577933.000000 0 0 1
-29.361629 4.148998 -26.404003 39.705048 -0.140377 2.298295 0.029105 -0.001049 -733354.000000 0 0 1
-28.044009 4.533398 -25.755343 38.345219 -0.160267 2.307257 0.014355 -0.000764 -621007.000000 0 0 1
-27.843469 5.917998 -25.671013 38.331219 -0.209429 2.304622 0.011207 0.003295 -847288.000000 0 0 1
-26.534289 6.257098 -25.381493 37.248355 -0.231581 2.320487 0.009948 0.009424 -707966.000000 0 0 1
-26.205039 7.768598 -25.583263 37.437395 -0.288201 2.323153 0.012559 0.001916 63853.000000 0 0 1
-26.693459 8.575398 -24.520103 37.246659 -0.310841 2.289377 0.008711 0.000054 -146681.000000 0 0 1
-26.430209 9.978398 -24.729903 37.545871 -0.360994 2.289831 0.011353 -0.008921 -339232.000000 0 0 1
-25.117809 10.491998 -24.127603 36.374820 -0.395681 2.296023 0.032331 -0.006781 -264178.000000 0 0 1
-25.172919 10.606998 -22.695703 35.514493 -0.398788 2.264065 0.026102 -0.004732 354351.000000 0 0 1
-23.867809 10.897898 -22.222003 34.383919 -0.428324 2.273510 0.039862 -0.016079 -330299.000000 0 0 1
-23.743209 11.285398 -20.774203 33.506233 -0.443702 2.239552 0.054618 -0.022316 -932994.000000 0 0 1
-24.320409 12.522998 -20.318103 34.075403 -0.475510 2.209642 0.050460 -0.018138 753667.000000 0 0 1
-25.725179 12.708798 -20.427403 35.221828 -0.458854 2.189481 0.039760 -0.001983 139929.000000 0 0 1
-26.623279 11.732198 -19.617603 35.089796 -0.415072 2.164058 0.026627 -0.002100 -918624.000000 0 0 1
-26.481689 11.785698 -18.195003 34.223393 -0.418731 2.131349 0.034419 -0.008984 -117104.000000 0 0 1
-27.452989 11.068398 -17.516503 34.394824 -0.383242 2.105141 0.026432 -0.015066 -1000070.000000 0 0 1
-26.940569 10.931198 -16.060803 33.214978 -0.385455 2.075492 0.052663 -0.017033 291782.000000 0 0 1
-25.933489 9.961598 -15.872403 31.995507 -0.366743 2.089877 0.062544 -0.018501 173536.000000 0 0 1
-24.656309 10.193198 -16.391003 31.312934 -0.392014 2.121701 0.059825 -0.014624 -1660310.000000 0 0 1
-23.728309 9.040798 -16.119703 30.076793 -0.364032 2.136431 0.045070 -0.011777 -912654.000000 0 0 1
-22.414509 9.339398 -16.539503 29.380091 -0.394792 2.168746 0.048746 -0.008536 -255761.000000 0 0 1
-21.638709 8.291298 -16.013803 28.167734 -0.365914 2.175497 0.051628 -0.010361 408901.000000 0 0 1
-20.123809 8.599798 -15.755903 26.966140 -0.403855 2.194795 0.067088 -0.008438 914028.000000 0 0 1
-19.450209 9.065198 -16.938203 27.338456 -0.436139 2.238996 0.071745 -0.020177 123011.000000 0 0 1
-18.066209 9.253598 -16.723103 26.299794 -0.473364 2.259924 0.076632 -0.021321 -418295.000000 0 0 1
-17.410909 9.711598 -18.042303 26.888280 -0.508803 2.306366 0.062848 -0.013484 -241776.000000 0 0 1
-17.345209 8.799398 -19.131503 27.281864 -0.469479 2.347951 0.085967 -0.025400 161401.000000 0 0 1
-16.404509 7.775798 -18.880803 26.192664 -0.442635 2.375814 0.085463 -0.017908 -515350.000000 0 0 1
-16.089209 6.823698 -20.077203 26.618031 -0.401122 2.425339 0.063922 -0.016673 901008.000000 0 0 1
-17.174709 5.965698 -20.524703 27.419402 -0.334315 2.416664 0.069767 -0.007573 904654.000000 0 0 1
-18.162009 6.605198 -21.326303 28.780174 -0.348811 2.405365 0.056812 -0.011269 -240531.000000 0 0 1
-19.094909 5.638598 -22.049203 29.708192 -0.287133 2.407133 0.045697 -0.002217 67760.400000 0 0 1
-19.934709 4.841798 -21.193603 29.495837 -0.238269 2.372481 0.055586 -0.003226 535739.000000 0 0 1
-20.530609 3.761398 -21.854103 30.220123 -0.181200 2.379169 0.040403 0.013050 -518358.000000 0 0 1
-21.453509 2.994298 -20.922003 30.115595 -0.138676 2.338831 0.047498 0.005460 -665942.000000 0 0 1
-22.027409 1.864898 -21.467103 30.814300 -0.084461 2.341528 0.044682 0.005867 239255.000000 0 0 1
-22.757809 1.298198 -20.365903 30.567518 -0.056982 2.299978 0.049226 -0.000590 -121820.000000 0 0 1
-23.527809 0.010198 -20.736103 31.361503 -0.000433 2.293208 0.040612 0.004175 -49054.100000 0 0 1
-22.635109 -1.090202 -20.818303 30.772365 0.048127 2.313831 0.052871 -0.008230 303404.000000 0 0 1
-23.227609 -2.324402 -21.226203 31.551170 0.099739 2.308722 0.045786 -0.014415 -51863.400000 0 0 1
-23.659609 -2.421902 -22.785303 32.936495 0.102009 2.334768 0.040744 -0.021926 614862.000000 0 0 1
-22.525909 -2.414002 -23.667203 32.762486 0.106758 2.378045 0.026408 -0.019627 753343.000000 0 0 1
-21.741209 -3.596902 -23.761003 32.406838 0.163957 2.393826 0.016305 -0.027744 1464300.000000 0 0 1
-20.502709 -3.544702 -24.783303 32.359513 0.171197 2.443196 0.017077 -0.024141 1079550.000000 0 0 1
-21.008509 -3.403502 -26.076473 33.658932 0.160610 2.457079 0.018291 -0.028934 530117.000000 0 0 1
-20.135209 -3.903702 -27.117043 33.999993 0.191499 2.494036 0.027163 -0.026272 30739.500000 0 0 1
-20.958709 -4.172002 -28.390313 35.534250 0.196490 2.496354 0.018903 -0.029831 187866.000000 0 0 1
-21.988609 -5.140202 -28.206263 36.131895 0.229643 2.466497 0.027487 -0.030478 556719.000000 0 0 1
-22.680409 -5.519102 -29.413223 37.549955 0.238703 2.470768 -0.007447 -0.026743 -631353.000000 0 0 1
-21.985709 -6.648002 -30.222303 37.959912 0.293637 2.491725 0.006889 -0.023183 491732.000000 0 0 1
-20.884509 -6.227002 -31.052103 37.936412 0.289771 2.529644 0.000774 -0.025253 548685.000000 0 0 1
-20.202109 -7.348302 -31.550813 38.178221 0.348862 2.543496 0.002599 -0.020550 -382682.000000 0 0 1
-18.875009 -7.096702 -32.290193 38.069485 0.359633 2.583357 0.013464 -0.024379 -673949.000000 0 0 1
-18.929709 -6.628202 -33.630463 39.157055 0.336807 2.603838 0.018338 -0.031214 247499.000000 0 0 1
-19.349909 -7.679102 34.261410 40.090295 0.377792 0.546005 0.008999 -0.023803 -556332.000000 0 0 1
-19.262509 -7.268502 32.786747 38.714934 0.360820 0.560713 0.014783 -0.023183 -344702.000000 0 0 1
-17.963709 -7.053902 32.298648 37.625191 0.374176 0.538593 0.020112 -0.024553 -79280.400000 0 0 1
-17.429809 -5.767302 32.636488 37.445966 0.319547 0.512417 0.035509 -0.020830 -309075.000000 0 0 1
-16.051409 -5.506602 31.998518 36.219822 0.330479 0.487614 0.037755 -0.017904 -109164.000000 0 0 1
-16.143509 -5.411502 30.583648 35.003667 0.323441 0.507984 0.035407 -0.019830 91985.200000 0 0 1
-15.066309 -4.750402 29.927698 33.841204 0.305433 0.485682 0.038081 -0.010811 39283.300000 0 0 1
-15.162109 -4.720302 28.360338 32.503531 0.301812 0.510437 0.031921 -0.009196 604926.000000 0 0 1
-16.185509 -3.861002 27.796928 32.396716 0.234171 0.539400 0.026310 -0.013637 407887.000000 0 0 1
-16.386209 -4.022902 26.408258 31.338278 0.240744 0.568548 0.023551 -0.009250 -485520.000000 0 0 1
-15.319909 -3.550202 25.419548 29.890750 0.227718 0.554022 0.028708 -0.006173 -34731.300000 0 0 1
-15.309409 -2.165702 25.269218 29.624342 0.140530 0.549112 0.025429 -0.001269 228413.000000 0 0 1
-14.087709 -1.669502 24.731248 28.511145 0.117958 0.520795 0.024273 0.004396 108168.000000 0 0 1
-14.018709 -0.134002 24.622108 28.333555 0.009558 0.517601 0.024300 0.009375 -651704.000000 0 0 1
-14.929509 0.444798 23.741858 28.049312 -0.029784 0.561546 0.023713 -0.003322 -185802.000000 0 0 1
-15.518309 1.589698 24.301088 28.877117 -0.102084 0.570679 0.008007 0.000057 142318.000000 0 0 1
-16.379009 2.334698 23.167268 28.468316 -0.141588 0.620150 0.015395 -0.002416 415404.000000 0 0 1
-15.568209 3.084698 22.252568 27.332421 -0.195607 0.619540 0.016798 0.007411 638215.000000 0 0 1
-16.278309 3.973898 21.421268 27.196432 -0.239439 0.663811 0.009962 0.004963 -99364.700000 0 0 1
-15.197009 4.626498 20.562668 25.984166 -0.295520 0.657776 0.006191 0.011878 106093.000000 0 0 1
-14.337209 5.513798 21.228268 26.202994 -0.367143 0.626394 0.006351 0.016204 301415.000000 0 0 1
-13.157509 5.668098 20.447068 24.966577 -0.406763 0.611169 0.007180 0.017807 450546.000000 0 1 0
-12.132009 6.723398 20.955568 25.130172 -0.506052 0.584694 0.000302 0.021758 175472.000000 0 0 1
-12.516209 8.046598 20.755568 25.538144 -0.571364 0.621977 0.005525 0.022628 239476.000000 0 0 1
-11.415909 8.914898 20.957168 25.475503 -0.662997 0.604758 0.004434 0.026292 277905.000000 0 0 1
-11.847109 10.422198 20.916368 26.200585 -0.721500 0.646301 0.003165 0.030611 243099.000000 0 0 1
-12.334009 10.951498 19.631568 25.641013 -0.726096 0.698774 0.007781 0.029212 603950.000000 0 0 1
-12.930009 12.230098 19.707368 26.554487 -0.757587 0.734526 0.001924 0.028774 -293209.000000 0 0 1
-13.238409 12.914398 18.348868 26.052219 -0.773010 0.789344 0.004193 0.018577 524231.000000 0 0 1
-12.178609 13.718998 17.759668 25.533022 -0.844808 0.801602 0.010779 0.013969 734794.000000 0 0 1
-12.086109 15.064098 18.153868 26.505924 -0.894647 0.816332 0.022426 0.010779 -741609.000000 0 0 1
-13.151809 16.005598 17.609268 27.188887 -0.882963 0.866282 0.021461 0.010689 -562208.000000 0 0 1
-13.071209 16.469198 16.234868 26.564298 -0.899923 0.913279 0.019327 -0.003748 -101761.000000 0 0 1
-13.451409 15.467798 15.311368 25.585761 -0.855010 0.929252 0.023670 -0.001835 -298214.000000 0 0 1
-14.065109 16.052298 13.980968 25.514134 -0.851284 0.990861 0.027898 -0.006045 186158.000000 0 0 1
-15.314509 16.656998 14.258468 26.744975 -0.827364 1.008504 0.021592 -0.003829 -105254.000000 0 0 1
-15.759709 17.406798 13.130768 26.903199 -0.835019 1.060914 0.025209 -0.010384 177688.000000 0 0 1
-16.921009 18.384198 13.406068 28.355281 -0.826818 1.078343 0.032321 -0.014905 1075740.000000 0 0 1
-18.251609 17.817998 13.420668 28.822155 -0.773377 1.086442 0.032852 -0.011813 1118940.000000 0 0 1
-19.271209 18.820898 13.465868 30.115366 -0.773577 1.107228 0.036302 -0.022594 627191.000000 0 0 1
-20.685409 18.182898 13.497668 30.670686 -0.721103 1.115104 0.045258 -0.020148 226152.000000 0 0 1
-21.116509 17.562298 12.327468 30.104945 -0.693765 1.148909 0.046969 -0.018891 -207821.000000 0 0 1
-22.418709 17.054398 12.479968 30.809099 -0.650328 1.153736 0.051229 -0.019332 -520205.000000 0 0 1
-22.967809 16.320198 11.230968 30.331564 -0.617784 1.191493 0.053037 -0.014041 -464037.000000 0 0 1
-22.188309 15.195998 10.897468 29.017137 -0.600496 1.185803 0.038908 -0.004722 92643.000000 0 0 1
-22.635709 14.520198 9.688068 28.584439 -0.570358 1.225019 0.041143 -0.000150 33681.600000 0 0 1
-21.776809 13.277898 9.288668 27.144269 -0.547541 1.221543 0.051866 0.000885 -500773.000000 0 0 1
-21.896309 12.094298 10.060268 26.961628 -0.504641 1.188413 0.041179 -0.002193 899911.000000 0 0 1
-23.210009 11.513298 10.215868 27.850036 -0.460482 1.195211 0.058409 -0.002787 1093760.000000 0 0 1
-23.943809 10.975598 8.955468 27.820319 -0.429809 1.243057 0.048986 0.005723 -185019.000000 0 0 1
-24.300509 12.001098 8.034468 28.268246 -0.458725 1.282601 0.045596 0.003062 -59794.700000 0 0 1
-25.575929 11.699498 7.493768 29.106064 -0.429025 1.310399 0.061985 -0.001415 -292225.000000 0 0 1
-25.980889 12.764398 6.483868 29.664406 -0.456663 1.350443 0.048140 0.005640 -151902.000000 0 0 1
-25.187199 13.023098 5.285368 28.843217 -0.477196 1.386510 0.045616 -0.001631 1480190.000000 0 0 1
-23.886209 13.641898 5.435768 28.039257 -0.518914 1.375698 0.046434 -0.002198 804375.000000 0 0 1
-23.914409 15.147498 6.018468 28.940760 -0.564620 1.361309 0.036224 -0.002228 -1058160.000000 0 0 1
-22.661809 15.737498 6.228068 28.284541 -0.606992 1.348784 0.026829 -0.008560 -151849.000000 0 0 1
-22.711109 17.062598 6.709368 29.188051 -0.644325 1.338855 0.026721 -0.015843 -224506.000000 0 0 1
-21.300409 17.665298 6.825568 28.501904 -0.692377 1.328969 0.035023 -0.015166 -67756.800000 0 0 1
-20.800309 17.998098 5.540968 28.058630 -0.713298 1.372012 0.038664 -0.022424 845487.000000 0 0 1
-19.404309 18.305198 5.522768 27.241667 -0.756260 1.366649 0.050296 -0.021731 547628.000000 0 0 1
-18.909609 19.242098 4.335968 27.324573 -0.794113 1.411439 0.059775 -0.021892 241522.000000 0 0 1
-17.495209 19.428598 4.361868 26.506200 -0.837712 1.405484 0.057649 -0.028337 646937.000000 0 0 1
-17.055309 20.484498 3.468268 26.879864 -0.876493 1.441407 0.061873 -0.021852 129674.000000 0 0 1
-17.277009 21.926598 3.975468 28.197076 -0.903448 1.429336 0.055964 -0.024554 137098.000000 0 0 1
-16.432709 22.236498 5.111768 28.118071 -0.934374 1.387983 0.058993 -0.023688 436632.000000 0 0 1
-16.533009 23.547098 5.546268 29.301319 -0.958646 1.380364 0.043435 -0.019423 -287573.000000 0 0 1
-15.778609 23.901498 6.816168 29.439875 -0.987318 1.337148 0.045497 -0.017182 -212336.000000 0 0 1
-16.412109 23.377798 7.962568 29.652677 -0.958704 1.298932 0.042773 -0.017846 324081.000000 0 0 1
-15.523009 23.414598 9.046568 29.513515 -0.985362 1.259258 0.044182 -0.019902 421174.000000 0 0 1
-16.230109 22.606098 10.181268 29.632926 -0.948123 1.220070 0.030616 -0.018489 64146.700000 0 0 1
-17.289709 23.253998 10.792368 30.921799 -0.931458 1.214270 0.027881 -0.020629 -604610.000000 0 0 1
-18.234609 22.374598 11.364468 31.020553 -0.886994 1.195710 0.026341 -0.022526 -29097.900000 0 0 1
-19.459509 23.092198 11.940868 32.473165 -0.870563 1.194246 0.033808 -0.030161 27535.500000 0 0 1
-20.386309 23.732398 11.058568 33.183132 -0.861096 1.231039 0.050546 -0.023401 548011.000000 0 0 1
-19.919309 24.975398 10.561968 33.646761 -0.897547 1.251491 0.028875 -0.016952 -409566.000000 0 0 1
-21.070609 25.724998 9.855368 34.682479 -0.884534 1.282666 0.032921 -0.014859 65839.400000 0 0 1
-21.971109 26.132198 10.867768 35.829175 -0.871687 1.262620 0.043868 -0.030734 -324303.000000 0 0 1
-22.907309 27.034098 10.340368 36.912199 -0.867843 1.286862 0.045111 -0.022038 -447680.000000 0 0 1
-23.856609 27.560898 11.427468 38.201151 -0.857317 1.267006 0.038410 -0.032770 -502527.000000 0 0 1
-23.221809 28.255998 12.491068 38.648164 -0.882882 1.241688 0.043108 -0.028560 -272236.000000 0 0 1
-24.068709 28.915998 13.367768 39.926619 -0.876629 1.229394 0.036400 -0.024846 -500048.000000 0 0 1
8.960491 -32.898566 28.368518 44.355145 -1.304879 0.876849 0.032312 -0.008595 -102754.000000 0 0 1
10.302291 -32.829066 27.944708 44.325968 -1.266713 0.888681 0.025146 -0.020973 212950.000000 0 0 1
10.360691 -32.586966 26.581108 43.310617 -1.262963 0.910018 0.036313 -0.021410 -605247.000000 0 0 1
11.784591 -32.481366 26.032788 43.262244 -1.222755 0.925114 0.015577 -0.018826 -217545.000000 0 0 1
12.389591 -33.789066 26.080228 44.445261 -1.219345 0.943702 0.027576 -0.023449 -94819.500000 0 0 1
13.740791 -33.767366 25.712078 44.611157 -1.184334 0.956529 0.041683 -0.021515 -620846.000000 0 0 1
14.422291 33.661398 25.649808 44.710232 1.166005 0.959793 0.059115 -0.012220 -431133.000000 0 0 1
14.247291 32.875598 24.436538 43.369743 1.161858 0.972244 0.042025 -0.007713 511192.000000 0 0 1
15.373291 32.052098 24.142128 42.971123 1.123573 0.974210 0.041116 -0.009022 -101483.000000 0 0 1
15.409791 31.477798 22.685468 41.748579 1.115548 0.996335 0.053326 -0.018089 -537969.000000 0 0 1
14.479491 30.467498 22.454468 40.523169 1.127149 0.983498 0.051194 -0.012961 -326075.000000 0 0 1
14.899391 29.106998 22.629768 39.765759 1.097687 0.965414 0.044080 -0.007150 -260927.000000 0 0 1
14.567991 28.462198 24.016228 39.988777 1.097724 0.926577 0.038113 -0.007185 -228630.000000 0 0 1
15.384091 28.986398 25.055958 41.287801 1.082864 0.918691 0.033372 -0.006464 359684.000000 0 0 1
14.929491 28.507898 26.333138 41.581536 1.088372 0.885000 0.031267 0.000853 244266.000000 0 0 1
15.782891 29.006898 27.558778 43.011464 1.072488 0.875346 0.028561 -0.003737 312176.000000 0 0 1
15.543291 30.366198 27.869708 44.050204 1.097705 0.885787 0.042559 -0.016066 205874.000000 0 0 1
16.528391 30.858098 28.744468 45.295191 1.079056 0.883302 0.056816 -0.018251 -105501.000000 0 0 1
16.217991 32.296398 29.279798 46.512225 1.105421 0.889877 0.064363 -0.016144 -240723.000000 0 0 1
16.805491 33.230598 28.419538 46.844074 1.102580 0.918914 0.059881 -0.019274 333649.000000 0 0 1
16.324491 -34.191066 28.634088 47.491357 -1.125352 0.923624 0.072466 -0.016938 259355.000000 0 0 1
17.222791 -33.216166 27.788648 46.606300 -1.092454 0.931984 0.066109 -0.029876 -285879.000000 0 0 1
17.065991 -33.330166 26.339968 45.781458 -1.097572 0.957775 0.066784 -0.025579 -12319.600000 0 0 1
17.372491 -32.157166 25.625058 44.637768 -1.075480 0.959332 0.073604 -0.032794 683822.000000 0 0 1
18.887891 -31.704366 25.530188 44.874377 -1.033507 0.965597 0.055339 -0.026410 955105.000000 0 0 1
19.349491 -31.105766 26.742918 45.355872 -1.014318 0.940203 0.042243 -0.027260 105092.000000 0 0 1
20.604891 -30.479966 26.532228 45.360214 -0.976350 0.946011 0.046423 -0.027893 67672.400000 0 0 1
21.017991 -29.747666 27.801428 45.821381 -0.955693 0.918850 0.051828 -0.020885 -751023.000000 0 0 1
20.040091 -28.840866 28.155828 45.012792 -0.963535 0.895015 0.053223 -0.019569 -393679.000000 0 0 1
20.410791 -28.049466 29.228758 45.361804 -0.941739 0.870627 0.068659 -0.010096 98207.700000 0 0 1
19.159391 -27.615966 30.057388 45.090691 -0.964257 0.841160 0.041485 -0.010267 447522.000000 0 0 1
18.217891 -26.914766 29.295268 43.755101 -0.975761 0.837223 0.074107 -0.015767 609879.000000 0 0 1
16.994991 -26.556266 29.961738 43.494491 -1.001510 0.810877 0.050708 -0.008419 741874.000000 0 0 1
16.078291 -25.705066 29.045538 41.986964 -1.011844 0.806852 0.046454 0.001930 29600.000000 0 0 1
15.098691 -26.388766 28.258718 41.507741 -1.051096 0.821934 0.049859 -0.007681 523694.000000 0 0 1
14.499491 -25.586966 27.275538 40.110884 -1.055241 0.823029 0.043874 -0.028324 -1043140.000000 0 0 1
13.057191 -25.189166 27.539898 39.540236 -1.092565 0.800284 0.019318 -0.010529 -127575.000000 0 0 1
12.006891 -26.181466 27.483238 39.811593 -1.140811 0.808848 0.018536 -0.007316 912884.000000 0 0 1
11.835591 -26.904166 26.277598 39.426229 -1.156359 0.841292 0.021028 -0.010339 -521990.000000 0 0 1
10.881591 -28.146466 26.317068 40.040238 -1.201890 0.853612 0.032927 -0.014867 -415273.000000 0 0 1
9.524991 -27.865066 26.368448 39.528248 -1.241422 0.840516 0.023241 -0.014597 -631479.000000 0 0 1
8.751591 -29.038766 26.407078 40.214103 -1.278078 0.854412 0.022918 -0.016802 929621.000000 0 0 1
7.262191 -28.784266 26.900928 40.061619 -1.323657 0.834580 0.021879 -0.017419 1765430.000000 0 0 1
6.258491 -28.463066 25.901418 38.989720 -1.354359 0.844221 0.038145 -0.023129 808552.000000 0 0 1
6.336791 -27.157666 25.314338 37.663105 -1.341564 0.833720 0.040503 -0.023905 -872328.000000 0 0 1
5.072691 -26.833466 24.522038 36.702826 -1.383958 0.839112 0.056421 -0.025681 -752067.000000 0 0 1
4.843791 -27.565466 23.310568 36.423891 -1.396853 0.876324 0.034398 -0.021875 114268.000000 0 0 1
4.364891 -28.935466 23.427368 37.485398 -1.421076 0.895699 0.027109 -0.019821 -513779.000000 0 0 1
2.916491 -29.106566 23.898268 37.773341 -1.470929 0.885793 0.006248 -0.020295 -898077.000000 0 0 1
1.936391 -28.790666 22.931868 36.858142 -1.503640 0.899290 -0.001524 -0.015024 509932.000000 0 0 1
0.697391 -28.330966 23.482168 36.804106 -1.546185 0.878858 -0.003831 -0.019652 564078.000000 0 0 1
0.597791 -26.913466 24.044608 36.094808 -1.548588 0.841760 0.012121 -0.017897 -102560.000000 0 0 1
1.544791 -26.597066 25.084548 36.592688 -1.512780 0.815496 0.014909 -0.020749 580394.000000 0 0 1
1.238691 -25.317066 25.615628 36.036767 -1.521908 0.780134 0.024411 -0.019431 -411408.000000 0 0 1
2.432891 -24.803366 26.432388 36.329011 -1.473022 0.756004 0.026906 -0.018248 -378840.000000 0 0 1
3.530491 -24.425466 25.605628 35.562845 -1.427249 0.766979 0.026049 -0.021975 449720.000000 0 0 1
4.557191 -23.793966 26.384988 35.820223 -1.381561 0.742775 0.027737 -0.014584 451151.000000 0 0 1
4.286791 -22.279266 26.603178 34.963858 -1.380708 0.706134 0.031775 -0.013916 -565864.000000 0 0 1
4.511891 -21.478866 25.425828 33.588265 -1.363745 0.712109 0.032673 -0.008494 57854.600000 0 0 1
3.874891 -20.250966 25.503298 32.795344 -1.381738 0.679877 0.033834 -0.014179 -282205.000000 0 0 1
4.016691 -19.442966 24.184688 31.289964 -1.367074 0.687364 0.037215 -0.014480 -1183080.000000 0 0 1
5.295391 -19.057566 23.922778 31.040800 -1.299770 0.690876 0.038223 -0.004522 -1396290.000000 0 0 1
5.277091 -18.736766 22.523668 29.769610 -1.296264 0.712700 0.041982 -0.012148 274759.000000 0 0 1
6.601591 -18.069466 22.011768 29.233620 -1.220517 0.718247 0.046168 -0.001677 685836.000000 0 0 1
7.705091 -18.944266 22.212568 30.193572 -1.184507 0.744138 0.044618 0.000493 -59830.200000 0 0 1
8.881091 -18.351766 21.692268 29.769373 -1.120082 0.754408 0.019365 0.004737 103207.000000 0 0 1
10.018791 -18.077666 22.698668 30.698660 -1.064728 0.738614 0.006609 0.010559 -107945.000000 0 0 1
9.684091 -17.102066 23.759498 30.834656 -1.055561 0.691100 0.012525 0.011452 141725.000000 0 0 1
10.594791 -17.236366 24.828328 32.027922 -1.019655 0.683751 0.010049 0.007668 -362782.000000 0 0 1
10.443491 -16.189166 25.980908 32.344446 -0.997880 0.638053 0.020878 -0.004362 -382815.000000 0 0 1
10.748891 -14.857666 25.661258 31.540277 -0.944500 0.620474 0.036277 -0.004778 237030.000000 0 0 1
10.605791 -14.081066 26.863758 32.131304 -0.925253 0.580731 0.030778 -0.004450 -50365.600000 0 0 1
10.921391 -12.606266 26.637798 31.428761 -0.856889 0.559424 0.046379 -0.008988 -754545.000000 0 0 1
9.901291 -11.984666 25.931158 30.233966 -0.880305 0.540050 0.047579 -0.005464 -56591.200000 0 0 1
10.234591 -10.611066 25.819648 29.732067 -0.803456 0.518808 0.056129 -0.002799 54959.800000 0 0 1
9.173891 -9.828566 24.985718 28.373352 -0.819837 0.493659 0.043951 0.000649 864400.000000 0 0 1
7.944491 -9.680866 25.737918 28.622972 -0.883597 0.452847 0.049790 -0.001289 342609.000000 0 0 1
6.941791 -9.199466 24.878688 27.418383 -0.924366 0.433806 0.037645 0.001445 -53161.200000 0 0 1
5.534491 -9.495866 25.443988 27.716395 -1.043096 0.407758 0.033541 -0.004646 -487020.000000 0 0 1
5.022791 -8.518766 26.381518 28.174142 -1.038048 0.358645 0.032931 -0.002504 900728.000000 0 0 1
3.666991 -8.694966 26.815718 28.427662 -1.171693 0.338371 0.023914 -0.008418 1321550.000000 0 0 1
2.553691 -8.452166 25.741658 27.213846 -1.277382 0.330430 0.016456 -0.008250 -199177.000000 0 0 1
2.568991 -7.128266 25.219868 26.333508 -1.224891 0.291861 0.015211 -0.006548 41692.300000 0 0 1
1.585591 -6.931266 24.217438 25.239668 -1.345907 0.285578 0.005925 -0.007382 156964.000000 0 0 1
1.804991 -5.630366 23.468368 24.201721 -1.260566 0.246803 0.010217 -0.010941 -219164.000000 0 1 0
1.714291 -4.531066 24.340568 24.817989 -1.209099 0.196463 0.018657 -0.004190 189128.000000 0 1 0
2.156891 -3.322966 23.681218 24.010297 -0.995064 0.165754 0.013969 -0.001170 -21570.000000 0 1 0
1.178491 -2.771966 22.575368 22.775422 -1.168802 0.132640 0.021992 -0.008655 1384990.000000 0 1 0
-0.046909 -2.122966 22.946868 23.044911 1.548704 0.092276 0.022898 -0.010750 585465.000000 0 1 0
-1.099509 -2.887966 23.491268 23.693647 1.207020 0.130795 0.017658 -0.006613 -129488.000000 0 1 0
-2.209709 -1.888966 23.887978 24.064216 0.707302 0.121100 0.024331 -0.021233 -71554.800000 0 1 0
-1.760809 -1.087966 24.969338 25.054978 0.553462 0.082705 0.028555 -0.016339 300055.000000 0 0 1
-2.703909 -0.081966 25.284098 25.428398 0.030305 0.106585 0.032611 -0.016594 -72550.300000 0 0 1
-2.214209 0.893034 26.379708 26.487529 -0.383365 0.090260 0.061436 -0.016705 -256536.000000 0 0 1
-2.407809 0.458034 27.750748 27.858775 -0.187982 0.088093 0.061258 -0.010203 -41834.800000 0 0 1
-1.647109 -0.648966 28.155198 28.210801 0.375326 0.062795 0.047775 -0.013510 -285135.000000 0 0 1
-0.244009 -0.269966 28.728278 28.730582 0.835858 0.012666 0.062962 -0.015237 407202.000000 0 0 1
0.766091 0.230034 27.823748 27.835243 0.291704 0.028740 0.044381 -0.016085 701768.000000 0 0 1
1.360791 -0.739966 26.958218 27.002681 -0.498053 0.057395 0.039180 -0.014371 -647584.000000 0 0 1
2.448791 -1.591966 27.606918 27.760995 -0.576448 0.105407 0.038722 -0.016767 -925635.000000 0 0 1
1.972091 -2.378966 28.694038 28.859945 -0.878639 0.107277 0.040973 -0.018950 1355940.000000 0 0 1
3.011091 -3.303966 29.260188 29.599687 -0.831742 0.151603 0.054394 -0.012383 1187430.000000 0 0 1
3.607991 -4.438566 28.412658 28.982712 -0.888255 0.198663 0.049940 -0.008333 -361409.000000 0 0 1
4.517991 -3.900366 27.498418 28.138729 -0.712163 0.213740 0.056799 -0.009712 -485661.000000 0 0 1
4.790291 -4.706566 26.379638 27.221020 -0.776582 0.249278 0.052571 -0.008702 -835783.000000 0 0 1
5.867891 -4.017066 25.545968 26.517267 -0.600305 0.271495 0.045848 -0.003698 -317904.000000 0 0 1
7.190591 -4.014066 26.030308 27.301909 -0.509146 0.306404 0.041918 -0.003519 -77688.800000 0 0 1
7.888091 -5.249566 25.972118 27.646534 -0.587198 0.349819 0.051734 0.005507 12639.300000 0 0 1
8.761491 -5.398466 24.645288 26.707628 -0.552216 0.395560 0.027155 0.003642 444530.000000 0 0 1
7.979091 -5.422266 23.444668 25.351909 -0.596875 0.390367 0.028465 0.008822 92272.900000 0 0 1
8.794391 -5.661466 22.318768 24.647939 -0.571975 0.438234 0.016901 0.006336 243637.000000 0 1 0
9.192091 -4.388066 21.540968 23.827777 -0.445384 0.441697 0.020113 0.002061 234088.000000 0 1 0
8.002191 -3.819466 21.059168 22.849769 -0.445325 0.398521 0.022395 -0.006716 -198622.000000 0 1 0
8.252291 -2.540966 20.405968 22.157625 -0.298698 0.400296 0.028481 -0.003491 977418.000000 0 1 0
6.892291 -1.806966 20.030668 21.260208 -0.256402 0.341758 0.021916 -0.010114 1037730.000000 0 1 0
6.238291 -1.386966 21.192168 22.134767 -0.218773 0.292883 0.030585 -0.006063 247265.000000 0 1 0
5.066791 -0.609966 20.945668 21.558419 -0.119809 0.238992 0.015765 -0.006898 414422.000000 0 1 0
4.455591 -0.086966 22.282468 22.723737 -0.019516 0.197393 0.022622 -0.011160 -488130.000000 0 1 0
3.216091 0.521034 22.194568 22.432422 0.160613 0.145753 0.027276 -0.009474 -762832.000000 0 1 0
2.595591 0.791034 23.410568 23.567297 0.295819 0.115392 0.035518 -0.010156 -73571.500000 0 1 0
1.143591 1.284034 23.259368 23.322837 0.843186 0.073791 0.034242 -0.017965 -72102.300000 0 1 0
1.030391 2.618034 22.775768 22.948887 1.195841 0.122908 0.044765 -0.021357 218389.000000 0 1 0
-0.354009 2.891034 22.700868 22.886957 -1.448952 0.127607 0.034805 -0.018495 19658.300000 0 1 0
-0.723509 4.309034 22.287368 22.711627 -1.404443 0.193591 0.037473 -0.013429 -302240.000000 0 1 0
-0.694909 5.259034 23.335368 23.930727 -1.439421 0.223528 0.044334 -0.007613 -405318.000000 0 1 0
-1.585809 6.314034 23.208468 24.104248 -1.324730 0.273479 0.043506 -0.005324 -375862.000000 0 1 0
-1.450909 7.561034 24.176888 25.373141 -1.381208 0.308291 0.057307 -0.005994 -1278620.000000 0 0 1
-0.317409 8.286034 24.020088 25.411094 -1.532509 0.332406 0.045652 -0.002667 -1282570.000000 0 0 1
-0.271209 9.597034 24.517898 26.330665 -1.542544 0.373232 0.062228 -0.006428 -729686.000000 0 0 1
0.692391 10.505034 23.773308 26.000102 1.504981 0.416886 0.070922 -0.017337 96250.400000 0 0 1
2.072291 10.253034 23.946408 26.131390 1.371368 0.411843 0.057476 -0.014820 92558.500000 0 0 1
2.689891 10.891034 25.118418 27.509726 1.328660 0.420036 0.074181 -0.019985 357299.000000 0 0 1
3.925391 11.797034 24.757418 27.703943 1.249576 0.465399 0.060118 -0.025644 -203115.000000 0 0 1
5.023791 11.176034 24.214948 27.138642 1.148346 0.468452 0.037402 -0.015597 -748441.000000 0 0 1
4.909191 10.617034 22.946468 25.755814 1.137688 0.471421 0.040808 -0.019774 -857387.000000 0 0 1
6.252591 10.165034 22.329468 25.318529 1.019342 0.490830 0.047604 -0.019627 233182.000000 0 0 1
7.170491 11.192034 22.023568 25.723823 1.001002 0.543015 0.037246 -0.018610 -217969.000000 0 0 1
8.345791 10.636034 21.502668 25.399649 0.905472 0.561282 0.041453 -0.017440 42133.800000 0 0 1
9.336791 11.663034 20.890668 25.683108 0.895723 0.620821 0.036168 -0.020806 -331681.000000 0 0 1
8.817091 12.253034 19.691468 24.811929 0.947047 0.654045 0.031551 -0.023100 -218487.000000 0 1 0
9.595291 13.207034 19.064668 25.098942 0.942487 0.708128 0.041971 -0.025576 -372686.000000 0 0 1
10.941191 12.728034 18.467568 24.955231 0.860747 0.737684 0.038643 -0.020383 635.990000 0 1 0
11.966091 12.645034 19.442668 26.097922 0.812978 0.730278 0.039419 -0.021935 596789.000000 0 0 1
13.217991 12.361034 18.781868 26.081967 0.751908 0.766836 0.041913 -0.020212 626028.000000 0 0 1
14.441791 12.203034 19.681368 27.291676 0.701573 0.765337 0.045457 -0.010386 -249328.000000 0 0 1
14.935091 13.393034 20.188868 28.460862 0.731016 0.782213 0.035333 -0.015733 458102.000000 0 0 1
16.143591 13.200034 20.945768 29.556414 0.685419 0.783184 0.028432 -0.008144 869242.000000 0 0 1
16.797591 14.516034 21.520868 30.919606 0.712665 0.800948 0.019080 -0.000745 -391917.000000 0 0 1
16.179491 15.111034 22.618168 31.649657 0.751265 0.774684 0.019734 -0.002624 -292662.000000 0 0 1
16.957791 16.062034 23.282668 32.979361 0.758277 0.786995 0.004796 0.007512 -382737.000000 0 0 1
-20.947109 13.117598 -24.640903 34.900241 -0.559480 2.354684 0.016445 -0.003559 -18542.500000 0 0 1
-20.837409 12.863798 -25.999763 35.716419 -0.553073 2.386123 0.016979 -0.022683 169202.000000 0 0 1
-21.646009 13.776298 -26.750643 37.066602 -0.566781 2.377039 0.013653 -0.017868 48171.900000 0 0 1
-21.485009 13.712098 -28.329663 38.107703 -0.568047 2.408951 0.011291 -0.008113 -58845.100000 0 0 1
-20.166609 14.071998 -28.672653 37.773460 -0.609239 2.432678 0.024687 -0.016741 -310619.000000 0 0 1
-20.016909 14.433898 -30.063513 38.895101 -0.624737 2.454256 0.017788 -0.019050 -186912.000000 0 0 1
-18.591709 14.913098 -30.381353 38.614489 -0.676043 2.476381 0.024063 -0.021195 -518280.000000 0 0 1
-17.711709 13.838898 -30.504303 37.891057 -0.663260 2.506561 0.026464 -0.023459 -306220.000000 0 0 1
-16.357909 14.270298 -30.528623 37.459570 -0.717344 2.523483 0.030883 -0.020285 584891.000000 0 0 1
-15.542109 13.994598 -29.225533 35.937970 -0.733053 2.520463 0.053899 -0.022320 -392139.000000 0 0 1
-16.088909 14.517398 -28.050433 35.446222 -0.734097 2.483813 0.056900 -0.030612 -227083.000000 0 0 1
-16.929709 13.586798 -27.380673 34.941628 -0.676289 2.471255 0.045569 -0.023711 -256730.000000 0 0 1
-17.631009 14.148298 -26.185253 34.593269 -0.676243 2.429424 0.040593 -0.029662 -559638.000000 0 0 1
-16.681209 14.509698 -25.227543 33.544344 -0.715890 2.421987 0.095570 -0.031010 281565.000000 0 0 1
-17.326809 14.957798 -24.028703 33.186331 -0.712150 2.380459 0.070843 -0.027369 267273.000000 0 0 1
-16.271809 15.485498 -23.032203 32.172267 -0.760643 2.368712 0.080224 -0.021257 49831.500000 0 0 1
-15.661209 16.674798 -23.399303 32.723840 -0.816733 2.367497 0.074371 -0.026524 -257006.000000 0 0 1
-15.164209 17.360998 -22.285503 32.062457 -0.852837 2.339307 0.075071 -0.016959 -472127.000000 0 0 1
-14.912509 18.868298 -22.450803 32.900367 -0.901969 2.321820 0.076977 -0.023656 914494.000000 0 0 1
-16.061009 19.770798 -22.481803 33.974578 -0.888564 2.293913 0.047549 -0.021482 1307680.000000 0 0 1
-16.874909 19.567398 -23.648903 35.027364 -0.859148 2.311971 0.030883 -0.020314 -240192.000000 0 0 1
-18.136009 20.416898 -23.783803 36.213724 -0.844492 2.287313 0.009240 -0.014434 -127059.000000 0 0 1
-17.795309 21.767398 -24.158003 37.068878 -0.885463 2.280628 0.002470 -0.015128 360620.000000 0 0 1
-18.935809 22.621398 -24.077103 38.078858 -0.873854 2.255309 0.005140 -0.023532 302396.000000 0 0 1
-18.606909 24.124498 -24.317203 38.981211 -0.913810 2.244415 0.002256 -0.026999 170944.000000 0 0 1
-18.037309 24.743098 -23.138803 38.379286 -0.940882 2.217925 0.002837 -0.014111 204144.000000 0 0 1
-17.132209 25.835698 -23.338303 38.802993 -0.985252 2.216119 0.005980 -0.003655 58164.000000 0 0 1
-16.020909 25.906198 -22.248703 37.720093 -1.016943 2.201653 0.007783 -0.013279 111394.000000 0 0 1
-15.035709 24.891498 -22.304303 36.648890 -1.027404 2.225084 0.022518 -0.026807 232202.000000 0 0 1
-15.566509 23.612198 -22.004703 35.833770 -0.987941 2.232013 0.026844 -0.006884 -1228440.000000 0 0 1
-14.457509 22.586998 -21.849403 34.591740 -1.001426 2.254459 0.072751 -0.014445 -190564.000000 0 0 1
-13.643609 22.823498 -20.733403 33.718454 -1.032005 2.233053 0.086085 -0.025640 838307.000000 0 0 1
-12.641609 21.765098 -20.505403 32.465386 -1.044599 2.254422 0.076170 -0.022371 966789.000000 0 0 1
-11.912109 21.910398 -19.118703 31.424333 -1.072823 2.224845 0.067946 -0.023872 -151011.000000 0 0 1
-12.599209 21.700398 -17.916603 30.832645 -1.044765 2.190866 0.086041 -0.022822 206765.000000 0 0 1
-13.449609 22.826798 -17.584503 31.798890 -1.038354 2.156746 0.074616 -0.026885 365653.000000 0 0 1
-14.160809 22.934898 -16.209203 31.452763 -1.017656 2.112213 0.073143 -0.026101 249922.000000 0 0 1
-13.367609 23.385298 -15.111503 30.885638 -1.051503 2.082052 0.064360 -0.032246 51615.400000 0 0 1
-14.151509 23.533198 -13.962303 30.806209 -1.029390 2.041182 0.055632 -0.024859 345945.000000 0 0 1
-13.245809 23.928798 -12.735903 30.170218 -1.065231 2.006595 0.059156 -0.020900 332159.000000 0 0 1
-12.729509 25.241098 -12.740203 31.007518 -1.103701 1.994210 0.054786 -0.025241 81736.300000 0 0 1
-11.832109 25.442898 -11.681303 30.393958 -1.135501 1.965278 0.028497 -0.018877 -156475.000000 0 0 1
-11.526009 26.997298 -11.623403 31.572242 -1.167290 1.947818 0.037989 -0.012975 96849.700000 0 0 1
-10.810909 27.516698 -12.746503 32.194996 -1.196438 1.977861 0.042577 -0.013008 139078.000000 0 0 1
-10.790009 28.965598 -12.687903 33.412768 -1.214209 1.960303 0.034449 -0.013616 -260853.000000 0 0 1
-10.109309 29.668698 -13.935903 34.302174 -1.242395 1.989163 0.062203 -0.024324 1327210.000000 0 0 1
-8.689209 29.525898 -14.136403 33.869144 -1.284585 2.001360 0.050823 -0.016866 731330.000000 0 0 1
-8.280609 28.226298 -14.498603 32.794845 -1.285438 2.028735 0.052273 -0.015277 366201.000000 0 0 1
-6.837109 28.277198 -15.103603 32.779030 -1.333561 2.049659 0.055845 -0.016124 1364310.000000 0 0 1
-5.717009 28.540198 -14.251203 32.408701 -1.373099 2.026099 0.043431 -0.015827 -599385.000000 0 0 1
-4.555909 28.549998 -15.007603 32.574328 -1.412554 2.049601 0.049433 -0.015636 -198025.000000 0 0 1
-3.406909 29.347098 -14.313703 32.828970 -1.455224 2.021955 0.028638 -0.008074 35091.100000 0 0 1
-3.331909 30.779198 -14.420403 34.152726 -1.462964 2.006703 0.019376 -0.001021 -178380.000000 0 0 1
-4.309309 31.494598 -13.700603 34.614829 -1.434814 1.977737 0.016635 -0.003111 1128.040000 0 0 1
-4.483209 33.009198 -14.018403 36.141693 -1.435805 1.969120 0.023909 -0.007557 409207.000000 0 0 1
-3.439109 33.812398 -13.474303 36.560396 -1.469433 1.948244 -0.001363 -0.007480 294555.000000 0 0 1
-3.734309 -33.585966 -13.718703 36.471427 1.460065 1.956433 0.011882 -0.008828 280399.000000 0 0 1
-2.858709 -32.657066 -12.860903 35.214472 1.483482 1.944662 0.012359 -0.015363 -23391.500000 0 0 1
-3.189909 -32.716966 -11.464103 34.813805 1.473603 1.906356 0.017257 -0.018437 -123913.000000 0 0 1
-2.456009 -31.881166 -10.620803 33.693355 1.493912 1.891484 0.010175 -0.018913 -505827.000000 0 0 1
-2.751609 -32.016866 -9.104403 33.399719 1.485065 1.846879 0.010600 -0.020028 -311023.000000 0 0 1
-1.881609 -31.254366 -8.307503 32.394297 1.510666 1.830143 0.018669 -0.025475 -57595.000000 0 0 1
-2.190209 -31.429766 -6.937403 32.260731 1.501223 1.787531 0.010120 -0.027483 -478663.000000 0 0 1
-1.095709 -30.821466 -6.069003 31.432406 1.535261 1.765098 0.020506 -0.021170 -249816.000000 0 0 1
-1.260609 -31.058166 -4.664103 31.431715 1.530230 1.719735 0.016263 -0.018392 911255.000000 0 0 1
-0.176009 -30.440566 -3.902403 30.690191 1.565014 1.698296 0.023027 -0.015108 831618.000000 0 0 1
-0.252409 -30.897666 -2.428303 30.993969 1.562627 1.649224 0.024495 -0.004391 -436708.000000 0 0 1
-0.016409 -32.289766 -2.127403 32.359776 1.570288 1.636586 0.021159 -0.011999 271454.000000 0 0 1
1.242991 -32.856166 -2.464703 32.971919 -1.532983 1.645618 0.013153 -0.012928 609308.000000 0 0 1
2.474091 -32.331566 -1.644203 32.467749 -1.494423 1.621459 0.025863 -0.015200 -688321.000000 0 0 1
2.412191 -32.605366 -0.253103 32.695453 -1.496949 1.578538 0.029569 -0.013259 612856.000000 0 0 1
3.613191 -32.308066 0.484197 32.513086 -1.459424 1.555903 0.038774 -0.014808 697649.000000 0 0 1
4.048091 -30.826466 0.676697 31.098488 -1.440225 1.549035 0.031499 -0.014569 -413293.000000 0 0 1
4.329091 -30.251266 -0.590003 30.565148 -1.428657 1.590101 0.035680 -0.022203 88189.300000 0 0 1
4.322291 -28.834666 -0.514803 29.161365 -1.422005 1.588451 0.036476 -0.007873 -733340.000000 0 0 1
4.035391 -28.149266 -1.850203 28.497172 -1.428410 1.635768 0.032165 -0.003711 785184.000000 0 0 1
2.654291 -28.333766 -2.234803 28.545436 -1.477389 1.649166 0.034863 -0.007530 1330700.000000 0 0 1
2.071591 -27.257966 -3.055003 27.506749 -1.494943 1.682090 0.023357 -0.003262 335847.000000 0 0 1
2.517191 -27.268166 -4.529303 27.756148 -1.478745 1.734711 0.021606 -0.009471 -201274.000000 0 0 1
2.131391 -28.363766 -5.327203 28.938299 -1.495792 1.755941 0.016526 -0.011301 113951.000000 0 0 1
2.783191 -28.309766 -6.568903 29.194854 -1.472799 1.797741 0.025120 -0.011131 -3171.040000 0 0 1
2.022591 -29.215266 -7.555303 30.244095 -1.501676 1.823281 0.015001 -0.012067 -376305.000000 0 0 1
0.759991 -28.782366 -7.955403 29.871234 -1.544398 1.840373 0.015768 -0.012752 -650102.000000 0 0 1
0.630491 -29.075266 -9.378503 30.556913 -1.549115 1.882751 0.011149 -0.005999 -628987.000000 0 0 1
-0.668209 -28.464266 -9.832703 30.122135 1.547325 1.903318 0.011397 -0.012978 -1224090.000000 0 0 1
-0.673909 -27.058866 -9.731003 28.763324 1.545896 1.915920 0.005478 -0.011211 696515.000000 0 0 1
-1.971109 -26.434166 -9.884603 28.290560 1.496367 1.927723 0.018729 -0.014475 1534420.000000 0 0 1
-3.029509 -26.668466 -8.751503 28.230725 1.457682 1.885989 0.026644 -0.020153 -77960.000000 0 0 1
-2.630809 -26.295566 -7.452503 27.457563 1.471081 1.845663 0.026552 -0.025225 -140138.000000 0 0 1
-1.862409 -27.350566 -6.829903 28.251896 1.502807 1.814966 0.016656 -0.017756 374042.000000 0 0 1
-1.452709 -27.042166 -5.372803 27.608986 1.517128 1.766649 0.027449 -0.010294 119577.000000 0 0 1
-2.550009 -27.159766 -4.504603 27.648633 1.477182 1.734449 0.034558 -0.018272 56442.300000 0 0 1
-2.117509 -26.943666 -3.156603 27.210460 1.492367 1.687065 0.032034 -0.004778 769773.000000 0 0 1
-3.278509 -27.159866 -2.082903 27.436207 1.450666 1.646787 0.029738 -0.006140 881882.000000 0 0 1
-4.235809 -26.122466 -2.228803 26.557351 1.410044 1.654819 0.028480 -0.007749 -107483.000000 0 0 1
-5.131209 -26.061166 -1.145403 26.586193 1.376392 1.613892 0.043509 -0.006436 -235367.000000 0 0 1
-6.079409 -24.891266 -1.139703 25.648261 1.331247 1.615247 0.047874 -0.018518 -82467.900000 0 0 1
-5.436609 -23.733866 -0.625603 24.356611 1.345616 1.596484 0.016053 -0.013799 -1154.010000 0 1 0
-6.271709 -23.146966 0.345397 23.984071 1.306198 1.556395 0.034970 -0.008125 -5951.310000 0 1 0
-5.901309 -21.651466 0.731597 22.453211 1.304701 1.538207 0.017998 -0.010738 -191721.000000 0 1 0
-4.747109 -21.717566 1.502197 22.281031 1.355597 1.503325 0.016088 -0.011791 -686721.000000 0 1 0
-4.099909 -20.496166 1.624597 20.965243 1.373369 1.493229 0.002446 -0.003173 -684034.000000 0 1 0
-3.102709 -20.276966 2.728897 20.693696 1.418958 1.438540 0.003126 0.000901 -659671.000000 0 1 0
-3.635809 -20.369666 4.015197 21.077576 1.394165 1.379129 -0.003559 0.015449 82581.200000 0 1 0
-2.667309 -20.211966 5.072297 21.008720 1.439588 1.326949 0.002384 0.010892 412204.000000 0 1 0
-1.756709 -21.401266 5.474497 22.160107 1.488896 1.321169 -0.002942 -0.000931 240690.000000 0 1 0
-0.873209 -21.770666 4.442097 22.236381 1.530708 1.369676 0.020091 -0.000722 -237378.000000 0 1 0
-0.188809 -22.969766 4.798697 23.466429 1.562577 1.364852 0.021078 -0.000007 -889136.000000 0 1 0
0.866291 -23.364366 3.698597 23.671157 -1.533736 1.413904 0.020258 -0.008437 837174.000000 0 1 0
1.980291 -22.473266 3.660897 22.855446 -1.482906 1.409927 0.005848 -0.011612 192261.000000 0 1 0
2.861291 -22.614166 4.759397 23.286034 -1.444939 1.364957 0.030019 -0.017398 -1247770.000000 0 1 0
4.012591 -21.590566 4.797797 22.478263 -1.387044 1.355700 0.039291 -0.025856 -110869.000000 0 1 0
4.825291 -21.761666 3.654197 22.587756 -1.352593 1.408304 0.026870 -0.007721 -839725.000000 0 1 0
6.008191 -21.034566 3.744097 22.193909 -1.292571 1.401286 0.046657 -0.003090 -124546.000000 0 1 0
6.696091 -20.891366 2.370297 22.065927 -1.260622 1.463170 0.051311 0.003718 -169411.000000 0 1 0
7.201291 -22.054366 1.834597 23.272718 -1.255186 1.491884 0.047963 0.007715 -478422.000000 0 1 0
7.173591 -22.013766 0.404397 23.156637 -1.255779 1.553332 0.042546 -0.001946 86023.500000 0 1 0
8.263491 -22.810866 -0.329803 24.263752 -1.223240 1.584389 0.031183 0.002504 -251674.000000 0 1 0
9.536991 -22.257966 -0.469803 24.219661 -1.165986 1.590195 0.029397 0.008193 -936542.000000 0 1 0
10.247091 -23.055166 -1.385303 25.267818 -1.152559 1.625649 0.022849 0.006039 337403.000000 0 0 1
11.542991 -22.319866 -1.854803 25.196376 -1.093513 1.644477 0.015781 0.010190 200194.000000 0 0 1
11.307391 -21.253966 -2.777103 24.234283 -1.081867 1.685643 0.016995 0.014793 471457.000000 0 1 0
12.514691 -20.960866 -3.511803 24.663904 -1.032549 1.713668 0.007703 0.019369 670894.000000 0 1 0
12.435991 -19.768366 -4.476503 23.779850 -1.009265 1.760174 0.009615 0.002409 -212460.000000 0 1 0
12.435191 -18.545866 -3.766203 22.644368 -0.980138 1.737892 0.022614 0.006106 103764.000000 0 1 0
12.731391 -17.486666 -4.690003 22.132961 -0.941483 1.784316 0.038739 -0.004092 -294910.000000 0 1 0
13.287991 -16.138366 -4.099203 21.303076 -0.881962 1.764427 0.059726 -0.002770 253641.000000 0 1 0
14.600491 -16.213166 -3.600303 22.113419 -0.837687 1.734335 0.040495 0.002686 43999.300000 0 1 0
15.618991 -15.977266 -4.557603 22.803457 -0.796737 1.772016 0.037754 -0.002267 591300.000000 0 1 0
17.054591 -15.672366 -4.005803 23.505927 -0.743188 1.742049 0.034199 -0.008060 679518.000000 0 1 0
17.673291 -16.797666 -3.460203 24.626811 -0.760002 1.711768 0.032088 0.001673 797743.000000 0 1 0
18.992691 -16.486866 -2.975903 25.325779 -0.714888 1.688573 0.015258 0.002554 489100.000000 0 0 1
19.753891 -17.614266 -2.259203 26.562805 -0.728203 1.655951 0.026036 0.001352 -542897.000000 0 0 1
21.067291 -17.153466 -2.139603 27.251607 -0.683353 1.649390 0.021165 -0.003053 -68632.400000 0 0 1
21.848591 -18.052066 -1.290903 28.370838 -0.690534 1.616313 0.020385 -0.000268 394598.000000 0 0 1
23.373891 -17.944466 -1.469803 29.504287 -0.654742 1.620634 0.033045 -0.002964 52578.100000 0 0 1
23.916091 -16.669666 -1.029103 29.170469 -0.608714 1.606083 0.042790 -0.010379 -657701.000000 0 0 1
25.271191 -16.838066 -0.783803 30.377095 -0.587745 1.596602 0.057125 -0.011226 -822059.000000 0 0 1
25.961791 -15.594666 -0.190903 30.286047 -0.540918 1.577100 0.055536 -0.015286 325744.000000 0 0 1
25.369491 -15.217966 1.112597 29.604652 -0.540311 1.533206 0.062096 -0.017349 444353.000000 0 0 1
26.184291 -14.299066 1.812697 29.889233 -0.499839 1.510112 0.065064 -0.029056 -32833.900000 0 0 1
25.440691 -13.360866 2.805197 28.872316 -0.483586 1.473484 0.079630 -0.029614 -95026.700000 0 0 1
24.835591 -13.956266 3.929897 28.758095 -0.511969 1.433714 0.073514 -0.025644 83550.300000 0 0 1
25.719591 -14.701566 4.757497 30.004453 -0.519283 1.411565 0.078681 -0.027792 31313.600000 0 0 1
25.047091 -15.158466 6.048597 29.895174 -0.544233 1.367063 0.063818 -0.020369 59111.400000 0 0 1
24.130291 -16.199966 5.787397 29.634504 -0.591241 1.374241 0.068653 -0.022552 -56563.700000 0 0 1
23.374691 -16.529966 6.929797 29.455697 -0.615524 1.333309 0.057938 -0.016895 -606754.000000 0 0 1
22.773791 -17.915966 6.764397 29.755411 -0.666574 1.341458 0.050479 -0.017299 -187305.000000 0 0 1
23.648891 -19.057366 6.799797 31.123793 -0.678295 1.350544 0.058604 -0.015696 -209977.000000 0 0 1
22.936691 -20.239566 6.913697 31.361299 -0.723011 1.348517 0.026270 -0.002254 -429676.000000 0 0 1
1.686591 23.327298 -2.974303 23.576554 1.498621 1.697288 0.001798 -0.004565 55513.200000 0 1 0
2.482691 24.426598 -2.618703 24.691700 1.469505 1.677052 0.006828 -0.007892 -36132.600000 0 1 0
3.215191 25.054098 -3.662003 25.523627 1.443164 1.714768 0.018531 -0.006567 525475.000000 0 0 1
4.276991 26.066798 -3.122003 26.599201 1.408167 1.688440 0.006802 -0.005280 258510.000000 0 0 1
5.376191 25.480898 -2.464303 26.158218 1.362857 1.665144 0.008088 -0.011225 -355302.000000 0 0 1
6.021491 26.412598 -1.634703 27.139564 1.346649 1.631066 -0.003053 -0.005079 -908986.000000 0 0 1
7.168291 25.773598 -0.926603 26.767916 1.299527 1.605419 -0.012804 -0.016445 -753351.000000 0 0 1
8.234991 25.419598 -1.784903 26.779786 1.257503 1.637497 -0.006468 -0.022625 265613.000000 0 0 1
9.174691 24.465698 -1.202003 26.157029 1.212024 1.616766 -0.003239 -0.017739 141115.000000 0 0 1
10.185391 24.123098 -2.273003 26.283695 1.171278 1.657384 0.006528 -0.015563 -1523450.000000 0 0 1
11.100991 25.205498 -2.419503 27.647841 1.155938 1.658420 0.009683 -0.014599 26663.400000 0 0 1
12.003791 25.031398 -3.502003 27.980813 1.123643 1.696283 0.027065 -0.015424 682302.000000 0 0 1
12.991791 23.788898 -3.483203 27.328209 1.070930 1.698602 0.027885 -0.015011 -770410.000000 0 0 1
12.458391 22.505698 -3.731803 25.993159 1.065219 1.714863 0.027924 -0.021005 -310717.000000 0 0 1
12.217591 22.361898 -5.141103 25.995287 1.070754 1.769879 0.039891 -0.025297 -79430.400000 0 0 1
11.241191 21.184498 -5.500503 24.604936 1.082944 1.796254 0.037172 -0.023449 169314.000000 0 1 0
9.909491 21.643698 -5.401603 24.409527 1.141436 1.793934 0.024252 -0.018490 -318852.000000 0 1 0
9.100591 20.508698 -5.141203 23.018676 1.153158 1.796045 0.009265 -0.009419 -113444.000000 0 1 0
7.605791 20.776398 -4.897603 22.660390 1.219870 1.788646 0.004249 -0.011464 -20081.300000 0 1 0
7.215991 21.277498 -3.658603 22.763739 1.243831 1.732217 -0.002953 -0.011203 -28533.800000 0 1 0
5.827791 21.531898 -3.598203 22.594974 1.306471 1.730725 0.004407 -0.009463 163162.000000 0 1 0
5.426291 22.262298 -2.240303 23.023325 1.331715 1.668256 0.005276 -0.012075 28604.300000 0 1 0
5.212591 21.437898 -1.103103 22.090075 1.332277 1.620754 0.004268 -0.009278 -20305.000000 0 1 0
4.641091 22.139998 0.015697 22.621218 1.364164 1.570102 0.012595 -0.004715 123974.000000 0 1 0
4.117191 21.170598 1.049897 21.592771 1.378717 1.522155 0.008436 -0.011586 -398532.000000 0 1 0
3.426591 21.889498 2.042397 22.250012 1.415516 1.478874 0.009436 -0.000680 132034.000000 0 1 0
3.109391 21.034798 3.167197 21.497958 1.424038 1.422933 0.012243 -0.001970 174080.000000 0 1 0
2.058291 21.601198 4.155497 22.093358 1.475797 1.381581 0.014156 -0.006634 -123635.000000 0 1 0
0.747991 21.709898 3.668797 22.030416 1.536356 1.403484 0.015519 -0.006246 -737232.000000 0 1 0
-0.087409 22.187998 4.684497 22.677289 -1.566857 1.362726 0.017289 -0.012907 -526422.000000 0 1 0
-1.522309 22.181098 4.164297 22.619901 -1.502273 1.385641 0.013814 -0.017723 -255995.000000 0 1 0
-2.474109 22.862898 4.981397 23.529718 -1.463001 1.357475 0.025091 -0.014939 294229.000000 0 1 0
-3.770109 22.763798 4.409297 23.491405 -1.406668 1.381978 0.027464 -0.019037 -72670.000000 0 1 0
-4.905609 23.098398 5.353497 24.212826 -1.361527 1.347852 0.039744 -0.026213 -451336.000000 0 1 0
-5.015209 24.481498 5.636897 25.617781 -1.368735 1.348942 0.046796 -0.019133 1121220.000000 0 0 1
-6.214809 24.683298 6.453197 26.258957 -1.324141 1.322501 0.055484 -0.027220 1282220.000000 0 0 1
-6.461709 26.099698 6.956697 27.773073 -1.328099 1.317617 0.061612 -0.032188 129789.000000 0 0 1
-5.459509 26.561498 7.888797 28.240973 -1.368077 1.287691 0.056634 -0.032159 391799.000000 0 0 1
-5.686209 27.798998 8.523497 29.627137 -1.369032 1.278980 0.075433 -0.039505 -285341.000000 0 0 1
-5.906109 29.040098 7.591897 30.591605 -1.370155 1.320006 0.076133 -0.040852 -133625.000000 0 0 1
-7.203309 29.165098 7.075897 30.863553 -1.328658 1.339475 0.067821 -0.038654 -791507.000000 0 0 1
-7.371609 30.232098 6.103497 31.710772 -1.331629 1.377114 0.075112 -0.040385 201553.000000 0 0 1
-8.873409 30.386698 5.722597 32.168881 -1.286680 1.391952 0.067051 -0.038384 292325.000000 0 0 1
-9.704509 30.810598 6.733197 32.997066 -1.265660 1.365299 0.062896 -0.027742 -740076.000000 0 0 1
-10.283809 29.774698 7.460997 32.372146 -1.238237 1.338230 0.047033 -0.020931 -612466.000000 0 0 1
-11.328509 30.242498 8.507797 33.396503 -1.212386 1.313206 0.031815 -0.016737 -283424.000000 0 0 1
-10.816909 31.000698 9.560897 34.197362 -1.235080 1.287440 0.053768 -0.022774 -481916.000000 0 0 1
-11.740109 31.186198 10.589897 34.965054 -1.210753 1.263093 0.057545 -0.014416 -232070.000000 0 0 1
-11.009209 31.644298 11.879297 35.548305 -1.235989 1.230068 0.051847 -0.018522 79875.600000 0 0 1
-10.418809 32.925398 11.755697 36.480541 -1.264329 1.242696 0.044294 -0.019305 209764.000000 0 0 1
-9.610909 33.202598 12.893997 36.892238 -1.289035 1.213754 0.053049 -0.022646 169130.000000 0 0 1
-9.040309 -34.167366 12.801997 37.590254 1.312135 1.223277 0.046127 -0.025620 -183494.000000 0 0 1
-9.899209 -33.220266 13.395397 37.162038 1.281187 1.202036 0.042864 -0.009937 52036.400000 0 0 1
-9.494009 -31.894266 13.207797 35.802602 1.281477 1.192965 0.034087 -0.004694 482529.000000 0 0 1
-10.550109 -30.929666 13.917597 35.519693 1.242072 1.168179 0.049922 -0.008092 574022.000000 0 0 1
-10.551209 -30.877366 15.348597 36.059939 1.241523 1.131126 0.053716 -0.020301 1085790.000000 0 0 1
-9.319209 -30.438366 16.019397 35.636539 1.273692 1.104567 0.061339 -0.018927 1278660.000000 0 0 1
-9.223309 -30.746866 17.532297 36.576231 1.279362 1.070899 0.053994 -0.031740 108078.000000 0 0 1
-10.235609 -30.102566 18.286297 36.678616 1.243036 1.048866 0.088996 -0.029355 366395.000000 0 0 1
-10.857609 -30.943666 19.253097 38.027357 1.233335 1.039912 0.076822 -0.031518 129273.000000 0 0 1
-11.207809 -30.170466 20.584297 38.204519 1.215113 1.001794 0.074422 -0.029577 402945.000000 0 0 1
-10.007209 -29.822866 21.272397 37.974498 1.247048 0.976198 0.066475 -0.024855 367314.000000 0 0 1
-10.227209 -29.077266 22.492397 38.157452 1.232585 0.940403 0.053479 -0.022085 -160377.000000 0 0 1
-8.997309 -29.016966 23.409197 38.352658 1.270126 0.914273 0.073803 -0.024153 -106622.000000 0 0 1
-8.874609 -30.208766 24.111997 39.657492 1.285059 0.917250 0.069905 -0.010441 662226.000000 0 0 1
-7.728009 -30.171766 24.981597 39.926655 1.320053 0.894784 0.077591 -0.015744 443767.000000 0 0 1
-7.687909 -31.370466 25.983097 41.452761 1.330465 0.893341 0.078087 -0.019966 -201063.000000 0 0 1
-7.488509 -32.601066 25.425497 42.016225 1.345012 0.920861 0.097724 -0.023593 338196.000000 0 0 1
-7.626909 -33.693866 26.356997 43.452706 1.348189 0.919060 0.090937 -0.023560 -288306.000000 0 0 1
-7.481609 33.682398 25.719197 43.034353 -1.352223 0.930238 0.075214 -0.020508 -1142390.000000 0 0 1
-6.187009 33.549498 25.269297 42.454508 -1.388431 0.933271 0.073838 -0.014101 -669533.000000 0 0 1
-5.776709 32.279098 24.724497 41.068373 -1.393710 0.924752 0.070877 -0.012033 -92262.800000 0 0 1
-6.477509 31.829298 23.418997 40.043873 -1.370030 0.946122 0.068066 -0.016696 383120.000000 0 0 1
-7.686609 31.110398 23.644997 39.824951 -1.328572 0.935118 0.058672 -0.023347 321617.000000 0 0 1
-8.630209 31.181198 22.606697 39.469107 -1.300780 0.960916 0.044666 -0.016641 341092.000000 0 0 1
-9.755209 30.125198 22.841697 39.044011 -1.257630 0.945886 0.037807 -0.025355 181284.000000 0 0 1
-9.313909 28.870998 22.453797 37.741972 -1.258733 0.933619 0.035495 -0.019562 187861.000000 0 0 1
-10.186009 27.830998 22.923497 37.467399 -1.219944 0.912430 0.019450 -0.011948 -12656.500000 0 0 1
-9.667809 26.366298 22.757997 36.146572 -1.219346 0.889754 0.004571 -0.012020 766653.000000 0 0 1
-8.332009 26.144598 23.249697 35.965411 -1.262283 0.867879 0.013391 -0.018369 961060.000000 0 0 1
-7.942109 24.781498 23.102197 34.798150 -1.260653 0.844786 0.027688 -0.015109 -103060.000000 0 0 1
-6.553809 24.495598 23.693097 34.703740 -1.309369 0.819311 0.037499 -0.016311 -287860.000000 0 0 1
-5.513609 24.942198 22.885897 34.296901 -1.353240 0.840235 0.026063 -0.016706 -133094.000000 0 0 1
-4.225909 24.781298 23.461297 34.386095 -1.401893 0.819906 0.053961 -0.018908 518517.000000 0 0 1
-3.082309 25.355998 22.596697 34.103343 -1.449829 0.846518 0.044356 -0.015460 46597.700000 0 0 1
-2.772009 24.700298 21.342897 32.761380 -1.459038 0.861282 0.048695 -0.010991 -56322.400000 0 0 1
-1.725509 25.351398 20.680397 32.762015 -1.502837 0.887657 0.046950 -0.007098 -122275.000000 0 0 1
-1.271509 24.492198 19.460997 31.308384 -1.518928 0.900025 0.038476 -0.013339 246971.000000 0 0 1
-0.328109 23.452398 19.785697 30.685444 -1.556807 0.870047 0.040442 -0.008191 331174.000000 0 0 1
0.035891 22.674198 18.683697 29.380284 1.569213 0.881588 0.035044 -0.005326 -537168.000000 0 0 1
1.096391 21.660698 19.093597 28.895560 1.520223 0.848939 0.030346 -0.003178 -150359.000000 0 0 1
2.421591 22.133998 19.151997 29.369661 1.461824 0.860443 0.023965 -0.009979 -211772.000000 0 0 1
3.353891 21.058998 19.241997 28.722542 1.412861 0.836686 0.027468 -0.004233 -438198.000000 0 0 1
4.744891 21.672798 19.316097 29.416590 1.355264 0.854442 0.018330 -0.012708 -683676.000000 0 0 1
5.736991 20.685098 19.116397 28.744095 1.300248 0.843229 0.029837 -0.011709 -150015.000000 0 0 1
7.004991 21.281498 18.911497 29.319222 1.252808 0.869746 0.066154 -0.015718 -47070.600000 0 0 1
8.078891 20.257098 18.542897 28.626169 1.191310 0.866155 0.051697 -0.007756 -288139.000000 0 0 1
8.607291 19.513698 19.601397 28.966958 1.155377 0.827551 0.052601 -0.008445 -224674.000000 0 0 1
9.752891 18.795398 19.217697 28.595555 1.092145 0.833820 0.047322 -0.010867 -163180.000000 0 0 1
10.290191 17.905498 20.341897 28.987716 1.049192 0.792957 0.056944 -0.012030 -571939.000000 0 0 1
9.483091 16.874598 20.752997 28.379006 1.058806 0.750600 0.054653 -0.012708 -538548.000000 0 0 1
10.102991 16.257098 21.858097 29.054089 1.014753 0.719213 0.059497 -0.022339 223755.000000 0 0 1
9.258791 15.103998 22.535197 28.665155 1.020871 0.666237 0.044182 -0.015057 736132.000000 0 0 1
8.078091 15.637998 23.167097 29.094964 1.093982 0.649712 0.048113 -0.003501 224960.000000 0 0 1
7.170191 14.644798 23.561997 28.653961 1.115498 0.605365 0.034802 -0.005909 -217572.000000 0 0 1
7.470391 13.734498 24.776397 29.296980 1.072637 0.562925 0.043714 -0.011535 -522892.000000 0 0 1
7.510291 14.412298 26.021497 30.679588 1.090409 0.558276 0.050853 -0.018966 196361.000000 0 0 1
7.951391 13.573998 27.119197 31.351697 1.040898 0.525647 0.052170 -0.018364 -929194.000000 0 0 1
9.034891 14.311998 27.906197 32.637684 1.007693 0.545188 0.035099 -0.005730 -1506670.000000 0 0 1
10.279191 14.125698 27.366797 32.467502 0.941724 0.568149 0.049824 -0.005665 -884706.000000 0 0 1
10.703291 15.195998 26.476397 32.349318 0.957157 0.612083 0.047367 -0.006096 -90730.000000 0 0 1
12.078991 14.881098 25.833097 32.166722 0.888962 0.638316 0.045559 -0.010504 14426.000000 0 0 1
11.935491 13.960398 24.750397 30.820948 0.863434 0.638420 0.055430 -0.017252 137795.000000 0 0 1
13.131691 13.575598 24.100697 30.619957 0.802018 0.664717 0.048161 -0.011649 -214676.000000 0 0 1
12.819091 12.361898 23.146597 29.204633 0.767244 0.655791 0.044543 -0.016481 57556.200000 0 0 1
12.435991 11.156398 23.758097 29.044212 0.731214 0.612875 0.047018 -0.009484 226347.000000 0 0 1
11.090091 11.132998 24.210097 28.862823 0.787329 0.575723 0.054247 -0.011625 -70406.800000 0 0 1
10.636591 9.744798 24.816497 28.704646 0.741671 0.526549 0.045819 -0.010108 -12855.500000 0 0 1
10.529691 8.720998 23.823697 27.468141 0.691718 0.521002 0.047073 -0.007027 23164.400000 0 0 1
10.017191 7.593798 24.406697 27.453538 0.648650 0.475600 0.043190 -0.009875 -136735.000000 0 0 1
10.242591 6.280898 23.562897 26.449395 0.550079 0.471546 0.061493 -0.018775 -72179.400000 0 0 1
11.603091 5.919198 23.468297 26.840820 0.471726 0.506699 0.056174 -0.008228 147403.000000 0 0 1
11.713791 4.672298 22.794897 26.050923 0.379533 0.505334 0.062187 -0.011448 -45390.700000 0 0 1
11.869691 3.453998 23.699197 26.729602 0.283173 0.480795 0.058646 -0.007994 891624.000000 0 0 1
13.222291 3.295398 24.194597 27.768096 0.244254 0.512932 0.047022 -0.004117 1089530.000000 0 0 1
13.268191 2.105898 24.891897 28.285796 0.157405 0.494905 0.056927 -0.000195 51575.900000 0 0 1
14.660291 1.648198 25.407397 29.379866 0.111956 0.526065 0.053385 0.001861 126253.000000 0 0 1
15.425091 1.216398 24.318097 28.823305 0.078696 0.566666 0.018674 -0.001710 -626903.000000 0 0 1
16.742691 0.895998 24.595097 29.766413 0.053465 0.598343 0.034605 -0.005930 -429373.000000 0 0 1
17.493991 0.066198 23.520697 29.313262 0.003784 0.639505 0.037529 -0.003969 146189.000000 0 0 1
17.191991 -1.283402 23.801497 29.389164 -0.074513 0.626860 0.033028 0.000018 504563.000000 0 0 1
18.213491 -2.109602 23.257897 29.616068 -0.115312 0.667594 0.017965 0.000405 53900.100000 0 0 1
18.161291 -3.574202 23.768897 30.125867 -0.194320 0.661639 0.023108 0.008389 -156101.000000 0 0 1
17.019091 -4.233202 23.280897 29.147378 -0.243785 0.645614 0.024366 0.011771 88684.000000 0 0 1
17.124591 -5.629202 23.468997 29.592792 -0.317593 0.654973 0.037617 0.006939 -275650.000000 0 0 1
15.942191 -6.372002 22.862397 28.590996 -0.380243 0.644107 0.057853 0.000946 -480202.000000 0 0 1
16.012491 -6.337802 21.418597 27.483157 -0.376884 0.677192 0.045246 -0.004359 97730.300000 0 0 1
15.293191 -7.444502 20.906297 26.951356 -0.453020 0.682965 0.049340 -0.015100 -379124.000000 0 0 1
15.889491 -8.861702 21.039597 27.814930 -0.508742 0.712983 0.059743 -0.026733 -187950.000000 0 0 1
15.737191 -9.421602 22.320697 28.890124 -0.539451 0.687860 0.052833 -0.019169 -385764.000000 0 0 1
16.613891 -10.491102 22.454797 29.837937 -0.563235 0.718857 0.042185 -0.025533 -388664.000000 0 0 1
16.235891 -11.384802 23.678197 30.884865 -0.611539 0.697173 0.038190 -0.019418 509016.000000 0 0 1
15.151191 -12.278902 23.403197 30.463743 -0.681065 0.694723 0.049999 -0.030423 212064.000000 0 0 1
14.929091 -13.175602 24.461397 31.540992 -0.723088 0.683221 0.048845 -0.018396 392312.000000 0 0 1
13.717891 -14.132602 24.195897 31.198596 -0.800288 0.683219 0.049622 -0.020857 330936.000000 0 0 1
14.033491 -14.790802 23.019797 30.750898 -0.811665 0.724864 0.037259 -0.018282 64934.700000 0 0 1
13.053691 -15.728902 22.668497 30.523073 -0.878077 0.733751 0.035545 -0.009131 -367974.000000 0 0 1
13.521591 -16.543602 21.460697 30.283423 -0.885577 0.783197 0.015031 -0.015523 -614751.000000 0 0 1
14.545491 -17.424302 21.743497 31.431788 -0.875204 0.806862 0.015333 -0.014479 -711695.000000 0 0 1
14.878791 -18.039102 20.541097 31.124336 -0.881111 0.850019 0.001072 -0.006549 -433624.000000 0 0 1
-23.480909 -32.462166 26.490048 48.029865 0.944583 0.986596 0.042346 -0.026026 -736471.000000 0 0 1
-24.121209 -33.211766 27.466298 49.388781 0.942646 0.981081 0.044009 -0.026535 -424410.000000 0 0 1
-25.162739 -33.893266 26.810088 50.006977 0.932170 1.004954 0.041321 -0.024218 242596.000000 0 0 1
-26.109269 34.121098 27.822758 51.186415 -0.917642 0.996127 0.031887 -0.022310 418867.000000 0 0 1
-26.909409 -33.836166 28.722278 51.903484 0.898937 0.984381 0.041421 -0.017671 333417.000000 0 0 1
-26.203999 -33.413866 29.828358 51.892841 0.905748 0.958428 0.031183 -0.016464 -700436.000000 0 0 1
-27.100919 -32.652066 30.783398 52.423609 0.878034 0.943195 0.024724 -0.013930 -310606.000000 0 0 1
-27.463379 -31.372666 30.379998 51.589007 0.851744 0.941118 0.022486 -0.007354 -12669.300000 0 0 1
-28.068009 -30.723066 31.472778 52.175240 0.830528 0.923273 0.009396 0.002408 -68472.100000 0 0 1
-28.627219 -29.286966 31.119158 51.435844 0.796789 0.921019 0.016038 0.000814 -209848.000000 0 0 1
-29.585669 -29.323666 30.100298 51.392773 0.780951 0.945064 0.015277 0.010641 -19812.700000 0 0 1
-30.105979 -28.042566 29.901238 50.860982 0.749928 0.942334 0.019588 0.014269 -366137.000000 0 0 1
-30.593519 -27.803566 28.466318 50.192957 0.737659 0.967770 0.008619 0.002002 150179.000000 0 0 1
-29.684029 -27.740866 27.332638 48.967033 0.751573 0.978600 0.023183 0.006116 555339.000000 0 0 1
-28.975759 -26.507066 27.238888 47.793056 0.740933 0.964371 0.018583 0.013261 421039.000000 0 0 1
-28.002619 -26.276366 26.019028 46.385169 0.753606 0.975283 0.024213 0.016938 428267.000000 0 0 1
-28.597719 -26.440166 24.732858 46.137037 0.746217 1.005017 0.013478 0.008230 -50301.800000 0 0 1
-27.611559 -26.310066 23.735918 44.922284 0.761266 1.014108 0.027307 0.017967 -235920.000000 0 0 1
-28.016609 -26.598366 22.281568 44.596768 0.759436 1.047633 0.008592 0.025013 16311.700000 0 0 1
-29.036919 -25.778566 21.734968 44.498157 0.726026 1.060488 -0.000330 0.014321 203837.000000 0 0 1
-29.238669 -26.007866 20.360468 44.111875 0.726985 1.091039 0.003532 0.022925 134911.000000 0 0 1
-30.127839 -24.986666 19.604468 43.776196 0.692386 1.106455 0.001521 0.020526 192114.000000 0 0 1
-31.452219 -24.712566 20.007168 44.724040 0.665971 1.106999 0.006005 0.009937 -26342.600000 0 0 1
-31.929689 -23.616066 19.287968 44.150304 0.636829 1.118680 0.016074 0.009054 -521618.000000 0 0 1
-33.369589 -23.243866 19.652968 45.166867 0.608412 1.120626 0.011387 0.012737 -655868.000000 0 0 1
-34.296543 -24.124266 19.119768 46.084689 0.613006 1.142982 0.010766 0.005606 -866481.000000 0 0 1
-35.592454 -23.600666 19.111368 46.787376 0.585516 1.150016 0.010503 -0.001182 -350542.000000 0 0 1
34.900309 -24.563466 18.412668 46.480338 -0.613284 1.163488 0.025190 -0.008861 -101565.000000 0 0 1
34.614919 -25.656366 19.243268 47.188400 -0.637841 1.150757 0.022332 -0.005162 -265482.000000 0 0 1
34.107359 -26.778166 18.598868 47.183684 -0.665598 1.165621 0.022580 0.004368 -76002.100000 0 0 1
33.897389 -27.950166 19.584768 48.102057 -0.689534 1.151464 0.008892 0.003727 -37861.400000 0 0 1
32.751599 -27.728466 20.391868 47.511718 -0.702534 1.127193 0.007742 0.004969 986.606000 0 0 1
32.987609 -27.028766 21.583768 47.797443 -0.686436 1.102275 0.009006 -0.000753 -267828.000000 0 0 1
31.711859 -26.842166 22.431468 47.215619 -0.702423 1.075735 0.011889 -0.004204 -76121.700000 0 0 1
30.797949 -25.946366 21.877468 45.829588 -0.700107 1.073142 0.015285 -0.004398 273742.000000 0 0 1
29.748029 -25.529466 22.775368 45.336699 -0.709230 1.044470 0.022331 -0.006932 369929.000000 0 0 1
28.691229 -24.619466 22.122268 43.802962 -0.709168 1.041367 0.032652 -0.007579 -221097.000000 0 0 1
29.162229 -23.387466 21.568468 43.157942 -0.675946 1.047479 0.034918 -0.003872 -202714.000000 0 0 1
29.831099 -22.507166 22.428668 43.583393 -0.646366 1.030238 0.043988 -0.014541 -347475.000000 0 0 1
30.875789 -21.641066 21.722868 43.514746 -0.611335 1.048113 0.043883 -0.014509 -100845.000000 0 0 1
30.268089 -20.613066 20.916368 42.172860 -0.597871 1.051848 0.048659 -0.020055 177450.000000 0 0 1
31.213229 -19.770366 20.315668 42.164670 -0.564615 1.068069 0.043612 -0.023469 -602234.000000 0 0 1
30.445529 -18.576866 19.767268 40.777139 -0.547862 1.064704 0.049738 -0.016477 351097.000000 0 0 1
29.965849 -17.615166 20.764268 40.489517 -0.531431 1.032317 0.052424 -0.006912 247700.000000 0 0 1
28.920979 -17.992266 21.632468 40.349824 -0.556524 1.004959 0.065889 -0.026879 -637588.000000 0 0 1
29.205809 -17.805966 23.133668 41.294047 -0.547501 0.976147 0.055394 -0.024012 -201449.000000 0 0 1
29.097189 -16.481966 23.604068 40.932305 -0.515381 0.956160 0.052872 -0.016829 108782.000000 0 0 1
29.532789 -16.359466 24.920018 41.962186 -0.505865 0.934938 0.047394 -0.020093 -210627.000000 0 0 1
29.415019 -14.936666 25.524758 41.711636 -0.469861 0.912293 0.065057 -0.020770 -233915.000000 0 0 1
28.045749 -14.636666 25.704268 40.761568 -0.481002 0.888470 0.062776 -0.025364 115187.000000 0 0 1
27.778249 -13.458766 26.404678 40.619903 -0.451177 0.863155 0.053247 -0.020890 16587.500000 0 0 1
27.994589 -12.147166 25.606168 39.836246 -0.409394 0.872667 0.057762 -0.030182 -339631.000000 0 0 1
27.047599 -11.992666 24.573688 38.461185 -0.417344 0.877701 0.053235 -0.021409 20421.800000 0 0 1
27.341649 -11.017366 23.578968 37.748058 -0.383048 0.896125 0.058744 -0.019217 124112.000000 0 0 1
28.474869 -11.383066 22.547768 38.063029 -0.380298 0.936787 0.070954 -0.033435 208532.000000 0 0 1
28.213829 -12.233666 21.484068 37.513303 -0.409137 0.960994 0.065380 -0.038766 -19737.100000 0 0 1
28.487619 -13.644766 21.713568 38.330185 -0.446684 0.968559 0.069722 -0.039706 -367732.000000 0 0 1
27.901569 -14.620566 20.649168 37.664926 -0.482667 0.990546 0.081115 -0.046087 -597887.000000 0 0 1
28.501319 -14.706466 19.413568 37.489891 -0.476360 1.026478 0.063085 -0.033825 -541458.000000 0 0 1
27.894939 -15.725166 18.639168 37.051681 -0.513322 1.043662 0.060193 -0.031241 -195102.000000 0 0 1
28.492949 -15.919066 17.200568 36.893419 -0.509500 1.085780 0.066941 -0.030271 -63257.800000 0 0 1
27.921119 -16.964566 16.407568 36.559454 -0.545981 1.105384 0.061166 -0.031725 1775440.000000 0 0 1
26.477729 -16.951066 16.174068 35.355470 -0.569456 1.095648 0.061203 -0.022651 1559950.000000 0 0 1
25.951449 -15.897166 15.101168 33.974150 -0.549613 1.110192 0.059497 -0.019287 -492569.000000 0 0 1
26.125849 -16.232466 13.758768 33.695054 -0.555947 1.150170 0.066269 -0.025986 808985.000000 0 0 1
25.195549 -17.238266 13.277368 33.290569 -0.600029 1.160553 0.047768 -0.029049 87887.700000 0 0 1
25.651249 -17.808966 11.900868 33.418206 -0.606872 1.206685 0.055425 -0.027806 -289775.000000 0 0 1
25.438049 -16.965866 10.712768 32.399049 -0.588198 1.233803 0.043574 -0.028143 -30930.200000 0 0 1
25.439149 -17.623466 9.456368 32.359848 -0.605857 1.274243 0.036449 -0.036828 -438422.000000 0 0 1
26.844689 -17.962766 8.942868 33.515268 -0.589711 1.300694 0.048633 -0.023725 172509.000000 0 0 1
27.493179 -18.995366 9.705168 34.797832 -0.604601 1.288146 0.043851 -0.013186 -464917.000000 0 0 1
28.882189 -19.017766 9.488968 35.859403 -0.582300 1.302991 0.046492 -0.003970 173462.000000 0 0 1
29.725169 -19.817866 10.540368 37.248260 -0.588028 1.283901 0.046766 -0.013259 4525.650000 0 0 1
29.671259 -19.147766 11.789268 37.229120 -0.573086 1.248582 0.059077 -0.025659 214126.000000 0 0 1
29.701799 -20.077366 12.868368 38.090581 -0.594412 1.226180 0.031602 -0.017787 -167318.000000 0 0 1
29.282999 -19.442966 14.178868 37.902022 -0.586132 1.187378 0.050392 -0.015082 -110020.000000 0 0 1
29.322069 -20.490766 15.120568 38.836668 -0.609932 1.170884 0.048972 -0.015761 125391.000000 0 0 1
29.328229 -20.084466 16.452768 39.169176 -0.600463 1.137303 0.068102 -0.023930 39558.400000 0 0 1
29.329589 -21.294266 17.441068 40.222648 -0.627985 1.122298 0.068553 -0.024894 507288.000000 0 0 1
28.017919 -21.849666 17.519668 39.615028 -0.662331 1.112693 0.042712 -0.014576 454398.000000 0 0 1
27.795439 -22.596366 18.668168 40.394092 -0.682589 1.090377 0.036740 -0.014447 223803.000000 0 0 1
26.478539 -23.422066 18.579668 39.936328 -0.724223 1.086899 0.035311 -0.006193 1058280.000000 0 0 1
25.338049 -22.603466 18.909468 38.865169 -0.728420 1.062671 0.034793 -0.006240 722876.000000 0 0 1
24.075449 -23.208366 18.704568 38.316007 -0.767062 1.060809 0.034103 -0.007724 497714.000000 0 0 1
22.900149 -22.660866 19.542068 37.680553 -0.780146 1.025555 0.025476 -0.002466 -65151.200000 0 0 1
22.338949 -21.482066 19.017168 36.361525 -0.765847 1.020426 0.020664 -0.005185 619104.000000 0 0 1
21.061949 -21.018166 19.479568 35.564344 -0.784358 0.991151 0.010384 -0.004689 857934.000000 0 0 1
21.034549 -20.411266 20.921868 36.011062 -0.770361 0.950859 0.011325 0.001285 -271994.000000 0 0 1
21.148549 -21.416666 21.917568 37.233244 -0.791697 0.941401 0.015437 0.002012 -73352.900000 0 0 1
21.693149 -20.911166 23.132668 37.986707 -0.767046 0.916038 0.029630 -0.007108 80127.700000 0 0 1
22.085449 -22.028566 24.149818 39.449189 -0.784109 0.911988 0.028065 -0.011450 157947.000000 0 0 1
21.045949 -22.890466 24.550948 39.618865 -0.827355 0.902464 0.014557 0.001562 25966.500000 0 0 1
21.669949 -23.852966 25.361148 41.009005 -0.833316 0.904055 0.016165 0.006429 363301.000000 0 0 1
20.658649 -24.724066 26.196728 41.525026 -0.874740 0.888127 0.028353 0.003290 -18093.300000 0 0 1
19.995349 -25.715866 25.458728 41.343277 -0.909896 0.907410 0.036745 -0.004560 -148945.000000 0 0 1
18.984149 -26.290666 26.232248 41.710045 -0.945400 0.890634 0.041380 -0.017125 -533722.000000 0 0 1
18.161249 -27.329066 25.474618 41.541124 -0.984268 0.910642 0.056149 -0.021271 -610135.000000 0 0 1
17.263649 -26.780466 24.572018 40.236936 -0.998201 0.913873 0.053459 -0.025362 -72203.900000 0 0 1
16.968049 -27.739266 23.566768 40.159359 -1.021820 0.943656 0.060910 -0.030124 -733514.000000 0 0 1
15.998749 -27.095766 22.601168 38.742139 -1.037427 0.947919 0.044699 -0.033375 161304.000000 0 0 1
14.664049 -26.881866 23.075668 38.342607 -1.071415 0.925008 0.033168 -0.032118 549032.000000 0 0 1
14.039249 -25.916466 22.256568 36.933975 -1.074339 0.924036 0.007422 -0.017517 -225438.000000 0 0 1
12.655749 -25.483466 22.751268 36.430691 -1.109852 0.896295 0.007063 -0.011215 -28657.200000 0 0 1
11.598749 -26.395666 22.522368 36.585779 -1.156777 0.907644 0.012775 -0.023944 867837.000000 0 0 1
10.356049 -25.663166 22.443868 35.631069 -1.187244 0.889377 0.017839 -0.015935 1636430.000000 0 0 1
8.978149 -26.407366 22.431568 35.792896 -1.243070 0.893479 0.033735 -0.015292 709810.000000 0 0 1
8.733849 -27.249666 21.315068 35.681319 -1.260629 0.930575 0.040767 -0.021893 797498.000000 0 0 1
7.437249 -27.865366 21.412368 35.920479 -1.309977 0.932155 0.029817 -0.021052 487790.000000 0 0 1
7.126749 -28.762566 20.193968 35.859059 -1.327909 0.972606 0.028815 -0.014614 -162801.000000 0 0 1
7.801149 -29.991066 20.159868 36.969477 -1.316320 0.994036 0.032998 -0.021281 95207.600000 0 0 1
7.403849 -30.729866 19.066968 36.914644 -1.334369 1.028020 0.016302 -0.010715 -149919.000000 0 0 1
8.042949 -32.118966 19.107168 38.228273 -1.325431 1.047408 0.015935 -0.005808 -307976.000000 0 0 1
7.546149 -33.016466 20.034468 39.349858 -1.346099 1.036615 0.014896 -0.010788 -64182.200000 0 0 1
8.429349 -34.121566 20.184168 40.530678 -1.328607 1.049509 0.023819 -0.014890 -32031.300000 0 0 1
8.100149 33.503598 21.235968 40.485427 1.333579 1.018629 0.040005 -0.020279 144726.000000 0 0 1
7.136449 32.562298 20.754768 39.268213 1.355045 1.013918 0.032087 -0.015751 162142.000000 0 0 1
7.389549 31.281198 21.271368 38.543351 1.338819 0.986177 0.031273 -0.024072 173262.000000 0 0 1
6.338549 30.263698 20.725768 37.223999 1.364337 0.980286 0.038150 -0.028231 191520.000000 0 0 1
5.002749 30.489198 21.081568 37.403893 1.408163 0.972035 0.037640 -0.025694 -481940.000000 0 0 1
4.201749 29.385598 20.743668 36.214194 1.428772 0.960873 0.043545 -0.022392 326160.000000 0 0 1
2.741749 29.380398 21.264668 36.371845 1.477747 0.946352 0.036209 -0.013483 81441.700000 0 0 1
2.705949 29.270598 22.652268 37.110852 1.478612 0.914238 0.032605 -0.021662 265403.000000 0 0 1
1.405449 28.921698 23.126268 37.057579 1.522240 0.896864 0.036325 -0.011539 374368.000000 0 0 1
1.357649 28.233298 24.490728 37.399974 1.522747 0.856835 0.051077 -0.012971 -233295.000000 0 0 1
1.741649 29.178298 25.478258 38.775611 1.511177 0.853872 0.054779 -0.015101 153917.000000 0 0 1
1.488049 28.845098 26.811948 39.409828 1.519254 0.822575 0.050072 -0.010204 -232565.000000 0 0 1
2.591949 28.043198 27.522298 39.377862 1.478631 0.796899 0.038065 -0.012130 -268224.000000 0 0 1
2.873749 26.780398 26.961748 38.110156 1.463897 0.784886 0.041330 -0.013389 480760.000000 0 0 1
3.836949 26.085098 27.775998 38.297005 1.424750 0.759357 0.022197 -0.005701 506857.000000 0 0 1
4.353649 24.815198 27.018028 36.942146 1.397121 0.750482 0.014083 0.001885 15527.200000 0 0 1
3.330749 23.861798 26.829128 36.059415 1.432107 0.731721 0.036668 0.006249 -14817.700000 0 0 1
3.865049 22.574198 26.577058 35.083800 1.401225 0.711274 0.030590 0.013554 422648.000000 0 0 1
2.734249 21.513298 26.380688 34.150239 1.444378 0.688045 0.037107 0.012680 41449.200000 0 0 1
3.151849 20.219098 26.632308 33.586097 1.416156 0.655150 0.046050 0.011543 114473.000000 0 0 1
3.985049 19.643398 25.620918 32.529604 1.370643 0.663862 0.055540 0.006451 -151902.000000 0 0 1
4.403349 18.231498 26.028538 32.082110 1.333811 0.624407 0.044884 -0.000546 -353836.000000 0 0 1
5.527249 18.218998 26.873088 32.933952 1.276243 0.616393 0.035339 0.000198 -97119.800000 0 0 1
6.658549 17.768998 26.131888 32.294723 1.212264 0.628060 0.042749 0.009445 -659241.000000 0 0 1
7.905049 17.714498 27.027598 33.268368 1.151067 0.622521 0.034104 -0.001327 -219419.000000 0 0 1
8.407149 18.923198 27.622018 34.521637 1.152712 0.643274 0.028645 -0.001046 321475.000000 0 0 1
8.901049 19.930098 26.738328 34.516310 1.150762 0.684623 0.020611 -0.005289 -305714.000000 0 0 1
9.361649 21.270798 27.363948 35.900877 1.156191 0.704079 0.016691 0.001163 514696.000000 0 0 1
10.517249 20.981498 28.162248 36.659896 1.106139 0.694767 0.028906 -0.017547 323803.000000 0 0 1
10.774449 21.948098 29.148148 38.045003 1.114450 0.697969 0.024892 -0.017243 21412.400000 0 0 1
11.924049 21.502698 30.065318 38.839056 1.064476 0.685504 0.024228 -0.016202 424284.000000 0 0 1
13.251049 21.563998 29.552088 38.909153 1.019784 0.708229 0.011129 -0.016944 261644.000000 0 0 1
14.156149 21.251198 30.615168 39.866006 0.983162 0.695159 0.008357 0.001078 1432700.000000 0 0 1
15.669149 21.357398 30.133768 40.121125 0.937833 0.721115 0.002688 -0.002021 1091490.000000 0 0 1
15.956749 22.771498 30.112378 40.986757 0.959578 0.745593 0.006388 -0.024550 -322193.000000 0 0 1
17.109449 23.054598 29.383258 41.080696 0.932353 0.773804 0.022337 0.004804 -579396.000000 0 0 1
-8.864609 16.677798 4.373997 19.387163 -1.082251 1.343224 0.012184 -0.022397 -275717.000000 0 1 0
-8.497909 17.917598 4.853597 20.415979 -1.127938 1.330763 0.016474 -0.024735 -718668.000000 0 1 0
-7.131909 18.140098 4.935397 20.106850 -1.196203 1.322804 0.015517 -0.023749 -994248.000000 0 1 0
-6.810809 19.562098 5.556697 21.446204 -1.235759 1.308707 0.017030 -0.024792 -343862.000000 0 1 0
-7.088709 20.775698 4.811497 22.472871 -1.241981 1.355023 0.022888 -0.023476 293171.000000 0 1 0
-8.438309 20.955398 4.409097 23.016818 -1.187982 1.378045 0.015405 -0.028957 230727.000000 0 1 0
-8.626709 22.136998 3.423597 24.003912 -1.199204 1.427682 0.036646 -0.025753 219474.000000 0 1 0
-7.982209 22.034398 2.132897 23.532522 -1.223240 1.480036 0.019015 -0.022957 55226.900000 0 1 0
-8.524209 21.022298 1.281397 22.720940 -1.185571 1.514369 0.036203 -0.021639 -781527.000000 0 1 0
-7.769809 21.057098 -0.069103 22.444957 -1.217307 1.573875 0.015645 -0.012219 226675.000000 0 1 0
-6.478409 20.498798 -0.063603 21.498245 -1.264691 1.573755 0.007821 -0.008282 -689233.000000 0 1 0
-5.525509 21.402698 0.407197 22.108201 -1.318144 1.552377 0.017156 -0.014206 -1777040.000000 0 1 0
-4.145209 21.079198 -0.116203 21.483223 -1.376625 1.576205 0.011579 -0.007325 -966551.000000 0 1 0
-4.013509 21.357298 -1.510903 21.783601 -1.385041 1.640212 0.008297 -0.011640 -904416.000000 0 1 0
-2.731209 21.458598 -2.007803 21.724691 -1.444199 1.663349 0.005961 0.000733 -956813.000000 0 1 0
-2.760509 21.782698 -3.492003 22.232868 -1.444739 1.728514 0.012098 0.001804 811150.000000 0 1 0
-1.507109 22.226298 -4.059703 22.644224 -1.503093 1.751053 0.015973 0.006642 844092.000000 0 1 0
-1.679909 22.609798 -5.391903 23.304456 -1.496633 1.804280 0.018962 -0.007624 -14176.000000 0 1 0
-0.440109 23.248398 -6.062603 24.029916 -1.551868 1.825847 0.013894 -0.009692 222940.000000 0 1 0
0.681891 22.395598 -5.981103 23.190545 1.540358 1.831656 0.020446 -0.001311 321105.000000 0 1 0
1.875791 22.956998 -6.547503 23.946026 1.489269 1.847751 0.020747 -0.006939 666449.000000 0 1 0
3.056491 21.978698 -6.483603 23.118011 1.432616 1.855066 0.015412 0.000414 -93117.400000 0 1 0
2.854891 21.017498 -7.472403 22.488273 1.435789 1.909516 0.017312 -0.010229 -99862.900000 0 1 0
3.890991 20.074098 -7.471003 21.769821 1.379339 1.921098 0.016495 -0.009663 16726.100000 0 1 0
3.734491 18.956998 -8.562503 21.133638 1.376289 1.987950 0.016963 -0.011634 30703.100000 0 1 0
4.044991 19.401798 -9.854503 22.133751 1.365255 2.032222 0.020631 -0.014211 158539.000000 0 1 0
3.146091 18.988598 -10.876503 22.107986 1.406605 2.085149 0.024612 -0.015926 -79203.000000 0 1 0
3.734791 19.392398 -12.271203 23.250724 1.380535 2.126778 0.033394 -0.019545 244710.000000 0 1 0
3.750191 20.762498 -12.548803 24.548273 1.392100 2.107364 0.061647 -0.024381 -56825.600000 0 1 0
4.124991 20.917398 -13.891403 25.446496 1.376091 2.148267 0.068370 -0.024549 -128098.000000 0 0 1
4.324791 22.358098 -14.448203 26.969222 1.379723 2.136168 0.049957 -0.021711 -467038.000000 0 0 1
3.181291 23.162398 -14.644503 27.587656 1.434303 2.130382 0.062177 -0.022159 -372682.000000 0 0 1
3.519091 24.455298 -15.132403 28.973009 1.427878 2.120334 0.046991 -0.018136 116707.000000 0 0 1
2.356991 25.410698 -15.549203 29.883720 1.478305 2.118026 0.053138 -0.014381 262777.000000 0 0 1
1.493491 25.717698 -14.472003 29.547747 1.512789 2.082638 0.072298 -0.024991 -355676.000000 0 0 1
1.341191 27.098798 -14.209503 30.627661 1.521344 2.053238 0.045464 -0.019723 -401558.000000 0 0 1
0.258591 27.538898 -13.146903 30.517189 1.561407 2.016179 0.050966 -0.026230 1085040.000000 0 0 1
-1.110409 27.269798 -13.451903 30.427431 -1.530099 2.028733 0.044244 -0.028664 280488.000000 0 0 1
-1.467009 25.896398 -13.491903 29.237082 -1.514208 2.050443 0.042681 -0.027835 -753730.000000 0 0 1
-1.380509 25.050998 -12.187303 27.892448 -1.515744 2.022989 0.068015 -0.031079 -205922.000000 0 0 1
-2.101809 25.532998 -11.041303 27.897347 -1.488664 1.977717 0.051919 -0.022403 131274.000000 0 0 1
-2.037809 24.444098 -10.110803 26.531018 -1.487623 1.961775 0.057000 -0.013835 250002.000000 0 0 1
-3.125309 24.546098 -8.998103 26.329534 -1.444154 1.919574 0.040846 -0.013954 241756.000000 0 0 1
-2.663909 25.183398 -7.832603 26.507539 -1.465408 1.870760 0.040294 -0.017208 -17957.800000 0 0 1
-2.470009 26.582298 -7.842203 27.824803 -1.478143 1.856510 0.042318 -0.018583 -103234.000000 0 0 1
-2.273809 27.067498 -6.405403 27.907864 -1.486988 1.802380 0.036218 -0.007833 -44251.500000 0 0 1
-1.082609 26.734498 -5.721703 27.361347 -1.530324 1.781467 0.027600 -0.004663 -74427.100000 0 0 1
-0.956709 27.147098 -4.360803 27.511758 -1.535569 1.729975 0.025368 -0.012029 -860455.000000 0 0 1
-1.712909 26.201698 -3.394103 26.476083 -1.505515 1.699345 0.023977 -0.001084 708923.000000 0 0 1
-3.137909 26.244998 -3.420203 26.652283 -1.451799 1.699478 0.019602 -0.002192 475637.000000 0 0 1
-3.739009 25.373898 -2.469903 25.766554 -1.424493 1.666801 0.019008 -0.002086 -364202.000000 0 0 1
-4.964309 24.688998 -3.039003 25.365854 -1.372369 1.690892 0.025704 -0.003683 -870734.000000 0 0 1
-5.988509 25.583898 -3.333903 26.486091 -1.340863 1.697005 0.019613 -0.003675 -160251.000000 0 0 1
-7.121409 24.908898 -3.914203 26.200928 -1.292327 1.720749 0.005439 0.000544 167339.000000 0 0 1
-8.332209 25.775998 -4.119903 27.400755 -1.258144 1.721726 0.014170 -0.001429 -535813.000000 0 0 1
-9.099309 25.900298 -2.944603 27.609664 -1.232945 1.677651 0.022184 -0.005423 -836681.000000 0 0 1
-10.378309 26.401398 -3.163803 28.543874 -1.196255 1.681865 0.031232 -0.009619 105709.000000 0 0 1
-11.319909 26.401898 -1.885403 28.788110 -1.165751 1.636336 0.035293 -0.008973 605533.000000 0 0 1
-11.823309 25.145398 -1.336403 27.818477 -1.131274 1.618855 0.039851 -0.009019 205844.000000 0 0 1
-10.798009 24.379098 -0.752703 26.674032 -1.153845 1.599019 0.042318 -0.015130 35013.600000 0 0 1
-11.315809 23.035198 -0.224003 25.665503 -1.114181 1.579524 0.044267 -0.018247 99481.300000 0 0 1
-12.176909 23.072198 0.904997 26.104070 -1.085177 1.536121 0.060997 -0.019622 104309.000000 0 0 1
-12.580309 21.768198 1.238997 25.172480 -1.046769 1.521556 0.064770 -0.023991 -46462.900000 0 0 1
-13.515809 21.749998 2.471397 25.726393 -1.014778 1.474583 0.074253 -0.029452 357638.000000 0 0 1
-12.757409 21.749898 3.700997 25.485426 -1.040325 1.425061 0.076422 -0.033335 568315.000000 0 0 1
-12.573009 23.059498 4.265797 26.608608 -1.071613 1.409785 0.057177 -0.027603 -10117.900000 0 0 1
-12.270209 23.020498 5.772297 26.717425 -1.081089 1.353029 0.048741 -0.024515 273959.000000 0 0 1
-10.941009 22.619098 6.101697 25.856527 -1.120268 1.332566 0.035443 -0.021657 322510.000000 0 0 1
-10.911809 22.182098 7.451797 25.819418 -1.113634 1.278019 0.025858 -0.022095 148681.000000 0 0 1
-9.517009 21.802498 8.018997 25.104316 -1.159217 1.245672 0.021744 -0.023501 97255.000000 0 0 1
-8.789409 22.914798 8.472697 25.963980 -1.204534 1.238383 0.022949 -0.025987 -25344.800000 0 0 1
-7.685309 22.594898 9.304197 25.615649 -1.242937 1.199071 0.027366 -0.019867 96481.000000 0 0 1
-8.062309 22.499598 10.803697 26.228851 -1.226719 1.146257 0.027470 -0.021632 -92327.400000 0 0 1
-8.923809 21.401198 11.059297 25.689564 -1.175741 1.125752 0.033844 -0.020188 82135.400000 0 0 1
-8.657109 20.847798 12.327097 25.720294 -1.177210 1.070968 0.023854 -0.014452 -681115.000000 0 0 1
-9.668709 19.764998 12.787997 25.449400 -1.115839 1.044323 0.027579 -0.017033 -306407.000000 0 0 1
-9.646009 18.613898 12.064497 24.188319 -1.092683 1.048613 0.040136 -0.021329 323066.000000 0 1 0
-10.440209 17.585298 12.689297 24.067799 -1.035030 1.015457 0.035626 -0.022753 77065.400000 0 1 0
-10.604609 16.340398 11.766197 22.757630 -0.995138 1.027428 0.033977 -0.026952 42971.900000 0 1 0
-11.250209 15.242898 12.411997 22.648859 -0.934979 0.990803 0.030398 -0.017286 76832.500000 0 1 0
-11.395709 14.148998 11.527497 21.516029 -0.892767 1.005385 0.026026 -0.011615 163475.000000 0 1 0
-11.713109 12.834498 12.299797 21.288642 -0.831049 0.954811 0.017238 -0.013425 47548.500000 0 1 0
-12.785409 12.850298 13.220997 22.436390 -0.787929 0.940647 0.024317 -0.001286 -256966.000000 0 1 0
-13.289709 11.562498 13.347097 22.100967 -0.716010 0.922393 0.019322 0.004879 -32838.000000 0 1 0
-14.197309 11.525198 14.596497 23.397682 -0.681887 0.897145 0.020316 0.004813 -214745.000000 0 1 0
-15.256309 12.422098 14.530997 24.458401 -0.683356 0.934637 0.027384 0.000949 -530282.000000 0 1 0
-15.930209 12.660898 15.748797 25.731197 -0.671546 0.912145 0.020407 0.010732 -308484.000000 0 0 1
-16.956909 13.792898 15.651697 26.884130 -0.682864 0.949375 0.027672 0.005267 -1103440.000000 0 0 1
-18.017609 13.476298 14.843597 26.955096 -0.642189 0.987619 0.017654 0.004590 -1604730.000000 0 0 1
-18.840309 14.573498 14.884897 28.087439 -0.658389 1.012256 0.029788 -0.001300 7128.940000 0 0 1
-20.090309 14.367198 13.938297 28.360413 -0.620809 1.057019 0.035605 -0.003951 470016.000000 0 0 1
-21.002709 13.432298 14.458397 28.819883 -0.568994 1.045255 0.040825 -0.002444 -623609.000000 0 0 1
-22.169809 13.348098 13.706197 29.283647 -0.541951 1.083714 0.035750 -0.000694 -174658.000000 0 0 1
-23.076209 12.228298 14.340697 29.794266 -0.487288 1.068632 0.041981 -0.005073 -21284.900000 0 0 1
-23.613409 12.566798 15.566297 30.948782 -0.489066 1.043765 0.047281 -0.010513 -49670.600000 0 0 1
-24.457309 11.570198 16.109997 31.489069 -0.441878 1.033743 0.043340 -0.008310 122628.000000 0 0 1
-25.319949 12.154498 17.263097 32.967350 -0.447550 1.019676 0.043139 -0.010194 355031.000000 0 0 1
-26.320569 13.107998 16.844997 33.887253 -0.462057 1.050555 0.045463 -0.006108 468802.000000 0 0 1
-27.040799 13.487698 17.975297 35.160121 -0.462680 1.034168 0.027897 0.007890 -316064.000000 0 0 1
-28.077219 14.627598 17.731097 36.286205 -0.480288 1.060260 0.018592 -0.004431 -143259.000000 0 0 1
-27.692599 15.957098 17.514997 36.445633 -0.522753 1.069482 0.030167 -0.000840 292974.000000 0 0 1
-28.821499 16.837598 17.342597 37.615810 -0.528723 1.091623 0.032065 -0.002741 836554.000000 0 0 1
-28.341169 18.362498 17.201797 37.898615 -0.574904 1.099670 0.035453 -0.004913 -170144.000000 0 0 1
-27.731619 18.978398 18.317697 38.272187 -0.600152 1.071718 0.031626 -0.009780 -355071.000000 0 0 1
-28.369459 19.052398 19.557197 39.373900 -0.591397 1.050999 0.028195 -0.007633 -1013850.000000 0 0 1
-27.344909 19.186498 20.709497 39.303295 -0.611831 1.015830 0.016750 -0.008980 265494.000000 0 0 1
-26.868939 18.004398 21.310497 38.732874 -0.590363 0.988203 0.019546 -0.002438 -136952.000000 0 0 1
-26.035309 17.257598 20.458897 37.339369 -0.585358 0.990923 0.026790 -0.003049 -996170.000000 0 0 1
-25.626659 15.912298 21.029697 36.771933 -0.555665 0.961982 0.012573 0.005422 25321.900000 0 0 1
-26.704139 14.983498 21.233397 37.262225 -0.511320 0.964489 0.011246 0.007592 406088.000000 0 0 1
-26.391209 13.699898 21.794097 36.866866 -0.478817 0.938304 0.010256 0.010671 -565256.000000 0 0 1
-27.617279 12.782598 21.874297 37.477911 -0.433487 0.947569 0.009902 0.007322 -60823.900000 0 0 1
-28.197159 12.420398 20.625497 37.077718 -0.414912 0.980897 0.010173 -0.003592 121425.000000 0 0 1
-29.249189 11.486998 20.748597 37.655949 -0.374222 0.987229 0.040091 -0.008896 -335142.000000 0 0 1
-30.104379 11.385398 19.466897 37.614638 -0.361571 1.026829 0.045993 -0.003442 -486543.000000 0 0 1
-29.507669 10.920098 18.258297 36.377417 -0.354447 1.044987 0.061170 -0.016350 113065.000000 0 0 1
-29.020899 9.599998 18.271597 35.612130 -0.319465 1.032036 0.074957 -0.014950 56204.800000 0 0 1
-28.297459 9.194898 16.955497 34.245893 -0.314175 1.052834 0.079557 -0.027151 269033.000000 0 0 1
-29.218799 9.065398 15.868697 34.463534 -0.300842 1.092295 0.075539 -0.013574 632192.000000 0 0 1
-29.785399 10.244598 15.320397 35.026224 -0.331272 1.118093 0.071896 -0.012431 -488467.000000 0 0 1
-28.825709 11.272598 14.706297 34.267596 -0.372776 1.127233 0.068455 -0.011329 -228964.000000 0 0 1
-28.393299 10.920098 13.384697 33.235193 -0.367162 1.156303 0.057642 -0.023477 -19691.800000 0 0 1
-27.386189 11.778498 12.955997 32.505295 -0.406173 1.160827 0.047301 -0.019767 -422500.000000 0 0 1
-27.191719 11.714498 11.421397 31.734325 -0.406783 1.202628 0.066494 -0.014619 -224157.000000 0 0 1
-26.624469 10.538898 10.864197 30.626157 -0.376911 1.208165 0.073225 -0.007132 457479.000000 0 0 1
-27.497449 9.416298 10.817597 31.012849 -0.329926 1.214495 0.069376 -0.002889 -86120.100000 0 0 1
-26.887309 8.147798 10.156497 29.874210 -0.294239 1.223906 0.061754 -0.010346 -86400.100000 0 0 1
-26.559269 8.301998 8.751397 29.170274 -0.302961 1.266092 0.070895 -0.003999 311898.000000 0 0 1
-26.173499 7.083698 8.140397 28.310720 -0.264312 1.279141 0.071837 -0.013791 -88544.600000 0 0 1
-25.434039 7.250198 6.830697 27.315090 -0.277694 1.318043 0.069290 -0.007935 -199155.000000 0 0 1
-26.282459 7.911898 5.901397 28.074762 -0.292405 1.359014 0.067417 -0.011122 285794.000000 0 0 1
-25.588189 8.243998 4.746697 27.299268 -0.311679 1.396032 0.057678 -0.007165 417288.000000 0 0 1
-26.651899 8.424298 3.581697 28.180154 -0.306149 1.443352 0.060403 -0.007206 426872.000000 0 0 1
-27.277699 7.258698 3.085497 28.395103 -0.260077 1.461918 0.060489 -0.013310 173668.000000 0 0 1
-26.413769 6.223098 2.666197 27.267613 -0.231381 1.472861 0.066782 -0.011650 246129.000000 0 0 1
-25.324129 6.423198 1.524897 26.170485 -0.248401 1.512495 0.076323 -0.018540 374705.000000 0 0 1
-24.324809 7.302298 1.926297 25.470189 -0.291640 1.495095 0.065807 -0.010780 32316.100000 0 0 1
-23.199709 7.315098 1.045297 24.348096 -0.305443 1.527852 0.069571 -0.010048 238423.000000 0 1 0
-22.109109 8.297298 1.535097 23.664623 -0.359024 1.505882 0.061772 -0.004692 -254244.000000 0 1 0
-22.542609 9.574898 1.572297 24.542209 -0.401656 1.506687 0.058851 -0.005454 747396.000000 0 1 0
-21.422709 10.437798 1.803597 23.898390 -0.453380 1.495255 0.071431 -0.002839 470540.000000 0 1 0
-21.888309 11.913598 2.060797 25.005575 -0.498449 1.488289 0.070901 -0.004477 -39701.600000 0 0 1
-20.805109 12.799698 2.322697 24.537313 -0.551535 1.475995 0.068257 -0.009162 805207.000000 0 1 0
-21.219209 14.065998 2.774097 25.608646 -0.585383 1.462257 0.055452 -0.010821 866534.000000 0 0 1
-19.988609 14.627298 3.618897 25.031955 -0.631739 1.425717 0.034287 -0.009777 982475.000000 0 0 1
-19.789709 14.078798 4.909597 24.778000 -0.618349 1.371333 0.040643 -0.006065 -367109.000000 0 1 0
-18.657909 14.575098 5.536497 24.314684 -0.663157 1.341080 0.034791 -0.010726 -598166.000000 0 1 0
-18.135109 13.792298 6.799097 23.776825 -0.650206 1.280794 0.016045 -0.002437 -217266.000000 0 1 0
-17.302609 12.749998 6.427397 22.433327 -0.635053 1.280213 0.026003 -0.009204 -307518.000000 0 1 0
-16.823609 12.000398 7.490997 21.980865 -0.619601 1.223033 0.016695 -0.000230 -235211.000000 0 1 0
10.318791 -33.253266 -14.263503 37.625851 -1.269909 1.959607 0.013145 -0.018039 -50783.900000 0 0 1
11.573491 -32.875766 -13.721603 37.457230 -1.232308 1.945855 0.007595 -0.024434 18585.800000 0 0 1
11.996691 -31.657666 -14.187403 36.707095 -1.208567 1.967633 0.009515 -0.026711 203824.000000 0 0 1
13.371991 -31.288066 -13.537503 36.619902 -1.166909 1.949457 0.029217 -0.028670 104607.000000 0 0 1
14.389391 -32.130666 -13.967903 37.875277 -1.149740 1.948500 0.023799 -0.018165 -956598.000000 0 0 1
15.608691 -31.908566 -13.304003 37.931311 -1.115851 1.929157 0.029550 -0.014941 -76075.400000 0 0 1
16.647691 -32.800466 -14.032603 39.369152 -1.101131 1.935247 0.036185 -0.024325 -55298.500000 0 0 1
16.818691 -34.066366 -13.484403 40.313953 -1.112198 1.911855 0.041224 -0.027064 -618947.000000 0 0 1
17.830191 33.948898 -14.067203 40.845191 1.087187 1.922399 0.032701 -0.014826 -262307.000000 0 0 1
18.002291 32.550198 -13.514303 39.575678 1.065605 1.919287 0.032813 -0.021791 -411252.000000 0 0 1
18.627891 32.407598 -12.270503 39.342293 1.049112 1.887979 0.033412 -0.027337 -190440.000000 0 0 1
18.525791 31.094398 -11.785503 38.065268 1.033477 1.885582 0.023755 -0.023930 163132.000000 0 0 1
19.313691 30.868498 -10.452003 37.883073 1.011711 1.850324 0.030335 -0.025981 27158.200000 0 0 1
20.629391 30.477498 -10.742503 38.338636 0.975761 1.854799 0.033659 -0.026799 -389801.000000 0 0 1
21.332091 30.235998 -9.520703 38.208866 0.956375 1.822625 0.028225 -0.017504 -244754.000000 0 0 1
22.639291 29.468598 -9.633603 38.389349 0.915716 1.824452 0.026361 -0.011088 -411809.000000 0 0 1
23.661091 30.180198 -10.294903 39.707387 0.905892 1.833062 0.035606 -0.020069 -175882.000000 0 0 1
24.882391 29.486898 -10.158403 39.897415 0.869886 1.828244 0.030136 -0.008685 488714.000000 0 0 1
26.027291 29.897498 -11.167703 41.182495 0.854492 1.845411 0.023020 -0.011741 263915.000000 0 0 1
26.528091 31.133098 -10.679103 42.273546 0.865092 1.826182 0.022082 -0.018762 -92139.000000 0 0 1
27.669791 31.469898 -11.443803 43.438836 0.849566 1.837389 0.020850 -0.011191 1009.060000 0 0 1
28.013191 32.976398 -11.345603 44.731470 0.866597 1.827236 0.018900 -0.008589 -252420.000000 0 0 1
27.156391 33.910598 -11.991903 45.068880 0.895554 1.840120 0.030414 -0.010470 79697.400000 0 0 1
27.582291 -33.562866 -11.624703 44.970907 -0.882898 1.832259 0.032558 -0.007625 320281.000000 0 0 1
26.510091 -32.492066 -11.988803 43.614799 -0.886439 1.849260 0.027889 -0.012167 -103184.000000 0 0 1
25.363691 -32.601766 -11.183803 42.793334 -0.909624 1.835211 0.035094 -0.013403 -781120.000000 0 0 1
24.398991 -31.635166 -11.496703 41.572451 -0.913826 1.850995 0.043041 -0.018335 -142586.000000 0 0 1
24.697991 -30.183266 -11.002403 40.522502 -0.885015 1.845761 0.040739 -0.018624 -197096.000000 0 0 1
25.624991 -29.584466 -11.921203 40.914495 -0.856993 1.866454 0.031530 -0.009395 58756.000000 0 0 1
26.095491 -28.390166 -11.342703 40.194939 -0.827489 1.856875 0.038042 -0.011044 -52279.100000 0 0 1
27.035691 -27.549166 -12.237303 40.492428 -0.794805 1.877809 0.023460 0.011828 522759.000000 0 0 1
28.253691 -28.210966 -12.571303 41.858898 -0.784641 1.875830 0.021482 0.011768 215844.000000 0 0 1
28.192691 -28.937366 -13.798803 42.691989 -0.798432 1.899924 0.027592 -0.000512 -409128.000000 0 0 1
29.475491 -29.704566 -14.139503 44.171160 -0.789269 1.896639 0.032004 0.003308 -189127.000000 0 0 1
29.763791 -30.775166 -13.268703 44.822456 -0.802103 1.871328 0.030581 -0.002295 516928.000000 0 0 1
30.784091 -31.640666 -13.802603 46.252609 -0.799119 1.873831 0.014205 -0.003634 161555.000000 0 0 1
31.532191 -32.573566 -12.893103 47.133305 -0.801641 1.847874 -0.000812 0.004126 -358617.000000 0 0 1
32.429191 -33.401666 -13.562903 48.489959 -0.800169 1.854284 0.001869 0.005496 -335028.000000 0 0 1
33.194791 -34.298066 -12.779303 49.412165 -0.801743 1.832397 0.001491 0.006742 -168406.000000 0 0 1
32.497691 33.348098 -11.979303 48.080134 0.798313 1.822602 0.007479 -0.006820 -452608.000000 0 0 1
32.009491 33.840698 -10.821103 47.821508 0.813200 1.799054 -0.000868 -0.001182 -258719.000000 0 0 1
31.429591 32.820998 -10.009303 46.531960 0.807051 1.787597 0.005780 -0.006698 -87144.900000 0 0 1
30.817391 33.295498 -8.652803 46.186284 0.824031 1.759256 0.006713 -0.007882 126896.000000 0 0 1
29.699791 34.138498 -8.871903 46.111011 0.854817 1.764407 0.006258 -0.005451 -230966.000000 0 0 1
29.082991 -34.324366 -7.644303 45.633517 -0.867873 1.739105 0.016367 -0.006718 -432261.000000 0 0 1
28.058391 -33.252066 -7.707903 44.185801 -0.869907 1.746136 0.011698 -0.011614 -888877.000000 0 0 1
28.616391 -31.952766 -7.869103 43.609631 -0.840426 1.752234 0.001511 -0.012113 142991.000000 0 0 1
27.738291 -30.894666 -8.246603 42.330836 -0.839179 1.766863 0.011146 -0.005406 920720.000000 0 0 1
26.668791 -30.356666 -7.187503 41.041586 -0.849979 1.746831 0.024665 -0.008616 1394820.000000 0 0 1
25.760891 -29.415266 -7.797303 39.870783 -0.851533 1.767629 0.031077 -0.020852 6949.040000 0 0 1
24.769491 -28.991666 -6.895403 38.750368 -0.863773 1.749693 0.039407 -0.024985 -215561.000000 0 0 1
23.848091 -28.007366 -7.677003 37.577658 -0.865436 1.776542 0.059310 -0.028595 -77739.400000 0 0 1
22.996291 -28.683966 -8.612903 37.759521 -0.895012 1.800921 0.076534 -0.030914 -153805.000000 0 0 1
22.248991 -27.734166 -9.302503 36.752390 -0.894701 1.826693 0.092653 -0.028220 147360.000000 0 0 1
21.024591 -28.380866 -10.049903 36.722031 -0.933208 1.848008 0.079881 -0.021967 254384.000000 0 0 1
21.308891 -29.167666 -11.178603 37.812468 -0.939850 1.870914 0.084852 -0.024638 -551168.000000 0 0 1
20.257991 -29.985966 -11.607303 38.003603 -0.976647 1.881182 0.072628 -0.021911 -270510.000000 0 0 1
20.092391 -31.384566 -10.906103 38.828318 -1.001341 1.855507 0.068606 -0.027757 1401.320000 0 0 1
21.042491 -32.368866 -11.217503 40.204009 -0.994362 1.853564 0.057212 -0.022955 -497037.000000 0 0 1
20.638091 -33.614766 -10.690503 40.867715 -1.020176 1.835463 0.040985 -0.026300 -225967.000000 0 0 1
21.662391 34.040298 -10.678903 41.737753 1.004059 1.829531 0.038086 -0.019153 -402912.000000 0 0 1
22.682391 34.213798 -9.731603 42.187426 0.985364 1.803568 0.040515 -0.017151 377737.000000 0 0 1
23.809691 33.336598 -10.009503 42.171321 0.950590 1.810437 0.035776 -0.012759 1517100.000000 0 0 1
25.089391 33.673098 -9.137203 42.974918 0.930447 1.785049 0.021689 -0.012495 295002.000000 0 0 1
25.090191 33.433498 -7.745903 42.512533 0.927007 1.754023 0.016427 -0.017139 -116720.000000 0 0 1
25.471491 32.144298 -7.451803 41.684315 0.900700 1.750530 0.021208 -0.016139 -307881.000000 0 0 1
25.405791 31.781198 -5.969403 41.123382 0.896423 1.716469 0.021816 -0.010115 -315624.000000 0 0 1
26.416591 32.236998 -5.099403 41.988859 0.884308 1.692543 0.017390 -0.005204 352608.000000 0 0 1
27.323291 31.249198 -4.544403 41.757948 0.852325 1.679840 0.029559 -0.004793 -7082.710000 0 0 1
26.669191 30.131698 -3.689803 40.407668 0.846282 1.662238 0.022911 0.003330 -766581.000000 0 0 1
26.164991 30.691498 -2.474203 40.406639 0.864843 1.632067 0.024500 0.005660 83713.200000 0 0 1
25.774191 29.563798 -1.677203 39.257357 0.853773 1.613533 0.015037 0.010419 199482.000000 0 0 1
24.332291 29.014598 -1.871003 37.913163 0.872945 1.620166 0.009073 0.015699 -321895.000000 0 0 1
23.418591 29.616198 -1.006503 37.769864 0.901730 1.597448 0.025007 0.010309 231575.000000 0 0 1
22.087791 29.086398 -1.098303 36.538956 0.921315 1.600859 0.045604 0.015755 926676.000000 0 0 1
21.095591 29.757498 -0.119903 36.476664 0.954111 1.574083 0.042819 0.009644 136969.000000 0 0 1
21.153291 29.346098 1.188197 36.194848 0.946233 1.537963 0.054908 -0.003383 256952.000000 0 0 1
20.015791 29.912498 1.816697 36.037339 0.981080 1.520363 0.051843 0.000116 291628.000000 0 0 1
19.196591 28.985098 2.747697 34.873985 0.985829 1.491925 0.054913 -0.012139 -343867.000000 0 0 1
18.422391 28.044098 2.082797 33.618358 0.989580 1.508802 0.064482 -0.010642 -163187.000000 0 0 1
17.807491 27.104098 2.937597 32.563298 0.989513 1.480462 0.061219 -0.020597 -169323.000000 0 0 1
17.311891 25.860098 2.166897 31.195219 0.980873 1.501278 0.063501 -0.013309 -25232.400000 0 0 1
18.250691 24.926398 1.670597 30.938713 0.938796 1.516773 0.064282 -0.017775 -97150.000000 0 0 1
19.090891 24.292098 2.615897 31.006629 0.904719 1.486330 0.072828 -0.016073 -988428.000000 0 0 1
20.364091 23.799798 1.988497 31.385996 0.863036 1.507398 0.072559 -0.006438 -787474.000000 0 0 1
20.115791 22.820898 0.979697 30.436791 0.848317 1.538603 0.066695 -0.004526 1386960.000000 0 0 1
21.424691 22.283198 0.671797 30.919405 0.805038 1.549067 0.039642 -0.009175 1113170.000000 0 0 1
21.397891 21.135698 -0.302603 30.077883 0.779234 1.580857 0.060242 -0.010487 -79305.500000 0 0 1
21.283391 21.599898 -1.621503 30.367213 0.792779 1.624218 0.052679 -0.010470 263781.000000 0 0 1
21.498391 20.615798 -2.579703 29.897271 0.764444 1.657189 0.068958 -0.015994 126206.000000 0 0 1
21.226991 21.172198 -3.955203 30.240548 0.784106 1.701963 0.057413 -0.013644 183372.000000 0 0 1
22.187691 22.192598 -4.221303 31.664246 0.785509 1.704509 0.053439 -0.004428 584853.000000 0 0 1
21.860191 22.940898 -5.380603 32.141930 0.809516 1.738990 0.039698 -0.004852 -158188.000000 0 0 1
22.835791 24.155198 -5.520803 33.696086 0.813469 1.735379 0.037808 0.001519 122724.000000 0 0 1
22.597191 25.315898 -4.729503 34.262165 0.842080 1.709277 0.040006 -0.000677 -96907.200000 0 0 1
23.016991 25.245698 -3.413403 34.333343 0.831544 1.670380 0.050404 0.001929 -635484.000000 0 0 1
21.905291 24.921998 -2.437503 33.269944 0.849731 1.644126 0.049477 -0.001084 -1531890.000000 0 0 1
20.915991 25.914398 -2.336403 33.384031 0.891730 1.640839 0.049508 -0.002582 518781.000000 0 0 1
19.871391 25.575698 -1.422603 32.419320 0.910261 1.614692 0.062168 0.005313 256927.000000 0 0 1
18.908991 24.441798 -1.787503 30.953943 0.912341 1.628576 0.065463 -0.006839 -1142400.000000 0 0 1
18.078591 24.701798 -2.905903 30.748310 0.938997 1.665444 0.049693 -0.010530 -151025.000000 0 0 1
17.406391 23.575698 -3.309103 29.491459 0.934813 1.683239 0.049609 -0.010683 -83907.800000 0 0 1
16.904391 23.894698 -4.769703 29.655777 0.955085 1.732333 0.055908 -0.024167 -51485.700000 0 0 1
16.001291 22.972398 -5.317303 28.496423 0.962393 1.758492 0.063534 -0.027763 56085.600000 0 0 1
15.775491 23.234398 -6.671203 28.865348 0.974323 1.804019 0.050611 -0.025065 73988.200000 0 0 1
15.101091 22.094698 -7.472403 27.785886 0.971250 1.843076 0.056604 -0.024143 -660640.000000 0 0 1
15.983591 21.148998 -7.939803 27.673015 0.923618 1.861801 0.031557 -0.013522 -313074.000000 0 0 1
15.435891 20.280698 -8.907903 26.998596 0.920221 1.907036 0.039129 -0.011216 -265639.000000 0 0 1
16.291391 19.022598 -9.127303 26.656637 0.862585 1.920269 0.040110 -0.006364 169218.000000 0 0 1
17.417391 19.260798 -9.966803 27.815122 0.835615 1.937268 0.026679 -0.004022 123605.000000 0 0 1
18.108191 18.062398 -10.127403 27.508564 0.784132 1.947820 0.026081 -0.000974 -246991.000000 0 0 1
19.462691 18.253498 -10.857003 28.807309 0.753349 1.957226 0.020284 0.000016 -153462.000000 0 0 1
19.437391 18.508298 -12.252503 29.504120 0.760918 1.999048 0.020386 0.004923 767564.000000 0 0 1
20.611091 19.119498 -12.861003 30.915654 0.747873 1.999842 0.018853 0.006142 813783.000000 0 0 1
20.685391 19.178198 -14.399403 31.670672 0.747607 2.042787 0.024948 0.007595 -30626.200000 0 0 1
20.729891 17.968898 -15.149703 31.338845 0.714173 2.075349 0.031777 0.003926 121359.000000 0 0 1
20.617391 18.128498 -16.541403 32.052102 0.721250 2.113063 0.036606 0.000592 -284704.000000 0 0 1
20.770791 16.866998 -17.364603 31.897505 0.682048 2.146455 0.039060 -0.014849 519161.000000 0 0 1
22.047591 16.165598 -17.198303 32.298676 0.632671 2.132321 0.040909 -0.007925 1369410.000000 0 0 1
22.431591 15.267698 -18.256203 32.704248 0.597610 2.163037 0.042974 -0.020386 98977.800000 0 0 1
23.435991 15.979198 -19.209103 34.257409 0.598422 2.166062 0.046315 -0.020941 443543.000000 0 0 1
24.754191 16.321098 -18.762103 35.087957 0.582904 2.134968 0.049576 -0.022646 685355.000000 0 0 1
25.479391 16.759298 -19.891003 36.410513 0.581810 2.148735 0.057901 -0.023066 135370.000000 0 0 1
26.918891 17.168798 -19.476903 37.399787 0.567749 2.118556 0.045823 -0.022173 206067.000000 0 0 1
26.888991 18.330798 -18.622403 37.494398 0.598353 2.090556 0.045432 -0.017705 1173610.000000 0 0 1
28.219491 18.788198 -18.264803 38.508948 0.587394 2.064965 0.042623 -0.023457 1177510.000000 0 0 1
28.113591 19.914798 -17.203803 38.509012 0.616321 2.033923 0.037032 -0.015772 175234.000000 0 0 1
27.472991 19.549298 -16.005003 37.324260 0.618457 2.013971 0.031805 -0.013970 1138480.000000 0 0 1
26.113191 20.058398 -15.873303 36.554067 0.655005 2.019993 0.028617 -0.008635 1151310.000000 0 0 1
25.369391 19.428298 -14.691503 35.169661 0.653547 2.001744 0.023689 -0.001297 -172194.000000 0 0 1
25.805391 19.816398 -13.405003 35.189515 0.654870 1.961606 0.026853 0.002604 381344.000000 0 0 1
24.898991 19.242798 -12.446803 33.840330 0.657956 1.947449 0.030149 0.004258 417352.000000 0 0 1
25.206491 19.684498 -11.011503 33.824545 0.663004 1.902387 0.034923 -0.001124 -122076.000000 0 0 1
25.038391 21.075198 -10.985403 34.521936 0.699665 1.894642 0.030240 -0.000043 52505.300000 0 0 1
25.563391 21.740798 -9.854903 34.975254 0.704765 1.856432 0.029840 -0.000108 356923.000000 0 0 1
24.684191 21.579898 -8.570803 33.888936 0.718399 1.826482 0.032470 -0.003967 -279748.000000 0 0 1
24.902091 20.292098 -7.958503 33.094126 0.683746 1.813658 0.040904 -0.007007 628965.000000 0 0 1
24.023491 19.983398 -6.861703 31.992926 0.693849 1.786951 0.047122 -0.009757 968201.000000 0 0 1
22.499491 19.753598 -7.146103 30.781464 0.720503 1.805090 0.057032 -0.014952 557784.000000 0 0 1
21.815191 20.917098 -7.620303 31.168840 0.764385 1.817785 0.052323 -0.012299 518101.000000 0 0 1
20.431491 20.599698 -7.826703 30.050801 0.789498 1.834284 0.046394 -0.014449 281402.000000 0 0 1
19.571391 21.849398 -7.818403 30.357256 0.840340 1.831278 0.038896 -0.016010 -903090.000000 0 0 1
19.888891 22.836398 -8.802203 31.536453 0.854276 1.853666 0.039821 -0.009609 76565.500000 0 0 1
19.620091 22.474098 -10.155403 31.514525 0.853095 1.898897 0.037690 0.002111 623303.000000 0 0 1
18.100291 22.661798 -10.508903 30.848252 0.896840 1.918420 0.031876 -0.004141 526139.000000 0 0 1
17.771491 24.045098 -10.385103 31.651904 0.934314 1.905092 0.043160 -0.016605 -672576.000000 0 0 1
16.418091 24.332598 -10.526903 31.184046 0.977228 1.915134 0.041728 -0.016761 -449485.000000 0 0 1
16.144691 25.774398 -10.079103 32.039959 1.011202 1.890810 0.050490 -0.021856 -103147.000000 0 0 1
16.693791 26.793398 -10.872703 33.388389 1.013596 1.902488 0.066643 -0.018314 -62578.400000 0 0 1
16.646691 28.048998 -10.223703 34.181614 1.035180 1.874545 0.070397 -0.031814 -208500.000000 0 0 1
19.615291 29.310798 -34.320344 49.211467 0.981030 2.342567 0.014338 0.002448 825484.000000 0 0 1
18.217491 29.608898 34.324448 48.854186 1.019224 0.791766 0.023982 -0.003028 517154.000000 0 0 1
17.380191 28.471698 34.217631 47.786555 1.022738 0.772667 0.021862 -0.007359 941938.000000 0 0 1
15.898791 28.977898 34.017588 47.430859 1.068988 0.771015 0.028311 -0.012372 658503.000000 0 0 1
15.754691 29.427298 32.682057 46.715019 1.079249 0.795952 0.036405 -0.010424 -308792.000000 0 0 1
14.429491 29.883498 32.598248 46.517517 1.120956 0.794315 0.047380 -0.014427 -337779.000000 0 0 1
13.838391 29.583598 31.211798 45.175952 1.133262 0.808071 0.046742 -0.013454 -200196.000000 0 0 1
13.401791 28.238498 31.071518 44.073348 1.127680 0.788379 0.031115 -0.014301 -98489.200000 0 0 1
11.997491 28.164298 31.016108 43.579427 1.168094 0.778861 0.026404 -0.006397 -322725.000000 0 0 1
11.447991 26.726398 30.841888 42.386070 1.166100 0.755918 0.014687 -0.004912 -80412.400000 0 0 1
11.688191 26.163398 29.535498 41.151948 1.150658 0.770277 0.017727 -0.000427 1165830.000000 0 0 1
13.032291 25.648498 29.412158 41.143178 1.100681 0.774353 0.006430 -0.003010 766051.000000 0 0 1
13.174791 24.887198 28.059268 39.752613 1.083922 0.787178 0.019088 -0.006833 -306273.000000 0 0 1
12.928191 25.683598 26.920348 39.388964 1.104461 0.818319 0.012258 -0.001589 290256.000000 0 0 1
12.922891 25.062598 25.620048 38.098842 1.094727 0.833265 0.025081 0.001379 224147.000000 0 0 1
11.770891 24.031198 25.374488 36.877052 1.115328 0.811952 0.032242 0.001554 -213105.000000 0 0 1
11.929491 23.412598 24.159018 35.694827 1.099551 0.827360 0.050251 -0.002992 189506.000000 0 0 1
10.916491 22.475698 23.841368 34.536033 1.118652 0.808847 0.062668 -0.007536 49048.300000 0 0 1
10.912091 22.222298 22.310168 33.326384 1.114340 0.837335 0.072332 -0.014596 25402.100000 0 0 1
10.490591 23.357898 21.546168 33.464627 1.148671 0.871278 0.087104 -0.013766 157230.000000 0 0 1
10.613391 23.029198 20.136868 32.380264 1.138942 0.899646 0.092166 -0.016899 -473124.000000 0 0 1
10.195391 24.309598 19.259068 32.646811 1.173680 0.939834 0.085480 -0.015893 1059010.000000 0 0 1
8.792291 24.428198 18.987368 32.164598 1.225308 0.939343 0.079929 -0.020396 577368.000000 0 0 1
8.000191 24.850798 20.080568 32.936217 1.259345 0.915139 0.077552 -0.024744 -953405.000000 0 0 1
6.654891 25.328098 19.580068 32.698305 1.313857 0.928782 0.071392 -0.022207 -783067.000000 0 0 1
6.717491 26.548298 18.850568 33.245762 1.322969 0.967929 0.068276 -0.028762 -539882.000000 0 0 1
5.451391 27.024998 18.513868 33.208907 1.371751 0.979429 0.047191 -0.028234 -763811.000000 0 0 1
5.321391 28.080398 17.378268 33.448919 1.383512 1.024476 0.042481 -0.019602 86418.100000 0 0 1
5.875191 27.643098 16.123168 32.536369 1.361375 1.052337 0.040804 -0.016768 -373989.000000 0 0 1
6.705691 28.596198 15.611568 33.263041 1.340462 1.082257 0.030021 -0.010886 -428344.000000 0 0 1
7.587591 28.222698 14.391468 32.576166 1.308159 1.113216 0.032353 -0.017140 513550.000000 0 0 1
6.818191 28.217898 13.182168 31.882708 1.333714 1.144547 0.024733 -0.016573 278450.000000 0 0 1
7.101791 27.000598 12.533868 30.603359 1.313598 1.148826 0.011654 -0.017299 94236.200000 0 0 1
6.401691 27.011498 11.140668 29.911823 1.338091 1.189148 -0.002991 -0.015201 -283592.000000 0 0 1
6.872691 27.822598 10.146668 30.402068 1.328626 1.230518 -0.005009 -0.010506 -259929.000000 0 0 1
6.791791 29.185098 10.407068 31.720741 1.342151 1.236522 -0.005739 -0.003995 -383362.000000 0 0 1
6.821891 30.179198 9.177768 32.273110 1.348486 1.282439 -0.000771 0.000010 -34347.000000 0 0 1
5.857791 29.944698 8.131968 31.577327 1.377616 1.310336 0.003676 -0.007323 -121712.000000 0 0 1
6.068391 28.883598 7.274068 30.397363 1.363710 1.329152 0.000428 0.000064 -314274.000000 0 0 1
4.724991 28.378398 6.750268 29.550383 1.405810 1.340329 0.005236 -0.000401 -368773.000000 0 0 1
4.011191 29.317598 6.077768 30.208450 1.434822 1.368219 0.000090 -0.003084 -1403300.000000 0 0 1
2.673691 28.999798 5.884568 29.711362 1.478859 1.371420 0.023602 -0.011833 -63108.600000 0 0 1
1.886291 30.129198 5.111568 30.617884 1.508271 1.403064 0.034671 -0.014417 -267181.000000 0 0 1
2.440391 30.277998 3.822868 30.615797 1.490371 1.445604 0.010095 -0.016132 -7100.380000 0 0 1
1.697091 31.092198 2.928068 31.275845 1.516268 1.477038 0.001808 -0.026003 688700.000000 0 0 1
0.262691 30.575698 2.561068 30.683895 1.562205 1.487233 0.042312 -0.016357 181994.000000 0 0 1
0.239991 29.477698 1.638968 29.524202 1.562655 1.515255 0.038063 -0.007475 -728352.000000 0 0 1
-0.901609 28.683898 1.667568 28.746473 -1.539374 1.512754 0.035090 -0.004517 -401397.000000 0 0 1
-1.379809 28.338398 0.234868 28.372942 -1.522144 1.562518 0.028816 -0.006668 63307.000000 0 0 1
-2.145709 29.403798 -0.321232 29.483735 -1.497952 1.581692 0.029110 -0.008460 -98545.900000 0 0 1
-1.518209 29.980798 -1.432532 30.053375 -1.520200 1.618481 0.020015 -0.012623 -19610.300000 0 0 1
-2.428609 31.043098 -2.164732 31.213109 -1.492722 1.640205 0.023762 -0.013596 1506400.000000 0 0 1
-3.636309 30.520698 -2.821332 30.865769 -1.452213 1.662331 0.018443 -0.013755 1278340.000000 0 0 1
-3.430909 29.686898 -3.976532 30.147900 -1.455737 1.703083 0.012247 -0.011204 -556962.000000 0 0 1
-4.691609 29.168098 -4.717732 29.917322 -1.411315 1.729150 0.022344 -0.005772 165080.000000 0 0 1
-5.310209 30.226898 -5.455532 31.170924 -1.396893 1.746722 0.018272 -0.008749 160586.000000 0 0 1
-6.505109 29.838398 -6.117132 31.145879 -1.356144 1.768484 0.022059 -0.013487 263168.000000 0 0 1
-7.080309 31.060498 -6.925032 32.601248 -1.346674 1.784843 0.022466 -0.006759 52953.500000 0 0 1
-8.043509 31.846798 -6.239632 33.434258 -1.323401 1.758521 0.017818 -0.001234 159328.000000 0 0 1
-8.411209 33.037798 -6.961232 34.795162 -1.321499 1.772219 0.018965 0.000338 419417.000000 0 0 1
-9.437409 33.902798 -6.144232 35.724165 -1.299303 1.743647 0.023182 -0.003529 233674.000000 0 0 1
-10.757809 33.430698 -6.216032 35.664844 -1.259467 1.745981 0.024588 -0.000757 -891476.000000 0 0 1
-11.609509 -34.329566 -5.754432 36.693505 1.244692 1.728271 0.028724 -0.000787 -50801.100000 0 0 1
-13.088909 34.071698 -6.011432 36.991046 -1.204021 1.734031 0.036910 -0.002770 -8233.710000 0 0 1
-13.466809 34.114698 -7.363532 37.408411 -1.194823 1.768932 0.029267 -0.004238 861077.000000 0 0 1
-14.766609 33.553998 -7.666532 37.452627 -1.156218 1.776953 0.041884 -0.010962 860998.000000 0 0 1
-15.311309 33.796198 -9.076732 38.196940 -1.145410 1.810721 0.056549 -0.015264 763266.000000 0 0 1
-16.701509 33.537898 -9.322532 38.608815 -1.108759 1.814668 0.076802 -0.023587 569369.000000 0 0 1
-17.524809 -34.110566 -9.347532 39.471838 1.096198 1.809883 0.081212 -0.029004 241496.000000 0 0 1
-19.020709 34.240498 -9.663232 40.343242 -1.063738 1.812673 0.085377 -0.034484 1219110.000000 0 0 1
-19.682009 33.418198 -8.655332 39.737542 -1.038533 1.790369 0.072517 -0.031510 314558.000000 0 0 1
-19.833209 34.004498 -7.374332 40.050504 -1.042782 1.755979 0.058462 -0.014036 -637042.000000 0 0 1
-20.116009 32.948698 -6.293632 39.113685 -1.022674 1.732405 0.048692 -0.023745 -787566.000000 0 0 1
-19.918309 33.322898 -4.906032 39.130854 -1.032043 1.696502 0.043759 -0.023772 207312.000000 0 0 1
-21.114709 33.394398 -4.120532 39.723992 -1.006977 1.674712 0.035701 -0.021445 331416.000000 0 0 1
-22.094809 -34.227966 -4.407032 40.977508 0.997578 1.678552 0.037370 -0.025488 -435717.000000 0 0 1
-22.692609 -34.307666 -5.657932 41.520870 0.986418 1.707489 0.042082 -0.021245 160394.000000 0 0 1
-23.745109 -33.317266 -5.661432 41.302812 0.951600 1.708301 0.033370 -0.030211 736791.000000 0 0 1
-24.325609 -33.011966 -7.091632 41.615098 0.935750 1.742042 0.049596 -0.019939 559377.000000 0 0 1
-23.382209 -32.225466 -7.863232 40.583726 0.943107 1.765783 0.073147 -0.014175 628369.000000 0 0 1
-23.547109 -32.429566 -9.262432 41.133147 0.942767 1.797926 0.047801 -0.011741 441641.000000 0 0 1
-24.804009 -31.788666 -9.940432 41.527947 0.908197 1.812510 0.044546 -0.009315 -889967.000000 0 0 1
-25.993789 -32.281666 -9.451732 42.510214 0.892882 1.795010 0.036886 -0.006963 -177809.000000 0 0 1
-27.187819 -31.704166 -10.038732 42.954718 0.861937 1.806683 0.004566 -0.000026 1140890.000000 0 0 1
-27.500369 -30.158966 -10.007032 42.023496 0.831474 1.811236 -0.003051 0.005521 -701324.000000 0 0 1
-26.559379 -29.455166 -10.799632 41.105225 0.837049 1.836648 0.001688 0.014261 -160011.000000 0 0 1
-26.836149 -29.357266 -12.173932 41.596065 0.830233 1.867815 0.000588 0.010488 -236998.000000 0 0 1
-25.712539 -28.691966 -13.004232 40.662927 0.840108 1.896321 0.021720 0.017228 93773.800000 0 0 1
-24.566209 -29.521166 -13.095332 40.576910 0.876753 1.899407 0.031117 0.009397 388903.000000 0 0 1
-23.578009 -28.938166 -13.964932 39.854226 0.887113 1.928795 0.037679 0.008206 1492040.000000 0 0 1
-22.163609 -29.666066 -13.980232 39.582167 0.929152 1.931781 0.062072 -0.009743 1041400.000000 0 0 1
-22.132009 -30.941966 -14.601732 40.748518 0.949892 1.937283 0.062485 -0.003783 -408906.000000 0 0 1
-22.845609 -31.914666 -13.914432 41.642277 0.949522 1.911491 0.050554 -0.003219 -328197.000000 0 0 1
-22.740609 -33.330366 -14.488332 42.871440 0.972063 1.915532 0.041267 -0.003800 118664.000000 0 0 1
-23.520809 -34.236366 -13.739232 43.750700 0.968840 1.890236 0.038171 -0.014519 104345.000000 0 0 1
-23.356609 33.288098 -14.409132 43.142227 -0.958964 1.911331 0.037024 -0.020696 199840.000000 0 0 1
-23.879809 32.151498 -13.503532 42.264755 -0.931966 1.895997 0.021808 -0.016482 534658.000000 0 0 1
-23.007109 31.859998 -12.366832 41.198605 -0.945371 1.875673 0.022863 -0.017175 705233.000000 0 0 1
-23.016009 32.806198 -11.240832 41.621384 -0.959014 1.844266 0.048451 -0.023723 -39801.400000 0 0 1
-22.336509 32.229998 -10.000232 40.468470 -0.964760 1.820495 0.050898 -0.028655 -275417.000000 0 0 1
-23.038409 31.163498 -9.421532 39.883545 -0.934194 1.809276 0.043660 -0.018713 48143.600000 0 0 1
-22.363209 30.654698 -8.275732 38.836985 -0.940532 1.785532 0.037990 -0.018408 37217.500000 0 0 1
-23.186709 29.517198 -7.626632 38.302141 -0.904940 1.771254 0.034706 -0.024287 -280944.000000 0 0 1
-23.390209 28.349598 -8.427532 37.707093 -0.880959 1.796200 0.040856 -0.018851 90441.500000 0 0 1
-23.633409 27.197998 -7.665132 36.837798 -0.855409 1.780406 0.040427 -0.016226 558453.000000 0 0 1
-22.409809 26.754498 -6.749832 35.546631 -0.873540 1.761843 0.050458 -0.015615 434803.000000 0 0 1
-22.321409 27.376198 -5.486632 35.746394 -0.886761 1.724893 0.047531 -0.013289 -35427.500000 0 0 1
-21.371209 26.727598 -4.664932 34.537728 -0.896303 1.706278 0.043519 -0.013049 -894552.000000 0 0 1
-20.080809 27.493798 -4.597732 34.355305 -0.939973 1.705028 0.033139 -0.021769 -986212.000000 0 0 1
-19.294709 27.473798 -5.781332 34.066394 -0.958532 1.741329 0.041461 -0.018989 -153879.000000 0 0 1
-18.131909 28.253598 -5.705932 34.052747 -1.000239 1.739152 0.034144 -0.016882 -366430.000000 0 0 1
-17.233909 28.100898 -6.930732 33.685355 -1.020664 1.778025 0.039313 -0.016453 -373219.000000 0 0 1
-17.725009 28.580998 -8.221532 34.621424 -1.015680 1.810556 0.046386 -0.021781 192475.000000 0 0 1
-17.785709 29.998698 -8.310832 35.851405 -1.035627 1.804738 0.049702 -0.022217 -138952.000000 0 0 1
-17.806409 30.515998 -9.745632 36.650671 -1.042590 1.839940 0.051523 -0.024651 -584161.000000 0 0 1
-16.599109 30.433998 -10.435132 36.202909 -1.071481 1.863185 0.045672 -0.021704 -527202.000000 0 0 1
-16.586809 31.158898 -11.648132 37.170931 -1.081621 1.889533 0.052209 -0.023704 -476661.000000 0 0 1
-15.206509 31.184798 -12.327532 36.819799 -1.117097 1.912197 0.047475 -0.015639 84794.200000 0 0 1
-15.009209 32.099798 -13.391632 37.881515 -1.133420 1.932121 0.048493 -0.018694 -95056.400000 0 0 1
-15.444309 31.474198 -14.592132 37.974757 -1.114618 1.965201 0.047566 -0.018230 9777.420000 0 0 1
-15.050809 32.220298 -15.906832 38.957692 -1.133795 1.991399 0.069102 -0.024678 584942.000000 0 0 1
-13.634709 32.146698 -16.071732 38.439772 -1.169654 2.002151 0.068246 -0.022597 27993.800000 0 0 1
-13.316209 32.516298 -17.379532 39.200500 -1.182107 2.030129 0.047756 -0.028105 864683.000000 0 0 1
-11.779009 32.522098 -17.768432 38.886361 -1.223308 2.045340 0.071375 -0.030335 1241240.000000 0 0 1
-11.315909 31.134798 -17.775032 37.594910 -1.222191 2.063267 0.073564 -0.033368 727751.000000 0 0 1
-9.920809 30.889898 -17.999132 37.102251 -1.260035 2.077299 0.068583 -0.031068 920438.000000 0 0 1
-9.608209 30.745498 -19.482732 37.645454 -1.267904 2.114761 0.066555 -0.032199 33626.100000 0 0 1
-10.478409 29.772198 -20.053532 37.394184 -1.232383 2.136813 0.052332 -0.033241 288949.000000 0 0 1
-10.192809 29.607998 -21.430932 37.944852 -1.239245 2.170977 0.045841 -0.034657 -993234.000000 0 0 1
-11.328909 29.217998 -22.407532 38.524448 -1.200906 2.191545 0.051321 -0.028558 -123678.000000 0 0 1
-12.245109 30.245898 -22.679332 39.738006 -1.186114 2.178180 0.046331 -0.030815 -129404.000000 0 0 1
-13.279409 30.426498 -21.745632 39.686106 -1.159274 2.150697 0.053548 -0.031692 -436762.000000 0 0 1
-13.989609 31.807598 -21.973932 41.113090 -1.156441 2.134683 0.070672 -0.035771 576439.000000 0 0 1
-14.821609 31.809898 -23.150232 42.041443 -1.134763 2.153942 0.053029 -0.036305 411340.000000 0 0 1
-15.580609 33.006598 -23.328132 43.317348 -1.129762 2.139500 0.044143 -0.031064 408626.000000 0 0 1
-16.001009 33.258398 -24.780632 44.454843 -1.122373 2.162088 0.033811 -0.022224 419357.000000 0 0 1
-14.899909 33.623098 -25.627232 44.824938 -1.153658 2.179395 0.038461 -0.017181 459703.000000 0 0 1
-15.204109 33.493298 -27.031032 45.646935 -1.144667 2.204553 0.048358 -0.009688 160551.000000 0 0 1
-15.664409 -33.935966 -27.686132 46.513927 1.138348 2.208339 0.045047 -0.004342 2170440.000000 0 0 1
-17.021409 -33.483166 -27.302132 46.435517 1.100485 2.199328 0.040264 -0.002519 1827730.000000 0 0 1
-17.558709 -32.521166 -28.196232 46.486149 1.075728 2.222512 0.029115 0.005515 -305047.000000 0 0 1
-18.973209 -32.055166 -27.859932 46.515505 1.036360 2.212971 0.015805 0.005047 -219014.000000 0 0 1
-19.888509 -33.136566 -27.953132 47.696566 1.030231 2.196986 0.014964 0.007596 -941588.000000 0 0 1
-21.142309 -32.700366 -27.529332 47.688314 0.996853 2.186185 0.016602 0.006682 -300274.000000 0 0 1
-22.290909 -33.711466 -27.649932 48.968013 0.986570 2.170809 0.012278 0.012171 -420134.000000 0 0 1
-21.962709 33.820198 -27.009232 48.535194 -0.994846 2.160949 0.035048 0.003752 -446059.000000 0 0 1
-23.107509 33.023398 -26.974032 48.498456 -0.960251 2.160582 0.027656 0.001254 -317755.000000 0 0 1
-22.842709 31.509198 -26.676032 47.182938 -0.943519 2.171684 0.035039 -0.002492 75160.000000 0 0 1
-22.404909 31.198498 -25.403132 46.050465 -0.947999 2.155122 0.035883 -0.005077 -273155.000000 0 0 1
-22.752709 29.844898 -25.132432 45.166834 -0.919428 2.160886 0.045056 -0.013840 -181865.000000 0 0 1
30.635709 9.950298 -26.889833 41.959721 0.314046 2.266400 0.019290 0.009914 -54891.000000 0 0 1
30.358629 8.618098 -26.636853 41.296972 0.276600 2.271829 0.024216 0.008444 173218.000000 0 0 1
28.982029 8.404698 -26.387953 40.086419 0.282255 2.289323 0.024677 0.003992 173682.000000 0 0 1
28.656409 6.991998 -25.894663 39.250623 0.239318 2.291251 0.027358 0.005651 -151176.000000 0 0 1
28.987019 6.643098 -24.564203 38.571727 0.225285 2.261195 0.030481 0.009069 -88203.600000 0 0 1
28.475109 5.440798 -24.110303 37.705979 0.188796 2.264552 0.026050 -0.004188 -61442.500000 0 0 1
28.458619 5.278898 -22.596803 36.720230 0.183409 2.233661 0.024396 -0.005264 431997.000000 0 0 1
29.738359 4.926898 -22.072703 37.361056 0.164184 2.202839 0.050792 -0.004860 592298.000000 0 0 1
29.723939 4.788398 -20.639103 36.502245 0.159723 2.171739 0.043791 -0.011177 -305285.000000 0 0 1
31.141819 4.556898 -20.100503 37.344456 0.145296 2.139151 0.049588 -0.012039 -302498.000000 0 0 1
31.564649 3.219398 -20.327703 37.681655 0.101642 2.140591 0.055965 -0.009265 15969.200000 0 0 1
32.690859 2.971498 -19.524503 38.193301 0.090648 2.107379 0.054112 -0.009354 -485471.000000 0 0 1
33.183029 1.548398 -19.533803 38.536741 0.046629 2.102367 0.061109 -0.009235 -664942.000000 0 0 1
32.250409 0.633498 -19.042703 37.458173 0.019641 2.104090 0.060701 -0.007186 -533170.000000 0 0 1
32.608859 -0.723402 -19.064503 37.779839 -0.022181 2.099739 0.051839 -0.002957 -440456.000000 0 0 1
31.527839 -1.747802 -18.686703 36.691311 -0.055380 2.105162 0.032928 -0.003285 -57006.100000 0 0 1
31.450409 -1.906902 -17.264703 35.928185 -0.060558 2.072059 0.034834 -0.002636 745189.000000 0 0 1
30.151469 -1.528402 -16.772803 34.536561 -0.050647 2.077907 0.029580 -0.006536 620643.000000 0 0 1
29.801829 -1.905102 -15.323003 33.564458 -0.063839 2.044881 0.036638 -0.007029 -490546.000000 0 0 1
29.874629 -3.338902 -14.999503 33.595041 -0.111302 2.033624 0.034625 -0.006986 205938.000000 0 0 1
29.048489 -3.713202 -13.946003 32.435992 -0.127138 2.015239 0.049117 -0.008414 -585878.000000 0 0 1
28.922299 -5.201902 -13.566903 32.366959 -0.177955 2.003315 0.039941 -0.002018 -88869.100000 0 0 1
28.252579 -5.930302 -14.580703 32.341515 -0.206899 2.038497 0.030348 -0.001754 492179.000000 0 0 1
27.785999 -7.153002 -14.106503 31.972185 -0.251961 2.027745 0.024821 -0.000268 -406016.000000 0 0 1
27.128289 -8.026202 -15.214503 32.122345 -0.287655 2.064218 0.007038 0.005572 80989.200000 0 0 1
25.855049 -7.538502 -15.608203 31.127617 -0.283703 2.096043 0.016184 -0.004745 192293.000000 0 0 1
25.102249 -8.562102 -16.205303 31.081254 -0.328714 2.119270 -0.001305 0.004176 732007.000000 0 0 1
23.690049 -8.098702 -16.716603 30.104023 -0.329406 2.159514 0.007501 0.001813 620473.000000 0 0 1
23.671349 -7.777802 -18.025703 30.753096 -0.317462 2.197086 0.001062 0.002120 -407794.000000 0 0 1
22.441449 -7.197502 -18.339403 29.862290 -0.310359 2.232083 0.025116 -0.004467 -340496.000000 0 0 1
21.993749 -7.534802 -19.752003 30.506390 -0.330057 2.275058 0.015923 0.000603 -320655.000000 0 0 1
22.740949 -6.697802 -20.584703 31.396517 -0.286427 2.285822 0.000586 -0.005897 178016.000000 0 0 1
22.557749 -6.917002 -21.912103 32.199957 -0.297533 2.319242 0.022664 -0.013032 -292989.000000 0 0 1
23.239649 -5.889602 -22.819803 33.098521 -0.248203 2.331527 0.014955 -0.014378 -213707.000000 0 0 1
23.310549 -6.270302 -24.200203 34.181109 -0.262770 2.357458 0.027998 -0.015557 192130.000000 0 0 1
23.432349 -5.219802 -25.139023 34.760492 -0.219182 2.379231 0.023274 -0.015751 -331511.000000 0 0 1
23.552449 -5.723802 -26.586233 35.976486 -0.238402 2.402365 0.040483 -0.021464 -96916.100000 0 0 1
22.379149 -6.351702 -27.079133 35.699438 -0.276550 2.431852 0.066109 -0.024786 -134238.000000 0 0 1
22.316049 -6.467302 -28.484863 36.758937 -0.282078 2.457369 0.051589 -0.021537 174482.000000 0 0 1
21.098749 -7.165202 -29.156293 36.695868 -0.327383 2.489044 0.042920 -0.024628 158284.000000 0 0 1
20.991749 -8.502902 -28.692623 36.554336 -0.384860 2.473381 0.037639 -0.021406 24604.400000 0 0 1
20.083749 -9.237002 -29.474433 36.843200 -0.431076 2.498086 0.031836 -0.021411 -380006.000000 0 0 1
19.918749 -10.667002 -28.918283 36.698891 -0.491663 2.478330 0.046552 -0.015654 302429.000000 0 0 1
18.816049 -10.746402 -27.979203 35.388764 -0.518921 2.482624 0.055680 -0.011699 968282.000000 0 0 1
18.780049 -12.001102 -27.246843 35.200954 -0.568628 2.455989 0.065057 -0.016750 -95645.300000 0 0 1
18.692849 -13.324002 -28.066093 36.258202 -0.619256 2.456028 0.051100 -0.010775 433906.000000 0 0 1
17.433949 -13.448902 -28.743893 36.208106 -0.657070 2.487914 0.053733 -0.011084 756801.000000 0 0 1
17.537149 -14.479502 -29.661273 37.376445 -0.690185 2.487470 0.043556 -0.014661 -102927.000000 0 0 1
16.320849 -14.818702 -30.555503 37.677617 -0.737196 2.516608 0.046538 -0.018883 503266.000000 0 0 1
15.296349 -15.633702 -29.938273 37.076827 -0.796305 2.510640 0.055816 -0.022371 851511.000000 0 0 1
14.356049 -16.115602 -30.884893 37.678712 -0.843078 2.531667 0.053000 -0.030308 -66467.100000 0 0 1
13.103049 -16.713702 -30.199643 36.919590 -0.905906 2.528694 0.061085 -0.031323 69549.800000 0 0 1
13.284749 -17.995202 -29.673833 37.159766 -0.934865 2.495674 0.053000 -0.032656 246882.000000 0 0 1
12.266449 -18.118002 -28.705033 36.093028 -0.975653 2.490310 0.060840 -0.033985 197410.000000 0 0 1
12.656849 -19.313702 -27.779523 36.123632 -0.990683 2.448091 0.052977 -0.031609 150451.000000 0 0 1
13.744549 -19.019302 -26.922823 35.713931 -0.945022 2.424693 0.050731 -0.019878 27556.500000 0 0 1
13.881749 -20.160302 -26.038383 35.737069 -0.967784 2.387087 0.047617 -0.016913 485383.000000 0 0 1
15.119449 -20.096902 -25.054003 35.499102 -0.925807 2.354298 0.041412 -0.005632 373699.000000 0 0 1
16.323449 -20.591602 -25.608933 36.691777 -0.900508 2.343324 0.048698 -0.009994 -582827.000000 0 0 1
17.257049 -20.482802 -24.597903 36.364925 -0.870664 2.313685 0.057136 -0.012126 -161254.000000 0 0 1
18.691349 -20.981402 -25.035903 37.634853 -0.843058 2.298601 0.037005 -0.003887 519007.000000 0 0 1
18.904749 -22.316802 -25.372673 38.719526 -0.867983 2.285368 0.027335 -0.005950 231835.000000 0 0 1
18.589849 -23.247702 -24.318603 38.437385 -0.896273 2.255807 0.029033 -0.009950 -474058.000000 0 0 1
19.197449 -24.650902 -24.523903 39.719401 -0.909134 2.236266 0.028110 -0.011640 29824.200000 0 0 1
20.603149 -24.745402 -24.331903 40.359214 -0.876488 2.217907 0.040018 -0.007941 294779.000000 0 0 1
21.035549 -26.033232 -23.988503 41.178535 -0.891180 2.192657 0.041089 -0.023521 -199946.000000 0 0 1
20.887849 -26.298572 -22.475003 40.410925 -0.899566 2.160556 0.049788 -0.025944 -172794.000000 0 0 1
19.550949 -26.329122 -21.987303 39.482955 -0.932074 2.161422 0.052763 -0.027018 350190.000000 0 0 1
19.423049 -26.343702 -20.596103 38.670983 -0.935477 2.132464 0.037646 -0.023165 760032.000000 0 0 1
17.961549 -26.725062 -20.148503 37.984317 -0.979051 2.129919 0.033900 -0.026332 370853.000000 0 0 1
17.801549 -28.162412 -20.302003 39.015227 -1.007105 2.118070 0.031439 -0.022846 204260.000000 0 0 1
16.824149 -28.794782 -19.475303 38.619670 -1.042018 2.099350 0.024611 -0.012172 868734.000000 0 0 1
15.323149 -28.479382 -19.754303 37.895997 -1.077179 2.119143 0.023624 -0.014637 100293.000000 0 0 1
14.659249 -27.446212 -19.048803 36.483490 -1.080236 2.120132 0.027502 -0.015548 -535804.000000 0 0 1
13.387849 -27.310122 -19.610103 36.188857 -1.115007 2.143471 0.013834 -0.002076 -355700.000000 0 0 1
12.474749 -26.307342 -18.870303 34.695589 -1.128007 2.145852 0.008253 -0.012070 -495381.000000 0 0 1
12.129449 -26.620272 -17.566003 34.122234 -1.143256 2.111566 0.009701 -0.010978 37113.400000 0 0 1
11.051449 -25.860772 -17.053603 32.889807 -1.166942 2.115901 0.018962 -0.021997 1386370.000000 0 0 1
9.561149 -26.293772 -17.362003 32.927453 -1.222033 2.126193 0.019005 -0.010872 564065.000000 0 0 1
9.055349 -27.381692 -16.580703 33.266742 -1.251410 2.092568 0.017885 -0.009450 220242.000000 0 0 1
7.644549 -27.450202 -16.753303 33.054892 -1.299190 2.102303 0.014005 0.009017 692325.000000 0 0 1
7.032349 -28.193912 -17.964103 34.162254 -1.326356 2.124506 0.020987 0.006721 -365782.000000 0 0 1
6.925349 -27.487302 -19.155803 34.211942 -1.323986 2.165080 0.023918 0.008927 -120664.000000 0 0 1
6.381449 -28.387002 -20.096003 35.360912 -1.349671 2.175248 0.028185 0.010813 -50951.000000 0 0 1
6.376649 -27.793952 -21.524303 35.727595 -1.345273 2.217371 0.027854 0.005537 -520390.000000 0 0 1
5.491549 -26.730082 -21.647503 34.832008 -1.368171 2.241431 0.032684 0.000771 -248257.000000 0 0 1
5.610549 -26.024232 -22.889703 35.109506 -1.358457 2.280952 0.036113 -0.003843 -146187.000000 0 0 1
4.327149 -25.283452 -23.302203 34.655011 -1.401293 2.308250 0.020765 -0.002265 489087.000000 0 0 1
3.284549 -26.113002 -23.839003 35.510212 -1.445671 2.306796 0.017314 0.003407 -390292.000000 0 0 1
2.182449 -25.402662 -24.281503 35.208659 -1.485093 2.331796 0.021563 -0.001102 -860902.000000 0 0 1
1.241049 -26.405482 -24.882703 36.303424 -1.523831 2.325962 0.019772 -0.010688 -881148.000000 0 0 1
1.818749 -27.068192 -25.979613 37.562417 -1.503706 2.334552 0.020467 -0.001404 -105492.000000 0 0 1
0.961449 -27.947682 -26.683633 38.652472 -1.536408 2.332765 0.023760 -0.008982 -370769.000000 0 0 1
1.631049 -28.822752 -27.721443 40.023615 -1.514268 2.335921 0.018681 -0.006620 -764228.000000 0 0 1
2.144449 -28.080622 -28.839543 40.309294 -1.494577 2.368073 0.019550 -0.007953 231987.000000 0 0 1
2.785449 -28.940002 -29.768273 41.610485 -1.474843 2.367997 0.024535 -0.012942 287563.000000 0 0 1
4.298049 -29.195312 -29.492103 41.720781 -1.424629 2.355891 0.033320 -0.013351 -238443.000000 0 0 1
4.611549 -29.994152 -28.354333 41.531719 -1.418243 2.322268 0.032100 -0.018667 89765.600000 0 0 1
5.672449 -30.879862 -28.680543 42.524300 -1.389128 2.311017 0.037958 -0.013613 389518.000000 0 0 1
6.099149 -31.968402 -27.629463 42.691516 -1.382275 2.274687 0.051451 -0.025383 -65540.900000 0 0 1
5.134849 -32.995742 -27.536983 43.282457 -1.416413 2.260380 0.045250 -0.027484 -84503.700000 0 0 1
5.544349 -34.254741 -27.015123 43.976629 -1.410332 2.232303 0.055628 -0.036147 216574.000000 0 0 1
4.286149 33.617645 -26.769383 43.187001 1.443984 2.239346 0.068067 -0.038928 613485.000000 0 0 1
3.568449 33.233375 -27.943543 43.566417 1.463831 2.267119 0.057151 -0.039722 590347.000000 0 0 1
2.345149 32.570172 -27.639233 42.781340 1.498917 2.273205 0.040225 -0.037882 484224.000000 0 0 1
1.236449 32.754261 -28.714523 43.576304 1.533065 2.290216 0.027212 -0.024682 75505.000000 0 0 1
1.407149 31.983812 -29.862933 43.780579 1.526829 2.321433 0.038317 -0.032263 984032.000000 0 0 1
0.172749 31.951532 -30.611783 44.249424 1.565390 2.334776 0.040550 -0.020650 892297.000000 0 0 1
0.139049 30.793832 -31.639233 44.151110 1.566281 2.369729 0.039986 -0.017152 -155338.000000 0 0 1
1.067249 31.005032 -32.677183 45.058288 1.536388 2.382151 0.048170 -0.018751 24424.800000 0 0 1
0.986749 29.856432 -33.490823 44.877783 1.537759 2.413233 0.055156 -0.018923 203773.000000 0 0 1
2.262749 29.497752 -34.341553 45.327472 1.494237 2.430474 0.049072 -0.013787 571045.000000 0 0 1
2.604749 30.473502 33.385143 45.276780 1.485528 0.741647 0.040963 -0.014859 123581.000000 0 0 1
3.566049 30.045662 32.436438 44.357424 1.452661 0.750641 0.027450 -0.009655 -329115.000000 0 0 1
2.971849 29.158192 31.339868 42.909432 1.469225 0.751929 0.038710 -0.009356 67816.500000 0 0 1
2.751949 27.801202 31.690258 42.246331 1.472131 0.722537 0.042449 -0.006877 57657.700000 0 0 1
3.972049 27.103702 31.756378 41.938710 1.425282 0.711767 0.035568 -0.001839 -443351.000000 0 0 1
3.694949 25.578792 31.981978 41.119024 1.427335 0.679654 0.043570 -0.003460 448857.000000 0 0 1
2.832849 25.000062 30.982688 39.911842 1.457964 0.682056 0.041283 0.008870 583348.000000 0 0 1
3.031649 23.588262 30.941288 39.025124 1.442973 0.655316 0.036358 0.003564 336559.000000 0 0 1
2.053149 22.873462 29.955628 37.745865 1.481275 0.654071 0.032957 0.013953 927960.000000 0 0 1
0.773149 22.432362 30.426808 37.810042 1.536344 0.635579 0.024010 0.010285 376709.000000 0 0 1
-0.004151 21.975862 29.367258 36.679345 -1.570607 0.642420 0.039225 0.009895 -229517.000000 0 0 1
-1.419251 21.503962 29.724808 36.715104 -1.504892 0.627314 0.040834 0.005778 178324.000000 0 0 1
-2.376451 22.545162 29.928128 37.544969 -1.465776 0.648273 0.049181 0.000453 1110620.000000 0 0 1
-3.680351 22.039162 30.287818 37.638033 -1.405332 0.635604 0.034547 -0.004409 498741.000000 0 0 1
-4.691651 23.119962 30.514348 38.570321 -1.370589 0.658133 0.010357 -0.011266 -738409.000000 0 0 1
-4.742551 23.516062 31.839708 39.865574 -1.371793 0.645703 0.012571 -0.010908 186543.000000 0 0 1
-4.268851 24.844322 32.056968 40.781278 -1.400634 0.666370 0.025476 -0.010944 -169810.000000 0 0 1
-4.637751 25.357142 33.469034 42.245350 -1.389899 0.656303 0.029259 -0.008294 -502839.000000 0 0 1
-5.983051 25.699322 33.595259 42.718772 -1.342061 0.665791 0.018734 -0.009878 -436869.000000 0 0 1
-6.243251 26.047002 -33.780773 43.111079 -1.335543 2.471196 0.014869 -0.007389 -538408.000000 0 0 1
-7.677751 26.359662 -33.372343 43.214499 -1.287369 2.453169 0.029886 -0.005008 -511926.000000 0 0 1
-8.034051 27.698932 -33.737173 44.384385 -1.288494 2.434284 0.023870 -0.000965 1488490.000000 0 0 1
-9.387151 28.084602 -33.335273 44.588159 -1.248225 2.415277 0.018542 0.002521 1313800.000000 0 0 1
-9.536751 28.655372 -31.891023 43.921718 -1.249518 2.383411 0.023461 0.002716 -356059.000000 0 0 1
-8.898751 29.887902 -31.628043 44.416299 -1.281416 2.363255 0.029112 -0.001674 230928.000000 0 0 1
-9.043351 30.256562 -30.288123 43.756281 -1.280359 2.335330 0.031704 0.000993 -347599.000000 0 0 1
-8.462951 31.617622 -29.854193 44.300885 -1.309262 2.310266 0.020443 0.000938 -31402.800000 0 0 1
-7.051851 31.631352 -29.945623 44.124952 -1.351445 2.316726 0.005076 -0.003040 -55863.100000 0 0 1
-6.551451 32.882404 -29.548603 44.691095 -1.374133 2.293179 0.013147 0.001062 -232084.000000 0 0 1
-5.029851 33.020314 -29.397433 44.495501 -1.419632 2.292525 0.023154 -0.006341 -415913.000000 0 0 1
-4.465651 34.231999 -28.931903 45.042500 -1.441076 2.268324 0.027980 -0.009599 -4720.670000 0 0 1
-4.296051 -33.501522 -29.941393 45.136405 1.443258 2.296088 0.031808 -0.012870 155196.000000 0 0 1
-3.142351 -33.763882 -30.969793 45.923873 1.477995 2.310911 0.038114 -0.029665 -87655.500000 0 0 1
-3.316651 34.050052 -32.013913 46.853995 -1.473697 2.323028 0.037286 -0.021347 -143013.000000 0 0 1
-4.126951 34.383206 -33.100693 47.905036 -1.451340 2.333619 0.042636 -0.017775 -218145.000000 0 0 1
-3.431551 -33.360002 -34.018953 47.769807 1.468293 2.363343 0.032808 -0.021949 44583.800000 0 0 1
-3.503951 -32.012452 -33.496453 46.465978 1.461774 2.375869 0.022012 -0.018273 -55884.500000 0 0 1
-2.646451 -31.122292 -34.139026 46.271739 1.485966 2.400593 0.018979 -0.028507 -115868.000000 0 0 1
31.241439 19.624498 12.378868 38.915097 0.560866 1.247072 0.053482 -0.026916 -257883.000000 0 0 1
32.161329 18.869798 13.163168 39.543512 0.530600 1.231442 0.044520 -0.033243 435204.000000 0 0 1
31.989319 17.542198 12.821168 38.670759 0.501596 1.232854 0.045175 -0.031336 -95025.600000 0 0 1
33.036909 16.781298 13.663568 39.493574 0.469992 1.217525 0.065835 -0.037167 711394.000000 0 0 1
34.373499 17.029298 13.226768 40.576863 0.459976 1.238761 0.057068 -0.015469 369963.000000 0 0 1
35.299239 16.086898 13.685868 41.135478 0.427608 1.231629 0.049033 -0.021154 -738709.000000 0 0 1
-34.950875 15.871298 12.829968 40.473075 -0.426261 1.248232 0.057180 -0.033223 -903336.000000 0 0 1
-34.263201 14.662798 13.106268 39.506187 -0.404363 1.232636 0.064375 -0.039717 -298138.000000 0 0 1
-34.884426 13.409398 12.888768 39.532967 -0.366982 1.238700 0.063827 -0.040623 -550723.000000 0 0 1
-34.268869 12.262998 13.704768 38.891608 -0.343648 1.210679 0.070630 -0.032865 41360.300000 0 0 1
-34.295560 12.499098 15.091368 39.498889 -0.349492 1.178760 0.069607 -0.036199 15397.600000 0 0 1
-33.669529 11.473298 15.794368 38.919607 -0.328421 1.152920 0.064690 -0.039411 -307101.000000 0 0 1
-33.280639 11.774698 17.262168 39.296652 -0.340056 1.116001 0.065104 -0.022766 -825430.000000 0 0 1
-34.284044 11.930498 18.186768 40.601613 -0.334883 1.106345 0.063183 -0.016838 -912818.000000 0 0 1
-33.805309 12.510798 19.351468 40.912080 -0.354454 1.078102 0.044407 -0.024197 458525.000000 0 0 1
-34.871463 12.949198 20.484068 42.465253 -0.355559 1.067435 0.061481 -0.018976 659389.000000 0 0 1
-35.519735 11.810498 21.004168 42.922191 -0.321005 1.059447 0.054643 -0.005559 -18915.100000 0 0 1
34.891219 12.245798 21.844668 42.948181 0.337539 1.037205 0.042914 -0.014925 301083.000000 0 0 1
34.319499 10.998698 22.589768 42.533481 0.310138 1.010892 0.048553 -0.013297 -576962.000000 0 0 1
35.205869 10.504398 23.504668 43.614963 0.289961 1.001650 0.049452 -0.007071 -554712.000000 0 0 1
34.909729 10.981598 24.791848 44.203172 0.304771 0.975371 0.047900 -0.008566 -294539.000000 0 0 1
-35.290368 10.989498 25.674198 45.003817 -0.301884 0.963695 0.031010 -0.006834 570139.000000 0 0 1
-34.473580 12.157998 25.612888 44.634792 -0.339057 0.959619 0.030342 -0.003924 628551.000000 0 0 1
-33.630639 12.273298 24.442818 43.348645 -0.349925 0.971737 0.029642 -0.007808 12972.900000 0 0 1
-32.831589 13.626598 24.443698 43.140373 -0.393409 0.968412 0.028542 -0.004231 1031800.000000 0 0 1
-31.816619 13.914098 25.436268 43.045361 -0.412261 0.938600 0.008375 -0.000095 560637.000000 0 0 1
-32.407519 14.333298 26.618558 44.319728 -0.416418 0.926541 -0.000567 -0.000652 117683.000000 0 0 1
-31.429579 14.921598 27.751848 44.504354 -0.443255 0.897488 -0.000330 0.012024 487298.000000 0 0 1
-30.708839 16.067398 27.295958 44.116475 -0.482049 0.903678 0.012208 0.001075 -37887.200000 0 0 1
-30.153259 16.834698 28.341228 44.674951 -0.509197 0.883581 0.014279 -0.007446 363292.000000 0 0 1
-29.336379 18.108398 27.971278 44.395153 -0.553020 0.889175 0.025499 -0.004507 188530.000000 0 0 1
-30.209819 19.024198 27.338048 44.965788 -0.561997 0.917290 0.017903 -0.018130 331033.000000 0 0 1
-29.589519 20.226598 26.852608 44.785237 -0.599616 0.927812 0.018001 -0.014670 -182644.000000 0 0 1
-30.525459 21.052498 25.975518 45.274042 -0.603759 0.959732 0.017922 -0.004161 -249408.000000 0 0 1
-31.685369 21.482598 26.644338 46.641027 -0.595806 0.962751 0.025723 -0.013810 204750.000000 0 0 1
-32.591429 22.252698 25.882008 47.193878 -0.599074 0.990324 0.041650 -0.010528 -49182.400000 0 0 1
-32.454749 23.749498 26.037958 47.909546 -0.631733 0.996217 0.042127 -0.007240 -725503.000000 0 0 1
-33.366709 24.292398 25.148358 48.331126 -0.629300 1.023554 0.054885 -0.007018 -189541.000000 0 0 1
-33.219999 25.723198 25.100488 48.941656 -0.658891 1.032277 0.055241 -0.008594 11652.600000 0 0 1
-34.323267 26.495998 24.356088 49.732721 -0.657405 1.059005 0.062102 -0.007772 238340.000000 0 0 1
-34.041889 26.176198 22.995168 48.711613 -0.655513 1.079162 0.067326 -0.014012 -276671.000000 0 0 1
-35.115038 26.601598 22.223568 49.341644 -0.648319 1.103581 0.057624 -0.018400 -341359.000000 0 0 1
-35.008612 26.447998 20.702168 48.514733 -0.646993 1.129934 0.075466 -0.029772 58287.200000 0 0 1
-35.346464 25.171698 20.187768 47.859512 -0.618828 1.135352 0.061855 -0.029756 -58342.700000 0 0 1
-34.579824 24.998198 19.015768 46.714811 -0.625939 1.151562 0.054254 -0.032372 -95415.500000 0 0 1
-34.692913 23.711398 18.274168 45.823289 -0.599542 1.160592 0.061342 -0.030943 481453.000000 0 0 1
35.520738 23.628598 17.624168 46.158908 0.586990 1.179037 0.050646 -0.036849 227311.000000 0 0 1
-35.706983 22.744098 16.557868 45.458174 -0.567157 1.197975 0.052421 -0.033058 -111308.000000 0 0 1
34.505309 22.618698 15.685468 44.139050 0.580241 1.207492 0.040324 -0.029786 -79397.500000 0 0 1
33.568139 21.774698 16.374968 43.233055 0.575441 1.182340 0.030917 -0.034601 -293311.000000 0 0 1
32.515349 21.540798 15.478568 41.962364 0.585099 1.193006 0.027343 -0.031689 -607614.000000 0 0 1
31.391919 20.599898 16.074268 40.843487 0.580733 1.166298 0.023238 -0.025728 811014.000000 0 0 1
30.545289 21.191598 17.061268 40.904589 0.606537 1.140545 0.011330 -0.021791 369531.000000 0 0 1
29.598729 22.110898 16.489868 40.458526 0.641592 1.151000 0.006518 -0.011929 -418507.000000 0 0 1
28.715319 22.815698 17.559168 40.662636 0.671408 1.124280 0.005854 -0.009150 -134441.000000 0 0 1
29.385559 23.678398 18.461868 42.012119 0.678258 1.115820 -0.011213 -0.004704 -970122.000000 0 0 1
28.555749 24.299198 19.353368 42.195197 0.705039 1.094307 -0.007293 -0.002005 -1014080.000000 0 0 1
29.285589 24.889698 20.536368 43.576200 0.704434 1.080061 0.001999 -0.013026 -570105.000000 0 0 1
30.243619 25.786798 20.125568 44.549679 0.706022 1.102064 0.012241 -0.014122 -429365.000000 0 0 1
30.919299 26.391198 21.232368 45.861878 0.706552 1.089461 0.023106 -0.015739 -28276.200000 0 0 1
32.047189 27.313598 20.692168 46.917169 0.705824 1.114043 0.032765 -0.016813 462160.000000 0 0 1
32.994649 27.837698 21.641568 48.290183 0.700827 1.106094 0.035782 -0.011361 594478.000000 0 0 1
32.539669 28.915198 22.349468 48.932785 0.726489 1.096471 0.010071 -0.001835 -312992.000000 0 0 1
33.396749 29.213598 23.623868 50.267925 0.718685 1.081552 0.017511 -0.007048 62328.800000 0 0 1
34.669539 29.769198 23.485268 51.378399 0.709498 1.096060 0.027697 -0.008251 -318342.000000 0 0 1
35.288359 29.963298 24.751898 52.494990 0.703971 1.079794 0.028124 -0.001750 -177664.000000 0 0 1
-35.184524 31.126998 24.835688 53.138048 -0.724286 1.084471 0.026799 -0.009018 1571200.000000 0 0 1
-33.888009 30.604998 24.370568 51.758938 -0.734537 1.080545 0.031661 -0.011680 1333100.000000 0 0 1
-32.806289 31.485398 24.549888 51.674751 -0.764856 1.075736 0.029128 -0.009178 114464.000000 0 0 1
-31.395579 31.002598 24.163518 50.306253 -0.779100 1.069767 0.040587 -0.005543 -277469.000000 0 0 1
-31.154429 30.613498 22.795268 49.268742 -0.776641 1.089789 0.034297 -0.003195 5438.200000 0 0 1
-31.734559 29.435598 22.246368 48.666596 -0.747833 1.096044 0.047820 -0.008987 -665378.000000 0 0 1
-31.251719 28.082698 22.714868 47.762675 -0.732039 1.075176 0.046224 -0.005241 -1656770.000000 0 0 1
-29.910829 27.786898 22.559868 46.644582 -0.748603 1.065971 0.034799 -0.006881 -570456.000000 0 0 1
-29.480259 26.790198 23.507468 46.253664 -0.737629 1.037669 0.034318 -0.011367 -19720.200000 0 0 1
-29.146999 27.331598 24.906818 47.084109 -0.753266 1.013392 0.038903 -0.010970 -285277.000000 0 0 1
-30.280249 27.690898 25.691778 48.412258 -0.740762 1.011385 0.032444 -0.005470 364431.000000 0 0 1
-29.896339 28.120398 26.948598 49.099641 -0.754797 0.989802 0.031001 -0.008857 -532140.000000 0 0 1
-31.065849 28.224198 27.922228 50.411736 -0.737507 0.983775 0.020686 -0.017682 -371817.000000 0 0 1
-31.591519 27.028298 28.370238 50.333124 -0.707710 0.971999 0.017523 -0.016407 506754.000000 0 0 1
-32.623709 27.201198 29.358238 51.634462 -0.695005 0.966020 0.011329 -0.006701 102848.000000 0 0 1
-33.089169 25.791998 29.876328 51.504516 -0.662096 0.951979 0.016787 -0.009306 311408.000000 0 0 1
-32.192989 25.123098 30.774708 51.133563 -0.662669 0.924981 0.017187 -0.019811 433080.000000 0 0 1
-32.855999 23.956998 31.217418 51.263843 -0.630024 0.916053 0.022948 -0.023863 -190601.000000 0 0 1
-32.105479 23.189998 32.299138 51.105500 -0.625540 0.886653 0.032002 -0.033146 -666713.000000 0 0 1
-30.969479 22.584098 31.727788 49.757438 -0.630080 0.879354 0.031439 -0.026421 -57918.800000 0 0 1
-30.218899 21.744298 32.582598 49.473448 -0.623733 0.851856 0.029932 -0.027557 468149.000000 0 0 1
-29.190479 22.456898 33.550384 49.819921 -0.655753 0.831953 0.029677 -0.027081 -132120.000000 0 0 1
-29.853019 23.176698 -34.154325 50.939964 -0.660159 2.305654 0.039434 -0.028593 214389.000000 0 0 1
-29.498849 22.816898 -32.855823 49.702093 -0.658362 2.293020 0.028234 -0.019598 81444.100000 0 0 1
-28.055179 23.154998 -32.386493 48.704537 -0.690001 2.298234 0.047116 -0.025117 -6006.310000 0 0 1
-27.899899 24.533198 -32.118163 49.110677 -0.721277 2.283650 0.044311 -0.021138 -5922.910000 0 0 1
-27.469819 24.751598 -30.791433 48.118031 -0.733393 2.265184 0.065479 -0.017045 -215875.000000 0 0 1
-28.116979 25.979598 -30.041953 48.662336 -0.745908 2.236173 0.037377 -0.004530 -391914.000000 0 0 1
-27.758169 27.263298 -30.462813 49.414434 -0.776404 2.235056 0.040058 -0.006321 261576.000000 0 0 1
-28.429879 27.644398 -31.655703 50.740066 -0.771391 2.244494 0.029160 -0.000351 -200492.000000 0 0 1
-28.188389 29.166698 -31.934293 51.624419 -0.802454 2.237742 0.026240 -0.004296 -229908.000000 0 0 1
-28.870459 30.107098 -31.159473 52.065857 -0.806363 2.212377 0.018735 -0.007250 65100.100000 0 0 1
-28.583709 31.377598 -31.701303 52.976926 -0.831959 2.212297 0.026367 -0.020731 -42358.700000 0 0 1
-28.905529 32.533198 -30.749623 53.286751 -0.844375 2.185920 0.025164 -0.005193 -264129.000000 0 0 1
-28.017319 32.423098 -29.683483 52.128079 -0.858164 2.176613 0.015530 0.000967 -80502.800000 0 0 1
-28.171089 33.515598 -28.782973 52.396232 -0.871822 2.152362 0.002945 0.000409 -35990.200000 0 0 1
-27.131829 33.532598 -27.628183 51.223898 -0.890520 2.140475 0.015868 -0.006105 804190.000000 0 0 1
-25.858909 34.168498 -27.834413 51.097201 -0.922954 2.146869 -0.000493 -0.001355 520076.000000 0 0 1
-25.696939 -33.190166 -28.012713 50.464164 0.911965 2.159281 0.012189 0.010063 -1248240.000000 0 0 1
-26.066369 -32.234866 -26.856883 49.394679 0.890810 2.145660 0.004807 0.010920 666960.000000 0 0 1
-27.456579 -31.878666 -26.814473 49.891172 0.859788 2.138218 0.006696 -0.002569 560062.000000 0 0 1
-27.809999 -31.027166 -25.748583 48.980308 0.840023 2.124325 -0.004777 0.005509 931030.000000 0 0 1
-29.379939 -30.953266 -25.612873 49.772530 0.811470 2.111336 -0.007295 0.000271 777561.000000 0 0 1
-29.904679 -30.196666 -26.682863 50.180710 0.790256 2.131445 0.004597 -0.004114 -276551.000000 0 0 1
-31.284069 -30.041466 -26.475973 50.814956 0.765139 2.118850 0.004274 -0.010767 -651149.000000 0 0 1
-31.882289 -29.111466 -27.482683 51.178664 0.740001 2.137667 0.018575 -0.013711 192729.000000 0 0 1
-33.307739 -29.043466 -27.367303 51.979781 0.717113 2.125274 0.024905 -0.018388 800760.000000 0 0 1
-33.824199 -28.155366 -28.397403 52.375696 0.694189 2.143834 0.033384 -0.024363 1117080.000000 0 0 1
-35.354754 -28.384566 -28.694193 53.656304 0.676476 2.135041 0.027254 -0.027042 897756.000000 0 0 1
35.242589 -27.746966 -27.811593 52.777068 -0.666957 2.125820 0.015334 -0.022327 -306601.000000 0 0 1
33.904329 -27.970466 -28.205473 52.224508 -0.689789 2.141330 0.020640 -0.026359 213102.000000 0 0 1
32.833009 -27.397066 -27.241893 50.702332 -0.695389 2.138018 0.024074 -0.019739 -5111.260000 0 0 1
32.814099 -28.185266 -26.031183 50.485610 -0.709660 2.112523 0.015739 -0.016109 771112.000000 0 0 1
31.903399 -27.542866 -25.096413 49.053708 -0.712177 2.107855 0.015351 -0.009217 496314.000000 0 0 1
31.747109 -28.258766 -23.686503 48.656831 -0.727330 2.079227 0.015939 -0.009018 11809.400000 0 0 1
31.163809 -29.568866 -23.804403 49.113648 -0.759143 2.076794 0.031788 -0.014711 -19515.000000 0 0 1
30.836009 -30.232466 -22.596203 48.738587 -0.775515 2.052873 0.039127 -0.022403 -654289.000000 0 0 1
31.819119 -30.367066 -21.451803 48.936642 -0.762052 2.024568 0.033665 -0.016517 -1340730.000000 0 0 1
32.903659 -31.225666 -21.748903 50.306141 -0.759238 2.017873 0.024952 -0.018897 -269629.000000 0 0 1
34.036589 -31.089966 -20.964803 50.641864 -0.740184 1.997620 0.026429 -0.015517 -127367.000000 0 0 1
34.845389 -29.766666 -21.074803 50.442074 -0.706956 2.001821 0.010967 -0.008335 -937896.000000 0 0 1
34.224539 -28.618066 -20.537903 49.113320 -0.696419 2.002230 0.009423 -0.001977 -249625.000000 0 0 1
34.702569 -27.466566 -21.188203 49.067510 -0.669527 2.017303 0.001549 -0.000100 -325762.000000 0 0 1
33.866979 -26.208666 -20.888703 47.646662 -0.658604 2.024624 0.005009 0.004736 -414712.000000 0 0 1
32.633429 -26.356766 -21.522703 47.147074 -0.679395 2.044855 0.019896 -0.004736 -1082180.000000 0 0 1
31.660619 -25.610366 -20.888503 45.766966 -0.680146 2.044753 0.023878 0.003095 -328083.000000 0 0 1
30.384839 -25.339966 -21.720503 45.134605 -0.695112 2.072863 0.024252 -0.009058 329497.000000 0 0 1
29.652989 -26.511566 -22.037903 45.473422 -0.729524 2.076739 0.036803 -0.019979 -456806.000000 0 0 1
28.418979 -26.315266 -22.657803 44.872125 -0.746982 2.100111 0.036982 -0.017449 -145877.000000 0 0 1
27.770339 -27.675366 -22.970803 45.439800 -0.783685 2.100783 0.036645 -0.015170 -103857.000000 0 0 1
27.334349 -28.458266 -21.863303 45.111457 -0.805540 2.076760 0.037816 -0.019522 -184938.000000 0 0 1
26.655289 -29.599266 -22.303003 45.651341 -0.837684 2.081224 0.045814 -0.023033 -315737.000000 0 0 1
26.019549 -30.250466 -21.043303 45.110179 -0.860446 2.056111 0.047373 -0.020690 123589.000000 0 0 1
27.005239 -30.696066 -20.113403 45.564025 -0.849276 2.027990 0.058966 -0.027564 367961.000000 0 0 1
27.739299 -31.858766 -20.545403 46.974070 -0.854409 2.023477 0.060559 -0.025137 72318.400000 0 0 1
28.582119 -32.407566 -19.392503 47.363035 -0.848039 1.992641 0.056799 -0.023651 -133961.000000 0 0 1
27.862139 -32.879466 -18.262803 46.806923 -0.867812 1.971616 0.055429 -0.026702 -114950.000000 0 0 1
27.443229 -31.856766 -17.309803 45.471020 -0.859688 1.961325 0.040881 -0.028423 15040.500000 0 0 1
26.909089 -32.533166 -16.062203 45.171898 -0.879731 1.934330 0.038202 -0.023278 408142.000000 0 0 1
25.683749 -33.245266 -16.290003 45.058483 -0.913016 1.940705 0.040666 -0.020968 546033.000000 0 0 1
25.173549 -33.861166 -15.108803 44.816984 -0.931511 1.914655 0.032358 -0.015447 -147874.000000 0 0 1
23.672649 -34.074166 -14.886603 44.080087 -0.963610 1.915287 0.041673 -0.017259 -5349.200000 0 0 1
22.905649 -32.877466 -14.859703 42.736487 -0.962290 1.925919 0.046346 -0.015480 -705154.000000 0 0 1
21.581949 -33.172666 -14.567403 42.171264 -0.994003 1.923498 0.046724 -0.017390 -764527.000000 0 0 1
-0.246009 -6.871702 -29.102733 29.904011 1.535011 2.909577 0.042628 -0.004397 258054.000000 0 0 1
-0.323209 -8.259102 -28.987043 30.142427 1.531683 2.863822 0.030921 -0.002956 -131322.000000 0 0 1
-0.515609 -8.886002 -30.247593 31.530045 1.512836 2.855401 0.020594 -0.003876 -93217.900000 0 0 1
-0.316509 -10.391702 -30.209613 31.948527 1.540348 2.810142 0.017513 -0.006337 -189026.000000 0 0 1
1.003391 -10.759602 -29.902763 31.795456 -1.477810 2.794815 0.013634 -0.007880 -334469.000000 0 0 1
1.148191 -12.129102 -29.711723 32.112613 -1.476413 2.752452 0.018750 -0.011869 128665.000000 0 0 1
2.591591 -12.547702 -29.354933 32.029256 -1.367121 2.730047 0.012082 -0.004246 -149758.000000 0 0 1
3.496391 -12.577902 -30.473233 33.151867 -1.299663 2.736843 0.018385 -0.007870 703629.000000 0 0 1
4.837691 -12.893002 -30.100073 33.100561 -1.211834 2.712521 0.044761 -0.007524 717254.000000 0 0 1
5.245491 -14.268702 -29.504963 33.191171 -1.218510 2.665822 0.048790 -0.013026 -1189760.000000 0 0 1
4.779991 -14.402302 -28.181613 32.007467 -1.250345 2.647649 0.043515 -0.014155 11091.600000 0 0 1
5.493391 -15.375202 -27.376623 31.875597 -1.227643 2.603833 0.060971 -0.018308 51646.900000 0 0 1
5.181491 -16.930102 -27.544513 32.744105 -1.273797 2.570305 0.038277 -0.016254 -256508.000000 0 0 1
5.601391 -17.370402 -28.846893 34.135754 -1.258857 2.577481 0.037566 -0.027804 341437.000000 0 0 1
5.285691 -18.771802 -28.945253 34.901959 -1.296327 2.548704 0.033156 -0.026429 -177835.000000 0 0 1
5.397091 -19.305602 -30.378243 36.396051 -1.298195 2.558307 0.034010 -0.025761 -293189.000000 0 0 1
6.756391 -19.390402 -30.721263 36.951759 -1.235512 2.552398 0.037082 -0.024136 -60115.100000 0 0 1
6.850291 -20.042102 -31.987053 38.363836 -1.241450 2.556718 0.036581 -0.023723 264971.000000 0 0 1
8.268791 -19.973602 -32.631723 39.142650 -1.178292 2.556501 0.041129 -0.021152 543662.000000 0 0 1
8.549091 -18.634002 -33.088783 38.925320 -1.140657 2.586892 0.037363 -0.024719 -1139420.000000 0 0 1
9.836691 -18.594602 -33.546573 39.596619 -1.084213 2.581504 0.022027 -0.016981 -1345450.000000 0 0 1
10.185291 -17.264702 -34.222536 39.660964 -1.037800 2.611731 0.030974 -0.008886 -201504.000000 0 0 1
9.223091 -16.767602 33.631000 38.694471 -1.067911 0.517331 0.037716 -0.014411 86813.100000 0 0 1
9.722091 -15.558202 33.043174 37.794550 -1.012280 0.506837 0.040669 -0.012586 181613.000000 0 0 1
8.673891 -15.031802 32.062218 36.457883 -1.047433 0.496129 0.054394 -0.025062 -34706.300000 0 0 1
8.609791 -15.823702 30.896288 35.764488 -1.072489 0.527870 0.043525 -0.023734 159910.000000 0 0 1
7.540091 -15.465202 30.042018 34.620056 -1.117157 0.520112 0.043905 -0.018098 -174556.000000 0 0 1
7.787191 -16.176402 28.660648 33.819359 -1.122146 0.559609 0.024384 -0.002103 -339193.000000 0 0 1
7.302391 -17.521202 28.621948 34.344335 -1.175913 0.585598 0.022813 -0.009238 387017.000000 0 0 1
7.544791 -18.137102 27.340918 33.666068 -1.176585 0.623018 0.013157 -0.002014 -146712.000000 0 0 1
7.182591 -19.651302 27.387518 34.465046 -1.220379 0.652372 0.013970 -0.010844 -65258.100000 0 0 1
7.922891 -20.306702 28.393368 35.795498 -1.198800 0.654733 0.014150 -0.005894 698428.000000 0 0 1
7.132691 -21.360302 28.931688 36.663065 -1.248515 0.661416 0.006345 -0.010843 -14800.200000 0 0 1
7.610191 -21.703202 30.396818 38.117063 -1.233544 0.647723 -0.001981 -0.005896 -158639.000000 0 0 1
7.132991 -20.941602 31.539048 38.524561 -1.242508 0.611699 0.021315 -0.011487 210027.000000 0 0 1
7.449991 -19.572002 31.488138 37.816246 -1.207086 0.586900 0.019242 -0.016534 -599111.000000 0 0 1
6.882991 -18.694902 32.582048 38.189851 -1.218023 0.548783 0.026994 -0.015621 966340.000000 0 0 1
5.434291 -18.673302 32.573998 37.937963 -1.287599 0.538240 0.042957 -0.020222 903308.000000 0 0 1
4.834691 -17.701002 33.369985 38.082221 -1.304169 0.502749 0.039486 -0.021213 -32776.200000 0 0 1
3.347691 -17.895402 33.680840 38.286439 -1.385864 0.495551 0.039015 -0.019466 -74204.800000 0 0 1
3.107891 -18.965302 -34.189428 39.220640 -1.408368 2.629499 0.033120 -0.023083 27208.200000 0 0 1
2.474991 -18.538202 -32.962783 37.899018 -1.438074 2.625498 0.016010 -0.033264 13110.800000 0 0 1
2.030391 -19.650202 -31.988413 37.596695 -1.467835 2.588360 0.022676 -0.007531 -582814.000000 0 0 1
0.839091 -20.233602 -32.489853 38.284374 -1.529350 2.584215 0.028464 -0.007720 125599.000000 0 0 1
0.366091 -21.277802 -31.660033 38.147563 -1.553593 2.549789 0.022447 -0.009237 136597.000000 0 0 1
-0.310109 -20.822302 -30.324343 36.786277 1.555904 2.539829 0.021722 -0.013385 -333702.000000 0 0 1
-1.600709 -20.270502 -30.546163 36.695008 1.491992 2.554282 0.028161 -0.023041 293844.000000 0 0 1
-2.055409 -19.274902 -29.599493 35.381867 1.464561 2.561793 0.031435 -0.015237 117363.000000 0 0 1
-1.884809 -17.853002 -30.219323 35.149533 1.465612 2.605549 0.015656 -0.007049 -140586.000000 0 0 1
-2.619209 -16.850302 -29.582473 34.145507 1.416590 2.618674 0.023717 -0.012259 -449270.000000 0 0 1
-2.244209 -15.559502 -30.017573 33.884941 1.427550 2.659157 0.025114 -0.016525 53208.900000 0 0 1
-3.301009 -14.503902 -29.640563 33.163576 1.347014 2.676475 0.022362 -0.006980 86652.100000 0 0 1
-3.183409 -14.271902 -28.223163 31.786289 1.351335 2.663564 0.018094 -0.012799 -33019.000000 0 0 1
-3.994509 -13.183702 -27.825183 31.048460 1.276600 2.681893 0.013931 -0.013156 -48438.500000 0 0 1
-4.092709 -12.969902 -26.321833 29.627816 1.265131 2.664680 0.011289 -0.013193 -584074.000000 0 0 1
-4.835809 -13.876802 -25.586993 29.506692 1.235475 2.620265 0.013522 -0.007643 -91750.100000 0 0 1
-4.639409 -13.814202 -24.226303 28.271364 1.246788 2.600061 0.005303 -0.001142 -512231.000000 0 0 1
-5.578809 -12.880102 -23.444603 27.325255 1.162056 2.602126 0.012662 -0.009379 44410.200000 0 0 1
-6.965109 -13.183002 -23.612703 27.926045 1.084735 2.578380 0.006010 -0.010354 238190.000000 0 0 1
-7.683809 -12.142602 -22.965903 27.090891 1.006609 2.582497 -0.000446 -0.014941 567940.000000 0 0 1
-9.186309 -12.070002 -23.417703 27.900932 0.920238 2.566820 0.014208 -0.015252 963696.000000 0 0 1
-10.085209 -13.027702 -22.874603 28.190068 0.912026 2.517411 0.012252 -0.011031 -3484.080000 0 0 1
-10.236409 -14.154502 -23.659803 29.409527 0.944675 2.505620 -0.000438 -0.010074 -517257.000000 0 0 1
-11.191209 -15.186302 -23.043403 29.780284 0.935714 2.455584 0.003523 -0.012665 -685906.000000 0 0 1
-10.792209 -15.828802 -21.856303 29.064079 0.972384 2.421893 0.010159 -0.002903 -539430.000000 0 0 1
-11.545609 -16.967402 -21.464303 29.696971 0.973306 2.378609 0.008171 0.005911 -170507.000000 0 0 1
-11.835009 -18.096402 -22.426103 31.152484 0.991616 2.374428 0.000235 0.008829 98412.700000 0 0 1
-12.948009 -17.764002 -23.247303 31.994496 0.940943 2.384161 -0.000166 0.004507 -65650.800000 0 0 1
-13.319009 -18.851302 -24.039403 33.326573 0.955701 2.376515 0.000476 0.003441 -460736.000000 0 0 1
-14.354409 -18.410302 -25.052303 34.243337 0.908560 2.391457 0.002077 -0.004545 533717.000000 0 0 1
-15.477909 -17.752102 -24.407903 33.918262 0.853730 2.374036 0.022876 -0.007274 816875.000000 0 0 1
-16.479709 -17.342602 -25.309683 34.827097 0.810905 2.384337 0.036291 -0.016219 433821.000000 0 0 1
-17.294309 -16.063402 -24.949703 34.345504 0.748515 2.383913 0.030959 -0.013160 52357.500000 0 0 1
-18.064209 -16.101502 -23.778403 33.926191 0.728015 2.347436 0.047085 -0.018419 59699.300000 0 0 1
-18.890909 -14.951402 -23.750403 33.830349 0.669512 2.349060 0.045722 -0.021594 291225.000000 0 0 1
-19.790009 -14.763202 -22.513103 33.413117 0.640931 2.310109 0.040594 -0.028338 519325.000000 0 0 1
-18.977609 -14.325102 -21.404203 31.992157 0.646593 2.303720 0.046505 -0.019807 591724.000000 0 0 1
-19.526309 -14.702302 -20.146003 31.674846 0.645385 2.260133 0.047177 -0.019609 -187143.000000 0 0 1
-20.159009 -13.574702 -19.325603 31.050557 0.592637 2.242591 0.056360 -0.024538 -575076.000000 0 0 1
-21.336009 -13.100302 -19.907403 31.986683 0.550650 2.242557 0.050343 -0.032486 -528770.000000 0 0 1
-21.908709 -12.208602 -19.017603 31.475557 0.508391 2.219561 0.049960 -0.028482 21784.000000 0 0 1
-23.358309 -11.732702 -19.278703 32.479767 0.465480 2.206272 0.052797 -0.024875 235810.000000 0 0 1
-23.512609 -10.883702 -20.396203 32.974275 0.433520 2.237691 0.047911 -0.030560 570680.000000 0 0 1
-24.889009 -10.672102 -20.742703 34.111820 0.405075 2.224436 0.046599 -0.026638 665667.000000 0 0 1
-25.278939 -9.789402 -21.929903 34.868005 0.369471 2.250986 0.039014 -0.020130 -216344.000000 0 0 1
-24.988309 -10.400402 -23.121803 35.597777 0.394403 2.277762 0.031931 -0.021683 298933.000000 0 0 1
-25.806299 -9.834202 -24.136703 36.677745 0.364088 2.289055 0.014030 -0.014713 -133301.000000 0 0 1
-25.774089 -10.482202 -25.544393 37.771632 0.386265 2.313504 0.012271 -0.014243 -683871.000000 0 0 1
-24.682509 -10.085902 -26.288363 37.443687 0.387920 2.349107 0.004735 -0.010880 -1317790.000000 0 0 1
-23.831509 -11.151202 -26.430503 37.294257 0.437655 2.358453 0.016140 -0.014088 -789640.000000 0 0 1
-22.876209 -10.889202 -27.623253 37.482526 0.444268 2.399363 0.013434 -0.017885 -102092.000000 0 0 1
-23.365209 -11.104702 -28.912873 38.796928 0.443666 2.411685 0.012802 -0.006348 240891.000000 0 0 1
-22.270609 -10.895202 -29.791073 38.758141 0.454986 2.447509 0.017419 -0.000362 461754.000000 0 0 1
-22.642509 -11.176702 -31.248183 40.175251 0.458527 2.461949 0.005893 -0.000197 -17979.700000 0 0 1
-23.548109 -10.241602 -31.780843 40.858608 0.410245 2.461994 0.000594 -0.000720 210351.000000 0 0 1
-22.980709 -9.433402 -32.839493 41.176867 0.389519 2.493974 -0.000615 -0.006665 -678154.000000 0 0 1
-23.918209 -8.304202 -33.249043 41.791618 0.334171 2.490779 -0.012835 -0.011825 -318355.000000 0 0 1
-24.966009 -8.567602 -34.185609 43.189828 0.330578 2.484088 0.007333 -0.013815 1896430.000000 0 0 1
-26.143009 -9.231602 -33.638583 43.591669 0.339451 2.452266 0.009770 -0.014724 501077.000000 0 0 1
-27.036059 -8.563002 -32.575703 43.190854 0.306730 2.425272 0.020789 -0.006786 -1596550.000000 0 0 1
-28.331469 -9.027302 -32.702853 44.200010 0.308461 2.403693 0.031955 -0.010209 -735366.000000 0 0 1
-29.143069 -8.503402 -31.661243 43.864115 0.283900 2.377200 0.031962 -0.008991 1008260.000000 0 0 1
-30.674519 -8.835702 -31.813393 45.067590 0.280455 2.354495 0.024284 -0.013639 770995.000000 0 0 1
-30.964709 -10.186702 -31.670353 45.448799 0.317825 2.341773 0.018968 -0.013161 1160180.000000 0 0 1
-32.382999 -10.459602 -31.682093 46.495343 0.312419 2.320475 0.010096 -0.012762 862488.000000 0 0 1
-32.676899 -11.994002 -31.688753 47.072421 0.351781 2.309313 0.017845 -0.010389 -96587.500000 0 0 1
-33.987789 -12.511102 -31.904673 48.265988 0.352713 2.292971 0.020515 -0.005891 490514.000000 0 0 1
-33.898669 -13.917102 -31.917763 48.595772 0.389568 2.287365 0.025138 -0.014360 31801.800000 0 0 1
-35.159702 -14.611902 -31.367803 49.332052 0.393870 2.259906 0.016747 -0.022408 -10536.300000 0 0 1
-35.317247 -14.592402 -29.987073 48.574383 0.391817 2.236158 0.018577 -0.021299 -123275.000000 0 0 1
35.584772 -15.838902 -29.636493 48.943524 -0.418774 2.221221 0.011414 -0.022499 52892.000000 0 0 1
35.580493 -16.076702 -28.105793 48.107873 -0.424383 2.194720 0.016919 -0.013090 -357348.000000 0 0 1
-34.587774 -16.128302 -27.608583 47.102761 0.436327 2.197077 0.027753 -0.023445 -266459.000000 0 0 1
-34.670382 -16.281402 -26.227003 46.421709 0.439038 2.171197 0.032027 -0.018219 843438.000000 0 0 1
-33.374519 -15.869002 -25.417323 44.852247 0.443842 2.173279 0.054046 -0.015437 1194620.000000 0 0 1
-32.214199 -16.654502 -25.704303 44.450402 0.477149 2.187402 0.059369 -0.023287 296922.000000 0 0 1
-31.135279 -16.270802 -24.887403 43.052612 0.481551 2.187157 0.066282 -0.005503 556934.000000 0 0 1
-29.832779 -17.132602 -25.060403 42.562243 0.521299 2.200363 0.045099 -0.013502 441510.000000 0 0 1
-29.792599 -18.426002 -24.478503 42.735390 0.553894 2.180705 0.051219 -0.022227 270467.000000 0 0 1
-30.377819 -19.507502 -25.303933 44.086773 0.570846 2.182127 0.046992 -0.030958 63468.700000 0 0 1
-30.155739 -20.974202 -24.827603 44.336166 0.607719 2.165164 0.041420 -0.036643 -330139.000000 0 0 1
-28.840719 -21.410302 -24.602003 43.536727 0.638596 2.171334 0.037604 -0.018419 -373804.000000 0 0 1
-28.800159 -22.546402 -23.772903 43.622704 0.664200 2.147145 0.033024 -0.010665 47296.000000 0 0 1
-27.443789 -23.309702 -23.605203 43.054725 0.704123 2.151079 0.023346 -0.009910 991488.000000 0 0 1
-26.322549 -22.603702 -23.048203 41.653614 0.709535 2.157153 0.015814 -0.019424 460737.000000 0 0 1
-26.427729 -22.228402 -21.696503 40.783145 0.699305 2.131753 0.035259 -0.022510 -577732.000000 0 0 1
-26.341619 -23.340602 -20.623603 40.792126 0.725067 2.100848 0.033083 -0.017949 -89832.200000 0 0 1
-26.434349 -22.790002 -19.295203 39.880620 0.711498 2.075815 0.031531 -0.015291 33117.300000 0 0 1
-26.441149 -23.907002 -18.436903 40.132262 0.735108 2.048120 0.027760 0.010366 -62440.100000 0 0 1
-26.610689 -23.542902 -16.946303 39.364631 0.724306 2.015838 0.025513 0.014307 304532.000000 0 0 1
-27.862399 -22.914102 -16.729903 39.765047 0.688252 2.005034 0.025032 0.004744 -39012.400000 0 0 1
-27.755419 -22.055502 -15.607703 38.735111 0.671463 1.985517 0.027778 0.007884 1177830.000000 0 0 1
-29.147719 -21.475302 -15.114203 39.232859 0.634983 1.966268 0.016862 0.014022 1116720.000000 0 0 1
-29.925879 -20.726402 -16.023603 39.773079 0.605736 1.985453 0.006438 0.014454 -818823.000000 0 0 1
-30.962279 -20.093202 -15.380003 39.986797 0.575642 1.965600 0.024363 0.016702 -830921.000000 0 0 1
-31.897109 -19.476602 -16.446903 40.832147 0.548182 1.985363 0.018573 0.002797 -61560.500000 0 0 1
-32.717709 -20.466802 -17.098703 42.210237 0.559000 1.987867 0.000052 0.010399 201028.000000 0 0 1
-33.250059 -19.942002 -18.331103 42.886818 0.540242 2.012444 0.007732 0.014706 44008.900000 0 0 1
-33.726309 -21.063402 -19.270803 44.187042 0.558268 2.022078 0.005553 0.008976 427839.000000 0 0 1
-34.909330 -21.822302 -19.030303 45.354455 0.558681 2.003791 0.001655 0.013216 94979.800000 0 0 1
-34.856708 -22.587802 -17.824003 45.198384 0.574981 1.976157 0.002046 0.010448 -166831.000000 0 0 1
35.479707 -23.614002 -17.634503 46.123816 -0.587239 1.963113 0.002933 0.023145 -257325.000000 0 0 1
34.157189 -23.156802 -17.554503 44.845419 -0.595772 1.972997 0.010377 0.012172 -605591.000000 0 0 1
33.413619 -24.312202 -17.373203 44.826123 -0.629019 1.968789 0.002223 0.009324 388485.000000 0 0 1
31.910969 -24.151402 -16.955603 43.463693 -0.647862 1.971547 -0.000204 0.004652 806433.000000 0 0 1
30.994909 -23.686402 -17.942403 42.937860 -0.652529 2.001895 0.002522 -0.003150 828512.000000 0 0 1
29.716229 -24.237902 -17.551403 42.173237 -0.684208 2.000030 0.018019 -0.009871 1437390.000000 0 0 1
28.497229 -23.905302 -18.500903 41.543218 -0.697993 2.032352 0.031433 0.002045 647682.000000 0 0 1
28.090869 -22.585102 -18.279403 40.414358 -0.677176 2.040139 0.037901 0.006127 37111.100000 0 0 1
26.923389 -22.179402 -18.950903 39.698003 -0.689084 2.068463 0.024039 -0.008336 -226306.000000 0 0 1
34.404419 29.723298 -18.401103 49.048334 0.712531 1.955369 0.025302 -0.004405 -116759.000000 0 0 1
33.395129 30.068998 -19.304603 48.908557 0.733036 1.976546 0.029153 -0.002388 -409332.000000 0 0 1
33.750829 29.820098 -20.638903 49.541104 0.723645 2.000500 0.024378 0.012891 -267389.000000 0 0 1
32.643939 30.161398 -21.684703 49.452634 0.745891 2.024719 0.020832 0.019654 -272060.000000 0 0 1
31.562009 29.219398 -21.529603 48.098414 0.746876 2.034893 0.026376 0.001895 556054.000000 0 0 1
30.623109 29.239198 -22.598303 47.993633 0.762284 2.061062 0.034678 0.013672 31927.500000 0 0 1
29.674559 30.444698 -22.621903 48.158173 0.798208 2.059795 0.039811 0.010590 -1154730.000000 0 0 1
30.214559 31.722698 -22.907803 49.436996 0.809743 2.052595 0.044863 -0.002208 14322.300000 0 0 1
29.194349 32.710998 -22.847703 49.440236 0.842144 2.051189 0.045871 0.004013 81770.200000 0 0 1
29.751419 34.128298 -22.548103 50.579686 0.853809 2.032857 0.043442 0.001318 262513.000000 0 0 1
30.279959 34.289098 -21.193703 50.416180 0.847409 2.004655 0.048076 -0.013531 236955.000000 0 0 1
31.689699 34.152398 -21.156103 51.168389 0.822784 1.997048 0.047248 -0.015208 -139264.000000 0 0 1
32.217639 34.010598 -19.761903 50.845156 0.812464 1.969982 0.040670 -0.022097 -303649.000000 0 0 1
31.884219 -33.583266 -19.049103 50.073022 -0.811345 1.961054 0.048614 -0.022791 149502.000000 0 0 1
31.998489 -33.733666 -17.677203 49.742809 -0.811790 1.934108 0.027546 -0.029558 -570015.000000 0 0 1
32.026269 -32.354866 -16.981403 48.588963 -0.790502 1.927824 0.024720 -0.007234 534814.000000 0 0 1
33.284699 -31.702466 -17.084303 49.038668 -0.761056 1.926643 0.025531 -0.010840 421399.000000 0 0 1
34.361789 -32.201466 -16.291503 49.830513 -0.752954 1.903858 0.020276 -0.008241 -496371.000000 0 0 1
35.672603 -31.510166 -16.647703 50.423915 -0.723520 1.907264 0.003617 0.003568 -692233.000000 0 0 1
-35.322391 -32.084666 -17.832203 50.941973 0.737403 1.928420 0.011384 -0.001777 -201287.000000 0 0 1
-34.218150 -31.358266 -18.372803 49.917758 0.741814 1.947720 -0.002786 0.003315 384260.000000 0 0 1
-33.191659 -32.190966 -19.145803 50.045043 0.770094 1.963374 -0.005954 -0.006539 -677430.000000 0 0 1
-32.425389 -33.111866 -18.387403 49.858782 0.795872 1.948503 0.001809 -0.001900 475754.000000 0 0 1
-31.301219 -33.593766 -19.105103 49.732408 0.820711 1.965092 -0.011409 0.005934 715388.000000 0 0 1
-30.036049 -32.738066 -19.373703 48.469429 0.828415 1.981996 0.004331 0.005528 -1205370.000000 0 0 1
-30.251629 -31.841266 -20.431903 48.440582 0.810994 2.006218 -0.005935 0.006735 -571534.000000 0 0 1
-29.169869 -31.242366 -21.081903 47.659347 0.819691 2.029009 0.006754 0.007317 -1000670.000000 0 0 1
-28.378729 -32.261466 -21.870803 48.212928 0.849340 2.041630 0.001384 0.012207 -1064810.000000 0 0 1
-29.122019 -33.078866 -22.731603 49.588599 0.848927 2.046995 0.001866 0.014899 -189431.000000 0 0 1
-28.349039 -34.113466 -23.370303 50.135493 0.877424 2.055722 0.003339 0.006012 204330.000000 0 0 1
-29.085949 33.902898 -24.510403 50.952515 -0.861723 2.072642 -0.000715 -0.006120 -400861.000000 0 0 1
-30.068249 32.990298 -24.046603 50.702056 -0.831704 2.064934 -0.002521 -0.007169 49862.700000 0 0 1
-30.585489 32.207398 -25.115523 51.025269 -0.811222 2.085432 -0.000510 -0.004908 1372.780000 0 0 1
-31.589239 32.800898 -26.107873 52.491904 -0.804213 2.091360 0.000487 -0.017543 -145277.000000 0 0 1
-30.935809 33.733398 -26.991593 53.136734 -0.828631 2.103617 -0.003285 -0.020822 581981.000000 0 0 1
-31.989749 -34.192966 -27.444993 54.274585 0.818676 2.100954 -0.006835 -0.023783 597698.000000 0 0 1
-31.550109 -33.127766 -28.481553 53.889304 0.809786 2.127652 0.004521 -0.021955 139421.000000 0 0 1
-31.223879 -33.714766 -29.748393 54.741054 0.823737 2.145324 0.007479 -0.017751 600296.000000 0 0 1
-32.360909 -33.815366 -30.609753 55.925525 0.807373 2.149968 0.015360 -0.016528 302056.000000 0 0 1
-31.993109 34.139798 -31.886023 56.619814 -0.817847 2.169001 0.016274 -0.008264 -213508.000000 0 0 1
-31.226649 -34.108866 -32.928503 56.769751 0.829484 2.189569 0.019917 -0.018232 -117563.000000 0 0 1
-31.444639 33.900098 -34.148304 57.481202 -0.822957 2.206915 0.008060 -0.020636 -151432.000000 0 0 1
-30.415379 34.231498 33.477287 56.724064 -0.844360 0.939517 0.009082 -0.018328 127473.000000 0 0 1
-29.100629 33.768398 33.528584 55.779183 -0.859508 0.925926 0.019713 -0.011278 -429012.000000 0 0 1
-28.876039 32.430198 33.116406 54.609886 -0.843307 0.919249 0.022549 -0.015420 -1064800.000000 0 0 1
-27.437019 31.986498 33.146759 53.615610 -0.861809 0.904308 0.024661 -0.008818 -1377040.000000 0 0 1
-27.071699 31.601998 -34.241646 53.889271 -0.862457 2.259332 0.027774 -0.009857 271328.000000 0 0 1
-25.725199 31.171898 -34.108321 52.885259 -0.880836 2.271754 0.036888 -0.006339 96374.000000 0 0 1
-25.375049 29.791698 34.033291 51.862349 -0.865288 0.854993 0.040527 -0.021340 -625408.000000 0 0 1
-25.578569 28.781998 -33.746123 51.200268 -0.844259 2.290418 0.041760 -0.020010 158709.000000 0 0 1
-25.040109 27.557998 -34.154293 50.526884 -0.833232 2.313067 0.038454 -0.026675 -369293.000000 0 0 1
-25.095139 26.430098 -33.111023 49.240795 -0.811301 2.308284 0.046393 -0.029877 -180135.000000 0 0 1
-24.147809 26.486898 -32.018333 48.060858 -0.831561 2.299903 0.055425 -0.023387 161051.000000 0 0 1
-24.226109 27.614898 -31.109833 48.138432 -0.850674 2.273467 0.052704 -0.018195 -233626.000000 0 0 1
-23.005109 27.866798 -30.201613 47.094914 -0.880676 2.266978 0.068690 -0.018412 147432.000000 0 0 1
-21.838409 28.288798 -30.888053 47.236046 -0.913375 2.283535 0.053777 -0.012053 614391.000000 0 0 1
-20.582209 28.163098 -30.219373 46.151900 -0.939683 2.284689 0.049744 -0.011700 773776.000000 0 0 1
-20.244209 29.258198 -29.167273 46.006521 -0.965517 2.257487 0.036478 -0.000296 -512391.000000 0 0 1
-19.847109 30.460298 -29.772923 46.991110 -0.993316 2.256976 0.030081 0.011099 135096.000000 0 0 1
-19.547909 31.516198 -28.857443 46.990887 -1.015620 2.232051 0.030297 0.006191 -130365.000000 0 0 1
-19.112109 32.800698 -29.552213 48.109165 -1.043214 2.232262 0.032349 0.011715 372648.000000 0 0 1
-17.896309 32.675198 -30.286133 48.012460 -1.069718 2.253377 0.036922 0.007669 43572.200000 0 0 1
-17.663009 33.929498 -30.948653 49.203779 -1.090821 2.251049 0.043925 0.018855 149897.000000 0 0 1
-16.270509 34.114298 -31.594203 49.261633 -1.125765 2.267060 0.038591 0.015957 -1183540.000000 0 0 1
-15.263609 -34.379066 -30.693103 48.548579 1.152960 2.255204 0.042986 0.005286 -718563.000000 0 0 1
-14.025009 -34.169966 -31.367503 48.458309 1.181315 2.274845 0.051918 0.004683 515057.000000 0 0 1
-13.274009 33.219598 -31.426883 47.617119 -1.190649 2.291603 0.057474 0.000137 -962939.000000 0 0 1
-12.900909 32.868698 -30.136103 46.421649 -1.196774 2.277305 0.059923 -0.009392 -52251.500000 0 0 1
-12.689209 31.481498 -29.920313 45.247385 -1.187647 2.293294 0.048382 -0.002483 -245984.000000 0 0 1
-12.520409 31.022598 -28.474163 43.931084 -1.187199 2.275956 0.044853 -0.009956 546460.000000 0 0 1
-11.243209 31.355398 -27.912423 43.458878 -1.226504 2.268255 0.039126 -0.006622 517910.000000 0 0 1
-11.131809 30.850898 -26.600423 42.228871 -1.224510 2.252235 0.020734 -0.008936 -650262.000000 0 0 1
-9.748809 31.100898 -26.057833 41.729076 -1.267039 2.245227 0.014211 -0.004623 -174403.000000 0 0 1
-8.665409 30.406498 -26.680313 41.370080 -1.293171 2.271712 0.029383 -0.002879 801475.000000 0 0 1
-7.400209 30.949398 -26.333213 41.304557 -1.336096 2.262094 0.034716 -0.012647 1123110.000000 0 0 1
-6.121309 30.133998 -26.767543 40.767997 -1.370387 2.287075 0.016547 -0.007142 518820.000000 0 0 1
-5.936509 28.990398 -25.958673 39.364172 -1.368814 2.290882 0.018549 -0.012434 803419.000000 0 0 1
-4.799409 28.164498 -26.336213 38.857038 -1.402011 2.315525 0.018664 -0.017883 851261.000000 0 0 1
-4.464309 27.006498 -25.326163 37.292030 -1.406973 2.317374 0.016673 -0.019283 -598114.000000 0 0 1
-5.393809 25.983298 -25.312033 36.673205 -1.366116 2.332569 0.028987 -0.014273 -423744.000000 0 0 1
-4.952609 24.886198 -24.609803 35.348177 -1.374353 2.340902 0.017711 -0.022258 -260806.000000 0 0 1
-5.991309 23.727698 -24.719803 34.784596 -1.323464 2.361223 0.030505 -0.017229 182116.000000 0 0 1
-5.776809 22.833898 -25.861253 34.979463 -1.323003 2.402866 0.033658 -0.012719 700134.000000 0 0 1
-6.588809 21.637198 -25.699653 34.235258 -1.275204 2.419884 0.036642 -0.018587 9896.030000 0 0 1
-6.518409 20.718098 -26.901823 34.575097 -1.265978 2.462383 0.032081 -0.008931 45123.600000 0 0 1
-5.363609 19.944598 -27.183913 34.139719 -1.308086 2.491875 0.040038 -0.015991 -207661.000000 0 0 1
-5.135309 18.917698 -26.288313 32.792165 -1.305729 2.500871 0.041628 -0.020633 -240130.000000 0 0 1
-3.943109 18.001498 -26.623633 32.379312 -1.355159 2.536136 0.036108 -0.022819 130136.000000 0 0 1
-4.116809 17.519998 -27.976743 33.265547 -1.340005 2.569948 0.039091 -0.028291 289190.000000 0 0 1
-3.020809 16.694498 -28.336233 33.026862 -1.391787 2.602111 0.040662 -0.024690 2107.490000 0 0 1
-2.773509 16.521998 -29.827553 34.210403 -1.404479 2.629836 0.051716 -0.030302 -220589.000000 0 0 1
-2.312209 17.699598 -30.397893 35.251297 -1.440896 2.610630 0.063845 -0.035426 18303.000000 0 0 1
-2.013009 17.559098 -31.746423 36.334687 -1.456653 2.633599 0.066038 -0.032229 -310681.000000 0 0 1
-1.025109 18.612098 -32.271173 37.267810 -1.515774 2.617796 0.074152 -0.025338 -1371890.000000 0 0 1
0.204391 18.595598 -31.672613 36.728633 1.559805 2.610672 0.079301 -0.032836 -1196420.000000 0 0 1
1.011791 19.657898 -32.142073 37.690443 1.519372 2.592103 0.077643 -0.012680 118024.000000 0 0 1
0.795091 21.053198 -31.390573 37.805256 1.533048 2.550483 0.071399 -0.010343 104308.000000 0 0 1
1.695991 21.200698 -30.294063 37.014541 1.490969 2.529482 0.077146 -0.028927 10534.700000 0 0 1
1.352291 22.292698 -29.496423 36.997730 1.510210 2.493521 0.077917 -0.027494 97198.600000 0 0 1
2.372991 22.541498 -28.373703 36.315523 1.465911 2.467559 0.079367 -0.021119 -496724.000000 0 0 1
3.614891 22.965198 -28.795133 37.008478 1.414670 2.462382 0.066392 -0.019232 -907813.000000 0 0 1
4.598891 23.048098 -27.790573 36.396161 1.373848 2.439601 0.063179 -0.020316 140431.000000 0 0 1
5.047691 24.496798 -27.367183 37.074722 1.367585 2.401139 0.071418 -0.016973 215924.000000 0 0 1
5.868491 25.108598 -28.385903 38.348929 1.341194 2.404165 0.060832 -0.016826 427746.000000 0 0 1
6.062791 26.463398 -28.119783 39.086968 1.345582 2.373757 0.049342 -0.017019 -327032.000000 0 0 1
6.925491 27.095998 -29.211773 40.441108 1.320563 2.377960 0.044965 -0.018842 -862671.000000 0 0 1
8.272391 26.747998 -29.149403 40.417515 1.270856 2.376340 0.021378 -0.013115 -752433.000000 0 0 1
8.932391 27.440398 -30.193583 41.766201 1.256094 2.378814 0.029636 -0.018506 194619.000000 0 0 1
10.468291 27.505798 -29.999563 42.025324 1.207138 2.365770 0.022450 -0.016114 195771.000000 0 0 1
11.130791 28.382598 -30.889023 43.400439 1.197058 2.362742 0.029233 -0.020315 50543.100000 0 0 1
12.421291 28.680998 -30.385213 43.590702 1.162098 2.342081 0.023986 -0.021729 115341.000000 0 0 1
13.138791 29.807098 -31.157423 45.076334 1.155624 2.333965 0.037871 -0.016963 -260155.000000 0 0 1
12.620391 31.046698 -30.916523 45.596087 1.184702 2.315906 0.038824 -0.014738 26723.500000 0 0 1
13.482991 31.982098 -31.508143 46.876526 1.171827 2.307908 0.069763 -0.020297 103857.000000 0 0 1
12.822691 33.389798 -31.695053 47.789919 1.204132 2.295904 0.081187 -0.027808 -671368.000000 0 0 1
11.756691 33.354298 -32.556173 48.069048 1.231915 2.314855 0.063856 -0.022714 -692772.000000 0 0 1
10.848991 -34.370166 -32.264893 48.373880 -1.265043 2.300958 0.064861 -0.018072 268532.000000 0 0 1
9.640691 -34.335266 -33.238563 48.750954 -1.297064 2.321021 0.051308 -0.011508 238799.000000 0 0 1
10.041291 -33.758266 34.257836 49.132956 -1.281683 0.799246 0.053103 -0.003534 673831.000000 0 0 1
8.933191 -33.712966 33.357751 48.260807 -1.311771 0.807651 0.047759 -0.006418 370424.000000 0 0 1
9.213491 -32.761466 32.171218 46.831499 -1.296648 0.813503 0.055238 -0.002118 1049.450000 0 0 1
9.040291 -31.375966 32.359938 45.971118 -1.290267 0.789896 0.042505 -0.007107 120094.000000 0 0 1
9.313991 -30.714666 31.112188 44.700217 -1.276367 0.800959 0.066226 -0.008566 -285149.000000 0 0 1
8.946591 -29.211566 31.181358 43.653570 -1.273598 0.775186 0.043964 -0.018082 378150.000000 0 0 1
7.578591 -28.814066 31.197718 43.139113 -1.313604 0.762388 0.016650 -0.001110 338789.000000 0 0 1
7.017491 -28.843166 32.485258 44.005288 -1.332135 0.740380 0.010311 0.010161 -339244.000000 0 0 1
5.491291 -28.608666 32.477298 43.627800 -1.381158 0.731134 0.002154 0.006037 680324.000000 0 0 1
4.519591 -29.613566 32.095388 43.903347 -1.419346 0.750942 0.014785 -0.006350 721858.000000 0 0 1
4.613291 -30.176666 30.776428 43.348612 -1.419095 0.781334 0.022356 -0.007734 -547281.000000 0 0 1
4.162291 -29.225466 29.619028 41.817931 -1.429328 0.783730 0.002989 -0.010221 496148.000000 0 0 1
2.787191 -29.458066 29.281958 41.629066 -1.476462 0.790624 0.022195 -0.022349 910949.000000 0 0 1
2.477291 -28.716166 28.108998 40.260041 -1.484741 0.797936 0.029326 -0.026362 196438.000000 0 0 1
1.114291 -29.127066 27.469518 40.052491 -1.532559 0.815042 0.020430 -0.024733 279770.000000 0 0 1
1.083691 -30.387066 26.769378 40.511082 -1.535149 0.848924 0.024324 -0.024945 45854.500000 0 0 1
0.848091 -31.469166 27.604718 41.869417 -1.543853 0.850902 0.050312 -0.029112 -1065880.000000 0 0 1
1.210191 -32.906266 27.040768 42.608568 -1.534036 0.883264 0.049030 -0.025599 275693.000000 0 0 1
2.590391 -33.202766 26.896948 42.808639 -1.492937 0.891422 0.038815 -0.020674 401248.000000 0 0 1
3.271391 -32.468266 25.902228 41.663122 -1.470379 0.899877 0.030215 -0.026962 -517352.000000 0 0 1
4.794791 -32.724966 25.915298 42.018045 -1.425314 0.906169 0.039289 -0.018760 191243.000000 0 0 1
5.487691 -32.100566 24.853168 40.966340 -1.401480 0.918928 0.038076 -0.028869 105528.000000 0 0 1
6.889791 -32.125666 24.863098 41.203171 -1.359533 0.923005 0.047212 -0.032795 -398962.000000 0 0 1
7.523491 -31.581766 23.562268 40.114727 -1.336933 0.942989 0.033028 -0.024700 289374.000000 0 0 1
8.871791 -31.196566 23.811348 40.235739 -1.293727 0.937511 0.019476 -0.021713 179806.000000 0 0 1
9.522891 -30.750366 22.687268 39.382516 -1.270479 0.956878 0.021118 -0.016887 -41957.700000 0 0 1
10.722891 -29.814566 23.048168 39.180439 -1.225548 0.941895 0.014469 -0.012965 528597.000000 0 0 1
11.840091 -30.486366 23.652868 40.361670 -1.200353 0.944654 0.029793 -0.020923 -171877.000000 0 0 1
12.883891 -29.567066 23.601768 39.965604 -1.159854 0.939054 0.042266 -0.020608 -883393.000000 0 0 1
14.267591 -30.163266 23.940498 41.067435 -1.128971 0.948435 0.069870 -0.022273 -440439.000000 0 0 1
14.522291 -30.609366 25.278858 42.271159 -1.127805 0.929772 0.072772 -0.031078 186543.000000 0 0 1
14.708591 -29.525766 26.203138 42.127401 -1.108621 0.899505 0.057681 -0.031193 -505768.000000 0 0 1
-10.641409 -14.259002 26.211788 31.679907 0.929671 0.596344 0.045061 -0.022761 -872234.000000 0 0 1
-9.279509 -14.068502 26.050918 31.027123 0.987706 0.574218 0.042807 -0.019961 -1772990.000000 0 0 1
-8.579309 -14.683102 27.033358 31.937446 1.042002 0.561519 0.040837 -0.026393 -380850.000000 0 0 1
-7.067709 -14.435002 26.774048 31.227735 1.115485 0.540638 0.040549 -0.014437 347160.000000 0 0 1
-6.333309 -15.220102 25.826788 30.639603 1.176476 0.568106 0.039275 -0.017852 529777.000000 0 0 1
-6.846909 -14.944402 24.504758 29.507600 1.141178 0.590871 0.050379 -0.012359 -599704.000000 0 0 1
-6.144409 -15.828302 23.439568 28.943086 1.200511 0.626899 0.064807 -0.021158 90903.600000 0 0 1
-6.596409 -17.193802 23.302768 29.701152 1.204463 0.668787 0.070145 -0.019276 -149559.000000 0 0 1
-6.543609 -18.033202 24.472918 31.095641 1.222707 0.664831 0.059538 -0.018595 -309605.000000 0 0 1
-7.214309 -19.397402 24.270608 31.896204 1.214727 0.706059 0.068623 -0.018561 -739830.000000 0 0 1
-8.602409 -19.294602 24.257728 32.167071 1.151403 0.716488 0.062452 -0.013619 -843336.000000 0 0 1
-9.124809 -20.575202 23.863378 32.803382 1.153373 0.756173 0.062564 -0.016446 -383756.000000 0 0 1
-10.634609 -20.800502 23.856748 33.390121 1.098176 0.774908 0.045278 -0.015489 -304924.000000 0 0 1
-11.193609 -20.721302 25.173628 34.472899 1.075510 0.752117 0.047921 -0.019703 249339.000000 0 0 1
-12.583509 -21.009402 25.104798 35.071221 1.031152 0.772994 0.056891 -0.015949 367827.000000 0 0 1
-13.330609 -20.893502 26.449768 36.246845 1.002884 0.752895 0.053006 -0.017920 -537599.000000 0 0 1
-13.238509 -21.948502 27.350098 37.483632 1.028055 0.752980 0.054834 -0.011623 626078.000000 0 0 1
-12.046509 -21.961002 28.165348 37.692052 1.069074 0.726884 0.061206 -0.018275 662467.000000 0 0 1
-11.771909 -23.353402 28.732998 38.852855 1.103893 0.738419 0.054504 -0.016791 -257900.000000 0 0 1
-12.758609 -23.911002 29.567408 40.109222 1.080641 0.741920 0.055352 -0.014517 -77961.000000 0 0 1
-12.373809 -25.167842 30.081818 41.127207 1.113850 0.750375 0.055326 -0.013333 398022.000000 0 0 1
-13.331109 -25.627612 31.261448 42.564904 1.091131 0.745952 0.050439 -0.011791 749602.000000 0 0 1
-13.313509 -24.750502 32.368258 42.866548 1.077284 0.714999 0.056413 -0.009218 -707251.000000 0 0 1
-14.385509 -25.000702 33.214937 43.991022 1.048658 0.715083 0.047142 -0.010761 -684778.000000 0 0 1
-14.309209 -24.353402 -34.147572 44.315892 1.039570 2.450499 0.044777 -0.012538 -41223.800000 0 0 1
-14.313609 -22.962302 -34.075433 43.511858 1.013383 2.470479 0.038346 -0.007996 282246.000000 0 0 1
-15.573209 -22.402602 34.285445 43.816585 0.963332 0.672163 0.037547 -0.011754 183243.000000 0 0 1
-15.737109 -20.879102 -34.074363 42.949455 0.924915 2.487104 0.027073 -0.009705 -158515.000000 0 0 1
-15.674209 -20.662502 -32.685433 41.724781 0.921825 2.470846 0.018099 -0.004009 162018.000000 0 0 1
-15.874809 -19.292402 -32.386853 40.903723 0.882275 2.484518 0.015083 -0.007297 -313441.000000 0 0 1
-15.969909 -19.038902 -30.834073 39.601235 0.872838 2.463250 0.018301 -0.002166 197784.000000 0 0 1
-17.171409 -19.280202 -30.097493 39.654036 0.843186 2.432575 0.015906 -0.004312 343467.000000 0 0 1
-17.010809 -19.116602 -28.691133 38.444677 0.843620 2.413277 0.015383 -0.006687 -230613.000000 0 0 1
-16.328009 -20.296502 -27.991723 38.237265 0.893333 2.392128 0.006446 0.004022 484534.000000 0 0 1
-14.921009 -20.231002 -28.244683 37.811269 0.935323 2.414321 0.000687 0.006084 357102.000000 0 0 1
-14.212209 -21.332902 -27.723083 37.757766 0.983109 2.395336 -0.008152 0.009985 -1400200.000000 0 0 1
-12.751309 -21.231202 -27.969423 37.358378 1.029941 2.416863 0.020833 0.000160 -1802600.000000 0 0 1
-12.152109 -20.256202 -27.142093 35.981671 1.030435 2.425431 0.017456 -0.003456 -674240.000000 0 0 1
-10.765509 -20.223302 -27.224403 35.581543 1.081619 2.442035 0.002302 -0.014835 -215859.000000 0 0 1
-9.974609 -21.167902 -26.236873 35.156029 1.130442 2.413279 0.028382 -0.009041 -230510.000000 0 0 1
-9.949309 -22.530602 -26.681973 36.311767 1.154957 2.396172 0.031526 -0.016026 177228.000000 0 0 1
-9.667409 -23.418502 -25.631423 36.039629 1.179295 2.362002 0.042857 -0.016779 -298021.000000 0 0 1
-9.792709 -24.908102 -26.055073 37.352075 1.196206 2.342774 0.044721 -0.016879 -117542.000000 0 0 1
-8.650909 -25.235082 -26.846383 37.846742 1.240539 2.359364 0.046286 -0.020682 363930.000000 0 0 1
-8.713109 -26.406192 -27.588723 39.170689 1.252081 2.352262 0.041533 -0.023423 -186870.000000 0 0 1
-8.530109 -27.703352 -26.724933 39.426647 1.272100 2.315616 0.037510 -0.021248 -164112.000000 0 0 1
-9.629109 -28.057352 -25.905253 39.382951 1.240198 2.288662 0.041701 -0.025647 -21728.600000 0 0 1
-9.440409 -29.291502 -25.192213 39.771359 1.259016 2.256769 0.064258 -0.019902 244389.000000 0 0 1
-10.495809 -29.469922 -24.039203 39.452776 1.228650 2.225994 0.061902 -0.022479 420021.000000 0 0 1
-10.304009 -28.520312 -23.067903 38.101298 1.224102 2.221110 0.054264 -0.024199 242583.000000 0 0 1
-11.118509 -27.372392 -23.324203 37.641566 1.184961 2.239080 0.056299 -0.022628 -103125.000000 0 0 1
-11.006709 -26.382362 -22.143403 36.159466 1.175551 2.229866 0.058285 -0.018505 -158416.000000 0 0 1
-11.616409 -26.799182 -20.971703 35.957606 1.161781 2.193501 0.058925 -0.025706 -83134.000000 0 0 1
-11.657309 -25.738642 -20.066803 34.656127 1.145524 2.188330 0.052230 -0.017911 -207720.000000 0 0 1
-12.374209 -26.098812 -18.743603 34.432422 1.128059 2.146421 0.068809 -0.017556 -788732.000000 0 0 1
-13.728509 -26.348022 -18.904103 35.214419 1.090455 2.137470 0.079019 -0.017627 -922425.000000 0 0 1
-14.259509 -26.629412 -17.660003 34.990497 1.079169 2.099841 0.081194 -0.011469 236843.000000 0 0 1
-15.807609 -26.701232 -17.546303 35.647006 1.036267 2.085439 0.082785 -0.016182 -194583.000000 0 0 1
-16.528209 -25.475592 -17.351703 34.975264 0.995275 2.089913 0.071563 -0.012038 1146440.000000 0 0 1
-17.931509 -25.639412 -17.099003 35.655215 0.960491 2.070956 0.085092 -0.013115 1213150.000000 0 0 1
-18.898609 -26.324162 -18.123803 37.129384 0.948145 2.080737 0.079856 -0.010496 -752399.000000 0 0 1
-18.736009 -27.729242 -18.296403 38.140625 0.976582 2.071119 0.087594 -0.011300 141924.000000 0 0 1
-19.248009 -28.516992 -17.198603 38.464225 0.977070 2.034353 0.094268 -0.014822 248074.000000 0 0 1
-20.759609 -28.880012 -17.263703 39.535451 0.947549 2.022683 0.066822 -0.004899 318620.000000 0 0 1
-21.016409 -29.830732 -18.289803 40.817630 0.957042 2.035419 0.062429 -0.001605 -379593.000000 0 0 1
-22.266209 -30.440852 -18.118803 41.841613 0.939268 2.018651 0.049441 0.007126 -156698.000000 0 0 1
-22.559309 -31.556352 -19.217903 43.290340 0.950147 2.030777 0.028573 0.006983 -164395.000000 0 0 1
-21.924709 -32.812072 -19.109603 43.846344 0.981740 2.021758 0.037301 0.004077 -83000.500000 0 0 1
-22.118409 -33.678872 -20.211203 45.077524 0.989695 2.035732 0.025565 0.010900 -234644.000000 0 0 1
-21.456809 33.747384 -19.923003 44.678928 -1.004464 2.032993 0.027719 0.012646 -150901.000000 0 0 1
-22.175109 32.960338 -19.041403 44.053313 -0.978572 2.017767 0.027185 0.007794 -95290.800000 0 0 1
-21.338409 31.890032 -18.652303 42.663922 -0.981094 2.023270 0.020935 -0.000610 169215.000000 0 0 1
-22.145609 30.704382 -18.111803 41.966945 -0.945949 2.017032 0.026220 -0.015692 261633.000000 0 0 1
-22.935709 30.921812 -16.950403 42.065679 -0.932608 1.985535 0.017761 -0.013332 -8230.160000 0 0 1
-23.719709 29.796892 -16.587403 41.540599 -0.898471 1.981556 0.020560 -0.009944 275796.000000 0 0 1
-22.920009 28.475402 -16.205203 39.984797 -0.893071 1.988086 0.015452 -0.017477 169354.000000 0 0 1
-22.452109 27.818152 -17.360603 39.740877 -0.891739 2.022885 0.008336 -0.013061 48033.100000 0 0 1
-21.639909 26.682962 -17.098603 38.374840 -0.889383 2.032605 0.006897 -0.015976 56228.300000 0 0 1
-21.085209 26.020392 -18.362603 38.194660 -0.889786 2.072322 0.022342 -0.018566 -957633.000000 0 0 1
-20.749509 24.680602 -18.134603 36.993757 -0.871714 2.083124 0.015309 -0.018903 -15633.500000 0 0 1
-20.117209 23.936882 -19.224803 36.705170 -0.871886 2.122058 0.011149 -0.004822 -858336.000000 0 0 1
-18.701909 24.356752 -19.536503 36.396260 -0.915980 2.137403 0.011206 -0.014226 -1701320.000000 0 0 1
-17.832409 23.736362 -18.572403 35.019193 -0.926483 2.129809 0.026099 -0.016864 182136.000000 0 0 1
-16.616909 24.470252 -18.555903 34.917566 -0.974259 2.131073 0.041053 -0.028314 -234671.000000 0 0 1
-16.572409 25.692212 -17.545903 35.250436 -0.997918 2.091799 0.034202 -0.019080 -120320.000000 0 0 1
-17.363609 26.802162 -18.009403 36.663189 -0.995939 2.084277 0.023379 -0.016976 125849.000000 0 0 1
-17.321209 27.933232 -17.202003 37.097152 -1.015733 2.052965 0.027856 -0.026684 -237497.000000 0 0 1
-18.247809 29.101572 -17.624303 38.606995 -1.010732 2.044860 0.022977 -0.022949 -83840.800000 0 0 1
-18.080409 29.834082 -18.810303 39.633334 -1.025953 2.065315 0.007132 -0.021181 -100575.000000 0 0 1
-18.283909 29.154932 -20.017903 39.812408 -1.010667 2.097638 0.005169 -0.016840 -81025.000000 0 0 1
-18.236209 29.981302 -21.311503 41.056278 -1.024331 2.116571 0.017471 -0.016511 -304890.000000 0 0 1
-19.285809 30.888042 -21.362003 42.217872 -1.012645 2.101331 0.027739 -0.012595 -448568.000000 0 0 1
-19.510309 30.957322 -22.773103 43.100141 -1.008443 2.127484 0.027354 -0.012151 112915.000000 0 0 1
-20.304809 32.113992 -23.414903 44.630163 -1.006984 2.123092 0.028898 -0.009996 174266.000000 0 0 1
-19.565409 33.344797 -23.285003 45.131719 -1.040169 2.112894 0.013953 -0.006132 521550.000000 0 0 1
-20.037409 34.314697 -24.239703 46.546315 -1.042276 2.118543 0.018204 -0.005985 -138165.000000 0 0 1
-19.128709 -33.229512 -24.239003 45.361186 1.048471 2.134541 0.030374 0.001501 -131874.000000 0 0 1
-19.287909 -32.323302 -23.115203 44.171618 1.032793 2.121520 0.031351 0.000705 112030.000000 0 0 1
-18.856209 -32.832772 -21.870903 43.725095 1.049480 2.094616 0.032066 -0.007875 -324516.000000 0 0 1
-18.581409 -31.810202 -20.699703 42.256779 1.042125 2.082720 0.050383 -0.013428 -541169.000000 0 0 1
-17.387609 -31.133882 -20.865503 41.316059 1.061467 2.100203 0.057807 -0.016432 -648574.000000 0 0 1
-16.995509 -30.286432 -19.794203 39.974063 1.059426 2.088834 0.060837 -0.016835 1013710.000000 0 0 1
-15.708009 -29.481632 -20.256503 39.067046 1.081249 2.115899 0.084537 -0.026500 1436550.000000 0 0 1
-14.460909 -30.154252 -20.159703 39.048821 1.123630 2.113285 0.095462 -0.030716 -27365.800000 0 0 1
-13.410009 -29.416882 -20.711603 38.394684 1.143079 2.140567 0.082328 -0.032522 -397675.000000 0 0 1
-12.085909 -30.206192 -20.858203 38.646447 1.190192 2.140899 0.092212 -0.031275 356279.000000 0 0 1
-11.413909 -30.740592 -19.711503 38.259700 1.215276 2.112041 0.088959 -0.030102 331383.000000 0 0 1
-10.926509 -29.787862 -18.780603 36.870264 1.219225 2.105249 0.071066 -0.030147 -654280.000000 0 0 1
-10.458309 -30.313602 -17.390803 36.479182 1.238579 2.067730 0.056414 -0.014074 176677.000000 0 0 1
-11.454909 -30.825522 -16.501103 36.792854 1.215006 2.035868 0.075526 -0.024733 107239.000000 0 0 1
-11.832109 -32.130552 -16.961603 38.210825 1.217956 2.030737 0.084729 -0.024323 -129289.000000 0 0 1
-12.707509 -32.807722 -15.889903 38.604616 1.201257 1.995012 0.083522 -0.027787 -92868.900000 0 0 1
-12.035509 -33.047792 -14.623603 38.090153 1.221541 1.964835 0.075140 -0.017825 188236.000000 0 0 1
-12.772609 -33.920902 -13.780103 38.777034 1.210675 1.934104 0.070519 -0.012184 -190063.000000 0 0 1
-12.084809 -34.281561 -12.439803 38.418963 1.231882 1.900532 0.060416 -0.003088 24268.300000 0 0 1
-12.324009 -33.224042 -11.516703 37.260604 1.215593 1.885027 0.034095 0.003990 133077.000000 0 0 1
-12.092509 -33.625722 -10.178703 37.155402 1.225576 1.848294 0.034561 0.000475 44794.200000 0 0 1
-10.825209 -33.016592 -9.507803 36.023309 1.253969 1.837896 0.035198 0.001146 -234894.000000 0 0 1
-9.626609 -33.471482 -9.999803 36.235449 1.290748 1.850392 0.028590 0.000839 -1351650.000000 0 0 1
-8.510109 -32.777322 -9.515103 35.175445 1.316771 1.844713 0.025302 -0.002698 -211341.000000 0 0 1
-7.257909 -33.246292 -10.258003 35.541803 1.355861 1.863579 0.021513 -0.009099 -103390.000000 0 0 1
-6.723009 34.252763 -9.804903 36.257231 -1.376984 1.844632 0.006027 -0.001863 -842869.000000 0 0 1
-5.513909 33.959422 -10.388603 35.938401 -1.409833 1.864048 0.013005 -0.001577 -561464.000000 0 0 1
-4.701909 32.856869 -9.629703 34.560281 -1.428659 1.853169 0.012375 -0.004861 184812.000000 0 0 1
-4.240809 33.284038 -8.357803 34.578383 -1.444066 1.814920 0.010698 -0.007224 306319.000000 0 0 1
-3.481909 32.250942 -7.679603 33.335016 -1.463250 1.803261 0.014334 -0.019534 257877.000000 0 0 1
-3.053609 32.714142 -6.301703 33.455210 -1.477724 1.760291 0.017730 -0.018598 -124229.000000 0 0 1
-2.123909 33.799548 -6.265303 34.440883 -1.508040 1.753730 0.012386 -0.013408 134135.000000 0 0 1
-1.859509 34.261380 -4.945603 34.666395 -1.516575 1.713947 0.016211 -0.015325 63556.800000 0 0 1
-0.799709 33.473515 -4.111603 33.734568 -1.546910 1.692981 0.017409 -0.020822 -741876.000000 0 0 1
0.478091 33.559968 -4.653503 33.884438 1.556551 1.708566 0.016026 -0.018488 -175070.000000 0 0 1
1.398291 32.756745 -3.875803 33.014867 1.528135 1.688463 0.013898 -0.022803 1095050.000000 0 0 1
2.917591 32.864573 -4.202003 33.260327 1.482252 1.697472 0.018682 -0.016268 457110.000000 0 0 1
3.545591 34.014335 -3.726903 34.401105 1.466933 1.679346 0.017917 -0.012186 -519793.000000 0 0 1
4.933291 33.917329 -3.924803 34.498213 1.426359 1.684811 0.030888 -0.007193 42902.400000 0 0 1
5.741791 -33.554572 -3.631403 34.235428 -1.401320 1.677068 0.035747 -0.007273 147583.000000 0 0 1
5.496991 -32.503352 -4.587203 33.282536 -1.403261 1.709063 0.035606 -0.005482 -66108.000000 0 0 1
5.659891 -31.221102 -3.921503 31.971390 -1.391460 1.693763 0.037587 -0.011060 -2902.400000 0 0 1
5.689291 -29.989632 -4.862203 30.909336 -1.383316 1.728758 0.034278 -0.007915 -149320.000000 0 0 1
6.862891 -29.836322 -5.633703 31.129471 -1.344711 1.752776 0.046188 -0.003481 -159169.000000 0 0 1
6.796291 -28.724442 -6.528803 30.230918 -1.338466 1.788476 0.030350 0.000204 103371.000000 0 0 1
7.118491 -27.355122 -5.905003 28.876369 -1.316217 1.776742 0.038807 -0.000149 535365.000000 0 0 1
6.111891 -26.932512 -4.994903 28.065361 -1.347642 1.749723 0.043369 -0.009215 285180.000000 0 0 1
6.654291 -25.748462 -4.395703 26.955242 -1.317895 1.734602 0.038779 -0.013419 186109.000000 0 0 1
5.775191 -25.251732 -3.256203 26.107578 -1.345958 1.695844 0.034374 -0.014562 171593.000000 0 0 1
4.654291 -24.561602 -3.814103 25.287983 -1.383522 1.722201 0.038746 -0.020887 -53457.600000 0 0 1
3.930891 -23.921002 -2.780003 24.400710 -1.407924 1.684975 0.034298 -0.015736 -98994.900000 0 1 0
2.750191 -23.118602 -3.333003 23.518976 -1.452393 1.712990 0.034880 -0.016796 781862.000000 0 1 0
1.704391 -23.922302 -3.918403 24.300933 -1.499670 1.732748 0.028991 -0.013628 339047.000000 0 1 0
0.523491 -23.252302 -4.299303 23.652222 -1.548287 1.753584 0.017396 -0.014252 213653.000000 0 1 0
-14.884709 23.150198 18.348268 33.077865 -0.999384 0.982795 0.005490 -0.003168 -50151.900000 0 0 1
-15.243509 22.595898 19.621568 33.584894 -0.977312 0.946856 0.012914 0.000033 419396.000000 0 0 1
-14.899209 23.522398 20.677668 34.682208 -1.006176 0.932032 0.014604 0.010549 -807162.000000 0 0 1
-14.994609 22.862998 22.089468 35.149674 -0.990322 0.891250 0.025710 0.001432 -821088.000000 0 0 1
-13.936309 21.988098 22.344368 34.306966 -1.005886 0.861491 0.022398 0.002340 947882.000000 0 0 1
-12.590809 22.507498 22.475768 34.209298 -1.060761 0.853954 0.008912 0.001712 718653.000000 0 0 1
-12.309409 23.655898 23.456668 35.515325 -1.090999 0.849357 0.026563 0.002660 -1090960.000000 0 0 1
-11.999209 23.060498 24.706458 35.863305 -1.091013 0.810817 0.033039 0.002145 53279.800000 0 0 1
-11.910309 24.004398 25.810378 37.205405 -1.110216 0.804146 0.045944 -0.006934 -220492.000000 0 0 1
-11.393709 23.410098 27.144448 37.612104 -1.117845 0.764549 0.046843 -0.010294 -212251.000000 0 0 1
-10.020109 23.141498 27.082558 37.005357 -1.162175 0.749756 0.026674 -0.012683 -539773.000000 0 0 1
-9.511709 22.578398 28.287178 37.422200 -1.172085 0.713779 0.025466 -0.023391 64035.800000 0 0 1
-7.967109 22.331998 28.186978 36.833391 -1.228114 0.699357 0.011458 -0.017147 884472.000000 0 0 1
-7.190109 23.519898 28.366368 37.543762 -1.274115 0.714296 0.014736 -0.021081 38998.000000 0 0 1
-7.181109 24.379998 27.270588 37.277843 -1.284348 0.750204 0.012167 -0.012865 -464652.000000 0 0 1
-6.055509 25.445598 27.418578 37.893615 -1.337163 0.761840 0.016795 -0.020993 1606860.000000 0 0 1
-4.684409 24.981698 27.358838 37.343472 -1.385435 0.748623 0.025351 -0.021084 1467400.000000 0 0 1
-3.717009 25.919598 27.832748 38.213918 -1.428362 0.754899 0.030831 -0.009587 -61257.000000 0 0 1
-2.295009 25.431898 28.011258 37.903549 -1.480799 0.739191 0.031023 -0.005489 -493720.000000 0 0 1
-1.596409 25.295198 26.802848 36.888863 -1.507769 0.757460 0.032079 -0.018354 -20454.500000 0 0 1
-0.297509 24.727798 26.916148 36.551765 -1.558766 0.743086 0.043791 -0.003551 436576.000000 0 0 1
0.399691 24.605998 25.555448 35.478103 1.554554 0.766538 0.043060 -0.015183 -187039.000000 0 0 1
-0.047209 23.517098 24.773658 34.158312 -1.568789 0.759384 0.043692 -0.011869 -42732.700000 0 0 1
0.584491 23.524198 23.492868 33.251231 1.545955 0.786219 0.052317 -0.010637 -21438.500000 0 0 1
0.322091 22.219998 22.746068 31.799617 1.556302 0.773752 0.026965 -0.007290 95261.500000 0 0 1
0.835991 21.115198 23.418768 31.543449 1.531225 0.734108 0.050818 -0.011087 -260654.000000 0 0 1
0.444391 19.982798 22.735468 30.272284 1.548561 0.721172 0.049066 -0.012142 -287511.000000 0 0 1
1.239191 18.714998 23.005868 29.682599 1.504679 0.683982 0.052752 -0.003692 -464754.000000 0 0 1
2.490891 18.732698 22.367068 29.281466 1.438602 0.701517 0.051564 -0.009489 -479854.000000 0 0 1
3.158991 17.500298 22.588668 28.748697 1.392209 0.666924 0.042627 -0.008613 1259000.000000 0 0 1
4.685891 17.541698 22.131668 28.626552 1.309763 0.687056 0.041040 -0.004750 1344790.000000 0 0 1
5.550791 18.328498 22.943468 29.885579 1.276727 0.695536 0.027635 -0.002151 -615489.000000 0 0 1
6.697691 18.489798 22.144668 29.616178 1.223262 0.726172 0.036715 -0.007155 -551523.000000 0 0 1
7.884391 19.140298 22.872468 30.849059 1.180051 0.735595 0.053235 -0.018079 -480553.000000 0 0 1
7.704491 20.437398 23.492968 32.077499 1.210291 0.748983 0.038188 -0.008303 -202751.000000 0 0 1
7.203591 21.452598 22.677768 32.037273 1.246835 0.784338 0.040608 -0.010095 500641.000000 0 0 1
6.069591 22.217198 23.504268 32.907361 1.304111 0.775236 0.024376 -0.002326 723146.000000 0 0 1
5.536891 23.316298 22.812568 33.086556 1.337646 0.810023 0.025324 -0.003927 -144505.000000 0 0 1
4.470291 23.976598 23.411968 33.808002 1.386469 0.805851 0.012585 -0.004515 -540811.000000 0 0 1
4.198991 25.412298 22.897768 34.463375 1.407041 0.844094 0.024173 -0.004729 -1896.300000 0 0 1
3.958191 25.660298 21.526368 33.726884 1.417749 0.878566 0.026453 -0.014000 -147919.000000 0 0 1
2.710491 25.220198 21.066668 32.972862 1.463734 0.877717 0.029605 -0.014237 -645299.000000 0 0 1
2.465391 25.381398 19.577268 32.149074 1.473966 0.916057 0.034602 -0.017165 -655486.000000 0 0 1
1.910391 26.644398 19.304868 32.958329 1.499219 0.945009 0.038800 -0.021014 228920.000000 0 0 1
1.463391 26.850898 17.964668 32.339473 1.516350 0.981829 0.043680 -0.018803 -243496.000000 0 0 1
0.395891 27.946998 17.888068 33.183948 1.556631 1.001478 0.030268 -0.002798 -212586.000000 0 0 1
0.867491 29.234798 18.307068 34.504705 1.541132 1.011527 0.028389 0.001158 105473.000000 0 0 1
-0.176309 30.165998 18.477068 35.375423 -1.564952 1.021234 0.015426 0.007558 -234366.000000 0 0 1
0.224391 31.538798 19.108568 36.876598 1.563682 1.026079 0.004318 0.010210 -94464.500000 0 0 1
0.497391 31.455898 20.504368 37.551964 1.554985 0.993182 0.010067 0.004757 -115082.000000 0 0 1
0.751691 32.787898 20.924268 38.902908 1.547874 1.002901 -0.001570 -0.001159 121882.000000 0 0 1
1.355891 32.805098 22.357568 39.722459 1.529488 0.972973 0.006248 -0.013795 -570830.000000 0 0 1
0.409991 32.509398 23.292868 39.994834 1.558186 0.949122 0.013754 -0.005019 -535751.000000 0 0 1
0.937091 32.647998 24.579258 40.876764 1.542101 0.925667 0.028218 -0.013222 -17364.100000 0 0 1
-0.154409 32.292898 25.611198 41.216363 -1.566015 0.900288 0.033579 -0.007017 -557917.000000 0 0 1
-1.164309 33.227798 25.713638 42.031338 -1.535770 0.912496 0.035558 -0.006171 250517.000000 0 0 1
-2.065809 33.034498 26.860448 42.626626 -1.508343 0.889072 0.036370 -0.003893 762946.000000 0 0 1
-1.547209 33.629098 28.220648 43.928522 -1.524821 0.873142 0.055563 -0.012923 492966.000000 0 0 1
-0.484109 32.791998 28.761258 43.620631 -1.556034 0.850843 0.059595 -0.012126 935622.000000 0 0 1
0.107691 33.297398 29.958618 44.791150 1.567562 0.838134 0.052889 -0.015142 -51042.300000 0 0 1
1.319391 32.460498 30.491648 44.555194 1.530173 0.817075 0.044372 -0.008143 1204110.000000 0 0 1
2.552491 32.629298 29.758578 44.235272 1.492728 0.832898 0.039210 -0.012605 766622.000000 0 0 1
2.626491 32.152098 28.448418 43.011258 1.489288 0.848089 0.033304 -0.012558 -991363.000000 0 0 1
4.058091 31.814898 28.005438 42.578873 1.443928 0.852994 0.021203 -0.010976 -48630.200000 0 0 1
4.699591 30.812798 28.796858 42.435524 1.419442 0.824938 0.021567 -0.018968 350400.000000 0 0 1
6.030191 30.599498 28.350478 42.147860 1.376221 0.833021 0.009844 -0.024152 206701.000000 0 0 1
6.690791 29.353398 28.987928 41.793404 1.346686 0.804321 0.004792 -0.015724 -58394.900000 0 0 1
7.068091 29.511898 30.331128 42.905563 1.335724 0.785652 0.009283 -0.026223 121501.000000 0 0 1
7.361791 28.281998 30.909928 42.538112 1.316148 0.757377 0.001010 -0.024991 -145434.000000 0 0 1
7.586291 28.395098 32.480708 43.804449 1.309725 0.735503 0.014835 -0.010914 790267.000000 0 0 1
6.298291 28.584798 33.130162 44.208221 1.353925 0.723623 0.025259 -0.015043 826874.000000 0 0 1
6.271191 28.562498 -34.194439 44.993375 1.354665 2.434091 0.032853 -0.012722 -227221.000000 0 0 1
6.372291 27.108998 -33.621773 43.656929 1.339926 2.449851 0.031256 -0.012734 -563631.000000 0 0 1
7.571291 26.456798 -33.891143 43.656571 1.292070 2.459591 0.021385 -0.012534 -325931.000000 0 0 1
7.532091 25.058098 -33.586923 42.576074 1.278803 2.479762 0.019804 -0.008494 534998.000000 0 0 1
8.913691 24.372698 -33.893423 42.687778 1.220182 2.488131 0.010355 -0.004223 528349.000000 0 0 1
9.165791 24.134898 33.468119 42.268428 1.207847 0.657047 0.006959 -0.001847 400553.000000 0 0 1
10.450091 23.542398 33.256133 42.064466 1.153040 0.659009 0.010460 -0.011779 271550.000000 0 0 1
10.651791 21.989998 33.544466 41.500022 1.119712 0.629537 0.013885 -0.015448 -596528.000000 0 0 1
10.119991 21.001698 32.613668 40.089112 1.121761 0.620601 0.021803 -0.014606 275662.000000 0 0 1
9.585891 19.806898 33.180171 39.813644 1.120057 0.585589 0.010204 -0.017129 304782.000000 0 0 1
8.261891 19.841098 33.975557 40.202817 1.176230 0.564037 0.026714 -0.021728 -180138.000000 0 0 1
8.409891 20.713198 -33.667993 40.414064 1.185114 2.555442 0.028293 -0.019478 526618.000000 0 0 1
7.214191 20.635798 -32.861523 39.468473 1.234482 2.554585 0.037501 -0.015295 680484.000000 0 0 1
7.429191 21.168298 -31.437743 38.621515 1.233268 2.521794 0.039151 -0.022098 -605107.000000 0 0 1
7.202991 22.556598 -31.329533 39.271145 1.261702 2.494392 0.036369 -0.013704 -77457.800000 0 0 1
7.677891 23.181998 -30.181293 38.823517 1.250966 2.461314 0.019880 -0.014390 -932675.000000 0 0 1
9.175091 23.284598 -29.990223 39.061084 1.195437 2.446162 0.010513 -0.010289 -796993.000000 0 0 1
9.767591 22.054698 -29.601753 38.184805 1.153879 2.457865 0.013369 -0.019738 -463913.000000 0 0 1
11.172991 22.131498 -29.550133 38.572650 1.103280 2.443532 0.006474 -0.016089 -55284.300000 0 0 1
11.877491 20.810698 -29.183223 37.760038 1.052170 2.454132 0.008743 -0.021260 -178003.000000 0 0 1
11.916891 19.832798 -30.194503 38.040244 1.029739 2.487749 0.008777 -0.021502 -102640.000000 0 0 1
10.705091 19.263098 -30.665153 37.762647 1.063564 2.518452 0.020882 -0.021408 -370176.000000 0 0 1
10.801191 18.215298 -31.760913 38.173530 1.035559 2.553525 0.024822 -0.030788 -762205.000000 0 0 1
11.386091 17.020298 -31.414553 37.499437 0.981200 2.563917 0.023787 -0.027261 -52915.700000 0 0 1
11.555891 16.117898 -32.521963 38.092038 0.948778 2.593986 0.018845 -0.019043 -197337.000000 0 0 1
12.732291 16.283898 -33.515993 39.377638 0.907193 2.588955 0.010327 -0.007910 -338855.000000 0 0 1
12.778791 17.532098 -34.172814 40.477811 0.940950 2.575934 0.016749 -0.014160 13201.700000 0 0 1
13.477291 17.641998 33.342522 40.057474 0.918438 0.587431 0.016866 -0.011359 -3373.220000 0 0 1
12.703391 17.060298 32.130218 38.532854 0.930749 0.584769 0.022810 -0.017625 -544622.000000 0 0 1
13.008791 17.610298 30.869978 37.845829 0.934564 0.616898 0.019551 -0.015861 -330217.000000 0 0 1
12.286691 17.244598 29.727838 36.497716 0.951734 0.618908 0.029226 -0.016222 281675.000000 0 0 1
10.778691 17.668698 29.684408 36.187389 1.023024 0.608866 0.026741 -0.017440 230193.000000 0 0 1
10.034191 16.744698 30.430858 36.153935 1.030932 0.570368 0.029891 -0.015210 -335058.000000 0 0 1
8.724091 17.202198 30.689958 36.247743 1.101445 0.561096 0.037789 -0.014311 265408.000000 0 0 1
7.904691 16.306398 31.661738 36.480795 1.119415 0.519834 0.038492 -0.007821 -99813.300000 0 0 1
8.157391 16.495898 33.057949 37.834979 1.111550 0.507956 0.043805 -0.011384 -67434.500000 0 0 1
7.565991 15.569398 33.906167 38.069391 1.118450 0.472043 0.050656 -0.011817 -424298.000000 0 0 1
7.715691 15.839998 -33.289843 37.664985 1.117520 2.654806 0.048698 -0.017502 -355356.000000 0 0 1
7.032591 16.969598 -32.832183 37.621494 1.177919 2.631496 0.049962 -0.022916 61700.500000 0 0 1
6.973891 17.004398 -31.436553 36.414854 1.181594 2.612547 0.052075 -0.030689 -201015.000000 0 0 1
5.834991 17.907498 -30.912313 36.198021 1.255804 2.594380 0.062409 -0.034244 -616893.000000 0 0 1
5.664291 17.915198 -29.526473 34.997873 1.264569 2.574870 0.054538 -0.041163 591982.000000 0 0 1
4.810391 19.000698 -29.086553 35.074121 1.322837 2.548629 0.064364 -0.044192 1446480.000000 0 0 1
3.252391 18.778898 -29.175913 34.849088 1.399304 2.562953 0.080922 -0.043906 -574395.000000 0 0 1
2.762691 17.853998 -28.183573 33.477029 1.417276 2.571550 0.086774 -0.036858 712897.000000 0 0 1
1.399091 17.466298 -28.393333 33.364807 1.490865 2.588676 0.083759 -0.036505 849671.000000 0 0 1
0.341591 18.602798 -28.259053 33.834226 1.552436 2.559331 0.079398 -0.037041 -1121900.000000 0 0 1
0.267291 19.009998 -26.879033 32.923151 1.556737 2.525976 0.073647 -0.028455 117478.000000 0 0 1
-0.523509 20.187498 -26.800933 33.557401 -1.544870 2.495860 0.082629 -0.031133 -9709.010000 0 0 1
-0.865909 20.656398 -25.357663 32.717696 -1.528901 2.457581 0.068262 -0.033767 143063.000000 0 0 1
-1.686009 19.819898 -24.557403 31.602801 -1.485934 2.460784 0.058957 -0.028937 275281.000000 0 0 1
-2.266709 20.601298 -23.506103 31.338288 -1.461210 2.418974 0.056486 -0.021217 336710.000000 0 0 1
-3.233909 19.764098 -22.624003 30.214620 -1.408608 2.417011 0.039662 -0.028589 1613200.000000 0 0 1
-4.655009 19.640798 -22.904503 30.529433 -1.338083 2.419226 0.034293 -0.021145 1081900.000000 0 0 1
-5.225209 18.629598 -22.174003 29.428747 -1.297344 2.424137 0.033171 -0.026146 -605363.000000 0 0 1
-6.758009 18.614098 -22.042503 29.631525 -1.222536 2.409664 0.070689 -0.019041 -73814.700000 0 0 1
-7.312309 19.545398 -21.165703 29.723382 -1.212798 2.363266 0.033359 -0.012301 47042.900000 0 0 1
-7.326409 20.896198 -21.686703 30.994200 -1.233578 2.345777 0.030202 -0.017748 -714541.000000 0 0 1
-7.748709 21.996198 -20.678903 31.168770 -1.232096 2.296216 0.032787 -0.020002 -216603.000000 0 0 1
-7.008609 22.182798 -19.480203 30.342634 -1.264773 2.267910 0.027177 -0.019024 35897.300000 0 0 1
-7.442909 23.216998 -18.664403 30.704818 -1.260567 2.224166 0.042179 -0.016877 102752.000000 0 0 1
-6.480609 23.324998 -17.422203 29.825945 -1.299792 2.194603 0.048806 -0.020049 -444991.000000 0 0 1
-5.222409 23.744898 -17.772603 30.115763 -1.354305 2.202032 0.051212 -0.022263 -1006260.000000 0 0 1
-4.360509 23.792698 -16.614503 29.345327 -1.389537 2.172651 0.065657 -0.022486 -53161.900000 0 0 1
-2.963109 24.314798 -16.864703 29.738992 -1.449530 2.173766 0.068785 -0.018387 -854607.000000 0 0 1
-2.843809 25.752998 -16.947103 30.959788 -1.460816 2.150040 0.047109 -0.016415 -80355.600000 0 0 1
-1.559309 26.082098 -17.442903 31.415954 -1.511083 2.159429 0.043662 -0.019513 270533.000000 0 0 1
-1.203709 27.546798 -17.092403 32.441104 -1.527127 2.125716 0.026345 -0.030389 -213022.000000 0 0 1
-2.114709 28.484298 -17.594203 33.546732 -1.496691 2.122887 0.032766 -0.031225 -10685.700000 0 0 1
-1.696409 28.887798 -18.890403 34.557633 -1.512140 2.149136 0.038564 -0.027320 -123593.000000 0 0 1
-2.871909 29.435098 -19.776903 35.578066 -1.473537 2.160210 0.051483 -0.025750 768117.000000 0 0 1
-3.649309 30.519198 -19.249903 36.267033 -1.451787 2.130320 0.036961 -0.006083 -136144.000000 0 0 1
-4.694909 30.112498 -18.413503 35.607047 -1.416129 2.114292 0.027590 -0.007173 -731443.000000 0 0 1
-5.091309 31.382098 -17.692303 36.383720 -1.409962 2.078612 0.051321 0.000709 -189978.000000 0 0 1
-5.709909 32.336598 -18.507503 37.693319 -1.396021 2.084036 0.074164 -0.010867 -66488.700000 0 0 1
-5.894409 33.554698 -17.806003 38.441066 -1.396905 2.052402 0.059204 -0.026816 107793.000000 0 0 1
-6.629709 -34.206466 -18.776703 39.580297 1.379355 2.065073 0.048990 -0.011286 806973.000000 0 0 1
-7.916009 34.068198 -19.188703 39.893754 -1.342490 2.072586 0.063791 -0.021675 430653.000000 0 0 1
-8.613209 -33.541266 -19.656603 39.819417 1.319433 2.087071 0.096063 -0.027934 39799.900000 0 0 1
29.331591 -20.626002 -26.793673 44.762429 -0.612871 2.212517 0.002888 -0.005670 74460.000000 0 0 1
28.867791 -21.937702 -26.571153 44.951510 -0.649830 2.203227 0.018977 -0.015122 -677841.000000 0 0 1
27.503991 -22.047602 -26.861563 44.318279 -0.675725 2.221952 0.016070 -0.004092 -262256.000000 0 0 1
26.944691 -23.418902 -26.312703 44.348841 -0.715505 2.205963 0.002080 -0.000866 -57014.600000 0 0 1
27.283891 -24.619502 -26.905823 45.546173 -0.734110 2.202769 -0.005842 0.015267 398142.000000 0 0 1
28.647291 -25.037342 -26.733503 46.499634 -0.718256 2.183301 0.002035 0.015252 527901.000000 0 0 1
28.936691 -26.480312 -27.106873 47.679362 -0.741102 2.175507 0.013731 0.000415 -31143.900000 0 0 1
28.289791 -27.472352 -26.289233 47.393735 -0.770740 2.158797 0.026406 -0.015260 -72082.900000 0 0 1
28.539191 -28.750392 -26.802963 48.574369 -0.789085 2.155308 0.034985 -0.010324 341171.000000 0 0 1
27.446191 -29.341902 -27.749963 48.829305 -0.818768 2.175241 0.040784 -0.011851 -163912.000000 0 0 1
27.192791 -28.666802 -29.002943 49.014326 -0.811780 2.203992 0.028255 -0.014487 -1475.920000 0 0 1
28.021391 -28.830572 -30.142693 50.249201 -0.799630 2.214128 0.015388 -0.015240 -676633.000000 0 0 1
28.248091 -30.240042 -30.802743 51.587050 -0.819442 2.210680 0.027267 -0.005778 11683.800000 0 0 1
29.017291 -31.229912 -30.043783 52.153039 -0.822107 2.184708 0.032542 -0.010392 1135920.000000 0 0 1
30.334191 -30.903252 -29.589533 52.447255 -0.794691 2.170232 0.030056 -0.016124 1040000.000000 0 0 1
31.483091 -30.477302 -30.568653 53.427460 -0.769167 2.179924 0.025702 -0.022667 263204.000000 0 0 1
31.197591 -29.185872 -31.073873 52.826985 -0.752095 2.199652 0.026197 -0.027413 432264.000000 0 0 1
32.346991 -28.832032 -31.848073 53.776516 -0.728008 2.204620 0.024519 -0.023700 352097.000000 0 0 1
32.140391 -27.455642 -32.553463 53.353022 -0.706951 2.227049 0.023769 -0.019518 187342.000000 0 0 1
32.164591 -26.243762 -31.785883 52.284207 -0.684374 2.224265 0.019443 -0.010471 -54630.700000 0 0 1
31.050991 -26.150332 -30.909073 51.023276 -0.699933 2.221547 0.018051 -0.014825 -253.314000 0 0 1
31.049291 -24.862002 -30.025013 49.836523 -0.675184 2.217389 0.014023 -0.012534 -420867.000000 0 0 1
32.028391 -24.858702 -29.025413 49.862285 -0.660026 2.192120 0.017291 -0.011808 -43442.400000 0 0 1
32.090891 -23.511402 -28.461993 48.915195 -0.632305 2.191815 0.013428 -0.009761 -402514.000000 0 0 1
33.019691 -23.478502 -27.258593 48.832069 -0.618101 2.163024 0.012108 -0.012122 -817992.000000 0 0 1
32.652391 -24.181502 -26.125483 48.305947 -0.637441 2.142224 0.009464 -0.014413 381036.000000 0 0 1
31.624591 -23.559502 -25.310193 46.859052 -0.640277 2.141393 0.020270 -0.003283 345469.000000 0 0 1
32.085391 -22.392002 -24.413803 46.118411 -0.609307 2.128657 0.009280 0.000323 -210302.000000 0 0 1
32.338791 -21.206002 -25.149953 46.130381 -0.580403 2.147415 0.001891 -0.006814 -11571.800000 0 0 1
32.511291 -20.142202 -24.248503 45.284459 -0.554667 2.135861 -0.008945 -0.011227 -114021.000000 0 0 1
32.696191 -18.774002 -24.996603 45.236426 -0.521229 2.156249 -0.019011 -0.016974 -1105100.000000 0 0 1
31.618891 -18.441802 -25.738593 44.747396 -0.528014 2.183642 -0.021097 -0.015814 -906335.000000 0 0 1
31.927591 -17.246802 -26.504073 44.936501 -0.495276 2.201622 -0.020171 -0.013654 -422435.000000 0 0 1
30.999091 -17.085902 -27.693333 44.942100 -0.503744 2.234705 -0.020125 -0.004836 -189782.000000 0 0 1
29.653391 -17.000102 -27.254663 43.716630 -0.520551 2.243930 -0.018180 -0.003755 -75601.100000 0 0 1
28.834791 -16.634302 -28.339003 43.717780 -0.523248 2.276049 -0.011533 -0.005163 233972.000000 0 0 1
27.376691 -16.187802 -28.010793 42.380805 -0.533997 2.292855 -0.017713 -0.002008 673028.000000 0 0 1
26.481991 -17.139802 -27.463703 41.824916 -0.574422 2.287145 -0.018330 0.005861 211825.000000 0 0 1
26.542891 -17.040802 -26.050113 40.908708 -0.570738 2.261120 -0.011494 0.008558 -464903.000000 0 0 1
25.706891 -17.992002 -25.204273 40.246885 -0.610652 2.247519 0.006440 0.004781 -503208.000000 0 0 1
25.741391 -17.638302 -23.810403 39.251295 -0.600732 2.222591 0.007669 0.012148 160611.000000 0 0 1
24.970291 -18.543302 -23.027903 38.699532 -0.638758 2.208116 0.013897 0.010460 -46219.900000 0 0 1
25.047191 -18.208802 -21.505803 37.701748 -0.628605 2.177813 0.005051 0.016102 398157.000000 0 0 1
24.215691 -17.075302 -21.121903 36.388191 -0.614163 2.190090 0.013931 0.005716 484999.000000 0 0 1
24.618691 -15.746402 -21.491003 36.275230 -0.569038 2.204884 0.009490 0.012925 593660.000000 0 0 1
25.851691 -15.060902 -20.760503 36.416194 -0.527519 2.177412 -0.014197 0.007719 337474.000000 0 0 1
25.678291 -14.511602 -19.470203 35.341902 -0.514386 2.154250 -0.011510 0.001391 117246.000000 0 0 1
26.793991 -13.720402 -19.146803 35.675866 -0.473257 2.137303 -0.034266 0.006139 -323258.000000 0 0 1
26.642291 -12.815302 -17.904303 34.563097 -0.448343 2.115328 -0.015927 0.008396 -315898.000000 0 0 1
26.568991 -13.514902 -16.649303 34.143274 -0.470561 2.080170 -0.021995 0.021172 208876.000000 0 0 1
26.525291 -12.507102 -15.593303 33.213999 -0.440602 2.059498 -0.021985 0.027538 -102846.000000 0 0 1
27.140391 -13.057402 -14.293603 33.337721 -0.448418 2.013907 -0.003790 0.011054 53872.300000 0 0 1
26.499391 -14.214702 -13.732603 33.058431 -0.492354 1.999183 0.028318 -0.003039 369070.000000 0 0 1
27.142091 -14.469102 -12.521203 33.208862 -0.489766 1.957399 0.041597 -0.008595 228179.000000 0 0 1
26.458991 -15.695402 -11.844503 32.965377 -0.535402 1.938315 0.057554 -0.035188 36313.200000 0 0 1
25.138491 -15.441502 -11.430803 31.639326 -0.550837 1.940442 0.046025 -0.031720 -109453.000000 0 0 1
24.529391 -16.678402 -11.088103 31.667115 -0.597132 1.928523 0.036993 -0.025691 59453.900000 0 0 1
23.060491 -16.514002 -10.624603 30.288293 -0.621461 1.929203 0.044298 -0.030539 -208411.000000 0 0 1
22.810291 -15.968602 -9.337603 29.368290 -0.610767 1.894361 0.031557 -0.024143 937093.000000 0 0 1
21.422791 -15.939502 -8.975703 28.170320 -0.639678 1.895072 0.025782 -0.026521 436240.000000 0 0 1
21.149591 -15.572002 -7.532903 27.322831 -0.634662 1.850114 0.021875 -0.019218 -353577.000000 0 0 1
21.399291 -14.211002 -7.310503 26.708158 -0.586215 1.848053 0.026072 -0.013975 335845.000000 0 0 1
21.239291 -13.800602 -5.947703 26.018057 -0.576212 1.801435 0.018466 -0.009564 -127035.000000 0 0 1
22.161791 -14.436702 -4.830003 26.886656 -0.577375 1.751420 0.028241 -0.016619 719366.000000 0 0 1
23.555491 -14.162502 -5.006703 27.937514 -0.541331 1.750980 0.047256 -0.016865 597468.000000 0 0 1
24.297891 -14.964802 -4.116203 28.831856 -0.552021 1.714052 0.043199 -0.022135 1407050.000000 0 0 1
25.872091 -14.725002 -4.264703 30.072886 -0.517424 1.713088 0.058166 -0.022638 1394680.000000 0 0 1
26.340291 -13.541002 -3.673103 29.843950 -0.474848 1.694186 0.061301 -0.021480 1034730.000000 0 0 1
27.682491 -13.268802 -4.148203 30.977234 -0.446968 1.705111 0.067789 -0.025510 989568.000000 0 0 1
28.352291 -12.009802 -3.487503 30.987908 -0.400677 1.683579 0.084280 -0.029499 -994347.000000 0 0 1
29.014491 -12.222402 -2.252503 31.564245 -0.398691 1.642220 0.087406 -0.029924 571710.000000 0 0 1
29.715191 -11.076102 -1.740303 31.760058 -0.356790 1.625619 0.094115 -0.026334 457886.000000 0 0 1
31.047291 -10.736202 -2.470003 32.943910 -0.332930 1.645843 0.082166 -0.022845 -743477.000000 0 0 1
30.890191 -10.407702 -3.820803 32.819548 -0.324980 1.687479 0.083063 -0.024577 -1332490.000000 0 0 1
32.084791 -10.460502 -4.455503 34.039792 -0.315160 1.702064 0.090546 -0.028906 -1381830.000000 0 0 1
31.978791 -10.405702 -6.013203 34.162557 -0.314588 1.747735 0.089109 -0.029324 -211284.000000 0 0 1
31.246591 -11.465302 -6.571603 33.926222 -0.351677 1.765731 0.076278 -0.030961 52255.500000 0 0 1
31.062891 -11.420102 -7.919703 34.030040 -0.352306 1.805677 0.075088 -0.025352 -258903.000000 0 0 1
29.722591 -12.095702 -8.230003 33.128105 -0.386486 1.821855 0.088837 -0.027897 -245732.000000 0 0 1
29.691091 -13.477402 -8.097003 33.597064 -0.426110 1.814196 0.076312 -0.027722 14978.300000 0 0 1
28.381491 -13.973802 -8.287103 32.702481 -0.457514 1.826999 0.074712 -0.027526 104411.000000 0 0 1
28.244191 -15.511102 -8.306703 33.276567 -0.502212 1.823091 0.072976 -0.033035 -94437.000000 0 0 1
28.963691 -16.012402 -9.419303 34.409529 -0.505024 1.848077 0.073874 -0.035380 465181.000000 0 0 1
29.262391 -17.440602 -9.410103 35.341366 -0.537479 1.840310 0.069241 -0.037920 -41008.400000 0 0 1
29.566391 -18.034002 -10.799903 36.277191 -0.547703 1.873084 0.057227 -0.043614 389879.000000 0 0 1
30.787391 -17.525002 -11.363103 37.203619 -0.517485 1.881186 0.064652 -0.035028 822765.000000 0 0 1
31.035991 -18.051602 -12.692103 38.081262 -0.526806 1.910587 0.050875 -0.016277 -455814.000000 0 0 1
30.240491 -17.443402 -13.795303 37.537581 -0.523203 1.947123 0.038716 -0.016433 -282058.000000 0 0 1
30.792291 -16.203502 -14.216503 37.587599 -0.484402 1.958673 0.028191 -0.010053 -40861.300000 0 0 1
29.994691 -15.764802 -15.261003 37.163271 -0.483907 1.993960 0.009523 -0.008792 -1264910.000000 0 0 1
30.553691 -14.628502 -16.139503 37.523388 -0.446528 2.015420 0.001771 0.009977 240285.000000 0 0 1
31.721791 -14.866102 -16.892103 38.892366 -0.438246 2.020090 -0.027508 0.008977 873102.000000 0 0 1
32.921491 -15.192302 -16.187603 39.707293 -0.432352 1.990701 -0.004893 0.007037 -958898.000000 0 0 1
34.023691 -15.664402 -17.108303 41.178624 -0.431466 1.999251 -0.006385 0.009124 -1311910.000000 0 0 1
35.267791 -15.697102 -16.479803 41.973801 -0.418758 1.974276 0.008101 0.005944 -329282.000000 0 0 1
-35.276667 -16.136102 -17.487703 42.551578 0.429004 1.994321 0.015065 0.002314 751217.000000 0 0 1
-33.763767 -16.129502 -17.073703 41.129844 0.445662 1.998868 0.018944 0.001765 512533.000000 0 0 1
-33.345267 -16.967402 -16.003003 40.692698 0.470694 1.974976 0.014166 0.003902 104601.000000 0 0 1
-33.818267 -16.541902 -14.715603 40.421017 0.454923 1.943418 0.012419 -0.000849 -551184.000000 0 0 1
-33.232567 -17.318602 -13.520703 39.839012 0.480411 1.917058 0.006852 0.000980 57294.800000 0 0 1
-31.827367 -17.286002 -13.311703 38.587415 0.497544 1.923009 0.014584 0.003406 231272.000000 0 0 1
-31.574767 -17.823702 -12.048203 38.207453 0.513901 1.891608 0.035802 0.007291 730669.000000 0 0 1
-30.116867 -17.425602 -11.610703 36.680863 0.524535 1.892869 0.047006 0.003103 556113.000000 0 0 1
-29.910467 -16.059502 -11.332503 35.790631 0.492745 1.892974 0.036493 -0.016005 518219.000000 0 0 1
-28.673967 -15.758502 -10.677403 34.417055 0.502517 1.886237 0.052172 -0.016170 422615.000000 0 0 1
-28.530867 -16.085902 -9.163103 34.010720 0.513382 1.843585 0.043435 -0.012233 -199608.000000 0 0 1
-28.447067 -17.478302 -8.879403 34.548089 0.550951 1.830729 0.047785 -0.011192 -94475.600000 0 0 1
-28.303667 -17.792502 -7.491603 34.260689 0.561205 1.791242 0.052988 -0.015347 -312155.000000 0 0 1
-28.443667 -19.321102 -7.197503 35.130488 0.596681 1.777137 0.052080 -0.024456 806633.000000 0 0 1
-29.694367 -19.964002 -7.511103 36.561366 0.591904 1.777708 0.053237 -0.023783 436726.000000 0 0 1
-29.803867 -20.180502 -8.874303 37.071234 0.595198 1.812529 0.040831 -0.011117 206523.000000 0 0 1
-31.152467 -20.848002 -9.274503 38.615175 0.589771 1.813345 0.040979 -0.014291 911366.000000 0 0 1
-32.280967 -19.965102 -9.436603 39.111579 0.553896 1.814475 0.032078 -0.016970 992837.000000 0 0 1
-33.400467 -20.793702 -9.814403 40.549867 0.556841 1.815257 0.014269 -0.015311 1448900.000000 0 0 1
-34.720267 -19.996802 -10.194303 41.343595 0.522541 1.819941 0.013385 -0.022805 873317.000000 0 0 1
-34.770667 -19.578102 -11.523903 41.534343 0.512818 1.851940 0.001562 -0.021295 -689112.000000 0 0 1
35.360291 -19.459402 -11.837603 42.061233 -0.503087 1.856088 0.028780 -0.025828 -893222.000000 0 0 1
34.913191 -19.141502 -13.265203 41.967769 -0.501506 1.892392 0.017133 -0.013038 -260198.000000 0 0 1
34.822391 -20.251002 -14.141103 42.692772 -0.526744 1.908403 0.005298 -0.001394 -12759.600000 0 0 1
34.295291 -19.837402 -15.377703 42.498979 -0.524408 1.941034 0.010315 -0.000356 -81697.100000 0 0 1
33.017491 -20.625102 -15.717203 41.983092 -0.558363 1.954513 0.014379 -0.003499 -88361.600000 0 0 1
32.012591 -20.432602 -14.682703 40.717060 -0.568083 1.939711 0.027650 -0.007702 891159.000000 0 0 1
30.799591 -21.179002 -14.774803 40.192782 -0.602382 1.947222 0.032239 -0.002709 1075480.000000 0 0 1
29.877991 -20.811702 -15.992303 39.769021 -0.608411 1.984638 0.025577 -0.005561 -667142.000000 0 0 1
29.281391 -19.541602 -16.010903 38.673286 -0.588491 1.997645 0.012646 -0.002568 26141.400000 0 0 1
28.487491 -19.451002 -17.154403 38.524695 -0.599083 2.032287 0.003266 -0.002732 -242141.000000 0 0 1
27.847191 -18.017802 -17.370003 37.440943 -0.574280 2.053223 0.005820 -0.000781 511325.000000 0 0 1
26.767391 -17.836502 -16.435303 36.121368 -0.587785 2.043171 0.020842 -0.003320 506673.000000 0 0 1
26.211191 -16.549602 -16.608403 35.167526 -0.563184 2.062655 0.005240 0.006215 -1493870.000000 0 0 1
24.887691 -16.463402 -15.822503 33.775618 -0.584423 2.058342 0.013947 -0.002772 263418.000000 0 0 1
23.793691 -17.115402 -16.474603 33.622749 -0.623579 2.082868 0.021783 -0.009167 647361.000000 0 0 1
23.351791 -16.541002 -17.708703 33.652772 -0.616301 2.124943 0.009649 -0.004600 -131603.000000 0 0 1
22.204091 -17.350202 -18.468603 33.691846 -0.663294 2.150962 0.018582 -0.001048 876231.000000 0 0 1
20.937591 -17.416602 -17.884203 32.581674 -0.693853 2.151849 0.028659 -0.002109 142301.000000 0 0 1
19.966491 -18.158702 -18.647803 32.804569 -0.738016 2.175419 0.025054 -0.013016 1100740.000000 0 0 1
18.585991 -18.356302 -17.953803 31.697507 -0.779181 2.172940 0.030143 -0.007338 349482.000000 0 0 1
17.827991 -17.174502 -17.847303 30.517651 -0.766731 2.195453 0.033182 -0.009503 14743.700000 0 0 1
16.605791 -17.503002 -17.202403 29.631572 -0.811696 2.190192 0.032263 -0.011887 187581.000000 0 0 1
15.646791 -16.304302 -17.097203 28.336667 -0.805974 2.218504 0.037952 -0.001114 -91533.600000 0 0 1
14.959791 -15.834802 -18.262203 28.426121 -0.813805 2.268480 0.044545 0.002343 1781030.000000 0 0 1
13.692191 -15.154802 -17.935503 27.181361 -0.836057 2.291410 0.049676 0.004283 1372560.000000 0 0 1
12.948991 -14.839902 -19.222603 27.521038 -0.853339 2.344053 0.059196 -0.007245 -420810.000000 0 0 1
13.460991 -13.726102 -19.959703 27.712703 -0.795149 2.374940 0.066450 -0.014526 170198.000000 0 0 1
12.829591 -13.530702 -21.220003 28.248307 -0.811989 2.420668 0.069331 0.002301 92579.100000 0 0 1
12.727391 -12.074202 -21.644803 27.861628 -0.759068 2.460472 0.071261 -0.005239 -408994.000000 0 0 1
13.955591 -11.540602 -22.059203 28.540365 -0.690960 2.454215 0.071170 -0.003273 -357696.000000 0 0 1
13.781991 -10.236302 -22.575903 28.361885 -0.638832 2.491445 0.055059 -0.009483 483316.000000 0 0 1
15.107891 -9.601602 -23.094103 29.219458 -0.566140 2.482205 0.048154 -0.002557 438137.000000 0 0 1
15.668691 -10.106802 -24.275903 30.610044 -0.572875 2.486629 0.068309 -0.003460 45114.900000 0 0 1
16.878291 -9.437202 -24.569503 31.266563 -0.509828 2.474797 0.062761 -0.013037 -13164.700000 0 0 1
22.224891 4.785198 -7.168303 23.837543 0.212071 1.876238 0.075676 0.011190 -206899.000000 0 1 0
22.295991 6.265198 -7.241303 24.265210 0.273937 1.873837 0.049391 0.008693 462435.000000 0 1 0
21.676591 6.923898 -6.182403 23.580438 0.309175 1.836081 0.031113 0.007502 -423142.000000 0 1 0
21.625191 8.444298 -6.365703 24.072333 0.372276 1.838420 0.028295 0.007256 -519616.000000 0 1 0
20.572791 8.724398 -7.255803 23.494713 0.401087 1.884756 0.038821 0.009630 501591.000000 0 1 0
20.198191 10.106698 -7.270503 23.727041 0.463949 1.882229 0.023644 0.009591 177916.000000 0 1 0
19.493791 10.815398 -6.050703 23.099605 0.506530 1.835828 0.020007 -0.000160 -360840.000000 0 1 0
20.368191 11.144098 -5.028803 23.755904 0.500639 1.784097 0.019378 0.000555 7713.800000 0 1 0
19.848791 12.298898 -4.331403 23.748652 0.554728 1.754208 0.031785 -0.003515 12676.700000 0 1 0
20.589691 12.820498 -3.101303 24.452375 0.556919 1.697969 0.025094 -0.011332 368242.000000 0 1 0
21.939991 13.232598 -3.389603 25.844811 0.542715 1.702327 0.029848 -0.018724 1461940.000000 0 0 1
22.735691 13.537998 -2.225203 26.554483 0.537068 1.654692 0.030687 -0.022270 148883.000000 0 0 1
23.505291 12.319698 -1.697103 26.592364 0.482760 1.634659 0.020681 -0.026639 -798691.000000 0 0 1
24.604391 11.839098 -2.457103 27.414917 0.448477 1.660543 0.024909 -0.026805 386873.000000 0 0 1
25.226791 10.792498 -1.737703 27.493429 0.404256 1.634043 0.026449 -0.032310 -671651.000000 0 0 1
26.659691 10.471298 -2.108003 28.719869 0.374264 1.644261 0.046055 -0.030689 -201332.000000 0 0 1
27.588691 11.543798 -1.862803 29.964399 0.396288 1.633004 0.049109 -0.041769 1932570.000000 0 0 1
28.963691 11.083598 -2.080203 31.081647 0.365480 1.637773 0.052899 -0.036113 1621920.000000 0 0 1
30.054791 12.124298 -1.768603 32.456387 0.383440 1.625315 0.046941 -0.036839 -591684.000000 0 0 1
30.061491 12.395598 -0.391003 32.519179 0.391100 1.582820 0.059857 -0.045117 170889.000000 0 0 1
30.881591 13.486298 -0.050903 33.698004 0.411747 1.572307 0.071112 -0.043819 1156030.000000 0 0 1
32.453291 13.246798 -0.090603 35.052845 0.387539 1.573381 0.085030 -0.048084 708541.000000 0 0 1
33.207791 14.363498 0.327697 36.182521 0.408235 1.561739 0.080049 -0.043908 -42061.500000 0 0 1
34.070691 14.805198 -0.704803 37.155116 0.409926 1.589767 0.085139 -0.035307 -179163.000000 0 0 1
33.468091 15.759198 -1.826203 37.037825 0.440075 1.620123 0.041053 -0.013865 -165765.000000 0 0 1
32.516991 15.094198 -2.604403 35.944018 0.434595 1.643317 0.054159 -0.015663 -361793.000000 0 0 1
31.920991 15.989498 -3.537103 35.876522 0.464374 1.669548 0.028092 -0.002391 887916.000000 0 0 1
30.482091 15.605898 -4.056603 34.484170 0.473177 1.688706 0.045533 -0.014718 240952.000000 0 0 1
30.514791 14.708598 -5.097603 34.256107 0.449157 1.720160 0.026463 -0.018431 404366.000000 0 0 1
29.268391 14.545698 -5.748303 33.185223 0.461226 1.744893 0.027248 -0.023311 444551.000000 0 0 1
28.074291 13.852198 -5.012203 31.704438 0.458364 1.729554 0.038962 -0.031551 -204491.000000 0 0 1
26.934391 13.878798 -5.857003 30.860767 0.475798 1.761743 0.045054 -0.034692 111744.000000 0 0 1
25.871691 13.219498 -5.197303 29.514598 0.472380 1.747812 0.041165 -0.023535 -504181.000000 0 0 1
24.698391 12.925298 -6.112503 28.538335 0.482133 1.786654 0.039232 -0.020179 -710411.000000 0 0 1
24.970791 11.879698 -7.098303 28.549143 0.444055 1.822067 0.037506 -0.013007 214767.000000 0 0 1
23.870391 11.664298 -7.941103 27.729272 0.454528 1.861243 0.038717 -0.014123 -166174.000000 0 0 1
23.436391 12.756298 -8.988003 28.156203 0.498452 1.895702 0.037868 -0.005186 -304268.000000 0 0 1
22.949391 13.904898 -8.346103 28.101213 0.544742 1.872347 0.032275 -0.010255 89652.000000 0 0 1
22.858391 14.969598 -9.295303 28.861697 0.579801 1.898705 0.039818 -0.012087 -972283.000000 0 0 1
22.001491 16.115398 -8.726003 28.634154 0.632186 1.880463 0.039263 -0.004213 1360120.000000 0 0 1
20.586191 15.811898 -8.858503 27.427732 0.654974 1.899669 0.021444 -0.001614 1324160.000000 0 0 1
20.010791 15.013298 -7.836603 26.215324 0.643668 1.874370 0.004047 -0.006602 -996880.000000 0 0 1
18.534491 14.676498 -7.961103 24.946064 0.669750 1.895610 -0.009207 -0.003407 -868695.000000 0 1 0
17.634691 15.762898 -8.005503 24.970770 0.729411 1.897154 0.007446 -0.004308 -942912.000000 0 1 0
16.354091 15.319198 -7.752703 23.711570 0.752736 1.903880 0.028770 -0.003917 -782476.000000 0 1 0
15.923191 15.531398 -6.241003 23.102434 0.772943 1.844340 0.041967 -0.002943 -225448.000000 0 1 0
16.662991 14.679998 -5.339703 22.840097 0.722215 1.806766 0.046428 -0.006426 721624.000000 0 1 0
16.314091 15.138998 -4.082103 22.627470 0.748055 1.752194 0.046345 0.007357 -197795.000000 0 1 0
15.813091 13.967898 -3.192603 21.338902 0.723519 1.720974 0.021947 0.010666 -531452.000000 0 1 0
16.872191 13.239098 -2.629803 21.606953 0.665323 1.692810 0.019507 0.003609 285872.000000 0 1 0
16.442791 12.358898 -1.626503 20.633789 0.644544 1.649705 0.005863 0.001068 24506.100000 0 1 0
16.462691 12.940798 -0.158703 20.940622 0.666188 1.578375 0.010313 -0.006535 -277604.000000 0 1 0
15.445091 13.902198 -0.068703 20.780440 0.732873 1.574102 0.011446 -0.009964 -31604.000000 0 1 0
15.710891 14.846998 0.939997 21.636752 0.757135 1.527338 0.019292 -0.007202 -373284.000000 0 1 0
14.528491 15.715898 1.415997 21.449279 0.824638 1.504732 0.023291 -0.006408 -247511.000000 0 1 0
14.249291 16.783698 0.542397 22.023374 0.866885 1.546166 0.025014 -0.010623 323919.000000 0 1 0
13.389791 17.785398 1.080897 22.288455 0.925472 1.522281 0.017595 -0.009313 115365.000000 0 1 0
13.405891 19.062498 0.219597 23.305471 0.957886 1.561374 0.015204 -0.012790 -281812.000000 0 1 0
12.868191 19.099898 -1.136403 23.058358 0.977919 1.620100 0.022370 -0.023760 130894.000000 0 1 0
12.489191 20.457098 -1.372603 24.007432 1.022687 1.628002 0.019072 -0.019942 4135.530000 0 1 0
10.959491 20.654198 -1.319203 23.418938 1.082955 1.627157 0.009121 -0.020636 -274540.000000 0 1 0
10.416391 20.535298 -0.058403 23.026139 1.101371 1.573333 0.008695 -0.024188 688272.000000 0 1 0
8.978691 20.461998 -0.178803 22.345967 1.157297 1.578798 0.008600 -0.020092 1118760.000000 0 1 0
8.261991 20.603198 1.167597 22.228710 1.189424 1.518246 0.005049 -0.015619 -183645.000000 0 1 0
8.241291 21.912898 1.752997 23.476946 1.211068 1.496058 0.004653 -0.010609 320076.000000 0 1 0
7.341491 21.881398 2.855497 23.256116 1.247085 1.447701 0.011669 -0.013034 294333.000000 0 1 0
6.892791 23.218998 3.487197 24.470247 1.282223 1.427802 0.007930 -0.006668 461963.000000 0 1 0
7.743791 23.527198 4.587797 25.190142 1.252823 1.387647 0.004407 0.000159 628796.000000 0 0 1
7.224491 24.708798 5.263497 26.275890 1.286340 1.369115 -0.002430 0.005263 58023.900000 0 0 1
7.837891 24.930498 6.672497 26.971920 1.266191 1.320814 -0.013414 0.008208 -4065.950000 0 0 1
7.233091 24.205298 7.694397 26.408669 1.280420 1.275149 -0.004778 -0.000697 133023.000000 0 0 1
7.985391 24.404498 8.883197 27.170889 1.254567 1.237735 -0.005811 -0.008549 190576.000000 0 0 1
7.670691 23.290298 9.948197 26.462126 1.252634 1.185384 0.003797 -0.014702 181564.000000 0 0 1
6.451691 23.630998 10.603497 26.692369 1.304274 1.162280 0.005000 -0.016319 312180.000000 0 0 1
5.866691 22.550298 11.294097 25.893834 1.316278 1.119459 0.004876 -0.016357 260091.000000 0 0 1
4.552491 22.983698 11.998797 26.323881 1.375253 1.097510 0.019216 -0.022404 861505.000000 0 0 1
3.399191 23.208398 11.171197 25.980375 1.425367 1.126319 0.020470 -0.021010 189243.000000 0 0 1
2.248791 23.573498 11.879997 26.493418 1.475689 1.105807 0.020047 -0.020503 -520039.000000 0 0 1
1.103791 23.751398 10.902397 26.157399 1.524357 1.140875 0.049340 -0.016105 -749409.000000 0 0 1
1.317591 25.010798 10.246897 27.060580 1.518164 1.182443 0.047726 -0.012117 182760.000000 0 0 1
0.535991 25.147698 9.074497 26.740241 1.549486 1.224563 0.035162 -0.017243 74752.800000 0 0 1
-0.894109 25.694198 9.258297 27.325946 -1.536012 1.225145 0.039279 -0.025075 388520.000000 0 0 1
-1.827009 24.827898 9.925697 26.800783 -1.497342 1.191409 0.033719 -0.023317 507319.000000 0 0 1
-3.137609 25.377198 9.787097 27.379446 -1.447782 1.205248 0.037255 -0.021185 446371.000000 0 0 1
-4.230209 24.413498 10.421697 26.879831 -1.399226 1.172646 0.035806 -0.023973 489718.000000 0 0 1
-4.607209 24.720998 11.742897 27.753374 -1.386542 1.133915 0.019900 -0.013397 -203637.000000 0 0 1
-5.584209 25.716598 11.833097 28.853925 -1.356972 1.148229 0.026914 -0.011924 -628819.000000 0 0 1
-6.179909 25.869298 13.238697 29.709846 -1.336301 1.108952 0.013580 -0.002075 -171764.000000 0 0 1
-7.093909 24.845598 13.590097 29.194486 -1.292677 1.086594 0.008234 -0.019033 39761.200000 0 0 1
-7.347409 24.909098 15.021997 30.001800 -1.283962 1.046385 -0.006628 0.010777 -274543.000000 0 0 1
-8.374509 23.860098 15.484597 29.651466 -1.233245 1.021344 -0.008989 -0.001450 719590.000000 0 0 1
-9.684909 24.312398 15.062697 30.195612 -1.191711 1.048540 -0.016953 0.006323 599983.000000 0 0 1
-10.641909 23.345498 15.470097 29.959747 -1.143093 1.028198 -0.014551 -0.001825 795849.000000 0 0 1
-12.129109 23.736398 15.145097 30.657884 -1.098394 1.054108 -0.008071 -0.008387 676129.000000 0 0 1
-12.454009 24.950398 15.865197 32.083160 -1.107828 1.053534 0.000438 -0.000884 -744775.000000 0 0 1
-13.788909 25.255498 15.659797 32.759784 -1.071047 1.072398 -0.001661 -0.003873 -855099.000000 0 0 1
-14.354009 26.520998 16.408197 34.331179 -1.074710 1.072490 0.024561 -0.005572 -82480.300000 0 0 1
-15.556709 26.282098 17.098197 35.001546 -1.036345 1.060428 0.021526 -0.010903 -68438.500000 0 0 1
-15.899109 27.308598 18.016497 36.374928 -1.043567 1.052616 0.038079 -0.009006 56747.800000 0 0 1
-17.107009 26.852398 18.904497 37.028112 -1.003560 1.034978 0.030841 -0.017029 916879.000000 0 0 1
-18.305709 27.085598 18.164297 37.398801 -0.976465 1.063642 0.034972 -0.019830 651003.000000 0 0 1
-19.453309 26.323298 18.563697 37.629219 -0.934363 1.054880 0.038161 -0.017038 1107100.000000 0 0 1
-20.713309 26.598198 17.683497 38.068509 -0.909149 1.087706 0.035999 -0.023076 92465.900000 0 0 1
-21.294609 27.863598 17.832897 39.342759 -0.918241 1.100366 0.032933 -0.021005 149131.000000 0 0 1
-22.110809 28.201098 16.724997 39.546369 -0.905863 1.134130 0.027514 -0.023090 -271579.000000 0 0 1
-22.945109 29.471398 16.993697 41.034462 -0.909269 1.143807 0.015852 -0.022013 -467726.000000 0 0 1
-24.154009 29.175598 17.621497 41.774979 -0.879283 1.135345 0.009597 -0.016587 -28638.400000 0 0 1
-25.078569 30.271498 17.520797 43.038083 -0.878944 1.151520 0.006116 -0.006947 1457520.000000 0 0 1
-26.547959 30.001398 18.045497 43.937660 -0.846392 1.147567 0.006877 -0.005725 496248.000000 0 0 1
-27.337039 29.231598 17.200497 43.562107 -0.818877 1.164892 0.021842 -0.001794 -425806.000000 0 0 1
-28.691829 29.115798 17.546197 44.483927 -0.792732 1.165339 0.038137 -0.000608 -142733.000000 0 0 1
-28.964409 28.095098 18.682597 44.466965 -0.770164 1.137191 0.035938 -0.004173 -1132890.000000 0 0 1
-28.782549 26.766298 18.286197 43.350373 -0.749117 1.135341 0.045334 -0.012863 188081.000000 0 0 1
-28.597559 25.960398 19.432397 43.236335 -0.737099 1.104651 0.050215 -0.009818 -33631.600000 0 0 1
-28.657809 24.486698 18.950297 42.189835 -0.707073 1.104963 0.045175 -0.013713 554276.000000 0 0 1
-29.993999 24.123798 18.591897 42.746418 -0.677350 1.120831 0.052836 -0.011960 688984.000000 0 0 1
-30.005499 23.302898 17.418897 41.794414 -0.660322 1.140901 0.058892 -0.012884 -263087.000000 0 0 1
-30.354119 21.793298 17.610497 41.309200 -0.622684 1.130387 0.049522 -0.013334 1452820.000000 0 0 1
-31.712519 21.690098 17.057697 42.036999 -0.599880 1.152966 0.052498 -0.015144 1425180.000000 0 0 1
-32.058779 20.301298 16.918197 41.546762 -0.564512 1.151401 0.055591 -0.018554 -614425.000000 0 0 1
-33.416839 19.974498 16.353697 42.226877 -0.538754 1.173115 0.058833 -0.030093 -882878.000000 0 0 1
-33.540019 20.135998 14.924797 41.870525 -0.540682 1.206330 0.049215 -0.032013 191489.000000 0 0 1
-34.823524 19.754598 14.437897 42.560250 -0.516011 1.224693 0.048301 -0.034070 424658.000000 0 0 1
-35.098765 20.138498 12.995397 42.501327 -0.520907 1.260055 0.054120 -0.031646 -80402.200000 0 0 1
-35.157870 21.536298 12.793397 43.168958 -0.549604 1.269921 0.045339 -0.030939 -92060.600000 0 0 1
-35.168599 21.943798 11.427897 42.999505 -0.557851 1.301796 0.036004 -0.024156 292722.000000 0 0 1
-34.025229 21.511998 10.428697 41.584131 -0.563786 1.317305 0.051541 -0.027712 122778.000000 0 0 1
-34.348236 20.299098 9.791497 41.081968 -0.533760 1.330140 0.063223 -0.019912 28883.300000 0 0 1
-33.188049 19.674198 9.286997 39.683359 -0.535116 1.334578 0.082550 -0.020739 212757.000000 0 0 1
-32.499569 18.631498 10.258997 38.840722 -0.520544 1.303495 0.065729 -0.030059 278565.000000 0 0 1
-31.969499 19.236398 11.461097 39.031329 -0.541677 1.272766 0.065994 -0.026133 274896.000000 0 0 1
-31.552669 18.270398 12.392097 38.508992 -0.524868 1.243169 0.073900 -0.038889 -110741.000000 0 0 1
-30.760399 18.793398 13.621497 38.534908 -0.548440 1.209503 0.049344 -0.021079 475946.000000 0 0 1
-29.563689 19.518498 13.391997 37.872537 -0.583525 1.209372 0.042990 -0.013706 330665.000000 0 0 1
-29.869369 20.943998 13.378097 38.856193 -0.611522 1.219306 0.049489 -0.007641 -48171.200000 0 0 1
-28.634029 21.830398 13.558597 38.474790 -0.651386 1.210660 0.051678 -0.015911 -190303.000000 0 0 1
-28.062299 21.613898 14.833997 38.401832 -0.656311 1.174197 0.050329 -0.010211 -1227160.000000 0 0 1
-26.948929 22.397098 14.914197 38.082910 -0.693415 1.168400 0.054814 -0.025149 -1222270.000000 0 0 1
-26.278949 22.266498 16.313197 38.111684 -0.702932 1.128477 0.045296 -0.023830 -435347.000000 0 0 1
-25.604089 21.026798 16.307197 36.927230 -0.687552 1.113411 0.047986 -0.027289 -175496.000000 0 0 1
-25.202119 20.693998 17.610197 37.060861 -0.687488 1.075639 0.032833 -0.017949 -640490.000000 0 0 1
-24.061109 19.702498 17.734097 35.799771 -0.686131 1.052537 0.040477 -0.023554 -284008.000000 0 0 1
-23.434709 19.680598 19.012697 36.027686 -0.698546 1.014877 0.030838 -0.017658 715766.000000 0 0 1
-22.507109 18.568198 19.156797 34.904596 -0.689796 0.989829 0.025508 -0.022168 402075.000000 0 0 1
-22.032509 18.459198 20.621397 35.375351 -0.697378 0.948465 0.025186 -0.015587 -355541.000000 0 0 1
-22.995309 17.956798 21.495497 36.239305 -0.662979 0.935825 0.021739 -0.003156 -271785.000000 0 0 1
-22.864209 18.499298 22.801097 37.214058 -0.680262 0.911322 0.016030 -0.002132 139291.000000 0 0 1
-23.810809 17.764498 23.769797 38.046488 -0.640980 0.895976 0.003045 -0.001494 -20614.700000 0 0 1
-23.161109 16.630598 24.324797 37.479455 -0.622731 0.864505 0.012836 -0.001716 -489053.000000 0 0 1
-24.014509 15.806098 24.980897 38.086410 -0.582111 0.855421 0.016962 0.002170 -755222.000000 0 0 1
20.435291 25.211298 34.360266 47.263501 0.889649 0.756863 0.024024 -0.018323 151100.000000 0 0 1
21.183191 24.439998 33.438716 46.520843 0.856662 0.768736 0.028144 -0.019580 26853.200000 0 0 1
21.081191 23.058998 33.691570 45.948405 0.830176 0.747710 0.027549 -0.023727 172908.000000 0 0 1
19.950091 22.258498 32.965404 44.499042 0.840034 0.736519 0.026068 -0.025546 187413.000000 0 0 1
20.338991 21.740098 31.756578 43.529147 0.818683 0.753136 0.022728 -0.014091 -223898.000000 0 0 1
19.348091 20.854898 31.361448 42.341656 0.822861 0.736720 0.019054 -0.012939 -720875.000000 0 0 1
19.702291 20.091898 30.095658 41.202103 0.795188 0.751831 0.004661 0.006409 -47583.900000 0 0 1
20.842091 19.238198 30.190798 41.424453 0.745403 0.754205 0.011137 -0.002135 -61645.900000 0 0 1
21.059791 18.525698 28.996498 40.342449 0.721470 0.768781 0.001645 0.012383 -306309.000000 0 0 1
22.275091 17.597098 29.021708 40.596762 0.668607 0.774348 0.016136 0.009152 153260.000000 0 0 1
23.521391 18.278398 29.115698 41.654286 0.660619 0.796820 0.029101 0.005409 53088.100000 0 0 1
24.557791 17.372098 29.336098 42.017633 0.615673 0.797937 0.033084 0.007836 397027.000000 0 0 1
26.019591 17.915198 29.474418 43.205494 0.602985 0.820041 0.038608 -0.004086 712246.000000 0 0 1
26.633891 18.111998 28.194758 42.805992 0.597201 0.851755 0.035450 0.010950 172319.000000 0 0 1
27.928191 18.639598 28.399168 43.976485 0.588518 0.868751 0.036912 0.004896 -24966.300000 0 0 1
28.964491 18.529098 27.282708 43.893227 0.569113 0.900051 0.041938 0.012197 -69603.700000 0 0 1
28.786791 19.436898 26.184688 43.498393 0.593888 0.924832 0.038951 0.009553 290082.000000 0 0 1
29.889991 19.278998 25.300698 43.648787 0.572851 0.952506 0.042873 0.013147 295141.000000 0 0 1
30.180091 20.510398 24.375608 43.882623 0.596903 0.981865 0.048963 0.001876 542712.000000 0 0 1
29.087091 20.811298 23.491868 42.790616 0.621041 0.989634 0.033119 0.003954 897747.000000 0 0 1
29.572391 21.518998 22.320268 42.846096 0.629057 1.022844 0.030613 -0.008992 534278.000000 0 0 1
30.412291 20.686598 21.290068 42.498350 0.597317 1.046086 0.036665 -0.006506 113489.000000 0 0 1
29.584591 19.713098 20.642468 41.109193 0.587769 1.044728 0.039075 -0.004270 705130.000000 0 0 1
30.237691 19.161098 19.465268 40.747543 0.564819 1.072757 0.045929 -0.001831 494225.000000 0 0 1
31.272991 18.036298 19.833068 41.190516 0.523139 1.068436 0.058619 -0.006709 -10145.400000 0 0 1
30.702991 16.757898 20.160268 40.372481 0.499618 1.047940 0.071782 -0.007889 -157286.000000 0 0 1
31.620091 15.713698 20.308068 40.732887 0.461207 1.048852 0.050106 -0.007303 -653976.000000 0 0 1
30.957691 14.323898 20.562868 39.829439 0.433359 1.028303 0.061080 -0.005156 309298.000000 0 0 1
30.381991 14.011198 21.839568 39.954296 0.432102 0.992481 0.046650 -0.011753 875635.000000 0 0 1
29.227291 14.762698 22.239268 39.582279 0.467719 0.974177 0.058135 -0.005072 -56238.800000 0 0 1
28.634191 14.223598 23.510368 39.685829 0.461032 0.936747 0.032610 -0.003918 -76004.300000 0 0 1
28.192691 12.853398 23.392968 38.823557 0.427760 0.924109 0.039254 -0.003582 -115939.000000 0 0 1
27.569691 12.481698 24.590278 38.994389 0.425124 0.888457 0.026906 -0.003022 -71809.100000 0 0 1
26.846391 11.107198 24.403758 37.942614 0.392288 0.872158 0.029832 -0.003890 -306919.000000 0 0 1
25.755991 11.110798 23.534068 36.615205 0.407268 0.872726 0.015940 0.009559 -313813.000000 0 0 1
25.477091 9.790498 23.053668 35.726847 0.366887 0.869412 0.009553 0.011361 554523.000000 0 0 1
24.285691 9.610098 22.034168 34.170943 0.376803 0.870006 0.003423 -0.002458 835343.000000 0 0 1
22.991891 9.610698 22.606168 33.645674 0.395930 0.834040 0.002110 0.004674 -26016.900000 0 0 1
22.076391 8.812998 21.918568 32.333568 0.379821 0.825909 -0.008848 0.015508 970637.000000 0 0 1
20.588891 9.050398 22.422968 31.758489 0.414152 0.786897 -0.000396 0.006709 1031970.000000 0 0 1
20.218591 8.585498 23.714488 32.324590 0.401560 0.747139 0.019588 0.004771 874429.000000 0 0 1
18.805391 8.357698 23.780398 31.448389 0.418213 0.713353 0.013903 0.006369 715412.000000 0 0 1
18.287191 7.522998 24.992128 31.868845 0.390279 0.669361 0.024844 0.003182 -237559.000000 0 0 1
18.722891 6.169398 24.938858 31.789224 0.318306 0.668896 0.022740 -0.002287 155126.000000 0 0 1
18.443291 5.481398 26.119528 32.441184 0.288889 0.634894 0.026407 -0.007140 -206727.000000 0 0 1
18.668591 4.002998 25.986968 32.246903 0.211226 0.633645 0.033384 -0.012739 927036.000000 0 0 1
20.076891 3.733198 26.114868 33.151239 0.183845 0.663650 0.039595 -0.007989 740206.000000 0 0 1
20.408091 2.403298 25.842638 33.016783 0.117222 0.671785 0.028958 -0.001712 -217656.000000 0 0 1
21.928291 2.369498 25.630458 33.813974 0.107639 0.710579 0.033266 -0.003647 -277111.000000 0 0 1
22.743891 2.621898 26.757518 35.215390 0.114773 0.707753 0.046205 -0.016183 243271.000000 0 0 1
24.100591 2.588998 26.324458 35.784333 0.107014 0.744182 0.053020 -0.015082 589421.000000 0 0 1
25.072391 3.018098 27.471028 37.314757 0.119799 0.743362 0.037761 -0.020396 -1266140.000000 0 0 1
25.312391 1.951998 28.380238 38.078410 0.076964 0.729796 0.027159 -0.024713 612710.000000 0 0 1
26.255191 2.177198 29.457808 39.520092 0.082735 0.729679 0.022047 -0.006131 356461.000000 0 0 1
27.687391 2.492498 29.033238 40.196182 0.089781 0.763691 0.037540 -0.014565 -1799380.000000 0 0 1
27.750291 3.772098 28.332878 39.837913 0.135102 0.779587 0.022542 -0.001170 -247104.000000 0 0 1
29.028191 4.150198 27.843728 40.436780 0.142009 0.811275 0.015338 0.001881 -2772.380000 0 0 1
29.611091 3.205498 26.771288 40.047394 0.107833 0.838620 0.015639 0.005866 -524026.000000 0 0 1
28.878191 3.273398 25.553858 38.699673 0.112870 0.849562 0.013860 0.011734 152321.000000 0 0 1
29.116791 2.096498 24.780578 38.291773 0.071879 0.866954 0.031716 0.014926 -207237.000000 0 0 1
28.790291 2.247998 23.287968 37.098030 0.077924 0.892148 0.033902 0.008645 -91496.800000 0 0 1
29.450891 3.245898 22.610068 37.270712 0.109771 0.918964 0.026431 0.016080 220912.000000 0 0 1
30.866191 3.113998 22.409368 38.270073 0.100547 0.945227 0.020778 0.017525 769366.000000 0 0 1
31.502191 4.361698 21.739768 38.523109 0.137582 0.971174 0.022534 0.014107 -610775.000000 0 0 1
31.092891 4.557798 20.397768 37.464788 0.145550 0.995061 0.017008 0.007927 51273.500000 0 0 1
31.539691 5.820898 19.927568 37.759011 0.182504 1.014839 0.032976 0.005989 -717530.000000 0 0 1
33.030691 5.921798 19.599368 38.861671 0.177397 1.042183 0.026600 -0.003521 -1154160.000000 0 0 1
33.893891 5.807398 20.695968 40.135331 0.169693 1.029025 0.030802 -0.007053 -138695.000000 0 0 1
34.106891 7.094398 21.322568 40.844368 0.205081 1.021550 0.040365 -0.012944 -665661.000000 0 0 1
34.696791 6.984998 22.743868 42.070667 0.198660 0.999633 0.039815 -0.011749 -141147.000000 0 0 1
33.882191 6.344698 23.689298 41.826318 0.185114 0.968698 0.035390 0.003264 39114.000000 0 0 1
34.588891 6.210898 24.850668 43.040938 0.177670 0.955289 0.039774 -0.001119 68134.900000 0 0 1
33.762791 5.277498 25.792068 42.813652 0.155056 0.924259 0.038347 -0.000054 323769.000000 0 0 1
33.797091 3.960798 25.304418 42.405717 0.116661 0.931387 0.039693 -0.006457 125698.000000 0 0 1
33.401591 3.092198 26.338318 42.648974 0.092313 0.905159 0.030892 0.002932 -202164.000000 0 0 1
33.601991 1.565698 26.114808 42.585542 0.046562 0.910651 0.036667 0.008195 -103144.000000 0 0 1
32.629691 1.066098 25.218938 41.253220 0.032661 0.913068 0.050648 0.002495 48063.800000 0 0 1
32.795591 -0.323002 24.973788 41.223115 -0.009849 0.920000 0.058394 -0.009892 -1058490.000000 0 0 1
31.796391 -1.018102 24.006148 39.854010 -0.032008 0.924352 0.069912 0.002598 296938.000000 0 0 1
30.466691 -1.132802 24.488508 39.104853 -0.037165 0.894092 0.063219 -0.001970 -152691.000000 0 0 1
29.739691 -1.793902 23.490868 37.940587 -0.060247 0.903138 0.070874 -0.006981 589783.000000 0 0 1
28.196591 -1.967502 23.660568 36.861108 -0.069665 0.873843 0.053938 0.002435 783965.000000 0 0 1
27.455391 -0.765002 23.503868 36.149904 -0.027856 0.862978 0.046305 0.006247 -850054.000000 0 0 1
26.100491 -1.058102 23.412768 35.078667 -0.040517 0.840036 0.046735 0.007427 -590572.000000 0 0 1
25.257591 0.263698 23.376868 34.416470 0.010440 0.824077 0.036541 0.007128 -234115.000000 0 0 1
25.347891 1.001898 22.142968 33.672398 0.039505 0.853168 0.029554 0.005384 62746.000000 0 0 1
24.507091 2.100198 22.340568 33.228140 0.085489 0.833433 0.015015 0.006235 -123765.000000 0 0 1
24.450191 3.105098 21.218368 32.521879 0.126321 0.860005 0.003591 0.009368 -139652.000000 0 0 1
23.868191 2.658798 20.033368 31.274520 0.110938 0.875562 0.011798 0.009279 202599.000000 0 0 1
23.650291 3.701898 19.104068 30.626879 0.155267 0.897242 0.006525 0.012596 -133163.000000 0 0 1
23.537091 3.211698 17.635468 29.585797 0.135615 0.932188 0.010406 0.011472 532673.000000 0 0 1
24.788291 2.827198 17.024468 30.204055 0.113563 0.972000 -0.000435 0.004729 859806.000000 0 0 1
24.685491 2.868398 15.610268 29.347600 0.115679 1.009942 0.003624 0.005161 -274945.000000 0 0 1
24.218391 1.656998 14.851468 28.457727 0.068313 1.021745 0.009522 0.018211 -408053.000000 0 0 1
22.839091 1.413998 14.907968 27.310638 0.061832 0.993373 0.039140 0.014022 -35082.100000 0 0 1
22.411191 0.301598 14.102468 26.480786 0.013457 1.009180 0.056033 0.013297 -350299.000000 0 0 1
20.886191 0.098498 14.078468 25.188210 0.004716 0.977700 0.079512 -0.015863 -519429.000000 0 0 1
20.096091 0.917298 13.270268 24.099675 0.045614 0.987664 0.090689 -0.009922 251147.000000 0 1 0
20.118791 0.841098 11.861068 23.370026 0.041782 1.038477 0.095726 -0.003212 -790640.000000 0 1 0
19.645791 -0.491102 11.157268 22.598294 -0.024993 1.054432 0.088274 -0.003575 414156.000000 0 1 0
20.451591 -1.721302 11.222168 23.391612 -0.083967 1.070425 0.069266 -0.016724 1098500.000000 0 1 0
21.731491 -1.661102 10.595168 24.233748 -0.076289 1.118305 0.073357 -0.005313 733332.000000 0 1 0
22.848391 -2.560302 11.214168 25.580494 -0.111591 1.116993 0.073099 -0.009260 248189.000000 0 0 1
23.191891 -2.162702 12.496068 26.432798 -0.092984 1.078389 0.061030 -0.016391 -399372.000000 0 0 1
24.216391 -2.977802 12.941868 27.618705 -0.122352 1.083102 0.049542 -0.006483 -589625.000000 0 0 1
24.621291 -2.808702 14.379668 28.650857 -0.113585 1.045010 0.047829 -0.008789 406227.000000 0 0 1
25.591791 -1.751802 14.552168 29.491934 -0.068345 1.054769 0.042130 -0.005782 502100.000000 0 0 1
25.876491 -1.542602 15.899368 30.409905 -0.059544 1.020623 0.033250 -0.010773 753936.000000 0 0 1
27.141291 -0.630402 16.124768 31.576181 -0.023222 1.034841 0.053900 -0.003140 577210.000000 0 0 1
28.427591 -1.185702 15.975768 32.630645 -0.041685 1.059172 0.054049 -0.006069 -372788.000000 0 0 1
29.326691 -0.119702 15.984068 33.399993 -0.004082 1.071777 0.038137 0.000680 105146.000000 0 0 1
30.805091 -0.633802 16.068968 34.750066 -0.020572 1.090079 0.043995 0.001293 527770.000000 0 0 1
31.212691 -1.265502 14.848668 34.587809 -0.040522 1.127075 0.042545 0.010286 324578.000000 0 0 1
32.448891 -1.952002 15.027168 35.812800 -0.060084 1.137788 0.031138 0.013135 260692.000000 0 0 1
32.850491 -2.676202 13.707068 35.695946 -0.081287 1.176677 0.030404 0.012551 -33592.700000 0 0 1
33.461391 -1.731002 12.843368 35.883327 -0.051685 1.204757 0.033054 0.003660 109334.000000 0 0 1
33.935091 -2.270802 11.612968 35.938948 -0.066816 1.241761 0.045104 -0.005230 -225660.000000 0 0 1
33.203591 -1.744802 10.414268 34.842212 -0.052500 1.267259 0.071404 -0.008045 -624296.000000 0 0 1
33.609491 -0.408902 10.184668 35.121113 -0.012166 1.276583 0.053212 -0.005356 291871.000000 0 0 1
32.551891 0.426498 9.762168 33.986871 0.013101 1.279459 0.044240 -0.008566 -431362.000000 0 0 1
32.962691 1.872398 9.358568 34.316580 0.056743 1.294585 0.044560 -0.020505 -323984.000000 0 0 1
33.742091 1.887098 8.216568 34.779331 0.055869 1.332293 0.059824 -0.014664 -24252.900000 0 0 1
33.897291 3.173198 7.654668 34.895408 0.093340 1.349638 0.053270 -0.012423 -106328.000000 0 0 1
34.683091 3.122598 6.341268 35.396032 0.089790 1.390672 0.052340 -0.017835 -379484.000000 0 0 1
34.986091 4.392298 5.808168 35.735888 0.124891 1.407542 0.037308 -0.002199 83505.300000 0 0 1
35.456091 4.246098 4.500168 35.991878 0.119189 1.445435 0.038949 -0.004479 -497435.000000 0 0 1
-35.422467 5.530098 3.924768 36.065731 -0.154868 1.461758 0.030679 -0.017290 -990652.000000 0 0 1
35.154191 6.556398 3.764768 35.957989 0.184386 1.465905 0.058978 -0.022675 -616926.000000 0 0 1
35.697791 7.806198 3.320568 36.691895 0.215286 1.480174 0.047784 -0.027103 -174000.000000 0 0 1
34.684091 9.022498 3.370568 35.996561 0.254493 1.477023 0.088614 -0.033963 1470400.000000 0 0 1
33.532791 9.029598 2.502368 34.817288 0.263038 1.498863 0.106608 -0.040861 858697.000000 0 0 1
32.519491 8.083198 2.755768 33.622160 0.243627 1.488741 0.110034 -0.036588 -951615.000000 0 0 1
31.267191 8.179398 1.916068 32.376089 0.255863 1.511580 0.135403 -0.040929 -621684.000000 0 0 1
31.412391 7.925298 0.489468 32.400436 0.247141 1.555689 0.131093 -0.043884 96281.400000 0 0 1
30.179691 7.709698 -0.173532 31.149371 0.250111 1.576367 0.137231 -0.039930 -63491.400000 0 0 1
30.367191 7.528998 -1.691332 31.332295 0.243031 1.624803 0.106228 -0.031978 -108175.000000 0 0 1
29.180891 7.284798 -2.436232 30.174955 0.244642 1.651621 0.091089 -0.018202 616313.000000 0 0 1
29.453591 7.176498 -3.802032 30.552768 0.238998 1.695561 0.097273 -0.022698 -984009.000000 0 0 1
28.371891 6.487798 -4.569232 29.460713 0.224805 1.726521 0.079535 -0.019383 -1127540.000000 0 0 1
28.354191 5.127098 -4.397532 29.147651 0.178890 1.722246 0.083966 -0.018166 972654.000000 0 0 1
27.384691 4.571898 -5.300532 28.265159 0.165425 1.759442 0.065520 -0.006755 131319.000000 0 0 1
27.531291 3.028298 -5.430232 28.224635 0.109554 1.764397 0.086192 -0.010061 -277058.000000 0 0 1
27.157791 2.240198 -4.312232 27.589118 0.082302 1.727742 0.088293 -0.013006 375053.000000 0 0 1
27.028491 0.917398 -4.636532 27.438629 0.033929 1.740589 0.081887 -0.010331 -18212.200000 0 0 1
26.769691 0.028398 -3.365832 26.980474 0.001061 1.695873 0.078566 -0.009568 934955.000000 0 0 1
27.979391 0.073198 -2.569832 28.097255 0.002616 1.662386 0.088650 -0.013664 1215070.000000 0 0 1
27.671391 0.093598 -1.162732 27.695967 0.003382 1.612791 0.085626 -0.007544 -36792.200000 0 0 1
28.964891 0.443098 -0.420632 28.971334 0.015297 1.585316 0.090074 -0.008742 -286463.000000 0 0 1
30.009491 -0.481402 -0.456332 30.016821 -0.016040 1.585999 0.085567 -0.005915 -420658.000000 0 0 1
31.139591 0.094598 0.125168 31.139986 0.003038 1.566777 0.056907 -0.004473 -527311.000000 0 0 1
-2.688009 -21.107302 -8.347003 22.856422 1.444128 1.944636 0.005357 -0.004403 155336.000000 0 1 0
-3.323409 -21.812802 -7.351303 23.256935 1.419599 1.892402 0.006479 -0.004636 -255313.000000 0 1 0
-2.584509 -22.996402 -7.066303 24.196008 1.458878 1.867160 0.011597 -0.004172 284120.000000 0 1 0
-3.148409 -23.611402 -5.776003 24.510671 1.438236 1.808686 0.007480 -0.002681 -665162.000000 0 1 0
-2.830409 -22.810902 -4.677703 23.456968 1.447346 1.771559 0.005027 -0.007706 -253336.000000 0 1 0
-3.297609 -23.315102 -3.488303 23.804127 1.430292 1.717868 0.011407 -0.011758 -508973.000000 0 1 0
-2.845209 -22.500602 -2.252503 22.791359 1.445014 1.669789 0.014395 -0.020004 -152375.000000 0 1 0
-1.467409 -22.688002 -2.043603 22.827068 1.506209 1.660442 0.020180 -0.017454 -809027.000000 0 1 0
-1.158309 -22.539102 -0.657603 22.578424 1.519450 1.599926 0.018042 -0.014581 229791.000000 0 1 0
0.326791 -22.336502 -0.287003 22.340736 -1.556167 1.583643 0.027476 -0.018192 32010.400000 0 1 0
0.905491 -21.203602 -0.892903 21.241702 -1.528118 1.612844 0.015711 -0.017589 -791347.000000 0 1 0
2.015091 -20.814002 -0.136403 20.911764 -1.474283 1.577319 0.017856 -0.021577 -712749.000000 0 1 0
2.907891 -19.827802 -0.847603 20.057816 -1.425177 1.613067 0.021227 -0.019832 -104800.000000 0 1 0
3.625291 -20.460502 -1.877503 20.863842 -1.395432 1.660907 0.025452 -0.010820 148308.000000 0 1 0
4.731891 -19.654302 -2.327803 20.349473 -1.334537 1.685439 0.036345 -0.003393 624345.000000 0 1 0
5.611291 -20.310202 -3.435903 21.349387 -1.301241 1.732436 0.028650 -0.000063 -242770.000000 0 1 0
6.559691 -21.284602 -3.011303 22.475137 -1.271843 1.705184 0.039253 -0.002744 310687.000000 0 1 0
7.418291 -21.912302 -3.959303 23.470324 -1.244363 1.740301 0.034413 -0.004637 753278.000000 0 1 0
8.556491 -21.004102 -4.496903 23.121591 -1.183951 1.766533 0.034156 -0.003761 -191535.000000 0 1 0
8.035491 -19.861802 -5.245203 22.058387 -1.186356 1.810883 0.030120 -0.001723 340602.000000 0 1 0
9.096691 -19.340902 -6.043203 22.211271 -1.131162 1.846348 0.028578 0.002704 136752.000000 0 1 0
8.697091 -18.124902 -6.834403 21.233476 -1.123405 1.898499 0.018902 0.005869 -110858.000000 0 1 0
9.710491 -17.763002 -7.742603 21.674081 -1.070514 1.936095 0.026736 0.006401 -20398.700000 0 1 0
9.251691 -16.767202 -8.569003 20.980006 -1.066593 1.991537 0.020256 0.011317 49427.300000 0 1 0
9.913191 -16.590802 -9.948203 21.736900 -1.032209 2.046163 0.025858 0.008025 -43559.700000 0 1 0
9.232491 -17.429202 -10.927903 22.548504 -1.083661 2.076748 0.020434 0.012930 360874.000000 0 1 0
8.932091 -16.635902 -12.025103 22.386125 -1.078053 2.137872 0.012984 0.011884 53706.300000 0 1 0
8.168791 -17.359302 -13.149603 23.259118 -1.130968 2.171657 0.013238 0.009126 942191.000000 0 1 0
6.913391 -18.027602 -12.911603 23.227115 -1.204604 2.160223 0.003885 0.015131 1015300.000000 0 1 0
6.535891 -18.805302 -14.065603 24.376186 -1.236301 2.185874 0.011064 0.017934 40475.200000 0 1 0
5.336891 -19.717602 -13.741503 24.618999 -1.306464 2.162971 0.017851 0.025805 -92188.200000 0 1 0
5.660391 -20.917102 -13.020903 25.280607 -1.306515 2.111868 0.020877 0.014081 134644.000000 0 0 1
4.465091 -21.624802 -12.767803 25.506585 -1.367178 2.095052 0.024692 0.016502 259761.000000 0 0 1
4.811291 -23.085602 -12.448103 26.665498 -1.365327 2.056493 0.010118 0.015526 -69562.100000 0 0 1
5.338191 -23.815902 -13.552003 27.916845 -1.350297 2.077665 0.018523 0.005741 -176910.000000 0 0 1
5.108691 -25.238152 -13.574303 29.108843 -1.371076 2.055933 0.009563 0.001992 420123.000000 0 0 1
3.670691 -25.574812 -14.096703 29.432329 -1.428242 2.070258 0.005580 -0.006770 359542.000000 0 0 1
2.696391 -25.148312 -13.175103 28.518265 -1.463985 2.051032 0.013071 -0.004700 872170.000000 0 0 1
1.318291 -25.263382 -13.640803 28.741048 -1.518662 2.065318 0.009441 -0.011595 1665990.000000 0 0 1
0.551091 -26.542712 -13.210803 29.653745 -1.550037 2.032531 0.005224 -0.013323 -832269.000000 0 0 1
1.062991 -27.656302 -13.881903 30.963014 -1.532379 2.035702 0.005772 -0.010592 -117320.000000 0 0 1
0.503291 -28.831672 -13.378103 31.788241 -1.553342 2.005179 0.000379 -0.004274 511355.000000 0 0 1
-0.997909 -29.095852 -13.699803 32.175286 1.536512 2.010627 -0.011111 -0.007676 -39362.700000 0 0 1
-1.950009 -28.452152 -12.934703 31.315077 1.502367 1.996597 0.002755 -0.015661 -922681.000000 0 0 1
-3.244709 -28.906922 -13.211603 31.948157 1.459017 1.997127 0.019588 -0.018222 -355485.000000 0 0 1
-4.386509 -28.036622 -12.605403 31.051406 1.415598 1.988817 0.019525 -0.009618 205640.000000 0 0 1
-4.577409 -28.253222 -11.216203 30.740859 1.410178 1.944282 0.023224 -0.026305 -188836.000000 0 0 1
-5.091109 -29.485022 -10.828703 31.820539 1.399815 1.918038 0.019562 -0.015323 -1019780.000000 0 0 1
-5.593509 -29.598862 -9.327703 31.533887 1.384022 1.871089 0.025458 -0.013560 -111481.000000 0 0 1
-6.910109 -29.158002 -9.113303 31.320775 1.338101 1.866033 0.032633 -0.010358 -395841.000000 0 0 1
-6.980309 -27.764762 -9.022103 30.016746 1.324492 1.876085 0.039130 -0.012854 -794535.000000 0 0 1
-8.434909 -27.328482 -8.786503 29.919830 1.271424 1.868858 0.040195 -0.008887 1180640.000000 0 0 1
-9.456609 -27.519842 -9.835603 30.716579 1.239809 1.896742 0.051850 -0.002470 957263.000000 0 0 1
-9.823309 -28.887502 -10.026003 32.117065 1.243009 1.888273 0.051390 -0.006454 -531373.000000 0 0 1
-11.102809 -28.984612 -10.888503 32.892850 1.204979 1.908191 0.049969 -0.004528 -327253.000000 0 0 1
-10.911709 -28.487532 -12.176103 32.846040 1.205000 1.950561 0.058282 -0.009202 181222.000000 0 0 1
-11.841609 -29.028502 -13.132503 33.990296 1.183472 1.967479 0.065912 -0.010189 222388.000000 0 0 1
-11.862309 -28.440602 -14.575503 34.088524 1.175644 2.012608 0.081738 -0.012404 362326.000000 0 0 1
-12.800509 -27.404432 -14.917703 33.725269 1.133816 2.028991 0.065779 -0.020965 346505.000000 0 0 1
-12.359209 -26.157402 -14.372303 32.303604 1.129395 2.031874 0.064814 -0.012769 124372.000000 0 0 1
-13.207409 -24.875002 -14.647503 31.745089 1.082696 2.050380 0.096217 -0.010464 70173.300000 0 0 1
-12.879809 -24.080902 -15.774503 31.537505 1.079654 2.094606 0.070855 -0.010979 -391497.000000 0 0 1
-14.025209 -23.361702 -16.075203 31.636810 1.030119 2.103794 0.082472 -0.011733 -409985.000000 0 0 1
-13.802409 -22.303002 -17.218803 31.375429 1.016625 2.151723 0.083731 -0.009691 -86385.800000 0 0 1
-13.231409 -21.089802 -16.809703 30.040240 1.010484 2.164667 0.061523 -0.000831 198340.000000 0 0 1
-13.162609 -20.230602 -17.893003 30.044818 0.993979 2.208739 0.040389 0.001731 -285210.000000 0 0 1
-13.288009 -18.730602 -17.720903 29.007534 0.953771 2.228002 0.028998 -0.001493 -80985.500000 0 0 1
-12.083109 -17.998002 -17.589003 27.915992 0.979553 2.252438 0.030546 0.005069 -103205.000000 0 0 1
-12.171709 -16.593502 -17.645503 27.108275 0.937924 2.279601 0.024839 0.003498 330559.000000 0 0 1
-10.787809 -15.880802 -17.750803 26.147040 0.974099 2.317038 0.034012 -0.005170 210391.000000 0 0 1
-10.173909 -15.722402 -16.507903 24.964238 0.996465 2.293296 0.031563 -0.011143 -548744.000000 0 1 0
-8.879709 -15.253902 -16.810203 24.374447 1.043622 2.331823 0.033771 -0.005831 -659692.000000 0 1 0
-8.156909 -14.696002 -15.530503 22.884583 1.064090 2.316712 0.020035 -0.005504 -166622.000000 0 1 0
-7.868309 -15.599102 -14.465403 22.682375 1.103629 2.262354 0.028910 -0.005377 -73904.700000 0 1 0
-6.889809 -16.531202 -14.842503 23.260481 1.175912 2.262824 0.034254 -0.001063 -598480.000000 0 1 0
-6.475909 -17.442102 -13.626903 23.062021 1.215291 2.202946 0.028234 0.005268 -142851.000000 0 1 0
-5.876909 -16.755002 -12.508403 21.719307 1.233449 2.184515 0.024288 0.000832 368621.000000 0 1 0
-5.504509 -17.647702 -11.405803 21.721725 1.268448 2.123614 0.015779 0.000762 -209636.000000 0 1 0
-4.382709 -18.675602 -11.552003 22.392745 1.340292 2.112833 0.023100 -0.000824 530425.000000 0 1 0
-3.084309 -18.152502 -11.889203 21.917560 1.402493 2.144148 0.022378 0.007261 223596.000000 0 1 0
-2.088109 -19.132302 -11.711103 22.528984 1.462086 2.117441 0.006941 0.010499 880838.000000 0 1 0
-0.667309 -18.621402 -12.124603 22.230787 1.534976 2.147659 0.013735 0.013625 -422731.000000 0 1 0
-0.661009 -18.441402 -13.565203 22.902772 1.534968 2.204701 0.020266 0.010715 -524611.000000 0 1 0
0.535591 -17.913902 -14.057803 22.777545 -1.540907 2.235948 0.026020 0.016118 183049.000000 0 1 0
1.835791 -18.748902 -13.873503 23.395844 -1.473193 2.205563 0.022365 0.009043 -858801.000000 0 1 0
1.995491 -19.874302 -14.700603 24.800758 -1.470726 2.205263 0.038475 0.012795 416403.000000 0 1 0
1.074391 -20.979702 -14.514703 25.533876 -1.519630 2.175416 0.027841 0.009163 -372770.000000 0 0 1
1.040891 -21.880502 -15.790603 27.003388 -1.523261 2.195385 0.030352 -0.000697 265527.000000 0 0 1
2.189491 -22.638202 -16.150003 27.894527 -1.474380 2.188257 0.036589 -0.001102 535505.000000 0 0 1
3.308591 -21.863902 -16.586103 27.641921 -1.420609 2.214340 0.029083 -0.004820 149084.000000 0 0 1
4.628891 -22.583802 -16.872603 28.568155 -1.368631 2.202609 0.030725 -0.002280 127509.000000 0 0 1
4.447191 -23.385602 -18.028603 29.861253 -1.382872 2.218988 0.022218 0.000718 267578.000000 0 0 1
5.665491 -24.017402 -18.396903 30.779529 -1.339140 2.211425 0.020088 0.000978 453255.000000 0 0 1
6.194091 -23.843202 -19.837803 31.629155 -1.316630 2.248749 0.025563 0.000451 105369.000000 0 0 1
6.468991 -22.467502 -20.235703 30.921193 -1.290453 2.284223 0.042635 -0.012124 114201.000000 0 0 1
6.874991 -22.283502 -21.573803 31.768678 -1.271538 2.317319 0.043955 -0.019209 68874.600000 0 0 1
7.198191 -20.811502 -21.964003 31.102250 -1.237801 2.354894 0.051024 -0.019952 659711.000000 0 0 1
5.985891 -20.066302 -22.143203 30.476365 -1.280895 2.384113 0.070068 -0.020242 583690.000000 0 0 1
6.207191 -18.704402 -22.442603 29.867278 -1.250375 2.420994 0.080662 -0.020810 267952.000000 0 0 1
4.870991 -18.009902 -22.820203 29.476173 -1.306654 2.456233 0.075800 -0.018252 -930777.000000 0 0 1
4.232491 -18.415902 -23.997903 30.544374 -1.344891 2.474580 0.069169 -0.018860 -461592.000000 0 0 1
3.237291 -17.598602 -24.492203 30.332472 -1.388878 2.510627 0.063126 -0.013349 -668828.000000 0 0 1
1.951691 -17.494702 -23.703203 29.524829 -1.459697 2.502811 0.060607 -0.009499 -1286870.000000 0 0 1
2.216891 -16.693702 -22.546803 28.141653 -1.438771 2.500077 0.072431 -0.014287 135598.000000 0 0 1
0.991991 -16.166402 -22.013603 27.330117 -1.509512 2.507265 0.046685 -0.005070 925814.000000 0 0 1
1.249591 -15.395102 -20.680703 25.812054 -1.489806 2.500100 0.040221 -0.003277 153494.000000 0 0 1
1.997291 -14.203802 -20.881903 25.333595 -1.431096 2.539721 0.051254 -0.002494 43405.100000 0 0 1
1.923591 -13.378602 -19.725403 23.911895 -1.427994 2.540857 0.052607 -0.005608 279785.000000 0 1 0
3.180591 -12.453302 -19.700403 23.522473 -1.320740 2.563514 0.046883 -0.009128 292506.000000 0 1 0
4.327391 -13.072002 -19.097803 23.544206 -1.251109 2.516906 0.047000 -0.022822 597717.000000 0 1 0
5.509291 -12.282502 -19.254103 23.493246 -1.149151 2.531437 0.049962 -0.017692 598900.000000 0 1 0
5.619191 -11.147302 -18.202203 22.071652 -1.103886 2.540445 0.042742 -0.012348 33405.400000 0 1 0
4.666391 -10.042702 -18.259203 21.354849 -1.135822 2.596420 0.016866 0.000667 590110.000000 0 1 0
5.005191 -8.965502 -19.113603 21.697050 -1.061624 2.648622 0.022349 -0.004976 -398467.000000 0 1 0
4.510691 -9.135102 -20.548403 22.935415 -1.112141 2.681305 0.030239 -0.008742 -521666.000000 0 1 0
3.115091 -9.184102 -20.618503 22.785394 -1.243790 2.701941 0.031256 -0.012531 -729619.000000 0 1 0
2.701891 -9.474802 -21.921003 24.033361 -1.293004 2.719192 0.026425 -0.008494 921868.000000 0 1 0
1.144991 -9.300602 -22.051103 23.959619 -1.448303 2.739757 0.007425 -0.008499 811157.000000 0 1 0
0.738591 -7.973102 -21.846303 23.267506 -1.478425 2.790272 0.007609 -0.003954 -82596.600000 0 1 0
-0.646609 -7.792002 -22.097003 23.439516 1.488002 2.801502 0.006354 -0.004460 368632.000000 0 1 0
-0.943209 -6.681602 -23.138203 24.102072 1.430558 2.857830 0.016428 0.000288 -193441.000000 0 1 0
-0.460109 -7.065402 -24.377403 25.384826 1.505767 2.858922 0.013200 -0.005156 -356954.000000 0 0 1
-1.067609 -6.475902 -25.512603 26.343310 1.407407 2.889795 0.017668 -0.004343 110553.000000 0 0 1
-0.550809 -5.060502 -25.843163 26.339725 1.462378 2.947110 0.032075 -0.006453 -353018.000000 0 0 1
-1.274109 -4.440102 -26.883253 27.277228 1.291350 2.971427 0.034835 -0.007130 21191.300000 0 0 1
-0.790809 -3.152702 -27.234393 27.427670 1.325032 3.022807 0.022064 -0.005071 -834822.000000 0 0 1
-1.268309 -1.941702 -26.435473 26.537013 0.992179 3.054085 0.021830 -0.005959 -697151.000000 0 0 1
-2.642309 -1.761402 -26.314463 26.505382 0.587967 3.021495 0.011518 -0.005875 -804760.000000 0 0 1
-3.226409 -1.172902 -27.413513 27.627633 0.348679 3.017011 0.028587 -0.007030 -1216950.000000 0 0 1
-4.738509 -1.143102 -27.268943 27.701180 0.236714 2.964707 0.025048 -0.005147 -701875.000000 0 0 1
-5.244509 -0.156702 -26.424813 26.940679 0.029870 2.945584 0.027731 -0.006908 -887319.000000 0 0 1
-6.611409 -0.340002 -26.248023 27.070002 0.051381 2.894530 0.037439 -0.014674 -824280.000000 0 0 1
-7.262209 0.922698 -25.613553 26.639165 -0.126378 2.863205 0.034962 -0.012145 -676167.000000 0 0 1
-7.644009 2.004498 -26.456573 27.611576 -0.256457 2.851333 0.046496 -0.015434 700731.000000 0 0 1
-8.624509 1.915598 -27.504373 28.888444 -0.218563 2.830792 0.063905 -0.017838 1174190.000000 0 0 1
-10.071509 1.402798 -27.112703 28.956895 -0.138393 2.782774 0.059627 -0.013227 551492.000000 0 0 1
-11.035809 2.087298 -27.906293 30.081673 -0.186930 2.758958 0.060956 -0.021915 1054290.000000 0 0 1
-12.376809 1.644398 -27.622713 30.313425 -0.132088 2.717074 0.035288 -0.010239 553222.000000 0 0 1
-13.444409 2.338398 -28.461663 31.564006 -0.172208 2.694511 0.022787 -0.002631 -425931.000000 0 0 1
-14.692509 1.675298 -28.334003 31.960791 -0.113534 2.660573 0.019482 0.000516 620830.000000 0 0 1
-15.746409 2.240098 -29.125563 33.185326 -0.141313 2.641762 0.010216 0.002729 856592.000000 0 0 1
-16.561909 3.489398 -28.625953 33.255344 -0.207651 2.607621 0.014206 0.009544 -187875.000000 0 0 1
-15.846909 4.747598 -28.575903 33.018880 -0.291082 2.616827 0.015419 0.001096 430317.000000 0 0 1
-15.470509 5.411098 -29.819653 34.026876 -0.336469 2.639040 0.012382 -0.008333 -427721.000000 0 0 1
-16.681009 5.922898 -30.600173 35.351200 -0.341183 2.617154 0.009093 -0.005883 -281109.000000 0 0 1
-17.231109 6.979598 -29.851633 35.167398 -0.384859 2.584591 0.014067 -0.006307 -841796.000000 0 0 1
-18.215909 7.654098 -30.502373 36.342803 -0.397787 2.566784 0.012415 -0.009352 -1177900.000000 0 0 1
-18.804009 8.817298 -29.665923 36.213291 -0.438464 2.530811 0.009420 -0.011327 -326463.000000 0 0 1
-17.946309 9.876598 -29.295803 35.747185 -0.503105 2.531382 0.014885 -0.009295 163449.000000 0 0 1
-18.685709 10.885298 -28.599433 35.854888 -0.527487 2.494175 0.025410 -0.008121 3986.850000 0 0 1
-8.296909 24.764898 31.273288 40.745029 -1.247522 0.695808 0.017407 -0.013356 -344042.000000 0 0 1
-9.033509 25.963198 31.034138 41.458529 -1.235962 0.724911 0.019368 -0.013169 249065.000000 0 0 1
-8.745609 27.077898 31.891328 42.740555 -1.258393 0.728520 0.015130 -0.006999 -666910.000000 0 0 1
-7.458509 27.834598 31.599768 42.766103 -1.308989 0.739364 0.014877 -0.006834 -563898.000000 0 0 1
-7.528909 28.712298 30.514658 42.570234 -1.314351 0.771584 0.030324 -0.004199 485156.000000 0 0 1
-6.251509 28.802198 29.902048 41.985479 -1.357062 0.778169 0.031936 -0.005782 230596.000000 0 0 1
-6.179509 29.962898 28.814248 42.026450 -1.367409 0.815339 0.050039 -0.010641 -267276.000000 0 0 1
-6.454609 31.205698 29.404308 43.359784 -1.366832 0.825558 0.051218 -0.010737 585630.000000 0 0 1
-5.834609 32.302898 28.720728 43.616512 -1.392101 0.851995 0.062706 -0.012190 -73512.000000 0 0 1
-6.117709 33.621098 29.510118 45.151430 -1.390805 0.858490 0.058751 -0.012215 -306648.000000 0 0 1
-5.520209 33.632198 30.738428 45.896061 -1.408112 0.836938 0.052802 -0.014918 -169407.000000 0 0 1
-6.107809 -34.135766 31.555278 46.885940 1.393743 0.832509 0.058667 -0.019909 402725.000000 0 0 1
-7.369009 34.192398 32.354058 47.646694 -1.358527 0.824341 0.029083 -0.019433 33318.900000 0 0 1
-7.116009 33.201298 33.402292 47.630630 -1.359661 0.793608 0.035370 -0.014614 -40752.900000 0 0 1
-6.842209 31.875698 33.004096 46.391231 -1.359352 0.779266 0.042613 -0.005291 -286830.000000 0 0 1
-6.718809 30.815798 34.164178 46.496740 -1.356125 0.745476 0.030510 -0.002743 99671.500000 0 0 1
-5.415109 30.768898 -34.030243 46.196384 -1.396587 2.398889 0.026310 -0.008782 -21153.000000 0 0 1
-5.503009 30.457998 -32.639953 44.981544 -1.392049 2.382746 0.022125 -0.006615 328106.000000 0 0 1
-4.089109 30.367198 -31.924693 44.250125 -1.436946 2.376705 0.022761 -0.008469 1372550.000000 0 0 1
-3.341509 29.147598 -32.049623 43.450276 -1.456654 2.400329 0.030201 -0.005304 318667.000000 0 0 1
-2.932809 28.931098 -33.395253 44.281517 -1.469769 2.425167 0.038692 -0.008311 -1097550.000000 0 0 1
-2.195409 27.625598 -33.693593 43.626273 -1.491493 2.453287 0.044213 -0.008979 -509224.000000 0 0 1
-0.922909 27.551198 -33.066463 43.050102 -1.537311 2.446653 0.058561 -0.000468 524416.000000 0 0 1
-0.288709 26.229598 -33.200523 42.312526 -1.559790 2.472928 0.065017 -0.000361 659236.000000 0 0 1
0.222391 25.840598 34.091681 42.778834 1.562190 0.648603 0.064182 -0.001531 -24079.000000 0 0 1
-0.876709 25.423398 33.252051 41.866653 -1.536326 0.653045 0.058720 0.000385 714450.000000 0 0 1
-0.644309 25.387398 31.866638 40.748223 -1.545423 0.672868 0.065678 0.007396 -301613.000000 0 0 1
-0.320609 26.713198 31.173208 41.054435 -1.558795 0.708538 0.048864 0.006208 269339.000000 0 0 1
-1.484909 27.366498 30.681638 41.139921 -1.516589 0.729080 0.038732 -0.002913 279972.000000 0 0 1
-1.169809 28.618398 30.104898 41.553412 -1.529943 0.760507 0.039795 -0.002823 278145.000000 0 0 1
-2.228409 29.736398 30.362478 42.557012 -1.495997 0.776381 0.047272 -0.003957 251083.000000 0 0 1
-2.195209 30.182598 31.686308 43.815868 -1.498193 0.762416 0.053258 -0.005849 -22195.100000 0 0 1
-3.130009 31.212698 31.922708 44.755879 -1.470850 0.776654 0.054978 -0.003044 33559.400000 0 0 1
-2.782809 32.063298 33.210589 46.246538 -1.484222 0.769698 0.065361 -0.016659 519585.000000 0 0 1
-1.552909 32.765698 33.002450 46.531325 -1.523437 0.782359 0.077512 -0.019220 96439.200000 0 0 1
-0.861509 32.923798 34.203643 47.482711 -1.544636 0.766506 0.055303 -0.020269 -294001.000000 0 0 1
0.535391 33.531598 33.912838 47.694185 1.554831 0.779809 0.051834 -0.020523 37912.600000 0 0 1
0.527391 -33.893966 33.599098 47.728173 -1.555238 0.789828 0.052745 -0.017824 580942.000000 0 0 1
1.857291 -33.376066 33.548338 47.359289 -1.515206 0.783597 0.037103 -0.012212 445653.000000 0 0 1
1.968091 -31.907766 33.164418 46.063625 -1.509194 0.767038 0.037784 -0.018859 -38321.800000 0 0 1
1.341091 -31.093866 34.133065 46.191916 -1.527693 0.739300 0.033664 -0.013517 364994.000000 0 0 1
1.748391 -29.771366 33.840254 45.106029 -1.512136 0.722374 0.030773 -0.016110 -176859.000000 0 0 1
1.212691 -28.721866 -33.954033 44.489241 -1.528600 2.439042 0.033447 -0.013033 -350730.000000 0 0 1
-0.166309 -28.481666 -34.065813 44.403970 1.564957 2.445229 0.029887 -0.013756 -279507.000000 0 0 1
-0.529809 -27.636266 -33.004943 43.050786 1.551628 2.444406 0.034729 -0.009838 -548562.000000 0 0 1
-2.028509 -27.597666 -32.731463 42.861343 1.497425 2.439758 0.030766 -0.009698 -471360.000000 0 0 1
-2.445709 -27.399366 -31.395163 41.741622 1.481771 2.422086 0.027521 -0.015161 -71823.500000 0 0 1
-3.348209 -26.340366 -31.298893 41.044440 1.444361 2.438059 0.052470 -0.018066 -497563.000000 0 0 1
-3.673509 -25.844766 -29.893513 39.687135 1.429605 2.423754 0.050799 -0.016149 -613227.000000 0 0 1
-4.344809 -26.773266 -29.079873 39.765867 1.409917 2.390989 0.046426 -0.012863 -13971.600000 0 0 1
-4.631709 -26.334666 -27.759803 38.543145 1.396698 2.374925 0.039749 -0.013671 696377.000000 0 0 1
-3.377809 -26.078366 -26.806813 37.551245 1.441988 2.365809 0.044830 -0.014216 714625.000000 0 0 1
-2.748509 -24.925266 -27.256663 37.037128 1.460970 2.397833 0.042888 -0.011524 -15111.000000 0 0 1
-1.553109 -24.555566 -26.579343 36.219462 1.507632 2.394756 0.037140 -0.009428 -272735.000000 0 0 1
-0.805509 -23.408866 -27.372783 36.026284 1.536399 2.433802 0.044632 -0.010837 5358.230000 0 0 1
-0.065109 -23.605466 -28.547003 37.042592 1.568038 2.450662 0.025100 -0.009955 -599587.000000 0 0 1
1.109391 -24.260166 -28.157963 37.184100 -1.525099 2.429901 0.029613 -0.009426 -1203410.000000 0 0 1
1.998791 -24.555766 -29.385003 38.346567 -1.489577 2.443860 0.007095 -0.014594 -313632.000000 0 0 1
2.753191 -23.433266 -29.794273 38.005220 -1.453842 2.471803 0.018886 -0.011115 214585.000000 0 0 1
3.566891 -23.813466 -30.896163 39.171122 -1.422117 2.479567 0.031478 -0.006814 -416876.000000 0 0 1
4.618591 -22.762666 -31.327873 38.998795 -1.370612 2.503618 0.036575 -0.012346 -168670.000000 0 0 1
5.842791 -22.613366 -30.598613 38.493865 -1.317948 2.489632 0.024414 -0.018235 1057840.000000 0 0 1
6.790291 -23.666466 -30.507403 39.203460 -1.291386 2.462561 0.028632 -0.009306 -81007.700000 0 0 1
7.443191 -24.011066 -31.869523 40.590626 -1.270200 2.473726 0.023192 -0.005868 -989240.000000 0 0 1
6.509591 -24.680866 -32.680413 41.467208 -1.312918 2.478517 0.006421 -0.003289 -140259.000000 0 0 1
6.726091 -24.691866 -34.088241 42.625541 -1.304848 2.497615 0.009748 -0.005310 -186186.000000 0 0 1
6.405491 -23.404466 33.932137 41.715576 -1.303651 0.620795 0.008238 -0.003694 90587.000000 0 0 1
5.016891 -23.122066 33.953142 41.383753 -1.357134 0.608605 0.019544 -0.002770 178977.000000 0 0 1
4.606491 -22.207566 32.922805 39.978830 -1.366268 0.603233 0.024770 -0.013298 553884.000000 0 0 1
3.095891 -21.788166 33.057464 39.712777 -1.429651 0.587347 0.027766 -0.018648 1550100.000000 0 0 1
2.021391 -22.739566 32.872021 40.021790 -1.482136 0.607017 0.038293 -0.014682 843255.000000 0 0 1
1.905691 -23.719466 33.910940 41.427003 -1.490626 0.611878 0.034052 -0.006512 -172699.000000 0 0 1
0.559491 -24.484266 33.785558 41.728362 -1.547949 0.627233 0.042530 -0.007605 418465.000000 0 0 1
0.652091 -25.621666 32.877171 41.686969 -1.545351 0.662157 0.036503 -0.004642 103627.000000 0 0 1
-0.639209 -26.044566 32.487438 41.643266 1.546258 0.675912 0.040256 -0.012403 152665.000000 0 0 1
-0.635109 -27.026266 31.263748 41.330913 1.547301 0.712966 0.038015 -0.031340 -40781.100000 0 0 1
-1.930909 -27.083666 30.723198 41.002052 1.499623 0.723779 0.040013 -0.032051 -30570.200000 0 0 1
-2.004509 -28.179766 29.835248 41.088432 1.499783 0.758130 0.041187 -0.033541 407644.000000 0 0 1
-3.338309 -28.169866 29.011448 40.575236 1.452840 0.774167 0.046271 -0.024481 498525.000000 0 0 1
-4.452809 -28.618966 29.767128 41.532573 1.416444 0.771712 0.052177 -0.020427 36720.800000 0 0 1
-5.475809 -28.980066 28.868718 41.270226 1.384047 0.796092 0.068695 -0.020174 -231030.000000 0 0 1
-6.764009 -29.484766 29.559958 42.295323 1.345291 0.796946 0.059455 -0.017961 -145561.000000 0 0 1
-7.791409 -30.075266 28.786728 42.354497 1.317306 0.823495 0.073103 -0.015689 911247.000000 0 0 1
-9.008409 -30.300366 29.513788 43.247281 1.281815 0.819697 0.070220 -0.017491 424134.000000 0 0 1
-8.968609 -31.505566 30.500338 44.758320 1.293465 0.821061 0.047420 -0.011470 -592436.000000 0 0 1
-9.110309 -32.811066 29.908858 45.322219 1.299959 0.850089 0.057267 -0.012003 1528420.000000 0 0 1
-10.438809 -33.029966 29.352058 45.403642 1.264689 0.867849 0.060192 -0.011553 934254.000000 0 0 1
-10.489609 34.286498 28.754088 45.960781 -1.273899 0.894867 0.068742 -0.009732 -328201.000000 0 0 1
-10.531209 33.258898 29.745058 45.845710 -1.264141 0.864780 0.049666 -0.003805 387962.000000 0 0 1
-9.957009 32.055498 29.265498 44.532756 -1.269627 0.853741 0.050458 -0.016478 -79713.400000 0 0 1
-10.174209 30.848798 30.223198 44.368959 -1.252221 0.821425 0.046861 0.001937 1058790.000000 0 0 1
-11.580609 30.553798 30.383678 44.618527 -1.208503 0.821716 0.038336 0.013152 1000750.000000 0 0 1
-11.877609 29.399698 31.181118 44.471136 -1.186843 0.793782 0.036704 0.010378 78622.000000 0 0 1
-11.821109 29.586998 32.713911 45.665403 -1.190689 0.772192 0.033223 -0.002405 -132109.000000 0 0 1
-12.919109 30.274398 33.289875 46.815150 -1.167458 0.779746 0.034782 0.007943 329642.000000 0 0 1
-13.121909 29.909298 -34.100496 47.218581 -1.157359 2.377751 0.039064 0.006916 -114701.000000 0 0 1
-14.507309 30.363198 -33.590843 47.547140 -1.125072 2.355301 0.048601 0.008539 26518.900000 0 0 1
-14.741109 30.001698 -32.264203 46.458379 -1.114099 2.338487 0.037783 0.003582 54934.700000 0 0 1
-16.048409 30.334798 -31.821103 46.801004 -1.084185 2.318455 0.043585 0.000729 361739.000000 0 0 1
-16.176509 29.974798 -30.299833 45.587804 -1.075918 2.297819 0.047907 -0.000765 -92176.500000 0 0 1
-15.988909 28.593098 -30.046623 44.452334 -1.060927 2.313021 0.036986 -0.008198 70847.400000 0 0 1
-16.199009 28.424098 -28.627633 43.472734 -1.052800 2.289646 0.024702 -0.011932 -178713.000000 0 0 1
-16.607509 26.989498 -28.295243 42.483681 -1.019179 2.299665 0.019941 -0.018233 647209.000000 0 0 1
-17.960209 26.709298 -28.674983 43.106964 -0.978812 2.298565 0.023142 -0.015947 452111.000000 0 0 1
-18.365309 25.396498 -28.351983 42.262295 -0.944706 2.306161 0.013452 -0.025518 -338962.000000 0 0 1
-19.815709 25.007298 -28.616393 42.859366 -0.900709 2.301886 0.016769 -0.025375 -785691.000000 0 0 1
-20.776309 25.559998 -27.761823 43.077689 -0.888272 2.271112 0.029295 -0.026043 -362466.000000 0 0 1
-21.957009 24.840198 -28.008613 43.400784 -0.846931 2.272275 0.039659 -0.023649 -251871.000000 0 0 1
-23.107409 24.999098 -26.996063 43.447608 -0.824701 2.241258 0.063001 -0.030683 43067.300000 0 0 1
-23.655609 26.298998 -26.900353 44.439331 -0.838265 2.220974 0.053559 -0.019218 918910.000000 0 0 1
-24.851809 26.452898 -26.094213 44.702082 -0.816595 2.194119 0.052542 -0.023096 1069520.000000 0 0 1
-24.674509 26.155698 -24.530203 43.527954 -0.814530 2.169474 0.045148 -0.008102 -471691.000000 0 0 1
-24.517409 24.821398 -24.149303 42.431050 -0.791559 2.176259 0.046632 -0.010778 -142226.000000 0 0 1
-25.716559 24.112998 -23.905603 42.594083 -0.753228 2.166682 0.049051 -0.009207 -82826.600000 0 0 1
-26.488269 24.292998 -22.561103 42.435616 -0.742195 2.131350 0.026896 -0.011482 -110490.000000 0 0 1
-25.807949 23.852698 -21.390903 41.140882 -0.746046 2.117580 0.014968 -0.009237 -535519.000000 0 0 1
-24.958109 24.814198 -20.937303 40.951462 -0.782507 2.107460 0.019010 -0.005737 -830955.000000 0 0 1
-24.004109 24.328998 -19.842603 39.519948 -0.792120 2.096811 0.017875 -0.014424 -669272.000000 0 0 1
-24.628609 24.108598 -18.636203 39.180364 -0.774729 2.066501 0.007498 -0.012377 -328439.000000 0 0 1
-23.696209 23.834898 -17.628603 37.952343 -0.788316 2.053859 0.014798 -0.017626 -855797.000000 0 0 1
-24.260909 23.693298 -16.139803 37.556056 -0.773562 2.015015 0.012437 -0.019149 -199420.000000 0 0 1
-24.668809 24.978598 -15.694003 38.454938 -0.791638 1.991184 0.022921 -0.026581 24763.400000 0 0 1
-24.923909 24.994798 -14.316003 38.090538 -0.786818 1.956101 -0.007335 -0.022162 88774.300000 0 0 1
-25.179269 26.388498 -13.710503 38.965707 -0.808843 1.930355 -0.007414 -0.014649 81773.200000 0 0 1
-23.945509 26.986298 -13.410103 38.489980 -0.845031 1.926665 0.019963 -0.021986 -92193.100000 0 0 1
-24.023409 27.736098 -12.171303 38.659487 -0.857005 1.891078 0.025007 -0.023497 -304314.000000 0 0 1
-22.646909 28.267898 -11.752503 38.079888 -0.895353 1.884546 0.031965 -0.024169 -645227.000000 0 0 1
-21.875309 27.289798 -11.166903 36.714601 -0.895085 1.879847 0.030030 -0.026234 -363431.000000 0 0 1
-20.781709 27.888298 -10.490503 36.327500 -0.930389 1.863744 0.028141 -0.022668 -41832.100000 0 0 1
-19.844709 26.859398 -9.843203 34.815634 -0.934478 1.857429 0.047789 -0.018572 282480.000000 0 0 1
-19.000109 26.112398 -10.739903 34.032440 -0.941768 1.891862 0.037165 -0.018788 538042.000000 0 0 1
-18.419309 24.927398 -10.225903 32.637635 -0.934425 1.889479 0.040398 -0.016646 -203360.000000 0 0 1
-17.933009 23.969398 -11.362803 32.019340 -0.928472 1.933575 0.038496 -0.022019 -76775.900000 0 0 1
-17.463709 22.763098 -10.851603 30.674045 -0.916382 1.932397 0.032326 -0.015844 -105693.000000 0 0 1
-17.101809 21.985798 -11.924203 30.299073 -0.909704 1.975286 0.050278 -0.014105 178102.000000 0 0 1
-16.662709 20.499698 -11.497603 28.811081 -0.888283 1.981297 0.039835 -0.006116 257231.000000 0 0 1
-17.781609 19.717898 -11.121303 28.786533 -0.836987 1.967453 0.046144 -0.005489 316036.000000 0 0 1
-17.301309 18.408198 -10.859703 27.497822 -0.816385 1.976788 0.059711 -0.013379 -52649.600000 0 0 1
-18.535609 17.453398 -10.694203 27.614414 -0.755337 1.968464 0.063091 -0.008244 425859.000000 0 0 1
-19.189909 17.007698 -11.837003 28.242327 -0.725185 2.003275 0.048777 -0.003828 93284.400000 0 0 1
-19.973009 18.087398 -12.410403 29.666364 -0.735896 2.002405 0.050139 0.000774 -601788.000000 0 0 1
-20.886109 17.561598 -13.559903 30.471466 -0.699144 2.031974 0.058342 -0.001660 658805.000000 0 0 1
-20.060309 17.139698 -14.662903 30.185857 -0.707048 2.078022 0.071142 -0.005861 491420.000000 0 0 1
-20.902709 16.800198 -15.742003 31.096311 -0.677013 2.101608 0.050012 0.000058 -53738.100000 0 0 1
-20.185009 16.447298 -17.017203 31.105199 -0.683717 2.149675 0.086657 -0.011718 -60497.600000 0 0 1
-19.502909 17.633598 -17.506103 31.587511 -0.735104 2.158209 0.054346 -0.017107 82576.700000 0 0 1
-18.775409 17.323398 -18.636203 31.621577 -0.745197 2.201051 0.054514 -0.011583 -668967.000000 0 0 1
-18.092209 18.517598 -19.352003 32.322275 -0.797017 2.212699 0.037903 -0.002320 -896460.000000 0 0 1
-16.954209 18.844098 -18.627903 31.457018 -0.838142 2.204545 0.044182 -0.005529 -231749.000000 0 0 1
-16.266409 19.971598 -19.175503 32.111691 -0.887290 2.210740 0.068679 -0.010643 73854.000000 0 0 1
32.277409 30.599098 1.711097 44.509143 0.758712 1.532343 0.040196 -0.011246 -450401.000000 0 0 1
33.608889 30.817798 1.359397 45.619536 0.742103 1.540993 0.051443 -0.011550 -505078.000000 0 0 1
33.743399 31.268798 0.018697 46.003859 0.747353 1.570390 0.056930 -0.013318 -125870.000000 0 0 1
35.165719 31.265898 -0.575503 47.058638 0.726761 1.583026 0.046203 -0.011921 -492270.000000 0 0 1
-35.462720 32.065598 0.188097 47.810485 -0.735134 1.566862 0.031254 -0.010217 -521287.000000 0 0 1
-34.231990 32.124298 -0.505803 46.947369 -0.753646 1.581570 0.030928 -0.011236 -557928.000000 0 0 1
-33.374689 33.246298 0.033597 47.108251 -0.783471 1.570083 -0.000189 -0.012073 -628852.000000 0 0 1
-32.571439 32.795698 1.093197 46.234744 -0.788829 1.547150 0.001876 -0.008330 -135106.000000 0 0 1
-31.958399 33.951198 1.641597 46.655310 -0.815624 1.535603 -0.003299 -0.007246 -165504.000000 0 0 1
-31.181169 33.745898 2.955197 46.041113 -0.824879 1.506566 0.015923 -0.005059 -95189.300000 0 0 1
-30.795949 -33.831966 3.580897 45.889162 0.832341 1.492683 0.011564 -0.002664 -348906.000000 0 0 1
-30.139199 -34.011366 4.752497 45.691690 0.845686 1.466596 0.031312 -0.011906 -900170.000000 0 0 1
-30.011799 -32.627366 5.525997 44.674263 0.827130 1.446783 0.031146 -0.007071 -937015.000000 0 0 1
-31.106439 -32.058966 6.109197 45.085587 0.800477 1.434876 0.034191 -0.005732 -983051.000000 0 0 1
-31.688739 -32.817966 7.140997 46.175631 0.802902 1.415525 0.024416 -0.014650 -651662.000000 0 0 1
-32.821479 -32.173666 7.981897 46.648740 0.775431 1.398844 0.027001 -0.014389 1958510.000000 0 0 1
-34.123244 -31.995766 7.308797 47.344940 0.753233 1.415803 0.011706 -0.006879 1950790.000000 0 0 1
-34.895761 -33.200866 7.086297 48.684980 0.760514 1.424723 0.005887 -0.008358 -779544.000000 0 0 1
35.103429 -32.944166 6.811097 48.620570 -0.753677 1.430247 0.003354 0.002558 -619156.000000 0 0 1
34.349809 -32.856766 8.018997 48.205609 -0.763186 1.403670 0.001567 0.005958 38470.800000 0 0 1
32.977429 -32.749766 7.693897 47.108960 -0.781934 1.406740 -0.007586 0.015473 -46678.500000 0 0 1
32.161669 -32.662166 9.006197 46.715112 -0.793119 1.376792 -0.007929 0.004903 -947654.000000 0 0 1
30.838149 -32.266166 8.884897 45.508662 -0.808024 1.374299 0.003386 0.000298 -702424.000000 0 0 1
30.146509 -32.271366 10.086597 45.298924 -0.819427 1.346247 0.009437 0.002493 -266649.000000 0 0 1
30.299089 -31.041566 11.009597 44.752931 -0.797502 1.322236 0.004646 0.006508 -563485.000000 0 0 1
29.690269 -29.815566 10.597997 43.391216 -0.787504 1.324057 0.023208 -0.004486 192695.000000 0 0 1
30.302179 -29.120166 9.525097 43.092153 -0.765509 1.347915 0.025045 -0.003397 61620.300000 0 0 1
29.358109 -28.063866 8.875697 41.572312 -0.762863 1.355640 0.020130 -0.004304 -6510.220000 0 0 1
29.899949 -27.552166 7.681397 41.377925 -0.744556 1.384073 0.032642 -0.012342 67523.500000 0 0 1
29.204509 -26.375566 7.307397 40.024641 -0.734544 1.387194 0.008516 -0.006412 78929.400000 0 0 1
29.465349 -25.940166 5.828797 39.687201 -0.721859 1.423395 -0.001928 -0.005395 -286369.000000 0 0 1
30.767459 -25.564666 5.510897 40.380177 -0.693300 1.433894 0.026256 -0.013941 -690800.000000 0 0 1
30.767799 -25.001666 4.261697 39.873586 -0.682372 1.463712 0.024308 -0.011771 420173.000000 0 0 1
32.202009 -24.602366 3.802397 40.702629 -0.652402 1.477241 0.034067 -0.020279 891863.000000 0 0 1
33.082239 -25.683466 3.477897 42.025834 -0.660154 1.487945 0.025408 -0.006398 631273.000000 0 0 1
34.448499 -25.296166 3.675097 42.896404 -0.633389 1.485017 0.034278 -0.012529 572442.000000 0 0 1
35.401039 -26.478566 3.632597 44.357004 -0.642194 1.488810 0.033607 -0.011378 -352925.000000 0 0 1
35.378989 -27.216266 4.882597 44.902536 -0.655725 1.461843 0.023033 -0.006848 -127282.000000 0 0 1
-35.504218 -28.501666 4.830297 45.784563 0.676427 1.465099 0.025575 -0.007614 -730992.000000 0 0 1
35.164619 -29.452766 5.786797 46.233136 -0.697232 1.445302 0.021901 -0.006964 933279.000000 0 0 1
33.873919 -29.914466 5.395097 45.512908 -0.723406 1.451977 0.003773 0.000976 385849.000000 0 0 1
32.877379 -28.907366 5.503997 44.123144 -0.721231 1.445729 0.006663 -0.001741 -454961.000000 0 0 1
31.428909 -29.446366 5.473797 43.414597 -0.752842 1.444378 0.004671 0.001637 -39327.900000 0 0 1
30.967649 -29.953666 4.217197 43.289747 -0.768756 1.473224 -0.006723 0.000719 53602.200000 0 0 1
29.668999 -29.489366 3.909997 42.013811 -0.782362 1.477597 0.005041 0.000446 240134.000000 0 0 1
28.523699 -30.487066 4.165897 41.957327 -0.818657 1.471344 0.019255 -0.005025 -15992.500000 0 0 1
28.609999 -31.498966 3.177097 42.670960 -0.833423 1.496272 0.016696 0.006707 -482009.000000 0 0 1
27.641639 -32.474866 3.390597 42.780525 -0.865623 1.491457 0.032111 0.007570 -721950.000000 0 0 1
27.896339 -33.715466 2.529897 43.833079 -0.879567 1.513048 0.031226 0.004303 -457322.000000 0 0 1
27.601789 -33.448166 1.190597 43.382671 -0.880871 1.543349 0.032105 0.001334 163102.000000 0 0 1
27.634289 34.075898 0.495997 43.875583 0.889406 1.559491 0.025229 0.001473 -317540.000000 0 0 1
27.261089 34.173798 -0.952703 43.725543 0.897448 1.592586 0.026343 0.002861 -799628.000000 0 0 1
28.190609 -33.911766 -1.719603 44.132475 -0.877263 1.609771 0.025223 -0.004135 -245044.000000 0 0 1
27.870269 -34.031166 -3.101103 44.096361 -0.884599 1.641180 0.031788 -0.004789 -90267.100000 0 0 1
28.948919 -33.391866 -3.990003 44.373154 -0.856547 1.660837 0.031026 -0.007917 -5967.160000 0 0 1
29.112739 -32.003366 -3.814003 43.431712 -0.832660 1.658726 0.019126 0.000314 -363882.000000 0 0 1
30.069089 -31.512066 -4.697603 43.808993 -0.808826 1.678232 0.016739 0.001666 -447013.000000 0 0 1
30.336379 -30.010066 -4.535103 42.912319 -0.779991 1.676677 0.008443 0.002197 -146109.000000 0 0 1
29.391649 -29.150766 -5.184003 41.719421 -0.781284 1.695377 0.005101 -0.001986 168569.000000 0 0 1
29.660799 -27.758766 -5.126103 40.946172 -0.752285 1.696317 0.012282 -0.009865 -467815.000000 0 0 1
30.765449 -27.259966 -6.055603 41.548633 -0.725059 1.717065 0.017122 -0.013103 -1472800.000000 0 0 1
32.008739 -27.550066 -5.536703 42.593669 -0.710676 1.701154 0.014636 -0.007286 -1194030.000000 0 0 1
33.071339 -27.258766 -6.420903 43.335687 -0.689348 1.719511 0.020242 -0.014805 80989.800000 0 0 1
33.390669 -28.244466 -7.569703 44.384536 -0.702097 1.742182 0.010949 0.008739 -1435430.000000 0 0 1
32.408109 -28.308166 -8.523303 43.866667 -0.717974 1.766340 0.001643 0.004456 -780847.000000 0 0 1
32.587629 -29.326866 -9.502003 44.858742 -0.732781 1.784234 -0.013378 0.011747 114739.000000 0 0 1
32.345059 -30.783966 -9.157303 45.581922 -0.760675 1.773071 -0.029484 0.014713 462615.000000 0 0 1
33.334039 -31.373366 -8.305103 46.523338 -0.755107 1.750273 -0.010744 0.008420 -128354.000000 0 0 1
32.992049 -32.696266 -7.914903 47.118646 -0.780895 1.739575 -0.003217 -0.000837 191472.000000 0 0 1
34.143709 -33.274266 -7.074303 48.197670 -0.772503 1.718105 0.006133 -0.002446 -348936.000000 0 0 1
33.905279 34.220898 -6.524703 48.612854 0.790031 1.705420 0.013282 -0.003775 105998.000000 0 0 1
33.078359 34.330198 -5.352603 47.972812 0.803967 1.682605 0.027645 -0.002396 237364.000000 0 0 1
32.665479 32.964798 -4.748503 46.650399 0.789959 1.672762 0.027394 -0.006595 -19311.900000 0 0 1
31.663169 32.305998 -5.485203 45.566668 0.795447 1.691466 0.031337 -0.016335 -86854.500000 0 0 1
31.442319 31.020598 -5.019503 44.453260 0.778647 1.683954 0.044323 -0.007690 151134.000000 0 0 1
30.320119 30.315398 -5.827503 43.269999 0.785320 1.705884 0.040736 -0.009194 -441944.000000 0 0 1
30.687779 29.956598 -7.149003 43.476957 0.773342 1.735978 0.028807 -0.010483 -187163.000000 0 0 1
29.627989 29.272298 -7.774203 42.368897 0.779359 1.755330 0.027562 -0.009984 6739.060000 0 0 1
29.873099 28.959498 -9.247003 42.621141 0.769871 1.789494 0.021456 -0.008703 -1110460.000000 0 0 1
30.768979 27.951498 -9.413403 42.621925 0.737454 1.793491 0.020166 -0.007200 -721304.000000 0 0 1
31.153109 27.734098 -10.778203 43.079764 0.727403 1.823675 0.025601 -0.006556 -61402.900000 0 0 1
32.259629 28.693498 -11.256903 44.617467 0.726959 1.825851 0.024691 -0.015410 -1166780.000000 0 0 1
33.502669 28.277898 -10.767703 45.144344 0.701029 1.811635 0.029239 -0.018474 -310474.000000 0 0 1
34.581249 29.176698 -10.844303 46.526782 0.700834 1.806037 0.027959 -0.014096 -2638.490000 0 0 1
34.605529 30.443898 -9.987203 47.160553 0.721509 1.784182 0.019304 -0.012792 -858197.000000 0 0 1
34.738999 30.098198 -8.589103 46.759729 0.713944 1.755531 0.022589 -0.012156 216193.000000 0 0 1
34.776259 31.230398 -7.693303 47.369957 0.731730 1.733928 0.028167 -0.011782 -785590.000000 0 0 1
-35.453765 31.267898 -6.838703 47.764200 -0.722744 1.714466 0.013767 0.001865 427866.000000 0 0 1
-34.201023 31.680698 -7.402803 47.203581 -0.747162 1.728274 0.019474 0.004371 513193.000000 0 0 1
-33.393229 30.697298 -7.982803 46.056020 -0.743359 1.745004 0.025010 -0.003996 -486637.000000 0 0 1
-32.030229 31.274098 -8.392803 45.546064 -0.773454 1.756126 0.045644 -0.005337 -286794.000000 0 0 1
-31.201139 31.712798 -7.321703 45.086805 -0.793531 1.733910 0.040331 -0.004785 -181675.000000 0 0 1
-29.903559 32.137398 -7.625503 44.555398 -0.821388 1.742790 0.026407 -0.005342 -295806.000000 0 0 1
-29.624149 33.324198 -8.591503 45.408218 -0.844110 1.761150 0.010588 -0.008831 -638427.000000 0 0 1
-29.909779 -34.174466 -8.091903 46.129903 0.851848 1.747124 -0.001086 -0.008300 1087400.000000 0 0 1
-28.803969 -33.593366 -7.300103 44.849464 0.862004 1.734293 0.011084 -0.018823 1225350.000000 0 0 1
-29.151469 -32.238366 -6.640603 43.968375 0.835639 1.722408 -0.007379 -0.011381 -216692.000000 0 0 1
-30.139779 -32.139666 -5.662303 44.423261 0.817499 1.698607 -0.011799 -0.017004 -452779.000000 0 0 1
-29.831059 -32.751166 -4.426203 44.521031 0.832025 1.670379 0.000314 -0.021556 -729673.000000 0 0 1
-30.963149 -32.886866 -3.448303 45.300699 0.815518 1.646990 0.014670 -0.023168 -726555.000000 0 0 1
-31.536159 -31.722966 -2.886503 44.824188 0.788351 1.635237 0.003614 -0.017904 -70491.500000 0 0 1
-32.274169 -31.985566 -1.701303 45.470791 0.780907 1.608220 0.021197 -0.015444 23478.400000 0 0 1
-33.064089 -30.713566 -1.353503 45.148523 0.748560 1.600780 0.034386 -0.011749 -565187.000000 0 0 1
-34.132288 -30.914966 -0.501303 46.054311 0.735977 1.581682 0.029384 -0.004063 -682910.000000 0 0 1
-34.773510 -29.640366 -0.333003 45.693098 0.705876 1.578084 0.039042 -0.008321 -268348.000000 0 0 1
35.726539 -29.609566 0.833297 46.409120 -0.692047 1.552840 0.040020 -0.003825 -2185470.000000 0 0 1
34.523149 -30.181866 0.518297 45.859149 -0.718405 1.559494 0.015465 0.006788 -1527050.000000 0 0 1
33.704549 -30.127266 1.651997 45.236909 -0.729414 1.534269 0.009711 0.004017 -334318.000000 0 0 1
32.848239 -28.858166 1.735597 43.758575 -0.720826 1.531123 0.004950 0.016921 -947348.000000 0 0 1
31.990479 -28.674566 0.610497 42.965035 -0.730793 1.556587 -0.003602 0.004971 -34239.300000 0 0 1
31.388999 -27.428166 0.546797 41.687799 -0.718158 1.557679 -0.003922 0.002929 -729521.000000 0 0 1
30.275929 -27.376066 -0.546603 40.821314 -0.735141 1.584187 -0.011460 -0.000335 -608608.000000 0 0 1
29.033169 -27.818766 -0.116103 40.209727 -0.764041 1.573684 -0.015089 0.009295 -742421.000000 0 0 1
28.938759 -29.198866 -0.025103 41.109928 -0.789872 1.571407 -0.010750 0.009475 -900725.000000 0 0 1
28.438339 -29.992166 -1.295703 41.351518 -0.811985 1.602135 0.002582 0.005639 407277.000000 0 0 1
27.068019 -29.753666 -1.629203 40.256833 -0.832627 1.611278 0.013287 0.008855 491226.000000 0 0 1
26.816699 -30.112966 -3.007303 40.434762 -0.843234 1.645239 0.014289 0.005153 130008.000000 0 0 1
25.320049 -30.515066 -3.149203 39.776772 -0.878173 1.650051 0.028177 -0.001938 649725.000000 0 0 1
24.421549 -29.396566 -3.218403 38.352683 -0.877578 1.654811 0.043780 -0.002625 -67595.400000 0 0 1
23.159349 -29.933866 -3.563903 38.014381 -0.912309 1.664686 0.037581 -0.003111 -532612.000000 0 0 1
22.056349 -28.889166 -3.579903 36.522352 -0.918723 1.668973 0.039903 -0.000518 -426716.000000 0 0 1
21.980949 -28.111466 -4.754203 36.000265 -0.907177 1.703243 0.042631 -0.003289 178361.000000 0 0 1
21.204849 -26.912466 -4.637103 34.574979 -0.903465 1.705319 0.038097 -0.004862 14356.000000 0 0 1
20.904649 -26.223566 -5.963303 34.062307 -0.897783 1.746774 0.046475 -0.018567 589370.000000 0 0 1
19.718549 -26.826066 -6.522903 33.926498 -0.936931 1.764267 0.043295 -0.013620 711885.000000 0 0 1
19.059849 -26.037066 -7.550403 33.139331 -0.938897 1.800653 0.058665 -0.016895 654217.000000 0 0 1
17.530549 -26.321666 -7.577503 32.520283 -0.983247 1.805967 0.048640 -0.008923 264118.000000 0 0 1
16.884949 -25.603066 -6.551603 31.361473 -0.987779 1.781253 0.029236 -0.002122 -637349.000000 0 0 1
15.530849 -25.951566 -6.509903 30.936546 -1.031514 1.782809 0.028216 -0.004515 -583951.000000 0 0 1
14.691849 -25.054866 -5.639903 29.587248 -1.040446 1.762589 0.008093 0.007377 -477172.000000 0 0 1
15.038949 -25.256366 -4.298003 29.707354 -1.033728 1.715984 -0.001928 0.014003 15856.700000 0 0 1
14.363249 -24.471566 -3.368303 28.574568 -1.040038 1.688949 -0.009814 0.019226 -355549.000000 0 0 1
14.533349 -25.060966 -1.965803 29.036781 -1.045273 1.638549 -0.000957 0.015351 337394.000000 0 0 1
13.676749 -26.203666 -1.778203 29.611612 -1.089751 1.630883 0.007642 0.013537 472355.000000 0 0 1
14.346249 -27.175466 -1.046103 30.747604 -1.085069 1.604825 0.014033 0.007232 -135378.000000 0 0 1
13.771849 -28.618366 -1.281003 31.785463 -1.122282 1.611109 0.018353 0.002885 553847.000000 0 0 1
12.513149 -28.809866 -0.634903 31.416403 -1.161045 1.591007 0.033954 -0.004704 316471.000000 0 0 1
11.812449 -30.017366 -0.920203 32.271086 -1.195888 1.599315 0.039044 -0.005903 -40200.200000 0 0 1
12.482949 -31.357666 -0.557303 33.755560 -1.191944 1.587307 0.036942 -0.007654 -366762.000000 0 0 1
13.673649 -31.601266 -1.279503 34.456434 -1.162428 1.607939 0.032275 -0.001714 -124494.000000 0 0 1
14.135349 -32.951166 -1.122103 35.872644 -1.165561 1.602082 0.032412 -0.001481 -348954.000000 0 0 1
15.548149 -33.149666 -1.685203 36.653584 -1.132231 1.616789 0.033129 -0.001425 20133.200000 0 0 1
16.434349 -32.203966 -1.093803 36.171531 -1.098926 1.601040 0.030407 0.010482 -328443.000000 0 0 1
17.672049 -32.103966 -1.734903 36.687544 -1.067598 1.618103 0.040200 0.008140 -236474.000000 0 0 1
18.657849 -31.079966 -1.091903 36.266677 -1.030143 1.600908 0.047907 0.007150 -4747.670000 0 0 1
18.317349 -29.730966 -1.334403 34.946191 -1.018620 1.608990 0.040310 0.006516 -255002.000000 0 0 1
19.023349 -28.797666 -0.571703 34.518404 -0.987015 1.587359 0.033164 0.009355 -289185.000000 0 0 1
18.580049 -27.300566 -0.821803 33.033536 -0.973227 1.595677 0.027994 0.017002 135704.000000 0 0 1
18.924649 -26.884066 -2.154203 32.947473 -0.957434 1.636226 0.024298 0.016262 44143.700000 0 0 1
17.783049 -26.884066 -2.977203 32.370567 -0.986399 1.662899 0.033167 0.016215 -246390.000000 0 0 1
32.051619 -29.698066 13.754597 45.809064 -0.747302 1.265832 -0.006756 0.004955 -16611.300000 0 0 1
32.759489 -30.205466 14.853097 46.969871 -0.744858 1.249048 0.010853 0.014543 130859.000000 0 0 1
31.883639 -30.577166 15.885997 46.945654 -0.764485 1.225590 -0.001336 0.023765 -168378.000000 0 0 1
32.688929 -30.918166 17.155197 48.153919 -0.757566 1.206537 0.002661 0.020217 -173224.000000 0 0 1
31.861839 -31.277466 18.265197 48.239757 -0.776143 1.182477 -0.003705 0.014033 535437.000000 0 0 1
32.570139 -31.747466 19.451797 49.468050 -0.772608 1.166666 -0.016458 0.014278 -50028.200000 0 0 1
33.089659 -33.175266 19.280197 50.668036 -0.786690 1.180438 -0.018370 0.024339 -606705.000000 0 0 1
34.310999 -33.264866 18.600697 51.281399 -0.769919 1.199613 -0.019574 0.032651 -336893.000000 0 0 1
34.928219 34.286698 18.677797 52.387196 0.776130 1.206241 -0.008000 0.012784 -223822.000000 0 0 1
-35.255223 34.242898 17.833497 52.283271 -0.770833 1.222716 -0.009390 0.014196 -623297.000000 0 0 1
-34.233651 -33.704666 18.257497 51.393420 0.777612 1.207615 0.000963 0.014645 530811.000000 0 0 1
-33.253379 -33.556566 17.178497 50.268590 0.789936 1.222035 0.012428 0.018140 1488000.000000 0 0 1
-31.930369 -32.735266 17.460497 48.949107 0.797845 1.206056 0.000728 0.010648 1034520.000000 0 0 1
-30.933309 -32.679166 16.458497 47.913251 0.812836 1.220149 0.012146 0.004631 390037.000000 0 0 1
-31.253449 -31.817866 15.332097 47.161721 0.794347 1.239683 0.027960 -0.000562 -259388.000000 0 0 1
-30.065669 -31.761666 14.331197 46.023158 0.812822 1.254140 0.027092 -0.009821 663017.000000 0 0 1
-28.935329 -31.101466 14.910697 45.020921 0.821463 1.233227 0.031549 -0.014165 318059.000000 0 0 1
-27.794799 -31.367066 14.115997 44.223354 0.845706 1.245913 0.030789 -0.013852 1045200.000000 0 0 1
-26.466949 -30.633966 14.578097 43.028597 0.858245 1.225155 0.032396 -0.012198 943792.000000 0 0 1
-25.320659 -31.024366 13.862097 42.376937 0.886283 1.237548 0.036936 -0.012884 -1000080.000000 0 0 1
-24.248809 -30.315466 14.414997 41.410438 0.896127 1.215252 0.021191 -0.009187 -292247.000000 0 0 1
-23.016409 -30.354166 13.472297 40.405857 0.922029 1.230863 0.032497 -0.010501 203463.000000 0 0 1
-22.443609 -31.648366 13.287197 41.010782 0.953952 1.240849 0.026121 -0.000598 -539413.000000 0 0 1
-21.293309 -31.598366 12.517597 40.106757 0.977821 1.253386 0.033956 -0.014005 -275860.000000 0 0 1
-20.753109 -32.979866 12.081397 40.796118 1.009135 1.270147 0.033505 -0.005808 520064.000000 0 0 1
-21.697109 -33.666966 11.245497 41.601567 0.998324 1.297077 0.019546 -0.008657 485182.000000 0 0 1
-21.325609 33.736698 11.163797 41.443658 -1.007094 1.298055 0.027614 0.000419 152263.000000 0 0 1
-22.108509 32.864898 10.156997 40.890736 -0.978622 1.319775 0.018938 0.003030 -238713.000000 0 0 1
-21.843709 33.256898 8.816097 40.754048 -0.989643 1.352748 0.018491 -0.000976 -353731.000000 0 0 1
-22.947709 32.913698 8.030797 40.919464 -0.961946 1.373255 0.017151 -0.005813 -740351.000000 0 0 1
-22.987709 33.255498 6.473097 40.942202 -0.965970 1.412027 0.021241 0.002913 16058.900000 0 0 1
-22.108309 32.517598 5.615397 39.720325 -0.973697 1.428948 0.022147 -0.003341 775775.000000 0 0 1
-20.695909 32.468698 5.803897 38.938698 -1.003322 1.421187 0.017997 -0.007068 270132.000000 0 0 1
-19.854209 33.681198 5.408597 39.469807 -1.038152 1.433333 0.026330 -0.006993 -699839.000000 0 0 1
-19.893509 -33.890266 6.201697 39.783953 1.039992 1.414274 0.031822 -0.009143 -37195.100000 0 0 1
-19.401209 -34.044066 7.498397 39.895254 1.052814 1.381720 0.029513 -0.010594 -586544.000000 0 0 1
-19.278509 -32.840766 8.446697 39.006711 1.039968 1.352523 0.026972 -0.013367 -369024.000000 0 0 1
-18.311309 -31.878666 8.044197 37.633263 1.049408 1.355382 0.038257 -0.016562 -20823.500000 0 0 1
-18.317309 -30.652966 8.738997 36.762729 1.032165 1.330785 0.041189 -0.018953 64431.800000 0 0 1
-17.798309 -30.673166 10.192297 36.898589 1.045021 1.290933 0.035873 -0.013808 -119088.000000 0 0 1
-16.433409 -30.988666 10.192497 36.527269 1.083201 1.288004 0.042846 -0.018633 -602205.000000 0 0 1
-15.794609 -30.966866 11.448697 36.599032 1.099142 1.252642 0.059522 -0.019222 -246853.000000 0 0 1
-14.436809 -31.659766 11.434397 36.626598 1.142965 1.253301 0.070264 -0.014485 -275814.000000 0 0 1
-13.397309 -30.874266 10.890797 35.373969 1.161385 1.257837 0.039271 -0.010539 -619666.000000 0 0 1
-12.415309 -31.663066 10.325797 35.543097 1.197113 1.276031 0.041198 -0.001314 -431300.000000 0 0 1
-11.261309 -30.894566 9.652797 34.270509 1.221256 1.285268 0.034466 0.002527 -45854.200000 0 0 1
-10.558609 -30.141866 10.597197 33.649917 1.233857 1.250419 0.038424 -0.001079 -245690.000000 0 0 1
-9.575309 -29.327766 9.938497 32.412623 1.255215 1.259152 0.034477 0.003639 534959.000000 0 0 1
-8.655509 -28.631466 10.953497 31.853694 1.277224 1.219762 0.027742 0.012513 106316.000000 0 0 1
-9.344309 -27.611366 11.638697 31.387305 1.244472 1.190916 0.026486 0.000024 -419281.000000 0 0 1
-8.698809 -27.298566 12.827997 31.391695 1.262314 1.149830 0.029837 -0.000574 -82572.200000 0 0 1
-9.130009 -25.997566 13.560897 30.710396 1.233064 1.113445 0.030447 -0.008350 -41610.500000 0 0 1
-8.823409 -24.747766 13.007397 29.317177 1.228313 1.111097 0.020447 -0.000342 -18525.200000 0 0 1
-9.443509 -24.377566 11.751497 28.662576 1.201212 1.148348 0.017746 0.002338 146509.000000 0 0 1
-8.978209 -23.004466 11.213797 27.121264 1.198696 1.144536 0.007519 0.008566 616709.000000 0 0 1
-7.786709 -23.061466 10.412397 26.474178 1.245166 1.166574 0.005315 0.009596 250722.000000 0 0 1
-7.388709 -21.780466 10.070797 25.107821 1.243743 1.158077 0.008041 0.015371 174210.000000 0 0 1
-6.118409 -21.914966 9.180897 24.535475 1.298540 1.187275 0.007164 0.009374 1034260.000000 0 1 0
-4.953409 -22.469766 9.804097 25.010937 1.353819 1.168000 0.000447 0.007550 -133402.000000 0 0 1
-3.906709 -22.685566 8.906797 24.682551 1.400258 1.201613 0.004640 0.004917 -346688.000000 0 1 0
-2.860109 -23.638866 9.460297 25.621738 1.450390 1.192617 0.015555 0.006216 27862.600000 0 0 1
-2.012809 -22.975466 10.411197 25.304475 1.483413 1.146766 0.017162 0.009673 -509173.000000 0 0 1
-1.079809 -23.826166 10.965797 26.250731 1.525507 1.139848 0.017118 -0.000166 -365024.000000 0 0 1
-0.101309 -23.230666 11.966397 26.131758 1.566435 1.095136 0.025594 0.004298 -353627.000000 0 0 1
-0.730809 -23.057866 13.241897 26.599758 1.539112 1.049713 0.026813 0.006737 230030.000000 0 0 1
0.059091 -22.487866 14.305797 26.652644 -1.568169 1.004216 0.039193 -0.002424 -78327.300000 0 0 1
0.515691 -21.024266 14.038097 25.285448 -1.546273 0.982211 0.033209 -0.010527 -387790.000000 0 0 1
1.589391 -21.039566 13.148397 24.861011 -1.495397 1.013520 0.037761 -0.017015 -720913.000000 0 1 0
1.991591 -19.743366 12.842197 23.636602 -1.470262 0.996412 0.033556 -0.016838 409338.000000 0 1 0
3.541491 -19.603966 12.680997 23.614939 -1.392072 1.003931 0.042450 -0.018504 700269.000000 0 1 0
3.868891 -20.158066 11.387597 23.473247 -1.381175 1.064283 0.047306 -0.014076 -302864.000000 0 1 0
5.209891 -20.612866 11.387097 24.118441 -1.323232 1.079088 0.046831 -0.008456 205144.000000 0 1 0
5.664791 -21.120666 10.042397 24.062879 -1.308753 1.140280 0.053263 -0.022237 -584422.000000 0 1 0
5.743491 -20.193366 8.973497 22.831631 -1.293689 1.166873 0.047578 -0.020915 -311657.000000 0 1 0
6.086091 -20.812166 7.703697 23.011600 -1.286299 1.229430 0.047349 -0.027027 200653.000000 0 1 0
7.450291 -21.560066 7.630097 24.053309 -1.238083 1.248004 0.052736 -0.013518 307643.000000 0 1 0
8.617291 -20.946666 7.062297 23.725441 -1.180508 1.268548 0.066742 -0.022567 469355.000000 0 1 0
9.232491 -19.896666 7.767297 23.269016 -1.136343 1.230460 0.075736 -0.015688 -133223.000000 0 1 0
9.863591 -20.197466 9.146497 24.266983 -1.116506 1.184337 0.050496 -0.008871 -441048.000000 0 1 0
8.958091 -20.391566 10.212697 24.502297 -1.156873 1.140868 0.059022 -0.011974 -542519.000000 0 1 0
9.499491 -19.850966 11.422697 24.794741 -1.124463 1.092024 0.048284 -0.009282 -135807.000000 0 1 0
8.762091 -20.127066 12.730097 25.375745 -1.160201 1.045275 0.055533 -0.013516 -292866.000000 0 0 1
8.573591 -21.478166 13.015297 26.537069 -1.191000 1.058182 0.043217 -0.019996 -67970.200000 0 0 1
8.140991 -21.643166 14.390797 27.235958 -1.211021 1.014111 0.051121 -0.013693 111532.000000 0 0 1
8.219791 -23.053766 14.988897 28.700316 -1.228299 1.021303 0.042921 -0.017810 -70695.700000 0 0 1
7.639591 -24.098366 14.194497 28.992729 -1.263802 1.059179 0.050938 -0.016233 -73933.700000 0 0 1
7.634791 -25.370866 14.823697 30.359725 -1.278489 1.060692 0.052263 -0.019165 169109.000000 0 0 1
7.566291 -26.509566 13.785197 30.822679 -1.292771 1.107117 0.050504 -0.021508 -80014.900000 0 0 1
8.762691 -26.724966 13.094297 31.023688 -1.253958 1.135064 0.046700 -0.013262 -383242.000000 0 0 1
8.595391 -27.758266 12.144397 31.494261 -1.270509 1.174931 0.043498 -0.006013 240013.000000 0 0 1
9.976691 -28.164166 11.587897 32.047371 -1.230355 1.200827 0.039192 -0.009820 130171.000000 0 0 1
10.789391 -29.068166 12.306997 33.359128 -1.215383 1.192945 0.032151 -0.010439 36191.200000 0 0 1
12.034191 -29.169166 11.634797 33.630797 -1.179505 1.217538 0.040165 -0.008885 408560.000000 0 0 1
13.035891 -29.985266 12.535297 35.016915 -1.160702 1.204694 0.029947 -0.009973 -565030.000000 0 0 1
13.468291 -29.387766 13.756797 35.132394 -1.141065 1.168459 0.027788 -0.012932 368221.000000 0 0 1
14.376991 -30.199166 14.498097 36.453838 -1.126473 1.161775 0.041439 -0.015472 347934.000000 0 0 1
15.797391 -30.380266 13.937397 36.969842 -1.091286 1.184248 0.041212 -0.011066 -725230.000000 0 0 1
16.541991 -29.146866 13.858297 36.266095 -1.054587 1.178698 0.031963 -0.017269 1214020.000000 0 0 1
17.842391 -29.387766 13.271097 36.852595 -1.025146 1.202407 0.027980 -0.015960 1039950.000000 0 0 1
18.638691 -28.068066 13.063097 36.136708 -0.984605 1.200930 0.031992 -0.022023 473861.000000 0 0 1
19.982191 -28.205166 12.605697 36.792974 -0.954416 1.221101 0.020333 -0.017398 449045.000000 0 0 1
20.596691 -26.935466 12.497597 36.137694 -0.917974 1.217670 0.015904 -0.022003 -172197.000000 0 0 1
22.027491 -27.056166 11.946297 36.877642 -0.887493 1.240901 0.019401 -0.016489 82441.800000 0 0 1
22.978791 -27.661466 12.811697 38.174876 -0.877605 1.228548 0.030238 -0.021998 -627671.000000 0 0 1
24.031791 -28.133266 12.075697 38.920819 -0.863862 1.255326 0.021029 -0.024707 -236302.000000 0 0 1
25.153091 -28.894066 12.935397 40.433520 -0.854505 1.245154 0.025798 -0.016695 959330.000000 0 0 1
26.181391 -28.159366 13.611397 40.788298 -0.821782 1.230562 0.016494 -0.014817 737258.000000 0 0 1
27.317391 -28.164466 12.721597 41.247013 -0.800665 1.257260 -0.003231 -0.007206 117751.000000 0 0 1
28.481691 -27.304066 13.305197 41.638288 -0.764292 1.245550 0.019146 -0.009529 -190538.000000 0 0 1
28.308291 -25.920966 13.523097 40.695577 -0.741404 1.232056 0.030102 -0.013235 -368284.000000 0 0 1
27.477491 -25.515366 14.565397 40.226822 -0.748389 1.200296 0.038398 -0.012087 -680777.000000 0 0 1
28.166191 -25.249466 15.909597 41.036388 -0.730848 1.172667 0.022346 -0.003384 -498216.000000 0 0 1
28.701491 -26.409866 16.573797 42.378619 -0.743840 1.168982 0.020481 -0.005742 400250.000000 0 0 1
29.078991 -26.183566 17.922897 43.039483 -0.733052 1.141282 0.019637 -0.000281 -259015.000000 0 0 1
29.629891 -27.394866 18.622597 44.443338 -0.746224 1.138432 0.011803 0.005934 -138953.000000 0 0 1
28.618991 -28.267566 19.060397 44.512927 -0.779221 1.128297 0.003549 0.003397 -52011.500000 0 0 1
29.127591 -29.239166 19.951697 45.841200 -0.787310 1.120497 0.005709 0.004245 -741344.000000 0 0 1
28.145091 -30.203566 20.486197 46.087806 -0.820662 1.110176 0.002575 0.010673 -1291720.000000 0 0 1
27.173691 -29.645066 21.355097 45.533280 -0.828867 1.082638 -0.002006 0.009903 1735730.000000 0 0 1
25.987091 -30.449066 21.694897 45.531781 -0.864296 1.074152 -0.004621 0.007943 1602120.000000 0 0 1
25.041491 -30.886466 20.562197 44.764428 -0.889529 1.093542 0.016768 0.005620 -962780.000000 0 0 1
25.598891 -31.921366 19.791597 45.453099 -0.894876 1.120282 0.006421 0.001962 -42109.400000 0 0 1
25.003191 -32.144966 18.509297 44.733125 -0.909723 1.144203 0.022081 0.003460 -302041.000000 0 0 1
25.302891 -31.122466 17.388697 43.717399 -0.888172 1.161731 0.017936 0.005513 222067.000000 0 0 1
26.658491 -31.296166 17.006597 44.489881 -0.865250 1.178558 0.001599 0.005408 211642.000000 0 0 1
26.930791 -30.248366 16.168297 43.607855 -0.843354 1.190963 0.016547 -0.004377 682880.000000 0 0 1
28.275191 -30.474566 15.362497 44.319205 -0.822817 1.216817 0.019583 -0.000090 451825.000000 0 0 1
28.084691 -31.389266 14.323897 44.488312 -0.840904 1.242987 0.026935 0.010096 382073.000000 0 0 1
28.468391 -32.681966 14.700797 45.767605 -0.854195 1.243794 0.024565 -0.001803 -263297.000000 0 0 1
27.689591 -33.801966 13.969297 45.874041 -0.884475 1.261368 0.031010 -0.000220 27550.300000 0 0 1
28.099491 -33.980366 12.628797 45.866472 -0.879847 1.291855 0.040451 -0.005827 488107.000000 0 0 1
27.377591 33.680898 12.153197 45.073669 0.888268 1.297788 0.037015 -0.012691 -212791.000000 0 0 1
27.841291 33.294098 10.717297 44.704529 0.874355 1.328702 0.050010 -0.017566 -218687.000000 0 0 1
29.064391 32.605498 10.805397 44.995710 0.842756 1.328283 0.025388 -0.011255 -77881.700000 0 0 1
29.328091 31.867398 9.607897 44.361917 0.826869 1.352487 0.024132 -0.016144 -169871.000000 0 0 1
30.796891 31.417198 9.717297 45.054575 0.795368 1.353410 -0.007121 -0.006444 -226433.000000 0 0 1
31.029891 30.354698 10.645697 44.694437 0.774399 1.330296 -0.018730 0.001442 78071.800000 0 0 1
32.385291 30.070698 10.924597 45.523629 0.748356 1.328455 -0.010327 0.001345 20645.700000 0 0 1
32.527891 28.996798 12.050397 45.211614 0.728068 1.301002 -0.013044 0.013440 -27176.200000 0 0 1
32.181691 27.619998 11.800097 44.020084 0.709265 1.299416 -0.013579 0.003749 253971.000000 0 0 1
32.314491 26.913998 12.981997 44.012747 0.694469 1.271383 0.000631 -0.015222 -252152.000000 0 0 1
32.095391 25.342398 12.755597 42.837560 0.668365 1.268444 -0.007071 -0.014565 284788.000000 0 0 1
33.091191 24.829098 11.868297 43.039139 0.643708 1.291420 -0.006862 -0.008534 186103.000000 0 0 1
33.065191 23.410498 11.738297 42.179923 0.616082 1.288782 -0.001542 -0.015981 -450311.000000 0 0 1
31.987091 22.800098 10.809997 40.741558 0.619259 1.302249 -0.002722 -0.013110 549052.000000 0 0 1
30.794891 22.411098 11.491197 39.782286 0.629111 1.277769 0.000269 -0.018159 -555698.000000 0 0 1
29.663891 22.563398 10.694697 38.774088 0.650273 1.291353 -0.005802 -0.005720 -2446.110000 0 0 1
28.432391 22.307198 11.659597 37.973124 0.665261 1.258706 -0.017651 -0.002267 316539.000000 0 0 1
28.293391 23.187898 12.773397 38.747313 0.686550 1.234854 -0.005551 -0.003330 -266185.000000 0 0 1
27.427091 22.592198 13.697397 38.082429 0.689037 1.202874 0.029376 -0.017103 -437835.000000 0 0 1
23.846391 9.507298 26.223118 36.697289 0.379376 0.774774 0.021200 -0.004121 -338680.000000 0 0 1
23.358091 8.311298 26.794978 36.505464 0.341851 0.746605 0.033586 -0.014900 876612.000000 0 0 1
21.930291 8.198298 26.816498 35.598796 0.357748 0.717734 0.036570 -0.015890 462020.000000 0 0 1
21.522191 6.901798 27.479008 35.579986 0.310322 0.688317 0.049307 -0.016483 -457142.000000 0 0 1
21.783591 6.797898 28.870628 36.800128 0.302489 0.668866 0.048869 -0.012684 1579800.000000 0 0 1
23.145091 6.408398 29.233838 37.833584 0.270113 0.687720 0.045247 -0.015376 1219140.000000 0 0 1
23.404991 6.290498 30.749518 39.152226 0.262563 0.667481 0.044200 -0.013794 -278473.000000 0 0 1
23.419091 7.475798 31.411338 39.887511 0.308994 0.664057 0.044490 -0.013068 258677.000000 0 0 1
23.344391 7.349998 32.804477 40.928190 0.305025 0.640975 0.038275 -0.007260 -59528.000000 0 0 1
23.414891 8.708098 33.541935 41.822834 0.356054 0.640159 0.044188 -0.007500 -199575.000000 0 0 1
24.565791 9.472098 33.324319 42.470095 0.368015 0.668659 0.025163 -0.013476 -345884.000000 0 0 1
24.890791 10.318998 -34.277231 43.600020 0.393004 2.475391 0.033327 -0.006027 386540.000000 0 0 1
25.835791 11.521798 34.096013 44.303251 0.419491 0.692574 0.020270 -0.011882 121199.000000 0 0 1
25.229291 12.727398 33.689199 43.971194 0.467217 0.697944 0.020423 -0.009391 116951.000000 0 0 1
25.280291 13.654598 -33.950873 44.476993 0.495233 2.439257 0.016659 -0.016260 -656047.000000 0 0 1
24.891591 15.031098 34.282063 44.953143 0.543255 0.703446 0.020560 -0.015092 -584378.000000 0 0 1
25.812091 15.713498 33.438725 45.070238 0.546839 0.734860 0.021396 -0.014836 469976.000000 0 0 1
25.470691 17.080598 33.375979 45.326139 0.590719 0.743134 0.019130 -0.015826 -56623.400000 0 0 1
26.259891 17.865198 -34.286183 46.736383 0.597397 2.394412 0.014181 -0.016140 -99225.200000 0 0 1
25.890591 17.520198 -32.931083 45.406346 0.594918 2.382198 0.011301 -0.020897 219704.000000 0 0 1
26.993191 17.082698 -32.174023 45.338931 0.564226 2.359774 0.006936 -0.019657 -566616.000000 0 0 1
26.497491 16.542998 -30.795773 43.865333 0.558112 2.349072 0.008618 -0.012709 120214.000000 0 0 1
25.605491 15.482498 -30.994453 43.081377 0.543836 2.373792 0.012169 -0.012480 -59657.500000 0 0 1
24.810691 15.120898 -29.894023 41.687703 0.547340 2.370421 0.019858 -0.014714 -3294.360000 0 0 1
23.899591 13.934198 -30.240963 40.986195 0.527849 2.400650 0.023533 -0.008975 -1339320.000000 0 0 1
23.003191 14.141898 -31.289693 41.330194 0.551216 2.429607 0.025919 -0.016055 135088.000000 0 0 1
22.372891 12.950598 -31.752163 40.944647 0.524725 2.458287 0.032446 -0.009269 62791.000000 0 0 1
21.565691 12.104298 -30.734623 39.448829 0.511459 2.464027 0.037874 -0.003929 -1564860.000000 0 0 1
20.400991 12.636798 -30.238873 38.604126 0.554577 2.470764 0.033447 -0.002106 -153999.000000 0 0 1
19.541991 11.751998 -29.507373 37.291875 0.541427 2.483655 0.033645 0.004102 56889.400000 0 0 1
18.216091 12.350398 -29.080523 36.469647 0.595804 2.493754 0.035886 0.001349 -1052770.000000 0 0 1
17.236791 12.512898 -30.051453 36.834351 0.627925 2.525001 0.019951 0.005370 501468.000000 0 0 1
16.052191 12.844798 -29.303523 35.796063 0.674857 2.529808 0.009030 -0.000167 -67186.000000 0 0 1
14.810291 13.425098 -29.960863 36.017097 0.736379 2.553231 0.002267 -0.007303 -328.625000 0 0 1
14.101291 12.536898 -30.840063 36.154249 0.726738 2.592529 -0.001956 0.004405 -102770.000000 0 0 1
12.801991 12.312398 -30.335273 35.152737 0.765906 2.611888 0.002407 0.005659 -138036.000000 0 0 1
11.963091 11.500598 -31.355723 35.476199 0.765690 2.654831 0.001042 0.009583 -137646.000000 0 0 1
11.535891 12.328498 -32.412093 36.546031 0.818599 2.661353 0.004331 0.010132 -263179.000000 0 0 1
10.659791 11.688598 -33.320463 36.885061 0.831401 2.698335 0.012735 0.016247 -87314.600000 0 0 1
10.144691 12.661298 -34.368194 38.005210 0.895302 2.700539 0.022543 0.011548 29705.500000 0 0 1
11.161191 13.034698 33.470724 37.613360 0.862675 0.473752 0.017061 0.013365 592828.000000 0 0 1
10.574691 13.633498 32.298978 36.618579 0.911086 0.490626 0.026020 0.006559 291391.000000 0 0 1
11.482591 13.299598 31.049708 35.676513 0.858586 0.514960 0.026701 0.003698 217922.000000 0 0 1
11.334591 12.030398 30.443478 34.641143 0.815169 0.497404 0.022829 0.005501 132145.000000 0 0 1
11.870091 12.021298 29.141048 33.683992 0.791727 0.525386 0.023706 0.006397 -341477.000000 0 0 1
12.384491 10.671898 28.652898 32.988689 0.711256 0.518492 0.023292 0.014092 -438775.000000 0 0 1
11.457391 9.622098 28.705778 32.370948 0.698552 0.480474 0.023921 0.004734 -189844.000000 0 0 1
11.961091 8.380598 28.208698 31.765276 0.611165 0.477741 0.025954 -0.000614 -197268.000000 0 0 1
11.149791 7.119698 28.586718 31.499339 0.568284 0.433422 0.011537 0.006028 -1270870.000000 0 0 1
9.877891 7.098198 28.089708 30.610273 0.623097 0.408655 0.010146 -0.006547 -963965.000000 0 0 1
9.086691 5.883098 28.295768 30.295697 0.574574 0.365385 0.010663 -0.010774 254819.000000 0 0 1
9.595991 4.635998 27.505908 29.498313 0.450051 0.369641 0.025371 -0.005935 82862.200000 0 0 1
10.650791 3.943698 28.160398 30.364455 0.354620 0.383360 0.023572 -0.001974 294066.000000 0 0 1
10.690591 2.579198 27.750518 29.850163 0.236735 0.377306 0.030325 0.002226 -77232.500000 0 0 1
11.339591 1.604098 28.727578 30.926254 0.140528 0.379349 0.025630 -0.003798 -100045.000000 0 0 1
10.483691 1.372198 29.805058 31.624866 0.130149 0.340893 0.034614 -0.010223 -173734.000000 0 0 1
10.659091 0.114098 30.380268 32.196116 0.010704 0.337455 0.041110 -0.013117 13609.600000 0 0 1
9.644791 -0.125302 31.505318 32.948790 -0.012991 0.297097 0.055619 -0.016466 -108663.000000 0 0 1
9.757791 0.741198 32.611678 34.048280 0.075814 0.291524 0.026071 -0.016734 -856100.000000 0 0 1
8.563891 0.968998 33.241727 34.340815 0.112670 0.253683 0.035829 -0.022354 -968316.000000 0 0 1
8.765291 2.232598 34.115752 35.294466 0.249406 0.259168 0.029783 -0.016763 12101.500000 0 0 1
8.789291 3.518998 33.486663 34.799304 0.380828 0.275535 0.018027 -0.011740 545648.000000 0 0 1
9.903891 3.832998 32.633498 34.317985 0.369266 0.314616 0.008945 -0.004259 306358.000000 0 0 1
9.701991 5.205998 31.997868 33.839246 0.492490 0.331410 0.000991 0.000545 36707.100000 0 0 1
9.981791 6.302198 32.858677 34.914846 0.563166 0.344901 -0.007197 0.006726 26864.700000 0 0 1
9.965491 7.508298 32.151268 34.487528 0.645693 0.370192 -0.005551 0.007976 -292496.000000 0 0 1
10.105691 8.835998 33.004242 35.629760 0.718467 0.386296 0.005630 0.006661 387588.000000 0 0 1
8.969591 9.362698 33.693074 36.101758 0.806838 0.367355 0.011415 0.002549 208612.000000 0 0 1
8.418091 8.544998 -34.019893 36.072626 0.792879 2.802613 0.010302 0.007161 884190.000000 0 0 1
6.973191 8.955798 -33.516363 35.386131 0.909227 2.815062 0.015422 0.009193 1035320.000000 0 0 1
6.551191 8.085898 -32.474293 34.101020 0.889867 2.831472 0.017971 0.011422 1022810.000000 0 0 1
5.124891 8.129098 -32.245873 33.647334 1.008296 2.851959 0.036431 0.004708 1111440.000000 0 0 1
4.713391 7.461998 -30.963963 32.197274 1.007427 2.863917 0.036793 0.002826 -774254.000000 0 0 1
5.055391 8.196098 -29.805753 31.322770 1.018112 2.829094 0.037178 0.001659 92456.300000 0 0 1
4.456691 7.798298 -28.608753 29.985601 1.051600 2.837380 0.020590 0.002537 -923629.000000 0 0 1
2.962891 7.951198 -28.439643 29.678503 1.214101 2.851640 0.035611 -0.002645 -1121970.000000 0 0 1
2.231591 7.084798 -29.278103 30.205656 1.265651 2.893132 0.032773 0.001315 666732.000000 0 0 1
0.813891 7.252498 -29.043103 29.946001 1.459042 2.895407 0.031113 0.003252 693276.000000 0 0 1
-0.023809 6.564998 -30.087483 30.795396 -1.567170 2.926761 0.031858 -0.002430 -455715.000000 0 0 1
0.152491 7.290898 -31.307033 32.145151 1.549884 2.912739 0.041743 -0.000223 143984.000000 0 0 1
-0.199109 6.559098 -32.430693 33.087932 -1.540450 2.941945 0.048996 -0.013986 -673209.000000 0 0 1
0.027291 7.338798 -33.696953 34.486857 1.567078 2.927152 0.068827 -0.014796 -332981.000000 0 0 1
1.401791 7.537898 -33.902143 34.758311 1.386931 2.919179 0.057533 -0.008711 225985.000000 0 0 1
2.184491 6.519398 34.201617 34.885887 1.247479 0.198389 0.055449 -0.006901 -85030.800000 0 0 1
1.803991 6.310898 32.667706 33.320576 1.292368 0.198282 0.054885 -0.014997 -271261.000000 0 0 1
0.598991 5.608698 32.452368 32.938920 1.464403 0.172092 0.070333 -0.014168 -197702.000000 0 0 1
0.348191 5.383098 31.024468 31.489944 1.506204 0.172153 0.089497 -0.017552 211856.000000 0 0 1
1.418891 4.626098 30.189298 30.574626 1.273191 0.158930 0.100447 -0.021074 83532.700000 0 0 1
0.995291 4.388298 28.858158 29.206866 1.347764 0.154681 0.079249 -0.018670 537257.000000 0 0 1
1.978691 3.658998 28.085798 28.392174 1.075064 0.147040 0.063678 -0.014548 381430.000000 0 0 1
1.996491 3.908798 26.588728 26.948564 1.098571 0.163600 0.077144 -0.013356 89946.400000 0 0 1
2.548891 5.176698 26.351098 26.975459 1.113265 0.215571 0.062883 -0.011715 -69826.100000 0 0 1
2.249391 5.489698 25.034068 25.727438 1.181915 0.232691 0.056721 -0.011246 -594052.000000 0 0 1
2.742291 6.962098 24.855328 25.957240 1.195569 0.292420 0.043519 -0.010708 404155.000000 0 0 1
4.155391 7.084398 24.784918 26.110307 1.040321 0.319989 0.027562 -0.009784 -71534.200000 0 0 1
4.676491 6.708598 23.546068 24.925733 0.962027 0.334273 0.034038 -0.021437 -874317.000000 0 1 0
6.215991 6.584798 23.518768 25.201796 0.814201 0.367529 0.035869 -0.021575 199519.000000 0 0 1
6.890091 5.611998 24.351318 25.922086 0.683522 0.349908 0.034361 -0.017336 233106.000000 0 0 1
6.628891 4.217098 24.144368 25.390483 0.566591 0.314594 0.042104 -0.013746 -1073820.000000 0 0 1
6.865591 3.614598 22.757568 24.043888 0.484607 0.328581 0.043149 -0.019726 52252.900000 0 1 0
5.928991 3.976198 21.761368 22.902406 0.590746 0.316989 0.029715 -0.024926 1079690.000000 0 1 0
4.567191 3.538998 22.030268 22.775347 0.659231 0.256493 0.035910 -0.020775 -14006.200000 0 1 0
3.544591 4.014998 21.060768 21.731090 0.847545 0.249023 0.030243 -0.020541 -724981.000000 0 1 0
3.287691 5.422898 21.222268 22.149523 1.025786 0.290375 0.032452 -0.024675 -294141.000000 0 1 0
2.113891 5.823698 20.568668 21.481482 1.222604 0.292566 0.029307 -0.014555 -392998.000000 0 1 0
1.683591 7.240498 20.725968 22.018743 1.342332 0.344372 0.032927 -0.002006 312018.000000 0 1 0
2.385491 8.138298 19.829668 21.567062 1.285664 0.404137 0.030490 -0.012897 335737.000000 0 1 0
1.965591 9.444798 20.092268 22.288270 1.365612 0.447636 0.041281 -0.009492 488702.000000 0 1 0
3.027991 10.465998 19.558068 22.388029 1.289169 0.508255 0.053303 -0.018597 -566216.000000 0 1 0
3.126791 10.569698 18.139168 21.225568 1.283173 0.546035 0.027590 -0.016485 -23352.000000 0 1 0
4.243491 11.318098 17.714268 21.445322 1.212087 0.598787 0.028407 -0.021743 494868.000000 0 1 0
5.627391 10.641798 17.951868 21.614462 1.084374 0.590704 0.031978 -0.028852 -435579.000000 0 1 0
5.944991 9.683298 16.944768 20.401822 1.020188 0.590699 0.025954 -0.031354 -391514.000000 0 1 0
7.201191 9.115698 17.215168 20.768127 0.902197 0.593618 0.031023 -0.029533 -443245.000000 0 1 0
7.134591 7.634998 17.693668 20.549001 0.819266 0.533470 0.032046 -0.026868 -550261.000000 0 1 0
6.785091 7.556798 19.078868 21.613557 0.839154 0.489162 0.036508 -0.028589 -82217.900000 0 1 0
7.104191 6.346198 19.736268 21.914927 0.729103 0.449681 0.045893 -0.030557 742189.000000 0 1 0
8.616391 6.043598 20.028368 22.625269 0.611670 0.483827 0.062866 -0.024196 265725.000000 0 1 0
9.437291 6.007298 18.890768 21.954753 0.566861 0.534662 0.056595 -0.023853 -775188.000000 0 1 0
10.662991 5.380798 19.169568 22.585940 0.467340 0.557200 0.074397 -0.027611 -174119.000000 0 1 0
10.691891 3.855698 19.114068 22.238042 0.346103 0.536464 0.084563 -0.026548 -411012.000000 0 1 0
10.093991 3.245598 20.267168 22.873143 0.311097 0.482003 0.078561 -0.024516 130783.000000 0 1 0
10.212791 1.833998 20.216768 22.724048 0.177685 0.474187 0.068611 -0.029154 359707.000000 0 1 0
9.201591 1.041998 21.114868 23.056294 0.112761 0.413310 0.067264 -0.022767 371462.000000 0 1 0
9.538491 1.230598 22.483068 24.453742 0.128305 0.404213 0.063441 -0.015779 290002.000000 0 1 0
8.748991 0.382298 23.311568 24.902212 0.043668 0.359354 0.065017 -0.020713 -105356.000000 0 1 0
9.238391 0.347498 24.780728 26.449066 0.037597 0.357077 0.067466 -0.007304 1151220.000000 0 0 1
10.537691 -0.284802 24.981048 27.114144 -0.027020 0.399311 0.063006 -0.007845 1359720.000000 0 0 1
10.485891 -1.705702 25.018418 27.180591 -0.161254 0.401562 0.058895 -0.004527 -136001.000000 0 0 1
11.891591 -2.318702 25.167448 27.931823 -0.192570 0.448655 0.045051 -0.001227 35574.700000 0 0 1
11.882491 -3.772702 25.178378 28.095864 -0.307434 0.459759 0.048573 0.002252 758971.000000 0 0 1
13.193991 -4.330102 25.405078 28.952533 -0.317112 0.500228 0.045623 0.005591 838354.000000 0 0 1
13.196891 -5.844102 25.603598 29.391422 -0.416883 0.513308 0.044062 -0.001019 -114172.000000 0 0 1
13.015491 -6.536902 24.377458 28.397087 -0.465438 0.538558 0.046824 -0.001300 118569.000000 0 0 1
12.657091 -7.865402 24.466898 28.647785 -0.556023 0.547057 0.049824 -0.018470 -266432.000000 0 0 1
12.479891 -8.644202 23.139068 27.674652 -0.605776 0.580642 0.059212 -0.016968 -64148.800000 0 0 1
12.135291 -10.013902 23.345068 28.152011 -0.689912 0.593031 0.064171 -0.008604 -308467.000000 0 0 1
12.146491 -10.752302 22.191068 27.488047 -0.724588 0.631236 0.053801 -0.021381 84404.900000 0 0 1
11.480091 -12.174202 22.283768 27.867005 -0.814734 0.644089 0.054275 -0.014523 61514.600000 0 0 1
10.089591 -11.980802 22.154168 27.132022 -0.870879 0.615418 0.040780 -0.006625 -543042.000000 0 0 1
9.361191 -13.147602 22.466968 27.663260 -0.952057 0.622953 0.030845 -0.004721 -79553.300000 0 0 1
7.893391 -12.881602 22.846268 27.389656 -1.021044 0.584260 0.022589 -0.000108 -310445.000000 0 0 1
7.221491 -12.329902 21.768668 26.039418 -1.040966 0.580864 0.016870 -0.003101 -1350780.000000 0 0 1
5.876691 -12.253202 22.094468 25.939197 -1.123598 0.551424 0.009634 -0.003082 -668225.000000 0 0 1
5.067491 -11.153602 21.387368 24.647552 -1.144342 0.520184 -0.002905 0.004838 -156264.000000 0 1 0
5.495291 -9.856002 21.793068 24.541328 -1.062169 0.477786 0.002576 0.000513 565302.000000 0 1 0
4.548191 -8.821402 21.427468 23.614393 -1.094758 0.433764 -0.007109 0.013237 813830.000000 0 1 0
5.192291 -7.423102 21.699368 23.514355 -0.960421 0.395475 0.002590 0.002580 408674.000000 0 1 0
4.287391 -6.346902 21.477268 22.802147 -0.976697 0.342563 -0.019383 0.012568 215046.000000 0 1 0
4.992791 -5.104102 21.545568 22.697826 -0.796422 0.320002 0.015686 -0.005280 161569.000000 0 1 0
-7.992809 -15.111802 -20.534903 26.719539 1.084288 2.447345 0.018645 0.001918 60522.700000 0 0 1
-7.384809 -14.606902 -19.359503 25.351279 1.102703 2.439744 0.007893 -0.001932 -130407.000000 0 0 1
-6.400709 -13.642202 -19.719003 24.817692 1.132104 2.489069 0.000325 -0.009860 160634.000000 0 1 0
-5.719709 -13.202702 -18.373303 23.336766 1.161982 2.477232 -0.005950 -0.009793 181719.000000 0 1 0
-4.750809 -14.143702 -17.944103 23.336780 1.246741 2.447946 0.001027 -0.002198 -75277.000000 0 1 0
-4.247409 -13.837602 -16.668603 22.076277 1.272978 2.426520 0.009433 -0.012268 172939.000000 0 1 0
-3.271909 -14.949302 -16.159803 22.255926 1.355327 2.383414 0.016564 0.004322 258842.000000 0 1 0
-2.126809 -14.964802 -16.994103 22.743530 1.429621 2.414644 0.019451 -0.000568 -1041210.000000 0 1 0
-1.084909 -15.629402 -16.392803 22.675520 1.501493 2.378829 0.029915 0.005275 -864951.000000 0 1 0
-0.059809 -16.142502 -17.409203 23.741615 1.567091 2.393927 0.014041 0.020319 -195773.000000 0 1 0
-0.560509 -16.970602 -18.438803 25.066012 1.537780 2.397363 0.022640 0.005937 -226012.000000 0 0 1
-0.632009 -18.310802 -18.044803 25.715750 1.536294 2.348580 0.023789 0.008218 -373719.000000 0 0 1
-0.973609 -19.207402 -19.254803 27.214328 1.520150 2.356785 0.029588 0.007929 345050.000000 0 0 1
-2.304209 -19.010702 -19.719703 27.487867 1.450179 2.370854 0.051528 0.000585 94838.300000 0 0 1
-2.403009 -19.251302 -21.092603 28.658070 1.446615 2.397953 0.040084 -0.004571 93718.200000 0 0 1
-3.398909 -18.374102 -21.897203 28.786241 1.387880 2.435161 0.035017 -0.000888 94718.300000 0 0 1
-3.069609 -16.982202 -22.016903 27.974304 1.391973 2.476793 0.031474 -0.002085 204566.000000 0 0 1
-3.636509 -16.092602 -20.975003 26.686078 1.348555 2.475093 0.010103 0.003246 229461.000000 0 0 1
-2.705909 -14.904502 -20.712103 25.660423 1.391203 2.510124 0.018466 0.007103 -139378.000000 0 0 1
-2.586109 -14.020602 -21.803003 26.050646 1.388396 2.562477 0.015514 0.000698 355815.000000 0 0 1
-1.679009 -12.959302 -21.455703 25.121898 1.441954 2.594545 -0.000268 0.009338 251849.000000 0 0 1
-1.650809 -11.852602 -22.548103 25.526972 1.432408 2.653662 0.008023 0.008192 386298.000000 0 0 1
-2.919509 -11.239802 -22.806303 25.592658 1.316665 2.670619 0.011171 -0.001861 427552.000000 0 0 1
-2.897209 -10.348402 -23.893203 26.198633 1.297818 2.718935 0.010318 -0.005284 -225298.000000 0 0 1
-3.846009 -9.135602 -23.762603 25.747083 1.172326 2.746404 0.008839 -0.004680 -1246130.000000 0 0 1
-5.166709 -9.439602 -24.023503 26.323557 1.069995 2.720453 0.018395 -0.011319 -831592.000000 0 0 1
-5.824609 -8.206102 -23.882603 25.916113 0.953530 2.742811 0.026618 -0.013748 -350126.000000 0 0 1
-7.344209 -8.290802 -23.477803 25.959238 0.845868 2.700792 0.016171 -0.020775 1020870.000000 0 0 1
-8.203809 -8.613802 -24.574003 27.301679 0.809772 2.690775 0.014827 -0.009341 125613.000000 0 0 1
-8.332109 -7.685602 -25.616323 28.012292 0.745058 2.724986 0.017461 -0.013573 -628585.000000 0 0 1
-9.261309 -8.185902 -26.745973 29.464010 0.723838 2.708687 0.014065 -0.014323 189870.000000 0 0 1
-9.823409 -7.150802 -27.557303 30.117076 0.629229 2.726319 0.024580 -0.012668 36488.800000 0 0 1
-10.302209 -7.657502 -28.764433 31.498658 0.639191 2.721854 0.028068 -0.013763 -118919.000000 0 0 1
-11.248209 -6.712102 -29.528243 32.303121 0.538009 2.724076 0.042368 -0.017357 58809.900000 0 0 1
-10.541809 -5.631302 -30.116193 32.401024 0.490622 2.763804 0.026879 -0.008507 -55078.700000 0 0 1
-11.290209 -5.088602 -31.162163 33.532717 0.423444 2.763326 0.061874 -0.011360 -271785.000000 0 0 1
-10.607509 -3.876902 -31.824983 33.769500 0.350404 2.800584 0.042070 -0.008409 -10701.700000 0 0 1
-9.617709 -4.431502 -32.671633 34.344929 0.431770 2.828156 0.032774 -0.007011 -117071.000000 0 0 1
-9.273409 -3.527702 -33.724613 35.153809 0.363506 2.855467 0.037030 -0.011124 206522.000000 0 0 1
-8.148909 -4.090302 34.086013 35.284438 0.465202 0.261376 0.027093 -0.010444 312725.000000 0 0 1
-6.889609 -4.150402 -34.017403 34.955346 0.542193 2.909414 0.019257 -0.007645 -222403.000000 0 0 1
-5.923509 -4.450102 33.724972 34.529192 0.644308 0.216250 0.010127 -0.010803 -210967.000000 0 0 1
-4.506909 -4.064002 34.146599 34.681674 0.733768 0.175887 0.017179 -0.011352 -407083.000000 0 0 1
-4.270309 -2.667402 34.131973 34.501335 0.558340 0.146458 0.030329 -0.018122 -106238.000000 0 0 1
-2.901209 -2.357002 34.263140 34.466436 0.682269 0.108666 0.030551 -0.023360 69507.400000 0 0 1
-2.739409 -0.857702 -33.992023 34.113013 0.303429 3.057345 0.048590 -0.023727 -172162.000000 0 0 1
-3.085009 -0.801602 -32.662613 32.817771 0.254216 3.044314 0.039213 -0.024131 143871.000000 0 0 1
-3.359509 0.523798 -32.261193 32.439871 -0.154670 3.036587 0.050353 -0.025963 -573717.000000 0 0 1
-3.815209 0.565398 -30.789433 31.030061 -0.147125 3.016976 0.075257 -0.026856 142372.000000 0 0 1
-4.983009 -0.155102 -30.505523 30.910214 0.031116 2.979598 0.057403 -0.026343 86538.400000 0 0 1
-6.224809 0.516198 -30.681333 31.310683 -0.082737 2.940755 0.061395 -0.024095 374608.000000 0 0 1
-7.445409 -0.438902 -30.570463 31.467125 0.058881 2.902295 0.053794 -0.022864 249385.000000 0 0 1
-7.774509 -0.972202 -29.246463 30.277777 0.124404 2.879841 0.038758 -0.017387 156984.000000 0 0 1
-8.758009 -1.988702 -29.317113 30.661878 0.223286 2.844331 0.032893 -0.004584 50297.600000 0 0 1
-9.123209 -2.740602 -28.039133 29.613119 0.291823 2.814089 0.036545 -0.003568 -97185.100000 0 0 1
-9.824609 -1.934502 -27.126943 28.916021 0.194417 2.787982 0.038596 -0.004989 137443.000000 0 0 1
-10.178009 -2.545302 -25.915073 27.958209 0.245053 2.756921 0.029763 -0.008128 315151.000000 0 0 1
-11.179809 -1.773702 -25.025203 27.466251 0.157341 2.716803 0.031987 -0.001540 374650.000000 0 0 1
-10.499709 -0.632002 -24.549003 26.707618 0.060120 2.736780 0.031114 0.001514 383234.000000 0 0 1
-11.341309 0.165698 -23.737603 26.308298 -0.014609 2.695838 0.032673 -0.002057 -4035.810000 0 0 1
-10.645009 1.432198 -23.246703 25.608135 -0.133739 2.708771 0.036786 -0.007432 80410.000000 0 0 1
-10.442409 2.406198 -24.232603 26.496278 -0.226473 2.725231 0.032726 -0.009234 333639.000000 0 0 1
-9.671709 3.548998 -23.801603 25.935567 -0.351691 2.733100 0.030606 -0.006612 -48833.900000 0 0 1
-9.629309 4.723098 -24.755603 26.979087 -0.456012 2.732758 0.041855 -0.010212 213926.000000 0 0 1
-10.853309 5.437898 -24.963603 27.758720 -0.464476 2.688978 0.047858 -0.012672 567760.000000 0 0 1
-11.611009 4.947898 -26.071023 28.965418 -0.402835 2.690736 0.035667 -0.019214 148085.000000 0 0 1
-13.032509 5.545098 -26.198853 29.782114 -0.402279 2.645994 0.030341 -0.014475 170098.000000 0 0 1
-13.117509 6.874398 -26.684713 30.518851 -0.482712 2.634929 0.036128 -0.021622 -223773.000000 0 0 1
-14.459609 7.265498 -26.811353 31.316392 -0.465620 2.598558 0.040128 -0.025148 -511465.000000 0 0 1
-14.643609 8.773698 -26.987763 31.933562 -0.539793 2.577590 0.057271 -0.025273 -436754.000000 0 0 1
-14.531609 9.519998 -25.817083 31.117837 -0.579969 2.549287 0.072113 -0.029206 -133118.000000 0 0 1
-15.018809 10.797598 -26.044943 31.945137 -0.623324 2.524047 0.061537 -0.030001 -275516.000000 0 0 1
-14.621109 11.763498 -24.916303 31.192609 -0.677513 2.496075 0.061205 -0.020435 -227571.000000 0 0 1
-15.103209 11.384698 -23.647303 30.280575 -0.645924 2.466965 0.076576 -0.014806 -84451.900000 0 0 1
-14.609009 12.188498 -22.669103 29.595115 -0.695317 2.443352 0.074682 -0.014987 -750167.000000 0 0 1
-15.462909 12.100198 -21.434603 29.068171 -0.663998 2.399996 0.071393 -0.013548 -375959.000000 0 0 1
-16.747209 12.635998 -21.587503 30.102454 -0.646384 2.370478 0.053611 -0.012933 -641138.000000 0 0 1
-17.410209 12.838298 -20.404403 29.736794 -0.635389 2.327003 0.053079 -0.006109 248406.000000 0 0 1
-18.908909 13.250198 -20.524603 30.892943 -0.611221 2.297458 0.045452 -0.008528 422325.000000 0 0 1
-19.169109 14.578298 -20.913803 31.896217 -0.650194 2.285883 0.044239 -0.011960 226769.000000 0 0 1
-20.541609 14.901798 -20.775503 32.796994 -0.627600 2.256810 0.029994 -0.012589 161351.000000 0 0 1
-20.904309 16.257698 -21.370003 34.029104 -0.661007 2.249767 0.023355 -0.009944 -502344.000000 0 0 1
-20.817709 16.277598 -22.805803 34.906186 -0.663613 2.282792 0.027078 -0.011028 108360.000000 0 0 1
-21.044209 17.578198 -23.276403 35.967245 -0.695897 2.274644 0.009218 -0.001401 -53653.100000 0 0 1
-21.023409 17.670298 -24.799203 37.003022 -0.698956 2.305266 0.006660 -0.005176 366058.000000 0 0 1
-19.723209 17.829298 -25.351923 36.737023 -0.735007 2.332412 0.010706 -0.012136 368747.000000 0 0 1
-19.718809 17.456398 -26.731503 37.525065 -0.724615 2.363657 0.010204 -0.026663 396165.000000 0 0 1
-18.601809 18.033498 -27.685683 37.917428 -0.769887 2.389348 -0.003854 -0.014735 449567.000000 0 0 1
-18.964009 19.355698 -28.134703 39.061979 -0.795619 2.374970 -0.023755 -0.016982 390590.000000 0 0 1
-18.202409 20.421798 -27.592713 38.855313 -0.842796 2.360493 -0.034176 -0.018097 -1449960.000000 0 0 1
-18.950609 21.753998 -27.750243 40.030463 -0.854161 2.336755 0.007172 -0.026629 1458050.000000 0 0 1
-20.114609 22.028698 -26.895423 40.164970 -0.830786 2.304499 0.024260 -0.020020 1349610.000000 0 0 1
-21.202909 21.139298 -27.031843 40.337994 -0.783896 2.305185 0.049194 -0.023697 -549934.000000 0 0 1
-22.355809 21.453398 -26.021803 40.461892 -0.764802 2.269360 0.055110 -0.012854 394663.000000 0 0 1
-22.024509 21.120498 -24.668303 39.238751 -0.764448 2.250641 0.027048 -0.011467 590726.000000 0 0 1
-23.003209 21.679498 -23.755703 39.540886 -0.755782 2.215283 0.016405 -0.019284 392986.000000 0 0 1
-22.784909 21.272198 -22.291103 38.321688 -0.751076 2.191593 0.001715 -0.003775 19662.200000 0 0 1
-21.637909 21.879298 -21.711203 37.660047 -0.790945 2.185241 0.002982 -0.001059 -92169.700000 0 0 1
-20.739809 20.970498 -21.134003 36.284260 -0.790929 2.192544 0.004901 0.000375 -362274.000000 0 0 1
-21.158409 20.208198 -19.879503 35.372930 -0.762432 2.167595 0.025325 -0.009718 -1188840.000000 0 0 1
-22.176309 19.191698 -20.108903 35.559498 -0.713375 2.171836 0.037496 -0.010724 812395.000000 0 0 1
-22.844809 18.749698 -18.944303 35.104460 -0.687261 2.140824 0.031565 -0.004000 -26451.100000 0 0 1
-23.803909 19.820998 -18.352003 36.004084 -0.694352 2.105656 0.000178 -0.004654 -1119920.000000 0 0 1
-25.064079 19.718298 -18.963403 37.102965 -0.666588 2.107263 0.001171 -0.000671 -18267.000000 0 0 1
-25.856349 20.900198 -18.761703 38.175523 -0.679793 2.084561 0.000031 -0.004593 -124483.000000 0 0 1
-27.340579 20.734898 -19.187703 39.314262 -0.648851 2.080662 -0.006098 -0.003501 217797.000000 0 0 1
-28.150839 19.719398 -18.654903 39.106646 -0.611055 2.068065 0.000291 0.006755 81552.800000 0 0 1
-28.246839 19.685998 -17.255003 38.511785 -0.608661 2.035373 -0.018798 0.003754 -734373.000000 0 0 1
-29.217759 18.621998 -16.669103 38.448865 -0.567432 2.019213 -0.026873 0.013327 -428394.000000 0 0 1
-28.624589 17.387498 -16.698503 37.423685 -0.545866 2.033313 -0.012264 0.012121 -44296.500000 0 0 1
-29.496869 16.300898 -16.436203 37.495777 -0.504861 2.024556 -0.020595 0.006856 56525.100000 0 0 1
-28.746369 15.113298 -15.826203 36.128025 -0.484032 2.024235 0.010689 0.003509 -29099.800000 0 0 1
-28.203279 15.267098 -14.509103 35.199763 -0.496157 1.995656 0.019685 0.005478 70317.200000 0 0 1
-29.176979 15.311598 -13.496403 35.607500 -0.483277 1.959547 -0.009066 0.014209 112355.000000 0 0 1
-28.584149 15.782698 -12.091303 34.818770 -0.504491 1.925448 0.012325 0.003110 138298.000000 0 0 1
-28.134569 17.132498 -12.006503 35.060413 -0.546973 1.920322 0.009577 0.006460 -13408.600000 0 0 1
-29.109019 18.157898 -12.180403 36.406132 -0.557728 1.911945 -0.017429 0.006140 -282033.000000 0 0 1
-28.491969 19.472098 -12.616103 36.743992 -0.599514 1.921279 0.022190 0.002775 -23847.600000 0 0 1
-27.694689 20.122298 -11.642703 36.158750 -0.628340 1.898625 -0.013015 -0.014034 -98263.700000 0 0 1
-26.769629 21.012198 -12.212803 36.156300 -0.665482 1.915351 -0.006132 -0.016864 -206904.000000 0 0 1
-25.821249 21.587698 -11.174103 35.463026 -0.696336 1.891350 0.018730 -0.010507 55801.800000 0 0 1
-26.506139 22.513398 -10.328403 36.278153 -0.704126 1.859490 0.016090 -0.009960 394931.000000 0 0 1
-25.906589 23.827298 -10.374203 36.694898 -0.743614 1.857420 0.016250 -0.012169 126946.000000 0 0 1
-26.570049 24.767098 -9.330503 37.502466 -0.750293 1.822234 0.029367 0.002776 156987.000000 0 0 1
-26.210459 24.617198 -7.972703 36.831489 -0.754062 1.788988 0.031652 -0.005746 -361272.000000 0 0 1
-27.164899 25.249698 -7.201303 37.780124 -0.748875 1.762581 0.031994 -0.007016 -332415.000000 0 0 1
-27.168749 24.715598 -5.770103 37.179239 -0.738152 1.726623 0.045146 -0.011446 -149748.000000 0 0 1
-27.597079 23.345998 -5.737503 36.599909 -0.702143 1.728208 0.043673 -0.012827 -341385.000000 0 0 1
-27.305699 22.749098 -4.468203 35.820211 -0.694616 1.695862 0.039209 -0.015056 -23134.600000 0 0 1
-27.558989 21.178198 -4.460503 35.041547 -0.655216 1.698434 0.024206 -0.008108 459032.000000 0 0 1
-26.611219 20.368798 -5.200903 33.913040 -0.653298 1.724764 0.026852 -0.013726 500366.000000 0 0 1
-26.457909 20.534798 -6.615903 34.138967 -0.660016 1.765824 0.022796 -0.008806 -616790.000000 0 0 1
-27.205109 19.528498 -7.513103 34.320940 -0.622589 1.791491 0.012124 -0.002526 -402072.000000 0 0 1
-26.856169 18.171598 -7.470403 33.275632 -0.594866 1.797227 0.009050 0.004035 29337.100000 0 0 1
-27.246039 17.556398 -8.651603 33.547339 -0.572404 1.831636 0.000201 0.009879 -176599.000000 0 0 1
-26.723139 16.123798 -8.762803 32.417429 -0.542890 1.844513 0.030131 0.015508 -185963.000000 0 0 1
-27.365009 15.205798 -7.941403 32.297459 -0.507183 1.819227 0.015877 0.013109 -186593.000000 0 0 1
-27.268849 13.902198 -8.405703 31.741409 -0.471473 1.838812 0.032664 0.003091 -146915.000000 0 0 1
-27.958199 12.859598 -7.525103 31.680551 -0.431104 1.810619 0.024514 -0.003706 52889.800000 0 0 1
-29.374159 12.990398 -7.438003 32.968402 -0.416381 1.798366 0.024205 -0.001030 271886.000000 0 0 1
-29.940229 11.994698 -6.598403 32.921558 -0.381042 1.772591 0.030069 -0.020675 -392786.000000 0 0 1
-30.465209 10.778598 -7.376303 33.146900 -0.340056 1.795209 0.024647 -0.010338 -214411.000000 0 0 1
-29.553819 10.008898 -8.192203 32.260168 -0.326543 1.827550 0.042343 -0.007247 579141.000000 0 0 1
-30.198529 8.800798 -8.592603 32.607331 -0.283577 1.837463 0.024972 0.004373 50976.900000 0 0 1
-29.157439 7.743598 -9.059003 31.498970 -0.259586 1.862513 0.065266 0.003910 -266614.000000 0 0 1
-28.775969 7.916998 -10.427703 31.614431 -0.268483 1.906930 0.059684 -0.006978 221097.000000 0 0 1
-27.944449 6.870798 -10.847803 30.753454 -0.241091 1.931288 0.083054 -0.015103 -382125.000000 0 0 1
-27.099369 7.095598 -12.122203 30.523288 -0.256087 1.979201 0.071821 -0.014046 -495987.000000 0 0 1
-26.103669 8.053498 -11.961803 29.821889 -0.299255 1.983523 0.083041 -0.021004 -396367.000000 0 0 1
-25.217459 7.975498 -13.011203 29.475756 -0.306315 2.027977 0.068693 -0.004476 -701492.000000 0 0 1
-31.032089 26.084198 -34.018923 52.921291 -0.698986 2.268972 -0.002647 0.003647 -3526.090000 0 0 1
-31.859609 27.196698 -34.299812 54.140301 -0.706605 2.256911 -0.001565 -0.002772 281266.000000 0 0 1
-31.659779 27.605298 33.136988 53.501907 -0.717092 0.902868 -0.000215 -0.006469 -281226.000000 0 0 1
-32.322679 28.968098 32.856028 54.437348 -0.730720 0.922842 0.009152 -0.020677 -248396.000000 0 0 1
-32.047679 29.511998 31.592338 53.815310 -0.744231 0.943385 0.027290 -0.018661 186222.000000 0 0 1
-32.443399 30.896798 31.480488 54.755889 -0.760986 0.958285 0.034901 -0.018241 -49475.600000 0 0 1
-32.136729 31.637498 30.130108 54.235819 -0.777570 0.981785 0.034992 -0.017640 17253.500000 0 0 1
-30.765249 31.685998 29.789658 53.272195 -0.800141 0.977379 0.023890 -0.013990 179933.000000 0 0 1
-30.623029 32.434998 28.582348 52.978766 -0.814125 1.000946 0.032368 -0.009048 -816492.000000 0 0 1
-29.254009 32.435498 27.957398 51.860145 -0.836925 1.001437 0.046915 -0.012574 -1385770.000000 0 0 1
-28.994889 31.192598 27.346908 50.611611 -0.821896 0.999969 0.052273 -0.022364 59128.400000 0 0 1
-27.802159 31.087498 26.602458 49.468003 -0.841128 1.003005 0.044905 -0.012286 -325765.000000 0 0 1
-27.807839 31.728798 25.189458 49.137575 -0.851161 1.032550 0.048232 -0.018497 -438918.000000 0 0 1
-27.772619 33.174398 25.297558 50.118115 -0.873798 1.041694 0.045589 -0.024925 992930.000000 0 0 1
-28.781319 33.766798 24.424798 50.647129 -0.864936 1.067570 0.042998 -0.020823 511811.000000 0 0 1
-29.101559 -33.607666 24.895568 50.952578 0.857132 1.060309 0.048508 -0.023079 -316224.000000 0 0 1
-29.753279 -33.628866 26.148648 51.960658 0.846468 1.043453 0.046381 -0.027445 267231.000000 0 0 1
-29.884649 -32.289866 26.708408 51.469085 0.824064 1.025208 0.044879 -0.027354 -337714.000000 0 0 1
-30.205959 -32.340566 28.182168 52.464719 0.819513 1.003725 0.044634 -0.024517 349169.000000 0 0 1
-31.468759 -32.965566 28.404358 53.701200 0.808624 1.013453 0.038819 -0.031049 247114.000000 0 0 1
-31.808849 -33.000766 29.786368 54.663344 0.803787 0.994520 0.026592 -0.025528 14575.800000 0 0 1
-33.251129 -33.400466 30.142178 55.944433 0.787639 1.001799 0.029531 -0.024783 -83519.800000 0 0 1
-33.400639 -33.403766 31.544478 56.802010 0.785445 0.982024 0.019439 -0.022550 857177.000000 0 0 1
-34.766296 -33.377266 32.008798 57.855858 0.765017 0.984535 0.021692 -0.025582 917893.000000 0 0 1
-34.824564 -33.841966 33.458930 58.970577 0.771089 0.967471 0.018083 -0.012341 -117922.000000 0 0 1
-34.499622 33.599798 33.671489 58.761718 -0.772186 0.960613 -0.006900 -0.011768 -216144.000000 0 0 1
-35.333276 33.008698 -34.098796 59.167072 -0.751397 2.185007 0.002061 -0.005315 134694.000000 0 0 1
-34.922470 31.558498 -33.760573 57.924900 -0.734841 2.193008 -0.008943 -0.002018 13076.200000 0 0 1
-33.670749 31.448998 -33.143233 56.755905 -0.751293 2.194396 -0.007012 0.000226 -577337.000000 0 0 1
-33.365219 30.131298 -32.647923 55.560956 -0.734511 2.198893 -0.010563 -0.004354 114950.000000 0 0 1
-32.695829 29.919898 -31.294663 54.254709 -0.741094 2.185615 -0.009287 -0.002099 -39693.400000 0 0 1
-33.459549 30.122398 -30.118403 54.166581 -0.732960 2.160402 -0.014687 -0.005310 -404009.000000 0 0 1
-33.604599 31.541998 -29.818393 54.893563 -0.753748 2.145045 -0.020136 0.001511 476347.000000 0 0 1
-34.690925 31.827998 -28.735493 55.156235 -0.742385 2.118799 -0.014373 0.003178 439053.000000 0 0 1
-34.274494 31.390198 -27.452763 53.979067 -0.741502 2.104333 -0.025537 -0.006535 -203100.000000 0 0 1
-35.360680 31.281898 -26.579383 54.179317 -0.724271 2.083554 -0.008949 -0.004717 -283527.000000 0 0 1
-34.875043 30.952698 -25.118323 52.964783 -0.725884 2.064903 -0.005768 -0.006582 100121.000000 0 0 1
-34.335902 32.150598 -24.487803 53.030818 -0.752542 2.050781 0.012699 -0.013648 147071.000000 0 0 1
-33.947709 31.853498 -23.117003 51.975842 -0.753583 2.031707 0.012952 -0.015334 -3571.320000 0 0 1
-35.134458 31.561898 -22.147903 52.164290 -0.731885 2.009294 0.018506 -0.012355 377768.000000 0 0 1
35.450467 32.655898 -21.802703 52.900861 0.744389 1.995601 0.027301 -0.023097 368962.000000 0 0 1
-35.466601 33.713198 -21.067903 53.275849 -0.760058 1.977353 0.031423 -0.029608 -407328.000000 0 0 1
-35.372095 33.485198 -19.534603 52.478989 -0.758002 1.952214 0.026697 -0.022410 -155330.000000 0 0 1
-34.413853 32.542898 -19.141203 51.085606 -0.757463 1.954857 0.027099 -0.020524 -381750.000000 0 0 1
-34.056219 32.744498 -17.821303 50.493832 -0.765764 1.931508 0.035492 -0.011202 514919.000000 0 0 1
-32.982289 31.691098 -17.339703 48.916484 -0.765436 1.933150 0.025013 -0.001421 549553.000000 0 0 1
-32.814009 31.598498 -15.948303 48.265646 -0.766530 1.907553 0.026016 -0.004186 497265.000000 0 0 1
-31.608049 30.848798 -15.665903 46.862966 -0.773242 1.911650 0.017321 -0.001643 602072.000000 0 0 1
-31.239999 30.695198 -14.193703 46.039048 -0.776602 1.884199 0.021680 -0.002758 -393442.000000 0 0 1
-32.088299 29.815898 -13.511203 45.838841 -0.748706 1.869995 0.021220 -0.004522 -191739.000000 0 0 1
-31.750509 29.531898 -12.178103 45.039250 -0.749211 1.844593 0.025285 -0.002855 -472157.000000 0 0 1
-32.588059 28.406998 -11.572703 44.753397 -0.716958 1.832357 0.015637 -0.008238 -416707.000000 0 0 1
-32.147779 27.919598 -10.303703 43.808104 -0.715123 1.808222 0.027929 -0.004386 -290381.000000 0 0 1
-32.983259 26.931798 -9.816003 43.698639 -0.684739 1.797359 0.009934 -0.005221 -419363.000000 0 0 1
-32.315969 26.198498 -8.606503 42.482409 -0.681230 1.774798 0.015513 0.000261 184339.000000 0 0 1
-32.242499 26.934098 -7.472603 42.671585 -0.695933 1.746823 0.017864 -0.002234 1492510.000000 0 0 1
-30.945759 27.608998 -7.335703 42.115428 -0.728474 1.745870 0.028604 -0.008442 930214.000000 0 0 1
-30.682619 28.111698 -5.870403 42.025615 -0.741699 1.710941 0.036876 -0.010170 -373604.000000 0 0 1
-30.144959 27.070098 -5.151703 40.841753 -0.731708 1.697271 0.040463 -0.013021 67610.800000 0 0 1
-29.825259 27.446598 -3.842703 40.713980 -0.743889 1.665320 0.049996 -0.013567 -249265.000000 0 0 1
-29.253989 26.259598 -3.089303 39.432298 -0.731511 1.649221 0.049950 -0.015669 -801478.000000 0 0 1
-30.100659 25.232498 -2.815603 39.378373 -0.697645 1.642359 0.044587 -0.008524 -474951.000000 0 0 1
-29.396599 24.384498 -1.914303 38.241709 -0.692472 1.620875 0.013717 -0.009701 340096.000000 0 0 1
-30.177929 23.140998 -1.464203 38.057287 -0.654178 1.609279 0.016117 -0.018610 -185260.000000 0 0 1
-30.195929 22.217698 -2.486203 37.571285 -0.634341 1.637018 0.004004 -0.011538 -78110.200000 0 0 1
-31.223629 21.278398 -2.335103 37.856808 -0.598191 1.632518 0.012614 -0.006840 -188834.000000 0 0 1
-31.508949 20.347898 -3.540103 37.674702 -0.573404 1.664900 0.024441 -0.002110 559381.000000 0 0 1
-30.463829 19.368798 -3.774303 36.296564 -0.566326 1.674970 0.018572 -0.008992 736203.000000 0 0 1
-30.574099 18.806898 -5.089903 36.254407 -0.551467 1.711656 0.023032 -0.005738 -255390.000000 0 0 1
-29.568109 17.678598 -5.296903 34.854886 -0.538870 1.723358 0.027047 -0.000559 -316119.000000 0 0 1
-29.767809 16.524398 -4.548803 34.349233 -0.506758 1.703615 0.025865 -0.012114 -23501.600000 0 0 1
-28.976329 15.477398 -5.033103 33.234163 -0.490585 1.722825 0.019413 -0.015080 -300011.000000 0 0 1
-28.612679 14.383998 -3.979903 32.271108 -0.465817 1.694438 0.032265 -0.024962 -644732.000000 0 0 1
-29.748119 13.719698 -3.540403 32.950192 -0.432125 1.678451 0.047201 -0.029523 38899.200000 0 0 1
-29.376829 12.673698 -2.665603 32.104924 -0.407294 1.653920 0.047565 -0.035533 -951524.000000 0 0 1
-30.626509 11.974698 -2.263203 32.962077 -0.372716 1.639511 0.064480 -0.038595 -1621120.000000 0 0 1
-31.307229 11.456698 -3.340303 33.504569 -0.350808 1.670659 0.058377 -0.025432 -387391.000000 0 0 1
-32.202379 10.536198 -2.767403 33.995047 -0.316209 1.652293 0.060519 -0.024503 -176671.000000 0 0 1
-33.395179 10.133898 -3.681903 35.092596 -0.294623 1.675909 0.038569 -0.015517 28452.600000 0 0 1
-32.951799 9.362098 -4.754403 34.584307 -0.276820 1.708706 0.031147 -0.021571 358618.000000 0 0 1
-33.974549 8.966498 -5.666703 35.591847 -0.258035 1.730690 0.039954 -0.010419 99846.000000 0 0 1
-33.464159 8.055498 -6.828603 35.090893 -0.236226 1.766643 0.035810 -0.016119 -325074.000000 0 0 1
-33.058569 6.782698 -6.445903 34.357294 -0.202364 1.759529 0.032703 -0.009061 241809.000000 0 0 1
-32.635489 6.148898 -7.637603 34.076635 -0.186228 1.796847 0.026881 -0.002595 -620257.000000 0 0 1
-31.613579 5.004798 -7.457103 32.864491 -0.157009 1.799694 0.041004 -0.008875 344515.000000 0 0 1
-30.338259 5.553498 -7.103103 31.649729 -0.181048 1.797153 0.049034 -0.013432 948494.000000 0 0 1
-29.435499 4.548098 -6.628203 30.513388 -0.153298 1.789765 0.042610 -0.014181 335226.000000 0 0 1
-27.946679 4.902298 -6.429603 29.092769 -0.173649 1.793640 0.083794 -0.014476 118267.000000 0 0 1
-27.251339 5.073598 -7.640503 28.753333 -0.184070 1.839753 0.085593 -0.014406 817084.000000 0 0 1
-25.829729 5.016398 -7.437603 27.343319 -0.191822 1.846275 0.106607 -0.016579 862033.000000 0 0 1
-25.049809 5.462898 -8.701803 27.075036 -0.214720 1.897999 0.107334 -0.012093 -115113.000000 0 0 1
-25.309219 4.690098 -9.828803 27.552839 -0.183233 1.935557 0.104600 -0.019894 116795.000000 0 0 1
-24.184709 4.651398 -10.651103 26.832474 -0.190008 1.978986 0.099051 -0.028391 -414542.000000 0 0 1
-24.469809 3.737598 -11.867403 27.451347 -0.151572 2.017846 0.090213 -0.036673 183677.000000 0 0 1
-25.386429 4.435998 -12.712003 28.735759 -0.172992 2.029042 0.083016 -0.021371 466287.000000 0 0 1
-25.739299 3.643498 -13.826203 29.444023 -0.140620 2.059607 0.075121 -0.021452 -99943.500000 0 0 1
-26.496739 4.409098 -14.909903 30.721695 -0.164891 2.077527 0.051847 -0.008972 -163823.000000 0 0 1
-25.707979 5.411298 -15.564703 30.535918 -0.207462 2.105653 0.038344 -0.005113 830917.000000 0 0 1
-26.526649 6.279798 -16.351603 31.787952 -0.232456 2.111100 0.053025 -0.003959 156670.000000 0 0 1
-27.362929 5.796598 -17.560003 33.025507 -0.208755 2.131415 0.016676 0.008159 16572.400000 0 0 1
-28.520459 5.120198 -17.109503 33.650677 -0.177635 2.104174 0.023849 -0.001572 81556.600000 0 0 1
-29.169309 4.409298 -18.197903 34.661999 -0.150026 2.123523 0.021797 0.007487 -23569.500000 0 0 1
-30.583859 3.883498 -17.918403 35.658423 -0.126303 2.097286 0.022559 0.003880 -330851.000000 0 0 1
-30.668409 2.696498 -17.088303 35.211255 -0.087699 2.077512 0.031993 -0.003622 383443.000000 0 0 1
-30.136429 1.527098 -17.730003 34.998420 -0.050630 2.102027 0.049097 -0.010778 -54344.300000 0 0 1
-30.477159 0.335798 -16.856303 34.829656 -0.011018 2.075975 0.051150 -0.014238 -238263.000000 0 0 1
-29.964739 -0.936502 -17.247703 34.586787 0.031243 2.092870 0.061165 -0.013015 310279.000000 0 0 1
-30.439109 -1.977202 -16.452303 34.657278 0.064865 2.065436 0.075950 -0.022721 -245571.000000 0 0 1
-30.133959 -3.251302 -17.212303 34.855269 0.107479 2.087276 0.077835 -0.016414 251360.000000 0 0 1
-31.148279 -3.587502 -18.170803 36.238978 0.114670 2.096031 0.080757 -0.019001 618691.000000 0 0 1
-30.832949 -4.783102 -18.896603 36.477807 0.153903 2.115343 0.082013 -0.014249 104574.000000 0 0 1
-31.871139 -5.135602 -19.989103 37.969832 0.159763 2.125212 0.076308 -0.012280 50231.000000 0 0 1
-31.559809 -6.397202 -20.566103 38.208773 0.199991 2.139163 0.085639 -0.007557 502544.000000 0 0 1
-32.496299 -6.750902 -21.597303 39.598328 0.204830 2.147674 0.079109 -0.002755 147366.000000 0 0 1
-32.022909 -7.829002 -22.639703 39.991450 0.239778 2.172580 0.083685 -0.003031 -85784.400000 0 0 1
-30.844789 -7.552302 -23.370303 39.428534 0.240124 2.205235 0.084647 -0.007563 -84494.100000 0 0 1
-30.702279 -8.397902 -24.490103 40.161173 0.266996 2.226599 0.083473 -0.003531 -470258.000000 0 0 1
-29.455589 -8.073302 -25.288923 39.652737 0.267514 2.262383 0.071251 -0.001991 -698062.000000 0 0 1
-29.520279 -6.766402 -25.812693 39.793544 0.225320 2.276626 0.058292 -0.009877 88694.200000 0 0 1
-29.421609 -6.687202 -27.240673 40.649772 0.223492 2.305182 0.042482 -0.011515 606284.000000 0 0 1
-30.832329 -6.738802 -27.931173 42.144921 0.215179 2.295270 0.052905 -0.012440 674614.000000 0 0 1
-31.501779 -7.986502 -27.783243 42.755758 0.248294 2.278135 0.056776 -0.007414 -455106.000000 0 0 1
-32.799389 -7.999102 -28.306673 44.057386 0.239210 2.268547 0.054288 -0.008085 352571.000000 0 0 1
-33.705389 -9.131502 -27.697673 44.571276 0.264570 2.241356 0.054872 -0.003418 -141340.000000 0 0 1
-33.150339 -10.427702 -27.974973 44.612566 0.304759 2.248576 0.055910 -0.007777 171901.000000 0 0 1
-33.988479 -11.601702 -27.828923 45.434185 0.328941 2.230029 0.038102 -0.001025 -12910.300000 0 0 1
-35.195897 -11.668202 -28.804133 46.952914 0.320119 2.231242 0.020695 -0.000260 -101890.000000 0 0 1
35.265029 -10.785202 -28.346123 46.512853 -0.296799 2.226132 0.013216 0.003623 -774519.000000 0 0 1
34.483679 -10.415102 -29.412293 46.504639 -0.293318 2.255520 0.011866 -0.004284 -518339.000000 0 0 1
33.427999 -9.359102 -29.012513 45.241019 -0.272988 2.266972 0.002767 0.004192 -410333.000000 0 0 1
32.430819 -9.820102 -28.175633 44.068795 -0.294025 2.264456 -0.015716 0.007639 -1040880.000000 0 0 1
31.460399 -8.875402 -27.920483 42.989334 -0.274967 2.277690 -0.035179 0.018072 -31290.700000 0 0 1
30.278269 -9.485302 -27.100493 41.727464 -0.303587 2.277676 -0.049757 0.020327 -31874.800000 0 0 1
30.606769 -9.766702 -25.726183 41.158222 -0.308889 2.245999 -0.060813 0.031329 -624868.000000 0 0 1
29.527829 -10.118502 -24.947803 39.958349 -0.330136 2.245089 -0.069536 0.031443 -910416.000000 0 0 1
29.866629 -10.198402 -23.449503 39.317962 -0.329051 2.209814 -0.079656 0.031681 26189.200000 0 0 1
30.649319 -11.309202 -23.055603 39.985493 -0.353489 2.185356 -0.092126 0.029244 104252.000000 0 0 1
30.740919 -11.258602 -21.646603 39.247110 -0.351070 2.155013 -0.087079 0.031394 73378.500000 0 0 1
31.434279 -12.523802 -21.023403 39.836453 -0.379137 2.126737 -0.056722 0.031231 -762266.000000 0 0 1
32.776919 -12.540802 -21.354903 41.080774 -0.365426 2.117445 -0.033631 0.026312 -937284.000000 0 0 1
33.536049 -13.458302 -20.577703 41.584063 -0.381634 2.088454 -0.005592 0.019637 -17631.000000 0 0 1
34.984129 -13.524002 -21.128303 43.048729 -0.368880 2.083804 0.025296 0.006328 -619557.000000 0 0 1
35.684132 -12.292602 -20.976903 43.179808 -0.331752 2.078079 0.051524 0.001991 147208.000000 0 0 1
35.513414 -11.286002 -21.952503 43.249148 -0.307702 2.103173 0.055293 0.015115 -459067.000000 0 0 1
-35.331013 -11.582402 -23.413803 43.939034 0.316785 2.132785 0.037333 0.016003 323241.000000 0 0 1
35.536825 -12.568202 -24.241203 44.815863 -0.339938 2.142311 0.021789 0.016704 -130598.000000 0 0 1
34.288079 -12.210402 -24.769303 44.025954 -0.342110 2.168332 0.024546 0.014742 -535159.000000 0 0 1
33.659669 -13.301902 -25.672703 44.373433 -0.376351 2.187759 0.012302 -0.007172 -603312.000000 0 0 1
33.533419 -14.617402 -25.171063 44.404291 -0.411071 2.173487 0.009766 -0.016713 264967.000000 0 0 1
32.814809 -14.677002 -23.967203 43.204779 -0.420579 2.158841 -0.027766 0.000440 -699480.000000 0 0 1
-29.147549 8.491298 -19.664803 36.171622 -0.283476 2.145579 0.003853 0.000959 -278009.000000 0 0 1
-28.109809 7.691398 -20.125403 35.416815 -0.267083 2.175167 -0.000572 -0.002396 -181658.000000 0 0 1
-27.298019 8.295698 -21.158403 35.520113 -0.295025 2.208901 0.017420 -0.011133 517368.000000 0 0 1
-25.999459 7.487698 -21.412403 34.504036 -0.280406 2.240274 0.013234 -0.009246 283743.000000 0 0 1
-25.156829 7.478798 -20.248003 33.147852 -0.288966 2.227916 0.014149 -0.002397 646155.000000 0 0 1
-24.045909 6.592398 -20.469303 32.259228 -0.267584 2.258191 0.037935 -0.006361 870395.000000 0 0 1
-22.686509 7.119198 -19.934703 31.028262 -0.304076 2.268512 0.030888 -0.006117 337364.000000 0 0 1
-22.211309 8.267298 -20.591003 31.395539 -0.356323 2.286114 0.029556 -0.004201 680136.000000 0 0 1
-20.892709 8.634798 -20.135503 30.273809 -0.391913 2.298441 0.030951 -0.004863 814254.000000 0 0 1
-20.269309 9.824898 -20.938603 30.753839 -0.451347 2.319712 0.027326 -0.004222 -98716.000000 0 0 1
-19.748209 9.309998 -22.188703 31.128867 -0.440536 2.364281 0.038398 -0.013318 -14031.800000 0 0 1
-19.063209 10.276498 -22.943303 31.550079 -0.494417 2.385034 0.033051 -0.011445 -51869.700000 0 0 1
-18.047109 9.590398 -23.856303 31.413326 -0.488458 2.433237 0.048576 -0.014641 15711.600000 0 0 1
-18.726109 8.848398 -24.856003 32.354013 -0.441420 2.446901 0.037846 -0.017626 485457.000000 0 0 1
-17.781509 7.969698 -25.502573 32.094850 -0.421357 2.489145 0.037154 -0.013057 -195102.000000 0 0 1
-18.338609 7.047898 -26.626783 33.090225 -0.366917 2.505919 0.028342 -0.005128 -399399.000000 0 0 1
-19.053409 5.996598 -26.047923 32.825080 -0.304911 2.487396 0.032099 0.002578 230440.000000 0 0 1
-19.611509 5.049698 -26.997893 33.749029 -0.252012 2.498026 0.026395 0.006552 -292554.000000 0 0 1
-19.874609 3.659298 -26.311843 33.176854 -0.182080 2.486643 0.028913 0.010759 420635.000000 0 0 1
-18.768709 2.790298 -26.030173 32.212111 -0.147587 2.511693 0.032786 0.011842 441228.000000 0 0 1
-17.793409 3.278798 -25.117363 30.955417 -0.182226 2.517347 0.033174 0.006702 -137073.000000 0 0 1
-16.908409 2.101298 -24.613903 29.935831 -0.123641 2.536101 0.039045 0.007498 38037.300000 0 0 1
-17.386809 1.217598 -23.569103 29.313585 -0.069916 2.504844 0.035470 0.006025 498258.000000 0 0 1
-18.654009 0.576798 -23.767303 30.219024 -0.030911 2.475920 0.026192 0.002571 451915.000000 0 0 1
-19.131609 -0.169902 -22.532003 29.559068 0.008880 2.437610 0.045526 0.002653 41882.100000 0 0 1
-18.442709 -1.382902 -22.303703 28.974145 0.074844 2.449292 0.033523 0.001200 42145.000000 0 0 1
-19.069909 -2.072602 -21.251903 28.628665 0.108259 2.407337 0.034826 0.001072 -156096.000000 0 0 1
-18.424209 -3.399702 -20.868003 28.044304 0.182471 2.409996 0.020250 -0.012376 -219499.000000 0 0 1
-18.566909 -4.463302 -21.850603 29.018960 0.235914 2.423370 0.022919 -0.020113 315753.000000 0 0 1
-18.947609 -5.746202 -21.347603 29.116162 0.294452 2.393794 0.023038 -0.018737 -360486.000000 0 0 1
-18.948909 -6.691602 -22.562403 30.214247 0.339469 2.413954 0.008833 -0.028173 -437487.000000 0 0 1
-17.651809 -6.800402 -23.093503 29.851997 0.367729 2.455299 0.014635 -0.017513 -218696.000000 0 0 1
-17.600709 -7.561502 -24.290603 30.935330 0.405772 2.473825 0.021098 -0.023379 183356.000000 0 0 1
-16.130709 -7.825002 -24.694303 30.516209 0.451656 2.513618 0.035590 -0.030483 -598037.000000 0 0 1
-16.052209 -8.645402 -25.851593 31.634178 0.494033 2.527340 0.044895 -0.046426 325963.000000 0 0 1
-14.861209 -8.699602 -26.654103 31.732945 0.529608 2.567988 0.054273 -0.043426 183026.000000 0 0 1
-13.749809 -9.518102 -25.981693 30.898218 0.605496 2.569703 0.055660 -0.041140 -570563.000000 0 0 1
-13.182409 -8.854802 -24.834103 29.477383 0.591488 2.572666 0.047042 -0.031212 -60400.700000 0 0 1
-12.276609 -9.673402 -24.152703 28.768783 0.667352 2.567242 0.034309 -0.028785 137331.000000 0 0 1
-11.582309 -9.012802 -22.896703 27.196314 0.661277 2.571599 0.047442 -0.026906 132600.000000 0 0 1
-12.435209 -8.904602 -21.789403 26.621503 0.621436 2.529572 0.048133 -0.022267 174168.000000 0 0 1
-11.747809 -8.433402 -20.668803 25.225636 0.622619 2.531085 0.051624 -0.018890 15986.400000 0 0 1
-12.746609 -8.346602 -19.455203 24.711267 0.579749 2.477215 0.033972 -0.014316 553501.000000 0 1 0
-13.562009 -7.189602 -19.433903 24.764794 0.487459 2.473071 0.018100 -0.004213 612141.000000 0 1 0
-14.914209 -7.501802 -19.814703 25.910097 0.466042 2.441447 0.010192 -0.013785 383959.000000 0 0 1
-15.790209 -6.270202 -19.564303 25.911543 0.377999 2.426514 0.007150 -0.005858 -569242.000000 0 0 1
-15.780509 -5.893102 -18.207703 24.804708 0.357404 2.395052 0.007057 -0.006307 139970.000000 0 1 0
-15.057509 -4.720802 -17.950903 23.900825 0.303812 2.420459 0.002350 -0.000916 -603531.000000 0 1 0
-14.736809 -4.503302 -16.445603 22.536883 0.296570 2.388708 0.008249 0.007187 -359721.000000 0 1 0
-15.816009 -4.144302 -15.629403 22.618568 0.256271 2.333666 0.013692 -0.003332 -143188.000000 0 1 0
-16.304709 -2.830602 -15.826003 22.897996 0.171893 2.333879 -0.018028 -0.004403 311739.000000 0 1 0
-17.576109 -2.415302 -15.017503 23.243895 0.136564 2.273239 -0.010976 -0.007008 403523.000000 0 1 0
-17.340409 -2.524402 -13.607803 22.186363 0.144564 2.231080 0.012040 -0.017936 830877.000000 0 1 0
-18.383309 -1.872902 -12.883503 22.526395 0.101530 2.179652 0.018510 -0.019689 170635.000000 0 1 0
-17.837109 -0.639802 -12.160203 21.597276 0.035854 2.168860 0.014200 -0.013477 -64597.400000 0 1 0
-17.488809 0.342198 -13.124403 21.868367 -0.019564 2.214491 0.023813 -0.012374 371233.000000 0 1 0
-16.592909 1.297498 -12.619503 20.886837 -0.078037 2.219538 0.028445 -0.007310 -875171.000000 0 1 0
-16.260709 2.347698 -13.717503 21.403089 -0.143388 2.266482 0.041685 -0.001072 123900.000000 0 1 0
-15.379209 1.958698 -14.765203 21.409525 -0.126678 2.331810 0.029408 -0.010910 647717.000000 0 1 0
-14.042309 1.681498 -14.365903 20.159192 -0.119178 2.364026 0.018647 -0.008037 -726189.000000 0 1 0
-13.463309 0.490798 -15.194003 20.306632 -0.036438 2.416184 0.016261 -0.009679 -342944.000000 0 1 0
-13.080909 0.877798 -16.445203 21.031534 -0.067005 2.468553 0.018300 -0.011991 -167721.000000 0 1 0
-12.520009 -0.127102 -17.198103 21.273023 0.010152 2.512304 -0.002305 -0.005005 -443889.000000 0 1 0
-12.053409 0.445198 -18.528603 22.108641 -0.036919 2.564533 0.018518 -0.009849 -400748.000000 0 1 0
-11.120609 1.456198 -18.364203 21.518188 -0.130205 2.593322 0.018136 -0.007246 -615515.000000 0 1 0
-10.786309 2.113198 -19.550303 22.428206 -0.193464 2.629424 0.025785 -0.002215 489130.000000 0 1 0
-9.398109 2.823998 -19.465203 21.798934 -0.291902 2.674637 0.020861 -0.000338 961166.000000 0 1 0
-8.285109 1.875798 -19.554103 21.319582 -0.222652 2.731766 0.016005 0.002220 811948.000000 0 1 0
-6.977409 2.386598 -19.420903 20.773819 -0.329572 2.778700 0.010213 0.008314 531372.000000 0 1 0
-6.500209 3.554498 -20.361603 21.667534 -0.500405 2.792632 0.007487 0.012939 -798490.000000 0 1 0
-6.373009 3.086098 -21.688203 22.814850 -0.450964 2.826017 0.004744 0.016571 198004.000000 0 1 0
-5.840509 4.129398 -22.503703 23.613134 -0.615427 2.833839 0.003915 0.008427 -461789.000000 0 1 0
-5.366409 3.673298 -23.855403 24.725932 -0.600246 2.875451 0.021093 -0.001997 23290.700000 0 1 0
-4.163309 2.925198 -23.743803 24.282877 -0.612478 2.930489 0.024080 -0.012575 138282.000000 0 1 0
-3.797909 2.326498 -24.974703 25.368730 -0.549613 2.965114 0.031215 -0.013536 -392381.000000 0 0 1
-2.482009 1.532098 -24.926603 25.096677 -0.553030 3.025107 0.022316 -0.015260 -618284.000000 0 0 1
-1.411209 2.421598 -24.716003 24.874413 -1.043150 3.028675 0.024598 -0.014620 689740.000000 0 1 0
-0.081209 1.888298 -24.832403 24.904226 -1.527816 3.065627 0.023788 -0.012416 1070010.000000 0 1 0
0.452591 0.899198 -23.736503 23.757840 1.104490 3.099208 0.018972 -0.017498 -638323.000000 0 1 0
-0.036109 -0.439202 -23.810203 23.814281 1.488766 3.123087 0.013183 -0.019450 145370.000000 0 1 0
0.624791 -1.241302 -22.822303 22.864573 -1.104484 3.080777 0.015687 -0.011673 -913646.000000 0 1 0
0.121391 -2.689702 -22.840603 22.998747 -1.525695 3.024255 0.020303 -0.012521 362807.000000 0 1 0
-1.063109 -2.939202 -22.057403 22.277750 1.223737 3.000829 0.015293 -0.009416 1065030.000000 0 1 0
-2.302809 -2.668402 -22.737103 23.008675 0.858808 2.987798 0.025901 -0.012422 209056.000000 0 1 0
-2.843309 -1.219702 -22.596703 22.807522 0.405231 3.005522 0.027999 -0.013372 -2556480.000000 0 1 0
-3.422209 -0.923002 -21.374903 21.666793 0.263441 2.977263 0.017613 -0.009608 -187592.000000 0 1 0
-4.392509 0.077798 -21.456703 21.901833 -0.017710 2.939637 0.015657 -0.006889 -103471.000000 0 1 0
-5.678209 -0.252202 -22.229003 22.944155 0.044387 2.891263 0.020857 -0.002497 -1482630.000000 0 1 0
-6.451309 -1.253502 -21.575503 22.554223 0.191911 2.845918 0.029842 0.000763 227981.000000 0 1 0
-7.778809 -1.179202 -22.075503 23.435618 0.150446 2.799229 0.013165 0.016043 479490.000000 0 1 0
-8.646109 -2.414802 -21.670003 23.455820 0.272353 2.748855 0.026928 0.005852 297907.000000 0 1 0
-8.220309 -3.625402 -22.327103 24.066918 0.415369 2.759025 0.035107 -0.004472 76153.000000 0 1 0
-8.974609 -4.658202 -21.760703 23.995221 0.478765 2.706608 0.036522 -0.004733 437848.000000 0 1 0
-10.044509 -5.411702 -22.638903 25.351501 0.494182 2.674765 0.038601 -0.014073 372666.000000 0 0 1
-11.310809 -4.807802 -22.695903 25.809947 0.401924 2.645286 0.034362 -0.013444 -463270.000000 0 0 1
-12.087109 -5.477102 -23.649603 27.118270 0.425459 2.630256 0.032520 -0.024028 -222711.000000 0 0 1
-13.610009 -5.490102 -23.457403 27.669899 0.383423 2.582542 0.036202 -0.020395 -215972.000000 0 0 1
-14.202809 -4.257302 -23.791003 28.033127 0.291228 2.584271 0.032749 -0.020051 -84750.400000 0 0 1
-15.614809 -4.333102 -23.833003 28.820306 0.270689 2.544461 0.041416 -0.014824 362658.000000 0 0 1
-16.307409 -3.063602 -24.406203 29.512370 0.185701 2.544515 0.038875 -0.012023 -11933.400000 0 0 1
-15.952109 -2.918002 -25.756233 30.436295 0.180922 2.579674 0.038080 -0.021102 19278.900000 0 0 1
-16.027409 -1.601402 -26.276993 30.820816 0.099586 2.591685 0.031120 -0.002063 1142560.000000 0 0 1
-17.477909 -1.202702 -26.828733 32.042233 0.068704 2.563109 0.037672 -0.001988 1537000.000000 0 0 1
-17.967009 -2.012602 -27.917193 33.260091 0.111552 2.566901 0.034374 -0.016203 -210703.000000 0 0 1
-17.532409 -1.500902 -29.151173 34.050388 0.085399 2.598508 0.028115 -0.012251 -224747.000000 0 0 1
-17.837809 -2.353702 -30.353283 35.285254 0.131192 2.606509 0.021674 -0.009990 649236.000000 0 0 1
-19.223609 -2.539002 -30.655063 36.272945 0.131317 2.577590 0.022405 -0.020704 532403.000000 0 0 1
-19.326909 -2.996302 -31.972603 37.480056 0.153808 2.592611 0.021117 -0.026627 -527573.000000 0 0 1
-20.704309 -3.485102 -32.497303 38.689650 0.166764 2.567984 0.001415 -0.021715 56662.000000 0 0 1
-21.640409 -2.460602 -32.748743 39.329912 0.113218 2.554704 -0.010663 -0.018862 216917.000000 0 0 1
-22.277009 -1.847002 -31.653413 38.750679 0.082721 2.526722 -0.006371 -0.012965 -247970.000000 0 0 1
-23.330209 -0.769302 -32.081213 39.674862 0.032963 2.512570 0.003299 -0.016250 -12869.500000 0 0 1
-22.717109 0.387498 -32.629663 39.760685 -0.017056 2.533346 0.012006 -0.016606 177282.000000 0 0 1
-23.697309 1.228098 -33.147563 40.765569 -0.051778 2.520300 0.017022 -0.021312 -314154.000000 0 0 1
-23.095109 2.486798 -33.874893 41.074038 -0.107263 2.540517 0.023887 -0.014369 -472144.000000 0 0 1
-22.611209 3.550798 -33.022063 40.178745 -0.155765 2.535498 0.023813 -0.014002 835901.000000 0 0 1
-23.507609 4.279298 -32.141583 40.049986 -0.180067 2.502331 0.029135 -0.020423 -23021.200000 0 0 1
-24.632109 5.158398 -32.712893 41.273275 -0.206434 2.485846 0.033180 -0.025160 -128827.000000 0 0 1
-25.675329 4.418698 -33.307063 42.286024 -0.170429 2.477800 0.040401 -0.034535 485628.000000 0 0 1
-26.570489 5.225598 -34.130099 43.567894 -0.194191 2.470877 0.055980 -0.034291 -793251.000000 0 0 1
-27.817959 4.463698 34.328036 44.409205 -0.159105 0.687250 0.058270 -0.029392 -1317960.000000 0 0 1
-27.695619 3.218998 33.667310 43.713808 -0.115709 0.691680 0.059830 -0.031585 555564.000000 0 0 1
-29.005589 2.708798 33.421519 44.335761 -0.093119 0.716928 0.065424 -0.028103 463299.000000 0 0 1
-29.077819 1.217698 33.119207 44.089502 -0.041853 0.720947 0.061439 -0.008405 -139749.000000 0 0 1
-29.105759 0.490298 34.301405 44.988576 -0.016844 0.703710 0.045408 -0.005255 180847.000000 0 0 1
-29.212489 -0.881402 34.081200 44.896264 0.030163 0.708852 0.036476 -0.000542 -714981.000000 0 0 1
-28.853679 -1.806002 -33.494143 44.245384 0.062510 2.429519 0.002423 -0.002473 1754530.000000 0 0 1
-27.419009 -1.840202 -33.165253 43.071132 0.067014 2.449655 0.008241 -0.013793 2432700.000000 0 0 1
-26.907329 -0.630002 -32.519733 42.212963 0.023409 2.450222 0.006625 -0.008871 -910609.000000 0 0 1
-27.217569 -0.483602 -31.004713 41.259207 0.017766 2.421071 0.022549 -0.013137 -663248.000000 0 0 1
-26.371329 -1.179402 -30.147543 40.071340 0.044693 2.422414 0.009032 -0.016184 85203.600000 0 0 1
-26.309579 -0.642702 -28.841633 39.044165 0.024424 2.401925 0.016893 -0.018727 -604949.000000 0 0 1
-25.213979 -1.213902 -27.959793 37.669196 0.048107 2.407211 0.012490 -0.018672 -362815.000000 0 0 1
-25.430699 -2.578602 -27.648963 37.654147 0.101052 2.395413 -0.007787 -0.009528 -102654.000000 0 0 1
-24.372209 -3.053902 -26.871173 36.405917 0.124653 2.401045 0.008119 -0.016511 -309735.000000 0 0 1
-24.649009 -4.471602 -26.284563 36.310427 0.179459 2.380213 0.009399 -0.018806 208336.000000 0 0 1
-25.664259 -4.458102 -25.279343 36.298403 0.171992 2.341209 0.013448 -0.014481 115199.000000 0 0 1
-25.797059 -5.673602 -24.649003 36.128262 0.216486 2.321651 0.016316 -0.016285 -257524.000000 0 0 1
-27.083899 -5.618602 -23.833303 36.512088 0.204550 2.282006 0.024093 -0.020727 -360589.000000 0 0 1
-27.168649 -6.693802 -22.913203 36.165693 0.241568 2.256945 0.035259 -0.020136 617528.000000 0 0 1
-28.239809 -6.403202 -21.973403 36.349941 0.222974 2.219930 0.064663 -0.015071 551707.000000 0 0 1
-28.500179 -7.643502 -21.111603 36.281994 0.262025 2.191829 0.075324 -0.013183 458468.000000 0 0 1
-27.411979 -7.951302 -20.190503 34.961353 0.282319 2.186471 0.074273 -0.013158 1022730.000000 0 0 1
-27.823529 -8.838102 -19.137103 34.906869 0.307568 2.151046 0.094732 -0.011209 -258400.000000 0 0 1
-28.699479 -8.199802 -18.090203 34.902038 0.278298 2.115674 0.084199 -0.014257 -183941.000000 0 0 1
-27.975389 -7.357402 -17.199703 33.653878 0.257172 2.107233 0.079431 -0.024573 605472.000000 0 0 1
-28.806189 -6.701802 -16.247703 33.744607 0.228585 2.073151 0.079747 -0.021095 -78833.600000 0 0 1
-27.941039 -6.024102 -15.193803 32.370405 0.212350 2.059377 0.084493 -0.024516 -260259.000000 0 0 1
-27.189429 -4.948302 -15.662703 31.765878 0.180023 2.086408 0.084119 -0.022195 -378245.000000 0 0 1
-26.170929 -4.721602 -14.752403 30.411255 0.178494 2.077270 0.076569 -0.033798 -546166.000000 0 0 1
-14.236309 21.535198 -5.507003 26.396294 -0.986677 1.780968 0.036195 -0.016555 -95192.100000 0 0 1
-14.153109 20.652398 -6.613203 25.895299 -0.970004 1.829039 0.054278 -0.016678 147060.000000 0 0 1
-14.978609 19.491398 -6.508003 25.428870 -0.915577 1.829606 0.043582 -0.031182 -90359.300000 0 0 1
-14.965809 18.726598 -7.875603 25.232638 -0.896559 1.888220 0.045380 -0.038738 -492737.000000 0 0 1
-13.765809 18.099898 -8.250803 24.190485 -0.920580 1.918858 0.040043 -0.036315 -379153.000000 0 1 0
-13.843309 17.182698 -9.326403 23.955461 -0.892617 1.970692 0.025742 -0.037293 -611646.000000 0 1 0
-14.326909 15.807798 -9.039203 23.170110 -0.834501 1.971562 0.029921 -0.044482 413394.000000 0 1 0
-15.721909 15.906298 -8.708403 24.000521 -0.791228 1.942113 0.033219 -0.033450 634325.000000 0 1 0
-15.965209 15.126198 -7.540903 23.249838 -0.758419 1.901113 0.037057 -0.018835 502746.000000 0 1 0
-17.435609 15.387198 -7.074203 24.306597 -0.723071 1.866111 0.064853 -0.014622 187990.000000 0 1 0
-18.374709 14.906698 -7.972503 24.967987 -0.681570 1.895797 0.061024 -0.015648 -696653.000000 0 1 0
-19.661409 15.358898 -7.626803 26.088980 -0.663153 1.867467 0.061512 -0.016575 -332471.000000 0 0 1
-20.771909 14.713798 -8.438103 26.817338 -0.616309 1.890885 0.060046 -0.002645 -413314.000000 0 0 1
-21.022409 13.363798 -8.102603 26.195132 -0.566252 1.885271 0.074399 -0.007631 -599470.000000 0 0 1
-21.936309 12.746298 -8.930303 26.896470 -0.526376 1.909246 0.088959 -0.009034 -496896.000000 0 0 1
-22.296009 11.331598 -8.435203 26.394503 -0.470213 1.896084 0.090526 -0.006707 318836.000000 0 0 1
-21.256409 10.366298 -8.269203 25.053438 -0.453742 1.907166 0.082443 -0.006197 -22929.600000 0 0 1
-21.804709 9.356798 -7.531903 24.894268 -0.405354 1.878169 0.096578 -0.013260 247980.000000 0 1 0
-20.720109 8.285798 -7.231903 23.458000 -0.380413 1.884193 0.066048 -0.001366 154587.000000 0 1 0
-20.207209 7.451298 -8.212203 23.049803 -0.353275 1.935081 0.043845 -0.001458 378571.000000 0 1 0
-19.344109 6.409698 -7.773203 21.810581 -0.319966 1.935204 0.027688 0.001785 91832.300000 0 1 0
-19.116709 5.349098 -8.853903 21.735984 -0.272835 1.990334 0.014866 -0.000420 -84462.600000 0 1 0
-20.179209 4.377798 -8.869603 22.472994 -0.213635 1.976514 0.031516 0.000329 988569.000000 0 1 0
-20.067709 3.537398 -10.028803 22.711297 -0.174481 2.028153 0.025007 0.007933 503157.000000 0 1 0
-21.099109 2.326298 -9.875703 23.411825 -0.109812 2.006254 0.035616 0.005913 778317.000000 0 1 0
-20.573309 1.291398 -9.046403 22.511467 -0.062688 1.984341 0.026537 -0.002662 289301.000000 0 1 0
-21.541009 0.335498 -8.668103 23.222050 -0.015574 1.953328 0.041040 -0.002291 -271272.000000 0 1 0
-21.321409 -1.064702 -9.197503 23.245002 0.049894 1.977601 0.018190 -0.016321 -382331.000000 0 1 0
-20.236909 -1.776102 -8.683803 22.092882 0.087541 1.974752 0.006567 -0.007932 -164069.000000 0 1 0
-20.158709 -3.090302 -9.137303 22.347568 0.152114 1.992014 -0.008559 -0.008021 -477045.000000 0 1 0
-21.183409 -4.123702 -8.592303 23.228633 0.192262 1.949699 0.002394 -0.001713 76550.300000 0 1 0
-20.964809 -4.392602 -7.207303 22.600075 0.206535 1.895371 0.000304 -0.001158 446234.000000 0 1 0
-22.040609 -5.075002 -6.569103 23.552010 0.226312 1.853465 0.024096 -0.004843 -87932.400000 0 1 0
-22.151409 -6.596002 -6.888603 24.117318 0.289409 1.860459 0.034267 -0.011027 -357965.000000 0 1 0
-21.223309 -7.401502 -6.204403 23.317497 0.335555 1.840124 0.032783 -0.012351 491301.000000 0 1 0
-21.412809 -8.757502 -6.486203 24.026507 0.388227 1.844148 0.039589 -0.013416 -534759.000000 0 1 0
-20.341709 -9.595402 -5.826403 23.233679 0.440761 1.824276 0.033797 -0.018969 175540.000000 0 1 0
-19.040909 -9.596302 -6.412603 22.265819 0.466829 1.862936 0.025244 -0.014096 670766.000000 0 1 0
-18.087109 -10.384702 -5.760203 21.637132 0.521195 1.840264 0.029237 -0.009594 -86939.400000 0 1 0
-17.514609 -11.618002 -6.547403 22.013813 0.585690 1.872788 0.029416 -0.005789 -131071.000000 0 1 0
-16.389409 -11.481202 -7.407003 21.337629 0.611079 1.925309 0.021111 -0.009709 368233.000000 0 1 0
-16.627209 -10.924002 -8.693903 21.711330 0.581277 1.982784 0.021093 -0.010726 -101059.000000 0 1 0
-15.530109 -11.302702 -9.717703 21.526010 0.629136 2.039175 0.017008 -0.006132 186439.000000 0 1 0
-15.559909 -12.668402 -10.143403 22.483056 0.683321 2.038858 0.018368 -0.003680 -645409.000000 0 1 0
-14.570209 -12.895802 -11.055103 22.378740 0.724511 2.087481 0.026072 0.003781 -625480.000000 0 1 0
-14.820809 -14.212902 -11.785403 23.676120 0.764463 2.091829 0.037187 0.000143 -179638.000000 0 1 0
-15.712409 -14.079702 -12.849703 24.702888 0.730650 2.117846 0.034203 -0.001724 -198483.000000 0 1 0
-15.756709 -15.328902 -13.540703 25.818593 0.771637 2.122872 0.024463 0.003494 -298056.000000 0 0 1
-16.431409 -15.173502 -14.876403 26.861380 0.745618 2.157743 0.047404 0.001288 -277022.000000 0 0 1
-16.480509 -16.362802 -15.603103 27.978658 0.781814 2.162383 0.039713 0.011382 98215.400000 0 0 1
-16.764909 -16.166102 -16.949403 28.804293 0.767216 2.199916 0.037589 -0.000045 -316840.000000 0 0 1
-17.252109 -17.460802 -17.651503 30.233928 0.791410 2.194236 0.042999 -0.011089 879363.000000 0 0 1
-18.611609 -17.769002 -17.281303 30.996336 0.762241 2.162201 0.022034 -0.000999 -419257.000000 0 0 1
-19.426709 -17.955102 -18.373103 32.207974 0.746052 2.177852 0.032154 -0.010319 368145.000000 0 0 1
-20.911809 -17.896402 -17.846403 32.803644 0.707854 2.146038 0.037152 -0.014540 510795.000000 0 0 1
-21.295209 -16.572602 -17.408203 32.112032 0.661326 2.143741 0.030695 -0.002243 213039.000000 0 0 1
-20.852409 -16.314202 -16.070603 30.971607 0.663895 2.116339 0.024624 0.000416 -546386.000000 0 0 1
-20.930009 -14.839502 -15.605403 30.030063 0.616745 2.117249 0.040013 -0.008128 -263213.000000 0 0 1
-22.219209 -14.296502 -15.509003 30.636781 0.571743 2.101594 0.050428 -0.002726 -27491.300000 0 0 1
-22.174509 -13.029702 -14.918703 29.732973 0.531251 2.096424 0.056053 -0.003996 -268220.000000 0 0 1
-23.559909 -12.398202 -14.698803 30.411174 0.484420 2.075257 0.066998 -0.014038 -537670.000000 0 0 1
-24.220609 -12.936902 -13.599703 30.642344 0.490576 2.030654 0.078173 -0.004495 -70186.300000 0 0 1
-25.207409 -12.066502 -13.112103 30.869745 0.446454 2.009488 0.072649 -0.008653 -487108.000000 0 0 1
-25.838279 -12.717102 -11.893903 31.157764 0.457373 1.962465 0.072445 -0.011281 241915.000000 0 0 1
-26.968079 -12.035802 -11.327103 31.629750 0.419771 1.937045 0.072542 -0.015169 685928.000000 0 0 1
-27.454589 -12.593202 -10.144603 31.863084 0.430059 1.894818 0.052502 -0.012254 -165658.000000 0 0 1
-28.355729 -11.638402 -9.371403 32.051879 0.389476 1.867513 0.043932 -0.014016 -421741.000000 0 0 1
-27.612429 -10.524402 -8.863803 30.850871 0.364149 1.862215 0.049704 -0.020707 36228.500000 0 0 1
-28.395729 -9.575602 -8.208203 31.070632 0.325244 1.838149 0.050265 -0.019231 -111755.000000 0 0 1
-27.505089 -8.506602 -7.464303 29.742360 0.299943 1.824474 0.050097 -0.014662 752385.000000 0 0 1
-26.824289 -8.887802 -6.232203 28.937447 0.319950 1.787865 0.037702 -0.021785 617744.000000 0 0 1
-25.940509 -7.930402 -5.626903 27.703128 0.296692 1.775334 0.040889 -0.014365 62873.500000 0 0 1
-26.481889 -6.506402 -5.206603 27.762068 0.240920 1.759457 0.043104 -0.013185 2753.010000 0 0 1
-27.473949 -6.598402 -4.171203 28.561437 0.235705 1.717364 0.036208 -0.015113 517412.000000 0 0 1
-26.997479 -6.991302 -2.883303 28.036683 0.253395 1.673819 0.042155 -0.014400 -258979.000000 0 0 1
-26.381929 -5.789802 -2.127303 27.093420 0.216036 1.649395 0.044309 -0.010732 -106289.000000 0 0 1
-27.417489 -5.019602 -1.602303 27.919213 0.181075 1.628219 0.046175 -0.015064 290577.000000 0 0 1
-26.781179 -3.910602 -0.972403 27.082650 0.144996 1.606709 0.049115 -0.017124 -368835.000000 0 0 1
-27.624149 -2.915002 -0.165303 27.778016 0.105135 1.576747 0.055965 -0.025980 -199946.000000 0 0 1
-28.403529 -3.491102 0.874697 28.630636 0.122297 1.540240 0.065115 -0.027854 261377.000000 0 0 1
-27.645139 -3.851202 1.985997 27.982667 0.138418 1.499764 0.055005 -0.025113 -8949.080000 0 0 1
-28.614989 -4.213702 3.146397 29.094204 0.146204 1.462439 0.068656 -0.029689 -83249.300000 0 0 1
-29.256119 -5.424202 2.978797 29.903439 0.183322 1.471017 0.068404 -0.029682 -462155.000000 0 0 1
-30.113959 -5.583802 4.057297 30.894838 0.183340 1.439090 0.075426 -0.033354 -767937.000000 0 0 1
-30.938979 -6.837702 4.038297 31.941860 0.217510 1.444031 0.063770 -0.029306 -598692.000000 0 0 1
-30.201849 -8.016102 4.297097 31.541633 0.259436 1.434136 0.051241 -0.020165 -137058.000000 0 0 1
-30.884509 -9.215302 4.086897 32.488112 0.289969 1.444665 0.062568 -0.018252 148574.000000 0 0 1
-29.988589 -10.495002 4.423397 32.078450 0.336645 1.432462 0.053821 -0.016734 448191.000000 0 0 1
-29.901659 -10.718002 5.838897 32.296710 0.344175 1.389007 0.033823 -0.014377 -306200.000000 0 0 1
-28.893659 -11.579602 6.196297 31.738381 0.381167 1.374304 0.017342 -0.008632 -887592.000000 0 0 1
-28.886999 -11.926902 7.683497 32.183005 0.391561 1.329724 0.004907 -0.007079 -104879.000000 0 0 1
-28.719309 -10.731402 8.457697 31.803999 0.357600 1.301626 0.014892 -0.001968 338762.000000 0 0 1
-29.041319 -10.965202 9.806297 32.554528 0.361024 1.264817 0.027171 -0.001110 -416671.000000 0 0 1
-29.217259 -9.620802 10.588997 32.532060 0.318103 1.239262 0.033199 0.000147 -91896.100000 0 0 1
-28.059979 -8.818602 10.701497 31.299396 0.304503 1.221850 0.036680 -0.007268 222342.000000 0 0 1
-28.347649 -7.724702 11.571597 31.577873 0.266039 1.195609 0.051356 -0.012982 375691.000000 0 0 1
-27.338349 -6.545702 11.421697 30.342820 0.235009 1.184865 0.053751 -0.014564 156255.000000 0 0 1
-27.574009 -5.820902 10.236197 29.983139 0.208046 1.222392 0.057131 -0.025216 504281.000000 0 0 1
-26.711019 -4.711402 9.980897 28.901456 0.174588 1.218193 0.059704 -0.024817 24313.300000 0 0 1
-26.960669 -4.221002 8.561897 28.600710 0.155301 1.266775 0.059216 -0.022975 -136462.000000 0 0 1
-26.296029 -4.959002 7.576897 27.811548 0.186395 1.294871 0.046172 -0.020821 58053.000000 0 0 1
-26.550279 -4.365202 6.325597 27.640287 0.162955 1.339896 0.040647 -0.023368 -187402.000000 0 0 1
-25.538989 -4.816702 5.227097 26.509680 0.186412 1.372319 0.033132 -0.020997 -763503.000000 0 0 1
-24.343809 -4.110402 5.444097 25.281508 0.167270 1.353757 0.051493 -0.028564 -68406.300000 0 0 1
-23.468209 -4.514302 4.387697 24.297894 0.190037 1.389221 0.041503 -0.021008 312288.000000 0 1 0
-22.033109 -3.930302 4.581597 22.845047 0.176525 1.368876 0.037228 -0.017129 292639.000000 0 1 0
-21.931509 -2.541802 4.341497 22.501121 0.115382 1.376633 0.022507 -0.017166 -312639.000000 0 1 0
-20.649109 -2.057402 4.571497 21.248934 0.099309 1.353961 0.017809 -0.010401 -1104950.000000 0 1 0
-20.491009 -0.559402 4.664497 21.022652 0.027293 1.347055 0.013588 -0.012486 -715759.000000 0 1 0
-20.796809 0.187098 3.529397 21.094997 -0.008996 1.402696 0.025324 -0.007521 1766840.000000 0 1 0
-22.168709 0.660098 3.431397 22.442412 -0.029767 1.417296 0.027852 -0.017445 871617.000000 0 1 0
-22.259709 1.941298 2.538497 22.487936 -0.086991 1.457673 0.047248 -0.014597 -169110.000000 0 1 0
-21.454309 3.006698 3.077897 21.881523 -0.139237 1.429666 0.019075 -0.015298 399340.000000 0 1 0
-21.555609 4.168998 2.235897 22.068622 -0.191048 1.469307 0.030841 -0.012829 -54472.400000 0 1 0
-20.487709 4.183798 1.132297 20.941167 -0.201440 1.516700 0.023034 -0.004063 -614423.000000 0 1 0
-20.609709 5.085498 0.054897 21.227939 -0.241920 1.568210 0.030142 0.001953 994292.000000 0 1 0
-21.627009 4.632598 -0.895903 22.135743 -0.211015 1.611281 0.057392 -0.008203 534297.000000 0 1 0
-21.206209 3.594898 -1.951503 21.597105 -0.167925 1.661279 0.049314 0.003080 -385518.000000 0 1 0
-21.074009 2.355898 -1.307303 21.245544 -0.111329 1.632368 0.019396 0.003473 529944.000000 0 1 0
-20.538309 1.215198 -1.950703 20.666497 -0.059098 1.665327 0.010116 0.003708 -203754.000000 0 1 0
-19.779609 0.272198 -0.978003 19.805643 -0.013761 1.620196 0.010061 0.002916 -429492.000000 0 1 0
-20.648109 -0.578202 -0.274703 20.658029 0.027995 1.584094 0.017430 -0.003081 445856.000000 0 1 0
-19.991109 -1.371502 0.705697 20.050523 0.068498 1.535593 0.025280 -0.007215 -453178.000000 0 1 0
-19.053009 -2.472602 0.179697 19.213620 0.129054 1.561444 0.010526 -0.002918 -271837.000000 0 1 0
-18.437409 -3.193502 1.238197 18.752857 0.171506 1.504721 0.025050 -0.001412 296606.000000 0 1 0
-17.901909 -4.437002 0.840997 18.462736 0.242955 1.525229 0.025356 0.002751 78076.200000 0 1 0
-18.923709 -5.609202 0.604197 19.746771 0.288161 1.540194 0.031524 0.001243 94835.300000 0 1 0
-19.706009 -5.807502 1.752697 20.618579 0.286594 1.485688 0.078261 -0.006166 328228.000000 0 1 0
-20.473909 -6.985902 1.576297 21.690285 0.328823 1.498059 0.036552 -0.007066 -277822.000000 0 1 0
-21.079809 -7.572502 2.875197 22.582469 0.344874 1.443130 0.040609 -0.005002 -418697.000000 0 1 0
-20.223909 -8.249002 3.718197 22.155756 0.387284 1.402178 0.036796 -0.004224 34492.400000 0 1 0
-20.948509 -8.741102 4.814097 23.203931 0.395302 1.361809 0.041191 -0.004578 226364.000000 0 1 0
-20.012509 -9.520002 5.771497 22.900680 0.444021 1.316026 0.029060 -0.002840 183030.000000 0 1 0
-19.535009 -10.734102 5.208697 22.890348 0.502444 1.341235 0.032715 0.004472 1079480.000000 0 1 0
-18.518609 -11.382702 6.048497 22.563003 0.551131 1.299406 0.037349 -0.002715 695974.000000 0 1 0
-17.948209 -12.601102 5.407197 22.586805 0.612121 1.329052 0.026820 -0.004638 328988.000000 0 1 0
-18.825509 -13.762302 5.432097 23.943860 0.631259 1.341936 0.034470 0.001123 855247.000000 0 1 0
-18.055909 -14.862402 4.963097 23.906885 0.688688 1.361674 0.019076 0.000756 167929.000000 0 1 0
-18.798409 -16.183202 5.206797 25.345353 0.710777 1.363889 0.033147 -0.006761 38519.900000 0 0 1
-18.036109 -17.373602 5.000497 25.537193 0.766691 1.373711 0.035780 -0.009540 16735.000000 0 0 1
-18.775509 -18.592102 4.965097 26.885650 0.780490 1.385056 0.047506 -0.009813 -249995.000000 0 0 1
-17.910409 -19.815902 4.741897 27.128183 0.835864 1.395098 0.046429 -0.008339 -561051.000000 0 0 1
-17.267409 -19.847502 3.486497 26.537566 0.854803 1.439036 0.041782 -0.011403 139089.000000 0 0 1
-16.506009 -20.997402 3.210297 26.900655 0.904590 1.451172 0.042385 -0.005124 -288753.000000 0 0 1
-15.103409 -21.142602 3.792397 26.258424 0.950498 1.425864 0.034715 -0.005036 -604807.000000 0 0 1
-14.681409 -22.490102 3.693597 27.110719 0.992459 1.434130 0.041797 -0.007163 1052010.000000 0 0 1
-13.258309 -22.533902 3.987297 26.447269 1.038971 1.419455 0.036537 0.000899 1119700.000000 0 0 1
-12.727909 -23.942902 4.287097 27.452530 1.082194 1.413991 0.041518 0.000435 -274065.000000 0 0 1
-12.555709 -24.656202 3.142097 27.846847 1.099791 1.457721 0.045816 -0.003003 129666.000000 0 0 1
-12.168209 -25.980522 3.416897 28.891660 1.132780 1.452253 0.049955 -0.001199 -40795.900000 0 0 1
17.952291 19.414798 -24.401603 35.981347 0.824517 2.316071 0.054090 -0.000199 -149259.000000 0 0 1
17.199591 19.846998 -25.487223 36.596828 0.856738 2.341211 0.038967 -0.006908 -106243.000000 0 0 1
17.782891 19.380898 -26.698073 37.478494 0.828371 2.363647 0.042712 -0.008319 266929.000000 0 0 1
16.888491 19.751298 -27.903203 38.130351 0.863374 2.391733 0.029308 -0.008990 100610.000000 0 0 1
16.740291 21.122498 -28.190993 39.001658 0.900625 2.378664 0.027136 -0.003857 160551.000000 0 0 1
16.041191 21.296798 -29.409253 39.696065 0.925237 2.405147 -0.000327 -0.000523 -148369.000000 0 0 1
15.595091 22.731798 -29.745663 40.555468 0.969496 2.394189 0.012881 -0.000920 -991938.000000 0 0 1
14.597491 23.267198 -28.963493 39.916578 1.010484 2.382703 0.005578 0.002194 -296091.000000 0 0 1
14.443091 24.629898 -29.078403 40.752770 1.040433 2.365323 0.008294 0.001200 -47803.000000 0 0 1
13.641091 25.212598 -27.887713 39.993487 1.074856 2.342429 0.004296 0.006869 341666.000000 0 0 1
12.255291 24.916698 -27.873873 39.344463 1.113690 2.358106 0.001852 -0.004219 -211172.000000 0 0 1
11.702191 25.526898 -26.740883 38.776779 1.140958 2.331748 -0.000866 0.000928 -814337.000000 0 0 1
10.181991 25.403198 -26.527753 38.114526 1.189587 2.340610 0.010158 0.000995 324750.000000 0 0 1
9.653991 26.355398 -25.543003 37.950646 1.219674 2.309133 0.009187 -0.008806 197519.000000 0 0 1
9.520491 27.581898 -26.219633 39.228434 1.238429 2.302830 0.018106 -0.013261 -871775.000000 0 0 1
8.980891 28.670298 -25.253853 39.247923 1.267231 2.269786 0.035528 -0.020125 -118932.000000 0 0 1
9.892591 29.015798 -24.236003 39.078942 1.242217 2.239769 0.026475 -0.014701 -72413.500000 0 0 1
9.213391 29.654498 -23.186603 38.754282 1.269560 2.212171 0.046406 -0.024048 -643324.000000 0 0 1
10.168291 29.931398 -22.058503 38.546858 1.243309 2.180045 0.030362 -0.014212 -124934.000000 0 0 1
11.109991 30.937698 -22.456303 39.810283 1.226030 2.170119 0.022049 -0.019549 -59201.200000 0 0 1
11.966191 31.210998 -21.395203 39.687162 1.204685 2.140160 0.005148 -0.005633 -208886.000000 0 0 1
13.131591 32.170898 -21.766903 41.002481 1.183256 2.130421 -0.002958 0.011942 254880.000000 0 0 1
14.180891 31.495698 -22.411703 41.174763 1.147736 2.146359 -0.001740 0.013559 400513.000000 0 0 1
15.268491 32.358998 -22.806303 42.430638 1.129924 2.138261 -0.003254 0.015123 986113.000000 0 0 1
16.575991 31.704098 -23.319503 42.704947 1.089049 2.148451 -0.004396 0.018228 587909.000000 0 0 1
17.418091 31.235998 -22.273403 42.132908 1.062115 2.127801 0.004659 0.022554 68537.400000 0 0 1
18.551291 30.537198 -22.725003 42.344972 1.024882 2.137274 0.008810 0.021864 -112929.000000 0 0 1
19.390391 29.838498 -21.659203 41.658664 0.994530 2.117554 0.015173 0.022370 9107.500000 0 0 1
20.133291 30.732598 -20.802103 42.220487 0.990836 2.085988 0.018467 0.021364 56841.800000 0 0 1
21.165191 29.930798 -20.273003 41.890484 0.955296 2.075962 0.029073 0.016771 -39033.100000 0 0 1
21.912191 30.722598 -19.165703 42.324299 0.951248 2.040733 0.037161 0.000658 -354981.000000 0 0 1
22.759491 31.738898 -19.574303 43.686444 0.948696 2.035394 0.029936 0.001163 -287007.000000 0 0 1
23.261391 32.479198 -18.498103 44.024657 0.949285 2.004436 0.034640 -0.006305 -380442.000000 0 0 1
24.530891 33.301098 -18.766803 45.419386 0.935901 1.996750 0.043371 -0.009243 -384908.000000 0 0 1
25.638991 32.507098 -19.042503 45.570673 0.902972 2.001893 0.048551 -0.007195 522736.000000 0 0 1
26.852291 33.180098 -18.567903 46.548163 0.890417 1.981110 0.049390 -0.016824 1204130.000000 0 0 1
28.202491 32.615898 -19.051403 47.139509 0.857838 1.986845 0.045084 -0.005984 113807.000000 0 0 1
28.514691 31.388698 -18.481503 46.259096 0.833339 1.981791 0.046772 0.006763 -486461.000000 0 0 1
29.853791 31.081898 -18.759703 47.002763 0.805550 1.981352 0.035235 0.014236 -143137.000000 0 0 1
30.210291 29.640098 -18.326403 46.119997 0.775871 1.979438 0.027175 0.006530 -42572.400000 0 0 1
30.314591 29.596198 -16.912603 45.617382 0.773408 1.950612 0.025660 0.000792 -144684.000000 0 0 1
30.738891 28.332698 -16.423703 44.915022 0.744687 1.945140 0.022487 -0.000507 -179076.000000 0 0 1
31.295491 28.441498 -14.961403 44.857220 0.737658 1.910846 0.031289 0.000281 583280.000000 0 0 1
32.516791 29.155498 -14.704203 46.082517 0.730950 1.895559 0.025623 -0.000756 393788.000000 0 0 1
32.425091 30.577798 -14.870903 46.984381 0.756086 1.892842 0.024373 -0.007124 608775.000000 0 0 1
33.831291 31.276598 -14.935803 48.434079 0.746180 1.884279 0.013712 -0.007612 1248010.000000 0 0 1
34.588591 31.279198 -13.717103 48.609853 0.735197 1.856870 0.008179 -0.010214 283761.000000 0 0 1
-35.531067 31.665998 -13.889503 49.579335 -0.727943 1.854744 0.021474 -0.012415 575648.000000 0 0 1
-34.808467 31.960098 -12.551703 48.893992 -0.742764 1.830416 0.014528 -0.007203 160705.000000 0 0 1
-35.468767 33.041598 -11.875003 49.907878 -0.749985 1.811039 0.013523 -0.008330 417430.000000 0 0 1
-34.629567 33.488298 -10.834503 49.376710 -0.768645 1.792022 0.026713 -0.004562 -152562.000000 0 0 1
-35.271767 -34.114666 -10.032603 50.085538 0.768724 1.772470 0.021896 -0.001703 -90146.600000 0 0 1
-34.491967 -33.307866 -9.150503 48.814357 0.767935 1.759367 0.011092 0.003362 -304490.000000 0 0 1
-33.979467 -33.982566 -8.054403 48.726711 0.785444 1.736856 0.002844 -0.000675 -223447.000000 0 0 1
-33.339967 -32.935466 -7.082403 47.396822 0.779295 1.720786 -0.001216 -0.001501 -453304.000000 0 0 1
-34.245667 -32.049966 -6.540003 47.357551 0.752290 1.709338 0.011674 0.003362 -564600.000000 0 0 1
-33.664067 -31.159966 -5.597403 46.211944 0.746788 1.692219 0.020934 -0.004403 336694.000000 0 0 1
-34.794667 -30.309366 -4.938803 46.408171 0.716612 1.677419 0.016008 -0.000391 124472.000000 0 0 1
-35.623067 -31.108666 -4.120903 47.473507 0.717851 1.657710 0.013638 -0.003998 108462.000000 0 0 1
34.474491 -30.782566 -4.313303 46.418332 -0.728883 1.663853 0.008272 -0.001036 336697.000000 0 0 1
33.992991 -29.805566 -3.211503 45.323382 -0.719857 1.641713 0.012040 0.005284 -630837.000000 0 0 1
34.468491 -28.482266 -3.238703 44.830855 -0.690589 1.643102 0.027404 -0.002731 139550.000000 0 0 1
33.790491 -27.728666 -2.260803 43.769709 -0.687180 1.622472 0.026489 -0.008415 -150874.000000 0 0 1
34.114591 -26.240766 -2.451003 43.109054 -0.655673 1.627683 0.044233 -0.020788 -95515.000000 0 0 1
33.597491 -25.660066 -3.646903 42.432656 -0.652243 1.656848 0.036411 -0.017315 310281.000000 0 0 1
33.687691 -24.247066 -3.719903 41.672754 -0.623865 1.660180 0.039434 -0.023658 -322896.000000 0 0 1
33.179291 -23.717866 -5.101603 41.102663 -0.620616 1.695236 0.049122 -0.033042 -675808.000000 0 0 1
34.148491 -23.857366 -6.097003 42.100675 -0.609810 1.716127 0.048019 -0.034174 129431.000000 0 0 1
33.583291 -23.605466 -7.365303 41.704954 -0.612665 1.748332 0.040742 -0.029190 -257459.000000 0 0 1
34.650391 -23.417566 -8.436803 42.663939 -0.594316 1.769859 0.036308 -0.027694 57303.900000 0 0 1
35.283191 -24.668566 -8.863803 43.954621 -0.610161 1.773847 0.032795 -0.018268 -52302.500000 0 0 1
-35.145867 -24.362066 -9.737903 43.858511 0.606127 1.794692 0.025906 -0.010086 9064.630000 0 0 1
-34.546367 -25.505366 -10.581703 44.226096 0.635967 1.812404 0.011279 -0.001612 327938.000000 0 0 1
-33.744167 -26.553766 -9.988603 44.085638 0.666711 1.799354 0.008491 0.010055 615178.000000 0 0 1
-34.551167 -27.489066 -9.286803 45.118473 0.672055 1.778110 0.007229 0.010141 -126015.000000 0 0 1
-33.720567 -28.590866 -8.665303 45.051101 0.703260 1.764346 0.004569 0.007231 -105284.000000 0 0 1
-33.140467 -29.408766 -9.683203 45.353396 0.725809 1.785958 -0.004530 0.006468 377563.000000 0 0 1
-32.283867 -30.419566 -9.138503 45.289185 0.755675 1.773972 -0.013135 0.003986 184890.000000 0 0 1
-31.743267 -31.359266 -10.231803 45.779126 0.779313 1.796204 -0.008550 0.011509 360067.000000 0 0 1
-30.595367 -30.897066 -10.952303 44.840363 0.790304 1.817544 -0.008499 0.013695 399520.000000 0 0 1
-30.357967 -31.684966 -12.103303 45.519591 0.806783 1.839926 -0.008647 0.009772 -239441.000000 0 0 1
-30.626267 -30.913466 -13.401403 45.532496 0.790065 1.869547 -0.009708 0.009205 -561357.000000 0 0 1
-29.727767 -29.926766 -13.811703 44.385973 0.788734 1.887223 -0.007680 0.013136 -565136.000000 0 0 1
-30.102967 -29.247166 -14.979003 44.564065 0.770980 1.913594 -0.016544 0.017186 -28606.400000 0 0 1
-29.163167 -28.067966 -15.339103 43.284975 0.766264 1.933042 -0.007006 0.011362 521683.000000 0 0 1
-27.949767 -28.551766 -15.926403 43.012128 0.796052 1.950104 0.000172 0.010666 -324023.000000 0 0 1
-27.215567 -27.466766 -16.382803 41.994125 0.789992 1.971560 0.023410 0.013008 65096.500000 0 0 1
-25.795967 -27.964966 -16.814803 41.595779 0.825722 1.986947 0.035554 0.008583 90785.400000 0 0 1
-25.778067 -28.911966 -17.887603 42.665875 0.842639 2.003414 0.014629 0.013689 39066.000000 0 0 1
-25.972167 -28.326266 -19.186303 42.953987 0.828726 2.033837 0.012416 0.011043 825636.000000 0 0 1
-24.621467 -27.733966 -19.768403 42.025936 0.844778 2.060524 0.027278 0.009274 840014.000000 0 0 1
-24.346267 -26.454266 -19.264003 40.788120 0.826870 2.062688 0.030678 0.006350 -1180010.000000 0 0 1
-23.017467 -26.161166 -19.440703 39.901771 0.849235 2.079693 0.044801 -0.000207 -994781.000000 0 0 1
-22.498167 -25.011566 -18.546603 38.415133 0.838252 2.074639 0.042853 -0.007145 -144744.000000 0 0 1
-22.679567 -25.333666 -17.197603 38.104002 0.840620 2.039055 0.053696 -0.001630 167655.000000 0 0 1
-22.309167 -24.252866 -16.391603 36.804688 0.827118 2.032381 0.066317 -0.009326 -106338.000000 0 0 1
-22.735767 -24.367966 -14.897103 36.505295 0.820035 1.991147 0.053723 0.001504 -324903.000000 0 0 1
-24.094667 -24.179766 -14.620503 37.134528 0.787161 1.975468 0.017131 0.017428 -320500.000000 0 0 1
-24.363767 -24.183966 -13.217403 36.785284 0.781695 1.938327 0.012737 0.021044 -114275.000000 0 0 1
-25.862367 -24.089466 -12.879703 37.617166 0.749921 1.920255 0.002246 0.034231 -579492.000000 0 0 1
-26.502367 -25.310866 -13.291503 38.983066 0.762406 1.918730 0.009632 0.023829 135343.000000 0 0 1
-27.811567 -25.624866 -12.868403 39.946374 0.744499 1.898788 0.008139 0.021535 -171383.000000 0 0 1
-28.914167 -24.694366 -13.406903 40.318554 0.706845 1.909775 0.004071 0.018138 -1304080.000000 0 0 1
-29.144567 -23.457366 -12.687603 39.504798 0.677699 1.897757 0.011334 0.022850 137760.000000 0 0 1
-29.780167 -23.570866 -11.427203 39.661380 0.669534 1.863058 0.019606 0.017439 419847.000000 0 0 1
-31.268367 -24.081766 -11.352403 41.067253 0.656282 1.850878 0.021223 0.010843 1319880.000000 0 0 1
-32.386067 -23.210566 -11.697603 41.526156 0.621836 1.856354 0.028100 0.002626 1096510.000000 0 0 1
-32.413967 -22.732166 -13.050403 41.686084 0.611603 1.889214 0.029543 0.009865 -1104920.000000 0 0 1
-33.860267 -22.471466 -13.459003 42.809219 0.585913 1.890616 -0.001765 0.000443 -183906.000000 0 0 1
-34.627567 -23.682766 -13.444603 44.053367 0.599858 1.880933 0.000046 0.009974 5547.030000 0 0 1
35.506091 -23.429366 -13.789003 44.718613 -0.583282 1.884255 0.011225 0.000559 122897.000000 0 0 1
34.459491 -24.571566 -13.575003 44.446587 -0.619435 1.881179 0.007084 0.009675 206797.000000 0 0 1
34.584491 -25.789166 -14.325303 45.457479 -0.640734 1.891397 -0.000610 0.014990 -294651.000000 0 0 1
33.770591 -26.819066 -13.829903 45.287762 -0.671166 1.881132 -0.002736 0.007345 -351.648000 0 0 1
33.554591 -27.921666 -14.935303 46.136681 -0.694026 1.900453 0.000034 0.005512 452061.000000 0 0 1
32.770091 -27.417866 -16.017003 45.630720 -0.696706 1.929450 0.010388 -0.010615 -14962.200000 0 0 1
32.857891 -28.388666 -17.093303 46.666245 -0.712556 1.945813 0.011326 -0.011502 66007.000000 0 0 1
31.773791 -28.190966 -18.180003 46.204079 -0.725720 1.975201 0.022193 -0.012181 1208730.000000 0 0 1
30.436491 -28.473666 -17.685203 45.275778 -0.752092 1.972091 0.038355 -0.018040 1313890.000000 0 0 1
29.473291 -28.046066 -18.679203 44.767950 -0.760590 2.001208 0.047209 -0.018443 888907.000000 0 0 1
27.988391 -28.246066 -18.279003 43.764280 -0.789980 2.001675 0.044938 -0.020403 296312.000000 0 0 1
27.603591 -27.496566 -17.153403 42.570631 -0.783456 1.985523 0.033500 -0.015810 -231291.000000 0 0 1
26.220591 -27.556966 -16.881803 41.616115 -0.810243 1.988492 0.037232 -0.014626 69257.700000 0 0 1
25.856791 -26.392566 -15.954603 40.245379 -0.795652 1.978425 0.038908 -0.015350 -109318.000000 0 0 1
25.862991 -25.129266 -16.490903 39.652544 -0.771010 1.999712 0.044463 -0.019830 63744.100000 0 0 1
25.723091 -24.224066 -15.406803 38.546756 -0.755395 1.981976 0.042860 -0.014895 -261487.000000 0 0 1
25.385991 -22.762366 -15.703903 37.539132 -0.730962 2.002407 0.041280 -0.018359 609075.000000 0 0 1
24.052191 -22.445066 -16.116303 36.633647 -0.750848 2.026319 0.040907 -0.013046 499849.000000 0 0 1
23.827891 -21.043266 -16.130703 35.648100 -0.723419 2.040361 0.040625 -0.014481 -783747.000000 0 0 1
22.371491 -20.664866 -16.295903 34.540943 -0.745764 2.062111 0.039456 -0.017830 -586727.000000 0 0 1
21.658091 -20.768166 -15.062303 33.574732 -0.764425 2.036017 0.040662 -0.023302 990683.000000 0 0 1
20.391491 -20.081366 -14.997003 32.310745 -0.777736 2.053470 0.037258 -0.027246 796123.000000 0 0 1
20.388291 -18.823366 -14.105203 31.128095 -0.745510 2.041074 0.025428 -0.014105 -200676.000000 0 0 1
20.165591 -19.027766 -12.694603 30.493604 -0.756375 2.000173 0.029281 -0.028149 297134.000000 0 0 1
19.894791 -17.833566 -12.000003 29.288886 -0.730819 1.992934 0.029614 -0.032068 -222162.000000 0 0 1
18.941791 -18.090066 -10.792403 28.328747 -0.762402 1.961642 0.026711 -0.011885 56085.800000 0 0 1
19.599591 -18.747466 -9.706003 28.806561 -0.763180 1.914458 0.037197 -0.024011 438656.000000 0 0 1
18.694691 -18.794566 -8.625703 27.877051 -0.788062 1.885379 0.026145 -0.027781 -283995.000000 0 0 1
19.259491 -19.447866 -7.357903 28.342305 -0.790265 1.833413 0.024521 -0.021977 122768.000000 0 0 1
20.260091 -18.642666 -6.732803 28.343446 -0.743846 1.810633 0.022754 -0.018135 -46060.200000 0 0 1
21.044391 -19.413466 -5.881903 29.229195 -0.745108 1.773414 0.031821 -0.005733 -892982.000000 0 0 1
22.295891 -18.645566 -5.509903 29.582477 -0.696474 1.758146 0.029417 -0.014259 -990325.000000 0 0 1
23.198191 -18.590966 -6.566803 30.445082 -0.675592 1.788198 0.026489 -0.029286 503335.000000 0 0 1
24.306191 -17.701166 -6.299703 30.721466 -0.629440 1.777320 0.035561 -0.032187 869590.000000 0 0 1
25.402591 -17.548866 -7.413103 31.752298 -0.604545 1.806438 0.047300 -0.038128 565437.000000 0 0 1
26.289091 -18.683566 -7.392403 33.088360 -0.617869 1.796112 0.060688 -0.043039 386154.000000 0 0 1
25.968591 -19.653666 -8.371503 33.626126 -0.647855 1.822401 0.065613 -0.046567 -436673.000000 0 0 1
26.803291 -20.917866 -8.256603 34.987784 -0.662688 1.809029 0.060892 -0.046973 943467.000000 0 0 1
28.174991 -20.814966 -8.696603 36.093266 -0.636278 1.814139 0.060030 -0.041968 1165940.000000 0 0 1
28.850391 -22.078166 -8.589803 37.330620 -0.653199 1.802978 0.056601 -0.042182 165391.000000 0 0 1
-29.986779 29.846198 4.072897 42.504011 -0.783049 1.474825 0.035401 -0.015269 252478.000000 0 0 1
-29.174679 30.595298 3.183797 42.395409 -0.809162 1.495628 0.025390 -0.013745 -1177700.000000 0 0 1
-28.084409 31.063598 3.851597 42.053727 -0.835724 1.479080 0.025094 -0.014628 -1119200.000000 0 0 1
-27.504699 32.240298 3.081497 42.490480 -0.864496 1.498211 0.022765 -0.014902 -305387.000000 0 0 1
-26.777069 31.875298 1.907397 41.673543 -0.872103 1.525010 0.027420 -0.018197 287065.000000 0 0 1
-26.271399 32.919898 1.056197 42.131006 -0.897252 1.545724 0.017945 -0.021328 547126.000000 0 0 1
-25.119239 33.891598 1.509897 42.212514 -0.932974 1.535020 0.043358 -0.013146 866658.000000 0 0 1
-23.819409 33.312998 1.538897 40.981560 -0.950062 1.533237 0.025820 -0.015414 368662.000000 0 0 1
-22.841109 34.169798 2.115497 41.155397 -0.981554 1.519371 0.027687 -0.005823 -288622.000000 0 0 1
-21.399909 33.744998 1.999797 40.008501 -1.005633 1.520791 0.025297 -0.013697 -316091.000000 0 0 1
-20.775209 34.221598 0.775197 40.041579 -1.025188 1.551435 0.038326 -0.014309 -656230.000000 0 0 1
-19.439509 33.847698 0.683997 39.038814 -1.049471 1.553274 0.040528 -0.015777 -865874.000000 0 0 1
-18.796209 -34.376766 -0.608003 39.184553 1.070436 1.586313 0.041271 -0.018679 -53752.700000 0 0 1
-18.737709 -32.947366 -0.711703 37.909592 1.053697 1.589571 0.041226 -0.010080 253224.000000 0 0 1
-18.088109 -32.193666 0.318597 36.928489 1.058898 1.562169 0.036454 -0.010946 -127884.000000 0 0 1
-18.117609 -30.630466 0.061797 35.587597 1.036658 1.569060 0.040410 -0.014469 404959.000000 0 0 1
-17.157309 -30.164566 -0.912603 34.714653 1.053641 1.597088 0.060360 -0.007961 640499.000000 0 0 1
-17.025009 -28.757766 -0.827203 33.429692 1.036269 1.595543 0.037414 0.001662 201273.000000 0 0 1
-16.048709 -28.170466 -1.898103 32.476746 1.052954 1.629275 0.037650 0.005720 -300546.000000 0 0 1
-16.476809 -28.337566 -3.198403 32.935280 1.044130 1.668061 0.032061 0.004836 -783891.000000 0 0 1
-15.577509 -27.985266 -4.176503 32.299800 1.062875 1.700464 0.042719 0.005781 -833695.000000 0 0 1
-16.174809 -27.973166 -5.566903 32.788914 1.046541 1.741403 0.056015 0.007006 56326.200000 0 0 1
-17.194209 -27.001666 -5.713403 32.517284 1.003768 1.747417 0.029634 0.013630 -131719.000000 0 0 1
-17.728209 -26.880566 -7.032803 32.959286 0.987759 1.785828 0.049702 0.008065 470329.000000 0 0 1
-18.443109 -25.532966 -7.281903 32.328111 0.945244 1.797996 0.032995 0.014288 504273.000000 0 0 1
-17.508709 -24.445566 -7.240803 30.928463 0.949259 1.807104 0.047054 0.013558 430911.000000 0 0 1
-18.136309 -23.197066 -7.444403 30.371841 0.907229 1.818428 0.019826 0.014877 338488.000000 0 0 1
-17.075409 -22.095166 -7.164603 28.828762 0.912855 1.821951 0.029257 0.011074 440343.000000 0 0 1
-15.921309 -22.126966 -7.947303 28.394548 0.947074 1.854474 0.054904 0.010456 -907615.000000 0 0 1
-14.930009 -21.280066 -7.467603 27.046469 0.959000 1.850533 0.071048 -0.007286 791056.000000 0 0 1
-13.665509 -21.094066 -8.375703 26.492606 0.995943 1.892468 0.060433 -0.001633 911489.000000 0 0 1
-14.049209 -20.295566 -9.468603 26.437563 0.965304 1.937082 0.059861 0.001634 97583.200000 0 0 1
-13.008509 -20.224466 -10.436803 26.214065 0.999212 1.980282 0.055674 0.004356 520304.000000 0 0 1
-13.524609 -19.436566 -11.667603 26.397502 0.962872 2.028619 0.062309 0.002511 41506.900000 0 0 1
-14.478109 -20.007966 -12.537703 27.697082 0.944395 2.040556 0.052852 0.017271 -238748.000000 0 0 1
-14.705809 -19.229766 -13.676603 27.804571 0.917927 2.085048 0.044906 0.000713 -845802.000000 0 0 1
-15.829709 -19.680466 -14.555303 29.150596 0.893417 2.093603 0.053909 0.000340 -1239220.000000 0 0 1
-17.056809 -19.432166 -13.945703 29.377312 0.850404 2.065431 0.057838 -0.002773 -1017160.000000 0 0 1
-18.065809 -19.824866 -14.830703 30.648793 0.831789 2.075893 0.040017 0.000240 15055.300000 0 0 1
-19.508209 -19.681466 -14.275803 31.172566 0.789819 2.046496 0.028126 0.011622 1299840.000000 0 0 1
-20.583109 -20.105066 -15.166003 32.525155 0.773650 2.055883 0.044313 -0.000534 1091760.000000 0 0 1
-21.878909 -19.837866 -14.629503 32.958306 0.736511 2.030719 0.029442 0.007845 -361806.000000 0 0 1
-22.910809 -20.612066 -15.376703 34.441333 0.732630 2.033602 0.033307 -0.001630 -1121610.000000 0 0 1
-23.045409 -19.995766 -16.645803 34.756356 0.714662 2.070230 0.032257 -0.015612 105429.000000 0 0 1
-23.564409 -20.903666 -17.573203 36.070238 0.725635 2.079670 0.043298 -0.023553 -93267.400000 0 0 1
-24.020609 -20.250466 -18.951903 36.691220 0.700443 2.113583 0.039162 -0.021550 578797.000000 0 0 1
-22.899209 -19.801166 -19.719403 36.129141 0.712972 2.148144 0.029101 -0.026632 730048.000000 0 0 1
-23.347109 -19.264066 -20.934203 36.802617 0.689869 2.175871 0.036696 -0.029915 182321.000000 0 0 1
-22.142609 -18.565166 -21.639803 36.100438 0.697742 2.213589 0.021144 -0.019806 1199130.000000 0 0 1
-21.019009 -19.447466 -21.876503 36.035872 0.746582 2.223172 0.018942 -0.021542 663695.000000 0 0 1
-20.147709 -18.943766 -22.859603 35.879770 0.754610 2.261548 0.027740 -0.026115 745833.000000 0 0 1
-18.682209 -19.485366 -22.971103 35.445395 0.806438 2.275844 0.032146 -0.021602 692813.000000 0 0 1
-18.745809 -20.800066 -23.439703 36.516678 0.837298 2.267757 0.015074 -0.011512 -680191.000000 0 0 1
-17.467509 -21.295766 -23.625803 36.287768 0.883839 2.279787 0.014850 -0.003412 -867731.000000 0 0 1
-17.389709 -22.716766 -24.163603 37.447739 0.917448 2.272163 0.019246 0.002196 -409024.000000 0 0 1
-17.468709 -22.794066 -25.584333 38.461453 0.916900 2.298550 0.020734 0.001962 197221.000000 0 0 1
-17.568909 -24.152366 -25.925783 39.549331 0.941904 2.285681 0.028871 -0.010438 -193796.000000 0 0 1
-17.624309 -24.412066 -27.406743 40.714798 0.945490 2.309242 0.020034 0.001998 -121207.000000 0 0 1
-16.399109 -24.219566 -28.077053 40.544285 0.975604 2.335750 0.019052 0.005834 -165191.000000 0 0 1
-16.412009 -24.373666 -29.474223 41.619220 0.978181 2.357724 0.020235 0.006213 -593515.000000 0 0 1
-15.035309 -24.256866 -30.126183 41.497506 1.015918 2.383248 0.008586 -0.004661 -620863.000000 0 0 1
-14.112309 -25.249966 -29.776813 41.513572 1.061143 2.370686 0.013096 -0.000877 -1164950.000000 0 0 1
-12.990109 -24.964366 -30.514693 41.510348 1.091005 2.396626 0.024251 -0.001466 -1091380.000000 0 0 1
-11.856109 -25.990666 -30.403083 41.718455 1.142825 2.387318 0.036499 -0.005530 -1348000.000000 0 0 1
-12.085409 -27.253066 -30.891143 42.930752 1.153402 2.373961 0.037116 -0.003936 166463.000000 0 0 1
-11.062409 -28.231366 -30.775563 43.203266 1.197337 2.363628 0.038304 -0.005909 294970.000000 0 0 1
-9.653009 -27.984166 -31.350143 43.117579 1.238632 2.384863 0.038200 -0.006630 -189321.000000 0 0 1
-8.932009 -26.947166 -30.721173 41.829667 1.250729 2.395630 0.039363 -0.019502 450700.000000 0 0 1
-7.653309 -26.722966 -31.337993 41.889854 1.291868 2.415997 0.052394 -0.015240 337845.000000 0 0 1
-7.000009 -25.394266 -30.838563 40.557192 1.301823 2.434682 0.057390 -0.022270 -814010.000000 0 0 1
-7.620309 -24.113966 -31.002013 40.008465 1.264715 2.457332 0.062932 -0.015200 554008.000000 0 0 1
-8.701209 -23.923466 -30.058723 39.389975 1.221960 2.438902 0.047476 -0.008196 486780.000000 0 0 1
-9.275409 -22.477266 -30.025743 38.636847 1.179426 2.460884 0.046720 -0.018806 -98896.800000 0 0 1
-10.067809 -22.159566 -31.141483 39.524665 1.144345 2.478188 0.044575 -0.016790 -78347.100000 0 0 1
-10.440409 -20.829966 -31.080973 38.844774 1.106173 2.498313 0.043224 -0.017723 206917.000000 0 0 1
-10.997709 -20.163366 -32.403323 39.717581 1.071468 2.524982 0.044314 -0.012690 235093.000000 0 0 1
-11.485709 -18.839466 -32.235103 39.063395 1.023303 2.541352 0.048016 -0.012931 93874.300000 0 0 1
-12.081309 -18.465766 -33.450913 40.073758 0.991436 2.558445 0.052716 -0.016131 -1142170.000000 0 0 1
-12.947309 -17.245166 -33.295863 39.669170 0.926797 2.566862 0.051884 -0.022300 -672895.000000 0 0 1
-12.378109 -15.957166 -33.289123 38.936030 0.911044 2.596289 0.054297 -0.024947 -256456.000000 0 0 1
-11.600409 -15.573766 -32.175083 37.581214 0.930587 2.598565 0.055920 -0.017175 72938.200000 0 0 1
-11.308909 -14.035666 -32.202573 36.903889 0.892573 2.631310 0.058020 -0.022623 987920.000000 0 0 1
-10.301109 -13.569066 -33.179823 37.297896 0.921458 2.667242 0.059365 -0.026412 1120220.000000 0 0 1
-10.727409 -13.670866 34.215329 38.375234 0.905460 0.469932 0.057805 -0.026443 -234720.000000 0 0 1
-11.550009 -12.510566 33.614148 37.680604 0.825299 0.468867 0.046487 -0.021870 -134867.000000 0 0 1
-12.842409 -12.368466 34.133097 38.509411 0.766601 0.481379 0.043535 -0.019748 -357802.000000 0 0 1
-13.677809 -11.623266 33.250932 37.786337 0.704372 0.494992 0.037093 -0.018961 341328.000000 0 0 1
-14.691909 -10.691566 33.897061 38.460012 0.629087 0.492066 0.042347 -0.017819 -76461.800000 0 0 1
-14.049209 -9.640366 -34.170896 38.183335 0.601394 2.679040 0.053448 -0.026967 -314591.000000 0 0 1
-14.817809 -9.087566 -33.141843 37.423697 0.550132 2.658547 0.052657 -0.023208 -163354.000000 0 0 1
-14.147009 -7.927066 -32.357533 36.193731 0.510743 2.677012 0.058892 -0.034262 -401716.000000 0 0 1
-14.171909 -6.603366 -32.916233 36.440717 0.436036 2.698154 0.057822 -0.040632 818529.000000 0 0 1
-15.423309 -5.886566 -32.816473 36.734875 0.364603 2.675504 0.056335 -0.034952 603310.000000 0 0 1
-15.711509 -5.291966 -31.411383 35.518043 0.324886 2.655957 0.059887 -0.032846 -396065.000000 0 0 1
-16.120409 -6.251566 -30.483253 35.045376 0.369949 2.625639 0.059227 -0.038587 -154200.000000 0 0 1
-16.381009 -5.787966 -29.165043 33.947573 0.339642 2.604344 0.067644 -0.043011 292071.000000 0 0 1
-15.219209 -5.135466 -28.315743 32.554241 0.325436 2.625597 0.060583 -0.037627 587884.000000 0 0 1
-14.747909 -3.917166 -28.869323 32.653986 0.259614 2.655357 0.058701 -0.023432 -745205.000000 0 0 1
-13.574009 -3.448966 -28.324573 31.597951 0.248821 2.682388 0.050026 -0.014437 -602426.000000 0 0 1
-13.272309 -2.008966 -28.917293 31.881028 0.150225 2.706991 0.037795 0.006248 31197.400000 0 0 1
-13.250909 -1.992966 -30.329913 33.158138 0.149283 2.725574 0.041618 0.001034 138194.000000 0 0 1
-13.500709 -0.698966 -30.837803 33.670874 0.051726 2.728441 0.047899 -0.004394 -770.613000 0 0 1
-13.627909 -0.718966 -32.385713 35.143580 0.052708 2.742788 0.040049 -0.011531 552014.000000 0 0 1
-14.866309 -1.345966 -32.797003 36.034180 0.090292 2.714475 0.023315 -0.013173 1138710.000000 0 0 1
-14.802009 -1.524966 -34.209634 37.305818 0.102662 2.731303 0.028597 -0.011106 185127.000000 0 0 1
-16.225709 -1.916966 34.084304 37.797991 0.117599 0.446997 0.012422 -0.011998 235665.000000 0 0 1
-16.221209 -1.912966 32.667481 36.523299 0.117388 0.463645 0.020659 -0.013504 -594279.000000 0 0 1
-17.504609 -1.865966 32.155528 36.658848 0.106198 0.500889 0.016143 -0.013725 -751320.000000 0 0 1
-17.502309 -1.873966 30.589168 35.292205 0.106663 0.522168 0.023857 -0.005486 -118488.000000 0 0 1
-16.924409 -0.753966 29.940228 34.400891 0.044520 0.514918 0.014832 0.008943 31955.200000 0 0 1
-16.926609 -0.702966 28.488728 33.145314 0.041506 0.536486 0.012675 0.004147 -73936.000000 0 0 1
-16.258409 0.614034 27.955148 32.345064 -0.037749 0.527082 0.011210 0.003152 260170.000000 0 0 1
-16.931209 1.777034 28.424178 33.132425 -0.104573 0.539635 0.007410 -0.002860 -152127.000000 0 0 1
-18.195909 2.147034 27.947388 33.417919 -0.117452 0.580298 0.008628 -0.004079 -237040.000000 0 0 1
-18.275409 2.764034 26.536818 32.339344 -0.150106 0.608382 0.006602 -0.003809 -870558.000000 0 0 1
-17.905909 4.132034 26.561898 32.299066 -0.226794 0.605226 0.008311 0.002824 106570.000000 0 0 1
-18.380509 4.759034 25.422838 31.730304 -0.253354 0.641471 0.001473 0.004660 -728181.000000 0 0 1
-17.998409 6.267034 25.477328 31.816861 -0.335070 0.642251 -0.004550 -0.001227 1045990.000000 0 0 1
-16.592609 6.581034 25.510358 31.135238 -0.377593 0.610537 0.007399 0.000369 944902.000000 0 0 1
-15.988409 6.428034 24.220718 29.725275 -0.382267 0.618380 0.002064 -0.004316 -604883.000000 0 0 1
-14.830809 7.381034 23.961398 29.130416 -0.461792 0.604905 -0.005906 0.009955 166000.000000 0 0 1
-13.674009 7.226034 24.782608 29.212527 -0.486148 0.557925 0.000501 0.006587 616589.000000 0 0 1
-12.708609 8.246034 24.539428 28.839024 -0.575569 0.553080 0.008551 0.016047 324672.000000 0 0 1
-11.329309 8.053034 25.210138 28.788116 -0.617947 0.503885 0.014918 0.025037 315339.000000 0 0 1
-10.425609 9.040034 24.686088 28.281062 -0.714337 0.509714 0.015197 0.026798 266574.000000 0 0 1
-9.282009 9.190034 25.518658 28.667304 -0.780419 0.473087 0.024729 0.010392 87683.800000 0 0 1
-9.235209 10.506034 26.409608 29.885334 -0.849684 0.487092 0.038472 -0.008605 -1089170.000000 0 0 1
-10.205209 10.399034 27.371128 31.007496 -0.794805 0.489164 0.023714 -0.005147 -326447.000000 0 0 1
-10.502809 11.592034 28.103708 32.163685 -0.834656 0.507893 0.047759 -0.013181 -245958.000000 0 0 1
-11.272109 12.758034 27.409468 32.266186 -0.847155 0.555798 0.048117 -0.013259 937899.000000 0 0 1
-12.669009 12.542034 27.094778 32.433522 -0.780362 0.581947 0.033419 -0.011385 1250120.000000 0 0 1
-12.844409 11.869034 25.844458 31.205589 -0.745951 0.594909 0.023911 0.002498 -829397.000000 0 0 1
-14.274209 11.779034 25.331578 31.371763 -0.689917 0.630955 -0.003552 0.004017 -710866.000000 0 0 1
-14.827509 13.009034 24.931848 31.791304 -0.720164 0.669334 0.017769 -0.003887 824745.000000 0 0 1
-16.111709 12.880034 24.272208 31.853140 -0.674388 0.704395 0.017082 0.005755 895110.000000 0 0 1
-16.124909 12.290034 22.851668 30.549244 -0.651249 0.725712 0.007687 0.017267 -435456.000000 0 0 1
-15.822709 10.925034 22.694968 29.745185 -0.604298 0.702886 -0.005645 0.018458 70924.500000 0 0 1
-15.798409 10.633034 21.310768 28.579712 -0.592405 0.729271 0.005503 0.026159 -299759.000000 0 0 1
-16.060509 9.200034 20.886868 27.907737 -0.520206 0.725111 0.004413 0.014035 -558211.000000 0 0 1
-17.407109 8.877034 20.938068 28.639341 -0.471589 0.750871 0.010875 0.016966 -995414.000000 0 0 1
-17.699709 7.502034 20.890468 28.389643 -0.400897 0.743878 0.004973 0.008488 -282757.000000 0 0 1
-19.208209 7.363034 21.101868 29.469618 -0.366051 0.772662 0.019845 -0.000527 -155888.000000 0 0 1
-19.676209 7.755034 22.412168 30.815564 -0.375438 0.756416 0.006208 0.001734 438729.000000 0 0 1
-21.096009 7.886034 22.447268 31.797971 -0.357733 0.787055 0.006752 0.001231 203991.000000 0 0 1
-21.568009 8.736034 23.630568 33.164756 -0.384849 0.777712 0.021023 -0.009657 -1042590.000000 0 0 1
-21.287209 10.123034 23.535368 33.309677 -0.443893 0.786168 0.018579 -0.002680 1211470.000000 0 0 1
-19.907509 10.558034 23.430668 32.508109 -0.487635 0.765893 0.010093 0.002061 1347830.000000 0 0 1
-18.927709 10.114034 24.568868 32.621789 -0.490749 0.717970 0.008074 -0.006245 -565893.000000 0 0 1
-19.239309 10.684034 25.859318 33.955911 -0.506921 0.705086 0.012237 -0.004642 349482.000000 0 0 1
-18.530209 10.072034 26.950808 34.222223 -0.497875 0.664016 0.015734 -0.010413 150537.000000 0 0 1
-30.027269 -13.911902 20.958868 39.172082 0.433866 1.006234 0.001509 0.004584 -153465.000000 0 0 1
-29.622849 -15.220502 21.257668 39.510319 0.474634 1.002700 0.013126 0.001873 -57384.200000 0 0 1
-30.511729 -16.240802 20.836668 40.359583 0.489137 1.028300 0.007328 0.005725 -68726.000000 0 0 1
-30.348109 -16.626602 19.335268 39.639679 0.501201 1.061256 0.003868 0.006593 26475.800000 0 0 1
-30.811869 -15.643002 18.451268 39.173002 0.469784 1.080350 0.007423 -0.004437 -139395.000000 0 0 1
-30.263489 -15.731702 17.195668 38.197594 0.479381 1.103833 0.016626 -0.007245 -763867.000000 0 0 1
-30.803309 -14.615302 16.252868 37.770446 0.443017 1.125964 0.007767 -0.003198 844492.000000 0 0 1
-32.115029 -14.690702 15.655068 38.629949 0.429024 1.153536 0.020034 -0.002190 2301710.000000 0 0 1
-33.306739 -14.700802 16.505968 39.973734 0.415659 1.145138 0.019555 -0.003764 802943.000000 0 0 1
-33.635029 -13.311302 17.027468 39.980503 0.376843 1.130846 0.009365 -0.002101 335291.000000 0 0 1
-34.929855 -13.284702 17.682468 41.343049 0.363431 1.128848 -0.002654 -0.004455 1150240.000000 0 0 1
-35.206059 -12.013702 18.161068 41.395893 0.328849 1.116626 0.009576 0.004308 344877.000000 0 0 1
35.285899 -11.938902 19.373168 41.987518 -0.326257 1.091220 0.020964 0.004216 -134117.000000 0 0 1
-35.571386 -12.267502 20.575968 42.885727 0.332097 1.070386 0.000923 0.003625 -218094.000000 0 0 1
35.191629 -12.031402 21.795668 43.107500 -0.329425 1.040705 0.004286 -0.006933 -944954.000000 0 0 1
-35.529670 -12.555802 23.075868 44.187117 0.339691 1.021332 0.001898 -0.007274 942422.000000 0 0 1
-34.289841 -11.917102 23.412968 43.196962 0.334482 0.997975 -0.009969 -0.003681 554726.000000 0 0 1
-33.225699 -12.223802 22.549568 41.974414 0.352533 1.003657 -0.007251 -0.005929 -1135170.000000 0 0 1
-32.118859 -11.150102 22.556168 40.801061 0.334135 0.985036 -0.002931 -0.008064 -363744.000000 0 0 1
-32.409759 -9.913902 22.002668 40.407862 0.296854 0.994986 -0.002288 -0.005325 -235675.000000 0 0 1
-31.253059 -9.139802 22.118868 39.364120 0.284511 0.974110 0.005211 -0.003715 -439657.000000 0 0 1
-31.284739 -7.968402 21.107968 38.571707 0.249403 0.991734 -0.004903 -0.004753 101870.000000 0 0 1
-31.514759 -8.361702 19.756668 38.123798 0.259351 1.026023 -0.002112 0.003430 611591.000000 0 0 1
-32.900179 -8.422402 19.429168 39.126093 0.250616 1.051144 -0.005506 0.000265 -4934.070000 0 0 1
-33.122979 -8.666402 17.935368 38.651205 0.255907 1.088256 0.005345 -0.000825 -479406.000000 0 0 1
-34.475533 -8.763902 17.579568 39.678830 0.248934 1.111802 -0.004397 0.001837 -260704.000000 0 0 1
-34.714736 -8.743202 16.199268 39.293419 0.246727 1.145858 0.008436 0.009096 -427244.000000 0 0 1
35.276469 -8.814602 15.854268 39.667169 -0.244858 1.159626 0.013071 0.008440 -598079.000000 0 0 1
34.654699 -10.007802 16.179368 39.533229 -0.281138 1.149153 0.011561 0.010598 -149501.000000 0 0 1
33.264319 -9.855202 15.939268 38.179840 -0.288031 1.140128 0.004263 0.012019 130261.000000 0 0 1
32.509349 -11.176302 16.185768 37.996665 -0.331129 1.130753 0.014002 -0.002807 -157294.000000 0 0 1
32.406049 -11.638002 17.495068 38.622176 -0.344786 1.100691 0.020413 -0.014227 -47134.100000 0 0 1
31.532509 -12.725102 17.488368 38.237028 -0.383567 1.095764 0.035841 -0.017480 -158932.000000 0 0 1
31.118739 -13.264902 18.839568 38.720316 -0.402944 1.062654 0.038169 -0.014094 756867.000000 0 0 1
32.213229 -14.089902 19.346868 40.131269 -0.412322 1.067758 0.030096 -0.019125 959419.000000 0 0 1
31.958429 -14.345002 20.699068 40.688717 -0.421909 1.037102 0.031984 -0.019252 -70703.600000 0 0 1
32.711469 -15.531402 21.331268 42.027225 -0.443285 1.038448 0.013267 -0.009199 -36103.500000 0 0 1
32.656969 -15.482002 22.755468 42.708094 -0.442697 1.008874 0.010990 -0.015455 -33033.200000 0 0 1
33.252019 -16.647902 23.314668 43.891037 -0.464174 1.010787 0.001801 -0.013650 39660.400000 0 0 1
33.588499 -16.477902 24.799298 44.885562 -0.456085 0.985435 0.009687 -0.004819 -343384.000000 0 0 1
34.773789 -15.773102 25.031678 45.657333 -0.425837 0.990525 0.015255 0.004663 -240455.000000 0 0 1
35.185879 -15.693002 26.358958 46.680949 -0.419525 0.970773 0.002545 0.008304 -449495.000000 0 0 1
-35.287970 -14.555002 26.531268 46.486526 0.391204 0.963401 0.001350 -0.001355 -20794.400000 0 0 1
-34.020529 -14.893502 25.965608 45.314739 0.412645 0.960628 -0.011992 0.000920 752062.000000 0 0 1
-33.139769 -13.746502 26.083828 44.357374 0.393203 0.942165 -0.007443 -0.001876 -171181.000000 0 0 1
-31.656869 -13.995402 25.905698 43.233480 0.416262 0.928289 0.004869 0.002084 -681007.000000 0 0 1
-31.235649 -14.368502 24.578808 42.263902 0.431141 0.950157 0.004282 0.005084 -862863.000000 0 0 1
-29.935929 -14.795302 24.414788 41.365960 0.459023 0.939472 0.010681 -0.004149 -865440.000000 0 0 1
-29.670119 -16.295102 24.756258 41.937079 0.502236 0.939342 0.010796 -0.002392 -516196.000000 0 0 1
-29.642009 -16.545902 26.126598 42.837071 0.509110 0.914854 0.017032 -0.007906 135339.000000 0 0 1
-29.623689 -17.939402 26.388278 43.539939 0.544510 0.919685 0.019928 -0.017764 -81174.900000 0 0 1
-29.351919 -18.185502 27.899828 44.391981 0.554683 0.891189 0.020282 -0.016077 412872.000000 0 0 1
-28.057179 -17.753702 28.323988 43.642267 0.564166 0.864522 0.027724 -0.012602 301904.000000 0 0 1
-27.730439 -18.045502 29.646358 44.424362 0.576900 0.840159 0.028352 -0.021064 1074450.000000 0 0 1
-26.379209 -17.275702 30.005078 43.527201 0.579811 0.810218 0.023983 -0.017872 904638.000000 0 0 1
-26.518219 -15.955202 30.474998 43.433972 0.541646 0.793100 0.040559 -0.022220 42291.100000 0 0 1
-25.333089 -15.211002 30.243148 42.282242 0.540743 0.773788 0.039602 -0.018789 -196467.000000 0 0 1
-25.296589 -13.851602 31.008628 42.347601 0.500974 0.749190 0.046679 -0.020980 -151507.000000 0 0 1
-24.807109 -13.841702 32.322808 43.031956 0.508944 0.721017 0.044273 -0.022141 97661.800000 0 0 1
-24.497409 -12.537902 32.799326 42.814925 0.473047 0.698088 0.036355 -0.009887 -112790.000000 0 0 1
-23.904109 -12.582102 34.246087 43.617773 0.484510 0.667873 0.030754 -0.011041 703169.000000 0 0 1
-22.486409 -12.813302 34.351707 43.009988 0.517936 0.645679 0.006081 -0.004027 973967.000000 0 0 1
-22.138409 -14.194702 -34.190836 43.134812 0.570150 2.485941 0.002435 -0.013662 -234674.000000 0 0 1
-22.053209 -14.766102 -32.751793 42.155210 0.590008 2.460577 0.008314 -0.014945 -172979.000000 0 0 1
-20.978909 -14.406602 -31.885643 40.796556 0.601756 2.467986 -0.007416 -0.003557 351507.000000 0 0 1
-21.030409 -15.283902 -30.776253 40.287138 0.628456 2.440166 0.010382 -0.012769 621083.000000 0 0 1
-19.689309 -15.192502 -29.961563 38.938108 0.657190 2.448801 0.019855 -0.010127 647797.000000 0 0 1
-19.477609 -14.040102 -29.133933 37.752983 0.624571 2.452304 0.022061 -0.011095 -320345.000000 0 0 1
-20.133509 -14.059502 -27.934823 37.193845 0.609593 2.420463 0.027188 -0.013609 -500100.000000 0 0 1
-19.777709 -12.903602 -27.000563 35.870477 0.578083 2.422986 0.024604 -0.006662 -155463.000000 0 0 1
-18.437409 -13.014802 -26.576383 34.865846 0.614669 2.437574 0.028725 -0.012504 -223742.000000 0 0 1
-18.031009 -11.865302 -25.887783 33.705785 0.582013 2.446589 0.031180 -0.022209 -38817.300000 0 0 1
-16.606609 -11.946102 -25.320853 32.552026 0.623600 2.462046 0.041242 -0.023329 -1135730.000000 0 0 1
-16.565209 -12.804402 -24.145703 31.958940 0.658040 2.427248 0.044236 -0.022806 137045.000000 0 0 1
-15.317909 -12.839102 -23.443803 30.807349 0.697589 2.435620 0.055944 -0.025128 348481.000000 0 0 1
-14.280509 -13.662602 -24.239303 31.275285 0.763289 2.457560 0.026121 -0.016522 -941401.000000 0 0 1
-13.727009 -12.985402 -25.385133 31.645796 0.757643 2.501708 0.031116 -0.019914 -54603.000000 0 0 1
-12.990309 -13.882802 -26.207143 32.377379 0.818597 2.513973 0.021206 -0.017545 -419388.000000 0 0 1
-12.059209 -13.161002 -27.161213 32.501815 0.829057 2.560171 0.025538 -0.012461 -287739.000000 0 0 1
-12.786009 -12.318402 -28.067163 33.211303 0.766774 2.577565 0.049916 -0.020300 276975.000000 0 0 1
-11.904809 -11.698902 -28.964633 33.429609 0.776675 2.618817 0.056411 -0.022070 -437784.000000 0 0 1
-12.626509 -10.648302 -29.782553 34.056064 0.700608 2.635232 0.046066 -0.020902 -74137.900000 0 0 1
-11.931409 -9.820802 -30.755703 34.419761 0.688671 2.675983 0.046254 -0.020996 102962.000000 0 0 1
-11.335209 -10.460202 -31.857393 35.394862 0.745273 2.690697 0.060766 -0.021465 -238850.000000 0 0 1
-10.491909 -9.521602 -32.711093 35.647674 0.736953 2.732852 0.048496 -0.016240 -456142.000000 0 0 1
-9.299109 -9.107502 -32.120023 34.657119 0.774989 2.756582 0.025165 -0.010336 -392659.000000 0 0 1
-8.818509 -7.828902 -32.586963 34.654984 0.726023 2.794382 0.018318 -0.003497 1591990.000000 0 0 1
-7.276509 -7.487602 -32.327013 33.971275 0.799695 2.829192 0.022639 -0.001036 1313930.000000 0 0 1
-6.808609 -7.316802 -30.988973 32.560854 0.821360 2.829603 0.010078 0.004072 -128162.000000 0 0 1
-7.175909 -6.061902 -30.417203 31.834675 0.701443 2.842058 0.012257 0.001270 -260917.000000 0 0 1
-6.425609 -4.791902 -30.940923 31.962345 0.640776 2.888102 0.019780 -0.002684 78323.800000 0 0 1
-5.097709 -4.721502 -30.467323 31.249592 0.747104 2.917369 0.016684 -0.001676 -305273.000000 0 0 1
-4.578809 -3.438302 -30.753513 31.282039 0.644087 2.957509 0.029925 -0.010040 116787.000000 0 0 1
-3.052909 -3.473502 -30.471883 30.820790 0.849754 2.990981 0.025437 -0.004353 -732814.000000 0 0 1
-2.351409 -4.099602 -31.454343 31.807413 1.050037 2.992456 0.023134 -0.008865 -616515.000000 0 0 1
-0.954209 -4.025702 -31.459133 31.730015 1.338062 3.010831 0.030681 -0.004485 639.222000 0 0 1
-0.194809 -2.707102 -31.633513 31.749732 1.498958 3.056004 0.023198 -0.006087 -889658.000000 0 0 1
-0.051909 -1.916302 -30.479023 30.539249 1.543715 3.078780 0.016126 -0.007726 195490.000000 0 0 1
0.833691 -0.821302 -30.646293 30.668630 -0.777912 3.103424 0.009913 -0.003234 126866.000000 0 0 1
1.114991 -0.005202 -29.363803 29.384965 -0.004665 3.103639 0.008690 -0.007129 -501292.000000 0 0 1
0.061391 0.740698 -28.864843 28.874410 1.488103 3.115849 0.026070 -0.010869 -625202.000000 0 0 1
0.381191 2.132298 -28.812953 28.894260 1.393895 3.066556 0.039998 -0.013167 -378942.000000 0 0 1
-0.748509 3.001098 -28.195653 28.364797 -1.326371 3.032331 0.031703 -0.013542 269061.000000 0 0 1
-1.808609 3.116198 -29.132133 29.354095 -1.044921 3.018539 0.024869 -0.017792 -468762.000000 0 0 1
-2.922109 3.740198 -28.578433 28.969892 -0.907580 2.977013 0.054076 -0.024706 -522215.000000 0 0 1
-4.045009 3.824398 -29.614083 30.132740 -0.757372 2.955786 0.071000 -0.028103 -58270.600000 0 0 1
-3.601709 4.660798 -30.691883 31.251992 -0.912883 2.951982 0.073937 -0.024897 1310850.000000 0 0 1
-4.794409 4.872998 -31.464843 32.198894 -0.793527 2.927655 0.080088 -0.013369 513255.000000 0 0 1
-4.435809 5.649298 -32.801153 33.578365 -0.905147 2.926019 0.086079 -0.010324 223594.000000 0 0 1
-3.956509 4.934998 -33.938653 34.523040 -0.895005 2.957335 0.087358 -0.016126 834835.000000 0 0 1
-2.762109 4.159498 -33.736003 34.103498 -0.984608 2.994655 0.083555 -0.018590 68462.900000 0 0 1
-2.281309 3.680698 33.616842 33.894601 -1.015943 0.128109 0.065586 -0.014973 -324549.000000 0 0 1
-3.201609 2.736298 33.117547 33.384271 -0.707195 0.126492 0.059865 -0.017875 62919.100000 0 0 1
-2.939309 2.093698 31.853368 32.057139 -0.618940 0.112812 0.058470 -0.017442 -359438.000000 0 0 1
-2.806209 2.910598 30.560968 30.827247 -0.803656 0.131531 0.061670 -0.013062 -304708.000000 0 0 1
-3.878609 3.744998 30.201198 30.678673 -0.767874 0.176659 0.050995 -0.013289 -219837.000000 0 0 1
-3.757209 4.406998 28.896288 29.470896 -0.864821 0.197794 0.054978 -0.015689 52208.200000 0 0 1
-5.039609 5.238698 28.741708 29.646709 -0.804766 0.247721 0.059621 -0.008140 135546.000000 0 0 1
-4.889209 6.116498 27.649918 28.737325 -0.896453 0.275973 0.060562 -0.003569 -40182.300000 0 0 1
-6.149309 6.580998 27.217218 28.668807 -0.819296 0.319582 0.053657 -0.005188 -872858.000000 0 0 1
-5.954609 7.467198 26.009658 27.707737 -0.897621 0.351914 0.046283 -0.004299 2662.790000 0 0 1
-5.157509 8.594498 26.314458 28.158764 -1.030308 0.363935 0.066966 -0.011052 81290.900000 0 0 1
-4.926209 9.416298 25.171628 27.322976 -1.088795 0.399483 0.051353 -0.008030 -24446.500000 0 0 1
-4.414909 10.811798 25.504858 28.051456 -1.183120 0.429397 0.055341 -0.011559 -333053.000000 0 0 1
-4.312209 11.516598 24.244868 27.185305 -1.212522 0.469406 0.061338 -0.015960 100834.000000 0 0 1
-3.907209 12.825898 24.441748 27.877750 -1.275093 0.501739 0.060351 -0.009218 1425740.000000 0 0 1
-2.323209 13.146398 24.408098 27.820502 -1.395884 0.500501 0.054935 -0.011127 2610220.000000 0 0 1
-1.420909 12.645398 25.452428 28.456127 -1.458900 0.463609 0.066395 -0.015086 900039.000000 0 0 1
-1.822809 13.121398 26.730908 29.833457 -1.432761 0.460108 0.076812 -0.015503 -824930.000000 0 0 1
-1.034709 12.570198 27.908168 30.625909 -1.488667 0.424463 0.073167 -0.008060 601820.000000 0 0 1
0.334691 12.993198 27.832368 30.717681 1.545043 0.436895 0.076237 -0.011818 463536.000000 0 0 1
1.062191 12.557898 28.984828 31.606159 1.486414 0.410146 0.077377 -0.014361 1031840.000000 0 0 1
2.613991 12.649998 28.738418 31.507968 1.367025 0.422419 0.058712 -0.006179 764758.000000 0 0 1
3.105991 13.921698 28.605158 31.964291 1.351287 0.462567 0.062120 -0.010193 -495576.000000 0 0 1
4.508191 13.926198 28.514298 32.051957 1.257722 0.474268 0.049940 -0.007569 -295404.000000 0 0 1
5.084591 15.331198 28.817188 33.035269 1.250562 0.510877 0.051714 -0.010424 -495588.000000 0 0 1
4.995391 15.745698 30.206628 34.428495 1.263586 0.500437 0.055561 0.001721 473561.000000 0 0 1
3.925591 16.661798 30.467528 34.947046 1.339412 0.511891 0.038141 0.002761 244551.000000 0 0 1
3.847591 18.031898 29.798398 35.041373 1.360572 0.554094 0.049075 0.003735 -263275.000000 0 0 1
4.748491 18.949098 30.369948 36.110251 1.325261 0.571605 0.059800 0.007387 -89075.100000 0 0 1
5.079491 19.945498 29.469438 35.945401 1.321429 0.609667 0.047218 0.001622 684573.000000 0 0 1
6.264491 20.842298 30.027578 37.085046 1.278820 0.627164 0.046753 0.005325 747342.000000 0 0 1
5.898191 21.840298 30.974038 38.355942 1.307029 0.630823 0.034468 -0.003822 691843.000000 0 0 1
7.093191 22.499898 31.420558 39.291350 1.265404 0.644032 0.018925 -0.004804 504215.000000 0 0 1
7.502291 23.865298 30.851578 39.719726 1.266218 0.681336 0.016955 0.001850 -202269.000000 0 0 1
7.857391 23.860398 29.461378 38.717308 1.252674 0.706042 0.005252 0.000840 396673.000000 0 0 1
8.325291 25.134598 29.005498 39.273113 1.250941 0.739866 0.006942 0.002015 -67656.500000 0 0 1
8.735791 25.071298 27.523058 38.241375 1.235514 0.767398 0.024678 -0.004047 -448320.000000 0 0 1
7.694291 24.909698 26.608338 37.251830 1.271206 0.775198 0.021861 -0.007404 87374.300000 0 0 1
8.214091 24.895898 25.290308 36.426319 1.252105 0.803368 0.037342 -0.012531 -239310.000000 0 0 1
28.238509 2.309498 6.692597 29.112506 0.081604 1.338834 0.072645 -0.008140 -39657.900000 0 0 1
28.828469 2.978498 7.774297 30.006529 0.102953 1.308720 0.066683 -0.013226 480463.000000 0 0 1
27.962019 2.899498 8.912497 29.490917 0.103325 1.263784 0.055320 0.002355 229784.000000 0 0 1
28.496329 3.835798 10.025197 30.450923 0.133802 1.235314 0.045997 0.002436 52353.500000 0 0 1
28.259429 5.199998 9.810697 30.362561 0.181974 1.241774 0.039708 -0.000730 -114551.000000 0 0 1
29.287069 5.839798 9.097397 31.218557 0.196817 1.275096 0.051691 -0.019498 -286342.000000 0 0 1
29.016129 7.314498 8.744997 31.175513 0.246939 1.286472 0.050051 -0.024339 -70058.300000 0 0 1
27.973369 7.585098 7.835797 30.024037 0.264787 1.306755 0.070503 -0.029718 -26691.600000 0 0 1
27.992279 8.983298 7.528097 30.346986 0.310538 1.320112 0.075464 -0.035683 -44914.600000 0 0 1
27.268519 9.388298 6.226797 29.503987 0.331580 1.358148 0.084355 -0.032306 -493450.000000 0 0 1
25.877449 9.434998 6.361597 28.268914 0.349625 1.343814 0.078097 -0.032493 -928205.000000 0 0 1
25.280849 9.515398 5.147097 27.498304 0.359987 1.382507 0.084450 -0.039536 -336113.000000 0 0 1
23.773149 9.777898 5.338497 26.253942 0.390210 1.366028 0.041010 -0.034103 -109336.000000 0 0 1
23.507049 11.126898 5.771797 26.640249 0.442096 1.352407 0.022912 -0.013194 -1059140.000000 0 0 1
22.180649 11.439298 5.930797 25.651766 0.476155 1.337481 0.012978 -0.015633 -1187940.000000 0 0 1
21.963749 12.816498 6.527797 26.254162 0.528221 1.319522 -0.000608 0.008550 -217590.000000 0 0 1
21.969449 13.794198 5.476197 26.512739 0.560668 1.362749 -0.005130 0.009633 257591.000000 0 0 1
21.929849 15.078798 5.984697 27.278289 0.602350 1.349603 0.026682 -0.000641 -128809.000000 0 0 1
21.714149 16.294698 4.992497 27.603378 0.643769 1.388930 0.037589 -0.001351 221927.000000 0 0 1
20.472149 16.257398 4.290897 26.491955 0.671147 1.408110 0.053891 -0.002134 607611.000000 0 0 1
20.335049 17.303698 3.390797 26.915232 0.705034 1.444480 0.047107 -0.004363 -77631.700000 0 0 1
18.857949 17.459298 2.992097 25.872804 0.746905 1.454891 0.044261 0.001584 163196.000000 0 0 1
18.045549 18.218798 3.868897 25.933276 0.790176 1.421051 0.041913 -0.001799 964573.000000 0 0 1
16.637249 17.937298 3.791397 24.757209 0.822982 1.417048 0.036938 -0.014415 975836.000000 0 1 0
15.807549 19.119498 4.338497 25.184447 0.879940 1.397664 0.038057 -0.016949 -1401990.000000 0 0 1
14.448249 18.998598 4.338497 24.259456 0.920615 1.390992 0.031878 -0.018183 -1422490.000000 0 1 0
13.821749 20.219898 4.045797 24.824454 0.971181 1.407090 0.019869 -0.013680 -891323.000000 0 1 0
12.356649 19.989798 3.769297 23.800975 1.017140 1.411759 0.009102 -0.011805 -1053110.000000 0 1 0
11.575249 19.469698 4.805997 23.154981 1.034411 1.361719 0.001700 -0.009603 345255.000000 0 1 0
10.218049 19.326898 4.347997 22.289966 1.084457 1.374472 0.001158 -0.008322 554730.000000 0 1 0
9.467649 18.635498 5.480797 21.609195 1.100734 1.314362 0.001062 -0.012713 -699823.000000 0 1 0
9.201449 19.526798 6.519097 22.549083 1.130435 1.277502 0.002222 -0.012139 -423375.000000 0 1 0
8.805849 18.864998 7.681997 22.191084 1.134074 1.217305 0.010695 -0.011636 -1071920.000000 0 1 0
8.052949 19.817898 8.576197 23.046697 1.184830 1.189501 -0.004143 -0.013558 -1014370.000000 0 1 0
6.741249 19.943498 8.152797 22.575554 1.244836 1.201313 0.010787 -0.018521 -847793.000000 0 1 0
6.617249 21.192798 7.461197 23.422044 1.268148 1.246592 0.005957 -0.011102 -674725.000000 0 1 0
5.328549 21.301098 6.597397 22.927186 1.325673 1.278915 0.011374 -0.005335 1125490.000000 0 1 0
4.091549 21.486798 7.326597 23.067343 1.382628 1.247580 0.017288 -0.004041 754951.000000 0 1 0
3.829649 22.581098 8.165097 24.315448 1.402799 1.228343 0.012427 -0.007303 -708569.000000 0 1 0
3.749849 24.007298 7.506397 25.431432 1.415852 1.271171 0.018434 0.000939 -622986.000000 0 0 1
2.782049 24.014198 6.519097 25.038373 1.455460 1.307397 0.023088 -0.007969 -489076.000000 0 0 1
3.005249 25.044198 5.537997 25.824655 1.451370 1.354672 0.031463 -0.004980 -85527.300000 0 0 1
1.802849 25.415498 4.640397 25.898477 1.499980 1.390647 0.034123 -0.008735 480975.000000 0 0 1
0.660049 25.928498 5.361597 26.485268 1.545345 1.366951 0.047895 -0.021722 -58876.800000 0 0 1
-0.304951 26.198698 4.397197 26.566899 -1.559157 1.404517 0.052779 -0.016280 -627980.000000 0 0 1
-1.642451 26.585398 5.060297 27.112500 -1.509095 1.383055 0.053721 -0.025801 -101862.000000 0 0 1
-2.596051 27.008298 4.106497 27.441774 -1.474970 1.420588 0.071706 -0.028438 -268457.000000 0 0 1
-3.701151 27.569298 4.768597 28.222407 -1.437345 1.401017 0.054351 -0.028212 297278.000000 0 0 1
-4.773251 28.225198 3.783697 28.874939 -1.403268 1.439381 0.059580 -0.033507 587795.000000 0 0 1
-4.292651 29.352398 3.076997 29.823783 -1.425580 1.467440 0.051765 -0.029111 -2511.910000 0 0 1
-5.171751 29.623198 2.023297 30.139254 -1.397954 1.503614 0.061722 -0.031051 -282967.000000 0 0 1
-4.635051 30.625298 0.937097 30.988235 -1.420589 1.540551 0.051171 -0.019835 -545481.000000 0 0 1
-4.407151 31.998098 1.295497 32.326144 -1.433926 1.530710 0.046753 -0.010956 363233.000000 0 0 1
-3.204351 32.122198 2.055897 32.347028 -1.471370 1.507196 0.046612 -0.018765 -71879.100000 0 0 1
-2.651151 33.566598 2.067197 33.734529 -1.491978 1.509480 0.041135 -0.017117 -443519.000000 0 0 1
-1.953151 33.888498 0.876797 33.956058 -1.513225 1.544972 0.021229 -0.007820 -98316.300000 0 0 1
-1.113351 -33.770266 0.824597 33.798674 1.537840 1.546397 0.026047 -0.011652 1634130.000000 0 0 1
0.291849 -34.011366 1.569597 34.048816 -1.562216 1.524682 0.028492 -0.011025 650386.000000 0 0 1
0.160749 -33.900066 2.957897 34.029245 -1.566055 1.483764 0.021722 -0.010502 238553.000000 0 0 1
1.335049 -34.214966 3.702297 34.440576 -1.531797 1.463090 0.025813 -0.015188 347654.000000 0 0 1
1.063649 -34.316266 5.203397 34.724816 -1.539811 1.420383 0.029736 -0.013884 257970.000000 0 0 1
0.047649 33.565998 5.627597 34.034517 1.569377 1.404684 0.033308 -0.022907 42677.300000 0 0 1
-0.426551 33.677998 6.992297 34.398862 -1.558131 1.366099 0.055269 -0.032184 74263.300000 0 0 1
0.584949 33.462298 8.127297 34.440100 1.553317 1.332566 0.054577 -0.022511 -94164.300000 0 0 1
1.054849 32.141498 8.293797 33.211078 1.537989 1.318395 0.042776 -0.024510 535810.000000 0 0 1
2.210349 32.162398 9.167997 33.516528 1.502180 1.293728 0.044006 -0.016701 624614.000000 0 0 1
2.851649 30.741898 9.111097 32.190189 1.478300 1.283835 0.029133 -0.016445 -160134.000000 0 0 1
2.149249 29.840998 9.916297 31.518842 1.498897 1.250745 0.040923 -0.026947 745075.000000 0 0 1
3.003649 28.694698 10.207197 30.603831 1.466500 1.230754 0.031700 -0.025053 420667.000000 0 0 1
2.464649 27.860798 11.320997 30.173888 1.482563 1.186193 0.032849 -0.029191 -472885.000000 0 0 1
3.037749 28.281998 12.520697 31.078404 1.463797 1.156141 0.020615 -0.017360 -141384.000000 0 0 1
2.864549 27.380898 13.603797 30.708020 1.466557 1.111849 0.021989 -0.014921 610444.000000 0 0 1
1.451849 26.800998 14.029197 30.285636 1.516678 1.089161 0.036602 -0.017715 931421.000000 0 0 1
0.437249 27.593598 14.555697 31.200419 1.554952 1.085441 0.033291 -0.017240 82469.400000 0 0 1
-0.125851 28.635498 13.790897 31.783588 -1.566401 1.121979 0.040426 -0.020561 -318693.000000 0 0 1
-0.829351 29.731098 14.661297 33.159910 -1.542908 1.112814 0.020203 -0.015393 -825146.000000 0 0 1
-2.138551 29.523998 15.021697 33.194747 -1.498488 1.101193 0.010943 -0.012169 -1279770.000000 0 0 1
-2.547651 30.686998 15.646497 34.539763 -1.487966 1.100669 0.015763 -0.005372 -1145300.000000 0 0 1
-3.827851 30.401298 16.372197 34.741045 -1.445545 1.080073 0.007824 0.002101 -341855.000000 0 0 1
-4.912251 30.050898 15.489497 34.163009 -1.408765 1.100220 0.012438 -0.008030 712972.000000 0 0 1
-6.094851 29.746498 16.214497 34.422540 -1.368700 1.080324 0.018547 -0.006446 187072.000000 0 0 1
-7.265151 29.273198 15.301897 33.820860 -1.327527 1.101297 0.012734 -0.012936 -635754.000000 0 0 1
-8.445051 29.112298 15.988597 34.270688 -1.288460 1.085423 0.009319 -0.008471 -534171.000000 0 0 1
-9.456151 28.560398 15.128397 33.674672 -1.251063 1.104869 0.012435 -0.010515 349120.000000 0 0 1
-10.732251 28.099598 15.841097 33.995720 -1.205959 1.086062 0.017458 -0.006265 383079.000000 0 0 1
-11.565851 29.070398 16.516997 35.378922 -1.192139 1.085060 0.027667 -0.010684 682535.000000 0 0 1
-10.977251 29.551698 17.709297 36.158292 -1.215134 1.058969 0.030224 -0.015927 -262880.000000 0 0 1
-11.680151 30.810498 18.321597 37.701375 -1.208439 1.063328 0.039125 -0.011848 307624.000000 0 0 1
-12.881551 30.496098 19.017697 38.178779 -1.171130 1.049364 0.036574 -0.003772 401661.000000 0 0 1
-13.638351 31.635098 19.372997 39.523374 -1.163758 1.058517 0.070798 -0.022163 164739.000000 0 0 1
-14.790351 31.366698 20.359797 40.213749 -1.130183 1.039920 0.071703 -0.018652 144407.000000 0 0 1
-14.340351 31.022198 21.655697 40.459754 -1.137793 1.006004 0.062139 -0.015948 87332.200000 0 0 1
-15.416851 30.696198 22.484397 41.054646 -1.105359 0.991219 0.046221 -0.007612 -132857.000000 0 0 1
-14.856851 30.365198 23.886497 41.392463 -1.115768 0.955655 0.032710 -0.003421 -37132.100000 0 0 1
-13.707851 29.494498 23.867397 40.342078 -1.135736 0.937723 0.018195 0.001088 1196060.000000 0 0 1
-13.214351 29.152598 25.199097 40.736808 -1.145216 0.903858 0.033171 -0.006680 -3550.040000 0 0 1
-12.663151 30.271098 26.102797 41.929116 -1.174593 0.898805 0.034877 -0.008940 -480538.000000 0 0 1
-13.671951 31.177698 26.537897 43.165161 -1.157533 0.908665 0.036298 -0.002822 353664.000000 0 0 1
-13.138151 32.361198 26.998697 44.145077 -1.185141 0.912727 0.042339 -0.005977 -97928.400000 0 0 1
-14.261551 33.400698 27.365697 45.473947 -1.167247 0.925058 0.053477 -0.007472 434184.000000 0 0 1
-15.037551 33.107698 28.499897 46.200560 -1.144454 0.906032 0.023507 -0.007319 145704.000000 0 0 1
-14.317051 33.238698 29.709897 46.823787 -1.164079 0.883429 0.048436 -0.002047 -145154.000000 0 0 1
-15.040451 32.633398 30.952597 47.425912 -1.138922 0.859717 0.036669 0.000580 -91873.000000 0 0 1
-16.266751 33.233998 31.266697 48.442875 -1.115615 0.869204 0.040041 0.007205 -571983.000000 0 0 1
-16.798451 32.554298 32.359797 48.878694 -1.094420 0.847255 0.029697 0.014992 637386.000000 0 0 1
-18.276151 32.953598 32.683797 49.881739 -1.064426 0.856315 0.042629 0.012790 740618.000000 0 0 1
-18.275951 34.336198 33.007697 51.014635 -1.081671 0.867121 0.045170 0.010204 963097.000000 0 0 1
-19.674851 -34.108166 33.181597 51.492574 1.047583 0.870563 0.030925 0.009669 1176630.000000 0 0 1
-20.017651 -32.580966 33.324397 50.722196 1.019858 0.853966 0.030057 0.007897 -196556.000000 0 0 1
-19.671851 -31.912066 -34.192173 50.739200 1.018377 2.310245 0.037668 0.008439 321685.000000 0 0 1
-20.458651 -32.335966 -33.071173 50.575425 1.006686 2.283522 0.028330 0.005572 214380.000000 0 0 1
-19.942351 -31.641766 -31.777073 49.078316 1.008428 2.275065 0.032992 0.007045 19917.300000 0 0 1
-20.023651 -30.255766 -31.849273 48.277678 0.986162 2.291229 0.042151 0.005293 27930.700000 0 0 1
-19.564151 -29.587466 -30.688373 46.903629 0.986566 2.284034 0.035185 0.000233 -70161.400000 0 0 1
-19.856751 -28.053966 -30.704973 46.088078 0.954851 2.299930 0.031074 -0.004738 -402691.000000 0 0 1
-21.041651 -27.686766 -30.080173 45.979614 0.920933 2.283930 0.042805 -0.008369 -638629.000000 0 0 1
-21.215251 -26.303166 -30.166173 45.298360 0.892064 2.299555 0.036315 -0.004713 829315.000000 0 0 1
-22.515651 -25.871766 -29.373873 45.156697 0.854647 2.279023 0.039445 -0.006178 661152.000000 0 0 1
-22.498851 -26.029166 -27.953273 44.329463 0.858018 2.253097 0.038791 -0.014311 232690.000000 0 0 1
-21.830051 -24.928766 -27.309973 42.939832 0.851572 2.260107 0.040670 -0.019635 28211.600000 0 0 1
-21.801051 -25.152366 -25.827573 42.130641 0.856653 2.230693 0.045508 -0.018039 734209.000000 0 0 1
-23.087251 -24.932366 -25.228973 42.321923 0.823803 2.209457 0.038027 -0.020358 799769.000000 0 0 1
-23.074251 -25.638766 -23.990373 42.015538 0.837995 2.178505 0.040640 -0.012296 -836561.000000 0 0 1
-24.407151 -25.513366 -23.213673 42.255361 0.807554 2.152402 0.037181 -0.011075 282074.000000 0 0 1
-25.529351 -26.192266 -23.743173 43.606431 0.798214 2.146575 0.019035 -0.004533 157776.000000 0 0 1
-25.313451 -27.609066 -23.750673 44.352292 0.828748 2.135897 0.027162 0.006818 -2465990.000000 0 0 1
-26.614751 -28.346866 -23.704473 45.538905 0.816903 2.118271 0.003834 0.011497 -932847.000000 0 0 1
-27.255951 -28.203366 -22.477273 45.205581 0.802480 2.091192 0.005353 0.013520 -261864.000000 0 0 1
-28.362751 -27.339066 -22.607273 45.419808 0.767022 2.091788 0.006135 0.009983 -362957.000000 0 0 1
-29.068051 -26.843966 -21.325873 44.948226 0.745641 2.065140 0.004146 0.013380 -503407.000000 0 0 1
-29.818651 -27.787166 -20.707573 45.717416 0.750148 2.040865 -0.004154 0.019052 -397623.000000 0 0 1
-30.355651 -27.294366 -19.507973 45.243884 0.732347 2.016590 -0.007321 0.015928 -895221.000000 0 0 1
-31.096151 -28.403366 -18.684773 46.074316 0.740172 1.988361 -0.007753 0.013565 235695.000000 0 0 1
-32.427851 -28.773866 -19.043873 47.351558 0.725765 1.984694 -0.009057 0.010950 899999.000000 0 0 1
-33.402151 -27.729466 -18.952273 47.368931 0.692869 1.982421 -0.008050 0.017824 -423578.000000 0 0 1
-33.857251 -27.268566 -17.529773 46.874098 0.678024 1.954088 -0.010032 0.021141 -105574.000000 0 0 1
-32.831251 -26.516866 -16.855473 45.443836 0.679401 1.950783 -0.008627 0.021528 788248.000000 0 0 1
-33.386751 -25.834866 -15.743773 45.055320 0.658564 1.927761 -0.014837 0.019836 83070.300000 0 0 1
-33.335451 -26.490766 -14.354773 44.934091 0.671484 1.895959 0.009914 0.016042 -239912.000000 0 0 1
-34.058451 -27.676766 -14.296073 46.155814 0.682392 1.885711 0.006359 0.024654 72742.100000 0 0 1
-33.751051 -28.366466 -13.074173 45.986127 0.698930 1.859080 -0.011460 0.020534 -395930.000000 0 0 1
-34.579151 -29.594366 -12.883473 47.302517 0.707877 1.846645 -0.006505 0.020276 -385150.000000 0 0 1
-34.116751 -30.697966 -13.657273 47.883598 0.732700 1.860030 -0.012079 0.011233 201194.000000 0 0 1
-34.637251 -31.923166 -13.227973 48.926547 0.744644 1.844567 -0.002059 0.007562 -132112.000000 0 0 1
-34.073551 -33.059266 -14.163573 49.543201 0.770291 1.860724 -0.008005 0.012330 751405.000000 0 0 1
-32.642751 -33.191166 -14.125573 48.649096 0.793728 1.865396 0.002953 0.004984 588798.000000 0 0 1
-32.161151 -33.909766 -15.212373 49.149040 0.811858 1.885479 0.008357 -0.004375 601033.000000 0 0 1
-30.625451 -34.181766 -15.068173 48.304878 0.840218 1.888029 0.013519 -0.002728 814823.000000 0 0 1
-30.210151 33.570198 -15.977373 47.904988 -0.838031 1.910833 0.015482 -0.000993 1012810.000000 0 0 1
-28.780951 33.271798 -15.942473 46.792287 -0.857644 1.918465 0.018056 -0.001707 1470430.000000 0 0 1
9.678491 19.907198 -8.848503 23.838325 1.118265 1.951085 0.043471 -0.021503 -993538.000000 0 1 0
8.293491 20.105698 -8.870003 23.488253 1.179565 1.958038 0.032718 -0.019709 -220777.000000 0 1 0
7.663591 20.253198 -10.157703 23.918645 1.209058 2.009402 0.032073 -0.022916 454023.000000 0 1 0
7.547091 19.028498 -11.065303 23.269793 1.193207 2.066354 0.031543 -0.016242 -242106.000000 0 1 0
8.831591 18.521698 -11.369403 23.458764 1.125861 2.076765 0.039024 -0.021857 121.260000 0 1 0
8.693291 17.569098 -12.402603 23.196359 1.111313 2.134924 0.039755 -0.019902 -1059620.000000 0 1 0
9.936991 17.238798 -13.155503 23.853453 1.047887 2.154974 0.049825 -0.015337 -1068520.000000 0 1 0
9.863491 15.940898 -13.717203 23.228481 1.016701 2.202516 0.055365 -0.033617 383341.000000 0 1 0
11.040891 15.606998 -14.458403 23.969253 0.955100 2.218311 0.072737 -0.036953 242124.000000 0 1 0
10.810391 14.385998 -15.373803 23.668023 0.926366 2.277802 0.069267 -0.036237 -342372.000000 0 1 0
10.709691 13.041298 -14.829003 22.464912 0.883253 2.291743 0.073561 -0.034681 466535.000000 0 1 0
11.869591 12.502098 -14.184503 22.324645 0.811345 2.259289 0.079959 -0.034083 -34759.000000 0 1 0
12.839291 11.735398 -15.093003 23.029670 0.740508 2.285471 0.081000 -0.036942 -594833.000000 0 1 0
13.480691 12.616398 -16.032503 24.452887 0.752292 2.285838 0.062511 -0.028159 446612.000000 0 1 0
14.324391 11.840098 -16.866003 25.096577 0.690733 2.307762 0.064507 -0.031345 29076.500000 0 0 1
15.091191 12.612398 -18.000203 26.661282 0.696160 2.311956 0.048270 -0.031674 580492.000000 0 0 1
16.139191 13.492198 -17.540703 27.389581 0.696304 2.265835 0.031624 -0.020992 287940.000000 0 0 1
16.876591 13.951298 -18.616803 28.740971 0.690790 2.275416 0.028771 -0.018981 66712.100000 0 0 1
18.057591 14.918898 -18.247103 29.691866 0.690504 2.232610 0.031852 -0.012094 -283775.000000 0 0 1
17.765791 16.246798 -17.862103 29.977266 0.740768 2.209126 0.027365 -0.015973 -86755.600000 0 0 1
17.235791 17.146498 -18.852603 30.765167 0.782801 2.230383 0.030622 -0.012514 -27493.000000 0 0 1
16.951091 18.491898 -18.207003 30.996528 0.828844 2.198624 0.026212 -0.009211 -498700.000000 0 0 1
18.132091 19.203498 -18.133603 32.037082 0.814087 2.172465 0.031642 0.005383 -522919.000000 0 0 1
17.797291 20.509398 -17.642503 32.382663 0.856080 2.146963 0.022073 0.004729 690825.000000 0 0 1
18.912291 21.580498 -17.919203 33.830319 0.851196 2.129018 0.034722 0.003699 773985.000000 0 0 1
20.011191 21.740698 -17.036303 34.107790 0.826798 2.093800 0.034478 0.007731 -298131.000000 0 0 1
19.824891 22.649498 -15.978703 34.078513 0.851802 2.058818 0.026394 0.009417 -109611.000000 0 0 1
21.029791 23.241198 -15.207603 34.837861 0.835308 2.022529 0.026026 0.010919 -415894.000000 0 0 1
21.384891 22.524098 -14.051103 34.089325 0.811337 1.995647 0.026509 0.011374 385161.000000 0 0 1
22.380191 23.162498 -13.214003 34.813563 0.802574 1.960122 0.025304 0.009106 510055.000000 0 0 1
23.857791 23.101098 -13.596203 35.884700 0.769286 1.959388 0.026699 0.006937 -494946.000000 0 0 1
24.068491 23.785098 -14.845103 36.951323 0.779476 1.984221 0.027085 0.009457 -746190.000000 0 0 1
25.394791 24.198598 -14.927003 38.121949 0.761283 1.973122 0.027356 0.006942 -600327.000000 0 0 1
25.823291 24.684998 -16.323303 39.276478 0.762865 1.999399 0.029760 0.009702 -310502.000000 0 0 1
26.340791 23.630498 -17.089603 39.297484 0.731214 2.020699 0.027374 0.002471 120487.000000 0 0 1
26.503591 24.083898 -18.484203 40.300623 0.737603 2.047281 0.023332 0.006337 -545968.000000 0 0 1
26.937191 22.957898 -19.539503 40.428573 0.705813 2.075227 0.022059 0.002516 -118543.000000 0 0 1
28.308291 22.658598 -19.589803 41.213248 0.674999 2.066133 0.011313 0.007004 -341969.000000 0 0 1
28.653991 21.933998 -20.799703 41.650680 0.653334 2.093685 0.021372 -0.005098 -963775.000000 0 0 1
30.131691 22.031598 -21.065903 42.861199 0.631345 2.084598 0.026372 -0.005018 -884784.000000 0 0 1
30.509091 23.311698 -21.623003 44.065794 0.652458 2.083687 0.014152 0.009823 -535888.000000 0 0 1
31.882191 23.382098 -21.865803 45.180858 0.632786 2.075973 0.017401 0.003913 -297667.000000 0 0 1
32.218091 24.784598 -22.411403 46.417159 0.655724 2.074675 0.029823 0.009468 -21765.000000 0 0 1
32.536791 25.056598 -23.772303 47.451009 0.656242 2.095534 0.016887 0.004313 858139.000000 0 0 1
31.402891 24.875298 -24.658503 47.042149 0.669926 2.122547 0.010641 -0.002750 630245.000000 0 0 1
31.603291 25.448398 -26.064593 48.226051 0.677931 2.141788 0.022483 -0.009516 -518555.000000 0 0 1
31.475291 26.837298 -26.190763 48.958049 0.706029 2.135261 0.027708 -0.003307 -263975.000000 0 0 1
30.169991 27.347798 -26.433103 48.547290 0.736371 2.146567 0.035396 0.003363 222463.000000 0 0 1
29.669291 27.145498 -27.892103 48.939905 0.741006 2.177212 0.034288 -0.001865 -399831.000000 0 0 1
29.075991 25.916798 -28.099093 48.027624 0.728014 2.195752 0.031267 -0.008434 -256284.000000 0 0 1
28.801291 25.659698 -29.439253 48.524263 0.727777 2.222688 0.036252 -0.012628 -459627.000000 0 0 1
28.035791 24.366798 -29.656963 47.531904 0.715497 2.244568 0.036613 -0.015922 -458929.000000 0 0 1
26.696591 24.374398 -29.273573 46.516248 0.739960 2.251473 0.033337 -0.014239 -550506.000000 0 0 1
26.015091 23.150098 -29.381643 45.563066 0.727191 2.271632 0.034695 -0.015878 -744226.000000 0 0 1
24.659491 23.146098 -28.742463 44.384249 0.753751 2.275204 0.029612 -0.006826 -880412.000000 0 0 1
24.794791 23.367098 -27.363243 43.698398 0.755763 2.247446 0.031854 -0.002615 548893.000000 0 0 1
23.541591 23.171298 -26.716703 42.484089 0.777471 2.250887 0.033579 -0.007689 186791.000000 0 0 1
23.751291 23.358798 -25.218123 41.781707 0.777067 2.218766 0.034311 -0.001783 -146600.000000 0 0 1
24.393491 22.306698 -24.571503 41.187255 0.740743 2.210030 0.028276 -0.005181 153334.000000 0 0 1
24.651391 22.525998 -23.175903 40.647683 0.740378 2.177504 0.036598 -0.004323 -121228.000000 0 0 1
25.172791 21.240198 -22.505603 39.891322 0.700870 2.170227 0.055567 -0.006291 67692.900000 0 0 1
26.456891 20.811498 -22.900203 40.712465 0.666528 2.168186 0.029163 -0.007542 40381.300000 0 0 1
26.434691 19.502598 -22.447903 39.787593 0.635625 2.170252 0.060277 -0.015651 27444.200000 0 0 1
27.644091 18.681998 -22.931103 40.485162 0.594302 2.172937 0.049822 -0.017402 -49061.600000 0 0 1
28.818991 18.804098 -22.172003 40.935633 0.578124 2.143172 0.041887 -0.021945 -204037.000000 0 0 1
29.828091 17.912798 -22.654803 41.518953 0.540812 2.147960 0.022476 -0.019791 475757.000000 0 0 1
31.161291 18.152998 -21.897403 42.190682 0.527490 2.116489 0.029368 -0.021356 -219986.000000 0 0 1
31.904891 19.273698 -22.303403 43.437763 0.543428 2.110004 0.019448 -0.019576 -236530.000000 0 0 1
33.194491 19.163198 -21.737303 44.063735 0.523561 2.086693 0.015154 -0.016180 -147766.000000 0 0 1
33.425891 20.138398 -20.551003 44.104297 0.542240 2.055520 0.020684 -0.021977 -398478.000000 0 0 1
32.683791 19.923298 -19.372703 42.900695 0.547432 2.039321 0.028358 -0.021937 -22051.900000 0 0 1
33.152391 20.746498 -18.347303 43.198631 0.559169 2.009448 0.025169 -0.014405 -205123.000000 0 0 1
32.303091 20.683898 -17.074103 41.986168 0.569531 1.989592 0.030669 -0.019949 -168765.000000 0 0 1
32.591991 19.540898 -16.335003 41.363231 0.540097 1.976773 0.029519 -0.027323 244301.000000 0 0 1
32.145591 19.653598 -14.990203 40.550082 0.548755 1.949452 0.035798 -0.020702 -235062.000000 0 0 1
32.640691 18.535798 -14.077003 40.089307 0.516462 1.929586 0.025342 -0.009555 -817664.000000 0 0 1
34.041091 18.441498 -14.074503 41.194373 0.496481 1.919480 0.027455 -0.011336 -289765.000000 0 0 1
34.613791 17.423598 -13.274903 40.962414 0.466341 1.900830 0.021586 0.000610 132161.000000 0 0 1
34.570291 17.714798 -11.792303 40.595289 0.473541 1.865529 0.030773 -0.006024 -403720.000000 0 0 1
35.312691 18.873998 -11.383403 41.626864 0.490851 1.847788 0.022220 -0.007471 298623.000000 0 0 1
35.052991 19.194898 -10.006903 41.198233 0.500996 1.816147 0.016209 -0.006442 -134766.000000 0 0 1
33.842591 20.123998 -9.746903 40.562278 0.536466 1.813466 0.026008 -0.007850 326915.000000 0 0 1
32.627891 19.580498 -10.235203 39.404753 0.540504 1.833555 0.035933 -0.013757 -316814.000000 0 0 1
31.558391 20.484798 -10.092703 38.954097 0.575748 1.832879 0.022802 -0.003466 -246517.000000 0 0 1
30.192391 19.876698 -10.427703 37.621810 0.582212 1.851646 0.022348 -0.002322 -261728.000000 0 0 1
29.982991 19.495398 -11.785103 37.655530 0.576527 1.889116 0.028162 -0.008384 -325306.000000 0 0 1
28.862891 18.653798 -11.870003 36.358323 0.573763 1.903366 0.024143 -0.007621 -376144.000000 0 0 1
28.634091 18.274198 -13.323103 36.487841 0.568033 1.944578 0.035198 -0.013385 297397.000000 0 0 1
29.716491 17.501998 -13.892403 37.180487 0.532267 1.953735 0.031383 -0.008825 514163.000000 0 0 1
29.147791 16.494098 -14.689803 36.571017 0.514952 1.984146 0.027075 -0.014806 -348472.000000 0 0 1
30.168791 15.817698 -15.573003 37.454959 0.482903 1.999596 0.027350 -0.022215 -561265.000000 0 0 1
31.088491 15.110598 -14.795803 37.599737 0.452426 1.975241 0.023300 -0.016716 70450.200000 0 0 1
32.171691 14.614298 -15.575003 38.615750 0.426391 1.985953 0.021772 -0.011703 244457.000000 0 0 1
33.114491 13.687498 -14.760003 38.752739 0.391952 1.961540 0.020772 -0.015988 -597796.000000 0 0 1
33.941491 14.382098 -13.892803 39.393902 0.400796 1.931213 0.025734 -0.003189 -191931.000000 0 0 1
34.264691 13.514098 -12.832003 39.004618 0.375672 1.906027 0.017858 0.000864 -133407.000000 0 0 1
35.167391 14.118098 -11.724403 39.667716 0.381759 1.870844 0.025852 0.007741 682381.000000 0 0 1
-34.983067 14.350998 -12.234603 39.742315 -0.389292 1.883727 0.008167 0.003706 337064.000000 0 0 1
-34.099167 14.418398 -11.130103 38.659055 -0.400037 1.862834 0.000062 -0.001360 -788009.000000 0 0 1
-32.680067 14.955298 -11.506203 37.736460 -0.429179 1.880640 0.019906 -0.006834 1227300.000000 0 0 1
-31.738667 14.007298 -12.132203 36.752384 -0.415623 1.907213 0.008925 -0.003688 874568.000000 0 0 1
-31.437367 12.989998 -11.198303 35.811312 -0.391836 1.888834 0.026250 0.004955 -1305310.000000 0 0 1
-30.355967 11.962798 -11.606403 34.630938 -0.375396 1.912556 0.038164 0.000765 41751.100000 0 0 1
-30.680967 11.249498 -12.794103 35.093618 -0.351439 1.943968 0.022446 0.004347 831281.000000 0 0 1
-29.760667 10.132398 -12.935603 33.995479 -0.328153 1.961144 0.047112 -0.006615 254968.000000 0 0 1
-29.747167 9.409098 -14.303103 34.322060 -0.306345 2.000644 0.045997 -0.007421 -952595.000000 0 0 1
-30.882467 8.814398 -14.829103 35.374039 -0.278025 2.003370 0.027887 -0.003811 -236882.000000 0 0 1
-30.515367 8.064498 -15.981903 35.378595 -0.258370 2.039510 0.032251 -0.015207 -252043.000000 0 0 1
-31.683867 7.488698 -16.780503 36.626948 -0.232097 2.046705 0.028135 -0.019327 -228341.000000 0 0 1
-32.513367 6.632798 -16.055503 36.863155 -0.201241 2.021438 0.038782 -0.013152 -294597.000000 0 0 1
-33.592367 5.992498 -16.676203 37.979638 -0.176532 2.025374 0.030436 -0.013312 -532220.000000 0 0 1
-34.441967 5.362998 -15.573803 38.177928 -0.154471 1.990979 0.032496 -0.005842 -678784.000000 0 0 1
-35.362067 4.501298 -16.178703 39.147003 -0.126611 1.996850 0.040233 -0.006918 191737.000000 0 0 1
35.028191 4.272798 -15.256103 38.444501 0.121382 1.978862 0.036705 -0.005892 634526.000000 0 0 1
34.103291 3.077798 -15.583403 37.621134 0.090005 1.997881 0.040160 -0.011471 -175311.000000 0 0 1
34.742491 1.854098 -15.551103 38.109253 0.053316 1.991131 0.040529 -0.009062 18465.200000 0 0 1
33.786991 0.800198 -15.566703 37.209183 0.023679 2.002431 0.039967 -0.004731 190201.000000 0 0 1
33.273491 0.502698 -14.072503 36.130503 0.015107 1.970875 0.037551 -0.007732 182150.000000 0 0 1
34.131191 -0.163302 -13.117403 36.565436 -0.004784 1.937712 0.036108 -0.004130 -7990.420000 0 0 1
33.708591 0.019198 -11.756503 35.699928 0.000570 1.906374 0.044571 -0.000204 -73046.800000 0 0 1
33.978191 1.416898 -11.082003 35.767805 0.041676 1.885812 0.040406 -0.007824 29958.900000 0 0 1
32.919091 2.266698 -11.453203 34.928217 0.068748 1.904883 0.048358 0.000443 388246.000000 0 0 1
33.177991 3.610098 -11.019703 35.146063 0.108384 1.889715 0.053254 -0.005428 -521323.000000 0 0 1
32.180091 4.681098 -11.488303 34.488434 0.144452 1.910392 0.058069 -0.008723 -305148.000000 0 0 1
32.226491 4.968798 -12.838603 35.043764 0.152979 1.945889 0.053888 -0.009273 437331.000000 0 0 1
31.174491 5.802498 -13.277103 34.377309 0.184024 1.967323 0.060573 -0.016047 -121722.000000 0 0 1
31.456891 6.419098 -14.681103 35.302629 0.201296 1.999689 0.044560 -0.012600 -229011.000000 0 0 1
31.119491 5.625798 -15.804003 35.353060 0.178849 2.034243 0.043449 -0.008886 296165.000000 0 0 1
31.551291 6.207698 -17.016103 36.380864 0.194268 2.057507 0.046267 -0.010993 22450.700000 0 0 1
30.482491 7.203798 -17.627203 35.941553 0.232068 2.083392 0.046486 -0.010641 1140810.000000 0 0 1
29.219791 6.766398 -18.142203 35.053101 0.227558 2.114797 0.045906 -0.012206 1454280.000000 0 0 1
28.307491 6.327998 -17.092503 33.667659 0.219929 2.103290 0.034474 -0.008025 -293740.000000 0 0 1
26.835391 6.255198 -17.536103 32.661608 0.229006 2.137558 0.009999 0.001610 -186644.000000 0 0 1
26.673391 5.295998 -18.563303 32.925880 0.196001 2.169765 0.021151 -0.006232 -686045.000000 0 0 1
25.481491 5.445498 -19.232803 32.386117 0.210537 2.206644 0.006305 -0.007237 -889498.000000 0 0 1
25.153291 4.302798 -20.166903 32.525468 0.169423 2.239583 0.016314 0.019992 -122871.000000 0 0 1
24.899391 3.096998 -19.512503 31.785356 0.123745 2.231767 0.007907 0.006062 187626.000000 0 0 1
24.448091 2.106298 -20.414703 31.920303 0.085942 2.264712 0.007447 0.009349 -419029.000000 0 0 1
23.623791 1.031898 -19.668503 30.757086 0.043653 2.264616 0.001928 0.009199 -282429.000000 0 0 1
22.355091 1.536298 -19.360403 29.613097 0.068615 2.283363 0.010031 0.007802 -581789.000000 0 0 1
21.534491 0.692198 -18.647703 28.494741 0.032133 2.284220 0.013289 0.001628 -54773.600000 0 0 1
20.104291 1.247998 -18.414003 27.291309 0.061997 2.311382 0.022473 -0.003145 -623929.000000 0 0 1
19.417091 1.399998 -19.644803 27.656856 0.071977 2.360728 0.021378 -0.003726 1311810.000000 0 0 1
18.176891 2.160298 -19.648103 26.853570 0.118294 2.391573 0.029537 -0.009941 1707080.000000 0 0 1
16.986791 1.732498 -18.737003 25.350106 0.101639 2.402573 0.051493 -0.016530 -565640.000000 0 0 1
17.224591 1.827998 -17.340703 24.509755 0.105731 2.356754 0.049062 -0.020578 513939.000000 0 1 0
16.002391 1.784698 -16.611303 23.134326 0.111068 2.371774 0.035852 -0.015736 781596.000000 0 1 0
15.070191 3.033298 -16.468103 22.527982 0.198624 2.390592 0.045093 -0.018821 112692.000000 0 1 0
14.434791 3.414998 -17.670803 23.071252 0.232310 2.443272 0.052916 -0.011728 -96457.300000 0 1 0
13.358991 4.229798 -17.349703 22.301705 0.306639 2.462199 0.051005 -0.023367 -845705.000000 0 1 0
-19.535309 -21.825602 -17.510403 34.126227 0.840715 2.109597 0.057093 -0.016010 -107695.000000 0 0 1
-19.496309 -22.428202 -18.759703 35.143374 0.855217 2.133890 0.063147 -0.023105 446294.000000 0 0 1
-20.469109 -21.897502 -19.651503 35.842246 0.819100 2.151100 0.066582 -0.019992 -68417.400000 0 0 1
-20.388009 -22.562202 -21.064403 36.992336 0.835976 2.176604 0.053155 -0.015071 -54950.100000 0 0 1
-20.371509 -23.931102 -20.953203 37.772116 0.865573 2.158831 0.042864 -0.009855 508383.000000 0 0 1
-19.737409 -24.541702 -22.096603 38.472332 0.893476 2.182607 0.038348 -0.006871 -81058.800000 0 0 1
-19.546809 -26.053552 -21.803503 39.195128 0.927132 2.160700 0.042273 -0.003605 -183817.000000 0 0 1
-20.708409 -26.839482 -21.919903 40.369272 0.913636 2.144784 0.042499 -0.002045 56231.500000 0 0 1
-20.395709 -28.215892 -21.803703 41.079471 0.944902 2.130304 0.058367 -0.003747 624896.000000 0 0 1
-21.754109 -29.008912 -21.761003 42.288290 0.927352 2.111322 0.052399 0.005995 874934.000000 0 0 1
-22.451509 -29.076472 -23.001803 43.342755 0.913267 2.130217 0.035979 0.015999 213563.000000 0 0 1
-21.802909 -29.896802 -23.970903 44.088431 0.940693 2.145636 0.032484 0.008899 -284773.000000 0 0 1
-22.099009 -29.523582 -25.461033 44.813751 0.928243 2.175055 0.020734 0.011933 715561.000000 0 0 1
-23.461209 -29.773642 -25.849913 45.881544 0.903424 2.169298 0.020083 0.014557 1084090.000000 0 0 1
-23.924909 -28.904482 -26.905983 46.171444 0.879378 2.192894 0.021275 0.012241 -39075.700000 0 0 1
-23.398909 -29.215552 -28.333833 46.945324 0.895503 2.218742 0.028169 -0.002227 -423988.000000 0 0 1
-23.977809 -30.346512 -28.960903 48.317492 0.902100 2.213532 0.016506 0.005485 115067.000000 0 0 1
-23.476809 -30.519872 -30.272133 48.979844 0.915101 2.237060 0.032718 0.001805 -174953.000000 0 0 1
-24.056609 -31.775472 -30.917063 50.440716 0.922779 2.230571 0.018978 0.006841 -65730.500000 0 0 1
-23.509409 -33.037042 -30.578933 50.785919 0.952322 2.216943 0.015703 0.007249 -326455.000000 0 0 1
-24.299909 -34.044140 -31.109093 52.127389 0.950884 2.210291 0.019138 0.008002 -262755.000000 0 0 1
-23.714909 33.296708 -30.917143 51.253658 -0.951909 2.218326 0.026981 0.008365 288614.000000 0 0 1
-22.694209 32.982687 -31.842773 51.155127 -0.968126 2.242697 0.021609 0.004047 -37482.400000 0 0 1
-22.219809 31.679202 -31.765203 50.063159 -0.959131 2.258161 0.044119 0.001660 127512.000000 0 0 1
-21.089709 31.272312 -32.760203 49.959626 -0.977466 2.285950 0.046410 0.006938 286247.000000 0 0 1
-21.462809 31.102642 -34.132357 50.921943 -0.966770 2.305393 0.042630 0.011546 183227.000000 0 0 1
-20.799109 29.955792 34.105007 49.930992 -0.963888 0.818876 0.046856 0.005812 34968.400000 0 0 1
-21.036409 29.598962 32.638308 48.825078 -0.952916 0.838641 0.038679 0.007062 66238.700000 0 0 1
-20.441709 30.625242 31.846428 48.682275 -0.982231 0.857713 0.039172 0.010681 323495.000000 0 0 1
-20.550509 30.400662 30.491518 47.710128 -0.976368 0.877469 0.038322 0.005717 -75727.500000 0 0 1
-20.091809 31.600642 29.637358 47.756197 -1.004466 0.901292 0.036422 -0.003504 315080.000000 0 0 1
-20.938809 32.714482 29.834098 48.976979 -1.001450 0.915814 0.020887 -0.004515 620649.000000 0 0 1
-20.202509 33.787171 29.285488 49.064795 -1.031897 0.931197 0.023426 -0.013594 471307.000000 0 0 1
-21.115509 -33.749862 29.285658 49.422339 1.011732 0.936564 0.022190 -0.018544 20274.700000 0 0 1
-21.582509 -33.418012 30.573838 50.172978 0.997355 0.915532 0.016589 -0.005941 319195.000000 0 0 1
-22.602109 -32.392412 30.583658 49.954817 0.961576 0.911923 0.028119 -0.010110 190253.000000 0 0 1
-22.206409 -30.943812 30.211048 48.614314 0.948332 0.900213 0.037473 -0.014038 -862660.000000 0 0 1
-21.921409 -30.819062 28.861298 47.574544 0.952531 0.918951 0.026035 -0.008841 -240465.000000 0 0 1
-21.839409 -29.487702 28.474268 46.446402 0.933321 0.910873 0.033205 -0.013450 -963215.000000 0 0 1
-23.067909 -28.928722 27.764098 46.258453 0.897640 0.927051 0.033470 -0.001891 -788825.000000 0 0 1
-24.189509 -28.753702 28.593778 47.217707 0.871395 0.920310 0.037847 0.000346 47897.700000 0 0 1
-25.062349 -29.861352 28.750598 48.439844 0.872553 0.935356 0.032904 -0.007426 -1308520.000000 0 0 1
-26.131169 -29.986132 27.666318 48.450296 0.853985 0.963043 0.030836 0.012058 -1084830.000000 0 0 1
-25.680949 -30.164052 26.322538 47.563191 0.865504 0.984329 0.033017 0.004573 -498094.000000 0 0 1
-26.706039 -30.295832 25.384908 47.701609 0.848292 1.009646 0.033105 0.006797 -395732.000000 0 0 1
-26.179039 -30.455702 23.934398 46.751976 0.860768 1.033350 0.035188 -0.001014 -438031.000000 0 0 1
-25.689369 -29.269862 23.344868 45.405411 0.850454 1.030788 0.022220 -0.000811 346968.000000 0 0 1
-25.060909 -29.353852 22.094568 44.473224 0.864128 1.050882 0.035042 -0.006492 853267.000000 0 0 1
-23.747109 -30.213302 21.912868 44.237343 0.904662 1.052561 0.038741 -0.017404 111255.000000 0 0 1
-24.034409 -31.612952 21.815968 45.309690 0.920754 1.068447 0.043579 -0.027017 64895.900000 0 0 1
-22.916009 -32.422222 21.561168 45.179950 0.955522 1.073298 0.042067 -0.012875 -257638.000000 0 0 1
-22.137709 -33.001742 22.787068 45.808772 0.979935 1.050152 0.044674 -0.016306 -424250.000000 0 0 1
-21.281109 -32.059832 23.328368 44.999235 0.984785 1.025798 0.063230 -0.027504 -464900.000000 0 0 1
-20.598909 -32.691912 24.342418 45.668692 1.008544 1.008628 0.050169 -0.026890 -482704.000000 0 0 1
-19.727609 -31.820392 25.298998 45.185785 1.015824 0.976545 0.041756 -0.021400 -724973.000000 0 0 1
-18.561909 -31.272342 24.687738 43.954388 1.035128 0.974397 0.041090 -0.020610 570176.000000 0 0 1
-17.730409 -30.609172 25.628798 43.682080 1.045773 0.943804 0.048062 -0.015625 -94529.900000 0 0 1
-17.050309 -31.440052 26.727968 44.649459 1.073875 0.929022 0.030589 -0.020348 -960833.000000 0 0 1
-17.894809 -32.132092 27.659748 46.019096 1.062660 0.925983 0.022880 -0.016148 191663.000000 0 0 1
-17.074009 -32.600672 28.695208 46.666268 1.088344 0.908534 0.029587 -0.012204 -62937.300000 0 0 1
-17.475309 -32.164312 30.114158 47.400336 1.073101 0.882380 0.041118 -0.009415 -202897.000000 0 0 1
-17.293809 -30.802412 30.169468 46.454937 1.059210 0.863955 0.042311 -0.010000 368159.000000 0 0 1
-17.703509 -30.279472 31.465168 47.120244 1.041725 0.839596 0.046876 -0.001958 -138314.000000 0 0 1
-17.537109 -28.753632 31.657948 46.222799 1.023122 0.816331 0.041789 -0.004025 -464896.000000 0 0 1
-18.431909 -27.838442 31.122858 45.643689 0.985960 0.820486 0.044229 -0.006443 -942755.000000 0 0 1
-18.630809 -27.840772 29.713428 44.778381 0.981048 0.845220 0.048182 -0.005944 -124170.000000 0 0 1
-17.406109 -27.681652 28.733878 43.530245 1.009472 0.849858 0.045233 -0.000625 691125.000000 0 0 1
-16.741309 -26.394172 28.775368 42.484650 1.005551 0.826693 0.041196 0.000294 136620.000000 0 0 1
-15.702309 -26.359402 27.844148 41.432803 1.033544 0.833848 0.041216 -0.004807 -238610.000000 0 0 1
-15.431109 -24.942102 27.346718 40.100755 1.016757 0.820371 0.043742 -0.001418 -416352.000000 0 0 1
-16.457609 -24.633702 26.460748 39.722076 0.981807 0.841765 0.046251 -0.008500 -65372.600000 0 0 1
-16.182809 -23.415202 25.747278 38.380689 0.966052 0.835456 0.046708 -0.004151 -343426.000000 0 0 1
-16.844109 -22.205402 26.268788 38.299518 0.921840 0.814987 0.045151 -0.000519 -670091.000000 0 0 1
-16.637009 -21.189002 25.331588 36.979091 0.905163 0.816159 0.045957 -0.002161 186658.000000 0 0 1
-17.220109 -19.970702 25.751188 36.857628 0.859223 0.797264 0.037440 -0.002744 -58486.300000 0 0 1
-16.844609 -18.826102 24.740868 35.359207 0.840891 0.795818 0.040444 -0.007352 -395830.000000 0 0 1
-15.500609 -18.457002 24.741928 34.541175 0.872240 0.772307 0.041607 -0.012398 -654621.000000 0 0 1
-15.213909 -17.458002 23.747878 33.169362 0.853976 0.772801 0.035908 -0.008427 258723.000000 0 0 1
-13.833709 -16.777102 23.918068 32.325170 0.881259 0.737844 0.050841 -0.008692 -656750.000000 0 0 1
-12.737709 -17.627502 23.790598 32.233067 0.945060 0.740575 0.033154 -0.006260 226170.000000 0 0 1
-11.470609 -16.954902 23.843068 31.425077 0.975992 0.709439 0.038706 -0.010061 476228.000000 0 0 1
-11.065009 -16.091802 22.631568 29.892614 0.968429 0.711940 0.034510 -0.004442 -939180.000000 0 0 1
-10.663709 -16.883002 21.547768 29.377827 1.007448 0.747383 0.056022 -0.001618 -495431.000000 0 0 1
-9.261209 -16.911902 21.512668 28.889051 1.069786 0.730763 0.056363 -0.007014 -721464.000000 0 0 1
-8.710909 -18.269602 21.045368 29.198729 1.125882 0.765894 0.054034 -0.008353 -284282.000000 0 0 1
-8.845409 -18.407202 19.678468 28.360332 1.122837 0.803943 0.043944 -0.007925 -155209.000000 0 0 1
-8.369409 -19.671502 19.315568 28.811563 1.168537 0.836035 0.032023 -0.009459 4048.270000 0 0 1
-8.274709 -19.635002 17.754968 27.735230 1.171956 0.876091 0.023988 -0.019690 473466.000000 0 0 1
-7.346709 -18.639202 17.251168 26.438547 1.195340 0.859917 0.044471 -0.008012 322909.000000 0 0 1
-7.345009 -18.524502 15.790468 25.425287 1.193309 0.900710 0.067941 -0.002613 41468.300000 0 0 1
-6.411409 -17.377302 15.348968 24.055511 1.217338 0.878814 0.046214 -0.005949 29430.700000 0 1 0
-6.689409 -16.076702 15.766068 23.489943 1.176494 0.834992 0.042819 -0.015946 91478.600000 0 1 0
-5.575009 -15.228702 15.497768 22.431560 1.219864 0.808075 0.037965 -0.004508 418760.000000 0 1 0
-5.530509 -14.056602 16.453368 22.335798 1.195953 0.742713 0.020033 -0.004000 -309830.000000 0 1 0
-5.253109 -14.263902 17.855668 23.449497 1.217930 0.705246 0.027935 0.004924 182687.000000 0 1 0
-6.202609 -15.053202 18.591768 24.712852 1.179949 0.719232 0.048531 -0.008534 -405388.000000 0 1 0
-7.363809 -14.189902 19.010768 24.839249 1.092106 0.699208 0.060378 -0.015364 -1227440.000000 0 1 0
-7.040109 -13.252802 19.960268 24.972228 1.082488 0.644669 0.048761 -0.021309 -724671.000000 0 1 0
-8.063009 -12.682802 20.716668 25.593864 1.004509 0.627601 0.061338 -0.008498 -404195.000000 0 0 1
-7.560209 -11.770602 21.838568 25.935051 0.999856 0.569727 0.050296 -0.006521 -380040.000000 0 0 1
-7.198309 -10.428302 21.455868 24.918254 0.966633 0.533465 0.033174 -0.000397 178965.000000 0 1 0
-6.918609 -9.563702 22.581468 25.480468 0.944522 0.481661 0.028027 -0.004788 270213.000000 0 0 1
-5.586709 -9.798402 23.357768 25.938491 1.052603 0.449864 0.027108 0.003517 150102.000000 0 0 1
-5.547709 -11.042602 23.997758 26.992749 1.105237 0.475542 0.027073 0.003115 193402.000000 0 0 1
-4.255909 -11.416502 24.498568 27.361087 1.213968 0.461513 0.017880 0.003774 92221.100000 0 0 1
-4.131409 -12.724002 25.333378 28.648714 1.256841 0.485854 0.017090 0.001689 -559507.000000 0 0 1
-2.874509 -13.107802 25.856858 29.131673 1.354916 0.478719 0.006858 -0.002222 175831.000000 0 0 1
-3.020809 -14.287602 26.634688 30.375441 1.362436 0.501527 0.003212 -0.003359 32653.800000 0 0 1
-2.818509 -15.525702 25.733558 30.186212 1.391214 0.550059 0.018768 -0.017920 -230544.000000 0 0 1
-1.472109 -15.826302 25.446908 30.003067 1.478047 0.558325 0.024695 -0.014896 -114651.000000 0 0 1
-1.375809 -17.019502 24.680598 30.011468 1.490135 0.605228 0.029062 -0.009000 757978.000000 0 0 1
0.017691 -17.785002 24.769528 30.493214 -1.569802 0.622718 0.032423 -0.013303 1295390.000000 0 0 1
0.465691 -18.353802 26.025448 31.849691 -1.545429 0.614376 0.042804 -0.014731 114874.000000 0 0 1
0.717791 -17.435902 27.029598 32.173359 -1.529652 0.573285 0.047794 -0.021257 -686147.000000 0 0 1
1.502291 -17.910102 28.263488 33.494080 -1.487113 0.566405 0.041316 -0.014530 -976769.000000 0 0 1
2.788091 -18.343102 27.893008 33.500190 -1.419954 0.586970 0.047572 -0.019991 124698.000000 0 0 1
3.642691 -18.551002 29.045048 34.655788 -1.376902 0.577004 0.057448 -0.024340 387458.000000 0 0 1
4.228991 -17.265902 29.648498 34.569194 -1.330592 0.540101 0.052552 -0.025082 -1261990.000000 0 0 1
3.305691 -16.332002 30.184118 34.478150 -1.371089 0.504417 0.051391 -0.031753 -363623.000000 0 0 1
3.919891 -15.210402 30.706218 34.490487 -1.318573 0.472835 0.049842 -0.031724 -596881.000000 0 0 1
2.975091 -14.204302 31.385928 34.578748 -1.364331 0.433109 0.045258 -0.034538 -87753.300000 0 0 1
2.253291 -14.876102 32.402898 35.725670 -1.420469 0.434710 0.053956 -0.039157 -210650.000000 0 0 1
1.363791 -14.021502 33.063443 35.939584 -1.473837 0.402785 0.048378 -0.032989 -268898.000000 0 0 1
0.719391 -14.740502 34.273102 37.315485 -1.522031 0.406606 0.029670 -0.024365 -719567.000000 0 0 1
1.575591 -14.869902 -33.453163 36.643015 -1.465232 2.721247 0.040095 -0.016517 -788936.000000 0 0 1
0.895291 -15.459702 -32.345853 35.861653 -1.512950 2.695088 0.012618 -0.019110 -56625.000000 0 0 1
1.721391 -15.481602 -31.069993 34.756117 -1.460062 2.676864 0.022369 -0.012582 -171863.000000 0 0 1
1.197591 -16.358402 -30.106003 34.284150 -1.497717 2.642740 0.016781 -0.014360 -133606.000000 0 0 1
1.850491 -16.139202 -28.878483 33.134045 -1.456637 2.629182 0.018839 -0.013914 -122653.000000 0 0 1
1.364491 -17.159902 -27.857203 32.746722 -1.491447 2.588087 0.034714 -0.016425 -166665.000000 0 0 1
1.787791 -18.474302 -28.188473 33.750349 -1.474325 2.559302 0.041657 -0.016554 150183.000000 0 0 1
1.310291 -19.396202 -27.252683 33.475935 -1.503345 2.521970 0.055439 -0.028852 -416007.000000 0 0 1
2.022291 -20.794202 -27.441683 34.489628 -1.473849 2.490877 0.051112 -0.024706 694771.000000 0 0 1
3.408591 -20.929402 -27.135753 34.438459 -1.409352 2.478267 0.031104 -0.023817 442420.000000 0 0 1
3.662591 -21.014402 -25.747073 33.435481 -1.398240 2.449720 0.033099 -0.018320 -932665.000000 0 0 1
5.112891 -21.345702 -25.356283 33.536871 -1.335698 2.428087 0.039985 -0.023867 -48171.800000 0 0 1
5.535291 -22.717802 -25.554623 34.637793 -1.331799 2.400553 0.046318 -0.021471 165670.000000 0 0 1
5.605391 -23.155902 -26.915003 35.944869 -1.333293 2.417024 0.025483 -0.018389 -845787.000000 0 0 1
5.064591 -24.617102 -27.094273 36.956074 -1.367893 2.393736 0.029582 -0.017446 -185165.000000 0 0 1
5.737391 -25.620212 -26.360803 37.204903 -1.350491 2.358210 0.033981 -0.008801 -220898.000000 0 0 1
5.358291 -26.937482 -26.716943 38.316240 -1.374443 2.342385 0.032606 -0.005075 -85446.900000 0 0 1
5.636891 -28.082232 -25.696663 38.479927 -1.372701 2.302037 0.035048 -0.004025 746854.000000 0 0 1
7.026091 -28.220402 -25.368203 38.591485 -1.326785 2.288096 0.035969 -0.007727 499071.000000 0 0 1
7.225991 -29.532832 -24.853403 39.269514 -1.330834 2.256081 0.034153 -0.009669 627502.000000 0 0 1
8.651791 -30.064832 -25.220453 40.184809 -1.290596 2.249278 0.035875 -0.012338 525438.000000 0 0 1
8.900291 -30.276402 -26.582683 41.261540 -1.284883 2.270837 0.037976 -0.018141 -312339.000000 0 0 1
10.242691 -30.582802 -26.861613 41.973405 -1.247621 2.265252 0.051050 -0.008953 -72692.900000 0 0 1
10.521091 -30.520372 -28.407823 43.002219 -1.238830 2.292431 0.052516 -0.017811 79078.200000 0 0 1
10.336791 -31.697122 -29.172903 44.301411 -1.255560 2.289633 0.063171 -0.024874 144013.000000 0 0 1
10.254991 -31.400872 -30.527783 44.979163 -1.255133 2.316800 0.067897 -0.005225 55472.200000 0 0 1
-34.057409 -4.671502 -5.759503 34.855443 0.136315 1.736797 0.082552 -0.016149 -50630.300000 0 0 1
-33.805379 -3.900202 -4.598803 34.338960 0.114864 1.705124 0.074281 -0.016706 -87593.200000 0 0 1
-33.053069 -2.741802 -4.760103 33.506438 0.082762 1.713344 0.076144 -0.017225 -885794.000000 0 0 1
-33.644089 -1.496502 -5.390203 34.105990 0.044451 1.729504 0.083293 -0.008308 -509788.000000 0 0 1
-34.534105 -0.883902 -4.482803 34.835057 0.025589 1.699841 0.061878 -0.008006 26017.900000 0 0 1
-35.266129 0.138898 -5.062603 35.627926 -0.003939 1.713375 0.055994 -0.012273 31868.900000 0 0 1
35.445236 1.044098 -4.029503 35.688819 0.029448 1.683944 0.069004 -0.008227 365573.000000 0 0 1
-35.250077 2.005498 -3.365203 35.467091 -0.056832 1.665822 0.061350 -0.007550 640984.000000 0 0 1
35.284369 2.837898 -2.633603 35.496144 0.080257 1.645059 0.064332 -0.015063 333858.000000 0 0 1
-35.563557 4.137898 -2.026403 35.860774 -0.115831 1.627334 0.047690 -0.019605 22520.300000 0 0 1
-35.237212 5.187898 -2.960603 35.739901 -0.146178 1.653729 0.062039 -0.013640 601143.000000 0 0 1
-34.061956 4.933298 -3.738803 34.619834 -0.143833 1.679003 0.043309 -0.010002 -241693.000000 0 0 1
-32.943829 5.935898 -3.425203 33.649112 -0.178270 1.672765 0.033954 -0.023681 -702493.000000 0 0 1
-32.492349 5.840698 -2.096303 33.079616 -0.177857 1.634210 0.034878 -0.026494 238586.000000 0 0 1
-32.496999 7.091398 -1.447603 33.293219 -0.214849 1.614290 0.039610 -0.041267 -207787.000000 0 0 1
-31.931339 7.044798 0.000497 32.699229 -0.217145 1.570781 0.050945 -0.037781 -362617.000000 0 0 1
-30.521959 7.077598 0.008197 31.331812 -0.227858 1.570535 0.068665 -0.034637 122974.000000 0 0 1
-29.972189 7.634398 1.211597 30.952934 -0.249412 1.531643 0.062866 -0.039838 28454.000000 0 0 1
-29.891749 9.175398 1.205097 31.291482 -0.297825 1.532275 0.061849 -0.036449 1072040.000000 0 0 1
-31.179509 9.869098 1.344397 32.731762 -0.306548 1.529712 0.056016 -0.036492 1529670.000000 0 0 1
-30.995469 11.280298 1.524497 33.019514 -0.349034 1.524610 0.054336 -0.025962 -290862.000000 0 0 1
-32.333579 12.010698 1.412597 34.521191 -0.355665 1.529865 0.073679 -0.038044 -1045580.000000 0 0 1
-32.814609 11.886498 0.105097 34.901267 -0.347530 1.567785 0.064058 -0.034224 -1086770.000000 0 0 1
-34.019439 12.498998 -0.074103 36.242967 -0.352098 1.572841 0.076874 -0.030179 -474566.000000 0 0 1
-35.293783 11.649798 0.301397 37.167994 -0.318820 1.562687 0.087265 -0.045314 38154.400000 0 0 1
-35.703972 10.813298 -0.757703 37.313203 -0.294078 1.591104 0.075638 -0.043709 -498062.000000 0 0 1
34.579909 10.143098 -0.513403 36.040479 0.285320 1.585042 0.098045 -0.047695 -421863.000000 0 0 1
34.112689 9.161498 -1.591903 35.357358 0.262375 1.615835 0.080630 -0.053126 -4789.720000 0 0 1
33.745569 9.771498 -2.815103 35.244438 0.281855 1.650755 0.080751 -0.051167 173722.000000 0 0 1
33.592319 8.770098 -3.832603 34.929176 0.255374 1.680743 0.062619 -0.048918 -382173.000000 0 0 1
32.791439 9.248598 -5.019603 34.438517 0.274902 1.717073 0.052078 -0.043008 -486101.000000 0 0 1
31.441649 9.496998 -4.712103 33.180931 0.293338 1.713290 0.081717 -0.038203 -154097.000000 0 0 1
30.859959 10.201098 -5.789203 33.013851 0.319253 1.747064 0.067699 -0.022079 715414.000000 0 0 1
29.325809 10.564498 -5.844003 31.713784 0.345773 1.756129 0.077582 -0.020218 1055250.000000 0 0 1
28.492929 9.412598 -5.921203 30.586021 0.319062 1.765618 0.068302 -0.013696 -308143.000000 0 0 1
27.202159 9.757898 -6.293803 29.576781 0.344420 1.785231 0.044479 -0.011243 -1001150.000000 0 0 1
26.251349 8.583898 -6.363603 28.342761 0.316030 1.797250 0.048249 -0.001490 -533896.000000 0 0 1
26.623759 7.792698 -7.435403 28.719957 0.284744 1.832673 0.052179 -0.002659 -209260.000000 0 0 1
25.620849 6.881698 -7.708603 27.626224 0.262404 1.853582 0.052796 -0.006444 -662366.000000 0 0 1
25.792649 5.869798 -8.890103 27.906078 0.223765 1.895019 0.059321 -0.016000 -85094.400000 0 0 1
26.911429 5.016298 -8.719003 28.729937 0.184285 1.879141 0.066957 -0.015510 597059.000000 0 0 1
26.857419 3.903598 -9.581703 28.781384 0.144335 1.910188 0.055078 -0.014858 -524678.000000 0 0 1
27.903349 2.830198 -9.250103 29.532547 0.101083 1.889375 0.067325 -0.014265 -876926.000000 0 0 1
29.210949 3.298998 -9.470103 30.884394 0.112461 1.882447 0.089211 -0.004930 13356.600000 0 0 1
30.173729 2.994298 -8.503603 31.491761 0.098911 1.844217 0.072904 -0.013814 -151879.000000 0 0 1
30.556719 1.529298 -8.192903 31.672946 0.050006 1.832443 0.069193 -0.015445 -255882.000000 0 0 1
29.607579 0.984298 -7.227403 30.492834 0.033233 1.810093 0.079010 -0.016579 984641.000000 0 0 1
29.819189 -0.385802 -6.931703 30.616685 -0.012937 1.799179 0.080414 -0.014087 -508930.000000 0 0 1
29.540359 -1.436702 -8.050403 30.651361 -0.048597 1.836558 0.068746 -0.012920 -329782.000000 0 0 1
30.433339 -1.527502 -9.154303 31.817018 -0.050150 1.862639 0.064262 -0.012631 138789.000000 0 0 1
30.215799 -2.683402 -9.854903 31.895364 -0.088576 1.884913 0.050352 -0.011062 -305157.000000 0 0 1
31.079409 -3.001502 -11.124103 33.146408 -0.096277 1.913044 0.049629 -0.004258 -218092.000000 0 0 1
32.407519 -3.198702 -10.680703 34.271802 -0.098384 1.887722 0.056757 -0.002987 9163.960000 0 0 1
33.140749 -3.904102 -11.663103 35.349388 -0.117263 1.907034 0.043260 -0.005058 55974.400000 0 0 1
34.554869 -4.309502 -11.180303 36.573350 -0.124074 1.881465 0.047426 -0.003749 63700.000000 0 0 1
34.507149 -5.339402 -10.205203 36.378547 -0.153516 1.855141 0.047968 -0.011970 496041.000000 0 0 1
-35.618443 -5.716302 -9.967703 37.425989 0.159130 1.840381 0.048103 -0.008007 163238.000000 0 0 1
-35.336987 -6.989502 -9.145603 37.164470 0.195275 1.819435 0.051804 -0.013891 -355621.000000 0 0 1
-35.723718 -6.825902 -7.815603 37.200277 0.188799 1.782469 0.054886 -0.013784 360682.000000 0 0 1
35.353919 -8.021202 -7.277603 36.975705 -0.223106 1.768911 0.053937 -0.014117 -361132.000000 0 0 1
35.032149 -7.999102 -5.757403 36.392098 -0.224487 1.729669 0.068882 -0.016284 221199.000000 0 0 1
-35.254973 -7.944002 -4.944203 36.475546 0.221628 1.706763 0.055638 -0.011747 965078.000000 0 0 1
-35.342558 -8.731402 -3.815503 36.604533 0.242201 1.675222 0.068590 -0.016734 -438604.000000 0 0 1
-34.848249 -10.175002 -3.931203 36.515551 0.284083 1.678664 0.062911 -0.021852 -621587.000000 0 0 1
-35.613558 -10.751102 -4.913603 37.524061 0.293183 1.702119 0.060471 -0.018629 -183652.000000 0 0 1
-34.943950 -11.743302 -5.579203 37.284209 0.324204 1.721000 0.047006 -0.018970 -256228.000000 0 0 1
35.683079 -12.262102 -6.768503 38.333457 -0.330997 1.748296 0.052299 -0.018200 59022.800000 0 0 1
35.597626 -11.327302 -7.874203 38.177242 -0.308073 1.778541 0.056305 -0.015747 66833.200000 0 0 1
35.445348 -11.979602 -9.130603 38.513004 -0.325921 1.810154 0.057867 -0.015236 -21819.000000 0 0 1
35.581761 -11.038302 -10.360403 38.668382 -0.300810 1.842040 0.046863 -0.018290 -61619.700000 0 0 1
34.553719 -10.079802 -10.508803 37.496624 -0.283838 1.854861 0.045095 -0.017420 349435.000000 0 0 1
34.800049 -9.474202 -11.763503 37.936578 -0.265805 1.886077 0.037177 -0.010782 211270.000000 0 0 1
33.771859 -8.391202 -12.301103 36.908913 -0.243536 1.910580 0.033714 -0.009316 208118.000000 0 0 1
34.137139 -7.827502 -13.565003 37.558266 -0.225399 1.940321 0.032577 -0.003946 243335.000000 0 0 1
33.150759 -6.988502 -14.119603 36.703885 -0.207768 1.965668 0.022439 -0.002922 -199575.000000 0 0 1
33.419189 -6.409602 -15.547303 37.411814 -0.189493 1.999368 0.012592 -0.006749 -124084.000000 0 0 1
34.306189 -5.293702 -15.690103 38.093532 -0.153100 1.995317 0.018625 -0.008375 629165.000000 0 0 1
33.711349 -4.002202 -15.799903 37.444754 -0.118167 2.006394 0.020888 -0.004615 -221781.000000 0 0 1
34.844369 -2.960002 -15.835203 38.388088 -0.084746 1.995996 0.024585 -0.003415 -495465.000000 0 0 1
35.450003 -2.976702 -17.083003 39.463812 -0.083772 2.018479 0.028427 -0.007497 14877.000000 0 0 1
-34.633453 -2.701202 -16.970003 38.662043 0.077836 2.025206 0.046303 -0.006725 177175.000000 0 0 1
-34.238100 -1.233002 -16.901803 38.202601 0.035997 2.029098 0.036762 -0.002845 -757176.000000 0 0 1
-34.587692 -0.365502 -18.012003 38.998388 0.010567 2.050893 0.035385 -0.011603 223546.000000 0 0 1
-34.382016 0.948898 -17.514103 38.597503 -0.027592 2.041779 0.034077 -0.008818 -263261.000000 0 0 1
-34.682692 2.114498 -18.502903 39.366453 -0.060892 2.060106 0.027926 -0.009534 143022.000000 0 0 1
-33.885609 2.155298 -19.715103 39.262770 -0.063520 2.096859 0.029069 -0.008761 629092.000000 0 0 1
-33.728349 3.499598 -20.158203 39.448724 -0.103388 2.107141 0.023726 -0.001988 -77248.000000 0 0 1
-32.813589 3.722498 -21.392803 39.347689 -0.112961 2.145619 0.013501 0.001087 1011460.000000 0 0 1
-31.386229 3.682798 -21.170803 38.037630 -0.116804 2.161054 0.007018 0.000290 1241760.000000 0 0 1
-30.718279 4.246998 -22.314103 38.204304 -0.137385 2.194534 0.006937 0.003135 -486219.000000 0 0 1
-29.235649 4.403098 -21.996003 36.850164 -0.149484 2.210433 0.006088 0.003511 -778639.000000 0 0 1
-28.537779 3.184198 -21.950803 36.143902 -0.111119 2.223475 0.010038 0.013074 -429824.000000 0 0 1
-27.189739 3.393798 -21.656003 34.925381 -0.124177 2.239622 0.003733 0.017123 -312036.000000 0 0 1
-26.590009 2.314498 -20.721403 33.789969 -0.086825 2.230954 0.018506 0.008995 -193741.000000 0 0 1
-26.735469 2.687498 -19.376003 33.127593 -0.100185 2.195541 0.022822 0.008738 430844.000000 0 0 1
-26.072019 1.718098 -18.519703 32.026261 -0.065803 2.187398 0.031609 0.009085 -64492.700000 0 0 1
-25.213379 2.342398 -17.421903 30.736363 -0.092637 2.173434 0.036333 0.003709 -122938.000000 0 0 1
-24.047809 2.976898 -17.883403 30.116028 -0.123164 2.206591 0.036431 0.001764 193343.000000 0 0 1
-23.266409 3.587098 -16.864203 28.958494 -0.152971 2.192422 0.044070 -0.007451 387459.000000 0 0 1
-22.123409 4.576098 -17.252203 28.425770 -0.203968 2.222977 0.045112 -0.005107 755204.000000 0 0 1
-20.960309 3.882998 -17.686503 27.698820 -0.183178 2.263382 0.071563 -0.012129 1130550.000000 0 0 1
-19.770709 4.717598 -17.684103 26.941866 -0.234235 2.286807 0.070514 -0.009810 1215430.000000 0 0 1
-18.497209 4.017998 -18.224503 26.275912 -0.213899 2.337246 0.077736 -0.017149 147752.000000 0 0 1
-18.012409 2.983698 -17.366003 25.197765 -0.164156 2.331164 0.083949 -0.015836 189565.000000 0 0 1
-16.921709 2.257098 -17.917103 24.747955 -0.132602 2.380355 0.058993 -0.011690 -268649.000000 0 1 0
-16.841309 0.773298 -17.431203 24.250248 -0.045885 2.372878 0.045495 -0.014771 308838.000000 0 1 0
-17.789209 -0.132102 -17.969503 25.285894 0.007426 2.361223 0.037614 -0.014386 541047.000000 0 0 1
-19.157009 0.059498 -17.612103 26.022696 -0.003106 2.314200 0.053122 -0.024582 417293.000000 0 0 1
-20.143809 -0.995502 -18.173603 27.148552 0.049380 2.304215 0.044918 -0.025969 11117.900000 0 0 1
-20.150609 -2.220502 -17.444503 26.744875 0.109752 2.281353 0.029857 -0.022513 -97073.700000 0 0 1
-21.182909 -3.062302 -17.851203 27.870392 0.143570 2.265956 0.048976 -0.014959 -285853.000000 0 0 1
-21.435909 -4.196702 -16.781703 27.545164 0.193334 2.225902 0.054878 -0.019353 -108794.000000 0 0 1
-21.910409 -3.709202 -15.572203 27.135175 0.167700 2.182026 0.055806 -0.024381 217630.000000 0 0 1
-22.194009 -4.747202 -14.647003 27.011935 0.210720 2.143899 0.060656 -0.031993 -68052.500000 0 0 1
-22.262409 -4.157402 -13.214303 26.220538 0.184619 2.098983 0.054163 -0.026335 323239.000000 0 0 1
-23.362009 -3.243602 -13.119603 26.989413 0.137959 2.078420 0.055711 -0.029018 792902.000000 0 0 1
-23.418109 -2.741702 -11.826003 26.377625 0.116546 2.035698 0.044105 -0.026216 -294505.000000 0 0 1
-24.543209 -1.706702 -11.621303 27.209127 0.069427 2.012091 0.080099 -0.031507 -254068.000000 0 0 1
-24.701309 -1.222902 -10.295503 26.788944 0.049467 1.965266 0.071127 -0.028930 236667.000000 0 0 1
-25.588419 -0.160802 -10.214803 27.552409 0.006284 1.950603 0.089252 -0.029366 -633066.000000 0 0 1
-25.868249 0.255098 -8.767703 27.314904 -0.009861 1.897567 0.095889 -0.015490 -572734.000000 0 0 1
-24.792509 0.838198 -8.087703 26.091800 -0.033796 1.885959 0.073993 -0.010850 207668.000000 0 0 1
-25.067279 0.955198 -6.710003 25.967384 -0.038087 1.832163 0.070495 -0.012617 529818.000000 0 0 1
-23.785709 1.451398 -5.949903 24.561512 -0.060944 1.815475 0.028928 0.000095 449948.000000 0 1 0
-23.558609 2.850898 -5.963903 24.468425 -0.120427 1.817015 0.055389 -0.003558 621951.000000 0 1 0
-22.283309 3.132998 -5.393603 23.139846 -0.139683 1.806047 0.043789 0.007539 -88627.300000 0 1 0
-21.938709 4.626298 -5.300203 23.039135 -0.207829 1.802928 0.060419 -0.009342 -175563.000000 0 1 0
-22.543309 5.403798 -4.245003 23.567390 -0.235268 1.751907 0.063042 -0.012602 602496.000000 0 1 0
-22.348809 6.802798 -4.364603 23.765460 -0.295481 1.755498 0.079357 -0.016504 -623652.000000 0 1 0
-22.867809 7.723498 -3.207403 24.349056 -0.325716 1.702906 0.075608 -0.007340 -341897.000000 0 1 0
-22.171209 7.837498 -1.982403 23.599127 -0.339788 1.654899 0.060461 -0.016385 1911630.000000 0 1 0
-20.724709 8.063998 -2.033003 22.331026 -0.371075 1.661962 0.061820 -0.012077 1314170.000000 0 1 0
-20.261009 9.510498 -2.272403 22.497152 -0.438869 1.671977 0.052271 -0.013338 -705138.000000 0 1 0
-20.306609 9.927498 -3.610203 22.889892 -0.454712 1.729178 0.052772 -0.011933 454416.000000 0 1 0
-19.839709 11.226198 -3.815103 23.112693 -0.514927 1.736621 0.058919 -0.008232 -247223.000000 0 1 0
-19.725609 11.558998 -5.292803 23.467506 -0.530054 1.798291 0.072039 -0.008255 76510.400000 0 1 0
-18.555509 11.147398 -5.992803 22.460745 -0.540978 1.840880 0.045674 0.001003 396000.000000 0 1 0
-18.585009 11.599098 -7.322103 23.098806 -0.557959 1.893351 0.056797 0.001390 -532353.000000 0 1 0
-17.232809 11.376798 -8.034503 22.157492 -0.583500 1.941862 0.034226 0.000958 -230486.000000 0 1 0
-16.872809 10.015798 -8.394203 21.341756 -0.535705 1.975039 0.017096 0.004548 442770.000000 0 1 0
-17.651109 9.241198 -9.326903 21.998921 -0.482308 2.008622 0.027445 0.001285 -244012.000000 0 1 0
-17.911409 9.783098 -10.767203 23.075100 -0.499916 2.056257 0.046221 0.003272 139021.000000 0 1 0
-16.698209 9.989798 -11.464103 22.584329 -0.539136 2.103209 0.023197 0.002174 -25068.200000 0 1 0
-16.911209 10.580398 -12.736203 23.667376 -0.559062 2.139017 0.032561 -0.001914 297310.000000 0 1 0
-15.827509 10.303298 -13.831603 23.408999 -0.577060 2.202929 0.026780 0.007780 185337.000000 0 1 0
-16.000909 9.047998 -14.480803 23.400620 -0.514641 2.238038 0.036849 0.003711 79724.400000 0 1 0
-15.494309 7.918598 -13.729003 22.164461 -0.472460 2.238794 0.017278 0.000918 -299171.000000 0 1 0
-15.593109 6.592098 -14.493703 22.286054 -0.399969 2.278839 0.030836 -0.005793 -78008.200000 0 1 0
-14.826609 6.546398 -15.685803 22.555001 -0.415788 2.339838 0.057012 0.003363 308407.000000 0 1 0
-14.871509 5.265698 -16.285003 22.673568 -0.340305 2.372062 0.052792 -0.006841 12799.700000 0 1 0
31.795459 -15.957802 28.249498 45.427269 -0.465158 0.899678 0.012047 0.004058 152104.000000 0 0 1
30.935789 -14.805702 28.365758 44.506719 -0.446377 0.879759 0.021046 0.002119 294601.000000 0 0 1
30.009939 -14.851702 29.463728 44.601354 -0.459553 0.849176 0.030913 -0.007694 276011.000000 0 0 1
30.526239 -14.784102 30.929428 45.902619 -0.451015 0.831450 0.021034 -0.013542 -268334.000000 0 0 1
31.099629 -13.526402 31.186288 46.073148 -0.410258 0.827272 0.003896 -0.011011 8506.030000 0 0 1
30.983459 -13.297502 32.566628 46.876258 -0.405406 0.802743 -0.002200 -0.006639 -569674.000000 0 0 1
31.601969 -12.031202 33.132489 47.341272 -0.363768 0.795588 0.008278 -0.011473 -228747.000000 0 0 1
31.372549 -11.892102 -34.205223 47.913006 -0.362326 2.365852 -0.005073 -0.021579 206623.000000 0 0 1
31.514029 -10.524402 -33.824563 47.413058 -0.322314 2.365137 0.012663 -0.014403 -350302.000000 0 0 1
31.086939 -10.295202 -32.365863 46.042785 -0.319806 2.350336 0.010529 -0.012757 -903100.000000 0 0 1
29.735379 -10.478202 -32.159633 45.035846 -0.338795 2.366119 0.031682 -0.014072 -1051310.000000 0 0 1
29.338939 -9.820802 -31.034753 43.822111 -0.323013 2.357740 0.008539 0.001366 438149.000000 0 0 1
28.135909 -10.581602 -30.345373 42.713479 -0.359725 2.360920 0.010048 -0.002327 478561.000000 0 0 1
27.742689 -10.134002 -29.067333 41.439892 -0.350227 2.348203 -0.003871 0.000378 71636.700000 0 0 1
27.023429 -11.184202 -28.474383 40.818410 -0.392406 2.342820 0.027591 -0.001796 -625962.000000 0 0 1
26.558229 -10.937402 -27.010183 39.427354 -0.390661 2.325485 0.024212 0.000132 122648.000000 0 0 1
25.582649 -9.916302 -26.672413 38.265161 -0.369787 2.342060 0.013477 -0.007913 1468170.000000 0 0 1
24.314849 -9.868902 -27.341613 37.896846 -0.385565 2.376726 0.031484 -0.018444 1235910.000000 0 0 1
23.325249 -11.102102 -27.154653 37.479315 -0.444239 2.381139 0.033539 -0.007378 -381360.000000 0 0 1
23.694349 -12.187802 -27.960513 38.623244 -0.475082 2.380278 0.031583 -0.011992 57714.600000 0 0 1
23.112449 -13.423002 -27.615223 38.431274 -0.526159 2.372528 0.036679 -0.013534 -67233.000000 0 0 1
23.866649 -14.521002 -28.350723 39.802511 -0.546589 2.363544 0.028430 -0.007860 21044.400000 0 0 1
23.791249 -14.416102 -29.762933 40.739167 -0.544777 2.389957 0.031181 -0.017865 -389261.000000 0 0 1
24.921249 -14.951902 -30.353473 42.023343 -0.540394 2.377919 0.024429 -0.010284 -848025.000000 0 0 1
24.943549 -14.939602 -31.860403 43.133022 -0.539637 2.401869 0.040138 -0.016991 -280001.000000 0 0 1
23.919149 -15.647402 -32.520393 43.295991 -0.579307 2.420550 0.049896 -0.016612 -64083.600000 0 0 1
24.069349 -15.819502 -33.902963 44.485965 -0.581453 2.437354 0.065642 -0.019496 -264414.000000 0 0 1
24.002549 -14.516202 33.921800 44.017394 -0.543925 0.690943 0.042491 -0.018028 -752919.000000 0 0 1
22.894449 -13.691602 33.889373 43.128939 -0.538971 0.666858 0.053885 -0.018702 -672455.000000 0 0 1
23.034249 -12.742702 32.862307 42.105632 -0.505302 0.675374 0.052481 -0.014890 -444911.000000 0 0 1
21.957949 -11.663002 32.999247 41.317399 -0.488257 0.645703 0.048347 -0.016730 1480660.000000 0 0 1
20.560549 -12.019202 32.791124 40.527215 -0.529001 0.628154 0.044436 -0.012480 1761790.000000 0 0 1
20.161849 -12.369002 31.454398 39.355705 -0.550276 0.644778 0.038607 -0.007679 -1497520.000000 0 0 1
18.716149 -12.805902 31.367228 38.706438 -0.600054 0.625983 0.040305 -0.007457 -561341.000000 0 0 1
17.803449 -11.723002 31.310028 37.877558 -0.582305 0.597736 0.028615 -0.004020 -349658.000000 0 0 1
16.919949 -11.773702 32.376488 38.381528 -0.607934 0.566949 0.009559 0.001148 -389996.000000 0 0 1
16.183949 -10.458502 32.661838 37.922238 -0.573718 0.533004 0.015324 -0.003033 -957963.000000 0 0 1
15.310849 -9.983702 31.646288 36.545642 -0.577827 0.523772 0.024397 -0.004867 438590.000000 0 0 1
14.621549 -8.726002 31.909088 36.167979 -0.538056 0.490183 0.031925 -0.003758 332532.000000 0 0 1
13.693649 -8.773002 33.124967 36.901829 -0.569783 0.456386 0.030898 -0.006890 -1768710.000000 0 0 1
12.820449 -9.875102 33.111624 36.854595 -0.656343 0.454594 0.037504 -0.005044 -27179.400000 0 0 1
11.623249 -9.747202 33.831278 37.076451 -0.697836 0.421507 0.044245 -0.006903 517394.000000 0 0 1
10.512849 -8.816902 33.222857 35.944623 -0.697885 0.391654 0.061425 -0.003680 -569125.000000 0 0 1
10.825649 -7.416202 33.254946 35.750331 -0.600628 0.375840 0.047525 -0.004758 1222610.000000 0 0 1
9.795349 -6.565802 32.618698 34.684839 -0.590512 0.346901 0.064179 -0.005370 962032.000000 0 0 1
10.246749 -5.093702 32.426748 34.386562 -0.461328 0.339244 0.074176 -0.015770 -124866.000000 0 0 1
10.160049 -4.328202 33.631057 35.397852 -0.402719 0.317280 0.069388 -0.030231 298356.000000 0 0 1
10.672649 -3.029402 33.532149 35.319792 -0.276573 0.319518 0.059332 -0.023487 -465666.000000 0 0 1
10.359049 -2.196702 -33.956393 35.569257 -0.208961 2.839297 0.041578 -0.020697 238511.000000 0 0 1
8.987549 -1.826002 -33.832083 35.053105 -0.200442 2.876875 0.038293 -0.013593 406229.000000 0 0 1
8.734149 -1.217902 -32.599903 33.771620 -0.138548 2.877404 0.029533 -0.009462 -1272840.000000 0 0 1
7.259649 -1.131502 -32.364213 33.187725 -0.154618 2.918357 0.029732 -0.008212 -1108900.000000 0 0 1
6.550249 -0.232802 -33.213163 33.853717 -0.035526 2.946753 0.041693 -0.011929 -875953.000000 0 0 1
5.245649 -0.062402 -32.795763 33.212690 -0.011895 2.982976 0.041802 -0.008409 -652424.000000 0 0 1
4.473249 0.914798 -33.738263 34.045810 0.201723 3.007079 0.042986 -0.009165 241592.000000 0 0 1
5.016149 2.268598 -33.628673 34.076325 0.424731 2.979324 0.023761 -0.005802 263526.000000 0 0 1
4.577649 3.069298 34.026415 34.469876 0.590649 0.160579 0.026618 -0.003998 282637.000000 0 0 1
5.447249 4.369598 33.966540 34.676962 0.676060 0.202767 0.017614 -0.001752 321277.000000 0 0 1
5.241649 5.195398 32.805426 33.625333 0.780967 0.221284 0.032543 -0.016816 14481.500000 0 0 1
6.124149 6.282498 32.956516 34.104353 0.798161 0.260181 0.025934 -0.011068 -341329.000000 0 0 1
5.848149 7.462498 32.052018 33.424864 0.906091 0.287600 0.047157 -0.013449 -208061.000000 0 0 1
4.600649 8.037998 32.394318 33.692242 1.050946 0.278470 0.045957 -0.008850 32099.500000 0 0 1
4.327649 9.265498 31.759578 33.365383 1.133837 0.311509 0.041912 -0.011605 86531.600000 0 0 1
3.907449 9.314898 30.213988 31.857817 1.173607 0.322642 0.041565 -0.021856 471770.000000 0 0 1
2.591649 8.847598 29.933388 31.320989 1.285846 0.298776 0.064964 -0.027405 209987.000000 0 0 1
2.336449 8.982998 28.523668 29.995881 1.316338 0.314602 0.056678 -0.018678 254747.000000 0 0 1
1.146549 8.111498 28.014018 29.187260 1.430378 0.284497 0.064815 -0.017461 1453460.000000 0 0 1
-0.069351 8.551198 28.696068 29.943148 -1.562686 0.289623 0.076413 -0.013122 -346915.000000 0 0 1
-1.180851 8.262198 27.972948 29.191508 -1.428836 0.289956 0.074119 -0.014527 -1577720.000000 0 0 1
-2.500051 8.581798 28.608228 29.972124 -1.287322 0.302836 0.083465 -0.016787 -715592.000000 0 0 1
-2.788551 9.967598 28.798798 30.602284 -1.298009 0.345025 0.079147 -0.015685 237977.000000 0 0 1
-4.116351 9.975598 29.320878 31.243732 -1.179439 0.352663 0.063171 -0.004079 173355.000000 0 0 1
-4.557251 11.307598 30.070208 32.447615 -1.187684 0.385180 0.051743 0.000755 -2570.750000 0 0 1
-4.814151 12.500698 29.344608 32.257550 -1.203191 0.428242 0.053938 -0.006217 113949.000000 0 0 1
-6.009551 12.405498 28.608578 31.756288 -1.119685 0.449006 0.060417 -0.010927 -383554.000000 0 0 1
-6.377751 13.790598 28.026808 31.880374 -1.137620 0.496775 0.066731 -0.009322 326532.000000 0 0 1
-5.496051 14.270698 26.996298 31.026754 -1.203176 0.515396 0.062394 -0.007981 251035.000000 0 0 1
-5.798151 15.590798 26.658408 31.422321 -1.214750 0.557858 0.040688 -0.007426 205773.000000 0 0 1
-4.612051 16.399098 26.055948 31.130593 -1.296640 0.579040 0.077661 -0.011560 335484.000000 0 0 1
-4.090951 16.019798 24.784738 29.793507 -1.320771 0.588303 0.047070 0.002063 74146.600000 0 0 1
-3.153951 16.984598 24.303398 29.817430 -1.387193 0.617940 0.062161 0.005409 177425.000000 0 0 1
-2.891851 16.946098 22.756268 28.519831 -1.401775 0.646976 0.054862 -0.003226 -374690.000000 0 0 1
-2.239851 15.853498 22.262768 27.422275 -1.430441 0.623483 0.045308 -0.009763 -472303.000000 0 0 1
-2.665651 15.411898 20.978668 26.167476 -1.399530 0.640649 0.044652 -0.010336 -139357.000000 0 0 1
-1.724751 14.418398 20.243268 24.912946 -1.451741 0.622265 0.035962 -0.012542 -13678.800000 0 1 0
-1.946051 13.094498 20.623568 24.506826 -1.423260 0.570662 0.045451 -0.002799 -189211.000000 0 1 0
-1.182851 12.217598 19.867468 23.353482 -1.474282 0.553427 0.046477 -0.001928 -544581.000000 0 1 0
-1.845451 10.826498 19.606868 22.473273 -1.401962 0.510597 0.037444 -0.000350 -515987.000000 0 1 0
-1.995251 9.967998 20.718168 23.077792 -1.373241 0.456154 0.045580 -0.008045 563007.000000 0 1 0
-2.964351 10.282898 21.736368 24.227981 -1.290126 0.457500 0.054860 -0.009676 71785.000000 0 1 0
-4.456351 10.310898 21.373468 24.145368 -1.162845 0.483874 0.038852 0.000694 -234280.000000 0 1 0
-5.073051 9.003498 21.299468 23.674166 -1.057683 0.451732 0.024589 0.005124 1158340.000000 0 1 0
-6.487851 9.078298 21.040068 23.815796 -0.950302 0.487621 0.018063 0.009850 1076910.000000 0 1 0
-7.323351 7.797698 21.123568 23.677852 -0.816758 0.468773 0.020857 0.010348 -101297.000000 0 1 0
-7.158851 7.127798 22.335468 24.513828 -0.783225 0.424760 0.019989 0.004154 400200.000000 0 1 0
-8.166851 6.126698 22.506268 24.713680 -0.643623 0.425868 0.016054 0.008911 274648.000000 0 1 0
-8.053151 5.272298 23.740938 25.618011 -0.579663 0.385187 0.007063 0.009881 -69547.900000 0 0 1
-8.603951 5.839098 24.916558 26.999220 -0.596255 0.395349 0.010750 0.006977 -60161.200000 0 0 1
-8.844651 4.833898 25.889838 27.782695 -0.500178 0.371265 0.006160 0.023153 -575061.000000 0 0 1
-9.652151 5.318798 27.080738 29.237305 -0.503647 0.386486 0.017308 0.018284 -462744.000000 0 0 1
-9.051551 6.371698 27.782638 29.906589 -0.613362 0.379148 0.011236 0.011530 -711925.000000 0 0 1
-9.891151 6.795398 28.829818 31.227723 -0.601960 0.394439 0.009505 0.008288 183237.000000 0 0 1
-9.348951 8.036398 29.629418 32.091883 -0.710043 0.394293 0.028216 0.002857 877238.000000 0 0 1
-8.224251 7.796798 30.505698 32.542679 -0.758724 0.355692 0.041076 -0.000852 611409.000000 0 0 1
-7.816851 8.894398 31.328898 33.491989 -0.849789 0.361366 0.043241 -0.009000 178696.000000 0 0 1
-6.733651 8.369898 32.308878 34.047920 -0.893313 0.320989 0.058741 -0.007437 -260402.000000 0 0 1
-5.589651 7.936298 31.634138 33.089994 -0.957180 0.297736 0.065332 -0.010000 -814043.000000 0 0 1
-4.821951 7.160098 32.552718 33.677851 -0.978114 0.259216 0.080813 -0.000172 100168.000000 0 0 1
-3.312151 7.284498 32.255148 33.232948 -1.144053 0.243179 0.076458 0.001678 48227.500000 0 0 1
-2.873651 8.634298 32.405318 33.658782 -1.249510 0.273766 0.067035 -0.003163 1231760.000000 0 0 1
-1.441151 8.791998 32.172048 33.382882 -1.408325 0.270157 0.072005 -0.010087 1752030.000000 0 0 1
-1.014651 10.253098 31.734198 33.364874 -1.472157 0.313935 0.077748 -0.009775 48959.300000 0 0 1
-1.115051 11.195298 32.787817 34.664376 -1.471524 0.330547 0.078995 -0.017076 59802.200000 0 0 1
-1.406051 12.496698 32.320288 34.680620 -1.458754 0.371067 0.083059 -0.020820 -23706.900000 0 0 1
-1.502151 13.542598 33.455551 36.123847 -1.460327 0.386763 0.070821 -0.015996 906142.000000 0 0 1
-0.234451 13.921998 34.039570 36.777293 -1.553958 0.388286 0.090683 -0.018902 568431.000000 0 0 1
-0.389951 14.963298 -33.738563 36.909931 -1.544742 2.724025 0.087805 -0.026901 525154.000000 0 0 1
0.962549 15.423398 -33.090243 36.520842 1.508469 2.704685 0.072408 -0.024551 567126.000000 0 0 1
1.846049 16.020998 -34.035803 37.663194 1.456075 2.699104 0.067748 -0.022702 204025.000000 0 0 1
3.031649 16.458698 -33.406523 37.364092 1.388641 2.677171 0.060199 -0.026345 -148134.000000 0 0 1
3.874449 17.307798 -34.351451 38.659972 1.350571 2.664979 0.061065 -0.016166 -131341.000000 0 0 1
3.360649 18.637598 34.226369 39.116471 1.392398 0.505389 0.055038 -0.008766 346996.000000 0 0 1
4.316249 19.481198 33.582197 39.062911 1.352759 0.536124 0.040494 0.008687 162452.000000 0 0 1
3.965249 20.978998 33.583325 39.795494 1.383990 0.566289 0.045921 0.001667 -107818.000000 0 0 1
4.184749 21.561698 -33.895613 40.389745 1.379097 2.566631 0.053038 -0.009678 216094.000000 0 0 1
3.698749 22.909398 -33.860483 41.049404 1.410726 2.540771 0.043244 -0.004917 -16077.600000 0 0 1
4.031949 23.690898 -32.614453 40.511946 1.402222 2.506569 0.062887 -0.007382 -298103.000000 0 0 1
3.278349 24.828598 -32.329053 40.894676 1.439517 2.482494 0.054456 -0.011984 -67711.200000 0 0 1
3.509449 25.204598 -31.018323 40.121370 1.432447 2.454530 0.065896 -0.010646 -48653.300000 0 0 1
2.884249 26.549398 -30.604183 40.617797 1.462584 2.424116 0.058610 -0.014045 34938.500000 0 0 1
3.749649 27.646698 -30.778753 41.541924 1.435992 2.405218 0.051685 -0.019034 171496.000000 0 0 1
3.195049 28.763698 -30.188183 41.819673 1.460171 2.377291 0.057111 -0.020012 74034.700000 0 0 1
4.263749 29.901798 -30.096023 42.638805 1.429159 2.354400 0.071476 -0.029505 399618.000000 0 0 1
5.151549 29.719098 -29.010563 41.849445 1.399160 2.336733 0.064218 -0.036090 -64532.000000 0 0 1
5.791849 30.900798 -28.592113 42.496044 1.385512 2.308808 0.073019 -0.040166 -841756.000000 0 0 1
6.995749 30.621998 -27.662983 41.855560 1.346196 2.292834 0.066100 -0.046520 -961195.000000 0 0 1
8.126749 30.150898 -28.285693 42.133136 1.307517 2.306813 0.055197 -0.034634 -533900.000000 0 0 1
9.168749 31.097398 -28.479073 43.152888 1.284080 2.291559 0.053080 -0.040093 -347194.000000 0 0 1
8.935549 32.329798 -29.441783 44.630466 1.301141 2.291188 0.058828 -0.040165 -1063570.000000 0 0 1
8.119549 33.376698 -28.902023 44.891625 1.332162 2.270273 0.057927 -0.041126 198006.000000 0 0 1
7.815849 -34.381966 -29.821403 46.179250 -1.347271 2.272834 0.055774 -0.032903 -87484.600000 0 0 1
6.577049 34.078798 -30.698313 46.335823 1.380145 2.294972 0.036979 -0.021840 -507458.000000 0 0 1
6.834849 33.283698 -31.842703 46.566914 1.368261 2.323761 0.030264 -0.014692 -136485.000000 0 0 1
5.712049 32.672098 -32.414633 46.376739 1.397716 2.344713 0.029263 -0.015045 -88277.100000 0 0 1
6.130949 32.055098 -33.796953 46.982463 1.381816 2.373666 0.031511 -0.016540 277115.000000 0 0 1
5.984549 32.985998 33.873600 47.658280 1.391322 0.780218 0.030382 -0.011791 6329.580000 0 0 1
6.377049 32.362798 32.699982 46.446811 1.376240 0.789739 0.033501 -0.008136 -461485.000000 0 0 1
5.859349 33.080698 31.460528 46.026399 1.395492 0.818205 0.018029 -0.012343 154141.000000 0 0 1
6.450949 34.323098 31.123528 46.779951 1.385016 0.842877 0.027506 -0.009475 615598.000000 0 0 1
5.532149 -33.789266 30.233428 45.676902 -1.408511 0.847449 0.009747 -0.009634 615626.000000 0 0 1
17.408291 -22.110202 29.374798 40.679090 -0.903821 0.763948 0.062851 0.003545 -638338.000000 0 0 1
16.425291 -21.092002 29.409998 39.744316 -0.909151 0.737756 0.048572 0.012104 -122218.000000 0 0 1
15.139991 -21.617102 29.619898 39.671864 -0.959821 0.727826 0.064647 0.011247 -245731.000000 0 0 1
14.762391 -22.018302 31.097418 40.862981 -0.980172 0.705917 0.064925 0.001567 -765331.000000 0 0 1
15.337591 -23.285602 31.424698 42.011577 -0.988348 0.725751 0.085043 -0.004401 267253.000000 0 0 1
15.162491 -23.587202 32.812478 43.161510 -0.999480 0.707136 0.064930 -0.015489 451684.000000 0 0 1
16.268091 -24.522702 33.448493 44.551267 -0.985066 0.721544 0.063788 -0.017816 322391.000000 0 0 1
16.240791 -25.885822 33.005984 44.980374 -1.010472 0.746918 0.082913 -0.020776 -18982.000000 0 0 1
17.052891 -26.750902 33.777583 46.339367 -1.003280 0.754057 0.073911 -0.021730 -83341.000000 0 0 1
16.714491 -28.229452 33.553943 46.926999 -1.036210 0.774138 0.069461 -0.014922 -292984.000000 0 0 1
17.149191 -28.784842 32.337418 46.565765 -1.033492 0.803146 0.055037 -0.021844 483475.000000 0 0 1
16.505191 -30.058912 32.065168 46.948211 -1.068648 0.818948 0.065127 -0.020870 251920.000000 0 0 1
17.284891 -30.763172 30.953118 46.938638 -1.058886 0.850725 0.064805 -0.023835 753802.000000 0 0 1
18.370091 -31.668652 31.294238 48.163192 -1.045159 0.863535 0.034238 -0.016223 685412.000000 0 0 1
19.187091 -31.792132 30.143338 47.827868 -1.027795 0.888926 0.019577 -0.017104 262931.000000 0 0 1
20.587991 -32.430452 30.520608 49.062278 -1.005156 0.899401 0.004756 -0.005927 851573.000000 0 0 1
21.550391 -31.437332 30.861328 49.042295 -0.969866 0.890170 -0.005450 -0.010254 69079.900000 0 0 1
22.855391 -31.943382 30.736718 49.874787 -0.949745 0.906789 -0.012412 0.003413 186996.000000 0 0 1
23.936191 -30.817052 30.924008 49.788816 -0.910413 0.900646 -0.013067 0.004109 176346.000000 0 0 1
23.840091 -29.817832 29.925538 48.507637 -0.896345 0.905968 -0.017146 -0.003302 169981.000000 0 0 1
24.955991 -28.956472 29.869308 48.512414 -0.859466 0.907517 -0.026987 -0.002513 569731.000000 0 0 1
26.125891 -29.409502 28.919058 48.824101 -0.844456 0.936872 -0.026288 0.000561 715104.000000 0 0 1
27.097791 -30.305602 29.482208 50.218725 -0.841222 0.943354 -0.025231 0.013349 -460348.000000 0 0 1
28.121991 -30.491252 28.600008 50.383760 -0.825798 0.967156 -0.024315 -0.000500 -505850.000000 0 0 1
29.210191 -31.438372 29.203798 51.908268 -0.822121 0.973264 -0.013250 0.007223 263008.000000 0 0 1
28.805091 -32.777072 29.269258 52.542927 -0.849808 0.979962 -0.012084 0.005131 -291083.000000 0 0 1
29.936491 -33.587412 29.314938 53.699845 -0.842808 0.993329 -0.002137 0.003621 -1072170.000000 0 0 1
29.625291 33.769993 29.776038 53.895108 0.850684 0.985458 -0.009461 0.011464 -212517.000000 0 0 1
29.105691 33.685499 31.109068 54.310479 0.858206 0.960878 0.009123 0.011019 212713.000000 0 0 1
27.972791 34.351555 31.584078 54.406437 0.887391 0.951428 0.003794 0.010573 763307.000000 0 0 1
26.561691 34.203315 30.854768 53.173367 0.910498 0.951739 -0.002725 0.006180 785508.000000 0 0 1
25.986591 32.939997 31.180718 52.274119 0.902856 0.931682 -0.006996 0.013054 -128831.000000 0 0 1
24.676491 32.926022 30.650928 51.308201 0.927646 0.930556 -0.011577 0.013312 184404.000000 0 0 1
24.019291 31.517612 30.643228 50.092850 0.919602 0.912552 0.004548 0.006750 65050.400000 0 0 1
24.209891 30.779362 29.472108 49.011153 0.904303 0.925626 0.000078 -0.000947 171034.000000 0 0 1
23.328491 29.683662 29.471298 47.894631 0.904710 0.907984 0.034624 -0.022264 -292108.000000 0 0 1
22.823691 29.147832 28.102138 46.478459 0.906488 0.921499 0.025030 -0.020180 -341830.000000 0 0 1
21.892791 30.035242 27.520108 46.246799 0.940934 0.933443 0.034080 -0.025611 -12862.700000 0 0 1
21.197291 29.454382 26.453598 44.907445 0.946994 0.940890 0.025354 -0.022121 -917503.000000 0 0 1
19.925991 30.194962 26.160688 44.644848 0.987485 0.944716 0.034594 -0.012975 -860115.000000 0 0 1
20.139591 31.373872 25.446988 45.138367 1.000121 0.971871 0.034719 -0.023246 56462.100000 0 0 1
18.883991 31.961292 25.209738 44.873825 1.037140 0.974246 0.050482 -0.023834 -351580.000000 0 0 1
18.968791 33.350239 24.465988 45.504264 1.053653 1.003133 0.069168 -0.029504 -144220.000000 0 0 1
19.520991 33.205989 23.156668 44.943721 1.039340 1.029512 0.080413 -0.030053 404066.000000 0 0 1
20.819491 33.783903 23.164568 45.949978 1.018510 1.042427 0.061567 -0.022645 -120884.000000 0 0 1
21.430691 33.996913 21.794068 45.717021 1.008344 1.073880 0.070987 -0.024220 -322053.000000 0 0 1
20.977591 -33.629972 21.144368 44.923475 -1.013077 1.080740 0.084746 -0.018631 178081.000000 0 0 1
21.406191 -33.602892 19.825868 44.502184 -1.003590 1.109060 0.093936 -0.018804 -170277.000000 0 0 1
21.071091 -32.230012 19.222268 43.037892 -0.991774 1.107794 0.070427 -0.019955 6718.590000 0 0 1
21.576891 -31.152562 20.023168 42.859906 -0.965040 1.084701 0.061136 -0.011681 338062.000000 0 0 1
20.994891 -29.897922 19.726068 41.518537 -0.958583 1.075702 0.068579 -0.022250 -132285.000000 0 0 1
21.589891 -29.181192 18.458068 40.723035 -0.933819 1.100379 0.050502 -0.016024 -248117.000000 0 0 1
21.570891 -29.979082 17.283168 40.776912 -0.947082 1.133108 0.042971 -0.016382 446182.000000 0 0 1
21.986791 -29.231532 16.115568 39.970151 -0.925914 1.155796 0.034485 -0.010323 -273860.000000 0 0 1
21.688691 -29.968482 14.823968 39.852970 -0.944330 1.189670 0.028115 -0.018506 -483794.000000 0 0 1
22.476191 -31.080402 14.537668 41.018463 -0.944693 1.208505 0.051477 -0.012491 -262638.000000 0 0 1
22.574891 -31.467272 13.155568 40.900903 -0.948482 1.243330 0.048499 -0.015570 274946.000000 0 0 1
21.292391 -31.789022 12.284168 40.184681 -0.980625 1.260130 0.040550 -0.012635 486993.000000 0 0 1
20.533091 -32.914312 12.729368 40.828869 -1.013035 1.253737 0.051216 -0.018779 160775.000000 0 0 1
19.376891 -33.040662 11.919068 40.115002 -1.040395 1.269119 0.049915 -0.007993 493752.000000 0 0 1
18.218891 -33.760372 12.709868 40.413258 -1.075932 1.250869 0.055686 -0.010039 487450.000000 0 0 1
17.651491 -32.991702 13.823568 39.888827 -1.079520 1.216903 0.055555 -0.006834 518373.000000 0 0 1
18.363891 -33.192742 15.040868 40.807087 -1.065461 1.193310 0.054091 -0.011038 -922600.000000 0 0 1
17.938791 -32.242042 16.138368 40.271533 -1.063069 1.158473 0.061548 -0.013835 190187.000000 0 0 1
16.568891 -32.268592 16.512968 39.855593 -1.096432 1.143601 0.083568 -0.037086 91543.200000 0 0 1
16.009191 -33.442292 17.033568 40.802249 -1.124325 1.140141 0.078839 -0.020480 -1123510.000000 0 0 1
16.531491 -34.089049 18.330868 42.087696 -1.119261 1.120158 0.066909 -0.022783 449042.000000 0 0 1
17.611891 33.729098 18.139168 42.152819 1.089580 1.125950 0.053093 -0.011977 618740.000000 0 0 1
18.004191 33.218508 19.422568 42.483601 1.074121 1.095977 0.046683 -0.010879 150863.000000 0 0 1
18.903191 31.995722 19.139668 41.801720 1.037166 1.095201 0.039590 -0.006806 11658.200000 0 0 1
18.177291 30.922202 18.588968 40.399830 1.039366 1.092660 0.024362 -0.005386 -68780.100000 0 0 1
18.952491 29.742482 18.521668 39.835466 1.003458 1.087213 0.018607 -0.014305 436370.000000 0 0 1
18.058791 28.495902 18.188968 38.327209 1.005942 1.076320 0.020347 -0.008770 355309.000000 0 0 1
17.623391 27.777642 19.310768 38.145604 1.005434 1.039979 0.014941 -0.011910 -236657.000000 0 0 1
17.232391 26.500572 18.907768 36.833943 0.994235 1.031742 0.015014 -0.008181 -747079.000000 0 0 1
17.269891 25.470342 20.034168 36.719959 0.974962 0.993699 0.010716 0.001576 -502064.000000 0 0 1
16.335491 25.580862 21.063868 36.944760 1.002489 0.964114 0.002320 -0.001594 -327539.000000 0 0 1
15.324191 24.614722 21.094368 35.856488 1.013952 0.941842 0.023673 -0.005334 456985.000000 0 0 1
14.148691 24.909292 22.095068 36.178037 1.054232 0.913812 0.035402 -0.017447 649409.000000 0 0 1
13.343691 25.998512 21.667168 36.379155 1.096606 0.932793 0.053235 -0.022176 131281.000000 0 0 1
12.067991 26.069892 22.285768 36.358371 1.137259 0.911011 0.061953 -0.020494 130778.000000 0 0 1
11.212591 27.099922 21.526668 36.380289 1.178493 0.937615 0.063431 -0.021251 -364561.000000 0 0 1
11.630391 28.414882 21.640168 37.562859 1.182293 0.956840 0.045721 -0.020417 -309615.000000 0 0 1
10.815891 29.241452 20.855568 37.510009 1.216520 0.981231 0.052354 -0.026913 -54234.200000 0 0 1
11.260491 30.739072 20.820168 38.796503 1.219653 1.004334 0.054322 -0.026490 -259141.000000 0 0 1
10.748791 31.618162 21.775568 39.867531 1.243097 0.992978 0.044752 -0.015962 -486797.000000 0 0 1
11.353991 31.579872 23.053068 40.714192 1.225655 0.968887 0.037471 -0.015787 -75465.800000 0 0 1
10.760691 32.591692 24.135908 41.958943 1.251898 0.957915 0.018250 -0.019023 423168.000000 0 0 1
9.437291 32.214052 24.475598 41.543502 1.285815 0.940783 0.015858 -0.016154 -88242.500000 0 0 1
9.015491 32.989278 25.607468 42.723693 1.304025 0.928078 0.012677 -0.017435 389371.000000 0 0 1
7.563691 32.822758 26.210908 42.679674 1.344310 0.909512 0.041463 -0.023609 -179266.000000 0 0 1
6.532691 33.463138 25.557658 42.610463 1.378001 0.927548 0.039921 -0.026724 -339043.000000 0 0 1
6.050091 32.885071 24.363108 41.371398 1.388854 0.941114 0.034397 -0.031002 -612009.000000 0 0 1
5.197991 31.629522 24.513328 40.352807 1.407912 0.917918 0.032478 -0.031312 -702164.000000 0 0 1
5.967091 30.512342 24.882908 39.821707 1.377671 0.895847 0.023780 -0.025305 -415754.000000 0 0 1
5.313391 29.321532 24.557828 38.614392 1.391530 0.881524 0.017668 -0.022814 -1005070.000000 0 0 1
6.238491 28.141812 24.829778 38.044687 1.352644 0.859723 0.016274 -0.021134 1135280.000000 0 0 1
7.417591 27.998182 23.967098 37.594423 1.311815 0.879525 0.014931 -0.023911 1581990.000000 0 0 1
8.437391 28.978682 24.118418 38.634851 1.287471 0.896605 0.028387 -0.019332 -902083.000000 0 0 1
9.570691 28.683812 25.088778 39.291297 1.248750 0.878206 0.032386 -0.020238 -831772.000000 0 0 1
9.146791 28.625732 26.455608 40.037427 1.261519 0.848950 0.017665 -0.011656 -235228.000000 0 0 1
10.203291 28.389212 27.316748 40.697165 1.225766 0.834943 0.028961 -0.007511 -360240.000000 0 0 1
11.235091 29.508702 27.541998 41.899313 1.207004 0.853516 0.023571 -0.011896 -311218.000000 0 0 1
10.706691 30.590812 28.265298 43.004164 1.234124 0.853607 0.025563 -0.017394 89623.500000 0 0 1
11.535891 31.743802 28.187118 43.991583 1.222229 0.875336 0.020077 -0.005636 -41764.600000 0 0 1
11.014791 32.940801 29.013188 45.256901 1.248103 0.874895 0.027632 -0.008937 -241485.000000 0 0 1
11.174891 32.924278 30.429978 46.204652 1.243585 0.851851 0.036312 -0.023366 381286.000000 0 0 1
10.209091 32.087162 31.080938 45.823970 1.262757 0.825393 0.030100 -0.015512 103121.000000 0 0 1
10.547091 31.921972 32.546358 46.792295 1.251686 0.801612 0.041658 -0.022979 -36280.600000 0 0 1
9.940491 30.760442 33.119898 46.281160 1.258231 0.773280 0.037870 -0.022362 388083.000000 0 0 1
10.381991 30.600032 -34.271891 47.103187 1.243703 2.385601 0.061316 -0.015682 65037.000000 0 0 1
10.470291 29.154192 -33.790463 45.840913 1.226007 2.399602 0.046130 -0.011960 310662.000000 0 0 1
11.577091 28.471712 34.343245 46.088240 1.184598 0.730017 0.048243 -0.007874 599091.000000 0 0 1
11.473891 27.108032 -34.042963 45.004654 1.170396 2.428637 0.032729 -0.009109 344820.000000 0 0 1
12.835491 26.392532 -34.284742 45.130468 1.118144 2.433618 0.026563 -0.008742 401877.000000 0 0 1
12.792991 24.983852 -33.939403 44.042441 1.097555 2.450589 0.019678 -0.012706 -271133.000000 0 0 1
13.181391 24.740152 -32.627373 43.015924 1.081259 2.431797 0.023704 -0.007601 -328292.000000 0 0 1
13.232691 23.189662 -32.386723 41.973377 1.052253 2.452151 0.010908 -0.022610 -141525.000000 0 0 1
14.288891 22.546862 -33.073133 42.501359 1.005935 2.462537 0.014725 -0.017210 213200.000000 0 0 1
14.103191 21.157762 -32.918003 41.595022 0.982859 2.483880 0.011889 -0.017578 983710.000000 0 0 1
15.376891 20.366362 -33.482563 42.098925 0.924094 2.490349 0.020381 -0.030524 1633250.000000 0 0 1
16.514691 20.623062 -32.646443 41.998047 0.895575 2.461211 0.013268 -0.029669 -713387.000000 0 0 1
17.630391 19.994462 -33.097963 42.498051 0.848148 2.463565 0.014173 -0.028734 -856404.000000 0 0 1
18.930191 20.245362 -32.296623 42.559355 0.818957 2.432358 0.014723 -0.024807 -184002.000000 0 0 1
19.509291 21.477462 -32.569713 43.619721 0.833381 2.413844 0.013322 -0.015992 -278156.000000 0 0 1
20.514491 21.895562 -31.660143 43.619086 0.817951 2.383040 0.022576 -0.009513 8079.170000 0 0 1
20.213691 22.110562 -30.151553 42.503958 0.830186 2.359418 0.025412 -0.009910 -201487.000000 0 0 1
19.360391 23.226962 -29.970583 42.574081 0.875941 2.351759 0.014429 -0.006189 15732.500000 0 0 1
19.013691 23.515162 -28.636153 41.647480 0.890851 2.328953 0.015616 0.002920 4805.450000 0 0 1
20.172991 24.208772 -27.871073 42.069121 0.876082 2.294957 0.021212 0.003155 233003.000000 0 0 1
20.745991 25.398072 -28.394003 43.378308 0.885875 2.284406 0.021906 -0.000244 31032.900000 0 0 1
19.886791 26.546292 -28.426153 43.683364 0.927848 2.279344 0.020720 0.001924 76810.200000 0 0 1
20.673291 27.822482 -28.913783 45.138480 0.931763 2.266020 0.017962 0.007627 -122486.000000 0 0 1
20.816691 27.962082 -30.330383 46.207627 0.930849 2.286824 0.017839 0.003192 109833.000000 0 0 1
21.464891 26.989352 -31.141123 46.464354 0.898922 2.305295 0.029463 -0.001821 592205.000000 0 0 1
22.948991 26.577542 -30.855413 46.744823 0.858532 2.291724 0.039524 -0.014779 557560.000000 0 0 1
23.924591 27.574202 -31.077583 47.943079 0.856148 2.276039 0.039513 -0.010338 966686.000000 0 0 1
25.193291 27.194592 -30.493043 48.000765 0.823581 2.259144 0.045596 -0.016540 205355.000000 0 0 1
26.348591 28.111002 -30.782833 49.315915 0.817749 2.244899 0.040174 -0.016666 -813264.000000 0 0 1
26.332891 29.374062 -30.239583 49.706027 0.839936 2.224800 0.041525 -0.008789 34669.600000 0 0 1
27.525091 30.087812 -30.540103 50.947080 0.829851 2.213607 0.042843 -0.008203 338750.000000 0 0 1
27.749691 31.263842 -29.591683 51.216608 0.844876 2.186796 0.035927 -0.000281 -88028.400000 0 0 1
28.291391 30.892602 -28.321453 50.565407 0.829321 2.165297 0.040879 -0.002819 237528.000000 0 0 1
27.664891 31.629352 -27.284583 50.102002 0.852160 2.146685 0.042168 0.008363 -497456.000000 0 0 1
28.032291 31.220242 -25.824583 49.268874 0.839149 2.122520 0.047301 0.004572 -248134.000000 0 0 1
27.676391 29.898722 -25.461083 48.043553 0.823978 2.129348 0.041007 0.013201 744378.000000 0 0 1
26.259391 29.738772 -25.347793 47.079303 0.847452 2.139341 0.038020 0.012410 328129.000000 0 0 1
25.740091 29.785842 -23.855503 46.030791 0.858132 2.115601 0.032368 0.018708 -199181.000000 0 0 1
25.851791 31.058792 -23.265703 46.628925 0.876639 2.093188 0.041629 0.018862 154602.000000 0 0 1
25.169191 31.094482 -22.052303 45.679964 0.890324 2.074596 0.034529 0.019571 15097.700000 0 0 1
2.941791 -26.399562 -19.633803 33.031458 -1.459821 2.207312 0.016268 0.004411 -243433.000000 0 0 1
2.751191 -27.555362 -18.845903 33.496792 -1.471284 2.168346 0.003758 0.005196 105554.000000 0 0 1
2.760891 -27.245332 -17.477903 32.487039 -1.469807 2.138854 0.014528 -0.001054 -150549.000000 0 0 1
2.761891 -28.444902 -16.458803 32.979276 -1.474004 2.093316 0.016728 -0.004924 312837.000000 0 0 1
4.039791 -29.015012 -16.206503 33.478972 -1.432455 2.076108 0.025876 -0.004637 387413.000000 0 0 1
3.868691 -29.852892 -15.079803 33.668418 -1.441923 2.035202 0.024129 -0.009819 569734.000000 0 0 1
5.223491 -30.432772 -14.575503 34.145040 -1.400812 2.011825 0.049672 -0.013436 850933.000000 0 0 1
6.065791 -29.502562 -13.875503 33.162095 -1.368020 2.002495 0.028137 -0.002638 666000.000000 0 0 1
7.474791 -29.754672 -13.930303 33.693714 -1.324675 1.997024 0.033664 -0.010812 1088980.000000 0 0 1
8.104091 -30.692892 -12.844703 34.244946 -1.312650 1.955283 0.029377 -0.008861 -600107.000000 0 0 1
8.241791 -29.962332 -11.610803 33.173471 -1.302363 1.928370 0.021430 -0.004854 -179914.000000 0 0 1
8.528391 -30.735792 -10.465703 33.570125 -1.300131 1.887837 0.026996 -0.001324 436744.000000 0 0 1
9.686491 -31.792042 -10.481303 34.848526 -1.275049 1.876294 0.025062 -0.005411 -619216.000000 0 0 1
10.948591 -31.261502 -10.351203 34.703034 -1.233920 1.873686 0.022441 -0.005714 -1118070.000000 0 0 1
11.903091 -32.264822 -10.116003 35.847396 -1.217368 1.856879 0.027065 -0.006497 -385710.000000 0 0 1
12.980991 -31.842372 -9.112703 35.573644 -1.183700 1.829848 0.036707 0.003498 -926428.000000 0 0 1
13.842491 -30.913782 -9.678803 35.227201 -1.149792 1.849130 0.037326 -0.012010 -549340.000000 0 0 1
14.883491 -30.738572 -8.739203 35.252685 -1.119872 1.821310 0.040501 -0.005673 142023.000000 0 0 1
16.134091 -30.055912 -9.396803 35.383141 -1.078142 1.839594 0.055261 -0.017273 269692.000000 0 0 1
16.069691 -28.659242 -9.711203 34.262145 -1.059763 1.858174 0.049514 -0.013712 288710.000000 0 0 1
15.102491 -28.223852 -10.693503 33.749401 -1.079467 1.893203 0.036413 -0.014475 343788.000000 0 0 1
14.876791 -26.700582 -10.750503 32.400822 -1.062464 1.909004 0.033754 -0.009848 -622341.000000 0 0 1
13.895091 -26.246862 -9.828903 31.282242 -1.083906 1.890411 0.022257 -0.009872 293530.000000 0 0 1
13.466091 -24.906302 -10.022303 30.035080 -1.075144 1.911008 0.005481 -0.000316 173578.000000 0 0 1
12.783391 -24.527002 -11.375103 29.906218 -1.090336 1.960981 0.004280 -0.003634 137078.000000 0 0 1
13.681391 -24.134702 -12.425303 30.398231 -1.055089 1.991881 0.005006 -0.006926 -183232.000000 0 0 1
12.973991 -24.122102 -13.603203 30.581814 -1.077332 2.031762 0.013606 -0.012420 -365798.000000 0 0 1
13.719091 -23.553902 -14.805303 31.019296 -1.043377 2.068368 0.009681 -0.014974 -234104.000000 0 0 1
14.649191 -24.421902 -15.383903 32.368079 -1.030496 2.066079 0.016988 -0.018278 -289310.000000 0 0 1
15.088491 -23.871202 -16.593703 32.754356 -1.007123 2.102045 0.015272 -0.026953 13436.900000 0 0 1
16.215591 -24.644202 -17.383803 34.241476 -0.988826 2.103289 0.026014 -0.024005 1187740.000000 0 0 1
17.493891 -24.693802 -16.758503 34.592882 -0.954433 2.076530 0.036842 -0.025568 147849.000000 0 0 1
18.366391 -23.641002 -17.143803 34.498279 -0.910308 2.090873 0.032597 -0.026893 -648474.000000 0 0 1
19.804791 -23.836502 -16.684203 35.196182 -0.877520 2.064663 0.034061 -0.018113 -344870.000000 0 0 1
20.344191 -24.938302 -17.441603 36.606209 -0.886507 2.067427 0.043681 -0.014614 1008950.000000 0 0 1
21.663891 -25.364232 -16.995703 37.436912 -0.863920 2.042026 0.053474 -0.007241 1608170.000000 0 0 1
22.289991 -26.566932 -17.802103 38.981540 -0.872716 2.045056 0.048307 -0.012740 89140.300000 0 0 1
22.718591 -26.182782 -19.085103 39.571626 -0.856120 2.074066 0.049429 -0.013975 1416.300000 0 0 1
23.315791 -27.204952 -19.903403 40.986351 -0.862228 2.077858 0.034783 -0.029315 175864.000000 0 0 1
24.573591 -26.658392 -20.637203 41.718406 -0.826069 2.088261 0.030438 -0.014343 103607.000000 0 0 1
24.342791 -25.602732 -21.510803 41.361649 -0.810619 2.117725 0.034659 -0.011082 -188622.000000 0 0 1
24.548091 -24.370202 -20.838203 40.382499 -0.781762 2.112995 0.035605 -0.002133 -229637.000000 0 0 1
24.060491 -23.078402 -21.535203 39.689858 -0.764567 2.144310 0.046882 -0.000471 -582661.000000 0 0 1
24.599591 -22.779402 -22.781103 40.534179 -0.746999 2.167625 0.028489 -0.000062 -214138.000000 0 0 1
24.051591 -23.443402 -23.898603 41.221540 -0.772594 2.189231 0.024237 -0.009720 -238631.000000 0 0 1
23.172291 -22.505702 -24.706203 40.667655 -0.770806 2.223724 0.027252 0.000795 -26196.800000 0 0 1
23.967891 -21.721702 -25.568983 41.231845 -0.736276 2.239701 0.021665 0.009162 678182.000000 0 0 1
23.127491 -20.753402 -26.256833 40.681763 -0.731348 2.272370 0.013432 0.008195 524785.000000 0 0 1
23.790591 -20.038802 -27.480183 41.505497 -0.700006 2.294394 0.008723 0.007674 126616.000000 0 0 1
22.863991 -19.253302 -28.234363 41.117283 -0.699878 2.327707 0.026044 0.000951 263411.000000 0 0 1
23.297691 -18.882302 -29.495673 42.063267 -0.681098 2.347906 0.023635 -0.003980 -221805.000000 0 0 1
22.392291 -17.791402 -30.089503 41.512972 -0.671398 2.381572 0.038398 -0.008462 -610997.000000 0 0 1
21.212791 -18.246802 -30.655073 41.504961 -0.710374 2.401770 0.047175 -0.014167 -229753.000000 0 0 1
20.373891 -17.186002 -31.127343 40.980063 -0.700726 2.433452 0.054150 -0.015594 423275.000000 0 0 1
18.966991 -17.639202 -31.578013 40.841879 -0.749142 2.454632 0.047132 -0.009399 -87264.200000 0 0 1
18.955291 -18.292102 -32.843553 42.102292 -0.767595 2.465605 0.056052 -0.010749 -567666.000000 0 0 1
17.768591 -18.912802 -33.154423 42.102644 -0.816581 2.477484 0.047274 -0.013300 -1005300.000000 0 0 1
17.854791 -19.577302 34.231366 43.287997 -0.831383 0.658711 0.075861 -0.005309 457050.000000 0 0 1
18.935291 -20.525502 34.311163 44.239093 -0.825675 0.683156 0.060366 0.001945 710667.000000 0 0 1
19.092891 -21.278502 33.147007 43.772562 -0.839483 0.711696 0.050365 -0.006116 239712.000000 0 0 1
19.972691 -22.577302 33.288862 44.908699 -0.846535 0.735856 0.036960 -0.008697 178222.000000 0 0 1
19.449591 -23.575202 34.143132 45.823904 -0.880995 0.730120 0.043342 0.001108 80263.000000 0 0 1
19.575091 -23.271002 -33.232363 45.045684 -0.871445 2.400525 0.047409 0.008588 -512517.000000 0 0 1
18.643591 -24.120102 -32.401203 44.488209 -0.912769 2.386649 0.044875 -0.002097 -549985.000000 0 0 1
18.932291 -25.505302 -32.470803 45.423618 -0.932249 2.367197 0.035089 -0.004607 46228.700000 0 0 1
19.964491 -25.860972 -31.579443 45.438222 -0.913368 2.339213 0.019084 -0.009173 -77840.600000 0 0 1
20.221391 -27.403532 -31.499923 46.390768 -0.935077 2.317213 0.016419 -0.004120 777380.000000 0 0 1
19.182791 -28.138142 -30.805853 45.920965 -0.972433 2.306144 0.010264 -0.007394 1005320.000000 0 0 1
19.582291 -29.503372 -30.953523 47.032283 -0.984829 2.289133 0.003639 0.001304 397710.000000 0 0 1
18.495491 -30.479222 -30.326983 46.805898 -1.025375 2.275661 0.017794 -0.001645 13457.000000 0 0 1
17.281291 -30.576942 -30.959583 46.819741 -1.056378 2.293281 0.024650 -0.007226 -884931.000000 0 0 1
17.334291 -31.182182 -32.250643 48.092724 -1.063432 2.305804 0.030862 -0.011199 362290.000000 0 0 1
15.955891 -31.812832 -32.707903 48.336877 -1.105905 2.314021 0.053817 -0.019304 1433520.000000 0 0 1
14.950691 -30.970832 -33.255763 47.839956 -1.121056 2.339420 0.073511 -0.017507 457987.000000 0 0 1
13.707491 -31.594682 -33.495813 48.042572 -1.161450 2.342296 0.062935 -0.017659 252201.000000 0 0 1
12.654691 -30.795992 -34.287959 47.793289 -1.180912 2.370891 0.069697 -0.015138 -18418.000000 0 0 1
12.122691 -29.846862 -33.399553 46.403932 -1.184988 2.374248 0.074635 -0.015130 72461.400000 0 0 1
11.410591 -28.826422 -34.138497 46.115086 -1.193883 2.404297 0.064936 -0.007808 243803.000000 0 0 1
10.512891 -27.937212 -33.251973 44.684476 -1.210883 2.410059 0.052059 -0.011148 404507.000000 0 0 1
9.358191 -28.550152 -32.701303 44.407906 -1.254051 2.398507 0.045038 -0.000677 -530499.000000 0 0 1
8.408391 -27.648862 -32.323673 43.358741 -1.275570 2.412072 0.023332 0.000800 390350.000000 0 0 1
7.223091 -28.300112 -31.480153 42.942629 -1.320900 2.393628 0.022547 0.004093 654125.000000 0 0 1
6.259891 -29.133192 -32.068683 43.775901 -1.359143 2.392879 0.015703 0.009226 37848.300000 0 0 1
6.714691 -30.423732 -32.464993 44.996292 -1.353573 2.376768 0.023397 0.007236 -406060.000000 0 0 1
5.532491 -31.300272 -32.881653 45.733123 -1.395848 2.373144 0.031682 -0.008149 -282766.000000 0 0 1
4.697991 -31.566162 -31.813593 45.062161 -1.423051 2.354621 0.035366 -0.015318 -89996.000000 0 0 1
3.678491 -32.507802 -32.108463 45.839305 -1.458118 2.346834 0.039728 -0.035378 -404892.000000 0 0 1
2.703491 -32.896252 -30.984013 45.271197 -1.488798 2.324589 0.039610 -0.041929 297819.000000 0 0 1
1.765891 -31.895282 -30.577853 44.220272 -1.515488 2.334345 0.030626 -0.037037 253851.000000 0 0 1
0.578191 -31.857922 -31.335773 44.689956 -1.552649 2.347850 0.023946 -0.006616 -651604.000000 0 0 1
-0.287109 -30.657472 -30.908413 43.534963 1.561432 2.360249 0.022352 -0.005996 -174079.000000 0 0 1
-0.980209 -30.972422 -29.684203 42.911579 1.539159 2.334710 0.015091 -0.011783 95066.600000 0 0 1
-1.669509 -29.865202 -29.180423 41.787733 1.514953 2.343818 0.025512 -0.008315 -96931.900000 0 0 1
-2.429809 -30.205182 -27.879113 41.176473 1.490526 2.314562 0.028143 -0.007371 -466054.000000 0 0 1
-1.597109 -30.214712 -26.784263 40.408864 1.517987 2.295390 0.021276 -0.000922 -369098.000000 0 0 1
-2.306109 -30.564152 -25.612083 39.943264 1.495488 2.266872 0.026402 -0.003457 256257.000000 0 0 1
-1.350409 -30.911012 -24.449503 39.434660 1.527137 2.239539 0.019531 -0.001068 -49702.000000 0 0 1
-1.990109 -31.026252 -23.211503 38.799004 1.506741 2.212112 0.029503 -0.012198 -682641.000000 0 0 1
-1.124109 -31.438882 -22.199503 38.503050 1.535056 2.185314 0.021958 -0.005888 -281075.000000 0 0 1
-1.695709 -31.256762 -20.809603 37.588564 1.516599 2.157496 -0.005259 0.009415 -242834.000000 0 0 1
-1.840909 -29.912512 -20.333203 36.215831 1.509331 2.166927 -0.020881 0.003958 6548.480000 0 0 1
-0.619309 -29.303852 -19.947403 35.454170 1.549665 2.168354 0.003574 -0.005525 -12229.300000 0 0 1
-0.723109 -27.920152 -19.302703 33.950731 1.544903 2.175539 0.004072 -0.014398 -255044.000000 0 0 1
-1.399109 -27.920242 -18.080203 33.292509 1.520727 2.144887 0.000446 -0.019305 -148952.000000 0 0 1
-1.138809 -26.691742 -17.444803 31.907164 1.528157 2.149258 0.001112 -0.014363 165343.000000 0 0 1
-1.951609 -26.540092 -16.106103 31.106138 1.497394 2.115049 0.008195 -0.019118 -649886.000000 0 0 1
-2.005909 -25.212152 -15.662103 29.748575 1.491402 2.125254 0.005838 -0.011484 451049.000000 0 0 1
-2.840109 -25.082982 -14.487003 29.104904 1.458048 2.091800 0.013709 -0.011503 171190.000000 0 0 1
-2.562109 -23.785902 -13.691703 27.564402 1.463495 2.090608 0.013948 -0.009206 -58963.600000 0 0 1
-1.399809 -23.848202 -12.900903 27.150129 1.512167 2.065953 0.010173 -0.003799 -485608.000000 0 0 1
-1.235709 -22.691402 -12.201403 25.793428 1.516393 2.063538 0.011684 -0.004155 -303864.000000 0 0 1
-0.043909 -22.701902 -11.258703 25.340416 1.568862 2.031187 0.015465 0.000643 -249264.000000 0 0 1
0.248691 -21.430602 -10.753203 23.978405 -1.559192 2.035831 0.007526 0.005778 -241934.000000 0 1 0
1.385391 -21.574002 -9.921003 23.786197 -1.506669 2.001038 -0.003230 0.005348 180785.000000 0 1 0
1.755591 -20.186902 -9.414403 22.343323 -1.484048 2.005732 0.000960 0.009176 -717910.000000 0 1 0
2.212291 -19.333302 -10.502203 22.112600 -1.456863 2.065694 0.001862 0.015854 384941.000000 0 1 0
3.135691 -18.275602 -10.220703 21.172930 -1.400873 2.074560 -0.004115 0.011688 935712.000000 0 1 0
4.544391 -18.670402 -9.690603 21.520762 -1.332038 2.037887 0.001230 0.000407 -99591.800000 0 1 0
4.415091 -19.207302 -8.399103 21.423314 -1.344856 1.973660 0.005202 -0.002465 359023.000000 0 1 0
5.592991 -19.930702 -7.988803 22.188632 -1.297211 1.939107 0.021692 -0.005834 430642.000000 0 1 0
5.322491 -21.159102 -7.135903 22.955557 -1.324363 1.886891 0.030615 -0.002463 -394120.000000 0 1 0
4.393491 -22.010102 -7.718503 23.734419 -1.373773 1.902023 0.013667 -0.003864 -193159.000000 0 1 0
4.162291 -23.130302 -6.873503 24.486334 -1.392752 1.855328 0.029068 -0.009638 646914.000000 0 1 0
3.013091 -24.035602 -7.425903 25.336395 -1.446087 1.868256 0.013693 -0.011495 701689.000000 0 0 1
3.594191 -24.718602 -8.519503 26.391465 -1.426404 1.899496 0.016734 -0.004776 -851.771000 0 0 1
2.644991 -25.521692 -9.139303 27.237467 -1.467528 1.912976 0.009118 -0.002221 -6858.280000 0 0 1
3.227391 -26.426552 -10.275803 28.537183 -1.449271 1.939155 0.003625 -0.001485 201583.000000 0 0 1
4.032691 -27.510192 -9.860503 29.500894 -1.425244 1.911600 0.012561 -0.005862 109960.000000 0 0 1
4.711091 -28.147542 -10.937403 30.563136 -1.404962 1.936774 0.025043 -0.000208 362258.000000 0 0 1
4.828691 -29.665322 -10.886603 31.966634 -1.409439 1.918310 0.027736 -0.004798 1199060.000000 0 0 1
3.583491 -30.268842 -11.358103 32.527691 -1.452956 1.927495 0.028419 -0.006530 1325330.000000 0 0 1
3.623991 -31.636802 -11.099703 33.722751 -1.456744 1.906195 0.035165 -0.007333 -177978.000000 0 0 1
2.393591 -32.342592 -11.671803 34.467427 -1.496924 1.916260 0.034540 -0.018887 -226990.000000 0 0 1
2.312291 -32.479782 -13.077203 35.089830 -1.499725 1.952689 0.032908 -0.016510 -165567.000000 0 0 1
1.101491 -33.102422 -13.396103 35.727289 -1.537533 1.955144 0.024115 -0.013358 -377497.000000 0 0 1
0.761891 -32.999592 -14.893903 36.213007 -1.547713 1.994661 0.023358 -0.007735 -12999.900000 0 0 1
0.040891 -31.815092 -15.202903 35.260885 -1.569511 2.016569 0.013652 -0.015373 3582.510000 0 0 1
-0.446909 -31.910862 -16.524703 35.938401 1.556792 2.048573 -0.000421 -0.006962 -414702.000000 0 0 1
-1.513109 -30.870942 -16.820403 35.188500 1.521822 2.069182 -0.007097 0.000008 -1039930.000000 0 0 1
-2.708409 -31.125062 -16.176203 35.182019 1.483998 2.048551 0.003947 -0.007005 -1596000.000000 0 0 1
-3.729509 -30.626172 -16.962703 35.208024 1.449618 2.073487 -0.003181 -0.004632 -241328.000000 0 0 1
-5.158209 -30.829732 -16.396303 35.297567 1.405019 2.053885 0.014052 -0.003010 -61799.600000 0 0 1
-5.389809 -30.064482 -15.254403 34.141176 1.393406 2.033986 0.013633 -0.003249 160300.000000 0 0 1
-6.771809 -29.756282 -15.124503 34.059423 1.347032 2.030924 0.024225 -0.008028 499197.000000 0 0 1
-7.663509 -30.731682 -14.313103 34.756734 1.326412 1.995234 0.028680 -0.006988 -22302.100000 0 0 1
-7.789109 -31.989102 -14.944503 36.156756 1.331952 1.996899 0.037781 -0.001987 -414942.000000 0 0 1
-8.604109 -32.727462 -14.089003 36.655388 1.313712 1.965315 0.040548 0.007042 -71913.500000 0 0 1
-8.951309 -34.179962 -14.548503 38.210662 1.314661 1.961398 0.062826 -0.001622 -452373.000000 0 0 1
-7.827309 33.765705 -14.679403 37.641393 -1.343007 1.971407 0.058083 -0.005254 -233223.000000 0 0 1
-8.162409 32.502802 -15.186503 36.792485 -1.324755 1.996280 0.072043 -0.008800 -280796.000000 0 0 1
-7.694709 -22.057402 -3.101403 23.565997 1.235147 1.702784 0.048004 -0.018163 94232.800000 0 1 0
-7.320509 -20.996702 -3.954303 22.585125 1.235324 1.746788 0.034147 -0.018647 -499281.000000 0 1 0
-6.205009 -21.360602 -4.699703 22.734658 1.288088 1.779017 0.029706 -0.006914 -206756.000000 0 1 0
-5.820509 -20.326802 -5.797503 21.924147 1.291912 1.838414 0.008666 -0.010896 628947.000000 0 1 0
-6.855209 -20.358902 -6.796203 22.531470 1.246003 1.877200 0.026529 -0.017223 287202.000000 0 1 0
-6.816309 -19.265502 -7.738303 21.851841 1.230732 1.932776 0.008900 -0.014691 -687176.000000 0 1 0
-7.822309 -19.409402 -8.863403 22.726049 1.187692 1.971440 0.013560 -0.023958 -75273.900000 0 1 0
-7.314709 -20.218102 -9.930703 23.683232 1.223657 2.003486 0.025689 -0.009530 -679854.000000 0 1 0
-8.243109 -20.416802 -10.928103 24.580848 1.187069 2.031499 0.031903 0.001345 -533617.000000 0 1 0
-7.806909 -21.329702 -12.129603 25.749394 1.219929 2.061293 0.028202 0.000049 -262849.000000 0 0 1
-6.704109 -20.791202 -12.801903 25.320108 1.258873 2.100876 0.043545 -0.002418 -389641.000000 0 0 1
-6.520309 -21.472102 -14.049603 26.475591 1.275981 2.130178 0.035544 -0.004350 -456995.000000 0 0 1
-5.563009 -20.796702 -14.987103 26.230957 1.309421 2.178948 0.029802 -0.000935 -384101.000000 0 0 1
-4.222509 -20.886202 -14.525003 25.788345 1.371318 2.169097 0.018302 -0.002647 481606.000000 0 0 1
-3.210009 -20.250002 -15.309603 25.588096 1.413585 2.212186 0.025046 0.004085 381462.000000 0 0 1
-3.226209 -18.683302 -15.503003 24.491168 1.399804 2.256224 0.033935 0.007596 -1219790.000000 0 1 0
-4.316509 -18.166602 -16.205803 24.724193 1.337515 2.285592 0.036518 0.004186 -449956.000000 0 1 0
-4.253809 -18.299902 -17.578903 25.729344 1.342402 2.322965 0.049302 -0.000881 -310483.000000 0 0 1
-5.653509 -18.109402 -18.259203 26.330801 1.268197 2.337068 0.037628 0.007804 601759.000000 0 0 1
-6.519309 -19.143602 -17.873403 26.989580 1.242567 2.294592 0.031871 0.009443 147410.000000 0 0 1
-7.735709 -19.239802 -18.620503 27.869953 1.188508 2.302477 0.020864 0.017351 841436.000000 0 0 1
-8.812509 -20.131802 -17.915203 28.353205 1.158184 2.254745 0.035924 0.005611 262937.000000 0 0 1
-8.471609 -21.469502 -17.797303 29.145354 1.194964 2.227664 0.033352 0.004734 594578.000000 0 0 1
-9.669409 -22.239102 -17.915503 30.150296 1.160660 2.207075 0.038578 0.011485 481705.000000 0 0 1
-9.378209 -23.716502 -18.357103 31.423025 1.194236 2.194681 0.033498 -0.004371 -761367.000000 0 0 1
-8.848109 -23.741502 -19.693603 32.090278 1.214057 2.231527 0.033672 -0.010972 1481530.000000 0 0 1
-7.621709 -24.527802 -19.823503 32.444950 1.269518 2.228105 0.043677 -0.025768 1989160.000000 0 0 1
-6.319409 -23.873402 -19.209503 31.287046 1.312026 2.231885 0.050957 -0.028353 -1027660.000000 0 0 1
-5.643409 -22.944302 -20.016803 30.967103 1.329622 2.273639 0.041973 -0.021691 195741.000000 0 0 1
-4.951309 -21.904002 -19.321703 29.624803 1.348487 2.281297 0.041216 -0.008767 757770.000000 0 0 1
-3.806409 -22.383402 -18.337503 29.185089 1.402353 2.250185 0.025165 -0.007895 -357969.000000 0 0 1
-2.676509 -22.841702 -19.060003 29.869562 1.454152 2.262835 0.037822 -0.025047 -833473.000000 0 0 1
-1.696809 -23.155202 -18.129403 29.457050 1.497647 2.233756 0.045709 -0.018388 24145.300000 0 0 1
-0.370009 -23.542302 -18.869303 30.173291 1.555081 2.246395 0.025527 -0.011371 454280.000000 0 0 1
0.273791 -22.508502 -19.570503 29.828044 -1.558633 2.286450 0.032621 -0.011683 789508.000000 0 0 1
1.607191 -22.963502 -19.933703 30.450911 -1.500921 2.284473 0.033683 -0.012726 1210070.000000 0 0 1
2.320691 -22.128702 -21.005103 30.598683 -1.466306 2.327421 0.042567 -0.012625 210948.000000 0 0 1
1.819591 -22.389002 -22.306103 31.656603 -1.489703 2.352694 0.034272 -0.020306 -500592.000000 0 0 1
0.881991 -21.473002 -22.756303 31.300432 -1.529745 2.384780 0.042640 -0.021697 -803798.000000 0 0 1
0.352191 -21.887502 -24.146403 32.591955 -1.554707 2.405161 0.049291 -0.023083 23817.300000 0 0 1
-0.225009 -20.882602 -25.003903 32.578042 1.560022 2.445741 0.052010 -0.026502 23222.800000 0 0 1
-1.466309 -20.351602 -24.577203 31.943335 1.498872 2.448698 0.049302 -0.023618 -263860.000000 0 0 1
-1.908809 -19.117702 -25.394183 31.843282 1.471281 2.493893 0.035867 -0.015257 -68798.500000 0 0 1
-1.371309 -17.878302 -24.932303 30.710485 1.494244 2.518110 0.047394 -0.017040 182497.000000 0 0 1
-1.761409 -16.764102 -25.790113 30.810187 1.466110 2.562692 0.029824 -0.013832 -189225.000000 0 0 1
-1.231309 -15.398602 -25.348183 29.684397 1.491004 2.594274 0.027764 -0.007599 700435.000000 0 0 1
0.171691 -15.249402 -25.640693 29.833184 -1.559538 2.605026 0.036229 -0.015592 695267.000000 0 0 1
0.759391 -14.007202 -25.186213 28.829216 -1.516635 2.633420 0.039198 -0.014341 498916.000000 0 0 1
0.356091 -12.729702 -25.977063 28.930605 -1.542830 2.685793 0.020878 -0.009455 280900.000000 0 0 1
1.083091 -11.563802 -25.511413 28.030818 -1.477407 2.714370 0.020108 -0.003212 364328.000000 0 0 1
0.703991 -10.460902 -26.274403 28.289049 -1.503600 2.761913 0.019943 -0.003186 -437981.000000 0 0 1
1.555191 -9.194002 -26.038973 27.658207 -1.403230 2.797718 0.030790 -0.003826 775435.000000 0 0 1
2.919291 -9.122302 -26.474253 28.153592 -1.261078 2.794456 0.040949 0.000481 419986.000000 0 0 1
3.099091 -9.227102 -27.861123 29.512471 -1.246766 2.805486 0.036348 0.002824 -644191.000000 0 0 1
4.560991 -9.140102 -28.328963 30.114353 -1.107942 2.795523 0.033224 0.008806 -677983.000000 0 0 1
4.783191 -7.865402 -28.931793 30.361029 -1.024420 2.833538 0.027663 0.007776 769084.000000 0 0 1
6.137091 -7.548402 -29.300603 30.873412 -0.888159 2.821023 0.042651 0.004249 -62467.900000 0 0 1
7.155391 -7.375002 -28.142383 29.959706 -0.800511 2.791500 0.060050 -0.002190 -352712.000000 0 0 1
7.714791 -8.594902 -27.617933 29.935607 -0.839308 2.745506 0.045131 0.002449 452857.000000 0 0 1
8.621391 -9.245402 -28.505093 31.182466 -0.820310 2.724174 0.059812 -0.012776 -577189.000000 0 0 1
9.150191 -10.583402 -27.921193 31.230232 -0.857899 2.677088 0.059324 -0.009486 -135767.000000 0 0 1
8.121991 -11.534402 -27.789703 31.165313 -0.957288 2.671855 0.064589 -0.012150 -62669.300000 0 0 1
8.453291 -12.737602 -27.108223 31.121703 -0.984886 2.628110 0.063369 -0.010809 -463581.000000 0 0 1
9.161291 -13.852202 -27.870273 32.443256 -0.986477 2.604201 0.083016 -0.022308 -44007.200000 0 0 1
8.392291 -14.387902 -28.963083 33.411112 -1.042756 2.619685 0.086889 -0.032325 -315601.000000 0 0 1
8.930791 -15.480302 -29.629533 34.602139 -1.047525 2.598843 0.084656 -0.030164 -867473.000000 0 0 1
8.117691 -16.063402 -30.743563 35.624380 -1.102875 2.611959 0.059225 -0.029688 -776123.000000 0 0 1
7.779091 -15.090502 -31.733983 35.990043 -1.094829 2.650342 0.060199 -0.026583 197057.000000 0 0 1
7.011691 -15.620502 -32.778153 36.980687 -1.148876 2.660217 0.059378 -0.025690 -104599.000000 0 0 1
5.973691 -14.643902 -33.398083 36.953495 -1.183472 2.699333 0.060185 -0.025374 218348.000000 0 0 1
6.606291 -13.578402 -34.097194 37.291215 -1.117983 2.724694 0.078287 -0.022912 477696.000000 0 0 1
5.707191 -12.694402 33.934143 36.677594 -1.148289 0.389232 0.048880 -0.020346 120646.000000 0 0 1
6.469791 -11.586302 33.177536 35.733030 -1.061527 0.380488 0.076440 -0.022357 -97025.300000 0 0 1
6.713791 -12.081402 31.855618 34.724856 -1.063578 0.409369 0.077561 -0.027500 138436.000000 0 0 1
7.419291 -11.160602 31.046828 33.815831 -0.984104 0.407498 0.067442 -0.019708 -86629.200000 0 0 1
7.752791 -11.747702 29.665018 32.834853 -0.987464 0.443020 0.060844 -0.015904 -248902.000000 0 0 1
6.621391 -12.103402 28.918658 32.040972 -1.070206 0.445135 0.062886 -0.017306 -77009.600000 0 0 1
6.946191 -12.386802 27.526838 30.974332 -1.059719 0.476298 0.048591 -0.004944 -18700.200000 0 0 1
5.914691 -13.146402 26.638668 30.289108 -1.148018 0.496028 0.047433 -0.021400 -271826.000000 0 0 1
5.923591 -14.500302 26.945118 31.167083 -1.182971 0.526567 0.041131 -0.014831 73823.200000 0 0 1
5.238491 -15.277902 25.990688 30.600195 -1.240478 0.556018 0.008079 -0.014457 1271670.000000 0 0 1
3.654191 -15.293402 25.876348 30.279145 -1.336255 0.546030 0.030593 -0.022910 927085.000000 0 0 1
3.101991 -14.039402 25.500678 29.274762 -1.353341 0.513398 0.023956 -0.026417 -198237.000000 0 0 1
1.795291 -14.304502 25.032078 28.886792 -1.445944 0.522533 0.018650 -0.020795 23281.600000 0 0 1
0.954691 -13.040302 24.783008 28.020678 -1.497716 0.485473 0.016083 -0.019984 -562633.000000 0 0 1
1.326791 -12.308302 23.648068 26.692429 -1.463415 0.482265 0.000548 -0.012095 321543.000000 0 0 1
0.551891 -11.080802 23.423368 25.918004 -1.521031 0.442348 -0.000713 -0.012918 1467030.000000 0 0 1
-0.935209 -11.339302 22.957768 25.622519 1.488508 0.460119 -0.000790 -0.009909 342740.000000 0 0 1
-0.990309 -11.986002 21.734568 24.840217 1.488361 0.505412 0.002737 -0.004411 450291.000000 0 1 0
-2.200509 -12.752902 21.630968 25.206696 1.399929 0.539153 0.018292 -0.006124 579463.000000 0 0 1
-2.261709 -13.549802 20.315068 24.523752 1.405403 0.594581 0.041612 -0.010356 41741.400000 0 1 0
-1.265509 -14.543002 20.062568 24.811430 1.483997 0.629024 0.045799 -0.015913 -130954.000000 0 1 0
-1.431309 -15.341502 18.916368 24.397526 1.477769 0.683544 0.058800 -0.022218 295071.000000 0 1 0
-2.592109 -16.391702 18.927268 25.172373 1.413960 0.719847 0.045727 -0.028055 435434.000000 0 0 1
-2.439909 -17.348502 17.875868 25.029389 1.431072 0.775323 0.029785 -0.017435 244676.000000 0 0 1
-3.515409 -18.312702 17.817568 25.791062 1.381138 0.808142 0.041904 -0.000777 703698.000000 0 0 1
-3.126209 -19.656202 17.076168 26.224701 1.413073 0.861700 0.039717 -0.006196 29007.100000 0 0 1
-2.174409 -20.416602 17.769568 27.153696 1.464694 0.857398 0.038935 -0.009715 -368160.000000 0 0 1
-2.165609 -21.730902 17.297668 27.859133 1.471469 0.900909 0.026631 -0.027865 -296582.000000 0 0 1
-1.190309 -22.656202 18.055568 28.995238 1.518307 0.898597 0.043627 -0.019845 1133610.000000 0 0 1
0.155791 -22.602402 17.535868 28.607682 -1.563904 0.910973 0.026232 -0.018518 252017.000000 0 0 1
1.010391 -23.499202 18.192968 29.735794 -1.527826 0.912436 0.027637 -0.016151 359150.000000 0 0 1
2.350191 -23.497202 17.377368 29.319188 -1.471108 0.936394 0.031217 -0.018895 584923.000000 0 0 1
3.090891 -22.274102 17.528768 28.512224 -1.432911 0.908688 0.046021 -0.027721 -705212.000000 0 0 1
4.066691 -22.115502 16.593168 27.945780 -1.388944 0.935069 0.056523 -0.025901 -596746.000000 0 0 1
4.975591 -20.859102 16.765868 27.220451 -1.336639 0.907232 0.055895 -0.021756 -569963.000000 0 0 1
5.855291 -21.116902 17.857868 28.268559 -1.300312 0.887024 0.060987 -0.013571 -51297.200000 0 0 1
6.567791 -20.004702 18.357668 27.934351 -1.253571 0.853736 0.066527 -0.012444 110649.000000 0 0 1
7.500891 -19.207102 17.431368 27.000532 -1.198483 0.868996 0.046409 -0.008649 -1052530.000000 0 0 1
6.876691 -18.436102 16.446868 25.645237 -1.213779 0.874576 0.032939 -0.008021 -202992.000000 0 0 1
7.759391 -17.630302 15.721768 24.863823 -1.156192 0.886259 0.053955 -0.008702 -258262.000000 0 1 0
6.960591 -16.792002 14.736468 23.400526 -1.177837 0.889566 0.027581 -0.006668 -109930.000000 0 1 0
6.276091 -17.487902 13.715668 23.094059 -1.226231 0.934893 0.036770 -0.010692 562918.000000 0 1 0
5.614191 -16.623702 12.756768 21.693357 -1.245101 0.942151 0.022198 -0.010889 252669.000000 0 1 0
6.169991 -16.874402 11.341468 21.247191 -1.220255 1.007724 0.029121 -0.011362 -242219.000000 0 1 0
7.474291 -16.398002 11.186568 21.210818 -1.143125 1.015260 0.031303 -0.009871 -482505.000000 0 1 0
8.001291 -16.683502 9.924768 20.996688 -1.123607 1.078464 0.033616 -0.007649 -24562.700000 0 1 0
9.353191 -15.965002 9.747368 20.913504 -1.040842 1.085941 0.029875 -0.009595 -208940.000000 0 1 0
10.166191 -16.587102 8.796568 21.350948 -1.020947 1.146150 0.039117 -0.004915 -709095.000000 0 1 0
11.482591 -16.162202 9.089268 21.810123 -0.953085 1.140934 0.037839 0.007530 -411427.000000 0 1 0
12.505291 -16.939602 8.279068 22.624663 -0.934872 1.196163 0.039922 -0.003928 -445694.000000 0 1 0
12.717191 -18.318502 8.587368 23.896388 -0.963956 1.203216 0.034161 -0.012424 -253791.000000 0 1 0
13.641791 -19.000902 7.789868 24.653900 -0.948121 1.249319 0.043364 -0.014696 -227360.000000 0 1 0
14.044191 -20.386002 8.357068 26.127934 -0.967550 1.245223 0.039520 -0.019647 297173.000000 0 0 1
12.960991 -21.302502 8.645068 26.391686 -1.024204 1.237068 0.046389 -0.023231 323488.000000 0 0 1
13.415991 -22.481302 9.263468 27.770661 -1.032761 1.230708 0.039298 -0.023246 63948.600000 0 0 1
12.295791 -23.222602 10.010568 28.119160 -1.083848 1.206807 0.042718 -0.022651 42836.600000 0 0 1
12.185591 -22.718202 11.333368 28.161153 -1.078470 1.156608 0.049041 -0.030076 -663613.000000 0 0 1
11.134891 -23.122702 12.164368 28.401003 -1.122012 1.128177 0.053569 -0.025343 -637612.000000 0 0 1
11.157891 -24.619402 12.711268 29.869547 -1.145272 1.131216 0.039035 -0.015732 -763727.000000 0 0 1
12.248191 -24.900302 13.515068 30.865843 -1.113658 1.117574 0.020626 -0.016488 -585876.000000 0 0 1
12.168191 -26.160212 14.084868 32.106153 -1.135423 1.116648 0.020139 -0.022327 23420.700000 0 0 1
13.346591 -26.474682 15.031668 33.241410 -1.103853 1.101569 0.016396 -0.020857 67457.600000 0 0 1
13.255291 -25.887912 16.282368 33.331700 -1.097574 1.060432 0.011404 -0.016419 -299044.000000 0 0 1
14.422391 -26.256522 16.945268 34.417327 -1.068500 1.056012 0.016359 -0.019229 -552151.000000 0 0 1
14.369291 -25.967192 18.499268 34.971338 -1.065375 1.013394 0.017380 -0.023572 -159165.000000 0 0 1
14.645091 -24.602702 18.815368 34.260614 -1.033867 0.989409 -0.009057 -0.007991 -38025.700000 0 0 1
15.909991 -24.460002 19.422768 35.052295 -0.994105 0.983505 -0.000905 -0.013170 -2483.780000 0 0 1
16.341191 -22.998802 19.715968 34.419454 -0.953042 0.960861 -0.018486 -0.008508 49267.300000 0 0 1
16.426091 -22.137702 18.628468 33.270319 -0.932437 0.976516 -0.024827 -0.008103 -178940.000000 0 0 1
15.200391 -21.513902 18.350768 32.103746 -0.955696 0.962332 -0.013171 -0.009155 -901949.000000 0 0 1
15.281891 -20.289002 17.373268 30.773531 -0.925244 0.970906 -0.010626 -0.008513 -115590.000000 0 0 1
16.112591 -19.216102 17.740468 30.718046 -0.873020 0.955101 -0.014185 -0.010331 922697.000000 0 0 1
17.534291 -19.438502 17.662768 31.579742 -0.836856 0.977247 -0.019816 -0.012582 364749.000000 0 0 1
18.197791 -18.081202 17.818868 31.234620 -0.782184 0.963701 -0.006253 -0.008461 -975840.000000 0 0 1
18.365991 -17.618202 19.125968 31.835724 -0.764620 0.926332 -0.005851 -0.003100 77232.400000 0 0 1
19.073291 -16.414702 19.140268 31.616178 -0.710623 0.920535 0.012763 -0.010308 -412471.000000 0 0 1
19.689191 -16.081402 20.509568 32.663712 -0.684879 0.891943 0.014907 -0.008071 -240641.000000 0 0 1
20.686691 -17.032002 20.815168 33.930804 -0.688806 0.910363 0.015798 -0.006101 -328542.000000 0 0 1
21.266291 -16.653102 22.031168 34.856180 -0.664335 0.886589 0.024272 -0.002121 83599.000000 0 0 1
33.345489 -0.970202 -7.712803 34.239601 -0.029087 1.798006 0.069290 -0.007559 -905069.000000 0 0 1
34.573749 -0.722302 -8.334503 35.571474 -0.020889 1.807298 0.049737 -0.008253 -249195.000000 0 0 1
35.347919 -1.897302 -8.297703 36.358314 -0.053624 1.801046 0.052751 -0.010514 -232188.000000 0 0 1
-34.656141 -1.751002 -8.726303 35.780756 0.050482 1.817164 0.043722 -0.011961 140472.000000 0 0 1
-33.920769 -2.985302 -8.546903 35.108121 0.087782 1.816713 0.057853 -0.012560 294427.000000 0 0 1
-32.639879 -2.879802 -9.138103 34.017053 0.088002 1.842770 0.103156 -0.020030 318002.000000 0 0 1
-31.652469 -4.029702 -8.700303 33.072837 0.126630 1.836994 0.098809 -0.012080 -76950.200000 0 0 1
-31.190419 -3.773002 -7.448503 32.288666 0.120382 1.803578 0.088585 -0.014541 785014.000000 0 0 1
-29.992299 -4.499802 -7.101203 31.148247 0.148921 1.800800 0.077564 -0.017307 745559.000000 0 0 1
-29.722839 -4.376202 -5.596603 30.560109 0.146183 1.754970 0.073199 -0.024968 -310397.000000 0 0 1
-29.257229 -3.103802 -5.284803 29.892276 0.105691 1.748525 0.077731 -0.018795 202643.000000 0 0 1
-29.215309 -2.929802 -3.867203 29.615423 0.099949 1.701751 0.077854 -0.023316 -426530.000000 0 0 1
-28.881249 -1.546302 -3.374603 29.118817 0.053489 1.686948 0.094130 -0.021544 -1746190.000000 0 0 1
-27.559999 -1.328202 -3.614503 27.827725 0.048156 1.701053 0.079704 -0.016136 -1183820.000000 0 0 1
-27.279969 0.052198 -3.257003 27.473760 -0.001913 1.689625 0.076714 -0.020611 -87203.700000 0 0 1
-25.824389 0.277898 -2.795703 25.976764 -0.010761 1.678628 0.066988 -0.012357 -89098.500000 0 0 1
-25.591699 -0.374302 -1.551803 25.641436 0.014625 1.631353 0.058884 -0.014505 762473.000000 0 0 1
-24.195909 -0.318602 -1.266203 24.231112 0.013167 1.623075 0.042806 -0.014754 549405.000000 0 1 0
-23.725109 -1.065502 0.027197 23.749038 0.044880 1.569651 0.022845 -0.013363 -103970.000000 0 1 0
-24.041109 -2.454102 -0.186303 24.166759 0.101727 1.578505 0.038160 -0.015660 257000.000000 0 1 0
-23.246509 -3.088302 0.760097 23.463067 0.132077 1.538395 0.024307 -0.010171 -474582.000000 0 1 0
-23.272809 -4.631502 0.790697 23.742360 0.196443 1.537487 0.023697 -0.005765 -532039.000000 0 1 0
-24.412009 -5.256002 1.308597 25.005683 0.212067 1.518440 0.022605 -0.013224 -179542.000000 0 0 1
-24.431709 -6.619902 1.042697 25.334141 0.264602 1.529627 0.009026 -0.008649 -70356.600000 0 0 1
-25.648949 -7.377902 1.626497 26.738502 0.280088 1.509929 0.015917 -0.014569 17618.300000 0 0 1
-25.667659 -7.391402 3.053997 26.884725 0.280380 1.456955 0.015138 -0.013338 737067.000000 0 0 1
-26.864709 -7.921602 3.661797 28.246648 0.286744 1.440794 0.029800 -0.010706 462333.000000 0 0 1
-26.913599 -7.912902 5.210297 28.532491 0.285954 1.387157 0.023642 -0.014085 -439494.000000 0 0 1
-26.082059 -8.916402 5.734497 28.154227 0.329404 1.365679 0.020905 0.003569 -105597.000000 0 0 1
-26.199099 -9.184502 7.115097 28.659596 0.337179 1.319910 0.014925 -0.002534 -282125.000000 0 0 1
-25.527079 -8.100802 8.006497 27.952795 0.307290 1.280299 0.023696 -0.003200 1218000.000000 0 0 1
-24.105609 -7.950402 7.739697 26.536620 0.318581 1.274833 0.032556 -0.012834 1211090.000000 0 0 1
-23.645709 -6.698902 8.260597 25.927443 0.276069 1.246540 0.033209 -0.019243 -244554.000000 0 0 1
-22.233909 -6.363002 7.766097 24.395630 0.278734 1.246819 0.036038 -0.021654 65781.900000 0 1 0
-21.180109 -6.979102 8.485897 23.860330 0.318307 1.207188 0.044121 -0.026273 -43306.000000 0 1 0
-19.931409 -6.658202 7.938897 22.463722 0.322401 1.209583 0.034887 -0.021161 -441525.000000 0 1 0
-18.726109 -6.938902 8.816397 21.829896 0.354861 1.155055 0.033357 -0.021669 -410737.000000 0 1 0
-18.798309 -6.041602 9.896697 22.086692 0.310964 1.106175 0.034459 -0.015423 802939.000000 0 1 0
-17.748409 -6.236602 10.874897 21.729349 0.337912 1.046654 0.028032 -0.018044 587143.000000 0 1 0
-17.579309 -5.043702 11.785897 21.757261 0.279406 0.998339 0.023087 -0.012174 270422.000000 0 1 0
-18.706609 -4.935602 12.641897 23.110927 0.257964 0.992009 0.032252 -0.013455 263833.000000 0 1 0
-18.856609 -3.725102 13.350697 23.402760 0.195038 0.963712 0.031109 -0.002172 -492185.000000 0 1 0
-20.015009 -3.723502 14.304997 24.881680 0.183933 0.958289 0.034163 -0.004560 -740169.000000 0 1 0
-19.763909 -4.560902 15.412797 25.474855 0.226799 0.921005 0.035273 -0.009691 557097.000000 0 0 1
-20.934209 -4.590602 16.230697 26.884015 0.215870 0.922624 0.026894 0.002116 396431.000000 0 0 1
-20.836709 -5.580702 17.307297 27.656016 0.261688 0.894632 0.026180 0.005163 -45658.400000 0 0 1
-21.893209 -5.372802 18.216297 28.982979 0.240654 0.891151 0.026566 0.006877 221631.000000 0 0 1
-21.658909 -6.054102 19.426097 29.717566 0.272564 0.858345 0.030070 0.006164 -215085.000000 0 0 1
-22.455209 -5.650502 20.689297 31.051757 0.246516 0.841582 0.019882 0.007252 -343329.000000 0 0 1
-22.305809 -4.274702 20.991397 30.926703 0.189345 0.824742 0.019159 0.011504 176119.000000 0 0 1
-22.978309 -3.853902 22.144197 32.143751 0.166173 0.810810 0.021117 0.001984 -212225.000000 0 0 1
-22.743109 -2.369602 22.544497 32.111032 0.103815 0.792483 0.018990 0.004091 180185.000000 0 0 1
-23.475209 -1.514202 21.665597 31.980875 0.064413 0.826499 0.019856 0.007178 324705.000000 0 0 1
-23.171609 -0.206802 22.040297 31.980321 0.008925 0.810435 0.018099 0.000700 53948.800000 0 0 1
-24.357909 0.712698 21.636597 32.587697 -0.029251 0.844708 0.015376 0.002493 525621.000000 0 0 1
-25.464229 0.490298 22.507797 33.989238 -0.019252 0.847041 0.016852 -0.001238 169095.000000 0 0 1
-26.615589 1.201698 22.094097 34.611888 -0.045120 0.878459 0.019799 0.001757 444454.000000 0 0 1
-27.778329 1.113598 23.101797 36.146489 -0.040067 0.877448 0.022125 0.000897 -98091.100000 0 0 1
-27.413769 1.919698 24.205397 36.621049 -0.069913 0.848686 0.030823 0.001235 -110618.000000 0 0 1
-28.427089 2.092998 25.146897 38.011136 -0.073494 0.847890 0.033339 -0.001300 -637551.000000 0 0 1
-28.014669 2.947198 26.344897 38.568916 -0.104816 0.818852 0.053479 -0.005481 -860184.000000 0 0 1
-27.044409 2.334998 27.088597 38.348981 -0.086126 0.786439 0.045488 -0.004836 -515790.000000 0 0 1
-26.571299 3.295598 28.010797 38.749189 -0.123398 0.762843 0.041458 -0.009316 401973.000000 0 0 1
-25.346609 2.959598 28.958697 38.598134 -0.116239 0.722339 0.032909 -0.007588 607248.000000 0 0 1
-25.636099 2.018398 30.011497 39.521810 -0.078571 0.708459 0.030741 -0.007195 -260161.000000 0 0 1
-24.573809 1.893398 30.898797 39.524584 -0.076898 0.673311 0.018190 -0.010635 -289014.000000 0 0 1
-24.859809 0.863498 31.983397 40.517816 -0.034721 0.661020 0.013862 -0.005834 8337.070000 0 0 1
-24.943209 -0.386302 31.376197 40.084644 0.015486 0.671726 0.004382 -0.008833 -171850.000000 0 0 1
-25.385419 -1.374402 32.283497 41.091759 0.054089 0.667060 0.010850 -0.008350 -555232.000000 0 0 1
-26.082829 -2.528202 31.468997 40.951234 0.096628 0.694380 0.007985 -0.003020 432487.000000 0 0 1
-27.385419 -2.210902 30.988697 41.414353 0.080558 0.725361 0.007853 0.001876 273497.000000 0 0 1
-27.462479 -1.262702 29.918597 40.631326 0.045947 0.743147 0.014112 0.001098 -1205910.000000 0 0 1
-28.815599 -1.025102 29.263297 41.081993 0.035560 0.778006 0.048208 -0.012146 145389.000000 0 0 1
-29.777399 -0.474602 30.176097 42.397117 0.015937 0.778812 0.072715 -0.012103 -560734.000000 0 0 1
-31.051449 -0.418802 29.591897 42.895784 0.013487 0.809507 0.057292 -0.015739 -412363.000000 0 0 1
-32.061599 -0.123002 30.701697 44.390939 0.003836 0.807066 0.059113 -0.012099 -450720.000000 0 0 1
-32.287279 -1.118802 31.645197 45.223209 0.034638 0.795741 0.052866 -0.011877 -96210.500000 0 0 1
-32.843749 -0.613302 32.859897 46.463543 0.018671 0.785240 0.057222 -0.010193 45268.600000 0 0 1
-33.192569 -1.877202 33.710097 47.345973 0.056495 0.778461 0.060543 -0.010429 -1686.540000 0 0 1
-34.091533 -2.810102 33.161497 47.642567 0.082242 0.800918 0.033813 -0.000526 -35129.700000 0 0 1
-34.093307 -3.974002 34.006297 48.317435 0.116039 0.790050 0.030323 0.000306 -119685.000000 0 0 1
-35.206385 -4.952302 33.615497 48.928688 0.139748 0.813402 0.023235 -0.009459 -106306.000000 0 0 1
34.978539 -4.522202 33.984297 48.978372 -0.128572 0.803956 0.022781 -0.011338 229254.000000 0 0 1
33.950579 -5.402702 33.436697 47.956686 -0.157811 0.799274 0.023706 -0.012696 -136869.000000 0 0 1
32.562619 -4.924702 33.879997 47.248609 -0.150100 0.771224 0.034619 -0.010376 -744707.000000 0 0 1
32.167129 -5.387202 -33.609173 46.832923 -0.165935 2.371204 0.032343 -0.017693 83302.300000 0 0 1
31.679869 -6.721702 -33.625073 46.684483 -0.209075 2.374977 0.035835 -0.019352 -208297.000000 0 0 1
30.237599 -7.014302 -34.156073 46.153550 -0.227941 2.403945 0.036736 -0.026003 255848.000000 0 0 1
29.256289 -6.684702 -33.201073 44.754072 -0.224632 2.406630 0.038225 -0.028366 -514944.000000 0 0 1
27.952179 -6.818802 -33.685273 44.300316 -0.239272 2.434701 0.058892 -0.026584 -1287540.000000 0 0 1
26.969169 -6.442602 -32.604473 42.800641 -0.234493 2.436845 0.046191 -0.032395 -1265430.000000 0 0 1
25.749449 -6.886102 -33.091773 42.491387 -0.261312 2.463527 0.036626 -0.026623 -347563.000000 0 0 1
24.610849 -6.690202 -32.271673 41.132877 -0.265426 2.472801 0.032334 -0.026823 189793.000000 0 0 1
23.319849 -7.425102 -32.659973 40.812025 -0.308253 2.498514 0.047275 -0.033838 -227191.000000 0 0 1
23.300349 -8.842802 -32.577773 41.017225 -0.362722 2.488562 0.055992 -0.035836 217606.000000 0 0 1
23.377549 -9.432502 -31.300673 40.189726 -0.383507 2.463583 0.046602 -0.026857 -420730.000000 0 0 1
23.096849 -10.955502 -31.314473 40.423801 -0.442901 2.456965 0.055340 -0.024319 229605.000000 0 0 1
21.772149 -11.310502 -31.694673 40.081246 -0.479121 2.482847 0.067561 -0.027460 443323.000000 0 0 1
21.629249 -12.685402 -31.554873 40.304514 -0.530429 2.470129 0.060317 -0.021173 -581674.000000 0 0 1
20.549449 -13.380802 -32.459173 40.680753 -0.577184 2.494600 0.047479 -0.018512 2922.210000 0 0 1
19.219949 -13.147602 -32.124173 39.676547 -0.599948 2.514354 0.032690 -0.015737 -558891.000000 0 0 1
18.802249 -11.909202 -32.668973 39.529931 -0.564612 2.543545 0.026784 -0.020633 -839085.000000 0 0 1
17.441049 -11.393502 -32.162173 38.319805 -0.578662 2.566808 0.030828 -0.019808 270262.000000 0 0 1
16.292649 -12.050402 -32.679873 38.453046 -0.636826 2.586524 0.026517 -0.014268 -961103.000000 0 0 1
15.162049 -11.454702 -32.188873 37.379426 -0.647002 2.608302 0.049854 -0.016343 -531985.000000 0 0 1
13.836549 -11.920802 -32.855573 37.590482 -0.711158 2.634252 0.044731 -0.017257 -65820.100000 0 0 1
13.479249 -13.252602 -32.637873 37.716739 -0.776920 2.616628 0.050852 -0.010913 368666.000000 0 0 1
12.333749 -13.678002 -33.370573 38.115670 -0.837031 2.637282 0.045669 -0.020158 851191.000000 0 0 1
10.961249 -13.591102 -32.634573 37.011922 -0.892103 2.650316 0.053942 -0.018702 229095.000000 0 0 1
10.391549 -12.317802 -32.629373 36.392149 -0.870018 2.682838 0.071162 -0.016234 -96392.400000 0 0 1
9.237449 -12.281202 -31.793773 35.312921 -0.925913 2.691355 0.074537 -0.025604 -372867.000000 0 0 1
8.255849 -11.241202 -32.273573 35.158316 -0.937336 2.733678 0.071252 -0.019903 -1022230.000000 0 0 1
8.640049 -9.900402 -32.317673 34.886966 -0.853272 2.755410 0.057427 -0.013034 -554534.000000 0 0 1
7.585349 -9.023002 -32.501773 34.573362 -0.871745 2.793665 0.068581 -0.011950 -1057740.000000 0 0 1
7.971449 -7.615602 -32.941573 34.737424 -0.762572 2.818639 0.070546 -0.007915 -514704.000000 0 0 1
8.454649 -6.891102 -31.857873 33.673320 -0.683861 2.811729 0.051790 -0.006045 327647.000000 0 0 1
8.959749 -5.610602 -32.264773 33.952490 -0.559462 2.824968 0.050629 -0.006647 75564.900000 0 0 1
9.332549 -4.707602 -31.043673 32.756185 -0.467184 2.816808 0.049310 -0.010055 -195522.000000 0 0 1
8.157949 -4.278402 -30.395473 31.760694 -0.483012 2.847327 0.047708 -0.005735 -94097.200000 0 0 1
8.305249 -3.414202 -29.268173 30.614701 -0.390030 2.843904 0.037532 -0.003990 -1263740.000000 0 0 1
7.000349 -2.959302 -28.715873 29.704608 -0.399952 2.882858 0.029959 -0.003913 -2045830.000000 0 0 1
6.256049 -2.081302 -29.512373 30.239877 -0.321168 2.921798 0.031981 0.000136 821605.000000 0 0 1
5.030449 -1.600902 -28.907473 29.385546 -0.308108 2.960964 0.035947 -0.003598 845239.000000 0 0 1
3.900549 -2.645502 -28.812473 29.195403 -0.595971 2.979451 0.023785 -0.003588 -1160170.000000 0 0 1
4.024549 -3.663502 -27.843173 28.370064 -0.738471 2.948565 0.022391 -0.011798 97456.000000 0 0 1
2.867649 -4.494402 -27.769073 28.276218 -1.002868 2.951913 0.046590 -0.009426 261350.000000 0 0 1
2.952749 -5.587302 -26.652373 27.391343 -1.084629 2.908782 0.037368 -0.013181 -274016.000000 0 0 1
2.673149 -5.082902 -25.369273 26.011183 -1.086636 2.918970 0.031725 -0.017622 -77377.700000 0 0 1
2.910749 -5.989602 -24.322273 25.217470 -1.118438 2.874343 0.031395 -0.017566 -269295.000000 0 0 1
2.752449 -5.368402 -22.935973 23.716125 -1.097030 2.884387 0.028815 -0.024797 -226764.000000 0 1 0
3.694249 -4.353802 -22.679373 23.387113 -0.867167 2.894952 0.023292 -0.020715 -235765.000000 0 1 0
3.442549 -3.537302 -21.555973 22.113879 -0.798973 2.916490 0.020836 -0.017896 -885508.000000 0 1 0
4.444849 -2.388302 -21.469973 22.054941 -0.493055 2.910762 0.021867 -0.013937 -298677.000000 0 1 0
5.704549 -2.872502 -21.062973 22.010043 -0.466480 2.847174 0.019379 -0.016416 107817.000000 0 1 0
6.634249 -1.759802 -21.017373 22.109730 -0.259289 2.825940 0.034248 0.002619 524234.000000 0 1 0
8.062749 -2.121202 -20.545073 22.172223 -0.257257 2.756100 0.037206 -0.008937 -876627.000000 0 1 0
8.777249 -2.635602 -21.629573 23.490954 -0.291710 2.740825 0.041025 -0.017809 48027.300000 0 1 0
9.961649 -3.364002 -21.338573 23.788352 -0.325671 2.683772 0.040394 -0.018555 824056.000000 0 1 0
11.125849 -2.763902 -20.491273 23.480118 -0.243493 2.631517 0.049993 -0.020783 -661883.000000 0 1 0
10.875049 -2.462602 -19.131773 22.143980 -0.222690 2.613901 0.031513 -0.013548 -264563.000000 0 1 0
11.995949 -1.973902 -18.444373 22.090586 -0.163086 2.558825 0.039154 -0.019121 -291688.000000 0 1 0
12.319349 -0.455402 -18.478873 22.213566 -0.036950 2.553271 0.035564 -0.019178 10672.000000 0 1 0
12.815449 0.044498 -19.708573 23.508840 0.003472 2.565041 0.041277 -0.018152 217527.000000 0 1 0
12.873649 1.443798 -19.687073 23.566846 0.111685 2.559605 0.058166 -0.029979 -79692.500000 0 1 0
13.284649 2.097998 -21.039473 24.970842 0.156633 2.572818 0.051356 -0.019424 66412.600000 0 1 0
14.622749 2.082798 -21.498473 26.083466 0.141484 2.539617 0.044412 -0.012321 231261.000000 0 0 1
14.830849 3.281098 -22.231673 26.925211 0.217728 2.542207 0.044921 -0.018841 -42800.200000 0 0 1
16.210549 3.332698 -22.937173 28.284319 0.202763 2.516571 0.040196 -0.009525 218219.000000 0 0 1
16.458149 2.298998 -23.920373 29.126282 0.138789 2.534420 0.031970 -0.010437 222912.000000 0 0 1
17.083249 1.125898 -23.380773 28.978710 0.065811 2.509556 0.036005 -0.010468 -297905.000000 0 0 1
9.206791 27.063298 3.598797 28.812123 1.242883 1.445564 -0.027685 0.009697 -44776.700000 0 0 1
9.258891 27.565098 4.937897 29.494822 1.246745 1.402589 -0.024572 0.012060 203754.000000 0 0 1
10.556691 27.955598 5.370297 30.361148 1.209728 1.392980 -0.017242 0.014113 6414.520000 0 0 1
10.612491 28.336598 6.850997 31.024570 1.212451 1.348136 -0.012623 0.000178 35356.600000 0 0 1
10.475091 27.286198 7.782797 30.246257 1.204248 1.310554 -0.018339 0.000714 -16471.100000 0 0 1
10.370391 28.046698 9.027797 31.235611 1.216632 1.277591 -0.010110 -0.001049 -219887.000000 0 0 1
10.408991 27.138398 10.350697 30.854119 1.204549 1.228690 0.002948 -0.002496 363877.000000 0 0 1
11.651191 26.548998 10.732697 30.915859 1.157248 1.216257 0.011432 -0.004043 401657.000000 0 0 1
12.046491 25.426698 9.883097 29.821310 1.128349 1.232998 0.013956 -0.007456 -414985.000000 0 0 1
13.358591 24.762598 10.311797 29.966171 1.076076 1.219501 0.030803 -0.013597 -522026.000000 0 0 1
14.445591 25.646598 10.159897 31.139149 1.057833 1.238437 0.043020 -0.014095 189145.000000 0 0 1
15.607791 24.995498 10.711797 31.354755 1.012611 1.222143 0.062272 -0.020328 329755.000000 0 0 1
16.763191 25.954298 11.009697 32.800055 0.997328 1.228490 0.059149 -0.021789 -832150.000000 0 0 1
17.365691 26.431598 9.853697 33.125397 0.989512 1.268758 0.050148 -0.023844 338918.000000 0 0 1
18.785691 26.510798 9.904097 33.967863 0.954318 1.274926 0.054549 -0.034884 852052.000000 0 0 1
19.545391 27.556398 10.830197 35.477747 0.953865 1.260577 0.052937 -0.029847 -293216.000000 0 0 1
19.440091 28.852598 10.470597 36.332120 0.977890 1.278459 0.056732 -0.044462 -45393.500000 0 0 1
18.261891 29.511498 10.876697 36.369324 1.016664 1.267086 0.043086 -0.026777 -82653.200000 0 0 1
18.464491 31.089498 11.098197 37.824123 1.034864 1.272998 0.046152 -0.010132 -949979.000000 0 0 1
18.781391 31.879498 9.986297 38.324525 1.038403 1.307182 0.055952 -0.033370 -70112.100000 0 0 1
17.758391 32.089498 9.050397 37.775733 1.065345 1.328861 0.048836 -0.038361 106698.000000 0 0 1
16.406091 32.688198 9.529997 37.795489 1.105633 1.315899 0.043250 -0.031908 -433935.000000 0 0 1
16.538191 33.990698 10.099597 39.126477 1.117966 1.309713 0.038406 -0.026729 -277171.000000 0 0 1
15.293291 -34.144566 10.197597 38.777921 -1.149692 1.304693 0.043383 -0.017785 -247864.000000 0 0 1
15.254491 -32.597966 10.291797 37.433247 -1.133109 1.292272 0.039810 -0.011103 -369472.000000 0 0 1
15.868291 -32.035966 9.190997 36.913144 -1.110894 1.319159 0.042297 -0.007721 -235509.000000 0 0 1
15.708191 -30.671766 9.027597 35.623055 -1.097485 1.314582 0.044324 -0.007956 -284499.000000 0 0 1
16.332191 -29.913866 7.847897 34.973838 -1.071049 1.344476 0.027436 0.001777 1383.490000 0 0 1
15.763291 -30.279466 6.573897 34.764113 -1.090810 1.380551 0.027796 0.006349 99566.500000 0 0 1
16.309891 -29.482166 5.539197 34.145181 -1.065490 1.407851 0.031415 0.010753 88378.600000 0 0 1
15.863591 -29.921566 4.092097 34.113031 -1.083303 1.450550 0.033569 0.000263 -30857.600000 0 0 1
16.249891 -31.237066 3.761997 35.411381 -1.091110 1.464359 0.025508 -0.000377 43637.600000 0 0 1
16.114191 -31.507866 2.400897 35.470792 -1.098043 1.503058 0.028609 -0.001705 -192093.000000 0 0 1
16.432991 -32.927666 2.023597 36.856063 -1.107898 1.515863 0.026287 -0.007259 -919923.000000 0 0 1
17.749591 -33.346366 2.096997 37.834185 -1.081660 1.515342 0.042145 0.002539 -662812.000000 0 0 1
17.880691 34.178298 1.453297 38.600353 1.088793 1.533138 0.054410 -0.007101 230152.000000 0 0 1
19.349091 33.710798 1.625397 38.903048 1.049734 1.529003 0.064073 -0.007300 324178.000000 0 0 1
19.519491 33.251998 2.962197 38.671443 1.039978 1.494122 0.052852 -0.018977 287244.000000 0 0 1
20.895791 33.116898 3.300197 39.297002 1.007915 1.486716 0.052869 -0.012640 307201.000000 0 0 1
21.192191 33.103298 4.834797 39.601926 1.001353 1.448406 0.057003 -0.010740 -317173.000000 0 0 1
20.795491 31.953498 5.574197 38.529861 0.993856 1.425615 0.059275 -0.022566 361147.000000 0 0 1
21.763991 30.887698 5.636597 38.203304 0.956979 1.422714 0.046296 -0.032408 368401.000000 0 0 1
21.196191 29.811698 6.549297 37.160586 0.952724 1.393628 0.054862 -0.045969 532183.000000 0 0 1
20.032991 29.261298 5.934997 35.955090 0.970464 1.404970 0.058859 -0.037371 -416257.000000 0 0 1
19.208791 28.579998 6.835297 35.107196 0.979037 1.374847 0.059332 -0.045955 -240892.000000 0 0 1
17.769591 28.817398 6.324397 34.441237 1.018241 1.386120 0.062020 -0.035636 -356279.000000 0 0 1
17.250791 30.190298 6.238697 35.326551 1.051670 1.393264 0.049076 -0.039192 196842.000000 0 0 1
17.557091 30.892798 5.115097 35.899591 1.053994 1.427826 0.057538 -0.038153 -650977.000000 0 0 1
17.461591 32.383298 5.291697 37.169708 1.076270 1.427945 0.054897 -0.033313 -810022.000000 0 0 1
16.181691 32.888698 5.505797 37.065178 1.113558 1.421701 0.044186 -0.026917 -657071.000000 0 0 1
16.181891 34.286998 5.644997 38.331682 1.129836 1.422992 0.039687 -0.029563 -175887.000000 0 0 1
14.768591 -33.880866 5.810397 37.413702 -1.159732 1.414864 0.031576 -0.024066 121671.000000 0 0 1
13.945091 -33.997066 4.664497 37.040837 -1.181541 1.444533 0.033060 -0.017515 -286109.000000 0 0 1
12.912191 -33.045366 4.689197 35.787002 -1.198297 1.439388 0.026782 -0.013198 501698.000000 0 0 1
11.940491 -33.019866 3.437497 35.280353 -1.223811 1.473208 0.022050 -0.011112 1316200.000000 0 0 1
11.029491 -31.867466 3.356697 33.888826 -1.237596 1.471583 0.030752 -0.018210 472145.000000 0 0 1
10.341491 -31.896766 2.140497 33.599581 -1.257272 1.507047 0.029145 -0.010802 -913811.000000 0 0 1
9.521791 -30.567566 2.070197 32.083116 -1.268823 1.506225 0.041445 -0.011638 -62255.700000 0 0 1
8.909591 -30.210966 0.862597 31.509163 -1.284013 1.543417 0.043936 -0.003323 719080.000000 0 0 1
7.841191 -31.112266 0.417997 32.087881 -1.323909 1.557769 0.037169 -0.010284 336066.000000 0 0 1
8.137091 -31.820666 -0.920703 32.857491 -1.320444 1.598821 0.046514 -0.008834 -900319.000000 0 0 1
9.181391 -32.684566 -0.781203 33.958638 -1.296945 1.593803 0.038402 -0.012219 -1053510.000000 0 0 1
9.443591 -33.552866 -1.816603 34.903815 -1.296440 1.622866 0.041067 0.000904 -505380.000000 0 0 1
10.634291 34.265598 -1.647403 35.915641 1.269872 1.616681 0.032927 -0.010470 -271454.000000 0 0 1
10.547991 33.253298 -0.684703 34.892847 1.263634 1.590421 0.026691 -0.010037 -411217.000000 0 0 1
11.742091 32.545798 -0.787303 34.608171 1.224544 1.593547 0.030607 -0.007366 -647613.000000 0 0 1
11.908491 31.583298 0.430197 33.756510 1.210229 1.558052 0.024099 -0.009162 -962232.000000 0 0 1
12.165891 32.305998 1.631697 34.559353 1.210639 1.523564 0.015940 -0.007166 1032000.000000 0 0 1
13.482091 32.862198 1.893997 35.570747 1.181475 1.517525 0.022118 -0.009371 458179.000000 0 0 1
14.633491 31.877598 1.927497 35.128842 1.140440 1.515899 0.036675 -0.015573 -1186280.000000 0 0 1
15.123391 31.593298 0.619697 35.031949 1.124342 1.553106 0.034011 -0.011730 -569493.000000 0 0 1
15.999491 30.541898 0.575197 34.483650 1.088248 1.554115 0.049548 -0.007125 -571236.000000 0 0 1
16.538691 30.213698 -0.828803 34.454068 1.069959 1.594854 0.043365 -0.005626 -817051.000000 0 0 1
17.536191 31.056998 -1.192503 35.685812 1.056779 1.604219 0.036937 -0.000592 -829063.000000 0 0 1
17.155691 31.947198 -2.227103 36.330444 1.077988 1.632136 0.046085 -0.005394 239475.000000 0 0 1
18.400991 32.721798 -2.778803 37.643516 1.058523 1.644682 0.043914 0.004478 618929.000000 0 0 1
19.100391 33.605498 -1.913703 38.701637 1.053958 1.620264 0.037585 0.005235 223765.000000 0 0 1
20.159191 34.223298 -2.641303 39.807080 1.038468 1.637198 0.046265 0.011148 -142383.000000 0 0 1
21.253191 -33.886266 -1.736703 40.037399 -1.010622 1.614187 0.048814 0.010805 224713.000000 0 0 1
22.168191 33.979998 -1.081503 40.586188 0.992743 1.597447 0.041879 0.008875 1312540.000000 0 0 1
23.063791 33.069398 -1.780103 40.357060 0.961793 1.614919 0.041300 0.009776 210724.000000 0 0 1
24.008991 33.671298 -2.794203 41.448710 0.951372 1.638261 0.034396 0.005133 -1280950.000000 0 0 1
23.322591 34.171998 -3.892303 41.555009 0.971908 1.664600 0.031773 -0.006013 15511.000000 0 0 1
24.189991 -33.852566 -4.728103 41.874895 -0.950359 1.683948 0.026791 -0.007223 -204492.000000 0 0 1
23.483091 -33.288566 -5.952003 41.170506 -0.956429 1.715874 0.031934 -0.016083 -68856.100000 0 0 1
22.688391 -32.124266 -5.678903 39.736400 -0.955875 1.714202 0.040070 -0.012993 228657.000000 0 0 1
22.120991 -31.686466 -6.866703 39.249484 -0.961332 1.746651 0.045903 -0.018527 -730134.000000 0 0 1
21.032391 -30.633066 -6.790103 37.773691 -0.969126 1.751536 0.055100 -0.018699 658530.000000 0 0 1
19.816891 -31.073366 -6.130603 37.361043 -1.003084 1.735633 0.060896 -0.014543 623379.000000 0 0 1
18.962791 -30.003166 -5.850303 35.972260 -1.007160 1.734156 0.061723 -0.020532 446757.000000 0 0 1
17.733591 -30.298666 -4.950103 35.454096 -1.041261 1.710874 0.046632 -0.010986 783551.000000 0 0 1
16.550891 -30.859266 -5.493103 35.445740 -1.078505 1.726396 0.043335 -0.009636 1134840.000000 0 0 1
15.461091 -30.801566 -4.506703 34.757621 -1.105584 1.700823 0.025770 -0.004150 1403410.000000 0 0 1
14.163091 -31.552066 -4.872303 34.926571 -1.148874 1.710754 0.018931 0.000551 33796.900000 0 0 1
14.340091 -32.955566 -4.911503 36.274377 -1.160373 1.706612 0.025731 0.007809 241465.000000 0 0 1
13.139291 -33.650966 -5.249703 36.504628 -1.198543 1.715106 0.029583 0.007584 360301.000000 0 0 1
13.461291 33.631998 -5.112103 36.584850 1.190072 1.710988 0.029806 0.002248 2179.670000 0 0 1
13.373291 33.153298 -3.769003 35.947065 1.187382 1.675838 0.038003 -0.004183 17701.400000 0 0 1
13.848691 31.832998 -3.528503 34.893787 1.160451 1.672091 0.035243 -0.003004 -681593.000000 0 0 1
13.114991 30.628798 -4.152603 33.576337 1.166226 1.694790 0.036143 -0.007939 -409437.000000 0 0 1
11.957391 30.256798 -3.458803 32.717218 1.194437 1.676712 0.024045 -0.010419 -303138.000000 0 0 1
11.848391 28.906698 -3.085603 31.392714 1.181798 1.669246 0.022582 -0.011215 -964562.000000 0 0 1
10.667291 28.464098 -2.269703 30.481921 1.212233 1.645326 0.016752 -0.007085 -665791.000000 0 0 1
10.726391 28.877698 -0.924503 30.819338 1.215149 1.600798 0.014278 -0.003233 90637.100000 0 0 1
9.657991 28.282098 -0.195403 29.886319 1.241725 1.577335 -0.002043 0.001389 -266517.000000 0 0 1
8.605591 29.301098 0.214197 30.539424 1.285134 1.563782 -0.019482 0.005965 88771.600000 0 0 1
7.573291 28.670898 1.004897 29.671282 1.312549 1.536922 -0.019078 0.000778 175413.000000 0 0 1
6.402991 29.464498 0.937597 30.166770 1.356811 1.539711 0.000540 0.007052 -254421.000000 0 0 1
5.226891 28.800998 1.648197 29.317818 1.391267 1.514548 0.008642 0.002268 -67082.800000 0 0 1
4.563191 27.782598 0.862997 28.168071 1.408003 1.540154 0.007512 0.001318 314748.000000 0 0 1
3.452991 27.247398 1.565197 27.509884 1.444741 1.513870 0.019688 -0.003599 86196.400000 0 0 1
2.811991 26.116598 0.775097 26.278980 1.463539 1.541297 0.020059 -0.003930 750808.000000 0 0 1
1.520491 25.758898 1.326997 25.837834 1.511837 1.519415 0.022561 -0.002834 734716.000000 0 0 1
0.963491 24.854098 0.419897 24.876310 1.532050 1.553916 0.009613 0.001425 -395585.000000 0 1 0
-0.411709 24.342198 0.838897 24.360129 -1.553885 1.536352 0.014274 0.002308 -428111.000000 0 1 0
-1.493709 25.230798 0.674497 25.283973 -1.511664 1.544116 0.025918 -0.004417 -30217.400000 0 0 1
-2.591909 24.599898 1.326497 24.771608 -1.465821 1.517222 0.026920 0.002157 -735344.000000 0 1 0
-3.786809 25.497698 1.583497 25.825956 -1.423358 1.509444 0.045232 -0.013178 -470376.000000 0 0 1
-4.801909 24.572398 2.065697 25.122265 -1.377810 1.488478 0.031786 -0.013379 827359.000000 0 0 1
-6.095209 25.045498 2.406997 25.888650 -1.332072 1.477687 0.025307 -0.011729 679785.000000 0 0 1
-7.033809 25.527598 1.272897 26.509489 -1.301931 1.522761 0.033366 -0.012366 -463516.000000 0 0 1
-6.591709 26.682798 0.685997 27.493507 -1.328606 1.545842 0.038339 -0.015266 -243355.000000 0 0 1
-7.446409 26.948498 -0.393903 27.961147 -1.301203 1.584884 0.035818 -0.012540 -255707.000000 0 0 1
-7.076409 28.128998 -1.284903 29.033895 -1.324341 1.615066 0.038673 -0.010214 7615.530000 0 0 1
-7.304809 29.386298 -0.666203 30.287928 -1.327156 1.592794 0.047556 -0.029256 -134293.000000 0 0 1
-7.192709 30.314998 -1.682303 31.201992 -1.337838 1.624739 0.045816 -0.023847 -36606.800000 0 0 1
-7.211809 31.857398 -1.305503 32.689575 -1.348171 1.610743 0.033083 -0.016514 -252784.000000 0 0 1
-7.413309 32.754398 -2.422203 33.670088 -1.348216 1.642798 0.032530 -0.006886 461576.000000 0 0 1
-6.414909 32.770398 -3.463303 33.571484 -1.377488 1.674142 0.021657 -0.007872 569856.000000 0 0 1
-5.037409 33.434298 -3.226203 33.965220 -1.421255 1.665925 0.029272 -0.007263 -384105.000000 0 0 1
-5.056609 -33.917966 -3.007203 34.424424 1.422803 1.658264 0.030940 -0.002743 -135438.000000 0 0 1
-4.179509 -33.714866 -1.935703 34.028039 1.447459 1.627713 0.033737 -0.009656 -122880.000000 0 0 1
-3.959509 -32.215966 -1.650503 32.500313 1.448504 1.621602 0.027312 -0.005921 310028.000000 0 0 1
-5.096709 -31.605066 -1.051203 32.030637 1.410910 1.603621 0.032592 -0.002837 167278.000000 0 0 1
-5.229909 -30.262066 -1.476103 30.746113 1.399666 1.618824 0.036857 0.003250 721950.000000 0 0 1
-6.718709 -29.753066 -1.428303 30.535652 1.348706 1.617588 0.058271 0.000187 730299.000000 0 0 1
-7.037309 -29.451066 -0.115903 30.280397 1.336245 1.574624 0.046342 0.000856 447306.000000 0 0 1
-8.243809 -28.675166 0.018597 29.836653 1.290856 1.570173 0.045985 -0.003105 632127.000000 0 0 1
-8.370309 -27.747266 1.211297 29.007587 1.277815 1.529026 0.037888 0.006317 548993.000000 0 0 1
-7.333509 -26.742266 1.247097 27.757601 1.303147 1.525853 0.048714 0.000282 254337.000000 0 0 1
-6.954509 -26.373366 2.537297 27.392654 1.312971 1.478036 0.043451 0.009123 -129089.000000 0 0 1
-7.941909 -25.432466 3.233697 26.839170 1.268117 1.450019 0.033527 0.004836 11487.300000 0 0 1
-7.876009 -24.073866 2.769597 25.480448 1.254612 1.461886 0.038404 -0.006063 -482233.000000 0 0 1
-8.714109 -23.239466 3.570197 25.074983 1.212052 1.427930 0.038103 -0.004815 158695.000000 0 0 1
-8.281109 -21.803366 3.874797 23.642707 1.207816 1.406164 0.017268 0.007505 183249.000000 0 1 0
-7.210009 -21.630366 4.792297 23.298564 1.249050 1.363627 0.010799 0.006522 18463.700000 0 1 0
-6.712409 -20.302066 4.971497 21.953271 1.251484 1.342357 0.001575 -0.003252 627383.000000 0 1 0
-7.785809 -19.391966 5.665397 21.650956 1.189000 1.306045 0.005427 -0.002231 522704.000000 0 1 0
-8.022209 -19.689866 6.998997 22.383758 1.183903 1.252781 0.004062 0.001454 412785.000000 0 1 0
-9.053609 -18.865566 7.574197 22.254121 1.123357 1.223507 0.005707 -0.003359 329141.000000 0 1 0
-26.724449 29.182198 -5.756803 39.986718 -0.829332 1.715266 0.044268 -0.004496 337983.000000 0 0 1
-25.887589 30.233898 -5.189703 40.139617 -0.862689 1.700451 0.042377 -0.013731 206986.000000 0 0 1
-24.932309 29.534098 -4.417203 38.902373 -0.869687 1.684588 0.030694 -0.012347 11125.300000 0 0 1
-24.003209 30.515898 -3.665303 38.997545 -0.904292 1.664923 0.025977 -0.016217 -453266.000000 0 0 1
-24.662609 31.155098 -2.602303 39.820301 -0.901194 1.636194 0.019029 -0.023984 83266.100000 0 0 1
-23.900909 32.068498 -1.820503 40.036936 -0.930305 1.616283 0.013860 -0.019811 557795.000000 0 0 1
-22.647309 31.584998 -0.998003 38.878126 -0.948734 1.596469 0.017298 -0.015408 830690.000000 0 0 1
-21.594709 31.162998 -1.826603 37.957876 -0.964811 1.618937 0.022952 -0.024768 -29748.900000 0 0 1
-20.392109 30.832798 -1.163403 36.984497 -0.986465 1.602258 0.022086 -0.016341 7366.840000 0 0 1
-19.296009 30.096398 -1.907903 35.801805 -1.000675 1.624112 0.039906 -0.019687 178271.000000 0 0 1
-18.137409 29.952698 -1.087903 35.033031 -1.026317 1.601855 0.035926 -0.010714 -409860.000000 0 0 1
-17.053609 29.504798 -1.828203 34.127716 -1.046715 1.624391 0.033174 -0.005710 -27533.600000 0 0 1
-15.679709 29.739398 -1.120403 33.638377 -1.085597 1.604110 0.036090 -0.011338 401757.000000 0 0 1
-15.437209 28.984898 0.079797 32.839581 -1.081414 1.568366 0.032919 -0.014957 -547782.000000 0 0 1
-14.298909 29.473098 0.704997 32.766131 -1.119098 1.549279 0.043419 -0.020479 -425318.000000 0 0 1
-13.825809 28.654798 1.912097 31.873289 -1.121250 1.510770 0.036175 -0.021914 282819.000000 0 0 1
-14.618609 28.841498 3.137897 32.486646 -1.101676 1.474055 0.034689 -0.015791 405035.000000 0 0 1
-14.108509 28.160998 4.276997 31.786547 -1.106353 1.435833 0.031954 -0.019861 28283.200000 0 0 1
-13.023409 28.816798 5.129897 32.036430 -1.146332 1.409977 0.036893 -0.019732 -205821.000000 0 0 1
-13.420709 29.973898 5.901597 33.367332 -1.149818 1.392993 0.029449 -0.019327 -220273.000000 0 0 1
-13.271509 31.188998 5.207097 34.292862 -1.168486 1.418365 0.035900 -0.016264 -69887.300000 0 0 1
-13.172709 32.454298 6.117197 35.555897 -1.185227 1.397892 0.036361 -0.019007 357634.000000 0 0 1
-14.402309 32.895998 6.690497 36.528563 -1.158123 1.386599 0.040167 -0.012918 252091.000000 0 0 1
-14.238109 34.097898 7.420297 37.688874 -1.175240 1.372619 0.044385 -0.014983 475002.000000 0 0 1
-15.487609 -34.199166 8.239797 38.436223 1.145562 1.354744 0.043912 -0.009548 405426.000000 0 0 1
-15.709409 33.718298 9.411497 38.370372 -1.134798 1.322987 0.037717 -0.008499 -176989.000000 0 0 1
-16.617409 34.298098 10.301697 39.479397 -1.119626 1.306802 0.055288 -0.008039 -891746.000000 0 0 1
-16.765409 33.556298 11.713297 39.297651 -1.107452 1.268130 0.061743 -0.009285 867340.000000 0 0 1
-15.794609 33.964798 12.718797 39.558122 -1.135515 1.243460 0.074217 -0.016724 611781.000000 0 0 1
-14.473909 33.502898 12.518897 38.583170 -1.162995 1.240350 0.079699 -0.012396 -74849.400000 0 0 1
-13.675609 33.671198 13.856697 38.894472 -1.184998 1.206530 0.092987 -0.014269 -322150.000000 0 0 1
-14.177409 32.952498 14.916197 38.850470 -1.164498 1.176738 0.078816 -0.009371 -42418.300000 0 0 1
-13.604109 31.658698 15.133897 37.634821 -1.164942 1.156960 0.067560 -0.004660 -59465.600000 0 0 1
-14.306909 30.504798 14.366297 36.628143 -1.132251 1.167752 0.066332 -0.009736 82393.000000 0 0 1
-14.150509 30.457398 12.962697 35.998910 -1.135868 1.202436 0.060588 -0.009148 -356599.000000 0 0 1
-15.172809 29.711598 12.393997 35.589385 -1.098650 1.215093 0.028296 -0.012648 -482670.000000 0 0 1
-15.238809 29.490798 10.857697 34.925894 -1.093854 1.254680 0.017176 -0.007939 -485841.000000 0 0 1
-14.324409 28.586198 10.343097 33.605640 -1.106273 1.257939 0.005409 -0.006183 -270067.000000 0 0 1
-14.549909 28.318598 8.982797 33.080712 -1.096175 1.295802 0.015784 -0.002743 -203261.000000 0 0 1
-13.694809 27.140198 8.466897 31.556719 -1.103479 1.299161 0.021107 -0.007357 -508298.000000 0 0 1
-12.334109 27.343698 8.291097 31.121542 -1.147047 1.301130 0.025110 -0.012888 -484072.000000 0 0 1
-11.620909 26.123698 8.134197 29.726390 -1.152240 1.293626 0.028642 -0.018349 -227824.000000 0 0 1
-10.425509 26.220798 7.204297 29.122558 -1.192357 1.320823 0.042119 -0.025244 -367320.000000 0 0 1
-10.832909 26.547198 5.865197 29.266127 -1.183359 1.369021 0.040848 -0.022550 1270750.000000 0 0 1
-9.717109 26.290898 4.968997 28.466199 -1.216769 1.395340 0.051722 -0.019756 786204.000000 0 0 1
-10.117409 26.620798 3.526797 28.696117 -1.207600 1.447583 0.046657 -0.017722 -561.219000 0 0 1
-10.117009 28.000198 3.209497 29.944379 -1.224073 1.463408 0.049123 -0.015804 -21827.300000 0 0 1
-10.119809 28.205298 1.817097 30.020846 -1.226311 1.510231 0.049098 -0.018951 -153313.000000 0 0 1
-9.799009 29.675398 1.488197 31.286811 -1.251863 1.523212 0.057539 -0.022850 611394.000000 0 0 1
-10.783209 30.583298 2.015197 32.491179 -1.231821 1.508734 0.052725 -0.027002 124260.000000 0 0 1
-10.400409 31.915198 1.816297 33.616176 -1.255772 1.516740 0.051510 -0.021751 -337671.000000 0 0 1
-11.042909 32.952598 2.711297 34.859299 -1.247443 1.492939 0.047485 -0.013964 16261.200000 0 0 1
-12.275109 33.490898 2.260897 35.741156 -1.219480 1.507497 0.054186 -0.016085 -192208.000000 0 0 1
-12.249409 34.344398 1.144397 36.481438 -1.228197 1.539422 0.050340 -0.011060 996464.000000 0 0 1
-13.744809 -33.973366 0.797597 36.657135 1.186351 1.549036 0.054991 -0.012240 1822110.000000 0 0 1
-14.563809 33.793798 0.221097 36.799106 -1.163888 1.564788 0.046674 -0.014825 -302447.000000 0 0 1
-14.596109 33.816898 -1.213803 36.852440 -1.163330 1.603739 0.040381 -0.008119 205199.000000 0 0 1
-13.366209 33.361298 -2.067103 35.998676 -1.189730 1.628250 0.046725 -0.011062 -7046.130000 0 0 1
-13.099609 32.002498 -1.972803 34.635987 -1.182272 1.627785 0.039558 -0.014354 248796.000000 0 0 1
-11.761609 31.778698 -2.405903 33.970715 -1.216320 1.641679 0.039863 -0.012195 424786.000000 0 0 1
-11.223509 30.300698 -2.487303 32.408118 -1.216061 1.647621 0.019139 -0.020835 167305.000000 0 0 1
-11.353109 29.757598 -3.729303 32.067358 -1.206322 1.687356 0.019141 -0.017341 -934745.000000 0 0 1
-10.165509 29.765098 -4.443303 31.765415 -1.241692 1.711135 0.015095 -0.008091 -645557.000000 0 0 1
-10.298909 29.089098 -5.886303 31.414833 -1.230521 1.759284 0.017416 -0.009120 -101071.000000 0 0 1
-10.672909 27.718398 -5.769503 30.257358 -1.203246 1.762652 0.023088 -0.005092 56114.400000 0 0 1
-10.960909 27.180098 -7.069603 30.147613 -1.187474 1.807500 0.010562 -0.002178 156187.000000 0 0 1
-11.511509 25.691398 -7.041303 29.019695 -1.149550 1.815881 0.026091 -0.003776 -212649.000000 0 0 1
-10.761309 24.858198 -6.248003 27.798801 -1.162247 1.797491 0.022996 -0.000616 -405068.000000 0 0 1
-11.243309 23.523798 -6.278403 26.817894 -1.124940 1.807102 0.026045 -0.009397 997.287000 0 0 1
-10.432709 22.546398 -5.369603 25.416808 -1.137413 1.783662 0.036430 -0.015639 -216748.000000 0 0 1
-9.119209 22.294798 -5.816603 24.780050 -1.182531 1.807736 0.039201 -0.016330 111543.000000 0 1 0
-8.527109 21.047098 -5.383803 23.338322 -1.185863 1.803578 0.041294 -0.013961 -170916.000000 0 1 0
-8.135609 20.869398 -3.930803 22.741397 -1.199084 1.744517 0.029031 -0.019323 -231634.000000 0 1 0
-9.246409 20.851298 -3.052003 23.012767 -1.153407 1.703810 0.029735 -0.017561 286909.000000 0 1 0
-10.070409 19.662198 -3.190903 22.320328 -1.097459 1.714247 0.035854 -0.022523 78795.200000 0 1 0
-11.433109 19.833098 -2.466103 23.024974 -1.047861 1.678108 0.036651 -0.015502 -6514.120000 0 1 0
-11.479209 19.731598 -1.006003 22.849951 -1.043891 1.614837 0.044863 -0.017503 55101.700000 0 1 0
-11.347809 18.353398 -0.598203 21.586520 -1.017033 1.598512 0.041595 -0.021193 -181662.000000 0 1 0
-11.016309 18.206298 0.873597 21.297688 -1.026648 1.529766 0.037171 -0.025273 -958358.000000 0 1 0
-12.164609 18.334698 1.583597 22.060069 -0.985007 1.498949 0.054744 -0.026283 -922496.000000 0 1 0
-11.787009 18.468798 2.905497 22.101403 -1.002753 1.438953 0.045033 -0.025132 39085.700000 0 1 0
-12.901109 18.390098 3.982697 22.814386 -0.959048 1.395328 0.057985 -0.029013 211973.000000 0 1 0
-13.460909 17.073298 4.120297 22.128498 -0.903157 1.383505 0.037832 -0.025578 529810.000000 0 1 0
-14.758009 17.149798 4.695697 23.107661 -0.860218 1.366162 0.055168 -0.030518 267093.000000 0 1 0
-15.223709 15.835698 5.323397 22.602416 -0.805099 1.333039 0.033309 -0.021798 -580390.000000 0 1 0
-14.496709 15.414998 6.466297 22.126675 -0.816089 1.274228 0.036323 -0.011225 189711.000000 0 1 0
-14.945109 16.064498 7.677997 23.245989 -0.821481 1.234182 0.031093 -0.004409 -804375.000000 0 1 0
-13.967709 15.813198 8.880397 22.891387 -0.847288 1.172405 0.026386 0.000337 1658600.000000 0 1 0
-12.715909 16.541198 8.846297 22.661918 -0.915408 1.169774 0.032383 -0.015298 841054.000000 0 1 0
-11.863009 16.292498 7.747897 21.591813 -0.941441 1.203777 0.031483 -0.014063 -1785440.000000 0 1 0
-10.783209 17.313098 7.629797 21.776932 -1.013755 1.212839 0.037078 -0.021199 -611740.000000 0 1 0
-9.789909 17.276698 8.634297 21.653584 -1.055257 1.160646 0.038320 -0.015362 -256134.000000 0 1 0
-8.895909 18.327798 8.384497 22.030551 -1.118915 1.180368 0.026233 -0.025082 -694362.000000 0 1 0
-7.779109 18.514898 9.387397 22.168428 -1.173037 1.133537 0.028217 -0.014055 -545407.000000 0 1 0
-6.736109 17.561098 9.223997 20.948734 -1.204524 1.114849 0.020979 -0.011900 283978.000000 0 1 0
-5.504209 17.844898 9.872297 21.123422 -1.271608 1.084491 0.019270 -0.009681 922340.000000 0 1 0
-4.574109 18.832198 9.070297 21.397300 -1.332523 1.133050 0.015845 -0.014342 -774532.000000 0 1 0
-4.914009 20.199898 9.137797 22.708648 -1.332163 1.156667 0.020660 -0.015289 50768.500000 0 1 0
-4.229609 21.054498 8.223697 22.995884 -1.372546 1.205082 0.021275 -0.026392 -21941.700000 0 1 0
-2.811309 21.566598 8.546397 23.367981 -1.441172 1.196378 0.032720 -0.020316 935888.000000 0 1 0
-1.744109 20.609098 8.253897 22.268894 -1.486369 1.191091 0.021847 -0.011739 259040.000000 0 1 0
-0.520909 21.274898 8.188397 22.802247 -1.546317 1.203488 0.025482 -0.014487 248478.000000 0 1 0
0.736291 20.338698 8.223397 21.950604 1.534611 1.186797 0.023490 -0.009638 401214.000000 0 1 0
1.073291 19.844398 9.492097 22.023896 1.516764 1.125206 0.021519 -0.009864 -644456.000000 0 1 0
2.289591 19.162598 9.474997 21.499371 1.451878 1.114406 0.014542 -0.017981 -520539.000000 0 1 0
3.008191 19.144698 10.874397 22.222088 1.414941 1.059451 0.003957 -0.014095 -1089310.000000 0 1 0
3.798191 18.033798 11.011897 21.468722 1.363215 1.032205 0.010812 -0.017166 -99740.200000 0 1 0
4.698891 18.300098 12.115797 22.444726 1.319457 1.000590 0.007888 -0.008549 -610106.000000 0 1 0
6.103791 18.700998 11.721397 22.899230 1.255309 1.033438 0.010341 -0.015595 -1240390.000000 0 1 0
6.993691 17.749998 11.236397 22.141156 1.195464 1.038528 0.005166 -0.007953 67177.000000 0 1 0
7.644591 17.009498 12.269997 22.322984 1.148416 0.988842 0.003521 0.000684 -388833.000000 0 1 0
8.984491 16.345698 11.867797 22.107635 1.068218 1.004134 0.007943 0.006429 354630.000000 0 1 0
9.969691 17.243798 11.374897 22.937559 1.046590 1.051917 0.017447 -0.003755 -678470.000000 0 1 0
10.953991 16.570498 10.695597 22.560300 0.986690 1.076867 0.017116 -0.006346 -818339.000000 0 1 0
11.718491 17.655498 9.937997 23.405201 0.984829 1.132269 0.014215 -0.003977 58716.100000 0 1 0
12.718291 17.090098 9.081897 23.158308 0.931024 1.167811 0.014464 0.001515 7843.800000 0 1 0
13.485591 18.141498 8.497697 24.149244 0.931561 1.211215 0.026145 0.006465 -75198.100000 0 1 0
14.458691 17.497298 7.497197 23.904333 0.880200 1.251779 0.033690 -0.003269 -377956.000000 0 1 0
15.602891 16.924198 8.087297 24.398423 0.825998 1.232937 0.043777 -0.005323 60983.400000 0 1 0
16.585291 16.755198 7.065897 24.611693 0.790494 1.279603 0.049356 0.000387 1410230.000000 0 1 0
18.052891 16.496798 7.625097 25.616271 0.740389 1.268549 0.046620 -0.002646 1076930.000000 0 0 1
18.384791 15.269198 8.130197 25.243793 0.693084 1.242884 0.051851 -0.003473 156064.000000 0 0 1
19.374391 15.438498 9.128997 26.401758 0.672818 1.217735 0.045138 -0.004373 -125104.000000 0 0 1
19.650691 14.195098 10.041497 26.238943 0.625583 1.178085 0.038136 -0.010525 -285958.000000 0 0 1
20.490191 13.284598 9.411897 26.170829 0.575207 1.202922 0.053385 -0.017065 18792.500000 0 0 1
20.635191 12.234898 10.331397 26.119755 0.535193 1.164141 0.053288 -0.023560 85740.400000 0 0 1
21.544991 11.017498 9.965297 26.170194 0.472704 1.180148 0.051713 -0.019175 840258.000000 0 0 1
22.971991 11.237198 10.067397 27.483440 0.454946 1.195758 0.041100 -0.021725 1698040.000000 0 0 1
23.798191 10.428898 9.262797 27.584692 0.413017 1.228347 0.058511 -0.019750 -360413.000000 0 0 1
24.105191 9.032798 9.794297 27.542330 0.358529 1.207231 0.074777 -0.028628 -202633.000000 0 0 1
22.945691 8.200598 9.706397 26.229157 0.343245 1.191721 0.069216 -0.020537 820611.000000 0 0 1
23.139491 6.850198 10.097097 26.159370 0.287819 1.174522 0.060992 -0.017246 -429415.000000 0 0 1
24.080291 5.925398 9.351197 26.503125 0.241275 1.210198 0.074953 -0.019248 111727.000000 0 0 1
23.575491 5.739698 8.043197 25.562491 0.238814 1.250710 0.074897 -0.014965 867615.000000 0 0 1
24.670191 5.375198 7.193697 26.253769 0.214529 1.293240 0.073164 -0.017537 423656.000000 0 0 1
24.277991 5.203798 5.756297 25.487945 0.211147 1.342987 0.082964 -0.023819 -253552.000000 0 0 1
23.517791 4.050398 5.524597 24.495171 0.170554 1.343301 0.084210 -0.012591 243062.000000 0 1 0
23.229091 3.734998 4.170797 23.894276 0.159425 1.395345 0.082005 -0.019478 -132727.000000 0 1 0
22.281991 2.518398 4.069197 22.790082 0.112546 1.391283 0.066711 -0.011983 -182504.000000 0 1 0
22.779691 1.288498 4.540597 23.263525 0.056503 1.374354 0.065513 -0.007033 377757.000000 0 1 0
21.935391 0.236398 4.070897 22.311196 0.010777 1.387309 0.045583 -0.007743 284391.000000 0 1 0
22.631291 -1.177102 4.139897 23.036919 -0.051965 1.390108 0.055132 -0.007081 -203692.000000 0 1 0
22.543291 -1.681902 5.452297 23.254168 -0.074470 1.334128 0.057160 -0.008232 579438.000000 0 1 0
22.711391 -3.101502 5.526397 23.578967 -0.135722 1.334217 0.051918 -0.009887 -626443.000000 0 1 0
22.054691 -3.659102 6.831597 23.376680 -0.164413 1.274228 0.059767 -0.015098 -270927.000000 0 1 0
22.251691 -5.020402 7.022397 23.867473 -0.221903 1.272152 0.058129 -0.017371 511947.000000 0 1 0
22.064091 -5.336802 8.409397 24.207923 -0.237319 1.216019 0.069859 -0.016891 -5465.240000 0 1 0
22.009291 -6.872402 8.754997 24.663511 -0.302657 1.207906 0.080778 -0.022771 281348.000000 0 1 0
20.716091 -7.358302 8.444297 23.550100 -0.341298 1.204064 0.079719 -0.028830 390272.000000 0 1 0
20.593791 -8.732802 8.760597 24.023200 -0.401066 1.197515 0.084577 -0.024482 -103886.000000 0 1 0
-25.879319 -33.555666 5.226497 42.697051 0.913842 1.448080 0.015980 -0.005042 -533651.000000 0 0 1
-26.772159 34.282898 5.688597 43.868277 -0.907799 1.440756 0.014299 -0.009945 -385633.000000 0 0 1
-26.925089 34.378898 7.059597 44.234681 -0.906392 1.410517 0.022553 -0.004669 -164571.000000 0 0 1
-27.688329 33.183098 7.691797 43.896757 -0.875423 1.394662 0.039129 -0.010221 -63706.800000 0 0 1
-29.072679 33.261598 7.421497 44.795459 -0.852498 1.404354 0.036353 -0.013168 -242815.000000 0 0 1
-29.683609 32.080098 7.929597 44.419904 -0.824180 1.391320 0.042774 -0.010040 335706.000000 0 0 1
-31.224439 32.068498 7.749897 45.424829 -0.798733 1.399348 0.033293 -0.011683 509620.000000 0 0 1
-31.816739 32.292598 6.476297 45.793659 -0.792821 1.428897 0.030265 -0.012147 949774.000000 0 0 1
-33.252759 32.355098 6.515297 46.851333 -0.771717 1.431281 0.014032 -0.008201 903693.000000 0 0 1
-33.930319 32.308198 5.135397 47.132351 -0.760914 1.461623 0.011417 -0.002329 -167877.000000 0 0 1
-33.733069 31.015598 4.518897 46.046799 -0.743453 1.472501 0.014401 -0.009838 455862.000000 0 0 1
-34.408856 30.927398 3.271697 46.380786 -0.732163 1.500198 0.016815 0.000873 370155.000000 0 0 1
-33.818119 29.700798 2.536197 45.080316 -0.720668 1.514507 0.029440 -0.010176 7565.670000 0 0 1
-34.383833 28.599098 3.233197 44.839825 -0.693809 1.498628 0.040719 -0.015242 305474.000000 0 0 1
-33.883259 27.305398 2.937597 43.615244 -0.678308 1.503393 0.041799 -0.018667 -467816.000000 0 0 1
-34.364749 26.184898 3.850297 43.375219 -0.651118 1.481912 0.051348 -0.017092 546461.000000 0 0 1
-35.702088 25.722498 3.537997 44.145254 -0.624336 1.490566 0.044966 -0.010687 682821.000000 0 0 1
35.454763 24.797098 4.528397 43.502215 0.610324 1.466512 0.046474 -0.015121 214837.000000 0 0 1
33.937189 24.464498 4.402497 42.066928 0.624600 1.465950 0.061803 -0.018564 14116.800000 0 0 1
33.611619 23.653098 3.297397 41.232061 0.613217 1.490739 0.056494 -0.015895 71781.300000 0 0 1
34.100949 22.311798 3.399997 40.893166 0.579383 1.487557 0.052375 -0.016672 -581444.000000 0 0 1
33.440829 21.359098 2.357397 39.749936 0.568400 1.511456 0.060236 -0.019019 917880.000000 0 0 1
32.057449 21.078898 2.651997 38.458199 0.581654 1.501784 0.056804 -0.026960 988652.000000 0 0 1
31.735319 20.094998 3.661397 37.740499 0.564479 1.473628 0.045502 -0.015347 -346865.000000 0 0 1
32.058159 18.608798 3.382497 37.221690 0.525935 1.479796 0.054745 -0.018242 -259532.000000 0 0 1
31.457969 18.140298 2.174497 36.378602 0.523075 1.510987 0.058762 -0.031086 283901.000000 0 0 1
31.623469 16.769098 1.982997 35.849389 0.487572 1.515453 0.051170 -0.030016 -427359.000000 0 0 1
30.892389 15.828298 2.984197 34.839348 0.473494 1.485035 0.066635 -0.029856 54973.400000 0 0 1
29.484099 16.019498 2.885697 33.678831 0.497705 1.485008 0.057176 -0.027462 135648.000000 0 0 1
28.805039 15.233198 3.869397 32.813912 0.486451 1.452602 0.052357 -0.035609 192860.000000 0 0 1
27.293029 15.581098 3.766897 31.652323 0.518734 1.451505 0.029322 -0.029067 -136884.000000 0 0 1
26.782239 15.112098 2.561197 30.858120 0.513724 1.487702 0.039335 -0.025695 -322654.000000 0 0 1
25.378349 15.197198 2.641697 29.698384 0.539555 1.481728 0.008534 -0.012994 -323720.000000 0 0 1
24.714249 14.459598 1.486497 28.672003 0.529370 1.518928 0.008101 -0.020358 -674794.000000 0 0 1
25.121649 14.935198 0.229797 29.226875 0.536377 1.562934 0.017848 -0.017382 658396.000000 0 0 1
26.180749 14.150698 -0.340903 29.762226 0.495520 1.582251 0.030857 -0.018580 -549818.000000 0 0 1
26.869629 14.805598 -1.594703 30.720120 0.503623 1.622730 0.048734 -0.021180 139659.000000 0 0 1
27.408089 16.095898 -1.492703 31.819954 0.531005 1.617724 0.036913 -0.017417 719474.000000 0 0 1
28.316809 16.293698 -0.384203 32.672219 0.522140 1.582556 0.054604 -0.027998 -536814.000000 0 0 1
29.053879 17.621898 -0.387203 33.982482 0.545203 1.582191 0.065762 -0.023338 -80546.900000 0 0 1
29.956979 17.698398 -1.490203 34.826349 0.533623 1.613599 0.053239 -0.023432 301427.000000 0 0 1
30.704229 18.922498 -1.532803 36.099309 0.552306 1.613270 0.042361 -0.011936 168907.000000 0 0 1
29.975049 20.204998 -2.110003 36.210463 0.593104 1.629100 0.033170 0.002315 -43390.200000 0 0 1
30.818839 21.336298 -2.299303 37.554297 0.605549 1.632061 0.019322 0.010570 324540.000000 0 0 1
30.067359 22.413498 -2.811803 37.607409 0.640578 1.645633 0.028913 0.012431 -207675.000000 0 0 1
30.885359 23.759798 -2.883203 39.073601 0.655733 1.644652 0.035868 0.012861 261385.000000 0 0 1
31.184109 24.382298 -1.613903 39.617544 0.663595 1.611545 0.026482 0.015116 438491.000000 0 0 1
32.403449 23.859398 -1.087003 40.254639 0.634690 1.597803 0.030478 0.025191 86666.900000 0 0 1
32.815789 24.585198 0.220097 41.004346 0.642981 1.565429 0.040360 0.000771 24638.400000 0 0 1
33.156719 25.976198 -0.042803 42.120455 0.664560 1.571813 0.060485 0.001908 203229.000000 0 0 1
34.132629 26.436498 0.897797 43.182529 0.659012 1.550004 0.052869 -0.004987 270307.000000 0 0 1
34.709079 27.767698 0.337397 44.450861 0.674749 1.563206 0.052636 -0.008103 -278475.000000 0 0 1
35.465071 27.612398 -0.824603 44.954374 0.661543 1.589140 0.048388 -0.008986 -191314.000000 0 0 1
34.718489 27.843798 -1.984003 44.548702 0.675952 1.615347 0.034323 -0.007257 -194951.000000 0 0 1
35.374939 27.326398 -3.293503 44.821485 0.657733 1.644343 0.026764 0.002873 664120.000000 0 0 1
-35.017693 28.125998 -3.826603 45.077195 -0.676685 1.655789 0.029425 0.003306 408914.000000 0 0 1
-34.490446 27.600298 -5.047203 44.461687 -0.674881 1.684560 0.027054 0.003667 -150660.000000 0 0 1
-35.347165 27.643798 -6.347703 45.319918 -0.663709 1.711323 0.022876 0.001745 29550.600000 0 0 1
34.893179 26.956798 -6.239503 44.532396 0.657779 1.711370 0.017293 0.012018 -427803.000000 0 0 1
34.066439 27.223898 -7.326903 44.219299 0.674217 1.737259 0.016358 0.005343 120157.000000 0 0 1
32.690499 26.512598 -7.192703 42.700370 0.681423 1.740049 0.020784 0.020465 -35418.900000 0 0 1
32.542869 25.101198 -7.422803 41.763698 0.657011 1.749479 0.014566 0.018219 454283.000000 0 0 1
33.570059 24.263998 -6.818003 41.978276 0.625856 1.733936 0.016219 0.011995 585549.000000 0 0 1
33.425239 22.723398 -7.021503 41.023176 0.597059 1.742803 0.009128 0.019184 580122.000000 0 0 1
32.412059 22.091798 -6.211403 39.713608 0.598264 1.727846 0.012435 0.016401 563905.000000 0 0 1
32.743039 20.751498 -6.014103 39.228825 0.564880 1.724712 0.024709 0.009648 933123.000000 0 0 1
31.535539 19.809998 -5.522403 37.648681 0.560883 1.718010 0.038779 0.001319 657204.000000 0 0 1
30.560829 19.593998 -6.503503 36.880680 0.570127 1.748062 0.023774 0.001154 -477202.000000 0 0 1
29.554409 18.813898 -5.931603 35.533221 0.566887 1.738513 0.053732 -0.013306 -92299.800000 0 0 1
28.234819 18.525498 -6.677803 34.423715 0.580667 1.766023 0.033004 -0.016719 244980.000000 0 0 1
28.265779 17.452298 -7.607703 34.079526 0.553141 1.795927 0.031824 -0.018169 -178456.000000 0 0 1
27.105209 17.543798 -8.395003 33.360954 0.574438 1.825172 0.039367 -0.017286 -82601.700000 0 0 1
27.113719 16.385798 -9.434703 33.055435 0.543602 1.860242 0.039488 -0.012820 -950466.000000 0 0 1
26.106949 16.454898 -10.354103 32.550636 0.562393 1.894513 0.041100 -0.008017 -510047.000000 0 0 1
26.164849 15.299998 -11.182803 32.307032 0.529134 1.924251 0.036692 -0.003950 -79080.300000 0 0 1
25.484849 15.505498 -12.547803 32.362716 0.546588 1.968958 0.035591 -0.003305 -867725.000000 0 0 1
24.094249 15.521998 -12.558503 31.291872 0.572301 1.983770 0.041075 -0.001603 -425346.000000 0 0 1
23.434549 15.625598 -13.801803 31.366019 0.588078 2.026422 0.031344 -0.001650 -151217.000000 0 0 1
23.480449 14.330598 -14.686403 31.183136 0.547974 2.061189 0.024443 -0.010203 -60378.400000 0 0 1
24.803949 13.923198 -15.015703 32.164618 0.511500 2.056509 0.032823 -0.014995 392196.000000 0 0 1
25.352949 14.475398 -16.159203 33.368084 0.518789 2.076326 0.033815 -0.018687 -131670.000000 0 0 1
26.673079 13.790198 -16.620703 34.320118 0.477161 2.076342 0.048662 -0.018704 220754.000000 0 0 1
26.521079 12.424698 -16.907303 33.817121 0.438118 2.094352 0.041060 -0.021598 472359.000000 0 0 1
27.746689 11.795598 -17.301503 34.761428 0.401970 2.091766 0.038316 -0.016488 410058.000000 0 0 1
27.657509 10.359398 -17.903803 34.536953 0.358385 2.115770 0.033543 -0.008145 -58779.200000 0 0 1
26.938509 10.427598 -19.137403 34.650516 0.369327 2.155914 0.023662 -0.010098 98564.400000 0 0 1
26.952729 9.265498 -19.936703 34.781765 0.331113 2.181195 0.015599 0.003515 447274.000000 0 0 1
28.245509 8.862498 -20.746603 36.149332 0.304038 2.182074 0.029048 -0.001280 -351728.000000 0 0 1
28.602739 9.785398 -21.755203 37.244591 0.329632 2.194588 0.034540 0.000724 392947.000000 0 0 1
29.383599 9.264198 -22.838903 38.351489 0.305420 2.208703 0.031405 0.000414 -70625.500000 0 0 1
30.769909 8.697798 -22.514403 39.106743 0.275485 2.184277 0.038446 -0.000759 -865852.000000 0 0 1
31.782109 9.674298 -22.396703 40.066280 0.295484 2.163965 0.038408 -0.004173 -95089.200000 0 0 1
33.064949 9.151298 -22.646603 41.108463 0.270009 2.154237 0.031400 0.001790 819197.000000 0 0 1
34.188089 10.285998 -22.592203 42.249672 0.292250 2.134986 0.030831 0.000251 595517.000000 0 0 1
34.284379 10.889298 -21.313303 41.812108 0.307540 2.105679 0.028325 -0.006668 378627.000000 0 0 1
35.220709 11.959998 -21.317203 42.871471 0.327356 2.091205 0.001469 -0.001874 103167.000000 0 0 1
35.186849 12.684398 -19.969603 42.400393 0.345987 2.061194 -0.005954 -0.002481 -28100.600000 0 0 1
35.589119 11.800498 -18.921503 41.998338 0.320168 2.038155 0.005812 -0.008293 352111.000000 0 0 1
35.554774 12.495298 -17.599303 41.593388 0.337955 2.007691 0.003855 -0.005788 -304804.000000 0 0 1
-35.422179 11.835098 -16.330303 40.761245 -0.322454 1.983004 0.001069 -0.002610 -777751.000000 0 0 1
35.274549 10.737298 -15.934803 40.168412 0.295481 1.978715 0.007629 -0.009257 733200.000000 0 0 1
-35.405677 9.863498 -15.118003 39.741723 -0.271696 1.961032 0.014201 -0.009369 933277.000000 0 0 1
35.154449 8.604698 -14.783803 39.095229 0.240049 1.958592 0.032138 -0.003509 697519.000000 0 0 1
34.008049 8.888498 -14.016303 37.841902 0.255646 1.950226 0.041172 -0.006989 304940.000000 0 0 1
34.273549 8.692098 -12.658803 37.556278 0.248373 1.914591 0.037545 -0.004720 -607864.000000 0 0 1
33.092579 9.018698 -11.743203 36.254083 0.266068 1.900660 0.052048 -0.003310 -387514.000000 0 0 1
32.884869 10.418298 -11.606003 36.395808 0.306808 1.895347 0.050382 -0.006351 295730.000000 0 0 1
31.878919 10.830198 -10.680703 35.321892 0.327496 1.877987 0.037007 -0.003568 -80593.200000 0 0 1
32.161819 10.621698 -9.119503 35.076608 0.318980 1.833806 0.052728 -0.004492 558068.000000 0 0 1
33.354109 11.270398 -8.625603 36.248027 0.325856 1.811062 0.051312 -0.008029 810017.000000 0 0 1
33.158429 12.644298 -8.284203 36.441566 0.364309 1.800130 0.054203 -0.011547 -376639.000000 0 0 1
32.851789 12.922498 -6.778603 35.946912 0.374767 1.760505 0.050151 -0.015991 -118907.000000 0 0 1
33.928919 12.506698 -5.954703 36.647613 0.353161 1.734005 0.063833 -0.012759 443703.000000 0 0 1
33.770689 13.073698 -4.656603 36.511162 0.369364 1.698684 0.060721 -0.020072 -286674.000000 0 0 1
35.099979 12.992498 -3.900103 37.630099 0.354518 1.674626 0.072134 -0.025090 -327034.000000 0 0 1
-35.487060 14.011098 -4.247503 38.388586 -0.376035 1.681668 0.073699 -0.021445 -918678.000000 0 0 1
-34.227833 13.788698 -3.702003 37.086083 -0.382961 1.670785 0.065588 -0.030105 -607576.000000 0 0 1
-33.335809 15.008198 -3.758103 36.751129 -0.423031 1.673234 0.059649 -0.026379 -111544.000000 0 0 1
-33.745129 16.026198 -2.843603 37.465435 -0.443382 1.646769 0.073972 -0.023082 -5763.290000 0 0 1
-32.656449 16.826898 -2.487303 36.820848 -0.475789 1.638399 0.064651 -0.018775 -231333.000000 0 0 1
-32.951929 17.711498 -1.271803 37.431862 -0.493192 1.604779 0.065972 -0.011725 -255473.000000 0 0 1
-34.069507 18.531498 -1.456703 38.810691 -0.498173 1.608339 0.049571 -0.003239 -104430.000000 0 0 1
-34.270361 19.383098 -0.355103 39.373700 -0.514736 1.579815 0.033548 0.001127 69034.300000 0 0 1
-35.642887 20.115098 -0.361303 40.928756 -0.513794 1.579624 0.017790 0.005036 310902.000000 0 0 1
-35.617413 21.345998 -1.071603 41.537935 -0.539915 1.596597 0.030178 0.006261 93868.900000 0 0 1
35.391159 21.215198 -2.406403 41.332911 0.540014 1.629049 0.006608 0.017323 -56131.200000 0 0 1
35.645056 22.504298 -3.189803 42.275150 0.563148 1.646321 0.031841 -0.010928 220652.000000 0 0 1
-34.452360 22.666598 -3.484303 41.386956 -0.581917 1.655085 0.036533 -0.001503 80654.000000 0 0 1
-34.222923 23.821298 -4.256503 41.913966 -0.608079 1.672525 0.030630 -0.006379 -152820.000000 0 0 1
-32.751839 24.139398 -4.548103 40.939941 -0.635155 1.682118 0.009505 -0.011723 55258.200000 0 0 1
-32.130309 23.245798 -5.498603 40.036964 -0.626314 1.708570 -0.005934 0.002117 -757484.000000 0 0 1
-30.934189 23.722798 -5.985303 39.440069 -0.654217 1.723142 0.002646 0.008128 -993661.000000 0 0 1
-30.242379 22.836398 -7.022503 38.541122 -0.646765 1.754028 0.012993 -0.011571 -442474.000000 0 0 1
-30.977229 22.783398 -8.224403 39.323183 -0.634149 1.781501 0.009226 -0.018563 459134.000000 0 0 1
-30.055349 22.622498 -9.342003 38.760475 -0.645223 1.814212 -0.008488 -0.019664 738450.000000 0 0 1
-30.695469 22.456098 -10.745703 39.521618 -0.631606 1.846157 -0.004273 -0.008824 457648.000000 0 0 1
-31.493289 23.606398 -11.163703 40.911093 -0.643225 1.847179 -0.008721 -0.008364 255195.000000 0 0 1
-32.092129 23.347198 -12.390603 41.575515 -0.628948 1.873421 -0.019061 -0.003889 -91141.600000 0 0 1
-32.870389 24.656798 -12.840903 43.050075 -0.643579 1.873685 0.014715 -0.002492 587178.000000 0 0 1
-32.019979 25.786998 -13.118703 43.154938 -0.677989 1.879675 0.001870 -0.011279 -11000.500000 0 0 1
-31.288149 25.727398 -14.324003 42.965385 -0.688175 1.910688 -0.012440 -0.014706 -107525.000000 0 0 1
-30.011229 26.624098 -14.262803 42.578680 -0.725663 1.912375 -0.009643 -0.007722 593138.000000 0 0 1
-28.901779 26.111298 -13.509303 41.226375 -0.734718 1.904650 0.002037 -0.011712 579464.000000 0 0 1
-29.051809 25.833398 -12.136203 40.726643 -0.726826 1.873384 0.006654 -0.004633 -936155.000000 0 0 1
-29.207269 27.059398 -11.220503 41.366354 -0.747244 1.845485 0.013544 0.001159 257596.000000 0 0 1
-27.960759 27.727298 -10.949503 40.871735 -0.781206 1.842008 0.017933 0.000443 509115.000000 0 0 1
-28.166049 28.712098 -9.988703 41.442551 -0.794998 1.814218 0.014779 -0.003143 371035.000000 0 0 1
-26.877169 29.489198 -9.615003 41.041970 -0.831705 1.807266 0.014538 -0.003017 214575.000000 0 0 1
-27.158299 30.606698 -8.821603 41.858856 -0.845024 1.783135 0.018669 -0.008157 -822303.000000 0 0 1
-26.095059 31.462898 -8.610403 41.773258 -0.878389 1.778407 0.025507 -0.012652 -1158300.000000 0 0 1
34.315529 -25.246122 33.847201 54.410984 -0.634290 0.899418 0.012065 -0.013643 -144014.000000 0 0 1
34.045659 -23.898702 34.121623 53.800929 -0.612040 0.883797 0.013000 -0.024628 801841.000000 0 0 1
32.889799 -23.887902 -33.744353 52.830409 -0.628161 2.263643 0.013640 -0.018851 728820.000000 0 0 1
32.539519 -22.500602 -33.290693 51.704619 -0.604989 2.270333 0.010237 -0.020488 -157663.000000 0 0 1
31.955009 -21.833502 34.368992 51.759559 -0.599401 0.844624 0.001957 -0.018499 -51562.500000 0 0 1
31.521579 -20.557702 -33.986633 50.708187 -0.577905 2.305328 -0.000502 -0.015600 54386.400000 0 0 1
31.252499 -19.613702 33.575365 49.887084 -0.560458 0.832502 0.002406 -0.004175 26383.900000 0 0 1
32.394969 -19.413702 32.785037 50.011843 -0.539891 0.855892 0.023865 -0.020962 283833.000000 0 0 1
32.037179 -18.594002 31.676618 48.739367 -0.525874 0.863319 0.023878 -0.011879 -105703.000000 0 0 1
33.172469 -18.683302 30.652398 48.877888 -0.512934 0.892944 0.012731 -0.010620 -359794.000000 0 0 1
34.101519 -17.664502 30.859888 49.267443 -0.477942 0.893902 -0.006427 -0.008279 -381649.000000 0 0 1
35.210769 -17.762202 30.015418 49.560260 -0.467204 0.920233 0.003755 -0.013579 -412057.000000 0 0 1
-35.177756 -16.707102 30.372218 49.386976 0.443394 0.908430 -0.005471 -0.018956 -807763.000000 0 0 1
-34.205970 -16.569102 29.341558 48.015732 0.451084 0.913369 0.010636 -0.016104 1007630.000000 0 0 1
-33.115439 -15.665902 29.679008 47.147601 0.441872 0.889898 0.013874 -0.014507 970793.000000 0 0 1
-32.097729 -16.333502 30.655718 47.295037 0.470717 0.865604 0.028029 -0.020763 -1871600.000000 0 0 1
-31.080849 -15.468602 30.902378 46.478530 0.461797 0.843471 0.025884 -0.013870 32527.700000 0 0 1
-29.972949 -16.069702 31.636868 46.448944 0.492140 0.821518 0.027515 -0.018781 1044940.000000 0 0 1
-29.045739 -14.927302 32.218158 45.874710 0.474725 0.792162 0.037375 -0.020767 31310.500000 0 0 1
-29.577099 -14.113902 33.276343 46.704625 0.445234 0.777763 0.042534 -0.028560 384557.000000 0 0 1
-28.668809 -13.105002 33.685810 46.134320 0.428757 0.752228 0.043714 -0.026512 -49271.300000 0 0 1
-28.933149 -12.574202 -33.649423 46.125062 0.409970 2.388425 0.035460 -0.015981 -222081.000000 0 0 1
-28.704869 -13.475502 -32.614723 45.489326 0.438910 2.370250 0.042167 -0.015144 98811.100000 0 0 1
-29.139189 -12.905702 -31.372523 44.720070 0.416933 2.348340 0.054408 -0.011119 -551054.000000 0 0 1
-29.073179 -13.901602 -30.183333 44.153571 0.446023 2.323479 0.050306 -0.012951 -602344.000000 0 0 1
-30.221559 -14.682602 -30.091083 45.104265 0.452249 2.301166 0.044793 -0.011023 -331772.000000 0 0 1
-30.199779 -15.484402 -28.913133 44.584331 0.473781 2.276414 0.057368 -0.016970 752346.000000 0 0 1
-31.425829 -16.459002 -28.936243 45.779773 0.482460 2.255024 0.045926 -0.020577 631396.000000 0 0 1
-31.236079 -17.458302 -29.910693 46.638337 0.509662 2.267030 0.044504 -0.023951 -585418.000000 0 0 1
-32.394079 -18.203302 -30.024323 47.772340 0.511959 2.250404 0.040131 -0.025064 -727830.000000 0 0 1
-32.241559 -19.489002 -30.862623 48.701548 0.543699 2.257135 0.048291 -0.024315 -117515.000000 0 0 1
-33.388679 -20.297002 -30.746243 49.720254 0.546209 2.237482 0.025789 -0.023320 -60348.400000 0 0 1
-33.168459 -21.627402 -31.220783 50.424483 0.577813 2.238468 0.019618 -0.022358 -903451.000000 0 0 1
-34.411624 -22.405502 -31.530743 51.772136 0.577150 2.225632 0.024037 -0.017389 -463023.000000 0 0 1
-35.335368 -22.635802 -30.449903 51.847510 0.569738 2.198512 0.028451 -0.021325 129848.000000 0 0 1
35.130519 -23.577302 -30.744303 52.299662 -0.591089 2.199194 0.028891 -0.024691 -419980.000000 0 0 1
35.466315 -25.070312 -30.828753 53.261544 -0.615326 2.188075 0.024072 -0.019214 -226584.000000 0 0 1
-35.337730 -25.518362 -31.984703 54.064435 0.625423 2.203842 0.030311 -0.017214 -107716.000000 0 0 1
-34.789683 -26.831482 -31.858513 54.269838 0.656962 2.198193 0.030902 -0.008870 420483.000000 0 0 1
-34.728606 -27.597962 -33.190613 55.401628 0.671486 2.213162 0.029757 -0.015468 974628.000000 0 0 1
35.388459 -27.983512 -33.487213 56.185527 -0.669077 2.209321 0.033999 -0.016739 504505.000000 0 0 1
35.180129 -29.190252 -34.312638 57.158284 -0.692612 2.214684 0.026233 -0.015648 8964.970000 0 0 1
-35.709394 -30.515982 -33.747413 57.838342 0.707138 2.193801 0.030435 -0.018528 168092.000000 0 0 1
35.365399 -30.720652 -32.375863 56.944415 -0.715230 2.175541 0.035132 -0.027844 33994.900000 0 0 1
-35.222620 -31.618302 -31.752013 56.995967 0.731527 2.161677 0.027683 -0.027882 -184481.000000 0 0 1
-35.660240 -32.042742 -30.363163 56.747790 0.732017 2.135369 0.026360 -0.026147 -283063.000000 0 0 1
35.101099 -33.249702 -30.371113 57.096710 -0.758318 2.131667 0.027577 -0.022457 -171312.000000 0 0 1
34.423779 -33.363872 -29.162173 56.112181 -0.769764 2.117310 0.025583 -0.027364 -764348.000000 0 0 1
33.356509 34.339918 -29.176873 56.064040 0.799924 2.118140 0.023868 -0.024647 -457216.000000 0 0 1
32.217729 -34.093138 -29.951373 55.654370 -0.813673 2.139058 0.030082 -0.026796 105007.000000 0 0 1
31.091979 34.047787 -29.343543 54.653513 0.830743 2.137556 0.038306 -0.019918 130874.000000 0 0 1
29.715489 -34.356280 -29.904973 54.384480 -0.857703 2.153018 0.040372 -0.012098 -223172.000000 0 0 1
29.551359 33.988009 -31.253023 54.819878 0.855110 2.177429 0.043473 -0.012415 -714978.000000 0 0 1
28.307699 34.329139 -31.782983 54.680651 0.881236 2.191057 0.035967 -0.003679 -342280.000000 0 0 1
28.138669 33.691128 -33.153623 55.009449 0.874960 2.217664 0.032887 -0.007838 13415.500000 0 0 1
27.839269 32.285272 -33.182813 54.022799 0.859210 2.232215 0.026553 -0.001796 -63957.400000 0 0 1
27.776029 31.809092 34.215233 54.350789 0.852981 0.889853 0.029587 0.004683 -15691.900000 0 0 1
27.704409 30.276182 34.305235 53.488603 0.829725 0.874532 0.025027 -0.004937 -152850.000000 0 0 1
28.958399 29.659282 -34.343449 53.830608 0.797354 2.262683 0.033149 -0.005102 -598097.000000 0 0 1
28.808389 28.308392 -33.901543 52.731423 0.776644 2.269087 0.028474 -0.007117 -534067.000000 0 0 1
30.124529 27.593092 -33.739733 52.983352 0.741567 2.261136 0.047963 -0.003243 -709754.000000 0 0 1
30.939979 28.070412 -32.703283 53.054077 0.736808 2.234977 0.051187 -0.007280 -374037.000000 0 0 1
32.121409 27.291932 -32.669743 53.328666 0.704290 2.230157 0.059773 -0.007683 -128935.000000 0 0 1
32.878709 27.470802 -31.390493 53.113252 0.696027 2.203107 0.048016 -0.009308 -720560.000000 0 0 1
33.693889 28.591512 -31.108363 54.041493 0.703661 2.184181 0.029547 -0.004037 126808.000000 0 0 1
33.084919 29.907982 -31.089073 54.365704 0.735008 2.179557 0.027117 -0.000833 214869.000000 0 0 1
32.019329 30.206582 -29.996673 53.267959 0.756275 2.168962 0.036640 0.000258 188736.000000 0 0 1
32.521799 30.235212 -28.682393 52.863174 0.748979 2.144299 0.026786 -0.004637 475784.000000 0 0 1
31.509369 30.533132 -27.693763 51.885037 0.769664 2.133828 0.030118 -0.004195 413771.000000 0 0 1
32.215529 30.944242 -26.391213 51.883355 0.765273 2.104429 0.030423 -0.005689 -22321.100000 0 0 1
32.566729 32.292962 -26.388003 52.912701 0.781177 2.092904 0.024239 -0.009716 150332.000000 0 0 1
33.016129 32.786520 -25.107723 52.871717 0.781909 2.065624 0.015133 -0.013345 55407.400000 0 0 1
33.185829 34.315526 -25.179323 53.970852 0.802133 2.056166 0.025075 -0.017275 51161.500000 0 0 1
31.946739 -33.777032 -25.098213 52.833723 -0.813239 2.065808 0.037549 -0.013848 330810.000000 0 0 1
32.087539 -32.344302 -24.991403 51.964740 -0.789383 2.072511 0.036619 -0.023154 -903965.000000 0 0 1
32.476659 -31.458452 -26.197353 52.255802 -0.769474 2.095930 0.032170 -0.025433 -293467.000000 0 0 1
33.780889 -31.614562 -26.673913 53.405305 -0.752284 2.093774 0.025635 -0.028702 -19622.900000 0 0 1
34.782529 -30.954042 -25.858443 53.260080 -0.727224 2.077746 0.023417 -0.025446 207943.000000 0 0 1
-35.300247 -31.559012 -26.226753 54.128747 0.729500 2.076617 0.014514 -0.022020 -123577.000000 0 0 1
-34.925260 -32.876982 -25.931973 54.526479 0.755198 2.066425 0.017934 -0.025343 -44101.100000 0 0 1
-34.679150 -33.244192 -24.569303 53.958043 0.764275 2.043551 0.017594 -0.020707 -205040.000000 0 0 1
-33.280749 -32.950692 -23.993903 52.621894 0.780415 2.044256 0.008090 -0.010463 -38113.200000 0 0 1
-33.142419 -31.519722 -23.908103 51.609206 0.760308 2.052458 -0.006217 -0.010058 -259703.000000 0 0 1
-32.558419 -30.973112 -22.737403 50.362424 0.760450 2.039215 0.010253 -0.012866 -401991.000000 0 0 1
-32.406839 -29.413032 -22.794903 49.345083 0.737008 2.050988 0.008671 -0.001012 177796.000000 0 0 1
-33.603789 -28.656162 -22.921303 49.757174 0.706098 2.049539 0.000239 0.000134 -6080.560000 0 0 1
-34.024339 -28.567022 -24.261803 50.619813 0.698428 2.070647 0.006554 0.004388 -271025.000000 0 0 1
-35.229318 -27.616752 -24.433303 50.997805 0.664855 2.070431 0.002329 -0.002092 -31059.300000 0 0 1
-34.996577 -26.256262 -24.034303 49.917927 0.643663 2.073135 -0.001432 -0.003812 -528777.000000 0 0 1
35.667989 -25.286302 -24.625603 50.179905 -0.616698 2.083742 0.004262 -0.006311 -344503.000000 0 0 1
-35.439613 -24.855302 -26.074873 50.533664 0.611626 2.112959 0.019627 -0.013486 -734774.000000 0 0 1
-34.422291 -23.917202 -26.086093 49.370142 0.607239 2.127485 0.014146 -0.015922 -606501.000000 0 0 1
-34.177326 -23.321702 -27.358383 49.603150 0.598798 2.155012 0.025642 -0.019002 719311.000000 0 0 1
-32.921249 -22.347502 -27.395203 48.308556 0.596367 2.173762 0.029010 -0.027344 464470.000000 0 0 1
-32.997679 -21.031902 -26.785773 47.420094 0.567449 2.171061 0.030333 -0.013930 180513.000000 0 0 1
-34.037779 -20.195802 -27.322103 48.093015 0.535504 2.175003 0.029904 -0.016582 588860.000000 0 0 1
-35.263845 -20.135402 -26.358743 48.412359 0.518818 2.146545 0.030803 -0.021709 -5248.790000 0 0 1
-35.063914 -19.450602 -25.166383 47.340794 0.506459 2.131285 0.021951 -0.024822 -315746.000000 0 0 1
-34.317457 -20.070202 -24.130303 46.505616 0.529197 2.116323 0.015398 -0.013581 104817.000000 0 0 1
-35.043386 -21.148202 -23.281503 47.088360 0.542979 2.087966 0.015357 0.000534 70867.000000 0 0 1
35.358839 -20.841202 -22.419903 46.768101 -0.532604 2.070750 0.015698 0.006016 -77441.300000 0 0 1
35.034339 -22.148902 -21.878403 46.868361 -0.563764 2.056471 0.023385 0.019149 -345685.000000 0 0 1
33.895279 -22.113802 -20.867103 45.534011 -0.578071 2.046850 0.009402 0.012684 -836381.000000 0 0 1
32.605469 -21.974202 -21.380803 44.756239 -0.593023 2.068850 0.015510 0.006650 -894444.000000 0 0 1
31.738809 -21.797802 -20.288903 43.521670 -0.601803 2.055764 0.018955 0.008432 448990.000000 0 0 1
30.363929 -21.219502 -20.791003 42.479421 -0.609946 2.082240 0.000927 0.020662 168851.000000 0 0 1
29.746999 -22.107902 -21.667203 42.931468 -0.639133 2.099822 0.000610 0.019732 50331.000000 0 0 1
28.497939 -21.801702 -22.262903 42.226574 -0.653049 2.126128 0.011411 0.016060 334148.000000 0 0 1
28.407189 -20.632502 -23.302003 42.138484 -0.628168 2.156740 0.002237 0.013159 -398035.000000 0 0 1
28.658479 -19.443502 -22.666003 41.389683 -0.596120 2.150319 -0.006354 0.015190 97479.200000 0 0 1
29.056189 -18.447902 -23.604003 41.734113 -0.565690 2.171933 -0.028200 0.010662 -242401.000000 0 0 1
29.707859 -17.190702 -22.894903 41.258377 -0.524579 2.159057 -0.035830 0.017535 222658.000000 0 0 1
28.792479 -16.474202 -22.052503 39.833642 -0.519705 2.157495 -0.045372 0.010276 432141.000000 0 0 1
29.411759 -15.504602 -21.235003 39.450850 -0.485136 2.139173 -0.057074 0.005138 -428693.000000 0 0 1
30.396919 -15.899602 -20.091703 39.754831 -0.481930 2.100630 -0.027951 -0.001990 -150903.000000 0 0 1
31.578119 -16.407702 -20.639103 41.138338 -0.479197 2.096359 -0.029215 0.000960 -613250.000000 0 0 1
32.169239 -17.298702 -19.726103 41.511735 -0.493382 2.065980 -0.011867 0.014292 440650.000000 0 0 1
33.418639 -18.005702 -20.413103 43.101108 -0.494198 2.064181 0.005842 0.000232 922398.000000 0 0 1
34.433689 -17.056302 -20.728003 43.660583 -0.459911 2.065480 -0.000414 0.001986 141897.000000 0 0 1
35.414523 -17.696102 -21.512403 45.056897 -0.463395 2.068546 0.017194 0.000394 139572.000000 0 0 1
-34.928094 -16.812202 -22.107003 44.624449 0.448606 2.089093 0.027810 -0.008437 167653.000000 0 0 1
-34.058089 -16.262002 -21.142903 43.260010 0.445469 2.081441 0.041432 -0.008694 -290557.000000 0 0 1
-33.460219 -15.096802 -21.658503 42.621478 0.423840 2.103843 0.057455 -0.015654 432384.000000 0 0 1
-32.081559 -14.642602 -20.973103 41.030516 0.428178 2.107329 0.064788 -0.006563 1970540.000000 0 0 1
-31.003439 -15.607302 -21.108103 40.624538 0.466368 2.117167 0.068811 -0.019661 920789.000000 0 0 1
-31.148319 -16.787202 -20.301103 40.794150 0.494315 2.091681 0.055110 -0.017006 -254047.000000 0 0 1
-29.897079 -17.719502 -20.409203 40.303246 0.535022 2.101791 0.047407 -0.023160 69795.300000 0 0 1
-30.091459 -18.946002 -19.723003 40.662559 0.561910 2.077206 0.037179 -0.017048 -216269.000000 0 0 1
-29.042999 -19.872002 -19.671503 40.315757 0.600061 2.080520 0.047500 -0.025980 -498076.000000 0 0 1
-29.450309 -21.266602 -19.197603 41.086944 0.625417 2.056967 0.030183 -0.004905 33567.500000 0 0 1
-30.441299 -21.860102 -20.038603 42.498027 0.622775 2.061808 0.022038 0.005799 349909.000000 0 0 1
-30.594719 -23.193102 -19.703303 43.152948 0.648649 2.044957 0.010541 0.013655 -467482.000000 0 0 1
-31.638179 -23.945102 -20.494403 44.658289 0.647866 2.047571 -0.003205 0.016772 -491945.000000 0 0 1
-31.242989 -24.070202 -21.864403 45.094912 0.656442 2.076991 -0.001668 0.006351 300579.000000 0 0 1
-32.106819 -24.915402 -22.612103 46.507336 0.659944 2.078538 0.001675 0.005745 -84826.200000 0 0 1
-31.841979 -24.952602 -24.141503 47.110043 0.664685 2.108831 0.009773 0.001993 432188.000000 0 0 1
-30.567169 -25.509492 -24.486903 46.740715 0.695449 2.122206 0.012457 -0.000574 385668.000000 0 0 1
-30.543059 -25.851602 -25.845063 47.635607 0.702400 2.144275 0.021671 -0.002283 374647.000000 0 0 1
-29.145759 -26.105682 -26.473333 47.242134 0.730431 2.165635 0.017827 -0.005996 786088.000000 0 0 1
-28.301069 -24.948602 -26.656553 46.194751 0.722524 2.185905 0.027589 -0.014088 182535.000000 0 0 1
-26.943589 -25.300832 -26.728633 45.612596 0.753965 2.196901 0.017169 -0.007564 315628.000000 0 0 1
-25.956069 -24.097802 -26.849123 44.444313 0.748290 2.219441 0.023075 -0.005468 219000.000000 0 0 1
-25.778199 -23.617502 -28.164213 44.894597 0.741683 2.248930 0.032453 -0.012889 -65346.600000 0 0 1
-24.701509 -22.714102 -28.179053 43.819562 0.743508 2.269297 0.047607 -0.017821 -123953.000000 0 0 1
-24.403309 -22.232902 -29.614563 44.349135 0.738893 2.301991 0.025208 -0.005429 20454.900000 0 0 1
-23.792109 -23.177002 -30.476893 45.078585 0.772303 2.313231 0.022802 -0.006721 182468.000000 0 0 1
-23.775509 -22.623102 -31.789433 45.690782 0.760566 2.340262 0.028251 -0.001127 25139.100000 0 0 1
-23.245609 -23.588602 -32.881253 46.668590 0.792722 2.352612 0.030241 -0.005243 636549.000000 0 0 1
-24.274109 -24.551202 -33.199643 47.897914 0.791073 2.336623 0.018818 -0.002772 397672.000000 0 0 1
-23.993609 -25.396192 -34.283675 48.949261 0.813789 2.346743 0.025605 0.002108 -106332.000000 0 0 1
-19.038009 -14.665502 -11.744403 26.747967 0.656384 2.025367 0.030165 0.016336 85090.200000 0 0 1
-19.404109 -14.083202 -10.463403 26.159870 0.627822 1.982290 0.027840 0.014336 149374.000000 0 0 1
-18.724909 -14.673102 -9.356103 25.562840 0.664669 1.945508 0.009688 0.005212 -103658.000000 0 0 1
-19.185809 -14.126902 -7.999103 25.132653 0.634689 1.894706 0.029453 -0.015861 -881426.000000 0 0 1
-20.479609 -14.532002 -7.665503 26.255540 0.617129 1.867069 0.047641 -0.014441 -270834.000000 0 0 1
-20.755809 -13.952402 -6.404703 25.816532 0.591835 1.821500 0.041117 -0.030016 -105529.000000 0 0 1
-21.973709 -14.698202 -5.802203 27.065598 0.589547 1.786849 0.054103 -0.035655 -505340.000000 0 0 1
-21.847009 -16.046902 -5.406603 27.641024 0.633515 1.767666 0.035885 -0.032598 484428.000000 0 0 1
-21.154409 -16.113902 -4.128603 26.911191 0.650965 1.724820 0.039692 -0.034333 52124.400000 0 0 1
-20.861809 -17.537402 -3.534103 27.482093 0.699039 1.699750 0.019923 -0.023527 461811.000000 0 0 1
-22.045409 -18.275802 -3.205703 28.814606 0.692180 1.682280 0.023788 -0.022023 703507.000000 0 0 1
-21.717109 -19.369602 -2.404203 29.199221 0.728325 1.653228 0.010641 -0.011990 -41823.500000 0 0 1
-23.024709 -20.089402 -2.038703 30.624787 0.717421 1.637416 0.007775 -0.021981 99492.900000 0 0 1
-23.414109 -20.934002 -3.120903 31.562525 0.729533 1.669838 -0.013681 -0.017733 27487.600000 0 0 1
-24.412609 -21.879502 -2.748603 32.897460 0.730733 1.654444 -0.002693 -0.010068 275156.000000 0 0 1
-24.494809 -23.029702 -3.752303 33.829611 0.754579 1.681943 -0.004518 -0.008135 -468627.000000 0 0 1
-23.268109 -23.697102 -3.773603 33.424506 0.794532 1.683937 -0.014083 -0.000271 -679169.000000 0 0 1
-23.122209 -24.401002 -4.984203 33.983639 0.812300 1.717992 -0.011882 0.008602 1092830.000000 0 0 1
-21.586309 -24.389902 -5.391003 33.013618 0.846302 1.734827 -0.016317 0.013333 1168360.000000 0 0 1
-21.150309 -23.222502 -6.110403 31.999331 0.832064 1.762930 -0.022918 0.020926 19109.700000 0 0 1
-21.053609 -22.047802 -5.275603 30.938520 0.808460 1.742153 -0.026538 0.019945 -769261.000000 0 0 1
-21.109009 -20.771402 -6.061603 30.228867 0.777337 1.772689 -0.015924 0.014624 -1455840.000000 0 0 1
-19.958809 -20.382502 -6.735403 29.311535 0.795900 1.802655 -0.020442 0.021029 -468111.000000 0 0 1
-20.203209 -19.164902 -7.406403 28.815238 0.759030 1.830745 -0.024882 0.023416 415654.000000 0 0 1
-18.985809 -18.805402 -8.319203 27.987733 0.780624 1.872602 -0.007897 0.012027 128601.000000 0 0 1
-18.911209 -19.655602 -9.439103 28.863007 0.804697 1.903957 -0.017741 0.018218 -106031.000000 0 0 1
-17.662609 -19.669102 -10.099003 28.298961 0.839094 1.935710 0.022041 0.016699 134198.000000 0 0 1
-17.191709 -18.297002 -10.763703 27.316523 0.816533 1.975815 0.024496 0.013870 -231360.000000 0 0 1
-16.755609 -17.204702 -9.927903 25.986832 0.798621 1.962795 0.024329 0.001325 1834390.000000 0 0 1
-15.430909 -17.388302 -9.302603 25.040056 0.844969 1.951430 0.026339 -0.003362 1381420.000000 0 0 1
-15.210209 -16.168402 -8.308803 23.702402 0.815925 1.928951 0.019211 -0.004318 396914.000000 0 1 0
-16.011609 -16.352302 -7.106203 23.963879 0.795925 1.871862 0.001729 -0.007795 624816.000000 0 1 0
-16.051509 -15.118902 -6.427203 22.968262 0.755487 1.854413 0.005445 -0.014075 -628639.000000 0 1 0
-16.907809 -15.278502 -5.191203 23.372103 0.734820 1.794775 0.017672 -0.018700 -397089.000000 0 1 0
-17.087309 -14.208402 -4.350503 22.644683 0.693666 1.764119 0.008676 -0.015326 196371.000000 0 1 0
-17.685809 -14.700802 -3.120603 23.208610 0.693490 1.705664 0.017071 -0.013212 254742.000000 0 1 0
-18.475409 -13.517202 -2.423103 23.020141 0.631642 1.676252 0.020558 -0.010172 -11503.300000 0 1 0
-19.662109 -13.192202 -3.099703 23.879717 0.590959 1.700968 0.032485 -0.022976 435832.000000 0 1 0
-20.489409 -12.244602 -2.391703 23.988881 0.538658 1.670663 0.036927 -0.009971 477776.000000 0 1 0
-22.011509 -12.478502 -2.552203 25.430951 0.515732 1.671324 0.037623 -0.014081 -8223.850000 0 0 1
-22.460409 -11.923502 -3.772903 25.707483 0.488036 1.718091 0.046531 -0.023824 205398.000000 0 0 1
-23.866609 -12.072602 -3.827703 27.018772 0.468306 1.712943 0.042202 -0.022318 -178810.000000 0 0 1
-24.489409 -11.381502 -5.029103 27.469285 0.435054 1.754916 0.052440 -0.025569 -281159.000000 0 0 1
-24.002309 -11.894502 -6.263703 27.510434 0.460087 1.800496 0.051769 -0.031035 133624.000000 0 0 1
-24.554809 -11.307502 -7.414903 28.031750 0.431552 1.838500 0.061565 -0.028464 -248370.000000 0 0 1
-23.800809 -11.638402 -8.722603 27.892915 0.454802 1.888849 0.083088 -0.025935 -623088.000000 0 0 1
-22.584209 -11.010202 -8.865503 26.643351 0.453612 1.910012 0.081282 -0.026446 -457612.000000 0 0 1
-21.735109 -11.497102 -9.888803 26.502580 0.486550 1.953172 0.051857 -0.017323 294395.000000 0 0 1
-20.384209 -10.743602 -9.957103 25.101491 0.485057 1.978687 0.047333 -0.014468 -98579.600000 0 0 1
-20.535409 -9.410002 -10.461003 24.893448 0.429679 2.004496 0.047474 -0.014940 358235.000000 0 1 0
-19.572309 -8.567002 -9.892903 23.544390 0.412587 2.004441 0.045377 -0.016927 -287327.000000 0 1 0
-19.607309 -7.200802 -10.593303 23.420422 0.351960 2.040151 0.044736 -0.017278 -117521.000000 0 1 0
-18.936009 -7.341302 -11.827203 23.502125 0.369850 2.098140 0.044663 -0.018278 395529.000000 0 1 0
-18.774609 -6.085202 -12.442603 23.330966 0.313435 2.133303 0.035753 -0.031687 -233586.000000 0 1 0
-18.075709 -6.178302 -13.816903 23.575612 0.329352 2.196993 0.041062 -0.021789 30.059500 0 1 0
-18.831509 -6.849102 -14.849403 24.940744 0.348831 2.208544 0.043866 -0.024647 251169.000000 0 1 0
-18.231709 -6.629202 -16.095903 25.207531 0.348746 2.263390 0.039102 -0.026820 -437620.000000 0 0 1
-18.830109 -7.425002 -17.243003 26.589938 0.375596 2.276380 0.035965 -0.029195 -729299.000000 0 0 1
-20.105509 -7.058602 -17.701003 27.701640 0.337635 2.263978 0.042760 -0.031746 206411.000000 0 0 1
-20.506309 -7.876202 -18.852403 28.947476 0.366713 2.280043 0.051308 -0.034023 656202.000000 0 0 1
-21.920509 -7.637102 -19.497603 30.314857 0.335249 2.269427 0.044511 -0.030895 -100685.000000 0 0 1
-22.025809 -6.509502 -20.293503 30.648591 0.287360 2.294460 0.041893 -0.030643 378922.000000 0 0 1
-23.228309 -6.287802 -21.023303 31.954187 0.264360 2.288850 0.026093 -0.027655 1211830.000000 0 0 1
-24.532409 -6.027802 -20.161003 32.320884 0.240935 2.244361 0.046768 -0.027097 252115.000000 0 0 1
-24.664509 -4.659402 -19.854603 32.003957 0.186711 2.240023 0.044591 -0.027855 104790.000000 0 0 1
-25.750249 -4.582702 -18.963703 32.306323 0.176123 2.198140 0.053269 -0.022001 -576857.000000 0 0 1
-26.117019 -3.266702 -18.276003 32.043444 0.124433 2.177729 0.058005 -0.019055 1173.820000 0 0 1
-26.452379 -2.162302 -19.079803 32.687043 0.081562 2.194089 0.055660 -0.013477 -177711.000000 0 0 1
-27.676349 -2.308502 -19.739003 34.072536 0.083218 2.188694 0.047938 -0.007206 -841163.000000 0 0 1
-27.987749 -1.063902 -20.667003 34.807628 0.037995 2.206507 0.038072 -0.009425 44529.700000 0 0 1
-27.179899 -0.888302 -21.838803 34.877920 0.032671 2.247402 0.034785 -0.002798 314512.000000 0 0 1
-27.607589 -1.776502 -22.858803 35.886763 0.064260 2.261358 0.027621 -0.001807 -56292.700000 0 0 1
-26.868469 -1.676402 -24.221403 36.213275 0.062312 2.303463 0.027463 -0.006906 -657207.000000 0 0 1
-27.074059 -0.496702 -24.952503 36.822259 0.018344 2.315355 0.023331 -0.003713 60469.800000 0 0 1
-26.589479 0.759198 -24.470303 36.143775 -0.028545 2.314511 0.015147 0.005593 1762980.000000 0 0 1
-25.009909 0.913298 -24.234003 34.837000 -0.036501 2.340106 0.023557 0.004921 1786570.000000 0 0 1
-24.182409 0.822598 -25.362843 35.053379 -0.034003 2.379727 0.017342 0.003554 708692.000000 0 0 1
-22.769609 0.808998 -25.102473 33.900497 -0.035515 2.404573 0.019106 0.004418 1159090.000000 0 0 1
-21.948209 0.257298 -26.315893 34.268299 -0.011722 2.446410 0.016437 -0.002670 53718.800000 0 0 1
-22.023209 1.067798 -27.388823 35.161194 -0.048447 2.463786 0.002094 0.007811 9330.510000 0 0 1
-21.262809 0.477598 -28.399543 35.480546 -0.022458 2.498801 0.005188 0.009362 -148248.000000 0 0 1
-21.151009 1.365298 -29.674083 36.466154 -0.064461 2.521360 0.000986 0.009622 -150432.000000 0 0 1
-20.306809 2.489398 -29.405773 35.822661 -0.121981 2.533730 0.005183 0.011204 422996.000000 0 0 1
-20.161809 3.411798 -30.513243 36.731416 -0.167633 2.551182 0.001401 0.004093 21457.500000 0 0 1
-19.470909 2.852798 -31.804453 37.400240 -0.145481 2.587505 -0.004552 0.005567 400452.000000 0 0 1
-18.056909 2.665798 -31.770623 36.640564 -0.146574 2.620125 -0.006759 0.006737 428724.000000 0 0 1
-17.635009 2.246598 -33.055953 37.533142 -0.126712 2.648163 -0.007871 0.010935 -790418.000000 0 0 1
-16.135909 2.098898 -33.183103 36.957966 -0.129350 2.685682 0.002364 0.001320 -1095680.000000 0 0 1
-15.421409 3.254698 -32.991623 36.563097 -0.207998 2.695918 0.002492 0.003448 -403860.000000 0 0 1
-14.032209 3.054198 -33.109703 36.089935 -0.214314 2.732349 0.007448 0.005633 -27538.400000 0 0 1
-13.247209 4.343998 -33.427163 36.217870 -0.316869 2.746463 0.017201 0.002455 -337722.000000 0 0 1
-13.143909 5.247698 -32.318163 35.281218 -0.379859 2.728830 0.026110 -0.012024 109077.000000 0 0 1
-12.648909 6.487898 -32.710033 35.665585 -0.473931 2.731620 0.045089 -0.007119 -321458.000000 0 0 1
-12.466509 7.422698 -31.546533 34.723105 -0.537038 2.710518 0.046891 -0.015011 -725338.000000 0 0 1
-11.259809 7.239598 -30.873113 33.650322 -0.571410 2.732466 0.066942 -0.026677 -409679.000000 0 0 1
-11.250009 6.274298 -29.835323 32.497323 -0.508747 2.734020 0.061050 -0.032090 -123530.000000 0 0 1
-9.935709 5.470198 -29.653703 31.748755 -0.503273 2.776278 0.083270 -0.035001 -282073.000000 0 0 1
-9.530309 4.625298 -30.685813 32.462891 -0.451839 2.809181 0.072417 -0.032292 709929.000000 0 0 1
-10.440109 3.532198 -31.003013 32.903786 -0.326240 2.800030 0.072198 -0.025287 182252.000000 0 0 1
-9.904309 2.605698 -32.116923 33.710261 -0.257258 2.832909 0.061871 -0.017482 342001.000000 0 0 1
-10.731409 1.397598 -32.204453 33.974155 -0.129505 2.817407 0.062944 -0.011534 961764.000000 0 0 1
-10.370909 0.565398 -33.318663 34.899982 -0.054464 2.839413 0.054128 -0.006142 -330606.000000 0 0 1
-10.607909 1.037198 33.983005 35.615279 -0.097466 0.303925 0.043373 -0.003850 -70133.300000 0 0 1
-11.964809 1.016798 33.603373 35.684412 -0.084779 0.343202 0.020435 0.001577 -291198.000000 0 0 1
-12.132309 1.470198 32.292118 34.527312 -0.120592 0.361795 0.012806 0.003667 -135836.000000 0 0 1
-13.515009 1.156998 31.709998 34.489391 -0.085400 0.404211 0.004469 0.007475 293655.000000 0 0 1
-14.516909 2.139198 32.043608 35.243575 -0.146306 0.429428 0.000938 0.018627 -65990.100000 0 0 1
-15.777409 1.633198 31.725938 35.470115 -0.103148 0.463616 -0.003851 0.019091 21476.700000 0 0 1
-16.847709 2.775398 31.441728 35.778910 -0.163268 0.497500 0.005917 0.023606 95681.500000 0 0 1
-17.171809 3.697698 32.536148 36.974923 -0.212097 0.495036 0.004486 0.012881 525425.000000 0 0 1
-16.373309 4.876598 32.436458 36.660472 -0.289472 0.484774 -0.003516 0.012602 -208568.000000 0 0 1
-16.602609 5.774298 33.651318 37.965778 -0.334709 0.481375 -0.010499 0.004100 667589.000000 0 0 1
-17.916409 6.352198 33.705664 38.696510 -0.340719 0.513509 0.004563 0.003132 852514.000000 0 0 1
-18.785909 5.634098 -34.171387 39.399710 -0.291375 2.620550 0.008301 0.000275 1108880.000000 0 0 1
-20.290509 6.056598 -33.929333 39.994834 -0.290075 2.583644 0.010316 0.002454 1149390.000000 0 0 1
-20.518509 7.346998 -33.368173 39.855019 -0.343843 2.563011 0.018448 -0.010968 80658.500000 0 0 1
-20.353309 8.523598 -34.229838 40.725799 -0.396592 2.568993 0.002437 -0.001760 -259219.000000 0 0 1
-20.548809 9.904598 -33.532123 40.555615 -0.449147 2.544224 0.002474 0.009408 -596795.000000 0 0 1
-19.598809 10.169598 -32.508083 39.297703 -0.478644 2.544949 0.009815 0.001456 228588.000000 0 0 1
-19.431209 11.595098 -32.265133 39.408844 -0.538008 2.529989 0.010009 0.000021 -260817.000000 0 0 1
-18.562509 12.350998 -33.230503 40.017249 -0.587107 2.550630 0.001461 -0.010412 -847590.000000 0 0 1
-19.113709 12.358098 34.219599 41.097900 -0.573951 0.586946 0.006735 -0.011966 209196.000000 0 0 1
-18.225309 12.810898 33.201683 39.982905 -0.612682 0.590977 -0.006421 -0.010234 102911.000000 0 0 1
-18.704509 12.419298 31.752198 38.888297 -0.586136 0.615478 0.018584 -0.012961 -57668.100000 0 0 1
-18.758909 11.011998 31.541898 38.315168 -0.530826 0.603733 0.009544 0.004743 189647.000000 0 0 1
-17.549409 10.322298 31.274928 37.318262 -0.531687 0.577079 0.015045 0.004859 -76358.000000 0 0 1
-17.838109 8.825098 31.159038 36.972505 -0.459425 0.568402 0.012211 0.008225 -159614.000000 0 0 1
-18.325309 8.390598 29.893028 36.052908 -0.429379 0.593223 0.017061 0.002166 131746.000000 0 0 1
-18.572009 7.020198 29.995678 35.971424 -0.361397 0.584705 0.007485 0.000597 -436328.000000 0 0 1
-19.270609 6.413898 28.765168 35.212630 -0.321300 0.614782 0.007413 0.004885 755345.000000 0 0 1
-20.690209 6.666198 28.697298 36.000803 -0.311689 0.648270 0.019715 -0.001225 952768.000000 0 0 1
-21.175409 5.678598 27.757578 35.371281 -0.262005 0.668505 0.015441 0.000136 -620921.000000 0 0 1
-22.697409 5.712498 27.638018 36.216916 -0.246560 0.702662 0.026880 0.000804 -487417.000000 0 0 1
-23.082109 6.483298 26.506478 35.740877 -0.273824 0.735301 0.033055 0.002082 299642.000000 0 0 1
-24.449409 6.832598 26.438818 36.653364 -0.272507 0.765090 0.036725 -0.002830 -186702.000000 0 0 1
-24.762109 7.491398 25.062538 36.019632 -0.293781 0.801260 0.035043 -0.004842 -334998.000000 0 0 1
-24.761009 6.653198 23.890868 35.044916 -0.262497 0.820683 0.020830 0.000966 378082.000000 0 0 1
-25.717539 5.613298 23.859528 35.527144 -0.214897 0.834449 0.020652 0.005727 -388207.000000 0 0 1
-25.794459 4.997598 22.435568 34.549744 -0.191376 0.864041 0.023872 0.013032 415635.000000 0 0 1
-26.620899 5.781098 21.533668 34.724519 -0.213844 0.901890 0.017441 0.008189 503172.000000 0 0 1
-26.496809 5.157598 20.252668 33.746885 -0.192246 0.927127 0.015794 0.009998 367600.000000 0 0 1
-27.501969 5.789498 19.220868 34.048764 -0.207483 0.970957 0.038432 -0.002881 244030.000000 0 0 1
-28.866399 5.564898 19.438568 35.243368 -0.190445 0.986572 0.054214 -0.004348 53668.100000 0 0 1
-29.657199 6.091198 18.352668 35.404414 -0.202570 1.025850 0.065286 0.000431 -503189.000000 0 0 1
-31.144189 6.169198 18.607268 36.800135 -0.195554 1.040684 0.065101 0.000879 -830527.000000 0 0 1
-31.504729 7.263198 19.423868 37.717219 -0.226584 1.029804 0.068666 -0.013836 879122.000000 0 0 1
-32.852989 7.122498 19.900268 39.064940 -0.213495 1.036291 0.078320 -0.020718 511918.000000 0 0 1
-33.268409 8.156998 20.946968 40.150954 -0.240444 1.021948 0.079958 -0.012497 20540.600000 0 0 1
-32.584549 8.043498 22.183468 40.231293 -0.242012 0.986757 0.063195 -0.008610 166125.000000 0 0 1
-33.212369 8.809198 23.168068 41.441800 -0.259269 0.977556 0.061801 -0.003386 -20017.300000 0 0 1
-0.343309 31.989098 11.640997 34.043106 -1.560065 1.221806 0.029419 0.005559 -102227.000000 0 0 1
-0.258709 32.311998 13.026497 34.839945 -1.562790 1.187591 0.013105 0.000841 74509.700000 0 0 1
-0.074409 33.735398 13.152097 36.208566 -1.568591 1.199062 0.003510 -0.002540 -312479.000000 0 0 1
0.155591 34.184198 14.614797 37.177626 1.566245 1.166788 -0.004493 0.008452 -666805.000000 0 0 1
-0.959709 34.108598 15.452697 37.458021 -1.542667 1.145563 0.005511 0.017558 -684757.000000 0 0 1
-0.705609 -34.380166 16.834197 38.286863 1.550275 1.115547 -0.008975 0.002502 -325972.000000 0 0 1
-1.892209 -34.072666 17.746397 38.463771 1.515319 1.091247 -0.001635 0.009832 -475760.000000 0 0 1
-2.536909 33.563198 18.266197 38.295928 -1.495354 1.073587 -0.005637 0.006205 246260.000000 0 0 1
-3.426609 33.935898 19.326997 39.203567 -1.470164 1.055272 0.002340 0.003366 44318.800000 0 0 1
-4.465509 32.936598 19.805797 38.691470 -1.436039 1.033412 0.001015 -0.008047 -301299.000000 0 0 1
-5.396009 32.610498 18.803897 38.028253 -1.406814 1.053569 0.007121 -0.008679 -908627.000000 0 0 1
-6.560809 32.203398 19.420397 38.174008 -1.369816 1.037083 0.026167 -0.025302 -692640.000000 0 0 1
-7.739809 32.033798 18.426097 37.756985 -1.333726 1.060979 0.004734 -0.025044 -149560.000000 0 0 1
-8.402709 33.188998 17.980997 38.670808 -1.322829 1.087189 0.034047 -0.030825 -319597.000000 0 0 1
-9.227509 32.975198 16.882897 38.177779 -1.297944 1.112726 0.053731 -0.019730 -244945.000000 0 0 1
-10.201209 34.144998 16.574197 39.302030 -1.280476 1.135462 0.109853 -0.035268 66504.700000 0 0 1
-11.318909 34.268598 17.415497 40.071861 -1.251778 1.121195 0.098592 -0.033555 -11254.500000 0 0 1
-12.159309 -33.448366 16.991397 39.437921 1.222124 1.125374 0.078992 -0.034909 84016.800000 0 0 1
-13.646309 -33.490666 17.406597 40.135223 1.183870 1.122203 0.107404 -0.040973 158113.000000 0 0 1
-13.777109 -33.354366 18.836397 40.707890 1.179089 1.089734 0.096038 -0.029374 -1016470.000000 0 0 1
-15.033909 -33.623266 19.314597 41.588413 1.150333 1.087814 0.078600 -0.034280 -964276.000000 0 0 1
-15.223209 -33.196566 20.752997 42.005297 1.140832 1.054047 0.074760 -0.043245 -188643.000000 0 0 1
-15.289209 -31.795066 20.940797 41.026859 1.122572 1.035127 0.076220 -0.037038 237533.000000 0 0 1
-15.079209 -31.519666 22.358197 41.482055 1.124572 1.001565 0.058377 -0.018443 154817.000000 0 0 1
-14.964609 -30.033566 22.676897 40.499337 1.108539 0.976492 0.066273 -0.023762 33794.500000 0 0 1
-14.637309 -29.702966 24.040597 40.920256 1.112934 0.942832 0.068374 -0.017578 50014.900000 0 0 1
-14.560409 -28.328266 24.429397 40.140897 1.096020 0.916512 0.060032 -0.000546 182714.000000 0 0 1
-15.780309 -27.388266 24.215597 39.818720 1.048083 0.917073 0.065286 -0.003792 487856.000000 0 0 1
-16.971409 -27.556366 24.966997 40.874601 1.018782 0.913701 0.065188 -0.003936 501080.000000 0 0 1
-18.008909 -26.769666 24.428097 40.468108 0.978604 0.922740 0.055573 0.001286 -583594.000000 0 0 1
-19.220109 -26.451466 25.321797 41.355605 0.942428 0.911837 0.045173 0.005449 -66773.300000 0 0 1
-20.092309 -27.492166 25.740697 42.686105 0.939672 0.923511 0.052748 0.001208 187883.000000 0 0 1
-20.767609 -28.224566 24.737397 42.893572 0.936446 0.956094 0.044075 0.004619 -997115.000000 0 0 1
-22.155009 -27.625766 24.465697 43.041814 0.894856 0.966216 0.033589 0.008290 -663471.000000 0 0 1
-22.110909 -26.243866 24.174997 41.976938 0.870662 0.957078 0.044733 0.003304 -788933.000000 0 0 1
-23.308909 -25.952466 23.554997 42.091254 0.839011 0.976872 0.047323 0.005031 -815696.000000 0 0 1
-23.626209 -24.516866 23.353597 41.287589 0.803896 0.969596 0.046359 0.013966 -110304.000000 0 0 1
-24.179409 -23.893966 24.506097 41.906017 0.779461 0.946179 0.036127 0.016819 355507.000000 0 0 1
-24.685209 -22.580966 24.244697 41.316642 0.740909 0.943692 0.029384 0.019743 127150.000000 0 0 1
-25.246859 -21.858466 25.470997 41.999621 0.713590 0.919198 0.031426 0.018342 663904.000000 0 0 1
-26.455139 -22.442966 25.999897 43.353844 0.703530 0.927653 0.025078 0.023825 925816.000000 0 0 1
-26.855959 -21.770566 27.174197 43.973140 0.681196 0.904635 0.016336 0.013916 -1368410.000000 0 0 1
-28.222539 -22.191266 27.677797 45.332378 0.666329 0.914038 0.012483 0.010445 -1068600.000000 0 0 1
-29.309569 -21.530266 27.084097 45.344807 0.633560 0.930676 0.005356 0.013546 151994.000000 0 0 1
-29.810539 -22.160266 25.890297 45.277512 0.639245 0.962082 0.009999 0.021857 -1273520.000000 0 0 1
-31.093749 -22.895466 26.166597 46.644554 0.634699 0.975229 0.004284 0.014504 -977960.000000 0 0 1
-31.718779 -23.344866 24.927997 46.609750 0.634478 1.006497 0.001870 0.014596 355789.000000 0 0 1
-31.198579 -24.552766 24.369897 46.584134 0.666753 1.020268 -0.007503 0.016244 -347981.000000 0 0 1
-31.910889 -25.056566 23.085697 46.680679 0.665654 1.053485 -0.006945 0.011574 836048.000000 0 0 1
-33.248019 -25.593366 23.115797 47.903979 0.656035 1.067239 -0.010965 0.011004 826975.000000 0 0 1
-33.393019 -26.280566 21.916697 47.813215 0.666769 1.094623 0.000876 0.015664 453415.000000 0 0 1
-34.719553 -27.100466 21.740197 49.117398 0.662770 1.112281 0.004349 0.006438 150435.000000 0 0 1
-34.893921 -28.364466 22.422997 50.248577 0.682544 1.108235 -0.000936 0.003685 181931.000000 0 0 1
-33.956399 -29.373366 22.069497 50.028935 0.713156 1.113934 -0.002899 -0.003147 -192483.000000 0 0 1
-34.471928 -30.331566 20.925997 50.460034 0.721594 1.143178 0.003958 0.006296 719.354000 0 0 1
-34.465021 -29.669866 19.664597 49.546292 0.710770 1.162667 -0.000559 0.009016 464230.000000 0 0 1
-35.003651 -30.583266 18.713397 50.107714 0.718103 1.188057 -0.005123 0.020863 -411131.000000 0 0 1
-35.273582 -30.010666 17.348897 49.455535 0.704957 1.212373 0.004089 0.027898 -248335.000000 0 0 1
-34.139580 -29.800166 16.502297 48.227447 0.717635 1.221564 0.016327 0.012286 466737.000000 0 0 1
-34.453847 -29.313166 15.217897 47.727494 0.704956 1.246281 0.020014 0.004941 -115590.000000 0 0 1
-34.944953 -30.362266 14.173797 48.413980 0.715342 1.273682 0.007471 0.002619 -62378.300000 0 0 1
-33.942649 -31.195666 13.652497 48.079764 0.743252 1.282880 0.011168 0.000029 -151237.000000 0 0 1
-34.398242 -32.055866 12.627797 48.685510 0.750165 1.308421 0.013178 -0.001600 50799.800000 0 0 1
-34.639179 -31.536566 11.183097 48.161078 0.738548 1.336455 0.007139 -0.001332 247063.000000 0 0 1
35.728488 -30.648066 11.192697 48.384970 -0.709008 1.337356 0.010729 0.002166 207084.000000 0 0 1
35.647566 -29.986866 9.979897 47.639894 -0.699365 1.359747 0.010961 -0.007340 27575.400000 0 0 1
34.478249 -28.989166 9.913197 46.123670 -0.699126 1.354180 0.033812 0.006505 139887.000000 0 0 1
34.830999 -27.993766 8.967297 45.576988 -0.676995 1.372754 0.032496 -0.030220 577034.000000 0 0 1
33.778109 -27.024966 8.917197 44.168154 -0.674786 1.367507 0.033677 -0.018941 435145.000000 0 0 1
33.916859 -26.001866 7.827597 43.447919 -0.654063 1.389647 0.025131 -0.020154 -99875.600000 0 0 1
34.638709 -24.859066 8.136897 43.405327 -0.622485 1.382218 0.035434 -0.027920 -241423.000000 0 0 1
34.753279 -23.839466 7.108797 42.739274 -0.601243 1.403690 0.041472 -0.034481 -213004.000000 0 0 1
35.259869 -22.440566 7.505097 42.463677 -0.566779 1.393121 0.048506 -0.039641 -218671.000000 0 0 1
34.296219 -21.620466 8.163697 41.356029 -0.562476 1.372091 0.037752 -0.028314 -313887.000000 0 0 1
34.581049 -20.250466 8.015397 40.867798 -0.529760 1.373387 0.045391 -0.028315 -247252.000000 0 0 1
33.755919 -19.345166 8.906397 39.912673 -0.520397 1.345755 0.059635 -0.019722 -291451.000000 0 0 1
34.093909 -19.547266 10.269197 40.619535 -0.520583 1.315208 0.048817 -0.027232 -201587.000000 0 0 1
33.283389 -18.834566 11.179497 39.843519 -0.514957 1.286393 0.048814 -0.018493 -376827.000000 0 0 1
33.695039 -18.972966 12.638897 40.682562 -0.512829 1.254897 0.042344 -0.029404 -6489.580000 0 0 1
34.928749 -18.323466 12.879897 41.492875 -0.483130 1.255170 0.017376 -0.020042 209535.000000 0 0 1
35.318139 -18.429166 14.221097 42.299465 -0.480939 1.227917 0.019667 -0.010217 -525388.000000 0 0 1
-34.838157 -17.725266 14.540397 41.704980 0.470654 1.214667 0.025745 -0.018598 -143943.000000 0 0 1
-33.704099 -18.167866 13.797797 40.699101 0.494390 1.224922 0.027515 -0.023165 447745.000000 0 0 1
-32.556349 -17.553566 14.395297 39.689648 0.494494 1.199637 0.013580 -0.016517 219522.000000 0 0 1
-31.317679 -17.671366 13.479297 38.402678 0.513727 1.212159 0.029261 -0.019238 -248669.000000 0 0 1
-30.760049 -18.957666 13.393997 38.535346 0.552325 1.215811 0.023589 -0.017700 -340063.000000 0 0 1
-29.565059 -18.795466 12.678597 37.257336 0.566280 1.223563 -0.003176 -0.006231 -229141.000000 0 0 1
-28.829799 -20.105566 12.336197 37.250139 0.608971 1.233251 -0.000343 -0.009097 219710.000000 0 0 1
-29.566879 -20.864666 11.394097 37.938899 0.614526 1.265760 0.009864 -0.009348 -207413.000000 0 0 1
-28.680559 -21.762866 10.763197 37.577164 0.649111 1.280299 0.008368 -0.008635 55339.100000 0 0 1
-29.294509 -22.768266 9.727797 38.356124 0.660695 1.314378 0.019275 -0.013972 375544.000000 0 0 1
-30.010589 -23.955366 10.036697 39.689171 0.673661 1.315138 0.023205 -0.017667 -1038460.000000 0 0 1
-31.297919 -23.790066 10.483597 40.687010 0.649944 1.310192 0.033637 -0.024211 -1324520.000000 0 0 1
-32.011039 -25.131866 10.694897 42.079664 0.665589 1.313819 0.040750 -0.028479 -61286.300000 0 0 1
-32.537829 -25.615366 9.482697 42.482689 0.666917 1.345687 0.046835 -0.021705 233698.000000 0 0 1
-33.311869 -26.839466 9.548697 43.831669 0.678209 1.351186 0.055599 -0.013982 490350.000000 0 0 1
-33.421399 -27.483066 8.122497 44.025945 0.688203 1.385240 0.049479 -0.017358 161821.000000 0 0 1
-32.170019 -27.790666 7.536097 43.174344 0.712491 1.395347 0.038076 -0.016894 -130630.000000 0 0 1
-32.290369 -28.597966 6.372897 43.601897 0.724830 1.424110 0.036341 -0.015067 1072420.000000 0 0 1
-30.846849 -28.867666 5.750997 42.637357 0.752266 1.435502 0.043212 -0.012481 1461730.000000 0 0 1
-30.169589 -27.792866 5.128497 41.339436 0.744417 1.446418 0.047886 -0.007660 -236692.000000 0 0 1
-29.071309 -28.331066 4.421597 40.833085 0.772503 1.462299 0.035467 -0.010451 -142925.000000 0 0 1
-28.234839 -27.295566 3.638697 39.439754 0.768485 1.478405 0.035674 -0.013485 106007.000000 0 0 1
-28.888229 -26.625966 2.577397 39.371498 0.744670 1.505286 0.039331 -0.009206 8029.090000 0 0 1
-28.118649 -25.471766 2.230697 38.005859 0.736047 1.512069 0.037565 -0.013837 -180753.000000 0 0 1
-28.466469 -24.855066 0.888497 37.800841 0.717773 1.547289 0.042737 -0.012891 -320373.000000 0 0 1
-28.144909 -25.670566 -0.249903 38.094308 0.739452 1.577356 0.034654 -0.011879 -20521.800000 0 0 1
-28.334889 -25.026666 -1.521003 37.835346 0.723481 1.611008 0.039766 -0.014968 115246.000000 0 0 1
-29.755289 -24.888166 -2.120003 38.849613 0.696562 1.625393 0.061536 -0.017111 120427.000000 0 0 1
-30.369389 -23.662966 -1.882303 38.545802 0.661911 1.619649 0.056368 -0.009444 -686197.000000 0 0 1
-31.749299 -23.713966 -2.104303 39.683728 0.641523 1.623848 0.074934 -0.023585 -282965.000000 0 0 1
-32.510659 -22.368566 -1.930503 39.509778 0.602653 1.619677 0.068682 -0.022664 -20347.100000 0 0 1
-32.640579 -22.064566 -0.578003 39.402875 0.594427 1.585466 0.063658 -0.022724 297646.000000 0 0 1
-33.323509 -20.810766 -0.384003 39.289842 0.558245 1.580570 0.066707 -0.026480 32407.500000 0 0 1
-33.583819 -20.453366 1.117197 39.337784 0.547029 1.542392 0.054139 -0.029400 -284024.000000 0 0 1
-34.601832 -21.158966 1.751597 40.596265 0.548831 1.527636 0.061909 -0.033565 -171871.000000 0 0 1
-34.493939 -21.059166 3.171497 40.538607 0.548117 1.492482 0.066733 -0.035598 -1126300.000000 0 0 1
-35.460738 -21.999266 3.883397 41.910767 0.555273 1.478005 0.073924 -0.027843 933572.000000 0 0 1
34.624459 -21.943066 3.526697 41.143516 -0.564863 1.484974 0.062392 -0.025224 556835.000000 0 0 1
33.955109 -20.727566 3.812497 39.963941 -0.548061 1.475253 0.059829 -0.034463 -727105.000000 0 0 1
32.806649 -20.410466 2.816897 38.740138 -0.556543 1.498019 0.050308 -0.022833 618274.000000 0 0 1
31.635519 -21.129866 3.196297 38.177135 -0.588867 1.486975 0.042318 -0.017311 406707.000000 0 0 1
30.440229 -20.619666 2.564097 36.855838 -0.595384 1.501169 0.043187 -0.022201 1156310.000000 0 0 1
29.198519 -21.469866 2.947897 36.362051 -0.634031 1.489637 0.030057 -0.003243 52258.800000 0 0 1
29.096879 -22.593466 2.114697 36.899391 -0.660241 1.513455 0.012042 -0.005908 853398.000000 0 0 1
27.978179 -23.411866 2.580597 36.572578 -0.696775 1.500177 0.003621 0.006139 933317.000000 0 0 1
27.647869 -24.650466 1.677397 37.079156 -0.728147 1.525543 0.005589 0.009003 -193311.000000 0 0 1
27.227669 -24.341166 0.398497 36.523926 -0.729483 1.559886 0.004216 0.004699 -192286.000000 0 0 1
27.044999 -25.516266 -0.403503 37.184333 -0.756322 1.581648 -0.000168 0.002747 -182962.000000 0 0 1
26.084149 -25.297166 -1.618303 36.372357 -0.770083 1.615304 0.021559 -0.000890 77560.600000 0 0 1
26.533139 -24.450766 -2.688303 36.181133 -0.744577 1.645166 0.006843 -0.013261 -82507.300000 0 0 1
27.048549 -25.122466 -3.826003 37.113348 -0.748496 1.674069 0.018263 -0.023406 -403996.000000 0 0 1
26.085449 -25.597266 -4.959503 36.881803 -0.775953 1.705675 0.021901 -0.024460 79057.100000 0 0 1
25.486249 -24.600666 -5.799703 35.893986 -0.767719 1.733086 0.027254 -0.029493 1219360.000000 0 0 1
24.196749 -24.152266 -5.319003 34.599226 -0.784478 1.725140 0.032599 -0.026118 749519.000000 0 0 1
23.511249 -23.134166 -6.309303 33.582373 -0.777314 1.759795 0.033828 -0.028487 92335.000000 0 0 1
22.985549 -23.753166 -7.476903 33.888825 -0.801820 1.793257 0.043141 -0.032847 876803.000000 0 0 1
21.955849 -22.988466 -8.182903 32.825124 -0.808370 1.822741 0.040670 -0.035019 651026.000000 0 0 1
22.253249 -21.550966 -8.807003 32.205815 -0.769367 1.847785 0.039838 -0.030140 -334424.000000 0 0 1
22.949049 -21.637766 -10.048003 33.103084 -0.755997 1.879199 0.049091 -0.030351 291710.000000 0 0 1
22.919549 -20.306566 -10.643103 32.418174 -0.725022 1.905307 0.045704 -0.024126 119836.000000 0 0 1
23.670549 -20.161766 -12.019903 33.335713 -0.705518 1.939677 0.040815 -0.029351 1300900.000000 0 0 1
25.108549 -20.237366 -11.932303 34.385609 -0.678386 1.925182 0.047324 -0.028031 680941.000000 0 0 1
25.703149 -19.841566 -13.119603 35.020902 -0.657402 1.954785 0.046113 -0.028196 250372.000000 0 0 1
27.245519 -20.104066 -13.089203 36.301777 -0.635702 1.939671 0.036547 -0.028112 319016.000000 0 0 1
27.606569 -21.427466 -13.329303 37.402263 -0.660042 1.935184 0.034785 -0.026175 167899.000000 0 0 1
27.593169 -22.281066 -12.207003 37.507863 -0.679288 1.902286 0.040663 -0.029386 -436708.000000 0 0 1
27.885119 -23.722166 -12.633703 38.728949 -0.704906 1.903086 0.026331 -0.015018 -213700.000000 0 0 1
29.193869 -23.860066 -13.152503 39.932106 -0.685199 1.906434 0.019164 -0.013166 371117.000000 0 0 1
29.314379 -25.086566 -13.909803 41.014037 -0.707838 1.916807 0.024869 -0.007049 -80741.900000 0 0 1
-4.026409 -9.233602 -27.496213 29.283324 1.159595 2.790425 0.011082 -0.000990 77612.700000 0 0 1
-4.004709 -7.923102 -27.040143 28.460193 1.102801 2.824365 0.003725 0.003904 -35462.300000 0 0 1
-4.928209 -7.090302 -27.678423 28.994046 0.963391 2.839192 0.005124 0.002940 -217767.000000 0 0 1
-4.833409 -5.650302 -27.109793 28.111005 0.863161 2.873899 -0.000783 0.000173 137729.000000 0 0 1
-5.186709 -5.700302 -25.708353 26.838681 0.832538 2.850338 -0.001166 0.002786 286948.000000 0 0 1
-4.891209 -4.453102 -25.136533 25.992294 0.738548 2.884276 0.008795 -0.002737 74235.300000 0 0 1
-5.430509 -4.338402 -23.679503 24.678554 0.674066 2.856080 0.015650 -0.008088 -146797.000000 0 1 0
-4.793709 -5.265902 -22.787203 23.873960 0.832303 2.838706 0.008682 -0.015332 348781.000000 0 1 0
-5.194809 -5.109702 -21.460003 22.663336 0.777139 2.814262 0.012091 -0.010247 -399650.000000 0 1 0
-4.639409 -6.186502 -20.567503 21.973145 0.927344 2.781968 0.016585 -0.017798 -695666.000000 0 1 0
-5.063809 -7.499402 -20.921803 22.794846 0.976890 2.733376 0.008906 -0.006835 161212.000000 0 1 0
-4.467009 -8.479302 -20.162403 22.324319 1.085929 2.697867 0.012157 -0.012661 -1044570.000000 0 1 0
-5.168209 -9.865902 -20.199103 23.066212 1.088255 2.637682 0.019139 -0.011151 -85497.200000 0 1 0
-6.277109 -10.141202 -19.403803 22.776164 1.016544 2.590465 0.024792 -0.008142 648453.000000 0 1 0
-7.494609 -9.414102 -19.675503 23.063388 0.898435 2.592705 0.025767 -0.015442 342899.000000 0 1 0
-8.543909 -9.426302 -18.545303 22.489593 0.834462 2.540321 0.022856 -0.012959 -216402.000000 0 1 0
-9.042209 -10.724302 -18.383903 23.124448 0.870292 2.489802 0.032301 -0.019420 -611248.000000 0 1 0
-9.992609 -10.791102 -17.400903 22.783580 0.823798 2.439895 0.043508 -0.017217 -831663.000000 0 1 0
-10.749309 -12.141602 -17.374903 23.766644 0.846146 2.390674 0.032966 -0.012333 -123762.000000 0 1 0
-11.763709 -12.253802 -18.370203 25.020089 0.805801 2.395311 0.039992 -0.025592 -169831.000000 0 0 1
-11.374309 -12.396602 -19.674903 25.887303 0.828378 2.434142 0.043096 -0.023757 -774772.000000 0 0 1
-12.532009 -12.157102 -20.717603 27.093642 0.770214 2.441320 0.029929 -0.025184 789337.000000 0 0 1
-13.551809 -13.133202 -20.736703 28.038248 0.769712 2.403252 0.030199 -0.015885 174683.000000 0 0 1
-14.457509 -13.192802 -19.618803 27.712218 0.739691 2.357385 0.031438 -0.014900 -379886.000000 0 0 1
-15.627909 -14.157902 -19.874103 28.976847 0.736086 2.326583 0.030416 -0.010267 -255494.000000 0 0 1
-15.248809 -15.483302 -19.937903 29.492012 0.793028 2.313177 0.033847 -0.009031 -441417.000000 0 0 1
-15.924109 -16.198502 -20.916303 30.878155 0.793940 2.314994 0.044196 -0.014288 -294899.000000 0 0 1
-15.410309 -17.621602 -21.153403 31.550989 0.852243 2.305613 0.016782 -0.005726 -442324.000000 0 0 1
-15.731509 -18.633202 -20.204603 31.668637 0.869637 2.262695 0.022383 0.001153 44695.800000 0 0 1
-15.526609 -19.898202 -20.780603 32.693233 0.908182 2.259613 0.017616 0.005095 -367361.000000 0 0 1
-16.247409 -21.064402 -20.123503 33.356299 0.913789 2.218416 0.020648 -0.000266 -182762.000000 0 0 1
-15.765409 -22.316902 -20.604103 34.221649 0.955766 2.216897 0.026310 0.000394 -68838.200000 0 0 1
-16.541609 -23.387302 -20.185703 35.043592 0.955194 2.184644 0.049069 -0.007381 -365995.000000 0 0 1
-15.985609 -24.730502 -20.638003 35.959207 0.996961 2.182091 0.052762 -0.007510 -130769.000000 0 0 1
-16.125909 -24.957602 -22.025003 36.986857 0.997145 2.208662 0.039881 -0.009496 81489.300000 0 0 1
-15.437709 -26.127002 -22.351503 37.689956 1.037116 2.205621 0.047443 -0.008680 -182342.000000 0 0 1
-15.676509 -26.566392 -23.851603 38.992628 1.037697 2.228998 0.048248 -0.011624 18667.600000 0 0 1
-16.849009 -27.300232 -24.208103 40.189850 1.017844 2.217230 0.062209 -0.010582 248094.000000 0 0 1
-16.736909 -28.670482 -24.025703 40.979935 1.042398 2.197255 0.063964 -0.010703 -205946.000000 0 0 1
-17.857209 -29.384712 -24.801003 42.396119 1.024731 2.195655 0.063462 -0.011737 -173017.000000 0 0 1
-17.715009 -29.505912 -26.229213 43.271145 1.030091 2.222019 0.056633 -0.008549 63191.700000 0 0 1
-17.931009 -28.311102 -26.945953 43.001441 1.006211 2.248016 0.072854 -0.012151 -178032.000000 0 0 1
-16.709209 -27.996662 -27.818863 42.859070 1.032712 2.277168 0.069006 -0.010994 -239415.000000 0 0 1
-16.829309 -28.340602 -29.158123 44.006948 1.034931 2.295054 0.057616 -0.002877 -335918.000000 0 0 1
-15.580309 -28.405762 -29.790303 44.012447 1.069112 2.314286 0.032089 0.006549 -264434.000000 0 0 1
-15.703809 -28.554912 -31.294763 45.181354 1.067991 2.335950 0.041104 0.002823 -76678.700000 0 0 1
-15.903009 -29.857182 -31.737673 46.385740 1.081382 2.324319 0.031129 0.000534 82341.100000 0 0 1
-16.290809 -29.951172 -33.072923 47.500330 1.072639 2.340980 0.040568 0.001865 -85292.300000 0 0 1
-16.359309 -31.364122 -33.682273 48.844965 1.090024 2.331699 0.044609 -0.001219 651023.000000 0 0 1
-15.098109 -31.701982 -34.273123 49.067459 1.126328 2.344081 0.047743 -0.002819 425905.000000 0 0 1
-15.184009 -32.871642 33.661318 49.438682 1.138076 0.821846 0.049318 -0.001738 696151.000000 0 0 1
-13.836709 -33.208382 32.937047 48.776021 1.176008 0.829464 0.048779 -0.006452 1188890.000000 0 0 1
-12.811809 -33.915662 33.653521 49.466899 1.209613 0.822592 0.039505 0.001963 1825.550000 0 0 1
-11.829809 -34.370179 32.780189 48.946852 1.239308 0.836978 0.043686 0.002777 -867860.000000 0 0 1
-10.881309 33.506217 33.548485 48.647408 -1.256786 0.809825 0.038757 0.001142 -375691.000000 0 0 1
-10.184809 34.252353 -34.178051 49.447884 -1.281776 2.333935 0.044487 -0.004227 -14612.900000 0 0 1
-9.479209 33.421485 -33.274283 48.104355 -1.294428 2.334651 0.039249 -0.006189 424043.000000 0 0 1
-8.660609 34.347610 -32.269643 47.917579 -1.323799 2.309650 0.030050 -0.004606 744770.000000 0 0 1
-9.581309 -33.902962 -31.297563 47.124831 1.295369 2.297141 0.042571 -0.006651 522144.000000 0 0 1
-9.172909 -32.678862 -30.804793 45.836509 1.297140 2.307781 0.033556 -0.005956 -149932.000000 0 0 1
-10.275509 -32.075792 -29.897543 45.036714 1.260775 2.296749 0.036947 -0.010137 224792.000000 0 0 1
-10.351109 -32.496292 -28.506903 44.449949 1.262426 2.267021 0.058660 0.000103 -14859.600000 0 0 1
-10.728609 -33.834722 -28.224023 45.348505 1.263736 2.242577 0.059440 -0.004366 -76147.000000 0 0 1
-11.129709 -34.081890 -26.761023 44.739222 1.255156 2.211994 0.057489 -0.004676 388335.000000 0 0 1
-10.010309 -33.932982 -25.898753 43.845170 1.283931 2.202706 0.047287 -0.001315 276667.000000 0 0 1
-10.402509 -34.187212 -24.569803 43.366495 1.275417 2.173124 0.046547 -0.009390 123935.000000 0 0 1
-9.212909 34.332676 -23.631403 42.685519 -1.308630 2.157497 0.055100 -0.014846 -152305.000000 0 0 1
-8.505709 33.119171 -23.749103 41.632277 -1.319408 2.177849 0.040666 -0.014794 256375.000000 0 0 1
-7.915209 32.887171 -22.431203 40.587873 -1.334611 2.156346 0.053247 -0.014802 510855.000000 0 0 1
-7.093309 31.510192 -22.391103 39.301002 -1.349376 2.176978 0.041395 -0.020666 -396527.000000 0 0 1
-5.835509 31.549582 -22.971603 39.460409 -1.387900 2.192158 0.020500 -0.024496 -985026.000000 0 0 1
-5.226509 30.326502 -22.685303 38.231350 -1.400132 2.206034 0.007258 -0.016437 790001.000000 0 0 1
-3.670909 30.288502 -22.999103 38.207691 -1.450186 2.216737 0.018857 -0.026763 1227220.000000 0 0 1
-3.187109 30.565402 -24.322103 39.191404 -1.466900 2.240301 0.031714 -0.028527 64731.100000 0 0 1
-3.356009 31.861992 -24.787403 40.507588 -1.465854 2.229282 0.038487 -0.033260 -622438.000000 0 0 1
-3.072309 32.178992 -26.311423 41.679943 -1.475609 2.253990 0.025547 -0.015369 186737.000000 0 0 1
-1.887209 32.899689 -26.640593 42.375374 -1.513497 2.250652 0.038929 -0.025953 557469.000000 0 0 1
-2.119009 34.301551 -26.471963 43.380312 -1.509099 2.227147 0.044366 -0.020103 -86126.300000 0 0 1
-1.071109 -33.594322 -27.175813 43.223264 1.538923 2.250717 0.023663 -0.005551 326071.000000 0 0 1
0.203791 -33.565582 -26.541873 42.792065 -1.564725 2.239861 0.045990 -0.011598 77596.300000 0 0 1
1.041691 -32.637182 -27.154943 42.469538 -1.538890 2.264512 0.026055 0.000905 -549682.000000 0 0 1
2.178091 -32.095072 -26.313263 41.559903 -1.503036 2.256400 0.027751 -0.001666 -314924.000000 0 0 1
1.763091 -31.552802 -25.069203 40.337981 -1.514977 2.241425 0.029074 0.000514 1242160.000000 0 0 1
2.943391 -30.809692 -24.638803 39.559718 -1.475551 2.243145 0.010166 0.002569 1113800.000000 0 0 1
2.874391 -30.127642 -23.266103 38.173924 -1.475677 2.226196 0.016865 0.000264 -158772.000000 0 0 1
2.800791 -31.040222 -22.175503 38.250395 -1.480809 2.189213 0.027429 -0.001475 503391.000000 0 0 1
2.938591 -30.333702 -20.937503 36.974962 -1.474222 2.172759 0.018406 0.003611 -401050.000000 0 0 1
2.916091 -31.150452 -19.588203 36.912761 -1.477455 2.130178 0.021826 0.005868 -181075.000000 0 0 1
1.689591 -31.787022 -19.289003 37.220090 -1.517693 2.115590 0.024510 0.003866 94034.000000 0 0 1
1.554291 -33.088852 -19.762303 38.572484 -1.523858 2.108706 0.034408 0.005525 -437240.000000 0 0 1
2.157391 -34.212602 -18.886503 39.138938 -1.507821 2.074360 0.024641 -0.002088 993394.000000 0 0 1
3.585091 -34.368904 -19.028103 39.447980 -1.466860 2.074142 0.024447 -0.003081 826484.000000 0 0 1
4.021891 33.637293 -17.934803 38.331453 1.451795 2.057695 0.039805 -0.018711 1134330.000000 0 0 1
5.351991 32.808184 -18.219003 37.907161 1.409091 2.072160 0.038487 -0.010300 1308710.000000 0 0 1
6.554091 33.545853 -18.386403 38.811599 1.377850 2.064323 0.067454 -0.017440 -505006.000000 0 0 1
7.453291 32.681732 -19.020203 38.541086 1.346574 2.086911 0.053820 -0.022261 -105498.000000 0 0 1
8.816991 33.385524 -19.270603 39.543504 1.312595 2.079822 0.041232 -0.022511 52257.400000 0 0 1
9.544791 33.520415 -18.078603 39.262669 1.293392 2.049301 0.031509 -0.016708 -294338.000000 0 0 1
10.769191 34.191397 -18.267303 40.233338 1.265665 2.042084 0.027952 -0.007623 -268548.000000 0 0 1
11.681591 34.343035 -17.074303 40.092836 1.242928 2.010719 0.006003 -0.001955 -392681.000000 0 0 1
12.386191 33.147062 -16.757903 39.153196 1.213189 2.013084 0.005989 -0.010258 -133098.000000 0 0 1
13.168191 33.300711 -15.595703 39.058477 1.194233 1.981540 -0.002800 -0.021539 -274891.000000 0 0 1
14.287591 32.266012 -15.464303 38.527594 1.153941 1.983822 0.008200 -0.017032 -256135.000000 0 0 1
13.943691 31.017922 -14.957303 37.151836 1.148328 1.985151 0.026726 -0.017170 -525357.000000 0 0 1
15.054791 30.171742 -14.740903 36.800475 1.107973 1.982927 0.027333 -0.012837 -327540.000000 0 0 1
14.822991 28.978732 -13.770603 35.342856 1.097981 1.971025 0.036917 -0.024526 -515180.000000 0 0 1
14.783091 29.322432 -12.398703 35.100893 1.103829 1.931818 0.037955 -0.025891 -343620.000000 0 0 1
13.497891 29.288342 -11.829403 34.350180 1.138946 1.922371 0.045955 -0.028030 -301236.000000 0 0 1
12.892991 27.913932 -11.553903 32.846758 1.138104 1.930238 0.043276 -0.026997 -819319.000000 0 0 1
12.204891 27.352392 -12.640103 32.509767 1.151099 1.970135 0.036225 -0.026164 40658.600000 0 0 1
11.558591 26.086472 -12.499003 31.150123 1.153706 1.983678 0.052260 -0.026787 407362.000000 0 0 1
10.606991 25.820332 -11.302703 30.115593 1.181014 1.955528 0.055334 -0.028358 -99815.600000 0 0 1
9.501391 26.714662 -11.199703 30.485783 1.229086 1.946981 0.035676 -0.024325 -117924.000000 0 0 1
8.842091 26.613922 -9.984003 29.768503 1.250034 1.912814 0.017958 -0.016515 -384259.000000 0 0 1
7.711491 27.646352 -9.982303 30.388061 1.298777 1.905505 0.023701 -0.014572 -693234.000000 0 0 1
8.183791 28.932022 -10.150103 31.734224 1.295135 1.896365 0.032612 -0.025151 -555442.000000 0 0 1
7.242591 29.988052 -10.335403 32.535503 1.333819 1.894063 0.018132 -0.021176 -58797.600000 0 0 1
7.811691 31.326042 -10.873003 34.067076 1.326413 1.895644 0.040133 -0.021213 -429994.000000 0 0 1
8.636891 31.937582 -9.895403 34.532942 1.306683 1.861420 0.036850 -0.016714 -395014.000000 0 0 1
9.174791 33.192605 -10.208003 35.918368 1.301119 1.858968 0.037068 -0.015455 -289438.000000 0 0 1
10.186591 33.240623 -11.333903 36.567240 1.273433 1.885934 0.030826 -0.022718 -1296720.000000 0 0 1
11.449691 32.754555 -10.981103 36.394243 1.234513 1.877299 0.031485 -0.017615 -481674.000000 0 0 1
12.372791 33.139909 -11.991803 37.351612 1.213473 1.897636 0.033470 -0.023604 70938.700000 0 0 1
13.889391 33.045232 -11.786803 37.733689 1.172901 1.888481 0.038539 -0.021142 127202.000000 0 0 1
14.274291 33.881702 -10.692003 38.288955 1.172066 1.853804 0.042326 -0.016450 -85129.200000 0 0 1
15.684491 33.894720 -10.591303 38.820498 1.137397 1.847127 0.042805 -0.020150 153464.000000 0 0 1
16.237791 -33.958442 -9.486303 38.817929 -1.124768 1.817676 0.056756 -0.021036 -98199.700000 0 0 1
16.146091 34.331578 -8.171503 38.808852 1.131191 1.782942 0.048941 -0.016235 2826.030000 0 0 1
16.611491 -33.544782 -7.195303 38.117797 -1.110993 1.760701 0.043669 -0.012504 -1353620.000000 0 0 1
17.084191 -34.143725 -5.858303 38.626199 -1.106860 1.723050 0.049717 -0.007507 -79776.900000 0 0 1
18.162391 33.732482 -6.016003 38.780731 1.076884 1.726554 0.045392 -0.016091 40875.800000 0 0 1
19.409191 34.353688 -6.286503 39.955134 1.056524 1.728792 0.047477 -0.013941 -894638.000000 0 0 1
20.340391 33.555406 -7.229103 39.899333 1.025850 1.752986 0.034223 -0.005692 260298.000000 0 0 1
20.712291 32.233882 -6.897303 38.930643 0.999667 1.748906 0.036730 0.006110 146989.000000 0 0 1
21.428491 32.102002 -5.660503 39.009743 0.982208 1.716415 0.037925 -0.000133 -403154.000000 0 0 1
21.682591 30.679002 -5.232403 37.930383 0.955550 1.709185 0.033532 -0.002283 -134585.000000 0 0 1
22.604791 30.012202 -6.076903 38.060973 0.925259 1.731145 0.029387 -0.005825 150022.000000 0 0 1
22.804191 28.704142 -5.553203 37.078255 0.899445 1.721132 0.033186 -0.003372 -127072.000000 0 0 1
23.801391 27.831342 -6.350903 37.167510 0.863291 1.742511 0.025873 0.000691 -333699.000000 0 0 1
25.078191 28.423442 -6.370803 38.436895 0.847843 1.737312 0.027446 -0.001061 -162820.000000 0 0 1
26.037891 27.642652 -7.078003 38.628825 0.815284 1.755069 0.018518 0.001474 97273.200000 0 0 1
26.853691 26.634312 -6.274003 38.338889 0.781297 1.735182 0.021981 0.008139 -330692.000000 0 0 1
27.931591 27.293692 -5.603603 39.452754 0.773848 1.713312 0.028509 0.002940 806383.000000 0 0 1
28.863191 26.404552 -4.943503 39.429968 0.740942 1.696501 0.027270 0.015411 127245.000000 0 0 1
30.016191 27.057262 -4.245203 40.633594 0.733600 1.675463 0.042574 0.004066 -370130.000000 0 0 1
29.526491 27.940322 -3.203703 40.776697 0.757804 1.649444 0.046409 -0.004420 510979.000000 0 0 1
30.505791 28.077212 -2.186703 41.517645 0.743967 1.623490 0.049898 -0.007813 455248.000000 0 0 1
30.083591 29.248042 -1.224003 41.975810 0.771316 1.599960 0.062908 -0.006099 299588.000000 0 0 1
30.307391 30.473292 -1.866303 43.019096 0.788128 1.614193 0.053744 -0.009562 258558.000000 0 0 1
29.421291 31.481362 -1.375303 43.111252 0.819211 1.602703 0.048926 -0.008914 -38943.600000 0 0 1
32.301619 22.684598 19.231068 43.906942 0.612251 1.117428 0.044990 -0.017175 -324251.000000 0 0 1
32.733649 22.577198 20.570368 44.770098 0.603796 1.093402 0.050980 -0.016152 7877.870000 0 0 1
33.501429 23.676398 21.036768 46.102746 0.615227 1.096962 0.062239 -0.016091 -151710.000000 0 0 1
33.405009 23.801998 22.578068 46.820924 0.619085 1.067607 0.041984 -0.004137 663163.000000 0 0 1
32.108069 24.129498 23.109668 46.338078 0.644466 1.048676 0.034682 -0.005258 837242.000000 0 0 1
32.166939 24.278398 24.511438 47.169515 0.646542 1.024360 0.040274 -0.004563 339429.000000 0 0 1
30.818589 24.796898 25.094878 46.844685 0.677545 1.005455 0.033821 -0.003804 404829.000000 0 0 1
30.686669 26.245898 24.897268 47.438305 0.707555 1.018275 0.026257 -0.001021 966656.000000 0 0 1
29.469139 26.795298 25.450698 47.266861 0.737911 1.002203 0.020895 -0.006257 783785.000000 0 0 1
29.524969 28.285798 25.653158 48.268982 0.763966 1.010470 0.012206 0.001547 -115633.000000 0 0 1
29.660229 29.062898 24.493358 48.211055 0.775227 1.037883 0.012482 -0.008935 288958.000000 0 0 1
29.481529 30.424298 24.746488 49.063093 0.801134 1.042131 0.010034 -0.003692 -325964.000000 0 0 1
29.625829 31.262498 23.468568 49.049029 0.812272 1.071883 0.006536 -0.007315 1201400.000000 0 0 1
31.030799 31.514798 23.218368 49.951833 0.793136 1.087371 -0.013646 -0.005161 995372.000000 0 0 1
31.078349 32.122398 21.943368 49.791803 0.801916 1.114415 -0.011845 0.002927 -270793.000000 0 0 1
32.477489 32.582998 21.529568 50.793320 0.787020 1.133087 -0.021976 -0.003748 -86077.800000 0 0 1
32.914519 33.540298 22.525168 52.112382 0.794814 1.123819 -0.012611 0.005842 -222334.000000 0 0 1
34.280979 33.849098 22.417568 53.136563 0.779059 1.135272 -0.021932 0.006904 -33063.200000 0 0 1
34.798579 -33.776266 23.339868 53.819390 -0.770491 1.122234 -0.017665 0.012173 -353957.000000 0 0 1
34.417549 -32.468566 22.905368 52.568349 -0.756268 1.119952 -0.022116 0.012568 177031.000000 0 0 1
34.738419 -31.425166 23.788838 52.537678 -0.735363 1.100898 -0.012184 0.009359 -583515.000000 0 0 1
33.842309 -30.152066 23.604868 51.104195 -0.727797 1.090664 -0.015992 0.010550 1145090.000000 0 0 1
32.420429 -30.263666 23.742368 50.305802 -0.751005 1.079283 -0.021323 0.014789 903337.000000 0 0 1
31.705219 -30.908566 22.696568 49.756352 -0.772676 1.097128 -0.018767 0.019518 -405782.000000 0 0 1
30.912799 -32.181666 23.057968 50.228783 -0.805506 1.093861 -0.028678 0.012117 36666.800000 0 0 1
29.845069 -32.018866 23.978148 49.908792 -0.820522 1.069641 -0.018773 0.008182 157762.000000 0 0 1
29.279039 -33.276866 24.117548 50.460559 -0.849219 1.072479 -0.016819 0.000022 -393628.000000 0 0 1
28.475809 -33.610266 25.358928 50.829095 -0.867909 1.048461 -0.020047 -0.000497 -319716.000000 0 0 1
28.075659 33.839298 25.434928 50.796420 0.878220 1.046363 -0.008687 -0.011989 -89084.500000 0 0 1
27.411409 33.585098 26.620728 50.872461 0.886268 1.020097 -0.010881 -0.004291 -750654.000000 0 0 1
26.943789 32.094198 26.657508 49.665159 0.872417 1.004222 -0.000124 -0.004130 312989.000000 0 0 1
25.955149 31.619698 25.758338 48.342187 0.883468 1.008851 -0.011669 -0.003537 1402530.000000 0 0 1
24.606649 32.156498 25.861338 48.045149 0.917628 1.002411 -0.016522 -0.004172 967172.000000 0 0 1
23.798849 31.908598 24.566218 46.776521 0.929960 1.017867 0.004758 -0.015680 130111.000000 0 0 1
24.281349 32.706898 23.442968 46.998913 0.932182 1.048585 0.004690 -0.022807 337307.000000 0 0 1
25.533149 32.454898 22.849168 47.194773 0.904201 1.065409 -0.008918 -0.014617 -277708.000000 0 0 1
25.980949 33.525198 21.837568 47.705639 0.911506 1.095326 0.004208 -0.011222 460651.000000 0 0 1
27.210609 33.177298 21.178668 47.850667 0.883885 1.112301 0.001910 -0.004371 622278.000000 0 0 1
27.451869 34.117798 20.112968 48.188803 0.893245 1.140238 -0.002160 -0.007661 -1532490.000000 0 0 1
28.847359 34.380498 19.696968 49.011828 0.872687 1.157225 -0.002648 -0.007623 -1316060.000000 0 0 1
29.555579 33.307098 19.114968 48.459024 0.845005 1.165320 -0.003673 -0.009517 480891.000000 0 0 1
30.562449 33.627198 18.140668 48.927861 0.833107 1.190965 0.000939 0.005967 270113.000000 0 0 1
31.342929 32.404198 17.590668 48.392591 0.802045 1.198775 -0.000363 -0.003397 -156882.000000 0 0 1
32.204139 31.721798 18.453168 48.825182 0.777853 1.183222 -0.006427 0.002367 396200.000000 0 0 1
33.056099 30.726398 17.847568 48.531978 0.748889 1.194210 -0.003221 -0.005411 820089.000000 0 0 1
34.094219 30.082098 18.824468 49.210862 0.722962 1.178267 0.006384 -0.018382 387058.000000 0 0 1
35.044879 31.013398 19.347368 50.638869 0.724445 1.178766 0.013664 -0.010377 707614.000000 0 0 1
-35.520854 30.375798 20.249368 50.935813 -0.707479 1.161955 0.028055 -0.010839 121288.000000 0 0 1
-34.516095 31.262798 20.985368 51.079438 -0.735980 1.147423 0.027985 -0.006710 -159694.000000 0 0 1
-33.590219 31.823798 20.053968 50.430334 -0.758401 1.161835 0.028535 -0.003923 42121.500000 0 0 1
-32.544189 32.618198 20.572368 50.460810 -0.786534 1.150873 0.025801 0.001075 -43060.500000 0 0 1
-32.815679 33.920098 21.324568 51.789758 -0.801946 1.146420 0.012521 0.005855 -539800.000000 0 0 1
-33.157939 33.890998 22.671468 52.555153 -0.796331 1.124770 0.018236 0.000509 243827.000000 0 0 1
-32.898659 -33.648866 23.304468 52.513486 0.796671 1.110983 0.013888 0.001730 -298811.000000 0 0 1
-32.914869 -33.694066 24.833878 53.248476 0.797096 1.085605 0.017080 -0.011936 -155636.000000 0 0 1
-34.202082 -33.923766 25.373458 54.446457 0.781313 1.086003 0.011280 0.002457 -110241.000000 0 0 1
-34.136426 -34.301266 26.720588 55.279854 0.787807 1.066297 0.018996 -0.001437 375837.000000 0 0 1
-35.514624 34.092098 27.320588 56.302524 -0.764964 1.064152 0.003650 -0.004344 17269.700000 0 0 1
-35.358098 33.094198 28.302868 56.093434 -0.752338 1.041917 0.018348 -0.017721 -88837.400000 0 0 1
35.036949 32.955498 29.218428 56.279385 0.754795 1.024920 0.013638 -0.015134 7513.050000 0 0 1
35.345459 31.915398 30.342608 56.467406 0.734446 1.003508 0.022611 -0.011732 -163068.000000 0 0 1
35.167869 30.540998 30.039888 55.424962 0.715099 0.997991 0.027324 -0.010319 307410.000000 0 0 1
-35.436478 29.972798 29.064268 54.761704 -0.702061 1.011322 0.021932 -0.009026 -247718.000000 0 0 1
35.661036 28.511998 28.720448 53.939852 0.674453 1.009300 0.028577 -0.000387 -325406.000000 0 0 1
34.425349 28.313698 28.023058 52.650374 0.688291 1.009543 0.023632 0.005865 599981.000000 0 0 1
34.237749 26.955198 27.627808 51.595561 0.666946 1.005734 0.035178 -0.001967 -251090.000000 0 0 1
33.991679 25.855998 28.664228 51.435443 0.650287 0.979683 0.043993 -0.006844 143513.000000 0 0 1
35.091249 25.379898 29.512658 52.407365 0.626163 0.972616 0.030423 -0.006135 767648.000000 0 0 1
35.098869 24.017598 29.853018 51.961315 0.600100 0.958774 0.029745 0.001190 -480040.000000 0 0 1
35.342149 23.106998 28.634308 51.018864 0.579048 0.974902 0.048888 -0.005465 -1091.270000 0 0 1
34.389289 22.941398 27.548898 49.677688 0.588309 0.982971 0.049675 -0.005661 138589.000000 0 0 1
34.827479 22.244098 26.453308 49.066594 0.568386 1.001392 0.047142 -0.016113 -328622.000000 0 0 1
34.948779 20.721698 26.636858 48.583208 0.535195 0.990499 0.044002 -0.017326 -136602.000000 0 0 1
33.716039 20.035698 26.467548 47.315236 0.536180 0.977150 0.060021 -0.001090 401627.000000 0 0 1
33.576389 18.884598 27.215118 47.166350 0.512341 0.955742 0.059004 -0.001184 -437701.000000 0 0 1
33.253369 19.092398 28.735888 47.917194 0.521195 0.927672 0.046821 -0.006821 534940.000000 0 0 1
31.943739 19.631798 28.991088 47.395075 0.551067 0.912601 0.040143 -0.004805 1004850.000000 0 0 1
31.820979 21.043298 28.813388 47.808016 0.584280 0.923929 0.036549 -0.014207 -1047940.000000 0 0 1
30.711229 21.646898 29.718418 47.905659 0.613976 0.901604 0.038537 -0.011869 474831.000000 0 0 1
29.384509 21.368498 29.261138 46.650576 0.628751 0.892791 0.038124 -0.009299 564096.000000 0 0 1
28.906479 22.118498 28.131238 46.001946 0.653142 0.912813 0.023143 0.002051 -587880.000000 0 0 1
28.699489 23.669398 28.310728 46.748245 0.689641 0.920277 0.017050 0.003273 205904.000000 0 0 1
29.940229 24.395998 28.272738 47.863658 0.683714 0.938879 0.027670 -0.003363 591973.000000 0 0 1
29.872269 25.671298 28.880298 48.840962 0.709908 0.938110 0.018446 -0.000407 -114958.000000 0 0 1
30.219379 25.574198 30.383898 49.904225 0.702333 0.916194 0.025086 -0.008701 1314720.000000 0 0 1
31.536169 24.991698 30.708458 50.617431 0.670137 0.918922 0.029407 0.007605 1671730.000000 0 0 1
31.929219 25.107498 32.100718 51.771783 0.666361 0.901999 0.036996 -0.003019 266856.000000 0 0 1
31.246439 24.064898 33.027868 51.442194 0.656282 0.873642 0.039031 0.002536 -66919.500000 0 0 1
31.516949 24.283698 -34.331819 52.551783 0.656490 2.282725 0.030691 -0.006975 248619.000000 0 0 1
31.291789 23.031698 -33.633713 51.389316 0.634500 2.284302 0.029478 -0.009037 -440646.000000 0 0 1
31.939369 23.010198 -32.236633 50.880183 0.624309 2.256967 0.024647 -0.018814 -326697.000000 0 0 1
31.361669 23.818198 -31.165903 50.221254 0.649533 2.240268 0.004787 -0.019053 274674.000000 0 0 1
31.748739 23.554398 -29.825403 49.521175 0.638297 2.217145 0.038175 -0.031816 -75270.200000 0 0 1
33.136199 24.118898 -29.373653 50.423610 0.629188 2.192644 0.027257 -0.001867 641592.000000 0 0 1
33.620329 23.635398 -28.126343 49.800098 0.612743 2.170969 0.019578 -0.013010 -373439.000000 0 0 1
34.813759 24.224998 -27.657703 50.633950 0.607932 2.148651 0.025640 0.001513 -48153.800000 0 0 1
35.369149 23.316398 -26.508583 49.973354 0.582836 2.129933 0.017234 -0.000322 -690710.000000 0 0 1
-35.426796 22.224798 -27.044443 49.803628 -0.560283 2.144828 0.017259 -0.004153 -184985.000000 0 0 1
-35.500135 21.010598 -26.328233 48.937518 -0.534402 2.138855 0.004442 0.001983 -466374.000000 0 0 1
-34.293075 20.126698 -26.751983 47.924603 -0.530733 2.163023 0.015177 0.005757 212799.000000 0 0 1
-33.040659 20.566298 -26.275003 46.957785 -0.556767 2.164633 0.016002 0.000983 -66894.900000 0 0 1
-32.134489 19.464798 -26.307953 45.865152 -0.544621 2.181682 -0.008020 0.003768 -628369.000000 0 0 1
-30.814789 19.795098 -25.678083 44.729868 -0.571007 2.182264 -0.000142 0.005378 -1086300.000000 0 0 1
-30.869619 19.787198 -24.294403 43.985050 -0.570017 2.155957 -0.006717 0.003165 230347.000000 0 0 1
-29.622839 19.900198 -23.625203 42.798139 -0.591538 2.155575 0.009191 0.000715 -16702.000000 0 0 1
-29.835459 20.301898 -22.186803 42.362435 -0.597493 2.122029 -0.003043 -0.004657 -47716.700000 0 0 1
-30.361589 19.273298 -21.378703 41.837006 -0.565610 2.107144 -0.025309 0.007381 79978.700000 0 0 1
-30.921629 19.859398 -20.216503 41.943412 -0.570907 2.073726 -0.023707 0.006831 -1165690.000000 0 0 1
-31.854669 18.934498 -19.463803 41.857792 -0.536294 2.054429 -0.025647 0.009990 -404600.000000 0 0 1
-32.370939 19.498298 -18.270303 41.974579 -0.542138 2.021135 -0.024248 0.003861 -223385.000000 0 0 1
-33.497379 20.297498 -18.464903 43.301449 -0.544778 2.011335 -0.031888 0.002349 -1200210.000000 0 0 1
-34.598626 20.271798 -17.434603 43.726149 -0.529997 1.980920 -0.004433 -0.008515 -466720.000000 0 0 1
-34.294198 20.978198 -16.297803 43.379663 -0.548987 1.955950 -0.007532 -0.015199 -322694.000000 0 0 1
-35.387853 20.783498 -15.453403 43.852726 -0.531033 1.930923 0.014175 -0.006727 -584040.000000 0 0 1
-35.450969 21.632798 -14.164903 43.879307 -0.547898 1.899499 0.015495 -0.003262 -180282.000000 0 0 1
-35.605205 23.027898 -14.276603 44.741883 -0.574092 1.895563 0.024012 -0.012036 133354.000000 0 0 1
34.679879 23.519798 -14.865203 44.461772 0.595943 1.911698 0.036340 -0.005061 2319.420000 0 0 1
34.632039 25.076098 -14.983103 45.306536 0.626700 1.907847 0.027869 -0.003629 -343053.000000 0 0 1
34.743519 25.709698 -13.688503 45.337355 0.637061 1.877508 0.025873 -0.007775 69988.200000 0 0 1
34.752099 27.130998 -13.831803 46.207339 0.662862 1.874799 0.019935 -0.001269 -300970.000000 0 0 1
-35.333579 27.630198 -14.267103 47.068459 -0.663657 1.878755 0.021491 0.000777 -278453.000000 0 0 1
-35.160942 27.511898 -15.638803 47.305058 -0.663952 1.907730 0.022841 0.004480 228367.000000 0 0 1
-33.935739 28.096898 -16.091203 46.904124 -0.691549 1.920975 0.024211 -0.004503 75427.200000 0 0 1
-33.744259 27.940598 -17.625003 47.222799 -0.691589 1.953285 0.026272 -0.004196 -16685.800000 0 0 1
-33.372539 26.633198 -18.069103 46.363197 -0.673555 1.971134 0.023220 -0.012593 6017.940000 0 0 1
-32.089819 26.124698 -17.797203 45.044387 -0.683287 1.976977 0.014714 -0.005581 -178950.000000 0 0 1
-31.792409 24.820798 -18.493303 44.371517 -0.662870 2.000700 0.009627 -0.008387 -382116.000000 0 0 1
-31.599869 24.935698 -19.884903 44.897106 -0.668064 2.029626 0.010978 -0.004304 168198.000000 0 0 1
-31.017229 23.759898 -20.383203 44.068994 -0.653677 2.051642 0.009522 -0.004661 -202238.000000 0 0 1
-31.006599 23.768398 -21.917503 44.796460 -0.654015 2.082047 0.008581 -0.000137 217159.000000 0 0 1
-32.271199 23.675198 -22.560603 45.944816 -0.632943 2.084076 0.010108 0.001866 186907.000000 0 0 1
-32.144579 23.302898 -23.899303 46.340864 -0.627269 2.112654 0.011788 0.000927 -527648.000000 0 0 1
-33.016169 24.015098 -24.929203 47.835735 -0.628862 2.118985 0.006231 0.015343 -692264.000000 0 0 1
-32.778009 25.420898 -24.980003 48.421281 -0.659652 2.112841 0.007408 0.016630 221708.000000 0 0 1
-33.509029 26.164098 -25.976393 49.821562 -0.662928 2.119274 0.000596 0.008911 -62900.700000 0 0 1
-32.967649 27.609098 -26.105373 50.305255 -0.697169 2.116406 -0.008737 0.014925 1082480.000000 0 0 1
-31.624249 27.635598 -26.637293 49.732934 -0.718192 2.136022 0.000713 0.002069 548076.000000 0 0 1
-31.315749 28.889798 -27.202843 50.549888 -0.745125 2.139023 0.002189 -0.002529 -1142570.000000 0 0 1
-30.029839 28.911798 -27.933593 50.179367 -0.766432 2.161174 0.014961 0.002352 -1920960.000000 0 0 1
-28.948289 28.588998 -27.114603 48.893107 -0.779154 2.158641 -0.008138 0.007260 -581709.000000 0 0 1
-27.687529 28.732398 -27.721493 48.586326 -0.803916 2.177986 0.033403 0.001440 46148.100000 0 0 1
-27.158359 30.187698 -27.535823 49.062156 -0.838175 2.166684 0.025700 -0.004099 -1176660.000000 0 0 1
-26.542389 30.490998 -26.323903 48.240514 -0.854521 2.147997 0.038748 -0.004574 72582.100000 0 0 1
-27.307199 30.523398 -25.107183 48.038855 -0.840955 2.120745 0.024430 -0.003951 -363562.000000 0 0 1
-26.449389 30.885098 -23.907703 47.170305 -0.862610 2.102309 0.011091 -0.008831 186683.000000 0 0 1
-25.957619 32.241498 -23.817803 47.755627 -0.892954 2.092945 0.018704 -0.002510 -141209.000000 0 0 1
-24.751909 32.413498 -23.131803 46.886802 -0.918629 2.086738 0.025546 0.011202 -199573.000000 0 0 1
-24.164809 33.848298 -23.243003 47.643283 -0.950792 2.080427 0.013545 0.017647 -530247.000000 0 0 1
-25.005909 -33.896366 -22.857203 47.924011 0.935203 2.067974 -0.003800 0.010928 -445491.000000 0 0 1
-24.501409 -32.616266 -23.097203 46.878787 0.926526 2.085987 0.005095 0.016594 -147161.000000 0 0 1
16.715991 8.052198 -25.240873 31.326728 0.448906 2.507703 0.039839 -0.008249 1195930.000000 0 0 1
15.322891 7.684598 -25.035803 30.341975 0.464856 2.541213 0.031932 -0.006075 1333440.000000 0 0 1
15.190491 6.315598 -25.221053 30.112112 0.394018 2.563620 0.032376 -0.008788 -1216970.000000 0 0 1
13.776491 5.831898 -25.183023 29.291422 0.400449 2.605558 0.034097 -0.011782 -1154230.000000 0 0 1
13.159291 6.051698 -23.928903 27.971099 0.431040 2.597286 0.049179 -0.023597 599465.000000 0 0 1
11.840591 5.494998 -23.980503 27.303097 0.434502 2.643106 0.044081 -0.024619 587079.000000 0 0 1
11.042191 5.761298 -22.638603 25.838515 0.480898 2.638628 0.059386 -0.033441 65866.400000 0 0 1
11.357791 4.797798 -21.641603 24.907374 0.399686 2.623738 0.058870 -0.031507 259592.000000 0 1 0
10.956391 5.096098 -20.292503 23.617756 0.435361 2.604511 0.066608 -0.033469 -239003.000000 0 1 0
11.487791 6.378998 -19.658103 23.645337 0.506892 2.552371 0.066166 -0.039576 -476941.000000 0 1 0
11.175091 6.592598 -18.314103 22.444406 0.532987 2.525212 0.060451 -0.036033 -348971.000000 0 1 0
11.570391 7.866798 -17.861203 22.688831 0.597114 2.477091 0.063206 -0.033349 -449734.000000 0 1 0
13.019891 8.259998 -17.616903 23.411544 0.565340 2.422628 0.070398 -0.029360 -405058.000000 0 1 0
13.601891 7.725598 -16.411503 22.672312 0.516542 2.380172 0.088410 -0.030279 570673.000000 0 1 0
14.971091 7.948098 -16.164403 23.422078 0.488058 2.332472 0.070983 -0.026118 -178282.000000 0 1 0
15.425891 7.463598 -14.760103 22.616897 0.450633 2.281826 0.063801 -0.028681 468686.000000 0 1 0
16.846791 7.231798 -14.649803 23.467637 0.405481 2.244975 0.066352 -0.031519 1192010.000000 0 1 0
17.351291 7.589898 -13.410103 23.205704 0.412348 2.186924 0.072666 -0.034803 -374724.000000 0 1 0
17.616291 9.096198 -13.188803 23.812162 0.476643 2.157800 0.056404 -0.034238 -185892.000000 0 1 0
16.480591 9.975598 -13.214003 23.360914 0.544303 2.172012 0.061291 -0.024921 696808.000000 0 1 0
16.941391 11.300598 -13.123203 24.226694 0.588262 2.143235 0.061763 -0.026331 -35234.800000 0 1 0
15.832191 12.401598 -13.160803 24.034655 0.664484 2.150261 0.073700 -0.015070 128365.000000 0 1 0
15.032691 12.381698 -11.977203 22.863544 0.688997 2.122168 0.079556 -0.008431 509811.000000 0 1 0
15.616191 13.081098 -10.865903 23.087841 0.697288 2.060805 0.076172 -0.013833 -44532.500000 0 1 0
15.230391 14.578098 -11.045903 23.801213 0.763519 2.053403 0.073628 -0.014303 -186358.000000 0 1 0
13.987891 14.937298 -10.525803 23.012529 0.818209 2.045859 0.072206 -0.025500 -410025.000000 0 1 0
13.814491 16.314298 -10.687503 23.900193 0.868179 2.034398 0.063757 -0.026461 397247.000000 0 1 0
12.632191 16.978998 -9.924603 23.374267 0.931153 2.009311 0.054891 -0.023175 392145.000000 0 1 0
12.765991 16.674198 -8.517203 22.661469 0.917377 1.956105 0.059213 -0.019751 522095.000000 0 1 0
11.668791 17.164598 -7.745603 22.153521 0.973745 1.927976 0.048718 -0.013541 226044.000000 0 1 0
11.923191 16.975898 -6.243303 21.663851 0.958488 1.863132 0.036153 -0.013829 834873.000000 0 1 0
13.022891 17.814598 -5.819203 22.821453 0.939551 1.828632 0.043972 -0.012115 822838.000000 0 1 0
13.402591 17.488198 -4.488203 22.485784 0.916895 1.771748 0.030620 -0.015111 -885286.000000 0 1 0
14.316691 18.531698 -3.905503 23.741197 0.913018 1.736051 0.026425 -0.017080 76643.900000 0 1 0
15.582591 18.494098 -4.597703 24.616817 0.870631 1.758670 0.038334 -0.023470 389248.000000 0 1 0
16.278591 19.653498 -4.304503 25.880133 0.879048 1.737898 0.030938 -0.021807 -865119.000000 0 0 1
17.530291 19.906798 -5.120603 27.015038 0.848793 1.761496 0.030202 -0.019388 -434427.000000 0 0 1
18.716891 19.219998 -4.826503 27.258494 0.798659 1.748799 0.040230 -0.031205 26026.300000 0 0 1
18.767691 17.863098 -5.285503 26.443393 0.760708 1.772032 0.030518 -0.027663 -563639.000000 0 0 1
19.870491 17.043798 -4.590203 26.578138 0.708973 1.744373 0.046179 -0.032037 7241.100000 0 0 1
21.201091 17.416298 -4.892203 27.870188 0.687703 1.747246 0.047194 -0.037090 -418233.000000 0 0 1
22.012191 16.585898 -4.156903 27.873077 0.645729 1.720492 0.056444 -0.039562 -148248.000000 0 0 1
23.521191 16.756698 -4.511903 29.229961 0.619005 1.725775 0.064779 -0.038400 777608.000000 0 0 1
24.215191 17.888598 -3.957803 30.365138 0.636252 1.701509 0.068596 -0.037685 1531520.000000 0 0 1
25.657191 17.828198 -3.935103 31.490016 0.607269 1.696087 0.053259 -0.027633 1263870.000000 0 0 1
26.317991 19.084298 -3.265403 32.672771 0.627402 1.670906 0.063637 -0.022552 -117251.000000 0 0 1
26.097291 20.282398 -3.981103 33.291042 0.660673 1.690668 0.054144 -0.018938 292318.000000 0 0 1
26.353891 21.453398 -3.252003 34.137243 0.683250 1.666204 0.073637 -0.004259 -515964.000000 0 0 1
26.064191 22.685898 -4.145203 34.801936 0.716211 1.690188 0.048689 -0.003841 140364.000000 0 0 1
27.128091 23.282998 -4.898303 36.083579 0.709271 1.706966 0.043740 0.005444 473150.000000 0 0 1
27.615591 22.430998 -5.936403 36.069536 0.682171 1.736131 0.040221 0.004299 324645.000000 0 0 1
28.740091 23.091198 -6.795203 37.488279 0.676840 1.753066 0.036604 0.003967 26895.000000 0 0 1
28.245591 24.104198 -7.619703 37.906275 0.706453 1.773190 0.026755 0.004143 -129518.000000 0 0 1
29.202691 24.851998 -8.336403 39.241746 0.705084 1.784865 0.023884 0.004052 -381682.000000 0 0 1
30.033891 24.154598 -9.452103 39.684020 0.677324 1.811292 0.018287 -0.000142 -42447.600000 0 0 1
29.390791 23.730298 -10.630903 39.242346 0.679240 1.845128 0.020511 -0.003712 -344196.000000 0 0 1
30.365191 23.373798 -11.578203 40.030414 0.656026 1.864224 0.012967 -0.011654 -165110.000000 0 0 1
29.880091 22.944398 -12.937703 39.832768 0.654848 1.901597 0.018539 -0.003740 -98844.200000 0 0 1
29.656991 23.905198 -13.946903 40.564907 0.678423 1.921775 0.021379 0.000808 -85890.200000 0 0 1
29.397691 23.176398 -15.122503 40.373999 0.667612 1.954719 0.023880 0.002207 -155904.000000 0 0 1
29.551491 23.972498 -16.408903 41.439394 0.681540 1.977924 0.022580 0.003080 448941.000000 0 0 1
30.909791 24.374198 -16.635103 42.734569 0.667726 1.970631 0.021643 0.008051 559780.000000 0 0 1
31.007991 24.844698 -17.928603 43.591161 0.675494 1.994665 0.025326 0.006504 474563.000000 0 0 1
32.442691 25.393198 -18.163403 45.025014 0.664109 1.986033 0.018498 0.004786 696612.000000 0 0 1
33.435791 24.400898 -18.442303 45.315279 0.630437 1.989939 0.028670 0.005940 -1011270.000000 0 0 1
34.640091 24.981698 -18.767003 46.649990 0.624799 1.984817 0.026725 -0.003335 -977000.000000 0 0 1
35.669891 23.837398 -18.906303 46.882950 0.589117 1.985880 0.022014 -0.013439 -395849.000000 0 0 1
35.503491 22.893198 -19.925903 46.708008 0.572722 2.011533 0.011822 0.000938 -189125.000000 0 0 1
-35.176767 23.210198 -21.039003 47.103693 -0.583245 2.033817 0.003279 -0.002598 -120259.000000 0 0 1
-35.143267 22.177998 -22.193103 47.111003 -0.562955 2.061312 0.003496 0.003788 -376941.000000 0 0 1
-34.623267 20.960898 -21.714103 45.930732 -0.544380 2.063214 -0.008805 -0.000946 229391.000000 0 0 1
-34.193767 20.134298 -22.771103 45.750702 -0.532165 2.091766 -0.006922 0.003348 -124681.000000 0 0 1
-34.101267 18.657398 -22.218503 44.773394 -0.500627 2.090063 -0.016994 0.008713 303061.000000 0 0 1
-35.297967 17.875598 -22.066803 45.303722 -0.468770 2.079546 -0.017137 -0.002055 436394.000000 0 0 1
-35.078167 16.580498 -22.611303 44.907257 -0.441548 2.098454 -0.015992 0.000683 -881377.000000 0 0 1
35.283791 15.558298 -22.523103 44.657549 0.415300 2.099427 -0.012320 0.003681 -478925.000000 0 0 1
34.342091 15.753798 -23.571103 44.532665 0.430091 2.128571 0.020505 -0.007485 1525290.000000 0 0 1
33.102291 14.979798 -23.461303 43.250304 0.424956 2.144152 0.021441 -0.007949 1357440.000000 0 0 1
33.277991 13.592198 -24.116903 43.287383 0.387764 2.161728 0.012529 -0.004554 -532133.000000 0 0 1
33.313091 13.633298 -25.517453 44.122208 0.388453 2.187484 0.006756 0.000701 179826.000000 0 0 1
34.109191 12.611598 -26.057223 44.737771 0.354153 2.192528 0.006552 0.009480 -626148.000000 0 0 1
34.010291 12.616898 -27.563993 45.559409 0.355235 2.220577 0.020249 0.006533 -610045.000000 0 0 1
32.760891 12.215998 -28.033583 44.815046 0.356914 2.246619 0.025456 0.009518 -364051.000000 0 0 1
31.861091 13.208998 -28.423163 44.693209 0.393013 2.260050 0.023535 0.002288 -280490.000000 0 0 1
32.107191 13.653998 -29.928053 45.967290 0.402093 2.279793 0.030682 -0.010234 247099.000000 0 0 1
33.397991 14.232798 -30.161003 47.198352 0.402850 2.264028 0.032922 -0.005025 641892.000000 0 0 1
33.798591 13.974698 -31.493143 48.264428 0.392064 2.281692 0.031162 -0.012304 128669.000000 0 0 1
35.221791 14.609298 -31.750583 49.619610 0.393183 2.265138 0.043511 -0.011975 1442440.000000 0 0 1
-35.164467 13.726198 -31.409983 49.107385 -0.372154 2.264798 0.029680 -0.000052 623116.000000 0 0 1
-34.821567 13.574398 -30.041823 47.951193 -0.371706 2.247862 0.013042 -0.002446 -940382.000000 0 0 1
-33.818167 12.457498 -29.821443 46.777945 -0.352943 2.262059 0.007394 0.004592 -435049.000000 0 0 1
-34.317867 11.159798 -30.041623 46.954831 -0.314403 2.265032 0.010426 0.001783 273008.000000 0 0 1
-33.324367 10.138498 -29.923013 45.920467 -0.295339 2.280524 0.008630 0.000988 103545.000000 0 0 1
-33.729467 8.709898 -30.360243 46.209129 -0.252708 2.287653 0.013430 0.006846 -458022.000000 0 0 1
-33.754567 8.595598 -31.775433 47.147993 -0.249350 2.310340 0.021468 0.006778 109327.000000 0 0 1
-33.996467 7.298398 -32.393713 47.522405 -0.211471 2.320814 0.024176 0.001555 -1052490.000000 0 0 1
-35.185067 6.469998 -31.950973 47.965763 -0.181853 2.299791 0.021796 0.011703 -834437.000000 0 0 1
-35.093367 5.801098 -30.701263 46.986856 -0.163823 2.282865 0.022957 0.007574 -360970.000000 0 0 1
35.211291 5.175098 -30.286093 46.731832 0.145928 2.275861 0.019564 0.012781 -730498.000000 0 0 1
35.344391 4.409898 -28.941603 45.894330 0.124128 2.253140 0.023179 0.002679 -250077.000000 0 0 1
-35.294267 3.285598 -28.957243 45.771195 -0.092824 2.255769 0.041733 0.003065 96633.800000 0 0 1
-35.377767 2.452298 -27.818773 45.071990 -0.069207 2.235985 0.049841 0.000812 -353674.000000 0 0 1
-34.440267 1.236298 -27.851803 44.310082 -0.035881 2.250504 0.055623 -0.001977 -894924.000000 0 0 1
-33.216767 1.455598 -27.272813 43.003240 -0.043793 2.257774 0.054837 -0.006687 -1179450.000000 0 0 1
-32.317367 0.376498 -27.329763 42.325759 -0.011649 2.272737 0.049937 -0.008814 -12781.100000 0 0 1
-31.179567 0.554198 -26.329663 40.813278 -0.017773 2.271983 0.046007 -0.010250 -307837.000000 0 0 1
-31.677967 0.428798 -25.046103 40.385452 -0.013535 2.239764 0.040742 -0.004275 -155040.000000 0 0 1
-30.674767 0.577998 -24.083903 39.003971 -0.018841 2.236322 0.033607 0.000405 -115354.000000 0 0 1
-31.172067 0.171098 -22.642003 38.527747 -0.005489 2.198985 0.030044 0.008995 -250195.000000 0 0 1
-31.360067 -1.237802 -22.419003 38.569387 0.039450 2.191078 0.043529 -0.006238 167985.000000 0 0 1
-31.752567 -1.629402 -21.119203 38.169375 0.051271 2.157120 0.049509 -0.008495 -148947.000000 0 0 1
-33.204267 -1.309002 -20.674303 39.136474 0.039402 2.127348 0.046738 -0.007255 -205610.000000 0 0 1
-34.107467 -2.259702 -21.239403 40.243481 0.066156 2.126772 0.056610 -0.012544 85298.800000 0 0 1
-35.365767 -2.023602 -20.639903 40.998025 0.057157 2.098368 0.056011 -0.008578 37413.500000 0 0 1
35.226491 -3.246002 -20.312403 40.792596 -0.091887 2.092022 0.048233 -0.009263 -22343.600000 0 0 1
34.620891 -3.990602 -21.396703 40.894375 -0.114759 2.121420 0.045446 -0.002666 40177.900000 0 0 1
35.474891 -4.885202 -22.066903 42.062826 -0.136848 2.123062 0.044370 0.000366 -340905.000000 0 0 1
34.842291 -5.695102 -23.209603 42.250504 -0.162021 2.152362 0.040983 0.000319 -497067.000000 0 0 1
34.151991 -6.876302 -22.743503 41.604194 -0.198688 2.149171 0.038836 0.008050 274678.000000 0 0 1
33.709191 -7.667102 -23.823903 41.984192 -0.223644 2.174201 0.039357 0.015112 -97274.300000 0 0 1
32.332891 -7.290502 -24.388803 41.150710 -0.221774 2.205166 0.014733 0.019459 -705653.000000 0 0 1
32.390891 -6.030802 -25.011203 41.365453 -0.184080 2.220110 0.012910 0.013331 -407680.000000 0 0 1
31.132791 -5.477102 -25.292793 40.484252 -0.174145 2.245616 -0.028027 0.015469 -204697.000000 0 0 1
31.173991 -4.247502 -26.209723 40.948853 -0.135418 2.265373 0.008895 -0.010808 -113303.000000 0 0 1
31.457991 -4.599902 -27.554363 42.071454 -0.145195 2.284902 0.009830 -0.007364 297673.000000 0 0 1
30.977291 -3.604102 -28.436743 42.204626 -0.115826 2.310112 0.009007 -0.013149 36777.700000 0 0 1
30.800591 -4.017202 -29.929723 43.134703 -0.129694 2.337641 0.013340 -0.014399 150003.000000 0 0 1
30.284191 -2.985002 -30.768433 43.275154 -0.098249 2.361709 0.013553 -0.022156 159140.000000 0 0 1
29.788391 -3.498802 -32.018663 43.872367 -0.116920 2.388846 0.026891 -0.024370 -422684.000000 0 0 1
29.143891 -2.390502 -32.937183 44.044737 -0.081841 2.415557 0.025031 -0.020635 -391713.000000 0 0 1
28.060891 -1.664102 -32.403353 42.897088 -0.059234 2.427021 0.018175 -0.018381 744198.000000 0 0 1
26.823191 -2.390102 -32.249293 42.014439 -0.088871 2.445848 0.030087 -0.020228 648423.000000 0 0 1
25.985191 -2.588302 -33.556333 42.520077 -0.099279 2.480282 0.039880 -0.035601 -509093.000000 0 0 1
26.588191 -3.572702 -34.322508 43.562950 -0.133572 2.478160 0.050035 -0.038830 168468.000000 0 0 1
25.879491 -3.662102 33.208727 42.260840 -0.140573 0.666802 0.051095 -0.038628 -85398.200000 0 0 1
26.553091 -4.868402 32.367748 42.147824 -0.181332 0.695150 0.057656 -0.047252 520569.000000 0 0 1
27.940291 -4.779802 32.108118 42.830335 -0.169432 0.723251 0.059178 -0.038616 120514.000000 0 0 1
28.268391 -3.885302 31.042838 42.164621 -0.136588 0.743315 0.075385 -0.041754 -612835.000000 0 0 1
28.889491 -2.575002 31.511788 42.827866 -0.088898 0.743982 0.041232 -0.039089 -594320.000000 0 0 1
30.198991 -2.685202 32.009168 44.088277 -0.088684 0.758273 0.037170 -0.033641 -409987.000000 0 0 1
30.658191 -1.427802 32.440218 44.657933 -0.046538 0.757704 0.015800 -0.023776 -534867.000000 0 0 1
32.157091 -1.511702 32.684716 45.876512 -0.046975 0.777813 0.013898 -0.019681 -215001.000000 0 0 1
32.960091 -1.780102 31.533978 45.650062 -0.053955 0.808234 0.031477 -0.021458 524756.000000 0 0 1
34.356691 -1.912402 31.796838 46.851664 -0.055606 0.824846 0.037141 -0.008551 471389.000000 0 0 1
35.118591 -2.373502 30.570718 46.621001 -0.067483 0.855649 0.030532 -0.006913 -175671.000000 0 0 1
35.199991 -1.478102 29.443838 45.914744 -0.041967 0.874642 0.028446 -0.001631 784773.000000 0 0 1
-35.053367 -1.782502 28.728858 45.357062 0.050807 0.884866 0.032559 -0.000211 935101.000000 0 0 1
-34.898867 -1.160902 27.303818 44.325806 0.033252 0.907167 0.042409 0.002008 224875.000000 0 0 1
35.712991 -1.735802 26.309708 44.391795 -0.048566 0.936426 0.051240 -0.019356 61550.700000 0 0 1
-35.512967 -1.161602 25.058538 43.479310 0.032698 0.956563 0.045559 -0.016863 -1142430.000000 0 0 1
-26.381999 15.527398 12.433497 33.040911 -0.531966 1.184990 0.061389 -0.016440 283441.000000 0 0 1
-27.552479 14.842298 12.896597 33.849005 -0.494120 1.179915 0.041043 -0.017016 616434.000000 0 0 1
-28.401569 15.673798 13.655897 35.196599 -0.504273 1.172348 0.052265 -0.026122 -1026090.000000 0 0 1
-29.648399 14.912698 14.000097 36.019701 -0.466033 1.171599 0.052575 -0.025679 -626773.000000 0 0 1
-30.543359 15.663198 14.848197 37.399218 -0.473850 1.162530 0.054445 -0.032906 -157417.000000 0 0 1
-31.659159 14.849398 15.126097 38.099945 -0.438574 1.162538 0.053780 -0.017527 -22913.400000 0 0 1
-32.708329 15.618098 15.966997 39.606878 -0.445483 1.155854 0.064012 -0.024163 101403.000000 0 0 1
-32.233199 15.820198 17.277997 39.847045 -0.456264 1.122303 0.056243 -0.013947 522929.000000 0 0 1
-33.277079 16.395598 18.049097 41.254691 -0.457790 1.117975 0.058603 -0.017261 -121102.000000 0 0 1
-32.800099 16.616898 19.474997 41.608212 -0.468923 1.083706 0.038373 -0.005212 -175549.000000 0 0 1
-32.386869 15.508898 20.212797 41.206703 -0.446596 1.058108 0.017067 0.006021 418827.000000 0 0 1
-31.004779 15.637298 20.541197 40.345535 -0.467123 1.036620 0.017422 0.008991 572445.000000 0 0 1
-30.696789 16.294698 21.947097 41.103347 -0.488004 1.007532 0.019625 -0.002573 -379024.000000 0 0 1
-31.233879 17.580198 22.078197 42.095907 -0.512660 1.018699 0.017015 0.001374 4739.200000 0 0 1
-31.325099 18.143298 23.372997 43.089884 -0.524980 0.997476 0.014374 -0.004679 -985332.000000 0 0 1
-32.071499 17.310198 24.484997 43.906026 -0.494930 0.979222 0.010394 0.002570 -543271.000000 0 0 1
-33.377329 16.945198 24.177697 44.561720 -0.469777 0.997307 0.057531 0.005656 -706433.000000 0 0 1
-34.306310 18.020598 24.226397 45.701019 -0.483671 1.012070 0.056818 -0.003896 -1568300.000000 0 0 1
-35.686216 17.463898 23.951797 46.391619 -0.455111 1.028276 0.011536 -0.011464 -934792.000000 0 0 1
35.313719 16.627998 24.924097 46.311550 0.440069 1.002516 0.026188 0.003922 -551745.000000 0 0 1
34.156549 15.937198 24.540197 44.976498 0.436566 0.993664 0.047641 0.000365 48732.300000 0 0 1
33.433059 15.060398 25.593997 44.717309 0.423240 0.961426 0.056625 0.005668 -129412.000000 0 0 1
32.621089 15.802898 26.492397 44.896705 0.451121 0.939645 0.047313 -0.000346 206063.000000 0 0 1
32.433939 15.231298 27.779597 45.339374 0.439041 0.911319 0.044014 0.001491 795149.000000 0 0 1
31.276559 14.152598 27.854697 44.208634 0.424930 0.889148 0.042734 0.002814 424914.000000 0 0 1
31.791419 13.048698 27.241297 43.852607 0.389480 0.900522 0.032620 -0.002396 132179.000000 0 0 1
30.909499 11.940598 27.335697 42.955970 0.368648 0.881019 0.024323 0.003642 -56766.200000 0 0 1
31.528749 10.622798 26.861597 42.760394 0.324979 0.891573 0.032509 -0.004887 157448.000000 0 0 1
32.596159 10.149698 27.683497 43.953407 0.301862 0.889453 0.019415 -0.001859 237200.000000 0 0 1
32.835969 8.806598 27.451697 43.696141 0.262033 0.891506 0.022273 -0.001630 -227310.000000 0 0 1
33.894679 8.269298 28.422197 45.000576 0.239296 0.887186 0.017954 0.003731 910280.000000 0 0 1
35.244989 8.715798 28.208697 45.977222 0.242428 0.910265 0.018293 0.000080 1078250.000000 0 0 1
-35.203693 8.012798 28.894397 46.242741 -0.223800 0.895867 0.026501 -0.001539 601184.000000 0 0 1
-33.910959 8.833898 29.146997 45.580021 -0.254839 0.876989 0.037268 -0.004848 454508.000000 0 0 1
-33.254449 9.173398 27.909097 44.372596 -0.269161 0.890567 0.029754 -0.001665 839173.000000 0 0 1
-32.049099 9.917398 28.180297 43.813567 -0.300098 0.872144 0.031530 0.001380 894368.000000 0 0 1
-31.337739 10.593598 26.943797 42.664346 -0.325986 0.887272 0.028604 0.004862 45785.200000 0 0 1
-30.795149 9.655698 26.085997 41.497626 -0.303838 0.891026 0.035859 0.001844 288819.000000 0 0 1
-29.956439 10.199198 25.050197 40.359934 -0.328158 0.901199 0.027706 0.001771 -125978.000000 0 0 1
-29.167229 9.143298 24.357797 39.084900 -0.303776 0.897966 0.027093 -0.000158 -206600.000000 0 0 1
-28.376059 9.609298 23.258797 37.927707 -0.326520 0.910640 0.026579 -0.004888 130164.000000 0 0 1
-27.706179 8.580398 22.569897 36.751270 -0.300325 0.909519 0.024917 0.002447 -537437.000000 0 0 1
-26.665149 9.041898 21.592197 35.482518 -0.326923 0.916589 0.017629 0.006045 -1897630.000000 0 0 1
-25.553899 9.665598 22.127897 35.157778 -0.361611 0.890030 0.021406 -0.005208 -47547.600000 0 0 1
-24.602009 10.155898 21.187597 34.019338 -0.391498 0.898467 0.011257 -0.004405 297949.000000 0 0 1
-23.964309 9.284998 20.109397 32.632609 -0.369642 0.906842 0.001875 0.001621 -1251810.000000 0 0 1
-24.609709 9.140298 18.834697 32.309885 -0.355620 0.948455 0.008639 0.000330 40775.300000 0 0 1
-23.992009 8.390598 17.822597 31.042932 -0.336430 0.959258 0.009400 0.005364 -592256.000000 0 0 1
-23.770009 6.838898 18.160797 30.685475 -0.280145 0.937460 0.007965 0.007712 -639335.000000 0 0 1
-22.713109 6.540398 19.039397 30.350630 -0.280372 0.892696 0.005691 0.007357 258922.000000 0 0 1
-22.646009 5.289598 19.683797 30.467580 -0.229463 0.868389 0.006962 0.008760 -380811.000000 0 0 1
-22.754309 3.998398 18.766597 29.764592 -0.173945 0.888598 0.013570 0.009442 -206190.000000 0 0 1
-24.091609 3.707598 18.370897 30.522807 -0.152698 0.924950 0.033502 0.003017 652057.000000 0 0 1
-24.156609 2.838398 17.253797 29.820996 -0.116964 0.953811 0.037699 0.005873 -136400.000000 0 0 1
-23.990309 1.302598 17.664097 29.820329 -0.054244 0.936823 0.029190 0.010804 425307.000000 0 0 1
-22.658509 0.907098 18.019297 28.964218 -0.040012 0.899345 0.004759 0.015555 834568.000000 0 0 1
-22.651309 -0.496702 18.258997 29.098445 0.021925 0.892470 0.016609 0.015583 289746.000000 0 0 1
-21.285409 -1.174902 18.612797 28.299916 0.055142 0.853038 0.027321 0.013755 355960.000000 0 0 1
-20.727409 -0.766702 19.848997 28.708814 0.036973 0.807385 0.006195 0.021466 -34430.700000 0 0 1
-19.637509 -1.618802 20.158397 28.188885 0.082248 0.774003 0.006705 0.013536 68940.400000 0 0 1
-18.687909 -1.158702 21.279597 28.344343 0.061923 0.721595 0.012105 0.007121 335583.000000 0 0 1
-19.351809 -1.160502 22.530997 29.723477 0.059897 0.710524 0.006413 0.006280 -352655.000000 0 0 1
-18.481809 -0.739202 23.531697 29.930995 0.039975 0.666164 0.006205 0.001313 -438023.000000 0 0 1
-18.989809 -0.710602 24.993897 31.397654 0.037403 0.650067 0.012156 0.009762 -21276.100000 0 0 1
-19.678009 0.415898 25.454697 32.176678 -0.021132 0.658205 0.020893 -0.001498 583646.000000 0 0 1
-21.116109 0.369298 25.380197 33.017887 -0.017487 0.694021 -0.005093 0.003102 464770.000000 0 0 1
-21.647309 1.715398 25.969797 33.852311 -0.079078 0.696410 -0.000320 -0.002819 -866155.000000 0 0 1
-21.330709 2.848098 25.198697 33.137368 -0.132736 0.706819 0.005041 0.001340 369023.000000 0 0 1
-22.470909 3.401398 24.547697 33.452962 -0.150229 0.746902 0.007765 -0.003414 -747972.000000 0 0 1
-22.057509 4.484198 23.533697 32.564960 -0.200563 0.763140 0.008469 0.003729 -82188.000000 0 0 1
-21.513809 3.980398 22.307097 31.245706 -0.182947 0.775708 0.010884 0.000759 802864.000000 0 0 1
-20.298409 3.244998 22.465697 30.450993 -0.158523 0.741042 0.003263 0.007954 -648859.000000 0 0 1
-19.992209 2.403498 21.178497 29.223175 -0.119648 0.760174 0.005052 0.009672 -609491.000000 0 0 1
-19.370509 3.075598 20.191797 28.149327 -0.157463 0.770862 0.000943 0.014906 -218585.000000 0 0 1
-19.117109 2.299598 19.070697 27.100618 -0.119715 0.790205 0.010322 0.002536 27501.100000 0 0 1
-18.573709 3.104498 17.875197 25.964269 -0.165614 0.811441 0.002279 0.009760 21856.000000 0 0 1
-17.364609 3.830698 17.908797 25.237450 -0.217126 0.781849 0.014773 0.001598 -79326.500000 0 0 1
-17.019809 4.334098 16.660797 24.208273 -0.249351 0.811753 0.018093 0.004155 188860.000000 0 1 0
-15.551109 4.855398 16.650897 23.295155 -0.302632 0.774488 0.032099 0.006840 218612.000000 0 1 0
-15.095509 5.834098 17.578297 23.893673 -0.368796 0.744114 0.027353 0.006074 114180.000000 0 1 0
-15.610909 7.155398 17.434597 24.471726 -0.429783 0.777829 0.022362 -0.008644 -553117.000000 0 1 0
-15.080709 7.977198 16.282097 23.583260 -0.486552 0.808742 0.009672 0.000317 -170947.000000 0 1 0
-15.550509 7.615398 14.991797 22.903419 -0.455390 0.857188 0.018394 0.001724 131528.000000 0 1 0
-16.875609 8.029798 14.726997 23.793871 -0.444119 0.903403 0.009731 0.004057 -192493.000000 0 1 0
-17.376409 7.437498 13.371397 23.152759 -0.404428 0.955097 0.011782 0.006627 -162841.000000 0 1 0
-17.325209 6.072698 13.450497 22.758655 -0.337131 0.938491 0.020614 0.003046 291441.000000 0 1 0
-17.927209 5.367198 12.373197 22.434073 -0.290896 0.986592 0.027938 -0.000860 92625.600000 0 1 0
-17.570009 3.859798 12.300097 21.792101 -0.216246 0.971055 0.017067 0.000969 42977.000000 0 1 0
-18.164609 3.156998 13.410197 22.798093 -0.172081 0.941946 0.010451 0.003598 671764.000000 0 1 0
-17.622909 1.850698 13.496597 22.274428 -0.104633 0.919870 0.004162 0.002830 -738297.000000 0 1 0
-18.469609 1.059498 14.428797 23.461440 -0.057302 0.908410 0.006717 0.000042 304931.000000 0 1 0
-19.775309 0.793698 13.887297 24.177465 -0.040114 0.958937 0.015983 0.000738 508406.000000 0 1 0
-20.643209 0.363398 14.890197 25.455689 -0.017602 0.945983 0.012276 0.003055 -1743410.000000 0 0 1
-21.988709 0.048498 14.354697 26.259532 -0.002206 0.992441 0.024953 0.001150 -1562740.000000 0 0 1
-21.958709 -1.043702 13.454997 25.774234 0.047494 1.021564 0.034908 -0.007896 1592670.000000 0 0 1
-23.301809 -1.410702 13.041997 26.740570 0.060467 1.061316 0.058693 -0.008714 1043870.000000 0 0 1
-23.178109 -2.719702 12.199397 26.333378 0.116805 1.089118 0.059155 -0.016763 -155273.000000 0 0 1
-22.778509 -3.954602 12.818097 26.434881 0.171898 1.064555 0.046381 -0.013044 162102.000000 0 0 1
-22.743309 -5.010502 11.873497 26.140833 0.216843 1.099308 0.055065 -0.024358 -25824.500000 0 0 1
-22.656109 -6.358802 12.589797 26.687762 0.273626 1.079528 0.050367 -0.018436 689848.000000 0 0 1
-23.794009 -6.618502 13.437497 28.116290 0.271300 1.072505 0.041275 -0.017391 775684.000000 0 0 1
-24.030209 -7.966402 13.721697 28.795824 0.320114 1.074108 0.047212 -0.024512 171825.000000 0 0 1
-25.100879 -8.296702 14.779597 30.287388 0.319229 1.061024 0.038169 -0.010847 233760.000000 0 0 1
-26.470869 -8.008402 14.607597 31.276561 0.293782 1.084849 0.040451 -0.010243 75257.400000 0 0 1
-27.135349 -8.362702 15.790797 32.490171 0.298949 1.063269 0.035126 -0.001649 -1511530.000000 0 0 1
-28.553739 -7.874802 15.847697 33.592827 0.269099 1.079512 0.034657 -0.001143 -683428.000000 0 0 1
-29.566539 -8.383502 14.961297 34.180458 0.276295 1.117741 0.035412 0.001903 884714.000000 0 0 1
-29.892949 -9.790002 14.954897 34.829319 0.316493 1.126994 0.036596 -0.001599 -597284.000000 0 0 1
-30.351479 -10.421602 16.259397 35.974853 0.330751 1.101829 0.027890 -0.004367 -865025.000000 0 0 1
-29.271049 -10.497902 17.138697 35.506833 0.344355 1.067076 0.030228 0.002686 -42056.600000 0 0 1
-29.630309 -10.917102 18.403197 36.548816 0.353010 1.043124 0.022265 0.004784 -44831.200000 0 0 1
-28.346889 -10.894402 19.258597 35.960084 0.366920 1.005632 0.025226 0.006953 210915.000000 0 0 1
-27.458309 -11.899102 18.866397 35.376380 0.408923 1.008294 0.033982 0.007036 -220886.000000 0 0 1
-26.245779 -12.015702 19.581397 34.880498 0.429334 0.974738 0.025749 0.000201 590393.000000 0 0 1
-25.234109 -13.032502 18.940697 34.137316 0.476732 0.982628 0.040143 0.002397 89432.300000 0 0 1
-24.674009 -12.610702 17.750997 32.907969 0.472482 1.001056 0.032215 0.004811 -48112.100000 0 0 1
-23.777409 -13.578002 17.238897 32.355940 0.518858 1.008903 0.031019 -0.001899 -341556.000000 0 0 1
-23.420309 -13.302202 15.733897 31.193188 0.516540 1.042107 0.021654 -0.008106 -350950.000000 0 0 1
-22.693009 -12.131902 15.432697 30.005397 0.490950 1.030569 0.027236 -0.012002 -96903.200000 0 0 1
-22.607809 -11.834702 14.087597 29.148475 0.482254 1.066371 0.015457 -0.007738 373091.000000 0 0 1
-21.243509 -11.230302 13.647597 27.634458 0.486301 1.054271 0.031863 -0.019935 -226215.000000 0 0 1
-21.193509 -9.827002 13.837697 27.151734 0.434172 1.036026 0.035866 -0.024678 490124.000000 0 0 1
-19.920209 -9.247102 13.540297 25.800451 0.434606 1.018306 0.047639 -0.024344 248006.000000 0 0 1
-19.584709 -9.259602 12.022097 24.775631 0.441650 1.064160 0.059288 -0.019297 -996412.000000 0 1 0
-19.003709 -10.442302 11.658497 24.619163 0.502450 1.077475 0.057446 -0.026413 -183065.000000 0 1 0
-18.701809 -10.302902 10.295097 23.704355 0.503537 1.121521 0.063894 -0.023620 -707576.000000 0 1 0
-17.960109 -11.485002 9.717997 23.428834 0.568939 1.143087 0.048773 -0.024277 770775.000000 0 1 0
-16.536009 -11.601202 9.854697 22.475376 0.611780 1.116905 0.054897 -0.029874 1138820.000000 0 1 0
-15.966209 -11.849502 11.140597 22.791302 0.638465 1.060072 0.052001 -0.024260 1365560.000000 0 1 0
-14.390209 -12.120802 11.100597 21.845256 0.700004 1.037765 0.046916 -0.024835 1726260.000000 0 1 0
-13.989409 -13.367702 10.482197 22.006260 0.762676 1.074323 0.034511 -0.033320 -54032.000000 0 1 0
-12.606709 -13.569502 10.613997 21.347539 0.822163 1.050428 0.039659 -0.034821 -120144.000000 0 1 0
-12.228909 -15.063202 10.559397 22.089525 0.888877 1.072389 0.026667 -0.027562 -33857.200000 0 1 0
-12.654309 -15.699702 9.359797 22.231014 0.892394 1.136222 0.018368 -0.027216 66541.600000 0 1 0
-12.343709 -17.059402 9.351897 23.040146 0.944425 1.152838 0.017126 -0.016869 59810.900000 0 1 0
-12.868609 -17.930602 8.183497 23.538845 0.948296 1.215723 0.008024 -0.010026 -13803.900000 0 1 0
-12.156009 -17.625302 6.975297 22.518317 0.967023 1.255855 0.012927 -0.023960 -73234.600000 0 1 0
-12.451809 -18.448802 5.898797 23.026108 0.977089 1.311729 0.002482 -0.008462 -40437.300000 0 1 0
-11.502509 -18.266802 4.673997 22.086874 1.008828 1.357565 0.007377 -0.010466 491.986000 0 1 0
-11.758809 -19.160402 3.612097 22.769230 1.020361 1.411484 0.020544 -0.005612 -126483.000000 0 1 0
-10.814709 -19.040002 2.602097 22.051089 1.054239 1.452518 0.022994 -0.017516 -278688.000000 0 1 0
-11.180409 -19.955902 1.495997 22.923298 1.060113 1.505489 0.031578 -0.016358 56471.700000 0 1 0
-11.084909 -21.280902 1.956197 24.074441 1.090580 1.489450 0.028281 -0.015358 -333228.000000 0 1 0
-11.515209 -22.209002 0.927897 25.033993 1.092464 1.533722 0.036070 -0.017495 -475821.000000 0 0 1
-10.661309 -22.473902 -0.288203 24.876150 1.127849 1.582382 0.049974 -0.013949 -434254.000000 0 1 0
-10.477109 -21.429002 -1.254603 23.886104 1.116050 1.623345 0.043139 -0.029682 -703898.000000 0 1 0
-11.409109 -21.391502 -2.277403 24.350579 1.080828 1.664459 0.052456 -0.024540 -692735.000000 0 1 0
-12.543309 -20.394602 -2.145903 24.039120 1.019398 1.660182 0.049705 -0.021540 -123721.000000 0 1 0
-13.347909 -20.631202 -1.002803 24.593064 0.996549 1.611583 0.043593 -0.013059 -241911.000000 0 1 0
-14.401909 -19.721002 -0.866603 24.435300 0.940034 1.606269 0.045283 -0.003632 -242740.000000 0 1 0
25.636491 -20.394202 -3.960403 32.997544 -0.672000 1.691108 0.039251 -0.015953 -202101.000000 0 0 1
24.474491 -20.583902 -3.198403 32.139190 -0.699266 1.670479 0.031984 -0.014278 -225250.000000 0 0 1
24.497091 -21.791202 -2.485703 32.880734 -0.727007 1.646466 0.018396 -0.002420 -652488.000000 0 0 1
23.167291 -22.254302 -1.907103 32.180963 -0.765301 1.630093 0.017754 0.004943 18607.200000 0 0 1
22.186691 -22.529602 -2.918503 31.754525 -0.793067 1.662834 0.035664 -0.002293 -346326.000000 0 0 1
21.051291 -23.113902 -2.360103 31.352502 -0.832066 1.646144 0.025707 0.006775 -870065.000000 0 0 1
20.137491 -23.663502 -3.398003 31.257420 -0.865726 1.679722 0.033571 0.004084 -896632.000000 0 0 1
19.440991 -22.649202 -4.004603 30.116031 -0.861473 1.704164 0.032644 0.000261 -562109.000000 0 0 1
18.345191 -23.199102 -4.712803 29.949205 -0.901708 1.728813 0.027388 -0.000054 888083.000000 0 0 1
17.332291 -22.140102 -5.354703 28.622810 -0.906603 1.758983 0.009571 0.013079 1164020.000000 0 0 1
16.416791 -21.398402 -4.502503 27.343649 -0.916380 1.736213 0.001574 0.015171 1077360.000000 0 0 1
17.086491 -20.475102 -3.654303 26.917130 -0.875369 1.706978 0.003275 0.008631 81522.100000 0 0 1
16.125891 -19.993202 -2.547603 25.812066 -0.892063 1.669655 0.014833 0.010067 163146.000000 0 0 1
15.705491 -20.992002 -1.615803 26.266660 -0.928470 1.632351 0.010823 0.011145 263886.000000 0 0 1
14.794891 -20.325402 -0.741403 25.150754 -0.941589 1.600279 0.009825 0.016436 82050.600000 0 0 1
14.453391 -21.106302 0.529897 25.586271 -0.970351 1.550085 0.010303 0.011154 129402.000000 0 0 1
13.735191 -22.323602 0.363797 26.213184 -1.019220 1.556917 0.018146 0.005921 -475471.000000 0 0 1
13.192391 -22.639302 1.564197 26.249264 -1.043179 1.511171 0.024677 0.000858 -572728.000000 0 0 1
12.228691 -23.818702 1.589997 26.821624 -1.096481 1.511481 0.026955 -0.005259 -166524.000000 0 0 1
12.795391 -25.074132 1.773897 28.206043 -1.098941 1.507864 0.022667 -0.002095 225150.000000 0 0 1
11.740891 -26.004372 1.644897 28.579391 -1.146698 1.513209 0.026973 -0.005963 340018.000000 0 0 1
12.174991 -27.318372 2.275997 29.995066 -1.151549 1.494844 0.030421 -0.010043 45095.400000 0 0 1
12.208091 -27.400112 3.643697 30.217216 -1.151650 1.449919 0.046210 -0.014698 157781.000000 0 0 1
12.344791 -28.716982 4.076497 31.522639 -1.164801 1.441113 0.049450 -0.012559 -206103.000000 0 0 1
12.124291 -28.795222 5.565397 31.735420 -1.172274 1.394516 0.063049 -0.012840 -135962.000000 0 0 1
12.240091 -30.092852 6.006497 33.037518 -1.184490 1.387971 0.043557 -0.017046 -103709.000000 0 0 1
12.285291 -30.162562 7.404797 33.399694 -1.184010 1.347236 0.047139 -0.007211 -17715.600000 0 0 1
12.060991 -31.575742 7.948097 34.722719 -1.205929 1.339847 0.022028 -0.006077 -104001.000000 0 0 1
11.960691 -31.657062 9.359897 35.111755 -1.209555 1.300959 0.021436 -0.001732 39848.700000 0 0 1
11.341391 -32.895822 9.750497 36.136331 -1.238791 1.297585 0.016950 -0.002315 275442.000000 0 0 1
11.009791 -33.091192 11.226897 36.637217 -1.249606 1.259352 0.013672 -0.005138 459536.000000 0 0 1
12.137691 -33.640962 11.933797 37.702167 -1.224532 1.248729 0.016793 -0.010157 635017.000000 0 0 1
11.905291 -33.936162 13.293797 38.342197 -1.233396 1.216730 0.028054 -0.009179 265349.000000 0 0 1
10.799191 33.758368 13.586797 37.958543 1.261187 1.204738 0.021354 -0.007452 326265.000000 0 0 1
11.097991 32.451982 13.193097 36.747168 1.241282 1.203575 0.028283 -0.011789 -646335.000000 0 0 1
10.056191 31.595832 13.470397 35.789317 1.262658 1.184910 0.022918 -0.008217 -560813.000000 0 0 1
10.023491 30.497492 12.369897 34.403223 1.253252 1.203004 0.024841 -0.010662 -103595.000000 0 0 1
9.662991 30.874762 10.994997 34.168909 1.267480 1.243184 -0.001384 -0.001570 -352541.000000 0 0 1
10.466991 31.795562 10.336497 35.033682 1.252773 1.271294 0.001118 -0.006652 -399496.000000 0 0 1
10.009091 32.075282 8.884797 34.755507 1.268321 1.312290 0.002019 -0.003504 -316480.000000 0 0 1
8.871491 32.896542 8.858397 35.204503 1.307384 1.316436 0.002836 -0.005235 -407426.000000 0 0 1
8.458991 33.093708 7.495997 34.970531 1.320547 1.354768 0.002945 -0.009484 -275834.000000 0 0 1
9.020791 34.364137 6.812697 36.175703 1.314082 1.381343 0.014378 -0.000647 -464112.000000 0 0 1
8.428791 -33.221542 7.222597 35.026865 -1.322325 1.363105 0.021206 -0.002201 -66626.600000 0 0 1
8.814291 -32.202342 6.381297 33.991227 -1.303624 1.381942 0.033446 -0.012709 -452917.000000 0 0 1
8.084591 -30.905422 6.646697 32.629500 -1.314938 1.365659 0.036738 -0.011536 -268066.000000 0 0 1
8.332391 -30.324192 7.936997 32.434261 -1.302637 1.323575 0.035798 -0.003576 -42355.200000 0 0 1
7.866491 -29.005262 8.058897 31.114831 -1.305958 1.308804 0.054672 0.003487 -94560.100000 0 0 1
8.904591 -27.951822 7.634997 30.313186 -1.262392 1.316184 0.056024 -0.005295 -165987.000000 0 0 1
9.283891 -27.024872 8.609197 29.843804 -1.239896 1.278162 0.054177 -0.003009 -86606.200000 0 0 1
9.946391 -25.863492 8.132897 28.878970 -1.203660 1.285314 0.058955 -0.020815 -158408.000000 0 0 1
9.156491 -24.803502 7.351297 27.442606 -1.217154 1.299605 0.049948 -0.022030 -210522.000000 0 0 1
8.998191 -25.262122 6.032997 27.487075 -1.228615 1.349510 0.050457 -0.017941 -92868.700000 0 0 1
8.230091 -24.431802 5.155797 26.291245 -1.245875 1.373414 0.061138 -0.016987 464993.000000 0 0 1
7.972891 -24.980602 3.747897 26.488567 -1.261853 1.428829 0.064467 -0.015279 357939.000000 0 0 1
7.207191 -26.192562 3.623397 27.406622 -1.302280 1.438199 0.049070 -0.012343 99107.500000 0 0 1
7.857391 -27.401532 4.038397 28.790471 -1.291539 1.430064 0.052063 -0.011417 -233827.000000 0 0 1
7.029191 -28.626882 3.760797 29.716182 -1.330015 1.443899 0.049483 -0.010231 -72431.300000 0 0 1
5.878291 -28.688752 4.585297 29.641588 -1.368695 1.415481 0.040822 -0.001309 -273438.000000 0 0 1
4.817291 -29.518202 4.205297 30.202898 -1.409025 1.431108 0.035254 0.003852 -40065.700000 0 0 1
4.896791 -31.096642 4.220697 31.761517 -1.414609 1.437515 0.039562 -0.000215 -460102.000000 0 0 1
5.762391 -31.771282 3.328397 32.460711 -1.391376 1.468080 0.042226 -0.005912 -24213.600000 0 0 1
5.898291 -33.142682 3.673897 33.863324 -1.394674 1.462090 0.030702 -0.009387 65585.700000 0 0 1
6.960191 -33.896382 2.859797 34.721570 -1.368274 1.488339 0.024640 -0.008135 224219.000000 0 0 1
6.397691 -34.311862 1.618997 34.940742 -1.386456 1.524444 0.025573 -0.010877 79811.500000 0 0 1
7.338491 33.658090 0.945797 34.461791 1.356125 1.543348 0.006764 -0.003165 -536701.000000 0 0 1
6.907291 33.204731 -0.467203 33.918773 1.365700 1.584571 0.032306 -0.005272 306313.000000 0 0 1
5.790691 32.324902 -0.427503 32.842262 1.393536 1.583814 0.008930 -0.003851 408429.000000 0 0 1
4.507091 32.956853 -0.362103 33.265586 1.434882 1.581682 0.019795 -0.013206 639235.000000 0 0 1
3.364791 31.885392 -0.159603 32.062837 1.465658 1.575774 0.039097 -0.013332 391268.000000 0 0 1
3.307991 31.083912 -1.319703 31.287282 1.464774 1.612989 0.036780 -0.015361 -58981.200000 0 0 1
2.363391 30.058742 -1.159403 30.173794 1.492332 1.609230 0.025375 -0.014142 -119863.000000 0 0 1
2.392791 29.091602 -2.332403 29.282877 1.488731 1.650532 0.023621 -0.007690 -273437.000000 0 0 1
1.951091 29.648022 -3.543703 29.922731 1.505083 1.689503 0.023807 -0.022488 -45639.100000 0 0 1
1.982491 28.780552 -4.664303 29.223384 1.502022 1.731090 0.020945 -0.031411 -742149.000000 0 0 1
1.659691 29.549302 -5.936003 30.185294 1.514688 1.768739 0.022738 -0.029162 437664.000000 0 0 1
0.271991 29.913512 -6.010403 30.512574 1.561704 1.769074 0.027434 -0.027649 664713.000000 0 0 1
0.061191 30.777342 -7.118803 31.589965 1.568808 1.798099 0.023486 -0.027651 -147551.000000 0 0 1
0.012491 30.155482 -8.517103 31.335193 1.570382 1.846066 0.025649 -0.025982 -832251.000000 0 0 1
-1.265409 29.599102 -8.781303 30.900152 -1.528071 1.858951 0.030042 -0.023840 210044.000000 0 0 1
-1.496809 29.338282 -10.162203 31.084492 -1.519822 1.903841 0.040250 -0.022548 87799.300000 0 0 1
-1.612209 30.617372 -11.045403 32.588704 -1.518188 1.916579 0.034155 -0.020370 -303737.000000 0 0 1
-0.351309 31.191942 -11.343403 33.192371 -1.559534 1.919572 0.026083 -0.014864 33471.000000 0 0 1
-0.460509 32.585742 -11.695603 34.624122 -1.556665 1.915362 0.022156 -0.013921 -85589.300000 0 0 1
-0.632309 33.523889 -10.501603 35.135945 -1.551937 1.874320 0.021469 -0.019055 291307.000000 0 0 1
0.461991 33.538127 -9.586103 34.884277 1.557022 1.849175 0.018939 -0.027586 103535.000000 0 0 1
0.147691 -34.371172 -8.496103 35.405975 -1.566499 1.813123 0.026001 -0.023494 158337.000000 0 0 1
1.287291 -34.155186 -7.433103 34.978348 -1.533125 1.784935 0.022059 -0.017388 597745.000000 0 0 1
2.244991 -33.247702 -8.000003 34.270245 -1.503375 1.806409 0.032337 -0.016880 -472305.000000 0 0 1
3.088591 -32.768952 -7.008403 33.652063 -1.476820 1.780593 0.030979 -0.012088 -1377480.000000 0 0 1
4.431191 -32.336482 -7.591003 33.509802 -1.434611 1.799311 0.025505 -0.009527 -248937.000000 0 0 1
5.124991 -33.392332 -8.252203 34.776604 -1.418507 1.810373 0.027788 -0.008563 1938.080000 0 0 1
5.835191 -34.263796 -7.407403 35.537681 -1.402113 1.780774 0.036063 -0.007359 -1200980.000000 0 0 1
6.135491 33.099522 -8.061303 34.615130 1.387512 1.805838 0.032661 -0.014018 267961.000000 0 0 1
5.058791 32.224632 -8.438403 33.693099 1.415082 1.823940 0.033050 -0.017599 -303277.000000 0 0 1
4.221391 32.774510 -9.412903 34.359735 1.442701 1.848296 0.034240 -0.021439 -498198.000000 0 0 1
3.185791 31.746092 -9.841603 33.388932 1.470779 1.869997 0.023126 -0.022825 -145385.000000 0 0 1
3.821191 30.683672 -10.555803 32.672836 1.446899 1.899774 0.018713 -0.023044 -124989.000000 0 0 1
3.092891 29.522112 -10.361403 31.440098 1.466412 1.906634 0.014943 -0.031139 -243656.000000 0 0 1
3.675791 28.304262 -11.107803 30.627210 1.441652 1.941936 0.009838 -0.030275 -135303.000000 0 0 1
3.606391 28.470392 -12.529103 31.313699 1.444796 1.982439 0.015632 -0.024149 -263134.000000 0 0 1
4.849591 28.510932 -13.207403 31.793510 1.402313 1.999192 0.017995 -0.022507 -39862.600000 0 0 1
4.890591 29.320742 -14.559903 33.100069 1.405522 2.026256 0.024451 -0.016196 -146677.000000 0 0 1
4.219491 28.556582 -15.513803 32.771338 1.424099 2.063938 0.035044 -0.018237 -253106.000000 0 0 1
4.119091 29.268502 -16.717903 33.957332 1.430980 2.085550 0.051440 -0.014192 40457.100000 0 0 1
3.259491 28.594252 -17.816303 33.847839 1.457295 2.125116 0.045497 -0.015905 185256.000000 0 0 1
3.680391 27.338142 -18.313003 33.110201 1.436976 2.156868 0.048788 -0.009295 250305.000000 0 0 1
2.669291 26.897162 -19.216603 33.164142 1.471880 2.188837 0.065357 -0.017842 620924.000000 0 0 1
3.181791 25.680632 -19.980803 32.693289 1.447526 2.228321 0.064532 -0.021580 268451.000000 0 0 1
3.346891 24.559082 -19.123503 31.305887 1.435352 2.227942 0.063016 -0.030151 -23892.500000 0 0 1
4.240591 23.641262 -19.711503 31.071454 1.393311 2.258019 0.066630 -0.022173 523560.000000 0 0 1
4.787291 22.370162 -18.904403 29.676906 1.359973 2.261406 0.064646 -0.018012 31809.600000 0 0 1
3.804691 21.392362 -18.812003 28.740221 1.394784 2.284388 0.086768 -0.014421 -279758.000000 0 0 1
4.293891 20.377862 -17.954903 27.496787 1.363121 2.282311 0.063536 -0.011439 -539023.000000 0 0 1
3.354691 19.225462 -17.751603 26.381656 1.398044 2.308887 0.064311 -0.015290 -6540.320000 0 0 1
2.182791 19.448362 -16.975203 25.906773 1.459029 2.285299 0.069871 -0.020543 363376.000000 0 0 1
1.324191 18.370862 -16.683703 24.851318 1.498840 2.306813 0.056108 -0.016042 199302.000000 0 1 0
1.891991 17.358762 -15.612603 23.423485 1.462231 2.300349 0.048409 -0.003371 706582.000000 0 1 0
3.131391 16.680762 -15.892303 23.251209 1.385231 2.323349 0.044992 -0.018609 429797.000000 0 1 0
3.026791 15.451662 -16.654303 22.919013 1.377358 2.384242 0.048325 -0.026093 -84262.400000 0 1 0
3.003791 15.575862 -18.212103 24.151831 1.380286 2.425029 0.041524 -0.021013 -496662.000000 0 1 0
4.150391 16.204162 -18.739903 25.119407 1.320056 2.412881 0.045084 -0.017158 -472992.000000 0 0 1
4.231091 16.594962 -20.095803 26.403337 1.321153 2.435817 0.042533 -0.012020 -416051.000000 0 0 1
4.545891 15.385462 -21.091403 26.499526 1.283504 2.491316 0.039506 -0.014471 129177.000000 0 0 1
3.544791 14.412862 -21.266603 25.933849 1.329636 2.532264 0.036821 -0.011308 -40571.000000 0 0 1
2.375791 14.841962 -21.962603 26.613608 1.412070 2.541423 0.037224 -0.007977 316591.000000 0 0 1
1.624291 13.633162 -22.576203 26.423217 1.452213 2.595206 0.042857 -0.001981 79984.400000 0 0 1
0.901991 12.899562 -21.612703 25.185735 1.500986 2.602418 0.043591 0.002859 -43417.500000 0 0 1
-0.036009 12.023162 -22.165203 25.216145 -1.567801 2.644575 0.030680 0.005262 6942.990000 0 0 1
-0.582809 10.953662 -21.182403 23.854068 -1.517640 2.663773 0.023779 0.005936 -9149.730000 0 1 0
-1.501909 11.426862 -20.172603 23.232796 -1.440109 2.622523 0.020299 0.002497 336274.000000 0 1 0
-1.975209 10.371562 -19.345003 22.038600 -1.382605 2.642001 0.012689 0.002653 195372.000000 0 1 0
-3.160409 9.521362 -19.825903 22.219607 -1.250311 2.673146 0.012948 0.000693 -673661.000000 0 1 0
-2.767009 8.688162 -20.842603 22.749826 -1.262472 2.729202 0.015555 0.007193 381740.000000 0 1 0
-3.786009 7.694462 -21.145203 22.817936 -1.113534 2.756310 0.014889 0.008509 692250.000000 0 1 0
-3.232809 6.430062 -21.901503 23.053689 -1.104939 2.824101 0.006949 0.000709 190620.000000 0 1 0
-2.415709 5.580462 -21.092003 21.951077 -1.162264 2.860901 0.016630 -0.000316 371095.000000 0 1 0
-1.915409 4.561362 -21.986003 22.535730 -1.173236 2.920263 0.020416 -0.000535 -471590.000000 0 1 0
-1.187309 3.387962 -21.324103 21.624184 -1.233721 2.974803 0.019299 0.005488 -556772.000000 0 1 0
0.103891 3.750262 -20.935303 21.268807 1.543101 2.964270 0.014935 -0.004845 -907717.000000 0 1 0
0.592491 2.697362 -20.171903 20.360071 1.354574 3.005532 0.014599 -0.000148 396658.000000 0 1 0
2.142391 2.556662 -20.269903 20.542525 0.873331 2.978494 0.017725 -0.004085 407624.000000 0 1 0
2.623291 2.168862 -21.529703 21.797104 0.690853 2.984794 0.026373 0.000030 167549.000000 0 1 0
4.023991 1.941462 -21.375503 21.837443 0.449527 2.935541 0.026553 -0.002826 349654.000000 0 1 0
4.705491 1.643962 -22.740003 23.279862 0.336114 2.925814 0.028885 0.011936 -1501300.000000 0 1 0
6.014991 1.309862 -22.563903 23.388578 0.214419 2.875251 0.028607 0.000625 -1337620.000000 0 1 0
6.645891 0.947562 -23.781903 24.711225 0.141624 2.866473 0.029436 0.003579 -723189.000000 0 1 0
8.107491 0.569462 -23.569303 24.931260 0.070124 2.809529 0.025401 -0.010582 -553563.000000 0 1 0
8.828491 1.781962 -23.427203 25.098834 0.199166 2.774565 0.030689 -0.024853 647168.000000 0 0 1
10.246391 1.567962 -23.554703 25.734628 0.151848 2.727029 0.038630 -0.019856 633042.000000 0 0 1
13.905091 -21.164302 22.346368 33.773353 -0.989511 0.847770 -0.000950 0.016705 -1251900.000000 0 0 1
12.983991 -22.190502 22.480868 34.152479 -1.041394 0.852305 0.000893 0.024009 957599.000000 0 0 1
11.625591 -21.763102 22.145168 33.154116 -1.080174 0.839351 -0.001312 0.017648 1570770.000000 0 0 1
11.295091 -21.357402 20.706268 31.819290 -1.084328 0.862230 -0.004083 0.000469 -971841.000000 0 0 1
11.615791 -20.011102 20.411468 30.854478 -1.044863 0.847926 -0.014998 -0.001665 -13915.600000 0 0 1
11.662291 -19.750402 19.016868 29.794776 -1.037403 0.878558 0.009245 -0.009322 -215156.000000 0 0 1
11.743691 -18.235302 18.684068 28.627520 -0.998645 0.859705 0.026147 -0.015413 -174834.000000 0 0 1
10.702791 -17.397602 19.168968 28.012062 -1.019284 0.817138 0.029106 -0.016214 -24997.800000 0 0 1
10.627591 -16.118102 18.527668 26.758426 -0.987871 0.805979 0.043348 -0.014324 122965.000000 0 0 1
9.459291 -15.220902 18.984268 26.106636 -1.014741 0.756589 0.053654 -0.013713 739796.000000 0 0 1
8.145591 -15.642902 18.602268 25.633872 -1.090709 0.758758 0.041057 -0.005053 -78628.500000 0 0 1
7.185091 -14.879502 19.257668 25.374847 -1.120934 0.709132 0.021830 -0.001647 -673769.000000 0 0 1
5.802391 -15.195302 18.703268 24.786633 -1.206030 0.715797 -0.001603 0.012978 -755446.000000 0 1 0
5.607891 -14.886702 17.321568 23.518058 -1.210532 0.742882 -0.007089 0.005636 815761.000000 0 1 0
4.293991 -15.133902 16.768968 22.992860 -1.294329 0.753481 -0.018154 0.004115 790547.000000 0 1 0
3.800391 -16.602702 16.686568 23.843956 -1.345771 0.795646 -0.012887 0.007278 -600415.000000 0 1 0
2.432991 -16.733902 16.410768 23.563875 -1.426415 0.800375 -0.005521 0.011830 -542819.000000 0 1 0
2.009991 -18.067502 16.291068 24.410522 -1.460003 0.840113 0.010080 -0.001999 -871486.000000 0 1 0
0.513191 -18.118502 16.156068 24.280898 -1.542480 0.842791 0.017730 0.009272 -930986.000000 0 1 0
0.173891 -17.785002 14.798768 23.137417 -1.561019 0.876814 0.021006 0.003091 -1161930.000000 0 1 0
-1.182709 -17.759802 14.569468 23.001712 1.504300 0.884847 0.025325 0.005874 -1100790.000000 0 1 0
-1.665409 -17.944802 13.103268 22.281946 1.478254 0.942130 0.017403 -0.008537 1016850.000000 0 1 0
-3.090209 -18.070302 12.925268 22.430955 1.401424 0.956695 0.013249 -0.012986 768945.000000 0 1 0
-3.493109 -19.345402 12.401568 23.243177 1.392156 1.007995 0.027833 -0.008764 -168664.000000 0 1 0
-5.020909 -19.527102 12.334868 23.636121 1.319123 1.021760 0.025590 -0.006735 -85732.200000 0 1 0
-5.611809 -20.012802 13.488868 24.778099 1.297407 0.995139 0.021249 -0.008008 -247472.000000 0 1 0
-5.639509 -21.443602 13.430868 25.923355 1.313627 1.026169 -0.016501 0.009283 -380253.000000 0 0 1
-6.526909 -21.994802 14.545468 27.165097 1.282326 1.005759 -0.003793 0.003575 775280.000000 0 0 1
-7.926909 -21.689002 14.454868 27.243199 1.220397 1.011504 0.007619 -0.002504 690356.000000 0 0 1
-8.672609 -22.585302 15.294268 28.622100 1.204164 1.007056 0.008341 -0.005785 31241.700000 0 0 1
-10.149909 -22.167502 15.231668 28.747565 1.141414 1.012382 0.028932 -0.014919 -195065.000000 0 0 1
-10.407809 -20.997302 15.975868 28.362608 1.110616 0.972456 0.012104 -0.010130 -420152.000000 0 0 1
-11.704609 -20.460002 15.818868 28.387429 1.051165 0.979727 0.027137 -0.012266 -40096.600000 0 0 1
-11.959909 -19.265602 16.753068 28.193405 1.015230 0.934502 0.022820 -0.006553 -327508.000000 0 0 1
-12.058709 -19.661002 18.094468 29.315136 1.020632 0.905567 0.030955 -0.005967 -93974.000000 0 0 1
-12.234709 -18.561502 18.962268 29.219600 0.988020 0.864583 0.019584 -0.008873 -401544.000000 0 0 1
-12.711109 -19.007602 20.323068 30.592291 0.981361 0.844213 0.038570 -0.004756 -743975.000000 0 0 1
-13.998909 -19.517102 20.206568 31.387770 0.948578 0.871379 0.046405 -0.003954 -548241.000000 0 0 1
-14.317209 -20.328402 21.337868 32.764783 0.957193 0.861574 0.033271 -0.001177 1016040.000000 0 0 1
-15.729009 -21.052002 21.315268 33.836802 0.929122 0.889316 0.042883 -0.005508 396349.000000 0 0 1
-15.823909 -22.071702 20.319168 33.917911 0.948797 0.928459 0.041872 -0.003531 847916.000000 0 0 1
-17.139209 -22.348002 19.823568 34.440666 0.916552 0.957476 0.041951 -0.005441 494000.000000 0 0 1
-18.125409 -23.085802 20.734568 35.936152 0.905187 0.955766 0.046122 -0.009423 -658345.000000 0 0 1
-18.498209 -22.424802 21.909468 36.401652 0.881056 0.924942 0.040106 -0.004630 431040.000000 0 0 1
-19.492909 -23.114202 22.682468 37.798600 0.870187 0.927186 0.039714 0.002931 394729.000000 0 0 1
-20.108609 -22.254402 23.796928 38.287182 0.836007 0.900092 0.026568 0.004670 -231216.000000 0 0 1
-21.013109 -21.278102 23.373868 37.955843 0.791664 0.907373 0.028032 0.011976 -70170.000000 0 0 1
-21.152909 -20.292902 24.334038 38.097150 0.764651 0.877941 0.028828 0.010945 301519.000000 0 0 1
-22.177709 -19.224902 23.836578 37.810449 0.714199 0.888698 0.028346 0.012068 353765.000000 0 0 1
-21.635609 -18.532902 22.704568 36.428909 0.708309 0.897896 0.023753 0.014398 -464655.000000 0 0 1
-22.601609 -17.714502 22.180768 36.285297 0.664767 0.913109 0.028222 0.011686 -683846.000000 0 0 1
-22.342409 -17.194302 20.728168 34.992630 0.655916 0.936814 0.030147 0.010288 537287.000000 0 0 1
-21.384609 -16.101802 20.646868 33.806252 0.645394 0.913800 0.026636 0.015301 214196.000000 0 0 1
-21.049209 -15.802402 19.320268 32.650541 0.643972 0.937595 0.025218 0.010616 584974.000000 0 0 1
-20.048109 -14.614902 19.059068 31.285301 0.629920 0.915742 0.018443 0.002727 458203.000000 0 0 1
-19.902709 -14.363502 17.661868 30.238545 0.625132 0.947045 0.013198 0.003943 9906.090000 0 0 1
-19.115209 -13.204602 17.405968 29.029647 0.604518 0.927804 0.025139 -0.006490 -133365.000000 0 0 1
-18.829909 -13.129402 15.888368 27.917501 0.608887 0.965363 0.027670 -0.009368 123571.000000 0 0 1
-18.311409 -11.931202 15.307768 26.683122 0.577480 0.959796 0.033531 -0.015213 -589484.000000 0 0 1
-17.006609 -11.580702 15.603368 25.822519 0.597828 0.921967 0.051137 -0.023553 -1024280.000000 0 0 1
-16.367509 -10.336502 14.997168 24.487827 0.563278 0.911661 0.051627 -0.032789 44493.600000 0 1 0
-16.765109 -9.062702 15.539368 24.590108 0.495574 0.886748 0.040135 -0.024453 137511.000000 0 1 0
-16.237409 -8.107402 14.700668 23.355792 0.463091 0.889986 0.022365 -0.016651 -556203.000000 0 1 0
-16.632509 -6.697402 15.313268 23.579476 0.382805 0.863959 0.035514 -0.008580 492498.000000 0 1 0
-16.022409 -6.242202 16.540268 23.859236 0.371502 0.804816 0.037262 -0.010112 1561660.000000 0 1 0
-14.569009 -6.138202 16.474868 22.833195 0.398749 0.764785 0.039577 -0.011230 1378880.000000 0 1 0
-13.775209 -6.121002 17.808068 23.331316 0.418145 0.702439 0.037775 -0.005891 97882.100000 0 1 0
-13.835909 -7.304002 18.627068 24.325881 0.485719 0.698620 0.039035 -0.007176 103734.000000 0 1 0
-13.262709 -8.513202 18.100968 24.000398 0.570653 0.716370 0.045446 -0.010440 -389284.000000 0 1 0
-13.354309 -9.675902 19.123468 25.252082 0.627015 0.711624 0.044604 -0.009932 -439372.000000 0 0 1
-14.578809 -10.279502 19.368068 26.331196 0.614140 0.744309 0.040939 -0.006301 -145915.000000 0 0 1
-15.517609 -9.513102 20.155268 27.157506 0.549961 0.734506 0.037954 -0.002254 623441.000000 0 0 1
-16.900209 -10.254402 20.404768 28.409934 0.545377 0.769546 0.030706 0.004071 1364880.000000 0 0 1
-17.834909 -10.380802 19.331968 28.276669 0.527116 0.818014 0.032011 -0.005687 439298.000000 0 0 1
-18.405909 -9.133502 18.894268 27.914005 0.460624 0.827289 0.033014 -0.006810 -690417.000000 0 0 1
-19.592909 -9.375502 17.954568 28.180643 0.446312 0.880035 0.036944 -0.009258 -612443.000000 0 0 1
-20.803509 -9.550802 18.633968 29.516581 0.430392 0.887561 0.034537 -0.009201 -123050.000000 0 0 1
-21.826709 -9.575502 17.607168 29.632884 0.413422 0.934555 0.040228 -0.014257 239788.000000 0 0 1
-23.248309 -9.710102 18.189168 31.074359 0.395645 0.945493 0.041014 -0.008220 -386169.000000 0 0 1
-23.694709 -8.595002 18.936668 31.526349 0.347978 0.926468 0.047161 -0.003802 -38954.800000 0 0 1
-25.040109 -8.824502 19.254368 32.796487 0.338824 0.943341 0.028446 -0.002084 -546080.000000 0 0 1
-25.722289 -7.634202 19.959568 33.441016 0.288512 0.931216 0.038593 -0.007379 -197744.000000 0 0 1
-25.598439 -7.543102 21.381368 34.195633 0.286560 0.895324 0.054676 -0.012818 283728.000000 0 0 1
-26.401659 -6.500502 21.923468 34.927676 0.241414 0.892225 0.039681 -0.014040 -420778.000000 0 0 1
-26.363489 -6.455102 23.438568 35.861795 0.240126 0.858491 0.037618 -0.011395 367888.000000 0 0 1
-25.113639 -6.127902 24.047148 35.305968 0.239330 0.821523 0.048297 -0.016460 1015330.000000 0 0 1
-24.029409 -7.065102 23.954418 34.657500 0.285961 0.807682 0.048446 -0.015948 779488.000000 0 0 1
-22.807709 -6.775202 24.896658 34.437458 0.288755 0.762730 0.038282 -0.011755 659135.000000 0 0 1
-22.123209 -5.540202 24.664798 33.592893 0.245379 0.746269 0.026582 -0.008863 -446961.000000 0 0 1
-21.235109 -5.356202 25.680738 33.750838 0.247079 0.706110 0.022033 -0.008755 -669619.000000 0 0 1
-20.614609 -3.922102 25.613068 33.111542 0.188011 0.686390 0.009053 -0.005999 759238.000000 0 0 1
-19.522009 -3.599802 26.515788 33.123321 0.182349 0.642639 0.008572 -0.006410 368302.000000 0 0 1
-19.831409 -3.464202 27.893418 34.399538 0.172938 0.625166 0.004209 -0.010223 -398469.000000 0 0 1
-20.625909 -2.259602 28.336568 35.121147 0.109116 0.632041 0.004961 -0.018304 -91607.800000 0 0 1
-21.943409 -2.166702 27.861818 35.531517 0.098421 0.669481 -0.005382 -0.013676 -235805.000000 0 0 1
-22.698209 -1.123402 28.487078 36.441519 0.049453 0.673377 0.004942 -0.008785 1055670.000000 0 0 1
-24.060209 -0.741302 27.819398 36.788070 0.030801 0.713299 0.012023 -0.006298 -210008.000000 0 0 1
-23.934509 -0.143402 26.566938 35.758684 0.005991 0.733328 0.003842 -0.006201 270978.000000 0 0 1
-25.152299 0.027698 25.805148 36.035324 -0.001101 0.772588 0.020210 -0.006921 476758.000000 0 0 1
-25.909079 -1.265602 25.357668 36.275245 0.048809 0.796749 0.016158 -0.003381 -351721.000000 0 0 1
-26.546369 -1.825202 26.478198 37.538460 0.068647 0.787863 0.015054 -0.003659 -295339.000000 0 0 1
-27.033169 -3.149302 26.223168 37.793714 0.115975 0.803975 -0.000845 -0.006574 -93731.600000 0 0 1
-25.961309 -4.259202 26.202968 37.131198 0.162611 0.787405 0.020139 -0.024229 -170189.000000 0 0 1
-25.548239 -4.372302 27.554958 37.829951 0.169497 0.754827 0.019248 -0.017021 -368695.000000 0 0 1
-24.722009 -5.493902 27.675398 37.513842 0.218674 0.741082 0.040667 -0.019565 -296069.000000 0 0 1
-24.438909 -5.942202 29.122678 38.479870 0.238517 0.712349 0.020271 -0.017035 489308.000000 0 0 1
-25.605529 -6.589102 29.652438 39.728157 0.251867 0.728185 0.028828 -0.014410 522870.000000 0 0 1
-25.423579 -7.184502 30.905128 40.658361 0.275411 0.707303 0.019298 -0.007537 11432.600000 0 0 1
-26.754389 -7.644902 31.565278 42.078600 0.278327 0.722507 0.001562 -0.012001 612310.000000 0 0 1
-27.555909 -8.447202 30.665428 42.083866 0.297453 0.754412 0.001784 -0.011741 1436780.000000 0 0 1
-28.885169 -8.652902 31.217948 43.402603 0.291055 0.768053 0.020912 -0.009559 653194.000000 0 0 1
-29.766089 -9.542102 30.390808 43.596708 0.310220 0.799466 0.024523 -0.014575 -874843.000000 0 0 1
-29.526939 -10.883602 30.543458 43.854255 0.353147 0.800321 0.033661 -0.013356 123455.000000 0 0 1
-30.305459 -11.645302 29.643528 43.963310 0.366868 0.830809 0.006299 -0.007619 -310218.000000 0 0 1
-29.504779 -12.785502 29.067888 43.346778 0.408911 0.835793 0.011426 -0.009369 -468280.000000 0 0 1
-28.662829 -12.407002 28.038448 41.971967 0.408510 0.839241 0.023775 -0.008652 -148807.000000 0 0 1
-27.698349 -13.407902 27.745818 41.434295 0.450821 0.837080 0.037730 -0.006582 334210.000000 0 0 1
-26.318859 -12.881202 27.234678 40.004192 0.455155 0.821948 0.047921 -0.011173 -41267.700000 0 0 1
-25.572129 -12.249602 28.243178 40.020790 0.446724 0.787368 0.048279 -0.012993 -182214.000000 0 0 1
-25.922159 -10.910502 28.618988 40.125351 0.398388 0.776687 0.053353 -0.011382 -630459.000000 0 0 1
-25.722299 -9.711402 27.577218 38.941635 0.361003 0.783896 0.054130 -0.016158 470170.000000 0 0 1
-24.435909 -9.550402 26.963168 37.620955 0.372580 0.771729 0.051841 -0.021882 515389.000000 0 0 1
-23.991809 -10.479802 25.949638 36.862133 0.411829 0.789832 0.043205 -0.020204 -161005.000000 0 0 1
-24.814209 -10.527502 24.648418 36.525577 0.401238 0.830067 0.041553 -0.010475 471923.000000 0 0 1
-26.175659 -10.949502 24.781508 37.672003 0.396189 0.852872 0.039434 -0.015802 550172.000000 0 0 1
-26.735839 -10.931402 23.448468 37.203915 0.388127 0.888897 0.044435 -0.009196 798668.000000 0 0 1
-28.222889 -11.449802 23.358068 38.382662 0.385404 0.916555 0.037398 -0.011403 773079.000000 0 0 1
-29.248139 -10.628802 23.836928 39.199798 0.348563 0.917146 0.029732 -0.015614 -559862.000000 0 0 1
-29.377179 -10.623902 25.274588 40.183214 0.347005 0.890551 0.045155 -0.017698 -1864390.000000 0 0 1
-30.715579 -10.427702 25.880848 41.497012 0.327283 0.897355 -0.003053 -0.014335 -1526760.000000 0 0 1
-31.258809 -9.120102 25.650898 41.451875 0.283881 0.903567 0.007301 -0.026153 52998.700000 0 0 1
-32.569829 -8.910502 26.165208 42.717782 0.267047 0.911560 -0.003128 -0.010250 269862.000000 0 0 1
-32.967529 -9.093802 27.623798 43.961681 0.269148 0.891352 -0.010604 -0.000180 -725902.000000 0 0 1
-33.336089 -10.418502 27.930028 44.720537 0.302911 0.896246 -0.007763 -0.005496 95302.600000 0 0 1
-34.039049 -10.409302 29.140598 46.002009 0.296774 0.884775 -0.004183 -0.002886 -912243.000000 0 0 1
-34.548721 -11.703802 29.667798 47.018840 0.326629 0.887985 -0.006345 0.000042 606955.000000 0 0 1
-35.622837 -12.392502 28.977718 47.563313 0.334786 0.915688 -0.006000 -0.003544 1190170.000000 0 0 1
34.557589 -11.860902 29.275228 46.818233 -0.330623 0.895286 -0.006137 -0.002256 -285570.000000 0 0 1
33.447579 -12.504602 28.477918 45.673815 -0.357768 0.897577 0.003248 -0.001481 -677978.000000 0 0 1
33.416799 -12.032102 27.192798 44.731445 -0.345610 0.917368 0.012744 -0.004644 499950.000000 0 0 1
32.488369 -12.743502 26.310418 43.705023 -0.373806 0.924793 0.022369 -0.003063 649308.000000 0 0 1
32.463059 -12.215902 24.856438 42.672250 -0.359911 0.949000 0.026780 -0.013939 -49503.000000 0 0 1
32.113669 -10.876002 24.837928 42.029725 -0.326548 0.938547 0.034436 -0.019915 10337.700000 0 0 1
32.313379 -10.210002 23.584368 41.287056 -0.306041 0.962794 0.028590 -0.020621 -514357.000000 0 0 1
31.753749 -8.817902 23.544768 40.502001 -0.270871 0.950442 0.059925 -0.006945 691094.000000 0 0 1
30.334309 -8.605102 23.620768 39.397446 -0.276414 0.927857 0.080835 -0.020598 564507.000000 0 0 1
29.987929 -7.289602 23.283968 38.659505 -0.238459 0.924438 0.088105 -0.009601 -310413.000000 0 0 1
28.489579 -6.992702 23.189768 37.394108 -0.240690 0.901869 0.079696 -0.003615 -589127.000000 0 0 1
27.927099 -7.789802 22.229368 36.534212 -0.272019 0.916686 0.064553 -0.001282 -1050350.000000 0 0 1
26.550709 -7.604002 22.276068 35.482167 -0.278929 0.892060 0.072885 -0.019915 -964782.000000 0 0 1
13.984191 -17.266002 26.132138 34.301036 -0.890032 0.704637 -0.004912 0.005015 -271936.000000 0 0 1
13.332291 -18.544302 26.234078 34.783156 -0.947470 0.716334 -0.035474 0.020279 -207148.000000 0 0 1
14.178991 -19.638102 26.234538 35.706439 -0.945448 0.745530 -0.001221 0.021536 -892612.000000 0 0 1
13.432991 -21.002802 26.043538 36.053138 -1.001781 0.763580 -0.029570 0.013517 306442.000000 0 0 1
12.787891 -21.507202 27.194278 36.954278 -1.034367 0.743816 -0.010699 0.011633 376452.000000 0 0 1
11.560091 -20.897502 27.564068 36.470798 -1.065515 0.713945 -0.015702 0.016904 -245268.000000 0 0 1
11.215491 -21.249502 28.993258 37.655512 -1.085157 0.692017 -0.010249 0.012485 218220.000000 0 0 1
12.005491 -20.531602 29.977928 38.266887 -1.041679 0.670694 -0.005290 0.014007 854020.000000 0 0 1
11.187491 -19.573102 30.704858 38.092710 -1.051540 0.633339 -0.003001 0.012346 358517.000000 0 0 1
10.990591 -18.218402 30.119838 36.876929 -1.027977 0.615012 -0.003577 0.011928 -135252.000000 0 0 1
12.067791 -17.353702 30.343918 36.980209 -0.963163 0.608433 -0.008475 0.017968 -462649.000000 0 0 1
11.854291 -16.057502 29.886808 35.938682 -0.934864 0.588804 0.006297 0.010184 453518.000000 0 0 1
13.027991 -15.074902 30.213898 36.192000 -0.858106 0.582986 0.006029 0.009491 229735.000000 0 0 1
12.575591 -13.754802 30.045038 35.355966 -0.830153 0.555215 0.030107 0.007813 -256223.000000 0 0 1
13.435291 -12.670002 30.335198 35.514225 -0.756091 0.546843 0.028655 0.005488 -157820.000000 0 0 1
12.875891 -11.249502 29.932808 34.471914 -0.718086 0.518982 0.029509 0.002508 -81312.900000 0 0 1
12.787491 -10.929002 28.555898 33.142153 -0.707195 0.532346 0.042535 -0.002318 102057.000000 0 0 1
13.945391 -11.130302 27.752868 32.993624 -0.673603 0.571374 0.036336 0.000160 -490371.000000 0 0 1
14.150491 -9.887002 26.734628 31.823412 -0.609855 0.573342 0.038444 -0.006639 3449.210000 0 0 1
14.471891 -8.657002 27.436458 32.204635 -0.539091 0.551115 0.039199 -0.004255 1043340.000000 0 0 1
15.884991 -8.372902 27.494678 32.838936 -0.485088 0.578546 0.031590 -0.009913 447211.000000 0 0 1
16.237091 -6.958302 27.947878 33.062743 -0.404868 0.563673 0.029987 -0.009733 -866190.000000 0 0 1
17.611491 -6.776202 27.987428 33.754668 -0.367300 0.593224 0.030480 -0.012850 -814041.000000 0 0 1
17.844291 -5.447702 28.188248 33.803454 -0.296304 0.584684 0.033420 -0.009212 1809160.000000 0 0 1
19.369691 -5.004602 27.902948 34.333736 -0.252843 0.622029 0.030387 -0.010096 824185.000000 0 0 1
19.668091 -5.408802 26.587258 33.510763 -0.268370 0.654431 0.027471 -0.008082 392076.000000 0 0 1
21.005091 -5.311502 26.108118 33.927271 -0.247676 0.692688 0.038467 -0.003071 375805.000000 0 0 1
22.160591 -5.917202 26.906588 35.356322 -0.260927 0.705925 0.044814 -0.015077 -970542.000000 0 0 1
22.519691 -5.030602 27.965988 36.256584 -0.219778 0.689860 0.038383 -0.009651 356477.000000 0 0 1
23.705791 -5.471602 28.647668 37.584463 -0.226840 0.704059 0.057956 -0.031296 252132.000000 0 0 1
24.398391 -4.342302 29.403538 38.453935 -0.176131 0.700309 0.063831 -0.027553 -277816.000000 0 0 1
25.189791 -3.505302 28.574468 38.253273 -0.138268 0.727287 0.049758 -0.018449 70102.900000 0 0 1
25.440891 -2.278302 29.198238 38.793900 -0.089315 0.718718 0.039731 -0.031677 -720043.000000 0 0 1
26.262291 -1.310302 28.383078 38.691393 -0.049852 0.747227 0.048550 -0.028935 -499897.000000 0 0 1
27.645891 -1.554502 28.412098 39.673153 -0.056170 0.772520 0.048940 -0.024820 -435024.000000 0 0 1
28.302891 -0.785202 27.433898 39.424471 -0.027736 0.801180 0.038787 -0.005003 -850368.000000 0 0 1
29.784791 -0.676402 27.685528 40.670379 -0.022706 0.822038 0.020000 -0.012076 -927481.000000 0 0 1
30.079091 0.135998 28.804168 41.646732 0.004521 0.807052 -0.002458 -0.000286 525039.000000 0 0 1
31.499191 0.160698 28.993608 42.811846 0.005102 0.826801 0.009558 -0.008866 774128.000000 0 0 1
32.013391 1.288998 29.923788 43.840071 0.040243 0.819527 0.013660 -0.011154 -455197.000000 0 0 1
31.977891 2.562998 29.374578 43.497360 0.079978 0.829400 0.004132 -0.001975 90706.500000 0 0 1
31.890591 3.614798 30.317468 44.150033 0.112868 0.813868 0.000428 0.003302 -47278.900000 0 0 1
32.144591 4.981198 29.696028 44.044763 0.153739 0.830883 0.007949 0.002141 -151524.000000 0 0 1
32.360891 6.036798 30.637688 44.970414 0.184426 0.821279 0.007781 0.004367 634564.000000 0 0 1
31.171691 6.648698 31.174368 44.583862 0.210144 0.796477 0.006837 0.003019 412318.000000 0 0 1
31.372991 7.491398 32.491088 45.782708 0.234396 0.781752 0.005474 -0.000152 -161430.000000 0 0 1
31.618591 6.663498 33.589608 46.609004 0.207707 0.766031 -0.002005 0.009943 47368.800000 0 0 1
31.828391 7.467698 -34.022003 47.183786 0.230455 2.376117 0.008060 0.000082 -278798.000000 0 0 1
31.811391 6.644698 -32.717273 46.114386 0.205917 2.359558 0.018911 0.003349 472800.000000 0 0 1
30.566191 6.009198 -32.399213 44.945650 0.194121 2.375829 0.012361 0.009350 386213.000000 0 0 1
30.471091 4.657898 -32.844253 45.043627 0.151689 2.387898 0.010195 0.002362 283851.000000 0 0 1
31.317791 3.613198 -31.984393 44.909471 0.114864 2.363419 0.012757 -0.001086 315873.000000 0 0 1
31.294091 2.235598 -32.382083 45.087884 0.071317 2.372007 0.011444 -0.001777 -20068.600000 0 0 1
31.803791 1.449598 -31.329643 44.666867 0.045548 2.348166 0.010415 -0.000996 -88468.800000 0 0 1
31.855691 -0.050202 -31.683983 44.929526 -0.001576 2.353491 0.011419 -0.013612 -107941.000000 0 0 1
32.933091 -0.278902 -32.593943 46.336070 -0.008469 2.351001 0.012854 -0.011856 207021.000000 0 0 1
33.430691 -1.620402 -32.531353 46.674680 -0.048433 2.341975 0.012566 -0.009235 669117.000000 0 0 1
34.467091 -1.938402 -31.407153 46.670623 -0.056180 2.308991 0.021934 -0.010582 -158250.000000 0 0 1
33.854991 -1.797202 -30.136863 45.361006 -0.053036 2.297458 0.025087 -0.009173 -236648.000000 0 0 1
34.730191 -1.888802 -29.045053 45.314113 -0.054331 2.266560 0.037487 -0.014968 -275002.000000 0 0 1
34.077191 -1.344802 -27.758593 43.972752 -0.039443 2.253983 0.035258 -0.014803 20221.400000 0 0 1
33.744991 0.052998 -27.703813 43.660377 0.001571 2.258196 0.039419 -0.015929 566254.000000 0 0 1
32.604291 0.286498 -26.888873 42.262671 0.008787 2.260401 0.029327 -0.010430 180998.000000 0 0 1
32.282591 1.792698 -26.666093 41.910142 0.055474 2.260448 0.031947 -0.012968 352337.000000 0 0 1
31.547091 2.405398 -27.749323 42.083605 0.076101 2.290798 0.033660 -0.017763 -58282.000000 0 0 1
30.515591 3.232298 -27.335573 41.096017 0.105529 2.298509 0.030064 0.000628 -629280.000000 0 0 1
29.848691 3.769798 -28.587543 41.501847 0.125632 2.330664 0.022347 0.004919 -58777.800000 0 0 1
28.796691 4.680598 -28.254773 40.613909 0.161130 2.340179 0.026141 0.004110 423496.000000 0 0 1
28.114491 5.172898 -29.391593 41.000600 0.181959 2.370081 0.016318 0.002485 -585357.000000 0 0 1
26.932991 6.022998 -28.991833 40.027352 0.220009 2.380816 0.013382 -0.000620 43133.500000 0 0 1
25.864691 5.268398 -28.372503 38.752254 0.200942 2.392271 0.021191 -0.002550 877842.000000 0 0 1
24.942791 6.021798 -27.607583 37.690629 0.236891 2.392752 0.025260 -0.001612 -881142.000000 0 0 1
23.586491 5.393798 -27.455593 36.595426 0.224816 2.419231 0.038866 0.003582 -1117490.000000 0 0 1
22.864191 5.440198 -28.685683 37.084166 0.233592 2.455187 0.039694 -0.002669 2106420.000000 0 0 1
21.585891 4.709498 -28.434653 36.009159 0.214809 2.481036 0.043771 -0.004716 2104960.000000 0 0 1
20.709291 4.314798 -29.661803 36.432331 0.205412 2.522080 0.042537 -0.005988 89364.600000 0 0 1
21.044291 3.081398 -30.160913 36.905797 0.145391 2.527403 0.048555 -0.011455 123232.000000 0 0 1
20.294291 2.515498 -31.253033 37.348869 0.123322 2.562184 0.033146 -0.011051 61798.500000 0 0 1
20.391091 3.244198 -32.588063 38.578534 0.157776 2.576838 0.040136 -0.013194 -29311.200000 0 0 1
21.675691 2.978998 -33.107713 39.684136 0.136579 2.557623 0.031268 -0.012800 -148099.000000 0 0 1
21.818791 3.512898 34.307163 40.809086 0.159633 0.572269 0.036472 -0.013902 583259.000000 0 0 1
23.276591 3.399498 33.722072 41.116109 0.145023 0.609094 0.048527 -0.010758 700708.000000 0 0 1
23.579191 2.057298 33.569101 41.074265 0.087030 0.614125 0.055934 -0.023374 -679745.000000 0 0 1
24.869791 1.935898 33.058211 41.413760 0.077685 0.646425 0.042783 -0.025905 -1053770.000000 0 0 1
25.270691 0.455698 32.741520 41.362091 0.018031 0.657401 0.033186 -0.035410 -885657.000000 0 0 1
24.662591 -0.180402 31.642498 40.118868 -0.007315 0.662075 0.041287 -0.036053 1692910.000000 0 0 1
23.207791 -0.308402 31.684008 39.275603 -0.013288 0.632234 0.056303 -0.038264 1149010.000000 0 0 1
22.646991 -1.279602 32.747909 39.836530 -0.056442 0.605782 0.053587 -0.045184 -932934.000000 0 0 1
22.747091 -2.663902 32.464538 39.729998 -0.116579 0.614383 0.055859 -0.049507 106124.000000 0 0 1
21.964491 -3.463902 33.316933 40.055655 -0.156416 0.588515 0.055704 -0.042007 -288749.000000 0 0 1
21.796791 -4.894902 32.850286 39.726583 -0.220905 0.597207 0.050040 -0.031676 -74409.100000 0 0 1
23.044891 -5.548002 32.776777 40.449529 -0.236252 0.626110 0.056182 -0.027206 18784.600000 0 0 1
22.872691 -6.900502 32.452028 40.297779 -0.293008 0.634606 0.056287 -0.023453 108937.000000 0 0 1
24.184291 -7.716502 32.238838 41.033730 -0.308860 0.667023 0.063965 -0.022976 121784.000000 0 0 1
24.693391 -7.457402 30.940438 40.282590 -0.293291 0.694952 0.073910 -0.027045 -27079.400000 0 0 1
25.841391 -8.247402 30.688458 40.958254 -0.308936 0.723850 0.077740 -0.030223 16788.900000 0 0 1
26.415491 -8.053002 29.271948 40.242713 -0.295909 0.756293 0.072908 -0.023246 352533.000000 0 0 1
25.537091 -8.445802 28.188388 38.962287 -0.319403 0.761968 0.058509 -0.016900 189629.000000 0 0 1
26.168591 -8.390502 26.935408 38.480019 -0.310277 0.795421 0.076050 -0.015653 68580.600000 0 0 1
25.382991 -9.161702 25.842628 37.364079 -0.346386 0.807034 0.056828 -0.018288 -792196.000000 0 0 1
24.256591 -8.531102 25.374718 36.125313 -0.338191 0.792021 0.049892 -0.015810 -957565.000000 0 0 1
23.646791 -9.382502 24.420448 35.264151 -0.377725 0.805847 0.055737 -0.021371 -393129.000000 0 0 1
22.225191 -8.984302 24.024788 33.939169 -0.384156 0.784307 0.034581 -0.009085 -539537.000000 0 0 1
21.245891 -9.214502 24.998128 34.076404 -0.409223 0.747206 0.028931 -0.004187 -127014.000000 0 0 1
20.026691 -8.612602 24.585258 32.858487 -0.406145 0.725427 0.027527 -0.002961 184559.000000 0 0 1
18.861891 -8.672102 25.571618 32.937576 -0.430948 0.681917 0.027365 -0.005006 -712395.000000 0 0 1
18.415591 -9.954402 25.935898 33.330090 -0.495553 0.679077 0.039933 -0.009157 62255.400000 0 0 1
19.166591 -10.725102 26.880888 34.712651 -0.510163 0.685057 0.030176 -0.011277 -230173.000000 0 0 1
18.298091 -11.666802 27.761958 35.237206 -0.567606 0.663471 0.021492 -0.003361 101153.000000 0 0 1
17.573791 -12.636102 27.063798 34.654846 -0.623385 0.674607 0.029867 -0.007763 35833.400000 0 0 1
16.686991 -13.429602 27.799638 35.094583 -0.677658 0.656498 0.019454 -0.006214 -115053.000000 0 0 1
17.382291 -14.591902 28.584968 36.498877 -0.698349 0.671042 0.028019 0.005015 287237.000000 0 0 1
16.373291 -15.433602 29.158978 36.831056 -0.755863 0.657217 0.014462 0.005596 482660.000000 0 0 1
16.888991 -16.533302 29.798038 38.033027 -0.774756 0.670553 0.034868 -0.000353 -368939.000000 0 0 1
17.202191 -17.785602 28.928378 38.066968 -0.802071 0.707585 0.028875 0.004330 -81762.400000 0 0 1
18.089691 -17.546302 27.868988 37.573795 -0.770151 0.735175 0.032134 0.005540 64726.900000 0 0 1
18.355291 -18.724402 27.189538 37.772886 -0.795352 0.767259 0.024989 0.013416 -273333.000000 0 0 1
19.436291 -18.505702 26.139988 37.463707 -0.760876 0.798556 0.039367 -0.003574 -1211620.000000 0 0 1
20.690591 -18.091402 26.547808 38.212373 -0.718478 0.802733 0.065369 -0.013857 -1103810.000000 0 0 1
21.320391 -17.581702 25.422218 37.549494 -0.689587 0.827074 0.057142 -0.013908 961512.000000 0 0 1
22.756291 -17.038002 25.869068 38.436323 -0.642679 0.832489 0.045801 -0.011235 1057650.000000 0 0 1
23.645391 -18.087502 26.137778 39.616230 -0.653000 0.850278 0.044198 -0.019704 -552030.000000 0 0 1
24.946891 -17.653102 26.412728 40.393212 -0.615827 0.858081 0.044811 -0.013589 194357.000000 0 0 1
25.909591 -18.875602 26.668028 41.698669 -0.629610 0.876895 0.029696 -0.012928 238153.000000 0 0 1
25.749091 -19.525002 27.927558 42.710536 -0.648779 0.858095 0.040306 -0.014849 655714.000000 0 0 1
26.668691 -20.676602 27.985938 43.840092 -0.659506 0.878425 0.033151 0.000276 555704.000000 0 0 1
26.295691 -21.960302 28.711188 44.699558 -0.695797 0.873282 0.030689 0.007510 -119023.000000 0 0 1
26.000791 -21.813202 30.093378 45.359324 -0.698040 0.845384 0.038715 0.000129 96727.800000 0 0 1
25.602491 -23.021702 30.749968 46.163263 -0.732372 0.841811 0.030696 0.001773 -290217.000000 0 0 1
25.367691 -22.978502 32.299728 47.061701 -0.736020 0.814369 0.028378 0.000407 89974.700000 0 0 1
24.868391 -24.170702 32.882428 47.790310 -0.771172 0.811989 0.010772 0.004198 176815.000000 0 0 1
24.602891 -24.076902 34.241719 48.554040 -0.774594 0.788050 0.020053 0.006427 -323370.000000 0 0 1
24.280991 -25.412592 -33.766133 48.739287 -0.808166 2.336148 0.007244 0.007559 1416340.000000 0 0 1
23.012091 -26.093222 -34.012213 48.654323 -0.848061 2.344876 0.007725 0.009999 1058830.000000 0 0 1
22.625691 -26.467372 33.448267 48.282815 -0.863492 0.805491 0.001406 0.007427 401920.000000 0 0 1
21.327891 -27.358612 33.433931 48.178837 -0.908639 0.803829 0.020379 0.002882 701701.000000 0 0 1
21.467591 -28.741742 33.767032 49.266191 -0.929274 0.815644 0.005525 0.003041 -13052.100000 0 0 1
20.203091 -29.331512 33.636643 48.989042 -0.967637 0.813973 0.024149 -0.003013 -457161.000000 0 0 1
20.274791 -30.853122 33.858437 50.093672 -0.989419 0.828608 0.003471 -0.002816 -84449.600000 0 0 1
20.684291 -31.300952 -33.581313 50.351704 -0.986852 2.300884 -0.013665 0.002911 -414574.000000 0 0 1
21.589191 -32.295012 -33.679013 51.413392 -0.981526 2.285062 -0.019726 0.008971 -1123550.000000 0 0 1
21.991791 -32.690832 -32.253293 50.917622 -0.978614 2.256788 -0.006705 0.012767 -944651.000000 0 0 1
23.009291 -33.647442 -32.280903 51.996486 -0.971002 2.240595 -0.011206 0.010954 178044.000000 0 0 1
23.515991 -34.019962 -30.988913 51.678548 -0.965973 2.213857 -0.003402 0.012294 379237.000000 0 0 1
24.612791 -33.048902 -30.453003 51.238704 -0.930671 2.207236 0.003399 0.009673 -447161.000000 0 0 1
25.184491 -33.449642 -29.235743 51.067267 -0.925437 2.180342 0.017833 0.009605 -709907.000000 0 0 1
26.103491 -32.484712 -28.919213 50.724448 -0.893887 2.177453 0.026064 0.012421 -1098340.000000 0 0 1
26.757691 -32.617612 -27.597183 50.413164 -0.883772 2.150075 0.028341 0.003648 309725.000000 0 0 1
27.579491 -33.821392 -27.512073 51.589040 -0.886708 2.133285 0.030339 0.004349 342513.000000 0 0 1
28.542291 -33.715672 -26.485903 51.506426 -0.868304 2.110900 0.031148 -0.001917 219680.000000 0 0 1
-26.506239 -30.607166 9.469197 41.581787 0.857078 1.341056 0.023876 -0.006992 -389767.000000 0 0 1
-26.608499 -31.985466 9.802997 42.745538 0.876908 1.339403 0.025164 -0.009878 -341477.000000 0 0 1
-25.693729 -32.299766 10.816397 42.666580 0.898819 1.314489 0.020617 -0.014138 -153127.000000 0 0 1
-25.921119 -33.642766 11.503697 44.000854 0.914316 1.306280 0.013842 -0.012409 -79234.400000 0 0 1
-25.690419 34.075298 10.589197 43.968792 -0.924784 1.327571 0.015802 -0.008795 -88156.600000 0 0 1
-25.637799 32.875198 11.366697 43.212003 -0.908462 1.304619 0.019121 -0.010290 -1068.990000 0 0 1
-25.482309 31.535898 10.572897 41.900443 -0.891171 1.315705 0.023740 -0.010249 772096.000000 0 0 1
-26.750299 31.215798 9.940597 42.294444 -0.862283 1.333544 0.030778 -0.016444 987934.000000 0 0 1
-26.781239 30.020398 9.183297 41.264900 -0.842362 1.346372 0.042077 -0.021021 -788135.000000 0 0 1
-26.040029 30.031898 7.871397 40.521067 -0.856470 1.375299 0.042013 -0.015135 -498836.000000 0 0 1
-24.688409 29.670198 7.988997 39.416523 -0.876790 1.366701 0.039693 -0.011931 -124860.000000 0 0 1
-24.003309 29.628198 6.741397 38.722544 -0.889896 1.395810 0.030047 -0.005567 250250.000000 0 0 1
-22.550209 29.092998 6.798697 37.431761 -0.911419 1.388153 0.032480 0.000073 230599.000000 0 0 1
-22.414009 27.651998 7.011297 36.279182 -0.889641 1.376313 0.046891 -0.009508 138343.000000 0 0 1
-22.794209 26.836498 5.888197 35.699362 -0.866666 1.405101 0.037145 -0.016541 -509421.000000 0 0 1
-22.976709 25.323798 6.207597 34.752815 -0.833953 1.391211 0.040413 -0.013392 -643637.000000 0 0 1
-24.058409 25.047598 7.069797 35.442506 -0.805539 1.369977 0.049592 -0.015316 199156.000000 0 0 1
-24.396309 23.704398 7.361897 34.803389 -0.771015 1.357658 0.048315 -0.023763 -320600.000000 0 0 1
-24.878509 22.884498 6.176797 34.362673 -0.743674 1.390061 0.037854 -0.032089 -2175260.000000 0 0 1
-26.162919 23.194298 5.783797 35.439048 -0.725325 1.406859 0.032634 -0.029462 -747219.000000 0 0 1
-26.552169 22.458598 4.626197 35.082873 -0.702068 1.438546 0.021799 -0.024894 11785.300000 0 0 1
-26.283749 23.277198 3.358397 35.269565 -0.724809 1.475431 0.014540 -0.029447 203026.000000 0 0 1
-24.913909 23.631198 3.176297 34.485145 -0.758981 1.478559 0.019498 -0.030240 485999.000000 0 0 1
-24.757009 24.608998 2.162197 34.974096 -0.782400 1.508934 0.018575 -0.017915 -750964.000000 0 0 1
-23.371209 25.201598 2.008297 34.429162 -0.823064 1.512432 0.024729 -0.010838 -629773.000000 0 0 1
-23.036409 25.841098 0.799197 34.627694 -0.842717 1.547715 0.016064 -0.013648 -676289.000000 0 0 1
-21.735809 26.346398 0.827397 34.165226 -0.880996 1.546576 0.032684 -0.016312 -1091900.000000 0 0 1
-21.317909 26.877398 -0.570203 34.309953 -0.900244 1.587416 0.044266 -0.015797 89439.400000 0 0 1
-20.970609 25.928498 -1.597403 33.385703 -0.890721 1.618662 0.037884 -0.018636 101256.000000 0 0 1
-19.867309 25.093398 -1.286003 32.031897 -0.901116 1.610955 0.037914 -0.015848 -191751.000000 0 0 1
-19.493909 24.120498 -2.430303 31.108155 -0.891082 1.649000 0.038302 -0.027213 -669928.000000 0 0 1
-20.519809 23.239598 -2.742503 31.123348 -0.847472 1.659028 0.036619 -0.027996 -646669.000000 0 0 1
-20.227109 22.211098 -3.624703 30.259003 -0.832114 1.690874 0.039290 -0.023887 152980.000000 0 0 1
-21.488309 21.597298 -4.328603 30.772187 -0.787928 1.711930 0.032903 -0.016892 300464.000000 0 0 1
-21.992709 22.512798 -5.259003 31.908658 -0.797084 1.736366 0.033808 -0.015018 -1454990.000000 0 0 1
-23.227909 22.178198 -5.719403 32.620849 -0.762284 1.747037 0.038741 -0.012416 -1102660.000000 0 0 1
-23.509009 22.949698 -7.032203 33.597828 -0.773360 1.781661 0.035969 -0.010176 -66188.200000 0 0 1
-22.832709 22.348098 -8.105003 32.961510 -0.774673 1.819237 0.037580 -0.012226 -6796.010000 0 0 1
-22.465309 23.287498 -9.117303 33.617300 -0.803366 1.845445 0.036005 -0.014610 381063.000000 0 0 1
-21.558809 22.686998 -10.271903 32.939249 -0.810891 1.887929 0.029133 -0.018412 722627.000000 0 0 1
-22.344609 21.992898 -11.254603 33.311187 -0.777466 1.915441 0.017568 -0.010641 1223310.000000 0 0 1
-21.464309 21.419398 -12.275003 32.713650 -0.784351 1.955437 0.014834 -0.011159 931884.000000 0 0 1
-22.270909 21.191498 -13.569403 33.603596 -0.760568 1.986472 0.010976 -0.013123 -92353.800000 0 0 1
-23.218909 20.174298 -13.545403 33.609492 -0.715350 1.985614 0.009618 -0.004370 422137.000000 0 0 1
-24.156409 20.316898 -14.646603 34.797003 -0.699279 2.005251 0.006064 -0.010607 438968.000000 0 0 1
-25.094529 19.133698 -14.840203 34.872129 -0.651431 2.010378 0.029966 -0.013110 135570.000000 0 0 1
-24.496309 18.151298 -15.667803 34.278547 -0.637704 2.045498 0.021950 -0.008593 579398.000000 0 0 1
-25.486689 17.134898 -15.850703 34.560394 -0.591898 2.047258 0.042415 -0.006712 320129.000000 0 0 1
-25.115979 16.114198 -16.932003 34.309947 -0.570441 2.086907 0.051401 -0.002798 -287638.000000 0 0 1
-24.023809 15.288398 -16.665103 32.994002 -0.566745 2.100288 0.070383 -0.005095 -202908.000000 0 0 1
-23.675109 14.561998 -17.848703 33.032390 -0.551431 2.141637 0.075098 -0.008739 -335427.000000 0 0 1
-22.833809 13.299798 -17.702503 31.806384 -0.527423 2.161049 0.074564 -0.007648 -664534.000000 0 0 1
-21.582309 13.659998 -17.201103 30.793986 -0.564278 2.163477 0.072882 -0.017666 -950366.000000 0 0 1
-20.802609 12.505398 -17.033103 29.652320 -0.541261 2.182701 0.068499 -0.009646 290594.000000 0 0 1
-19.496909 12.853798 -16.242103 28.445658 -0.582867 2.178504 0.070549 -0.012651 670012.000000 0 0 1
-18.450609 13.503598 -16.968803 28.473012 -0.631802 2.209258 0.059730 -0.006594 -235578.000000 0 0 1
-17.408809 13.740798 -16.101303 27.406717 -0.668183 2.198756 0.055914 0.006239 -886654.000000 0 0 1
-16.466609 14.867598 -16.482903 27.638393 -0.734412 2.209776 0.042949 0.003505 -645842.000000 0 0 1
-15.525609 14.553098 -17.454403 27.522598 -0.753077 2.257750 0.062976 -0.000861 -742292.000000 0 0 1
-14.769409 15.699098 -17.654503 27.861777 -0.815902 2.257053 0.059652 -0.001591 -210065.000000 0 0 1
-13.799309 15.596898 -18.863703 28.098460 -0.846472 2.306816 0.058085 -0.000383 12102.600000 0 0 1
-12.881809 14.595398 -18.580903 26.911273 -0.847682 2.332908 0.058124 0.000235 -632904.000000 0 0 1
-11.847609 14.482798 -19.556703 27.066250 -0.885148 2.378279 0.071704 -0.007853 559261.000000 0 0 1
-11.306009 13.017098 -19.483403 26.016796 -0.855631 2.417164 0.065056 -0.015388 66135.700000 0 0 1
-12.053709 12.084998 -20.203703 26.448605 -0.786694 2.440109 0.066915 -0.004413 79242.100000 0 0 1
-11.377309 10.851498 -20.124103 25.537770 -0.761748 2.478372 0.044111 0.012466 224363.000000 0 0 1
-11.965909 9.892098 -21.188503 26.267646 -0.690805 2.509239 0.055845 0.006809 145981.000000 0 0 1
-11.454409 10.084298 -22.506203 27.192383 -0.721872 2.545732 0.057152 -0.008333 -100234.000000 0 0 1
-12.045609 9.185598 -23.412503 27.885788 -0.651496 2.567316 0.048632 0.013043 -55657.900000 0 0 1
-11.502909 9.376798 -24.821203 28.919429 -0.683921 2.602721 0.052035 -0.018004 -488415.000000 0 0 1
-10.132709 9.095098 -24.969203 28.440353 -0.731486 2.642359 0.047800 -0.021068 -228602.000000 0 0 1
-9.882409 8.624698 -26.274263 29.366381 -0.717544 2.678568 0.037960 -0.029486 -105975.000000 0 0 1
-9.399609 9.694898 -27.329613 30.483626 -0.800862 2.682679 0.064186 -0.033322 -625970.000000 0 0 1
-8.101209 10.188198 -27.311683 30.254867 -0.899016 2.696847 0.061987 -0.029883 -385743.000000 0 0 1
-7.667809 11.034398 -26.277813 29.514008 -0.963501 2.668911 0.048230 -0.021982 358795.000000 0 0 1
-6.171609 11.406198 -26.554723 29.552384 -1.074831 2.687284 0.032771 -0.015130 -62869.700000 0 0 1
-6.006209 12.580198 -27.352073 30.699704 -1.125364 2.670242 0.030763 -0.026893 -62567.500000 0 0 1
-4.659809 12.981798 -27.408173 30.683038 -1.226171 2.675359 0.032613 -0.010464 -57014.900000 0 0 1
-4.038709 12.691398 -28.831143 31.758740 -1.262705 2.708847 0.037480 -0.013433 -140271.000000 0 0 1
-2.648809 12.888498 -28.908373 31.761983 -1.368101 2.714458 0.048606 -0.019433 -132654.000000 0 0 1
-2.245509 12.718698 -30.285953 32.924862 -1.396045 2.738496 0.055136 -0.020905 49033.500000 0 0 1
-0.727109 12.522698 -30.441393 32.924536 -1.512798 2.750730 0.064717 -0.026634 -525805.000000 0 0 1
-0.262709 11.376098 -29.779063 31.879103 -1.547707 2.776596 0.043748 -0.007530 725141.000000 0 0 1
1.167691 11.239198 -29.805123 31.875201 1.467273 2.779216 0.062693 -0.008991 1011590.000000 0 0 1
1.784291 10.618098 -31.105803 32.916541 1.404309 2.808360 0.066784 -0.005600 -372010.000000 0 0 1
1.894791 11.558598 -32.147913 34.215197 1.408312 2.792197 0.082284 -0.020714 243377.000000 0 0 1
2.000591 10.857898 -33.349363 35.129422 1.388588 2.821889 0.075412 -0.010264 6415.180000 0 0 1
2.090291 11.751998 34.132076 36.159056 1.394770 0.336420 0.079454 -0.018669 -566791.000000 0 0 1
3.366491 12.285498 33.956961 36.267643 1.303340 0.358888 0.068631 -0.016736 -559363.000000 0 0 1
3.433791 13.032298 32.739441 35.404840 1.313168 0.390506 0.070336 -0.011891 -366516.000000 0 0 1
4.884091 13.286998 32.357728 35.318851 1.218543 0.412403 0.058659 -0.007958 -627829.000000 0 0 1
5.623691 12.213598 31.879688 34.599312 1.139290 0.399137 0.051691 -0.009921 -523697.000000 0 0 1
6.901591 12.604698 31.467958 34.593970 1.069843 0.428387 0.048766 -0.003099 -290517.000000 0 0 1
7.649291 11.439098 30.747028 33.685966 0.981389 0.420819 0.028929 0.001939 81572.500000 0 0 1
7.166991 11.085298 29.473508 32.294539 0.996863 0.421083 0.028412 -0.008108 -341544.000000 0 0 1
7.982291 10.087698 28.961128 31.689518 0.901389 0.418000 0.024184 -0.011726 -308242.000000 0 0 1
7.402091 9.287498 27.824728 30.253331 0.897890 0.403418 0.005700 -0.004770 -74944.700000 0 0 1
6.484691 8.310298 28.273688 30.174719 0.908171 0.356858 0.003506 -0.007292 -154250.000000 0 0 1
6.043191 7.468498 27.216788 28.862643 0.890496 0.339335 0.017038 -0.019905 -167764.000000 0 0 1
5.225691 6.263798 27.758598 28.932383 0.875506 0.285823 0.040869 -0.020721 -484300.000000 0 0 1
5.976591 5.270998 28.425538 29.521420 0.722747 0.273326 0.025147 -0.010555 -646133.000000 0 0 1
5.339191 4.541898 29.409348 30.233186 0.704884 0.233983 0.033185 -0.009942 -631018.000000 0 0 1
6.177091 3.360598 29.996728 30.809962 0.498258 0.230270 0.055697 -0.010988 127602.000000 0 0 1
5.953991 2.116198 29.391998 30.063563 0.341500 0.211763 0.054189 -0.013007 284091.000000 0 0 1
6.818991 1.791098 28.288628 29.153956 0.256861 0.244251 0.064313 -0.014732 115561.000000 0 0 1
6.665291 0.314498 27.935168 28.721048 0.047149 0.234471 0.059557 -0.009286 -189174.000000 0 0 1
7.250091 -0.540602 28.818418 29.721327 -0.074427 0.247120 0.063560 -0.015991 -254163.000000 0 0 1
7.019591 -1.822002 28.411398 29.322378 -0.253955 0.249920 0.068933 -0.010783 -110445.000000 0 0 1
7.937591 -2.851202 29.103928 30.301375 -0.344849 0.282067 0.066978 -0.006419 1010690.000000 0 0 1
9.343791 -2.638402 28.857218 30.446783 -0.275205 0.324557 0.067000 -0.008494 464149.000000 0 0 1
10.085591 -3.779102 29.075138 31.005877 -0.358510 0.354760 0.059697 -0.003564 6136.780000 0 0 1
11.626791 -3.504702 29.046398 31.482669 -0.292771 0.395989 0.052248 -0.001196 1172320.000000 0 0 1
12.543491 -4.571602 28.741878 31.691233 -0.349498 0.434847 0.044650 -0.004131 572659.000000 0 0 1
12.670591 -5.588302 29.712588 32.781258 -0.415382 0.436139 0.045553 -0.008329 -734225.000000 0 0 1
12.107891 -6.965702 29.228488 32.394853 -0.522062 0.445821 0.050154 -0.009177 236498.000000 0 0 1
10.697991 -6.878802 29.103798 31.761549 -0.571438 0.412000 0.060506 -0.008001 -217250.000000 0 0 1
10.087691 -8.121802 29.060628 31.815802 -0.677855 0.419231 0.062308 -0.002381 64926.800000 0 0 1
8.561691 -8.044202 28.802898 31.106569 -0.754245 0.387272 0.061332 -0.001489 -32544.100000 0 0 1
7.905691 -7.372502 29.816578 31.715643 -0.750514 0.347808 0.066897 -0.010204 -1118860.000000 0 0 1
6.547891 -7.317102 29.510348 31.101053 -0.840820 0.321211 0.063383 -0.011837 -1002170.000000 0 0 1
5.839791 -6.648002 30.646928 31.898797 -0.850028 0.281085 0.050081 -0.012066 -579945.000000 0 0 1
5.762791 -7.427002 31.836488 33.195362 -0.910909 0.287117 0.053937 -0.016872 393538.000000 0 0 1
5.236991 -6.808102 33.067121 34.164467 -0.915102 0.254138 0.047962 -0.015485 119517.000000 0 0 1
5.948791 -5.547102 33.565712 34.537161 -0.750470 0.237741 0.057422 -0.015843 -109720.000000 0 0 1
5.634391 -4.433002 32.756741 33.532103 -0.666625 0.215465 0.059215 -0.015723 -138862.000000 0 0 1
6.281291 -3.279302 33.177749 33.925970 -0.481151 0.210410 0.051582 -0.016413 -179243.000000 0 0 1
6.072491 -2.064902 32.208428 32.840855 -0.327776 0.196568 0.064219 -0.015965 92029.300000 0 0 1
4.758391 -1.551602 32.130428 32.517905 -0.315206 0.154529 0.059662 -0.012205 -160233.000000 0 0 1
4.808591 -0.285902 31.506228 31.872350 -0.059387 0.151718 0.056319 -0.018485 -292009.000000 0 0 1
3.413691 0.139298 31.044278 31.231713 0.040783 0.109612 0.048931 -0.012668 394601.000000 0 0 1
2.566291 0.315798 32.220418 32.323999 0.122441 0.080077 0.042771 -0.008851 -252157.000000 0 0 1
1.358591 0.959198 31.947028 31.990286 0.614758 0.052010 0.052789 -0.011918 -161340.000000 0 0 1
0.489391 1.028398 33.210544 33.230066 1.126633 0.034280 0.047531 -0.009703 -200181.000000 0 0 1
1.212291 1.806198 34.113065 34.182352 0.979673 0.063682 0.033505 -0.008966 126912.000000 0 0 1
0.499791 1.950598 -33.435203 33.495782 1.319968 3.081441 0.023455 -0.006833 -126476.000000 0 0 1
1.089291 3.059998 -32.485193 32.647173 1.228806 3.041937 0.019011 -0.003195 -13640.100000 0 0 1
2.229291 2.637198 -31.785483 31.972511 0.869022 3.033376 0.005907 0.001332 -316696.000000 0 0 1
2.840791 3.696498 -31.131853 31.478984 0.915554 2.992947 0.006213 0.005704 350874.000000 0 0 1
3.988291 3.319298 -30.129493 30.573036 0.694105 2.971047 0.011846 0.008483 863931.000000 0 0 1
3.398091 2.716598 -28.946773 29.271874 0.674404 2.992416 0.013603 -0.002960 830772.000000 0 0 1
4.421191 2.778198 -27.956073 28.439538 0.561028 2.956941 0.025168 -0.007252 440196.000000 0 0 1
3.956591 2.086598 -26.688753 27.061006 0.485305 2.975534 0.022711 -0.010306 -20364.100000 0 0 1
4.046591 0.679898 -26.806113 27.118349 0.166463 2.989698 0.030654 -0.012667 67408.700000 0 0 1
3.369891 0.020498 -25.764903 25.984357 0.006083 3.011535 0.034197 -0.012689 -288060.000000 0 0 1
3.858991 -1.423802 -25.535743 25.864903 -0.353462 2.981885 0.030371 -0.011213 160862.000000 0 0 1
5.125691 -1.582702 -24.919003 25.489887 -0.299491 2.929552 0.028107 -0.016080 -30854.600000 0 0 1
5.469491 -2.930602 -25.080303 25.836512 -0.491883 2.899052 0.029320 -0.014248 132619.000000 0 0 1
6.900591 -3.129702 -24.488103 25.633579 -0.425795 2.841515 0.034009 -0.017343 822131.000000 0 0 1
7.868491 -2.549402 -25.362543 26.677166 -0.313328 2.826350 0.034104 -0.011527 372898.000000 0 0 1
9.221291 -2.839802 -25.008303 26.805072 -0.298745 2.773371 0.037149 -0.009281 668397.000000 0 0 1
-28.931549 -4.260102 17.143068 33.897902 0.146197 1.040572 0.039636 -0.009790 474341.000000 0 0 1
-30.339959 -4.113202 17.319168 35.176485 0.134749 1.056008 0.024108 -0.000256 200309.000000 0 0 1
-30.696319 -4.847902 18.425268 36.128336 0.156637 1.035617 0.015667 0.000160 -815770.000000 0 0 1
-32.108379 -4.663002 18.939368 37.568487 0.144219 1.042423 0.010406 0.003371 -1070430.000000 0 0 1
-33.018709 -5.028202 17.955468 37.919873 0.151122 1.077524 0.007576 0.008024 205948.000000 0 0 1
-34.341846 -4.990802 18.504268 39.327832 0.144317 1.080924 0.015435 0.010022 788419.000000 0 0 1
-35.526717 -4.984902 17.489468 39.910880 0.139404 1.117187 0.012642 0.009588 -240123.000000 0 0 1
34.713769 -5.234102 18.101668 39.498253 -0.149652 1.094726 0.024401 0.010451 -514771.000000 0 0 1
33.763969 -5.084502 17.025968 38.154179 -0.149467 1.108236 0.017163 0.010945 271690.000000 0 0 1
32.387909 -5.618202 17.488168 37.234082 -0.171757 1.081866 0.024595 0.010789 54972.300000 0 0 1
31.675869 -4.886202 18.477468 36.995303 -0.153050 1.047827 0.046096 0.006755 431199.000000 0 0 1
30.554299 -5.578702 18.976068 36.397503 -0.180594 1.022357 0.062306 -0.001111 79188.300000 0 0 1
29.761229 -4.967802 20.134868 36.274271 -0.165397 0.982346 0.067148 0.003716 157878.000000 0 0 1
29.003689 -3.736002 20.007668 35.432731 -0.128106 0.970768 0.069818 -0.001978 747207.000000 0 0 1
29.688759 -2.515302 19.640768 35.686257 -0.084521 0.987985 0.071988 -0.001398 111254.000000 0 0 1
28.681429 -1.346302 19.759768 34.855205 -0.046905 0.968046 0.062857 0.006771 78458.600000 0 0 1
29.152189 -0.090402 19.406668 35.021094 -0.003101 0.983464 0.058423 0.002523 530908.000000 0 0 1
28.113659 0.873998 19.674268 34.325188 0.031078 0.960424 0.050352 0.003706 687883.000000 0 0 1
28.465749 2.311098 19.162368 34.392388 0.081011 0.979824 0.032512 0.012601 118079.000000 0 0 1
28.640769 2.372798 17.756668 33.781993 0.082658 1.017346 0.017413 0.005029 78932.500000 0 0 1
28.495109 3.704398 17.277468 33.529162 0.129276 1.029442 0.000731 0.016491 91359.200000 0 0 1
28.402709 3.645298 15.733568 32.673341 0.127646 1.068384 0.003861 0.011930 -112939.000000 0 0 1
28.229479 4.878098 15.038768 32.355276 0.171112 1.087386 -0.010446 0.012415 29588.400000 0 0 1
27.698429 4.563398 13.793868 31.277761 0.163286 1.114070 0.012805 0.012847 -279871.000000 0 0 1
27.113859 5.744798 13.046168 30.632769 0.208789 1.130852 0.019516 0.007799 249971.000000 0 0 1
26.050749 6.424098 13.715368 30.133401 0.241776 1.098250 -0.001675 0.009186 261892.000000 0 0 1
25.642749 7.600998 12.972168 29.725459 0.288168 1.119203 0.019409 -0.007030 -382085.000000 0 0 1
24.423549 8.296898 13.634368 29.176090 0.327478 1.084547 0.018630 -0.008859 17280.000000 0 0 1
23.153049 7.729798 13.471868 27.880184 0.322221 1.066484 0.022451 0.001399 208655.000000 0 0 1
22.915649 6.498998 14.203768 27.732850 0.276349 1.033094 0.028639 -0.001552 -1077940.000000 0 0 1
21.480649 5.969098 14.053968 26.354552 0.271044 1.008341 0.054890 0.000811 -477365.000000 0 0 1
21.181149 5.704498 12.729568 25.361866 0.263078 1.044982 0.067114 -0.003231 813138.000000 0 0 1
20.084149 4.774998 12.706168 24.240882 0.233416 1.019065 0.073136 -0.002351 297111.000000 0 1 0
19.571349 4.468798 11.258968 23.016781 0.224485 1.059666 0.075964 -0.008408 -434842.000000 0 1 0
20.505549 3.842098 10.451468 23.333933 0.185221 1.106372 0.073457 -0.011270 55462.100000 0 1 0
20.048149 3.740098 9.109468 22.336047 0.184436 1.150712 0.079157 -0.010574 106494.000000 0 1 0
21.118449 3.042098 8.243768 22.873630 0.143065 1.202094 0.068652 -0.003184 -716024.000000 0 1 0
21.452349 1.725198 8.694668 23.211567 0.080247 1.186849 0.062620 0.002274 395910.000000 0 1 0
22.175549 0.897898 7.786868 23.520130 0.040468 1.233356 0.036082 0.008646 -1253820.000000 0 1 0
23.626549 1.309198 7.645968 24.867421 0.055356 1.258264 0.045393 0.000525 -821784.000000 0 1 0
24.582549 0.984398 8.690868 26.092182 0.040023 1.231225 0.054223 0.011636 1035590.000000 0 0 1
24.416549 1.711698 9.867368 26.390580 0.069990 1.187589 0.050484 0.008655 -693943.000000 0 0 1
25.008549 1.147298 11.206768 27.428734 0.045844 1.149901 0.034656 0.013993 -103101.000000 0 0 1
26.410249 1.212698 11.268568 28.739389 0.045885 1.167889 0.038915 0.009338 -73264.300000 0 0 1
26.939429 0.334398 12.277168 29.606984 0.012412 1.143215 0.035188 0.002481 159311.000000 0 0 1
28.483419 0.406098 12.251468 31.009169 0.014256 1.164629 0.046829 0.002270 38940.700000 0 0 1
29.073629 1.662298 12.555368 31.712401 0.057113 1.163734 0.033336 0.007186 215734.000000 0 0 1
30.480819 1.491098 12.462768 32.963985 0.048880 1.183083 0.027832 0.005278 166907.000000 0 0 1
31.311019 2.700298 12.926068 33.981683 0.086028 1.180586 0.032874 0.001045 -455348.000000 0 0 1
31.159059 3.846498 12.062468 33.633103 0.122826 1.203976 0.036501 -0.004920 230217.000000 0 0 1
31.904579 5.004398 12.447868 34.610628 0.155587 1.202899 0.035252 -0.006956 -4837.110000 0 0 1
33.363719 5.023298 11.978868 35.803136 0.149439 1.229641 0.035469 -0.001560 -252991.000000 0 0 1
34.219339 4.069498 12.627168 36.701081 0.118368 1.219565 0.034390 -0.005156 -129836.000000 0 0 1
35.541428 4.395198 12.270068 37.855851 0.123039 1.240709 0.033798 0.001501 247627.000000 0 0 1
-34.911106 3.372598 12.943768 37.385838 -0.096306 1.217256 0.058080 0.006422 -59463.500000 0 0 1
-35.009274 2.036598 12.384968 37.191188 -0.058108 1.231304 0.047037 0.007890 607428.000000 0 0 1
35.333429 1.240698 12.753268 37.585055 0.035100 1.224605 0.047197 0.015197 179918.000000 0 0 1
35.104729 0.954098 14.288668 37.913300 0.027172 1.184373 0.034436 0.024652 -207685.000000 0 0 1
-35.289972 0.259898 14.877168 38.298561 -0.007365 1.171845 0.037328 0.021092 223826.000000 0 0 1
-35.671566 -0.186102 16.172968 39.167080 0.005217 1.145136 0.047519 0.012033 -442971.000000 0 0 1
-34.624780 -1.030202 16.907668 38.546153 0.029745 1.116718 0.029539 0.011191 -628628.000000 0 0 1
-33.442169 -0.253202 16.973568 37.503930 0.007571 1.101139 0.027166 0.008175 176029.000000 0 0 1
-32.407599 -0.941702 17.694968 36.935771 0.029050 1.071197 0.032387 0.006171 246891.000000 0 0 1
-32.449579 -0.861902 19.257568 37.743502 0.026555 1.035353 0.023552 0.000954 -432212.000000 0 0 1
-33.395859 -1.731802 19.825368 38.875799 0.051810 1.035650 0.012433 0.002219 18397.000000 0 0 1
-33.436539 -1.555302 21.232268 39.638747 0.046482 1.005526 0.010670 -0.005226 167947.000000 0 0 1
-34.146808 -2.720802 21.951068 40.684845 0.079512 1.000907 0.011180 -0.007621 -121122.000000 0 0 1
-33.337599 -3.895802 21.938868 40.098462 0.116331 0.991871 0.010375 -0.005942 133288.000000 0 0 1
-33.666599 -5.019402 22.792968 40.965274 0.148001 0.980753 0.015003 -0.008950 -935720.000000 0 0 1
-33.808249 -4.835002 24.340508 41.938470 0.142049 0.951594 0.024854 -0.020757 -279663.000000 0 0 1
-32.674559 -4.443702 25.069258 41.422711 0.135170 0.920772 0.019024 -0.023413 -944504.000000 0 0 1
-32.859659 -4.440502 26.441048 42.409954 0.134322 0.897632 0.026604 -0.029394 -319600.000000 0 0 1
-31.751489 -3.742302 27.233538 41.997946 0.117321 0.865251 0.031162 -0.023124 -269561.000000 0 0 1
-31.626399 -2.291102 27.095268 41.708893 0.072316 0.863701 0.031124 -0.014234 3199.840000 0 0 1
-31.221169 -1.875402 25.767838 40.524807 0.059996 0.881683 0.033189 -0.018364 -227744.000000 0 0 1
-31.179919 -0.352202 25.618638 40.356238 0.011295 0.883031 0.038345 -0.017164 32900.200000 0 0 1
-32.470729 0.198798 25.457578 41.261071 -0.006122 0.905887 0.045118 -0.023165 664.094000 0 0 1
-32.441889 1.565598 25.025978 41.002766 -0.048221 0.914296 0.042091 -0.008860 -1011730.000000 0 0 1
-33.814859 2.107398 24.734038 41.948283 -0.062241 0.940194 0.049679 -0.011608 -954029.000000 0 0 1
-34.409208 1.484698 23.608068 41.755703 -0.043122 0.969896 0.044208 -0.000907 309778.000000 0 0 1
-35.496134 2.274898 23.088468 42.405519 -0.064001 0.995041 0.047846 0.009738 680015.000000 0 0 1
-35.058353 3.604898 22.323168 41.718188 -0.102466 1.006177 0.051041 0.009653 -95080.600000 0 0 1
-34.288430 3.417198 21.159468 40.436329 -0.099332 1.020102 0.054288 -0.009373 -308268.000000 0 0 1
-35.090208 3.216498 19.979868 40.507576 -0.091408 1.054988 0.062085 -0.003269 546623.000000 0 0 1
-34.326960 2.607498 18.740368 39.196181 -0.075815 1.072287 0.057446 -0.000159 275300.000000 0 0 1
-33.424229 3.367998 17.976068 38.100676 -0.100426 1.079460 0.065660 -0.003876 192932.000000 0 0 1
-32.965849 2.736398 16.781868 37.092670 -0.082817 1.101307 0.068785 0.006491 -476414.000000 0 0 1
-31.903419 3.478598 16.026568 35.871711 -0.108606 1.107640 0.069994 0.003017 -369320.000000 0 0 1
-32.399219 4.747898 15.599868 36.271308 -0.145508 1.126206 0.080727 -0.005402 481607.000000 0 0 1
-31.524079 5.275198 14.623968 35.149050 -0.165802 1.141693 0.074977 -0.005724 -75380.600000 0 0 1
-31.969699 6.721898 14.350468 35.681669 -0.207240 1.156899 0.084924 -0.019982 218058.000000 0 0 1
-31.400109 7.384598 13.192968 34.850445 -0.230980 1.182557 0.085947 -0.015640 168019.000000 0 0 1
-32.016829 8.616798 12.948068 35.594648 -0.262904 1.198490 0.072922 -0.023607 -254027.000000 0 0 1
-31.537649 9.234398 11.621668 34.856284 -0.284843 1.230871 0.070656 -0.015592 44709.200000 0 0 1
-31.897869 10.615398 11.621068 35.569790 -0.321264 1.237974 0.062405 -0.013871 -39923.100000 0 0 1
-31.152879 11.286498 10.679468 34.812899 -0.347585 1.259001 0.054393 -0.026269 -411772.000000 0 0 1
-31.326729 12.741998 10.887468 35.528290 -0.386308 1.259340 0.051433 -0.025686 5146.920000 0 0 1
-30.553509 13.471398 9.966168 34.847094 -0.415270 1.280750 0.052724 -0.025210 194718.000000 0 0 1
-30.327389 14.840698 10.439468 35.340902 -0.455091 1.270929 0.055946 -0.028942 36993.000000 0 0 1
-29.679759 15.740698 9.379168 34.880173 -0.487633 1.298549 0.053690 -0.024972 415773.000000 0 0 1
-28.320359 15.434198 9.071068 33.504350 -0.498986 1.296632 0.064059 -0.021386 447048.000000 0 0 1
-27.685439 16.371198 8.249068 33.204620 -0.534019 1.319736 0.045508 -0.017692 -100751.000000 0 0 1
-26.211729 16.633998 8.612268 32.216700 -0.565474 1.300182 0.048974 -0.014549 -217623.000000 0 0 1
-26.008379 17.239298 9.861068 32.724147 -0.585346 1.264700 0.048641 -0.018372 112225.000000 0 0 1
-26.226339 18.661998 9.892068 33.674085 -0.618452 1.272639 0.049022 -0.023190 -116101.000000 0 0 1
-26.299349 19.256898 11.333168 34.509775 -0.632024 1.236182 0.058205 -0.010039 64657.000000 0 0 1
-24.998609 19.214198 11.878768 33.693040 -0.655306 1.210493 0.055171 -0.009681 79387.400000 0 0 1
-24.935709 19.553498 13.214968 34.333136 -0.665005 1.175692 0.050841 -0.018382 -155049.000000 0 0 1
-25.446499 18.598298 14.331268 34.623781 -0.631151 1.144047 0.043156 -0.017625 -353483.000000 0 0 1
-24.634009 17.494198 14.581668 33.548568 -0.617515 1.121154 0.048956 -0.016792 -201138.000000 0 0 1
-25.118499 16.749798 15.685968 34.022703 -0.588116 1.091625 0.053155 -0.012812 -570263.000000 0 0 1
-24.117109 15.739498 16.202168 33.043562 -0.578220 1.058331 0.039642 -0.011505 88081.100000 0 0 1
-23.050109 16.298798 16.991868 32.949688 -0.615477 1.028982 0.027680 -0.015482 623031.000000 0 0 1
-22.018809 15.371998 17.333768 31.962255 -0.609470 0.997600 0.016298 -0.024297 168782.000000 0 0 1
-22.289309 14.250598 18.256268 32.143182 -0.568850 0.966763 0.029145 -0.015416 -741884.000000 0 0 1
-22.303509 14.623698 19.588168 33.090714 -0.580349 0.937316 0.025144 -0.012328 119149.000000 0 0 1
-22.489809 13.418898 20.335468 33.157044 -0.537964 0.910555 0.027970 -0.013361 -719446.000000 0 0 1
-22.358509 13.700298 21.865968 34.142666 -0.549746 0.875739 0.009872 -0.010415 614071.000000 0 0 1
-21.057309 13.946898 22.430368 33.779396 -0.584995 0.844607 0.011987 -0.006304 784055.000000 0 0 1
-20.569409 15.269998 22.146668 33.863672 -0.638596 0.857943 0.026290 0.002087 -121403.000000 0 0 1
-19.120309 15.506598 22.671668 33.467078 -0.681413 0.826531 0.041210 -0.006284 716375.000000 0 0 1
-18.048809 14.904798 21.982168 32.111185 -0.690279 0.816791 0.030719 -0.008292 -160145.000000 0 0 1
-17.667209 15.620998 20.843768 31.473934 -0.724006 0.846972 0.034896 -0.011787 -1843760.000000 0 0 1
-16.440009 14.920298 20.236568 30.040104 -0.736976 0.831657 0.032531 0.000922 212143.000000 0 0 1
-15.306209 14.723698 21.053568 29.905184 -0.766003 0.789767 0.036373 0.010145 69551.900000 0 0 1
-14.694509 15.936498 21.491168 30.524922 -0.825923 0.789707 0.032330 0.006942 -301175.000000 0 0 1
-13.491009 15.604598 22.491668 30.518616 -0.857914 0.742202 0.029361 0.008373 373679.000000 0 0 1
-12.401009 15.004198 21.875768 29.282421 -0.880103 0.727166 0.012366 0.035916 -465900.000000 0 0 1
-11.656709 14.238298 22.835568 29.326970 -0.884764 0.678278 0.028870 0.027055 367814.000000 0 0 1
-10.297009 13.707698 22.334768 28.156193 -0.926538 0.654676 0.017708 0.024413 -791473.000000 0 0 1
-9.870309 12.536598 22.963868 27.962985 -0.903835 0.607244 0.020746 0.017217 570289.000000 0 0 1
-8.604609 12.029498 22.539768 26.959029 -0.949881 0.580707 0.021279 0.022613 1524940.000000 0 0 1
-7.298709 12.865798 22.876168 27.241860 -1.054771 0.573986 0.023524 0.029302 106522.000000 0 0 1
-7.006809 13.743498 21.788668 26.696913 -1.099318 0.616081 0.018947 0.021942 12727.200000 0 0 1
-6.159709 14.843798 22.154268 27.369544 -1.177453 0.627582 0.025051 0.020489 -113982.000000 0 0 1
-6.830409 15.990698 22.930968 28.778224 -1.167107 0.648788 0.036357 0.001869 -411107.000000 0 0 1
-7.706409 16.757898 22.151268 28.825241 -1.139767 0.694353 0.008909 0.019509 -680120.000000 0 0 1
-7.137909 17.707198 21.287568 28.594670 -1.187614 0.731072 0.005729 0.019755 -528557.000000 0 0 1
-8.086209 18.108198 20.077768 28.220744 -1.150815 0.779231 -0.005020 0.026530 1551620.000000 0 0 1
-9.349909 18.746898 20.318268 29.183882 -1.108154 0.800685 0.003418 0.027681 974585.000000 0 0 1
-10.354109 17.877798 20.885268 29.377162 -1.045841 0.779969 0.004250 0.026657 278055.000000 0 0 1
-11.753309 18.557598 20.971668 30.369978 -1.006221 0.808562 0.009633 0.015736 108757.000000 0 0 1
-12.377009 18.648698 19.743768 29.845949 -0.984855 0.847949 0.008776 0.012268 318309.000000 0 0 1
-13.571909 19.445098 19.818368 30.904308 -0.961441 0.874629 0.017965 0.007219 756786.000000 0 0 1
-14.460209 19.474498 18.555368 30.539407 -0.932099 0.917776 0.018746 0.005958 -105562.000000 0 0 1
-15.350509 18.397898 18.392168 30.205837 -0.875451 0.916130 0.031131 0.004051 36435.900000 0 0 1
-16.008509 18.541298 17.132568 29.892758 -0.858576 0.960471 0.052820 -0.013961 -378427.000000 0 0 1
-16.846309 17.211398 16.861468 29.399650 -0.796117 0.959993 0.044468 -0.019739 1254780.000000 0 0 1
-17.962709 16.879098 17.713468 30.353415 -0.754307 0.947673 0.042143 -0.015073 368506.000000 0 0 1
-18.990409 17.809898 17.816068 31.547430 -0.753330 0.970679 0.044201 -0.018214 -942067.000000 0 0 1
33.995409 -10.238102 12.107997 37.511467 -0.292522 1.242130 0.025978 -0.005524 144742.000000 0 0 1
32.644029 -10.466602 11.742897 36.236418 -0.310273 1.240775 0.018798 -0.000347 291709.000000 0 0 1
32.020929 -11.500702 12.466597 36.235647 -0.344814 1.219578 0.029473 -0.002336 381499.000000 0 0 1
30.533879 -11.835202 12.170897 34.935949 -0.369779 1.214957 0.028681 -0.001789 71006.100000 0 0 1
29.596199 -10.865402 12.578797 33.944338 -0.351846 1.191172 0.031122 -0.001030 1433550.000000 0 0 1
28.227819 -11.274502 12.841997 32.997592 -0.379999 1.171055 0.034468 0.000703 1493530.000000 0 0 1
28.030789 -12.295002 14.021597 33.667453 -0.413354 1.141234 0.039857 -0.006141 -1063060.000000 0 0 1
28.341229 -11.575102 15.250997 34.202356 -0.387743 1.108611 0.051221 -0.011693 191459.000000 0 0 1
27.805509 -12.096802 16.431097 34.488547 -0.410353 1.074216 0.054494 -0.012558 -27950.300000 0 0 1
26.288249 -11.854702 16.627697 33.287930 -0.423644 1.047762 0.043155 -0.019773 86856.400000 0 0 1
25.946949 -10.500202 16.854797 32.673882 -0.384534 1.028798 0.024059 -0.024473 127096.000000 0 0 1
25.108849 -9.953402 15.822197 31.302818 -0.377408 1.040886 0.048733 -0.020634 225484.000000 0 0 1
24.846349 -8.494702 16.181897 30.844040 -0.329431 1.018509 0.078328 -0.019000 -241530.000000 0 0 1
25.930449 -7.644902 15.963697 31.395419 -0.286701 1.037387 0.057295 -0.016046 -303142.000000 0 0 1
25.613949 -6.377302 16.374197 31.062175 -0.244016 1.015562 0.070461 -0.021215 -31023.200000 0 0 1
26.907389 -5.544602 16.416997 32.004187 -0.203218 1.032162 0.059978 -0.013367 -41202.500000 0 0 1
27.311299 -5.205002 15.111197 31.644073 -0.188322 1.072948 0.063650 -0.005096 1332360.000000 0 0 1
28.598749 -4.508002 15.221497 32.709395 -0.156343 1.086760 0.058833 0.001319 1261610.000000 0 0 1
28.856699 -3.742302 13.977097 32.281158 -0.128966 1.123000 0.054078 0.005122 -267117.000000 0 0 1
29.271369 -4.419202 12.807997 32.255033 -0.149842 1.162458 0.037731 0.006792 400066.000000 0 0 1
29.590909 -3.527502 11.722897 32.023296 -0.118649 1.196010 0.039233 0.004085 -42822.400000 0 0 1
29.959879 -4.230402 10.373797 31.986033 -0.140275 1.240501 0.054738 0.001207 1160640.000000 0 0 1
31.309949 -4.743602 10.248397 33.284295 -0.150361 1.257806 0.041341 -0.003263 1174460.000000 0 0 1
31.391369 -5.617002 9.117197 33.167636 -0.177061 1.292329 0.049918 -0.013031 -655787.000000 0 0 1
32.678739 -6.379802 8.904697 34.465860 -0.192803 1.309469 0.043620 -0.012519 -869703.000000 0 0 1
33.808709 -5.598102 8.687297 35.353029 -0.164093 1.322524 0.047800 -0.013549 -811667.000000 0 0 1
34.947559 -6.336602 8.355097 36.486875 -0.179369 1.339757 0.051534 -0.031439 -886595.000000 0 0 1
-35.347762 -5.458202 8.120397 36.676929 0.153204 1.347543 0.054717 -0.030185 -915723.000000 0 0 1
-35.457757 -4.761802 6.882997 36.432169 0.133496 1.380728 0.057607 -0.030488 483943.000000 0 0 1
-34.295628 -3.938402 6.695297 35.164302 0.114336 1.379226 0.065034 -0.023021 347904.000000 0 0 1
-34.155495 -3.280802 5.308597 34.720926 0.095761 1.417301 0.070738 -0.029396 -334823.000000 0 0 1
-33.662299 -4.159302 4.333597 34.194009 0.122937 1.443719 0.072757 -0.030173 144697.000000 0 0 1
-33.783579 -3.505202 3.100397 34.106145 0.103385 1.479766 0.080250 -0.026461 -23133.700000 0 0 1
-33.123929 -4.257202 1.932597 33.452255 0.127823 1.512992 0.079582 -0.027739 65079.100000 0 0 1
-33.849419 -5.398802 1.491097 34.309672 0.158163 1.527323 0.069648 -0.015547 447513.000000 0 0 1
-34.926333 -5.126602 0.582297 35.305380 0.145743 1.554302 0.058310 -0.007513 -129961.000000 0 0 1
-34.564180 -5.084502 -0.869203 34.946963 0.146056 1.595671 0.074326 -0.007471 -1153430.000000 0 0 1
-34.273665 -6.348602 -1.383703 34.884144 0.183157 1.610472 0.073037 -0.014859 764941.000000 0 0 1
-33.311339 -6.334802 -2.476103 33.998619 0.187926 1.643690 0.060465 -0.013514 1420080.000000 0 0 1
-31.799279 -6.127802 -2.057703 32.449626 0.190369 1.634251 0.062924 -0.025520 422094.000000 0 0 1
-31.280849 -7.230002 -1.367803 32.134644 0.227143 1.613374 0.061099 -0.023745 -436320.000000 0 0 1
-30.119209 -6.788502 -0.724903 30.883264 0.221684 1.594271 0.060351 -0.032683 -493183.000000 0 0 1
-29.584629 -7.750902 0.379697 30.585469 0.256232 1.558382 0.045907 -0.027938 -126108.000000 0 0 1
-29.030279 -8.869402 -0.260203 30.356072 0.296516 1.579368 0.044079 -0.018680 274234.000000 0 0 1
-28.673629 -9.847902 0.708997 30.325910 0.330826 1.547415 0.038864 -0.012590 -199266.000000 0 0 1
-28.236329 -11.121202 -0.019803 30.347517 0.375203 1.571449 0.031077 -0.010738 188746.000000 0 0 1
-26.938109 -10.961902 -0.626503 29.089818 0.386465 1.592335 0.026161 -0.015709 1191580.000000 0 0 1
-26.366479 -12.256202 -1.054303 29.094969 0.435126 1.607041 0.030345 -0.010573 -46812.700000 0 0 1
-27.090599 -13.138002 -2.106303 30.181851 0.451548 1.640640 0.034475 -0.018778 -1214180.000000 0 0 1
-28.195009 -13.789502 -1.599503 31.427175 0.454870 1.621714 0.043624 -0.023492 -417918.000000 0 0 1
-28.491839 -14.810802 -2.493603 32.208117 0.479382 1.648295 0.044595 -0.024642 -204567.000000 0 0 1
-29.466939 -15.895802 -1.965903 33.538661 0.494704 1.629446 0.049633 -0.021386 129527.000000 0 0 1
-28.905499 -16.712302 -0.924803 33.401859 0.524214 1.598487 0.032063 -0.016737 -159845.000000 0 0 1
-29.857889 -17.311402 -0.111303 34.513628 0.525429 1.574021 0.035031 -0.012137 -449154.000000 0 0 1
-29.946559 -18.835802 -0.273603 35.378789 0.561457 1.578530 0.039874 -0.014947 53367.400000 0 0 1
-28.770259 -19.566402 0.061897 34.793329 0.597239 1.569017 0.050706 -0.020284 235225.000000 0 0 1
-28.851589 -21.031502 -0.038303 35.703497 0.629896 1.571869 0.053050 -0.019383 -298265.000000 0 0 1
-29.766479 -21.783502 0.914097 36.897152 0.631760 1.546020 0.048097 -0.016504 -661893.000000 0 0 1
-29.304449 -21.763602 2.208597 36.568880 0.638795 1.510364 0.044693 -0.018383 351927.000000 0 0 1
-30.290659 -22.321202 3.116197 37.755407 0.635065 1.488166 0.039906 -0.016569 631021.000000 0 0 1
-29.747089 -22.476802 4.589697 37.565426 0.647073 1.448312 0.027898 -0.015770 -133270.000000 0 0 1
-29.414859 -21.292702 5.286697 36.695534 0.626571 1.426224 0.014356 -0.018736 -208388.000000 0 0 1
-28.570209 -21.583302 6.376197 36.369653 0.646979 1.394569 0.016626 -0.017497 -17599.300000 0 0 1
-28.045969 -20.210802 6.862997 35.244200 0.624439 1.374817 0.016522 -0.012044 -221553.000000 0 0 1
-26.989909 -20.307302 7.768697 34.658251 0.645038 1.344724 0.022412 -0.017517 -631364.000000 0 0 1
-26.634279 -19.002202 8.119897 33.710551 0.619695 1.327533 0.026181 -0.017163 132253.000000 0 0 1
-25.529589 -18.909902 9.186197 33.071597 0.637526 1.289328 0.032531 -0.006223 220087.000000 0 0 1
-26.020989 -19.339002 10.472997 34.070112 0.639140 1.258342 0.031172 -0.013526 252421.000000 0 0 1
-24.988809 -19.467702 11.440597 33.679656 0.661840 1.224210 0.036709 0.007554 125214.000000 0 0 1
-24.776109 -18.281702 12.333997 33.169318 0.635697 1.189796 0.029028 -0.002638 -671082.000000 0 0 1
-23.914409 -17.296502 11.802997 31.786454 0.626171 1.190364 0.024835 -0.006320 15034.000000 0 0 1
-23.509009 -16.338202 12.788597 31.355359 0.607346 1.150687 0.023106 0.004720 205225.000000 0 0 1
-22.690909 -16.785902 14.011797 31.511495 0.636917 1.110005 0.029207 0.003925 -86169.400000 0 0 1
-23.536609 -17.463902 14.943797 32.897977 0.638354 1.099270 0.026315 -0.003350 339595.000000 0 0 1
-22.707909 -17.899102 16.001197 33.046411 0.667524 1.065343 0.036472 -0.004215 -421560.000000 0 0 1
-23.392209 -18.579602 17.214197 34.477901 0.671234 1.048026 0.026988 0.007894 -111068.000000 0 0 1
-24.241509 -17.633702 17.827597 34.877233 0.628891 1.034271 0.030393 0.004531 261552.000000 0 0 1
-25.244969 -18.294102 18.605097 36.306091 0.627087 1.032760 0.031164 0.010467 -30713.000000 0 0 1
-26.186949 -17.329702 19.351497 36.885706 0.584604 1.018511 0.034213 0.011894 -123390.000000 0 0 1
-25.616309 -16.671302 20.488297 36.795352 0.576943 0.980247 0.029542 0.009250 202010.000000 0 0 1
-26.458709 -15.645102 20.986797 37.219325 0.534000 0.971734 0.027920 0.004715 -31079.400000 0 0 1
-25.736959 -14.921502 22.155397 37.093179 0.525411 0.930678 0.034880 0.003957 60292.000000 0 0 1
-24.561809 -14.303202 21.701397 35.760518 0.527329 0.918700 0.042601 0.000072 -597783.000000 0 0 1
-23.749009 -13.914402 22.752997 35.711691 0.529983 0.880027 0.038008 0.001812 -609761.000000 0 0 1
-22.601209 -13.079602 22.206597 34.278617 0.524620 0.866068 0.029201 0.004851 -467889.000000 0 0 1
-23.000209 -11.768102 21.897797 33.867556 0.472926 0.867715 0.037101 0.003474 747798.000000 0 0 1
-21.926609 -11.116402 21.216497 32.472917 0.469218 0.858782 0.032130 0.003263 -76883.200000 0 0 1
-21.682609 -9.744802 21.944397 32.352021 0.422379 0.825349 0.041640 -0.001038 -82852.700000 0 0 1
-21.123809 -9.822102 23.221097 32.892375 0.435239 0.787002 0.048012 -0.006291 -96821.700000 0 0 1
-19.725009 -9.955502 23.213897 32.047980 0.467412 0.760708 0.036591 0.000158 -291835.000000 0 0 1
-19.061309 -10.095102 24.631697 32.740878 0.487056 0.719216 0.023873 -0.001813 179423.000000 0 0 1
-19.295509 -11.328802 25.339697 33.804714 0.530896 0.723353 0.019827 0.002417 -249607.000000 0 0 1
-18.528709 -11.459402 26.493697 34.300830 0.553888 0.688197 0.020373 0.005231 -817197.000000 0 0 1
-18.836609 -12.721702 27.275097 35.504795 0.594005 0.694758 0.021091 -0.013177 614863.000000 0 0 1
-20.072609 -12.694902 27.974897 36.696935 0.563938 0.703902 0.032252 -0.008303 532077.000000 0 0 1
-21.248509 -13.121202 27.291097 36.992824 0.553196 0.741079 0.030909 -0.001793 1278240.000000 0 0 1
-22.461809 -13.519302 28.242097 38.534665 0.541800 0.748220 0.040868 -0.001818 788371.000000 0 0 1
-22.284309 -14.768402 28.947297 39.403580 0.585270 0.745666 0.026098 -0.002501 -31269.800000 0 0 1
-21.360109 -14.752102 30.023997 39.690291 0.604415 0.712917 0.014349 -0.003732 154637.000000 0 0 1
-21.756209 -15.775902 31.115397 41.114227 0.627388 0.712387 0.009363 -0.009996 -464356.000000 0 0 1
-21.530909 -17.149702 30.878697 41.366487 0.672613 0.728060 0.014303 -0.010876 -138018.000000 0 0 1
-21.869109 -18.034602 31.939297 42.703905 0.689598 0.725867 0.016841 -0.006339 682954.000000 0 0 1
-23.367009 -18.092102 32.429197 43.874755 0.658847 0.739017 0.023054 -0.007127 785002.000000 0 0 1
-23.797909 -17.102802 33.382497 44.421137 0.623145 0.720463 0.027508 -0.011616 -412797.000000 0 0 1
-25.165759 -17.248002 33.666897 45.434227 0.600843 0.736234 0.028619 -0.020313 -354078.000000 0 0 1
-25.738419 -15.986202 -34.341073 45.796661 0.555792 2.418646 0.031944 -0.017679 -107645.000000 0 0 1
-25.310599 -15.774902 -32.985673 44.469412 0.557342 2.406489 0.033787 -0.020844 -6439.410000 0 0 1
-25.956429 -14.659702 -32.412673 44.036626 0.514121 2.397997 0.035533 -0.024687 -804961.000000 0 0 1
-25.465849 -14.412302 -30.994973 42.625254 0.515004 2.384958 0.025134 -0.012918 -277242.000000 0 0 1
-25.815499 -15.356502 -30.011773 42.461379 0.536628 2.355763 0.031298 -0.009458 243865.000000 0 0 1
-25.103279 -15.049502 -28.806173 41.066504 0.540054 2.348229 0.045484 -0.010916 -163586.000000 0 0 1
-25.413449 -15.886802 -27.513373 40.684390 0.558695 2.313475 0.037195 -0.011907 34174.500000 0 0 1
-26.650049 -15.696302 -26.836773 40.948888 0.532276 2.285472 0.051227 -0.013117 540972.000000 0 0 1
-26.980329 -14.439502 -26.262773 40.325806 0.491399 2.280046 0.046445 -0.007324 -124851.000000 0 0 1
-26.180139 -14.336502 -24.912773 38.879059 0.501006 2.266305 0.047726 -0.018969 -287223.000000 0 0 1
-24.887709 -13.805102 -25.030473 37.901233 0.506441 2.292165 0.048505 -0.023643 201101.000000 0 0 1
-23.963909 -14.285802 -24.075673 36.850931 0.537575 2.282766 0.052642 -0.026700 209608.000000 0 0 1
-23.292909 -15.681002 -24.219373 37.081417 0.592518 2.282521 0.049759 -0.020229 -455715.000000 0 0 1
-22.331809 -15.857402 -25.242473 37.247139 0.617460 2.315430 0.040140 -0.014894 314311.000000 0 0 1
-21.993009 -17.211102 -25.395373 37.747046 0.664023 2.308753 0.039808 -0.015566 -19320.300000 0 0 1
-21.136809 -17.491102 -26.671973 38.263527 0.691297 2.342085 0.030409 -0.005599 159835.000000 0 0 1
-21.851709 -17.465902 -27.886373 39.499427 0.674309 2.354623 0.031128 -0.006844 -6211.340000 0 0 1
-22.739409 -18.545102 -28.054873 40.596520 0.684150 2.333759 0.039320 -0.013778 -328420.000000 0 0 1
-23.449609 -18.416802 -29.425073 41.891499 0.665761 2.349576 0.031704 -0.014032 -583655.000000 0 0 1
-22.662809 -18.707302 -30.506273 42.357983 0.690075 2.374889 0.024196 -0.005448 -208386.000000 0 0 1
-23.301809 -18.257502 -31.677273 43.356203 0.664613 2.390038 0.019534 -0.008864 -599456.000000 0 0 1
-22.570009 -18.686802 -32.944473 44.090137 0.691552 2.414646 0.017242 -0.010192 -1038400.000000 0 0 1
-21.363509 -18.005502 -33.102073 43.316797 0.700308 2.440574 0.010540 -0.004019 753183.000000 0 0 1
-20.138809 -18.677902 -32.667473 42.680200 0.747780 2.442461 0.015267 -0.002596 1140580.000000 0 0 1
-19.728309 -19.915302 -33.542373 43.714028 0.790115 2.445438 0.021273 -0.005506 -598575.000000 0 0 1
-18.989709 -19.614202 33.993097 43.598814 0.801574 0.676643 0.023779 -0.010189 314134.000000 0 0 1
-18.955509 -20.631302 33.024697 43.308112 0.827705 0.703547 0.019893 -0.012029 -1018130.000000 0 0 1
-20.213209 -20.924202 32.221597 43.412295 0.802680 0.734415 0.016515 -0.011060 -422401.000000 0 0 1
-21.137209 -21.687502 33.005297 44.793738 0.798247 0.742429 0.014764 -0.007845 134684.000000 0 0 1
-22.261009 -22.213502 32.318797 45.094310 0.784330 0.771747 0.020010 0.002937 -78426.900000 0 0 1
-22.038209 -23.487202 31.441297 45.009849 0.817216 0.797438 0.018947 0.013815 -445681.000000 0 0 1
-21.780709 -24.660202 32.192697 46.031452 0.847322 0.796290 0.020278 0.016423 9135.500000 0 0 1
-21.798709 -25.801472 31.404297 46.120815 0.869292 0.821787 0.031635 0.021111 -75115.500000 0 0 1
-21.141609 -27.074742 32.029097 46.966715 0.907835 0.820367 0.037796 0.011086 -1160430.000000 0 0 1
-21.885009 -27.592162 33.088597 48.323248 0.900240 0.816557 0.029463 0.007306 -377499.000000 0 0 1
-21.325109 -28.700642 33.796797 49.200718 0.931778 0.813558 0.034780 -0.003738 -870766.000000 0 0 1
-22.312609 -29.530792 -34.065673 50.302985 0.923739 2.314760 0.026641 -0.004733 -578211.000000 0 0 1
-23.277209 -30.200842 33.872697 51.002734 0.914149 0.844460 0.023185 -0.002827 334767.000000 0 0 1
-24.425709 -29.415222 33.600297 50.900398 0.877806 0.849820 0.018909 -0.003232 -759773.000000 0 0 1
-25.475459 -29.221872 -34.049073 51.597056 0.853785 2.291487 0.018178 0.002736 -149512.000000 0 0 1
-26.564149 -28.403542 34.199497 51.788230 0.818849 0.849482 0.018946 0.007149 38435.600000 0 0 1
-27.604809 -28.330452 -33.658173 51.937584 0.798370 2.275818 0.023313 0.009152 -422695.000000 0 0 1
-28.773069 -27.399562 -34.076773 52.343595 0.760952 2.279725 0.014727 0.007839 181125.000000 0 0 1
-29.698739 -27.894952 33.720897 52.888962 0.754089 0.879445 0.006165 0.005541 -617130.000000 0 0 1
-30.664599 -26.920502 33.538597 52.819206 0.720471 0.882827 0.013158 -0.001580 -655936.000000 0 0 1
