# x y z rho theta phi s1 s2 stress_xx np intf bulk
-0.704137 -10.633535 -14.326537 17.855462 1.504674 2.502038 0.000333 0.007691 584639.000000 1 0 0
2.195863 -13.413635 -13.074637 18.859839 -1.408532 2.336789 0.007556 0.013886 -3507.580000 1 0 0
2.235063 -11.044035 -14.628737 18.465269 -1.371116 2.485251 0.001776 0.007603 1388060.000000 1 0 0
-5.557237 -6.245035 -16.648137 18.629112 0.843609 2.676238 0.012691 -0.002890 -640399.000000 1 0 0
4.510363 -14.210435 -11.436937 18.790512 -1.263456 2.225161 -0.003842 0.012469 2609050.000000 1 0 0
14.129163 -10.591435 -7.932737 19.358204 -0.643255 1.993017 0.049823 -0.007727 961042.000000 1 0 0
7.197463 10.954865 -10.816537 16.994412 0.989509 2.260717 0.018243 -0.004257 -602032.000000 1 0 0
5.744663 -4.164535 -12.464737 14.342739 -0.627269 2.624100 0.000709 -0.000656 2442420.000000 1 0 0
13.745163 0.549865 -9.953737 16.979657 0.039983 2.197176 0.017741 -0.009073 189164.000000 1 0 0
14.260063 5.124965 -10.339437 18.344444 0.345018 2.169567 0.012431 -0.004189 294355.000000 1 0 0
4.204563 4.354765 -13.540437 14.831917 0.802945 2.721192 0.011192 -0.002902 2718740.000000 1 0 0
10.279663 -4.940835 -13.635637 17.776780 -0.448041 2.445023 0.020057 -0.006971 -158512.000000 1 0 0
2.646063 -7.503035 -11.981037 14.382018 -1.231749 2.555407 -0.000366 0.002148 967353.000000 1 0 0
-5.538537 -2.049935 -15.127237 16.239179 0.354487 2.769386 0.008933 -0.007385 -61653.800000 1 0 0
10.791363 0.120365 -9.657237 14.482066 0.011153 2.300758 0.013478 -0.008411 826612.000000 1 0 0
-1.540037 -9.452335 -16.971237 19.486950 1.409289 2.627832 0.008793 -0.001529 913240.000000 1 0 0
8.726263 1.776065 -17.856437 19.953807 0.200788 2.678978 0.023962 -0.011076 -136855.000000 1 0 0
16.539063 -5.922735 -8.755437 19.628476 -0.343878 2.033152 0.060014 -0.009177 -436173.000000 1 0 0
10.165663 7.587465 -9.901837 16.092132 0.641181 2.233590 0.014297 -0.000236 1019510.000000 1 0 0
13.855663 -2.226735 -10.495337 17.523979 -0.159347 2.212939 0.036115 -0.012704 -1706960.000000 1 0 0
7.233963 -1.819035 -13.567237 15.482540 -0.246350 2.638909 0.011682 -0.006791 72520.500000 1 0 0
-2.739537 6.641765 -13.730437 15.496549 -1.179585 2.659511 0.005411 -0.007230 1356140.000000 1 0 0
11.450863 1.725165 -13.755937 17.981220 0.149534 2.441864 0.021356 -0.009463 296788.000000 1 0 0
-2.348837 10.702865 -12.908037 16.931798 -1.354762 2.437740 0.006462 -0.004708 142536.000000 1 0 0
2.912563 -1.032935 -15.173437 15.484934 -0.340810 2.940675 0.010903 -0.007726 896015.000000 1 0 0
-8.907337 0.583265 -15.270237 17.687877 -0.065388 2.612601 0.007586 -0.001670 -1147920.000000 1 0 0
2.472163 -1.732635 -17.969837 18.221654 -0.611301 2.975150 0.017592 -0.015574 939033.000000 1 0 0
1.099063 7.865565 -13.188837 15.395470 1.431964 2.599576 0.008526 -0.004447 612776.000000 1 0 0
9.422063 -9.074935 -9.752537 16.316914 -0.766634 2.211419 0.019546 -0.000395 -1464840.000000 1 0 0
4.002163 7.343365 -13.592037 15.958878 1.071797 2.590001 0.012227 -0.002305 953131.000000 1 0 0
-2.655037 9.107665 -15.472337 18.149160 -1.287140 2.591565 0.004923 -0.005907 357015.000000 1 0 0
5.602663 -7.558735 -15.177937 17.857606 -0.932940 2.586672 -0.000141 0.002398 964127.000000 1 0 0
4.322263 7.229665 -16.431837 18.464975 1.031958 2.667905 0.022078 0.000209 1201850.000000 1 0 0
-0.125237 5.111365 -13.413037 14.354487 -1.546300 2.777407 0.007536 -0.008808 3413980.000000 1 0 0
8.901563 4.362865 -16.654337 19.381418 0.455715 2.604684 0.024533 -0.001876 -620252.000000 1 0 0
5.376363 0.276065 -14.276637 15.257911 0.051303 2.780999 0.010285 -0.001916 -136312.000000 1 0 0
6.283163 8.086165 -11.572837 15.452986 0.910222 2.417206 0.008681 0.000478 1594800.000000 1 0 0
2.805563 -8.209835 -15.001437 17.329619 -1.241506 2.617250 -0.000563 -0.001221 1024970.000000 1 0 0
4.013063 11.514065 -13.785137 18.404032 1.235427 2.417390 0.026532 -0.009356 -1958750.000000 1 0 0
0.601263 -4.472035 -13.732137 14.454487 -1.437148 2.824115 0.010648 -0.001958 587180.000000 1 0 0
8.537163 -0.014435 -11.638837 14.434192 -0.001691 2.508731 0.005102 -0.006754 2070260.000000 1 0 0
-0.923837 -5.065535 -16.255837 17.051843 1.390402 2.834838 0.009308 -0.011477 1456240.000000 1 0 0
4.568263 0.998365 -11.662437 12.564959 0.215161 2.760265 0.005939 -0.007822 -616107.000000 1 0 0
-2.923337 -7.124035 -15.721837 17.506397 1.181401 2.686141 0.009880 -0.000177 2530560.000000 1 0 0
11.421463 -3.698235 -11.282437 16.474834 -0.313143 2.325165 0.021104 -0.009007 460104.000000 1 0 0
6.545363 -7.018035 -12.411437 15.688797 -0.820233 2.483405 0.001187 0.005150 -1692710.000000 1 0 0
3.476663 -4.005035 -14.569937 15.505178 -0.855903 2.792496 0.009222 -0.004261 3411400.000000 1 0 0
-0.515637 -1.535735 -18.236737 18.308548 1.246864 3.052994 0.017262 -0.018960 1124800.000000 1 0 0
14.966763 2.915965 -8.399237 17.408447 0.192419 2.074281 0.011590 -0.004847 -1694110.000000 1 0 0
7.097463 4.326765 -14.353537 16.586709 0.547464 2.616672 0.016465 -0.000650 2507180.000000 1 0 0
10.018063 -9.604035 -14.060937 19.756240 -0.764301 2.362742 0.033886 -0.004819 -945162.000000 1 0 0
8.963763 -3.114935 -15.441137 18.124033 -0.334449 2.590533 0.023622 -0.014863 -825967.000000 1 0 0
-5.096937 -2.111935 -18.016637 18.842459 0.392819 2.844434 -0.004041 -0.004282 -428343.000000 1 0 0
5.042163 -9.159935 -11.090337 15.242158 -1.067601 2.385627 -0.008753 0.009696 2483900.000000 1 0 0
-2.398137 3.947865 -17.056837 17.671231 -1.024916 2.877126 0.005638 -0.004286 1703810.000000 1 0 0
9.578563 9.378665 -14.541837 19.778101 0.774854 2.396831 0.041309 -0.003294 -1007080.000000 1 0 0
9.856563 10.007865 -11.679137 18.267771 0.793015 2.264423 0.023037 -0.001503 -296261.000000 1 0 0
12.036763 -5.902135 -9.588937 16.482311 -0.455892 2.191701 0.031779 -0.007006 452876.000000 1 0 0
8.205663 6.986665 -13.694537 17.426610 0.705332 2.474850 0.022320 0.001924 -628434.000000 1 0 0
4.071763 -4.128235 -17.451037 18.389135 -0.792285 2.820802 0.023438 -0.014763 821589.000000 1 0 0
9.354163 -7.448935 -12.252637 17.120576 -0.672495 2.368375 0.023251 -0.006664 -278027.000000 1 0 0
12.094063 -8.649135 -8.785337 17.270091 -0.620825 2.104473 0.038111 -0.004221 -309238.000000 1 0 0
-2.928137 -2.498535 -13.859837 14.384427 0.706398 2.870694 0.008823 -0.006844 -1938720.000000 1 0 0
-0.351137 6.101965 -17.606837 18.637543 -1.513315 2.807467 0.015869 -0.004197 1082320.000000 1 0 0
1.162263 -8.339535 -17.501637 19.421792 -1.432320 2.693174 0.011146 -0.006299 1917980.000000 1 0 0
0.131863 8.536165 -15.946637 18.088083 1.555350 2.650059 0.010980 -0.001774 -628546.000000 1 0 0
1.841463 3.412865 -14.992637 15.486052 1.076000 2.888482 0.013886 -0.003370 2705200.000000 1 0 0
-1.911437 -0.455535 -15.698437 15.820937 0.233956 3.017071 0.013272 -0.011537 2028110.000000 1 0 0
14.223663 -4.266935 -8.388437 17.055357 -0.291446 2.084993 0.040583 -0.008306 -296675.000000 1 0 0
0.649163 0.698665 -14.520437 14.551723 0.822109 3.076007 0.007284 -0.007127 1774760.000000 1 0 0
9.034763 2.745665 -12.527337 15.687568 0.295031 2.495682 0.008569 -0.003690 1716050.000000 1 0 0
5.916663 1.058265 -17.082437 18.109017 0.176990 2.803265 0.025252 -0.000142 1176650.000000 1 0 0
15.455163 1.645365 -12.225437 19.774494 0.106061 2.237301 0.029323 -0.017082 251425.000000 1 0 0
8.888263 -11.265235 -11.875337 18.626067 -0.902799 2.262130 0.021636 0.001734 869134.000000 1 0 0
-4.606437 0.768665 -15.093937 15.799907 -0.165344 2.841531 0.015046 -0.008419 813639.000000 1 0 0
2.366163 5.146265 -17.276037 18.180876 1.139837 2.824774 0.020133 -0.002298 1818590.000000 1 0 0
5.966763 -11.793435 -12.260137 18.027710 -1.102409 2.318657 -0.000679 0.007893 249360.000000 1 0 0
12.870563 7.235065 -8.665637 17.119896 0.512116 2.101538 0.010688 0.001636 -618126.000000 1 0 0
-5.030337 3.613765 -15.715937 16.892432 -0.622965 2.766173 0.009098 -0.007012 2373030.000000 1 0 0
-0.491237 -4.376635 -19.021437 19.524634 1.459023 2.914067 0.014175 -0.017324 -1486420.000000 1 0 0
9.935663 4.473165 -10.215037 14.935648 0.423031 2.323941 0.008518 0.001121 253550.000000 1 0 0
13.469263 3.632265 -12.795637 18.929943 0.263405 2.313045 0.013114 -0.012263 -914384.000000 1 0 0
-6.128137 5.980765 -17.034237 19.065384 -0.773228 2.675796 0.001087 -0.001197 -1397750.000000 1 0 0
-10.066737 3.270365 -15.429337 18.710931 -0.314113 2.540320 0.009429 -0.000171 -264279.000000 1 0 0
10.705963 13.609565 -8.424737 19.256534 0.904249 2.023613 0.026513 -0.007557 -1164130.000000 1 0 0
7.494463 13.463965 -12.364637 19.756761 1.062876 2.247009 0.031569 -0.012002 1423230.000000 1 0 0
5.257563 15.165465 -11.170337 19.555300 1.237082 2.178785 0.023026 -0.017762 304936.000000 1 0 0
14.207163 9.594365 -9.745037 19.719561 0.593969 2.087689 0.042670 -0.007498 -184288.000000 1 0 0
8.439263 -17.278635 -1.893237 19.322441 -1.116454 1.668935 0.033832 -0.007013 -150906.000000 1 0 0
0.690163 -16.019735 -0.050337 16.034673 -1.527741 1.573936 0.008881 -0.009417 2262460.000000 1 0 0
-9.110537 -11.629435 7.561663 16.595915 0.906258 1.097712 0.018290 -0.009259 2037400.000000 1 0 0
2.126063 -15.946735 -2.612837 16.298632 -1.438255 1.731801 0.012899 -0.008909 1818560.000000 1 0 0
-1.187637 -11.025035 -9.499137 14.601215 1.463488 2.279133 0.006431 0.003662 421088.000000 1 0 0
-4.741337 -12.633635 -12.955037 18.706202 1.211767 2.335819 0.016340 0.003087 811546.000000 1 0 0
-8.404037 -17.879135 -1.727837 19.831206 1.131397 1.658034 0.013843 -0.014467 -1379780.000000 1 0 0
-11.347237 -6.982035 -8.942537 16.046108 0.551599 2.161930 0.011972 -0.003329 3190570.000000 1 0 0
-13.503437 -11.535835 -4.732137 18.379647 0.706979 1.831195 0.010488 -0.011562 -795868.000000 1 0 0
-5.813137 -13.510335 9.777363 17.661215 1.164468 0.984108 0.007643 -0.008312 356354.000000 1 0 0
0.188563 -14.011735 -3.649937 14.480549 -1.557340 1.825603 0.010386 -0.003742 -695116.000000 1 0 0
-14.878037 -11.518235 1.834563 18.904797 0.658796 1.473601 0.022037 -0.000130 580736.000000 1 0 0
-4.010737 -16.506235 -7.549037 18.588431 1.332433 1.988995 0.012958 -0.006194 1455710.000000 1 0 0
0.520063 -15.325235 -9.225337 17.895254 -1.536874 2.112409 0.011718 0.002969 -91893.200000 1 0 0
4.618163 -14.288235 -2.652137 15.248440 -1.258180 1.745614 0.007340 0.000454 -250836.000000 1 0 0
-3.608837 -18.084135 -2.374137 18.592906 1.373826 1.698836 0.005140 -0.016545 1288970.000000 1 0 0
-0.913037 -13.482335 0.651863 13.528929 1.503179 1.522595 0.012352 -0.005288 3154290.000000 1 0 0
-8.465937 -11.265535 -10.631237 17.652410 0.926342 2.217118 0.003640 0.000284 2720780.000000 1 0 0
-3.716937 -14.107735 -0.484937 14.597224 1.313183 1.604024 0.006697 -0.005369 4181470.000000 1 0 0
-1.559637 -14.964635 -7.307737 16.726499 1.466950 2.022941 0.004345 -0.001356 541604.000000 1 0 0
-14.164737 -8.031735 -1.849437 16.388074 0.515819 1.683890 0.005275 -0.006665 1850880.000000 1 0 0
-10.768337 -7.238335 -11.781437 17.525776 0.591815 2.308020 0.015865 0.004351 -553036.000000 1 0 0
-9.497537 -14.650535 6.798363 18.736571 0.995637 1.199483 0.010254 -0.006443 -177141.000000 1 0 0
-2.388337 -14.202335 -12.351037 18.972574 1.404190 2.279690 0.023572 0.001586 -428682.000000 1 0 0
2.334763 -17.903135 -4.766337 18.673278 -1.441117 1.828902 0.021061 -0.008212 1073480.000000 1 0 0
-6.562937 -9.631535 -9.256737 14.883742 0.972662 2.242009 0.009916 -0.001624 957093.000000 1 0 0
-10.954337 -15.302035 0.484663 18.825107 0.949496 1.545048 0.012612 -0.013119 -281726.000000 1 0 0
-12.710737 -11.031335 3.974363 17.293026 0.714780 1.338899 0.021971 -0.001860 1991370.000000 1 0 0
-17.047937 -8.919635 -1.699037 19.315247 0.482042 1.658874 0.011377 -0.010319 -511674.000000 1 0 0
-1.425737 -19.223835 -3.872637 19.661787 1.496767 1.769055 0.022692 -0.014307 566504.000000 1 0 0
3.237763 -14.279335 -8.754137 17.059233 -1.347822 2.109660 0.002535 0.007897 61165.200000 1 0 0
-4.402537 -8.016235 -13.132337 16.003144 1.068566 2.533274 0.013684 0.001206 2903290.000000 1 0 0
5.572363 -16.577235 1.178663 17.528411 -1.246517 1.503503 0.025436 -0.005688 4758850.000000 1 0 0
-2.786637 -13.841135 -3.274437 14.493595 1.372122 1.798687 0.008450 -0.003508 -808346.000000 1 0 0
-0.416737 -14.041235 3.612563 14.504501 1.541126 1.319082 0.008904 -0.001285 -2949570.000000 1 0 0
1.167063 -16.201935 7.051263 17.708332 -1.498888 1.161255 0.019842 -0.007650 2069580.000000 1 0 0
-5.443437 -10.388035 -14.742737 18.838540 1.088125 2.469602 0.018205 0.003435 -1036810.000000 1 0 0
-0.334837 -17.300335 -5.851237 18.266107 1.551444 1.896877 0.019348 -0.007895 -818618.000000 1 0 0
-6.594837 -13.505935 -1.286737 15.085020 1.116559 1.656199 0.002393 -0.004891 4026420.000000 1 0 0
-1.723137 -17.728135 -0.209437 17.812912 1.473903 1.582554 0.010501 -0.012261 1491080.000000 1 0 0
-9.445637 -9.828635 -4.936437 14.497949 0.805266 1.918237 0.010197 -0.006214 1642150.000000 1 0 0
-0.798437 -16.757635 4.832663 17.458821 1.523186 1.290330 0.018309 -0.005565 2211260.000000 1 0 0
-6.756037 -9.831635 -6.356437 13.517003 0.968731 2.060376 0.013516 -0.004754 1846650.000000 1 0 0
-6.062137 -14.555535 -8.653837 17.986161 1.176161 2.072749 0.012340 -0.008102 519072.000000 1 0 0
-5.759737 -12.209835 -10.301637 16.981707 1.130020 2.222613 0.008395 -0.002446 445015.000000 1 0 0
-10.646937 -12.180435 -8.801737 18.417134 0.852475 2.069070 0.006639 -0.015104 -1161610.000000 1 0 0
3.957563 -17.224835 6.679363 18.893679 -1.344957 1.209461 0.027078 -0.002381 1055070.000000 1 0 0
-6.594637 -14.298935 -4.204237 16.297987 1.138669 1.831707 0.005351 -0.014493 -2314320.000000 1 0 0
-2.790437 -12.237535 -7.187337 14.463803 1.346607 2.090841 0.007905 -0.002079 2165470.000000 1 0 0
-7.087537 -12.860135 4.408363 15.331337 1.067090 1.279140 0.005931 -0.003541 508299.000000 1 0 0
2.580263 -16.472935 2.285563 16.829710 -1.415422 1.434570 0.009900 -0.004758 3203220.000000 1 0 0
-6.212137 -12.064635 7.224263 15.373224 1.095296 1.081590 0.007075 -0.002664 1843690.000000 1 0 0
-11.196637 -12.900835 -0.953437 17.108631 0.856002 1.626554 0.013188 -0.008248 912006.000000 1 0 0
-14.362037 -8.704235 4.525163 17.392783 0.544862 1.307593 0.022633 -0.002374 973523.000000 1 0 0
-7.903337 -15.627435 4.480163 18.076264 1.102571 1.320338 0.009496 -0.000375 1427100.000000 1 0 0
-16.581637 -9.138835 1.116363 18.966161 0.503719 1.511902 0.005659 0.002057 -1323080.000000 1 0 0
-6.493737 -17.183335 2.403963 18.526053 1.209478 1.440668 0.001651 -0.001453 672701.000000 1 0 0
-11.467737 -14.912835 -4.662937 19.381553 0.915256 1.813766 0.014330 -0.018063 495258.000000 1 0 0
-10.013237 -9.867335 -12.751337 18.979616 0.778059 2.307492 -0.008271 0.013806 218226.000000 1 0 0
-4.337537 -16.059635 -4.522437 17.238867 1.307001 1.836242 0.004357 -0.010664 -340101.000000 1 0 0
-11.811337 -8.291335 0.036663 14.431052 0.612054 1.568256 0.001906 -0.001173 1621150.000000 1 0 0
-9.697037 -11.267435 3.477263 15.266924 0.860166 1.341015 0.010588 -0.000365 2813130.000000 1 0 0
-14.133837 -12.939135 -0.670637 19.173844 0.741298 1.605780 0.014884 -0.008120 1406580.000000 1 0 0
5.641763 -14.955035 -7.254937 17.553252 -1.210056 1.996883 0.007987 0.003046 -613902.000000 1 0 0
-7.485537 -10.643935 -1.230937 13.070647 0.957881 1.665112 0.001874 -0.002389 956240.000000 1 0 0
-11.590237 -8.174835 -6.130137 15.451217 0.614288 1.978760 0.011669 -0.008292 431958.000000 1 0 0
-14.289037 -6.451635 -9.236737 18.196634 0.424108 2.103201 0.028516 -0.015072 487936.000000 1 0 0
-3.855337 -16.353435 1.419063 16.861559 1.339273 1.486537 0.005421 -0.012979 1177320.000000 1 0 0
-8.000437 -15.749935 0.203763 17.666606 1.100796 1.559262 0.013548 -0.008944 2892670.000000 1 0 0
1.073763 -18.633535 3.616763 19.011642 -1.513235 1.379390 0.012189 -0.009604 1645530.000000 1 0 0
-14.120537 -8.765235 -4.711437 17.274737 0.555533 1.847032 0.013422 -0.014362 -226256.000000 1 0 0
-3.367237 -14.464035 11.186163 18.592386 1.342070 0.925228 0.003554 -0.014418 795494.000000 1 0 0
-10.821137 -12.147635 -3.795637 16.705355 0.843086 1.800009 0.009980 -0.012724 1567980.000000 1 0 0
-9.980137 -10.720435 0.543863 14.656966 0.821145 1.533682 0.009096 -0.001016 766256.000000 1 0 0
0.084063 -13.229835 -11.176737 17.319210 -1.564442 2.272261 0.014734 0.005278 391283.000000 1 0 0
-5.785237 -12.608035 -6.372937 15.265839 1.140605 2.001449 0.006031 -0.009797 1027300.000000 1 0 0
1.741363 -15.928335 9.922363 18.846683 -1.461904 1.016344 0.028547 -0.011652 866924.000000 1 0 0
-8.861037 -15.502535 -5.607037 18.715914 1.051531 1.875056 0.014959 -0.020226 -1681910.000000 1 0 0
-3.290537 -15.466335 5.921463 16.884871 1.361167 1.212482 0.003025 -0.001986 -1264010.000000 1 0 0
-17.506737 -5.472935 -6.683737 19.522070 0.302993 1.920233 0.030509 -0.015341 -103427.000000 1 0 0
18.927563 5.668665 -2.893137 19.968892 0.290991 1.716190 0.029795 0.004305 -88400.400000 1 0 0
12.844163 -12.475835 -5.962837 18.872583 -0.770852 1.892257 0.038820 -0.000676 171831.000000 1 0 0
11.060963 -13.547335 -1.598037 17.562144 -0.886094 1.661916 0.032931 0.000246 2012230.000000 1 0 0
18.583463 -2.884635 4.800563 19.409060 -0.153997 1.320866 0.045627 -0.010215 -269188.000000 1 0 0
8.550463 -16.970435 5.096963 19.674478 -1.104078 1.308743 0.033041 -0.013547 -1014860.000000 1 0 0
18.072463 -0.914335 6.816963 19.337035 -0.050550 1.210519 0.066064 -0.015380 -672967.000000 1 0 0
17.989263 -4.143935 -4.788437 19.071311 -0.226406 1.824593 0.051103 -0.015958 -1802580.000000 1 0 0
5.684863 -11.732135 14.730263 19.670823 -1.119581 0.724489 0.024314 0.001045 -10916.600000 1 0 0
15.992863 -8.896335 -0.743137 18.315804 -0.507644 1.611381 0.024085 -0.003116 258161.000000 1 0 0
13.957963 -12.694735 -1.365137 18.916781 -0.738038 1.643025 0.027948 0.006464 -100687.000000 1 0 0
11.149563 -1.915835 13.929363 17.944646 -0.170169 0.682116 0.018103 -0.009436 -184384.000000 1 0 0
17.021863 -6.127835 -1.248637 18.134312 -0.345554 1.639706 0.033837 -0.005230 -664503.000000 1 0 0
17.757763 3.753065 -1.060137 18.180966 0.208283 1.629140 0.025167 0.005007 131671.000000 1 0 0
9.681063 -11.062335 9.551663 17.530901 -0.851889 0.994589 0.014826 -0.001184 -39550.800000 1 0 0
9.072163 -11.067235 4.267163 14.933067 -0.884139 1.281005 0.005420 -0.001538 -386917.000000 1 0 0
14.046463 -10.195935 6.949163 18.696285 -0.627880 1.189971 0.033022 -0.007554 439106.000000 1 0 0
16.247363 -0.588335 -4.851637 16.966476 -0.036195 1.860799 0.022566 -0.004022 -1838070.000000 1 0 0
15.851563 -0.430235 -1.812437 15.960641 -0.027135 1.684598 0.020867 0.001582 3193690.000000 1 0 0
12.956463 -5.135335 -0.276137 13.939794 -0.377359 1.590607 0.012485 -0.002583 1385220.000000 1 0 0
14.283763 -7.529735 1.108863 16.184942 -0.485134 1.502231 0.016050 -0.000430 1057880.000000 1 0 0
15.560363 2.544865 3.697463 16.194828 0.162113 1.340453 0.027729 -0.002856 1232310.000000 1 0 0
15.861963 -7.005235 5.058763 18.062842 -0.415878 1.286935 0.039207 -0.014502 -2203400.000000 1 0 0
13.634363 -12.008935 3.302763 18.466689 -0.722097 1.390979 0.021422 -0.005308 916917.000000 1 0 0
13.868263 -0.974435 9.236263 16.690919 -0.070148 0.984391 0.031993 -0.016794 269936.000000 1 0 0
14.267563 -2.744335 -1.593637 14.616238 -0.190027 1.680045 0.010262 0.000992 1834340.000000 1 0 0
14.978963 1.805065 8.980463 17.557799 0.119928 1.033890 0.046488 -0.020124 -2208850.000000 1 0 0
14.445863 -10.216035 -2.947037 17.936983 -0.615538 1.735844 0.028203 0.000929 206915.000000 1 0 0
7.334563 -12.605635 6.079763 15.800676 -1.043831 1.175828 0.003076 0.000736 1401690.000000 1 0 0
12.481863 -4.613635 6.996563 15.034441 -0.354052 1.086745 0.013291 -0.006533 2558790.000000 1 0 0
15.112263 -9.026435 -5.611937 18.475683 -0.538426 1.879420 0.049883 -0.006435 -165368.000000 1 0 0
14.281663 -4.568435 4.573363 15.676484 -0.309595 1.274757 0.017657 -0.005340 719920.000000 1 0 0
17.134863 -4.302735 1.115463 17.702014 -0.246023 1.507741 0.024209 -0.007754 -1252580.000000 1 0 0
10.234963 -14.456335 1.141163 17.749432 -0.954727 1.506459 0.032440 -0.007276 1039240.000000 1 0 0
16.327763 -2.471035 8.643063 18.638787 -0.150200 1.088614 0.059474 -0.019047 922751.000000 1 0 0
16.064563 -2.596435 3.243463 16.593122 -0.160239 1.374059 0.026660 -0.002536 1721060.000000 1 0 0
7.830763 -15.340735 2.723563 17.437797 -1.098819 1.413967 0.017159 -0.001858 3323120.000000 1 0 0
16.648263 -7.031535 7.919763 19.731441 -0.399631 1.157776 0.062561 -0.010466 -1501240.000000 1 0 0
10.293963 -8.505835 5.214363 14.335427 -0.690569 1.198517 0.008982 -0.002989 1456510.000000 1 0 0
10.940663 -11.898835 2.153863 16.307038 -0.827326 1.438327 0.018006 -0.000839 966114.000000 1 0 0
12.378063 -7.347635 12.004363 18.743236 -0.535701 0.875694 0.024249 -0.007194 -305499.000000 1 0 0
15.129763 -9.809235 4.414163 18.563826 -0.575208 1.330714 0.027101 -0.008018 -1401760.000000 1 0 0
7.333763 -10.239635 7.771663 14.799761 -0.949272 1.017939 0.004238 0.000829 480479.000000 1 0 0
15.200063 -3.268035 -4.388237 16.154832 -0.211777 1.845889 0.026107 -0.004121 943612.000000 1 0 0
11.729063 -8.985335 9.835563 17.749520 -0.653710 0.983477 0.016575 -0.005450 -2573770.000000 1 0 0
16.972063 -6.805135 2.494663 18.454921 -0.381335 1.435205 0.040312 -0.006484 1204160.000000 1 0 0
17.548763 4.035465 1.985463 18.115908 0.226028 1.460978 0.033753 0.001431 579203.000000 1 0 0
14.844663 -4.944635 8.821963 17.962195 -0.321533 1.057398 0.050395 -0.013951 -90676.800000 1 0 0
12.830763 -12.762435 6.106863 19.099790 -0.782728 1.245347 0.028555 -0.003217 -821290.000000 1 0 0
18.311163 0.823465 -1.051637 18.359813 0.044940 1.628107 0.041402 0.001266 -1070850.000000 1 0 0
11.653663 -2.153735 11.060063 16.210226 -0.182750 0.819907 0.013327 -0.010601 2039340.000000 1 0 0
5.806363 -12.615635 10.452963 17.381959 -1.139450 0.925584 0.009941 0.001976 -1663890.000000 1 0 0
10.849063 -5.066435 11.003463 16.261830 -0.436895 0.827602 0.014377 -0.007428 1135320.000000 1 0 0
17.879663 1.345565 5.043363 18.626014 0.075115 1.296604 0.056256 -0.005033 -973385.000000 1 0 0
12.304763 -7.749435 7.243963 16.246105 -0.562037 1.108629 0.018047 -0.007329 622702.000000 1 0 0
10.791363 -7.775535 14.324763 19.547667 -0.624374 0.748351 0.031737 -0.006552 -74492.100000 1 0 0
14.213763 -0.250135 3.723563 14.695528 -0.017596 1.314623 0.008215 0.000298 1693960.000000 1 0 0
11.688663 -7.686135 2.575063 14.224361 -0.581680 1.388761 0.011063 -0.000447 1453910.000000 1 0 0
9.299663 6.046865 3.619663 11.668345 0.576533 1.255380 0.003996 -0.002080 1217360.000000 1 0 0
-3.920337 14.823665 -9.907337 18.255559 -1.312251 2.144448 -0.000142 -0.002330 1340420.000000 1 0 0
8.846163 -6.356035 9.176563 14.243001 -0.623039 0.870707 0.007009 -0.004201 63960.700000 1 0 0
5.886363 -10.525535 -8.486137 14.746209 -1.060882 2.183986 -0.005695 0.002898 436791.000000 1 0 0
5.458563 1.124365 0.562663 5.601490 0.203141 1.470178 0.007382 -0.002007 3408210.000000 1 0 0
-0.550337 9.868765 10.972263 14.767733 -1.515088 0.733271 -0.012635 0.006150 -1547250.000000 1 0 0
-6.393137 -5.211835 1.077663 8.318460 0.683955 1.440880 0.008373 -0.001469 3032410.000000 1 0 0
-0.990637 3.969465 -10.883837 11.627379 -1.326228 2.782035 0.013588 -0.009425 1384620.000000 1 0 0
10.914763 5.785865 1.298263 12.421504 0.487433 1.466088 0.002967 -0.000343 422498.000000 1 0 0
-10.178137 -1.685135 -13.697937 17.148400 0.164076 2.496074 0.007531 -0.001790 1561760.000000 1 0 0
7.400963 10.954765 -6.036937 14.533608 0.976639 1.999154 -0.001438 0.001587 730673.000000 1 0 0
-12.470637 -2.863535 -9.603737 15.998387 0.225709 2.214665 0.007612 -0.005691 -661342.000000 1 0 0
-3.955537 -8.700135 2.505463 9.880079 1.144080 1.314409 0.012364 -0.001885 -337812.000000 1 0 0
8.003563 -6.572735 -5.867537 11.903187 -0.687550 2.086260 0.005082 -0.003812 1166190.000000 1 0 0
14.396963 3.181865 -4.294337 15.357023 0.217513 1.854209 0.017047 -0.000059 958815.000000 1 0 0
-2.526337 -4.939335 9.741363 11.210422 1.098012 0.517708 0.007171 -0.003231 1158940.000000 1 0 0
3.543763 -1.869335 -4.640437 6.130769 -0.485405 2.429367 0.002198 -0.005485 -2695860.000000 1 0 0
-4.023737 8.375765 -3.453837 9.913269 -1.122949 1.926666 0.007114 -0.002624 584961.000000 1 0 0
5.736163 0.050265 11.709663 13.039260 0.008763 0.455523 0.001621 -0.005699 2390540.000000 1 0 0
7.053263 4.665865 12.483663 15.078483 0.584430 0.595421 0.005078 -0.002793 949444.000000 1 0 0
1.006463 -14.592135 12.413963 19.184625 -1.501932 0.867050 0.017786 -0.010263 835927.000000 1 0 0
3.033763 8.652965 -9.182737 12.976910 1.233584 2.356922 0.006175 -0.001352 327012.000000 1 0 0
-4.391137 -8.953835 -4.604937 10.984475 1.114842 2.003385 0.011918 -0.001132 286464.000000 1 0 0
5.755663 -6.580235 -3.989937 9.609721 -0.852142 1.998957 0.000385 -0.002570 2322040.000000 1 0 0
-3.121637 3.375565 8.611763 9.762250 -0.824461 0.490390 -0.001965 0.000921 1181950.000000 1 0 0
-3.698537 3.166365 -11.120637 12.139754 -0.708032 2.728918 0.010266 -0.010347 667700.000000 1 0 0
2.990563 -6.134935 8.444963 10.858098 -1.117227 0.679707 0.000637 0.000944 -473709.000000 1 0 0
-5.197437 -8.720735 10.480563 14.591325 1.033333 0.769479 0.011759 -0.007301 3347770.000000 1 0 0
-13.411937 -2.470235 6.457263 15.089014 0.182141 1.128579 0.018767 -0.004095 -153283.000000 1 0 0
3.949363 -5.814335 -8.308837 10.883048 -0.974136 2.439459 -0.003284 -0.002130 2617460.000000 1 0 0
2.885363 -0.616535 12.443963 12.788966 -0.210511 0.232804 0.003600 -0.003950 1625760.000000 1 0 0
1.457763 -1.399135 -7.523837 7.790429 -0.764879 2.879229 0.005109 -0.008187 -1154820.000000 1 0 0
3.610963 -3.438535 3.367863 6.017065 -0.760943 0.976750 0.005314 -0.002966 2726310.000000 1 0 0
1.609963 0.461165 -11.740337 11.859181 0.278975 2.999903 0.009340 -0.008797 -33121.300000 1 0 0
4.153763 3.627365 -10.639837 11.984059 0.717851 2.663410 0.004269 -0.004888 1621920.000000 1 0 0
2.845863 3.264965 3.410763 5.512916 0.853875 0.903727 -0.003497 0.002013 1729400.000000 1 0 0
-5.352137 0.894765 2.495563 5.972756 -0.165647 1.139747 0.005247 -0.003254 1287460.000000 1 0 0
-9.537037 -9.297235 5.663563 14.473064 0.772667 1.168734 0.011943 -0.002950 -480973.000000 1 0 0
-3.063037 3.811065 -0.694437 4.938488 -0.893790 1.711881 0.005373 -0.006359 476089.000000 1 0 0
-15.999437 -6.423635 4.874163 17.916544 0.381791 1.295275 0.024779 -0.003587 1886070.000000 1 0 0
1.074163 6.651465 -8.072037 10.514447 1.410686 2.446055 0.007596 -0.002518 90617.000000 1 0 0
-1.575837 6.506765 -9.444437 11.576643 -1.333187 2.524939 0.008304 -0.006310 2225780.000000 1 0 0
2.018563 -0.401935 5.118863 5.517146 -0.196548 0.382298 0.003084 -0.001629 3052190.000000 1 0 0
-3.419237 -0.589335 -6.287337 7.181163 0.170682 2.637332 0.014296 -0.010809 -437809.000000 1 0 0
1.982763 -1.039535 -2.467137 3.331478 -0.482887 2.404690 0.007363 -0.005209 -210816.000000 1 0 0
2.513963 -8.600935 -7.575937 11.734177 -1.286428 2.272644 -0.004783 0.002526 2220850.000000 1 0 0
-2.423137 14.008265 -5.576537 15.270916 -1.399512 1.944616 -0.000314 0.005011 2498000.000000 1 0 0
6.882363 -5.030435 -8.226337 11.846722 -0.631176 2.338379 0.003042 -0.005288 3302460.000000 1 0 0
-14.210637 -5.039435 -2.265837 15.247037 0.340788 1.719957 0.004540 -0.004795 313977.000000 1 0 0
-2.706237 6.867165 -6.755137 10.005676 -1.195401 2.311938 0.009659 -0.005259 -2190360.000000 1 0 0
-5.683737 -1.044235 -8.106037 9.955056 0.181697 2.522255 0.015112 -0.008544 1034080.000000 1 0 0
-5.748537 -10.612635 3.586263 12.591067 1.074372 1.281971 0.006255 -0.003001 -2848430.000000 1 0 0
8.065863 -7.528335 6.666963 12.891174 -0.750942 1.027252 0.003518 0.000305 695064.000000 1 0 0
8.821863 -6.016535 13.073063 16.879838 -0.598545 0.684907 0.020420 -0.006298 -313710.000000 1 0 0
-4.782037 9.494865 -0.772637 10.659142 -1.104237 1.643346 0.004353 0.002549 5883.970000 1 0 0
2.735763 6.565565 12.149863 14.078715 1.175991 0.529628 -0.002287 0.002663 505736.000000 1 0 0
6.005463 -2.908435 10.934363 12.809561 -0.451007 0.547921 0.004766 -0.005333 865800.000000 1 0 0
-9.693537 -6.504535 -1.122637 11.727487 0.591009 1.666670 0.005220 -0.000866 468602.000000 1 0 0
0.817963 -13.417335 6.212663 14.808481 -1.509909 1.137864 0.008892 -0.002105 1004230.000000 1 0 0
-0.517237 -3.135535 8.728963 9.289451 1.407309 0.349150 0.003602 -0.002641 1203870.000000 1 0 0
4.259563 0.782065 3.399663 5.505743 0.181580 0.905267 0.000523 0.000970 1809690.000000 1 0 0
-10.143037 5.550265 8.213963 14.182942 -0.500691 0.953118 0.005297 -0.008145 849557.000000 1 0 0
9.348463 7.997965 0.035963 12.302947 0.707700 1.567873 0.001336 0.000603 169870.000000 1 0 0
4.245663 2.755765 8.254063 9.682430 0.575727 0.550088 -0.004906 0.000968 2590800.000000 1 0 0
1.355563 2.672165 -9.749737 10.199774 1.101334 2.843430 0.012670 -0.009756 1526990.000000 1 0 0
-1.417537 -10.194135 3.038363 10.731330 1.432628 1.283740 0.012702 -0.002539 -2468530.000000 1 0 0
-9.826537 9.526765 9.039063 16.401974 -0.769910 0.987119 0.008207 -0.009714 210192.000000 1 0 0
9.795463 -1.948535 -7.606737 12.554295 -0.196359 2.221702 0.013952 -0.005305 586700.000000 1 0 0
-5.246737 -1.923335 6.723163 8.742333 0.351366 0.693466 0.005470 -0.004007 1734940.000000 1 0 0
3.223163 -7.790135 -4.857537 9.729884 -1.178494 2.093517 -0.007224 0.001398 1678520.000000 1 0 0
-5.080937 4.886065 -13.083737 14.861821 -0.765849 2.647415 0.004976 -0.010578 2894980.000000 1 0 0
-5.655637 9.606265 5.448663 12.407840 -1.038694 1.116166 0.000842 0.000582 2266610.000000 1 0 0
-0.503337 -1.732635 -9.354237 9.526653 1.288074 2.951051 0.010242 -0.009548 111359.000000 1 0 0
-16.859637 0.247165 6.294663 17.998090 -0.014659 1.213502 0.035510 -0.010888 -1353340.000000 1 0 0
-5.982937 -2.887535 4.078763 7.795492 0.449654 1.020170 0.005114 -0.001596 2180800.000000 1 0 0
1.098063 -5.632835 -5.111037 7.684873 -1.378271 2.298394 0.001324 -0.002290 986407.000000 1 0 0
-7.076537 1.451065 -8.525737 11.174577 -0.202249 2.438674 0.006181 -0.005318 1115670.000000 1 0 0
8.025863 2.049065 4.774663 9.560886 0.249968 1.047896 0.000299 -0.001785 1218320.000000 1 0 0
0.491763 -8.056135 -0.473337 8.084997 -1.509830 1.629375 0.008191 0.000150 631672.000000 1 0 0
5.563663 5.576865 -3.391437 8.576574 0.786583 1.977333 0.000404 0.002244 -249548.000000 1 0 0
-0.733937 -0.439435 -1.313037 1.567110 0.539490 2.564169 0.010317 -0.006160 546370.000000 1 0 0
9.031263 6.372565 -6.327537 12.736209 0.614482 2.090721 0.004086 0.002379 326030.000000 1 0 0
-15.041737 -7.087435 2.390163 16.798764 0.440331 1.428030 0.002252 0.000010 640164.000000 1 0 0
-6.359837 6.850265 8.882963 12.894987 -0.822506 0.810868 -0.001617 -0.003298 144528.000000 1 0 0
-9.494537 -3.159935 -9.666837 13.913273 0.321285 2.338928 0.006973 -0.003463 2528890.000000 1 0 0
14.912363 3.490665 -1.279537 15.368817 0.229939 1.654148 0.010238 0.003389 1178660.000000 1 0 0
12.101863 1.663365 -5.740437 13.497203 0.136591 2.010096 0.010995 -0.003088 -71187.600000 1 0 0
1.752663 -9.498835 12.638063 15.906612 -1.388335 0.652586 0.003323 -0.005457 637602.000000 1 0 0
-3.622837 6.247965 7.833663 10.654966 -1.045330 0.744816 -0.001678 0.001333 633526.000000 1 0 0
-4.012237 13.107665 -12.434537 18.507476 -1.273754 2.307521 0.004311 -0.001360 -269525.000000 1 0 0
-10.214237 7.811465 6.433563 14.378469 -0.652882 1.106891 0.004171 -0.007418 267243.000000 1 0 0
8.025263 -9.265935 -7.026137 14.129012 -0.857027 2.091262 0.005903 -0.001353 850189.000000 1 0 0
5.813263 -3.693935 -0.327737 6.895404 -0.566066 1.618344 0.004372 -0.002865 -1052800.000000 1 0 0
-1.708137 -4.482535 4.110563 6.317244 1.206719 0.862305 0.008102 -0.001740 950828.000000 1 0 0
9.921463 -1.988235 -2.586237 10.443999 -0.197778 1.821029 0.005866 -0.002121 -868146.000000 1 0 0
13.545863 7.093765 1.536963 15.367959 0.482416 1.470618 0.002610 0.005805 1859460.000000 1 0 0
5.386463 -3.698435 -3.259437 7.301803 -0.601687 2.033521 0.002832 -0.005487 -3440080.000000 1 0 0
-12.315537 -5.946935 1.895963 13.806997 0.449859 1.433042 0.005899 -0.001324 432353.000000 1 0 0
3.688663 -5.689035 -0.280537 6.786019 -0.995560 1.612149 0.006653 -0.002706 -216033.000000 1 0 0
-5.255137 3.772865 -8.757837 10.888099 -0.622664 2.505376 0.011546 -0.008382 287169.000000 1 0 0
-1.695337 -9.288835 7.254063 11.907058 1.390270 0.915715 0.009275 -0.003368 936325.000000 1 0 0
-7.529037 -7.485635 2.566763 10.922884 0.782507 1.333589 0.010246 -0.001405 -4177850.000000 1 0 0
-5.667637 13.120665 -8.521637 16.640080 -1.163043 2.108442 0.001874 -0.008709 1724820.000000 1 0 0
9.286963 -13.968335 -4.130937 17.275031 -0.984047 1.812264 0.024294 0.001752 2414260.000000 1 0 0
-6.466837 -5.132935 -6.724437 10.648242 0.670907 2.254291 0.014379 -0.002208 1992290.000000 1 0 0
3.404763 0.450965 -6.281237 7.158891 0.131685 2.641220 0.004497 -0.007619 2554240.000000 1 0 0
-3.540237 5.704365 4.974763 8.355916 -1.015354 0.933085 -0.000381 0.002747 717608.000000 1 0 0
-2.602037 -10.820635 -2.850737 11.488404 1.334807 1.821556 0.013123 0.000795 2012640.000000 1 0 0
-12.607537 -0.412835 1.715163 12.730366 0.032733 1.435655 0.008281 -0.005863 1734980.000000 1 0 0
8.454563 -12.044435 -6.065437 15.916581 -0.958764 1.961757 0.013557 -0.002824 496185.000000 1 0 0
6.180163 4.004065 1.026563 7.435105 0.574890 1.432284 0.001550 -0.001457 -1874130.000000 1 0 0
3.379663 -4.730435 -10.900837 12.354246 -0.950438 2.651641 0.000590 -0.001534 73481.100000 1 0 0
-7.620337 4.253265 8.549163 12.216709 -0.509076 0.795689 0.000390 -0.002849 1848570.000000 1 0 0
8.206763 8.721965 4.109763 12.661508 0.815822 1.240221 0.003228 -0.002309 773734.000000 1 0 0
0.282663 10.502865 -6.334037 12.268256 1.543890 2.113315 0.002493 0.000770 740771.000000 1 0 0
5.463263 8.034165 3.335063 10.272181 0.973617 1.240134 -0.000133 -0.002401 3161960.000000 1 0 0
8.143163 6.750665 -3.685737 11.201216 0.692174 1.906092 0.000662 0.002054 84089.900000 1 0 0
10.605263 2.591865 -8.232937 13.673720 0.239696 2.216924 0.007975 -0.001420 393248.000000 1 0 0
3.432963 -12.546835 -0.349237 13.012696 -1.303721 1.597638 -0.001615 0.000150 -1358150.000000 1 0 0
0.531363 2.084765 5.216763 5.642979 1.321231 0.391154 0.002553 0.000622 2027490.000000 1 0 0
-4.898237 13.459865 1.483663 14.400068 -1.221780 1.467582 0.000639 0.008676 1074890.000000 1 0 0
8.238063 4.080065 -8.081937 12.240520 0.459856 2.291962 0.003314 0.002393 1382240.000000 1 0 0
-13.938337 -0.609635 -3.558637 14.398361 0.043710 1.820540 0.003268 -0.001865 680127.000000 1 0 0
-8.585637 0.063665 -0.581037 8.605511 -0.007415 1.638367 0.003399 -0.005052 -708426.000000 1 0 0
1.801863 -3.780335 -1.200937 4.356592 -1.126010 1.850072 0.009579 -0.004646 -2571300.000000 1 0 0
8.091663 -5.566135 -0.296637 9.825724 -0.602549 1.600991 0.005896 -0.001225 3798270.000000 1 0 0
-2.346237 -1.221935 7.326063 7.789040 0.480154 0.346520 0.004173 -0.002764 620600.000000 1 0 0
-5.736337 8.852165 -11.650037 15.715908 -0.995818 2.405786 0.003865 -0.009120 -473153.000000 1 0 0
-6.161837 9.207565 -8.769437 14.129775 -0.981032 2.240349 0.004337 -0.005754 1338410.000000 1 0 0
-1.500637 13.907365 -8.380637 16.306496 -1.463310 2.110573 0.011828 -0.002167 473533.000000 1 0 0
-1.459537 7.185765 9.709563 12.167213 -1.370407 0.646810 -0.006845 0.000296 620391.000000 1 0 0
10.099763 2.386965 -3.950837 11.104590 0.232080 1.934549 0.004219 0.000453 -981104.000000 1 0 0
-2.913237 -7.464035 -6.919137 10.586464 1.198677 2.283106 0.010704 0.000119 1878190.000000 1 0 0
-5.613437 -5.036135 -1.611437 7.711683 0.731242 1.781308 0.011246 -0.001500 293579.000000 1 0 0
5.752563 7.428965 -8.832337 12.895413 0.911897 2.325291 0.001198 0.001326 862819.000000 1 0 0
-9.642837 5.264565 -7.504937 13.305038 -0.499733 2.170100 0.002190 -0.003671 502601.000000 1 0 0
-0.418237 6.114165 -5.287937 8.094456 -1.502498 2.282703 0.010339 -0.003486 225772.000000 1 0 0
-8.331037 2.836065 -6.336837 10.844582 -0.328116 2.194853 0.005442 -0.003660 1261740.000000 1 0 0
3.729863 1.462265 -1.999337 4.477438 0.373628 2.033687 0.004753 -0.005126 2370940.000000 1 0 0
-6.741037 12.477065 -3.520837 14.612154 -1.075451 1.814144 0.007507 0.001673 1378430.000000 1 0 0
-6.632137 3.210865 -2.374037 7.741508 -0.450877 1.882482 0.006490 -0.005462 -1677180.000000 1 0 0
12.174463 4.082665 -0.706737 12.860217 0.323561 1.625779 -0.000033 0.000962 -540457.000000 1 0 0
2.272163 12.300265 -5.534637 13.678138 1.388131 1.987375 0.008525 -0.000581 1439990.000000 1 0 0
-9.158637 -1.372135 -4.233437 10.182602 0.148713 1.999566 0.003860 -0.001405 368819.000000 1 0 0
-1.113237 5.701865 3.441463 6.752350 -1.377981 1.035996 0.000044 0.001475 978394.000000 1 0 0
11.493763 2.568665 12.012063 16.822434 0.219870 0.775530 0.028127 -0.006644 83877.000000 1 0 0
-7.087637 -2.307535 -5.768337 9.425128 0.314749 2.229405 0.012932 -0.004639 -660718.000000 1 0 0
7.541863 -7.443535 10.737063 15.085437 -0.778837 0.778810 0.010619 -0.001936 -1354980.000000 1 0 0
-5.587337 -1.960135 -10.927337 12.428482 0.337403 2.645013 0.015270 -0.003917 -667114.000000 1 0 0
0.788663 -6.158935 4.400163 7.610249 -1.443438 0.954289 0.004357 -0.000809 812291.000000 1 0 0
-4.811837 -9.417135 7.397963 12.906047 1.098414 0.960370 0.005945 -0.003588 3421300.000000 1 0 0
-8.780437 9.305965 1.642163 12.899371 -0.814447 1.443144 0.003461 -0.000499 1699150.000000 1 0 0
-8.144337 7.247065 -9.021637 14.150623 -0.727167 2.262102 0.005846 -0.005773 -90038.100000 1 0 0
-1.242137 -10.647335 -0.071037 10.719780 1.454660 1.577423 0.012225 -0.001289 -1028860.000000 1 0 0
-3.887237 10.260465 7.740363 13.427620 -1.208649 0.956418 0.001203 0.001509 1063010.000000 1 0 0
-7.478537 12.025265 2.019663 14.304355 -1.014428 1.429131 0.001862 0.002293 1942520.000000 1 0 0
-8.140037 -8.328135 -2.791537 11.975421 0.796820 1.806066 0.010971 -0.000549 177905.000000 1 0 0
5.438163 4.581265 -8.060337 10.748518 0.700082 2.418711 0.004138 0.001817 556523.000000 1 0 0
-9.015037 -0.129135 -10.263837 13.661403 0.014323 2.420829 0.004723 -0.005006 -1755910.000000 1 0 0
-15.203737 -2.300435 -1.627237 15.462649 0.150168 1.676228 0.004734 -0.003543 282455.000000 1 0 0
-7.245837 -5.781735 8.695463 12.709905 0.673483 0.817361 0.014313 -0.004834 -831947.000000 1 0 0
8.141563 3.527165 -0.910937 8.919403 0.408820 1.673105 0.001410 0.000549 1118720.000000 1 0 0
11.903063 7.227665 -5.855037 15.106406 0.545705 1.968808 0.001158 0.002635 935544.000000 1 0 0
3.799963 13.313365 -9.450037 16.762715 1.292764 2.169719 0.007151 -0.007122 1114190.000000 1 0 0
-9.761937 5.390665 -0.527737 11.163924 -0.504540 1.618086 0.004667 -0.003613 713139.000000 1 0 0
11.330263 -1.252235 -5.162037 12.513576 -0.110074 1.996009 0.016849 -0.005707 -1537030.000000 1 0 0
10.619063 1.829665 -1.109437 10.832498 0.170625 1.673394 0.003597 0.000177 -419158.000000 1 0 0
14.680263 5.075765 4.890463 16.284660 0.332888 1.265778 0.021482 -0.005095 1987000.000000 1 0 0
0.848263 -0.958835 10.361463 10.440250 -0.846509 0.122931 0.004761 -0.002662 2354200.000000 1 0 0
-7.923937 1.424065 -12.565837 14.923706 -0.177819 2.571786 0.006104 -0.006774 478461.000000 1 0 0
3.209963 -11.558535 -7.818737 14.319086 -1.299909 2.148422 -0.003663 0.003561 -869927.000000 1 0 0
2.911963 5.000265 -6.767137 8.903726 1.043447 2.434162 0.005795 -0.000059 -865914.000000 1 0 0
6.555863 8.049565 0.622263 10.400099 0.887314 1.510928 0.002615 -0.002462 -378296.000000 1 0 0
-9.157437 -5.421035 6.664563 12.556380 0.534503 1.011286 0.010263 -0.002182 -1465360.000000 1 0 0
-0.231837 -6.830835 -11.754437 13.597090 1.536870 2.614915 0.005803 0.003164 2884140.000000 1 0 0
6.466863 -13.559735 -4.741637 15.753407 -1.125785 1.876528 0.006948 0.000451 1377640.000000 1 0 0
-3.320437 -0.421535 10.018663 10.562982 0.126276 0.322427 0.002018 -0.000340 630410.000000 1 0 0
8.669463 8.516665 7.027563 14.038512 0.776508 1.046514 0.002146 -0.002850 523131.000000 1 0 0
-8.002937 5.727765 -2.698037 10.204592 -0.621191 1.838372 0.008524 -0.005481 -783192.000000 1 0 0
-5.401337 5.845865 -6.473437 10.259336 -0.824901 2.253612 0.009985 -0.005948 -655409.000000 1 0 0
3.343263 -13.730435 2.529463 14.356198 -1.331951 1.393679 0.008934 -0.005432 -1349700.000000 1 0 0
-11.360637 -7.066935 6.451863 14.853692 0.556478 1.121468 0.017768 -0.003331 -985268.000000 1 0 0
-12.870537 -3.684135 -6.741037 14.988834 0.278791 2.037267 0.008121 -0.003172 -797235.000000 1 0 0
6.079363 0.446365 -7.307537 9.516196 0.073292 2.446361 0.003387 -0.002552 -574948.000000 1 0 0
-1.388637 2.041065 -2.521237 3.528583 -0.973381 2.366732 0.011205 -0.006895 2918280.000000 1 0 0
7.593363 0.983065 -4.944637 9.114550 0.128748 2.144206 0.004695 -0.001026 1409780.000000 1 0 0
3.641163 -4.542735 10.807063 12.275468 -0.895120 0.494136 0.000936 -0.002253 -322551.000000 1 0 0
6.066263 -2.469135 2.066063 6.867662 -0.386550 1.265224 0.009476 -0.001919 28677.300000 1 0 0
-6.357237 7.684465 0.995863 10.022835 -0.879639 1.471273 0.001929 -0.000068 2250990.000000 1 0 0
6.053863 -3.444235 7.913563 10.542129 -0.517262 0.721735 0.003594 -0.003806 61202.200000 1 0 0
6.749663 -2.201735 -7.900037 10.621496 -0.315316 2.409501 0.004071 -0.006335 383344.000000 1 0 0
12.271463 -8.068035 -5.811137 15.794027 -0.581604 1.947581 0.030266 -0.003952 1748010.000000 1 0 0
5.587363 -9.707335 9.948863 14.981016 -1.048525 0.844510 0.002375 0.002965 2060290.000000 1 0 0
-6.675237 7.573765 -4.536337 11.067930 -0.848374 1.993100 0.009689 -0.004583 560821.000000 1 0 0
-1.277137 -7.587635 9.795363 12.456019 1.404041 0.665844 0.009299 -0.006499 706798.000000 1 0 0
10.079063 -9.327935 0.731763 13.752576 -0.746713 1.517562 0.006774 0.000858 1114010.000000 1 0 0
11.154463 6.108865 9.873363 16.100421 0.501046 0.910645 0.020315 -0.004242 1332020.000000 1 0 0
-15.303537 -4.307835 -5.046637 16.680055 0.274392 1.878169 0.006259 -0.008366 1467890.000000 1 0 0
-4.771437 -4.644635 7.818963 10.270123 0.771932 0.705433 0.010118 -0.004224 -250168.000000 1 0 0
2.950063 10.941565 -11.055437 15.831722 1.307439 2.343829 0.009127 -0.002283 -1860640.000000 1 0 0
9.961763 -1.230235 1.523863 10.152456 -0.122874 1.420129 0.003518 -0.001679 -503496.000000 1 0 0
-1.666137 -2.657635 0.576363 3.189236 1.010814 1.389077 0.009158 -0.004577 -640512.000000 1 0 0
1.591763 2.934165 0.893563 3.455646 1.073735 1.309244 0.002229 -0.001260 -216511.000000 1 0 0
-9.013237 -2.375335 4.224963 10.233815 0.257680 1.145223 0.005665 -0.002689 4485650.000000 1 0 0
10.013863 4.960165 -2.661337 11.487533 0.459905 1.804592 0.002265 0.001536 1244510.000000 1 0 0
2.589363 8.458465 2.581563 9.214928 1.273728 1.286846 -0.001503 -0.000139 1034910.000000 1 0 0
-8.115337 -0.060235 2.390463 8.460298 0.007422 1.284344 0.001117 -0.003566 614834.000000 1 0 0
6.802963 1.971965 13.712463 15.433748 0.282136 0.476790 0.006476 -0.007270 -334052.000000 1 0 0
6.812963 4.463365 3.868263 9.016737 0.579972 1.127401 -0.002607 -0.000924 426577.000000 1 0 0
-0.336237 3.274165 7.757063 8.426461 -1.468461 0.401284 -0.003838 0.000759 1237880.000000 1 0 0
2.717963 -10.336835 9.125963 14.054205 -1.313677 0.864080 0.006098 -0.001466 1306330.000000 1 0 0
1.338963 -4.528235 6.832263 8.305272 -1.283296 0.604755 0.002888 -0.001552 47501.700000 1 0 0
-0.178137 10.774765 -1.966237 10.954150 -1.554265 1.751271 0.004856 0.001094 2028170.000000 1 0 0
8.742563 5.549065 8.023363 13.099576 0.565557 0.911589 0.000541 -0.001832 1272020.000000 1 0 0
2.649463 11.440565 -2.793537 12.071041 1.343223 1.804338 0.006699 -0.002210 2170480.000000 1 0 0
1.437763 2.427865 -6.720037 7.288388 1.036138 2.744062 0.008732 -0.006333 806991.000000 1 0 0
-13.759237 -2.168235 3.496063 14.361069 0.156299 1.324885 0.012977 -0.004031 734945.000000 1 0 0
-0.869337 -10.741935 -5.291137 12.005875 1.490043 2.027188 0.006210 0.000802 1482730.000000 1 0 0
-5.690637 2.881565 0.334563 6.387386 -0.468730 1.518394 0.006284 -0.005144 1066100.000000 1 0 0
3.854763 7.280465 -5.028837 9.651610 1.083854 2.118861 0.003956 -0.000097 -1529040.000000 1 0 0
2.979763 9.717965 -6.519137 12.075471 1.273273 2.141074 0.004607 0.001052 1181070.000000 1 0 0
-12.246337 1.694865 -2.571637 12.627694 -0.137524 1.775882 0.005365 -0.002927 -65269.000000 1 0 0
-2.464037 9.597765 -5.716837 11.439878 -1.319493 2.094082 0.002260 -0.001275 1309700.000000 1 0 0
-1.349837 3.264965 1.676863 3.910745 -1.178766 1.127651 0.002406 -0.001314 649107.000000 1 0 0
12.851463 3.650665 9.694263 16.506550 0.276775 0.943080 0.036538 -0.008948 1184710.000000 1 0 0
-2.646137 -9.540835 11.623963 15.269122 1.300248 0.705523 0.005933 -0.008683 -69965.500000 1 0 0
-0.374537 -8.998335 -7.488337 11.712621 1.529197 2.264435 0.004766 0.002678 3787020.000000 1 0 0
2.385263 7.656665 -0.421837 8.030688 1.268798 1.623349 0.002652 0.001387 2592430.000000 1 0 0
-11.869837 -1.316235 -5.487537 13.143005 0.110438 2.001517 0.001702 0.000472 -294631.000000 1 0 0
-6.211837 -7.084435 -10.997637 14.481856 0.850931 2.433199 0.009528 0.001606 1046680.000000 1 0 0
-4.731037 -2.318135 -1.443537 5.462624 0.455603 1.838230 0.009757 -0.004400 -1839220.000000 1 0 0
-10.458037 3.683165 4.457963 11.950300 -0.338620 1.188511 0.011068 -0.007428 2961720.000000 1 0 0
6.801863 9.411265 -3.608237 12.159631 0.944974 1.872072 0.002790 0.003189 823804.000000 1 0 0
1.287863 -2.604035 -11.525937 11.886413 -1.111507 2.894687 0.007030 -0.005150 -116286.000000 1 0 0
1.345363 8.752865 7.565763 11.647464 1.418284 0.863787 -0.007404 0.005954 1135920.000000 1 0 0
10.246563 0.318665 10.501463 14.675637 0.031090 0.773355 0.008461 -0.008280 334712.000000 1 0 0
-5.276037 -0.840935 -3.967537 6.654704 0.158058 2.209556 0.012897 -0.007979 -216549.000000 1 0 0
11.747863 5.644965 5.503563 14.148043 0.447934 1.171252 0.007702 -0.002040 2862800.000000 1 0 0
9.926363 -3.406435 3.612163 11.098838 -0.330578 1.239304 0.008431 -0.002258 -1070560.000000 1 0 0
7.280063 -1.655535 -3.439337 8.220046 -0.223604 2.002489 0.005620 -0.002194 -2495840.000000 1 0 0
2.318463 9.209265 10.469763 14.135125 1.324168 0.736698 -0.005375 0.004332 3075390.000000 1 0 0
2.452363 -10.924535 6.283963 12.839304 -1.349975 1.059358 0.001366 0.001194 1574990.000000 1 0 0
5.879263 -7.494635 -1.241537 9.606076 -0.905601 1.700404 0.002051 -0.001292 489384.000000 1 0 0
-0.238237 -5.518435 -2.327737 5.994017 1.527652 1.969630 0.007298 0.000072 270258.000000 1 0 0
7.736463 -5.059035 2.633963 9.611683 -0.579127 1.293207 0.007350 -0.001339 1633880.000000 1 0 0
-2.676037 -12.489835 4.663763 13.598082 1.359730 1.220717 0.007769 -0.001805 -640570.000000 1 0 0
4.900563 -10.278135 -1.173037 11.446903 -1.125884 1.673453 0.000558 -0.002174 1046620.000000 1 0 0
0.946663 0.161865 1.074763 1.441349 0.169348 0.729265 0.002587 -0.003060 -782271.000000 1 0 0
-1.569437 8.522165 2.477663 9.012727 -1.388677 1.292303 -0.000806 0.002998 172630.000000 1 0 0
-7.513737 0.656865 -3.164237 8.179249 -0.087200 1.968022 0.005141 -0.003184 -463603.000000 1 0 0
4.394763 -6.405735 12.833063 15.001162 -0.969483 0.544336 0.011421 -0.005852 568363.000000 1 0 0
-5.083237 12.949565 8.434963 16.268963 -1.196736 1.025736 0.006586 -0.002963 2689540.000000 1 0 0
0.649163 6.059865 8.260863 10.265731 1.464078 0.635622 -0.006789 0.003954 555109.000000 1 0 0
7.948663 -0.416935 -0.826337 8.002369 -0.052405 1.674242 0.004727 -0.001578 1987410.000000 1 0 0
2.445363 -9.256435 -2.367437 9.862360 -1.312517 1.813211 -0.002391 0.000740 1147300.000000 1 0 0
-7.163637 12.161965 4.953663 14.958940 -1.038490 1.233274 0.003668 -0.000085 -240051.000000 1 0 0
-15.033537 0.216065 0.126063 15.035618 -0.014371 1.562412 0.021089 -0.006906 697419.000000 1 0 0
6.895363 -0.397135 3.930763 7.946989 -0.057531 1.053395 0.003634 -0.000487 -671850.000000 1 0 0
-4.244037 -5.103635 5.094663 8.367468 0.877099 0.916167 0.010757 -0.003027 -473148.000000 1 0 0
2.926663 5.037965 6.956163 9.073844 1.044523 0.697241 -0.005582 0.002043 -698145.000000 1 0 0
2.066363 -7.203235 1.804963 7.708069 -1.291432 1.334436 0.004497 -0.001123 2033060.000000 1 0 0
-2.395437 6.440665 -1.783537 7.099387 -1.214725 1.824741 0.005873 -0.000578 1623250.000000 1 0 0
2.674063 -3.778835 -6.560037 8.028966 -0.954960 2.527066 -0.002160 -0.004792 -1633430.000000 1 0 0
-5.125037 0.884265 -12.136437 13.203827 -0.170856 2.736740 0.011500 -0.004730 749001.000000 1 0 0
-7.431937 6.455365 -11.861337 15.414174 -0.715193 2.448867 0.004770 -0.011348 3329500.000000 1 0 0
-1.004637 11.143865 -9.035537 14.381793 -1.480888 2.250114 0.002381 -0.001206 346039.000000 1 0 0
4.687663 5.937865 -0.579437 7.587370 0.902520 1.647239 0.000287 0.001680 193274.000000 1 0 0
-2.712937 13.382465 3.642563 14.132186 -1.370784 1.310104 -0.003231 0.006986 2438550.000000 1 0 0
1.511363 -7.951335 10.175663 13.002002 -1.382960 0.671928 0.000894 -0.000696 -1638920.000000 1 0 0
13.040863 -0.155635 -1.133637 13.090969 -0.011934 1.657502 0.008592 -0.002010 850056.000000 1 0 0
-1.055537 3.050665 -5.380437 6.274538 -1.237687 2.601193 0.013064 -0.009183 1442460.000000 1 0 0
6.640263 1.091265 7.288563 9.920035 0.162885 0.745525 -0.001131 0.000486 2692000.000000 1 0 0
5.478363 -6.094935 6.798263 10.647867 -0.838623 0.878297 0.000156 0.000396 2254470.000000 1 0 0
12.148763 -4.830235 2.563163 13.322665 -0.378428 1.377198 0.009276 -0.000795 -222582.000000 1 0 0
4.481963 -9.222335 13.777963 17.174740 -1.118419 0.639788 0.016336 -0.002542 1918420.000000 1 0 0
-2.821637 -4.355335 -1.423937 5.381280 0.995929 1.838595 0.011478 -0.003998 3048030.000000 1 0 0
-9.238837 -5.198035 -7.542137 13.009977 0.512487 2.189181 0.011250 -0.001349 -417347.000000 1 0 0
-10.695437 -3.128135 7.734863 13.564870 0.284538 0.964031 0.010541 -0.002645 111398.000000 1 0 0
12.157263 -0.566335 1.668063 12.284226 -0.046550 1.434587 0.002753 0.000458 875734.000000 1 0 0
-7.521337 4.655665 4.343363 9.854468 -0.554269 1.114362 0.003851 -0.003773 3442790.000000 1 0 0
-1.011037 10.518465 6.949163 12.647180 -1.474971 0.989074 -0.004599 0.005761 2157650.000000 1 0 0
7.417163 -9.996135 1.859763 12.585536 -0.932433 1.422483 0.003574 -0.000284 3450560.000000 1 0 0
-4.403437 -1.738035 1.584163 4.992053 0.375929 1.247876 0.003968 -0.001745 1900010.000000 1 0 0
6.666063 -14.959135 -0.955437 16.405029 -1.151592 1.629070 0.021129 -0.003172 -1962140.000000 1 0 0
-10.404037 1.689365 2.349163 10.798912 -0.160971 1.351506 0.005555 -0.003930 775896.000000 1 0 0
-2.956837 8.292865 -11.342737 14.358697 -1.228297 2.481533 0.002894 -0.005003 -2322480.000000 1 0 0
-1.205537 -5.140435 -6.816937 8.622530 1.340439 2.482578 0.004832 -0.002035 -977149.000000 1 0 0
12.826463 -0.502235 6.412463 14.348870 -0.039136 1.107503 0.010088 -0.007553 2546920.000000 1 0 0
5.952063 -13.342735 3.767163 15.087980 -1.151199 1.318447 0.004302 -0.001074 -99525.700000 1 0 0
-5.663737 3.486265 -5.024537 8.335343 -0.551769 2.217801 0.011284 -0.008444 2348740.000000 1 0 0
-4.395437 8.057765 3.320863 9.760921 -1.071422 1.223645 0.000906 0.002625 147165.000000 1 0 0
14.036763 6.224065 -3.941937 15.852715 0.417362 1.822093 0.016655 0.001374 321151.000000 1 0 0
-6.775637 -8.492335 5.316663 12.095285 0.897366 1.115682 0.012924 -0.002202 2144660.000000 1 0 0
1.697563 11.408265 2.706963 11.847273 1.423079 1.340272 -0.002859 -0.001534 2508980.000000 1 0 0
-7.358437 7.213865 5.916863 11.882580 -0.775477 1.049570 0.001657 -0.004299 -749719.000000 1 0 0
-17.573637 -3.958735 5.140963 18.733227 0.221567 1.292799 0.023971 -0.004880 -1506560.000000 1 0 0
7.534763 -13.030135 -8.596537 17.333710 -1.046518 2.089717 0.008476 0.002873 -1278300.000000 1 0 0
-2.234837 12.827565 -2.778237 13.313885 -1.398306 1.781013 -0.002379 0.004501 800539.000000 1 0 0
-5.437437 13.925365 -5.695437 15.997485 -1.198532 1.934803 0.011764 0.000414 2038040.000000 1 0 0
-5.619237 2.336865 7.406363 9.585978 -0.394111 0.687831 0.000896 -0.001145 1898090.000000 1 0 0
-7.477037 5.051865 1.395663 9.131008 -0.594197 1.417346 0.004511 -0.002214 1685360.000000 1 0 0
10.786963 -5.711635 -5.055837 13.211466 -0.486964 1.963498 0.016142 -0.004670 2665350.000000 1 0 0
-9.624937 -0.715635 6.717863 11.759304 0.074216 0.962731 0.007144 -0.003353 996217.000000 1 0 0
-11.282937 -4.580235 -2.557437 12.442817 0.385620 1.777807 0.001114 -0.002944 816673.000000 1 0 0
6.518163 -4.394935 13.454463 15.582826 -0.593241 0.528794 0.012915 -0.011075 -856956.000000 1 0 0
0.290963 10.220165 -11.644637 15.496258 1.542335 2.421051 0.003857 -0.003437 -1181240.000000 1 0 0
-11.933037 -3.178035 1.428363 12.431311 0.260281 1.455642 0.007123 -0.003230 3688860.000000 1 0 0
5.158963 5.983365 5.484863 9.617655 0.859252 0.963936 -0.003851 0.000891 -4845400.000000 1 0 0
-7.232537 -0.055235 8.091163 10.852629 0.007637 0.729439 0.002427 -0.002362 888775.000000 1 0 0
1.740963 1.920065 9.603963 9.947548 0.834281 0.263592 -0.000965 -0.000510 2999560.000000 1 0 0
10.567763 -4.906835 -2.058137 11.831761 -0.434699 1.745636 0.010978 -0.002996 1983580.000000 1 0 0
-9.752137 -2.316335 -1.657037 10.159496 0.233199 1.734631 0.002949 -0.003111 -907573.000000 1 0 0
-1.909137 -5.186435 -9.829137 11.276340 1.218087 2.629376 0.014928 -0.002171 673678.000000 1 0 0
7.695063 -1.596935 6.555263 10.234044 -0.204623 0.875602 0.005296 -0.002532 2618160.000000 1 0 0
1.530063 -11.961835 -2.498037 12.315306 -1.443575 1.775054 0.000854 0.000364 -4161880.000000 1 0 0
-0.816237 -1.512035 4.773263 5.073118 1.075797 0.345538 0.008378 -0.003629 2191280.000000 1 0 0
7.590663 1.527265 9.971463 12.624610 0.198552 0.660243 -0.001321 -0.002141 105387.000000 1 0 0
-3.754437 10.724265 -7.934237 13.858492 -1.234043 2.180370 -0.000274 -0.000428 2529090.000000 1 0 0
-9.482237 12.662465 6.524063 17.111816 -0.928034 1.179637 0.007427 -0.004696 979630.000000 1 0 0
-2.617137 -2.501535 -11.053937 11.631707 0.762818 2.825084 0.015771 -0.007531 -248473.000000 1 0 0
1.168963 -11.986335 11.067163 16.356063 -1.473579 0.827607 0.005386 -0.004986 1015800.000000 1 0 0
1.407363 3.397265 -1.930137 4.153012 1.178055 2.054155 0.007077 -0.003318 3464970.000000 1 0 0
-1.937037 -9.308335 -12.081637 15.374107 1.365627 2.474855 0.008815 0.003662 1420300.000000 1 0 0
1.206863 -2.747535 1.523163 3.365336 -1.156915 1.101114 0.013018 -0.003956 1743370.000000 1 0 0
-1.049037 -2.194935 -6.592937 7.027449 1.124956 2.788100 0.009717 -0.011166 -370719.000000 1 0 0
1.850863 5.832565 4.109863 7.371261 1.263515 0.979362 -0.006768 0.002669 -1821900.000000 1 0 0
-10.995637 8.569265 3.621363 14.403146 -0.662012 1.316640 0.000937 -0.006612 2932540.000000 1 0 0
-16.551937 -1.395735 3.875563 17.056808 0.084126 1.341579 0.025979 -0.005442 1143990.000000 1 0 0
-12.382437 0.221365 6.759663 14.109103 -0.017875 1.071168 0.012442 -0.003724 149532.000000 1 0 0
-5.085537 2.961265 4.617963 7.480465 -0.527297 0.905444 -0.000110 -0.000003 1718480.000000 1 0 0
5.233963 -5.963635 3.893363 8.838415 -0.850469 1.114636 0.000722 -0.000337 548116.000000 1 0 0
9.945863 3.436965 6.323163 12.276616 0.332720 1.029722 0.000874 0.000407 -142480.000000 1 0 0
-12.142037 5.855365 3.178263 13.849755 -0.449338 1.339251 0.012449 -0.006262 2233960.000000 1 0 0
-4.804137 12.384965 -1.311837 13.348709 -1.200764 1.669230 -0.004092 0.005857 1728670.000000 1 0 0
-1.770937 -12.121135 10.310863 16.011621 1.425720 0.871132 0.009352 -0.006763 2547280.000000 1 0 0
5.156163 6.275365 13.928863 16.123878 0.882992 0.527902 0.007987 0.000835 1673430.000000 1 0 0
12.963463 -3.779735 -5.900437 14.736109 -0.283703 1.982757 0.018016 -0.004285 1553880.000000 1 0 0
3.510763 -2.513335 6.387763 7.710112 -0.621314 0.594388 0.001477 -0.000838 2291050.000000 1 0 0
7.218163 -11.827335 -0.714137 13.874354 -1.022841 1.622291 0.009222 0.001004 -1497960.000000 1 0 0
-6.090337 -6.628135 -4.107737 9.894336 0.827658 1.998916 0.014898 -0.002316 605541.000000 1 0 0
0.322563 -8.911435 5.094663 10.270020 -1.534616 1.051728 0.007015 -0.001710 1990210.000000 1 0 0
-10.304437 2.486165 -0.430737 10.608863 -0.236747 1.611409 0.003624 -0.003344 -2476270.000000 1 0 0
-1.892737 8.950265 -0.372237 9.155778 -1.362394 1.611464 0.006129 0.001488 568460.000000 1 0 0
-3.592437 2.376365 -6.638237 7.913211 -0.584411 2.566019 0.016096 -0.012067 76099.200000 1 0 0
-12.690837 3.033965 6.316663 14.496983 -0.234663 1.119955 0.014976 -0.008978 693344.000000 1 0 0
11.313563 1.579265 7.985763 13.937833 0.138694 0.960689 0.013076 -0.010215 -2486790.000000 1 0 0
6.099063 2.674465 -3.127737 7.357586 0.413253 2.009873 0.003179 -0.000035 231528.000000 1 0 0
10.499863 -2.457835 6.394063 12.536830 -0.229942 1.035586 0.008135 -0.005316 2811910.000000 1 0 0
-0.953637 10.995865 4.128663 11.784071 -1.484286 1.212841 0.001097 0.003138 2499210.000000 1 0 0
-1.670337 -12.183535 7.382063 14.343061 1.434548 1.030164 0.004824 -0.000965 -491336.000000 1 0 0
8.099663 8.753065 -7.781837 14.240003 0.824150 2.148948 0.001534 0.001231 1075400.000000 1 0 0
-4.620137 -5.971835 -8.709237 11.526460 0.912327 2.427345 0.013121 -0.000364 500617.000000 1 0 0
-8.570437 -5.299435 -11.714637 15.452156 0.553795 2.431227 0.007545 0.001908 2308240.000000 1 0 0
6.140363 -0.553235 -9.923037 11.682328 -0.089855 2.585655 0.005197 -0.004118 -734417.000000 1 0 0
-11.137637 -5.445735 -5.348037 13.502018 0.454768 1.978053 0.004869 -0.004900 -518110.000000 1 0 0
3.948063 8.910665 -2.673137 10.106078 1.153719 1.838490 0.006947 -0.000917 1311460.000000 1 0 0
11.728763 -10.436535 -4.059737 16.216245 -0.727164 1.823838 0.023194 -0.002225 1721440.000000 1 0 0
3.969663 -11.345435 3.923063 12.643873 -1.234219 1.255315 0.001054 0.000861 525657.000000 1 0 0
-1.075137 0.847965 3.155963 3.440213 -0.667815 0.409364 0.005361 -0.001632 -1959670.000000 1 0 0
-10.745037 -5.068135 4.480063 12.696959 0.440730 1.210186 0.013061 -0.002467 3791540.000000 1 0 0
4.658963 -8.650835 2.801063 10.217085 -1.076781 1.293086 0.000483 0.000891 4754600.000000 1 0 0
-3.811337 -5.733935 2.677363 7.387325 0.984158 1.199926 0.009171 -0.002553 1504700.000000 1 0 0
10.002463 5.054665 12.354563 16.680352 0.467912 0.736736 0.019194 -0.003297 1907430.000000 1 0 0
1.730263 -12.345035 -5.246237 13.524670 -1.431545 1.969150 -0.000318 0.000676 1477870.000000 1 0 0
9.862863 -10.789635 -1.733137 14.720599 -0.830243 1.688806 0.012174 -0.002248 916079.000000 1 0 0
9.613763 -4.373035 -9.140537 13.967723 -0.426898 2.284191 0.015851 -0.005651 1863340.000000 1 0 0
-7.525437 -3.027035 -13.166337 15.464397 0.382436 2.589439 0.008814 -0.001305 1039850.000000 1 0 0
0.495763 6.228365 -2.513737 6.734775 1.491366 1.953303 0.007794 -0.001369 1510740.000000 1 0 0
-6.044037 -9.566935 1.028363 11.362841 1.007348 1.480170 0.006432 -0.000755 -993970.000000 1 0 0
-9.068637 -4.060335 0.567663 9.952323 0.420968 1.513727 0.001613 -0.000890 4962110.000000 1 0 0
1.874163 3.711165 12.035663 12.733515 1.103151 0.332603 -0.002421 -0.001232 632901.000000 1 0 0
6.563963 4.316365 9.667163 12.456751 0.581689 0.682405 -0.005816 0.001963 2834420.000000 1 0 0
-8.327237 9.940865 -3.652437 13.472341 -0.873500 1.845339 0.006143 -0.002212 3506890.000000 1 0 0
16.522063 2.120665 -6.071837 17.729721 0.127656 1.920337 0.027723 -0.006902 1036160.000000 1 0 0
-11.066537 2.675665 -5.135037 12.489837 -0.237227 1.994498 -0.000869 0.000193 2274780.000000 1 0 0
-13.756137 4.045265 1.363663 14.403300 -0.286007 1.475977 0.017228 -0.001789 457329.000000 1 0 0
-17.477137 10.491965 3.423863 20.670135 -0.540659 1.404386 0.048548 -0.015724 -84787.200000 1 0 0
-14.396037 2.840565 -1.210237 14.723429 -0.194813 1.653087 0.015203 -0.002799 1633390.000000 1 0 0
-14.392637 5.055965 5.089363 16.081430 -0.337822 1.248786 0.023828 -0.009556 715961.000000 1 0 0
-17.548737 7.593165 3.054963 19.363552 -0.408366 1.412366 0.044653 -0.008837 -261218.000000 1 0 0
-14.909737 12.607565 -3.443737 19.827009 -0.701930 1.745371 0.042193 -0.012925 281824.000000 1 0 0
-8.493837 12.482165 -9.515237 17.846273 -0.973293 2.133149 0.016794 -0.018966 784730.000000 1 0 0
-12.392337 8.824965 -9.814537 18.104562 -0.618821 2.143734 0.006426 -0.000463 -199382.000000 1 0 0
-13.803137 -3.402935 -12.208337 18.738998 0.241713 2.280348 0.016095 -0.004621 -1426950.000000 1 0 0
-14.859537 5.820365 -7.693837 17.716592 -0.373324 2.020027 0.018603 0.002261 797538.000000 1 0 0
-10.883137 13.485665 -8.333937 19.229154 -0.891792 2.019060 0.028202 -0.022585 1427760.000000 1 0 0
-10.876437 13.445465 3.945363 17.738188 -0.890634 1.346498 0.014858 -0.010057 -339093.000000 1 0 0
-15.243737 3.247065 2.931463 15.859017 -0.209873 1.384882 0.023398 -0.004781 -435052.000000 1 0 0
-11.003437 9.491265 -12.391537 19.097381 -0.711748 2.276882 0.005588 -0.005845 221814.000000 1 0 0
-13.088637 11.586265 -8.971437 19.647917 -0.724587 2.044977 0.024586 -0.020196 -822640.000000 1 0 0
-8.746037 14.638265 -3.447037 17.396955 -1.032234 1.770257 0.010751 -0.005427 532881.000000 1 0 0
-16.677337 8.265765 -4.041237 19.046996 -0.460144 1.784593 0.033749 -0.000499 -725287.000000 1 0 0
-17.054437 6.673965 0.255663 18.315595 -0.373013 1.556837 0.044412 -0.000003 -295513.000000 1 0 0
-10.501837 2.847465 -12.570937 16.626037 -0.264774 2.428129 0.006536 -0.006341 358719.000000 1 0 0
-16.985637 0.929465 2.195363 17.152125 -0.054666 1.442451 0.024765 -0.007357 982511.000000 1 0 0
-12.759837 1.204965 -6.932737 14.571487 -0.094155 2.066640 0.003222 -0.004579 1296130.000000 1 0 0
-12.397337 9.066365 -5.435737 16.292335 -0.631435 1.910956 0.010214 -0.002363 -1119740.000000 1 0 0
-9.682637 13.934365 1.287963 17.017016 -0.963518 1.495037 0.020269 0.001621 840917.000000 1 0 0
-12.246737 11.085765 2.764063 16.748636 -0.735681 1.405006 0.012446 -0.005354 128737.000000 1 0 0
-12.635237 6.906565 -3.665437 14.858846 -0.500238 1.820053 0.004244 -0.000006 147261.000000 1 0 0
-15.895937 3.663065 -9.457237 18.855721 -0.226487 2.096195 0.021047 -0.001373 -1277170.000000 1 0 0
-15.153837 5.859365 -4.717437 16.918190 -0.368953 1.853380 0.022009 0.003325 -102324.000000 1 0 0
-17.963437 5.300365 7.474163 20.165368 -0.286922 1.191095 0.039362 -0.016037 -967219.000000 1 0 0
-15.803637 10.179865 -2.094737 18.914876 -0.572250 1.681769 0.041410 -0.001208 -911537.000000 1 0 0
-8.790237 9.982265 -8.307337 15.682020 -0.848812 2.129086 0.009567 -0.008707 906629.000000 1 0 0
-17.101437 4.169065 -1.381437 17.656405 -0.239120 1.649116 0.032588 0.003122 1155040.000000 1 0 0
-10.293637 5.455165 -4.615337 12.530728 -0.487324 1.947999 0.003379 -0.001450 -124306.000000 1 0 0
-18.285737 2.860965 5.893063 19.423735 -0.155201 1.262543 0.043638 -0.015822 -48974.900000 1 0 0
-10.377837 10.099865 -5.714337 15.567930 -0.771825 1.946641 0.007080 -0.007570 1818200.000000 1 0 0
-15.406137 0.500465 -5.902637 16.505776 -0.032473 1.936504 0.009134 0.000347 266232.000000 1 0 0
-16.398937 -4.065735 -9.003837 19.144828 0.243026 2.060428 0.030635 -0.016430 -1344330.000000 1 0 0
-10.029437 9.673165 -1.132137 13.980038 -0.767318 1.651868 0.000929 0.000839 2509790.000000 1 0 0
-17.417637 -3.119635 -3.321837 18.003911 0.177229 1.756366 0.013561 -0.008969 251590.000000 1 0 0
-11.943737 5.148065 -11.665637 17.471191 -0.406964 2.301921 0.006489 -0.001778 -814939.000000 1 0 0
-16.328737 7.115365 5.755363 18.718448 -0.410947 1.258263 0.035972 -0.012411 688962.000000 1 0 0
-12.181037 6.019565 -8.916037 16.251417 -0.458977 2.151523 0.003943 0.000188 1032380.000000 1 0 0
-14.642337 8.453265 -0.025737 16.907288 -0.523574 1.572319 0.028764 -0.000513 3045350.000000 1 0 0
-14.884937 11.760965 3.932963 19.373948 -0.668691 1.366373 0.023232 -0.020254 1342660.000000 1 0 0
-17.300837 4.034065 -4.253437 18.267030 -0.229079 1.805801 0.022407 0.002302 -824272.000000 1 0 0
-13.811537 13.428065 -0.812637 19.280350 -0.771321 1.612957 0.033666 -0.006077 -259873.000000 1 0 0
-10.019137 6.923165 -13.093637 17.881741 -0.604656 2.392394 0.001711 -0.008917 -220997.000000 1 0 0
-15.848637 -1.080435 -8.360137 17.951004 0.068067 2.055244 0.009718 -0.008503 782055.000000 1 0 0
-11.519637 11.905865 -0.031537 16.566613 -0.801884 1.572700 0.022388 -0.004454 110151.000000 1 0 0
-12.047137 7.448365 -0.922137 14.193731 -0.553744 1.635810 0.003958 0.002583 3291950.000000 1 0 0
-11.504137 0.202865 -11.744537 16.441426 -0.017632 2.366457 -0.001371 -0.003797 -799153.000000 1 0 0
-19.115537 -1.376735 -4.901337 19.781867 0.071898 1.821173 0.019561 -0.004965 -66438.800000 1 0 0
-18.041737 1.363265 -5.289737 18.850573 -0.075418 1.855230 0.014711 0.002020 969400.000000 1 0 0
-13.332237 -0.032135 -9.541937 16.395065 0.002410 2.191983 0.006083 -0.006259 -960513.000000 1 0 0
-6.089037 11.244665 -13.223537 18.395130 -1.074499 2.372958 -0.002333 -0.005420 623150.000000 1 0 0
16.384163 5.752065 7.204763 18.799884 0.337632 1.177501 0.046248 -0.012266 612539.000000 1 0 0
14.832663 10.172765 -5.429137 18.787458 0.601156 1.863954 0.035603 -0.005558 1352660.000000 1 0 0
2.376063 16.884365 4.332463 17.592547 1.430989 1.321970 0.008905 -0.005464 840933.000000 1 0 0
-3.884937 18.241265 -5.892537 19.559103 -1.360956 1.876819 -0.000932 -0.001529 1197190.000000 1 0 0
5.441463 14.508465 5.806663 16.547580 1.211978 1.212257 0.006406 -0.008530 -978070.000000 1 0 0
9.829063 5.913465 15.151563 19.003931 0.541618 0.648011 0.031386 -0.003932 571490.000000 1 0 0
4.714663 12.786165 -1.099137 13.671948 1.217533 1.651277 0.004667 -0.004594 1363610.000000 1 0 0
3.452063 13.750265 12.791463 19.094713 1.324826 0.836728 0.005171 -0.008619 -323646.000000 1 0 0
-0.722837 12.322265 9.201563 15.395762 -1.512202 0.930206 -0.003465 0.003544 965909.000000 1 0 0
-7.758937 13.891865 8.518563 18.048572 -1.061433 1.079261 0.014473 -0.007684 2683590.000000 1 0 0
11.404363 12.917965 -4.168537 17.728791 0.847549 1.808147 0.011921 -0.002559 236047.000000 1 0 0
-5.815537 16.241965 0.924663 17.276484 -1.226963 1.517249 0.003959 0.011508 793287.000000 1 0 0
3.248263 10.590165 6.739963 12.966492 1.273182 1.024181 -0.007407 0.002407 481067.000000 1 0 0
-1.214037 15.549865 2.488963 15.794529 -1.492881 1.412553 -0.000027 0.004595 -1231940.000000 1 0 0
9.963663 8.806865 9.587963 16.394038 0.723848 0.946108 0.022150 -0.006513 745890.000000 1 0 0
7.198663 12.220365 6.289263 15.514925 1.038452 1.153414 0.005356 -0.008577 -741451.000000 1 0 0
11.906663 14.053065 -1.495837 18.479578 0.867893 1.651830 0.015933 -0.003195 440336.000000 1 0 0
9.627063 15.881565 -1.106737 18.604551 1.025846 1.630319 0.006120 -0.009327 721044.000000 1 0 0
10.097863 13.677365 3.042363 17.271165 0.934832 1.393720 0.010189 -0.006921 2004120.000000 1 0 0
-6.047437 14.556365 6.324263 16.983980 -1.177043 1.189239 0.000041 -0.003771 443714.000000 1 0 0
-0.864637 18.218465 -6.267437 19.285768 -1.523373 1.901784 0.024646 -0.002994 2944830.000000 1 0 0
-3.545837 15.723565 5.551063 17.047515 -1.348996 1.239126 -0.005861 0.002225 3330060.000000 1 0 0
7.104763 12.104765 10.728163 17.666253 1.040036 0.918178 0.003971 -0.006863 2026930.000000 1 0 0
1.477063 14.548465 6.167863 15.870794 1.469616 1.171652 0.000133 -0.001787 580157.000000 1 0 0
17.504163 7.755665 -1.331937 19.191668 0.417081 1.640254 0.032645 0.012588 -774081.000000 1 0 0
2.083263 16.166465 -3.323137 16.635439 1.442639 1.771912 0.002552 -0.001671 604011.000000 1 0 0
6.723463 11.242665 0.612163 13.114009 1.031826 1.524099 0.006569 -0.004645 1181470.000000 1 0 0
12.626063 9.318865 3.238363 16.023287 0.635819 1.367291 0.006131 0.002196 -1440550.000000 1 0 0
6.098463 14.291965 -3.431037 15.912999 1.167482 1.788115 -0.001355 -0.003778 484625.000000 1 0 0
3.070663 16.514665 1.541663 16.868310 1.386960 1.479275 0.008675 -0.007992 -1935940.000000 1 0 0
2.933463 18.814165 -2.547337 19.211115 1.416124 1.703785 0.016278 -0.013854 525601.000000 1 0 0
3.951663 11.875765 10.669563 16.446550 1.249571 0.864867 0.001023 -0.003129 2674180.000000 1 0 0
7.989163 11.563365 3.467663 14.476285 0.966202 1.328903 0.004017 -0.004029 1936160.000000 1 0 0
0.745663 12.492665 0.209863 12.516659 1.511179 1.554029 0.004906 -0.001572 -1771970.000000 1 0 0
11.968263 9.912665 -4.571937 16.198854 0.691728 1.856923 0.005671 0.001204 732677.000000 1 0 0
-1.294637 16.551265 9.888663 19.323719 -1.492735 1.033591 0.001883 -0.000116 706179.000000 1 0 0
8.205263 14.937865 -7.988837 18.822531 1.068496 2.009128 0.001667 0.004525 2019170.000000 1 0 0
14.565363 7.598465 -1.286137 16.478490 0.480841 1.648925 0.010531 0.009083 2049990.000000 1 0 0
12.544263 8.325765 6.066263 16.231958 0.585954 1.187776 0.016867 -0.004707 -183514.000000 1 0 0
-3.003237 14.225265 10.173463 17.744773 -1.362732 0.960242 0.004374 -0.004803 2476550.000000 1 0 0
-4.551337 17.250965 -3.078237 18.104862 -1.312843 1.741649 0.008368 0.006495 1308370.000000 1 0 0
-7.132937 16.505865 -1.713137 18.062592 -1.162889 1.665784 0.009704 0.006639 900369.000000 1 0 0
8.381163 11.276365 -1.811837 14.166265 0.931629 1.699046 0.007518 -0.000685 -817969.000000 1 0 0
8.564963 12.893765 -4.167637 16.030501 0.984454 1.833800 0.005035 -0.001511 24091.900000 1 0 0
2.550763 14.810365 -7.263037 16.691466 1.400241 2.020984 0.003313 -0.005041 -787113.000000 1 0 0
11.315163 11.370665 9.823363 18.810194 0.787845 1.021325 0.023012 -0.012126 143105.000000 1 0 0
8.514363 15.711565 1.520263 17.934851 1.074180 1.485929 0.007554 -0.008045 9920.490000 1 0 0
6.053063 9.923965 7.740063 13.965430 1.023097 0.983359 0.002542 0.001051 1756640.000000 1 0 0
14.456463 11.449465 2.716563 18.640260 0.669842 1.424539 0.024290 0.000584 1612890.000000 1 0 0
12.131463 12.646465 1.202763 17.565652 0.806180 1.502270 0.016109 -0.000796 1669280.000000 1 0 0
5.245863 15.782265 8.435663 18.648308 1.249895 1.101392 0.012038 -0.008738 -1801530.000000 1 0 0
11.550063 14.928065 5.217063 19.582360 0.912290 1.301123 0.026448 -0.011401 561526.000000 1 0 0
5.920563 16.756065 1.881063 17.870568 1.231150 1.465341 0.000763 -0.012836 720152.000000 1 0 0
-0.599137 16.175465 -4.230437 16.730249 -1.533773 1.826433 0.007937 0.002183 2003760.000000 1 0 0
16.103063 6.511865 2.624263 17.567008 0.384282 1.420849 0.014595 0.005343 -481831.000000 1 0 0
7.716363 16.673065 -3.120437 18.635195 1.137346 1.739037 -0.003154 -0.007344 -913446.000000 1 0 0
14.877063 8.095165 7.651863 18.585201 0.498331 1.146458 0.038767 -0.006662 -663225.000000 1 0 0
2.132063 12.903465 8.571263 15.636869 1.407044 0.990652 -0.001377 -0.000751 1383860.000000 1 0 0
16.058363 7.532565 -5.757137 18.648195 0.438602 1.884647 0.029304 0.004092 275584.000000 1 0 0
-2.960837 17.041365 0.749963 17.312918 -1.398769 1.527465 -0.003191 0.009582 866388.000000 1 0 0
-2.883537 18.582765 4.563463 19.350947 -1.416851 1.332728 -0.003381 0.002395 2136630.000000 1 0 0
-0.900437 19.117365 0.879063 19.158737 -1.523731 1.524897 -0.000772 0.005119 46415.200000 1 0 0
6.975263 16.865665 -6.014237 19.216556 1.178640 1.889117 -0.000164 -0.003609 301708.000000 1 0 0
10.996563 10.089265 0.890363 14.950265 0.742396 1.511206 0.003054 0.001256 -1003050.000000 1 0 0
8.976363 8.585865 14.361563 18.988066 0.763167 0.713086 0.030345 -0.007421 562854.000000 1 0 0
6.442163 12.519365 -8.324837 16.356616 1.095556 2.104771 0.011594 -0.003839 573140.000000 1 0 0
6.300163 8.901965 13.250963 17.161732 0.954903 0.688622 0.011108 -0.007936 222000.000000 1 0 0
16.667263 9.501965 3.124963 19.438374 0.518142 1.409333 0.024778 0.010547 -1194610.000000 1 0 0
2.571163 14.779765 -0.718537 15.018943 1.398555 1.618657 0.004245 -0.002980 2107170.000000 1 0 0
9.080163 12.837365 8.405463 17.829726 0.955173 1.079885 0.019140 -0.014478 1218730.000000 1 0 0
7.224563 9.237865 10.507263 15.745953 0.907091 0.840220 0.007437 -0.005611 1391840.000000 1 0 0
4.326863 15.758665 -5.328737 17.188738 1.302830 1.886003 0.000868 -0.004853 2804610.000000 1 0 0
0.287063 16.291165 -8.161737 18.223568 1.553177 2.035175 0.012247 -0.004570 -640361.000000 1 0 0
-2.419937 15.670565 -1.966037 15.977735 -1.417581 1.694158 -0.002921 0.009666 554292.000000 1 0 0
13.311963 10.478765 7.803163 18.652137 0.666868 1.139166 0.030228 -0.009654 2453320.000000 1 0 0
-0.987537 15.888565 7.078663 17.422090 -1.508722 1.152391 0.001883 -0.001169 2574730.000000 1 0 0
13.322163 13.335665 6.824963 20.047447 0.785905 1.223411 0.033607 -0.008257 -263905.000000 1 0 0
5.352863 17.305665 4.628263 18.696524 1.270818 1.320649 0.010854 -0.008055 140172.000000 1 0 0
10.824463 9.581065 -1.815037 14.569151 0.724539 1.695702 -0.000465 0.006435 1027060.000000 1 0 0
3.230863 12.731265 4.720763 13.957406 1.322269 1.225765 -0.001614 0.001098 1723970.000000 1 0 0
-0.180437 17.996965 3.553063 18.345233 -1.560771 1.375887 0.002387 -0.000548 1734020.000000 1 0 0
-7.679237 15.880065 -5.807037 18.570645 -1.120373 1.888830 0.024757 -0.015265 -56839.400000 1 0 0
-12.510737 -9.114035 8.249163 17.539466 0.629597 1.081143 0.018227 -0.004149 688042.000000 1 0 0
-13.408637 -11.691635 6.819563 19.052357 0.717099 1.204738 0.031850 -0.004659 -205368.000000 1 0 0
-6.514137 -12.188335 12.266763 18.478716 1.079965 0.844865 0.010549 -0.014088 -1473030.000000 1 0 0
-1.820737 -10.693835 14.391163 18.021619 1.402153 0.645914 0.006689 -0.016577 1094910.000000 1 0 0
-8.900737 2.846565 10.930863 14.380884 -0.309533 0.707334 0.006010 -0.006054 771733.000000 1 0 0
0.341263 9.950665 15.319363 18.270607 1.536514 0.576326 -0.001241 0.004505 -1670000.000000 1 0 0
0.942363 -6.876835 16.514463 17.913860 -1.434610 0.397887 0.020378 -0.016225 2652350.000000 1 0 0
6.031263 2.071565 17.773463 18.882889 0.330847 0.344492 0.029515 -0.010632 311384.000000 1 0 0
-5.223337 -2.935335 17.646863 18.636287 0.511983 0.327316 0.016173 -0.011794 -910858.000000 1 0 0
-4.366137 8.044565 12.952263 15.859990 -1.073541 0.615192 -0.004413 -0.004038 1038440.000000 1 0 0
-0.152937 -4.974135 18.510963 19.168233 1.540060 0.262630 0.015382 -0.022650 -327996.000000 1 0 0
-11.614137 2.026365 11.066663 16.169891 -0.172735 0.817017 0.012929 -0.004717 743363.000000 1 0 0
-3.458537 -6.144735 14.314963 15.957362 1.058144 0.457690 0.019176 -0.011885 1004470.000000 1 0 0
-7.560937 -2.226535 14.562863 16.559052 0.286384 0.496090 0.010193 -0.004530 1812300.000000 1 0 0
-6.194137 -1.148335 10.583863 12.316824 0.183309 0.536894 0.008908 -0.005435 2442870.000000 1 0 0
-4.035837 2.355365 11.112763 12.055257 -0.528283 0.398049 -0.001550 0.001397 -434187.000000 1 0 0
-6.479837 6.178465 13.538863 16.231529 -0.761594 0.584281 -0.009864 -0.006010 -107571.000000 1 0 0
-9.023737 5.364765 12.447163 16.283132 -0.536378 0.700654 -0.001684 -0.011027 407117.000000 1 0 0
-12.329837 -2.091235 15.773763 20.129822 0.168009 0.670354 0.014554 0.003217 1351880.000000 1 0 0
-3.606937 -7.670335 16.875663 18.884703 1.131235 0.465459 0.017832 -0.016393 -670939.000000 1 0 0
-0.565537 -5.424035 14.348263 15.349678 1.466907 0.363214 0.011623 -0.008926 1255160.000000 1 0 0
-14.328437 -2.204535 13.623963 19.894131 0.152660 0.816435 0.025422 0.002217 -493706.000000 1 0 0
-6.543237 1.422165 12.153163 13.875730 -0.214020 0.503586 0.003988 -0.003337 2065710.000000 1 0 0
2.123963 -2.355135 14.588663 14.929399 -0.836964 0.214059 0.007549 -0.006942 1547030.000000 1 0 0
-12.560737 4.024765 9.051263 15.996756 -0.310088 0.969371 0.013470 -0.006408 360976.000000 1 0 0
-9.179137 -2.894935 12.541763 15.809270 0.305508 0.654558 0.003411 0.002787 1291450.000000 1 0 0
-7.265137 -7.188035 15.195563 18.312706 0.780064 0.592078 0.021200 -0.011914 -5574.320000 1 0 0
-3.505937 5.957565 19.454663 20.646261 -1.038887 0.341405 0.037303 -0.007075 -10900.300000 1 0 0
0.518663 5.371065 16.144163 17.022084 1.474529 0.322568 0.008603 -0.001429 502141.000000 1 0 0
3.409263 1.276665 16.827263 17.216554 0.358306 0.213059 0.013203 -0.008700 2715880.000000 1 0 0
-11.670337 11.403665 7.927863 18.140875 -0.773841 1.118517 0.014433 -0.013746 -356445.000000 1 0 0
0.717363 -9.554335 15.344163 18.089866 -1.495854 0.558183 0.005688 -0.008608 743438.000000 1 0 0
-2.647037 -3.717335 18.873563 19.417434 0.952009 0.237239 0.024399 -0.020237 1861110.000000 1 0 0
-12.972537 2.249465 13.620763 18.943917 -0.171695 0.768427 0.014493 -0.010970 194151.000000 1 0 0
-5.490937 -0.541935 15.812163 16.747196 0.098378 0.335737 0.012444 -0.001292 1982250.000000 1 0 0
-4.514337 -5.974535 11.556863 13.770816 0.923723 0.574933 0.014126 -0.005453 810272.000000 1 0 0
2.363363 1.721465 13.989963 14.292235 0.629531 0.206031 0.002014 -0.002774 1321320.000000 1 0 0
0.057563 3.224065 14.186763 14.548613 1.552944 0.223498 0.007590 -0.004447 -938597.000000 1 0 0
-12.974937 7.054165 12.087563 19.084533 -0.497975 0.884897 0.012824 -0.012010 732396.000000 1 0 0
0.836063 1.305765 18.233763 18.299566 1.001281 0.084830 0.015210 -0.006541 1998060.000000 1 0 0
-2.025137 6.411765 12.430963 14.132967 -1.264865 0.495834 -0.007558 -0.001024 249387.000000 1 0 0
-13.670637 -2.641735 10.808863 17.626588 0.190889 0.910674 0.025184 -0.000818 1544550.000000 1 0 0
-2.620737 3.596365 13.435563 14.153320 -0.941055 0.319836 -0.001343 -0.001090 82485.200000 1 0 0
3.344663 6.040965 16.328563 17.728564 1.065145 0.400076 0.009463 -0.000133 420711.000000 1 0 0
-3.688637 12.288365 12.353663 17.810754 -1.279181 0.804312 -0.001512 -0.003974 -1009340.000000 1 0 0
3.774363 -1.728535 17.082263 17.579458 -0.429460 0.238399 0.020622 -0.008382 -747014.000000 1 0 0
-15.930037 0.552965 9.096963 18.352836 -0.034698 1.052189 0.041115 -0.009491 -73762.800000 1 0 0
-4.719837 4.569765 15.229963 16.586482 -0.769245 0.407245 0.004823 -0.005966 1306240.000000 1 0 0
-8.132037 -8.130735 10.449763 15.538224 0.785318 0.833188 0.015539 -0.010635 3891460.000000 1 0 0
-2.738937 -0.521135 14.751763 15.012923 0.188021 0.186796 0.011704 -0.003022 2079750.000000 1 0 0
-1.994637 0.966365 17.230463 17.372429 -0.451156 0.127930 0.011476 -0.005568 -33633.500000 1 0 0
-0.816937 -2.547435 14.395163 14.641637 1.260467 0.183745 0.012938 -0.005328 917228.000000 1 0 0
5.074363 -8.343635 16.488763 19.163629 -1.024390 0.534704 0.026574 -0.002407 -881917.000000 1 0 0
-4.470837 9.951165 10.639163 15.238302 -1.148543 0.797936 -0.002383 -0.001128 -2450110.000000 1 0 0
-6.304437 2.127165 15.151563 16.548130 -0.325413 0.413784 0.008425 -0.003936 490265.000000 1 0 0
-5.137637 6.749265 17.266663 19.237607 -0.920157 0.456621 0.019958 -0.005458 -995574.000000 1 0 0
-4.202337 9.024865 15.637063 18.537140 -1.135013 0.566931 0.008985 -0.005908 1026720.000000 1 0 0
-4.724737 -9.980335 18.357063 21.422231 1.128650 0.541539 0.023172 -0.018989 -421018.000000 1 0 0
-6.927337 -4.109535 11.074863 13.694118 0.535430 0.628804 0.013758 -0.001476 1895850.000000 1 0 0
-2.501937 -0.906835 19.534463 19.714900 0.347725 0.135398 0.016374 -0.010753 -1029550.000000 1 0 0
-5.824637 -4.508935 15.195463 16.886651 0.658756 0.451369 0.015268 -0.008631 1227210.000000 1 0 0
-13.066237 0.036665 9.652563 16.244995 -0.002806 0.934542 0.017276 -0.003653 890693.000000 1 0 0
-14.412037 8.749465 10.321463 19.768474 -0.545620 1.021465 0.014866 -0.015481 -880395.000000 1 0 0
-8.403037 10.328365 12.846863 18.502109 -0.887825 0.803286 0.007621 -0.015843 -1433720.000000 1 0 0
-10.462937 7.179565 10.633263 16.555527 -0.601397 0.873329 0.009771 -0.008298 202119.000000 1 0 0
-10.018937 -6.443135 14.679763 18.904722 0.571506 0.681684 0.014520 -0.009265 2294470.000000 1 0 0
-0.871437 -13.445135 14.344863 19.680095 1.506073 0.754079 0.013441 -0.022017 151653.000000 1 0 0
3.768863 -5.711135 16.911463 18.243326 -0.987483 0.384478 0.031450 -0.016688 2185720.000000 1 0 0
-7.238437 9.298965 10.433163 15.739016 -0.909357 0.846130 0.002418 -0.008444 314854.000000 1 0 0
-10.417637 -6.569935 11.708163 16.993301 0.562655 0.810706 0.012041 -0.011491 2564780.000000 1 0 0
-11.009137 -3.790735 10.598963 15.745119 0.331611 0.832324 0.011072 0.000137 182398.000000 1 0 0
-10.206037 -10.259735 9.834763 17.497083 0.788022 0.973898 0.021053 -0.010892 1362720.000000 1 0 0
-9.956837 -3.577435 15.206963 18.525344 0.344931 0.607858 0.011263 -0.005630 2190500.000000 1 0 0
5.658263 -3.468035 15.966363 17.290689 -0.549862 0.393929 0.025152 -0.013783 -47923.500000 1 0 0
-11.305237 0.553765 15.271063 19.008430 -0.048944 0.637840 0.014664 -0.006085 138463.000000 1 0 0
-3.247337 3.103065 18.874663 19.401730 -0.762684 0.233623 0.016710 -0.005506 1199570.000000 1 0 0
0.398463 7.311165 13.948963 15.753903 1.516350 0.483380 -0.000602 -0.000319 1385860.000000 1 0 0
-13.301937 -7.371835 12.012263 19.379885 0.506056 0.902268 0.012966 -0.008994 340076.000000 1 0 0
-1.613337 -1.199535 12.154763 12.319902 0.639335 0.163917 0.007823 -0.003553 279514.000000 1 0 0
1.951263 -4.984635 13.023263 14.080461 -1.197677 0.389978 0.007745 -0.008784 1792220.000000 1 0 0
-14.741437 -4.168835 8.576363 17.556855 0.275600 1.060437 0.022302 -0.004865 -1675380.000000 1 0 0
8.024963 0.748565 16.104563 18.008812 0.093010 0.464021 0.023747 -0.015423 1022240.000000 1 0 0
-1.269237 11.245565 13.403663 17.542288 -1.458406 0.701187 -0.005162 0.002409 914580.000000 1 0 0
2.908963 -12.135735 -13.701037 18.532580 -1.335533 2.402819 0.004282 0.011388 -441255.000000 1 0 0
0.843863 -10.574135 -13.960537 17.533426 -1.491161 2.491825 -0.000139 0.010954 -888735.000000 1 0 0
3.277963 -14.359035 -12.471037 19.299059 -1.346357 2.273390 0.005961 0.012847 -499690.000000 1 0 0
-4.914437 -10.324735 -16.267137 19.883953 1.126543 2.528902 0.012761 -0.002687 -481269.000000 1 0 0
-1.020937 -12.078435 -14.997937 19.283906 1.486471 2.461865 0.006339 0.005523 -159411.000000 1 0 0
5.791063 -15.148035 -11.868337 20.096188 -1.205643 2.202569 0.000676 0.016804 1409890.000000 1 0 0
2.112563 -11.770935 -16.053037 20.017938 -1.393214 2.501320 0.009406 0.005266 -506162.000000 1 0 0
1.373863 -14.217535 -14.194937 20.137578 -1.474464 2.353076 0.016478 0.014845 -585118.000000 1 0 0
-1.010137 -10.513835 -15.899237 19.087872 1.475013 2.555213 0.004933 0.000994 -346810.000000 1 0 0
-6.025737 -5.525735 -15.336937 17.380014 0.742140 2.651835 0.014315 -0.001290 69297.400000 1 0 0
-6.339137 -7.597235 -16.672037 19.387095 0.875429 2.605979 0.010019 0.000545 154903.000000 1 0 0
5.071563 -12.698235 -11.265537 17.716609 -1.190815 2.259937 -0.003918 0.014215 422234.000000 1 0 0
-1.751537 -15.342935 -13.211237 20.322655 1.457129 2.278479 0.023171 0.002969 -97868.000000 1 0 0
15.807563 -7.359835 -8.809437 19.535926 -0.435742 2.038609 0.042761 -0.003767 434756.000000 1 0 0
19.174263 -3.473735 -4.032037 19.899159 -0.179223 1.774833 0.043244 -0.019395 -349217.000000 1 0 0
14.987263 -11.597535 -8.780737 20.885933 -0.658576 2.004698 0.051217 -0.014558 -148.902000 1 0 0
17.957663 -3.662135 -6.316437 19.385207 -0.201173 1.902694 0.063143 -0.011878 606961.000000 1 0 0
9.446163 -9.088135 -15.465537 20.273308 -0.766083 2.438509 0.044617 -0.015672 -181546.000000 1 0 0
1.287863 1.957165 -15.309537 15.487770 0.988801 2.989737 0.010457 -0.008762 132605.000000 1 0 0
4.867563 -4.382835 -13.830537 15.303142 -0.733045 2.699296 0.002363 -0.000103 900314.000000 1 0 0
13.234063 -5.496235 -8.624637 16.725232 -0.393634 2.112581 0.037812 -0.004732 -845078.000000 1 0 0
3.060063 0.980865 -12.082337 12.502358 0.310191 2.881650 0.007574 -0.008367 -3622310.000000 1 0 0
0.802363 6.315065 -12.980237 14.457192 1.444418 2.685634 0.011779 -0.007136 -289749.000000 1 0 0
3.168563 -1.103135 -16.729337 17.062456 -0.335026 2.943666 0.015771 -0.008580 -607742.000000 1 0 0
13.340163 4.498065 -11.473137 18.161096 0.325211 2.254595 0.007740 -0.002674 981800.000000 1 0 0
-3.717937 9.367765 -16.678237 19.486962 -1.192977 2.598020 0.000920 -0.003915 84366.900000 1 0 0
-0.152037 -5.118935 -17.617437 18.346681 1.541104 2.858700 0.013187 -0.013998 107339.000000 1 0 0
-0.442437 -8.497935 -17.633437 19.579294 1.518779 2.691983 0.010184 -0.001277 -348401.000000 1 0 0
5.649563 -10.233035 -12.091037 16.817424 -1.066349 2.373100 -0.001521 0.009342 325359.000000 1 0 0
1.688863 -9.725035 -18.086937 20.604996 -1.398850 2.642033 0.008539 -0.003220 -833181.000000 1 0 0
11.059463 8.831565 -14.443237 20.221656 0.673858 2.366343 0.041424 -0.011036 -1256090.000000 1 0 0
10.980463 -3.713335 -12.825637 17.287463 -0.326103 2.406702 0.021062 -0.012651 653256.000000 1 0 0
4.906963 7.650765 -12.297337 15.291730 1.000513 2.505095 0.005521 -0.001105 541514.000000 1 0 0
9.686863 -5.921335 -12.519837 16.901001 -0.548669 2.405019 0.018906 -0.003838 -863819.000000 1 0 0
-3.249137 0.419065 -15.838637 16.173897 -0.128269 2.937630 0.014634 -0.008111 -1471830.000000 1 0 0
-0.738137 10.665265 -12.780937 16.662686 -1.501697 2.445010 0.001854 -0.003481 -224329.000000 1 0 0
6.627663 -5.428735 -12.209037 14.915015 -0.686281 2.529720 0.004033 -0.000250 -264251.000000 1 0 0
18.005563 -6.097735 -8.112037 20.668522 -0.326535 1.974126 0.055579 -0.013342 635154.000000 1 0 0
13.235763 4.537465 -14.078937 19.849194 0.330263 2.359294 0.013019 -0.007157 244856.000000 1 0 0
14.369463 0.818365 -11.418237 18.371917 0.056890 2.241459 0.025585 -0.010208 -465938.000000 1 0 0
15.408363 6.129765 -10.963437 19.879352 0.378626 2.154956 0.042772 -0.013932 1406700.000000 1 0 0
8.328563 1.568565 -11.723637 14.466134 0.186155 2.515664 0.002259 -0.001296 1022510.000000 1 0 0
10.016063 1.351965 -8.979537 13.519668 0.134169 2.297197 0.005505 -0.003016 283167.000000 1 0 0
-0.138637 -5.668235 -12.934337 14.122506 1.546343 2.728458 0.008769 -0.001575 278166.000000 1 0 0
10.607863 -5.652735 -8.921637 14.969161 -0.489606 2.209308 0.021698 -0.004852 99871.800000 1 0 0
10.220063 8.522165 -11.190437 17.386859 0.695053 2.270008 0.018598 -0.005946 493219.000000 1 0 0
8.544463 8.147565 -14.730537 18.878014 0.761625 2.465944 0.038535 0.001968 935093.000000 1 0 0
8.742963 10.686965 -10.731337 17.487488 0.885118 2.231482 0.022874 -0.001234 -1443590.000000 1 0 0
7.140863 1.852065 -17.766737 19.237438 0.253770 2.748034 0.026419 -0.006516 -1058860.000000 1 0 0
12.391163 2.465465 -12.729037 17.934543 0.196405 2.359939 0.016520 -0.009633 -1599470.000000 1 0 0
2.696563 -0.893935 -19.333837 19.541439 -0.320108 2.995699 0.025507 -0.014191 -382941.000000 1 0 0
10.249863 -2.161935 -15.443137 18.660765 -0.207876 2.545566 0.021898 -0.011449 -34234.700000 1 0 0
8.345363 -0.781635 -13.017737 15.482814 -0.093388 2.569530 0.006864 -0.006158 710997.000000 1 0 0
0.594163 4.376765 -14.650837 15.302161 1.435867 2.848780 0.009697 -0.005140 561273.000000 1 0 0
4.077063 -7.544535 -15.666537 17.860091 -1.075354 2.640756 0.004776 -0.003785 -825924.000000 1 0 0
11.387363 -5.707335 -14.537437 19.328290 -0.464606 2.422089 0.037970 -0.007523 -71524.700000 1 0 0
-5.816537 4.459365 -16.814037 18.342025 -0.654085 2.730525 0.006673 -0.006318 60244.200000 1 0 0
11.510863 7.846465 -9.102837 16.641173 0.598309 2.149581 0.018842 -0.002243 -2523760.000000 1 0 0
9.536063 6.184765 -13.346437 17.530408 0.575366 2.436159 0.017626 -0.002018 -1319090.000000 1 0 0
12.188163 0.650965 -10.155737 15.878100 0.053359 2.264783 0.015207 -0.006853 -2866310.000000 1 0 0
5.607463 -7.226735 -13.674437 16.451734 -0.910904 2.552032 -0.001631 0.004894 -490243.000000 1 0 0
8.773563 -10.240435 -10.609537 17.158210 -0.862393 2.237420 0.018308 0.003201 -78847.700000 1 0 0
10.192063 4.772165 -15.802137 19.399981 0.437905 2.522739 0.036415 -0.005691 -339082.000000 1 0 0
10.028663 -0.329135 -10.987737 14.879946 -0.032808 2.401529 0.007748 -0.005255 1657710.000000 1 0 0
-1.671337 5.463265 -13.859337 14.990726 -1.273915 2.750590 0.007018 -0.008705 1623240.000000 1 0 0
1.384663 -0.650135 -14.853937 14.932495 -0.438972 3.038972 0.008431 -0.008411 -516793.000000 1 0 0
11.376163 -10.402235 -14.349937 21.060491 -0.740708 2.320426 0.059257 -0.014677 -268776.000000 1 0 0
9.380363 -7.803435 -10.683037 16.217647 -0.693886 2.289925 0.019486 -0.001407 -326182.000000 1 0 0
13.982763 -1.003735 -9.513937 16.942259 -0.071661 2.167055 0.017517 -0.008815 683367.000000 1 0 0
4.014663 11.058865 -12.259737 16.991680 1.222564 2.376783 0.021123 -0.009228 -151095.000000 1 0 0
-1.197237 2.880765 -16.880337 17.166187 -1.176917 2.958845 0.006648 -0.007990 219143.000000 1 0 0
5.795363 -0.369335 -17.818437 18.740847 -0.063643 2.826542 0.007605 0.005272 36878.700000 1 0 0
6.577463 -6.579535 -16.019437 18.525001 -0.785556 2.615443 0.016955 0.002053 230998.000000 1 0 0
-1.704437 -5.232435 -19.656537 20.412323 1.255891 2.868621 0.009967 -0.021091 -108225.000000 1 0 0
-0.043337 -4.280635 -15.162637 15.755357 1.560673 2.866425 0.008289 -0.007505 -116861.000000 1 0 0
0.688363 0.864665 -12.939137 12.986253 0.898436 3.056383 0.009324 -0.010110 -22126.500000 1 0 0
15.896263 0.659565 -13.427537 20.818861 0.041468 2.271780 0.042036 -0.023420 703637.000000 1 0 0
-0.102237 6.973365 -16.292337 17.722261 -1.556136 2.737132 0.014694 -0.001801 -590468.000000 1 0 0
-4.620237 -0.589435 -18.201837 18.788318 0.126891 2.891077 -0.000107 -0.010246 -356680.000000 1 0 0
10.360563 -8.354535 -13.119837 18.688757 -0.678618 2.349023 0.022533 -0.009434 689401.000000 1 0 0
4.223063 8.604865 -17.236037 19.722042 1.114555 2.634063 0.039151 -0.013679 -120127.000000 1 0 0
9.330763 0.759465 -16.803237 19.235090 0.081215 2.633290 0.016502 -0.005611 -157553.000000 1 0 0
3.390763 4.821765 -18.499637 19.416057 0.957912 2.833128 0.026540 -0.005184 -159907.000000 1 0 0
1.510863 -8.144635 -15.968937 17.989573 -1.387377 2.663073 0.005179 -0.001525 510752.000000 1 0 0
4.688563 7.732765 -14.953037 17.474885 1.025740 2.597674 0.019012 -0.000940 513092.000000 1 0 0
-5.638437 -0.469335 -15.221437 16.238978 0.083047 2.785711 0.010881 -0.005954 -296261.000000 1 0 0
2.985063 3.359465 -13.828137 14.540082 0.844342 2.827366 0.010713 -0.004220 562839.000000 1 0 0
-2.232037 -10.326235 -18.143437 20.995176 1.357919 2.614298 0.012392 0.001179 -40702.000000 1 0 0
6.163163 -9.030535 -15.420237 18.902879 -0.971926 2.524841 0.001846 -0.001119 82262.000000 1 0 0
-1.759637 5.399465 -17.330637 18.237367 -1.255759 2.824936 0.009210 -0.004458 509237.000000 1 0 0
10.119463 -12.286035 -11.733537 19.774379 -0.881797 2.206036 0.039520 0.000998 -84079.900000 1 0 0
11.042863 3.727165 -9.277537 14.896620 0.325512 2.243106 0.009201 -0.002378 -484937.000000 1 0 0
4.927463 -0.354035 -10.907637 11.974213 -0.071726 2.716322 0.007076 -0.009485 -204954.000000 1 0 0
6.421663 9.648865 -11.325037 16.204778 0.983577 2.344613 0.013893 -0.005662 25319.400000 1 0 0
10.882663 -9.507035 -9.334337 17.203078 -0.718033 2.144322 0.031601 -0.003766 -1677070.000000 1 0 0
3.274463 -2.428135 -14.463237 15.026749 -0.638063 2.866866 0.009320 -0.005970 -225696.000000 1 0 0
9.102363 -4.464135 -14.565937 17.746775 -0.455968 2.533546 0.020594 -0.009878 -400478.000000 1 0 0
-3.983237 -6.479435 -16.709937 18.359500 1.019601 2.714447 0.004502 -0.004627 -1004900.000000 1 0 0
5.897763 -7.823935 -11.190837 14.873883 -0.924861 2.422467 -0.005250 0.004883 17982.700000 1 0 0
5.422263 6.231165 -16.993137 18.894313 0.854700 2.689142 0.027646 -0.008068 -1727940.000000 1 0 0
9.088863 1.179765 -19.281537 21.348933 0.129082 2.697874 0.034094 -0.015682 588727.000000 1 0 0
13.180263 5.928765 -9.502237 17.296303 0.422705 2.152418 0.004633 -0.000910 557429.000000 1 0 0
-1.456137 -0.686535 -17.230237 17.305281 0.440570 3.048431 0.013431 -0.014005 592914.000000 1 0 0
-0.432537 -0.614035 -19.493737 19.508201 0.957111 3.103082 0.020477 -0.019409 -246031.000000 1 0 0
2.862963 6.457665 -16.467837 17.918919 1.153492 2.736382 0.021417 -0.000987 889223.000000 1 0 0
7.770363 3.802965 -15.655037 17.886343 0.455147 2.636751 0.019777 0.000042 -297017.000000 1 0 0
3.169863 -9.762235 -14.828937 18.034595 -1.256830 2.536149 0.000709 0.004613 103851.000000 1 0 0
8.975563 -10.589135 -13.346237 19.256494 -0.867686 2.336545 0.027376 -0.003415 112141.000000 1 0 0
3.847663 0.121365 -14.640737 15.138376 0.031532 2.884476 0.013568 -0.005777 -2566640.000000 1 0 0
-1.116237 -2.935435 -18.757437 19.018523 1.207420 2.975704 0.020389 -0.016337 150451.000000 1 0 0
9.309363 10.055065 -13.142937 18.986979 0.823888 2.335340 0.036386 -0.009025 -122149.000000 1 0 0
4.795163 2.195265 -10.694037 11.923725 0.429328 2.683439 0.001463 -0.003805 34291.100000 1 0 0
-0.558337 7.084065 -18.863037 20.157130 -1.492143 2.781317 0.025295 -0.004769 157823.000000 1 0 0
0.919963 -1.860735 -17.648137 17.769789 -1.111632 3.024513 0.019789 -0.015188 -2118440.000000 1 0 0
-4.487337 -2.333735 -14.021737 14.906094 0.479575 2.795400 0.013872 -0.008237 -3358280.000000 1 0 0
10.064363 6.061265 -10.458137 15.729049 0.542072 2.298147 0.011092 0.004464 51562.400000 1 0 0
8.477663 5.673365 -17.469837 20.230004 0.589764 2.613085 0.046102 -0.010902 -534519.000000 1 0 0
11.577863 0.137565 -13.539437 17.815224 0.011881 2.434098 0.015880 -0.003681 548695.000000 1 0 0
6.941463 12.021665 -11.910237 18.290929 1.047151 2.279902 0.029093 -0.010918 -25572.200000 1 0 0
-0.895237 0.482365 -14.877337 14.912052 -0.494214 3.073345 0.009912 -0.007536 15057.300000 1 0 0
-4.150237 -2.979035 -19.040637 19.714081 0.622572 2.879460 0.004122 -0.009421 410218.000000 1 0 0
5.903563 -12.243435 -13.784937 19.359190 -1.121505 2.363227 0.007911 0.006970 45801.100000 1 0 0
2.168263 -4.700735 -13.935837 14.866265 -1.138618 2.785923 0.005828 -0.002627 -540764.000000 1 0 0
12.077263 1.861265 -15.248137 19.540478 0.152910 2.465999 0.037811 -0.009355 450131.000000 1 0 0
9.935363 2.263065 -13.759337 17.121690 0.223958 2.504150 0.017938 -0.005365 327863.000000 1 0 0
-2.240737 -4.075535 -16.395337 17.042241 1.068105 2.865182 0.005561 -0.011906 188019.000000 1 0 0
-2.954837 10.091765 -14.286937 17.739542 -1.285961 2.507100 0.003875 -0.008053 26784.500000 1 0 0
3.596363 5.824565 -13.671437 15.289460 1.017647 2.677379 0.010812 -0.002291 -286318.000000 1 0 0
-4.982037 -2.618735 -16.512537 17.445411 0.483945 2.813089 0.007470 -0.006636 247955.000000 1 0 0
-4.253737 6.152665 -13.531537 15.461309 -0.965889 2.636619 0.001787 -0.008633 -179998.000000 1 0 0
5.855363 -1.183235 -13.873437 15.104886 -0.199392 2.734999 0.014248 -0.006899 -2656360.000000 1 0 0
6.842463 -2.950935 -12.571637 14.614150 -0.407168 2.606531 0.007453 -0.004382 1668340.000000 1 0 0
2.924563 -3.243335 -18.168837 18.686330 -0.837035 2.905701 0.020911 -0.018327 238542.000000 1 0 0
7.499763 -12.035535 -11.949537 18.544325 -1.013539 2.271005 0.009004 0.005796 -1491690.000000 1 0 0
-6.070237 -5.526735 -18.013837 19.796235 0.738567 2.713991 0.024256 -0.001551 555872.000000 1 0 0
0.600363 8.648065 -11.883437 14.709370 1.501486 2.511346 0.005596 -0.004355 -136584.000000 1 0 0
0.310763 8.516265 -14.392337 16.726109 1.534322 2.606990 0.007168 -0.003635 -707502.000000 1 0 0
7.658563 -2.384235 -14.983837 16.995692 -0.301806 2.650092 0.012653 -0.011806 -770133.000000 1 0 0
14.374463 1.462065 -8.825437 16.930776 0.101364 2.119130 0.011575 -0.005604 510614.000000 1 0 0
2.796763 10.835765 -14.593437 18.390326 1.318204 2.487399 0.026418 -0.002577 -25098.000000 1 0 0
6.142563 0.983665 -15.485837 16.688614 0.158791 2.759612 0.013873 0.002147 551342.000000 1 0 0
16.740063 -5.437135 -10.261237 20.373638 -0.314049 2.098618 0.078988 -0.018491 420641.000000 1 0 0
4.848563 -4.135835 -11.129337 12.824813 -0.706234 2.621548 -0.001262 -0.000372 -915259.000000 1 0 0
8.735463 -3.500635 -16.959337 19.395409 -0.381143 2.634993 0.019382 -0.013456 318128.000000 1 0 0
13.396963 -9.497035 -8.878837 18.668316 -0.616671 2.066454 0.054409 -0.008168 -888833.000000 1 0 0
2.342863 -7.661435 -13.565937 15.755039 -1.274027 2.608135 -0.001040 0.001550 302245.000000 1 0 0
-6.619937 -2.142435 -18.494037 19.759631 0.312996 2.781745 0.000937 -0.013778 -649973.000000 1 0 0
-1.464137 -6.435035 -15.658537 16.992444 1.347079 2.742722 0.008128 -0.009498 778552.000000 1 0 0
1.680963 -7.175335 -18.461037 19.877650 -1.340677 2.761778 0.012964 -0.012438 -416522.000000 1 0 0
5.379763 11.119865 -14.474037 19.028689 1.120195 2.435099 0.040000 -0.013976 -957564.000000 1 0 0
5.479363 -3.372035 -17.226637 18.388884 -0.551671 2.784154 0.021506 -0.013031 -200325.000000 1 0 0
3.864263 13.121765 -13.901037 19.502618 1.284400 2.364247 0.033780 -0.012467 194865.000000 1 0 0
9.528763 10.407765 -15.791637 21.177694 0.829460 2.412341 0.053769 -0.012166 259634.000000 1 0 0
2.537763 3.862465 -16.345937 16.986717 0.989494 2.866050 0.017696 -0.002180 179864.000000 1 0 0
16.786563 1.854565 -11.262037 20.299300 0.110033 2.158918 0.046697 -0.019521 1579490.000000 1 0 0
10.071063 -3.578235 -10.431937 14.935039 -0.341387 2.344078 0.018166 -0.006784 -99599.200000 1 0 0
14.703463 -2.025535 -11.796737 18.959368 -0.136897 2.242361 0.049709 -0.015976 -248435.000000 1 0 0
-2.657737 -8.600535 -16.195937 18.529467 1.271085 2.634302 0.012005 0.005511 -114778.000000 1 0 0
14.032863 8.310065 -8.837237 18.549264 0.534654 2.067375 0.033849 -0.001474 501713.000000 1 0 0
-8.142737 0.036565 -16.555737 18.449876 -0.004491 2.684492 0.002929 -0.005493 -668936.000000 1 0 0
-3.452137 4.017165 -15.852437 16.713905 -0.860901 2.819130 0.007446 -0.007084 700981.000000 1 0 0
15.099463 3.982365 -9.594737 18.327902 0.257870 2.121755 0.014890 -0.007644 835620.000000 1 0 0
5.425463 1.173765 -12.964637 14.103021 0.213060 2.737046 0.009908 -0.006379 -39861.300000 1 0 0
7.910763 -7.655635 -12.803737 16.885633 -0.769010 2.431440 0.011008 0.000964 -4614230.000000 1 0 0
3.302263 -6.040635 -11.800837 13.662136 -1.070510 2.613485 -0.000110 0.001293 -1194070.000000 1 0 0
-3.161237 3.498165 -18.387537 18.982416 -0.835949 2.890581 0.005309 -0.006252 -196282.000000 1 0 0
0.882463 5.147365 -17.885237 18.632118 1.401007 2.857493 0.021560 -0.004942 -727240.000000 1 0 0
6.382763 7.242365 -10.235337 14.069600 0.848404 2.385437 0.002375 0.001924 134966.000000 1 0 0
9.873563 3.794765 -11.675237 15.754322 0.366930 2.405476 0.015541 -0.002928 196418.000000 1 0 0
4.560363 1.889565 -17.365637 18.053607 0.392812 2.864639 0.025176 -0.005860 -79688.400000 1 0 0
2.677163 8.175765 -13.328837 15.864055 1.254349 2.568432 0.013011 -0.002740 -437429.000000 1 0 0
14.477163 -3.501535 -9.749037 17.801481 -0.237309 2.150353 0.043746 -0.010291 365579.000000 1 0 0
-1.220337 9.363365 -16.121837 18.683562 -1.441196 2.611754 0.011237 -0.002522 -1444460.000000 1 0 0
-5.274337 2.055165 -15.806237 16.789267 -0.371556 2.797699 0.013594 -0.006903 554648.000000 1 0 0
4.520663 4.412865 -11.994937 13.556854 0.773332 2.656834 0.009809 -0.005737 593544.000000 1 0 0
9.369363 3.224865 -17.664837 20.254165 0.331492 2.630393 0.027873 -0.003109 782270.000000 1 0 0
-4.271637 14.361265 -13.429837 20.120968 -1.281688 2.301582 0.015457 -0.005444 -602843.000000 1 0 0
15.583963 -4.918135 -7.954437 18.174736 -0.305697 2.023796 0.046713 -0.009711 -788053.000000 1 0 0
1.251863 9.224265 -16.841137 19.242613 1.435906 2.636646 0.020391 0.000980 -1111180.000000 1 0 0
0.484463 -3.084135 -12.850037 13.223844 -1.414987 2.903258 0.009077 -0.004090 531447.000000 1 0 0
7.764563 3.594265 -13.064737 15.617123 0.433535 2.561779 0.012930 -0.001573 955564.000000 1 0 0
-2.786537 7.562165 -15.032437 17.056533 -1.217750 2.649466 0.001921 -0.004933 -172673.000000 1 0 0
12.138263 -5.106535 -10.957837 17.131501 -0.398221 2.264814 0.036548 -0.008504 -617306.000000 1 0 0
0.746063 -4.321635 -20.013737 20.488602 -1.399847 2.925875 0.024623 -0.017744 -904661.000000 1 0 0
3.559363 -4.568335 -16.040837 17.054243 -0.908906 2.795123 0.013716 -0.010566 457526.000000 1 0 0
-5.657437 4.077665 -14.321937 15.929590 -0.624525 2.688454 0.006144 -0.006380 486502.000000 1 0 0
12.221363 -7.476335 -9.863137 17.393642 -0.549009 2.173721 0.028545 -0.002776 -208232.000000 1 0 0
-2.068137 -1.851735 -14.996137 15.250910 0.730248 2.958551 0.013704 -0.006884 53118.200000 1 0 0
7.176263 5.906165 -14.219937 16.987883 0.688617 2.562690 0.022290 -0.003075 -278502.000000 1 0 0
4.369263 -5.384135 -18.350537 19.616870 -0.889078 2.780317 0.024667 -0.015365 25566.500000 1 0 0
7.657963 7.610865 -12.292937 16.361112 0.782314 2.420903 0.017203 -0.003373 435858.000000 1 0 0
12.333163 -2.488935 -10.883037 16.635570 -0.199134 2.283924 0.020816 -0.012845 -1342560.000000 1 0 0
7.552463 -0.615535 -10.610637 13.038566 -0.081321 2.521438 0.007351 -0.004994 -2203320.000000 1 0 0
5.535063 3.931165 -14.359437 15.883464 0.617559 2.699947 0.008107 -0.000854 788639.000000 1 0 0
14.913663 3.031665 -12.879837 19.937366 0.200548 2.273149 0.020735 -0.015488 -1007700.000000 1 0 0
-6.327737 6.794665 -15.634537 18.183687 -0.820966 2.605696 0.000456 -0.001865 317172.000000 1 0 0
-11.099337 3.942165 -16.491437 20.265820 -0.341274 2.521382 0.022198 -0.012646 456183.000000 1 0 0
-4.950637 6.654765 -17.894137 19.722953 -0.931195 2.707554 0.003617 0.006714 -220617.000000 1 0 0
-9.855337 1.746765 -15.743937 18.656109 -0.175419 2.575312 0.014436 -0.002983 -156364.000000 1 0 0
-7.475637 6.002265 -17.887537 20.294736 -0.676513 2.649589 -0.002329 -0.002571 -559127.000000 1 0 0
-8.671437 4.053665 -15.394937 18.128158 -0.437289 2.585318 0.005868 -0.002834 -746104.000000 1 0 0
9.102463 13.446365 -12.124037 20.264547 0.975711 2.212159 0.051315 -0.014576 158443.000000 1 0 0
14.029463 9.213765 -11.307137 20.237852 0.581102 2.163629 0.043026 -0.007395 394708.000000 1 0 0
8.482163 16.125765 -9.051137 20.344790 1.086565 2.031845 0.022931 -0.007316 50548.000000 1 0 0
7.264863 13.585265 -13.955137 20.786619 1.079729 2.306828 0.042451 -0.010021 138640.000000 1 0 0
4.669863 15.898065 -12.473937 20.740184 1.285095 2.216096 0.048120 -0.022324 157116.000000 1 0 0
11.189263 10.882265 -11.687937 19.499517 0.771490 2.213543 0.051350 -0.006890 -355883.000000 1 0 0
15.676963 10.201265 -9.433037 20.947916 0.576879 2.037908 0.053171 0.001629 673499.000000 1 0 0
13.045563 10.655665 -9.290937 19.236721 0.684904 2.074850 0.050018 -0.007798 817149.000000 1 0 0
10.310263 12.065465 -8.380837 17.947574 0.863680 2.056649 0.012558 0.001194 242679.000000 1 0 0
5.391563 16.164665 -9.952037 19.733434 1.248860 2.099395 0.020115 -0.020839 -128535.000000 1 0 0
6.726963 14.613965 -11.549937 19.804572 1.139401 2.193453 0.022726 -0.007171 167557.000000 1 0 0
10.766163 14.160565 -9.922137 20.368620 0.920741 2.079595 0.040671 -0.000714 -249465.000000 1 0 0
8.454363 -18.617035 -1.003737 20.471388 -1.144522 1.619847 0.058218 -0.006143 -105577.000000 1 0 0
7.471163 -17.516735 -3.151437 19.302482 -1.167643 1.734796 0.036709 -0.004807 16881.600000 1 0 0
4.456663 -18.535035 5.874563 19.947928 -1.334830 1.271869 0.028721 0.009671 -10649.900000 1 0 0
9.953363 -17.097735 -2.398137 19.928698 -1.043609 1.691425 0.044886 -0.003914 -169744.000000 1 0 0
-9.758437 -12.063835 -10.090537 18.508975 0.890652 2.147388 0.006634 -0.006497 132592.000000 1 0 0
-5.186837 -6.953135 -12.223137 14.988477 0.929879 2.524393 0.009681 0.001297 111835.000000 1 0 0
-10.755837 -9.484335 -5.780237 15.461299 0.722660 1.953955 0.007843 -0.009955 -626402.000000 1 0 0
-4.554337 -11.463735 -14.023337 18.676541 1.192635 2.420149 0.019905 0.000539 166477.000000 1 0 0
-2.994437 -15.410335 7.499663 17.397989 1.378874 1.125124 0.003790 -0.002613 111817.000000 1 0 0
-4.826737 -11.858435 -11.551837 17.244269 1.184244 2.304863 0.010649 0.002886 491173.000000 1 0 0
-14.310937 -12.790135 -4.116737 19.630028 0.729341 1.782081 0.024870 -0.020538 38198.500000 1 0 0
-3.127437 -12.276035 -3.319037 13.095721 1.321343 1.827036 0.013041 -0.002279 538870.000000 1 0 0
-2.502337 -17.283435 -1.542537 17.531635 1.427013 1.658896 0.002678 -0.014632 -283047.000000 1 0 0
-5.917937 -12.173135 3.676163 14.025739 1.118292 1.305597 0.000377 -0.003469 -817051.000000 1 0 0
-8.780537 -10.522435 -11.977837 18.201320 0.875394 2.289056 -0.000891 0.008775 266975.000000 1 0 0
-9.657037 -11.896235 -7.594337 17.101249 0.888918 2.030944 0.005630 -0.012994 -13346.700000 1 0 0
-10.908637 -15.053435 6.191463 19.594348 0.943710 1.249305 0.034212 -0.010186 -821773.000000 1 0 0
-9.514437 -15.850635 0.802863 18.504370 1.030189 1.527395 0.015214 -0.001135 -589915.000000 1 0 0
-14.606537 -7.345235 -7.954137 18.181631 0.465943 2.023593 0.012174 -0.019576 -338339.000000 1 0 0
-2.361637 -16.534635 5.124663 17.470937 1.428926 1.273093 0.010728 -0.005284 15983.900000 1 0 0
4.508363 -15.929635 5.899963 17.575214 -1.294992 1.228450 0.024908 -0.001039 49653.500000 1 0 0
3.962763 -14.752535 -10.041437 18.280351 -1.308375 2.152325 -0.006940 0.010661 -295458.000000 1 0 0
-7.604737 -14.243535 -0.240037 16.148310 1.080392 1.585661 0.005744 0.001151 1462950.000000 1 0 0
2.918063 -14.896435 9.601763 17.961423 -1.377356 1.006789 0.019847 -0.012596 -383801.000000 1 0 0
2.513163 -17.333235 10.249963 20.293318 -1.426809 1.041309 0.041786 -0.012488 -40545.300000 1 0 0
-8.116237 -16.878135 -5.928337 19.644081 1.122567 1.877363 0.017242 -0.022127 -503930.000000 1 0 0
-6.455237 -9.084035 -7.762337 13.581003 0.952983 2.179200 0.013684 -0.002870 239901.000000 1 0 0
-5.932037 -12.994235 -4.821437 15.075989 1.142539 1.896324 0.005088 -0.011676 -52470.800000 1 0 0
2.178363 -19.477535 -5.029837 20.234102 -1.459419 1.822013 0.021807 -0.007266 214971.000000 1 0 0
-5.465937 -12.933835 8.347563 16.335310 1.170954 1.034433 0.006806 -0.005674 1207850.000000 1 0 0
2.231363 -17.567935 3.365963 18.026120 -1.444459 1.382967 0.014627 -0.006729 286992.000000 1 0 0
-17.690337 -9.999035 -2.690137 20.497940 0.514458 1.702415 0.026799 -0.016787 634052.000000 1 0 0
-3.448237 -15.284935 2.506263 15.868236 1.348914 1.412190 0.006135 -0.007930 -323839.000000 1 0 0
-9.937737 -10.274835 -14.313937 20.229178 0.802074 2.356876 0.001284 0.009538 -275923.000000 1 0 0
6.110563 -14.699235 -5.766437 16.930986 -1.176824 1.918335 0.005119 -0.000796 533239.000000 1 0 0
-7.272837 -12.328635 -10.770237 17.913330 1.037826 2.215850 0.008584 -0.002170 -1424340.000000 1 0 0
-7.250837 -14.330335 3.860463 16.517757 1.102378 1.334899 0.008241 -0.004296 718411.000000 1 0 0
3.291963 -15.024735 -3.132937 15.696973 -1.355102 1.771734 0.009743 -0.005512 -1313510.000000 1 0 0
-7.530937 -11.339035 7.827363 15.702112 0.984531 1.048939 0.006612 -0.010232 451758.000000 1 0 0
-12.684537 -12.342635 -1.080837 17.731506 0.771738 1.631790 0.010900 -0.005767 -800204.000000 1 0 0
-1.895437 -13.730035 4.082163 14.448896 1.433613 1.284372 0.004637 -0.001372 -2838270.000000 1 0 0
-3.158337 -13.975035 5.227363 15.251295 1.348532 1.220955 0.002141 -0.002366 312362.000000 1 0 0
-14.470137 -10.299535 -4.576337 18.341432 0.618587 1.822969 0.016209 -0.013300 712622.000000 1 0 0
-6.155137 -8.557935 -10.406737 14.812972 0.947280 2.349760 0.005897 0.000084 239523.000000 1 0 0
0.958863 -19.615835 2.370763 19.781833 -1.521953 1.450662 0.019628 -0.008544 281157.000000 1 0 0
6.391863 -14.070935 -8.319437 17.551642 -1.144405 2.064622 0.003287 0.005215 -2144630.000000 1 0 0
-4.010837 -16.805835 -5.932137 18.267817 1.336521 1.901524 0.008590 -0.007944 80505.900000 1 0 0
-3.514937 -13.582935 -13.239237 19.290627 1.317575 2.327192 0.025327 0.003186 -1880350.000000 1 0 0
-8.050537 -14.404535 -4.765337 17.175861 1.061154 1.851929 0.004957 -0.017528 -2201280.000000 1 0 0
-4.558937 -14.448835 10.105563 18.211950 1.265160 0.982570 0.005263 -0.006219 -293860.000000 1 0 0
-0.153737 -12.086635 -10.062437 15.727778 1.558077 2.265018 0.014042 0.006123 560141.000000 1 0 0
2.371663 -17.222935 6.885763 18.699411 -1.433953 1.193687 0.019658 -0.009343 -1377370.000000 1 0 0
-2.904837 -19.154635 -3.294937 19.651837 1.420291 1.739258 0.005559 -0.017053 -424028.000000 1 0 0
0.700163 -15.359335 -3.047837 15.674460 -1.525242 1.766489 0.005140 -0.007909 118115.000000 1 0 0
5.800563 -17.947235 0.335463 18.864313 -1.258192 1.553012 0.027826 -0.009410 -474543.000000 1 0 0
-6.927937 -16.799135 3.949763 18.595910 1.179648 1.356766 0.007695 -0.001183 364815.000000 1 0 0
-5.247137 -13.542035 -9.639537 17.431002 1.201138 2.156770 0.005082 -0.003497 406960.000000 1 0 0
5.683263 -15.341835 -2.131937 16.498985 -1.216028 1.700375 0.016142 -0.000547 -1071200.000000 1 0 0
-8.839937 -10.273835 -0.420937 13.559991 0.860277 1.601844 0.004369 -0.000574 -1167290.000000 1 0 0
-7.675437 -18.185435 -3.151637 19.988876 1.171414 1.729127 0.017513 -0.019693 597768.000000 1 0 0
7.870263 -16.017635 -1.085737 17.879723 -1.114093 1.631558 0.025090 -0.003685 -301532.000000 1 0 0
-8.060437 -10.134735 -9.547037 16.088176 0.898911 2.206097 0.003919 -0.002478 -500502.000000 1 0 0
-9.172337 -14.915635 -7.045737 18.874595 1.019458 1.953351 0.013098 -0.016386 -707524.000000 1 0 0
-11.422437 -10.400135 -12.107137 19.626962 0.738586 2.235546 0.017089 0.012874 674237.000000 1 0 0
6.631763 -16.388735 2.398563 17.841637 -1.186285 1.435952 0.025915 -0.001724 877941.000000 1 0 0
-2.160937 -11.284935 -6.085737 13.002138 1.381598 2.057887 0.013988 -0.002286 62733.300000 1 0 0
-12.309037 -15.303435 -3.352037 19.923445 0.893420 1.739846 0.014061 -0.019998 62400.800000 1 0 0
-0.254937 -19.635335 -2.794937 19.834894 1.557813 1.712177 0.034752 -0.025365 898501.000000 1 0 0
-5.831437 -15.591435 -4.664537 17.287464 1.212889 1.844004 0.003409 -0.014467 -3102350.000000 1 0 0
1.973963 -16.011535 -1.027237 16.165426 -1.448131 1.634384 0.013043 -0.009802 1033690.000000 1 0 0
-13.289837 -11.844535 5.225663 18.553175 0.727958 1.285274 0.027942 -0.003948 168007.000000 1 0 0
1.967763 -15.219035 -8.638637 17.610144 -1.442214 2.083516 0.009190 0.005918 -2498150.000000 1 0 0
-11.991137 -16.488935 0.329563 20.390707 0.942032 1.554633 0.043697 -0.020674 -6330.450000 1 0 0
-7.644037 -16.770035 -0.923437 18.453132 1.143117 1.620860 0.011967 -0.008359 268922.000000 1 0 0
-2.937137 -14.467635 -1.794537 14.871435 1.370504 1.691761 0.006125 -0.006708 312331.000000 1 0 0
-1.810537 -10.439035 -13.188437 16.917044 1.399066 2.464815 0.011067 0.003541 111300.000000 1 0 0
1.494363 -19.540235 4.894563 20.199273 -1.494469 1.326046 0.021750 -0.011973 197316.000000 1 0 0
-17.563837 -9.355235 2.342763 20.037398 0.489419 1.453609 0.022488 -0.001893 -86851.100000 1 0 0
-2.631837 -15.837135 -8.094337 17.979424 1.406120 2.037786 0.011092 0.001507 100838.000000 1 0 0
-10.386937 -12.168935 0.205063 16.000421 0.864238 1.557980 0.011468 -0.003596 265608.000000 1 0 0
-6.732237 -11.390135 -6.605437 14.788170 1.036977 2.033837 0.009195 -0.006518 -411672.000000 1 0 0
-2.370237 -13.688435 -6.754337 15.447082 1.399340 2.023342 0.002142 -0.002610 713364.000000 1 0 0
-14.278637 -14.488435 -1.110337 20.372213 0.792691 1.625326 0.032392 -0.008256 153394.000000 1 0 0
-9.592237 -11.292635 -4.380337 15.450630 0.866637 1.858244 0.009072 -0.011214 908755.000000 1 0 0
9.625363 -15.233935 -5.090637 18.725249 -1.007296 1.846121 0.023238 0.000056 472380.000000 1 0 0
-5.561537 -10.882935 -9.427237 15.435082 1.098361 2.227825 0.008178 -0.003693 -170230.000000 1 0 0
-10.180037 -15.843635 -4.828637 19.441442 0.999689 1.821792 0.008155 -0.021945 -1375500.000000 1 0 0
2.308063 -17.457835 -3.201237 17.898354 -1.439351 1.750620 0.022940 -0.008312 547687.000000 1 0 0
-0.439437 -14.493135 -8.282837 16.698786 1.540485 2.089799 0.006080 0.000073 -1367940.000000 1 0 0
-0.638137 -18.284635 -7.120437 19.632517 1.535910 1.941945 0.021034 -0.005539 118565.000000 1 0 0
-1.603237 -9.860735 -10.581937 14.552727 1.409619 2.384950 0.007566 0.002480 395894.000000 1 0 0
-4.925637 -17.278835 2.205563 18.102059 1.293095 1.448652 0.004742 -0.008672 -1150660.000000 1 0 0
0.215763 -12.810535 -2.565937 13.066766 -1.553955 1.768452 0.005679 -0.001672 -1893140.000000 1 0 0
2.515663 -15.016735 2.937663 15.506797 -1.404814 1.380201 0.011200 -0.003745 -1432250.000000 1 0 0
-9.298737 -13.032435 6.793363 17.391396 0.951062 1.169495 0.010328 -0.008170 -1078780.000000 1 0 0
-1.028437 -17.823635 -4.530937 18.419257 1.513159 1.819336 0.018782 -0.011034 49084.800000 1 0 0
-9.860937 -17.349835 -2.091937 20.065668 1.053967 1.675241 0.029587 -0.030171 -1028480.000000 1 0 0
1.305663 -16.403635 1.320063 16.508378 -1.491368 1.490748 0.008901 -0.007572 307283.000000 1 0 0
-0.419637 -18.040635 3.975263 18.478185 1.547540 1.353969 0.014292 -0.013088 1788630.000000 1 0 0
-17.464937 -9.207935 -0.197737 19.744599 0.485189 1.580811 0.009434 -0.005803 835346.000000 1 0 0
-14.856837 -7.175435 -10.581837 19.600708 0.449933 2.141079 0.049212 -0.016404 884453.000000 1 0 0
2.817663 -12.742835 -8.857637 15.772660 -1.353180 2.167093 -0.003362 0.006310 451000.000000 1 0 0
-11.408137 -14.506035 1.857263 18.547778 0.904378 1.470494 0.021433 -0.007872 192351.000000 1 0 0
-2.384637 -15.698735 10.768463 19.185842 1.420049 0.974875 0.014678 -0.005485 109618.000000 1 0 0
-7.023437 -16.052335 1.443363 17.580939 1.158358 1.488606 0.007599 -0.001593 -910925.000000 1 0 0
-12.402037 -15.139335 -6.011737 20.473177 0.884461 1.868828 0.009559 -0.015368 651104.000000 1 0 0
0.994863 -13.761135 -5.049737 14.692121 -1.498627 1.921654 0.007380 -0.000559 1055600.000000 1 0 0
6.047363 -16.500735 -7.481137 19.100059 -1.219507 1.973255 0.020302 -0.004059 315403.000000 1 0 0
-6.572737 -12.940035 5.932263 15.679194 1.100818 1.182780 0.008574 -0.002282 -522046.000000 1 0 0
-2.556537 -13.510135 0.513263 13.759472 1.383777 1.533485 0.008833 -0.004168 3055080.000000 1 0 0
-4.292037 -15.467735 0.140663 16.052794 1.300123 1.562034 0.002505 -0.009724 158234.000000 1 0 0
-17.613137 -7.471435 -2.147937 19.252495 0.401190 1.682596 0.002288 -0.011233 533958.000000 1 0 0
1.320163 -12.725835 -11.946537 17.504555 -1.467427 2.321949 0.007442 0.010763 -1992460.000000 1 0 0
1.220663 -17.170135 -5.677137 18.125491 -1.499824 1.889371 0.022085 -0.007221 -1633220.000000 1 0 0
-12.730537 -6.241635 -9.302537 16.957647 0.455848 2.151455 0.019110 -0.003858 -850399.000000 1 0 0
-11.231637 -13.686335 -8.819537 19.780032 0.883592 2.032954 0.007238 -0.012161 296205.000000 1 0 0
-4.312037 -9.923435 3.511363 11.375319 1.160881 1.256989 0.009742 -0.001224 -4217900.000000 1 0 0
-7.099037 -14.469635 9.655663 18.788254 1.114684 1.031048 0.007410 -0.005585 -1289200.000000 1 0 0
-5.305237 -15.924535 -8.288237 18.719808 1.249212 2.029462 0.009480 -0.005624 -195733.000000 1 0 0
-0.300737 -13.539235 2.112263 13.706311 1.548588 1.416071 0.009570 -0.003822 479742.000000 1 0 0
-10.954337 -13.415335 -4.661637 17.935985 0.886043 1.833719 0.012931 -0.016922 -922167.000000 1 0 0
-9.823137 -10.482935 6.665263 15.837035 0.817879 1.136397 0.018380 -0.004598 46959.400000 1 0 0
-15.526537 -8.062935 -4.917237 18.173153 0.478968 1.844789 0.018845 -0.012215 -456100.000000 1 0 0
-14.701937 -7.347435 5.329363 17.278132 0.463455 1.257238 0.025222 -0.003550 1129640.000000 1 0 0
-1.771437 -19.316735 0.030863 19.397814 1.479347 1.569205 0.015064 -0.016142 -380124.000000 1 0 0
-15.229437 -12.067635 -1.474337 19.486848 0.670083 1.646527 0.018366 -0.009492 738234.000000 1 0 0
-4.355637 -12.115035 -6.882637 14.598504 1.225663 2.061744 0.006477 -0.004705 -1132970.000000 1 0 0
-7.140437 -18.558335 1.907063 19.975848 1.203500 1.475182 0.007908 -0.001322 -118653.000000 1 0 0
-2.357537 -11.724135 -8.669737 14.770838 1.372359 2.198082 0.006281 0.001598 -171862.000000 1 0 0
-1.475537 -20.304135 -5.070237 20.979571 1.498252 1.814888 0.033486 -0.014681 -89213.800000 1 0 0
-5.396437 -8.956635 -14.015337 17.486352 1.028535 2.500598 0.011418 0.003534 765571.000000 1 0 0
-8.509437 -19.142235 -0.811037 20.964099 1.152494 1.609493 0.018408 -0.004158 -68212.800000 1 0 0
-17.314237 -7.189435 5.435863 19.519718 0.393569 1.288585 0.034754 -0.007290 222051.000000 1 0 0
-3.515337 -14.681135 -4.343137 15.708474 1.335775 1.850930 0.004792 -0.008602 -2587100.000000 1 0 0
-2.997937 -14.855735 -11.005037 18.729424 1.371667 2.198861 0.016186 -0.001134 -112008.000000 1 0 0
-0.063137 -16.855535 6.252363 17.977905 1.567051 1.215594 0.023282 -0.008227 -473389.000000 1 0 0
-11.235437 -11.600235 3.742063 16.577199 0.801372 1.343098 0.018099 -0.002125 -665903.000000 1 0 0
-0.111337 -14.627335 -0.171337 14.628762 1.563185 1.582509 0.004566 -0.004032 1016760.000000 1 0 0
-7.306337 -9.653435 -2.430237 12.348175 0.922917 1.768899 0.007068 -0.000298 7762.700000 1 0 0
-11.059637 -14.496335 -0.874337 18.254417 0.919073 1.618712 0.013856 -0.013251 78380.000000 1 0 0
0.432963 -14.666835 -10.622037 18.114391 -1.541285 2.197387 0.011075 0.004460 37962.600000 1 0 0
-1.349037 -14.086635 -3.911537 14.681733 1.475320 1.840475 0.004006 -0.003489 -2720670.000000 1 0 0
-11.428037 -8.071235 -7.749137 15.993561 0.614919 2.076606 0.011205 -0.002642 494462.000000 1 0 0
-0.210537 -17.291835 -0.361337 17.296891 1.558621 1.591688 0.006575 -0.012292 -1054670.000000 1 0 0
-12.923937 -9.488735 4.450863 16.639544 0.633311 1.300012 0.019856 -0.002488 616652.000000 1 0 0
3.987263 -16.843635 1.546763 17.378112 -1.338353 1.481672 0.018503 -0.008817 2664760.000000 1 0 0
-3.921537 -18.022735 -8.025137 20.114677 1.356547 1.981189 0.022287 -0.007165 -240925.000000 1 0 0
-13.488537 -11.285135 2.574563 17.774230 0.696690 1.425437 0.017195 0.001980 -21923.600000 1 0 0
-8.564837 -12.317735 3.985863 15.523212 0.963214 1.311120 0.015712 -0.002449 1303080.000000 1 0 0
-8.242337 -9.505435 -5.927737 13.907821 0.856448 2.011102 0.012028 -0.006763 -1292910.000000 1 0 0
3.759563 -17.441735 -5.410437 18.644604 -1.358495 1.865219 0.007697 -0.000279 809535.000000 1 0 0
-2.601737 -13.068435 11.312463 17.479269 1.374280 0.866900 0.005944 -0.008889 315759.000000 1 0 0
0.160263 -16.873535 -9.400737 19.316203 -1.561299 2.079077 0.023102 0.003137 -187980.000000 1 0 0
-6.984137 -10.778535 -14.832337 19.620224 0.995851 2.427934 0.011237 0.016700 -1203390.000000 1 0 0
-4.745937 -18.736635 -1.450537 19.382710 1.322717 1.645703 0.015051 -0.021399 40671.700000 1 0 0
-2.472637 -17.104035 1.046563 17.313498 1.427226 1.510312 0.014834 -0.017022 782898.000000 1 0 0
4.109363 -14.695835 -7.496637 17.001588 -1.298133 2.027439 0.005273 0.004664 -1498680.000000 1 0 0
-0.926537 -15.856335 -6.152237 17.033257 1.512429 1.940340 0.010286 -0.006361 44635.300000 1 0 0
-9.449237 -15.064235 8.385963 19.660713 1.010571 1.130139 0.011723 -0.010587 -954322.000000 1 0 0
-7.335637 -12.143435 -1.684137 14.286738 1.027380 1.688952 0.002227 -0.005531 705520.000000 1 0 0
-7.433537 -15.034035 -9.359437 19.206216 1.111601 2.079806 0.017384 -0.010724 -286806.000000 1 0 0
-5.049937 -13.240035 -0.737337 14.189575 1.206414 1.622783 0.002699 -0.005730 2984810.000000 1 0 0
-6.449037 -13.723535 -7.351537 16.851427 1.131497 2.022230 0.009460 -0.009746 628177.000000 1 0 0
5.708763 -15.254635 0.301263 16.290629 -1.212700 1.552302 0.016602 -0.003215 199774.000000 1 0 0
-14.503737 -12.718535 0.875863 19.310273 0.719913 1.525423 0.016764 -0.009756 1169640.000000 1 0 0
0.791763 -15.505035 11.138463 19.107547 -1.519776 0.948460 0.027953 -0.010532 424122.000000 1 0 0
-9.336237 -10.782435 1.987563 14.400577 0.857158 1.432335 0.010234 -0.001450 272620.000000 1 0 0
-9.387737 -8.992035 -3.534437 13.471397 0.763872 1.836270 0.013271 -0.005157 -595037.000000 1 0 0
-12.236437 -6.993735 -12.388137 18.764559 0.519238 2.291865 0.027761 -0.000358 -334139.000000 1 0 0
-13.268737 -8.513235 -0.604237 15.776554 0.570448 1.609105 0.005273 -0.004312 -226.213000 1 0 0
-11.273637 -9.767135 0.417863 14.922011 0.713921 1.542790 0.001602 0.000171 761512.000000 1 0 0
-15.992137 -12.069735 2.843663 20.236436 0.646521 1.429808 0.042610 0.000149 234342.000000 1 0 0
-10.417337 -12.559135 -2.307337 16.479581 0.878347 1.711270 0.016268 -0.013502 685297.000000 1 0 0
-3.463237 -8.855135 -12.103837 15.391891 1.197986 2.475719 0.011601 0.001903 -278140.000000 1 0 0
-0.271037 -15.588835 3.872863 16.065002 1.553411 1.327323 0.014572 -0.007120 -644269.000000 1 0 0
-15.870737 -7.695935 1.167863 17.676866 0.451506 1.504681 0.003575 0.000248 744171.000000 1 0 0
-6.097937 -13.466935 -13.326437 19.903193 1.145610 2.304416 0.016618 0.003676 526148.000000 1 0 0
-15.408237 -10.258135 1.032163 18.539376 0.587372 1.515093 0.010520 -0.000480 599414.000000 1 0 0
-9.940137 -8.275535 -12.680737 18.113307 0.694268 2.346304 -0.000909 0.011182 588451.000000 1 0 0
-13.215637 -11.841335 -6.271337 18.820200 0.730606 1.910517 0.021294 -0.008459 -146766.000000 1 0 0
-12.220637 -11.345135 -3.817837 17.106488 0.748264 1.795873 0.008743 -0.012388 -933744.000000 1 0 0
-11.811237 -11.082235 -8.794137 18.429815 0.753566 2.068227 0.020325 -0.016717 -262258.000000 1 0 0
-13.129037 -8.456935 -5.913637 16.699176 0.572244 1.932777 0.008171 -0.010954 -1573480.000000 1 0 0
-13.472737 -8.246835 -3.316137 16.140684 0.549278 1.777722 0.007597 -0.009289 717820.000000 1 0 0
-4.409437 -17.029635 -3.253937 17.889653 1.317433 1.753704 0.005830 -0.015859 595188.000000 1 0 0
-15.474437 -8.940835 -1.849237 17.967092 0.523922 1.673902 0.011483 -0.007569 -1925800.000000 1 0 0
-9.308137 -15.811635 3.660963 18.709673 1.038735 1.373853 0.010706 -0.001458 -35702.100000 1 0 0
4.641663 -17.179835 8.134563 19.566882 -1.306916 1.142050 0.034436 -0.019517 -119218.000000 1 0 0
-8.265237 -15.451435 6.081263 18.548389 1.079607 1.236760 0.010706 0.000084 761019.000000 1 0 0
0.811263 -15.963535 8.597763 18.149769 -1.520020 1.077295 0.020843 -0.012275 558124.000000 1 0 0
-10.924037 -7.744435 -10.300137 16.893895 0.616698 2.226473 0.011626 0.000906 905336.000000 1 0 0
-4.787537 -15.958135 5.704563 17.610355 1.279334 1.240913 0.004775 -0.006040 -1442650.000000 1 0 0
-1.243937 -13.179235 -12.087937 17.926456 1.476689 2.310822 0.010863 0.003907 -577124.000000 1 0 0
-6.549537 -14.336735 -2.622037 15.978532 1.142272 1.735639 0.007218 -0.012332 867382.000000 1 0 0
-17.739037 -6.859835 -7.466437 20.432289 0.368996 1.944884 0.043770 -0.020882 453152.000000 1 0 0
-17.225337 -3.982635 -10.362337 20.492722 0.227215 2.100942 0.046697 -0.015844 601435.000000 1 0 0
-15.234537 -5.157235 -9.035037 18.447766 0.326414 2.082614 0.020693 -0.019528 57929.100000 1 0 0
-16.092137 -5.392935 -5.916837 17.973580 0.323365 1.906249 0.016431 -0.012581 339548.000000 1 0 0
-14.965737 -4.505235 -12.470237 19.994430 0.292408 2.244245 0.029383 -0.010306 26267.500000 1 0 0
-18.712937 -5.301135 -5.646737 20.252449 0.276054 1.853359 0.037505 -0.013929 -271078.000000 1 0 0
-17.446037 -4.364635 -7.827237 19.613258 0.245147 1.981308 0.035078 -0.019391 794803.000000 1 0 0
12.244763 -7.846335 8.810963 17.003889 -0.569874 1.026082 0.022636 -0.006389 375373.000000 1 0 0
16.097963 -3.426035 1.897663 16.567536 -0.209695 1.456003 0.023166 -0.002938 -398317.000000 1 0 0
11.969263 -2.266435 12.608363 17.531993 -0.187139 0.768199 0.023873 -0.010211 552539.000000 1 0 0
9.683363 -9.983935 5.268163 14.872794 -0.800680 1.208722 0.005373 -0.001112 484609.000000 1 0 0
16.781463 -1.603935 7.448163 18.430009 -0.095288 1.154766 0.049549 -0.020637 420010.000000 1 0 0
5.181863 -13.068435 9.045163 16.716778 -1.193296 0.999072 0.015341 0.006439 -88351.100000 1 0 0
15.153463 -9.095935 -2.069737 17.794586 -0.540607 1.687373 0.021250 -0.002730 409147.000000 1 0 0
11.171063 -8.646635 6.532463 15.563740 -0.658698 1.137656 0.016413 -0.004609 -1206180.000000 1 0 0
19.906963 -3.438935 4.063063 20.606356 -0.171062 1.372321 0.070414 -0.013457 330946.000000 1 0 0
13.648463 -8.643035 6.986263 17.600865 -0.564518 1.162630 0.027339 -0.007012 -460450.000000 1 0 0
8.260063 -10.986235 8.836963 16.340682 -0.926109 0.999414 0.005581 -0.000445 -1700950.000000 1 0 0
16.936363 0.135865 -0.745337 16.953300 0.008022 1.614775 0.027786 -0.000008 -861542.000000 1 0 0
12.462463 -12.350335 2.329363 17.699426 -0.780879 1.438807 0.020037 -0.002499 -2096650.000000 1 0 0
10.374363 -11.560835 3.578463 15.940066 -0.839435 1.344372 0.012103 -0.001867 -1218090.000000 1 0 0
16.349163 3.051965 2.426663 16.807686 0.184550 1.425912 0.026226 -0.001458 -129252.000000 1 0 0
18.353063 -3.311835 0.658363 18.661099 -0.178530 1.535509 0.042462 -0.009413 1040630.000000 1 0 0
13.734263 -11.697135 -0.118837 18.040706 -0.705466 1.577384 0.029366 0.003902 -219558.000000 1 0 0
17.001563 -7.656235 -0.766637 18.661693 -0.423124 1.611889 0.034006 -0.003334 326580.000000 1 0 0
10.243963 -5.751135 9.724563 15.250621 -0.511566 0.879352 0.012573 -0.006559 575321.000000 1 0 0
11.397563 -13.462535 6.105063 18.665907 -0.868272 1.237595 0.029422 -0.002241 -457641.000000 1 0 0
13.014163 -1.697235 10.378763 16.732237 -0.129683 0.901690 0.028824 -0.013055 -501133.000000 1 0 0
15.689563 -1.969535 -1.372137 15.872121 -0.124878 1.657354 0.017329 -0.002624 975465.000000 1 0 0
10.381163 -12.406135 9.082963 18.552114 -0.874029 1.059175 0.024749 -0.010437 -61993.900000 1 0 0
14.573763 1.323865 3.385563 15.020294 0.090590 1.343444 0.014368 -0.000618 1053240.000000 1 0 0
15.028863 -5.728835 5.280963 16.928521 -0.364185 1.253545 0.036693 -0.011080 -1422890.000000 1 0 0
14.310863 -3.337935 -3.063237 15.010864 -0.229148 1.776308 0.016459 -0.003489 720614.000000 1 0 0
14.060163 0.601965 9.490763 16.974249 0.042787 0.977464 0.036817 -0.016936 89128.000000 1 0 0
15.335663 -3.383635 4.424563 16.315891 -0.217159 1.296176 0.023283 -0.003797 -1147330.000000 1 0 0
18.495563 4.952465 -4.286337 19.621046 0.261628 1.791028 0.019518 -0.000265 593682.000000 1 0 0
18.378463 -5.716235 -4.819237 19.841076 -0.301544 1.816142 0.071517 -0.016681 837917.000000 1 0 0
17.371563 0.146665 5.912063 18.350618 0.008443 1.242773 0.056878 -0.008236 531978.000000 1 0 0
17.060263 -6.811735 4.072463 18.815878 -0.379881 1.352632 0.047295 -0.012033 -166544.000000 1 0 0
9.638663 -6.669735 14.240063 18.443659 -0.605321 0.688682 0.020213 -0.002388 -675668.000000 1 0 0
8.561763 -12.356135 5.025463 15.850335 -0.964841 1.248171 0.011355 -0.002056 -764517.000000 1 0 0
16.813863 -10.267635 -0.573337 19.709364 -0.548224 1.599890 0.027939 0.000376 -251654.000000 1 0 0
14.851463 -8.819535 0.379863 17.276992 -0.535885 1.548808 0.021015 -0.005485 559220.000000 1 0 0
9.942863 -12.979935 1.580263 16.426699 -0.917122 1.474446 0.017659 -0.003890 169717.000000 1 0 0
17.013163 -8.357235 8.745863 20.875373 -0.456600 1.138501 0.072185 -0.014252 534476.000000 1 0 0
19.178863 0.110165 -2.186137 19.303371 0.005744 1.684291 0.053869 0.000423 -364306.000000 1 0 0
13.306263 -1.255835 7.761963 15.455802 -0.094100 1.044651 0.016163 -0.012740 -224270.000000 1 0 0
12.878663 -9.938235 -3.027937 16.546808 -0.657234 1.754826 0.022144 -0.000386 -905271.000000 1 0 0
8.906163 -15.305935 1.481763 17.770396 -1.043810 1.487316 0.028180 -0.000341 829993.000000 1 0 0
11.409163 -8.364335 11.263663 18.083174 -0.632613 0.898377 0.023290 -0.004157 -27779.700000 1 0 0
14.012863 -3.945935 -0.591137 14.569838 -0.274486 1.611380 0.013315 -0.004226 -336758.000000 1 0 0
7.199163 -13.375935 10.633363 18.542167 -1.077044 0.960062 0.020366 0.002080 -289213.000000 1 0 0
15.468763 -6.804535 1.895363 17.005197 -0.414414 1.459106 0.016983 -0.005060 -360990.000000 1 0 0
15.910463 -6.150635 -2.425037 17.229450 -0.368882 1.712015 0.035861 -0.005240 517670.000000 1 0 0
11.198763 -8.473635 3.898363 14.574361 -0.647749 1.300019 0.015801 -0.003412 496436.000000 1 0 0
10.687863 -14.504235 -0.390737 18.020985 -0.935746 1.592480 0.043572 -0.006634 823248.000000 1 0 0
13.408463 -12.835535 4.638463 19.132516 -0.763571 1.325918 0.023980 -0.005522 232710.000000 1 0 0
12.891163 -11.260935 6.587663 18.340884 -0.718002 1.203408 0.025379 -0.006062 -154387.000000 1 0 0
10.915563 -10.559535 1.314063 15.244017 -0.768821 1.484487 0.009973 0.001121 495074.000000 1 0 0
13.958463 -7.573235 11.785963 19.776286 -0.497109 0.932330 0.036064 -0.011807 212224.000000 1 0 0
15.297263 -1.844735 -5.063237 16.218683 -0.120013 1.888289 0.022263 -0.005111 -674988.000000 1 0 0
12.963063 -11.419835 -7.144937 18.695019 -0.722191 1.962955 0.049014 -0.002679 1194910.000000 1 0 0
17.759463 -5.482635 2.042163 18.698348 -0.299434 1.461362 0.055487 -0.007071 1248990.000000 1 0 0
10.532363 -9.780635 9.168263 17.048417 -0.748408 1.002997 0.011121 -0.004051 -1540180.000000 1 0 0
16.397163 1.711865 9.711263 19.133898 0.104023 1.038466 0.064321 -0.020405 -204026.000000 1 0 0
18.045163 3.625265 0.516663 18.412968 0.198260 1.542733 0.017361 0.003485 687392.000000 1 0 0
13.249563 -4.016335 5.700363 14.972508 -0.294325 1.180219 0.015743 -0.009449 -645909.000000 1 0 0
12.211363 -6.189635 6.714163 15.248244 -0.469132 1.114837 0.015493 -0.006974 -120554.000000 1 0 0
16.454863 -10.140335 3.607663 19.662251 -0.552284 1.386269 0.020943 -0.010857 -720910.000000 1 0 0
16.449663 -8.239835 -5.221137 19.124501 -0.464377 1.847315 0.048946 -0.010340 208706.000000 1 0 0
14.018963 -0.430235 5.338963 15.007363 -0.030680 1.207073 0.013701 -0.004031 638285.000000 1 0 0
17.813263 -4.135535 5.447063 19.081024 -0.228119 1.281299 0.034429 -0.008489 -507575.000000 1 0 0
13.823263 -13.634735 7.014663 20.644468 -0.778532 1.224109 0.046006 -0.009412 -202239.000000 1 0 0
14.936063 -13.848635 -0.860237 20.386531 -0.747638 1.613005 0.026113 0.011155 200087.000000 1 0 0
17.830263 -5.965435 8.006563 20.435502 -0.322861 1.168213 0.074862 -0.014065 -616788.000000 1 0 0
14.370363 3.218865 9.405463 17.473728 0.220356 1.002422 0.044711 -0.014077 269313.000000 1 0 0
18.813163 3.793565 2.953163 19.417709 0.198976 1.418118 0.050054 -0.003837 -29644.800000 1 0 0
14.790763 -10.659335 8.302463 20.032947 -0.624468 1.143468 0.037810 -0.008625 -175637.000000 1 0 0
14.826463 -4.829435 10.439663 18.765234 -0.314893 0.980834 0.053457 -0.015858 337207.000000 1 0 0
17.799763 -8.075935 1.941963 19.642390 -0.425935 1.471769 0.062378 -0.012749 -6415.150000 1 0 0
18.514263 -5.741135 -1.702337 19.458584 -0.300690 1.658393 0.045817 -0.008535 164021.000000 1 0 0
14.334263 -12.983235 -5.511537 20.110010 -0.735982 1.848418 0.051998 -0.006219 627536.000000 1 0 0
15.284363 -1.632835 9.545963 18.094289 -0.106427 1.015061 0.067933 -0.020143 -574640.000000 1 0 0
12.836363 -10.067735 10.190063 19.234575 -0.665103 1.012457 0.015288 -0.011670 -2059700.000000 1 0 0
16.640263 2.311765 4.837663 17.482723 0.138042 1.290426 0.043442 -0.004797 -1141910.000000 1 0 0
14.986863 2.379265 -0.117437 15.175004 0.157443 1.578535 0.014457 0.002134 -1312630.000000 1 0 0
15.198263 -9.801835 -7.016937 19.398468 -0.572804 1.940915 0.052463 -0.006457 1388360.000000 1 0 0
16.324563 -0.174035 -3.308037 16.657273 -0.010660 1.770720 0.024888 0.000717 -221444.000000 1 0 0
11.873363 2.475465 13.565263 18.196731 0.205545 0.729545 0.034737 -0.010109 -277236.000000 1 0 0
17.628463 -2.749235 9.542063 20.232942 -0.154708 1.079680 0.059976 -0.020325 208003.000000 1 0 0
7.704763 -18.219635 4.658863 20.322979 -1.170721 1.339498 0.041596 -0.014058 -729493.000000 1 0 0
6.793263 -11.202735 6.615463 14.676990 -1.025689 1.103206 0.006095 -0.000653 441760.000000 1 0 0
18.011463 2.269165 -1.644537 18.228176 0.125324 1.661139 0.029769 0.002710 646900.000000 1 0 0
17.572063 -2.332435 3.715963 18.111489 -0.131964 1.364157 0.037573 -0.006211 -264137.000000 1 0 0
12.650263 -13.468235 -1.831937 18.568212 -0.816706 1.669617 0.036638 0.007776 -542811.000000 1 0 0
15.009163 -8.228835 4.434963 17.682126 -0.501502 1.317273 0.027399 -0.008540 -322242.000000 1 0 0
11.830163 -2.837135 15.041563 19.345560 -0.235377 0.680084 0.022331 -0.011123 99369.700000 1 0 0
12.121963 -13.802935 -6.488137 19.482272 -0.850148 1.910309 0.028092 -0.005146 -162306.000000 1 0 0
10.708663 -12.025535 -1.216837 16.148363 -0.843258 1.646221 0.026292 -0.003637 -596567.000000 1 0 0
13.156663 -8.031735 2.099163 15.556768 -0.548082 1.435448 0.013373 -0.000217 -1584760.000000 1 0 0
8.792363 -7.824535 9.875763 15.364234 -0.727220 0.872680 0.012617 -0.000367 -2374390.000000 1 0 0
15.730063 -3.852135 8.120863 18.116905 -0.240163 1.105992 0.059484 -0.019133 -599551.000000 1 0 0
10.067363 -17.352835 5.393663 20.774125 -1.045095 1.308153 0.046228 -0.013030 -501643.000000 1 0 0
15.256363 -6.394735 8.339363 18.525502 -0.396907 1.103856 0.051631 -0.008794 -450814.000000 1 0 0
16.570663 -4.976135 -0.204837 17.302911 -0.291730 1.582635 0.022154 -0.003740 -757609.000000 1 0 0
13.925063 -10.465535 3.621263 17.791805 -0.644499 1.365829 0.020821 -0.005577 -317531.000000 1 0 0
14.995363 -10.089335 -4.441337 18.611315 -0.592258 1.811758 0.041963 -0.005803 248728.000000 1 0 0
13.706263 -6.562035 0.016863 15.196125 -0.446513 1.569687 0.014677 -0.003772 91836.900000 1 0 0
17.735663 -0.926135 -5.239237 18.516508 -0.052171 1.857664 0.031718 -0.007663 -1341690.000000 1 0 0
14.391463 0.303665 -1.793037 14.505909 0.021097 1.694721 0.008794 -0.000543 -328467.000000 1 0 0
4.803963 -12.978535 11.649163 18.089318 -1.216287 0.871107 0.011077 -0.001399 77610.500000 1 0 0
12.125463 -7.331935 13.593363 19.635774 -0.543848 0.806159 0.029448 -0.004527 96774.000000 1 0 0
12.115963 -5.826635 11.525563 17.708326 -0.448256 0.862086 0.025123 -0.008905 -421603.000000 1 0 0
13.386063 -4.566135 8.303763 16.400876 -0.328734 1.039908 0.028616 -0.014817 -1203430.000000 1 0 0
15.297863 -1.217035 3.018563 15.640253 -0.079389 1.376578 0.022870 0.001424 383482.000000 1 0 0
15.222863 -10.431835 5.893063 19.372323 -0.600774 1.261698 0.038747 -0.010305 297782.000000 1 0 0
13.881863 -8.004835 -5.661637 16.995224 -0.523066 1.910419 0.039665 -0.004777 298741.000000 1 0 0
9.582263 -2.220735 13.726463 16.886894 -0.227734 0.621773 0.011457 -0.007170 -351119.000000 1 0 0
10.235963 -9.169435 13.839663 19.503583 -0.730493 0.781872 0.041738 0.002059 -225818.000000 1 0 0
20.402063 6.309465 -3.006637 21.566024 0.299927 1.710667 0.055364 -0.002835 217186.000000 1 0 0
11.235363 -3.614735 10.513363 15.806027 -0.311270 0.843103 0.013029 -0.009376 908206.000000 1 0 0
10.231863 -14.084935 -2.837437 17.638805 -0.942545 1.732362 0.026808 0.000849 686137.000000 1 0 0
14.922763 -12.641235 2.496763 19.716072 -0.702814 1.443819 0.025659 -0.002120 1074340.000000 1 0 0
11.278063 -0.368435 14.257863 18.182879 -0.032657 0.669493 0.026545 -0.014978 238092.000000 1 0 0
18.977463 -1.898135 5.976163 19.986534 -0.099689 1.267142 0.071866 -0.009996 593481.000000 1 0 0
18.901163 -0.163135 7.983763 20.518797 -0.008631 1.171147 0.071578 -0.018014 343018.000000 1 0 0
19.099563 0.814765 0.340263 19.119961 0.042633 1.552999 0.051372 -0.002922 -54995.800000 1 0 0
18.424663 0.820065 3.617763 18.794385 0.044480 1.377096 0.043561 -0.004579 155906.000000 1 0 0
16.630763 -3.897235 -4.023237 17.548708 -0.230185 1.802115 0.031889 -0.007254 -1076600.000000 1 0 0
11.181063 -8.024135 15.880663 21.014242 -0.622476 0.714059 0.047223 -0.007422 486151.000000 1 0 0
16.535163 -7.466235 6.429763 19.248328 -0.424131 1.230207 0.047662 -0.012610 866665.000000 1 0 0
19.032463 2.164665 5.766263 20.004255 0.113249 1.278396 0.069198 -0.010321 -209410.000000 1 0 0
15.196663 1.721265 7.441463 17.008136 0.112785 1.117953 0.032947 -0.013364 -193389.000000 1 0 0
8.695963 -15.818035 3.952263 18.478376 -1.068145 1.355245 0.025332 -0.008442 583430.000000 1 0 0
11.410163 -15.136135 2.043063 19.064850 -0.924845 1.463426 0.040737 -0.003013 536876.000000 1 0 0
7.866063 -16.134935 6.269863 19.013738 -1.117184 1.234753 0.025532 -0.008302 -127609.000000 1 0 0
14.705863 -11.728435 -2.445837 18.968413 -0.673236 1.700099 0.030159 0.001743 1021480.000000 1 0 0
13.624663 -4.918235 3.184263 14.831048 -0.346423 1.354409 0.011518 0.000271 -830792.000000 1 0 0
-0.976737 10.140665 -5.500937 11.577885 -1.474774 2.065902 0.000369 0.002164 -1687890.000000 1 0 0
8.289263 -1.754935 -7.965137 11.629062 -0.208631 2.325309 0.005236 -0.006224 -3215360.000000 1 0 0
3.065363 -10.332135 7.605563 13.190680 -1.282386 0.956252 0.000761 -0.000450 578511.000000 1 0 0
-6.332537 1.231465 8.295863 10.508990 -0.192069 0.660955 0.001197 -0.001741 -290736.000000 1 0 0
7.326563 -6.159735 -7.242037 12.002831 -0.699094 2.218505 0.000788 -0.003377 7067.500000 1 0 0
-11.435037 -4.486335 -4.106237 12.951774 0.373879 1.893404 0.003957 -0.003490 227715.000000 1 0 0
2.092163 -3.200335 2.809063 4.744483 -0.991802 0.937172 0.008826 -0.002405 1917640.000000 1 0 0
-3.564937 -4.259535 8.783363 10.392299 0.873939 0.563895 0.008523 -0.004088 -2386330.000000 1 0 0
-5.001537 -1.100435 -2.447937 5.676154 0.216569 2.016693 0.006633 -0.005000 -732495.000000 1 0 0
5.008963 -5.195935 -3.686437 8.104151 -0.803718 2.043037 0.003606 -0.003383 48138.700000 1 0 0
2.778263 14.322265 -8.765937 17.020214 1.379194 2.111840 0.008950 -0.007099 -217876.000000 1 0 0
5.461863 -5.547335 13.602763 15.672907 -0.793162 0.519806 0.011610 -0.008452 -1419990.000000 1 0 0
-4.805737 -0.925935 9.812863 10.965616 0.190340 0.462644 0.008306 -0.002513 -2402050.000000 1 0 0
-0.963637 11.882565 -2.734037 12.231064 -1.489877 1.796233 -0.001525 0.001198 -636894.000000 1 0 0
3.111763 9.455265 -10.536637 14.495028 1.252857 2.384614 0.008094 -0.002969 -895254.000000 1 0 0
-10.525237 2.710265 1.140763 10.928289 -0.252026 1.466220 0.004727 -0.003966 353803.000000 1 0 0
5.676363 -8.956935 -0.713037 10.628085 -1.005937 1.637937 0.000099 -0.000644 780189.000000 1 0 0
-6.962637 5.424165 9.386663 12.884461 -0.661828 0.754629 -0.001452 -0.004268 -43667.700000 1 0 0
-5.486337 -1.878235 5.141163 7.749788 0.329841 0.845451 0.006915 -0.003747 660520.000000 1 0 0
6.609563 -3.664535 -7.420137 10.591203 -0.506237 2.347026 0.003373 -0.006088 519150.000000 1 0 0
6.202163 4.823365 11.134063 13.627143 0.660989 0.614520 0.000698 0.000030 152256.000000 1 0 0
3.906463 -9.919435 3.322163 11.166575 -1.195630 1.268713 -0.000664 0.001245 901410.000000 1 0 0
-6.661837 6.655965 -5.844837 11.083505 -0.784957 2.126270 0.009229 -0.005987 392066.000000 1 0 0
-11.027237 8.432365 5.222463 14.831684 -0.652834 1.210966 0.003954 -0.007963 88415.100000 1 0 0
-9.289937 -5.524935 5.038563 11.925391 0.536530 1.134587 0.008905 -0.001909 -886605.000000 1 0 0
3.325963 9.740465 -8.056137 13.070579 1.241751 2.234904 0.006112 -0.001113 912764.000000 1 0 0
-8.192237 -8.527635 6.111763 13.311159 0.805455 1.093763 0.010454 -0.002051 174703.000000 1 0 0
-7.707837 -5.542635 -7.632837 12.181615 0.623424 2.247962 0.011387 -0.002440 -2202230.000000 1 0 0
9.274763 -1.648835 7.060763 11.772606 -0.175938 0.927593 0.005528 -0.006954 2584950.000000 1 0 0
-4.026637 -0.414335 -4.853437 6.319916 0.102538 2.446445 0.013639 -0.010631 -784102.000000 1 0 0
9.107663 1.167965 -4.437037 10.198086 0.127544 2.020929 0.002288 -0.000522 -713951.000000 1 0 0
-1.874237 -10.634235 10.784363 15.261133 1.396342 0.786036 0.001099 -0.005742 80951.700000 1 0 0
-12.899737 0.246965 -2.697937 13.181164 -0.019143 1.776934 0.003628 -0.002001 -487535.000000 1 0 0
-9.737437 -5.143835 -6.019237 12.550216 0.485994 2.071009 0.009641 -0.002778 -1078480.000000 1 0 0
-5.738537 8.294665 -0.332737 10.091729 -0.965571 1.603774 0.003556 0.002691 331997.000000 1 0 0
6.388163 9.673965 0.422763 11.600559 0.987182 1.534345 0.004938 -0.004437 197832.000000 1 0 0
-0.510037 -12.060035 0.007163 12.070817 1.528530 1.570203 0.011319 -0.001547 -1041510.000000 1 0 0
6.156063 4.752565 2.421363 8.145366 0.657442 1.268966 0.001084 -0.002278 406044.000000 1 0 0
3.502063 -7.375135 -8.110037 11.507813 -1.127473 2.352856 -0.003830 0.000670 1231890.000000 1 0 0
-6.616237 -9.913535 4.723963 12.820631 0.982290 1.193438 0.009532 -0.001944 -2322330.000000 1 0 0
0.030163 6.548665 -9.227537 11.315183 1.566190 2.524390 0.009161 -0.004625 -377484.000000 1 0 0
-17.426037 -2.689135 4.204263 18.126611 0.153109 1.336726 0.026552 -0.006829 579614.000000 1 0 0
-8.390037 0.945865 -9.258337 12.530131 -0.112263 2.402212 0.004995 -0.005132 355296.000000 1 0 0
-10.083737 -5.827035 -11.932237 16.673763 0.523984 2.368321 0.010671 0.003535 -60386.800000 1 0 0
2.261563 9.416365 6.432463 11.625798 1.335087 0.984485 -0.007168 0.004243 -1020310.000000 1 0 0
-11.431537 1.686265 -1.183637 11.615702 -0.146454 1.672873 0.005045 -0.004258 -2366340.000000 1 0 0
-6.151537 -5.411035 -3.073237 8.750171 0.721442 1.929670 0.015280 -0.003036 865120.000000 1 0 0
-7.023737 -8.316135 1.297963 10.962467 0.869451 1.452117 0.010363 0.000100 205071.000000 1 0 0
-0.028837 10.951465 -7.828137 13.461618 -1.568163 2.191386 0.002784 -0.000078 14515.400000 1 0 0
-2.911837 9.190265 -4.207137 10.518544 -1.263963 1.982284 0.005673 -0.001818 -379621.000000 1 0 0
3.437363 -4.829635 9.253063 10.989086 -0.952246 0.569774 0.003345 -0.002912 -1162930.000000 1 0 0
-9.028737 1.580765 -0.568637 9.183695 -0.173325 1.632754 0.000960 -0.004130 -2242200.000000 1 0 0
2.570163 3.525365 -10.378037 11.257779 0.940839 2.743636 0.007616 -0.007012 321045.000000 1 0 0
-13.780737 0.463865 1.084863 13.831154 -0.033648 1.492280 0.013579 -0.005642 -146386.000000 1 0 0
9.456163 -12.635935 -4.976237 16.548377 -0.928349 1.876232 0.022955 -0.000325 -1853140.000000 1 0 0
-4.635237 9.458765 -8.324237 13.425595 -1.115143 2.239574 0.002462 -0.003568 -82705.100000 1 0 0
-2.373737 7.090265 8.314863 11.182282 -1.247737 0.732396 -0.003082 0.002849 -322881.000000 1 0 0
-10.734737 -1.167835 -4.421137 11.668114 0.108364 1.959412 0.002933 -0.001716 -1940790.000000 1 0 0
2.763263 -7.226835 9.562863 12.300858 -1.205587 0.680252 0.000814 0.000498 -1046020.000000 1 0 0
-16.178837 -6.358135 3.265563 17.687412 0.374449 1.385105 0.011130 -0.001659 533688.000000 1 0 0
-10.949437 -0.084735 6.117263 12.542657 0.007739 1.061324 0.008224 -0.005235 -1090830.000000 1 0 0
-8.371737 9.918365 9.509363 16.089995 -0.869758 0.938485 0.006180 -0.009589 -1206930.000000 1 0 0
0.332263 -5.972235 -3.744637 7.056932 -1.515219 2.130143 0.003630 -0.000957 475469.000000 1 0 0
5.018163 1.549365 -2.947437 6.022448 0.299466 2.082208 0.002596 -0.001779 -494130.000000 1 0 0
0.375663 5.315665 3.804063 6.547390 1.500243 0.950834 -0.001115 0.002923 -2043110.000000 1 0 0
6.093763 -11.196335 -1.696837 12.859670 -1.072368 1.703133 0.000892 -0.000315 -1087070.000000 1 0 0
6.205463 -13.470035 5.335363 15.761209 -1.139091 1.225461 0.006821 -0.002196 -80528.700000 1 0 0
8.191363 -8.155535 -5.913137 12.983696 -0.783206 2.043649 0.005121 -0.002106 603088.000000 1 0 0
-13.194437 -1.399935 -4.655237 14.061444 0.105705 1.908227 0.002466 0.000033 -2823140.000000 1 0 0
-6.838037 -1.461135 -7.099137 9.964508 0.210512 2.363769 0.011398 -0.005674 -174687.000000 1 0 0
-5.573337 12.793765 -4.559637 14.681036 -1.159957 1.886600 0.007014 0.002128 575389.000000 1 0 0
-4.267137 6.878865 -6.762037 10.547625 -1.015565 2.266721 0.009437 -0.005083 -3368260.000000 1 0 0
-9.451037 -3.696735 -8.138937 13.008853 0.372850 2.246756 0.006598 -0.001756 602545.000000 1 0 0
-2.111737 -6.376235 9.189263 11.382370 1.250977 0.631193 0.009853 -0.005079 -54698.400000 1 0 0
7.503563 -6.026335 9.999163 13.878163 -0.676646 0.766279 0.006808 -0.002703 35008.500000 1 0 0
9.657963 -5.037535 12.139263 16.309957 -0.480773 0.731332 0.015045 -0.005826 419488.000000 1 0 0
-6.510737 2.854765 -9.081437 11.533078 -0.413225 2.477417 0.007380 -0.006392 -123164.000000 1 0 0
7.350663 5.484565 8.813963 12.720010 0.641021 0.805264 -0.003474 -0.002279 600118.000000 1 0 0
12.716763 3.230665 11.227063 17.268474 0.248785 0.863017 0.036798 -0.008547 -145782.000000 1 0 0
-7.448437 -7.421335 -3.879737 11.207488 0.783576 1.924286 0.014860 -0.003495 -959453.000000 1 0 0
2.234863 1.435165 -5.780537 6.361519 0.570852 2.710890 0.006898 -0.006381 497620.000000 1 0 0
12.824863 6.910765 -7.129237 16.219180 0.494248 2.025901 0.007209 0.002397 625264.000000 1 0 0
0.835463 -7.848835 1.043263 7.961821 -1.464751 1.439385 0.005506 -0.000240 483142.000000 1 0 0
-10.034337 -6.118735 -8.521737 14.517122 0.547579 2.198160 0.008461 -0.000143 497227.000000 1 0 0
-6.708137 0.250865 3.080063 7.385718 -0.037380 1.140622 0.006121 -0.004179 -635397.000000 1 0 0
10.781163 -7.996835 1.229663 13.479425 -0.638195 1.479444 0.006463 -0.000018 533814.000000 1 0 0
6.213063 0.981765 10.541763 12.275780 0.156721 0.537981 0.000117 -0.002936 -773907.000000 1 0 0
-12.871337 5.305765 1.830463 14.041832 -0.390992 1.440066 0.015767 -0.004103 513026.000000 1 0 0
2.099363 7.406865 3.714063 8.547704 1.294605 1.121302 -0.005598 0.001773 -441696.000000 1 0 0
9.982263 -9.502435 -0.833137 13.807098 -0.760777 1.631174 0.006968 -0.001033 829144.000000 1 0 0
6.888963 -11.660235 -9.041537 16.283988 -1.037163 2.159449 -0.002184 0.002594 -527439.000000 1 0 0
10.252863 3.538565 11.839663 16.056782 0.332329 0.741639 0.013240 -0.006921 -932914.000000 1 0 0
-11.093437 -3.101335 -1.956137 11.683711 0.272605 1.739013 0.000240 -0.000570 -810001.000000 1 0 0
12.241063 1.003065 6.816063 14.046653 0.081760 1.064153 0.012096 -0.007873 141269.000000 1 0 0
-9.569537 9.163665 3.044263 13.594717 -0.763736 1.344951 0.005191 -0.003338 1440930.000000 1 0 0
-6.636537 7.698465 -8.725337 13.395578 -0.859342 2.280171 0.005992 -0.007475 -802117.000000 1 0 0
8.444063 5.367465 12.172963 15.757313 0.566221 0.687984 0.011503 -0.003717 -1581250.000000 1 0 0
1.276263 4.814265 -2.687937 5.659594 1.311657 2.065686 0.007677 -0.001404 646852.000000 1 0 0
1.328163 0.350765 9.541263 9.639645 0.258203 0.142992 0.002171 -0.001727 784547.000000 1 0 0
2.532063 12.554965 -3.993337 13.415858 1.371788 1.873035 0.006241 -0.001973 357325.000000 1 0 0
1.950563 0.527465 13.058663 13.214068 0.264100 0.153517 0.006148 -0.005176 134286.000000 1 0 0
-12.378837 -1.740535 0.801163 12.526250 0.139690 1.506794 0.003919 -0.003506 -301852.000000 1 0 0
3.319663 8.733765 -1.203737 9.420605 1.207566 1.698924 0.005522 0.000645 252088.000000 1 0 0
3.725163 -2.810435 -5.880937 7.507383 -0.646341 2.470840 -0.000640 -0.005399 -900376.000000 1 0 0
-7.801337 -7.197235 9.224863 14.062686 0.745143 0.855314 0.012690 -0.004890 104965.000000 1 0 0
-6.992137 10.886965 -3.526337 13.410856 -0.999890 1.836871 0.009007 0.000511 1603370.000000 1 0 0
0.284363 0.472965 2.465763 2.526766 1.029470 0.220184 0.004415 -0.000951 -2484510.000000 1 0 0
-7.086037 4.676665 -2.038137 8.731387 -0.583361 1.806396 0.007812 -0.004915 -1390690.000000 1 0 0
-6.782737 -3.822935 -5.922637 9.782535 0.513245 2.221102 0.012585 -0.003057 225346.000000 1 0 0
2.912963 -6.195935 13.429963 15.074444 -1.131320 0.471453 0.010337 -0.007632 -256779.000000 1 0 0
-5.496737 -0.614035 -11.703437 12.944559 0.111248 2.700113 0.013672 -0.004219 -331148.000000 1 0 0
11.923963 2.522365 -0.509337 12.198469 0.208464 1.612563 -0.000886 0.000867 -1036950.000000 1 0 0
6.066663 -11.064735 10.678963 16.530971 -1.069268 0.868467 0.010494 0.001331 266783.000000 1 0 0
-8.202437 6.508365 -10.456637 14.797975 -0.670745 2.355515 0.005755 -0.010391 538902.000000 1 0 0
2.858163 7.835665 11.210663 13.973035 1.221030 0.639646 -0.002849 0.002927 1075480.000000 1 0 0
-6.273437 -10.360435 -0.290637 12.115242 1.026329 1.594788 0.011646 -0.004489 -756929.000000 1 0 0
11.336063 4.259365 6.193263 13.601655 0.359416 1.098052 0.006114 -0.002312 756132.000000 1 0 0
-7.849237 10.593665 1.373063 13.256001 -0.933121 1.467030 0.000551 0.002256 831976.000000 1 0 0
4.277063 -2.671935 -3.546637 6.165317 -0.558393 2.183714 0.002916 -0.005904 -5331750.000000 1 0 0
6.285263 6.544665 6.399063 11.103386 0.805614 0.956582 -0.003188 -0.000775 -4264290.000000 1 0 0
-0.300437 10.306265 -10.183537 14.491853 -1.541654 2.349993 0.000667 -0.001055 -513691.000000 1 0 0
14.063163 6.525165 -2.379637 15.684802 0.434427 1.723101 0.005111 0.006266 823576.000000 1 0 0
1.427663 9.425865 -6.265137 11.407765 1.420477 2.152202 0.006386 -0.000691 -1167770.000000 1 0 0
0.676163 7.296065 7.253663 10.310451 1.478385 0.790450 -0.008193 0.003861 273222.000000 1 0 0
12.192463 6.346165 1.980163 13.887081 0.479912 1.427718 0.001589 -0.000051 -1233090.000000 1 0 0
-6.921237 6.762465 -3.160937 10.179685 -0.773796 1.886530 0.009256 -0.004885 178605.000000 1 0 0
1.006863 9.945465 11.050063 14.900669 1.469902 0.735371 -0.009125 0.006468 -2014620.000000 1 0 0
-3.577037 13.647565 -10.990737 17.884282 -1.314462 2.232608 0.002732 -0.000954 -128594.000000 1 0 0
-10.039737 -5.562435 -2.345837 11.714946 0.505941 1.772402 0.002514 -0.001813 -91030.800000 1 0 0
-3.998537 3.861465 -12.493237 13.674070 -0.767961 2.722957 0.008982 -0.010601 -227587.000000 1 0 0
-3.148337 8.496065 2.505563 9.400691 -1.215920 1.301006 0.001260 0.004623 -3341020.000000 1 0 0
7.093763 8.901565 7.118563 13.425099 0.897941 1.011909 0.003864 -0.001590 13827.700000 1 0 0
-1.334537 -2.254335 -8.153937 8.564444 1.036289 2.830725 0.012288 -0.010392 -1914480.000000 1 0 0
0.791963 -1.333635 4.669563 4.920427 -1.034920 0.320698 0.007018 -0.004029 220028.000000 1 0 0
2.753263 -8.798035 -5.985337 10.991366 -1.267510 2.146648 -0.006911 0.001449 510632.000000 1 0 0
5.227763 3.828165 8.931063 11.033958 0.632061 0.627639 -0.001491 0.001603 -112412.000000 1 0 0
6.223763 -7.470335 -2.787837 10.114997 -0.876178 1.850025 0.001002 -0.001743 863319.000000 1 0 0
1.768763 2.270865 -8.304037 8.788765 0.909058 2.807923 0.008659 -0.008509 111350.000000 1 0 0
-5.359037 11.004665 -0.696737 12.259991 -1.117620 1.627657 0.002379 0.003476 665788.000000 1 0 0
-5.462137 3.321265 -3.438537 7.258738 -0.546319 2.064295 0.008727 -0.005961 159842.000000 1 0 0
2.051563 13.619365 -6.360637 15.170818 1.421285 2.003435 0.000601 -0.002602 275881.000000 1 0 0
-5.323237 -2.576035 2.644663 6.478198 0.450703 1.150271 0.003114 -0.003284 640474.000000 1 0 0
10.529763 -3.301335 -1.861537 11.191070 -0.303818 1.737914 0.003144 -0.001254 421128.000000 1 0 0
2.301763 -3.281235 7.069063 8.126270 -0.959069 0.515792 0.004174 -0.002349 -1605190.000000 1 0 0
-2.824437 9.869665 -11.636237 15.517402 -1.292072 2.418682 0.001090 -0.003095 -3048550.000000 1 0 0
0.596963 -2.129835 9.293563 9.553160 -1.297522 0.233658 0.005023 -0.004321 399380.000000 1 0 0
9.475663 2.760365 4.939963 11.036804 0.283466 1.106728 0.001218 -0.003625 296643.000000 1 0 0
13.511563 2.078865 -5.073237 14.581555 0.152661 1.926150 0.013463 -0.004585 -1243150.000000 1 0 0
-6.422237 3.702165 7.636763 10.642899 -0.522931 0.770525 0.000085 -0.001104 118480.000000 1 0 0
10.704763 0.145365 1.823563 10.859948 0.013579 1.402081 0.002436 -0.000222 1615730.000000 1 0 0
15.399663 6.828465 -4.520837 17.441775 0.417366 1.832986 0.019637 0.002878 -82590.700000 1 0 0
8.102663 -4.873735 -9.243337 13.222924 -0.541520 2.344849 0.007213 -0.001964 -144177.000000 1 0 0
4.551763 5.693465 -2.186137 7.610078 0.896378 1.862170 0.001830 0.000114 -86045.300000 1 0 0
-1.668537 -10.504035 1.489363 10.739505 1.413265 1.431667 0.012694 -0.002536 -874822.000000 1 0 0
-2.826337 12.248665 -12.975737 18.066204 -1.344019 2.372055 0.005297 -0.002694 -966242.000000 1 0 0
8.478863 4.227865 -9.641337 13.517446 0.462556 2.364922 0.007352 -0.000073 -1558450.000000 1 0 0
4.167263 7.578865 -9.047937 12.516807 1.068066 2.378733 0.006782 -0.002523 -1203310.000000 1 0 0
-1.758637 -5.129235 -2.417437 5.936822 1.240492 1.990176 0.010357 -0.003114 -148600.000000 1 0 0
-3.238037 -9.131935 7.080563 12.000478 1.230044 0.939709 0.011018 -0.002226 -830641.000000 1 0 0
1.091063 7.219365 -1.362537 7.427393 1.420801 1.755289 0.006166 -0.000244 1450100.000000 1 0 0
0.447163 -0.713235 -2.324337 2.472085 -1.010796 2.794112 0.008789 -0.005233 -2056030.000000 1 0 0
4.120263 -6.705835 7.498063 10.870406 -1.019834 0.809627 0.001334 -0.000021 613575.000000 1 0 0
-13.987037 3.801665 5.910863 15.653376 -0.265388 1.183583 0.018408 -0.008030 -1144690.000000 1 0 0
4.175563 6.198365 12.664263 14.705054 0.977971 0.533134 0.005445 0.002641 -1989530.000000 1 0 0
8.317363 10.214365 -7.173237 14.998904 0.887408 2.069458 0.008924 -0.003124 702751.000000 1 0 0
12.438463 5.227565 9.505263 16.504327 0.397861 0.957061 0.032817 -0.004507 -54224.400000 1 0 0
7.540563 4.167365 0.380263 8.623898 0.504883 1.526688 0.001628 -0.000933 -3562710.000000 1 0 0
-10.889937 -7.536435 -0.976437 13.279383 0.605374 1.644393 0.007061 -0.004394 -1517520.000000 1 0 0
10.418763 6.872665 0.288263 12.484680 0.583124 1.547705 0.003773 0.001041 -640588.000000 1 0 0
14.590663 3.646765 4.291763 15.639871 0.244921 1.292819 0.017922 -0.004044 730510.000000 1 0 0
2.148763 5.481165 8.288263 10.166398 1.197182 0.617617 -0.007943 0.002271 -264265.000000 1 0 0
4.134863 0.153065 11.824663 12.527696 0.037001 0.336604 0.000410 -0.003752 -804169.000000 1 0 0
-1.358937 -1.768935 -0.710937 2.341212 0.915734 1.879330 0.008873 -0.006644 -1065460.000000 1 0 0
3.002163 -5.165035 -9.450337 11.180315 -1.044280 2.577859 -0.000896 -0.002513 810397.000000 1 0 0
-4.067737 -5.352535 -1.339037 6.854862 0.920948 1.767402 0.010453 -0.001998 -771644.000000 1 0 0
-1.213037 -8.677335 8.626563 12.295738 1.431903 0.793170 0.007255 -0.003398 -62043.200000 1 0 0
3.975963 8.533765 -5.998837 11.163310 1.134791 2.138113 0.006755 0.001340 847769.000000 1 0 0
-14.215637 -1.919935 -2.765037 14.608762 0.134246 1.761218 0.003792 -0.004142 -1310480.000000 1 0 0
8.807763 -10.519735 -6.468237 15.168375 -0.873745 2.011338 0.002072 -0.001914 328688.000000 1 0 0
14.844563 6.138565 1.739463 16.157622 0.392109 1.462931 0.007196 0.004874 -365096.000000 1 0 0
-5.794337 0.473665 -8.529737 10.322554 -0.081565 2.543339 0.014131 -0.008485 340344.000000 1 0 0
-8.107437 -4.507535 -13.026737 15.992007 0.507419 2.522798 0.008946 -0.001690 711141.000000 1 0 0
0.877263 -10.713535 11.996163 16.107679 -1.489095 0.730639 0.007961 -0.006393 199179.000000 1 0 0
0.206763 11.707765 3.268263 12.157140 1.553138 1.298613 -0.000627 0.001753 434703.000000 1 0 0
5.175863 -13.349335 -3.838737 14.823299 -1.200917 1.832748 0.002663 0.001163 167447.000000 1 0 0
-7.487437 1.663665 -7.013137 10.392959 -0.218642 2.311486 0.007123 -0.004431 538493.000000 1 0 0
1.407463 2.764265 4.050763 5.102038 1.099845 0.653518 -0.000701 0.000786 560396.000000 1 0 0
17.257463 5.585465 2.108163 18.260936 0.313015 1.455092 0.026538 -0.002008 -568151.000000 1 0 0
2.496163 -8.266035 -3.566437 9.342250 -1.277526 1.962489 -0.004556 0.000196 428936.000000 1 0 0
-0.476637 -9.351735 -0.558637 9.380522 1.519873 1.630384 0.013274 0.000171 -907549.000000 1 0 0
0.746363 11.819665 -5.617237 13.107818 1.507734 2.013674 0.001791 0.000779 -347365.000000 1 0 0
5.923663 -5.027535 7.851263 11.045733 -0.703751 0.780167 0.000298 -0.000194 -1527450.000000 1 0 0
-6.067337 -1.915435 -9.409837 11.358984 0.305794 2.547050 0.013641 -0.005304 -70759.300000 1 0 0
2.118663 -1.363335 11.265263 11.543551 -0.571784 0.220023 0.000886 -0.003883 -222799.000000 1 0 0
18.118463 2.115865 -5.775237 19.133974 0.116253 1.877410 0.034916 -0.007525 632057.000000 1 0 0
-8.810737 4.845465 7.642663 12.630040 -0.502805 0.920882 0.002873 -0.007688 -390987.000000 1 0 0
11.462563 -7.115735 -4.836037 14.332176 -0.555559 1.914977 0.022709 -0.003404 282039.000000 1 0 0
10.710863 0.489165 8.926363 13.951409 0.045638 0.876535 0.008592 -0.007881 -19867.200000 1 0 0
-8.409737 -7.414335 -1.509337 11.312565 0.722577 1.704617 0.009728 -0.002263 -334634.000000 1 0 0
10.319863 -10.507535 -3.249237 15.081956 -0.794409 1.787937 0.018165 -0.002421 1044960.000000 1 0 0
7.680763 -14.107735 -3.883137 16.525769 -1.072235 1.807989 0.015453 0.001041 -490125.000000 1 0 0
1.842563 -1.112935 -11.659537 11.856579 -0.543366 2.959027 0.005918 -0.009153 540554.000000 1 0 0
-11.825137 -2.596435 -6.396037 13.692503 0.216139 2.056827 0.006146 -0.002839 -713671.000000 1 0 0
2.875563 -12.038035 -6.337337 13.904855 -1.336317 2.044027 -0.002079 0.000382 1037530.000000 1 0 0
-5.540837 1.484365 1.039063 5.829568 -0.261749 1.391599 0.004433 -0.002444 370823.000000 1 0 0
0.144263 6.833965 -3.980037 7.909778 1.549690 2.098070 0.010721 -0.001567 857233.000000 1 0 0
5.478963 -11.801335 3.602263 13.500623 -1.136142 1.300702 -0.003178 -0.000229 -1697260.000000 1 0 0
-4.506737 -9.267835 1.092563 10.363259 1.118187 1.465173 0.010596 -0.000761 -1401200.000000 1 0 0
7.138963 -6.169835 -4.665737 10.526194 -0.712708 2.030018 0.004651 -0.004236 -1048870.000000 1 0 0
-6.986237 -6.100935 2.225863 9.538521 0.717854 1.335270 0.009586 -0.001874 -143155.000000 1 0 0
-6.356837 -0.851535 7.049363 9.530373 0.133163 0.738211 0.003832 -0.002844 -903422.000000 1 0 0
4.190563 -4.954635 3.136363 7.207357 -0.868754 1.120579 0.002707 -0.001028 318406.000000 1 0 0
-2.456237 10.517865 -8.862337 13.971386 -1.341378 2.257926 -0.000123 -0.002391 -740998.000000 1 0 0
-2.382537 -4.951635 2.749063 6.144307 1.122333 1.106922 0.008246 -0.000679 165697.000000 1 0 0
15.088963 5.071765 6.456563 17.178091 0.324260 1.185471 0.032158 -0.009660 1378080.000000 1 0 0
6.803063 0.297065 0.100263 6.810284 0.043639 1.556074 0.006818 -0.002359 2790190.000000 1 0 0
-9.735337 9.258465 0.361663 13.439746 -0.760297 1.543883 0.000877 -0.000478 -1544030.000000 1 0 0
7.203363 10.485265 -2.538637 12.972043 0.968850 1.767768 0.003692 0.000643 -314003.000000 1 0 0
1.670163 -4.197535 -5.396237 7.037622 -1.192109 2.444591 0.000650 -0.003552 -1062090.000000 1 0 0
0.974463 -8.177435 -7.788637 11.335029 -1.452191 2.328328 -0.002808 0.003031 339654.000000 1 0 0
-10.465137 0.371165 -10.516437 14.840900 -0.035452 2.358325 0.001118 -0.005323 -4170560.000000 1 0 0
5.965763 -2.373235 0.484463 6.438732 -0.378616 1.495483 0.006559 -0.002095 -308297.000000 1 0 0
-3.302337 5.287465 -1.191037 6.346754 -1.012514 1.759576 0.007371 -0.003908 1016220.000000 1 0 0
-0.442737 4.495465 -5.092737 6.807437 -1.472628 2.416011 0.011249 -0.005534 -533591.000000 1 0 0
3.977763 -9.742735 9.943663 14.478256 -1.183173 0.813719 0.001716 0.001262 -1105110.000000 1 0 0
7.187263 -13.403235 -0.820037 15.230755 -1.078584 1.624663 0.014376 -0.001720 93353.000000 1 0 0
13.148263 -0.028135 0.484263 13.157208 -0.002140 1.533982 0.005097 -0.000993 1010460.000000 1 0 0
9.354363 2.558265 -0.496437 9.710576 0.266956 1.621942 0.003305 -0.000616 -354642.000000 1 0 0
-0.783437 -5.773435 4.359163 7.276580 1.435923 0.928460 0.005924 -0.000853 373713.000000 1 0 0
11.459263 -3.652635 3.306863 12.473644 -0.308568 1.302480 0.007403 -0.000801 -1845640.000000 1 0 0
1.699363 -8.215635 11.712563 14.407242 -1.366828 0.621573 0.000778 -0.003074 161922.000000 1 0 0
9.405363 -5.820435 -5.862737 12.518386 -0.554159 2.058196 0.007444 -0.005885 -607532.000000 1 0 0
3.228863 6.331165 -0.108437 7.107810 1.099185 1.586053 -0.000791 0.002385 -900252.000000 1 0 0
6.302463 -1.450835 11.556463 13.243028 -0.226259 0.510204 0.000827 -0.003282 684896.000000 1 0 0
-4.824237 -7.586935 -3.845637 9.778740 1.004425 1.974976 0.016568 -0.003053 689216.000000 1 0 0
-3.468237 -8.554435 -5.848937 10.927813 1.185616 2.135581 0.013514 -0.000141 15198.200000 1 0 0
9.717563 5.389165 2.257563 11.338903 0.506353 1.370358 0.003026 -0.002495 -33118.700000 1 0 0
8.953463 -1.241635 0.212163 9.041635 -0.137798 1.547329 0.004837 -0.001370 1808340.000000 1 0 0
-3.897137 9.595565 9.194563 13.849279 -1.185009 0.844772 -0.002987 0.000071 180401.000000 1 0 0
-14.321837 -3.573635 -6.073737 15.961709 0.244530 1.961154 0.007161 -0.004561 -525855.000000 1 0 0
10.583263 6.321665 -5.973537 13.698615 0.538452 2.022022 -0.000953 0.001812 -826441.000000 1 0 0
-1.736637 4.469365 2.702163 5.503891 -1.200187 1.057611 -0.000152 -0.000331 186366.000000 1 0 0
6.969363 -3.670735 2.577963 8.288076 -0.484776 1.254504 0.007421 -0.002845 -1585050.000000 1 0 0
8.367663 -11.306635 -1.656937 14.163446 -0.933683 1.688052 0.012272 -0.002134 -2531360.000000 1 0 0
4.557363 0.593365 1.816163 4.941668 0.129471 1.194455 0.006210 -0.001955 566364.000000 1 0 0
-10.843537 2.342365 3.724763 11.702257 -0.212746 1.246867 0.007023 -0.006185 14035.400000 1 0 0
-0.964837 -3.078035 4.312763 5.385641 1.267038 0.642185 0.008222 -0.003568 413257.000000 1 0 0
8.624063 -8.698835 -8.452137 14.882298 -0.789714 2.174788 0.009010 -0.000698 -453845.000000 1 0 0
12.120963 -4.721935 0.985363 13.045511 -0.371481 1.495192 0.005445 -0.000439 64824.500000 1 0 0
2.915363 4.825065 3.502463 6.636855 1.027285 1.014871 -0.003399 -0.000155 -774536.000000 1 0 0
6.104763 7.479565 1.995463 9.858697 0.886260 1.366982 -0.000301 -0.002114 -223446.000000 1 0 0
-1.743037 -1.345135 -10.295837 10.528620 0.657257 2.930920 0.013862 -0.008701 1936690.000000 1 0 0
-0.916337 -8.578535 6.053463 10.539229 1.464382 0.958957 0.005419 -0.002736 299490.000000 1 0 0
-4.291737 -0.262435 2.152363 4.808383 0.061073 1.106686 0.004608 -0.001947 874638.000000 1 0 0
-8.409937 6.117865 -7.951237 13.091123 -0.628917 2.223550 0.005738 -0.006077 -1412560.000000 1 0 0
6.612863 11.346565 -9.375837 16.136320 1.043114 2.190801 0.013819 -0.002658 120676.000000 1 0 0
-11.228737 -5.713935 3.064763 12.966355 0.470716 1.332176 0.009376 -0.000833 494953.000000 1 0 0
1.504963 -6.259335 3.007963 7.105774 -1.334840 1.133698 0.004365 -0.000805 402506.000000 1 0 0
10.048163 2.205765 7.292263 12.609840 0.216092 0.954154 0.005381 -0.002695 -1540830.000000 1 0 0
-4.166137 -2.567435 -10.715237 11.779844 0.552292 2.713176 0.011846 -0.005553 -2292850.000000 1 0 0
-8.239937 11.777065 6.034563 15.588835 -0.960299 1.173303 0.003482 -0.003658 -880303.000000 1 0 0
6.984663 6.065765 -2.840937 9.677290 0.715103 1.868753 0.002551 0.002148 -2579620.000000 1 0 0
3.881963 -9.903435 -2.294937 10.881838 -1.197222 1.783288 -0.005964 -0.000632 -2397080.000000 1 0 0
8.600763 -12.870035 -7.433137 17.171559 -0.981679 2.018476 0.011555 -0.000518 791303.000000 1 0 0
-1.207137 9.435865 3.705063 10.208831 -1.443557 1.199389 -0.003380 0.002658 20817.500000 1 0 0
0.520363 -13.234635 4.655563 14.039252 -1.531498 1.232786 0.009926 -0.002212 -851671.000000 1 0 0
-11.247437 -6.999335 -5.099737 14.195170 0.556659 1.938270 0.006315 -0.005890 180078.000000 1 0 0
3.629663 10.303365 -3.306537 11.413456 1.232092 1.864715 0.007386 0.000096 -225867.000000 1 0 0
11.724863 -8.063735 -7.305737 15.995938 -0.602455 2.045106 0.035355 -0.004259 468480.000000 1 0 0
11.789763 -4.862135 -5.941537 14.069141 -0.391153 2.006788 0.018978 -0.004993 -284388.000000 1 0 0
1.297163 -10.378435 -2.514637 10.757227 -1.446455 1.806742 0.000007 0.001959 -146223.000000 1 0 0
2.392363 -12.124335 -3.808937 12.931778 -1.375980 1.869771 -0.000563 0.000982 -2691820.000000 1 0 0
-7.732637 -5.731835 7.186663 12.012316 0.637879 0.929450 0.011205 -0.001415 -2539170.000000 1 0 0
-7.368937 -0.871135 9.469863 12.030728 0.117671 0.664639 0.005121 -0.003232 1081540.000000 1 0 0
16.291163 2.721365 -7.541037 18.156956 0.165517 1.999096 0.025796 -0.003933 -532797.000000 1 0 0
-2.010737 6.323065 -5.447937 8.585117 -1.262908 2.258260 0.009972 -0.004212 44288.100000 1 0 0
7.685163 1.117365 8.469063 11.490660 0.144381 0.742118 0.002665 -0.004248 -552719.000000 1 0 0
7.984363 8.345865 -3.733237 12.138393 0.807532 1.883420 0.002725 0.004387 212369.000000 1 0 0
8.014663 0.707865 3.992463 8.981963 0.088093 1.110183 0.001322 -0.002644 25343.400000 1 0 0
-6.859137 5.847165 5.223463 10.417373 -0.705923 1.045559 0.006489 -0.004768 -356716.000000 1 0 0
-6.133937 -2.040735 -4.563137 7.912775 0.321177 2.185455 0.011141 -0.005798 -1657770.000000 1 0 0
-15.284937 -2.029135 3.044363 15.716706 0.131982 1.375862 0.017185 -0.005555 128456.000000 1 0 0
1.220963 1.282165 -10.458137 10.606947 0.809844 2.973888 0.010968 -0.011966 379124.000000 1 0 0
1.568463 -9.304435 9.356563 13.288260 -1.403795 0.789610 0.004812 -0.002586 -1280700.000000 1 0 0
-0.077637 -6.666835 -1.149437 6.765642 1.559152 1.741518 0.009037 -0.000565 786453.000000 1 0 0
-0.299837 -10.299435 -8.384037 13.283837 1.541693 2.253826 0.001639 0.003544 -174202.000000 1 0 0
-4.325837 6.513065 3.802463 8.694344 -0.984518 1.118148 0.000151 0.000992 7868.290000 1 0 0
10.796163 -1.135935 -8.599837 13.849357 -0.104831 2.240758 0.018095 -0.007022 784305.000000 1 0 0
3.052663 -1.025235 6.200563 6.986905 -0.324013 0.479003 0.002321 -0.001756 1033820.000000 1 0 0
1.857863 -12.343135 6.696563 14.165048 -1.421400 1.078384 0.007245 -0.000694 -460756.000000 1 0 0
2.881463 -4.912835 -1.402837 5.865725 -1.040350 1.812295 0.009894 -0.003186 -1815970.000000 1 0 0
-1.073937 9.484665 -1.628337 9.683166 -1.458048 1.739761 0.006068 0.000316 168519.000000 1 0 0
4.560563 -2.401535 2.612963 5.778726 -0.484691 1.101600 0.006492 -0.002213 -272610.000000 1 0 0
17.864063 6.851065 -2.606437 19.309463 0.366211 1.706192 0.031636 0.009939 722129.000000 1 0 0
-7.233437 3.603465 -5.498437 9.774476 -0.462181 2.168239 0.007338 -0.007497 548931.000000 1 0 0
-13.889737 -6.022135 2.178163 15.294943 0.409105 1.427900 0.000425 -0.001404 -250165.000000 1 0 0
6.726063 -6.054935 3.363063 9.654654 -0.732936 1.215001 0.003918 -0.001707 -649731.000000 1 0 0
-4.621837 1.935165 3.470963 6.095394 -0.396523 0.964972 0.002377 -0.002364 483384.000000 1 0 0
6.934863 -12.212535 -5.502337 15.083569 -1.054354 1.944204 0.008316 0.001211 488043.000000 1 0 0
2.960263 -12.316735 3.129763 13.048392 -1.334925 1.328577 0.002450 -0.001046 -248584.000000 1 0 0
3.392463 11.231365 -6.071837 13.210586 1.277457 2.048363 0.004691 0.000586 871570.000000 1 0 0
-5.555137 -8.440235 6.364363 11.941617 0.988697 1.008705 0.012761 -0.000473 79967.400000 1 0 0
-3.999437 6.455465 6.287163 9.858851 -1.016131 0.879265 0.000862 0.001507 104857.000000 1 0 0
4.328263 4.257465 -6.970437 9.243747 0.777152 2.425034 0.005329 0.000861 -507133.000000 1 0 0
-0.371637 -2.787535 1.512463 3.193119 1.438257 1.077351 0.010032 -0.002577 -1327400.000000 1 0 0
-13.436537 -0.902735 6.517563 14.961086 0.067084 1.120053 0.014131 -0.006023 -617609.000000 1 0 0
-0.448037 -9.308335 -5.901637 11.030646 1.522701 2.135330 0.001894 0.002712 509705.000000 1 0 0
2.112963 -1.573035 -4.003637 4.792511 -0.639952 2.559646 0.004816 -0.005143 -936243.000000 1 0 0
11.400663 -1.873435 1.164863 11.612139 -0.162871 1.470313 0.003820 -0.000075 608088.000000 1 0 0
0.518663 -4.144535 -2.015937 4.637907 -1.446300 2.020463 0.008468 -0.003835 -1372670.000000 1 0 0
1.227163 -7.352335 -11.277837 13.518593 -1.405413 2.557561 0.001605 0.003032 -87130.800000 1 0 0
-4.358237 4.088565 -10.015637 11.662915 -0.753483 2.603640 0.009898 -0.009471 -45727.400000 1 0 0
-0.976237 5.812365 -2.127437 6.265989 -1.404391 1.917204 0.009564 -0.002365 -1988920.000000 1 0 0
-11.404737 1.754065 -3.913437 12.184407 -0.152606 1.897776 0.002544 -0.001487 -390302.000000 1 0 0
-1.724337 -11.307235 4.136263 12.162876 1.419464 1.223802 0.013900 -0.002134 -408820.000000 1 0 0
-3.461037 -5.389635 -9.595037 11.536537 0.999948 2.552974 0.010094 0.002337 -1799200.000000 1 0 0
-12.877637 -3.675335 -8.312637 15.762029 0.278013 2.126315 0.013468 -0.005105 -121816.000000 1 0 0
11.437563 4.503665 0.614463 12.307657 0.375116 1.520850 0.004430 0.000661 130063.000000 1 0 0
-8.909237 -2.286835 -3.003437 9.675989 0.251257 1.886411 0.005106 -0.003130 -125767.000000 1 0 0
-2.401237 -6.063035 -6.291337 9.061305 1.193704 2.338254 0.006731 -0.000374 155824.000000 1 0 0
-0.055137 2.675765 -1.899237 3.281747 -1.550193 2.187964 0.009840 -0.005172 592374.000000 1 0 0
8.148663 6.088765 -5.084937 11.372351 0.641713 2.034352 0.002416 0.002095 -1316990.000000 1 0 0
-9.834737 -0.840035 -1.010837 9.922172 0.085208 1.672850 0.001380 -0.002858 -352485.000000 1 0 0
6.269363 0.629365 -8.863737 10.875056 0.100052 2.523615 0.004153 -0.003412 559217.000000 1 0 0
-4.112237 2.417765 7.904063 9.232025 -0.531508 0.543011 -0.001917 0.001558 -1740160.000000 1 0 0
-10.284337 -3.303135 1.432863 10.896393 0.310774 1.438916 0.004619 -0.002545 3517340.000000 1 0 0
-1.781237 -8.180735 -7.783037 11.431224 1.356407 2.319729 0.005437 0.000947 1092630.000000 1 0 0
-9.408937 -9.922135 4.232863 14.314118 0.811940 1.270595 0.008168 0.000111 -629500.000000 1 0 0
-1.086637 -10.764635 7.255963 13.027169 1.470192 0.980043 0.008242 -0.002668 148223.000000 1 0 0
9.503663 3.835165 -3.729537 10.905849 0.383560 1.919815 0.002200 0.001895 -394501.000000 1 0 0
12.809463 -0.698535 3.121563 13.202820 -0.054479 1.332105 0.003991 0.001170 -796510.000000 1 0 0
6.582563 12.123665 -6.762337 15.363678 1.073381 2.026563 0.002278 0.002892 209545.000000 1 0 0
-11.875837 -0.025835 -6.403937 13.492464 0.002175 2.065341 0.002318 -0.002153 714632.000000 1 0 0
-7.634237 -6.571735 -11.484037 15.275876 0.710744 2.421548 0.008744 0.001065 -1646060.000000 1 0 0
4.117663 5.995965 6.682063 9.877080 0.969026 0.827767 -0.005605 0.001513 -3940150.000000 1 0 0
-4.273937 -1.396335 -7.399037 8.658062 0.315777 2.595545 0.013170 -0.009619 -35237.700000 1 0 0
9.591463 9.315065 0.923463 13.402216 0.770780 1.501838 0.002700 0.000720 -1203370.000000 1 0 0
-8.917837 3.965665 4.888463 10.915649 -0.418429 1.106448 0.005212 -0.005681 2271820.000000 1 0 0
-6.898037 7.887365 -12.161737 16.053078 -0.852211 2.430418 0.004223 -0.010529 -655503.000000 1 0 0
11.205563 -3.621135 7.300863 13.855679 -0.312562 1.015821 0.009747 -0.006143 1075320.000000 1 0 0
11.805063 6.891165 6.447763 15.113614 0.528383 1.130045 0.013075 -0.003975 570517.000000 1 0 0
-9.912937 -0.494735 -14.689637 17.728410 0.049867 2.547386 0.005194 -0.004938 -38573.200000 1 0 0
1.619463 -13.167035 11.979563 17.874658 -1.448417 0.836321 0.016139 -0.008672 329951.000000 1 0 0
2.865863 2.948565 13.040163 13.673078 0.799621 0.305453 -0.002515 -0.000861 -1524110.000000 1 0 0
-2.672737 -1.448435 11.035463 11.446525 0.496626 0.268807 0.007437 -0.001845 -780349.000000 1 0 0
2.668863 -10.111835 -8.205037 13.292654 -1.312746 2.236053 -0.007688 0.004106 -1366200.000000 1 0 0
13.971563 3.646565 -7.430737 16.239392 0.255304 2.046062 0.014100 -0.006015 -2588140.000000 1 0 0
7.394163 -1.495335 4.967963 9.032736 -0.199541 0.988438 0.003617 -0.001182 390149.000000 1 0 0
-1.169637 8.715765 10.063163 13.364126 -1.437395 0.718190 -0.008856 0.002965 -45190.700000 1 0 0
-12.343937 -4.646935 0.884663 13.219282 0.360046 1.503824 0.005072 -0.002726 143418.000000 1 0 0
-4.969437 4.867065 -5.263837 8.723051 -0.774991 2.218604 0.011961 -0.008224 -281590.000000 1 0 0
-11.220937 0.374165 1.943663 11.394176 -0.033333 1.399374 0.002470 -0.002768 -989666.000000 1 0 0
-1.211637 2.104065 -4.109637 4.773288 -1.048320 2.607962 0.012258 -0.008532 879557.000000 1 0 0
3.232763 -9.899135 13.068063 16.709814 -1.255145 0.672833 0.012309 -0.003961 -1548590.000000 1 0 0
8.996963 4.737865 -1.462037 10.272792 0.484706 1.713603 0.002435 -0.000990 -850214.000000 1 0 0
4.043763 2.289765 3.880563 6.054239 0.515231 0.875040 -0.001672 0.001972 616904.000000 1 0 0
-5.564337 -3.302335 7.468863 9.881861 0.535613 0.713898 0.008637 -0.003736 -62996.200000 1 0 0
1.649963 -5.848635 7.674363 9.789012 -1.295831 0.669749 0.002747 -0.001558 -749685.000000 1 0 0
-5.792537 -6.188935 -9.765937 12.931741 0.818470 2.426742 0.012693 0.001565 -183994.000000 1 0 0
-11.833237 -5.854135 5.461563 14.287234 0.459414 1.178546 0.015339 -0.002090 -730202.000000 1 0 0
10.541363 6.129265 4.596963 13.031512 0.526667 1.210280 0.004753 -0.001370 -966352.000000 1 0 0
1.466463 -3.702835 0.340263 3.997158 -1.193710 1.485567 0.014808 -0.003784 -908437.000000 1 0 0
8.817363 4.341765 6.969363 12.048603 0.457558 0.953985 0.000120 0.000697 -434071.000000 1 0 0
-7.877137 12.055265 3.530263 14.827052 -0.992021 1.330391 0.002755 0.001101 -205663.000000 1 0 0
-6.135637 13.262365 -6.984737 16.196386 -1.137485 2.016677 0.011161 -0.008174 817054.000000 1 0 0
4.421963 -6.913635 -1.019137 8.269869 -1.001767 1.694345 0.001601 -0.002628 -419502.000000 1 0 0
-1.957537 -8.168935 11.149263 13.959567 1.335599 0.645694 0.006413 -0.006566 21085.800000 1 0 0
11.598763 8.819865 -5.721637 15.654343 0.650133 1.944965 0.003254 0.001083 551061.000000 1 0 0
-3.401637 -2.981935 -2.003637 4.947487 0.719745 1.987754 0.011258 -0.004577 -2637590.000000 1 0 0
-1.965637 5.952265 4.768463 7.876003 -1.251838 0.920475 -0.002879 0.002488 21952.800000 1 0 0
0.429663 -11.602035 -5.670037 12.920570 -1.533780 2.025101 0.000143 -0.001955 -634954.000000 1 0 0
-8.892537 6.246365 -1.582237 10.981702 -0.612354 1.715379 0.007372 -0.001752 -1239740.000000 1 0 0
2.886063 0.056165 3.834463 4.799544 0.019458 0.645295 0.001957 0.000315 299893.000000 1 0 0
-10.093437 3.898365 -1.078937 10.873768 -0.368578 1.670184 0.009169 -0.004169 -105542.000000 1 0 0
6.477863 5.394965 13.757563 16.135021 0.694442 0.549755 0.016259 0.001596 -590301.000000 1 0 0
-8.858237 -1.512035 5.566063 10.570509 0.169063 1.016241 0.006142 -0.002937 79990.300000 1 0 0
13.036363 -1.698935 -1.492237 13.231021 -0.129592 1.683820 0.012267 -0.003624 -1059280.000000 1 0 0
5.170963 -5.489335 5.392863 9.271171 -0.815254 0.950003 0.002573 -0.001647 223999.000000 1 0 0
-9.012137 -1.253935 3.066663 9.601843 0.138251 1.245718 0.001640 -0.002675 738649.000000 1 0 0
2.005963 5.309265 5.643763 8.004014 1.209553 0.788209 -0.002499 0.001474 -1107260.000000 1 0 0
9.373563 3.199765 -7.386837 12.355871 0.328958 2.211601 0.005915 -0.000542 -243486.000000 1 0 0
2.304363 -2.363135 -1.604537 3.670018 -0.797989 2.023281 0.008628 -0.004970 -380351.000000 1 0 0
-6.233037 0.378065 -4.082737 7.460726 -0.060581 2.149848 0.007690 -0.002750 -1787180.000000 1 0 0
-3.946537 4.085665 5.029463 7.587049 -0.802718 0.846109 0.000200 -0.000460 1400350.000000 1 0 0
-6.415837 1.816465 -12.233737 13.932941 -0.275901 2.642556 0.009711 -0.006312 -1788700.000000 1 0 0
-0.137537 3.100765 6.211763 6.944038 -1.526470 0.463381 -0.001651 0.000636 1084220.000000 1 0 0
-8.787037 9.487665 -2.165337 13.111693 -0.823718 1.736702 0.002924 0.000442 850452.000000 1 0 0
-1.256537 -3.686835 -6.103937 7.240835 1.242325 2.573610 0.005735 -0.004623 271213.000000 1 0 0
-3.329137 7.006365 -2.973437 8.307445 -1.127218 1.936840 0.008311 -0.000585 1292040.000000 1 0 0
6.980063 -0.334935 -4.262037 8.185256 -0.047948 2.118463 0.005596 -0.001617 -190007.000000 1 0 0
-5.129037 -10.921535 6.901363 13.900207 1.131742 1.051242 0.005739 -0.002644 347737.000000 1 0 0
9.823163 8.399365 -1.422437 13.002584 0.707423 1.680412 0.001291 0.002894 208883.000000 1 0 0
13.860663 4.703565 -4.361537 15.272999 0.327152 1.860399 0.008508 -0.002201 699847.000000 1 0 0
4.725063 1.140565 -6.881937 8.425448 0.236855 2.526645 0.003055 -0.004912 -448053.000000 1 0 0
8.998663 -4.759235 3.552363 10.781722 -0.486486 1.235043 0.005911 -0.002340 -76607.900000 1 0 0
-8.840837 -3.219735 -0.738037 9.437785 0.349259 1.649077 0.000924 -0.000855 327336.000000 1 0 0
-8.554037 -4.223035 -10.474037 14.167252 0.458586 2.402846 0.005754 0.000175 96028.200000 1 0 0
10.318863 -1.234735 10.786463 14.978360 -0.119092 0.766797 0.006682 -0.009102 2093840.000000 1 0 0
2.200163 -11.694035 9.890563 15.473021 -1.384826 0.877321 0.004600 -0.002875 260439.000000 1 0 0
-6.454637 -10.530035 2.171863 12.540373 1.020892 1.396729 0.009170 -0.002226 -1265120.000000 1 0 0
-3.740137 -1.402735 6.683863 7.786547 0.358814 0.538681 0.007371 -0.002077 -2264500.000000 1 0 0
4.823663 -7.499135 3.861863 9.716930 -0.999196 1.162075 -0.000988 0.001789 305219.000000 1 0 0
11.731263 -9.464135 -5.332137 15.988248 -0.678840 1.910814 0.025975 -0.001942 383572.000000 1 0 0
11.233663 1.047465 11.522563 16.126432 0.092975 0.774867 0.016051 -0.007158 -117334.000000 1 0 0
-10.327137 -3.431435 4.398963 11.737776 0.320796 1.186648 0.011023 -0.000908 2550690.000000 1 0 0
2.103363 8.714465 8.990063 12.695955 1.333962 0.783986 -0.010127 0.004465 -243978.000000 1 0 0
6.614463 8.745165 4.231963 11.753236 0.923239 1.202456 0.000489 -0.002254 -85485.200000 1 0 0
-4.316337 3.657765 0.291163 5.665226 -0.702996 1.519379 0.005007 -0.005501 -904719.000000 1 0 0
4.814363 6.938665 4.238163 9.449084 0.964213 1.105681 -0.001009 -0.000834 -2286270.000000 1 0 0
-8.325337 13.070665 1.182463 15.541935 -1.003651 1.494641 0.005272 0.003800 256461.000000 1 0 0
8.933863 8.252665 -9.090437 15.184085 0.745783 2.212651 0.004174 -0.002082 -152431.000000 1 0 0
7.211463 2.071365 6.159463 9.707458 0.279703 0.883424 0.000195 0.000734 -1633340.000000 1 0 0
11.415763 -6.175635 2.881963 13.295255 -0.495887 1.352296 0.008783 -0.001458 -207760.000000 1 0 0
11.468663 4.798565 -1.999137 12.591783 0.396273 1.730236 0.000499 0.003208 292319.000000 1 0 0
-3.940937 14.359465 -5.952237 16.036033 -1.302943 1.951075 -0.000804 0.003899 -1351260.000000 1 0 0
7.163163 -3.058535 6.913163 10.414286 -0.403547 0.844888 0.004644 -0.004149 -1440600.000000 1 0 0
-8.060537 -0.444035 0.827563 8.115065 0.055032 1.468640 0.003798 -0.003757 83605.500000 1 0 0
-3.303137 1.039565 10.676363 11.223909 -0.304907 0.313642 0.002384 0.000240 -72648.100000 1 0 0
7.111863 -1.261335 -1.896937 7.467793 -0.175531 1.827626 0.008245 -0.001419 -2216980.000000 1 0 0
-7.785737 5.352265 2.939563 9.894720 -0.602250 1.269159 0.005460 -0.002843 788809.000000 1 0 0
9.530163 -2.073835 2.805663 10.148721 -0.214267 1.290693 0.005647 -0.002564 -1675290.000000 1 0 0
0.235263 3.296865 1.619363 3.680626 1.499558 1.115232 0.004686 -0.000197 -3197070.000000 1 0 0
-7.585537 -3.089835 4.060363 9.141881 0.386811 1.110571 0.004765 -0.001364 761999.000000 1 0 0
-2.309137 8.388865 -6.718937 10.993148 -1.302186 2.228364 0.002780 -0.002407 -467991.000000 1 0 0
4.552563 9.807965 7.261463 13.025009 1.136221 0.979423 -0.004789 0.006796 -868635.000000 1 0 0
-11.972737 -3.052235 6.786863 14.096953 0.249615 1.068497 0.017555 -0.004047 -1403580.000000 1 0 0
-4.861037 2.313365 -5.694637 7.836468 -0.444182 2.384279 0.013326 -0.010212 -1207680.000000 1 0 0
-2.729737 2.755065 -1.922837 4.328874 -0.790016 2.031065 0.009317 -0.004499 1725680.000000 1 0 0
2.350263 5.153465 11.460863 12.784104 1.142919 0.459006 -0.002395 -0.002051 276917.000000 1 0 0
-0.825137 1.642465 4.481763 4.844042 -1.105249 0.389204 0.006468 -0.001740 606144.000000 1 0 0
5.113963 1.566565 7.622963 9.312159 0.297255 0.611822 -0.003814 0.001247 1197810.000000 1 0 0
3.396663 -8.134735 1.916363 9.021290 -1.175252 1.356739 0.002253 -0.000842 2655800.000000 1 0 0
5.148263 6.408165 -4.702237 9.469965 0.893991 2.090407 0.005396 0.001318 -2022530.000000 1 0 0
-4.116237 2.956265 -8.020537 9.487462 -0.622834 2.578078 0.015122 -0.013155 324162.000000 1 0 0
-8.827637 -2.171735 -12.978837 15.845940 0.241225 2.530574 0.011091 -0.001089 -1135410.000000 1 0 0
-7.878237 8.064365 1.271263 11.345339 -0.797073 1.458509 0.006188 -0.001067 -1116770.000000 1 0 0
7.348463 0.985365 -6.516037 9.870643 0.133296 2.291806 0.002667 -0.001784 206044.000000 1 0 0
9.009963 8.869865 5.496063 13.786249 0.777563 1.160738 0.001405 -0.000628 601728.000000 1 0 0
9.361463 -1.012135 -1.396737 9.519048 -0.107699 1.718059 0.003914 -0.000714 11746.700000 1 0 0
5.423763 0.073165 4.242963 6.886602 0.013489 0.906991 -0.000095 0.000677 -1468100.000000 1 0 0
-4.088437 -7.291735 -8.026237 11.589012 1.059779 2.335846 0.018318 -0.001098 372368.000000 1 0 0
-2.108137 7.437865 -0.615737 7.755335 -1.294607 1.650275 0.006771 0.000205 318451.000000 1 0 0
13.462863 -3.387735 -7.348137 15.707340 -0.246517 2.057614 0.027165 -0.008222 666297.000000 1 0 0
-4.844537 -5.083135 1.561663 7.193510 0.809427 1.351961 0.009122 -0.001789 1777500.000000 1 0 0
-8.869437 1.291265 2.533763 9.314195 -0.144570 1.295292 0.004175 -0.004546 -1237860.000000 1 0 0
-1.078337 11.131465 10.198063 15.135152 -1.474225 0.831457 -0.010130 0.002855 130558.000000 1 0 0
-8.629337 0.325965 7.404763 11.375510 -0.037756 0.861976 0.005016 -0.004096 20254.100000 1 0 0
-6.042137 12.912765 -2.169037 14.420529 -1.133141 1.721782 0.000664 0.003766 419627.000000 1 0 0
-13.083937 -0.758035 3.221663 13.496042 0.057872 1.329757 0.013182 -0.004816 564939.000000 1 0 0
-6.677837 12.764765 8.735363 16.847531 -1.088804 1.025706 0.011782 -0.004062 969109.000000 1 0 0
-7.889737 0.986965 -14.097537 16.185259 -0.124448 2.628053 0.005216 -0.004778 -153783.000000 1 0 0
7.229463 3.001365 3.816363 8.708499 0.393504 1.117163 -0.000225 -0.000160 -795993.000000 1 0 0
-1.688737 0.559865 -2.093937 2.747700 -0.320126 2.437299 0.009974 -0.008859 532976.000000 1 0 0
-6.183637 9.637265 -10.306637 15.405876 -1.000322 2.303668 0.004796 -0.009312 42410.400000 1 0 0
-10.058337 13.588765 5.360463 17.735818 -0.933600 1.263755 0.003784 -0.006294 685521.000000 1 0 0
-5.629637 8.273165 2.330663 10.274730 -0.973299 1.341970 0.001923 0.001311 -458461.000000 1 0 0
-2.371737 -10.835235 -1.219737 11.158638 1.355304 1.680324 0.012197 -0.000284 -22758.900000 1 0 0
-2.324537 -12.336135 8.813563 15.338272 1.384547 0.958666 0.003407 -0.002588 536900.000000 1 0 0
-14.641137 -6.469735 -1.757037 16.103029 0.416087 1.680126 0.006590 -0.006642 523149.000000 1 0 0
-2.779537 -9.469235 3.275563 10.398151 1.285283 1.250325 0.011431 -0.002683 -1527020.000000 1 0 0
4.697963 -2.629735 7.523563 9.251506 -0.510306 0.621122 0.002821 -0.000545 389483.000000 1 0 0
-15.023537 -1.316835 -0.363837 15.085526 0.087428 1.594917 0.007597 -0.005923 -10353.600000 1 0 0
5.554263 8.876265 -2.734237 10.821921 1.011663 1.826222 0.002515 0.003606 -194804.000000 1 0 0
-5.686237 -5.644735 8.572663 11.734005 0.781735 0.751621 0.011287 -0.002357 -3376950.000000 1 0 0
3.438863 3.505065 7.098163 8.631059 0.794932 0.605184 -0.004063 0.001211 -264217.000000 1 0 0
3.349163 2.027165 9.386163 10.169874 0.544289 0.395152 0.000439 -0.001784 764768.000000 1 0 0
9.879363 -3.191535 5.155763 11.591790 -0.312468 1.109871 0.007713 -0.002522 -542068.000000 1 0 0
6.474663 10.150365 -5.001637 13.037160 1.002992 1.964536 0.004380 0.002701 170873.000000 1 0 0
-4.432637 12.082265 -8.470037 15.406847 -1.219171 2.152871 0.000351 -0.005528 2088.300000 1 0 0
-3.534637 -7.219835 2.239963 8.344885 1.115525 1.299040 0.009900 -0.003735 689142.000000 1 0 0
-7.530837 -4.061535 1.183463 8.637717 0.494607 1.433353 0.003470 -0.001653 3618120.000000 1 0 0
-1.958337 -3.964635 -10.884337 11.748285 1.111999 2.755697 0.015089 -0.003679 -842472.000000 1 0 0
-5.280037 8.249465 -4.426137 10.748170 -1.001451 1.995229 0.007879 -0.004591 -1902920.000000 1 0 0
-11.042337 -3.306335 -10.144237 15.354824 0.290928 2.292487 0.009222 -0.000652 -98493.000000 1 0 0
4.758163 -11.408835 -7.727337 14.577838 -1.175671 2.129485 -0.003342 0.001679 -2452480.000000 1 0 0
-9.482237 -3.975935 7.214163 12.560455 0.397036 0.958980 0.010828 -0.002570 -736252.000000 1 0 0
-5.688437 -9.644035 -5.162137 12.329371 1.037881 2.002794 0.012816 -0.005559 -679532.000000 1 0 0
4.910163 4.459565 -9.524137 11.606318 0.737344 2.533255 0.003855 0.001224 29723.800000 1 0 0
-3.459437 -7.211235 -14.215637 16.311160 1.123497 2.629107 0.009959 0.001254 469806.000000 1 0 0
0.615563 -0.804435 -8.747937 8.806386 -0.917630 3.026315 0.009837 -0.012411 -314745.000000 1 0 0
-7.761037 2.248365 -2.876537 8.576906 -0.281980 1.912807 0.006182 -0.005744 -1266890.000000 1 0 0
-2.251937 7.490865 -12.501337 14.746787 -1.278767 2.582493 0.004470 -0.007263 -112383.000000 1 0 0
-9.740737 8.883065 7.553763 15.193753 -0.739378 1.050471 0.003518 -0.007823 -345617.000000 1 0 0
-10.742337 -2.885635 -14.661037 18.403008 0.262428 2.492554 0.014079 0.008996 160345.000000 1 0 0
-3.217737 4.767865 7.891063 9.765001 -0.977129 0.629883 -0.000894 0.000635 -570406.000000 1 0 0
8.723863 -2.260335 -3.576837 9.695806 -0.253523 1.948628 0.006361 -0.001402 -3917460.000000 1 0 0
1.886763 -8.557735 -1.048337 8.825741 -1.353793 1.689859 0.002589 0.000560 -294599.000000 1 0 0
-13.711637 -2.833235 4.946263 14.849301 0.203762 1.231210 0.020745 -0.005920 540833.000000 1 0 0
7.143463 2.759865 -1.902637 7.890878 0.368683 1.814315 0.002025 -0.000791 145308.000000 1 0 0
-11.058737 4.421465 8.740363 14.772913 -0.380348 0.937695 0.007287 -0.006591 -2301650.000000 1 0 0
-1.739937 -2.555435 7.861663 8.447684 0.973020 0.374668 0.004640 -0.003600 -136151.000000 1 0 0
3.098463 11.912865 -9.824837 15.749421 1.316340 2.244420 0.005827 -0.007534 626540.000000 1 0 0
3.669363 -4.939935 -7.052937 9.360080 -0.931922 2.424185 -0.004397 -0.003534 304283.000000 1 0 0
8.270163 -13.823335 -9.765537 18.837354 -1.031646 2.115791 0.009667 0.007547 -8999.460000 1 0 0
-6.444237 -5.763335 -0.427137 8.656019 0.729679 1.620162 0.009957 -0.000862 -444826.000000 1 0 0
-1.234237 -4.016035 9.852463 10.710878 1.272631 0.403084 0.004964 -0.003740 280389.000000 1 0 0
2.840063 3.265265 1.806563 4.689519 0.854930 1.175335 -0.002106 0.001094 -256458.000000 1 0 0
-9.224237 13.465565 7.896663 18.131886 -0.970192 1.120189 0.009676 -0.010892 1551710.000000 1 0 0
4.085163 -11.104935 -0.057437 11.832642 -1.218292 1.575650 -0.002753 0.000250 73517.200000 1 0 0
-12.568037 -1.352635 -9.139937 15.598834 0.107212 2.196832 0.005631 -0.003696 -75107.200000 1 0 0
-4.318937 1.001465 -13.560437 14.266801 -0.227851 2.825602 0.012434 -0.005989 842361.000000 1 0 0
3.869563 -3.157335 4.944363 7.027731 -0.684386 0.790415 0.002446 0.002015 -178315.000000 1 0 0
1.743163 -1.257835 1.091163 2.410685 -0.625064 1.101077 0.007298 -0.003068 1266270.000000 1 0 0
8.173263 -8.955835 7.368363 14.188092 -0.831053 1.024725 0.008531 -0.001859 -1089850.000000 1 0 0
-0.127037 2.384365 -6.462037 6.889068 -1.517567 2.787649 0.010745 -0.010684 -1093230.000000 1 0 0
-3.696337 -9.750935 -3.398937 10.967972 1.208458 1.885881 0.014735 0.000890 700472.000000 1 0 0
-9.538837 2.297465 -5.487137 11.241727 -0.236352 2.080713 0.001316 -0.002257 -193942.000000 1 0 0
8.945063 -7.592035 5.332063 12.887359 -0.703762 1.144234 0.005843 0.000884 1968230.000000 1 0 0
-5.477037 -4.245435 4.674563 8.359018 0.659393 0.977347 0.007974 -0.002642 -1699450.000000 1 0 0
-0.188237 -12.459435 10.378963 16.217146 1.555689 0.876299 0.014037 -0.004212 -277916.000000 1 0 0
-14.406937 -8.384835 3.024763 16.941502 0.527079 1.391292 0.015533 -0.000603 -1545170.000000 1 0 0
10.933863 -1.245335 -3.636037 11.589693 -0.113408 1.889915 0.011701 -0.004151 271923.000000 1 0 0
-13.713837 2.961465 2.597563 14.268389 -0.212681 1.387725 0.017677 -0.004633 -1385300.000000 1 0 0
-6.334737 6.088065 0.946663 8.836832 -0.765544 1.463463 0.004452 -0.000595 699804.000000 1 0 0
7.077163 -6.849435 -0.448337 9.859107 -0.769048 1.616286 0.001535 -0.000527 480221.000000 1 0 0
-6.865237 7.814165 10.045563 14.460498 -0.849952 0.802808 0.001617 -0.005653 -2083.180000 1 0 0
-12.632537 -5.169935 -2.025137 13.798927 0.388460 1.718089 0.000557 -0.006395 -1998090.000000 1 0 0
-9.561537 -5.565135 0.171663 11.064501 0.527104 1.555281 0.005476 -0.000735 -908568.000000 1 0 0
-1.869537 1.792365 2.130463 3.353597 -0.764327 0.882429 0.004839 -0.001346 -55242.000000 1 0 0
-6.961037 7.373065 7.493263 12.608216 -0.814135 0.934382 0.000880 -0.005977 -148591.000000 1 0 0
5.659063 7.152965 -0.318737 9.126418 0.901476 1.605728 0.003131 -0.001162 -1995750.000000 1 0 0
-0.012637 -4.006335 7.473263 8.479418 1.567642 0.492102 0.005019 -0.002710 -1034620.000000 1 0 0
6.433063 0.555165 13.045563 14.556071 0.086085 0.459604 0.003520 -0.006332 261421.000000 1 0 0
5.791163 6.162265 -7.840637 11.531985 0.816434 2.318427 -0.000754 0.001231 -542994.000000 1 0 0
9.965663 5.384665 9.094863 14.526720 0.495382 0.894283 0.004720 -0.003289 -306985.000000 1 0 0
-1.155537 -4.985635 -8.441137 9.871404 1.343044 2.596559 0.012713 -0.000875 347393.000000 1 0 0
9.975863 -3.486235 -7.882537 13.183553 -0.336200 2.211684 0.016652 -0.009451 554572.000000 1 0 0
8.426663 -5.471335 1.232163 10.122370 -0.575875 1.448767 0.006872 -0.000724 1450560.000000 1 0 0
15.849763 3.125265 -4.994237 16.909307 0.194683 1.870623 0.020988 -0.001077 -53465.200000 1 0 0
-6.998937 3.591365 0.961063 7.925066 -0.474096 1.449228 0.005819 -0.004612 815099.000000 1 0 0
-1.790237 3.737465 0.239563 4.151022 -1.124091 1.513052 0.006776 -0.005580 -716219.000000 1 0 0
-2.522537 9.948665 6.937763 12.388369 -1.322474 0.976384 -0.000532 0.005185 712552.000000 1 0 0
5.482863 -5.651335 -8.732837 11.758478 -0.800528 2.407866 -0.000759 -0.004245 -309008.000000 1 0 0
-1.192837 -0.964835 6.276663 6.461444 0.680118 0.239729 0.004215 -0.002887 187263.000000 1 0 0
-5.667637 5.070565 -7.868137 10.942592 -0.729853 2.373213 0.008981 -0.006723 -108979.000000 1 0 0
6.844663 -1.191835 2.534463 7.395497 -0.172398 1.221003 0.003789 0.000091 -1360680.000000 1 0 0
8.877963 7.534265 3.263563 12.092734 0.703709 1.297530 0.001817 -0.002927 335744.000000 1 0 0
-5.152037 -4.909135 -7.685637 10.474355 0.761260 2.394633 0.016406 -0.003363 1759800.000000 1 0 0
-2.194537 7.844565 -10.043437 12.931505 -1.298017 2.460149 0.004005 -0.005189 157170.000000 1 0 0
-2.863237 -2.191935 1.515863 3.911591 0.653375 1.172845 0.005269 -0.002107 48955.800000 1 0 0
5.999063 -1.998335 -9.250537 11.205112 -0.321548 2.541997 0.002325 -0.002261 711658.000000 1 0 0
1.148163 -7.540035 5.107363 9.179082 -1.419682 0.980734 0.002195 0.001149 643698.000000 1 0 0
1.729563 11.789765 1.205363 11.976763 1.425135 1.469984 0.000983 -0.001212 -169994.000000 1 0 0
-1.034037 7.016965 2.518963 7.526766 -1.424487 1.229544 0.000399 0.002832 629136.000000 1 0 0
8.759663 7.882465 -6.648837 13.530410 0.732737 2.084492 0.004916 0.000808 202401.000000 1 0 0
3.734763 -11.307335 5.450763 13.096377 -1.251782 1.141530 0.004644 0.000356 -227983.000000 1 0 0
8.033563 -7.129135 12.244563 16.287787 -0.725821 0.720064 0.017015 -0.004049 359551.000000 1 0 0
-8.725637 0.126565 -4.032137 9.613058 -0.014504 2.003629 0.004329 -0.001910 -1084030.000000 1 0 0
-3.275137 -5.044635 11.124563 12.646373 0.994961 0.495640 0.011807 -0.006091 478847.000000 1 0 0
-8.316437 0.203365 -11.650437 14.315627 -0.024449 2.521503 0.005821 -0.004854 -1706640.000000 1 0 0
1.335563 -4.965035 5.274963 7.366175 -1.308023 0.772589 0.003101 -0.001139 -590681.000000 1 0 0
6.708663 3.675065 -7.857137 10.965713 0.501159 2.369595 0.003859 0.002641 -808646.000000 1 0 0
16.284963 4.276865 -1.352137 16.891414 0.256827 1.650931 0.019777 0.006339 -1592970.000000 1 0 0
7.907463 7.403965 0.147763 10.833675 0.752526 1.557157 0.002744 -0.003317 -3258250.000000 1 0 0
5.691063 -10.357135 13.879263 18.228888 -1.068351 0.705344 0.020943 -0.001486 1782490.000000 1 0 0
-5.317237 -9.228135 8.905463 13.883038 1.048062 0.874392 0.008561 -0.006933 490918.000000 1 0 0
-12.821537 -3.179635 2.747963 13.492709 0.243088 1.365699 0.008290 -0.004164 -190857.000000 1 0 0
-2.124937 -1.315935 -5.867037 6.377238 0.554477 2.738868 0.012512 -0.011053 -2218020.000000 1 0 0
-2.452937 12.987865 -4.353137 13.915867 -1.384131 1.888955 -0.000349 0.005613 398795.000000 1 0 0
4.004663 -0.428535 -5.052637 6.461432 -0.106603 2.468614 0.003510 -0.004618 -318149.000000 1 0 0
-9.018937 3.826565 -7.413437 12.285881 -0.401262 2.218568 0.003033 -0.004405 697289.000000 1 0 0
-4.465337 7.958865 -11.236437 14.475507 -1.059508 2.459473 0.006846 -0.008415 -3040080.000000 1 0 0
-10.176937 -6.453135 7.326663 14.102942 0.565112 1.024515 0.010359 -0.001575 -1596400.000000 1 0 0
8.035063 5.409765 4.285363 10.592079 0.592560 1.154275 -0.000856 -0.001485 -2091350.000000 1 0 0
-6.831137 -7.591335 4.005263 10.969728 0.838059 1.197035 0.012310 -0.000885 -673649.000000 1 0 0
-4.027637 11.830365 8.053963 14.867607 -1.242655 0.998324 0.000181 -0.000136 -52889.900000 1 0 0
-7.224037 10.008765 -7.873937 14.641072 -0.945608 2.138619 0.009078 -0.008956 415020.000000 1 0 0
13.149463 5.480565 4.727863 15.009919 0.394896 1.250358 0.007331 -0.002368 8567.920000 1 0 0
5.424063 4.034165 -3.547137 7.633946 0.639491 2.054039 0.002711 0.001061 424016.000000 1 0 0
-2.877537 -4.289635 5.179963 7.315272 0.979930 0.783989 0.008957 -0.001708 -1367320.000000 1 0 0
12.301763 -2.495135 -5.236037 13.600557 -0.200113 1.965990 0.019014 -0.005139 -1503290.000000 1 0 0
-5.127437 9.673565 6.975263 12.981632 -1.083402 1.003543 -0.001248 0.000491 -785339.000000 1 0 0
1.740163 3.739965 -0.458437 4.150382 1.135301 1.681479 0.004962 -0.002227 548161.000000 1 0 0
0.016763 9.612565 7.763363 12.356031 1.569052 0.891423 -0.006889 0.003485 -503354.000000 1 0 0
-5.575137 2.039565 5.832863 8.322516 -0.350709 0.794203 0.000455 -0.000780 748045.000000 1 0 0
8.805663 0.906765 10.750763 13.926264 0.102614 0.688850 0.007279 -0.003931 -2354880.000000 1 0 0
0.376863 -2.772335 -10.209837 10.586248 -1.435687 2.874126 0.007982 -0.006906 -1848790.000000 1 0 0
1.260663 10.641765 -2.611337 11.029756 1.452882 1.809820 0.006064 0.000375 -867138.000000 1 0 0
2.277163 -4.370235 11.592263 12.596229 -1.090441 0.401959 0.004762 -0.004013 -887039.000000 1 0 0
6.522263 -3.030335 9.423063 11.853985 -0.434940 0.651908 0.003265 -0.005128 407041.000000 1 0 0
-10.751637 -8.267235 5.606163 14.675624 0.655505 1.178831 0.013197 -0.002689 -1140610.000000 1 0 0
-3.014837 0.871065 -6.887337 7.568581 -0.281267 2.714058 0.017965 -0.012363 912234.000000 1 0 0
11.179763 2.648965 -4.979937 12.522136 0.232652 1.979795 0.002672 -0.001513 -3364050.000000 1 0 0
-2.072037 -4.039035 0.002663 4.539509 1.096800 1.570210 0.006968 -0.002805 1267340.000000 1 0 0
-1.254037 -6.443935 -10.590137 12.459852 1.378591 2.586669 0.008834 0.000602 940118.000000 1 0 0
0.336563 6.733065 -6.644137 9.465305 1.520851 2.348923 0.009303 -0.000954 -2597750.000000 1 0 0
2.011163 3.811465 -6.273437 7.611049 1.085265 2.539680 0.005489 -0.002879 -1362100.000000 1 0 0
1.525263 -14.808235 6.423763 16.213419 -1.468157 1.163421 0.013290 -0.004384 -174403.000000 1 0 0
-1.683837 5.337565 -10.510837 11.908090 -1.265209 2.652296 0.010267 -0.006572 -764311.000000 1 0 0
13.721263 4.395465 -0.675537 14.423922 0.310011 1.617648 0.005513 0.002628 -717665.000000 1 0 0
-2.507837 3.322765 -6.024037 7.322502 -0.924266 2.536896 0.013382 -0.009645 -953264.000000 1 0 0
5.531563 7.819165 14.135963 17.075215 0.955097 0.595507 0.011955 -0.000388 703369.000000 1 0 0
15.867963 0.630065 -5.868437 16.930085 0.039686 1.924770 0.013333 -0.006456 403672.000000 1 0 0
6.219163 -8.337035 10.594963 14.847133 -0.929881 0.776168 0.004600 -0.000018 446412.000000 1 0 0
0.169963 -5.777935 -6.391137 8.617427 -1.541389 2.406327 0.001890 -0.000788 -1595280.000000 1 0 0
8.555963 5.498865 -7.543637 12.662878 0.571222 2.208969 0.004531 0.003284 -817840.000000 1 0 0
-16.118537 -0.633335 5.207263 16.950632 0.039272 1.258545 0.030078 -0.010647 -365782.000000 1 0 0
-0.141537 4.054565 -12.244337 12.898966 -1.535902 2.821637 0.008045 -0.009730 705252.000000 1 0 0
-11.308037 3.691265 5.762663 13.217618 -0.315523 1.119666 0.012366 -0.007671 74124.600000 1 0 0
5.217463 -9.701235 -9.618337 14.623552 -1.077357 2.288596 -0.007679 0.005817 -334255.000000 1 0 0
1.568563 11.152465 -11.680937 16.225972 1.431066 2.374442 0.005017 -0.002926 -3971250.000000 1 0 0
6.062263 2.435865 1.284863 6.658479 0.382064 1.376612 0.006552 -0.000775 -106758.000000 1 0 0
5.669463 4.549465 4.981163 8.812061 0.676234 0.970040 -0.005100 0.000499 -387421.000000 1 0 0
0.395363 -1.532235 -6.331937 6.526675 -1.318274 2.896698 0.006310 -0.008345 -515701.000000 1 0 0
12.703363 6.804965 -4.560937 15.115725 0.491784 1.877308 0.004790 -0.000659 -251110.000000 1 0 0
7.247963 3.084165 12.707363 14.950656 0.402312 0.554899 0.006820 -0.003920 -115497.000000 1 0 0
-2.400037 -0.271935 8.671263 9.001385 0.112823 0.271665 0.000998 -0.002186 1198980.000000 1 0 0
2.172963 -15.217435 13.374763 20.375877 -1.428961 0.854757 0.021560 -0.012499 1014790.000000 1 0 0
18.932863 4.597465 -1.709137 19.557892 0.238219 1.658297 0.028397 0.001947 851680.000000 1 0 0
-0.484137 -13.256635 7.170863 15.079590 1.534292 1.075225 0.005725 -0.002064 -77002.600000 1 0 0
4.380963 1.654965 -0.554837 4.715887 0.361191 1.688722 0.005796 -0.003519 1029700.000000 1 0 0
2.733563 -0.477635 -7.400437 7.903605 -0.172983 2.782844 0.003291 -0.008185 -126034.000000 1 0 0
7.265063 -11.318135 0.876063 13.477715 -1.000139 1.505750 0.002455 -0.000368 216332.000000 1 0 0
-11.867537 -7.353635 1.361863 14.027439 0.554738 1.473558 0.006818 0.000380 38298.700000 1 0 0
0.228163 -7.070235 10.041463 12.282966 -1.538537 0.613720 0.003378 -0.004451 -1552590.000000 1 0 0
-4.671037 -7.195435 10.559663 13.605122 0.995007 0.682254 0.013727 -0.004065 -1010110.000000 1 0 0
11.787063 0.802865 -1.581237 11.919721 0.068009 1.703846 0.003046 -0.001138 1156450.000000 1 0 0
6.483163 -9.615735 -7.295937 13.701257 -0.977580 2.132349 -0.005384 -0.000350 -140689.000000 1 0 0
-10.900737 4.921665 3.572063 12.482327 -0.424099 1.280569 0.006444 -0.005794 507917.000000 1 0 0
6.034663 -9.071135 1.996363 11.076466 -0.983768 1.389571 0.001259 -0.000115 3427360.000000 1 0 0
11.554563 -1.345735 5.876863 13.032898 -0.115945 1.102995 0.009139 -0.006778 601266.000000 1 0 0
-6.434837 3.543865 4.074563 8.400486 -0.503404 1.064389 0.001141 -0.003045 -1639770.000000 1 0 0
9.579463 6.371765 -3.144037 11.926880 0.586951 1.837558 0.002673 0.002957 -463294.000000 1 0 0
-2.310437 6.585065 10.870063 12.917410 -1.233355 0.570734 -0.009865 -0.000277 -454114.000000 1 0 0
1.920963 9.846465 2.932163 10.451821 1.378125 1.286439 -0.003249 0.000648 -33585.500000 1 0 0
2.912763 6.134665 -5.582737 8.791204 1.127508 2.258852 0.003918 -0.000296 -1680610.000000 1 0 0
12.091463 0.060265 -5.584937 13.319108 0.004984 2.003490 0.013570 -0.003251 240734.000000 1 0 0
-2.753037 -12.441535 6.266963 14.200205 1.353027 1.113717 0.002980 -0.001650 -454805.000000 1 0 0
10.891563 1.910665 -2.663337 11.374100 0.173659 1.807149 0.002418 0.000923 584444.000000 1 0 0
-8.924037 5.338665 0.806263 10.430237 -0.539120 1.493419 0.005262 -0.003690 -710126.000000 1 0 0
1.290563 -10.149035 5.441863 11.588025 -1.444314 1.081946 0.004009 0.000228 811329.000000 1 0 0
9.393663 -5.646435 -1.265837 11.032927 -0.541220 1.685782 0.011004 -0.003377 821542.000000 1 0 0
-7.848737 8.669265 -4.499737 12.530222 -0.835032 1.938111 0.006116 -0.004798 -22951.700000 1 0 0
-7.527037 -0.055335 -1.733037 7.724168 0.007351 1.797088 0.003741 -0.003517 -2539880.000000 1 0 0
4.158363 8.805665 2.807263 10.134715 1.129605 1.290131 0.000360 -0.001614 720702.000000 1 0 0
-1.252037 -10.586335 -3.743937 11.298458 1.453074 1.908549 0.011051 0.001048 6570.530000 1 0 0
3.260463 7.848765 -3.651237 9.250150 1.177076 1.976562 0.006090 -0.000514 94214.000000 1 0 0
-4.228737 1.657265 -11.083937 11.978414 -0.373509 2.752691 0.012990 -0.009059 -332682.000000 1 0 0
1.323663 2.670465 10.936763 11.335619 1.110621 0.266062 -0.000896 -0.001482 363121.000000 1 0 0
2.166063 5.506365 -8.059837 9.998643 1.196015 2.508317 0.005881 -0.000303 -426899.000000 1 0 0
15.636463 6.108665 4.115963 17.284557 0.372436 1.330357 0.025529 -0.003636 549932.000000 1 0 0
-4.456437 9.065365 4.530963 11.071147 -1.113900 1.149155 0.001710 0.004273 257707.000000 1 0 0
-0.986437 -8.082435 -12.451337 14.877319 1.449350 2.562454 0.005702 0.003909 364750.000000 1 0 0
14.318363 -4.302035 -5.198637 15.828735 -0.291875 1.905438 0.026696 -0.003817 909935.000000 1 0 0
-6.005737 -6.228435 -5.638937 10.327627 0.803599 2.148385 0.015738 -0.001452 849853.000000 1 0 0
-8.944537 2.619365 -12.339337 15.463669 -0.284880 2.494694 0.003485 -0.005849 -717625.000000 1 0 0
10.514463 5.325965 13.821163 18.164371 0.468864 0.706106 0.030034 -0.004256 850990.000000 1 0 0
-0.332437 10.766465 5.573963 12.128329 -1.539929 1.093272 -0.002463 0.007377 346985.000000 1 0 0
0.288463 11.243365 -0.548737 11.260444 1.545146 1.619547 0.003850 0.000144 -133321.000000 1 0 0
-1.527337 -0.558835 3.699863 4.041539 0.350758 0.414150 0.006358 -0.002394 7630.610000 1 0 0
-4.805837 6.551265 8.861663 12.022654 -0.937891 0.742056 -0.001228 -0.003022 -1701080.000000 1 0 0
3.478963 -8.778035 -11.428537 14.824592 -1.193461 2.451077 -0.008554 0.007495 1640210.000000 1 0 0
6.716563 -3.947335 11.961063 14.274477 -0.531327 0.577311 0.012324 -0.007758 -301548.000000 1 0 0
-2.485337 -1.857735 -12.498937 12.878335 0.641885 2.898258 0.010651 -0.007958 939496.000000 1 0 0
-16.246937 -4.883835 5.325763 17.781410 0.292007 1.266614 0.020341 -0.003474 1046970.000000 1 0 0
-8.909537 7.252565 5.783363 12.861837 -0.683233 1.104420 0.002332 -0.004355 -4345140.000000 1 0 0
-12.858237 1.508365 5.890963 14.223673 -0.116774 1.143770 0.012219 -0.008000 589421.000000 1 0 0
-3.576337 3.518665 10.155863 11.327521 -0.777270 0.458844 -0.001210 0.001112 561841.000000 1 0 0
2.026563 -12.392335 -1.079437 12.603257 -1.408698 1.656549 0.000779 -0.000057 -2266360.000000 1 0 0
10.392463 -5.053835 -3.661537 12.122351 -0.452626 1.877637 0.014028 -0.003826 729231.000000 1 0 0
3.314063 -13.506035 0.941363 13.938513 -1.330174 1.503208 0.004840 0.000652 458416.000000 1 0 0
10.104263 -1.531735 -6.121337 11.912729 -0.150447 2.110461 0.013344 -0.005386 -391207.000000 1 0 0
12.017163 -5.409335 -1.574337 13.272213 -0.422965 1.689695 0.015617 -0.003367 263671.000000 1 0 0
1.379463 0.875065 5.860163 6.083598 0.565296 0.271862 0.001984 -0.001474 551309.000000 1 0 0
-10.727537 11.692965 6.699663 17.224720 -0.828432 1.171298 0.008239 -0.009117 -457313.000000 1 0 0
4.759563 -14.183735 3.125763 15.284049 -1.247039 1.364832 0.005434 -0.003295 -2388530.000000 1 0 0
5.241663 -3.310035 -1.724037 6.434568 -0.563250 1.842044 0.005135 -0.004105 -1631030.000000 1 0 0
2.003263 -2.945635 -7.683037 8.468700 -0.973566 2.707441 0.000312 -0.006266 -460725.000000 1 0 0
-2.776837 14.811865 -8.752937 17.427452 -1.385474 2.096995 0.009166 -0.005388 -713031.000000 1 0 0
-2.332937 6.113665 -8.132637 10.438357 -1.206257 2.464043 0.012614 -0.007704 -264291.000000 1 0 0
2.635263 -3.407235 -11.359037 12.148316 -0.912467 2.779139 0.002248 -0.002379 -1519860.000000 1 0 0
14.481363 2.913065 -2.719137 15.019638 0.198510 1.752839 0.005352 0.000920 568499.000000 1 0 0
-3.607537 13.142865 2.329763 13.826678 -1.302908 1.401491 -0.003339 0.006874 -1033330.000000 1 0 0
7.897163 -5.040635 13.902663 16.764761 -0.568095 0.592980 0.015740 -0.010041 -1314160.000000 1 0 0
-11.502837 7.230065 2.896863 13.891757 -0.561145 1.360724 0.004676 -0.004482 647865.000000 1 0 0
-2.320437 11.864265 4.112663 12.769464 -1.377652 1.242881 -0.002783 0.005435 848609.000000 1 0 0
1.832963 1.395365 0.624163 2.386708 0.650670 1.306204 0.001147 -0.002249 -969171.000000 1 0 0
-6.900437 8.608965 5.212163 12.202334 -0.895117 1.129464 0.001426 -0.002392 -367945.000000 1 0 0
-1.126637 9.138065 1.046763 9.266567 -1.448125 1.457593 0.002832 0.002633 664368.000000 1 0 0
4.965463 13.013365 -8.396737 16.263723 1.206281 2.113305 0.005655 -0.010597 -2483750.000000 1 0 0
8.945863 6.933865 7.194263 13.411352 0.659367 1.004594 0.000170 -0.001329 -1094360.000000 1 0 0
7.197263 -13.860435 2.959763 15.895673 -1.091854 1.383504 0.016614 -0.003548 -866674.000000 1 0 0
4.301363 -13.309135 -1.433937 14.060262 -1.258203 1.672959 -0.000277 0.000740 -4049330.000000 1 0 0
12.145063 -11.914235 -4.633337 17.632905 -0.775804 1.836685 0.026513 0.001509 -712759.000000 1 0 0
3.038463 0.045265 -2.023837 3.651058 0.014896 2.158336 0.005869 -0.005629 398740.000000 1 0 0
-13.626637 -3.134035 -10.633837 17.566613 0.226062 2.220994 0.015241 -0.009120 -703965.000000 1 0 0
-6.705137 13.683765 5.128863 16.078232 -1.115175 1.246128 0.006127 -0.001331 4084.770000 1 0 0
7.225463 -4.289435 -0.720137 8.433573 -0.535741 1.656290 -0.000409 -0.000208 -1054150.000000 1 0 0
11.778563 2.052565 -7.277237 13.996634 0.172530 2.117563 0.013286 -0.004798 -789172.000000 1 0 0
-7.569337 -4.522835 9.646163 13.069023 0.538594 0.740556 0.014930 -0.003749 263379.000000 1 0 0
0.991263 2.612765 8.405063 8.857439 1.208181 0.320979 -0.002856 0.000043 -695442.000000 1 0 0
1.646463 7.995865 -8.741937 11.961027 1.367720 2.390390 0.007169 -0.001968 -628222.000000 1 0 0
-8.639637 -2.090535 -5.552837 10.480824 0.237407 2.129172 0.009577 -0.002471 -962224.000000 1 0 0
6.728763 -0.487335 7.115863 9.805572 -0.072299 0.758751 0.003728 -0.001218 -188122.000000 1 0 0
-10.858737 6.485565 7.084663 14.497144 -0.538408 1.060204 0.006800 -0.007555 602710.000000 1 0 0
-5.957037 11.099265 4.998563 13.552329 -1.078217 1.193042 -0.001157 0.001942 19831.100000 1 0 0
6.084263 -1.150235 -6.908737 9.277497 -0.186846 2.410847 0.003349 -0.004353 -645578.000000 1 0 0
4.476063 -5.770635 11.375263 13.517839 -0.911073 0.570742 0.006347 -0.004568 -1704850.000000 1 0 0
-9.084137 -7.401135 2.716763 12.028264 0.683659 1.342966 0.008984 -0.000671 -2893630.000000 1 0 0
-1.178837 12.665965 -9.345337 15.784539 -1.477992 2.204404 0.009554 -0.001148 674018.000000 1 0 0
-4.550837 9.232365 -2.299937 10.546867 -1.112827 1.790631 0.003229 -0.000244 128903.000000 1 0 0
-3.334837 9.609065 -0.212537 10.173517 -1.236751 1.591689 0.005655 0.000372 -2394630.000000 1 0 0
-3.351837 10.712665 -6.426837 12.934460 -1.267560 2.090793 0.001020 -0.000094 91982.600000 1 0 0
4.845163 -4.775035 0.304863 6.809515 -0.778109 1.526011 0.004577 -0.002428 -1006890.000000 1 0 0
-2.127737 2.877665 -10.986037 11.554274 -0.934116 2.826670 0.013796 -0.009682 -818716.000000 1 0 0
-3.535137 12.094565 -2.262737 12.802175 -1.286427 1.748476 -0.000381 0.004757 -901388.000000 1 0 0
-0.249237 0.221465 0.044663 0.336394 -0.726466 1.437634 0.005205 -0.004843 -1127000.000000 1 0 0
-4.880937 -1.709335 0.057263 5.171910 0.336859 1.559724 0.004996 -0.002748 142213.000000 1 0 0
2.660663 2.578565 -2.511237 4.475985 0.769730 2.166446 -0.000879 -0.003016 1319400.000000 1 0 0
5.975063 -9.804435 8.409963 14.232209 -1.023476 0.938609 0.000480 0.001752 -1123860.000000 1 0 0
-4.415337 -5.590435 6.570763 9.691392 0.902305 0.825758 0.006770 -0.003877 125184.000000 1 0 0
-6.299737 5.276065 -12.068437 14.600368 -0.697196 2.543808 0.004341 -0.009067 1908920.000000 1 0 0
-12.963737 3.074265 7.873763 15.475973 -0.232842 1.037037 0.015985 -0.007312 716831.000000 1 0 0
4.811763 -7.540335 -4.918537 10.207924 -1.002806 2.073544 -0.004062 -0.002137 751880.000000 1 0 0
-5.991737 2.436265 -1.135937 6.567089 -0.386187 1.744645 0.007252 -0.005670 -497429.000000 1 0 0
-6.877637 -2.748335 -14.615737 16.385207 0.380165 2.672565 0.009478 -0.003133 -102554.000000 1 0 0
2.714263 -6.106935 0.892763 6.742321 -1.152562 1.437995 0.006709 -0.000323 -197113.000000 1 0 0
4.888063 -7.951735 12.894863 15.918565 -1.019626 0.626556 0.013677 -0.003234 60346.700000 1 0 0
-10.100837 -1.688235 7.899163 12.933438 0.165607 0.913783 0.014796 -0.003870 -136254.000000 1 0 0
-4.420837 13.357565 -0.070437 14.070299 -1.251182 1.575802 -0.001625 0.008079 585376.000000 1 0 0
6.840863 2.294165 -4.469037 8.487219 0.323575 2.125346 0.002522 0.000713 -948714.000000 1 0 0
5.046663 4.510165 0.030263 6.768406 0.729319 1.566325 -0.001000 -0.000220 -652354.000000 1 0 0
-5.897437 12.286065 1.882963 13.757642 -1.123268 1.433499 0.001652 0.005508 -407411.000000 1 0 0
6.504863 -7.281535 6.559763 11.762843 -0.841675 0.979222 -0.000056 0.001078 -1331960.000000 1 0 0
-0.299937 4.873565 7.803163 9.204942 -1.509330 0.559135 -0.006683 0.001495 -1159050.000000 1 0 0
-5.878137 -3.430135 -1.619637 6.995823 0.528229 1.804431 0.008539 -0.003639 -129790.000000 1 0 0
2.446663 -6.468635 -5.139237 8.616331 -1.209193 2.209871 -0.006266 0.000825 -614461.000000 1 0 0
-14.582337 -4.987835 -3.817837 15.877624 0.329572 1.813630 0.006541 -0.009481 -168531.000000 1 0 0
-12.273537 -5.060635 -6.376937 14.728037 0.391082 2.018592 0.010350 -0.009747 -1453110.000000 1 0 0
-14.902737 -3.855335 -1.387637 15.455766 0.253150 1.660699 0.004090 -0.003674 307841.000000 1 0 0
11.825763 2.832165 8.801663 15.011299 0.235064 0.944268 0.016027 -0.008237 -1274920.000000 1 0 0
8.750663 -6.456735 7.608963 13.272522 -0.635684 0.960285 0.006650 -0.002737 230639.000000 1 0 0
-8.893537 -1.671635 -9.779437 13.323917 0.185793 2.394954 0.006327 -0.003525 -239494.000000 1 0 0
-8.936537 5.131865 -3.832137 10.994681 -0.521275 1.926814 0.007654 -0.005864 -746151.000000 1 0 0
-4.224737 -6.300435 4.092663 8.619383 0.980112 1.076036 0.009560 -0.001956 -1155450.000000 1 0 0
-0.270737 -9.209235 3.623163 9.900031 1.541406 1.196116 0.006871 -0.001338 824691.000000 1 0 0
7.959363 -10.397035 3.299163 13.503120 -0.917423 1.323972 0.002740 0.001198 349661.000000 1 0 0
-0.012837 6.506365 9.626963 11.619439 -1.568823 0.594333 -0.010807 -0.000995 -188456.000000 1 0 0
-0.044137 3.411565 -9.730337 10.311168 -1.557860 2.804347 0.013314 -0.008914 -640177.000000 1 0 0
4.420563 -3.157335 10.969663 12.241064 -0.620218 0.459811 0.003636 -0.005475 -1206370.000000 1 0 0
8.570663 -9.094035 1.221263 12.555844 -0.815018 1.473376 0.004329 0.001697 -314768.000000 1 0 0
-0.330637 -0.640835 11.406763 11.429533 1.094472 0.063133 0.007766 -0.001479 -1546350.000000 1 0 0
10.874963 6.043565 11.403063 16.876592 0.507233 0.828919 0.030059 -0.006664 667919.000000 1 0 0
-6.577137 -2.798535 -11.864537 13.851273 0.402289 2.599375 0.012163 -0.002904 -315088.000000 1 0 0
-1.686137 2.719965 8.405963 8.994525 -1.015865 0.363764 -0.000308 -0.000324 -781568.000000 1 0 0
-1.667037 13.414465 -6.874637 15.165340 -1.447159 2.041274 0.005037 -0.000445 607467.000000 1 0 0
7.612263 3.093365 9.825863 12.808709 0.385982 0.696451 -0.000658 -0.000397 644352.000000 1 0 0
6.556863 8.529565 -8.038437 13.429907 0.915421 2.212483 0.003644 0.000205 -1021130.000000 1 0 0
6.572763 -3.002535 -3.935637 8.228345 -0.428507 2.069517 0.007443 -0.003293 -2990950.000000 1 0 0
2.080263 8.128965 1.073763 8.459346 1.320265 1.443521 0.001167 0.001334 616274.000000 1 0 0
-17.640537 6.551465 6.480863 19.902558 -0.355599 1.239119 0.041908 -0.011704 -46075.200000 1 0 0
-14.611937 3.027565 -10.158737 18.052003 -0.204307 2.168503 0.016580 -0.004247 -942763.000000 1 0 0
-18.334937 -0.015435 -4.508537 18.881130 0.000842 1.811911 0.022216 -0.003010 472695.000000 1 0 0
-13.121037 7.918665 0.147763 15.326079 -0.542996 1.561155 0.011662 0.000183 169481.000000 1 0 0
-12.490937 -4.018835 -12.818137 18.343369 0.311281 2.344499 0.017704 -0.002129 -1431630.000000 1 0 0
-17.365637 -0.567135 -8.677037 19.421070 0.032647 2.033964 0.024097 -0.010773 826066.000000 1 0 0
-16.682737 -2.158835 -2.282537 16.975991 0.128690 1.705662 0.010917 -0.004627 1014520.000000 1 0 0
-15.352537 4.116965 1.594463 15.974734 -0.261998 1.470818 0.024923 -0.003050 -546675.000000 1 0 0
-13.291637 5.913965 4.317263 15.175024 -0.418637 1.282314 0.014510 -0.007842 36242.100000 1 0 0
-10.083237 14.188165 2.793763 17.628977 -0.952939 1.411650 0.025105 -0.001092 -54205.400000 1 0 0
-12.020137 2.537165 -6.444737 13.872835 -0.208023 2.053932 0.003397 -0.001387 470813.000000 1 0 0
-15.947437 10.582565 3.911063 19.534786 -0.585870 1.369224 0.029920 -0.016338 56301.900000 1 0 0
-12.817737 1.103065 -8.565637 15.455785 -0.085846 2.158201 0.004654 -0.004892 448348.000000 1 0 0
-12.304437 14.182465 4.023363 19.202316 -0.856184 1.359707 0.032094 -0.021204 36331.200000 1 0 0
-10.495237 11.212465 -1.050137 15.393900 -0.818426 1.639067 0.007503 0.000783 337314.000000 1 0 0
-17.323937 5.569665 8.922263 20.266888 -0.311064 1.114932 0.047543 -0.018827 221419.000000 1 0 0
-11.655337 12.223265 -8.967337 19.122454 -0.809178 2.058890 0.015705 -0.028868 -2073520.000000 1 0 0
-17.468437 -0.402335 3.011763 17.730733 0.023028 1.400108 0.036118 -0.005578 1483570.000000 1 0 0
-13.074337 14.869365 -0.696137 19.812141 -0.849547 1.605940 0.036284 -0.008510 -110605.000000 1 0 0
-16.463337 4.742265 -10.547937 20.119382 -0.280458 2.122651 0.043205 -0.001156 710918.000000 1 0 0
-11.866137 7.611565 -8.975537 16.712313 -0.570343 2.137746 0.000882 0.000149 12783.600000 1 0 0
-14.795237 13.439965 -2.098137 20.098107 -0.737436 1.675382 0.044709 -0.017567 592552.000000 1 0 0
-11.907537 10.634665 -5.417737 16.859342 -0.728992 1.897950 0.016271 -0.007783 2248320.000000 1 0 0
-17.874937 2.837765 -0.923437 18.122335 -0.157443 1.621774 0.043608 0.001357 364745.000000 1 0 0
-9.579637 15.433465 0.676363 18.177425 -1.015291 1.533579 0.028808 0.001234 68823.500000 1 0 0
-8.120037 13.198565 -3.780937 15.950944 -1.019260 1.810109 0.008389 -0.001904 -819493.000000 1 0 0
-17.812837 11.753065 2.455863 21.481689 -0.583240 1.456222 0.070667 0.008165 -1083360.000000 1 0 0
-8.081237 15.642065 -7.360037 19.082734 -1.093930 1.966753 0.036030 -0.026948 262813.000000 1 0 0
-6.279037 15.291465 -5.312837 17.363222 -1.181165 1.881766 0.010107 -0.002951 -314364.000000 1 0 0
-17.413137 5.230965 -0.260037 18.183728 -0.291827 1.585097 0.047826 0.001292 737339.000000 1 0 0
-5.304437 12.223465 -12.192337 18.061098 -1.161365 2.311843 -0.004805 -0.010187 -823049.000000 1 0 0
-11.127837 3.817065 -11.515737 16.462410 -0.330443 2.345518 0.007015 -0.005055 48506.100000 1 0 0
-11.941937 11.002865 1.233163 16.284766 -0.744494 1.494999 0.015789 -0.003105 388481.000000 1 0 0
-12.933437 0.258465 -11.071037 17.026699 -0.019982 2.278665 0.003051 -0.004083 -387131.000000 1 0 0
-14.146537 -2.046235 -12.962337 19.295952 0.143649 2.307385 0.025492 -0.010575 -229017.000000 1 0 0
-18.839337 -2.604035 -3.893837 19.412975 0.137353 1.772745 0.020541 -0.005300 1588560.000000 1 0 0
-18.265737 4.790265 -5.300937 19.613356 -0.256478 1.844472 0.037031 -0.003824 108888.000000 1 0 0
-8.168837 15.383065 -2.182237 17.553654 -1.082636 1.695437 0.021115 -0.001295 -200627.000000 1 0 0
-16.231437 9.167665 -5.268437 19.371682 -0.514142 1.846232 0.038203 -0.002521 -327237.000000 1 0 0
-18.371937 1.760865 1.991063 18.563218 -0.095554 1.463331 0.043703 -0.009738 1082970.000000 1 0 0
-15.724737 -2.632635 -8.733437 18.178863 0.165882 2.071927 0.014359 -0.010737 -297145.000000 1 0 0
-9.745637 10.532165 -7.143937 16.029342 -0.824166 2.032729 0.012786 -0.011885 521148.000000 1 0 0
-13.991137 12.110165 -7.742937 20.058941 -0.713458 1.967098 0.030844 -0.017229 277682.000000 1 0 0
-11.093237 6.552665 -3.912337 13.464907 -0.533546 1.865606 0.001281 -0.000143 -1030640.000000 1 0 0
-13.077537 5.031865 -12.803037 18.980501 -0.367310 2.311133 0.022112 -0.006749 253984.000000 1 0 0
-17.635037 9.137565 2.545763 20.024249 -0.478061 1.443317 0.045630 -0.011156 593385.000000 1 0 0
-13.484537 8.714865 -6.556437 17.342678 -0.573760 1.958488 0.007450 -0.002517 -454609.000000 1 0 0
-15.825137 6.938965 -3.768137 17.685674 -0.413231 1.785504 0.020836 0.004837 -1335800.000000 1 0 0
-14.902137 -0.174835 -9.308037 17.571107 0.011732 2.129085 0.013188 -0.010038 -552103.000000 1 0 0
-10.061737 5.878065 -6.097637 13.151859 -0.528721 2.052888 0.002324 -0.001357 338546.000000 1 0 0
-12.821637 12.191365 -0.868037 17.713759 -0.760206 1.619820 0.029440 -0.008491 -1405770.000000 1 0 0
-10.633337 3.450465 -14.006337 17.920688 -0.313775 2.467981 0.006703 -0.002264 -83709.300000 1 0 0
-10.897637 6.249865 -11.963237 17.347575 -0.520711 2.331761 0.000753 -0.006130 -1579620.000000 1 0 0
-5.866537 11.501465 -14.766237 19.614834 -1.099126 2.423117 0.002144 -0.013744 -171853.000000 1 0 0
-15.593837 13.130065 3.495763 20.683006 -0.699833 1.400965 0.029884 -0.020776 -388660.000000 1 0 0
-14.998937 11.050465 -3.166737 18.897331 -0.634967 1.739167 0.038439 -0.004746 702090.000000 1 0 0
-18.152637 7.749665 -4.456737 20.234576 -0.403493 1.792871 0.035277 -0.002195 118721.000000 1 0 0
-4.003037 16.228465 -10.644037 19.816229 -1.328956 2.137836 0.016070 -0.005513 -188790.000000 1 0 0
-15.789637 4.395365 -4.568237 17.014719 -0.271497 1.842619 0.021557 0.001726 -634034.000000 1 0 0
-18.657437 -1.896235 -6.367937 19.805209 0.101286 1.898139 0.025978 -0.010022 486792.000000 1 0 0
-10.907237 8.603165 -5.810537 15.058042 -0.667848 1.966954 0.005785 -0.003534 284594.000000 1 0 0
-11.343737 13.714565 -6.760437 19.038729 -0.879730 1.933805 0.025071 -0.010907 662899.000000 1 0 0
-9.528237 10.634865 -4.449337 14.956078 -0.840227 1.872863 -0.000440 -0.001151 -203947.000000 1 0 0
-10.991237 6.337965 -0.262737 12.690395 -0.523064 1.591501 0.006061 0.000781 -206343.000000 1 0 0
-14.706337 9.472565 -1.199137 17.534075 -0.572227 1.639239 0.034045 -0.001329 111583.000000 1 0 0
-18.705237 3.691165 4.527363 19.596112 -0.194830 1.337656 0.041283 -0.011819 526496.000000 1 0 0
-14.665937 13.333565 0.549363 19.828653 -0.737848 1.543087 0.025845 -0.001284 8415.750000 1 0 0
-17.004037 2.528665 -9.205837 19.500740 -0.147628 2.062441 0.037521 -0.002402 147067.000000 1 0 0
-9.138937 8.492865 -8.769537 15.249712 -0.748772 2.183477 0.008669 -0.006863 -1862660.000000 1 0 0
-17.765637 4.531865 -2.806837 18.548154 -0.249765 1.722707 0.036449 0.002313 1189560.000000 1 0 0
-13.633837 5.888765 -4.358437 15.477566 -0.407720 1.856254 0.006074 0.003647 -2381680.000000 1 0 0
-12.225937 9.530465 3.248563 15.838449 -0.662133 1.364224 0.005931 -0.007045 868121.000000 1 0 0
-17.637737 2.480665 -4.205337 18.301047 -0.139729 1.802655 0.030260 0.003120 998425.000000 1 0 0
-11.356837 1.497065 -12.654637 17.069235 -0.131065 2.405907 0.008929 -0.000528 386210.000000 1 0 0
-11.129537 11.951865 3.522363 16.706906 -0.821010 1.358370 0.012838 -0.007643 371311.000000 1 0 0
-16.180637 13.154365 -4.303837 21.292566 -0.682599 1.774327 0.038059 -0.010122 448284.000000 1 0 0
-11.158537 4.147565 -4.555937 12.746443 -0.355869 1.936309 -0.001186 -0.000901 -304572.000000 1 0 0
-11.314637 14.857365 -9.119237 20.782753 -0.919944 2.025047 0.042693 -0.030258 468272.000000 1 0 0
-15.597337 7.152065 -0.239437 17.160603 -0.429936 1.584750 0.031693 0.002986 420035.000000 1 0 0
-12.906437 8.450465 -4.053237 15.950399 -0.579706 1.827729 0.004863 0.000545 853789.000000 1 0 0
-19.362937 1.755965 -6.133337 20.386873 -0.090440 1.876377 0.055278 -0.006674 820088.000000 1 0 0
-12.824237 10.027265 -8.833637 18.521346 -0.663606 2.067970 0.018728 -0.011323 804208.000000 1 0 0
-16.721837 11.101865 -1.150537 20.104601 -0.586095 1.628055 0.042415 0.000174 541355.000000 1 0 0
-10.515537 6.564665 -14.553437 19.117371 -0.558083 2.436062 0.004074 -0.012688 -450367.000000 1 0 0
-13.633737 12.913365 -4.419437 19.291584 -0.758269 1.801935 0.032724 -0.012774 600648.000000 1 0 0
-18.162437 7.681465 -0.269137 19.721853 -0.400117 1.584443 0.068822 -0.002843 -225049.000000 1 0 0
-12.760437 6.693165 -2.104037 14.562081 -0.483074 1.715791 0.002074 0.003271 356628.000000 1 0 0
-13.676737 8.275165 -10.656737 19.211912 -0.544127 2.158792 0.008216 -0.002853 -120959.000000 1 0 0
-15.023437 1.383465 -0.966537 15.117931 -0.091828 1.634773 0.018294 -0.003396 -466604.000000 1 0 0
-13.396337 2.738165 -2.488137 13.897850 -0.201619 1.750797 0.005350 0.000667 -503274.000000 1 0 0
-11.232837 9.259065 -10.821437 18.138645 -0.689375 2.210049 0.011163 -0.009836 -150614.000000 1 0 0
-15.470737 4.407265 -8.114637 18.017076 -0.277526 2.037994 0.018916 0.000261 726890.000000 1 0 0
-18.451737 10.412665 4.676663 21.697036 -0.513770 1.353548 0.060297 -0.022588 -26080.600000 1 0 0
-15.358537 6.211765 -6.260437 17.710555 -0.384337 1.932092 0.020704 0.002614 547834.000000 1 0 0
-7.705737 11.342565 -12.993637 18.890918 -0.974054 2.329284 0.004751 -0.002524 519316.000000 1 0 0
-16.800337 9.100365 -2.693037 19.295606 -0.496431 1.710821 0.035040 -0.004765 758174.000000 1 0 0
-20.712137 -1.063135 -4.927737 21.316789 0.051284 1.804073 0.045970 -0.007804 1271980.000000 1 0 0
-15.448537 4.325665 4.094163 16.556897 -0.273013 1.320926 0.031467 -0.005861 451492.000000 1 0 0
-6.913237 12.537165 -9.311337 17.078477 -1.066864 2.147435 0.005988 -0.014704 -688812.000000 1 0 0
-17.323237 1.618865 5.589363 18.274470 -0.093180 1.259959 0.038819 -0.013271 328041.000000 1 0 0
-10.259237 14.317465 -2.967737 17.861949 -0.949046 1.737719 0.032447 -0.012071 412244.000000 1 0 0
-9.863737 8.516665 -12.983637 18.395699 -0.712240 2.354345 -0.002601 -0.008055 415575.000000 1 0 0
-13.746337 11.616565 2.805163 18.214701 -0.701623 1.416176 0.021862 -0.010554 -233430.000000 1 0 0
-17.102237 6.590065 1.849063 18.421034 -0.367799 1.470249 0.043910 -0.004034 1192170.000000 1 0 0
-9.290737 13.270765 -8.369837 18.234176 -0.960010 2.047687 0.026454 -0.021445 -77121.600000 1 0 0
-5.562337 9.774865 -12.908537 17.120687 -1.053449 2.424886 -0.001375 -0.007454 -591258.000000 1 0 0
-16.008937 1.865665 3.022563 16.398252 -0.116016 1.385414 0.024208 -0.006712 -878446.000000 1 0 0
-18.815837 -4.798535 4.713963 19.982070 0.249704 1.332642 0.034155 -0.003376 -1060260.000000 1 0 0
-5.261537 14.532665 -9.111737 17.941736 -1.223428 2.103485 0.000145 -0.003844 -649952.000000 1 0 0
-15.435637 -0.814335 -6.822237 16.895708 0.052708 1.986447 0.009258 -0.005343 569096.000000 1 0 0
-8.898937 10.962665 -9.557537 17.050444 -0.888932 2.165840 0.012449 -0.013160 103853.000000 1 0 0
-16.751537 1.283465 -6.263937 17.930371 -0.076468 1.927671 0.011612 0.000934 106052.000000 1 0 0
-11.253837 8.726665 -1.580837 14.328384 -0.659584 1.681350 0.003262 -0.001773 55575.100000 1 0 0
-10.608037 10.985665 -12.643537 19.826102 -0.802884 2.262333 0.003560 -0.002886 -663260.000000 1 0 0
-13.693837 11.937765 -10.437737 20.951797 -0.716993 2.092293 0.016239 -0.007502 184325.000000 1 0 0
-13.261437 5.728465 -7.774637 16.405061 -0.407755 2.064530 0.007638 0.004111 -89344.700000 1 0 0
-8.884437 15.396165 -4.847037 18.424682 -1.047419 1.837002 0.025210 -0.014744 1078030.000000 1 0 0
-8.601437 6.281665 -12.968037 16.781360 -0.630776 2.453981 -0.000345 -0.008852 -1184570.000000 1 0 0
-16.437337 7.302965 4.180963 18.466180 -0.418096 1.342404 0.038576 -0.009104 216131.000000 1 0 0
-12.705737 5.382665 -10.285837 17.210674 -0.400719 2.211354 0.009537 -0.001066 620664.000000 1 0 0
-12.358137 9.212965 -13.193937 20.289955 -0.640614 2.278735 0.011640 -0.010561 -1017560.000000 1 0 0
-10.827737 5.299965 -8.580137 14.796901 -0.455197 2.189354 -0.000691 0.000938 -1357590.000000 1 0 0
-17.597237 -4.573935 -2.605537 18.367701 0.254296 1.713131 0.000982 -0.008466 36841.500000 1 0 0
-8.803037 13.083565 -10.933137 19.188711 -0.978538 2.177021 0.029377 -0.021403 73105.900000 1 0 0
-15.128537 6.071765 6.035263 17.382847 -0.381665 1.216216 0.032565 -0.013906 -300347.000000 1 0 0
-16.345737 -3.238735 -4.504337 17.261564 0.195606 1.834798 0.005781 -0.009295 -507766.000000 1 0 0
-11.237837 -1.156435 -12.576737 16.905639 0.102544 2.409740 0.003471 -0.000074 289467.000000 1 0 0
-15.585637 6.886465 -8.696537 19.130218 -0.416053 2.042716 0.027258 0.002931 654236.000000 1 0 0
-14.973737 9.223465 1.330563 17.636766 -0.552084 1.495282 0.031186 -0.005655 -387206.000000 1 0 0
-19.547337 5.361465 7.633863 21.659168 -0.267698 1.210604 0.064786 -0.026705 -727226.000000 1 0 0
-16.442137 0.422765 0.814563 16.467730 -0.025707 1.521312 0.024764 -0.004116 -389324.000000 1 0 0
-17.516037 3.858965 6.866863 19.205650 -0.216846 1.205160 0.035444 -0.012379 691562.000000 1 0 0
-15.503337 3.963665 -1.528837 16.074870 -0.250304 1.666048 0.023925 0.001576 58284.700000 1 0 0
-10.871137 13.240665 0.491463 17.138797 -0.883356 1.542117 0.021536 -0.006105 -1100550.000000 1 0 0
-13.445737 3.370465 -0.038837 13.861796 -0.245611 1.573598 0.013689 -0.003357 -347321.000000 1 0 0
-15.116437 0.213165 -4.298237 15.717091 -0.014101 1.847801 0.007163 0.000417 231128.000000 1 0 0
-19.046437 7.233765 3.571563 20.684540 -0.362969 1.397258 0.057068 -0.008162 1036030.000000 1 0 0
-14.229037 1.445065 -6.341637 15.645129 -0.101210 1.988150 0.006998 0.002536 -1122280.000000 1 0 0
-14.166337 11.957065 5.356363 19.296299 -0.701028 1.289517 0.021736 -0.022094 161642.000000 1 0 0
17.750563 5.351165 6.498063 19.645414 0.292800 1.233680 0.047175 -0.011153 -378803.000000 1 0 0
18.555963 7.553765 -0.152737 20.035131 0.386595 1.578420 0.037939 0.007814 161455.000000 1 0 0
16.486863 5.157065 8.716863 19.349307 0.303157 1.103471 0.051836 -0.007424 249694.000000 1 0 0
11.549363 12.343065 11.104863 20.225158 0.818606 0.989555 0.028936 -0.012169 478726.000000 1 0 0
-2.333037 16.324965 -0.508437 16.498669 -1.428845 1.601618 -0.003245 0.010159 -182613.000000 1 0 0
14.889563 12.750165 3.512463 19.914899 0.708149 1.393495 0.030000 -0.004163 189571.000000 1 0 0
13.566163 11.740365 6.867063 19.210245 0.713376 1.205240 0.030997 -0.003223 836458.000000 1 0 0
-0.603537 15.988465 8.571363 18.151131 -1.533066 1.078987 -0.001191 0.004646 -57070.200000 1 0 0
0.783463 12.755165 9.436763 15.885860 1.509450 0.934730 -0.003853 0.000818 -855978.000000 1 0 0
0.771563 15.448765 -3.854537 15.941051 1.520894 1.815016 0.002626 0.003139 -874769.000000 1 0 0
5.246763 10.108465 13.375363 17.567297 1.092028 0.705360 0.010506 -0.014255 392239.000000 1 0 0
-1.302937 16.443765 -2.797737 16.730882 -1.491726 1.738806 -0.002896 0.005323 -178233.000000 1 0 0
8.481763 10.073565 3.334463 13.584390 0.870975 1.322799 0.006441 -0.005979 474041.000000 1 0 0
12.495963 13.822565 -4.873937 19.260521 0.835761 1.826631 0.027582 -0.007585 -308439.000000 1 0 0
2.505663 11.602765 7.743863 14.172859 1.358109 0.992752 -0.000579 0.001550 338544.000000 1 0 0
-0.301037 14.924765 -8.689837 17.272884 -1.550629 2.097968 0.011762 -0.001107 -1132960.000000 1 0 0
2.364263 16.006665 0.241563 16.182133 1.424152 1.555868 0.006617 -0.002529 -664336.000000 1 0 0
1.866863 13.437265 5.184163 14.523113 1.432748 1.205785 0.000676 0.003989 36610.000000 1 0 0
17.531263 9.325865 -1.739237 19.933437 0.488885 1.658160 0.022978 0.007586 388265.000000 1 0 0
-7.184337 14.932965 7.392263 18.145349 -1.122378 1.151200 0.010213 -0.009515 -554725.000000 1 0 0
8.444463 15.757665 -0.075237 17.877881 1.078846 1.575005 0.008449 -0.014583 -467871.000000 1 0 0
15.686563 10.525865 2.298863 19.030157 0.591005 1.449700 0.023576 0.006277 410049.000000 1 0 0
14.139363 7.414165 8.904663 18.280713 0.482948 1.062022 0.038527 -0.006680 -920282.000000 1 0 0
4.419963 18.432965 -2.000237 19.060725 1.335454 1.675930 0.018078 -0.010976 440019.000000 1 0 0
-0.370337 17.555065 -4.894037 18.228249 -1.549704 1.842618 0.010994 -0.003313 208706.000000 1 0 0
1.288763 13.788865 -0.627237 13.863158 1.477603 1.616057 0.001721 -0.002311 540241.000000 1 0 0
10.225163 14.571065 4.385163 18.333018 0.958901 1.329260 0.011936 -0.014037 538878.000000 1 0 0
-1.651937 15.337465 -5.169037 16.269164 -1.463504 1.894120 0.005944 0.003235 992068.000000 1 0 0
15.300363 8.827565 -6.199537 18.720611 0.523300 1.908330 0.042028 -0.001261 215102.000000 1 0 0
-2.371237 18.518865 0.917263 18.692579 -1.443445 1.521706 -0.001681 0.008860 -1115870.000000 1 0 0
-3.733337 19.243065 3.358163 19.887449 -1.379167 1.401125 0.005273 -0.003342 172865.000000 1 0 0
1.931463 17.587165 -2.642537 17.889157 1.461412 1.719056 0.005258 -0.004167 -317979.000000 1 0 0
2.960063 12.207765 3.264163 12.978685 1.332914 1.316565 -0.000089 0.000284 571551.000000 1 0 0
-2.610037 16.095865 1.981963 16.426118 -1.410040 1.449842 0.000198 0.004507 -1440620.000000 1 0 0
11.858063 12.896965 -2.615437 17.714003 0.827341 1.718986 0.006755 0.001509 657234.000000 1 0 0
7.120863 11.666665 4.802463 14.487285 1.022794 1.232909 0.003546 -0.004764 23911.000000 1 0 0
7.065563 15.662065 2.130063 17.313568 1.147007 1.447455 0.003460 -0.009955 -1345980.000000 1 0 0
5.531363 12.089465 10.427563 16.896308 1.141693 0.905680 0.002964 0.000886 -113165.000000 1 0 0
-1.362637 14.161765 3.215163 14.585940 -1.474872 1.348542 -0.004803 0.003702 209494.000000 1 0 0
4.559663 16.015565 1.564863 16.725360 1.293433 1.477097 0.001128 -0.011448 -2742680.000000 1 0 0
7.402063 13.004165 11.993563 19.176663 1.053326 0.895120 0.015006 -0.008781 433744.000000 1 0 0
0.758463 17.129165 -9.488137 19.596130 1.526546 2.076227 0.019047 -0.007444 620493.000000 1 0 0
9.607963 9.502465 15.535763 20.590525 0.779878 0.715889 0.036763 -0.009308 -214732.000000 1 0 0
13.538363 7.524365 -0.021037 15.488828 0.507271 1.572155 -0.000858 0.008639 1044560.000000 1 0 0
12.457163 13.524465 -0.096837 18.387535 0.826454 1.576063 0.017678 -0.004456 745783.000000 1 0 0
9.423863 12.334165 3.512263 15.914673 0.918367 1.348271 0.009276 -0.003097 1399540.000000 1 0 0
-0.670037 12.912765 0.788163 12.954137 -1.518953 1.509916 0.002821 -0.000690 -735185.000000 1 0 0
16.090663 7.332065 -0.814437 17.701184 0.427561 1.616823 0.021758 0.011156 -1222900.000000 1 0 0
-4.023137 18.497465 -2.243337 19.062382 -1.356635 1.688754 0.000750 0.005351 -79707.500000 1 0 0
11.653463 9.301565 -3.138637 15.237236 0.673630 1.778266 0.004676 0.002912 220173.000000 1 0 0
14.754363 9.693165 7.949463 19.360853 0.581259 1.147690 0.035535 -0.006736 1444220.000000 1 0 0
4.458763 13.751565 4.788563 15.228803 1.257255 1.250928 0.003724 -0.000903 -398469.000000 1 0 0
2.075063 15.978865 5.650063 17.074930 1.441656 1.233541 0.000140 -0.000648 304925.000000 1 0 0
6.182563 18.385165 5.491863 20.159339 1.246396 1.294886 0.017557 -0.013291 170616.000000 1 0 0
10.558063 17.169465 -0.823337 20.172782 1.019469 1.611622 0.016940 -0.015198 -585189.000000 1 0 0
9.951763 13.579665 -4.375737 17.395171 0.938366 1.825077 0.008861 -0.004470 -1314410.000000 1 0 0
16.482163 8.062565 2.402563 18.505106 0.454945 1.440596 0.010043 0.009336 -307896.000000 1 0 0
3.992163 14.049765 -0.422137 14.612032 1.293949 1.599690 0.003946 -0.004538 1379450.000000 1 0 0
5.635563 13.138765 -2.364637 14.490626 1.165605 1.734713 0.004170 -0.004176 -292788.000000 1 0 0
-6.113237 16.958865 -2.852937 18.251412 -1.224821 1.727753 0.011143 0.005034 -464184.000000 1 0 0
18.198963 9.851965 2.945963 20.903162 0.496176 1.429392 0.039193 0.006182 -536211.000000 1 0 0
7.870963 12.779265 9.480263 17.752100 1.018756 1.007429 0.017554 -0.011501 786520.000000 1 0 0
-2.560537 15.646865 6.812063 17.256447 -1.408589 1.164996 -0.001220 -0.001245 292003.000000 1 0 0
11.195163 15.948265 6.412063 20.513249 0.958751 1.252887 0.026990 -0.009207 -76559.000000 1 0 0
13.567363 11.977565 1.478163 18.158204 0.723243 1.489301 0.023626 0.000492 614609.000000 1 0 0
17.645863 7.782565 -5.457137 20.043082 0.415379 1.846548 0.038475 0.011735 1132300.000000 1 0 0
9.508963 9.341965 8.120263 15.608695 0.776540 1.023665 0.016320 -0.005361 -91386.700000 1 0 0
-1.938637 14.159465 -1.929637 14.421244 -1.434728 1.705004 -0.005017 0.007111 493000.000000 1 0 0
10.938463 11.658865 0.896863 16.011979 0.817267 1.514755 0.008696 0.004212 -163221.000000 1 0 0
11.784463 9.878365 -0.536737 15.386480 0.697635 1.605687 0.000008 0.008755 187644.000000 1 0 0
-0.283137 16.339065 11.137763 19.776122 -1.553469 0.972552 0.007557 0.000228 -38502.100000 1 0 0
2.309263 19.901865 -1.498537 20.091355 1.455280 1.645452 0.018302 -0.016939 -188410.000000 1 0 0
9.186263 14.341065 1.899563 17.136567 1.001088 1.459720 0.006676 -0.007304 -24376.200000 1 0 0
8.464963 11.598465 -5.057837 15.223722 0.940326 1.909467 0.007319 0.000089 -1055810.000000 1 0 0
10.612163 10.070765 10.304963 17.894987 0.759228 0.957144 0.023957 -0.008588 -13130.400000 1 0 0
-5.142637 15.800365 5.922463 17.640120 -1.256134 1.228407 -0.002579 0.000561 1526120.000000 1 0 0
14.474063 9.151865 -1.765237 17.215435 0.563827 1.673515 0.017750 0.009800 -345122.000000 1 0 0
12.239663 9.530365 7.039863 17.035166 0.661584 1.144771 0.020197 -0.008553 -1004970.000000 1 0 0
3.299363 12.898165 9.616863 16.423535 1.320365 0.945233 0.002109 -0.002657 -902117.000000 1 0 0
8.511163 12.607865 -2.592737 15.431152 0.977000 1.739617 0.006682 -0.000406 -970551.000000 1 0 0
9.418163 16.930665 2.070163 19.484219 1.063146 1.464347 0.007404 -0.009447 -28566.900000 1 0 0
9.675463 14.476665 -7.534637 18.972590 0.981630 1.979187 0.020022 -0.007895 475024.000000 1 0 0
6.339963 11.467665 7.346863 15.022612 1.065763 1.059792 0.001617 -0.003316 -1638920.000000 1 0 0
5.448063 16.894165 -5.551037 18.598608 1.258844 1.873880 -0.000400 -0.005159 -749607.000000 1 0 0
-4.095637 17.319965 -4.610137 18.385016 -1.338593 1.824257 0.002917 0.005682 435664.000000 1 0 0
-0.318337 18.764365 -0.576637 18.775922 -1.553833 1.601513 -0.001228 0.008903 -475618.000000 1 0 0
6.489163 15.709965 -2.709737 17.212058 1.179082 1.728887 -0.000151 -0.002183 599141.000000 1 0 0
-0.963937 20.722765 1.053963 20.771929 -1.524314 1.520035 0.000493 0.007478 137089.000000 1 0 0
-1.289337 18.907165 4.303363 19.433534 -1.502709 1.347505 0.002267 0.002588 1405290.000000 1 0 0
7.302363 13.812865 -4.355637 16.220090 1.084481 1.842667 0.004950 0.000237 -1392710.000000 1 0 0
-0.967937 11.919765 7.693763 14.220116 -1.489770 0.999114 -0.001642 0.004293 375202.000000 1 0 0
7.699963 10.655165 11.013763 17.150071 0.945030 0.873432 0.010509 -0.009339 -27392.300000 1 0 0
1.547963 16.063965 -7.268937 17.699848 1.474731 1.993994 0.011061 -0.004773 -1131200.000000 1 0 0
8.749863 7.092865 14.768463 18.573539 0.681187 0.651567 0.028865 -0.006175 915175.000000 1 0 0
11.467963 11.425665 -4.771837 16.876920 0.783551 1.857449 0.012565 -0.001288 49707.500000 1 0 0
-3.217737 17.024765 4.657763 17.941327 -1.383997 1.308177 -0.007965 0.005475 -667929.000000 1 0 0
3.980263 15.301865 -6.803637 17.212759 1.316319 1.977155 0.007126 -0.009480 -659366.000000 1 0 0
-4.405337 14.027265 9.395463 17.448378 -1.266495 1.002174 0.010438 -0.008160 329630.000000 1 0 0
6.252963 17.775465 0.690363 18.855856 1.232541 1.534175 0.001265 -0.013438 -442541.000000 1 0 0
9.830363 10.763665 -2.143237 14.733838 0.830686 1.716778 -0.000914 0.004385 -1607170.000000 1 0 0
7.467563 18.065465 -2.328337 19.686206 1.178825 1.689346 0.007137 -0.005613 -85375.100000 1 0 0
3.522363 10.323765 10.443463 15.101427 1.241992 0.807157 -0.001359 0.002811 1343390.000000 1 0 0
0.004563 18.477265 2.043763 18.589952 1.570549 1.460635 0.001262 -0.001950 107817.000000 1 0 0
-0.839337 17.131365 -7.415637 18.686354 -1.521841 1.978876 0.021121 -0.004177 58984.700000 1 0 0
9.941963 8.669765 13.095763 18.587804 0.717150 0.789028 0.033878 -0.008688 -206738.000000 1 0 0
3.603763 11.402665 5.458463 13.145444 1.264685 1.142594 -0.004765 -0.000598 476415.000000 1 0 0
13.071663 13.918465 8.302763 20.821333 0.816762 1.160630 0.032155 -0.013706 -100317.000000 1 0 0
-0.500437 17.365565 6.659963 18.605601 -1.541987 1.204720 0.003581 -0.006195 -585482.000000 1 0 0
12.084063 13.612065 5.879363 19.127985 0.844793 1.258369 0.023675 -0.007451 -699551.000000 1 0 0
4.914263 14.512865 -4.461337 15.958596 1.244301 1.854129 -0.000127 -0.003129 -364896.000000 1 0 0
3.790263 17.480365 4.745563 18.505395 1.357272 1.311457 0.010154 -0.008757 -1953260.000000 1 0 0
7.040863 11.699065 2.153663 13.823174 1.029031 1.414358 0.008635 -0.005409 882972.000000 1 0 0
6.418463 8.530165 11.717963 15.851531 0.925734 0.738867 0.007009 -0.002535 657561.000000 1 0 0
-5.403437 14.949565 1.855963 16.004101 -1.223963 1.454567 0.001344 0.012686 79986.700000 1 0 0
6.779063 13.733965 6.077063 16.477506 1.112283 1.193068 0.004973 -0.006050 -783262.000000 1 0 0
5.903763 15.874565 5.087763 17.684501 1.214746 1.278976 0.005143 -0.007713 985547.000000 1 0 0
1.245863 17.993965 4.254463 18.532011 1.501669 1.339157 0.012740 -0.002669 -862285.000000 1 0 0
7.333763 18.176665 -6.846937 20.761883 1.187301 1.906871 0.008731 -0.003550 257960.000000 1 0 0
-2.369037 18.785365 -5.978437 19.855579 -1.445348 1.876638 0.016943 0.002674 646051.000000 1 0 0
13.563163 9.969665 -4.430837 17.406491 0.633867 1.828180 0.015427 -0.002271 38517.100000 1 0 0
-1.569737 18.106065 9.756263 20.627126 -1.484316 1.078124 0.015093 -0.003847 -477893.000000 1 0 0
3.467963 11.872965 -1.470837 12.456221 1.286613 1.689153 0.006356 -0.004379 -56296.000000 1 0 0
4.414063 13.884165 -10.820737 18.147792 1.262981 2.209626 0.015246 -0.020166 -361479.000000 1 0 0
11.577163 13.442565 2.471763 17.912087 0.859818 1.432360 0.018930 -0.004840 239691.000000 1 0 0
15.922163 6.455565 -6.968237 18.540386 0.385192 1.956100 0.017251 0.004091 86845.700000 1 0 0
2.452763 16.068565 2.925463 16.515846 1.419322 1.392726 0.004516 -0.003164 -518785.000000 1 0 0
13.418663 10.633565 3.621163 17.499887 0.670118 1.362366 0.014185 0.004940 -229438.000000 1 0 0
-4.790937 19.534965 -5.851437 20.947727 -1.330294 1.853898 -0.004385 -0.003419 -403940.000000 1 0 0
5.432563 12.062265 0.139363 13.229906 1.147629 1.560262 0.007285 -0.004184 105215.000000 1 0 0
4.699363 15.335265 9.846763 18.820550 1.273440 1.020204 0.009078 -0.005475 -515888.000000 1 0 0
7.645363 9.356165 13.924863 18.436139 0.885687 0.714681 0.015712 -0.008592 -1713150.000000 1 0 0
-5.019437 13.524465 7.003663 16.036122 -1.215416 1.118821 -0.000446 0.000272 -761494.000000 1 0 0
-4.533537 17.140565 0.609463 17.740445 -1.312226 1.536435 0.004034 0.007979 -1525580.000000 1 0 0
-0.620037 16.492265 3.575363 16.886755 -1.533218 1.357456 0.001399 0.000531 -2246180.000000 1 0 0
7.823163 17.050865 -4.672737 19.333090 1.140638 1.814910 -0.004334 -0.002749 426493.000000 1 0 0
3.067663 16.426765 -4.565937 17.323307 1.386175 1.837520 0.005605 -0.004084 391767.000000 1 0 0
9.451663 14.412665 8.317363 19.137329 0.990362 1.121186 0.019263 -0.009735 302384.000000 1 0 0
12.750963 10.946965 9.226763 19.171757 0.709420 1.068695 0.028753 -0.012646 392597.000000 1 0 0
3.419563 12.279565 12.125163 17.592632 1.299201 0.810387 0.002659 -0.003122 758271.000000 1 0 0
-3.286437 19.226565 5.947763 20.392091 -1.401500 1.274824 0.006710 -0.001969 -186260.000000 1 0 0
-2.723037 15.813765 10.062163 18.940360 -1.400274 1.010715 0.011708 -0.007798 633473.000000 1 0 0
2.066163 14.219865 7.631763 16.270138 1.426505 1.082564 0.000781 -0.003138 -257281.000000 1 0 0
4.635163 17.235665 8.215063 19.647905 1.308083 1.139428 0.018367 -0.006008 247823.000000 1 0 0
-1.814537 13.471265 9.429963 16.543631 -1.436905 0.964284 -0.000470 0.000414 -188534.000000 1 0 0
5.746363 17.644065 3.122063 18.817040 1.255947 1.404109 -0.002765 -0.013741 345894.000000 1 0 0
7.323163 15.511565 -6.748237 18.433016 1.129709 1.945606 0.002023 0.000250 -3820.570000 1 0 0
11.054563 7.677265 9.463363 16.452933 0.607017 0.957975 0.021668 -0.007594 -215195.000000 1 0 0
9.079163 16.123965 -2.600337 18.686231 1.057963 1.710407 0.011244 -0.016804 -1378830.000000 1 0 0
14.465863 11.231365 -6.570637 19.457082 0.660187 1.915268 0.043473 -0.007408 317198.000000 1 0 0
10.987863 6.471765 16.112563 20.548274 0.532286 0.669500 0.040871 -0.015704 -49640.700000 1 0 0
8.545863 8.359765 10.194363 15.711222 0.774391 0.864713 0.010263 -0.005507 400033.000000 1 0 0
16.250563 9.422865 4.672563 19.357273 0.525470 1.327003 0.023135 0.003331 -141062.000000 1 0 0
-3.408237 14.367865 4.705263 15.498101 -1.337889 1.262325 -0.005761 0.006997 -1050870.000000 1 0 0
4.922863 14.349365 13.073363 20.026275 1.240307 0.859508 0.014931 -0.000586 -534492.000000 1 0 0
16.084163 10.765065 -4.617437 19.897428 0.589821 1.804993 0.039190 -0.004264 592215.000000 1 0 0
14.692863 13.984665 6.263463 21.229273 0.760708 1.271300 0.040372 -0.005127 51112.900000 1 0 0
6.231163 9.394765 9.259363 14.588516 0.985157 0.883173 0.002310 -0.001723 645286.000000 1 0 0
10.442763 12.101965 8.747563 18.221655 0.858862 1.070069 0.021975 -0.014636 -555581.000000 1 0 0
8.008363 11.577265 -0.277737 14.079918 0.965641 1.590523 0.006703 -0.001419 -37907.900000 1 0 0
7.394063 13.765665 -8.761137 17.914330 1.077882 2.081805 0.007970 0.001927 -4343.850000 1 0 0
2.757063 15.296365 -2.208137 15.698919 1.392468 1.711920 0.001628 -0.002966 216955.000000 1 0 0
12.175163 13.631865 -7.853637 19.893264 0.841784 1.976634 0.039157 -0.018730 -739617.000000 1 0 0
-8.030537 14.734565 9.878563 19.472620 -1.071790 1.038741 0.025998 -0.016561 445032.000000 1 0 0
11.467863 9.606865 2.233063 15.125816 0.697322 1.422622 0.010760 0.003491 -2239280.000000 1 0 0
12.058663 8.688365 4.567463 15.548658 0.624358 1.272646 0.010682 -0.002623 417215.000000 1 0 0
14.083263 7.958465 6.283563 17.353923 0.514363 1.200295 0.024522 -0.004079 -1966290.000000 1 0 0
16.244563 7.363465 7.354963 19.292535 0.425585 1.179666 0.047613 -0.007774 -577763.000000 1 0 0
13.612663 8.336065 2.496163 16.156281 0.549470 1.415674 0.004336 0.007991 -2192870.000000 1 0 0
-4.306937 17.358565 -7.188737 19.275566 -1.327592 1.952978 0.001046 -0.011142 329421.000000 1 0 0
2.994963 19.549065 -3.958237 20.169368 1.418776 1.768328 0.013097 -0.011560 300479.000000 1 0 0
-0.094637 14.776765 6.324663 16.073678 -1.564392 1.166383 0.001420 0.001646 -432654.000000 1 0 0
6.832063 15.903765 8.458063 19.265141 1.165046 1.116272 0.021205 -0.014109 -1370610.000000 1 0 0
12.836963 15.268065 -2.072237 20.054815 0.871684 1.674310 0.036024 -0.012526 248315.000000 1 0 0
12.624663 15.594665 4.191663 20.497457 0.890259 1.364847 0.033663 -0.014274 -81863.400000 1 0 0
3.012863 18.125965 1.492963 18.435208 1.406084 1.489723 0.012504 -0.004066 -791375.000000 1 0 0
10.405263 14.489765 -1.177537 17.877623 0.948018 1.636711 0.005487 -0.001060 -981544.000000 1 0 0
-6.413237 15.782665 -0.429837 17.041329 -1.184830 1.596022 0.003291 0.005957 -149336.000000 1 0 0
-3.880937 15.858165 -2.594537 16.531023 -1.330786 1.728398 0.004600 0.006300 -163309.000000 1 0 0
-6.872237 17.083165 1.764163 18.497958 -1.188325 1.475280 0.007585 0.008650 -286155.000000 1 0 0
0.186963 19.373865 -6.662637 20.488347 1.561146 1.902011 0.024252 -0.011188 346629.000000 1 0 0
4.860463 14.781865 7.269863 17.174940 1.253120 1.133730 0.009745 -0.005648 -639562.000000 1 0 0
8.621163 12.228965 6.980863 16.510739 0.956737 1.134255 0.014992 -0.009839 -881406.000000 1 0 0
-7.629837 17.490365 -5.624037 19.893645 -1.159452 1.857410 0.028269 -0.017906 496641.000000 1 0 0
-7.909037 17.796165 -1.232137 19.513445 -1.152589 1.633981 0.031553 0.000464 51941.800000 1 0 0
-13.818737 -9.140535 9.189163 18.945912 0.584389 1.064409 0.021892 -0.008600 42503.000000 1 0 0
-12.654937 -12.894235 7.582363 19.593390 0.794764 1.173436 0.029419 -0.008515 319367.000000 1 0 0
-3.977937 -14.838735 12.594463 19.865360 1.308877 0.884093 0.007210 -0.019108 -103166.000000 1 0 0
-2.157437 -14.150335 15.013063 20.743157 1.419496 0.761561 0.022931 -0.014830 -736489.000000 1 0 0
-7.084837 -13.557035 12.833563 19.967184 1.089237 0.872736 0.008797 -0.017921 -385173.000000 1 0 0
-9.918137 -11.579635 8.942963 17.675802 0.862532 1.040321 0.017813 -0.009798 716594.000000 1 0 0
-10.848637 -10.714835 11.240463 18.943300 0.779193 0.935552 0.029301 -0.015809 494460.000000 1 0 0
-6.032837 -12.291735 10.738363 17.400986 1.114532 0.905729 0.010896 -0.009189 577211.000000 1 0 0
-12.609037 -10.354835 7.259963 17.858261 0.687549 1.152141 0.019201 -0.004763 32313.800000 1 0 0
-7.691837 -11.110335 12.390663 18.333914 0.965248 0.828702 0.014426 -0.018724 -180135.000000 1 0 0
-14.940037 -11.651935 7.329363 20.314818 0.662372 1.201683 0.036376 0.000709 438342.000000 1 0 0
-11.185337 -9.209035 9.180063 17.152016 0.688795 1.006031 0.017858 -0.007778 -77392.500000 1 0 0
-5.337437 -11.690835 13.230163 18.444540 1.142510 0.770885 0.012715 -0.020830 -615506.000000 1 0 0
4.252363 -12.446835 14.775663 19.781974 -1.241587 0.727370 0.019827 -0.005067 -691268.000000 1 0 0
6.739163 -12.697335 13.980063 20.051952 -1.082849 0.799323 0.032524 -0.006566 348799.000000 1 0 0
6.617963 -8.255935 16.138063 19.297538 -0.895080 0.580341 0.024479 -0.004313 -932423.000000 1 0 0
0.604163 -1.855035 14.491163 14.621900 -1.255942 0.133825 0.007778 -0.007078 -1346190.000000 1 0 0
-0.166237 -6.489135 15.448663 16.757019 1.545184 0.397783 0.016912 -0.014130 -421665.000000 1 0 0
-1.696737 -4.842735 18.238063 18.946185 1.233794 0.274265 0.022323 -0.025838 -2082070.000000 1 0 0
-5.115137 12.590065 12.947363 18.769885 -1.184885 0.809591 0.013027 -0.005934 -1272240.000000 1 0 0
-4.083237 8.702365 11.533563 15.014229 -1.132083 0.694810 -0.003768 0.000428 -539460.000000 1 0 0
-0.717137 -3.996035 15.031763 15.570372 1.393224 0.263792 0.014123 -0.008909 540.919000 1 0 0
-4.616637 9.150165 14.078663 17.414006 -1.103522 0.629252 0.001942 -0.006699 340104.000000 1 0 0
-13.563837 -2.401635 16.778963 21.708964 0.175245 0.687390 0.025535 0.003464 296875.000000 1 0 0
-0.432737 0.866865 17.336263 17.363315 -1.107791 0.055829 0.011747 -0.004009 -1362060.000000 1 0 0
-3.430837 -7.380235 15.280363 17.312654 1.135647 0.489406 0.013357 -0.015495 371585.000000 1 0 0
-7.447837 5.399565 12.596763 15.598206 -0.627298 0.630763 -0.004309 -0.005574 -1721250.000000 1 0 0
-9.886037 9.913765 13.191963 19.236537 -0.786799 0.815126 0.015829 -0.021076 -856522.000000 1 0 0
-5.602037 2.252165 11.122063 12.655250 -0.382252 0.497351 0.001914 -0.000868 -2032380.000000 1 0 0
-7.294137 -7.436135 16.785963 19.755229 0.795038 0.555386 0.010571 -0.014298 -93752.800000 1 0 0
-4.836537 2.760365 18.801363 19.608747 -0.518621 0.287960 0.016083 0.001599 119250.000000 1 0 0
1.043363 -8.473435 16.499663 18.577582 -1.448280 0.477495 0.020102 -0.011905 722805.000000 1 0 0
-14.876637 -3.681335 13.911363 20.697646 0.242584 0.833724 0.029340 0.003464 62151.200000 1 0 0
-14.362437 1.967965 12.897163 19.403332 -0.136174 0.843720 0.020493 -0.010311 -666015.000000 1 0 0
-5.625137 1.025265 16.058963 17.046513 -0.180286 0.342055 0.010453 -0.002772 199583.000000 1 0 0
4.406863 5.718365 15.206863 16.833562 0.914209 0.443243 0.008532 0.002568 -244216.000000 1 0 0
-1.187437 -12.004235 13.776063 18.310968 1.472199 0.719190 0.008199 -0.017950 -326035.000000 1 0 0
-5.975737 -4.018935 16.750063 18.232550 0.592059 0.406045 0.010675 -0.009382 -14971.200000 1 0 0
-13.217437 -1.525635 9.791263 16.519595 0.114917 0.936382 0.021161 -0.000703 -632911.000000 1 0 0
-14.658037 10.335265 10.129163 20.597954 -0.614135 1.056691 0.026418 -0.012902 251199.000000 1 0 0
-3.742737 -3.409035 17.768163 18.475313 0.738772 0.277568 0.019963 -0.013859 -2850520.000000 1 0 0
-7.824637 9.222365 11.884663 16.956479 -0.867208 0.794149 -0.001771 -0.010816 -104701.000000 1 0 0
-4.091137 10.473865 16.263263 19.772025 -1.198416 0.604935 -0.001216 -0.006647 293683.000000 1 0 0
-12.531437 12.719465 8.342463 19.708333 -0.792844 1.133716 0.026269 -0.016652 522026.000000 1 0 0
-12.511837 3.185165 10.413563 16.587153 -0.249277 0.892061 0.008794 -0.005569 439096.000000 1 0 0
-10.261337 -3.365335 13.631763 17.390959 0.316909 0.669967 0.007176 -0.000861 -1072640.000000 1 0 0
-4.284737 -6.504435 17.717063 19.353577 0.988301 0.414193 0.019550 -0.016352 -474059.000000 1 0 0
0.608963 -3.726635 17.837763 18.233058 -1.408820 0.208609 0.014891 -0.019040 -709708.000000 1 0 0
-6.001737 1.802365 13.617863 14.990516 -0.291739 0.431279 0.003001 -0.001697 -984537.000000 1 0 0
-10.485437 8.684065 10.189463 17.005368 -0.691703 0.928306 0.010228 -0.014548 -174069.000000 1 0 0
4.536663 2.313165 17.351463 18.083288 0.471522 0.285467 0.019656 -0.008743 -1528400.000000 1 0 0
0.417063 -5.431935 13.125363 14.211087 -1.494167 0.393428 0.007835 -0.006115 -791870.000000 1 0 0
-4.369237 5.662365 20.784563 21.980688 -0.913597 0.331415 0.053980 -0.008600 69522.800000 1 0 0
-10.733237 10.820065 9.051563 17.725885 -0.789427 1.034866 0.013078 -0.013775 45751.700000 1 0 0
0.670063 4.140265 13.004363 13.663976 1.410347 0.311985 0.004899 -0.002123 -2222390.000000 1 0 0
-3.156037 7.050565 13.331163 15.407496 -1.149916 0.525170 -0.004714 -0.001315 -881092.000000 1 0 0
0.722663 8.832565 14.251063 16.781813 1.489160 0.556334 0.000672 0.007607 159010.000000 1 0 0
-4.181737 -6.587935 12.991763 15.154989 1.005212 0.540873 0.017677 -0.006950 -79299.300000 1 0 0
-5.268737 8.121165 16.433863 19.073142 -0.995289 0.532337 0.017044 -0.006512 284148.000000 1 0 0
1.639863 -10.828435 15.651863 19.103009 -1.420498 0.610537 0.013326 -0.009343 -67642.800000 1 0 0
-15.306337 -1.126935 14.326563 20.995341 0.073493 0.819798 0.034398 0.001028 518691.000000 1 0 0
-13.658337 -5.334435 8.453363 16.925298 0.372344 1.047831 0.022388 -0.003848 -772152.000000 1 0 0
-14.348537 -1.941935 12.064163 18.846635 0.134523 0.876138 0.029859 0.000075 395182.000000 1 0 0
9.341463 1.099965 16.977363 19.408856 0.117211 0.505933 0.029698 -0.013371 33940.500000 1 0 0
4.723963 -6.950835 17.132663 19.082926 -0.973876 0.456047 0.025029 0.000862 -158348.000000 1 0 0
-6.150237 -2.684935 11.078863 12.952818 0.411619 0.544619 0.009945 -0.003651 437313.000000 1 0 0
0.442463 -6.316635 17.904963 18.991665 -1.500863 0.339924 0.023439 -0.022662 -231342.000000 1 0 0
-8.386237 11.795865 12.167463 18.908161 -0.952761 0.871730 0.012533 -0.013980 71101.900000 1 0 0
-6.701537 -5.762235 14.815463 17.251431 0.710178 0.537881 0.017497 -0.009295 -1052420.000000 1 0 0
-4.529337 -8.914635 17.182763 19.880466 1.100707 0.527032 0.020231 -0.019140 285021.000000 1 0 0
2.367463 -6.111335 16.229263 17.502636 -1.201209 0.383804 0.017776 -0.014013 980367.000000 1 0 0
2.073463 5.143365 16.017263 16.950108 1.187592 0.333308 0.009201 -0.001368 -2442120.000000 1 0 0
1.015163 -8.921635 13.924163 16.568296 -1.457497 0.572757 0.009245 -0.009397 -102085.000000 1 0 0
-9.936037 -2.688835 11.129563 15.159876 0.264284 0.746388 0.002392 -0.001387 585845.000000 1 0 0
-1.203537 9.974565 12.427363 15.980607 -1.450716 0.679873 -0.013474 0.002502 -293457.000000 1 0 0
-12.428937 -3.571435 11.279663 17.159965 0.279810 0.853534 0.014277 -0.000833 -833549.000000 1 0 0
-2.100437 6.645065 19.816263 21.006023 -1.264644 0.338177 0.032554 -0.011879 -213143.000000 1 0 0
0.239163 -13.391235 15.491063 20.478169 -1.552939 0.712902 0.014336 -0.025700 -840858.000000 1 0 0
4.126763 -8.691935 15.252263 18.033619 -1.127527 0.562793 0.025588 -0.007339 -115395.000000 1 0 0
4.525163 -4.602035 16.096363 17.342108 -0.793820 0.381341 0.022071 -0.011971 -853143.000000 1 0 0
7.946563 1.589665 14.743163 16.823666 0.197438 0.502597 0.011759 -0.006824 -263933.000000 1 0 0
-6.371637 -0.142935 11.860763 13.464616 0.022429 0.493070 0.007067 -0.003207 -57483.300000 1 0 0
-3.346037 -10.831135 18.486363 21.685365 1.271169 0.550083 0.023820 -0.027263 536101.000000 1 0 0
3.200863 -1.628335 13.656563 14.120861 -0.470597 0.257146 0.006210 -0.005922 528269.000000 1 0 0
-2.711037 8.358865 15.825763 18.101799 -1.257170 0.506877 0.003291 -0.009730 147425.000000 1 0 0
-3.285437 3.992165 14.811363 15.687828 -0.882205 0.335849 0.002875 -0.004016 -177848.000000 1 0 0
-4.981437 -9.151535 19.732963 22.314908 1.072318 0.485814 0.040519 -0.020372 -148454.000000 1 0 0
-5.946937 -2.991335 19.061663 20.190620 0.466048 0.335988 0.014691 -0.015072 -790707.000000 1 0 0
-6.707137 -8.550035 11.118263 15.546850 0.905605 0.773964 0.015749 -0.012007 1911870.000000 1 0 0
-11.701937 2.312865 12.630363 17.372701 -0.195133 0.756819 0.013032 -0.010038 200120.000000 1 0 0
-11.763637 -7.371035 11.503063 18.028748 0.559745 0.878846 0.013823 -0.009835 -23373.800000 1 0 0
-11.223737 -7.305035 15.438463 20.437268 0.576977 0.714521 0.030191 -0.019313 1574730.000000 1 0 0
0.004663 5.516365 17.657763 18.499376 1.569951 0.302798 0.013624 -0.004893 -127639.000000 1 0 0
-2.275937 -0.157535 13.227363 13.422661 0.069107 0.170794 0.009094 -0.001913 466592.000000 1 0 0
-5.984037 -10.899635 18.078263 21.941612 1.068711 0.602492 0.014625 -0.012463 -593551.000000 1 0 0
0.381063 2.492065 19.229363 19.393916 1.419061 0.130360 0.025158 -0.011956 -200983.000000 1 0 0
-0.916437 10.747865 14.839063 18.345415 -1.485735 0.628568 0.002501 0.000566 -926221.000000 1 0 0
-12.877337 -2.082435 14.275763 19.338039 0.160325 0.740366 0.016732 0.000434 -824132.000000 1 0 0
-13.611037 8.431865 11.635863 19.792675 -0.554625 0.942352 0.012651 -0.016040 -441295.000000 1 0 0
-18.148537 -0.541735 6.766163 19.376373 0.029841 1.214083 0.053201 -0.016256 -937315.000000 1 0 0
-2.144737 -7.847535 17.533863 19.329253 1.304011 0.434417 0.015423 -0.022273 -1045740.000000 1 0 0
5.584363 2.579865 14.584963 15.829149 0.432772 0.399131 0.010886 -0.005468 -2121260.000000 1 0 0
-14.290937 -6.727935 10.980063 19.236886 0.440002 0.963339 0.028619 -0.004671 174050.000000 1 0 0
2.961063 7.602465 16.281563 18.211388 1.199385 0.464531 0.010086 -0.006185 -409204.000000 1 0 0
0.925863 2.028265 14.589863 14.759240 1.142567 0.151645 0.007376 -0.006084 -2147120.000000 1 0 0
-14.461537 0.772865 9.667863 17.412666 -0.053392 0.982169 0.029485 -0.006166 -1924290.000000 1 0 0
-9.670137 -5.101635 15.469163 18.942894 0.485456 0.615264 0.007686 -0.000616 -145101.000000 1 0 0
-2.723437 -0.101935 18.158463 18.361843 0.037411 0.148975 0.013316 -0.008371 58424.800000 1 0 0
6.743863 3.502865 17.485963 19.065903 0.479059 0.409970 0.033170 -0.011727 -603151.000000 1 0 0
-4.309637 -0.834135 14.733063 15.373090 0.191187 0.289569 0.016300 -0.001800 54870.600000 1 0 0
4.806863 -9.423835 17.616363 20.548743 -1.099121 0.540801 0.032505 -0.001309 -342635.000000 1 0 0
1.836163 6.789665 13.462963 15.189550 1.306679 0.481437 0.001345 0.001696 -482711.000000 1 0 0
-3.855437 -1.008535 20.361363 20.747690 0.255855 0.193279 0.021545 -0.007661 -1187510.000000 1 0 0
-10.651137 1.680365 16.276963 19.524596 -0.156474 0.585086 0.016095 -0.008596 -430443.000000 1 0 0
-4.302537 7.032865 18.596663 20.342293 -1.021763 0.417299 0.035155 -0.001553 -113042.000000 1 0 0
-12.717637 1.120565 14.764463 19.518794 -0.087884 0.712970 0.022455 -0.006215 363652.000000 1 0 0
-16.136737 -4.891135 8.400763 18.838532 0.294303 1.108578 0.031725 -0.007576 -1681510.000000 1 0 0
-2.424137 0.729965 15.691763 15.894675 -0.292488 0.159958 0.012562 -0.003113 156346.000000 1 0 0
-13.742637 -8.919435 12.201963 20.428027 0.575696 0.930648 0.013933 -0.016092 536912.000000 1 0 0
6.042463 -3.239435 14.423363 15.969931 -0.492118 0.443728 0.015123 -0.013193 753329.000000 1 0 0
-15.873637 0.610465 7.502563 17.567967 -0.038439 1.129558 0.034204 -0.011326 453855.000000 1 0 0
-14.052737 5.925565 12.527263 19.736364 -0.399044 0.883137 0.021106 -0.006104 -76.684700 1 0 0
0.160563 9.348565 16.793463 19.220870 1.553623 0.508019 0.008017 -0.003265 -375410.000000 1 0 0
-10.416837 -5.258035 10.790763 15.893331 0.467451 0.824466 0.008529 -0.009256 -57293.500000 1 0 0
-3.159937 -11.144835 15.189463 19.102678 1.294514 0.651544 0.012880 -0.015287 -349980.000000 1 0 0
-3.582237 2.647765 12.607963 13.371754 -0.636513 0.339623 0.002677 -0.000019 -1655960.000000 1 0 0
-12.421637 -7.764535 7.401063 16.412215 0.558658 1.102969 0.020552 -0.002310 -452052.000000 1 0 0
-8.297437 -1.792835 13.218963 15.709955 0.212800 0.570856 0.008656 -0.001196 -1167770.000000 1 0 0
-9.742737 6.426765 9.456963 15.021930 -0.583127 0.889830 0.004575 -0.006522 -943855.000000 1 0 0
-18.056137 -3.431635 6.618963 19.534863 0.187814 1.225125 0.034224 -0.009712 749246.000000 1 0 0
-1.452637 -0.135035 20.458363 20.510314 0.092692 0.071190 0.018361 -0.009213 -800754.000000 1 0 0
-2.599937 2.678165 20.311663 20.651777 -0.800218 0.181738 0.021160 -0.002537 -409359.000000 1 0 0
-3.782237 11.254865 11.178763 16.307730 -1.246600 0.815522 -0.003065 -0.003242 -905915.000000 1 0 0
-4.279437 -4.826735 14.858563 16.198390 0.845428 0.409584 0.015999 -0.010668 832504.000000 1 0 0
-0.401237 -14.387935 13.140363 19.489556 1.542916 0.830880 0.021955 -0.021790 -348404.000000 1 0 0
-12.287937 0.455665 8.326663 14.850399 -0.037065 0.975562 0.013805 -0.003474 -311828.000000 1 0 0
-7.878537 2.177865 15.496963 17.520568 -0.269695 0.485373 0.002041 0.002424 -575151.000000 1 0 0
3.609263 -2.379935 18.510263 19.008437 -0.582952 0.229449 0.029571 -0.009921 -297345.000000 1 0 0
-2.105637 4.828365 12.553363 13.613733 -1.159564 0.397297 -0.005306 0.000335 -354613.000000 1 0 0
-10.501437 -6.047235 13.200263 17.919156 0.522472 0.742683 0.005495 -0.011945 42769.500000 1 0 0
2.292963 -3.923335 14.150663 14.862419 -1.041895 0.310731 0.006637 -0.010127 -246767.000000 1 0 0
6.678963 0.905565 16.942563 18.234007 0.134763 0.378625 0.019757 -0.012746 -1284790.000000 1 0 0
-2.014137 -5.757235 13.853763 15.137016 1.234260 0.414732 0.011387 -0.006817 -3103030.000000 1 0 0
-12.998137 3.684265 14.379563 19.730616 -0.276201 0.754237 0.010210 -0.007519 148156.000000 1 0 0
-13.590037 -6.507035 13.325963 20.114967 0.446552 0.846658 0.026632 -0.008490 -144730.000000 1 0 0
-9.567037 6.806565 11.919963 16.731499 -0.618376 0.777846 0.003517 -0.008105 -255251.000000 1 0 0
-1.227737 -2.563335 12.889963 13.199589 1.124121 0.217023 0.010487 -0.004778 336016.000000 1 0 0
-0.062237 6.590765 15.302063 16.661188 -1.561354 0.406714 0.004897 -0.001019 275060.000000 1 0 0
-16.628437 -0.771735 9.672163 19.252304 0.046377 1.044436 0.054872 -0.008769 238206.000000 1 0 0
-1.345037 2.714565 13.714663 14.045283 -1.110764 0.217405 0.003775 -0.000821 -2431070.000000 1 0 0
-11.303637 -3.270735 16.000363 19.861559 0.281660 0.634118 0.012526 -0.006690 -565882.000000 1 0 0
-5.311437 -1.427735 17.151563 18.011827 0.262597 0.310310 0.024348 -0.005097 150184.000000 1 0 0
-11.934937 6.631165 10.968463 17.513488 -0.507140 0.894016 0.016348 -0.009283 -1219490.000000 1 0 0
-3.109337 4.670665 18.618463 19.445571 -0.983452 0.292710 0.029996 -0.007573 63653.900000 1 0 0
5.187463 -2.080735 16.512463 17.432747 -0.381461 0.326379 0.022582 -0.008869 -1343960.000000 1 0 0
-8.149037 -4.065835 12.119563 15.159869 0.462795 0.644417 0.012791 -0.001431 -1138720.000000 1 0 0
-11.589137 -0.713535 16.134763 19.878325 0.061492 0.623780 0.017040 -0.002617 476016.000000 1 0 0
1.990363 1.883865 17.304763 17.520425 0.757916 0.157064 0.011788 -0.009595 -573236.000000 1 0 0
-9.015537 -7.374435 11.536563 16.393733 0.685602 0.790179 0.014649 -0.012753 892369.000000 1 0 0
-7.306637 6.911665 14.702063 17.813161 -0.757626 0.599977 -0.006979 -0.010617 -279262.000000 1 0 0
-5.741537 3.518265 15.770763 17.148189 -0.549759 0.403544 0.005229 -0.003212 -381014.000000 1 0 0
-9.448037 4.227465 11.439263 15.427041 -0.420726 0.735482 0.002153 -0.009824 -650610.000000 1 0 0
-10.339837 0.183665 14.051463 17.446764 -0.017761 0.634462 0.011649 -0.003151 -729448.000000 1 0 0
8.109863 -0.771435 15.637463 17.632221 -0.094838 0.480274 0.016190 -0.015734 -24849.300000 1 0 0
-8.718437 -7.370135 14.580563 18.518176 0.701789 0.664273 0.016786 -0.010218 -1567930.000000 1 0 0
-0.148437 4.068665 15.565863 16.089505 -1.534330 0.255827 0.010345 -0.004147 -73417.300000 1 0 0
-8.064537 3.071465 9.550863 12.872049 -0.363899 0.734770 -0.001124 -0.003776 -291629.000000 1 0 0
-2.315137 -9.728935 13.199663 16.560288 1.337177 0.648373 0.006942 -0.008729 760017.000000 1 0 0
-5.987437 10.264265 10.492163 15.852130 -1.042726 0.847476 0.008404 -0.008251 -3371030.000000 1 0 0
-8.627137 -2.745635 15.622863 18.056573 0.308120 0.525212 0.011606 -0.007142 1820.110000 1 0 0
3.987563 5.668265 17.768763 19.072462 0.957733 0.371883 0.018359 -0.002650 431185.000000 1 0 0
-6.930037 -0.955735 15.277763 16.803240 0.137047 0.429401 0.009315 -0.000134 -276338.000000 1 0 0
-0.847337 -9.951335 15.412563 18.365569 1.485853 0.574968 0.002978 -0.013480 -238779.000000 1 0 0
-4.420437 5.654365 16.384163 17.887227 -0.907268 0.412878 0.010167 -0.003705 -196505.000000 1 0 0
3.714863 -0.184235 17.401363 17.794425 -0.049553 0.210575 0.022177 -0.008783 -502424.000000 1 0 0
1.203863 -0.051135 18.997163 19.035338 -0.042450 0.063343 0.015011 -0.014533 -597556.000000 1 0 0
-6.647537 6.364265 17.574963 19.838673 -0.763631 0.482378 0.017154 -0.014865 -1125440.000000 1 0 0
-12.217037 0.543965 10.877163 16.366568 -0.044496 0.843843 0.019080 -0.003936 -372772.000000 1 0 0
-5.358937 5.190165 13.958063 15.826672 -0.769401 0.490849 -0.004273 -0.003600 -1976680.000000 1 0 0
-8.825737 -9.488535 10.047763 16.397666 0.821573 0.911253 0.020838 -0.009121 -521405.000000 1 0 0
6.979063 -3.870135 16.745263 18.549638 -0.506318 0.444729 0.034600 -0.018357 -882555.000000 1 0 0
-16.852237 1.743065 9.565863 19.456153 -0.103066 1.056798 0.049683 -0.013726 22542.700000 1 0 0
-4.192437 -9.631135 11.334363 15.453254 1.160234 0.747396 0.007903 -0.009747 -1135690.000000 1 0 0
-11.218737 -3.729435 9.061163 14.895416 0.320937 0.916856 0.013798 -0.001542 -442568.000000 1 0 0
3.461363 -5.218635 18.410263 19.446155 -0.985149 0.327871 0.025331 -0.020813 -173898.000000 1 0 0
2.558363 -2.133935 16.142963 16.483147 -0.695192 0.203518 0.012335 -0.010039 -550051.000000 1 0 0
-3.315037 -4.377835 20.205363 20.938281 0.922683 0.265367 0.020018 -0.019063 -706240.000000 1 0 0
-6.326537 -3.281335 14.354563 16.026406 0.478466 0.460834 0.012757 -0.002722 844834.000000 1 0 0
-9.746337 5.042965 13.855163 17.674505 -0.477488 0.669863 0.006405 -0.010804 389918.000000 1 0 0
-5.940837 -5.248835 11.683863 14.119365 0.723634 0.596145 0.016929 -0.003077 466995.000000 1 0 0
6.120863 1.812965 19.368863 20.393740 0.287962 0.318375 0.039909 -0.016679 308422.000000 1 0 0
-2.776037 11.766165 13.492563 18.116244 -1.339100 0.730596 0.003915 -0.008530 -1573390.000000 1 0 0
3.356163 1.233365 15.220263 15.634622 0.352173 0.230741 0.004696 -0.006379 -67720.900000 1 0 0
-5.740737 7.263565 12.734263 15.744107 -0.901969 0.628641 -0.010327 -0.008652 -742145.000000 1 0 0
-1.914337 -1.770235 15.295763 15.516403 0.746308 0.168841 0.013322 -0.004155 415529.000000 1 0 0
-7.402137 10.198065 14.120863 18.925933 -0.942939 0.728593 0.025230 -0.019079 387689.000000 1 0 0
-10.117037 1.969265 10.525363 14.731453 -0.192245 0.774912 0.006022 -0.004481 -2051500.000000 1 0 0
-13.662937 5.209965 9.122563 17.234870 -0.364301 1.013011 0.024561 -0.011315 442703.000000 1 0 0
0.110263 -4.992535 20.086963 20.698397 -1.548714 0.243667 0.018845 -0.021075 -398541.000000 1 0 0
-14.513237 -3.094535 7.405163 16.584530 0.210076 1.107935 0.020342 -0.003909 63683.200000 1 0 0
-2.481637 2.419765 17.627663 17.965196 -0.772776 0.194151 0.009559 -0.004755 318043.000000 1 0 0
-6.330437 -8.327635 14.483263 17.865857 0.920817 0.625506 0.017788 -0.013888 357679.000000 1 0 0
-8.024237 2.004965 11.955363 14.537502 -0.244850 0.605213 0.000295 -0.003945 -262070.000000 1 0 0
-14.748037 -3.611735 10.053163 18.210308 0.240169 0.985965 0.027012 -0.000044 1160040.000000 1 0 0
-0.621237 7.037565 12.792463 14.613705 -1.482750 0.504587 -0.005439 0.000510 -1836940.000000 1 0 0
-1.862237 -2.339135 19.207963 19.439272 0.898424 0.154420 0.021801 -0.018097 303414.000000 1 0 0
-12.663837 10.278165 7.353263 17.890890 -0.681783 1.147239 0.010709 -0.018757 -282280.000000 1 0 0
-19.621837 2.235565 6.591463 20.819741 -0.113443 1.248657 0.057516 -0.020454 948960.000000 1 0 0
-16.052237 8.487165 6.430863 19.262977 -0.486360 1.230416 0.030261 -0.017400 298063.000000 1 0 0
-12.167237 7.313265 13.457063 19.560625 -0.541200 0.812112 0.006728 -0.014167 -262926.000000 1 0 0
-15.927337 8.201465 10.450863 20.740411 -0.475520 1.042701 0.028503 -0.015311 31089.600000 1 0 0
1.601363 10.914065 15.355463 18.906915 1.425111 0.622949 -0.002146 0.004392 -771571.000000 1 0 0
2.504763 14.778265 12.007863 19.205721 1.402902 0.895379 -0.001631 -0.005783 -491300.000000 1 0 0
-3.151237 13.685865 11.661963 18.254714 -1.344486 0.877798 -0.008965 -0.006394 422769.000000 1 0 0
8.984063 4.730865 15.953763 18.910765 0.484688 0.566781 0.030849 0.003041 702857.000000 1 0 0
-0.251737 12.460565 12.988563 18.000884 -1.550596 0.764756 -0.002582 0.001275 384569.000000 1 0 0
2.825963 13.553565 14.237463 19.859269 1.365238 0.771425 -0.003261 -0.009117 -69081.700000 1 0 0
-2.775137 -4.118835 -13.725037 14.595987 0.977894 2.794394 0.005581 -0.005196 -506667.000000 1 0 0
6.182663 -11.565535 16.256163 20.886592 -1.079872 0.678833 0.033840 -0.000632 198763.000000 1 0 0
7.966963 -13.453435 7.309363 17.259611 -1.036141 1.133496 0.002792 -0.003681 -139839.000000 1 0 0
-0.129037 15.580765 1.328063 15.637796 -1.562515 1.485767 -0.000507 0.002646 -2536160.000000 1 0 0
-13.780037 8.107765 9.002863 18.348755 -0.531824 1.057958 0.016336 -0.012071 361027.000000 1 0 0
-15.517937 -9.733235 4.911063 18.964724 0.560198 1.308853 0.027001 -0.001638 -1085570.000000 1 0 0
9.347163 -11.080035 11.125963 18.273578 -0.870027 0.916180 0.013552 -0.003529 129243.000000 1 0 0
-5.573237 -10.113635 -16.918137 20.483407 1.067138 2.542670 0.025678 0.002460 106811.000000 1 0 0
-1.851337 -12.437835 -14.708337 19.351030 1.423034 2.434233 0.020105 0.004376 -44077.600000 1 0 0
5.604063 -16.067435 -11.719337 20.661821 -1.235205 2.173896 0.015473 0.013677 396298.000000 1 0 0
2.699363 -11.375135 -16.686737 20.374677 -1.337802 2.530452 0.012591 0.000006 268461.000000 1 0 0
0.535863 -13.926335 -14.534837 20.136818 -1.532337 2.377202 0.021076 0.012560 407699.000000 1 0 0
-6.867737 -5.769335 -14.970437 17.451791 0.698697 2.601803 0.021953 0.003638 -26489.300000 1 0 0
-6.205437 -8.103535 -17.464737 20.228489 0.917279 2.612714 0.014037 -0.002748 -14554.100000 1 0 0
-2.306037 -16.113535 -13.176137 20.942168 1.428650 2.251278 0.027927 -0.004616 347079.000000 1 0 0
16.244063 -8.157935 -9.083137 20.320553 -0.465414 2.034197 0.048651 -0.007703 -159912.000000 1 0 0
19.253763 -3.705935 -3.114237 19.852955 -0.190153 1.728312 0.062015 -0.021552 141515.000000 1 0 0
15.595663 -12.097335 -8.249137 21.392019 -0.659738 1.966673 0.039546 -0.000577 -168697.000000 1 0 0
18.465663 -2.868835 -6.439237 19.765493 -0.154128 1.902635 0.141079 -0.009707 -316695.000000 1 0 0
8.931963 -9.825935 -15.771937 20.617540 -0.833021 2.441801 0.045056 0.002093 177358.000000 1 0 0
-4.427537 9.898765 -16.335937 19.607435 -1.150205 2.555576 -0.001399 0.000432 311977.000000 1 0 0
2.582563 -9.654135 -18.401237 20.939854 -1.309408 2.644067 0.013135 0.004368 90017.400000 1 0 0
11.254463 7.977965 -14.811737 20.241009 0.616655 2.391710 0.041900 -0.031512 460286.000000 1 0 0
18.731363 -6.071035 -8.724437 21.536880 -0.313427 1.987877 0.062813 -0.009101 252058.000000 1 0 0
12.357363 4.897365 -14.115537 19.389095 0.377323 2.386217 0.011529 0.000554 142770.000000 1 0 0
16.306863 5.959965 -10.706037 20.397407 0.350406 2.123362 0.044377 -0.017370 258240.000000 1 0 0
3.578863 -0.544635 -19.379437 19.714651 -0.151022 2.956922 0.033713 -0.006085 245545.000000 1 0 0
10.068963 -1.242935 -15.284037 18.344773 -0.122821 2.555584 0.010810 0.003155 201920.000000 1 0 0
12.223463 -5.778835 -14.092037 19.529298 -0.441624 2.376884 0.041296 -0.007640 304892.000000 1 0 0
10.144363 6.767165 -12.906737 17.756309 0.588293 2.384567 0.021568 -0.002728 354607.000000 1 0 0
10.633963 5.512665 -16.200737 20.147817 0.478260 2.504946 0.035320 -0.016566 253535.000000 1 0 0
11.687963 -10.222235 -15.229137 21.749234 -0.718601 2.346495 0.067713 -0.016029 248334.000000 1 0 0
-1.078937 2.241365 -17.572937 17.748125 -1.122159 3.000972 0.008847 -0.008095 355417.000000 1 0 0
6.560563 -0.924535 -17.725237 18.922996 -0.140001 2.783890 0.023480 0.021593 76430.700000 1 0 0
7.428563 -6.419335 -15.628937 18.456844 -0.712647 2.580704 0.019868 -0.001169 362583.000000 1 0 0
-2.203837 -4.727135 -20.287137 20.946853 1.134544 2.889952 0.016116 -0.024747 209218.000000 1 0 0
15.747663 -0.263835 -13.261337 20.589356 -0.016752 2.270626 0.022691 -0.016731 -61472.300000 1 0 0
-3.707037 -0.562135 -18.462337 18.839215 0.150493 2.941233 -0.000239 -0.011400 51756.200000 1 0 0
3.405963 8.732565 -17.703437 20.031724 1.198914 2.654655 0.037096 -0.021085 -291844.000000 1 0 0
10.161663 1.080765 -16.473337 19.385517 0.105959 2.586356 0.032606 -0.036180 -217832.000000 1 0 0
4.132563 4.276465 -18.265637 19.209366 0.802509 2.826835 0.028278 -0.009181 417910.000000 1 0 0
-2.872137 -10.915835 -17.762537 21.045483 1.313511 2.575508 0.027057 -0.017800 231264.000000 1 0 0
6.204063 -9.189235 -16.356037 19.759868 -0.976947 2.545865 0.013809 0.004379 146838.000000 1 0 0
10.047863 -13.085835 -11.225937 19.955457 -0.915973 2.168263 0.017982 0.032638 138995.000000 1 0 0
6.282363 6.633565 -17.019537 19.316752 0.812583 2.648930 0.043730 -0.018836 173834.000000 1 0 0
8.378963 1.228165 -19.911037 21.637117 0.145541 2.739454 0.037856 -0.018291 108964.000000 1 0 0
-1.114137 -0.820935 -20.122337 20.169871 0.635022 3.072925 0.021673 -0.021084 185453.000000 1 0 0
-1.428437 7.012465 -19.237437 20.525450 -1.369846 2.785448 0.011871 -0.010208 -71391.400000 1 0 0
8.984663 6.050065 -18.179437 21.161744 0.592634 2.604248 0.053946 -0.017436 -211834.000000 1 0 0
12.355663 -0.117435 -13.057237 17.976864 -0.009504 2.383772 0.020138 -0.007048 -20442.100000 1 0 0
-4.121237 -2.629835 -19.923637 20.514676 0.567977 2.900969 -0.004622 -0.014048 407493.000000 1 0 0
5.771263 -11.472835 -14.324537 19.238653 -1.104722 2.410688 -0.000233 0.003337 138298.000000 1 0 0
12.123363 2.740465 -15.604937 19.949941 0.222312 2.468993 0.055945 -0.006918 91649.900000 1 0 0
-2.858937 -4.290935 -17.083737 17.844879 0.983066 2.848472 0.004769 -0.011477 198206.000000 1 0 0
-6.802037 -4.921535 -17.987737 19.850640 0.626349 2.704897 0.019261 -0.005935 36502.900000 1 0 0
2.891363 10.843765 -15.538637 19.167589 1.310220 2.516096 0.024419 -0.006086 258112.000000 1 0 0
17.151563 -6.158935 -10.721737 21.143894 -0.344749 2.102595 0.079284 -0.019107 -31985.800000 1 0 0
9.564863 -3.535035 -17.421337 20.186284 -0.354015 2.612031 0.015599 -0.018841 178698.000000 1 0 0
-6.854437 -1.358235 -18.976237 20.221911 0.195620 2.788766 -0.007022 -0.003521 442587.000000 1 0 0
1.700363 -7.485435 -19.358837 20.825166 -1.347431 2.764092 0.015674 -0.013617 203961.000000 1 0 0
5.873263 10.494665 -13.956237 18.423077 1.060580 2.430334 0.036586 -0.012333 437452.000000 1 0 0
6.148163 -4.037835 -17.117237 18.630723 -0.581109 2.735735 0.030255 -0.032677 377497.000000 1 0 0
4.413663 13.445965 -14.605037 20.336704 1.253626 2.371953 0.041251 -0.013188 208381.000000 1 0 0
10.191863 11.070565 -15.638337 21.702283 0.826701 2.375442 0.085051 -0.016463 36585.300000 1 0 0
17.297663 1.053765 -11.267837 20.670842 0.060844 2.147314 0.062458 -0.015705 -3662.180000 1 0 0
15.189163 -2.797435 -12.062937 19.597213 -0.182132 2.233872 0.060829 -0.015616 163527.000000 1 0 0
-8.532837 0.093765 -17.420137 19.397920 -0.010988 2.686093 0.007931 -0.009323 313852.000000 1 0 0
-3.093837 4.164965 -19.060837 19.754348 -0.931904 2.875833 0.008066 -0.005622 59402.800000 1 0 0
3.844063 1.714065 -16.766737 17.286941 0.419439 2.895648 0.017910 -0.008005 459396.000000 1 0 0
-5.081137 14.393065 -13.926037 20.661868 -1.231428 2.310402 0.016931 -0.008205 316549.000000 1 0 0
1.056663 9.194965 -17.770337 20.036188 1.456381 2.661413 0.025363 -0.007166 367142.000000 1 0 0
1.117063 -5.192535 -20.093537 20.783659 -1.358897 2.883173 0.015424 -0.000385 317506.000000 1 0 0
3.613263 -5.771335 -18.775837 19.972382 -1.011428 2.793691 0.017339 0.007965 -61915.200000 1 0 0
-6.925437 7.527465 -15.725537 18.759449 -0.827029 2.564904 -0.003269 -0.002388 82108.600000 1 0 0
-11.692437 3.377565 -16.972937 20.885441 -0.281212 2.519513 0.035245 -0.014747 346450.000000 1 0 0
-4.294337 6.974765 -17.286337 19.128673 -1.018915 2.699100 0.003432 0.007754 223577.000000 1 0 0
-8.054237 5.307165 -17.596637 20.066848 -0.582626 2.640173 0.004495 -0.011331 306866.000000 1 0 0
-8.806537 4.951365 -15.114837 18.180468 -0.512190 2.552379 0.002178 -0.012709 379933.000000 1 0 0
9.537963 14.021065 -12.742637 21.211738 0.973442 2.215217 0.053722 -0.020035 470666.000000 1 0 0
14.382763 9.866565 -11.900037 21.114542 0.601268 2.169527 0.070231 -0.014564 98721.400000 1 0 0
8.560363 15.728265 -9.910437 20.466434 1.072366 2.076278 0.012073 -0.010782 116305.000000 1 0 0
7.855563 13.059065 -14.481037 21.022595 1.029245 2.330673 0.049401 -0.025234 246790.000000 1 0 0
4.166063 15.318065 -13.032737 20.539023 1.305249 2.258204 0.042094 -0.022404 142111.000000 1 0 0
11.157763 11.674465 -11.164637 19.632573 0.808025 2.175696 0.053945 -0.019536 374757.000000 1 0 0
16.196163 9.707065 -8.809637 20.836327 0.539937 2.007331 0.078201 -0.043954 333014.000000 1 0 0
13.195063 11.592065 -9.348337 19.896660 0.720818 2.059911 0.062614 -0.009450 64496.300000 1 0 0
10.775063 11.512665 -7.763737 17.576093 0.818481 2.028313 0.020174 -0.007105 35692.400000 1 0 0
5.989363 16.901465 -9.998837 20.530678 1.230234 2.079470 0.051673 -0.016847 -64901.300000 1 0 0
11.350263 13.760365 -10.555537 20.726685 0.881084 2.105136 0.056392 -0.026955 91855.700000 1 0 0
7.852463 -19.322235 -1.211037 20.892021 -1.184789 1.628795 0.037386 -0.011555 135026.000000 1 0 0
7.367563 -16.904935 -3.870737 18.842516 -1.159794 1.777695 0.031926 -0.012922 295425.000000 1 0 0
3.886163 -18.736835 5.142163 19.814466 -1.366288 1.308276 0.036312 -0.015561 9572.150000 1 0 0
10.499663 -17.874935 -2.391937 20.868099 -1.039696 1.685671 0.048829 -0.006540 662727.000000 1 0 0
-3.615237 -14.890735 7.996663 17.284401 1.332620 1.089812 0.025247 -0.025226 -64463.800000 1 0 0
-15.250437 -12.656435 -4.072337 20.232279 0.692712 1.773460 0.028674 -0.022707 155020.000000 1 0 0
-9.828337 -12.448635 -6.840737 17.273112 0.902484 1.977990 0.016878 -0.016989 267744.000000 1 0 0
-11.317637 -15.616235 6.838463 20.462655 0.943662 1.230048 0.028295 -0.001500 277746.000000 1 0 0
-15.009437 -6.896635 -7.220037 18.027083 0.430715 1.982870 0.058447 -0.034637 -549200.000000 1 0 0
5.158863 -15.464935 6.413263 17.518790 -1.248820 1.196004 0.029826 -0.009184 290799.000000 1 0 0
2.544063 -14.126835 9.189063 17.043432 -1.392619 1.001362 0.011444 -0.008156 454333.000000 1 0 0
3.457063 -17.304835 10.353663 20.459886 -1.373618 1.040201 0.042934 -0.015799 281784.000000 1 0 0
-7.606837 -17.250035 -5.217837 19.561531 1.155473 1.840805 -0.019963 -0.024994 -15636.600000 1 0 0
1.956763 -19.964935 -4.245037 20.504826 -1.473098 1.779331 0.034941 -0.008451 101638.000000 1 0 0
-17.038037 -10.559235 -3.094337 20.282186 0.554811 1.723959 -0.072598 -0.022188 -97056.900000 1 0 0
-4.178937 -14.930135 2.998863 15.791314 1.297881 1.379730 0.004068 -0.001615 77281.200000 1 0 0
-10.648937 -9.910735 -14.827837 20.772272 0.749508 2.365746 0.019384 0.011247 214084.000000 1 0 0
0.609563 -20.461135 2.627463 20.638148 -1.541014 1.443139 0.019892 -0.008986 254545.000000 1 0 0
5.104063 -18.588635 0.258263 19.278369 -1.302821 1.557399 0.019499 -0.000432 -32030.900000 1 0 0
-8.195537 -18.896035 -3.508037 20.893379 1.161565 1.739497 0.029957 -0.023711 152677.000000 1 0 0
-9.086637 -15.659135 -7.630737 19.646975 1.045005 1.969683 0.015532 -0.013894 -115984.000000 1 0 0
-11.524437 -11.332935 -12.255337 20.284017 0.777020 2.219541 -0.005231 0.015434 320910.000000 1 0 0
-13.226737 -15.063335 -3.300637 20.316122 0.850227 1.733984 0.019061 -0.020507 114480.000000 1 0 0
-0.265937 -20.582035 -2.716937 20.762288 1.557876 1.702032 0.036812 -0.021957 465787.000000 1 0 0
-11.752637 -17.097135 -0.360137 20.750089 0.968574 1.588153 0.023431 -0.005164 -32533.500000 1 0 0
0.759363 -19.992435 5.291863 20.694876 -1.532832 1.312215 0.025982 -0.019144 111019.000000 1 0 0
-18.227137 -8.678635 2.411363 20.331303 0.444377 1.451913 0.026995 0.001577 -112585.000000 1 0 0
-15.147337 -14.846035 -0.968537 21.231689 0.775353 1.616430 0.045640 -0.007252 -57251.000000 1 0 0
10.124263 -15.908935 -4.645737 19.421065 -1.004049 1.812350 0.030388 0.003434 -59049.700000 1 0 0
-0.363637 -19.186635 -7.004337 20.428410 1.551846 1.920769 0.027460 -0.005709 181682.000000 1 0 0
-9.933537 -16.507735 -2.525737 19.430898 1.029091 1.701151 0.017064 -0.025582 464105.000000 1 0 0
-14.543037 -6.847135 -11.416237 19.715822 0.440031 2.188346 0.041734 -0.012455 -85427.000000 1 0 0
-12.039737 -14.986535 2.379463 19.370424 0.894004 1.447645 0.033658 -0.013854 212282.000000 1 0 0
-2.711237 -16.298335 10.107863 19.368929 1.405955 1.021767 0.014542 -0.018995 318333.000000 1 0 0
-13.327337 -14.981935 -5.865237 20.892039 0.843779 1.855362 0.048222 -0.014672 23425.300000 1 0 0
6.155763 -16.935635 -6.643637 19.205391 -1.222164 1.924021 0.032805 -0.011298 55527.800000 1 0 0
-17.454737 -7.454735 -3.084437 19.229006 0.403639 1.731898 -0.006035 -0.011654 -39828.700000 1 0 0
-11.575837 -13.913335 -7.963637 19.773730 0.876848 1.985303 0.012749 -0.034165 -53615.000000 1 0 0
-7.891037 -14.134235 10.058863 19.058483 1.061609 1.014801 0.026368 -0.003458 365274.000000 1 0 0
-15.969537 -8.431635 -5.672437 18.928685 0.485782 1.875147 0.037007 -0.005193 362172.000000 1 0 0
-0.941037 -19.685735 0.308263 19.710625 1.523030 1.555156 0.011533 -0.014395 161649.000000 1 0 0
-14.759437 -11.324035 -1.832937 18.693165 0.654444 1.669008 0.001451 -0.010745 81748.300000 1 0 0
-6.923037 -18.656935 0.987563 19.924481 1.215475 1.521211 0.006674 -0.020075 85137.900000 1 0 0
-2.368237 -20.516035 -5.316537 21.325613 1.455872 1.822757 0.031180 -0.016882 79040.800000 1 0 0
-9.347237 -19.590035 -0.802737 21.720605 1.125601 1.607762 0.029903 -0.012189 61509.300000 1 0 0
-17.843937 -7.602635 4.764163 19.972566 0.402770 1.329939 0.029255 -0.005101 72860.800000 1 0 0
-2.946437 -15.803435 -10.964037 19.458678 1.386470 2.169355 0.019005 0.004406 10314.900000 1 0 0
-3.070337 -18.301535 -8.341637 20.345910 1.404580 1.993240 0.018385 -0.000863 151151.000000 1 0 0
3.752663 -17.666235 -6.333537 19.138757 -1.361487 1.908082 0.009857 0.024013 354780.000000 1 0 0
0.891563 -17.442235 -9.190337 19.735469 -1.519726 2.055195 0.027747 0.003105 88176.500000 1 0 0
-7.471237 -10.631435 -14.030037 19.122990 0.958227 2.394509 0.002119 -0.021191 48933.900000 1 0 0
-5.443137 -19.236735 -1.858437 20.078184 1.295049 1.663489 0.018518 -0.022563 395989.000000 1 0 0
-10.321337 -15.016435 8.759763 20.217734 0.968620 1.122677 0.020092 -0.028711 205654.000000 1 0 0
-8.139537 -14.413835 -9.220437 18.948012 1.056735 2.079010 0.065021 -0.026112 318535.000000 1 0 0
-12.663037 -7.834235 -12.506437 19.445789 0.554034 2.269393 0.034560 -0.003279 296400.000000 1 0 0
-15.669537 -12.892435 3.192263 20.541173 0.688472 1.414756 0.037420 -0.002911 252100.000000 1 0 0
-6.058737 -14.360835 -13.007037 20.300859 1.171560 2.266224 -0.001575 0.006785 444241.000000 1 0 0
-13.872837 -11.397735 -6.794637 19.197163 0.687766 1.932576 0.027983 -0.024197 152286.000000 1 0 0
-11.582837 -10.280735 -9.250137 18.039420 0.725913 2.109209 0.011395 -0.004324 242051.000000 1 0 0
-9.615937 -14.957135 3.382263 18.100327 0.999429 1.382829 0.008234 -0.000176 234500.000000 1 0 0
4.944163 -18.022935 8.450863 20.510680 -1.303057 1.146124 0.040920 -0.016733 286861.000000 1 0 0
-4.755637 -16.749435 5.179763 18.165615 1.294149 1.281643 0.003138 0.003429 199865.000000 1 0 0
-18.312037 -7.468435 -7.015037 20.983779 0.387249 1.911667 0.040746 -0.021329 17959.800000 1 0 0
-17.058237 -4.720135 -10.937337 20.805972 0.269953 2.124314 0.056320 -0.003205 -131872.000000 1 0 0
-15.526437 -4.267335 -13.199237 20.820669 0.268220 2.257445 0.038512 -0.011032 346014.000000 1 0 0
-19.584137 -5.415535 -6.007937 21.188718 0.269785 1.858284 0.069283 -0.012617 -260644.000000 1 0 0
5.351763 -13.956835 8.754763 17.322831 -1.204637 1.040964 0.021630 0.001094 280155.000000 1 0 0
19.897063 -3.136835 3.162463 20.389556 -0.156366 1.415066 0.060288 -0.007352 47673.800000 1 0 0
18.033963 -2.701435 0.004163 18.235174 -0.148691 1.570568 0.037725 -0.010125 364491.000000 1 0 0
14.541063 -11.433235 0.307663 18.500163 -0.666314 1.554165 0.033655 0.004077 39866.100000 1 0 0
11.287963 -13.888235 5.262963 18.654757 -0.888316 1.284789 0.034461 0.003443 342744.000000 1 0 0
9.844863 -13.187935 9.143663 18.826830 -0.929536 1.063665 0.020786 -0.002183 182567.000000 1 0 0
17.569463 4.752665 -4.356937 18.715148 0.264184 1.805755 0.001101 0.000150 -134648.000000 1 0 0
19.231463 -5.926835 -5.180437 20.780122 -0.298948 1.822751 0.076233 -0.012022 -91243.000000 1 0 0
17.719463 -10.098435 -0.341537 20.397902 -0.517998 1.587541 0.043766 -0.002925 199746.000000 1 0 0
17.729263 -8.932735 8.504063 21.597213 -0.466716 1.166081 0.100602 -0.017318 -134811.000000 1 0 0
20.109763 0.299265 -2.174237 20.229173 0.014881 1.678485 0.078405 -0.004916 57258.900000 1 0 0
7.512263 -13.408035 11.529663 19.213084 -1.060094 0.927177 0.024789 -0.000199 381481.000000 1 0 0
16.277963 -6.368035 -3.273737 17.783175 -0.372902 1.755944 0.042244 -0.003823 294590.000000 1 0 0
14.326363 -7.083135 11.060063 19.435546 -0.459168 0.965430 0.045118 -0.041200 228877.000000 1 0 0
16.514363 0.851265 10.096263 19.374812 0.051501 1.022654 0.082423 -0.035559 310323.000000 1 0 0
16.425763 -9.891735 2.691263 19.362205 -0.542042 1.431349 0.007378 -0.013255 222514.000000 1 0 0
16.456063 -7.322335 -5.467237 18.823105 -0.418657 1.865497 0.054197 -0.010002 302329.000000 1 0 0
18.392063 -4.884735 5.525763 19.815718 -0.259596 1.288192 0.127191 -0.021825 -61786.500000 1 0 0
13.604663 -13.572735 7.937063 20.791896 -0.784223 1.179120 0.045600 -0.012333 321814.000000 1 0 0
14.954763 -14.523435 -1.528637 20.902436 -0.770767 1.643994 0.021962 0.009513 26190.200000 1 0 0
18.667163 -6.259135 8.346963 21.384843 -0.323521 1.169816 0.095624 -0.016947 344866.000000 1 0 0
19.623863 3.926565 2.476063 20.165436 0.197483 1.447698 0.049738 -0.002966 240523.000000 1 0 0
15.739063 -10.607035 8.283463 20.708526 -0.593015 1.159277 0.064774 -0.026767 338066.000000 1 0 0
14.373963 -4.072835 10.793663 18.431005 -0.276111 0.945145 0.051423 -0.015091 -93580.000000 1 0 0
18.737363 -7.934135 1.884863 20.435067 -0.400548 1.478428 0.070550 -0.015848 -411.330000 1 0 0
19.175563 -6.107135 -1.126737 20.156112 -0.308328 1.626726 0.058357 -0.015526 53829.200000 1 0 0
14.647863 -13.688035 -6.065937 20.945591 -0.751538 1.864610 0.056946 -0.008762 429415.000000 1 0 0
13.665563 -9.614635 10.288363 19.622416 -0.613116 1.018884 0.017436 -0.010420 258180.000000 1 0 0
14.284463 2.289965 0.515963 14.476051 0.158959 1.535146 0.005362 0.000443 -175940.000000 1 0 0
12.801763 2.344265 13.718163 18.909487 0.181114 0.759087 0.028218 -0.012756 -48943.900000 1 0 0
18.179763 -3.411435 9.142063 20.632958 -0.185493 1.111764 0.066222 -0.018613 131368.000000 1 0 0
6.859763 -18.288535 5.087463 20.184378 -1.211951 1.315999 0.028546 -0.024625 250563.000000 1 0 0
12.673063 -3.183235 14.772763 19.722424 -0.246090 0.724194 0.030286 -0.006204 198429.000000 1 0 0
11.557363 -13.525335 -7.199937 19.192353 -0.863697 1.955351 0.028665 -0.006807 87836.100000 1 0 0
10.521963 -17.916635 4.778863 21.320296 -1.039787 1.344729 0.036169 -0.006944 599545.000000 1 0 0
18.341163 -0.447135 -4.685737 18.935531 -0.024374 1.820851 0.054332 -0.018505 78949.900000 1 0 0
4.300263 -13.767635 11.487663 18.439263 -1.268052 0.898224 0.017293 -0.008288 249488.000000 1 0 0
9.289663 -2.950035 14.260263 17.272974 -0.307489 0.599563 0.021867 -0.010492 368677.000000 1 0 0
9.385663 -9.335935 14.229363 19.435151 -0.782742 0.749330 0.042033 0.001474 164753.000000 1 0 0
21.078763 5.705165 -2.724737 22.006530 0.264326 1.694930 0.061512 -0.005622 396009.000000 1 0 0
14.560363 -13.273835 1.887663 19.792982 -0.739210 1.475281 0.020797 -0.002494 56815.500000 1 0 0
10.499063 0.077565 13.946663 17.456968 0.007388 0.645305 0.006791 -0.035603 172609.000000 1 0 0
19.713863 0.248365 7.714263 21.170922 0.012598 1.197829 0.107404 -0.021518 56181.700000 1 0 0
19.943763 1.248965 0.303663 19.985140 0.062543 1.555601 0.061758 -0.002861 359866.000000 1 0 0
17.781363 0.631265 2.944663 18.034589 0.035487 1.406783 0.036698 -0.000843 -120910.000000 1 0 0
10.591063 -8.650435 16.283463 21.263861 -0.684882 0.698541 0.053381 0.004738 142818.000000 1 0 0
19.086363 3.067065 5.474563 20.091465 0.159332 1.294825 0.056690 -0.004728 138153.000000 1 0 0
15.765163 2.404765 7.106363 17.459200 0.151370 1.151600 0.048809 -0.011307 -39589.800000 1 0 0
11.513563 -16.058735 1.841863 19.845341 -0.948774 1.477852 0.029025 -0.001101 289067.000000 1 0 0
8.491063 -15.945635 6.959763 19.359745 -1.081487 1.203068 0.029477 -0.008826 378831.000000 1 0 0
5.937963 6.905965 7.206063 11.613746 0.860622 0.901445 0.000244 -0.000897 -1525450.000000 1 0 0
18.700963 1.654865 -6.367437 19.824451 0.088261 1.897783 0.048677 -0.008560 252013.000000 1 0 0
14.267563 4.528465 -7.237837 16.626985 0.307339 2.021175 0.018501 -0.003799 302708.000000 1 0 0
-10.256037 -3.651335 -14.378537 18.034990 0.342026 2.493535 0.008126 0.007997 -114296.000000 1 0 0
7.773763 -14.157335 -10.503437 19.266128 -1.068646 2.147396 -0.000744 0.011134 -236557.000000 1 0 0
1.909063 -15.907235 13.972263 21.258146 -1.451355 0.853611 0.017313 -0.015984 267167.000000 1 0 0
-9.510637 -7.688135 1.917963 12.378942 0.679825 1.415232 0.009008 0.004183 64401.800000 1 0 0
-13.796337 3.222265 -9.712237 17.177004 -0.229446 2.171740 0.012730 -0.003976 442989.000000 1 0 0
-12.640237 -4.727335 -13.433137 19.041336 0.357886 2.353886 0.018598 -0.003518 206497.000000 1 0 0
-18.007537 -1.210935 -8.952937 20.146782 0.067145 2.031284 0.055303 -0.018227 501261.000000 1 0 0
-12.221537 15.114265 4.188763 19.883479 -0.890828 1.358541 0.036984 -0.021518 427711.000000 1 0 0
-17.126337 6.474265 9.134763 20.461462 -0.361424 1.108016 0.017060 -0.018865 220132.000000 1 0 0
-13.511537 15.517165 -0.156037 20.575918 -0.854380 1.578380 0.046819 -0.014667 157982.000000 1 0 0
-15.816637 5.408265 -10.749737 19.873907 -0.329472 2.142300 0.021213 -0.002604 43126.100000 1 0 0
-18.661237 2.918265 -0.396337 18.892198 -0.155125 1.591777 0.079276 0.000490 23240.300000 1 0 0
-10.004837 15.541965 -0.166237 18.484509 -0.998841 1.579790 0.028386 -0.002066 93095.000000 1 0 0
-18.714937 12.015865 2.596163 22.391292 -0.570764 1.454590 0.097782 -0.016152 -821641.000000 1 0 0
-8.520537 16.399965 -7.727537 20.031806 -1.091634 1.966831 0.048685 -0.032358 -23212.700000 1 0 0
-15.088337 -1.978035 -12.859037 19.922986 0.130354 2.272392 0.035371 -0.021308 -9364.940000 1 0 0
-18.957837 5.280365 -4.872737 20.273762 -0.271647 1.813520 0.059193 -0.004625 -8741.540000 1 0 0
-16.832137 9.821565 -5.606237 20.278409 -0.528199 1.850908 0.039564 0.011457 -397428.000000 1 0 0
-19.143137 1.442665 2.445463 19.352552 -0.075220 1.444094 0.047140 -0.017755 439291.000000 1 0 0
-13.413737 12.016065 -6.994437 19.319325 -0.730491 1.941256 0.021524 -0.010643 163350.000000 1 0 0
-13.563337 4.226665 -12.668637 19.034789 -0.302087 2.299029 0.048528 -0.026629 83777.000000 1 0 0
-14.207437 9.328165 -6.494737 18.194712 -0.580979 1.935805 0.018696 -0.007722 19053.600000 1 0 0
-6.573037 11.073365 -15.235237 19.948351 -1.035104 2.439874 -0.000342 -0.037270 118350.000000 1 0 0
-14.995137 13.668965 2.992063 20.509685 -0.739165 1.424388 0.037005 -0.027180 59114.300000 1 0 0
-18.651737 8.333565 -5.015837 21.035547 -0.420188 1.811561 0.055266 -0.007585 242138.000000 1 0 0
-3.365837 16.849965 -10.311937 20.039617 -1.373638 2.111311 0.010987 -0.004798 230874.000000 1 0 0
-19.283537 -1.957535 -7.079737 20.635150 0.101167 1.921002 0.033238 -0.013862 -368099.000000 1 0 0
-10.616937 13.972265 -6.205537 18.613228 -0.921016 1.910698 0.022384 -0.018025 11066.300000 1 0 0
-19.486337 3.298765 4.155363 20.195698 -0.167696 1.363561 0.059121 -0.012434 173896.000000 1 0 0
-15.135437 12.509365 0.602163 19.645057 -0.690689 1.540139 0.026080 -0.007405 96787.000000 1 0 0
-16.752237 1.768565 -8.694537 18.956800 -0.105182 2.047272 -0.014259 -0.007038 141165.000000 1 0 0
-16.792937 12.451965 -4.488737 21.382304 -0.638039 1.782297 0.041698 -0.010510 43430.400000 1 0 0
-11.007437 15.628665 -8.657437 20.984996 -0.957183 1.996052 0.052426 -0.026671 161936.000000 1 0 0
-19.212137 2.109265 -7.002237 20.556910 -0.109350 1.918380 0.052209 -0.009276 186933.000000 1 0 0
-17.064037 10.708365 -0.356437 20.148883 -0.560424 1.588487 0.041691 0.005080 72549.500000 1 0 0
-11.454237 6.473165 -14.666737 19.703162 -0.514387 2.410410 0.015205 -0.016834 405594.000000 1 0 0
-13.803837 13.334865 -5.253637 19.898876 -0.768119 1.837981 0.045552 -0.005384 214234.000000 1 0 0
-19.034137 7.304565 -0.243937 20.389079 -0.366430 1.582761 0.073350 -0.004941 150504.000000 1 0 0
-14.571837 8.437665 -10.383137 19.782370 -0.524865 2.123357 0.020741 0.004036 626263.000000 1 0 0
-18.735637 11.242465 5.041863 22.424039 -0.540462 1.344016 0.059830 -0.026876 203118.000000 1 0 0
-8.092237 12.110965 -13.396937 19.789839 -0.981751 2.314421 -0.004471 -0.004931 361687.000000 1 0 0
-21.297437 -1.777535 -5.150137 21.983275 0.083269 1.807269 0.057489 -0.018188 321058.000000 1 0 0
-10.788337 13.867465 -3.615837 17.937923 -0.909639 1.773762 0.029832 0.006601 492412.000000 1 0 0
-18.939837 -4.762935 3.772763 19.890619 0.246368 1.379965 0.035647 -0.005383 15482.600000 1 0 0
-11.307537 11.623065 -12.561237 20.511965 -0.799157 2.229871 0.011650 -0.005719 193142.000000 1 0 0
-14.580737 11.627065 -10.576937 21.439640 -0.673170 2.086717 0.030467 0.001702 166962.000000 1 0 0
-12.457937 9.780665 -13.949137 21.105451 -0.665586 2.292848 0.019748 -0.009331 399841.000000 1 0 0
-18.098337 -5.221435 -3.087437 19.087835 0.280877 1.733259 -0.012158 -0.009138 -331369.000000 1 0 0
-9.404537 12.512865 -11.396737 19.362405 -0.926279 2.200124 0.028505 -0.018931 -199331.000000 1 0 0
-15.725837 7.751765 -8.330437 19.411028 -0.457977 2.014359 0.020266 0.001413 -50015.900000 1 0 0
-14.347937 8.977965 2.001863 17.043316 -0.559126 1.453067 0.027431 -0.002652 -154261.000000 1 0 0
-19.920137 6.234665 7.602763 22.214520 -0.303325 1.221493 0.067521 -0.026762 336147.000000 1 0 0
-19.110137 6.341165 3.890563 20.507174 -0.320390 1.379922 0.052899 -0.003374 256476.000000 1 0 0
-14.670737 12.514265 5.937563 20.176521 -0.706238 1.272093 0.038245 -0.025623 -25407.400000 1 0 0
18.203563 6.038665 6.024063 20.102848 0.320307 1.266458 0.047423 -0.005822 254511.000000 1 0 0
18.536463 8.256065 0.486763 20.297783 0.419019 1.546813 0.049192 0.013913 68215.400000 1 0 0
16.793263 4.270865 8.869863 19.466084 0.249041 1.097686 0.055493 -0.009056 -6205.640000 1 0 0
12.301963 12.921765 11.069863 20.996480 0.809965 1.015465 0.042233 -0.015794 152255.000000 1 0 0
15.408263 12.635065 4.299963 20.385022 0.686829 1.358263 0.037832 -0.001979 110515.000000 1 0 0
4.594463 10.059065 14.064263 17.891265 1.142345 0.666328 0.015137 -0.013403 371720.000000 1 0 0
13.431363 13.694765 -4.767937 19.765660 0.795108 1.814422 0.054051 0.006536 380891.000000 1 0 0
17.058863 9.497665 -2.545337 19.689825 0.508017 1.700431 -0.016852 -0.001591 -57408.900000 1 0 0
14.577263 7.698265 9.698363 19.126372 0.485875 1.039017 0.047530 -0.004018 156287.000000 1 0 0
4.932663 19.136265 -1.619337 19.828012 1.318523 1.652557 0.012205 -0.008512 614381.000000 1 0 0
-3.452737 20.127565 3.154563 20.663774 -1.400907 1.417536 -0.027956 0.038770 292472.000000 1 0 0
6.942563 12.646065 12.744063 19.249241 1.068729 0.847238 0.025784 -0.003157 -50492.700000 1 0 0
0.177163 16.977065 -10.223937 19.818704 1.560361 2.112823 0.017720 -0.001192 59087.400000 1 0 0
10.538763 9.368165 15.670363 21.080520 0.726662 0.732720 0.041042 -0.009438 213441.000000 1 0 0
-1.153337 12.218265 1.220163 12.333085 -1.476681 1.471700 -0.000012 0.001081 458406.000000 1 0 0
-4.483337 19.239065 -2.618337 19.927309 -1.341849 1.702572 0.006319 0.015361 269567.000000 1 0 0
5.819063 18.388665 6.369563 20.311963 1.264318 1.251828 0.021625 -0.012498 251312.000000 1 0 0
11.104463 17.554665 -1.498237 20.825948 1.006776 1.642799 0.020644 -0.011682 481198.000000 1 0 0
18.590463 10.454365 3.567363 21.624642 0.512276 1.405071 0.043416 0.003271 300211.000000 1 0 0
11.704163 16.749965 6.434763 21.423234 0.960905 1.265722 0.036123 0.001228 -140485.000000 1 0 0
18.180163 7.145365 -5.916337 20.410233 0.374484 1.864889 0.034293 0.012682 403895.000000 1 0 0
0.607963 16.577065 10.910163 19.854480 1.534138 0.989023 -0.006326 0.025130 386967.000000 1 0 0
1.836063 20.630165 -1.883237 20.797150 1.482031 1.661473 0.015049 0.010437 353132.000000 1 0 0
14.413063 9.798865 -1.072337 17.461502 0.597081 1.632247 0.018657 0.003945 -23456.000000 1 0 0
10.128263 17.160665 1.482563 19.981695 1.037612 1.496532 0.028474 -0.019144 191817.000000 1 0 0
0.002163 17.879365 -0.705437 17.893277 1.570675 1.610231 -0.002343 0.008529 176029.000000 1 0 0
-0.117337 20.997165 1.386263 21.043204 -1.565208 1.504872 0.009390 0.008179 306432.000000 1 0 0
5.998163 17.411765 -0.149437 18.416565 1.239039 1.578911 0.002013 -0.020087 -3512.640000 1 0 0
7.052163 18.786165 -2.787137 20.258854 1.211683 1.708810 -0.006311 -0.012439 34731.300000 1 0 0
10.265163 9.541065 12.898463 19.046675 0.748855 0.826842 0.040876 -0.009102 145989.000000 1 0 0
12.545763 14.708565 8.345463 21.056705 0.864589 1.163277 0.029924 -0.014467 282983.000000 1 0 0
0.296563 17.641365 7.097163 19.017767 1.553987 1.188356 0.004197 -0.000521 309884.000000 1 0 0
7.394063 18.061365 -7.787937 21.012783 1.182225 1.950482 0.018764 -0.009921 6682.470000 1 0 0
-0.902737 18.563765 9.258163 20.763957 -1.522206 1.108643 0.029470 -0.010142 -164733.000000 1 0 0
16.274663 6.613165 -7.836237 19.235520 0.385966 1.990384 0.051747 0.002407 -281612.000000 1 0 0
-5.213237 19.664465 -6.692537 21.416328 -1.311648 1.888617 -0.001461 -0.012795 201161.000000 1 0 0
3.774863 15.549265 9.890563 18.810967 1.332636 1.017156 0.008294 -0.005811 172853.000000 1 0 0
9.010463 14.868165 7.610063 18.977983 1.025959 1.158194 0.019125 -0.006722 40278.600000 1 0 0
-2.562437 19.578165 6.452463 20.772697 -1.440654 1.254949 0.012280 0.000149 93220.300000 1 0 0
5.121563 17.872265 8.725463 20.537331 1.291710 1.131991 0.020838 -0.010542 -37942.000000 1 0 0
13.616163 11.638565 -6.449237 19.038087 0.707252 1.916389 -0.035468 -0.014049 -108524.000000 1 0 0
11.641563 6.946665 15.612863 20.677128 0.537999 0.715022 0.042532 -0.017101 127616.000000 1 0 0
16.909163 9.119165 5.286163 19.925423 0.494594 1.302284 0.027560 -0.004063 84922.200000 1 0 0
5.244563 14.761865 12.280363 19.905412 1.229427 0.905953 0.008295 -0.016951 526374.000000 1 0 0
15.960963 11.694465 -4.463937 20.283974 0.632331 1.792685 0.044495 0.025354 158027.000000 1 0 0
15.259963 14.239965 6.981563 22.008755 0.750836 1.248002 0.044249 0.015344 288920.000000 1 0 0
12.567263 14.494965 -7.793337 20.706912 0.856510 1.956665 0.065279 -0.018921 292803.000000 1 0 0
-8.159137 15.658265 9.697363 20.144271 -1.090431 1.068550 0.027819 -0.012063 216752.000000 1 0 0
-3.758837 16.582565 -7.185937 18.459362 -1.347889 1.970651 -0.009247 -0.007867 122162.000000 1 0 0
2.246263 19.490265 -4.540037 20.137728 1.456052 1.798201 0.007699 -0.021371 74941.000000 1 0 0
7.197063 16.234165 9.270463 20.032157 1.153505 1.089669 0.020508 -0.017720 599913.000000 1 0 0
13.528263 15.514965 -1.469237 20.637023 0.853697 1.642051 0.056003 -0.019312 150474.000000 1 0 0
13.203463 14.984965 3.749263 20.320866 0.848514 1.385230 0.051005 -0.036473 183480.000000 1 0 0
2.435163 18.543065 0.864563 18.722253 1.440219 1.524602 0.004832 -0.003986 3664.140000 1 0 0
-6.759737 18.019265 1.880263 19.337098 -1.211903 1.473406 -0.019910 0.034239 271987.000000 1 0 0
0.008163 20.233265 -6.299437 21.191225 1.570393 1.872625 0.019333 0.007716 259417.000000 1 0 0
-7.265037 17.731065 -6.467537 20.223760 -1.181926 1.896314 0.028790 -0.025076 -36534.300000 1 0 0
-7.500437 18.623465 -1.458537 20.130011 -1.187929 1.643316 0.026711 0.001295 50151.900000 1 0 0
-14.512137 -9.736035 8.930063 19.624946 0.590920 1.098383 0.026751 0.007084 354287.000000 1 0 0
-13.162137 -13.682035 7.739563 20.502213 0.804763 1.183702 0.027231 -0.005090 -66928.600000 1 0 0
-3.472837 -15.502035 13.049863 20.559003 1.350410 0.883109 0.012609 -0.009165 131144.000000 1 0 0
-2.219437 -13.909335 15.929963 21.264035 1.412566 0.724018 0.026950 -0.022319 279968.000000 1 0 0
-7.221737 -13.558235 13.773563 20.632262 1.081374 0.839851 -0.015437 -0.009850 -59736.800000 1 0 0
-10.158937 -11.079335 11.782663 19.099393 0.828708 0.905982 0.029867 -0.012857 55921.800000 1 0 0
-7.804937 -10.745135 13.260263 18.767246 0.942591 0.786165 0.025881 -0.002831 417693.000000 1 0 0
-15.189637 -12.308935 7.968563 21.112388 0.681021 1.183771 0.030947 0.010272 168571.000000 1 0 0
-4.509537 -12.148935 13.144963 18.458672 1.215372 0.778270 0.009030 -0.025588 278217.000000 1 0 0
3.843363 -12.501035 13.919963 19.100070 -1.272525 0.754241 0.017037 -0.005700 584226.000000 1 0 0
6.797163 -13.538335 14.417963 20.913287 -1.105496 0.810113 0.036711 -0.007972 272193.000000 1 0 0
7.070363 -8.969035 16.573263 20.127261 -0.903225 0.603378 0.028841 -0.002191 367754.000000 1 0 0
-5.114437 13.431365 13.388663 19.642183 -1.206965 0.820811 0.005902 -0.001141 525590.000000 1 0 0
-13.690337 -1.740335 17.449163 22.246963 0.126443 0.669166 0.033550 -0.008619 376964.000000 1 0 0
-10.016937 9.036465 13.531863 19.107801 -0.733984 0.783872 0.005325 -0.015876 430144.000000 1 0 0
-7.558337 -8.323635 16.998263 20.380194 0.833547 0.584373 0.010443 -0.012192 120917.000000 1 0 0
-5.031837 2.067365 18.181563 18.977951 -0.389831 0.290726 0.016401 -0.006912 555524.000000 1 0 0
-15.704537 -3.702735 14.376863 21.611037 0.231546 0.842960 0.049210 -0.001854 120395.000000 1 0 0
-14.601137 2.677465 12.312163 19.286041 -0.181359 0.878382 0.025617 -0.008855 318912.000000 1 0 0
-13.816437 10.758365 10.005463 20.167936 -0.661595 1.051687 -0.029923 0.011541 -61649.400000 1 0 0
-3.640937 11.109265 15.718963 19.589742 -1.254089 0.639477 -0.020974 -0.003533 135656.000000 1 0 0
-13.181737 12.960865 7.693363 20.023238 -0.776950 1.176432 0.026602 -0.034596 117851.000000 1 0 0
-3.990737 -6.542335 18.619563 20.134951 1.023066 0.390449 0.019555 -0.016774 239766.000000 1 0 0
0.433863 -2.945335 18.349063 18.589011 -1.424543 0.160847 0.013531 -0.010511 4483.420000 1 0 0
-4.876837 6.405865 21.087963 22.572568 -0.920097 0.364703 0.051123 -0.008681 217279.000000 1 0 0
2.200363 -10.776035 16.417063 19.760680 -1.369375 0.590263 0.018363 -0.010692 218584.000000 1 0 0
-15.222237 -0.274435 13.915763 20.626203 0.018027 0.830287 0.023658 -0.000852 98969.700000 1 0 0
-13.944337 -6.186135 8.144563 17.292967 0.417545 1.080400 0.021958 -0.001677 -95458.300000 1 0 0
10.055263 0.476765 16.908363 19.678119 0.047379 0.537001 0.027166 0.006685 501351.000000 1 0 0
-7.617937 12.018365 11.654963 18.393266 -1.005853 0.884529 0.018869 -0.022345 129392.000000 1 0 0
-1.960937 7.567665 19.638063 21.136895 -1.317252 0.378854 0.043803 -0.028956 519970.000000 1 0 0
0.584363 -14.238935 15.745263 21.236809 -1.529780 0.735622 0.003033 0.000342 548276.000000 1 0 0
-3.400437 -11.643835 17.997363 21.703615 1.286660 0.593062 0.018192 -0.021260 463563.000000 1 0 0
-2.194037 8.694365 16.548763 18.821991 -1.323606 0.496564 0.007303 -0.013190 281652.000000 1 0 0
-5.863937 -9.116035 20.082963 22.821333 0.999177 0.494917 0.081785 -0.040381 124936.000000 1 0 0
-6.843637 -2.683335 19.002363 20.374627 0.373670 0.369111 0.016217 -0.017318 186766.000000 1 0 0
-10.796937 -7.728635 16.173963 20.926125 0.621263 0.687385 0.032997 -0.017310 328261.000000 1 0 0
-0.763037 6.060165 17.790063 18.809417 -1.445545 0.330728 0.022560 -0.010236 89166.900000 1 0 0
-6.080437 -11.625535 18.683363 22.829648 1.088899 0.612207 0.023630 -0.020691 322422.000000 1 0 0
0.358263 3.298865 18.728263 19.019955 1.462618 0.175360 0.021415 -0.011296 68692.300000 1 0 0
-18.829837 -0.081735 7.242463 20.174804 0.004341 1.203616 0.064042 -0.018035 242616.000000 1 0 0
-1.653837 -8.633235 17.323963 19.426467 1.381523 0.469552 0.014335 -0.022681 359208.000000 1 0 0
5.748263 3.408565 15.019663 16.439316 0.535237 0.418640 0.012414 -0.005125 409445.000000 1 0 0
-14.185737 -7.122335 10.122263 18.826125 0.465308 1.003124 0.033914 -0.000281 167670.000000 1 0 0
3.390263 8.186065 16.896163 19.078414 1.178151 0.482976 0.024738 -0.002114 158184.000000 1 0 0
6.145563 4.230265 17.361663 18.896836 0.602861 0.405867 0.037795 -0.029947 227814.000000 1 0 0
3.867163 -9.560735 17.642263 20.435558 -1.186431 0.529000 -0.002445 -0.010166 297463.000000 1 0 0
-4.708837 -0.895135 19.959663 20.527117 0.187855 0.235680 0.018791 -0.004838 844816.000000 1 0 0
-11.253437 2.152865 16.839563 20.367758 -0.189023 0.597445 0.034453 -0.012402 198421.000000 1 0 0
-16.849137 -4.278735 8.541863 19.369161 0.248687 1.114080 0.035114 -0.013979 325937.000000 1 0 0
-12.987937 -9.495835 12.178463 20.178512 0.631313 0.922868 0.008300 -0.021172 6669.250000 1 0 0
-14.521637 6.147665 13.323063 20.644024 -0.400468 0.869287 0.017466 -0.003654 363479.000000 1 0 0
0.929763 8.961365 17.194463 19.411854 1.467414 0.482643 0.009792 -0.010620 230888.000000 1 0 0
-3.833437 -10.549735 14.881863 18.640332 1.222262 0.646215 0.015967 -0.019063 307483.000000 1 0 0
-18.747537 -2.800835 6.456063 20.024874 0.148301 1.242530 0.103959 -0.017949 -359884.000000 1 0 0
-0.737537 -0.707535 20.709963 20.735166 0.764639 0.049310 0.025076 -0.019942 228383.000000 1 0 0
-1.707437 2.353865 20.337763 20.544601 -0.943242 0.142019 0.023196 -0.012114 5426.220000 1 0 0
-8.068437 2.216865 16.426963 18.435273 -0.268141 0.471118 -0.001794 0.008463 611345.000000 1 0 0
2.677763 -2.429335 18.689863 19.036361 -0.736793 0.191089 0.021944 -0.011948 70158.400000 1 0 0
-12.280337 4.255865 14.133563 19.200955 -0.333606 0.743526 -0.003396 -0.010474 218886.000000 1 0 0
-13.674437 -5.585435 13.111463 19.750893 0.387777 0.844853 0.030235 -0.004072 -5734.450000 1 0 0
-17.530037 -0.716135 9.377963 19.893749 0.040829 1.079916 0.062472 -0.024333 148296.000000 1 0 0
-7.305537 7.858465 14.624163 18.138150 -0.821845 0.632985 -0.001717 -0.011908 -126172.000000 1 0 0
-9.548537 0.707965 14.012463 16.971296 -0.074008 0.599431 0.008937 -0.005151 223852.000000 1 0 0
7.387563 -0.951935 15.047463 16.790128 -0.128150 0.459648 0.015849 -0.013500 151276.000000 1 0 0
3.824663 6.233465 18.514763 19.906797 1.020459 0.376186 0.023158 0.000585 -77807.600000 1 0 0
1.564063 0.237465 19.827563 19.890574 0.150675 0.079619 0.020944 -0.013137 146225.000000 1 0 0
-7.323637 6.950065 17.255463 19.992250 -0.759232 0.529405 0.014751 -0.018223 639185.000000 1 0 0
7.694463 -3.268935 16.574263 18.563321 -0.401737 0.467162 0.026344 -0.010572 449011.000000 1 0 0
-16.813537 2.536565 9.044963 19.259817 -0.149735 1.081926 0.052775 -0.015637 235533.000000 1 0 0
3.865063 -5.689035 19.130163 20.328968 -0.974038 0.345135 0.040222 -0.018300 116587.000000 1 0 0
-4.038637 -3.845735 20.514763 21.259251 0.760937 0.265427 0.021480 -0.019894 331962.000000 1 0 0
-9.661337 5.707165 14.528963 18.357667 -0.533570 0.657638 0.004298 -0.008870 -16808.600000 1 0 0
6.380463 2.546765 19.913463 21.065192 0.379774 0.332205 0.045273 -0.018047 127224.000000 1 0 0
-7.218137 11.048465 14.502263 19.608307 -0.992094 0.738324 0.017686 -0.019692 309040.000000 1 0 0
-14.542037 4.857365 9.196463 17.878472 -0.322371 1.030503 0.026141 -0.015177 297266.000000 1 0 0
0.225163 -5.887935 20.382863 21.217435 -1.532574 0.281407 0.015426 -0.018093 187566.000000 1 0 0
-6.525637 -8.525535 13.574863 17.307385 0.917498 0.669166 0.027063 -0.006613 222672.000000 1 0 0
-12.919237 10.297965 6.438463 17.731570 -0.672972 1.199196 0.004844 -0.018757 122694.000000 1 0 0
-19.704837 2.425965 7.518363 21.229501 -0.122499 1.208795 0.044288 -0.021144 36342.500000 1 0 0
-16.723937 9.085865 6.126263 19.994352 -0.497673 1.259388 0.059587 -0.020431 136336.000000 1 0 0
-12.683537 7.656065 14.177063 20.505525 -0.543079 0.807402 0.007792 -0.013086 118647.000000 1 0 0
-16.522237 8.938365 10.525863 21.533056 -0.495899 1.060056 0.032850 -0.025638 266226.000000 1 0 0
1.901363 11.288365 14.535463 18.501947 1.403927 0.667102 -0.010274 -0.020253 247034.000000 1 0 0
1.607363 14.487665 12.120663 18.957493 1.460301 0.877131 0.002007 -0.038960 391274.000000 1 0 0
8.407763 4.957565 16.674163 19.320860 0.532768 0.529592 0.022019 -0.006888 14096.500000 1 0 0
-0.144937 13.051765 13.724463 18.940181 -1.559692 0.760311 -0.001789 0.012484 282304.000000 1 0 0
3.488863 13.481365 14.914063 20.404623 1.317561 0.751133 0.007817 0.012594 177707.000000 1 0 0
-3.565537 -4.589035 -13.963037 15.124110 0.910257 2.747201 0.005481 -0.007090 114128.000000 1 0 0
5.546463 -11.809835 16.917963 21.364759 -1.131724 0.656943 -0.009643 0.013205 197384.000000 1 0 0
8.834063 -13.760135 7.071663 17.815454 -1.000063 1.162616 0.013636 -0.006304 397055.000000 1 0 0
-0.391737 15.338665 0.447863 15.350202 -1.545263 1.541616 -0.002214 0.004605 -393819.000000 1 0 0
-14.387937 7.980965 8.283963 18.420982 -0.506443 1.104364 0.028432 -0.011855 -56991.300000 1 0 0
-16.355637 -9.766135 4.464163 19.565608 0.538293 1.340605 0.045275 -0.000102 386854.000000 1 0 0
8.457763 -10.938435 11.428163 17.938395 -0.912602 0.880094 -0.009602 0.009007 -90438.200000 1 0 0
-26.287407 5.577965 31.222216 41.194274 -0.209090 0.710668 0.072005 -0.035619 73778.300000 0 0 1
-24.999237 5.087265 30.891096 40.063723 -0.200756 0.690309 0.058815 -0.036012 221451.000000 0 0 1
-24.221037 4.836065 32.060826 40.471505 -0.197072 0.656419 0.055992 -0.022961 -356538.000000 0 0 1
-22.808837 4.479065 31.589086 39.219579 -0.193907 0.634376 0.040033 -0.027494 -682784.000000 0 0 1
-22.563537 3.193165 31.167056 38.609518 -0.140585 0.631339 0.048546 -0.036787 -214923.000000 0 0 1
-21.189037 2.895865 31.067366 37.716608 -0.135827 0.602881 0.040164 -0.025582 118714.000000 0 0 1
-20.839537 1.685665 32.032896 38.252244 -0.080712 0.578265 0.036474 -0.024467 -57920.400000 0 0 1
-21.464937 0.461065 31.684046 38.273161 -0.021477 0.595551 0.038740 -0.018613 104237.000000 0 0 1
-21.311637 -0.469535 32.733312 39.062463 0.022028 0.577237 0.033719 -0.021296 -61199.400000 0 0 1
-21.991637 -1.820435 32.492871 39.277636 0.082590 0.596581 0.047238 -0.031706 -177742.000000 0 0 1
-21.192537 -2.663535 31.671376 38.200708 0.125027 0.593339 0.069007 -0.031183 243814.000000 0 0 1
-21.435737 -4.052535 31.934436 38.674566 0.186850 0.599316 0.073631 -0.035541 496472.000000 0 0 1
-22.842037 -4.769935 31.774886 39.422764 0.205864 0.633427 0.063222 -0.021869 1520030.000000 0 0 1
-23.952237 -4.309935 32.565376 40.654506 0.178034 0.641787 0.057148 -0.011382 795939.000000 0 0 1
-23.883137 -4.737735 33.925889 41.759026 0.195829 0.622505 0.047812 -0.015017 -1242240.000000 0 0 1
-25.124097 -4.414535 -33.593627 42.181040 0.173934 2.492141 0.043779 -0.004484 -667892.000000 0 0 1
-25.084927 -4.967935 -32.312207 41.206949 0.195515 2.472113 0.044609 -0.012668 519652.000000 0 0 1
-26.216377 -4.528735 -31.561917 41.279080 0.171056 2.441214 0.043160 -0.008458 24830.900000 0 0 1
-26.273867 -5.022635 -30.070597 40.246537 0.188886 2.414575 0.036108 -0.007595 -981038.000000 0 0 1
-26.531077 -6.429635 -30.024727 40.579829 0.237760 2.403707 0.033501 0.004847 491288.000000 0 0 1
-26.471357 -6.863535 -28.688737 39.634385 0.253695 2.380140 0.019983 0.001414 -98060.500000 0 0 1
-26.587197 -8.403835 -28.502407 39.873434 0.306148 2.367166 0.023297 0.009226 462592.000000 0 0 1
-27.921237 -8.904435 -28.417557 40.822077 0.308716 2.340792 0.047821 0.003941 113618.000000 0 0 1
-27.978277 -10.320335 -28.442397 41.209990 0.353385 2.332537 0.045662 0.014662 -139140.000000 0 0 1
-29.358327 -10.920035 -28.183417 42.136250 0.356100 2.303476 0.075118 0.010887 25172.300000 0 0 1
-29.712397 -11.018935 -26.796047 41.500260 0.355130 2.272715 0.082433 0.007635 -985238.000000 0 0 1
-30.984227 -11.510535 -26.566907 42.406548 0.355696 2.247827 0.084291 0.005779 -608637.000000 0 0 1
-31.312327 -12.302535 -25.215537 42.043281 0.374369 2.213987 0.097961 0.002813 34785.400000 0 0 1
-31.350897 -11.589635 -23.979337 41.136444 0.354094 2.193117 0.110076 0.003270 78760.700000 0 0 1
-31.069977 -12.286335 -22.825837 40.463766 0.376570 2.170146 0.113027 -0.003253 -586738.000000 0 0 1
-30.640077 -11.274035 -21.752937 39.231473 0.352576 2.158530 0.124085 -0.014399 30222.700000 0 0 1
-30.393557 -11.923535 -20.488037 38.544762 0.373855 2.131213 0.123363 -0.019619 474156.000000 0 0 1
-29.191607 -12.687235 -20.411537 37.811991 0.409990 2.141015 0.112237 -0.034015 -171830.000000 0 0 1
-28.961577 -13.189835 -18.936837 37.031723 0.427356 2.107572 0.132296 -0.046721 445.117000 0 0 1
-28.287197 -12.170235 -18.264637 35.803311 0.406299 2.106142 0.136444 -0.042985 45591.300000 0 0 1
-27.937897 -12.432535 -16.918137 34.947352 0.418693 2.076135 0.116871 -0.043764 -145969.000000 0 0 1
-27.522327 -11.249735 -16.112937 33.818069 0.388026 2.067420 0.120170 -0.039602 333722.000000 0 0 1
-26.195827 -10.754335 -16.335237 32.691238 0.389556 2.094028 0.121577 -0.039389 737406.000000 0 0 1
-26.015417 -9.407635 -15.905237 31.910533 0.346987 2.092586 0.107757 -0.034626 -1096590.000000 0 0 1
-24.585937 -8.970235 -16.013937 30.681910 0.349844 2.119913 0.102668 -0.034672 -668644.000000 0 0 1
-23.636737 -9.597135 -15.165437 29.678120 0.385691 2.107141 0.088151 -0.039603 666282.000000 0 0 1
-22.395237 -8.893235 -15.157637 28.467354 0.378007 2.132297 0.124356 -0.052709 236652.000000 0 0 1
-21.391237 -9.322435 -14.089237 27.258016 0.410988 2.114004 0.123761 -0.028518 -824263.000000 0 0 1
-20.669037 -10.415335 -14.436437 27.278178 0.466771 2.128489 0.107908 -0.023899 -592664.000000 0 0 1
-19.714337 -10.580335 -13.437137 26.098951 0.492561 2.111633 0.110417 -0.016906 447824.000000 0 0 1
-18.541837 -11.640235 -13.642337 25.795506 0.560597 2.128059 0.093298 -0.007770 725744.000000 0 0 1
-17.608937 -11.432535 -14.648137 25.599716 0.575845 2.179981 0.085932 -0.008315 -225708.000000 0 0 1
-18.079537 -11.601335 -15.950437 26.755879 0.570506 2.209490 0.074773 -0.021967 -283693.000000 0 0 1
-17.406637 -10.645335 -17.012337 26.565650 0.548882 2.265800 0.072375 -0.024758 134403.000000 0 0 1
-17.518337 -11.067935 -18.342537 27.673814 0.563468 2.295364 0.044091 -0.011853 149385.000000 0 0 1
-17.261137 -9.970335 -19.265137 27.721831 0.523799 2.339139 0.039327 -0.022416 -193052.000000 0 0 1
-17.780837 -10.357135 -20.685037 29.177032 0.527444 2.358804 0.031281 -0.014694 151145.000000 0 0 1
-19.153537 -10.035335 -20.833737 30.026830 0.482617 2.337601 0.036435 -0.030347 16446.200000 0 0 1
-19.623937 -10.844535 -21.860237 31.314099 0.504851 2.343531 0.028735 -0.009038 -250831.000000 0 0 1
-21.021337 -10.439535 -22.351137 32.410706 0.460937 2.331763 0.045781 -0.011865 -143555.000000 0 0 1
-20.990437 -9.248435 -23.102437 32.555408 0.415011 2.359775 0.039693 -0.016820 -806913.000000 0 0 1
-22.095637 -8.977335 -23.869337 33.742480 0.385921 2.356605 0.048479 -0.025083 -807712.000000 0 0 1
-21.722237 -7.972435 -24.967637 34.041125 0.351754 2.394187 0.032066 -0.028890 106175.000000 0 0 1
-20.915837 -8.544035 -25.993857 34.440578 0.387809 2.426062 0.042199 -0.025352 201113.000000 0 0 1
-20.654437 -7.589435 -27.032877 34.856588 0.352133 2.458375 0.025555 -0.035063 383099.000000 0 0 1
-19.470337 -7.960035 -27.987667 35.010937 0.388094 2.497089 0.052933 -0.043017 224198.000000 0 0 1
-19.752937 -9.064735 -28.804777 36.084112 0.430235 2.495210 0.051407 -0.032903 426012.000000 0 0 1
-18.584437 -9.570135 -29.443657 36.109524 0.475539 2.524214 0.020081 -0.028430 116850.000000 0 0 1
-18.797337 -10.874435 -30.270027 37.254097 0.524468 2.519274 0.025882 -0.021322 -228839.000000 0 0 1
-19.289037 -10.674935 -31.600927 38.531024 0.505465 2.532456 0.034009 -0.021690 357762.000000 0 0 1
-19.475337 -11.859335 -32.303937 39.540826 0.546968 2.526945 0.011192 -0.006624 159787.000000 0 0 1
-19.996837 -11.609335 -33.778177 40.934281 0.526002 2.541318 0.010926 -0.009954 97065.700000 0 0 1
-19.014337 -10.931935 33.803832 40.295797 0.521783 0.575552 0.021413 -0.017101 -70329.000000 0 0 1
-19.318137 -10.935535 32.397922 39.273422 0.515102 0.600714 0.036117 -0.021057 -207881.000000 0 0 1
-18.875237 -12.111435 31.536866 38.698001 0.570488 0.618157 0.036006 -0.019657 569177.000000 0 0 1
-17.495737 -12.002135 31.122176 37.666190 0.601270 0.598356 0.038548 -0.023346 967080.000000 0 0 1
-16.968837 -13.072635 30.378956 37.171443 0.656424 0.614146 0.044848 -0.022108 -82465.400000 0 0 1
-17.128537 -14.560835 30.809066 38.139261 0.704548 0.630378 0.039673 -0.014664 -1586470.000000 0 0 1
-18.369337 -15.075535 30.458946 38.632262 0.687230 0.662539 0.031143 -0.016168 -428108.000000 0 0 1
-18.764937 -16.337835 31.026356 39.770371 0.716365 0.675911 0.043668 -0.017913 143611.000000 0 0 1
-19.113537 -16.394735 32.544993 41.149619 0.708979 0.658528 0.011841 -0.022345 380517.000000 0 0 1
-17.922237 -16.156835 33.302803 41.125741 0.733641 0.627019 0.023723 -0.016266 499664.000000 0 0 1
-18.251337 -15.725635 -33.714307 41.437440 0.711199 2.521147 0.012806 -0.010264 608706.000000 0 0 1
-17.023337 -15.178035 -32.901307 40.033271 0.728156 2.535445 0.010937 -0.009225 425773.000000 0 0 1
-16.727037 -13.844035 -33.337177 39.784651 0.691371 2.564295 0.018225 -0.011233 -17735.000000 0 0 1
-15.628337 -13.253335 -32.643197 38.541849 0.703351 2.581027 0.027240 -0.013413 226183.000000 0 0 1
-15.814837 -12.944235 -31.128547 37.237733 0.685912 2.560641 0.018479 -0.012641 -330924.000000 0 0 1
-15.897537 -14.118635 -30.374137 37.076350 0.726203 2.530867 0.014928 -0.014115 -189606.000000 0 0 1
-16.186737 -13.763535 -29.048127 35.989430 0.704666 2.510070 0.008652 -0.004970 -225197.000000 0 0 1
-16.430337 -15.055935 -28.161767 35.912704 0.741775 2.472158 0.012792 0.001137 169292.000000 0 0 1
-15.284737 -15.750635 -27.699027 35.340371 0.800409 2.471523 0.036367 -0.018499 74427.100000 0 0 1
-14.577437 -16.375635 -28.764887 36.167414 0.843427 2.490342 0.035446 -0.018427 -1007920.000000 0 0 1
-13.256437 -16.985635 -28.373867 35.627535 0.908090 2.492120 0.055521 -0.013017 -931351.000000 0 0 1
-12.135837 -16.136435 -28.427747 34.868322 0.925967 2.524024 0.041083 -0.014455 -471607.000000 0 0 1
-11.179837 -16.690535 -27.540077 34.088393 0.980606 2.511379 0.062432 -0.023571 987744.000000 0 0 1
-9.723337 -16.121035 -27.755317 33.537869 1.028067 2.545582 0.051479 -0.027228 896060.000000 0 0 1
-9.692537 -14.753935 -27.439267 32.627247 0.989554 2.569911 0.054231 -0.021442 -1263820.000000 0 0 1
-8.457037 -14.210135 -27.183247 31.817893 1.033957 2.595073 0.068050 -0.028096 -917215.000000 0 0 1
-8.392937 -12.692035 -27.524517 31.450408 0.986535 2.636588 0.067867 -0.036052 -113890.000000 0 0 1
-8.059237 -12.448035 -28.870057 32.455894 0.996230 2.667082 0.085935 -0.029648 222159.000000 0 0 1
-7.855937 -11.058335 -29.084997 32.092672 0.953119 2.705198 0.070405 -0.029964 -346629.000000 0 0 1
-6.974537 -10.736135 -30.288927 32.883550 0.994680 2.741684 0.067837 -0.014864 896676.000000 0 0 1
-5.566337 -11.013835 -30.014837 32.452721 1.102842 2.751513 0.067962 -0.016877 2689620.000000 0 0 1
-4.609537 -10.737135 -31.113837 33.235595 1.165282 2.782341 0.066595 -0.011231 1050890.000000 0 0 1
-4.368337 -9.235835 -31.441567 33.059872 1.129000 2.827410 0.052406 -0.013832 -723058.000000 0 0 1
-3.212337 -8.823135 -32.131797 33.475651 1.221633 2.857284 0.052561 -0.018734 -30033.100000 0 0 1
-3.277037 -7.449635 -32.395297 33.401966 1.156380 2.895460 0.044890 -0.021727 445452.000000 0 0 1
-1.919037 -6.831735 -32.852707 33.610351 1.296953 2.928862 0.056888 -0.030235 504021.000000 0 0 1
-1.402937 -7.185535 -34.135000 34.911293 1.377977 2.930315 0.058558 -0.035466 -770381.000000 0 0 1
-0.317137 -6.376535 33.892937 34.489012 1.521102 0.186188 0.057137 -0.027071 -276365.000000 0 0 1
0.546963 -6.949235 32.741111 33.474936 -1.492250 0.209772 0.042485 -0.019771 304022.000000 0 0 1
-0.123937 -6.736635 31.499496 32.212045 1.552401 0.210726 0.028508 -0.013048 518871.000000 0 0 1
0.584963 -7.523235 30.564166 31.481891 -1.493198 0.242048 0.023194 -0.012820 113371.000000 0 0 1
0.253263 -7.226535 29.057556 29.943755 -1.535764 0.243896 0.027432 -0.006710 23216.300000 0 0 1
0.813163 -5.980035 28.707816 29.335315 -1.435646 0.207207 0.029505 -0.011079 177410.000000 0 0 1
0.671463 -5.759835 27.303286 27.912290 -1.454743 0.209277 0.027326 -0.007307 -1088910.000000 0 0 1
-0.475737 -4.828335 26.985876 27.418545 1.472583 0.177887 0.042010 -0.006424 -796875.000000 0 0 1
-1.711537 -5.459235 27.120016 27.716923 1.266989 0.207912 0.036159 -0.006533 -647735.000000 0 0 1
-2.759937 -4.497735 27.143856 27.652048 1.020416 0.192014 0.031680 -0.004363 1028250.000000 0 0 1
-4.180537 -5.110335 27.404716 28.188843 0.885143 0.236419 0.033656 -0.002131 923914.000000 0 0 1
-4.827137 -5.914335 26.363846 27.446912 0.886270 0.281861 0.018607 -0.000891 310718.000000 0 0 1
-6.170937 -6.128935 26.763386 28.141128 0.781983 0.314207 0.019910 -0.005764 487290.000000 0 0 1
-6.399137 -7.700435 26.786456 28.596501 0.877431 0.357702 0.026694 -0.012713 201578.000000 0 0 1
-5.496837 -8.299435 27.693426 29.428246 0.985813 0.345078 0.030967 -0.014481 -137435.000000 0 0 1
-5.653437 -9.685935 27.771456 29.950500 1.042467 0.383809 0.028230 -0.020228 243742.000000 0 0 1
-4.700337 -10.470935 28.725526 30.933630 1.148863 0.380126 0.028164 -0.023830 23387.300000 0 0 1
-5.136337 -11.798135 28.821566 31.563596 1.160191 0.419907 0.058013 -0.034556 327300.000000 0 0 1
-4.511337 -12.540035 29.890896 32.727210 1.225458 0.419397 0.064782 -0.029607 -16615.600000 0 0 1
-4.554437 -14.057835 29.671296 33.147419 1.257489 0.462070 0.074327 -0.042273 -95850.900000 0 0 1
-5.916937 -14.419735 29.610336 33.462081 1.181411 0.484534 0.096693 -0.042526 -24006.300000 0 0 1
-6.126337 -15.815435 29.577916 34.095646 1.201230 0.520645 0.084146 -0.036541 120969.000000 0 0 1
-6.164037 -16.525735 30.921406 35.598154 1.213784 0.518378 0.113965 -0.038656 191397.000000 0 0 1
-7.400937 -16.231235 31.554136 36.247625 1.142990 0.514547 0.106118 -0.042316 149921.000000 0 0 1
-7.375237 -16.713835 32.874859 37.609875 1.155230 0.507213 0.104549 -0.037413 120224.000000 0 0 1
-8.780437 -16.996635 33.497537 38.575467 1.093958 0.518903 0.108051 -0.037851 733325.000000 0 0 1
-9.442437 -18.074735 32.829808 38.647793 1.089381 0.555833 0.098710 -0.032630 483585.000000 0 0 1
-10.298937 -17.783135 31.712566 37.788818 1.045856 0.574977 0.094754 -0.036386 -210830.000000 0 0 1
-11.144637 -19.016335 31.428696 38.387326 1.040693 0.611608 0.080734 -0.033737 -488060.000000 0 0 1
-12.202437 -19.368335 32.282380 39.575041 1.008595 0.616814 0.082446 -0.033844 -17630.800000 0 0 1
-12.610737 -20.733635 32.131036 40.265590 1.024350 0.646864 0.063135 -0.028386 -396652.000000 0 0 1
-11.903937 -21.764835 33.012152 41.294236 1.070310 0.644438 0.054092 -0.021018 50322.300000 0 0 1
-10.532237 -21.995135 32.638601 40.743002 1.124216 0.641691 0.048593 -0.024409 921534.000000 0 0 1
-9.763337 -22.518635 33.730859 41.715494 1.161692 0.629039 0.045578 -0.030445 150634.000000 0 0 1
-10.186937 -23.945035 -34.132600 42.920540 1.168561 2.490218 0.044757 -0.012082 -402239.000000 0 0 1
-9.888337 -24.893635 33.179192 42.641893 1.192686 0.679178 0.053004 -0.014874 -163282.000000 0 0 1
-10.253037 -26.168845 33.520717 43.744390 1.197376 0.697756 0.063809 -0.019107 -947615.000000 0 0 1
-9.682737 -27.140955 32.462043 43.407039 1.228114 0.725976 0.050031 -0.009016 963694.000000 0 0 1
-8.254237 -27.147735 32.309752 43.000604 1.275629 0.720647 0.069988 -0.016573 792046.000000 0 0 1
-7.594137 -27.764405 33.424049 44.110091 1.303806 0.710951 0.060774 -0.013105 -644327.000000 0 0 1
-6.082237 -27.485725 33.539434 43.787581 1.353019 0.698267 0.065829 -0.023464 187237.000000 0 0 1
-5.924937 -26.189905 -34.124596 43.422391 1.348312 2.474907 0.072356 -0.017126 -73483.500000 0 0 1
-5.489137 -25.270165 33.205929 42.087356 1.356901 0.661655 0.094902 -0.018699 -180619.000000 0 0 1
-5.020437 -23.976935 33.845863 41.780864 1.364392 0.626507 0.106540 -0.024852 890399.000000 0 0 1
-3.786737 -24.219035 -33.738457 41.703531 1.415698 2.513257 0.115479 -0.030994 767385.000000 0 0 1
-3.194837 -23.058735 -33.242967 40.583335 1.433121 2.530686 0.098449 -0.034893 -27511.900000 0 0 1
34.879862 -15.275635 2.459463 38.157552 -0.412788 1.506296 0.098514 -0.041588 -132644.000000 0 0 1
35.439302 -15.966835 3.590263 39.035547 -0.423303 1.478692 0.094493 -0.044108 392880.000000 0 0 1
34.477952 -16.598635 4.409963 38.518718 -0.448680 1.456056 0.090086 -0.044331 -83951.300000 0 0 1
35.026192 -17.005635 5.838063 39.371420 -0.451990 1.421966 0.081008 -0.029445 146579.000000 0 0 1
36.066912 -17.953835 5.664763 40.684787 -0.461880 1.431107 0.091291 -0.032735 231364.000000 0 0 1
-35.847638 -17.742535 6.624563 40.543008 0.459594 1.406664 0.081071 -0.025029 977888.000000 0 0 1
-34.480594 -18.503435 6.422363 39.655204 0.492523 1.408125 0.077305 -0.025252 928025.000000 0 0 1
-34.655501 -19.881835 6.627063 40.499495 0.520856 1.406424 0.073264 -0.027864 67972.700000 0 0 1
-33.395977 -20.433935 6.923963 39.759002 0.549100 1.395756 0.052437 -0.018147 -6375.440000 0 0 1
-33.394087 -21.995635 7.072363 40.607774 0.582445 1.395741 0.063562 -0.018361 -183581.000000 0 0 1
-33.363787 -22.652135 5.811863 40.743579 0.596454 1.427663 0.076881 -0.019074 157529.000000 0 0 1
-33.486377 -24.059735 5.988563 41.666187 0.623030 1.426570 0.087187 -0.022697 -101496.000000 0 0 1
-32.835177 -24.800635 4.855763 41.434270 0.646889 1.453334 0.074421 -0.016735 -103594.000000 0 0 1
-33.525287 -24.541935 3.644863 41.707751 0.631909 1.483294 0.072145 -0.017797 203904.000000 0 0 1
-32.875797 -25.210205 2.583063 41.509573 0.654187 1.508528 0.063675 -0.009007 28624.300000 0 0 1
-33.636567 -25.079905 1.232963 41.975474 0.640688 1.541419 0.065711 -0.010728 -940172.000000 0 0 1
-34.846839 -25.758715 1.141363 43.348775 0.636552 1.544464 0.066828 -0.010638 -733286.000000 0 0 1
-35.536400 -25.428135 -0.000137 43.696977 0.621087 1.570799 0.062478 -0.014531 -290268.000000 0 0 1
-36.396307 -24.134535 0.049563 43.671151 0.585532 1.569661 0.078806 -0.019010 395808.000000 0 0 1
35.114872 -24.411335 0.152163 42.766701 -0.607487 1.567238 0.050136 -0.008152 862358.000000 0 0 1
34.497782 -23.222935 0.603063 41.590448 -0.592493 1.556296 0.063845 -0.013086 -253730.000000 0 0 1
32.968272 -23.320935 0.620263 40.387593 -0.615659 1.555438 0.035642 -0.010626 -151530.000000 0 0 1
32.443012 -23.346835 -0.685737 39.976168 -0.623777 1.587951 0.037198 -0.012028 -1060870.000000 0 0 1
31.070342 -23.229935 -0.785337 38.802227 -0.641999 1.591037 0.031846 -0.006407 -774390.000000 0 0 1
30.617842 -23.513835 -2.181837 38.666692 -0.654908 1.627253 0.027462 -0.007556 -51796.300000 0 0 1
31.082022 -22.396635 -2.914937 38.421325 -0.624395 1.646737 0.048437 -0.014361 336871.000000 0 0 1
30.514202 -22.273635 -4.231037 38.014905 -0.630541 1.682327 0.056446 -0.033748 151493.000000 0 0 1
30.884142 -20.940635 -4.884937 37.632473 -0.595834 1.700970 0.060854 -0.037128 82047.300000 0 0 1
30.188462 -19.938035 -4.187837 36.419864 -0.583688 1.686039 0.068948 -0.028496 120407.000000 0 0 1
30.481362 -18.586035 -4.630737 35.999970 -0.547558 1.699785 0.077959 -0.035740 159405.000000 0 0 1
29.668232 -17.534835 -3.794637 34.670935 -0.533798 1.680463 0.085699 -0.028337 34520.200000 0 0 1
29.954832 -17.243535 -2.437937 34.649315 -0.522324 1.641215 0.081635 -0.029626 -161840.000000 0 0 1
30.224082 -18.314035 -1.485237 35.370962 -0.544777 1.612799 0.050060 -0.011412 20230.500000 0 0 1
29.137312 -19.393335 -1.098837 35.018450 -0.587253 1.602180 0.043078 -0.010672 252398.000000 0 0 1
28.290172 -19.120235 -0.001337 34.145530 -0.594341 1.570835 0.049139 -0.001575 160311.000000 0 0 1
27.526042 -20.288535 0.276463 34.196258 -0.635172 1.562712 0.049256 -0.002799 -468952.000000 0 0 1
26.518442 -20.060835 1.404563 33.281191 -0.647639 1.528581 0.051019 -0.000345 -1086470.000000 0 0 1
25.709942 -21.173935 1.725963 33.351396 -0.688949 1.519022 0.043656 0.000860 771273.000000 0 0 1
24.808242 -20.863635 2.853363 32.540464 -0.699244 1.482997 0.045091 -0.002465 779978.000000 0 0 1
23.454842 -20.281535 2.385663 31.099223 -0.712970 1.494010 0.038233 -0.002339 -685534.000000 0 0 1
23.455842 -18.961835 1.916963 30.222549 -0.679845 1.507325 0.064558 -0.011264 117048.000000 0 0 1
23.731442 -18.014835 2.914463 29.936762 -0.649308 1.473288 0.073943 -0.011264 -526196.000000 0 0 1
23.404442 -16.609435 2.470363 28.805276 -0.617187 1.484930 0.084589 -0.004265 815640.000000 0 0 1
21.995742 -16.517135 2.158263 27.591421 -0.644092 1.492494 0.073350 -0.002729 815272.000000 0 0 1
21.769242 -15.201835 1.676263 26.604615 -0.609596 1.507748 0.085186 -0.014504 783134.000000 0 0 1
20.314742 -15.128435 1.094363 25.352631 -0.640102 1.527617 0.058374 0.000064 894395.000000 0 0 1
19.278042 -14.958035 2.066563 24.487883 -0.659879 1.486305 0.053448 -0.002768 1517010.000000 0 1 0
18.153142 -14.132235 1.652163 23.064828 -0.661493 1.499104 0.049755 -0.004604 878420.000000 0 1 0
18.448442 -12.656835 2.021363 22.463891 -0.601312 1.480692 0.059135 -0.010128 -520223.000000 0 1 0
19.522642 -12.078635 1.344563 22.996409 -0.554055 1.512295 0.068532 -0.012432 39790.600000 0 1 0
19.779642 -10.786935 1.869163 22.607211 -0.499270 1.488022 0.073055 -0.010239 -71999.600000 0 1 0
20.669142 -9.911835 0.962063 22.943049 -0.447152 1.528851 0.075529 -0.019272 -250470.000000 0 1 0
20.043742 -9.583435 -0.255337 22.218439 -0.445996 1.582289 0.084463 -0.015117 532975.000000 0 1 0
20.945742 -8.944335 -1.152737 22.804694 -0.403584 1.621366 0.084507 -0.012792 -257285.000000 0 1 0
20.418542 -8.748235 -2.584937 22.363595 -0.404785 1.686642 0.081619 -0.009340 -270010.000000 0 1 0
21.238342 -7.959935 -3.435237 22.939673 -0.358587 1.721113 0.094326 -0.020176 451106.000000 0 1 0
22.374242 -8.599735 -4.001037 24.301655 -0.366950 1.736190 0.094117 -0.023238 -522926.000000 0 1 0
22.219442 -9.742835 -5.040037 24.779597 -0.413235 1.775620 0.093426 -0.023154 -384005.000000 0 1 0
21.656642 -9.458635 -6.324537 24.463763 -0.411784 1.832293 0.079798 -0.027092 1642260.000000 0 1 0
20.217342 -9.269535 -6.206637 23.090854 -0.429895 1.842935 0.069532 -0.015909 1034110.000000 0 1 0
19.452442 -9.364035 -7.572537 22.878505 -0.448642 1.908148 0.058749 -0.010148 -102808.000000 0 1 0
19.492042 -10.558335 -8.322737 23.678811 -0.496429 1.929953 0.061549 -0.008556 269525.000000 0 1 0
20.738942 -10.881135 -8.895037 25.052435 -0.483190 1.933771 0.063264 -0.013232 -264431.000000 0 0 1
20.808242 -12.235235 -9.653037 25.997405 -0.531549 1.951213 0.067247 -0.019874 -677175.000000 0 0 1
19.770642 -12.244435 -10.570137 25.544711 -0.554507 1.997409 0.078191 -0.021143 -220271.000000 0 0 1
19.680242 -13.487835 -11.168837 26.343435 -0.600825 2.008621 0.066718 -0.021494 -152532.000000 0 0 1
18.335642 -13.633135 -11.907037 25.765009 -0.639349 2.051203 0.077064 -0.026133 51755.800000 0 0 1
18.136442 -14.992235 -12.340637 26.570453 -0.690773 2.053809 0.069448 -0.030844 -711693.000000 0 0 1
17.013342 -15.110035 -13.117137 26.264544 -0.726217 2.093730 0.084992 -0.033107 -1005770.000000 0 0 1
16.670942 -16.503035 -13.560837 27.095512 -0.780337 2.094953 0.070117 -0.027476 -556569.000000 0 0 1
16.222942 -17.332735 -12.512037 26.835771 -0.818459 2.055837 0.062547 -0.030580 186515.000000 0 0 1
16.190342 -18.612835 -13.054137 27.910129 -0.854892 2.057506 0.057352 -0.030505 -520405.000000 0 0 1
15.310742 -19.550835 -12.176437 27.657180 -0.906430 2.026688 0.054137 -0.027780 -41126.400000 0 0 1
13.953342 -19.324035 -12.481237 26.905304 -0.945410 2.053183 0.039899 -0.024148 -538269.000000 0 0 1
13.147842 -20.120935 -11.670537 26.719267 -0.992006 2.022816 0.025074 -0.009773 532192.000000 0 0 1
11.627242 -20.044635 -12.013937 26.102008 -1.045162 2.049094 0.018025 -0.011158 894094.000000 0 0 1
10.749742 -20.730635 -11.140937 25.873474 -1.092424 2.015946 0.014338 -0.009297 201145.000000 0 0 1
9.380042 -20.734835 -11.502837 25.499683 -1.145964 2.038791 0.006031 0.000374 631179.000000 0 0 1
8.458342 -21.486435 -10.502737 25.367655 -1.195768 1.997663 0.006045 0.001540 -31672.100000 0 0 1
8.487342 -22.906135 -10.619737 26.636531 -1.215953 1.980885 0.023355 -0.005138 -153086.000000 0 0 1
7.667842 -23.497735 -9.639237 26.530251 -1.255369 1.942636 0.028548 -0.017184 24750.500000 0 0 1
7.797942 -25.013035 -9.524037 27.877717 -1.268590 1.919454 0.039510 -0.014864 828535.000000 0 0 1
9.043442 -25.483965 -8.991737 28.496801 -1.229791 1.891817 0.029985 -0.010862 62021.700000 0 0 1
9.343242 -26.844195 -9.255837 29.892766 -1.235856 1.885605 0.038045 -0.006245 592017.000000 0 0 1
10.871442 -27.099075 -9.088637 30.580246 -1.189278 1.872562 0.031790 0.004280 562954.000000 0 0 1
11.146042 -27.130705 -7.697437 30.324247 -1.180991 1.827442 0.032869 -0.007995 331529.000000 0 0 1
12.491142 -27.497885 -7.373337 31.089040 -1.144407 1.810246 0.036436 -0.002567 313236.000000 0 0 1
12.694242 -27.728765 -5.834437 31.049458 -1.141474 1.759828 0.034800 -0.008325 295278.000000 0 0 1
12.131642 -28.960645 -5.309137 31.844664 -1.174103 1.738298 0.042648 -0.009473 421568.000000 0 0 1
10.720542 -29.109445 -5.332937 31.475864 -1.217927 1.741047 0.044364 -0.016275 13914.600000 0 0 1
10.149142 -30.220485 -4.433037 32.185938 -1.246795 1.708968 0.058275 -0.028472 51342.900000 0 0 1
10.421042 -31.570435 -4.895037 33.604343 -1.251969 1.716983 0.070906 -0.025008 244301.000000 0 0 1
9.598842 -31.954445 -6.018737 33.903532 -1.278980 1.749268 0.083301 -0.020822 405782.000000 0 0 1
9.857742 -33.395095 -6.391237 35.401347 -1.283762 1.752328 0.084035 -0.024974 -203906.000000 0 0 1
9.341642 34.090758 -5.357837 35.751259 1.303339 1.721227 0.078071 -0.020733 -82500.200000 0 0 1
9.677742 32.763540 -5.541337 34.609459 1.283582 1.731599 0.080970 -0.020521 24757.900000 0 0 1
9.222642 31.843980 -4.385337 33.441402 1.288890 1.702310 0.066229 -0.017768 1243220.000000 0 0 1
7.786042 31.698110 -4.365637 32.931010 1.329934 1.703757 0.063796 -0.017290 371880.000000 0 0 1
7.460142 30.799600 -3.332637 31.864958 1.333158 1.675574 0.043481 -0.011123 342136.000000 0 0 1
6.079242 30.109090 -3.538837 30.919862 1.371568 1.685500 0.048928 -0.015125 300095.000000 0 0 1
5.907442 29.298630 -4.756737 30.264404 1.371835 1.728623 0.054225 -0.015394 -39364.200000 0 0 1
5.613142 30.127000 -5.863837 31.201412 1.386592 1.759856 0.043400 -0.018715 -473680.000000 0 0 1
5.785942 29.406620 -7.198437 30.822783 1.376521 1.806516 0.059823 -0.024267 267888.000000 0 0 1
4.846142 28.364070 -7.447037 29.723121 1.401575 1.824042 0.056808 -0.028529 139542.000000 0 0 1
5.322842 27.198160 -6.913237 28.563358 1.377533 1.815256 0.046666 -0.023719 -146375.000000 0 0 1
4.488342 25.929760 -7.287737 27.305838 1.399399 1.840964 0.042143 -0.023877 212340.000000 0 0 1
3.108042 25.954440 -6.998337 27.060481 1.451614 1.832388 0.026424 -0.024573 -263379.000000 0 0 1
2.237842 26.476580 -8.001137 27.749512 1.486475 1.863283 0.042607 -0.023689 337545.000000 0 0 1
1.784642 25.572840 -9.170337 27.225910 1.501123 1.914338 0.051740 -0.032272 -282777.000000 0 0 1
2.887242 25.108660 -9.895637 27.142303 1.456309 1.943982 0.046751 -0.034988 -253350.000000 0 0 1
2.454542 24.474050 -11.064637 26.970912 1.470839 1.993517 0.071772 -0.029569 -785141.000000 0 0 1
2.072642 22.930670 -10.941837 25.491867 1.480654 2.014435 0.076402 -0.032317 902297.000000 0 0 1
0.754942 22.640170 -10.429837 24.938499 1.537463 2.002284 0.077343 -0.034223 676248.000000 0 1 0
0.545742 21.236970 -10.324437 23.619922 1.545104 2.023176 0.049391 -0.032334 -236115.000000 0 1 0
-0.680358 20.841970 -9.482437 22.907798 -1.538164 1.997574 0.050872 -0.020424 1031580.000000 0 1 0
-1.967758 21.084770 -10.123037 23.471589 -1.477740 2.016717 0.068694 -0.025910 537273.000000 0 1 0
-2.908558 20.337970 -9.414437 22.599212 -1.428748 2.000479 0.053404 -0.019354 -407250.000000 0 1 0
-4.356258 20.927070 -9.319237 23.318821 -1.365563 1.981925 0.079423 -0.021106 498144.000000 0 1 0
-5.313858 20.034470 -8.854037 22.539100 -1.311530 1.974503 0.042653 -0.028300 -164037.000000 0 1 0
-5.777058 19.225570 -9.940637 22.401188 -1.278892 2.030581 0.033495 -0.029758 -1738730.000000 0 1 0
-6.624858 18.035870 -9.371937 21.377899 -1.218780 2.024607 0.027448 -0.031583 -1186640.000000 0 1 0
-7.778758 18.457870 -8.786837 21.872598 -1.171951 1.984199 0.045657 -0.024566 -1336940.000000 0 1 0
-8.840658 18.670570 -9.703737 22.823451 -1.128566 2.009941 0.053235 -0.029898 -1093980.000000 0 1 0
-10.044658 19.103270 -8.860737 23.331154 -1.086716 1.960356 0.068619 -0.038073 -628494.000000 0 1 0
-10.340958 18.013570 -8.024637 22.266992 -1.049665 1.939474 0.060949 -0.035710 -308816.000000 0 1 0
-11.128758 18.399670 -6.917537 22.588701 -1.026830 1.882036 0.067581 -0.021948 -78886.500000 0 1 0
-11.413158 17.255170 -5.914737 21.517090 -0.986425 1.849267 0.035062 -0.020729 -150481.000000 0 1 0
-12.402958 17.510770 -4.941837 22.020040 -0.954519 1.797149 0.061916 -0.019302 169509.000000 0 1 0
-12.989958 16.313770 -4.478037 21.329109 -0.898342 1.782320 0.051016 -0.017678 604389.000000 0 1 0
-14.167358 16.479670 -3.438737 22.002692 -0.860705 1.727727 0.039976 -0.027478 1108380.000000 0 1 0
-15.448558 16.686870 -4.047237 23.097396 -0.823913 1.746930 0.077249 -0.038182 477156.000000 0 1 0
-16.395458 16.967670 -3.022537 23.787572 -0.802548 1.698204 0.073663 -0.034601 529366.000000 0 1 0
-17.803558 17.206070 -3.661737 25.028460 -0.768333 1.717626 0.080413 -0.042469 396077.000000 0 0 1
-17.803058 18.457370 -4.283137 25.999397 -0.803441 1.736291 0.070585 -0.038008 -121526.000000 0 0 1
-19.097058 18.700570 -4.765337 27.149906 -0.774909 1.747230 0.067292 -0.040177 -127310.000000 0 0 1
-19.088358 19.620570 -6.033537 28.030978 -0.799146 1.787739 0.061766 -0.019925 14882.100000 0 0 1
-18.771958 21.011870 -5.877737 28.782510 -0.841641 1.776455 0.058618 -0.032912 155129.000000 0 0 1
-19.013358 21.661370 -7.063537 29.675180 -0.850409 1.811132 0.048425 -0.012533 -229904.000000 0 0 1
-18.882358 23.169070 -6.943837 30.684949 -0.886987 1.799068 0.060365 -0.017595 -188890.000000 0 0 1
-17.587358 23.682840 -6.775437 30.267121 -0.932035 1.796564 0.073465 -0.019181 -270962.000000 0 0 1
-17.132358 23.833940 -5.471737 29.858236 -0.947550 1.755095 0.079226 -0.023726 -607883.000000 0 0 1
-15.775258 24.522090 -5.458737 29.664616 -0.999140 1.755866 0.076947 -0.029132 -678548.000000 0 0 1
-15.450858 25.148580 -4.182437 29.810617 -1.019868 1.711561 0.077104 -0.035654 206715.000000 0 0 1
-14.142358 25.686390 -4.113737 29.609454 -1.067510 1.710180 0.081654 -0.036674 183183.000000 0 0 1
-13.971158 27.033260 -4.884137 30.819559 -1.093788 1.729943 0.088703 -0.021008 51022.500000 0 0 1
-14.829258 28.029430 -4.345137 32.006813 -1.084172 1.706973 0.089567 -0.016603 175016.000000 0 0 1
-14.516458 29.173240 -5.069137 32.977290 -1.109075 1.725124 0.057558 -0.008454 -2690.240000 0 0 1
-15.101258 30.515100 -4.593437 34.355771 -1.111255 1.704900 0.045893 0.001511 796188.000000 0 0 1
-16.483258 30.630780 -4.973337 35.137965 -1.077114 1.712811 0.071364 -0.005729 562205.000000 0 0 1
-17.144358 31.672640 -4.305837 36.271550 -1.074658 1.689788 0.063304 0.005496 -29448.500000 0 0 1
12.905763 -8.858335 18.579466 24.294554 -0.601530 0.700130 0.078604 -0.001944 133475.000000 0 1 0
13.564263 -10.001735 19.124966 25.490944 -0.635362 0.722333 0.076825 -0.006622 67030.500000 0 0 1
13.545163 -11.115035 18.229366 25.284881 -0.687171 0.765611 0.073769 -0.004602 25759.800000 0 0 1
14.189563 -12.335935 19.001566 26.731601 -0.715631 0.780122 0.093498 -0.030896 458409.000000 0 0 1
15.575463 -12.187535 19.352066 27.670083 -0.663968 0.796258 0.083281 -0.031916 1058900.000000 0 0 1
15.925263 -13.274535 20.210466 28.953241 -0.694867 0.798142 0.066675 -0.033682 -92927.700000 0 0 1
16.234363 -14.639635 19.515866 29.304308 -0.733791 0.841999 0.052307 -0.033949 -930628.000000 0 0 1
15.049063 -15.202935 19.015766 28.621720 -0.790484 0.844129 0.063815 -0.035754 163021.000000 0 0 1
15.275463 -16.403635 18.330866 28.955822 -0.820996 0.885292 0.065555 -0.040441 -363289.000000 0 0 1
14.872163 -16.358635 16.816066 27.777081 -0.832959 0.920536 0.060316 -0.037338 -82981.300000 0 0 1
13.498163 -16.263435 16.499466 26.812909 -0.878046 0.907960 0.082878 -0.034412 -47565.000000 0 0 1
13.316963 -16.098235 15.088166 25.771057 -0.879670 0.945337 0.108952 -0.042004 62740.100000 0 0 1
12.773463 -17.310235 14.228566 25.792589 -0.935075 0.986451 0.073945 -0.026479 -135943.000000 0 0 1
13.758763 -18.242235 13.932066 26.761635 -0.924596 1.023245 0.070047 -0.020288 -81556.800000 0 0 1
13.147963 -19.339735 13.349866 26.927925 -0.973728 1.052083 0.070808 -0.018929 335391.000000 0 0 1
14.281063 -20.299435 12.881866 27.963517 -0.957712 1.092050 0.072152 -0.022542 45679.800000 0 0 1
15.054963 -20.834935 13.902666 29.223800 -0.945074 1.075002 0.061638 -0.018657 -205210.000000 0 0 1
15.592163 -22.060135 13.459766 30.181623 -0.955519 1.108551 0.042955 -0.017456 -350077.000000 0 0 1
16.410863 -22.861635 14.466966 31.642753 -0.948201 1.095956 0.044897 -0.018008 610084.000000 0 0 1
17.737763 -22.412535 14.753766 32.165564 -0.901308 1.094285 0.011296 -0.014875 271751.000000 0 0 1
18.256563 -23.084035 15.822266 33.414351 -0.901645 1.077517 0.019699 -0.015275 377405.000000 0 0 1
19.759263 -22.833735 16.183966 34.259723 -0.857456 1.078795 0.003988 -0.007887 750387.000000 0 0 1
20.612363 -23.207635 15.138366 34.534532 -0.844555 1.117029 0.001877 -0.014757 -1368960.000000 0 0 1
21.897663 -22.769835 15.310466 35.105318 -0.804922 1.119503 0.002402 -0.006218 -308582.000000 0 0 1
23.076763 -23.673735 14.785766 36.216040 -0.798167 1.150243 0.004005 -0.009823 572922.000000 0 0 1
23.315363 -24.746535 15.725366 37.460436 -0.815167 1.137587 0.006131 -0.006880 753507.000000 0 0 1
24.432163 -25.546265 15.300066 38.517973 -0.807686 1.162312 0.011191 -0.009248 309025.000000 0 0 1
24.943963 -26.594095 16.291766 39.935808 -0.817405 1.150590 0.031969 -0.006710 -209899.000000 0 0 1
25.570063 -26.098405 17.460866 40.494897 -0.795623 1.124989 0.027509 0.007471 212907.000000 0 0 1
26.001663 -27.096605 18.366266 41.804691 -0.806016 1.115938 0.046558 -0.002368 40865.800000 0 0 1
26.256463 -26.449985 19.755366 42.181489 -0.789070 1.083383 0.037714 -0.010418 81316.300000 0 0 1
25.122563 -25.864765 20.376866 41.416734 -0.799954 1.056415 0.044728 -0.007157 46466.500000 0 0 1
25.329563 -25.382475 21.683666 41.905109 -0.786442 1.026932 0.040030 0.000054 561937.000000 0 0 1
23.997463 -25.264455 22.528166 41.493242 -0.811112 0.996867 0.042003 0.005257 678524.000000 0 0 1
23.721563 -26.607245 22.895066 42.365576 -0.842672 0.999864 0.048023 -0.003314 -483804.000000 0 0 1
22.405963 -26.754725 23.339246 41.982887 -0.873629 0.981324 0.057058 -0.009165 -626549.000000 0 0 1
21.984163 -28.204835 23.217966 42.636722 -0.908714 0.994940 0.089148 -0.013712 -671587.000000 0 0 1
22.790463 -29.041115 23.951226 44.005144 -0.905414 0.995263 0.090106 -0.012745 -62926.100000 0 0 1
22.806763 -30.342595 23.352996 44.566623 -0.926245 1.019253 0.104978 -0.018820 -142051.000000 0 0 1
23.877763 -31.297695 23.934616 46.071239 -0.919075 1.024515 0.080883 -0.015667 -283317.000000 0 0 1
23.726763 -31.600415 25.332266 46.938994 -0.926760 1.000734 0.078932 -0.015317 1043900.000000 0 0 1
24.939063 -31.973125 26.036656 48.188640 -0.908370 0.999995 0.090611 -0.013888 638436.000000 0 0 1
24.518263 -32.482905 27.478416 49.105474 -0.924227 0.976918 0.073597 -0.024626 191994.000000 0 0 1
24.012863 -33.775465 27.593316 49.787455 -0.952755 0.983368 0.077937 -0.019804 474987.000000 0 0 1
22.635263 -33.846175 27.222396 48.979358 -0.981340 0.981479 0.075309 -0.018367 162719.000000 0 0 1
21.952063 33.131325 27.726206 48.459470 0.985630 0.961668 0.102056 -0.032151 -17095.400000 0 0 1
21.489363 33.279173 29.040516 49.118710 0.997429 0.938212 0.077296 -0.016387 -163490.000000 0 0 1
20.810263 32.142940 29.450936 48.307279 0.996231 0.915167 0.085259 -0.024126 -152168.000000 0 0 1
20.586163 32.204810 30.995946 49.210655 1.002032 0.889420 0.069328 -0.030661 418999.000000 0 0 1
21.797463 32.206750 31.753256 50.206308 0.975813 0.886077 0.063386 -0.023131 494423.000000 0 0 1
21.578363 32.773868 33.009557 51.277510 0.988538 0.871416 0.038951 -0.019547 718281.000000 0 0 1
22.829163 32.581350 33.953461 52.302510 0.959613 0.864298 0.014439 -0.006437 745757.000000 0 0 1
23.153563 31.220230 -34.114995 51.716759 0.932680 2.291150 0.007825 -0.007253 680228.000000 0 0 1
24.464563 31.120590 -33.538677 51.883030 0.904575 2.273691 -0.000706 0.006263 652805.000000 0 0 1
24.784263 29.669440 -33.195957 50.955931 0.874871 2.280309 0.008750 0.008756 -227776.000000 0 0 1
24.991063 28.809080 34.001478 51.094195 0.856246 0.842678 0.020620 0.001475 365386.000000 0 0 1
24.376163 27.512600 34.076545 50.123362 0.845770 0.823233 0.037297 -0.010833 4913.070000 0 0 1
24.678363 26.696320 32.765767 48.941910 0.824657 0.837284 0.081907 -0.015206 -191525.000000 0 0 1
26.037463 26.357330 32.738553 49.441593 0.791503 0.847090 0.074563 -0.021283 -184862.000000 0 0 1
26.451163 25.782830 31.552466 48.579589 0.772604 0.863869 0.111760 -0.035670 -502338.000000 0 0 1
27.790563 25.093970 31.793076 49.120488 0.734452 0.866829 0.101608 -0.031832 -657866.000000 0 0 1
27.704263 23.956320 32.576360 49.016841 0.712976 0.843844 0.121288 -0.036488 -431741.000000 0 0 1
28.765363 23.767330 33.441034 50.106235 0.690542 0.840081 0.118443 -0.038466 -1374300.000000 0 0 1
28.399863 22.911170 -33.676377 49.654530 0.678834 2.316125 0.102566 -0.041160 675641.000000 0 0 1
27.386063 23.466710 -32.773787 48.731961 0.708478 2.308421 0.099065 -0.037893 970901.000000 0 0 1
26.050863 23.597750 -33.170687 48.330071 0.736029 2.327236 0.095198 -0.033451 -411756.000000 0 0 1
25.172563 22.320570 -33.325577 47.354618 0.725420 2.351451 0.098249 -0.038841 -474337.000000 0 0 1
24.883063 21.622370 -32.092427 46.006712 0.715398 2.342782 0.080291 -0.048530 299187.000000 0 0 1
24.361863 20.346070 -32.274287 45.266903 0.695816 2.364532 0.085290 -0.034511 -593673.000000 0 0 1
24.320863 19.512770 -30.994907 43.965178 0.676145 2.353202 0.076380 -0.041810 26871.500000 0 0 1
23.216463 19.701570 -30.090037 42.808485 0.703683 2.350261 0.054040 -0.034616 605658.000000 0 0 1
23.249663 18.813370 -29.021537 41.674205 0.680319 2.341153 0.062491 -0.030501 61707.500000 0 0 1
22.128063 19.019470 -27.962647 40.414119 0.709994 2.334918 0.066840 -0.033477 79979.600000 0 0 1
22.189763 18.215470 -26.804397 39.276770 0.687353 2.321904 0.062796 -0.024651 254648.000000 0 0 1
22.957563 18.805070 -25.743127 39.285989 0.686293 2.285343 0.041951 -0.007649 -141681.000000 0 0 1
23.162563 17.848570 -24.517537 38.159997 0.656542 2.268544 0.047547 -0.002686 320122.000000 0 0 1
24.221463 16.887970 -24.679537 38.483274 0.608866 2.266995 0.043973 -0.014549 709167.000000 0 0 1
24.112263 15.806370 -23.744437 37.350246 0.580255 2.259742 0.048700 -0.013750 -574154.000000 0 0 1
25.197963 14.745170 -23.825137 37.682815 0.529446 2.255256 0.078077 -0.021502 -279497.000000 0 0 1
26.400663 15.068970 -23.137337 38.202163 0.518657 2.221385 0.111894 -0.037562 -126073.000000 0 0 1
27.283663 14.005570 -23.089937 38.388793 0.474256 2.216144 0.110394 -0.043082 -332708.000000 0 0 1
26.996263 13.020070 -21.868737 37.102050 0.449381 2.201139 0.107638 -0.028705 -304575.000000 0 0 1
25.813463 12.266270 -21.972437 36.049747 0.443602 2.226230 0.098986 -0.015924 -353936.000000 0 0 1
25.442163 11.709770 -20.738237 34.849632 0.431346 2.208159 0.084933 -0.022918 -604797.000000 0 0 1
23.940363 11.399270 -20.736237 33.661192 0.444388 2.234487 0.087134 -0.019572 -95590.900000 0 0 1
23.131663 12.587770 -20.763937 33.536053 0.498363 2.238460 0.094100 -0.014111 43185.100000 0 0 1
21.840463 12.196470 -21.229937 32.809601 0.509296 2.274525 0.062609 -0.012907 278326.000000 0 0 1
20.924963 13.433170 -21.227637 32.694292 0.570709 2.277429 0.046926 -0.012001 -647736.000000 0 0 1
21.450263 14.423070 -22.062637 33.983800 0.591959 2.277342 0.038454 0.002102 464998.000000 0 0 1
20.665263 15.627470 -21.990637 33.983217 0.647470 2.274575 0.032035 0.002452 532598.000000 0 0 1
19.306463 15.647870 -22.741337 33.686255 0.681110 2.311886 0.039315 0.013879 -209544.000000 0 0 1
18.331763 14.793570 -22.227137 32.387480 0.678989 2.327169 0.031257 0.010199 -343619.000000 0 0 1
17.132063 14.986570 -22.957537 32.328832 0.718698 2.360473 0.048268 -0.008451 -469212.000000 0 0 1
16.107163 13.945170 -22.550737 31.023285 0.713581 2.384589 0.033506 0.000394 -462605.000000 0 0 1
14.872863 14.174070 -23.175737 30.971295 0.761345 2.416288 0.034116 -0.004032 654880.000000 0 0 1
13.782663 13.375070 -22.624737 29.677147 0.770391 2.437752 0.042171 -0.005889 804511.000000 0 0 1
12.411663 13.534170 -23.277237 29.648826 0.828635 2.473651 0.027979 -0.002751 -330460.000000 0 0 1
11.880963 14.838670 -23.160037 29.962155 0.895643 2.454316 0.046536 -0.002116 157639.000000 0 0 1
11.535363 15.397370 -24.411637 31.081693 0.927822 2.474142 0.033947 -0.002179 -564422.000000 0 0 1
11.244463 16.890070 -24.368737 31.710373 0.983433 2.447256 0.036198 -0.005247 -320948.000000 0 0 1
12.296963 17.798970 -24.132437 32.409770 0.966217 2.410737 0.037589 -0.007202 659575.000000 0 0 1
13.435463 17.806870 -25.036937 33.532738 0.924415 2.413796 0.037533 -0.006625 755292.000000 0 0 1
13.105163 18.052770 -26.550337 34.678065 0.942875 2.442806 0.037137 -0.015817 602.046000 0 0 1
14.132463 17.441170 -27.347047 35.380530 0.889810 2.454259 0.028213 -0.022369 573476.000000 0 0 1
13.644163 17.118570 -28.631757 36.041450 0.897864 2.488835 0.028889 -0.027845 -25154.100000 0 0 1
14.515363 17.739070 -29.804597 37.598994 0.885014 2.486016 0.043078 -0.031984 373987.000000 0 0 1
15.796263 17.121770 -29.804747 37.828559 0.825643 2.478172 0.020575 -0.034397 39655.500000 0 0 1
16.157163 16.633570 -31.066277 38.766521 0.799926 2.500376 0.034764 -0.036271 -360430.000000 0 0 1
17.435963 15.785170 -31.019127 38.927762 0.735748 2.492840 0.027163 -0.032600 173597.000000 0 0 1
18.620963 16.585470 -31.092017 39.856387 0.727647 2.465624 0.040330 -0.037585 574040.000000 0 0 1
19.783663 15.837870 -30.795627 39.882353 0.675078 2.453033 0.052489 -0.033284 1140740.000000 0 0 1
21.165863 16.496070 -31.196147 41.149893 0.662035 2.431206 0.054254 -0.032763 861595.000000 0 0 1
21.155163 16.714870 -32.589287 42.296447 0.668680 2.450417 0.059547 -0.038733 -367541.000000 0 0 1
22.134463 17.620770 -32.938677 43.420991 0.672345 2.431941 0.062749 -0.032641 -795540.000000 0 0 1
22.398463 17.655570 33.853160 44.265638 0.667535 0.700108 0.047673 -0.016661 68329.100000 0 0 1
23.390963 18.601070 33.480268 44.878339 0.671822 0.728727 0.077992 -0.022786 187358.000000 0 0 1
23.426163 18.839270 32.123206 43.995495 0.677295 0.752258 0.090741 -0.028173 -824875.000000 0 0 1
24.190363 20.057870 31.685376 44.625719 0.692275 0.781263 0.099244 -0.023808 -264624.000000 0 0 1
25.542363 19.786470 32.033046 45.497612 0.659093 0.789698 0.092609 -0.023908 -216664.000000 0 0 1
26.279963 20.944770 31.777966 46.251043 0.672901 0.813340 0.102099 -0.035526 329550.000000 0 0 1
27.787263 20.743070 31.411846 46.787936 0.641255 0.834745 0.081778 -0.031599 753544.000000 0 0 1
28.531763 20.167570 32.470556 47.698316 0.615306 0.822012 0.083221 -0.036953 66875.500000 0 0 1
29.919463 20.120270 32.190336 48.334431 0.592017 0.841974 0.049203 -0.024290 295165.000000 0 0 1
30.784063 19.228670 33.086436 49.113262 0.558334 0.831624 0.049673 -0.030240 65015.900000 0 0 1
31.093763 19.780770 -33.932047 50.094758 0.566588 2.314961 0.062419 -0.029961 627564.000000 0 0 1
29.971163 19.633970 -33.047597 48.743277 0.579949 2.315825 0.083110 -0.040335 339269.000000 0 0 1
30.307763 19.952570 -31.578327 48.102560 0.582210 2.286938 0.086993 -0.034982 -29187.500000 0 0 1
31.351163 19.137670 -31.097157 48.126698 0.548053 2.273328 0.094245 -0.042327 -167876.000000 0 0 1
31.645363 19.544670 -29.778697 47.646552 0.553272 2.245917 0.090456 -0.043830 888831.000000 0 0 1
33.121063 19.104570 -29.458077 48.267667 0.523194 2.227244 0.084344 -0.028444 1157960.000000 0 0 1
34.172063 19.686870 -30.207577 49.676961 0.522668 2.224436 0.056573 -0.025488 974844.000000 0 0 1
35.434563 19.783270 -29.513677 50.180107 0.509197 2.199572 0.036427 -0.008036 1317620.000000 0 0 1
36.436863 20.668670 -30.360727 51.735990 0.515988 2.197946 0.013422 -0.002962 482888.000000 0 0 1
-35.848417 20.034170 -31.447907 51.724731 -0.509618 2.224318 -0.010769 -0.003820 -71194.800000 0 0 1
-34.649917 20.658670 -31.820597 51.380422 -0.537629 2.238665 -0.008922 -0.001556 -28688.500000 0 0 1
-33.846317 20.006470 -32.979107 51.317185 -0.533848 2.268751 -0.010404 -0.005897 -177439.000000 0 0 1
-33.131417 18.841370 -32.625287 50.170682 -0.517076 2.278757 0.019560 -0.007077 99193.700000 0 0 1
-32.454117 18.268270 -33.725577 50.243546 -0.512690 2.306679 0.043299 -0.010001 -171436.000000 0 0 1
-31.339317 17.259170 -33.308797 48.882591 -0.503395 2.320476 0.040314 -0.005212 219637.000000 0 0 1
-31.867617 16.057470 -32.729977 48.421470 -0.466747 2.313035 0.037683 -0.002763 149084.000000 0 0 1
-31.543517 14.926770 -33.485107 48.363771 -0.441988 2.335550 0.046998 -0.001963 60244.900000 0 0 1
-32.348717 13.772870 -32.883947 48.140268 -0.402516 2.322776 0.037818 -0.009410 -70658.200000 0 0 1
-31.948217 12.487670 -33.414187 47.886724 -0.372613 2.343084 0.040527 -0.011923 -8770.300000 0 0 1
-32.679517 11.420470 -32.854267 47.726102 -0.336201 2.330066 0.043608 -0.010596 -154450.000000 0 0 1
-32.385717 10.065070 -33.564657 47.715055 -0.301324 2.351022 0.044538 -0.001546 -108529.000000 0 0 1
-32.993217 9.918270 33.483471 48.042348 -0.292021 0.799650 0.064433 -0.007540 105679.000000 0 0 1
-33.155717 8.532570 33.077922 47.605201 -0.251883 0.802601 0.054528 -0.014618 338510.000000 0 0 1
-31.976017 7.879270 32.260604 46.100923 -0.241599 0.795704 0.072074 -0.012084 1189120.000000 0 0 1
-30.712817 7.709070 32.899339 45.662603 -0.245924 0.766291 0.059857 -0.010643 -218626.000000 0 0 1
-29.742017 7.378470 31.986626 44.296429 -0.243173 0.763957 0.059573 -0.016644 -529229.000000 0 0 1
20.436363 -4.356035 -31.269807 37.608786 -0.210008 2.552508 0.050389 -0.020655 -109195.000000 0 0 1
21.776163 -4.574535 -31.663807 38.700443 -0.207060 2.529029 0.054087 -0.020004 459253.000000 0 0 1
22.775163 -3.610435 -31.331387 38.902431 -0.157217 2.507119 0.051667 -0.020889 401489.000000 0 0 1
22.646863 -2.196935 -31.888187 39.173504 -0.096706 2.521844 0.047557 -0.014958 -1028270.000000 0 0 1
23.713463 -1.331935 -31.615737 39.543106 -0.056109 2.497302 0.049887 -0.012298 -247328.000000 0 0 1
23.595763 0.067365 -32.021337 39.776005 0.002855 2.506542 0.024365 -0.007701 -264905.000000 0 0 1
24.734263 0.994865 -31.535817 40.090913 0.040200 2.476092 0.040331 -0.006168 345940.000000 0 0 1
25.937163 0.914165 -32.294267 41.430566 0.035231 2.464630 0.062522 -0.016658 -5076.380000 0 0 1
26.937663 1.727465 -31.722127 41.652313 0.064041 2.436565 0.067260 -0.007294 529188.000000 0 0 1
28.402863 1.217065 -31.945227 42.763319 0.042824 2.414371 0.059935 -0.020145 468387.000000 0 0 1
29.002263 1.804165 -33.045527 44.004467 0.062128 2.420309 0.053242 -0.014681 -314402.000000 0 0 1
29.095163 0.808865 -34.062937 44.804759 0.027794 2.434498 0.043997 -0.016580 -189017.000000 0 0 1
29.574963 1.387465 32.891514 44.254437 0.046879 0.732901 0.036050 -0.031557 -543787.000000 0 0 1
28.727463 2.297565 32.321261 43.303693 0.079808 0.728182 0.032208 -0.018138 -569474.000000 0 0 1
29.218163 3.564565 32.444892 43.807284 0.121398 0.736792 0.041229 -0.012120 113564.000000 0 0 1
28.162963 4.624565 31.993556 42.873380 0.162755 0.728410 0.032861 -0.005617 261786.000000 0 0 1
28.530163 5.950365 32.379246 43.563661 0.205616 0.732862 0.052850 -0.004374 767594.000000 0 0 1
27.636463 6.934365 31.772916 42.677601 0.245838 0.731030 0.039952 -0.001608 182740.000000 0 0 1
28.207663 8.325865 31.960436 43.433417 0.287014 0.743877 0.040974 0.002826 -634552.000000 0 0 1
29.231963 8.687965 31.120216 43.571277 0.288893 0.775263 0.044736 0.002491 -724948.000000 0 0 1
29.513163 10.045065 31.238506 44.133597 0.328060 0.784393 0.046746 -0.006235 -431324.000000 0 0 1
30.805363 10.443165 30.512616 44.598764 0.326846 0.817347 0.041550 0.006248 -696524.000000 0 0 1
31.897263 10.295665 31.392916 45.923319 0.312219 0.818120 0.052883 0.000315 183474.000000 0 0 1
33.134863 10.714965 30.819716 46.503597 0.312761 0.846327 0.051485 -0.001930 394532.000000 0 0 1
33.410063 12.263465 30.824796 47.082830 0.351791 0.857020 0.065639 -0.001196 -645270.000000 0 0 1
33.862663 12.616965 32.104966 48.338355 0.356658 0.844411 0.068689 0.000778 225544.000000 0 0 1
34.376463 13.979665 32.258996 49.171283 0.386238 0.855219 0.066306 0.004977 -132141.000000 0 0 1
33.445563 15.159965 32.068276 48.752482 0.425572 0.852932 0.058761 -0.004956 -527046.000000 0 0 1
32.959763 15.380065 30.737266 47.620078 0.436598 0.869160 0.043492 -0.005768 194872.000000 0 0 1
31.872663 16.245465 30.578736 47.062096 0.471377 0.863537 0.027105 -0.003015 1197610.000000 0 0 1
30.399663 15.694865 30.804506 46.036788 0.476590 0.837762 0.040420 0.001603 1075310.000000 0 0 1
29.851963 14.890365 29.767326 44.709690 0.462693 0.842242 0.040665 0.000730 542139.000000 0 0 1
28.681063 14.204965 30.231036 44.026128 0.459859 0.813910 0.040500 0.005208 944688.000000 0 0 1
27.735663 13.616665 29.139786 42.471257 0.456377 0.814673 0.031586 0.013373 297254.000000 0 0 1
28.120663 12.318665 28.836576 42.119702 0.412884 0.816695 0.035758 0.008917 -137606.000000 0 0 1
27.493663 11.846265 27.690806 40.780096 0.406834 0.824359 0.038976 -0.005582 -220273.000000 0 0 1
27.267463 10.354765 27.549486 40.121190 0.362927 0.813916 0.029163 0.014752 60894.300000 0 0 1
28.411163 9.600265 27.215816 40.497653 0.325859 0.833844 0.043094 0.004832 151455.000000 0 0 1
27.971463 8.281765 27.007416 39.754130 0.287856 0.823905 0.053032 -0.000210 -46530.400000 0 0 1
28.916363 7.324865 26.275526 39.751892 0.248094 0.848662 0.056164 -0.007400 -171428.000000 0 0 1
29.203363 7.634365 24.939706 39.154934 0.255698 0.880262 0.060575 -0.007839 431251.000000 0 0 1
30.288463 6.866365 24.429626 39.513853 0.222931 0.904276 0.060286 -0.000442 868232.000000 0 0 1
31.028463 7.419065 23.102566 39.389549 0.234699 0.944047 0.082427 -0.000572 356952.000000 0 0 1
31.683263 8.673365 23.193066 40.211624 0.267206 0.956021 0.097868 -0.016844 -138399.000000 0 0 1
30.897463 9.823365 23.037866 39.773043 0.307828 0.953009 0.091905 -0.020271 -280485.000000 0 0 1
30.315863 9.986165 21.599466 38.539745 0.318210 0.975871 0.093303 -0.000518 459006.000000 0 0 1
31.311963 10.355765 20.609966 38.890250 0.319405 1.012252 0.110973 -0.011537 502223.000000 0 0 1
30.842463 10.325365 19.293766 37.816928 0.323050 1.035392 0.108528 -0.017444 -713923.000000 0 0 1
31.766463 10.978865 18.185266 38.214494 0.332760 1.074839 0.123963 -0.041982 1157120.000000 0 0 1
32.990963 10.323165 17.834866 38.897992 0.303257 1.094486 0.132410 -0.029594 692522.000000 0 0 1
33.976763 10.201765 18.854966 40.174696 0.291693 1.082271 0.118675 -0.016539 -721008.000000 0 0 1
35.321763 9.769865 18.261666 40.945887 0.269850 1.108511 0.127327 -0.024339 -598527.000000 0 0 1
35.388163 8.365565 17.825166 40.497423 0.232133 1.115024 0.114826 -0.013651 546514.000000 0 0 1
-36.300417 7.936465 17.274866 40.977173 -0.215246 1.135617 0.126987 -0.008446 129455.000000 0 0 1
-36.364217 6.398465 17.001166 40.648939 -0.174172 1.139285 0.126640 -0.014630 -20843.500000 0 0 1
35.500163 6.087865 16.123666 39.462593 0.169836 1.149898 0.096021 -0.012342 433347.000000 0 0 1
35.723863 4.746765 15.657666 39.292349 0.132100 1.160925 0.101431 -0.018854 542927.000000 0 0 1
34.409363 3.884265 15.674966 38.010476 0.112408 1.145725 0.080630 -0.016590 427344.000000 0 0 1
34.277363 3.180165 16.892766 38.346011 0.092513 1.114602 0.090095 -0.009958 820783.000000 0 0 1
32.947963 2.664665 17.104966 37.218927 0.080699 1.093277 0.053882 -0.006121 867550.000000 0 0 1
32.871163 1.741065 18.367466 37.694939 0.052917 1.061840 0.042367 -0.010067 153190.000000 0 0 1
33.538163 0.480365 18.278266 38.198614 0.014322 1.071844 0.051065 -0.013087 135050.000000 0 0 1
33.274563 -0.268535 19.475966 38.556217 -0.008070 1.041262 0.049017 -0.016744 263213.000000 0 0 1
33.766563 -1.745535 19.445466 39.004536 -0.051648 1.048878 0.054158 -0.012203 134106.000000 0 0 1
33.521563 -2.471035 20.639266 39.443383 -0.073582 1.020121 0.046057 -0.006596 103691.000000 0 0 1
33.987863 -3.809035 20.503566 39.875804 -0.111605 1.030738 0.049421 -0.004985 -200594.000000 0 0 1
33.579563 -4.711835 21.685466 40.249818 -0.139408 1.001818 0.037833 0.008148 -124690.000000 0 0 1
34.152563 -4.275835 22.891066 41.336197 -0.124550 0.983902 0.043524 -0.004073 357463.000000 0 0 1
33.673263 -5.059135 23.989586 41.653135 -0.149127 0.957046 0.043468 -0.005987 274707.000000 0 0 1
34.145163 -4.426135 25.347996 42.755160 -0.128908 0.936186 0.015955 -0.004132 -92491.700000 0 0 1
33.391163 -4.854535 26.434986 42.864259 -0.144372 0.906235 0.024948 -0.004437 -351849.000000 0 0 1
33.895463 -4.438835 27.670816 43.980447 -0.130216 0.890322 0.023012 -0.003812 -115523.000000 0 0 1
32.933563 -4.643035 28.874376 44.044374 -0.140059 0.855853 0.034638 -0.010736 60855.300000 0 0 1
32.855063 -5.983635 29.279986 44.413698 -0.180148 0.850968 0.043135 -0.017761 109992.000000 0 0 1
31.884463 -6.106635 30.307206 44.412123 -0.189232 0.819744 0.062149 -0.025533 -233075.000000 0 0 1
31.851863 -7.544135 30.877886 44.998877 -0.232565 0.814555 0.064692 -0.023213 -282773.000000 0 0 1
33.066263 -7.807135 31.508376 46.336884 -0.231860 0.823054 0.066831 -0.027474 -547848.000000 0 0 1
33.522963 -9.092135 31.200026 46.689373 -0.264850 0.838947 0.053263 -0.024750 -293202.000000 0 0 1
34.839363 -9.506035 31.853786 48.154019 -0.266369 0.847982 0.052310 -0.020515 -196123.000000 0 0 1
34.779163 -9.656635 33.249945 49.075448 -0.270834 0.826401 0.048263 -0.030785 396676.000000 0 0 1
36.071163 -10.016335 33.733845 50.392738 -0.270858 0.837370 0.033619 -0.028817 266880.000000 0 0 1
36.249963 -10.312535 -33.079747 50.146564 -0.277162 2.291164 0.049225 -0.031398 -312146.000000 0 0 1
35.981463 -9.328635 -32.065497 49.090582 -0.253677 2.282587 0.034001 -0.027667 610762.000000 0 0 1
-36.317917 -8.046735 -32.259187 49.238158 0.218041 2.285199 0.046687 -0.020668 495045.000000 0 0 1
35.825963 -6.906035 -31.474147 48.185214 -0.190430 2.282587 0.045805 -0.023570 120541.000000 0 0 1
36.070263 -6.960435 -30.090237 47.486144 -0.190626 2.257076 0.040086 -0.013296 308064.000000 0 0 1
35.402363 -5.903135 -29.404787 46.398446 -0.165224 2.257181 0.049893 -0.014929 -69831.900000 0 0 1
35.762363 -5.743035 -27.913127 45.728238 -0.159229 2.227379 0.055368 -0.009260 458387.000000 0 0 1
-35.843117 -5.233635 -27.759137 45.636495 0.144990 2.224671 0.047628 -0.007228 359279.000000 0 0 1
-35.614617 -4.876635 -26.385387 44.591155 0.136082 2.203985 0.049416 -0.002086 305539.000000 0 0 1
-34.110417 -4.683235 -26.069177 43.186285 0.136443 2.218861 0.061380 0.004299 -581910.000000 0 0 1
-33.925717 -4.169835 -24.780137 42.218443 0.122297 2.198083 0.076965 -0.000008 241337.000000 0 0 1
-32.587217 -4.172835 -24.340537 40.887663 0.127358 2.208439 0.093622 -0.000531 583556.000000 0 0 1
-31.448517 -3.334535 -25.022337 40.326737 0.105637 2.240164 0.089513 -0.000862 -24297.800000 0 0 1
-31.113117 -3.871535 -26.281787 40.911455 0.123798 2.268431 0.086634 0.000263 -183681.000000 0 0 1
-30.059917 -3.151635 -26.881507 40.449312 0.104463 2.297718 0.087642 -0.002505 194027.000000 0 0 1
-29.533017 -3.709835 -28.245847 41.034008 0.124962 2.330011 0.071486 -0.001429 637365.000000 0 0 1
-30.567917 -3.765135 -29.238137 42.466957 0.122555 2.330203 0.066532 -0.003482 481456.000000 0 0 1
-30.022517 -4.430735 -30.378277 42.939756 0.146523 2.356698 0.056249 0.000440 -1029970.000000 0 0 1
-31.004017 -4.651635 -31.523207 44.458962 0.148923 2.358933 0.034376 -0.000423 76330.400000 0 0 1
-32.140817 -5.486235 -31.288317 45.189486 0.169064 2.335579 0.030312 -0.001601 673002.000000 0 0 1
-33.123717 -5.036335 -30.388027 45.232482 0.150890 2.307458 0.045737 -0.010618 -903661.000000 0 0 1
-34.260917 -4.101935 -30.840307 46.279162 0.119159 2.300163 0.069140 -0.019927 -713668.000000 0 0 1
-33.964817 -2.812035 -31.415127 46.351122 0.082604 2.315514 0.067206 -0.014259 -220137.000000 0 0 1
-33.366517 -1.918635 -30.520737 45.260590 0.057439 2.310858 0.061102 -0.010262 -310287.000000 0 0 1
-33.089817 -0.532035 -31.027177 45.364135 0.016077 2.323971 0.063046 -0.003801 -487037.000000 0 0 1
-34.308817 0.058665 -31.342917 46.470171 -0.001710 2.311048 0.074631 -0.004582 -443860.000000 0 0 1
-34.218417 1.327565 -31.889667 46.793304 -0.038777 2.320608 0.086274 0.004752 316423.000000 0 0 1
-35.649017 1.794565 -32.282947 48.127555 -0.050297 2.306055 0.058711 -0.003408 399430.000000 0 0 1
-36.076517 1.376365 -33.580007 49.305439 -0.038133 2.320007 0.057905 -0.004983 48068.700000 0 0 1
35.641063 2.042365 -33.872527 49.211835 0.057241 2.329940 0.036485 -0.002265 -20984.800000 0 0 1
34.796063 1.592365 33.184198 48.109174 0.045731 0.809627 0.033388 -0.007369 -24543.300000 0 0 1
35.139063 1.966165 31.892586 47.494806 0.055896 0.834570 0.034014 -0.011391 390926.000000 0 0 1
36.259063 1.247965 31.367506 47.960374 0.034404 0.857897 0.027710 -0.013879 139781.000000 0 0 1
-36.397017 1.459265 29.829136 47.081308 -0.040072 0.884642 0.044381 -0.019656 -96083.900000 0 0 1
-35.827017 2.762565 29.616486 46.565471 -0.076956 0.881469 0.052714 -0.024011 187195.000000 0 0 1
-35.542517 2.971365 28.280076 45.517713 -0.083406 0.900398 0.067208 -0.027649 430402.000000 0 0 1
-34.435217 4.073865 28.059786 44.606413 -0.117758 0.890462 0.071974 -0.022088 118090.000000 0 0 1
-34.062317 4.265865 26.692916 43.485064 -0.124588 0.909879 0.084253 -0.017699 237213.000000 0 0 1
-33.223517 5.404465 26.622016 42.915522 -0.161257 0.901626 0.097055 -0.010770 -453811.000000 0 0 1
-32.511617 5.677465 25.289186 41.578621 -0.172885 0.916973 0.093022 -0.004319 -500078.000000 0 0 1
-31.512217 4.720665 25.118236 40.573763 -0.148699 0.903231 0.084169 -0.009428 -416481.000000 0 0 1
-30.744417 4.874265 23.949116 39.275154 -0.157233 0.915016 0.074963 -0.004791 -14235.300000 0 0 1
-31.380917 4.471665 22.588166 38.922782 -0.141543 0.951659 0.097084 -0.009603 -90651.100000 0 0 1
-31.499117 3.075065 22.447066 38.801045 -0.097315 0.953887 0.100177 -0.011834 -88831.600000 0 0 1
-32.071717 2.741565 21.192566 38.538760 -0.085275 0.988549 0.125500 -0.011542 -31525.200000 0 0 1
-31.650717 1.297565 20.768066 37.878280 -0.040973 0.990485 0.125946 -0.015320 589234.000000 0 0 1
-30.314717 1.191965 20.272366 36.487966 -0.039299 0.981723 0.108767 -0.007519 600858.000000 0 0 1
-30.216517 1.649965 18.903666 35.680651 -0.054551 1.012430 0.127296 -0.015609 -551573.000000 0 0 1
-28.883617 1.157165 18.348566 34.238461 -0.040042 1.005217 0.126973 -0.018671 -528515.000000 0 0 1
-28.886317 -0.249835 18.062666 34.069658 0.008649 1.011997 0.122343 -0.014895 397863.000000 0 0 1
-27.692417 -0.681435 17.402566 32.713660 0.024602 1.009875 0.108726 -0.017862 175668.000000 0 0 1
-27.553817 -0.321735 15.897266 31.812566 0.011676 1.047525 0.118809 -0.017676 -305352.000000 0 0 1
-27.337717 1.043765 15.684466 31.534785 -0.038162 1.050231 0.117100 -0.016645 100661.000000 0 0 1
-27.564817 1.362265 14.351866 31.107088 -0.049380 1.091258 0.113714 -0.016219 24466.800000 0 0 1
-27.008717 2.796465 13.968966 30.535602 -0.103172 1.095654 0.119474 -0.018008 109179.000000 0 0 1
-25.613617 2.736365 13.772866 29.210219 -0.106429 1.079796 0.103399 -0.029529 -78272.100000 0 0 1
-25.123017 3.907665 13.117666 28.609596 -0.154305 1.094483 0.104291 -0.031226 404860.000000 0 0 1
-23.578617 3.960765 12.984066 27.207072 -0.166427 1.073295 0.086143 -0.033270 378383.000000 0 0 1
-22.843517 4.173065 14.193966 27.215977 -0.180688 1.022152 0.057539 -0.023939 1036310.000000 0 0 1
-21.464517 4.457565 13.909166 25.962670 -0.204761 1.005416 0.059194 -0.025745 474049.000000 0 0 1
-20.745017 5.154065 15.060566 26.148437 -0.243518 0.957013 0.035254 -0.022356 -435969.000000 0 0 1
-21.164817 6.494365 15.249166 26.882398 -0.297727 0.967628 0.033731 -0.025800 434785.000000 0 0 1
-20.563817 7.000265 16.399466 27.217949 -0.328112 0.924137 0.022246 -0.021348 -370534.000000 0 0 1
-20.875717 8.523065 16.561466 27.977139 -0.387621 0.937303 0.024011 -0.018667 -669077.000000 0 0 1
-20.030417 9.357165 15.794766 27.170733 -0.437022 0.950452 0.024674 -0.023294 530792.000000 0 0 1
-20.237617 10.754565 16.096366 28.005621 -0.488462 0.958492 0.022240 -0.018370 -363637.000000 0 0 1
-19.691517 11.331565 17.399166 28.616274 -0.522176 0.917237 0.023199 -0.011327 -495053.000000 0 0 1
-20.182617 10.726165 18.568166 29.447672 -0.488494 0.888538 0.028153 -0.017197 384983.000000 0 0 1
-19.619717 11.389665 19.671766 30.027256 -0.525974 0.856441 0.035050 -0.009416 -256715.000000 0 0 1
-12.524037 -33.639739 -19.983237 41.083005 1.214396 2.078774 0.128973 -0.040632 -796043.000000 0 0 1
-13.586237 -33.926839 -19.182637 41.274566 1.189896 2.054156 0.162953 -0.036670 -1394350.000000 0 0 1
-14.633837 -33.018439 -19.337737 40.967238 1.153610 2.062388 0.136365 -0.059970 -256945.000000 0 0 1
-15.976637 -33.499739 -18.757437 41.585177 1.125784 2.038750 0.119061 -0.049232 -1085040.000000 0 0 1
-16.420337 33.671565 -19.550937 42.256845 -1.117068 2.051800 0.123289 -0.059053 325580.000000 0 0 1
-17.337837 32.719465 -19.008737 41.623264 -1.083521 2.045062 0.124241 -0.046925 1198800.000000 0 0 1
-18.709337 33.300765 -18.499637 42.440745 -1.058917 2.021827 0.104172 -0.040920 -115965.000000 0 0 1
-18.524437 33.961265 -17.256637 42.359342 -1.071447 1.990387 0.105364 -0.044860 -615003.000000 0 0 1
-19.744737 -33.814539 -16.848137 42.627895 1.042290 1.977123 0.064529 -0.037954 -397450.000000 0 0 1
-20.178837 33.859665 -15.503837 42.356008 -1.033356 1.945542 0.067274 -0.036118 -466294.000000 0 0 1
-20.205237 32.468965 -15.519537 41.271556 -1.014145 1.956310 0.076044 -0.042301 134773.000000 0 0 1
-20.536237 31.976465 -14.220037 40.576358 -0.999903 1.928849 0.061182 -0.031730 -16689.200000 0 0 1
-20.675637 30.449365 -14.048437 39.395487 -0.974292 1.935423 0.055618 -0.030123 -590236.000000 0 0 1
-19.460237 29.776265 -13.944237 38.206918 -0.991931 1.944393 0.071799 -0.044346 -640087.000000 0 0 1
-19.517237 28.424165 -13.565237 37.052279 -0.969092 1.945622 0.068382 -0.044614 -1371740.000000 0 0 1
-18.318937 27.666765 -13.113337 35.679027 -0.985943 1.947155 0.071183 -0.040120 -927311.000000 0 0 1
-17.222837 27.621265 -14.013037 35.439041 -1.013251 1.977313 0.102619 -0.046911 -277360.000000 0 0 1
-16.199237 26.767565 -13.591937 34.112441 -1.026576 1.980617 0.112165 -0.055355 604325.000000 0 0 1
-14.799937 27.278265 -14.093237 34.084619 -1.073688 1.997067 0.105222 -0.053376 479601.000000 0 0 1
-14.787137 27.224365 -15.515237 34.648926 -1.073221 2.035082 0.086328 -0.044624 17738.500000 0 0 1
-13.602037 27.786065 -16.048437 34.851588 -1.115562 2.049331 0.128067 -0.044337 163702.000000 0 0 1
-13.776437 27.885965 -17.634037 35.754392 -1.111938 2.086560 0.127746 -0.055539 39129.200000 0 0 1
-13.521637 26.709065 -18.319137 35.097003 -1.102156 2.119940 0.092940 -0.040584 62106.800000 0 0 1
-13.686337 26.776465 -19.746737 35.975388 -1.098282 2.151839 0.080399 -0.045091 -251185.000000 0 0 1
-12.888137 25.684965 -20.462837 35.278169 -1.105728 2.189577 0.054216 -0.029062 -376072.000000 0 0 1
-11.652437 26.181665 -20.901937 35.470408 -1.152057 2.200961 0.035195 -0.023329 -516529.000000 0 0 1
-10.775837 25.157365 -21.292637 34.675468 -1.166102 2.231984 0.036773 -0.027789 732749.000000 0 0 1
-9.538537 25.596665 -22.146137 35.165670 -1.214090 2.252048 0.047356 -0.027925 671018.000000 0 0 1
-9.956337 26.106965 -23.406037 36.449209 -1.206455 2.268102 0.041259 -0.023399 -381001.000000 0 0 1
-8.835537 26.322465 -24.198637 36.830869 -1.246949 2.287656 0.026443 -0.023618 -570286.000000 0 0 1
-9.199637 26.998865 -25.516497 38.270925 -1.242393 2.300613 0.017769 -0.014670 300456.000000 0 0 1
-10.079937 26.142665 -26.261787 38.402156 -1.202788 2.323840 0.012390 -0.010792 19663.400000 0 0 1
-10.473837 26.805965 -27.465067 39.781792 -1.198309 2.332828 0.014488 -0.004527 -489350.000000 0 0 1
-11.603937 26.073565 -28.148567 40.085209 -1.152070 2.349305 0.017092 -0.007370 -522201.000000 0 0 1
-11.884337 26.571865 -29.412227 41.380921 -1.150229 2.361385 0.020836 -0.000738 -1006820.000000 0 0 1
-13.136737 26.101765 -29.747937 41.699110 -1.104521 2.365127 0.021253 0.001394 -747582.000000 0 0 1
-13.591037 26.638865 -31.156257 43.186315 -1.099025 2.376673 0.019332 0.001387 -5957.860000 0 0 1
-12.782837 26.181565 -32.237877 43.452917 -1.116602 2.406701 0.024603 -0.000280 175172.000000 0 0 1
-12.739537 24.783965 -32.460227 42.780920 -1.095993 2.432196 0.025524 -0.002294 -60455.200000 0 0 1
-12.047037 24.333065 -33.784987 43.343449 -1.111085 2.464618 0.032533 -0.003534 88304.900000 0 0 1
-12.739937 24.607365 33.319114 43.335803 -1.093067 0.693742 0.038736 -0.005143 -417980.000000 0 0 1
-12.135137 23.954265 32.253867 41.968801 -1.101886 0.694271 0.036961 -0.011832 -437035.000000 0 0 1
-12.891137 23.994065 30.910266 41.198800 -1.077784 0.722324 0.054776 -0.007279 -739082.000000 0 0 1
-14.117037 23.357665 30.853596 41.192422 -1.027158 0.724228 0.059317 -0.007757 -422057.000000 0 0 1
-14.676437 23.280365 29.506286 40.348409 -1.008308 0.750589 0.080132 -0.008967 607195.000000 0 0 1
-15.877337 22.326065 29.347756 40.147650 -0.952622 0.751017 0.053193 -0.007110 437945.000000 0 0 1
-15.374237 20.986065 29.523026 39.349602 -0.938529 0.722318 0.057004 -0.007184 790030.000000 0 0 1
-16.441937 20.055265 29.730836 39.452168 -0.884079 0.717287 0.034576 -0.008486 610881.000000 0 0 1
-15.820837 18.659465 30.041966 38.742667 -0.867539 0.683411 0.026476 -0.018825 82096.900000 0 0 1
-15.383337 17.997265 28.872136 37.338303 -0.863545 0.686833 0.053106 -0.019377 138657.000000 0 0 1
-14.579537 16.879565 29.147446 36.702264 -0.858380 0.653173 0.036989 -0.028970 -108086.000000 0 0 1
-14.087137 16.107965 27.869186 35.136953 -0.852224 0.654818 0.060759 -0.017323 -207056.000000 0 0 1
-13.290337 16.835465 27.013116 34.493106 -0.902537 0.671088 0.045802 -0.013182 -749404.000000 0 0 1
-12.739837 16.034565 26.063296 33.146736 -0.899404 0.665998 0.025461 -0.006244 209643.000000 0 0 1
-11.681337 16.778665 25.154346 32.414786 -0.962624 0.682474 0.035143 -0.005092 442975.000000 0 0 1
-12.180237 17.822865 24.319616 32.518555 -0.971295 0.725950 0.039523 -0.007641 -202418.000000 0 0 1
-12.664637 19.059765 24.895526 33.815010 -0.984316 0.743318 0.038837 -0.010633 118817.000000 0 0 1
-11.667037 19.970665 25.659456 34.544969 -1.042069 0.733577 0.021405 -0.011890 5826.250000 0 0 1
-11.355837 19.606565 26.985416 35.236133 -1.045822 0.698442 0.032762 -0.015385 489193.000000 0 0 1
-12.415237 19.939865 27.913826 36.481749 -1.013900 0.699530 0.076100 -0.021510 568259.000000 0 0 1
-12.091037 19.593465 29.374516 37.322369 -1.017901 0.664786 0.069384 -0.024377 -177121.000000 0 0 1
-11.008837 20.366965 29.855356 37.780286 -1.075257 0.659602 0.060410 -0.033227 4065.610000 0 0 1
-10.833637 20.229665 31.260086 38.778860 -1.079129 0.633245 0.056408 -0.031218 126667.000000 0 0 1
-9.614737 21.010165 31.838046 39.338675 -1.141621 0.627783 0.032990 -0.031019 534051.000000 0 0 1
-8.394037 20.276765 31.747826 38.594449 -1.178302 0.604826 0.037996 -0.035516 -402517.000000 0 0 1
-7.399437 21.051965 32.306299 39.263645 -1.232800 0.604468 0.039616 -0.035538 74053.700000 0 0 1
-6.159137 20.275065 32.877586 39.114561 -1.275876 0.572506 0.041828 -0.030442 9762.390000 0 0 1
-6.441837 19.734565 -34.121720 39.940482 -1.255277 2.595026 0.035714 -0.031656 74115.000000 0 0 1
-5.315737 19.226065 -33.453267 38.948938 -1.301049 2.603916 0.024977 -0.027972 117913.000000 0 0 1
-4.423337 18.145565 -34.136692 38.911967 -1.331690 2.640962 0.013238 -0.023026 -123812.000000 0 0 1
-5.043337 16.837565 34.096324 38.360111 -1.279772 0.475971 0.016644 -0.022060 -31698.400000 0 0 1
-4.492637 16.065765 33.035182 37.008321 -1.298121 0.467624 0.012913 -0.010031 -565989.000000 0 0 1
-5.200937 14.815065 32.517718 36.110080 -1.233180 0.449841 0.028564 -0.006503 -352018.000000 0 0 1
-4.919437 13.718865 33.368204 36.412156 -1.226490 0.411798 0.032571 -0.006719 -435244.000000 0 0 1
-5.719237 12.638965 33.084335 35.875149 -1.145858 0.397045 0.047013 -0.014849 -159029.000000 0 0 1
-5.033337 11.231465 33.307522 35.508749 -1.149485 0.353956 0.078959 -0.013251 178629.000000 0 0 1
-4.937937 10.853765 -33.640947 35.691747 -1.143832 2.800954 0.067130 -0.010382 350674.000000 0 0 1
-3.888537 9.888665 -33.393717 35.043498 -1.196138 2.833527 0.087714 -0.009673 856595.000000 0 0 1
-3.830837 9.657765 -31.861257 33.512497 -1.193174 2.826371 0.072942 -0.007375 462514.000000 0 0 1
-5.048637 9.106765 -31.372627 33.055463 -1.064594 2.821132 0.083403 -0.011165 320048.000000 0 0 1
-4.938237 8.809665 -29.982007 31.637275 -1.059891 2.816684 0.089230 0.002160 -235845.000000 0 0 1
-6.088737 7.912565 -29.567687 31.207844 -0.914930 2.815946 0.074453 0.000869 -322782.000000 0 0 1
-5.935137 7.291165 -28.274847 29.796878 -0.887566 2.820591 0.063739 0.006008 852575.000000 0 0 1
-7.009137 6.328865 -28.052137 29.599070 -0.734440 2.816863 0.076715 -0.012996 399543.000000 0 0 1
-6.799737 5.445365 -26.811627 28.191342 -0.675241 2.827441 0.063630 -0.016504 -147717.000000 0 0 1
-6.965537 6.081665 -25.533087 27.155918 -0.717757 2.794131 0.037482 -0.009964 23879.400000 0 0 1
-5.996737 7.050665 -25.206277 26.851986 -0.866000 2.789670 0.035911 0.000993 61141.300000 0 0 1
-6.549837 7.968265 -24.061437 26.179121 -0.882790 2.736607 0.009580 0.003277 566106.000000 0 0 1
-6.382537 7.309365 -22.817337 24.795050 -0.852987 2.739484 0.002709 0.001139 -230391.000000 0 1 0
-7.594837 7.578965 -22.169437 24.629377 -0.784352 2.690845 0.005046 -0.001514 -48413.100000 0 1 0
-7.457837 7.788465 -20.643337 23.290060 -0.807081 2.660216 -0.001141 -0.001180 -84708.900000 0 1 0
-6.860637 9.030265 -20.249637 23.209090 -0.921092 2.631066 -0.012673 0.002599 49474.800000 0 1 0
-6.757337 9.268465 -18.827137 22.046024 -0.940827 2.594408 -0.005623 -0.002555 99722.900000 0 1 0
-8.099137 9.500265 -18.029837 21.930027 -0.864843 2.535979 -0.009917 0.002960 76321.200000 0 1 0
-7.971937 9.544165 -16.637837 20.771627 -0.874917 2.499741 -0.006678 -0.000139 448428.000000 0 1 0
-9.220837 9.836265 -16.004737 20.926719 -0.817681 2.441526 0.001706 -0.002391 369854.000000 0 1 0
-9.702937 11.266265 -16.168237 21.965601 -0.859814 2.398044 0.001926 -0.004619 -386317.000000 0 1 0
-8.786037 12.181265 -15.577537 21.638793 -0.945934 2.374439 -0.010270 -0.011201 151825.000000 0 1 0
-9.198637 13.509665 -15.756837 22.702509 -0.973009 2.337906 0.006055 -0.016323 145794.000000 0 1 0
-8.029237 14.509565 -15.554637 22.736378 -1.065365 2.324206 0.021902 -0.015647 391755.000000 0 1 0
-7.407237 14.630465 -14.287737 21.749876 -1.102131 2.287511 0.018157 -0.016825 640592.000000 0 1 0
-8.312537 15.309565 -13.399037 21.977608 -1.073371 2.226438 0.015065 -0.026447 -77825.200000 0 1 0
-7.585837 16.070965 -12.255037 21.587190 -1.129781 2.174505 0.022026 -0.031230 121204.000000 0 1 0
-7.212137 17.360465 -12.668637 22.669253 -1.177056 2.163791 0.029547 -0.026465 -212211.000000 0 1 0
-6.107037 17.528165 -13.521737 22.964535 -1.235536 2.200382 0.037728 -0.018935 -447703.000000 0 1 0
-6.032437 18.974265 -14.062737 24.375677 -1.262975 2.185745 0.068731 -0.013541 87024.400000 0 1 0
-5.556337 19.917265 -13.118137 24.487872 -1.298742 2.136132 0.072750 -0.028408 -8554.130000 0 1 0
-5.477337 21.248265 -13.617537 25.824936 -1.318511 2.126218 0.073396 -0.025140 -279189.000000 0 0 1
-5.008037 22.284265 -12.595737 26.082974 -1.349735 2.074772 0.088564 -0.021689 -467590.000000 0 0 1
-5.182137 23.716665 -12.711137 27.402696 -1.355675 2.053149 0.088657 -0.026180 1827800.000000 0 0 1
-6.537937 24.326065 -12.753337 28.233839 -1.308238 2.039471 0.076651 -0.024844 1950720.000000 0 0 1
-7.340137 24.240565 -11.451037 27.795843 -1.276769 1.995411 0.034765 -0.026751 -255110.000000 0 0 1
-7.638737 22.894065 -11.014337 26.529308 -1.248756 1.998933 0.041884 -0.025178 21964.500000 0 0 1
-8.291237 22.736765 -9.755237 26.093481 -1.221120 1.953961 0.056752 -0.028652 336956.000000 0 0 1
-7.520037 23.254665 -8.477937 25.869013 -1.258033 1.904692 0.057635 -0.031928 28515.100000 0 0 1
-7.272237 24.642665 -8.480837 27.056810 -1.283834 1.889616 0.055537 -0.030470 278563.000000 0 0 1
-6.203337 24.978665 -7.578837 26.830093 -1.327376 1.857170 0.045530 -0.026949 509884.000000 0 0 1
-6.267737 26.523965 -7.226937 28.196345 -1.338748 1.829997 0.030744 -0.028591 27822.400000 0 0 1
-5.685737 27.439865 -8.117037 29.174649 -1.366480 1.852739 0.034794 -0.027139 -116851.000000 0 0 1
-6.276137 27.427865 -9.420937 29.672070 -1.345846 1.893890 0.043513 -0.030689 112426.000000 0 0 1
-5.742337 28.566565 -10.297237 30.903983 -1.372424 1.910493 0.044948 -0.021951 184169.000000 0 0 1
-6.439037 29.813465 -10.160937 32.148850 -1.358086 1.892369 0.049903 -0.022325 -83469.900000 0 0 1
-7.339737 29.883365 -11.249937 32.763522 -1.329951 1.921297 0.060957 -0.028614 -257386.000000 0 0 1
-8.503837 30.876465 -11.068037 33.884699 -1.302044 1.903541 0.064413 -0.026079 118537.000000 0 0 1
-9.555237 30.303565 -10.317437 33.407456 -1.265347 1.884766 0.065907 -0.019560 298767.000000 0 0 1
-10.644737 31.185765 -10.063737 34.454915 -1.241863 1.867202 0.059360 -0.025435 849957.000000 0 0 1
-11.752237 30.738465 -9.060837 34.133079 -1.205615 1.839473 0.073516 -0.020576 200773.000000 0 0 1
-12.494837 29.718865 -9.609937 33.640494 -1.172799 1.860497 0.088888 -0.031456 -299589.000000 0 0 1
-13.688037 29.438065 -8.893937 33.661019 -1.135557 1.838192 0.086389 -0.026118 838828.000000 0 0 1
-14.603337 28.350165 -9.543337 33.287605 -1.095137 1.861570 0.090522 -0.026051 184634.000000 0 0 1
-14.355737 27.079665 -8.938337 31.926311 -1.083336 1.854557 0.100513 -0.028614 620883.000000 0 0 1
-15.261637 26.121565 -9.529937 31.718661 -1.042035 1.875963 0.108832 -0.034244 332260.000000 0 0 1
-15.222437 24.698465 -8.906837 30.349111 -1.018455 1.868661 0.108078 -0.034381 414835.000000 0 0 1
-14.034637 23.967965 -9.223437 29.266127 -1.041064 1.891419 0.099800 -0.036503 505270.000000 0 0 1
-14.201137 22.650865 -8.736437 28.125777 -1.010790 1.886642 0.087342 -0.034281 66845.000000 0 0 1
-13.214537 21.585965 -9.276237 26.956010 -1.021468 1.922103 0.082911 -0.037792 -140983.000000 0 0 1
-13.384937 21.304965 -10.630937 27.314372 -1.009860 1.970567 0.082379 -0.032470 364667.000000 0 0 1
-12.666237 20.122165 -11.035337 26.212855 -1.008991 2.005332 0.074364 -0.031109 -80706.500000 0 0 1
-12.971337 19.670965 -12.491437 26.669055 -0.987831 2.058261 0.068004 -0.019964 467870.000000 0 0 1
-14.344137 19.333665 -12.714637 27.225115 -0.932483 2.056712 0.079618 -0.017379 256057.000000 0 0 1
-14.543037 18.807565 -14.004937 27.592802 -0.912578 2.103144 0.074854 -0.019058 212459.000000 0 0 1
-16.038737 18.620365 -14.344737 28.455765 -0.859747 2.099143 0.074420 -0.003254 377312.000000 0 0 1
-16.743937 19.826365 -14.632337 29.791769 -0.869487 2.084210 0.056076 -0.005074 79954.300000 0 0 1
-18.108337 19.522165 -14.883137 30.504665 -0.822952 2.080475 0.039262 0.001503 58074.100000 0 0 1
-18.812837 20.675865 -15.608837 32.016403 -0.832542 2.080051 0.036970 -0.002234 -222950.000000 0 0 1
-19.027037 21.754165 -14.782637 32.462258 -0.852171 2.043594 0.048695 -0.016485 336641.000000 0 0 1
-19.566637 22.859265 -15.533337 33.862721 -0.862852 2.047345 0.048378 -0.021687 87592.900000 0 0 1
-20.044437 24.075465 -14.661837 34.588683 -0.876511 2.008534 0.033348 -0.008772 547420.000000 0 0 1
-21.353837 23.833165 -14.136737 34.983617 -0.840211 1.986787 0.037908 -0.007154 414524.000000 0 0 1
-21.860237 24.942465 -13.501637 35.809088 -0.851159 1.957400 0.036327 -0.016980 -236252.000000 0 0 1
-25.673697 -0.691435 3.774963 25.958951 0.026925 1.424858 0.118625 -0.045847 -287199.000000 0 0 1
-26.345557 -0.006935 4.801363 26.779498 0.000263 1.390529 0.136215 -0.039687 332926.000000 0 0 1
-27.700667 -0.430335 4.876463 28.129914 0.015534 1.396561 0.144354 -0.043969 -17489.900000 0 0 1
-28.361787 0.141365 6.094263 29.009498 -0.004984 1.359141 0.141506 -0.042039 -720063.000000 0 0 1
-28.711467 1.478165 5.754963 29.319838 -0.051438 1.373231 0.162711 -0.042901 390107.000000 0 0 1
-29.322567 2.231965 6.815163 30.186770 -0.075971 1.343066 0.171700 -0.020442 -84877.700000 0 0 1
-28.272587 2.851065 7.751563 29.454278 -0.100502 1.304487 0.184035 -0.026564 -50408.200000 0 0 1
-27.678277 1.803965 8.533863 29.020133 -0.065084 1.272317 0.162313 -0.039486 729409.000000 0 0 1
-26.493517 2.354465 9.140463 28.124687 -0.088637 1.239787 0.142926 -0.054933 130515.000000 0 0 1
-25.738397 1.307365 9.945163 27.623913 -0.050751 1.202507 0.127979 -0.042399 -1268650.000000 0 0 1
-24.832037 0.514065 9.251663 26.504483 -0.020699 1.214228 0.137985 -0.048110 74639.300000 0 0 1
-25.322257 -0.580235 8.517363 26.722628 0.022910 1.246405 0.127054 -0.033028 104080.000000 0 0 1
-24.071837 -1.211035 7.804863 25.334479 0.050267 1.257630 0.115384 -0.037575 1006730.000000 0 0 1
-23.061237 -1.526035 8.763763 24.717463 0.066077 1.208356 0.098007 -0.047762 14420.000000 0 1 0
-21.877037 -2.006135 8.217363 23.455370 0.091445 1.212862 0.104327 -0.036501 -225177.000000 0 1 0
-20.679337 -2.041035 9.192563 22.722324 0.098381 1.154298 0.088724 -0.023689 147945.000000 0 1 0
-20.067537 -0.778135 9.462563 22.200262 0.038756 1.130468 0.078673 -0.029682 557696.000000 0 1 0
-20.576037 -0.142735 10.623963 23.157337 0.006937 1.094182 0.082475 -0.029671 -422679.000000 0 1 0
-20.086237 1.331465 10.868263 22.876819 -0.066191 1.075744 0.062458 -0.022914 -216096.000000 0 1 0
-20.555837 2.445365 10.114163 23.039500 -0.118406 1.116320 0.070272 -0.015812 148295.000000 0 1 0
-21.944437 2.563765 9.940363 24.226886 -0.116303 1.148010 0.111018 -0.033947 -563189.000000 0 1 0
-22.329137 3.981265 9.405563 24.554133 -0.176445 1.177696 0.097144 -0.036207 -258925.000000 0 1 0
-22.167237 4.977965 10.392463 24.983391 -0.220899 1.141782 0.082508 -0.029531 454800.000000 0 1 0
-22.313637 6.277765 9.884463 25.199431 -0.274253 1.167721 0.055318 -0.022944 -156459.000000 0 0 1
-22.430737 7.252965 11.070563 26.044209 -0.312738 1.131759 0.060818 -0.031515 252956.000000 0 0 1
-23.550637 7.092965 11.951363 27.345525 -0.292538 1.118480 0.079204 -0.031827 488051.000000 0 0 1
-23.539537 7.933965 13.092563 28.079758 -0.325090 1.085734 0.080508 -0.032827 -524025.000000 0 0 1
-24.467837 7.436665 14.173763 29.238239 -0.295064 1.064698 0.095776 -0.030673 -861107.000000 0 0 1
-25.787877 7.468565 13.727663 30.153653 -0.281903 1.098135 0.112722 -0.037965 -796352.000000 0 0 1
-26.608857 6.809765 14.647363 31.127952 -0.250544 1.080879 0.112793 -0.033232 -981313.000000 0 0 1
-28.071527 6.677365 14.306663 32.206807 -0.233530 1.110501 0.125203 -0.030472 -757657.000000 0 0 1
-28.359907 5.645365 13.370163 31.857742 -0.196493 1.137700 0.136532 -0.020760 -1309350.000000 0 0 1
-29.609517 5.856365 12.862463 32.809503 -0.195266 1.167954 0.149347 -0.022637 -1242070.000000 0 0 1
-30.120607 4.689665 11.926663 32.733610 -0.154456 1.197856 0.161452 -0.020571 -77388.800000 0 0 1
-30.681677 3.605565 12.603163 33.364729 -0.116979 1.183443 0.151244 -0.024483 164787.000000 0 0 1
-31.170117 2.594665 11.748763 33.411703 -0.083051 1.211478 0.149470 -0.013134 -32637.500000 0 0 1
-32.343907 1.771065 12.310463 34.652741 -0.054703 1.207612 0.120588 -0.006259 1791.150000 0 0 1
-31.926687 0.569065 12.994963 34.474719 -0.017822 1.184304 0.119991 -0.016816 -80536.900000 0 0 1
-32.992757 0.141465 13.792763 35.760066 -0.004288 1.174827 0.106717 -0.009527 -53129.600000 0 0 1
-32.706417 -1.160235 14.595263 35.834028 0.035459 1.151299 0.105453 -0.018544 -132661.000000 0 0 1
-32.639117 -2.377335 13.877863 35.546572 0.072709 1.169716 0.105009 -0.019154 157261.000000 0 0 1
-32.588677 -3.464835 14.787063 35.953917 0.105922 1.146940 0.119474 -0.017469 -111104.000000 0 0 1
-32.548067 -4.879035 14.128463 35.816129 0.148795 1.165303 0.115437 -0.016809 135177.000000 0 0 1
-33.792447 -5.165735 13.529563 36.764975 0.151692 1.193938 0.088297 -0.025164 289384.000000 0 0 1
-33.733087 -6.492235 12.996363 36.728405 0.190134 1.209112 0.102005 -0.023438 -101078.000000 0 0 1
-34.836839 -6.876535 11.929063 37.459240 0.194887 1.246698 0.105000 -0.009712 1179340.000000 0 0 1
-36.204317 -6.999535 12.288663 38.868461 0.190978 1.249117 0.081548 -0.004465 671136.000000 0 0 1
36.087282 -5.866735 12.897963 38.769421 -0.161161 1.231648 0.080366 -0.017969 -446050.000000 0 0 1
34.564842 -5.822035 12.662363 37.268752 -0.166872 1.224137 0.071552 -0.011691 232199.000000 0 0 1
33.759242 -6.631435 13.490263 36.954696 -0.193964 1.197111 0.065428 -0.012768 516420.000000 0 0 1
32.368142 -6.429235 13.252863 35.562200 -0.196076 1.188915 0.066670 -0.008349 501982.000000 0 0 1
31.370302 -7.515135 13.649463 35.026860 -0.235131 1.170506 0.050033 -0.013858 -253918.000000 0 0 1
31.074822 -7.521435 15.015763 35.322651 -0.237476 1.131721 0.061162 -0.005995 187933.000000 0 0 1
29.969912 -8.398135 15.186663 34.631763 -0.273212 1.116847 0.056158 -0.006389 170691.000000 0 0 1
29.405482 -8.344735 16.660363 34.812134 -0.276512 1.071760 0.030475 -0.013584 -25401.500000 0 0 1
30.216042 -8.933535 17.670463 36.125649 -0.287466 1.059694 0.030848 -0.013148 -159408.000000 0 0 1
29.582472 -8.987635 18.903363 36.238617 -0.294954 1.022029 0.024251 -0.016777 -321357.000000 0 0 1
30.565172 -9.298835 20.063063 37.725649 -0.295333 1.010054 0.021941 -0.014991 705536.000000 0 0 1
31.708422 -8.451635 20.207163 38.538080 -0.260486 1.018853 0.028679 -0.016664 197233.000000 0 0 1
32.880792 -9.007535 19.657263 39.353401 -0.267385 1.047768 0.033810 -0.006308 -17949.500000 0 0 1
34.145142 -8.259135 20.173963 40.510404 -0.237325 1.049512 0.030735 -0.011178 206206.000000 0 0 1
34.456972 -8.525035 21.533563 41.516906 -0.242540 1.025502 0.042097 -0.014117 6266.750000 0 0 1
35.755502 -8.032235 21.820863 42.651176 -0.220975 1.033736 0.028692 -0.006182 25357.100000 0 0 1
36.253402 -8.496035 23.189263 43.866088 -0.230197 1.013802 0.036586 -0.006810 -446865.000000 0 0 1
35.569532 -8.020835 24.296063 43.815797 -0.221788 0.983029 0.040029 -0.011348 -197657.000000 0 0 1
35.549892 -9.055635 25.337363 44.584541 -0.249426 0.966359 0.041028 -0.015086 7723.380000 0 0 1
35.137382 -8.598435 26.773363 45.004241 -0.239993 0.933646 0.046115 -0.014572 -452256.000000 0 0 1
36.134892 -7.860535 27.371863 46.008014 -0.214196 0.933609 0.037099 -0.019361 -955648.000000 0 0 1
35.881062 -7.424735 28.658163 46.517390 -0.204046 0.907047 0.021850 -0.015972 165393.000000 0 0 1
-35.907840 -6.768635 29.525763 46.978272 0.186314 0.891175 0.024158 -0.014279 791825.000000 0 0 1
-35.331479 -7.681335 30.490263 47.296643 0.214076 0.870218 0.021963 -0.008108 757332.000000 0 0 1
-34.038110 -7.200435 30.908963 46.538191 0.208467 0.844422 0.021043 -0.023028 890176.000000 0 0 1
-33.570277 -7.939335 32.181363 47.176654 0.232232 0.820103 0.008033 -0.016082 -42833.600000 0 0 1
-33.429807 -9.355835 31.956463 47.183675 0.272884 0.826740 0.018052 -0.017450 252489.000000 0 0 1
-32.758747 -9.971035 33.012563 47.564549 0.295468 0.803686 0.017233 -0.015273 -247002.000000 0 0 1
-32.792897 -11.430635 32.766763 47.746144 0.335401 0.814448 0.029208 -0.020222 830112.000000 0 0 1
-34.161059 -11.875835 32.909363 48.898257 0.334573 0.832516 0.027475 -0.024840 955211.000000 0 0 1
-34.384525 -13.223835 32.814763 49.335322 0.367149 0.843119 0.032033 -0.027076 -707535.000000 0 0 1
-35.853022 -13.321235 33.178263 50.632910 0.355744 0.856255 0.029803 -0.027638 -669618.000000 0 0 1
-36.251337 -14.663435 33.468363 51.471420 0.384374 0.862907 0.032013 -0.034713 1475450.000000 0 0 1
35.285502 -14.765635 33.922463 51.125572 -0.396320 0.845292 0.017723 -0.028854 1469420.000000 0 0 1
34.954582 -16.266035 34.066363 51.448263 -0.435544 0.847115 0.012255 -0.010270 -469219.000000 0 0 1
35.384942 -16.806835 -33.066640 51.263696 -0.443425 2.271859 0.019630 -0.030523 40752.300000 0 0 1
35.136002 -18.200135 -33.016040 51.534866 -0.477937 2.266147 0.011777 -0.032918 -743841.000000 0 0 1
35.587192 -18.833935 -31.694740 51.241798 -0.486760 2.237671 0.021861 -0.027131 -78149.900000 0 0 1
34.796092 -18.685435 -30.516740 49.911771 -0.492806 2.228642 0.029056 -0.023422 -210908.000000 0 0 1
35.220602 -19.591035 -29.488640 49.938756 -0.507620 2.202470 0.026356 -0.016811 -1414980.000000 0 0 1
34.286692 -19.682135 -28.258040 48.595067 -0.521117 2.191368 0.037952 -0.012631 416845.000000 0 0 1
33.037302 -20.325535 -28.502640 48.135135 -0.551543 2.204506 0.041048 -0.012096 728682.000000 0 0 1
32.165602 -19.575835 -29.370340 47.754122 -0.546716 2.233224 0.026961 -0.009456 -1703720.000000 0 0 1
30.835582 -20.329435 -29.469640 47.250172 -0.582875 2.244256 0.023071 -0.005778 -579436.000000 0 0 1
29.854162 -19.690735 -30.237940 46.832991 -0.583069 2.272677 0.021026 -0.003189 50281.900000 0 0 1
28.637112 -20.417035 -30.200540 46.357439 -0.619369 2.280318 0.021574 -0.003708 399299.000000 0 0 1
27.615642 -19.878235 -31.254540 46.201885 -0.623903 2.313766 0.024857 -0.001053 400783.000000 0 0 1
28.049632 -20.009235 -32.588740 47.425492 -0.619630 2.328364 0.014064 -0.003067 155487.000000 0 0 1
26.889242 -19.844335 -33.378740 47.233137 -0.635779 2.355592 0.056432 -0.005773 342753.000000 0 0 1
27.129442 -19.920635 33.412563 47.426129 -0.633365 0.789053 0.048637 -0.012843 -160853.000000 0 0 1
28.070762 -18.988335 32.941863 47.261939 -0.594742 0.799582 0.027225 -0.011961 -41069.600000 0 0 1
28.273292 -18.945135 31.531563 46.395438 -0.590356 0.823543 0.022279 -0.006289 66734.400000 0 0 1
27.123542 -18.440035 30.596363 44.853749 -0.597076 0.820116 0.024537 -0.004781 -232020.000000 0 0 1
26.908842 -17.071835 30.818463 44.331828 -0.565353 0.802130 0.033177 -0.010160 527727.000000 0 0 1
25.973842 -16.534035 29.872863 42.899915 -0.566872 0.800513 0.031085 -0.008288 217300.000000 0 0 1
25.743442 -15.072135 30.277163 42.504125 -0.529671 0.777977 0.044575 -0.013819 -1125880.000000 0 0 1
26.850142 -14.295935 30.114363 42.803957 -0.489257 0.790428 0.054514 -0.013284 -899054.000000 0 0 1
26.809842 -13.124635 30.885563 42.952784 -0.455249 0.768350 0.077394 -0.017350 108799.000000 0 0 1
28.209862 -12.462135 30.953163 43.694387 -0.415985 0.783566 0.078324 -0.010453 148828.000000 0 0 1
28.625952 -11.880635 29.758863 42.967250 -0.393396 0.805717 0.073508 -0.014700 -178138.000000 0 0 1
30.007782 -11.614535 29.843663 43.886315 -0.369294 0.823004 0.073241 -0.013580 55288.500000 0 0 1
30.653202 -10.955335 28.597663 43.329718 -0.343249 0.849976 0.075901 -0.014648 -28025.100000 0 0 1
30.445542 -9.556635 28.495763 42.781641 -0.304153 0.841863 0.065749 -0.020279 -84848.700000 0 0 1
30.806392 -9.142135 27.225563 42.117024 -0.288483 0.867905 0.053515 -0.012504 -16083.100000 0 0 1
30.908722 -7.589135 26.965863 41.714528 -0.240771 0.867890 0.041839 -0.005636 -168837.000000 0 0 1
29.642502 -7.007335 26.887563 40.629075 -0.232133 0.847604 0.060754 -0.011975 -561790.000000 0 0 1
29.773042 -5.651135 26.571563 40.304061 -0.187576 0.850939 0.057275 -0.009671 423077.000000 0 0 1
28.410532 -4.920835 26.464963 39.137798 -0.171503 0.828205 0.064663 -0.008120 287143.000000 0 0 1
27.608642 -5.297435 25.372663 37.869143 -0.189572 0.836576 0.057678 -0.008713 305501.000000 0 0 1
26.328742 -4.667435 25.467563 36.926743 -0.175452 0.809752 0.079448 -0.013964 540862.000000 0 0 1
25.455242 -4.875635 24.175463 35.442830 -0.189245 0.820169 0.062338 -0.005227 2810.830000 0 0 1
25.900942 -4.108835 23.105063 34.951184 -0.157326 0.848557 0.068066 0.000432 138335.000000 0 0 1
25.318542 -4.638535 21.948463 33.827202 -0.181198 0.864737 0.068578 -0.006778 -36080.700000 0 0 1
25.569642 -3.765135 20.713563 33.121512 -0.146200 0.895177 0.078700 -0.008363 281817.000000 0 0 1
24.694142 -2.648135 20.636063 32.290252 -0.106829 0.877494 0.087474 -0.006026 186727.000000 0 0 1
25.125942 -1.792935 19.609963 31.923005 -0.071237 0.909311 0.088610 -0.002049 699710.000000 0 0 1
23.978542 -0.871535 18.988763 30.599072 -0.036330 0.901331 0.064447 -0.006945 985893.000000 0 0 1
23.059942 -1.579735 18.157963 29.393335 -0.068399 0.904908 0.084660 -0.008753 -64243.200000 0 0 1
21.927542 -0.789535 17.875763 28.301650 -0.035991 0.887161 0.087111 -0.009230 399956.000000 0 0 1
20.833942 -1.572935 17.089463 26.992166 -0.075356 0.885210 0.086461 -0.008340 572582.000000 0 0 1
21.409142 -2.070035 15.877363 26.734380 -0.096390 0.934907 0.088747 -0.014721 -139761.000000 0 0 1
20.493742 -2.954935 15.357163 25.779208 -0.143200 0.932636 0.105114 -0.018932 -480221.000000 0 0 1
20.726242 -3.284235 13.875463 25.157341 -0.157151 0.986578 0.102811 -0.023597 -384744.000000 0 0 1
19.813842 -4.199435 13.340063 24.252441 -0.208854 0.988372 0.116904 -0.028438 227546.000000 0 1 0
19.975042 -4.517535 11.977563 23.724933 -0.222417 1.041587 0.114021 -0.030005 -87538.700000 0 1 0
18.783442 -5.404835 11.530763 22.693357 -0.280176 1.037805 0.107727 -0.036958 41412.600000 0 1 0
18.715542 -6.635935 12.220863 23.316446 -0.340739 1.019102 0.116549 -0.033182 477281.000000 0 1 0
17.510742 -7.360335 12.075263 22.508056 -0.397911 1.004528 0.089744 -0.018913 -195151.000000 0 1 0
17.624242 -8.869035 12.401563 23.303915 -0.466228 1.009639 0.102317 -0.028725 -381227.000000 0 1 0
18.401042 -9.571035 11.466863 23.700042 -0.479626 1.065767 0.086223 -0.036905 419634.000000 0 1 0
18.137942 -10.949235 11.435463 24.075724 -0.543110 1.075856 0.102353 -0.041048 -64368.700000 0 1 0
18.964442 -11.619335 10.345763 24.529448 -0.549699 1.135401 0.113151 -0.043687 -140842.000000 0 1 0
18.334742 -11.412635 9.131163 23.447583 -0.556770 1.170785 0.098019 -0.032180 353520.000000 0 1 0
19.214442 -11.662035 8.049363 23.874465 -0.545508 1.226904 0.113441 -0.046736 -4600.780000 0 1 0
18.771842 -11.077235 6.686063 22.798917 -0.533107 1.273159 0.097453 -0.033808 -195307.000000 0 1 0
18.905842 -9.658835 6.574163 22.224841 -0.472323 1.270501 0.080450 -0.028768 669901.000000 0 1 0
19.451642 -9.374635 5.264963 22.225436 -0.449100 1.331634 0.072475 -0.029342 -270557.000000 0 1 0
20.111642 -8.018235 5.098663 22.243350 -0.379373 1.339518 0.112158 -0.025342 -526364.000000 0 1 0
20.430742 -7.818835 3.755363 22.195769 -0.365504 1.400786 0.084435 -0.022279 405957.000000 0 1 0
20.973342 -6.538435 3.637363 22.267973 -0.302201 1.406716 0.103079 -0.015720 -402581.000000 0 1 0
21.740642 -6.241235 2.317663 22.737196 -0.279559 1.468686 0.118288 -0.019835 277021.000000 0 1 0
20.937842 -6.255935 1.126263 21.881463 -0.290343 1.519302 0.095143 -0.028649 752240.000000 0 1 0
21.598642 -5.542535 0.130763 22.298837 -0.251195 1.564932 0.111977 -0.024580 -112608.000000 0 1 0
-25.845977 -15.505135 0.027163 30.140081 0.540350 1.569895 0.073434 -0.012224 -51975.500000 0 0 1
-24.808237 -14.869135 -0.750337 28.932729 0.539951 1.596733 0.064973 -0.006193 -166009.000000 0 0 1
-23.521137 -15.283635 -0.484237 28.054730 0.576223 1.588058 0.074882 -0.001430 -628775.000000 0 0 1
-22.851137 -14.812035 0.833363 27.244547 0.575107 1.540203 0.079058 -0.014983 -768997.000000 0 0 1
-23.420537 -15.323335 2.019163 28.060705 0.579371 1.498777 0.071276 -0.000768 -21623.600000 0 0 1
-22.647637 -14.886935 3.111463 27.280350 0.581510 1.456492 0.071109 0.011910 166630.000000 0 0 1
-23.159237 -15.496635 4.425563 28.214917 0.589709 1.413294 0.077148 0.011195 -441295.000000 0 0 1
-22.846937 -16.863435 4.483463 28.748207 0.635845 1.414201 0.100635 -0.003715 73125.900000 0 0 1
-23.236337 -17.463435 5.657263 29.612557 0.644497 1.378572 0.095527 -0.010993 -236809.000000 0 0 1
-23.386737 -18.954835 5.421563 30.587883 0.681108 1.392609 0.081669 -0.007080 88157.500000 0 0 1
-24.001437 -19.563635 6.533663 31.646383 0.683882 1.362842 0.079350 -0.017045 51742.000000 0 0 1
-24.479737 -20.849335 6.253763 32.757622 0.705479 1.378707 0.092804 -0.021500 167754.000000 0 0 1
-25.082417 -21.603935 7.491563 33.940848 0.711028 1.348240 0.079698 -0.016349 -276456.000000 0 0 1
-24.131137 -22.141135 8.354063 33.798402 0.742418 1.321034 0.072965 -0.006861 -243223.000000 0 0 1
-24.711837 -22.898735 9.422763 34.983073 0.747335 1.298076 0.075936 -0.010905 57610.500000 0 0 1
-23.655937 -23.240235 10.476963 34.777559 0.776534 1.264786 0.058360 -0.017780 27306.300000 0 0 1
-23.255137 -22.131435 11.265163 34.022135 0.760645 1.233314 0.054596 -0.018595 483815.000000 0 0 1
-22.293737 -22.392735 12.318263 33.914376 0.787614 1.199078 0.063205 -0.020076 252061.000000 0 0 1
-22.622237 -21.687735 13.609163 34.166252 0.764311 1.161110 0.037479 -0.013162 -531024.000000 0 0 1
-23.873237 -22.014935 14.138563 35.418749 0.744924 1.160171 0.026590 -0.012045 -381099.000000 0 0 1
-24.105837 -21.217535 15.288763 35.567140 0.721758 1.126463 0.018119 0.002259 -44434.200000 0 0 1
-25.448097 -21.514135 16.001463 36.966342 0.701825 1.123127 0.024787 -0.000355 631790.000000 0 0 1
-26.669447 -21.243235 15.307063 37.374331 0.672627 1.148824 0.023042 0.002657 718672.000000 0 0 1
-27.127537 -22.177235 14.316463 37.850946 0.685331 1.182910 0.020145 -0.002237 -174859.000000 0 0 1
-28.220687 -23.135635 14.849063 39.397455 0.686705 1.184345 0.024941 -0.009805 -5067.480000 0 0 1
-27.698267 -23.958035 15.889663 39.920706 0.713118 1.161427 0.012688 -0.005505 138539.000000 0 0 1
-28.621497 -24.966735 16.264463 41.316591 0.717303 1.166193 0.033041 -0.006277 -91814.700000 0 0 1
-28.580007 -26.336625 15.504963 41.843022 0.744570 1.191194 0.034450 -0.004420 -197278.000000 0 0 1
-29.201347 -26.423735 14.260463 41.884284 0.735505 1.223377 0.034223 -0.016379 -212684.000000 0 0 1
-30.428367 -27.116085 14.380863 43.220097 0.727901 1.231593 0.048773 -0.024705 726968.000000 0 0 1
-31.335947 -27.413495 13.107863 43.649254 0.718731 1.265789 0.069116 -0.034609 795873.000000 0 0 1
-30.648327 -28.278005 12.215563 43.453256 0.745195 1.285836 0.055078 -0.038196 323513.000000 0 0 1
-31.487547 -28.671125 11.144563 44.019317 0.738616 1.314836 0.060331 -0.022909 73392.400000 0 0 1
-30.951037 -29.912475 10.446263 44.292745 0.768336 1.332707 0.044338 -0.024084 -34632.500000 0 0 1
-31.160197 -31.102045 11.156363 45.417612 0.784464 1.322617 0.035360 -0.019883 -19509.200000 0 0 1
-30.646177 -32.212155 10.417463 45.665464 0.810306 1.340644 0.046781 -0.027578 -436335.000000 0 0 1
-30.698517 -33.663155 11.002063 46.868458 0.831428 1.333842 0.044792 -0.029081 -793559.000000 0 0 1
-31.953147 34.110798 11.279563 48.080960 -0.818047 1.333994 0.015491 -0.015984 -744722.000000 0 0 1
-31.871277 32.718984 11.675263 47.144692 -0.798522 1.320545 0.042463 -0.021927 -783286.000000 0 0 1
-33.171077 32.135420 12.249163 47.781247 -0.769541 1.311543 0.036619 -0.014465 36472.900000 0 0 1
-34.283638 31.872510 11.424863 48.184564 -0.748968 1.331410 0.020217 -0.011967 337902.000000 0 0 1
-34.911711 33.017693 10.885263 49.269510 -0.757523 1.348025 0.040397 -0.008858 -911637.000000 0 0 1
-36.356327 32.794428 10.397763 50.053676 -0.733934 1.361540 0.020093 -0.000543 -80936.300000 0 0 1
-36.450467 32.079910 9.186463 49.418097 -0.721709 1.383816 -0.002849 0.007758 49493.000000 0 0 1
35.123152 31.925270 8.850663 48.282429 0.737739 1.386444 -0.001817 0.013496 -197845.000000 0 0 1
34.999632 31.351940 7.439263 47.573743 0.730478 1.413779 -0.000434 0.009244 -21855.400000 0 0 1
35.420862 30.016720 7.242563 46.990379 0.703000 1.416051 0.008393 0.001306 75237.900000 0 0 1
35.330482 29.608350 5.929963 46.476465 0.697509 1.442857 0.026767 -0.003137 -194346.000000 0 0 1
35.559692 28.114910 5.667363 45.684340 0.669007 1.446421 0.028176 -0.005037 -200040.000000 0 0 1
34.608352 27.216740 6.210263 44.464102 0.666406 1.430669 0.043745 -0.005775 30399.900000 0 0 1
34.847422 26.895490 7.577063 44.666790 0.657312 1.400337 0.025347 0.000426 -227872.000000 0 0 1
33.996832 25.718810 8.124663 43.396451 0.647652 1.382465 0.027815 -0.006020 -261857.000000 0 0 1
34.081532 24.551460 7.323363 42.637503 0.624270 1.398182 0.035062 -0.008223 -124649.000000 0 0 1
33.131422 23.568960 7.643863 41.371677 0.618321 1.384968 0.031769 -0.007504 -646167.000000 0 0 1
33.195902 22.271070 6.856663 40.558382 0.590926 1.400924 0.049277 -0.010946 945045.000000 0 0 1
34.281592 21.395870 7.245363 41.054916 0.557967 1.393387 0.057375 -0.012816 850913.000000 0 0 1
35.620422 21.739370 6.932363 42.302155 0.547963 1.406177 0.064284 -0.018075 -129626.000000 0 0 1
-36.392597 20.519770 6.854163 42.337473 -0.513410 1.408187 0.073458 -0.018531 -239770.000000 0 0 1
36.259652 19.815470 5.674863 41.708744 0.500143 1.434314 0.091784 -0.028223 176846.000000 0 0 1
-36.115047 18.496370 5.697263 40.974030 -0.473321 1.431299 0.100864 -0.024939 -325058.000000 0 0 1
36.348172 17.504570 4.563263 40.600776 0.448804 1.458165 0.106827 -0.031240 468940.000000 0 0 1
-35.835016 17.605570 3.307163 40.062973 -0.456660 1.488153 0.109454 -0.029353 912066.000000 0 0 1
-36.371257 16.490070 2.587863 40.018593 -0.425663 1.506085 0.116233 -0.032643 -216414.000000 0 0 1
-35.411148 16.124070 1.426363 38.935454 -0.427285 1.534154 0.126085 -0.024043 111837.000000 0 0 1
-34.246706 15.440770 1.793063 37.609431 -0.423576 1.523102 0.123052 -0.034861 503702.000000 0 0 1
-33.171707 16.226770 2.334563 37.001627 -0.454950 1.507661 0.121210 -0.029115 -51952.500000 0 0 1
-31.843877 15.471670 2.562763 35.496096 -0.452272 1.498535 0.095341 -0.021051 -131722.000000 0 0 1
-31.838737 14.543470 3.612463 35.189027 -0.428482 1.467956 0.110680 -0.018860 94538.000000 0 0 1
-30.548307 14.178470 4.049463 33.920882 -0.434544 1.451131 0.091766 -0.013510 -169133.000000 0 0 1
-30.453647 13.466170 5.395763 33.732427 -0.416337 1.410148 0.104157 -0.010498 -80419.700000 0 0 1
-30.935497 12.119170 5.359263 33.654137 -0.373379 1.410870 0.123253 -0.011951 437505.000000 0 0 1
-30.441727 11.334370 6.438363 33.115241 -0.356428 1.375127 0.120461 -0.007665 -129279.000000 0 0 1
-31.013717 9.903870 6.460763 33.191546 -0.309103 1.374895 0.138320 -0.021779 102286.000000 0 0 1
-32.390367 9.740070 6.724963 34.485214 -0.292107 1.374529 0.138926 -0.017557 -2559.980000 0 0 1
-32.853077 8.462170 6.335463 34.511898 -0.252096 1.386176 0.160802 -0.021526 -616893.000000 0 0 1
-34.339746 8.142470 6.333263 35.855658 -0.232815 1.393233 0.144273 -0.013751 -422425.000000 0 0 1
-34.797821 7.733670 7.634263 36.455178 -0.218691 1.359820 0.132399 -0.013380 -954559.000000 0 0 1
-36.084807 7.243370 7.593963 37.579888 -0.198099 1.367320 0.090639 -0.015339 -643310.000000 0 0 1
36.341962 6.395770 8.805663 37.936576 0.174205 1.336544 0.076510 -0.018031 196074.000000 0 0 1
35.732582 7.115870 9.889263 37.752491 0.196571 1.305754 0.076331 -0.014598 593864.000000 0 0 1
-36.283617 7.927770 10.643463 38.634618 -0.215114 1.291697 0.108242 -0.021670 405285.000000 0 0 1
35.890402 9.012770 11.503163 38.751436 0.246032 1.269409 0.093504 -0.027017 124754.000000 0 0 1
35.159802 8.342870 12.546363 38.252142 0.232976 1.236620 0.072108 -0.023703 645493.000000 0 0 1
34.589172 9.269170 13.464763 38.257394 0.261827 1.211141 0.086926 -0.029511 -284057.000000 0 0 1
33.974612 8.663270 14.722663 38.027402 0.249672 1.173248 0.101005 -0.032392 -442453.000000 0 0 1
32.730032 8.043670 14.505463 36.692834 0.240982 1.164379 0.065565 -0.025131 -243071.000000 0 0 1
32.362402 7.463970 15.719663 36.744302 0.226673 1.128725 0.075903 -0.019794 248180.000000 0 0 1
30.838952 7.207570 15.847763 35.413862 0.229595 1.106827 0.039691 -0.006471 356754.000000 0 0 1
29.984752 8.341370 16.063463 35.024258 0.271327 1.094334 0.040539 -0.012165 657619.000000 0 0 1
28.601012 8.046770 16.172063 33.827563 0.274256 1.072336 0.040005 -0.006151 490085.000000 0 0 1
28.050162 7.452570 17.473063 33.877136 0.259688 1.028881 0.042904 -0.013702 -552200.000000 0 0 1
28.149352 8.358270 18.530763 34.722268 0.288634 1.007844 0.068044 -0.020834 152165.000000 0 0 1
27.356842 8.095770 19.676863 34.657138 0.287721 0.967017 0.069328 -0.007259 -297016.000000 0 0 1
27.605042 6.801370 20.572563 35.093124 0.241570 0.944402 0.071161 -0.005108 -444051.000000 0 0 1
26.779642 6.617770 21.649063 35.066024 0.242266 0.905388 0.065639 -0.002924 -397640.000000 0 0 1
27.232842 5.459370 22.295563 35.616352 0.197848 0.894393 0.060568 -0.005797 -312296.000000 0 0 1
26.489842 5.048370 23.587963 35.827221 0.188319 0.852131 0.076532 -0.009538 810988.000000 0 0 1
25.144042 4.593870 23.432863 34.676009 0.180709 0.828793 0.035026 -0.007375 779138.000000 0 0 1
24.156342 5.619670 23.545463 34.197930 0.228572 0.811370 0.053634 0.009365 1046820.000000 0 0 1
22.688942 5.255270 23.104063 32.805544 0.227609 0.789398 0.063081 -0.002384 50463.600000 0 0 1
22.624342 5.088870 21.672163 31.740197 0.221247 0.819210 0.058334 -0.010478 714908.000000 0 0 1
21.315342 5.018770 21.121663 30.424604 0.231242 0.803447 0.042498 -0.007512 -461220.000000 0 0 1
20.285742 4.043170 21.648563 29.941924 0.196733 0.762635 0.050671 -0.012601 -1154420.000000 0 0 1
19.098642 3.968570 20.895463 28.585452 0.204878 0.751036 0.047472 -0.013550 229982.000000 0 0 1
18.039842 4.613970 21.595363 28.514634 0.250398 0.711561 0.053330 -0.018947 -361675.000000 0 0 1
16.698642 4.514470 20.833163 27.078511 0.264038 0.692955 0.066947 -0.027215 -184442.000000 0 0 1
16.132142 3.240670 21.050563 26.718423 0.198244 0.663459 0.060346 -0.023645 246150.000000 0 0 1
15.096842 2.949370 20.114363 25.321947 0.192933 0.652868 0.070577 -0.031856 -31822.400000 0 0 1
14.022342 1.928770 20.611963 25.003985 0.136692 0.601748 0.070077 -0.032882 -49208.200000 0 0 1
14.465542 0.596970 20.755863 25.306405 0.041245 0.609067 0.045838 -0.021205 68400.300000 0 0 1
13.474242 -0.004330 21.526463 25.395744 -0.000321 0.559274 0.044620 -0.027857 -352839.000000 0 0 1
13.786742 -1.493330 21.792463 25.830519 -0.107896 0.566711 0.018031 -0.012232 -71742.300000 0 0 1
13.660342 -2.290630 20.607963 24.830225 -0.166139 0.591770 0.023486 -0.008476 170966.000000 0 1 0
13.838842 -3.658230 20.791563 25.242529 -0.258434 0.602940 0.036625 0.004313 -136401.000000 0 0 1
13.622342 -4.437130 19.468363 24.171750 -0.314887 0.634416 0.044386 0.002989 -23007.900000 0 1 0
12.287542 -4.399630 19.008563 23.057882 -0.343834 0.601682 0.040441 -0.000723 -123564.000000 0 1 0
12.077342 -5.210430 17.889563 22.204667 -0.407297 0.633996 0.046963 -0.002221 -1598380.000000 0 1 0
10.636742 -5.221930 17.561263 21.185061 -0.456368 0.593576 0.048784 -0.002377 -1346100.000000 0 1 0
9.934942 -5.995430 18.528863 21.862457 -0.542966 0.559502 0.048850 0.013106 202004.000000 0 1 0
8.539442 -6.137930 18.269063 21.079728 -0.623215 0.522318 0.043453 -0.001288 860952.000000 0 1 0
7.819142 -7.171930 19.228563 21.961630 -0.742252 0.504218 0.043150 -0.005736 -4553.160000 0 1 0
7.893842 -8.503930 18.840463 22.126740 -0.822587 0.551996 0.039172 -0.006934 -420018.000000 0 1 0
8.870142 -9.188430 19.547563 23.349815 -0.803022 0.578724 0.059210 -0.007003 -302780.000000 0 1 0
9.026542 -10.617230 18.917763 23.496506 -0.866199 0.634900 0.068845 -0.020068 234968.000000 0 1 0
9.755142 -10.667730 17.686863 22.842688 -0.830053 0.685204 0.068062 -0.005028 105537.000000 0 1 0
9.841742 -11.932430 17.124663 23.075893 -0.881122 0.734596 0.054047 -0.014623 97945.500000 0 1 0
10.807642 -11.870030 15.922963 22.610694 -0.832211 0.789469 0.073671 -0.011498 -46048.500000 0 1 0
10.841542 -13.099930 15.223163 22.823056 -0.879449 0.840611 0.066838 -0.014756 60848.800000 0 1 0
10.326042 -13.032830 13.914063 21.681396 -0.900762 0.874017 0.050296 -0.012564 -425996.000000 0 1 0
10.672642 -14.312230 13.057963 22.119123 -0.930052 0.939307 0.045014 -0.014940 752795.000000 0 1 0
12.025142 -14.474830 12.610663 22.652893 -0.877577 0.980399 0.030315 -0.009875 587693.000000 0 1 0
12.359142 -13.523830 11.583363 21.675255 -0.830366 1.006993 0.018174 -0.010012 441215.000000 0 1 0
13.875742 -13.218930 11.256363 22.225707 -0.761162 1.039726 0.041926 -0.020956 978025.000000 0 1 0
14.469442 -14.316930 10.594563 22.947418 -0.780100 1.090898 0.057704 -0.026346 268135.000000 0 1 0
15.775642 -13.926130 10.158763 23.366824 -0.723209 1.121034 0.072141 -0.038972 875741.000000 0 1 0
16.621042 -15.176730 9.635963 24.483545 -0.740008 1.166286 0.065585 -0.041764 332464.000000 0 1 0
17.122342 -16.136130 10.572063 25.793755 -0.755754 1.148486 0.064499 -0.033829 243224.000000 0 0 1
16.160442 -16.913730 11.286963 25.973634 -0.808170 1.121253 0.086290 -0.029113 99357.600000 0 0 1
16.762142 -17.611230 12.498563 27.337500 -0.810095 1.095958 0.068100 -0.025404 -191289.000000 0 0 1
17.813142 -18.514530 12.251363 28.463867 -0.804703 1.125840 0.091971 -0.031675 -221703.000000 0 0 1
18.247642 -19.064430 13.449363 29.619492 -0.807285 1.099467 0.056411 -0.025551 551666.000000 0 0 1
19.615742 -19.865930 13.390263 30.963392 -0.791735 1.123583 0.006498 -0.025303 759837.000000 0 0 1
20.627842 -18.879830 13.235163 30.937443 -0.741182 1.128734 0.010133 -0.026879 -691213.000000 0 0 1
21.830342 -19.565730 12.929563 32.039901 -0.730747 1.155408 -0.004300 -0.024136 -181976.000000 0 0 1
22.556742 -18.889230 11.766463 31.686894 -0.697139 1.190350 0.016328 -0.021637 -1015070.000000 0 0 1
22.156742 -19.042330 10.403663 31.012381 -0.709947 1.228694 0.021938 -0.019961 633681.000000 0 0 1
20.850442 -18.597130 9.972963 29.665707 -0.728338 1.227940 0.035251 -0.025279 927734.000000 0 0 1
20.581742 -17.073230 10.095363 28.583556 -0.692491 1.209820 0.081401 -0.033618 -396212.000000 0 0 1
21.351642 -16.312930 9.203663 28.402671 -0.652409 1.240797 0.083977 -0.028753 14507.800000 0 0 1
20.801042 -15.021630 9.010163 27.194039 -0.625443 1.233085 0.084484 -0.039961 166362.000000 0 0 1
-34.878247 24.510465 7.808363 43.338500 -0.612565 1.389636 0.073208 -0.010711 459563.000000 0 0 1
-33.946747 23.882065 8.731263 42.414262 -0.613082 1.363457 0.084998 -0.016126 750495.000000 0 0 1
-33.029647 24.795665 9.316163 42.338794 -0.643955 1.348942 0.072961 -0.007880 -157542.000000 0 0 1
-31.894067 24.101365 10.067263 41.224472 -0.647120 1.324096 0.092784 -0.024481 81088.500000 0 0 1
-31.057427 23.339265 9.192363 39.922232 -0.644452 1.338455 0.086001 -0.020360 -396624.000000 0 0 1
-29.937077 22.764465 9.755763 38.853885 -0.650131 1.316992 0.085490 -0.019567 -417749.000000 0 0 1
-29.185737 21.913365 8.711063 37.521800 -0.644029 1.336499 0.070179 -0.022897 113363.000000 0 0 1
-29.967007 20.815265 8.242863 37.406438 -0.607097 1.348613 0.069702 -0.025985 724210.000000 0 0 1
-29.255167 20.100565 7.185863 36.215110 -0.602000 1.371049 0.061302 -0.029792 778021.000000 0 0 1
-30.254657 19.408865 6.183463 36.473052 -0.570388 1.400438 0.071913 -0.028281 252254.000000 0 0 1
-31.041837 18.382965 6.793063 36.710690 -0.534664 1.384681 0.083817 -0.029674 369058.000000 0 0 1
-32.007207 18.039265 5.812463 37.197596 -0.513225 1.413894 0.076929 -0.026539 -234285.000000 0 0 1
-32.897227 16.834265 6.149863 37.462526 -0.472982 1.405890 0.093316 -0.019612 -452607.000000 0 0 1
-33.756267 17.049165 7.235763 38.503453 -0.467693 1.381747 0.085728 -0.028224 117002.000000 0 0 1
-34.600611 15.903865 7.441063 38.800833 -0.430843 1.377825 0.099728 -0.032909 -117451.000000 0 0 1
-35.478000 16.052465 8.670763 39.894264 -0.424900 1.351704 0.100947 -0.031221 -534023.000000 0 0 1
36.413022 16.958965 8.454463 41.048662 0.435865 1.363350 0.101676 -0.028348 -138622.000000 0 0 1
35.755632 17.257865 9.707863 40.872262 0.449681 1.330987 0.101626 -0.025237 93804.400000 0 0 1
34.818732 18.467865 9.720563 40.594279 0.487671 1.328990 0.095698 -0.023704 -687747.000000 0 0 1
33.655222 18.172465 9.029463 39.299411 0.495102 1.338964 0.078472 -0.022823 -401741.000000 0 0 1
32.790832 19.322265 9.006463 39.111443 0.532484 1.338434 0.059158 -0.015499 609674.000000 0 0 1
31.324512 19.278865 8.511063 37.753648 0.551707 1.343405 0.037275 -0.012925 69567.100000 0 0 1
30.764462 20.597965 8.709663 38.034018 0.589988 1.339750 0.033271 -0.011947 38969.000000 0 0 1
29.490082 20.830365 8.150663 37.013543 0.614976 1.348769 0.023050 -0.012892 -15170.400000 0 0 1
29.219492 20.598165 6.640063 36.361430 0.614038 1.387153 0.012906 -0.005832 -829931.000000 0 0 1
29.373252 19.257165 6.128963 35.653759 0.580303 1.398036 0.029826 -0.012153 250552.000000 0 0 1
28.894432 19.076665 4.777763 34.951887 0.583526 1.433672 0.036711 -0.011753 19598.600000 0 0 1
27.429842 19.316565 4.366963 33.831883 0.613551 1.441357 0.048470 -0.014238 -1456550.000000 0 0 1
26.471642 18.438265 4.935163 32.635461 0.608393 1.418993 0.053701 -0.012277 1252340.000000 0 0 1
25.104742 18.732565 4.579263 31.656386 0.641049 1.425632 0.071988 -0.019875 768282.000000 0 0 1
24.556942 20.094065 4.988963 32.120159 0.685779 1.414843 0.083621 -0.022783 -2302920.000000 0 0 1
24.963442 21.162765 4.163963 32.990524 0.703187 1.444242 0.065170 -0.019647 241073.000000 0 0 1
24.651042 22.463265 4.664263 33.675325 0.738996 1.431843 0.074255 -0.020093 -721667.000000 0 0 1
25.685242 23.526965 4.267763 35.092215 0.741570 1.448879 0.056092 -0.011613 -1015430.000000 0 0 1
26.888242 23.299265 4.935663 35.919272 0.714008 1.432950 0.055521 -0.021816 -471622.000000 0 0 1
27.762742 24.354065 4.529863 37.207661 0.720087 1.448748 0.059873 -0.023637 -1320830.000000 0 0 1
28.937712 24.497765 5.505963 38.312496 0.702499 1.426585 0.046100 -0.021450 374047.000000 0 0 1
30.014072 23.521365 5.330563 38.503429 0.664709 1.431906 0.035857 -0.018193 1484930.000000 0 0 1
30.711792 23.469865 4.062263 38.865804 0.652526 1.466085 0.054945 -0.029837 -653021.000000 0 0 1
31.441352 24.688365 3.478763 40.126996 0.665663 1.483994 0.077067 -0.041600 -1136020.000000 0 0 1
30.676472 25.793665 3.149163 40.202940 0.699146 1.492384 0.057870 -0.036695 -541736.000000 0 0 1
31.442392 26.799065 2.551963 41.392348 0.705841 1.509104 0.092806 -0.028974 -234806.000000 0 0 1
30.637672 28.162365 2.628663 41.697670 0.743326 1.507713 0.084772 -0.018350 1073530.000000 0 0 1
29.432272 28.233665 1.864463 40.827377 0.764616 1.525113 0.118007 -0.019257 683393.000000 0 0 1
28.321972 27.653865 2.545963 39.665505 0.773463 1.506566 0.094171 -0.018209 -90739.900000 0 0 1
26.960542 28.342865 2.241063 39.181772 0.810388 1.513569 0.050253 -0.008735 231655.000000 0 0 1
26.804242 29.583265 2.859563 40.022670 0.834643 1.499287 0.052956 -0.006121 699351.000000 0 0 1
25.440942 29.986165 2.675163 39.415329 0.867219 1.502873 0.048534 0.005045 668991.000000 0 0 1
25.135242 31.384865 3.245063 40.340062 0.895524 1.490267 0.059359 -0.002244 -232876.000000 0 0 1
25.108842 31.572565 4.652963 40.607030 0.898944 1.455959 0.048897 -0.018755 -25720.000000 0 0 1
26.398842 31.710765 5.189063 41.586030 0.876557 1.445691 0.050987 -0.022083 -164091.000000 0 0 1
26.324742 31.653165 6.733063 41.716293 0.877045 1.408686 0.073434 -0.039186 305918.000000 0 0 1
25.812842 30.483465 7.417263 40.627088 0.868174 1.387197 0.070960 -0.041473 343540.000000 0 0 1
26.551642 29.321365 7.106263 40.189938 0.834929 1.393045 0.073541 -0.040849 -127645.000000 0 0 1
25.915642 28.042865 7.656863 38.944196 0.824801 1.372896 0.087343 -0.037933 -308802.000000 0 0 1
24.767042 27.679665 6.933263 37.784129 0.840876 1.386254 0.073493 -0.039933 -152840.000000 0 0 1
24.284442 26.441565 7.315063 36.638786 0.827898 1.369792 0.070085 -0.032439 105523.000000 0 0 1
23.029442 25.949465 6.505263 35.299411 0.844946 1.385449 0.075198 -0.020717 345899.000000 0 0 1
23.168842 25.759565 5.101063 35.019585 0.838298 1.424613 0.052078 -0.023236 146661.000000 0 0 1
23.389942 26.902665 4.288163 35.905865 0.855131 1.451083 0.045056 -0.018055 -186077.000000 0 0 1
23.293742 26.556465 2.832763 35.438240 0.850755 1.490776 0.044595 -0.009504 -464040.000000 0 0 1
24.325342 25.718065 2.413763 35.481931 0.813221 1.502716 0.048212 -0.002534 -106016.000000 0 0 1
24.388042 25.637465 0.980663 35.397994 0.810369 1.543089 0.056671 -0.002415 300903.000000 0 0 1
25.691242 24.996665 0.396563 35.847322 0.771696 1.559734 0.065780 -0.005901 -28969.700000 0 0 1
26.802942 25.893965 0.279263 37.268930 0.768151 1.563303 0.068251 -0.006152 767917.000000 0 0 1
27.917562 25.568665 -0.529437 37.860629 0.741510 1.584781 0.074890 -0.002495 105936.000000 0 0 1
28.715222 24.330865 -0.148237 37.637441 0.702934 1.574735 0.080375 -0.016784 -856616.000000 0 0 1
27.966282 23.090565 -0.139437 36.267156 0.690191 1.574641 0.081178 -0.019736 441828.000000 0 0 1
28.408812 22.341965 0.959963 36.154468 0.666421 1.544242 0.083549 -0.022802 1008320.000000 0 0 1
27.183042 21.511465 1.583063 34.701110 0.669448 1.525161 0.062379 -0.022631 1013220.000000 0 0 1
26.833142 20.504765 0.645263 33.776905 0.652501 1.551691 0.080005 -0.026686 -293156.000000 0 0 1
25.597042 20.001165 1.013363 32.500494 0.663287 1.539611 0.070483 -0.023272 -690040.000000 0 0 1
25.077742 18.670365 0.325363 31.266301 0.639971 1.560390 0.074705 -0.022564 -645325.000000 0 0 1
23.755942 18.377665 0.610063 30.040898 0.658437 1.550487 0.071710 -0.021571 -615433.000000 0 0 1
23.136642 17.471265 -0.270637 28.993492 0.646779 1.580131 0.090653 -0.034672 -130163.000000 0 0 1
21.830842 16.972365 0.378163 27.654835 0.660838 1.557122 0.086729 -0.021500 -544223.000000 0 0 1
21.299142 15.926765 -0.496137 26.600028 0.642070 1.589449 0.094787 -0.022918 1196900.000000 0 0 1
19.887842 15.704865 -0.354837 25.343539 0.668411 1.584798 0.093348 -0.021701 1073840.000000 0 0 1
18.902042 16.708565 -1.022337 25.248931 0.723880 1.611298 0.095328 -0.026774 -250731.000000 0 0 1
18.804442 17.939365 -0.358537 25.991469 0.761859 1.584591 0.083857 -0.025259 480064.000000 0 0 1
17.693042 18.649665 -0.914037 25.723321 0.811714 1.606337 0.072471 -0.029942 537873.000000 0 0 1
17.632942 20.166365 -0.481537 26.792440 0.852321 1.588770 0.064550 -0.031204 -219837.000000 0 0 1
17.164642 20.399565 0.838563 26.673403 0.871303 1.539353 0.071749 -0.027349 -56601.900000 0 0 1
17.116142 21.750365 1.274063 27.706749 0.904072 1.524796 0.077656 -0.025942 485782.000000 0 0 1
15.889642 22.608565 0.819563 27.645970 0.958183 1.541147 0.063070 -0.025709 501553.000000 0 0 1
14.664442 22.388165 1.475563 26.803976 0.990908 1.515718 0.053113 -0.021667 -588729.000000 0 0 1
13.670042 23.270465 1.094663 27.010792 1.039662 1.530258 0.048084 -0.017416 -403120.000000 0 0 1
12.346542 23.014465 1.831563 26.181240 1.078401 1.500782 0.045258 -0.019416 -92747.100000 0 0 1
12.429142 23.289365 3.195963 26.591207 1.080567 1.450316 0.036429 -0.006587 216494.000000 0 0 1
11.140342 23.308865 3.787363 26.110430 1.124948 1.425231 0.031197 -0.003554 202308.000000 0 0 1
11.280342 23.558665 5.286763 26.649704 1.124236 1.371092 0.032393 -0.004682 -261598.000000 0 0 1
11.835142 22.467465 5.970763 26.086541 1.085964 1.339866 0.033156 -0.025522 -175085.000000 0 0 1
11.020842 21.988965 6.998963 25.572623 1.106190 1.293569 0.026563 -0.023698 -611972.000000 0 0 1
11.776242 20.956565 7.932563 25.313693 1.058836 1.252056 0.035246 -0.021702 250337.000000 0 0 1
12.910542 21.455965 8.587463 26.472345 1.029111 1.240426 0.048055 -0.014700 -1150760.000000 0 0 1
14.075142 21.476365 7.886263 26.861442 0.990650 1.272816 0.061671 -0.010860 -2219720.000000 0 0 1
15.306242 21.695165 8.730263 27.949575 0.956379 1.253123 0.073849 -0.010744 -656524.000000 0 0 1
15.618342 20.465365 9.467063 27.429712 0.918926 1.218409 0.088988 -0.021393 867769.000000 0 0 1
16.903442 20.339565 10.121763 28.317386 0.877400 1.205271 0.092155 -0.026366 1039750.000000 0 0 1
17.181742 21.207065 11.406163 29.581285 0.889873 1.174952 0.082181 -0.032139 -511491.000000 0 0 1
16.569942 20.766865 12.593563 29.401080 0.897335 1.128145 0.079279 -0.030338 33046.400000 0 0 1
16.754242 21.591165 13.749663 30.593076 0.910876 1.104661 0.072731 -0.019155 669159.000000 0 0 1
18.052442 21.286665 14.601463 31.499453 0.867428 1.088803 0.064231 -0.023771 1770940.000000 0 0 1
19.293342 21.741465 14.003263 32.264776 0.844987 1.121856 0.073507 -0.022933 813069.000000 0 0 1
20.371942 21.225265 14.760363 32.914985 0.805909 1.105778 0.065717 -0.020153 232605.000000 0 0 1
21.795842 21.609865 14.308463 33.864098 0.781114 1.134566 0.071118 -0.016852 148541.000000 0 0 1
22.255842 20.976465 13.107363 33.273677 0.755814 1.165897 0.072269 -0.025046 -718654.000000 0 0 1
23.593442 21.299365 12.943163 34.319658 0.734341 1.184095 0.059963 -0.019713 -1032820.000000 0 0 1
24.328742 20.751065 11.719063 34.056290 0.706201 1.219507 0.063386 -0.023880 -122594.000000 0 0 1
24.249242 21.640465 10.634263 34.196828 0.728610 1.254581 0.074326 -0.025268 554607.000000 0 0 1
24.961342 21.164365 9.496063 34.076006 0.703265 1.288384 0.083123 -0.026323 -259610.000000 0 0 1
24.934642 22.210065 8.290763 34.405816 0.727671 1.327431 0.071260 -0.027645 -29068.600000 0 0 1
25.489242 23.488665 8.512063 35.691373 0.744574 1.329985 0.072307 -0.024864 151694.000000 0 0 1
26.893742 23.541165 8.532263 36.745875 0.719022 1.336461 0.053994 -0.025526 -663625.000000 0 0 1
27.366942 24.902165 9.117863 38.107779 0.738278 1.329187 0.058331 -0.029557 236333.000000 0 0 1
28.777762 25.103365 9.087763 39.254630 0.717309 1.337169 0.054266 -0.024908 663065.000000 0 0 1
29.197032 26.241865 9.788463 40.458821 0.732144 1.326435 0.057402 -0.023442 -489354.000000 0 0 1
30.392732 26.915765 9.159563 41.618196 0.724801 1.348894 0.042600 -0.017217 -727157.000000 0 0 1
30.142522 27.630765 7.978563 41.661593 0.741949 1.378097 0.057414 -0.022350 1007270.000000 0 0 1
31.366932 27.862165 7.252763 42.576840 0.726294 1.399616 0.036043 -0.009631 226490.000000 0 0 1
31.120772 28.848565 6.170063 42.881370 0.747527 1.426408 0.053506 -0.009221 98454.600000 0 0 1
30.981352 30.177065 6.668863 43.760407 0.772248 1.417805 0.054904 -0.017466 192577.000000 0 0 1
30.998722 31.086165 5.537763 44.248585 0.786807 1.445316 0.061971 -0.020031 17179.000000 0 0 1
31.127882 32.596165 5.893063 45.455289 0.808435 1.440785 0.041422 -0.016916 -249265.000000 0 0 1
30.005462 33.160365 6.507263 45.191615 0.835303 1.426301 0.042652 -0.025195 -187250.000000 0 0 1
30.037752 -33.723639 6.380663 45.609903 -0.843141 1.430440 0.047894 -0.028377 281314.000000 0 0 1
28.761302 -32.982839 6.907963 44.303500 -0.853663 1.414234 0.097466 -0.034761 1383720.000000 0 0 1
27.582242 -33.218639 6.107863 43.606927 -0.877837 1.430268 0.078652 -0.037838 679794.000000 0 0 1
26.389342 -32.778239 6.745063 42.618144 -0.892961 1.411861 0.058568 -0.039511 316462.000000 0 0 1
25.174542 -32.834139 5.808363 41.780083 -0.916681 1.431322 0.071761 -0.024911 -170560.000000 0 0 1
25.283242 -31.944039 4.746763 41.014580 -0.901269 1.454803 0.055363 -0.006758 -598256.000000 0 0 1
24.121642 -32.049439 3.993363 40.310881 -0.925609 1.471569 0.053357 -0.015692 -364926.000000 0 0 1
24.261442 -31.437439 2.598263 39.795491 -0.913528 1.505459 0.051494 0.004717 -123416.000000 0 0 1
24.495742 -30.048839 2.554363 38.852270 -0.886857 1.505003 0.062462 0.003685 165964.000000 0 0 1
25.052342 -29.658039 1.292063 38.844415 -0.869383 1.537528 0.051551 0.008533 -23173.600000 0 0 1
25.448442 -28.137939 1.176063 37.957212 -0.835546 1.539807 0.057782 -0.004073 152208.000000 0 0 1
24.385342 -27.202139 1.171563 36.550976 -0.839946 1.538738 0.055757 -0.000633 -154430.000000 0 0 1
23.665142 -27.066139 -0.026937 35.952963 -0.852337 1.571546 0.049107 0.000419 323654.000000 0 0 1
22.491242 -26.035739 0.082263 34.405268 -0.858310 1.568405 0.040556 0.004584 268473.000000 0 0 1
22.936142 -24.715939 0.283163 33.719793 -0.822731 1.562399 0.037058 -0.004867 -124546.000000 0 0 1
22.880742 -24.323139 1.653263 33.434664 -0.815945 1.521329 0.035775 -0.001058 -512521.000000 0 0 1
21.530542 -23.862839 2.175163 32.213828 -0.836733 1.503222 0.037866 -0.001495 -740520.000000 0 0 1
21.597442 -23.243139 3.442463 31.914630 -0.822083 1.462721 0.041865 -0.006944 1033810.000000 0 0 1
20.272642 -22.969439 3.989463 30.894837 -0.847683 1.441304 0.022732 -0.002927 1283840.000000 0 0 1
20.333442 -22.350639 5.446463 30.702832 -0.832622 1.392460 0.020048 -0.009150 -303031.000000 0 0 1
20.685742 -20.962839 5.530563 29.965442 -0.792051 1.385167 0.049137 -0.009296 300.579000 0 0 1
19.675742 -20.118939 5.038963 28.588419 -0.796535 1.393612 0.031814 -0.008023 -394804.000000 0 0 1
19.714742 -18.680239 5.602563 27.731050 -0.758461 1.367364 0.042931 -0.005792 -65241.700000 0 0 1
19.332042 -18.460539 6.931063 27.614471 -0.762342 1.317089 0.056590 -0.018803 -301599.000000 0 0 1
17.950242 -18.494439 7.194763 26.758552 -0.800329 1.298569 0.043083 -0.003012 -78297.000000 0 0 1
18.551963 -26.220555 -12.238637 34.372621 -0.955031 1.934842 0.094039 -0.018365 121771.000000 0 0 1
18.905263 -24.880535 -12.473837 33.645900 -0.921026 1.950601 0.114109 -0.024342 100277.000000 0 0 1
17.769463 -24.195035 -12.990737 32.709521 -0.937337 1.979211 0.082024 -0.021939 286977.000000 0 0 1
18.080163 -22.724235 -13.305037 31.942247 -0.898724 2.000426 0.084470 -0.030690 43674.400000 0 0 1
18.204263 -21.800735 -12.258837 30.934549 -0.875058 1.978261 0.083881 -0.039099 276314.000000 0 0 1
19.417363 -21.848635 -11.485437 31.405606 -0.844247 1.945195 0.083166 -0.040652 -51895.500000 0 0 1
19.451963 -22.682335 -10.171837 31.564750 -0.861917 1.898905 0.078796 -0.030393 247384.000000 0 0 1
18.620063 -22.153035 -9.142937 30.348921 -0.871832 1.876811 0.071653 -0.029458 1142800.000000 0 0 1
17.197063 -22.292735 -9.320537 29.657670 -0.913727 1.890485 0.074040 -0.016725 862941.000000 0 0 1
16.296963 -21.516535 -8.323437 28.245918 -0.922566 1.869914 0.060337 -0.020574 -382451.000000 0 0 1
16.137263 -20.144435 -8.628637 27.215122 -0.895398 1.893417 0.056683 -0.029171 279143.000000 0 0 1
15.244163 -19.544335 -7.703437 25.955895 -0.908383 1.872125 0.050994 -0.030068 1749200.000000 0 0 1
13.671863 -19.652935 -7.938337 25.222507 -0.962986 1.890971 0.036067 -0.012102 1380720.000000 0 0 1
13.137963 -20.984135 -7.813537 25.961343 -1.011413 1.876504 0.031160 -0.016070 672813.000000 0 0 1
11.728463 -20.917335 -8.113637 25.316454 -1.059771 1.897042 0.025275 -0.013236 719744.000000 0 0 1
11.100863 -22.327235 -7.983837 26.181601 -1.109400 1.880673 0.021256 -0.009938 -395280.000000 0 0 1
11.235363 -22.751135 -6.650837 26.231301 -1.112091 1.827140 0.031782 -0.015415 171816.000000 0 0 1
10.567963 -23.964035 -6.297537 26.937256 -1.155458 1.806765 0.022690 -0.013082 259784.000000 0 0 1
11.001363 -24.507135 -4.844737 27.296540 -1.148854 1.749227 0.038641 -0.016947 207156.000000 0 0 1
10.140963 -25.438475 -4.194937 27.704740 -1.191457 1.722797 0.039705 -0.019618 17825.200000 0 0 1
10.721063 -25.891025 -2.935337 28.176276 -1.178208 1.675163 0.042184 -0.020911 -253732.000000 0 0 1
9.706863 -26.736315 -2.136937 28.524029 -1.222535 1.645784 0.048012 -0.019940 481487.000000 0 0 1
8.804063 -25.930935 -1.355437 27.418280 -1.243488 1.620252 0.045273 -0.019934 12437.600000 0 0 1
8.193663 -26.803155 -0.418737 28.030707 -1.274121 1.585735 0.059444 -0.022228 -138630.000000 0 0 1
7.329763 -26.117975 0.634263 27.134412 -1.297194 1.547419 0.062948 -0.018992 1290300.000000 0 0 1
6.006663 -25.731195 0.143263 26.423378 -1.341464 1.565374 0.071343 -0.026482 1166090.000000 0 0 1
5.214963 -25.356595 1.271463 25.918514 -1.367960 1.521720 0.087023 -0.022967 -391678.000000 0 0 1
3.819563 -24.884535 0.903963 25.192187 -1.418494 1.534906 0.047983 -0.033230 -460540.000000 0 0 1
2.983463 -25.913395 0.409463 26.087789 -1.456169 1.555100 0.041706 -0.036062 42318.900000 0 0 1
1.663963 -25.422345 0.247163 25.477941 -1.505437 1.561095 0.033344 -0.030729 215034.000000 0 0 1
0.541563 -26.411205 -0.076937 26.416868 -1.550294 1.573709 0.034649 -0.030574 20625.300000 0 0 1
0.214063 -27.482965 0.838763 27.496594 -1.563008 1.540287 0.035292 -0.023341 221418.000000 0 0 1
1.183963 -28.536095 0.786263 28.571466 -1.529330 1.543274 0.022016 -0.024264 325012.000000 0 0 1
0.684563 -29.764215 1.632863 29.816830 -1.547801 1.516006 0.039722 -0.015242 135217.000000 0 0 1
0.890663 -29.494285 3.024663 29.662345 -1.540608 1.468649 0.029716 -0.012917 -77769.600000 0 0 1
0.336063 -30.503225 3.814863 30.742687 -1.559779 1.446386 0.038062 -0.012129 -239913.000000 0 0 1
0.521663 -30.457755 5.321463 30.923533 -1.553671 1.397851 0.036123 -0.015958 -234463.000000 0 0 1
1.858463 -30.702995 5.693163 31.281622 -1.510340 1.387779 0.028610 -0.006281 -116977.000000 0 0 1
2.067663 -30.431535 7.092063 31.315346 -1.502956 1.342342 0.035166 -0.008525 959383.000000 0 0 1
3.481663 -30.917765 7.584863 32.024370 -1.458658 1.331678 0.046925 -0.010098 1023380.000000 0 0 1
3.521663 -32.310075 7.424363 33.338629 -1.462229 1.346218 0.036742 -0.015032 1272250.000000 0 0 1
4.878763 -32.785155 7.695563 34.027788 -1.423070 1.342667 0.038946 -0.013866 1503720.000000 0 0 1
4.986963 33.959454 7.579963 35.150678 1.424988 1.353447 0.024859 -0.007050 -308704.000000 0 0 1
5.006563 33.480478 6.246463 34.424212 1.422359 1.388330 0.020177 -0.001813 -1996.810000 0 0 1
4.782063 32.145330 6.030063 33.053775 1.423116 1.387337 0.018225 -0.005055 -642903.000000 0 0 1
5.188663 31.675300 4.599063 32.425272 1.408430 1.428481 0.022347 -0.002626 -1059670.000000 0 0 1
6.510763 31.787030 4.246563 32.723670 1.368766 1.440659 0.045380 -0.004740 -1539500.000000 0 0 1
7.189263 30.611570 4.585663 31.777068 1.340122 1.425983 0.044584 -0.006082 -1146260.000000 0 0 1
8.562163 30.622090 3.949363 32.040919 1.298152 1.447222 0.044826 -0.005219 -712234.000000 0 0 1
9.612163 31.087360 4.773363 32.887728 1.270922 1.425141 0.044943 -0.012312 -429904.000000 0 0 1
10.760263 31.416740 4.049363 33.454329 1.240818 1.449457 0.040002 -0.016203 -86455.500000 0 0 1
11.910763 31.951380 4.936863 34.454747 1.213975 1.427016 0.042859 -0.025099 -137234.000000 0 0 1
12.567263 30.905200 5.558963 33.822619 1.184580 1.405691 0.047019 -0.022163 368192.000000 0 0 1
13.793763 31.267430 6.214263 34.735243 1.155323 1.390924 0.061445 -0.020867 702906.000000 0 0 1
14.404763 30.147530 7.058363 34.149542 1.125059 1.362606 0.054170 -0.021801 -94761.500000 0 0 1
13.855663 30.046040 8.396563 34.135702 1.138711 1.322270 0.049419 -0.016947 594590.000000 0 0 1
14.513263 28.994320 9.135263 33.686176 1.106705 1.296170 0.044598 -0.010729 473907.000000 0 0 1
14.072763 28.876130 10.631463 33.836394 1.117320 1.251180 0.041613 -0.002586 571176.000000 0 0 1
14.939563 29.760590 11.391963 35.194603 1.105557 1.241175 0.044573 -0.002963 793260.000000 0 0 1
14.584863 29.772070 12.796163 35.536406 1.115274 1.202436 0.037072 0.000516 -230670.000000 0 0 1
15.294063 30.818780 13.632763 37.007537 1.110147 1.193533 0.041846 -0.007392 -860495.000000 0 0 1
16.569163 30.471450 14.033063 37.416217 1.072756 1.186342 0.035009 -0.004488 -901350.000000 0 0 1
17.182363 31.549890 14.694763 38.814497 1.072101 1.182524 0.043144 -0.006519 72523.300000 0 0 1
18.386863 31.204070 15.628663 39.446493 1.038322 1.163423 0.044788 -0.001289 182353.000000 0 0 1
19.498063 30.766610 14.893863 39.352076 1.005936 1.182646 0.043532 -0.002890 -358573.000000 0 0 1
19.722163 29.336530 14.912963 38.366550 0.978922 1.171579 0.040433 0.001429 -439601.000000 0 0 1
21.122963 28.891280 14.479363 38.607481 0.939489 1.186356 0.062215 -0.007798 82716.700000 0 0 1
22.173963 29.409990 15.295963 39.882310 0.924765 1.177183 0.072591 -0.009067 -856519.000000 0 0 1
23.363663 29.254750 14.635263 40.198160 0.896893 1.198154 0.082906 -0.009609 -142810.000000 0 0 1
24.634963 29.286440 15.597163 41.326123 0.871449 1.183791 0.110736 -0.019203 821506.000000 0 0 1
24.671863 28.098770 16.402363 40.832330 0.850247 1.157423 0.079327 -0.011718 -232614.000000 0 0 1
25.549263 28.317080 17.469763 41.950143 0.836736 1.141269 0.080291 -0.022156 -455426.000000 0 0 1
26.350163 27.041270 17.770963 41.729708 0.798342 1.130885 0.041887 -0.016981 -156778.000000 0 0 1
25.642463 26.002330 18.438663 40.910162 0.792366 1.103235 0.030193 -0.009551 66129.300000 0 0 1
25.463163 26.088170 19.828263 41.498497 0.797522 1.072640 0.066917 -0.016114 -161149.000000 0 0 1
24.940563 24.783450 20.399163 40.649439 0.782238 1.045082 0.065829 -0.012078 -296423.000000 0 0 1
25.926663 23.803910 20.477563 40.720370 0.742739 1.043866 0.033518 -0.010201 -247007.000000 0 0 1
25.304463 22.500270 20.515863 39.591396 0.726806 1.026063 0.033317 -0.010441 -318120.000000 0 0 1
26.257563 21.353370 20.633063 39.637726 0.682755 1.023312 0.011279 -0.008312 -443765.000000 0 0 1
25.646363 20.062470 20.783163 38.628726 0.663838 1.002706 0.006006 0.012407 139777.000000 0 0 1
26.637463 19.032370 20.830863 38.803484 0.620389 1.004121 0.014116 -0.002298 493674.000000 0 0 1
27.100763 18.636870 22.261463 39.715954 0.602415 0.975787 0.021288 0.003117 -159307.000000 0 0 1
26.070263 18.018770 22.977063 39.144349 0.604770 0.943469 0.017260 0.014408 -169896.000000 0 0 1
26.538163 17.477070 24.194163 39.938447 0.582372 0.920043 0.041408 0.015347 -363372.000000 0 0 1
25.467663 16.819970 25.048763 39.483589 0.583682 0.883552 0.033778 0.014296 -335244.000000 0 0 1
25.219063 15.512270 24.527763 38.447923 0.551449 0.878966 0.027880 0.008385 697416.000000 0 0 1
24.070063 14.871670 25.104263 37.825369 0.553441 0.845057 0.028632 0.007027 364560.000000 0 0 1
23.468363 13.812970 24.161763 36.405398 0.531979 0.845060 0.017813 0.014981 200832.000000 0 0 1
22.263563 13.274770 24.717263 35.816600 0.537662 0.809160 -0.002806 0.011809 481961.000000 0 0 1
21.816163 12.162870 23.946463 34.602217 0.508596 0.806471 0.004352 0.013947 -763369.000000 0 0 1
20.538663 11.591170 24.535063 34.031768 0.513800 0.765630 0.005063 0.008755 -1181460.000000 0 0 1
19.521763 12.530970 24.423763 33.684486 0.570658 0.759654 0.005090 0.002524 -469344.000000 0 0 1
18.300863 11.807970 24.524463 32.799375 0.573003 0.726188 0.010833 0.002372 669630.000000 0 0 1
17.056563 12.662770 24.979563 32.791015 0.638618 0.704739 0.011885 -0.006607 411750.000000 0 0 1
16.958563 13.119370 26.311563 33.941259 0.658443 0.683751 0.019885 -0.006449 -250163.000000 0 0 1
15.710563 13.682870 26.590763 33.780340 0.716523 0.664595 0.025737 -0.013779 -281151.000000 0 0 1
15.457663 13.773670 28.138063 34.934280 0.727853 0.634350 0.026379 -0.007687 -264404.000000 0 0 1
15.328063 12.547570 28.794663 34.950302 0.685981 0.602583 0.046222 -0.007042 -96920.200000 0 0 1
15.756163 12.644970 30.152763 36.295193 0.676289 0.590316 0.044827 -0.018910 349752.000000 0 0 1
17.276363 12.595970 30.501863 37.249091 0.629982 0.611371 0.037574 -0.005538 228067.000000 0 0 1
18.016763 13.763570 30.270163 37.819603 0.652358 0.642863 0.031645 -0.010358 -812952.000000 0 0 1
19.367763 13.528870 30.113663 38.274969 0.609735 0.665235 0.022898 -0.001578 -1081110.000000 0 0 1
20.077263 14.813870 29.684163 38.777529 0.635675 0.698980 0.036908 -0.004313 -558913.000000 0 0 1
19.711763 15.311370 28.419463 37.824034 0.660411 0.720676 0.032085 -0.007457 281049.000000 0 0 1
19.915363 14.503570 27.295763 36.770013 0.629442 0.734244 0.028482 0.001027 -240765.000000 0 0 1
19.553563 15.287470 26.003863 35.947871 0.663560 0.762115 0.013444 0.001575 -124459.000000 0 0 1
20.593463 16.175270 25.637463 36.647095 0.665810 0.795991 0.018223 0.003780 462622.000000 0 0 1
20.479163 16.604970 24.274863 35.838389 0.681305 0.826652 0.011060 -0.001847 386310.000000 0 0 1
21.613963 17.669270 23.940763 36.776713 0.685317 0.861927 0.019707 -0.006619 521118.000000 0 0 1
21.640563 18.271970 22.662063 36.273240 0.701198 0.895972 0.030854 -0.011471 372785.000000 0 0 1
22.896263 18.932470 22.465863 37.247715 0.690918 0.923355 0.039641 -0.011650 431401.000000 0 0 1
23.108563 20.352070 23.136563 38.516399 0.722058 0.926428 0.060361 -0.020008 -120029.000000 0 0 1
22.298563 21.403170 22.637163 38.311392 0.764912 0.938656 0.058394 -0.018932 76838.600000 0 0 1
22.477163 22.476870 23.528963 39.548004 0.785392 0.933597 0.083390 -0.022594 560855.000000 0 0 1
21.557663 23.735340 23.241863 39.601558 0.833441 0.943581 0.073645 -0.028223 429381.000000 0 0 1
21.913263 24.399550 22.028163 39.506570 0.839031 0.979326 0.074216 -0.023686 720937.000000 0 0 1
20.939463 25.441860 21.691763 39.449739 0.882168 0.988602 0.078205 -0.020785 688189.000000 0 0 1
21.356763 26.422780 20.525363 39.693389 0.891032 1.027340 0.073195 -0.017917 -76117.200000 0 0 1
21.440163 25.782470 19.280063 38.679932 0.877094 1.048985 0.066082 -0.016246 101262.000000 0 0 1
21.680763 26.594060 18.192763 38.836531 0.886827 1.083267 0.067093 -0.014994 -149092.000000 0 0 1
21.795163 25.922520 16.816763 37.812824 0.871679 1.109916 0.062119 -0.004134 791343.000000 0 0 1
20.514463 25.536870 16.266163 36.572708 0.894030 1.109887 0.056869 -0.001756 718316.000000 0 0 1
20.481863 25.218860 14.900363 35.742390 0.888682 1.140784 0.067514 -0.002303 95454.500000 0 0 1
19.044663 24.831180 14.402163 34.448643 0.916525 1.139470 0.063094 -0.012932 351072.000000 0 0 1
18.213463 25.931420 14.192763 34.721799 0.958481 1.149705 0.059941 -0.010055 -695476.000000 0 0 1
17.363663 26.071190 15.299663 34.860915 0.983249 1.116448 0.060250 -0.008748 -1000510.000000 0 0 1
15.970663 26.611550 14.862563 34.411226 1.030274 1.124187 0.051907 -0.003563 -35625.700000 0 0 1
15.054463 25.641490 14.325163 33.005047 1.039906 1.121836 0.060914 -0.012865 643382.000000 0 0 1
14.498263 24.642000 15.189663 32.375201 1.038983 1.082439 0.080977 -0.027438 261415.000000 0 0 1
13.643563 25.189670 16.441963 33.030356 1.074399 1.049755 0.074530 -0.030475 182219.000000 0 0 1
14.416063 25.990440 17.302963 34.390673 1.064376 1.043580 0.060900 -0.022685 458226.000000 0 0 1
13.470063 26.639770 18.148563 34.935516 1.102649 1.024545 0.057374 -0.032062 -41033.000000 0 0 1
13.958563 27.910490 18.759163 36.410756 1.107054 1.029544 0.052674 -0.031137 -679387.000000 0 0 1
13.969763 29.037710 17.960663 36.890762 1.122391 1.062304 0.046393 -0.028529 509304.000000 0 0 1
14.800963 30.082780 18.498963 38.291693 1.113563 1.066597 0.037066 -0.027738 181693.000000 0 0 1
14.783763 31.430580 17.771863 39.016408 1.131139 1.097866 0.042932 -0.023799 1947340.000000 0 0 1
13.372563 31.859260 17.727963 38.834502 1.173391 1.096739 0.041298 -0.023028 1921130.000000 0 0 1
13.170663 33.094676 17.091163 39.507364 1.192042 1.123414 0.040813 -0.015746 -34653.900000 0 0 1
11.808563 33.759034 17.378263 39.763282 1.234309 1.118488 0.048543 -0.020750 -161329.000000 0 0 1
11.559063 -33.320835 16.740063 39.039975 -1.236884 1.127640 0.043769 -0.008016 -105349.000000 0 0 1
12.312463 -32.177365 17.193863 38.504655 -1.205341 1.107902 0.036700 -0.013907 61142.000000 0 0 1
12.315163 -31.770225 18.641463 38.839600 -1.200997 1.070187 0.044717 -0.024825 -511934.000000 0 0 1
13.144563 -32.645125 19.377663 40.174339 -1.188007 1.067473 0.049991 -0.023637 254785.000000 0 0 1
12.837063 -32.573675 20.782063 40.715213 -1.195392 1.035117 0.044042 -0.030126 589413.000000 0 0 1
14.000763 -33.195545 21.677763 42.046295 -1.171668 1.029125 0.039303 -0.031306 -129625.000000 0 0 1
15.169963 -32.486165 21.492663 41.802072 -1.133923 1.030776 0.045799 -0.027065 -986974.000000 0 0 1
16.110763 -33.033135 22.406063 43.043888 -1.117025 1.023313 0.056163 -0.024769 169171.000000 0 0 1
17.529863 -32.420025 22.398263 43.128138 -1.075113 1.024715 0.085630 -0.027443 168093.000000 0 0 1
17.548663 -31.011475 22.492763 42.137768 -1.055846 1.007719 0.094156 -0.029466 -644653.000000 0 0 1
18.858363 -30.574525 22.343463 42.304488 -1.018115 1.014366 0.090483 -0.023897 -632829.000000 0 0 1
-5.050137 12.850265 18.273166 22.902877 -1.196340 0.647068 0.018296 -0.000366 -298222.000000 0 1 0
-4.710237 14.095765 17.824166 23.207279 -1.248302 0.695018 0.019648 0.000921 62446.200000 0 1 0
-5.928437 14.814265 17.753366 23.870291 -1.190131 0.732144 0.024941 0.001634 137996.000000 0 1 0
-5.742237 16.313065 17.615066 24.685622 -1.232339 0.776207 0.033640 0.000173 -88890.500000 0 1 0
-5.259937 16.965665 18.783066 25.851582 -1.270159 0.757475 0.026819 0.002876 129738.000000 0 0 1
-4.900837 18.314565 18.490566 26.482872 -1.309330 0.797904 0.022845 0.009567 -365652.000000 0 0 1
-4.200537 18.937465 19.682766 27.634822 -1.352519 0.778105 0.022357 0.005081 -130046.000000 0 0 1
-5.050137 19.073565 20.822966 28.686245 -1.311964 0.758474 0.006511 0.012115 279524.000000 0 0 1
-4.550437 20.019165 21.755066 29.912478 -1.347290 0.756430 0.014368 0.006954 27495.000000 0 0 1
-5.606137 20.313665 22.844866 31.079924 -1.301521 0.745076 0.004266 0.011025 121017.000000 0 0 1
-5.872737 19.092365 23.536626 30.870377 -1.272385 0.703730 -0.000436 0.003252 42951.800000 0 0 1
-6.488437 19.171865 24.829086 32.033478 -1.244461 0.683926 -0.001856 -0.001417 277981.000000 0 0 1
-5.540337 19.761765 25.914486 33.057273 -1.297457 0.669831 -0.004411 -0.005220 -780724.000000 0 0 1
-5.360137 21.131665 25.659696 33.670437 -1.322381 0.704271 0.010606 -0.013592 -208050.000000 0 0 1
-4.644937 21.843365 26.654856 34.773400 -1.361270 0.697376 0.020901 -0.009634 -1214930.000000 0 0 1
-3.148837 21.686965 26.439176 34.340496 -1.426609 0.692092 0.037985 0.004704 -1250970.000000 0 0 1
-2.695837 20.414165 26.793036 33.791603 -1.439499 0.655259 0.041657 0.007931 659625.000000 0 0 1
-1.274237 20.218765 26.578106 33.418825 -1.507857 0.651288 0.042079 0.013844 1361520.000000 0 0 1
-0.807037 18.834965 27.114256 33.024083 -1.527975 0.607557 0.040841 0.018686 42471.700000 0 0 1
-1.129437 17.738365 26.210786 31.669078 -1.507210 0.595896 0.050269 0.015043 -57350.100000 0 0 1
-0.583037 16.484865 26.643406 31.336269 -1.535443 0.554352 0.046993 0.011006 50031.200000 0 0 1
0.894463 16.145565 26.342306 30.909487 1.515453 0.550544 0.069529 0.012128 -4381.910000 0 0 1
1.188063 15.848565 24.976796 29.604541 1.495973 0.566692 0.060507 0.014796 -54508.800000 0 0 1
0.679463 14.597465 24.478406 28.508595 1.524283 0.538201 0.069563 0.004127 -136891.000000 0 0 1
0.794863 14.558565 22.937066 27.178900 1.516253 0.566231 0.078971 -0.011250 -696157.000000 0 0 1
2.082563 14.377165 22.478766 26.764433 1.426945 0.573744 0.071217 -0.008497 -1117670.000000 0 0 1
2.137663 13.656265 21.261666 25.359842 1.415523 0.576457 0.058369 -0.013507 1460920.000000 0 0 1
3.644863 13.446465 20.788466 25.025043 1.306092 0.590421 0.041821 -0.014408 1723510.000000 0 0 1
4.264163 14.561065 20.158166 25.230128 1.285915 0.645212 0.048924 -0.007382 -901252.000000 0 0 1
5.641963 14.454465 20.043066 25.347343 1.198657 0.658785 0.049194 -0.009795 -347082.000000 0 0 1
6.256763 15.628865 19.203366 25.537771 1.190002 0.719767 0.063244 -0.019340 82955.800000 0 0 1
5.905663 15.427165 17.849466 24.320315 1.205197 0.746703 0.050646 -0.027837 182985.000000 0 1 0
6.346563 16.493565 17.017166 24.533660 1.203470 0.804287 0.046071 -0.019582 -108903.000000 0 1 0
6.478763 15.978865 15.547166 23.216651 1.185593 0.837051 0.034356 -0.020452 212217.000000 0 1 0
7.562463 15.116365 15.193966 22.727779 1.106922 0.838580 0.032697 -0.018316 381464.000000 0 1 0
7.665563 13.852765 15.810966 22.375133 1.065377 0.786071 0.040363 -0.016814 -131339.000000 0 1 0
8.725063 13.042365 15.023866 21.724331 0.981195 0.807138 0.035827 -0.023873 462695.000000 0 1 0
10.051363 13.537565 15.114266 22.643688 0.932126 0.839974 0.040413 -0.029235 -123170.000000 0 1 0
10.965763 12.812865 14.350266 22.143794 0.862922 0.865776 0.042463 -0.021528 -1000160.000000 0 1 0
12.278663 13.567965 14.292566 23.219231 0.835240 0.907714 0.042882 -0.017039 -1375470.000000 0 1 0
12.966663 13.455665 15.522166 24.292528 0.803903 0.877639 0.052680 -0.026564 233365.000000 0 1 0
14.226463 14.118465 15.411566 25.283189 0.781588 0.915294 0.055115 -0.024139 90497.100000 0 0 1
15.401163 13.217165 15.009266 25.242174 0.709231 0.934015 0.044668 -0.021309 -1077790.000000 0 0 1
16.604463 13.910765 14.870066 26.274254 0.697353 0.969204 0.052656 -0.035866 24819.100000 0 0 1
17.537163 13.236365 14.042766 26.075903 0.646541 1.002100 0.052342 -0.032836 134213.000000 0 0 1
18.919063 13.900065 13.879766 27.272526 0.633645 1.036857 0.049714 -0.030928 342729.000000 0 0 1
19.727763 13.940065 15.045466 28.458322 0.615156 1.013747 0.021914 -0.026146 -696936.000000 0 0 1
21.076063 14.029865 14.776066 29.315007 0.587318 1.042521 0.031663 -0.037902 -879498.000000 0 0 1
22.029163 13.760965 15.991466 30.502052 0.558362 1.018933 0.040172 -0.023177 85432.900000 0 0 1
22.121363 12.396565 16.232466 30.108512 0.510784 1.001390 0.041163 -0.021940 -378770.000000 0 0 1
23.093663 12.143865 17.170666 31.234956 0.484115 0.988760 0.027861 -0.020295 -712086.000000 0 0 1
23.446463 10.623365 17.155766 30.934007 0.425421 0.982923 0.040444 -0.010483 -598448.000000 0 0 1
22.418963 9.784165 17.614966 30.143437 0.411507 0.946691 0.026309 0.000977 62045.100000 0 0 1
22.612963 8.403765 17.437966 29.766626 0.355817 0.944901 0.020742 0.001398 132904.000000 0 0 1
21.342763 7.608465 17.874066 28.859738 0.342444 0.902891 0.046657 0.000548 286513.000000 0 0 1
21.277663 6.309065 17.369966 28.182600 0.288253 0.906714 0.060222 -0.002685 -172092.000000 0 0 1
20.143963 5.672065 17.862666 27.514113 0.274470 0.864240 0.063003 -0.006636 -658122.000000 0 0 1
19.809863 4.276565 17.297566 26.644426 0.212618 0.864264 0.092196 -0.005379 -506339.000000 0 0 1
18.950163 4.222565 16.160366 25.260565 0.219243 0.876628 0.095790 -0.017793 734056.000000 0 0 1
18.439963 2.961365 15.723266 24.413582 0.159235 0.871032 0.090633 -0.024115 16284.100000 0 1 0
17.621363 2.113165 16.689966 24.362530 0.119351 0.816101 0.098655 -0.016785 -252637.000000 0 1 0
18.419563 1.582465 17.723766 25.610864 0.085702 0.806484 0.109918 -0.020340 252335.000000 0 0 1
17.540963 1.064165 18.683366 25.649288 0.060593 0.754788 0.081812 -0.017612 -12375.800000 0 0 1
18.303563 0.145965 19.683166 26.878778 0.007975 0.749112 0.094444 -0.023137 4617.520000 0 0 1
18.451363 -1.235735 19.319866 26.743916 -0.066873 0.763526 0.099223 -0.020513 682808.000000 0 0 1
17.254963 -2.032035 19.489766 26.109651 -0.117225 0.728073 0.076658 -0.004125 761036.000000 0 0 1
17.422863 -3.508535 19.033766 26.041317 -0.198718 0.751147 0.054837 -0.001926 -147839.000000 0 0 1
17.617163 -3.585535 17.628866 25.179305 -0.200783 0.795212 0.078439 -0.009203 196264.000000 0 0 1
17.392763 -4.881435 17.159766 24.915741 -0.273620 0.811085 0.075272 -0.008720 -158370.000000 0 1 0
16.965063 -4.837935 15.672666 23.597699 -0.277797 0.844426 0.070439 -0.013055 784871.000000 0 1 0
15.636563 -4.284235 15.517766 22.442322 -0.267425 0.807301 0.053244 -0.014670 853142.000000 0 1 0
15.263063 -4.419935 14.171566 21.291552 -0.281873 0.842505 0.047868 -0.019219 48560.200000 0 1 0
15.715963 -3.200235 13.307766 20.840576 -0.200883 0.878183 0.059598 -0.016926 141353.000000 0 1 0
14.981963 -2.034635 13.672466 20.384682 -0.134980 0.835614 0.048923 -0.011756 293964.000000 0 1 0
15.395063 -0.926435 12.913766 20.115456 -0.060105 0.873716 0.050661 -0.021613 -185676.000000 0 1 0
14.594963 0.342165 13.231966 19.703171 0.023440 0.834477 0.059412 -0.014436 -603532.000000 0 1 0
14.871363 1.545265 12.566566 19.531100 0.103537 0.871848 0.064442 -0.018443 730638.000000 0 1 0
16.018063 2.177065 13.185766 20.861025 0.135085 0.886566 0.090191 -0.027833 650572.000000 0 1 0
16.116363 3.631265 12.662766 20.815112 0.221615 0.916823 0.082457 -0.025037 271576.000000 0 1 0
15.079663 4.450565 13.203266 20.531195 0.286989 0.872279 0.073708 -0.017880 668736.000000 0 1 0
15.127863 5.647865 12.428966 20.377188 0.357316 0.914805 0.080618 -0.023035 712060.000000 0 1 0
14.143663 6.772865 12.997066 20.367587 0.446595 0.878736 0.070325 -0.011660 726623.000000 0 1 0
14.291463 7.868365 12.087566 20.304343 0.503276 0.933133 0.054226 -0.021212 -22836.900000 0 1 0
13.346063 8.863565 12.297566 20.196789 0.586247 0.916139 0.047027 -0.011592 -587520.000000 0 1 0
13.460763 9.823765 13.495466 21.443556 0.630452 0.890082 0.043055 -0.019010 -207580.000000 0 1 0
13.075163 9.180965 14.704366 21.713323 0.612180 0.826839 0.048465 -0.019923 627314.000000 0 1 0
13.642063 9.730065 15.910666 23.106911 0.619557 0.811285 0.057602 -0.025884 -79663.700000 0 1 0
13.358363 8.965565 17.212266 23.560333 0.591105 0.751653 0.060702 -0.034514 -184021.000000 0 1 0
12.023463 9.239165 17.577166 23.213845 0.655191 0.711804 0.050148 -0.030830 155336.000000 0 1 0
11.456663 8.416365 18.623766 23.429361 0.633589 0.651970 0.058184 -0.025050 66775.900000 0 1 0
11.900063 8.775565 20.065866 24.925108 0.635413 0.635043 0.056828 -0.021353 669613.000000 0 1 0
13.290863 8.406765 20.198366 25.598725 0.563990 0.661555 0.066961 -0.021832 838050.000000 0 0 1
13.707163 8.748765 21.528066 26.979341 0.568079 0.646916 0.056410 -0.010507 -137555.000000 0 0 1
15.236563 8.553865 21.581066 27.768037 0.511556 0.680607 0.047603 -0.007228 10161.100000 0 0 1
15.926163 9.487465 20.776766 27.844724 0.537263 0.728513 0.051087 -0.005128 28119.000000 0 0 1
16.815263 8.906065 19.846966 27.494965 0.487079 0.764339 0.037841 -0.012552 271356.000000 0 0 1
17.665363 9.922565 18.996566 27.773942 0.511779 0.817604 0.050285 -0.015965 138500.000000 0 0 1
18.540863 10.698765 19.791666 29.153683 0.523364 0.824569 0.033719 -0.015719 -213324.000000 0 0 1
19.440063 11.392865 18.981166 29.461807 0.530100 0.870736 0.042122 -0.022869 142607.000000 0 0 1
20.358363 12.259865 19.949566 31.028252 0.542038 0.872455 0.022736 -0.017987 48017.100000 0 0 1
19.786563 13.515565 20.407166 31.474291 0.599272 0.865347 0.021319 -0.014846 357198.000000 0 0 1
20.565263 14.297265 21.300666 32.879480 0.607507 0.866050 0.012660 -0.008433 750514.000000 0 0 1
21.946163 14.948965 20.865566 33.770956 0.597973 0.904784 0.000759 -0.001500 1294470.000000 0 0 1
22.988863 13.996965 20.664266 33.932503 0.546908 0.916020 -0.008154 0.005639 268629.000000 0 0 1
24.255363 14.633065 20.657866 35.059901 0.542837 0.940708 0.007607 -0.002923 219851.000000 0 0 1
25.449263 13.649665 20.625166 35.487685 0.492302 0.950603 0.021723 -0.010563 28767.300000 0 0 1
25.699963 13.138565 19.347966 34.748435 0.472590 0.980267 0.031321 -0.024751 -161.781000 0 0 1
26.822763 12.293465 19.405566 35.315236 0.429753 0.989036 0.051423 -0.028048 -34957.000000 0 0 1
27.017763 11.596465 18.041566 34.495443 0.405437 1.020414 0.065981 -0.026731 -11555.000000 0 0 1
27.504163 12.526365 17.007466 34.679139 0.427365 1.058221 0.065856 -0.037276 650570.000000 0 0 1
27.904263 11.920265 15.771066 34.197472 0.403719 1.091476 0.076337 -0.035856 217826.000000 0 0 1
26.678763 11.522665 14.910166 32.662536 0.407704 1.096749 0.058721 -0.041802 139168.000000 0 0 1
25.907063 12.604565 14.424666 32.219900 0.452814 1.106611 0.077578 -0.045167 816922.000000 0 0 1
24.842563 12.104165 13.558466 30.781419 0.453384 1.114668 0.074673 -0.037990 712168.000000 0 0 1
24.359863 13.141365 12.582266 30.404141 0.494721 1.144135 0.063303 -0.039051 -162574.000000 0 0 1
23.678763 14.201565 13.252066 30.626549 0.540243 1.123312 0.044792 -0.035991 134423.000000 0 0 1
24.339263 15.452965 13.057566 31.649548 0.565686 1.145526 0.041144 -0.031270 247222.000000 0 0 1
23.460163 16.707765 13.391866 31.762726 0.618851 1.135563 0.047030 -0.033369 668513.000000 0 0 1
22.392363 17.076665 12.521966 30.819313 0.651524 1.152392 0.058707 -0.055814 550709.000000 0 0 1
21.415063 17.863965 13.165666 30.839276 0.695236 1.129721 0.059981 -0.046169 -522416.000000 0 0 1
20.380163 18.538865 12.251066 30.151769 0.738122 1.152381 0.073880 -0.034520 71181.300000 0 0 1
19.376463 17.622065 11.812766 28.731967 0.738016 1.147096 0.079808 -0.032773 -69640.300000 0 0 1
18.212863 17.717865 12.604966 28.363996 0.771623 1.110292 0.071975 -0.036596 188629.000000 0 0 1
16.944463 17.116565 11.888766 26.859531 0.790451 1.112270 0.078228 -0.029728 600871.000000 0 0 1
17.092463 15.706165 11.699166 25.994353 0.743156 1.103957 0.077683 -0.025919 1049260.000000 0 0 1
15.862663 15.256065 11.080566 24.640425 0.765908 1.104378 0.074898 -0.024510 1039340.000000 0 1 0
16.087963 13.883865 10.268566 23.601434 0.711991 1.120667 0.077662 -0.029236 10960.100000 0 1 0
16.232763 12.739365 11.118566 23.439636 0.665400 1.076572 0.090241 -0.019444 383806.000000 0 1 0
16.692363 11.666965 10.290566 22.817730 0.610014 1.102922 0.079971 -0.014664 25108.300000 0 1 0
17.047463 10.384565 11.089666 22.834970 0.547125 1.063697 0.084050 -0.017077 -859971.000000 0 1 0
17.828763 9.510265 10.339066 22.698154 0.490027 1.097860 0.097480 -0.012170 395692.000000 0 1 0
18.477063 8.448565 11.047366 23.126271 0.428863 1.072764 0.118755 -0.010059 1446140.000000 0 1 0
19.755263 8.827465 11.896666 24.692614 0.420224 1.068100 0.094759 -0.018778 865464.000000 0 1 0
19.172063 9.565865 13.006866 25.064962 0.462806 1.025202 0.067162 -0.021505 614687.000000 0 0 1
20.172363 9.706865 13.976866 26.391291 0.448492 1.012666 0.065890 -0.011576 -1235860.000000 0 0 1
19.611763 10.152465 15.342866 26.890469 0.477685 0.963598 0.043768 -0.018487 390819.000000 0 0 1
18.879363 9.146765 16.116666 26.454500 0.451159 0.915717 0.053720 -0.009639 1218130.000000 0 0 1
17.761763 8.595165 15.410066 25.036518 0.450696 0.907772 0.077769 -0.022786 -681948.000000 0 0 1
17.159563 7.261265 15.905566 24.498236 0.400312 0.864194 0.081056 -0.016437 -569493.000000 0 1 0
16.455263 7.329465 17.126766 24.856042 0.419037 0.810635 0.093112 -0.020637 482506.000000 0 1 0
15.906263 6.076065 17.611366 24.496693 0.364887 0.768537 0.094914 -0.007170 487017.000000 0 1 0
14.872263 5.307365 16.732866 23.007414 0.342776 0.756444 0.104106 -0.037470 -471456.000000 0 1 0
14.331463 4.158065 17.303066 22.848992 0.282382 0.711659 0.097410 -0.022983 128203.000000 0 1 0
13.470463 3.625965 16.303966 21.457406 0.262946 0.707746 0.070365 -0.022751 -9364.100000 0 1 0
13.052263 2.194365 16.727766 21.330611 0.166564 0.669368 0.052099 -0.021385 -61610.500000 0 1 0
14.188263 1.331765 16.805666 22.034310 0.093590 0.703312 0.055006 -0.018281 284809.000000 0 1 0
14.093563 -0.093535 16.593366 21.771014 -0.006637 0.704127 0.051521 -0.015673 -412356.000000 0 1 0
13.312463 -0.864835 17.641966 22.118059 -0.064873 0.647445 0.046466 -0.016219 297500.000000 0 1 0
11.907963 -0.680735 17.636466 21.291029 -0.057104 0.594637 0.036343 -0.009764 -84516.200000 0 1 0
11.215463 -1.487135 18.521466 21.703522 -0.131828 0.548351 0.033251 -0.014885 -230715.000000 0 1 0
-26.116637 13.827465 28.811806 41.272239 -0.486929 0.798068 0.080815 -0.007599 731444.000000 0 0 1
-24.986637 13.744565 29.715266 41.185460 -0.502902 0.764832 0.070615 -0.009860 850753.000000 0 0 1
-24.347737 12.518865 29.666706 40.368895 -0.474919 0.745292 0.062362 -0.005736 380973.000000 0 0 1
-23.043537 12.448965 30.531766 40.226484 -0.495317 0.709026 0.041939 -0.013824 536715.000000 0 0 1
-23.415237 12.575565 31.900776 41.522014 -0.492860 0.694637 0.040108 -0.015273 73167.700000 0 0 1
-22.309337 12.607665 32.772830 41.601900 -0.514385 0.663612 0.019568 -0.014370 -655032.000000 0 0 1
-22.639537 13.056665 -34.073980 42.942535 -0.523126 2.487300 0.031700 -0.009065 -130597.000000 0 0 1
-23.268937 12.026065 -33.315707 42.379311 -0.477020 2.475321 0.031333 -0.012446 238651.000000 0 0 1
-23.710637 12.459865 -32.023037 41.748263 -0.483836 2.445028 0.006542 -0.007126 -39289.500000 0 0 1
-24.443437 11.384165 -31.171327 41.215682 -0.435862 2.428432 0.003638 -0.011597 -310703.000000 0 0 1
-23.706637 10.315865 -30.674767 40.116868 -0.410434 2.441271 0.012109 -0.011091 -205165.000000 0 0 1
-23.467837 9.230665 -31.547197 40.387748 -0.374745 2.467235 0.012624 -0.011265 12569.800000 0 0 1
-22.755737 8.104865 -30.777177 39.124763 -0.342159 2.476147 0.024629 -0.004982 -150222.000000 0 0 1
-23.616437 7.433365 -29.878987 38.803929 -0.304937 2.449636 0.023296 -0.002380 212676.000000 0 0 1
-22.881737 6.550365 -29.073017 37.572883 -0.278814 2.455578 0.023360 0.002196 3474.950000 0 0 1
-23.679137 5.747065 -27.959247 37.087057 -0.238102 2.424746 0.034501 0.001556 219933.000000 0 0 1
-24.533037 4.726765 -28.477837 37.884026 -0.190337 2.421449 0.034257 -0.004259 396451.000000 0 0 1
-24.947937 3.925965 -27.372217 37.243134 -0.156086 2.396404 0.061977 -0.004414 -292492.000000 0 0 1
-25.821307 2.720165 -27.755567 38.006719 -0.104959 2.389529 0.060192 -0.005740 1778540.000000 0 0 1
-27.236647 2.883865 -28.070887 39.218954 -0.105489 2.368491 0.053021 -0.006652 1556910.000000 0 0 1
-27.460607 3.449365 -29.346977 40.338916 -0.124957 2.385482 0.065313 -0.009417 -52492.800000 0 0 1
-28.874417 3.242465 -29.961177 41.736287 -0.111827 2.371532 0.066339 -0.015339 437817.000000 0 0 1
-29.957377 3.590665 -29.090157 41.911509 -0.119290 2.337945 0.068701 -0.018004 -393403.000000 0 0 1
-31.156737 3.760965 -29.754617 43.246091 -0.120130 2.329567 0.068980 -0.018986 -378275.000000 0 0 1
-31.438867 5.181265 -30.292707 43.964713 -0.163336 2.330937 0.058867 -0.030590 -541772.000000 0 0 1
-30.526967 5.478965 -31.359177 44.105700 -0.177589 2.361716 0.066377 -0.027781 327119.000000 0 0 1
-30.749467 6.651665 -32.119257 44.960216 -0.213036 2.366552 0.071465 -0.025156 -1118020.000000 0 0 1
-30.156247 7.971865 -31.558177 44.371933 -0.258440 2.362028 0.046429 -0.023532 222254.000000 0 0 1
-28.734217 7.997665 -31.424897 43.325997 -0.271462 2.382285 0.033262 -0.025426 750160.000000 0 0 1
-28.180697 7.427965 -30.228987 41.989499 -0.257722 2.374480 0.023418 -0.027900 -523960.000000 0 0 1
-28.186047 8.326365 -28.925067 41.236405 -0.287238 2.348219 0.021528 -0.019591 86403.500000 0 0 1
-29.396597 8.532365 -28.189767 41.612788 -0.282488 2.315060 0.024368 -0.028476 396649.000000 0 0 1
-29.816887 7.352365 -27.526597 41.240970 -0.241761 2.301586 0.013432 -0.013837 -72735.300000 0 0 1
-31.253227 7.405665 -26.931217 41.915374 -0.232666 2.268571 -0.004723 -0.011666 284203.000000 0 0 1
-31.423687 8.288465 -25.845777 41.522897 -0.257891 2.242661 -0.018734 -0.010950 -109827.000000 0 0 1
-30.978927 7.728665 -24.638037 40.329382 -0.244490 2.228019 -0.006191 -0.009666 -137309.000000 0 0 1
-30.414177 8.727065 -23.588037 39.466180 -0.279433 2.211397 0.002596 -0.005890 477590.000000 0 0 1
-31.388617 9.495865 -22.833237 39.959648 -0.293772 2.179016 0.007176 -0.014456 593570.000000 0 0 1
-30.701157 10.483965 -22.106337 39.257671 -0.329068 2.168939 0.012173 -0.019483 202044.000000 0 0 1
-31.590997 11.499365 -21.289937 39.793064 -0.349099 2.135323 0.007626 -0.008340 168430.000000 0 0 1
-32.144037 10.931565 -20.127837 39.469838 -0.327811 2.105929 0.011216 -0.015558 -29365.600000 0 0 1
-32.809867 11.809665 -19.278937 39.845113 -0.345505 2.075842 0.002268 -0.008071 -123258.000000 0 0 1
-31.902247 12.517965 -18.220537 38.812895 -0.373925 2.059459 0.010036 -0.006084 216653.000000 0 0 1
-31.310087 11.776365 -17.120537 37.578147 -0.359753 2.043840 0.049909 -0.011752 841447.000000 0 0 1
-32.215277 11.477565 -16.054837 37.779841 -0.342256 2.009712 0.044604 -0.009408 134756.000000 0 0 1
-32.851167 12.563965 -15.161437 38.300412 -0.365287 1.977796 0.027867 -0.002776 198853.000000 0 0 1
-33.446707 13.642165 -15.933637 39.480016 -0.387279 1.986231 0.022642 -0.003453 556562.000000 0 0 1
-34.140051 14.593665 -15.118337 40.088431 -0.403956 1.957486 0.009267 0.000386 266733.000000 0 0 1
-34.872118 15.752365 -15.844337 41.415512 -0.424282 1.963373 0.004543 -0.001967 590443.000000 0 0 1
-35.875154 15.287865 -16.764337 42.447479 -0.402836 1.976802 0.010781 -0.008356 404377.000000 0 0 1
36.356912 16.365465 -17.308037 43.465178 0.422965 1.980355 0.018226 -0.008724 -1035130.000000 0 0 1
35.903532 16.064965 -18.735837 43.568089 0.420730 2.015329 0.025357 -0.010283 245856.000000 0 0 1
34.703722 15.317665 -18.916237 42.388716 0.415666 2.033374 0.051041 -0.018761 366278.000000 0 0 1
33.564282 16.127665 -18.681437 41.661238 0.447927 2.035785 0.086478 -0.028042 -618170.000000 0 0 1
32.272312 15.325765 -19.036037 40.481501 0.443358 2.060359 0.098522 -0.036717 -629.439000 0 0 1
32.127522 15.019965 -20.410437 40.918981 0.437320 2.093011 0.102513 -0.037692 -20597.400000 0 0 1
31.314332 13.913365 -20.669537 40.017483 0.418115 2.113570 0.081787 -0.032679 -164260.000000 0 0 1
31.946292 12.491165 -20.384237 39.901277 0.372728 2.106989 0.072086 -0.005270 130325.000000 0 0 1
32.062742 12.258765 -19.033137 39.249931 0.365187 2.077070 0.081808 -0.005572 98940.700000 0 0 1
32.536132 10.953265 -18.831637 39.156155 0.324732 2.072519 0.052863 -0.002314 -211357.000000 0 0 1
32.685422 10.568565 -17.325137 38.473261 0.312731 2.037916 0.049891 0.005255 -405845.000000 0 0 1
31.478112 10.314665 -16.654537 37.076104 0.316652 2.036665 0.056400 0.001539 -183027.000000 0 0 1
31.660392 9.875265 -15.313237 36.529393 0.302349 2.003364 0.030525 0.002414 -128271.000000 0 0 1
31.212252 10.944665 -14.299937 36.034409 0.337256 1.978869 0.042251 -0.007163 -1345730.000000 0 0 1
29.837362 11.017865 -14.287137 34.868092 0.353732 1.992974 0.054352 -0.009338 -982651.000000 0 0 1
29.440412 12.026165 -13.339037 34.486178 0.387805 1.967948 0.052159 -0.012042 91117.700000 0 0 1
27.894442 12.060165 -13.252337 33.153762 0.408080 1.982011 0.080972 -0.012205 -360053.000000 0 0 1
27.322442 10.915565 -12.653437 32.027721 0.380083 1.976949 0.057432 -0.012063 104387.000000 0 0 1
25.911442 10.842365 -12.751737 30.847472 0.396301 1.996960 0.066687 -0.005759 89738.000000 0 0 1
25.448642 10.268965 -14.111737 30.858162 0.383535 2.045764 0.072147 -0.020326 -872577.000000 0 0 1
25.716142 8.876365 -14.275237 30.722829 0.332363 2.054031 0.071707 -0.015275 658834.000000 0 0 1
27.042542 8.594265 -14.706837 31.960156 0.307711 2.048974 0.066997 -0.019821 179449.000000 0 0 1
27.886042 7.757465 -13.721137 32.032472 0.271324 2.013463 0.070367 -0.013562 -343760.000000 0 0 1
27.712142 6.362465 -13.778337 31.595670 0.225680 2.022038 0.062474 -0.025398 -161046.000000 0 0 1
26.729542 5.963565 -12.904137 30.274565 0.219513 2.011125 0.065344 -0.022508 -742684.000000 0 0 1
26.542942 4.429465 -12.974137 29.874340 0.165355 2.020047 0.071772 -0.022610 -344000.000000 0 0 1
25.651142 3.889865 -12.039637 28.601836 0.150498 2.005277 0.071285 -0.021517 338888.000000 0 0 1
25.384042 2.526865 -12.183137 28.269480 0.099219 2.016357 0.069435 -0.023959 -119741.000000 0 0 1
24.442742 2.111265 -11.013037 26.892231 0.086162 1.992730 0.089758 -0.021243 49203.300000 0 0 1
25.102642 1.767965 -9.806937 27.008228 0.070313 1.942399 0.088765 -0.014857 912673.000000 0 0 1
24.087442 1.484965 -8.854537 25.706280 0.061571 1.922450 0.092680 -0.006731 -52256.000000 0 0 1
24.588842 1.278665 -7.364337 25.699798 0.051955 1.861423 0.094622 -0.005738 -99106.200000 0 0 1
24.882042 -0.026135 -6.943037 25.832586 -0.001050 1.842913 0.077084 -0.015123 393142.000000 0 0 1
25.881042 -0.786435 -7.565837 26.975706 -0.030377 1.855079 0.074363 -0.007511 -792146.000000 0 0 1
26.170742 -2.172835 -6.970737 27.170207 -0.082835 1.830256 0.072218 -0.021339 -589658.000000 0 0 1
26.802042 -2.186135 -5.710237 27.490643 -0.081386 1.780035 0.086345 -0.037292 504141.000000 0 0 1
26.896942 -3.524335 -5.216537 27.623879 -0.130289 1.760779 0.085009 -0.046961 231233.000000 0 0 1
28.353252 -3.902335 -4.775737 29.016251 -0.136773 1.736137 0.091777 -0.042634 430857.000000 0 0 1
29.298322 -4.125335 -5.801437 30.150734 -0.139885 1.764418 0.078626 -0.025788 -141728.000000 0 0 1
30.504662 -4.490935 -5.181237 31.265766 -0.146171 1.737280 0.083866 -0.031381 -783967.000000 0 0 1
31.587672 -4.678735 -6.235437 32.535400 -0.147050 1.763640 0.084903 -0.022773 -651710.000000 0 0 1
31.292812 -5.745935 -7.110837 32.600918 -0.181596 1.790682 0.078698 -0.017574 -199612.000000 0 0 1
32.188802 -5.803835 -8.165337 33.711663 -0.178389 1.815440 0.075173 -0.019646 -1165670.000000 0 0 1
31.648122 -6.651835 -9.326437 33.657584 -0.207166 1.851568 0.067045 -0.013610 384230.000000 0 0 1
30.371842 -6.289435 -9.822637 32.534443 -0.204195 1.877497 0.062867 -0.010728 399818.000000 0 0 1
29.277472 -6.748035 -9.069637 31.384147 -0.226530 1.863966 0.079397 -0.016247 -909694.000000 0 0 1
28.061262 -5.817535 -8.949037 30.022715 -0.204420 1.873472 0.073846 -0.012272 -777404.000000 0 0 1
27.208642 -5.903735 -10.050637 29.600331 -0.213668 1.917229 0.052441 -0.009117 -626194.000000 0 0 1
26.093442 -5.091335 -10.031637 28.415193 -0.192698 1.931612 0.054530 -0.014705 -76681.200000 0 0 1
24.854842 -5.892135 -9.477537 27.245259 -0.232765 1.926084 0.079953 -0.013968 -1411190.000000 0 0 1
24.933042 -6.460535 -8.164337 27.019465 -0.253539 1.877759 0.078003 -0.020664 504657.000000 0 0 1
23.744942 -7.172835 -7.829137 26.010906 -0.293363 1.876532 0.074924 -0.020384 15702.800000 0 0 1
22.609542 -6.214535 -7.339037 24.569764 -0.268239 1.874129 0.084311 -0.018717 -648919.000000 0 1 0
22.099542 -5.448135 -8.353437 24.245656 -0.241707 1.922538 0.084440 -0.015367 -117245.000000 0 1 0
21.784642 -4.136035 -7.922737 23.546702 -0.187627 1.913961 0.077204 -0.018461 -179744.000000 0 1 0
21.827942 -3.128935 -9.060137 23.839786 -0.142375 1.960639 0.092317 -0.011418 582835.000000 0 1 0
23.115942 -3.026135 -9.692337 25.247687 -0.130171 1.964802 0.080769 -0.008525 1152690.000000 0 0 1
23.175542 -1.990935 -10.693837 25.601323 -0.085696 2.001716 0.099219 -0.013658 509376.000000 0 0 1
24.449742 -1.955535 -11.628137 27.144568 -0.079812 2.013493 0.071063 -0.008193 58533.800000 0 0 1
25.533542 -1.239635 -11.157437 27.892416 -0.048511 1.982332 0.071123 -0.007572 -309514.000000 0 0 1
26.686442 -1.426035 -11.923137 29.263646 -0.053386 1.990444 0.061912 -0.003017 -989126.000000 0 0 1
27.795542 -0.503935 -11.458837 30.069105 -0.018128 1.961764 0.039984 -0.000465 -892724.000000 0 0 1
28.970522 -0.749735 -12.226237 31.453683 -0.025873 1.970023 0.039051 -0.005893 950817.000000 0 0 1
29.995312 0.225165 -11.919937 32.277769 0.007507 1.949044 0.048776 -0.008177 440707.000000 0 0 1
29.851212 1.577265 -12.752537 32.499382 0.052788 1.974028 0.047041 -0.009657 -496820.000000 0 0 1
30.081482 1.330665 -14.112637 33.254064 0.044207 2.009083 0.038940 -0.011361 435645.000000 0 0 1
30.051182 2.530165 -14.891537 33.633810 0.083997 2.029465 0.043290 -0.008309 -128976.000000 0 0 1
30.371092 2.257765 -16.358237 34.570113 0.074203 2.063705 0.044072 -0.015656 -429698.000000 0 0 1
29.315492 1.602565 -16.979337 33.915545 0.054612 2.095129 0.046751 -0.016411 -389581.000000 0 0 1
29.554872 1.550965 -18.345037 34.820057 0.052429 2.125690 0.039484 -0.012749 -371574.000000 0 0 1
28.534752 0.841565 -19.235137 34.422824 0.029484 2.163723 0.043601 -0.010975 -289616.000000 0 0 1
28.596802 -0.513635 -19.118237 34.402731 -0.017959 2.160023 0.046013 -0.008109 154954.000000 0 0 1
28.021142 -1.048435 -20.318937 34.628642 -0.037398 2.197857 0.043105 -0.007145 38196.700000 0 0 1
27.816042 -2.540935 -20.256137 34.503618 -0.091095 2.198235 0.047611 -0.012165 -584555.000000 0 0 1
26.652042 -2.899235 -19.588237 33.202951 -0.108355 2.201799 0.048363 -0.015153 -223078.000000 0 0 1
26.317142 -4.291635 -19.696937 33.150859 -0.161651 2.207018 0.049005 -0.016270 -381936.000000 0 0 1
26.989142 -5.089535 -18.618437 33.180768 -0.186388 2.166536 0.039948 -0.017002 1106600.000000 0 0 1
28.425442 -5.215235 -18.798937 34.476144 -0.181453 2.147512 0.035306 -0.015762 1234100.000000 0 0 1
29.113552 -5.269835 -17.573437 34.412146 -0.179071 2.106767 0.030614 -0.013612 -180447.000000 0 0 1
30.637602 -5.169635 -17.742337 35.779580 -0.167160 2.089643 0.037189 -0.011580 35165.100000 0 0 1
31.262202 -6.268235 -18.453137 36.839304 -0.197881 2.095445 0.020781 -0.007059 -220393.000000 0 0 1
32.547182 -5.941735 -18.881837 38.093924 -0.180569 2.089397 0.033291 -0.005858 -516962.000000 0 0 1
33.215052 -7.166435 -19.531437 39.192787 -0.212501 2.092482 0.021337 0.006837 -241858.000000 0 0 1
33.537202 -8.139135 -18.598537 39.203253 -0.238087 2.065094 0.016426 0.001867 214378.000000 0 0 1
34.288462 -9.203035 -19.163937 40.344157 -0.262220 2.065773 0.009357 0.009161 -339685.000000 0 0 1
35.042952 -10.086535 -18.196637 40.753703 -0.280258 2.033649 0.018675 0.001337 -759120.000000 0 0 1
34.240282 -10.959935 -17.407937 39.944379 -0.309784 2.021728 0.017573 -0.002399 -236476.000000 0 0 1
34.900452 -11.663635 -16.352837 40.267819 -0.322528 1.988981 0.030980 -0.011351 -757521.000000 0 0 1
35.578192 -10.848535 -15.230237 40.192768 -0.295965 1.959436 0.049259 -0.008663 -399504.000000 0 0 1
36.084072 -11.553635 -14.108937 40.430296 -0.309872 1.927267 0.036378 -0.011446 626511.000000 0 0 1
-36.172127 -12.834035 -14.197037 40.922990 0.340949 1.925082 0.037463 -0.011112 -513986.000000 0 0 1
-34.762481 -12.718535 -14.775937 39.856236 0.350742 1.950592 0.052537 -0.017933 -850250.000000 0 0 1
-34.757733 -12.385735 -16.188437 40.293572 0.342316 1.984237 0.048429 -0.012952 -161233.000000 0 0 1
-33.426157 -12.408535 -16.655437 39.353314 0.355455 2.007802 0.074822 -0.022477 -26736.500000 0 0 1
-33.183607 -11.521635 -17.862737 39.407832 0.334186 2.041237 0.085811 -0.018839 121994.000000 0 0 1
-33.231537 -10.144635 -17.540637 38.922007 0.296286 2.038302 0.072677 -0.019435 360928.000000 0 0 1
-34.166946 -9.494835 -18.396237 39.949388 0.271056 2.049342 0.054894 -0.011788 -7729.620000 0 0 1
-34.399017 -8.029935 -18.041937 39.664641 0.229328 2.043014 0.066815 -0.020335 -84462.500000 0 0 1
-35.530833 -7.508335 -18.699337 40.847037 0.208255 2.046303 0.061267 -0.010420 83007.600000 0 0 1
-35.974246 -6.327435 -18.056637 40.745858 0.174107 2.029909 0.058110 -0.009387 -45509.600000 0 0 1
24.774863 26.979565 -26.768627 45.367942 0.827972 2.201897 0.025954 0.014482 201983.000000 0 0 1
25.360763 25.925165 -25.980987 44.612713 0.796403 2.192434 0.045329 -0.001313 65587.600000 0 0 1
26.517463 25.391165 -26.593697 45.333342 0.763704 2.197682 0.039843 -0.002730 -181936.000000 0 0 1
27.248463 24.418465 -25.633067 44.674314 0.730679 2.181906 0.053971 -0.009657 -399591.000000 0 0 1
27.735863 25.065365 -24.468137 44.679306 0.734865 2.150336 0.060154 -0.006663 116940.000000 0 0 1
27.883363 24.253065 -23.362037 43.720452 0.715880 2.134535 0.070046 -0.011966 82693.400000 0 0 1
28.605963 24.902465 -22.171037 43.931638 0.716295 2.099798 0.064142 -0.000798 188232.000000 0 0 1
27.776663 25.903765 -21.574937 43.680957 0.750523 2.087390 0.067287 0.001368 377382.000000 0 0 1
28.309463 26.546365 -20.395437 43.841864 0.753269 2.054662 0.047326 -0.001133 392682.000000 0 0 1
27.383663 27.713465 -19.855037 43.727836 0.791384 2.042113 0.055088 0.003153 505988.000000 0 0 1
26.328563 27.232665 -19.036937 42.393588 0.802276 2.036501 0.055988 0.002392 6885.760000 0 0 1
25.442863 28.294565 -18.756337 42.423129 0.838416 2.028763 0.048085 -0.001706 155170.000000 0 0 1
24.409863 27.916665 -17.651537 41.070164 0.852316 2.015056 0.044996 0.000877 528852.000000 0 0 1
23.399263 26.975065 -18.037537 40.006655 0.856264 2.038529 0.057097 -0.000801 447220.000000 0 0 1
22.324363 26.972165 -17.127937 38.977444 0.879403 2.025763 0.033381 0.003424 -245569.000000 0 0 1
21.181763 26.000065 -17.426937 37.793764 0.887167 2.050038 0.022984 0.005227 -498939.000000 0 0 1
20.613863 26.382365 -18.655437 38.327352 0.907531 2.079150 0.027197 0.003418 -909756.000000 0 0 1
19.735863 25.419265 -19.092937 37.419027 0.910604 2.106268 0.035737 0.006477 -254417.000000 0 0 1
19.013863 25.837765 -20.405537 38.019772 0.936384 2.137328 0.016814 0.011759 23715.300000 0 0 1
18.139163 26.919365 -20.221837 38.244008 0.977849 2.127933 0.014626 0.009301 -687587.000000 0 0 1
17.295763 27.064865 -21.338437 38.561370 1.002158 2.157193 0.012320 0.010107 14897.600000 0 0 1
16.181763 28.116065 -21.095637 38.696104 1.048561 2.147378 0.023000 0.011463 203180.000000 0 0 1
15.545963 27.760665 -19.860537 37.506965 1.060308 2.128826 0.033590 0.012737 -13360.000000 0 0 1
14.606063 28.744865 -19.437237 37.648513 1.100668 2.113300 0.024407 0.007073 406583.000000 0 0 1
14.057463 28.526865 -17.977237 36.531841 1.112942 2.085294 0.024804 0.004310 -111734.000000 0 0 1
13.363963 27.333365 -17.767637 35.233469 1.116048 2.099348 0.026696 0.005451 -404363.000000 0 0 1
12.777563 27.379265 -16.505937 34.428713 1.134152 2.070794 0.043194 0.001826 74149.900000 0 0 1
11.775163 26.224165 -16.244037 33.018632 1.148758 2.085143 0.052751 -0.003525 373577.000000 0 0 1
12.460663 25.004565 -15.977237 32.183358 1.108481 2.090294 0.063148 -0.004993 224897.000000 0 0 1
11.552863 23.937965 -16.138237 31.095619 1.121152 2.116462 0.068931 -0.004502 372267.000000 0 0 1
12.333963 22.598665 -16.242237 30.440706 1.071197 2.133612 0.073894 -0.006673 282755.000000 0 0 1
13.033063 22.588065 -17.455637 31.381216 1.047469 2.160656 0.066553 -0.000399 -545096.000000 0 0 1
13.919563 21.511565 -17.647237 31.111520 0.996481 2.173929 0.060906 -0.000417 -317548.000000 0 0 1
13.246863 20.160365 -17.974137 30.083040 0.989464 2.211156 0.069239 -0.008817 14779.100000 0 0 1
12.622163 19.603165 -16.831837 28.756110 0.998733 2.196084 0.077813 -0.017125 -235960.000000 0 0 1
12.190463 18.281865 -17.065237 27.821868 0.982697 2.231123 0.072077 -0.017470 221624.000000 0 0 1
13.346263 17.223365 -17.225237 27.775454 0.911553 2.239744 0.063453 -0.019346 508000.000000 0 0 1
13.989363 16.987065 -15.984937 27.198913 0.881871 2.199016 0.065007 -0.020452 -834776.000000 0 0 1
14.980163 16.068565 -16.030737 27.195379 0.820438 2.201193 0.060316 -0.016569 -1523510.000000 0 0 1
15.388863 15.502265 -14.638637 26.295000 0.789069 2.161214 0.089499 -0.010873 -357665.000000 0 0 1
16.391063 16.123265 -13.787437 26.808955 0.777162 2.110970 0.081248 -0.010779 1211240.000000 0 0 1
17.700763 16.364865 -14.291337 28.024421 0.746203 2.105935 0.057423 -0.003392 59821.500000 0 0 1
18.406863 15.076865 -14.913037 28.080654 0.686273 2.130669 0.044102 -0.003412 -1265220.000000 0 0 1
19.006263 14.084565 -14.132937 27.556359 0.637748 2.109326 0.073536 -0.010923 -27941.800000 0 0 1
20.059663 14.517865 -13.331237 28.122596 0.626478 2.064670 0.078229 -0.013161 -975376.000000 0 0 1
20.800563 13.384265 -12.593637 27.756111 0.571762 2.041737 0.105302 -0.020321 -330976.000000 0 0 1
20.227563 12.755465 -11.443437 26.510535 0.562615 2.017124 0.150935 -0.020259 316324.000000 0 0 1
21.141863 11.896365 -10.784437 26.548182 0.512536 1.989111 0.165854 -0.000736 -38262.000000 0 0 1
21.239763 10.447265 -11.426537 26.283809 0.457125 2.020542 0.136100 -0.009860 -532395.000000 0 0 1
22.032763 10.418665 -12.560437 27.418166 0.441710 2.046660 0.100759 -0.001149 6903.580000 0 0 1
21.774363 9.264565 -13.383637 27.185967 0.402278 2.085526 0.083288 -0.006453 -48005.600000 0 0 1
22.386263 7.887865 -13.008937 27.066504 0.338769 2.072168 0.081779 0.009214 -190723.000000 0 0 1
21.748663 7.377065 -11.838137 25.837317 0.327018 2.046743 0.082733 -0.005262 608825.000000 0 0 1
22.385963 6.293265 -11.160937 25.793469 0.274052 2.018286 0.079194 0.009954 -1062480.000000 0 0 1
22.252463 4.858265 -11.778737 25.642026 0.214952 2.048063 0.078616 -0.004684 28189.000000 0 0 1
20.987663 4.212765 -11.780137 24.433604 0.198093 2.073879 0.065081 -0.021901 1301210.000000 0 1 0
19.947963 4.891665 -12.525437 24.056936 0.240476 2.118418 0.017315 -0.030793 121944.000000 0 1 0
18.798963 3.983665 -12.985937 23.192783 0.208820 2.165077 0.015858 -0.041074 -261551.000000 0 1 0
19.282963 3.202265 -14.007737 24.047949 0.164565 2.192587 0.025329 -0.039867 404850.000000 0 1 0
19.300863 1.850165 -13.681037 23.730091 0.095567 2.185268 0.065225 -0.044810 31526.300000 0 1 0
20.330763 1.005565 -14.551337 25.021840 0.049420 2.191423 0.095501 -0.033772 174048.000000 0 0 1
21.633763 1.141065 -14.001237 25.794503 0.052696 2.144563 0.126466 -0.021242 253225.000000 0 0 1
22.654363 0.551565 -14.779037 27.054470 0.024342 2.148701 0.088298 -0.026497 -302912.000000 0 0 1
22.716763 -0.975035 -15.101137 27.295537 -0.042895 2.157052 0.076319 -0.022179 -607889.000000 0 0 1
21.650463 -1.366935 -15.957237 26.930363 -0.063053 2.205001 0.077298 -0.022829 743488.000000 0 0 1
22.160363 -2.372535 -16.826437 27.925608 -0.106656 2.217483 0.067724 -0.022471 382902.000000 0 0 1
20.964763 -2.905235 -17.662237 27.566579 -0.137700 2.266222 0.058572 -0.022634 27785.100000 0 0 1
20.191163 -3.783335 -16.897037 26.598995 -0.185228 2.259130 0.067474 -0.022076 164595.000000 0 0 1
19.295163 -4.508635 -17.741937 26.597132 -0.229548 2.301055 0.063303 -0.029277 -187971.000000 0 0 1
18.688263 -5.715735 -17.038937 25.927711 -0.296812 2.287856 0.066464 -0.031329 -859024.000000 0 0 1
19.565163 -6.723735 -16.649637 26.555877 -0.331014 2.248449 0.068754 -0.021167 189546.000000 0 0 1
18.960563 -7.816035 -15.893037 25.945751 -0.391001 2.230077 0.078819 -0.021908 -200584.000000 0 0 1
20.035963 -8.779435 -15.394637 26.749077 -0.412984 2.184037 0.103693 -0.015376 -289159.000000 0 0 1
20.646263 -9.456935 -16.461937 28.048122 -0.429525 2.198043 0.083737 -0.015969 41267.400000 0 0 1
21.440963 -10.483235 -15.978137 28.721316 -0.454756 2.160743 0.064364 -0.021109 -271360.000000 0 0 1
22.177963 -11.310835 -17.105937 30.206127 -0.471618 2.172814 0.057460 -0.016512 782629.000000 0 0 1
23.202263 -10.677335 -17.905537 31.192287 -0.431291 2.182224 0.058824 -0.010997 838042.000000 0 0 1
23.697563 -11.479035 -18.966637 32.451133 -0.451088 2.195020 0.062442 -0.012849 -315422.000000 0 0 1
22.763263 -11.453635 -20.229837 32.536106 -0.466175 2.241792 0.062229 -0.007511 345079.000000 0 0 1
21.474463 -12.007935 -20.129437 31.788949 -0.509858 2.256504 0.066304 -0.015069 -75548.300000 0 0 1
21.367663 -13.413735 -19.927637 32.149899 -0.560581 2.239329 0.053276 -0.002347 334468.000000 0 0 1
19.846863 -13.728035 -19.667037 31.131162 -0.605132 2.254602 0.059221 0.005324 786542.000000 0 0 1
19.069263 -13.480435 -20.805437 31.276591 -0.615355 2.298569 0.051953 0.013925 -979509.000000 0 0 1
17.713863 -13.679835 -20.549937 30.384515 -0.657600 2.313564 0.072983 0.011397 -420465.000000 0 0 1
16.871763 -13.220535 -21.774737 30.554510 -0.664654 2.364068 0.074196 0.002109 -162321.000000 0 0 1
17.067563 -13.975635 -22.956937 31.837730 -0.686125 2.376128 0.047769 0.016652 266152.000000 0 0 1
16.520263 -13.343735 -24.112637 32.130883 -0.679430 2.419540 0.057853 0.000941 -70459.600000 0 0 1
16.602563 -14.172535 -25.392557 33.485636 -0.706601 2.431516 0.045188 -0.003212 -86584.700000 0 0 1
15.662763 -15.248735 -25.409417 33.518421 -0.772005 2.431150 0.060293 -0.014138 354584.000000 0 0 1
15.656063 -15.886835 -26.694347 34.786377 -0.792714 2.445540 0.054471 -0.009679 118952.000000 0 0 1
16.618363 -17.100035 -26.915667 35.958786 -0.799682 2.416615 0.045900 -0.005446 430079.000000 0 0 1
18.006663 -16.834035 -26.790277 36.405269 -0.751754 2.397777 0.035908 -0.001213 79465.000000 0 0 1
18.679463 -18.078535 -26.957027 37.449126 -0.769051 2.374355 0.037365 0.005530 20341.500000 0 0 1
20.205563 -17.843535 -27.018607 38.166237 -0.723399 2.357344 0.014970 0.007502 37358.100000 0 0 1
20.696963 -17.440435 -25.729187 37.343327 -0.700215 2.330891 0.012624 0.010345 778405.000000 0 0 1
22.052663 -16.944335 -25.804717 37.938290 -0.655147 2.318799 0.013961 0.011427 783831.000000 0 0 1
22.552063 -16.398535 -24.443937 37.081175 -0.628710 2.290552 0.013097 0.015882 -130223.000000 0 0 1
22.237463 -15.061535 -24.027437 36.037096 -0.595331 2.300625 0.020827 0.012846 -466184.000000 0 0 1
20.904963 -14.648135 -24.160037 35.146731 -0.611196 2.328706 0.047914 0.012161 -444533.000000 0 0 1
20.726863 -13.261135 -23.526037 34.043134 -0.569174 2.333759 0.060440 0.011473 17854.700000 0 0 1
21.170763 -12.151135 -24.271537 34.423230 -0.521051 2.353349 0.066068 -0.003738 103504.000000 0 0 1
20.738463 -11.035935 -23.599437 33.298786 -0.489034 2.358475 0.070093 -0.009044 -73891.500000 0 0 1
20.712163 -9.835935 -24.550937 33.592973 -0.443356 2.390342 0.090064 -0.014745 -138136.000000 0 0 1
20.465863 -8.632635 -23.895437 32.624620 -0.399163 2.392689 0.091001 -0.019236 47237.700000 0 0 1
20.229763 -7.583035 -24.777337 32.873426 -0.358635 2.424500 0.068800 -0.014627 -275259.000000 0 0 1
19.641763 -6.381135 -24.017037 31.675476 -0.314120 2.431378 0.076206 -0.024895 -567777.000000 0 0 1
18.334963 -6.650435 -23.608237 30.622671 -0.347960 2.451112 0.076509 -0.019537 -651038.000000 0 0 1
17.872863 -5.654435 -22.683437 29.427032 -0.306407 2.450950 0.056287 -0.023918 -202845.000000 0 0 1
18.552063 -5.518635 -21.308237 28.786722 -0.289132 2.404180 0.069095 -0.023839 -517724.000000 0 0 1
18.210963 -6.524535 -20.373337 28.094156 -0.344028 2.382093 0.080337 -0.023036 217736.000000 0 0 1
18.693563 -7.835935 -20.594837 28.896340 -0.396929 2.364157 0.082073 -0.018823 -193759.000000 0 0 1
18.228463 -8.669835 -19.376737 27.980365 -0.443955 2.335762 0.078227 -0.020806 -559412.000000 0 0 1
16.845063 -8.791835 -19.331837 27.106686 -0.481032 2.364815 0.086030 -0.022315 -843114.000000 0 0 1
16.451363 -9.914435 -18.602037 26.739094 -0.542367 2.340172 0.090470 -0.014862 -506244.000000 0 0 1
14.950263 -9.977935 -18.326137 25.669376 -0.588516 2.365891 0.089619 -0.010831 -136288.000000 0 0 1
14.382963 -9.370535 -17.128337 24.249876 -0.577431 2.355092 0.103132 -0.017243 347774.000000 0 1 0
14.439263 -7.931535 -17.094637 23.740855 -0.502308 2.374673 0.119297 -0.044960 -823512.000000 0 1 0
13.129863 -7.241035 -16.743737 22.476179 -0.503989 2.411263 0.098869 -0.029669 -620856.000000 0 1 0
12.102163 -7.407835 -17.690537 22.678039 -0.549275 2.465580 0.087292 -0.029644 -174407.000000 0 1 0
11.083163 -6.481235 -17.534837 21.732773 -0.529155 2.509577 0.064935 -0.020316 -828029.000000 0 1 0
9.658563 -6.834735 -17.905237 21.461569 -0.615832 2.557646 0.053846 -0.015754 -434431.000000 0 1 0
9.203263 -6.706435 -19.234537 22.352712 -0.629730 2.607049 0.043917 -0.023969 -711775.000000 0 1 0
7.812263 -6.704335 -19.256137 21.835255 -0.709224 2.650637 0.038477 -0.031496 -812443.000000 0 1 0
7.348863 -6.250135 -20.635737 22.779456 -0.704778 2.704279 0.047796 -0.042584 -107607.000000 0 1 0
7.284763 -7.260935 -21.699237 24.013451 -0.783760 2.698963 0.050114 -0.034709 60390.200000 0 1 0
6.397663 -6.817935 -22.701437 24.551366 -0.817189 2.750914 0.054558 -0.038187 -34210.100000 0 1 0
6.409263 -7.744335 -23.954537 25.978322 -0.879447 2.744262 0.051058 -0.031071 -183079.000000 0 0 1
5.903763 -9.021235 -23.666237 26.006305 -0.991313 2.714127 0.056743 -0.032774 -39065.700000 0 0 1
6.142063 -10.002335 -24.681137 27.330023 -1.020101 2.697679 0.065418 -0.018412 -492908.000000 0 0 1
5.297863 -11.260835 -24.518537 27.496044 -1.131052 2.671909 0.060757 -0.017913 -55764.300000 0 0 1
5.775463 -12.158735 -23.535537 27.112955 -1.127344 2.622068 0.061469 -0.027356 -89792.300000 0 0 1
4.997863 -13.352635 -23.556937 27.535446 -1.212641 2.597338 0.072929 -0.031501 -1324430.000000 0 0 1
5.528363 -14.588535 -22.838937 27.658727 -1.208565 2.542310 0.091467 -0.034096 -74247.200000 0 0 1
6.520263 -15.273035 -23.622137 28.875332 -1.167306 2.528849 0.112164 -0.034507 885751.000000 0 0 1
7.730263 -14.602735 -23.990937 29.130086 -1.083929 2.538489 0.102153 -0.032445 -238128.000000 0 0 1
8.791963 -14.375035 -22.897037 28.429114 -1.021881 2.507160 0.100067 -0.015037 -494279.000000 0 0 1
9.100463 -15.531135 -22.124637 28.522520 -1.040772 2.458604 0.097453 -0.007532 132322.000000 0 0 1
8.369163 -15.736535 -20.933337 27.493381 -1.082010 2.436259 0.096642 -0.023778 -769733.000000 0 0 1
9.173163 -15.363635 -19.713837 26.623741 -1.032534 2.404552 0.083800 -0.024031 -467329.000000 0 0 1
10.170463 -16.334335 -19.577837 27.450692 -1.013894 2.364849 0.092479 -0.029501 -634358.000000 0 0 1
10.589763 -16.592635 -18.228237 26.827733 -1.002746 2.317816 0.053389 -0.013498 -637623.000000 0 0 1
9.653363 -17.353435 -17.305737 26.340419 -1.063145 2.287633 0.044656 -0.013391 -732415.000000 0 0 1
9.459863 -18.765435 -17.547537 27.377849 -1.103865 2.266518 0.038019 -0.010666 371584.000000 0 0 1
8.548963 -19.052235 -18.621237 27.978972 -1.149014 2.299019 0.064410 -0.012741 1024890.000000 0 0 1
7.003963 -18.865735 -18.411037 27.275222 -1.215315 2.311774 0.079566 -0.017056 570826.000000 0 0 1
6.629663 -17.497035 -18.384437 26.231397 -1.208609 2.347393 0.076548 -0.020325 -969490.000000 0 0 1
5.270163 -17.283535 -18.526537 25.879099 -1.274828 2.368691 0.072482 -0.010429 -591972.000000 0 0 1
4.760063 -15.904735 -18.043337 24.518989 -1.279995 2.397780 0.048555 0.001218 112491.000000 0 1 0
4.995563 -15.706835 -16.698737 23.462910 -1.262863 2.362723 0.020209 0.007865 104599.000000 0 1 0
4.224763 -14.620135 -16.261837 22.272052 -1.289490 2.389331 0.006199 0.017443 104124.000000 0 1 0
10.757863 30.047165 -18.029437 36.655482 1.226984 2.085023 0.033976 -0.014672 -13832.800000 0 0 1
9.788663 29.767465 -19.063137 36.678647 1.253097 2.117336 0.051756 -0.009540 1054660.000000 0 0 1
8.730863 28.988865 -18.406437 35.431331 1.278257 2.117057 0.044469 -0.011862 775912.000000 0 0 1
7.761863 28.426665 -19.462637 35.314531 1.304245 2.154505 0.062815 -0.012672 139611.000000 0 0 1
6.974563 29.429365 -20.156337 36.345701 1.338096 2.158646 0.065598 -0.014216 -17841.300000 0 0 1
6.284463 28.727565 -21.160537 36.228936 1.355428 2.194540 0.073141 -0.024807 -1033120.000000 0 0 1
5.235163 29.554965 -21.834037 37.116413 1.395482 2.199700 0.069428 -0.030928 233958.000000 0 0 1
4.053663 29.509765 -20.988837 36.438849 1.434284 2.184625 0.068994 -0.025285 -167614.000000 0 0 1
3.001063 30.218865 -21.502637 37.209537 1.471810 2.186925 0.071589 -0.031661 -314906.000000 0 0 1
1.616563 30.044065 -20.786437 36.569593 1.517042 2.175366 0.094473 -0.027088 774507.000000 0 0 1
0.880663 28.858965 -20.939737 35.666343 1.540290 2.198269 0.098644 -0.046439 138167.000000 0 0 1
0.216463 28.703865 -22.178937 36.274840 1.563255 2.228642 0.113719 -0.052013 -337356.000000 0 0 1
-0.469137 27.337765 -22.427337 35.363243 -1.553637 2.257769 0.119681 -0.043766 510160.000000 0 0 1
-1.491337 27.046965 -21.473437 34.566905 -1.515713 2.241087 0.131935 -0.055576 -243224.000000 0 0 1
-2.226737 25.928465 -21.845937 33.977767 -1.485127 2.269137 0.129109 -0.063816 -518902.000000 0 0 1
-3.270937 25.670665 -20.756337 33.173900 -1.444060 2.246803 0.098102 -0.062861 73933.000000 0 0 1
-4.428337 26.507065 -20.881937 34.033660 -1.405263 2.231367 0.076105 -0.053216 412986.000000 0 0 1
-5.427737 26.079765 -19.981837 33.299975 -1.365605 2.214367 0.058521 -0.050215 446525.000000 0 0 1
-6.626937 27.071065 -19.798037 34.186564 -1.330720 2.188442 0.048568 -0.054793 322511.000000 0 0 1
-7.703637 26.444465 -19.173337 33.559986 -1.287327 2.178904 0.058457 -0.043169 -699398.000000 0 0 1
-8.538837 27.283665 -18.392137 33.993835 -1.267488 2.142474 0.061396 -0.052968 140349.000000 0 0 1
-9.702037 26.466065 -17.808937 33.342771 -1.219424 2.134259 0.073093 -0.039627 -136865.000000 0 0 1
-9.384437 25.486765 -16.793137 31.931995 -1.217993 2.124573 0.076756 -0.040777 -399875.000000 0 0 1
-10.558337 25.067065 -16.140237 31.628208 -1.172146 2.106343 0.043669 -0.027526 18132.100000 0 0 1
-10.230937 24.372565 -14.839737 30.313558 -1.173362 2.082360 0.043576 -0.018754 71740.700000 0 0 1
-9.752837 23.058365 -15.041737 29.207189 -1.170652 2.111805 0.046184 -0.021699 -204476.000000 0 0 1
-9.662737 22.490265 -13.751037 28.076174 -1.165001 2.082629 0.059996 -0.027713 -171939.000000 0 0 1
-9.179437 21.044865 -13.711137 26.742171 -1.159491 2.109142 0.066123 -0.016649 681738.000000 0 0 1
-10.255737 20.118165 -14.039637 26.590076 -1.099359 2.127044 0.045700 -0.010758 540685.000000 0 0 1
-10.833837 20.039265 -15.359037 27.474428 -1.075175 2.164012 0.067595 -0.002613 -27245.300000 0 0 1
-9.949037 19.892465 -16.612637 27.761002 -1.107036 2.212319 0.057203 -0.004340 75458.800000 0 0 1
-9.297737 18.626265 -16.821537 26.764712 -1.107810 2.250416 0.042430 -0.004626 239454.000000 0 0 1
-8.310837 18.744465 -17.859737 27.191823 -1.153465 2.287371 0.050177 -0.008748 732456.000000 0 0 1
-7.390837 17.477165 -17.771637 25.998209 -1.170718 2.323441 0.036784 -0.007983 542800.000000 0 0 1
-8.144337 16.334065 -18.205437 25.779253 -1.108261 2.354920 0.038264 -0.016864 113001.000000 0 0 1
-7.844737 15.832165 -19.518737 26.328283 -1.110760 2.405891 0.034619 -0.018450 599174.000000 0 0 1
-6.604737 14.875965 -19.627137 25.497871 -1.152954 2.449255 0.029914 -0.008648 306866.000000 0 0 1
-6.839137 13.626265 -18.935737 24.310719 -1.105623 2.463714 0.010895 -0.007002 529979.000000 0 1 0
-5.644137 12.906665 -18.598937 23.331497 -1.158550 2.493373 0.007839 -0.001015 718422.000000 0 1 0
-4.874337 13.497065 -17.381837 22.540146 -1.224231 2.451442 0.031725 0.004716 -307931.000000 0 1 0
-4.142137 14.631365 -17.629637 23.281715 -1.294915 2.429860 0.037480 -0.008181 -483235.000000 0 1 0
-3.385037 15.030265 -16.473937 22.555664 -1.349278 2.389657 0.034910 0.000573 591566.000000 0 1 0
-2.593137 16.364865 -16.602137 23.455578 -1.413645 2.357192 0.068266 -0.003593 411122.000000 0 1 0
-3.408637 17.513165 -16.554637 24.338977 -1.378567 2.318791 0.059938 -0.011831 -235720.000000 0 1 0
-2.596337 18.630965 -16.775537 25.204612 -1.432332 2.299059 0.083612 -0.016947 91561.300000 0 0 1
-3.384737 19.847065 -17.276137 26.529745 -1.401880 2.279959 0.092719 -0.024458 361244.000000 0 0 1
-3.827737 19.761965 -18.664437 27.450830 -1.379473 2.318453 0.086374 -0.032892 95826.600000 0 0 1
-4.372937 20.976465 -19.194137 28.767162 -1.365271 2.301272 0.093018 -0.033233 180523.000000 0 0 1
-3.284537 22.075365 -19.398037 29.570150 -1.423092 2.286304 0.108730 -0.047752 -725197.000000 0 0 1
-2.281637 21.669665 -20.247637 29.744698 -1.465891 2.319533 0.122305 -0.046555 -567954.000000 0 0 1
-1.202237 22.610165 -20.304237 30.412613 -1.517674 2.301811 0.115869 -0.052097 399405.000000 0 0 1
-0.071037 22.258965 -19.307537 29.466041 -1.567605 2.285306 0.127451 -0.047886 -619826.000000 0 0 1
-0.293437 22.401665 -17.922837 28.690570 -1.557698 2.245536 0.130753 -0.042574 -82926.700000 0 0 1
0.779663 21.760265 -17.220537 27.760834 1.534982 2.239944 0.123399 -0.035460 459673.000000 0 0 1
0.566563 21.720065 -15.694537 26.802999 1.544717 2.196357 0.138720 -0.039148 179995.000000 0 0 1
-0.582237 20.975765 -15.279837 25.957565 -1.543046 2.200180 0.114641 -0.020938 202048.000000 0 0 1
-0.704437 21.094365 -13.903737 25.274145 -1.537414 2.153301 0.117387 -0.025430 144223.000000 0 0 1
-1.690937 20.045365 -13.403237 24.172768 -1.486640 2.158530 0.079101 -0.015603 169169.000000 0 1 0
-1.087337 18.735965 -13.397237 23.058722 -1.512827 2.190760 0.071168 -0.008774 310960.000000 0 1 0
-2.049637 17.747665 -13.031737 22.113499 -1.455818 2.201003 0.053029 -0.003862 193834.000000 0 1 0
-1.607937 16.278465 -13.102737 20.958426 -1.472339 2.246155 0.032173 0.000296 -511127.000000 0 1 0
-0.703537 15.957865 -12.042937 20.004519 -1.526738 2.216813 0.019442 -0.004050 112784.000000 0 1 0
-0.287237 14.624665 -11.917837 18.867914 -1.551158 2.254471 0.014300 -0.003730 307336.000000 0 1 0
0.517963 13.968565 -13.144137 19.187429 1.533733 2.325454 0.021671 -0.005228 257666.000000 0 1 0
-0.239137 13.850765 -14.351237 19.946401 -1.553533 2.373864 0.028089 -0.008531 135613.000000 0 1 0
0.428763 12.911765 -15.205137 19.952286 1.537601 2.437308 0.033894 -0.012861 19580.400000 0 1 0
-0.295037 12.560765 -16.550237 20.779082 -1.547312 2.492257 0.034441 -0.016018 100843.000000 0 1 0
-0.246437 13.748365 -17.351537 22.139425 -1.552873 2.471460 0.052002 -0.021298 -126980.000000 0 1 0
-0.505937 13.512465 -18.714737 23.088614 -1.533372 2.515906 0.056677 -0.023014 -14358.600000 0 1 0
-1.139337 14.791765 -19.393137 24.416965 -1.493923 2.488566 0.057336 -0.017458 -90482.500000 0 1 0
-0.325937 15.931365 -19.370037 25.082125 -1.550340 2.453194 0.069124 -0.025183 -262.928000 0 0 1
-1.029237 17.065665 -19.890037 26.228036 -1.510559 2.431575 0.085879 -0.031988 -91531.400000 0 0 1
-0.111737 18.285165 -19.848137 26.987188 -1.564686 2.397149 0.096620 -0.036740 110482.000000 0 0 1
0.710263 18.193665 -21.000637 27.794616 1.531777 2.427312 0.098354 -0.034757 -190323.000000 0 0 1
1.498263 19.331765 -21.248737 28.765792 1.493448 2.401907 0.090615 -0.036168 -166051.000000 0 0 1
2.017963 19.301765 -22.644337 29.822749 1.466627 2.433029 0.090346 -0.042229 -579716.000000 0 0 1
2.999063 18.350265 -22.902837 29.500281 1.408794 2.459666 0.082472 -0.033327 -292068.000000 0 0 1
3.332163 18.275565 -24.301537 30.588630 1.390449 2.488919 0.084095 -0.047875 81987.200000 0 0 1
4.319463 17.145865 -24.608337 30.301959 1.324007 2.518545 0.063476 -0.027715 -431318.000000 0 0 1
5.626863 17.283165 -24.130637 30.210214 1.256050 2.496024 0.050293 -0.021173 -428251.000000 0 0 1
6.617663 16.415665 -24.571737 30.282632 1.187594 2.517363 0.050833 -0.006656 -29326.200000 0 0 1
7.121563 16.565865 -26.016487 31.654418 1.164788 2.535519 0.040078 -0.013354 -149612.000000 0 0 1
8.284363 17.444865 -26.096227 32.464859 1.127439 2.504502 0.029068 -0.007265 1164720.000000 0 0 1
8.761263 17.576365 -27.410367 33.719676 1.108375 2.519892 0.034742 -0.011445 -20964.300000 0 0 1
9.330063 16.343565 -28.190127 33.894623 1.052071 2.552957 0.015664 -0.009450 64456.400000 0 0 1
10.575063 15.819465 -27.706367 33.611460 0.981536 2.539784 0.025098 -0.004424 672942.000000 0 0 1
10.918763 14.561565 -28.314097 33.659273 0.927401 2.570290 0.015091 -0.000229 -8950.140000 0 0 1
10.372563 13.369665 -27.490497 32.281039 0.910969 2.589824 0.025693 -0.010752 596531.000000 0 0 1
8.952963 13.241365 -27.397437 31.719219 0.976267 2.613458 0.050356 -0.010294 379727.000000 0 0 1
8.652463 12.630565 -26.163887 30.314110 0.970180 2.612158 0.053629 -0.005546 -782409.000000 0 0 1
7.286063 11.999265 -26.086337 29.623742 1.025093 2.647900 0.049580 -0.011507 -879997.000000 0 0 1
6.244563 12.912665 -26.207557 29.875869 1.120355 2.640826 0.042666 -0.006724 -1329480.000000 0 0 1
5.001663 12.344865 -26.013437 29.225182 1.185848 2.668369 0.068755 -0.018103 -146597.000000 0 0 1
3.804163 13.204965 -26.527207 29.875332 1.290306 2.663622 0.071123 -0.014182 -334652.000000 0 0 1
3.566363 13.232365 -27.940977 31.120936 1.307534 2.685589 0.067593 -0.016637 119769.000000 0 0 1
4.254663 14.260365 -28.612887 32.251473 1.280849 2.661995 0.068662 -0.023725 -12757.900000 0 0 1
4.174663 14.132365 -30.153157 33.561354 1.283568 2.687020 0.075496 -0.019813 -485186.000000 0 0 1
5.065163 13.174765 -30.600487 33.698963 1.203758 2.709411 0.070929 -0.017585 -288096.000000 0 0 1
5.159663 13.048365 -31.973627 34.916970 1.194239 2.728054 0.070399 -0.021253 -1297610.000000 0 0 1
6.016463 11.855165 -32.378307 35.001394 1.101169 2.751984 0.071928 -0.013300 1925020.000000 0 0 1
7.475563 12.091965 -32.312237 35.301280 1.017083 2.727117 0.070115 -0.006035 2189430.000000 0 0 1
8.049963 12.336665 -31.029487 34.348570 0.992649 2.698361 0.057930 -0.008940 -1076680.000000 0 0 1
7.912963 11.232265 -29.935727 32.938223 0.957067 2.711302 0.066445 -0.005593 -334377.000000 0 0 1
8.749863 10.122965 -30.168597 33.002709 0.858026 2.724140 0.047847 0.001555 -23913.100000 0 0 1
8.488963 9.089665 -29.258677 31.792369 0.819557 2.739656 0.049751 -0.005799 105239.000000 0 0 1
9.554763 8.011165 -29.453977 31.984513 0.697749 2.741134 0.040362 -0.006042 -541876.000000 0 0 1
10.875263 8.312165 -29.167317 32.219495 0.652602 2.702809 0.035505 -0.005368 -249398.000000 0 0 1
11.699363 7.090865 -29.286287 32.324017 0.544885 2.704586 0.024876 0.003549 504830.000000 0 0 1
13.086263 7.342765 -28.611107 32.307305 0.511329 2.658564 0.026306 0.001197 408181.000000 0 0 1
13.774963 6.107265 -28.403207 32.152612 0.417318 2.653838 0.036288 -0.004246 174897.000000 0 0 1
14.703863 5.886465 -29.469687 33.456188 0.380795 2.648439 0.038436 -0.002514 -771873.000000 0 0 1
15.611963 4.709365 -29.180057 33.427343 0.292971 2.631993 0.046915 -0.000629 -46313.400000 0 0 1
16.490963 4.978665 -28.089807 32.951119 0.293201 2.591486 0.050818 -0.011827 52173.600000 0 0 1
17.423263 3.966665 -27.857027 33.095596 0.223849 2.571246 0.051818 0.001816 12226.700000 0 0 1
18.178263 4.181365 -26.496057 32.403304 0.226087 2.528194 0.051360 -0.004323 -11429.200000 0 0 1
19.108163 5.237665 -26.503227 33.090423 0.267535 2.499649 0.064418 -0.011827 99645.300000 0 0 1
19.588963 5.449165 -25.165237 32.352898 0.271316 2.462011 0.064509 -0.014174 127527.000000 0 0 1
20.468763 6.713465 -25.119277 33.091071 0.316930 2.432719 0.063330 -0.019131 357576.000000 0 0 1
19.707863 7.867165 -25.574587 33.231787 0.379807 2.448983 0.061971 -0.022175 711389.000000 0 0 1
20.507763 8.735965 -26.360147 34.521628 0.402703 2.439641 0.057930 -0.026965 -365973.000000 0 0 1
20.785163 8.486565 -27.914037 35.822315 0.387640 2.464242 0.086904 -0.024012 939396.000000 0 0 1
19.679363 8.780165 -28.814057 35.980808 0.419657 2.499455 0.074718 -0.031944 1233200.000000 0 0 1
18.560263 7.894965 -28.658397 35.044508 0.402183 2.528324 0.073630 -0.023649 -338941.000000 0 0 1
17.268263 8.458965 -29.228847 34.986748 0.455500 2.559704 0.062664 -0.020941 -716633.000000 0 0 1
17.241863 8.381865 -30.642417 36.145473 0.452494 2.582530 0.055086 -0.016160 209835.000000 0 0 1
16.188263 9.181565 -31.135537 36.273719 0.515933 2.602841 0.044690 -0.010090 -120467.000000 0 0 1
15.806263 8.891865 -32.584847 37.291762 0.512430 2.633721 0.026010 -0.000550 429885.000000 0 0 1
15.224463 7.528565 -32.690977 36.839701 0.459242 2.662437 0.037387 0.008611 416322.000000 0 0 1
13.955663 7.490265 -33.304397 36.878822 0.492589 2.697676 0.030177 0.008067 158388.000000 0 0 1
13.424763 6.073265 -33.603767 36.692261 0.424842 2.728359 0.038237 0.005549 65136.300000 0 0 1
13.147663 5.316665 -32.442417 35.406757 0.384277 2.729482 0.035581 0.006492 119010.000000 0 0 1
12.348363 4.212965 -32.833847 35.331185 0.328792 2.763353 0.030127 -0.004054 145576.000000 0 0 1
12.085263 3.165765 -31.725677 34.096836 0.256196 2.766457 0.037310 -0.004461 -73279.000000 0 0 1
13.211163 2.380665 -31.388127 34.138203 0.178288 2.737458 0.044475 -0.006237 -30204.200000 0 0 1
13.056463 1.405765 -30.378497 33.095324 0.107255 2.733575 0.053893 -0.006599 -170209.000000 0 0 1
12.194963 0.162465 -30.780767 33.108898 0.013322 2.764347 0.043260 -0.006660 -160567.000000 0 0 1
12.692063 -0.863935 -31.595947 34.060809 -0.067964 2.758822 0.035865 -0.008366 -386419.000000 0 0 1
13.690763 -1.595835 -30.933797 33.865668 -0.116039 2.722421 0.034110 -0.008086 86999.500000 0 0 1
14.197363 -2.929235 -31.542757 34.714422 -0.203467 2.710801 0.034156 -0.013843 486878.000000 0 0 1
13.168063 -3.922735 -31.576087 34.435955 -0.289527 2.731167 0.043266 -0.023694 582257.000000 0 0 1
13.615663 -5.036835 -32.362417 35.469452 -0.354318 2.719912 0.060193 -0.026922 -448214.000000 0 0 1
12.836463 -6.287435 -32.192427 35.222989 -0.455463 2.723736 0.059589 -0.031459 -465177.000000 0 0 1
13.194563 -7.004135 -31.000697 34.412173 -0.488010 2.692553 0.060469 -0.025374 117053.000000 0 0 1
12.791863 -8.305835 -31.123197 34.659372 -0.575887 2.685939 0.071174 -0.035431 -132803.000000 0 0 1
13.018863 -9.130235 -29.816047 33.791251 -0.611603 2.651650 0.060360 -0.036311 -834608.000000 0 0 1
14.385863 -9.329535 -29.639377 34.241582 -0.575335 2.617136 0.066870 -0.035311 -302691.000000 0 0 1
14.730963 -9.946035 -28.403977 33.506877 -0.593873 2.582442 0.072658 -0.032069 -187024.000000 0 0 1
14.594163 -11.479735 -28.445337 33.969267 -0.666515 2.563277 0.062351 -0.022740 3824.440000 0 0 1
13.228763 -11.859535 -28.386107 33.487607 -0.730876 2.582355 0.064297 -0.030246 333608.000000 0 0 1
12.985563 -13.125135 -28.951057 34.337410 -0.790743 2.573883 0.067173 -0.032445 -1492.160000 0 0 1
-9.846037 -3.132735 -17.834537 20.611385 0.308044 2.616497 0.013119 -0.003969 -269289.000000 0 1 0
-10.582437 -3.000935 -18.985237 21.941577 0.276322 2.616471 0.017229 -0.006302 -572592.000000 0 1 0
-11.795337 -3.722935 -18.842137 22.539218 0.305732 2.560696 0.032455 -0.023226 346066.000000 0 1 0
-12.718037 -3.427435 -20.111437 24.040917 0.263240 2.561753 0.039633 -0.029027 336071.000000 0 1 0
-13.415637 -2.191635 -19.934037 24.127752 0.161934 2.543102 0.032725 -0.026716 661562.000000 0 1 0
-14.428437 -1.925035 -20.939137 25.501628 0.132636 2.534115 0.034076 -0.019997 852170.000000 0 0 1
-15.217637 -0.610335 -20.824037 25.799022 0.040086 2.510128 0.030024 -0.015024 -41129.100000 0 0 1
-14.541537 0.579665 -21.186137 25.703010 -0.039842 2.539702 0.040284 -0.016563 -254935.000000 0 0 1
-15.247437 1.746865 -20.859437 25.896950 -0.114070 2.507279 0.040302 -0.006526 -171200.000000 0 0 1
-14.654237 2.968965 -21.574037 26.248819 -0.199895 2.535544 0.060158 -0.022266 126774.000000 0 0 1
-13.393237 3.424265 -21.147037 25.264631 -0.250309 2.562613 0.050850 -0.022219 58035.400000 0 0 1
-13.115737 4.719665 -21.696837 25.788574 -0.345421 2.570545 0.058797 -0.027918 -68735.100000 0 0 1
-11.835137 5.323065 -21.101037 24.772147 -0.422661 2.590217 0.033841 -0.019226 -439585.000000 0 1 0
-12.060837 5.983865 -19.854837 23.989268 -0.460555 2.545713 0.044731 -0.023274 585328.000000 0 1 0
-10.930837 6.455465 -19.092237 22.927489 -0.533460 2.554803 0.029410 -0.015560 168456.000000 0 1 0
-11.223637 7.065165 -17.763437 22.168137 -0.561821 2.500270 0.036218 -0.012706 -40383.300000 0 1 0
-11.729337 8.422665 -17.766537 22.894726 -0.622761 2.459111 0.029649 -0.014946 586375.000000 0 1 0
-12.865837 8.561965 -16.909237 22.907626 -0.587181 2.401119 0.042268 -0.008185 373533.000000 0 1 0
-13.646437 9.919265 -17.059437 23.992529 -0.628537 2.361760 0.049257 -0.003348 101941.000000 0 1 0
-13.021937 10.945965 -16.303537 23.562477 -0.698999 2.334952 0.022322 0.007828 762643.000000 0 1 0
-13.732337 12.199365 -16.541337 24.718767 -0.726351 2.303903 0.030589 0.001416 586392.000000 0 1 0
-13.081837 13.448565 -15.780637 24.515850 -0.799220 2.270108 0.032265 0.008310 -131435.000000 0 1 0
-13.310837 13.449965 -14.405137 23.782093 -0.790597 2.221459 0.044447 0.005892 287595.000000 0 1 0
-12.731937 14.642965 -13.884937 23.860221 -0.855095 2.191894 0.046836 -0.002525 -391080.000000 0 1 0
-13.145437 14.851365 -12.374137 23.377015 -0.846256 2.128606 0.044907 -0.008290 310585.000000 0 1 0
-14.484337 15.186465 -12.080337 24.214857 -0.809058 2.093104 0.052727 -0.011499 334681.000000 0 1 0
-15.413337 14.098465 -12.220137 24.200608 -0.740874 2.100122 0.043809 -0.011227 -754044.000000 0 1 0
-16.734437 14.421665 -11.534337 24.921211 -0.711302 2.051984 0.029439 -0.000574 148854.000000 0 1 0
-17.724537 13.413265 -11.867337 25.197393 -0.647815 2.061192 0.025310 -0.008818 236707.000000 0 0 1
-18.952837 13.650165 -11.261637 25.929935 -0.624166 2.020069 0.068449 -0.018436 -343769.000000 0 0 1
-20.250437 13.411165 -12.064037 27.119745 -0.584949 2.031796 0.077435 -0.026510 -66689.300000 0 0 1
-20.623837 12.039165 -12.022937 26.736402 -0.528385 2.037208 0.089196 -0.029057 -590228.000000 0 0 1
-21.513737 11.785365 -13.016437 27.769828 -0.501158 2.058644 0.124984 -0.025752 -744805.000000 0 0 1
-22.324637 10.499765 -12.561137 27.684231 -0.439625 2.041742 0.111038 -0.021846 -255184.000000 0 0 1
-21.547237 9.375365 -12.677937 26.700393 -0.410401 2.065558 0.108293 -0.018968 105453.000000 0 0 1
-21.972737 8.420265 -11.747937 26.300496 -0.365953 2.033849 0.105734 -0.019000 268644.000000 0 0 1
-20.924737 7.258065 -11.674937 25.036539 -0.333879 2.055918 0.109542 -0.018623 277525.000000 0 0 1
-20.761037 6.517565 -12.920637 25.306959 -0.304189 2.106628 0.120496 -0.019946 716009.000000 0 0 1
-19.684837 5.607665 -12.651137 24.062211 -0.277521 2.124414 0.114881 -0.026290 377159.000000 0 1 0
-19.579637 4.458765 -13.664937 24.289366 -0.223906 2.168311 0.112912 -0.032601 466132.000000 0 1 0
-20.485837 3.379965 -13.321437 24.668895 -0.163517 2.141245 0.114143 -0.030501 928161.000000 0 1 0
-20.307937 2.413965 -14.371537 24.995612 -0.118313 2.183355 0.107794 -0.029443 11711.100000 0 1 0
-21.079437 1.114365 -14.089337 25.379005 -0.052816 2.159348 0.105212 -0.024930 144427.000000 0 0 1
-22.389637 1.021665 -14.614037 26.756490 -0.045600 2.148601 0.098476 -0.022984 265640.000000 0 0 1
-22.783937 -0.317535 -14.560937 27.041256 0.013936 2.139418 0.087846 -0.035843 -362899.000000 0 0 1
-24.159537 -0.629535 -15.169237 28.533933 0.026051 2.131310 0.102135 -0.028561 -626078.000000 0 0 1
-25.233157 -0.101435 -14.443837 29.074851 0.004020 2.090682 0.119365 -0.037299 -1119690.000000 0 0 1
-26.381627 -0.569535 -15.060437 30.383077 0.021585 2.089420 0.109167 -0.027573 -374173.000000 0 0 1
-27.653407 -0.084835 -14.291637 31.128267 0.003068 2.047802 0.100736 -0.032570 190020.000000 0 0 1
-28.106237 -0.882935 -13.226537 31.075415 0.031404 2.010451 0.113505 -0.036752 647530.000000 0 0 1
-29.366437 -0.360535 -12.767337 32.023780 0.012276 1.980877 0.134154 -0.041274 881790.000000 0 0 1
-29.820907 -1.010835 -11.429037 31.952014 0.033884 1.936593 0.123054 -0.042909 -84300.500000 0 0 1
-30.287827 -2.361035 -11.313737 32.418014 0.077796 1.927295 0.118384 -0.029598 465187.000000 0 0 1
-29.405807 -3.330835 -11.813137 31.864497 0.112791 1.950592 0.120536 -0.035919 -309876.000000 0 0 1
-29.801207 -4.687035 -11.256437 32.199187 0.155999 1.927927 0.113389 -0.032343 -115725.000000 0 0 1
-31.038307 -5.129735 -11.771637 33.589613 0.163791 1.928853 0.089396 -0.025780 108477.000000 0 0 1
-31.362677 -6.442335 -11.318237 33.959147 0.202596 1.910587 0.089996 -0.021934 -11299.500000 0 0 1
-30.440927 -7.608035 -11.817337 33.528819 0.244911 1.930987 0.090928 -0.030238 -420177.000000 0 0 1
-29.120577 -7.595535 -11.373937 32.172451 0.255146 1.932139 0.098332 -0.021382 -734132.000000 0 0 1
-28.472537 -8.653735 -11.971437 32.076281 0.295061 1.953271 0.109068 -0.032171 -728274.000000 0 0 1
-26.997227 -8.893435 -11.668037 30.725991 0.318225 1.960317 0.087944 -0.027112 -713849.000000 0 0 1
-26.184897 -7.784735 -12.065337 29.863411 0.288977 1.986701 0.081381 -0.028217 260517.000000 0 0 1
-24.838337 -7.861835 -11.671937 28.547952 0.306543 1.991994 0.113721 -0.033294 -125607.000000 0 0 1
-24.454737 -7.727735 -10.141437 27.578992 0.306072 1.947356 0.120567 -0.030465 -460309.000000 0 0 1
-24.670337 -6.432235 -9.542237 27.222297 0.255049 1.928933 0.107892 -0.024305 266621.000000 0 0 1
-26.004887 -5.999935 -9.439737 28.308338 0.226755 1.910769 0.116987 -0.028260 -422920.000000 0 0 1
-26.248387 -4.571335 -8.752837 28.044377 0.172427 1.888206 0.130702 -0.033554 -188543.000000 0 0 1
-25.915267 -4.555035 -7.368537 27.324801 0.173989 1.843841 0.123933 -0.026484 594011.000000 0 0 1
-26.150897 -3.240735 -6.877137 27.233560 0.123296 1.826085 0.152620 -0.032803 -21184.400000 0 0 1
-25.780217 -3.201735 -5.349537 26.523353 0.123561 1.773881 0.147092 -0.025428 -623572.000000 0 0 1
-24.459737 -3.443735 -4.989237 25.199812 0.139873 1.770100 0.108299 -0.016760 -403337.000000 0 0 1
-24.245337 -3.140935 -3.627137 24.715541 0.128830 1.718084 0.077722 -0.011484 -228350.000000 0 1 0
-22.812737 -3.495935 -3.210137 23.301234 0.152062 1.709003 0.060148 -0.009239 -311096.000000 0 1 0
-22.588537 -4.835635 -3.064537 23.302720 0.210892 1.702688 0.069572 -0.007329 193735.000000 0 1 0
-21.239537 -5.094635 -2.757737 22.015412 0.235418 1.696390 0.051148 -0.011851 -348114.000000 0 1 0
-21.047837 -6.605635 -2.687837 22.223193 0.304104 1.692041 0.057568 -0.013839 -188522.000000 0 1 0
-21.644137 -7.228635 -1.545337 22.871596 0.322329 1.638414 0.057879 -0.009668 483383.000000 0 1 0
-22.057637 -8.513535 -1.875437 23.717860 0.368351 1.649952 0.059951 -0.018230 -133248.000000 0 1 0
-22.807037 -9.136335 -0.670137 24.578093 0.381017 1.598065 0.079953 -0.021120 -290043.000000 0 1 0
-21.956337 -9.564135 0.364563 23.951750 0.410813 1.555575 0.065715 -0.019526 264583.000000 0 1 0
-22.541937 -10.557635 1.216863 24.921544 0.438013 1.521949 0.054819 -0.012318 374661.000000 0 1 0
-21.453037 -11.279935 2.075863 24.326507 0.484071 1.485359 0.052961 -0.005970 372568.000000 0 1 0
-20.815437 -12.264835 1.321663 24.196185 0.532454 1.516146 0.055012 -0.002684 483281.000000 0 1 0
-19.660337 -12.820035 1.951063 23.551832 0.577833 1.487860 0.043823 0.001870 235820.000000 0 1 0
-18.803337 -13.815535 1.185963 23.363240 0.633662 1.520013 0.045359 0.004179 -516673.000000 0 1 0
-19.382537 -15.063035 1.237263 24.578620 0.660649 1.520436 0.043280 0.010519 157148.000000 0 1 0
-18.891937 -16.085635 0.356763 24.814919 0.705338 1.556419 0.048505 -0.003546 293723.000000 0 1 0
-17.597937 -16.884735 0.706863 24.398387 0.764718 1.541821 0.045574 0.001316 661256.000000 0 1 0
-16.385137 -16.132435 0.750363 23.006330 0.777627 1.538175 0.052049 -0.003018 962592.000000 0 1 0
-15.361537 -16.666935 1.608363 22.723344 0.826133 1.499957 0.061116 -0.011221 549075.000000 0 1 0
-15.590637 -16.538435 3.106663 22.939903 0.814889 1.434953 0.082014 -0.011143 -415522.000000 0 1 0
-15.296037 -15.199235 3.555163 21.854626 0.782224 1.407397 0.062666 -0.012547 368612.000000 0 1 0
-14.368137 -15.150935 4.650863 21.392165 0.811910 1.351636 0.046623 -0.007815 224724.000000 0 1 0
-14.818437 -15.703135 6.049363 22.422518 0.814376 1.297622 0.051649 -0.004179 -144599.000000 0 1 0
-15.724337 -14.810535 6.754663 22.632547 0.755481 1.267729 0.049203 -0.001109 642150.000000 0 1 0
-15.887837 -15.103135 8.151763 23.387588 0.760083 1.214772 0.051722 -0.006852 -45096.400000 0 1 0
-16.860837 -16.271535 8.471563 24.916220 0.767614 1.223877 0.047518 -0.003760 -95134.700000 0 1 0
-16.268937 -17.531335 8.177263 25.276345 0.822730 1.241355 0.047395 -0.000282 -10361.700000 0 0 1
-16.938837 -18.595335 8.786563 26.644218 0.831981 1.234732 0.054052 -0.011179 -47094.400000 0 0 1
-16.456437 -18.943535 10.256363 27.108390 0.855540 1.182787 0.052409 -0.011031 288146.000000 0 0 1
-15.096437 -19.303835 10.412963 26.626495 0.907101 1.168997 0.038908 -0.010423 -23359.900000 0 0 1
-14.829537 -19.722135 11.752363 27.331224 0.926065 1.126306 0.046772 -0.014329 101636.000000 0 0 1
-13.455337 -20.377135 12.003663 27.209587 0.987204 1.113910 0.047583 -0.011182 849529.000000 0 0 1
-12.293137 -19.581935 11.710663 25.917427 1.010201 1.101964 0.033000 -0.009263 668111.000000 0 0 1
-11.119037 -20.256435 12.198863 26.129837 1.068787 1.085064 0.042222 -0.010687 915575.000000 0 0 1
-9.995837 -19.258935 12.592063 25.087514 1.092046 1.044973 0.037219 -0.012333 179479.000000 0 0 1
-9.338237 -18.679235 11.477763 23.829719 1.107208 1.068251 0.026560 -0.012277 -338090.000000 0 1 0
-8.172737 -17.980135 11.837663 23.026270 1.144171 1.030846 0.014698 -0.007394 46390.600000 0 1 0
-7.388637 -17.424335 10.645363 21.714584 1.169738 1.058431 0.011283 -0.008797 -88353.000000 0 1 0
-6.581637 -18.332935 9.949363 21.872454 1.226121 1.098558 0.012354 -0.008118 -410778.000000 0 1 0
-6.063937 -17.675735 8.815163 20.661801 1.240312 1.130021 0.015529 -0.003994 -380893.000000 0 1 0
-4.867337 -18.420335 8.199063 20.741850 1.312464 1.164412 0.013813 -0.007629 224274.000000 0 1 0
-3.748437 -18.362135 9.091363 20.829586 1.369424 1.119132 0.024069 -0.006053 75320.100000 0 1 0
-2.632637 -18.956835 8.466363 20.927772 1.432804 1.154308 0.027167 -0.008833 -272188.000000 0 1 0
-1.257237 -18.878235 9.103563 20.996267 1.504297 1.122334 0.028254 -0.021261 426711.000000 0 1 0
-0.255537 -19.602535 8.329463 21.300343 1.557761 1.169026 0.033899 -0.008369 172651.000000 0 1 0
0.835863 -19.972135 9.128963 21.975504 -1.528969 1.142397 0.039737 -0.008293 130551.000000 0 1 0
2.103563 -20.392135 8.340263 22.131970 -1.468004 1.184411 0.042544 -0.022354 12827.300000 0 1 0
2.107763 -21.710035 7.727063 23.140349 -1.474013 1.230335 0.042699 -0.016110 -188103.000000 0 1 0
2.449063 -22.803835 8.605563 24.496295 -1.463809 1.211836 0.046113 -0.011595 -39801.000000 0 1 0
1.982163 -24.208935 8.135363 25.616120 -1.489101 1.247612 0.028543 -0.013358 101273.000000 0 0 1
2.017563 -25.154185 9.189563 26.856128 -1.490760 1.221563 0.036426 -0.011757 -234225.000000 0 0 1
1.535163 -26.394195 8.763763 27.853434 -1.512699 1.250721 0.036606 -0.007008 -509173.000000 0 0 1
1.548263 -27.417825 9.926163 29.200393 -1.514387 1.223951 0.046485 -0.011166 611192.000000 0 0 1
0.655163 -27.148465 11.029363 29.310667 -1.546668 1.185006 0.027825 -0.014161 135020.000000 0 0 1
-0.699937 -27.435605 10.762163 29.479255 1.545290 1.197082 0.012289 -0.008067 -484639.000000 0 0 1
-1.449237 -27.715435 12.063463 30.261737 1.518554 1.160766 0.014899 -0.013131 -610291.000000 0 0 1
-1.077237 -28.854245 12.797663 31.583351 1.533480 1.153596 0.007592 -0.015043 -130433.000000 0 0 1
-1.081037 -28.547475 14.190463 31.898216 1.532946 1.109771 0.003708 -0.015282 -68136.600000 0 0 1
-0.588037 -29.783525 15.040163 33.370805 1.551055 1.103249 -0.006222 -0.001059 255929.000000 0 0 1
-0.673337 -29.429095 16.366963 33.680892 1.547920 1.063356 -0.000723 -0.003587 -115454.000000 0 0 1
-0.357937 -30.490475 17.211063 35.014538 1.559058 1.056939 0.000426 -0.003039 -32802.200000 0 0 1
-0.697237 -30.152715 18.668463 35.470887 1.547677 1.016549 0.013749 -0.005404 3021.950000 0 0 1
-2.079237 -30.262955 18.913263 35.747464 1.502198 1.013280 0.006077 0.001621 -177506.000000 0 0 1
-2.335137 -30.048405 20.277663 36.325516 1.493240 0.978556 0.031645 -0.004586 4200.300000 0 0 1
-3.835837 -30.180115 20.598563 36.740356 1.444376 0.975623 0.070019 -0.015344 152606.000000 0 0 1
-4.744737 -29.317585 19.878563 35.737803 1.410348 0.980950 0.055294 -0.015280 579807.000000 0 0 1
-5.964337 -29.061115 20.554563 36.091713 1.368373 0.964888 0.065183 -0.021144 286433.000000 0 0 1
-5.898837 -28.015995 21.720563 35.937099 1.363275 0.921778 0.077318 -0.026781 -571930.000000 0 0 1
-5.102837 -28.441945 22.790863 36.802263 1.393273 0.902972 0.084948 -0.026435 -90845.100000 0 0 1
-5.219837 -27.410795 23.768263 36.654177 1.382619 0.865255 0.081417 -0.023567 -247306.000000 0 0 1
-4.268937 -27.519155 24.974463 37.406570 1.416897 0.839750 0.095846 -0.022769 -183397.000000 0 0 1
-4.386937 -28.672845 25.796963 38.818301 1.418974 0.843896 0.098567 -0.023134 164594.000000 0 0 1
-3.874637 -29.908725 25.264263 39.342440 1.441965 0.873480 0.080883 -0.026855 -7007.000000 0 0 1
-4.181637 -31.120415 26.155163 40.866353 1.437227 0.876276 0.086475 -0.020443 -167622.000000 0 0 1
-3.459737 -31.082065 27.347663 41.544665 1.459943 0.852276 0.080171 -0.019894 -61154.000000 0 0 1
-3.781937 -32.146255 28.203663 42.931705 1.453687 0.854040 0.067746 -0.025387 54827.500000 0 0 1
-3.080137 -32.044955 29.596463 43.730046 1.474971 0.827390 0.098001 -0.022600 1104230.000000 0 0 1
-1.660037 -32.287565 29.604463 43.836820 1.519427 0.829380 0.105613 -0.027848 990866.000000 0 0 1
-1.188937 -32.140895 30.960563 44.643108 1.533822 0.804443 0.104600 -0.027187 -205623.000000 0 0 1
-28.735877 2.599965 -10.053537 30.554608 -0.090232 1.906078 0.130955 -0.024868 2695.500000 0 0 1
-29.376257 2.356765 -11.335937 31.575660 -0.080055 1.938002 0.121449 -0.039660 217376.000000 0 0 1
-29.922757 3.605465 -11.727637 32.340505 -0.119914 1.941885 0.099375 -0.036163 -329941.000000 0 0 1
-30.704417 3.519565 -13.041537 33.544452 -0.114129 1.970107 0.088698 -0.030093 -657326.000000 0 0 1
-31.787217 2.687665 -12.798137 34.372126 -0.084351 1.952326 0.103017 -0.036572 -804226.000000 0 0 1
-32.705287 2.647065 -13.838237 35.610947 -0.080761 1.969903 0.109749 -0.035060 -513615.000000 0 0 1
-33.938257 1.820765 -13.458037 36.554606 -0.053598 1.947828 0.105103 -0.040260 -281890.000000 0 0 1
-33.678117 0.408965 -13.488337 36.281098 -0.012143 1.951715 0.104595 -0.034834 595070.000000 0 0 1
-34.657152 -0.332335 -12.747037 36.928520 0.009589 1.923228 0.089364 -0.033963 465736.000000 0 0 1
-34.011157 -1.641535 -12.269937 36.193989 0.048227 1.916655 0.072428 -0.030142 127695.000000 0 0 1
-34.221066 -2.634635 -13.247437 36.790179 0.076837 1.939151 0.073040 -0.025797 126980.000000 0 0 1
-34.014287 -3.957535 -12.747137 36.539339 0.115828 1.927151 0.082017 -0.023042 -71690.300000 0 0 1
-34.328597 -5.106735 -13.736637 37.325950 0.147677 1.947673 0.068872 -0.019849 41897.500000 0 0 1
-33.968597 -6.383935 -13.264637 37.021221 0.185769 1.937241 0.066638 -0.024194 32036.800000 0 0 1
-34.452394 -7.398835 -14.083037 37.947887 0.211542 1.951006 0.068595 -0.021329 -526220.000000 0 0 1
-34.211153 -8.820035 -13.456037 37.805568 0.252317 1.934703 0.070683 -0.019374 271584.000000 0 0 1
-32.840917 -9.200335 -13.439137 36.657638 0.273146 1.946161 0.072032 -0.025044 508336.000000 0 0 1
-32.382357 -9.703935 -14.662737 36.848056 0.291152 1.980050 0.067494 -0.029993 554498.000000 0 0 1
-31.059767 -10.573435 -14.551537 35.892254 0.328117 1.988238 0.072167 -0.035892 948349.000000 0 0 1
-31.436007 -11.841435 -13.961037 36.377915 0.360246 1.964680 0.066611 -0.025242 171556.000000 0 0 1
-30.300847 -12.589135 -13.648937 35.537602 0.393772 1.964997 0.095681 -0.028951 -490379.000000 0 0 1
-30.392807 -14.067835 -14.088937 36.333522 0.433503 1.969004 0.103220 -0.032244 -187225.000000 0 0 1
-30.452727 -14.194035 -15.501637 37.001891 0.436162 2.003076 0.101183 -0.038296 7929.820000 0 0 1
-30.574227 -15.554135 -16.005037 37.853344 0.470610 2.007348 0.110274 -0.040097 5175.110000 0 0 1
-29.417597 -16.592435 -15.866737 37.315644 0.513552 2.009983 0.109670 -0.034925 -743603.000000 0 0 1
-28.292387 -16.280135 -16.579137 36.611060 0.522153 2.040750 0.120129 -0.041239 -1353720.000000 0 0 1
-27.328457 -17.296435 -16.387537 36.256897 0.564267 2.039785 0.106609 -0.039775 1218980.000000 0 0 1
-25.825017 -16.859835 -16.577637 35.014334 0.578375 2.064003 0.107861 -0.054068 1048440.000000 0 0 1
-25.701627 -16.312135 -17.867937 35.297628 0.565525 2.101578 0.128541 -0.050137 -464171.000000 0 0 1
-24.426137 -15.868835 -18.271137 34.384452 0.576140 2.131023 0.118009 -0.041522 -433279.000000 0 0 1
-24.286037 -15.314435 -19.726937 34.835263 0.562606 2.172797 0.129968 -0.038701 112167.000000 0 0 1
-24.647737 -16.312835 -20.734537 36.104578 0.584653 2.182534 0.113097 -0.040163 2047990.000000 0 0 1
-26.117727 -16.347135 -20.790837 37.170195 0.559248 2.164388 0.118199 -0.043954 1536960.000000 0 0 1
-26.560157 -17.596735 -21.643237 38.516448 0.585129 2.167504 0.103348 -0.040399 -236096.000000 0 0 1
-26.135397 -17.561235 -22.986537 38.985085 0.591640 2.201389 0.104250 -0.027586 -71902.700000 0 0 1
-26.601817 -18.665335 -23.742537 40.246235 0.611837 2.201771 0.082650 -0.013405 -430651.000000 0 0 1
-25.860287 -18.893235 -25.071437 40.672911 0.630962 2.234979 0.066306 -0.016344 -228531.000000 0 0 1
-24.565237 -19.416235 -24.974737 40.052198 0.668857 2.244078 0.057323 -0.022103 -492698.000000 0 0 1
-24.429537 -20.723835 -24.619837 40.403168 0.703512 2.226042 0.058534 -0.019474 -158155.000000 0 0 1
-22.929537 -21.152535 -24.605437 39.731863 0.745109 2.238631 0.052638 -0.016382 688516.000000 0 0 1
-22.454037 -21.142735 -25.953207 40.308411 0.755329 2.270336 0.040467 -0.015592 -151623.000000 0 0 1
-21.117837 -21.538435 -26.156767 39.925477 0.795258 2.285164 0.032433 -0.012172 -32442.900000 0 0 1
-20.638037 -21.541435 -27.624937 40.658322 0.806813 2.317797 0.033859 -0.010029 -310573.000000 0 0 1
-21.136437 -22.564035 -28.408747 41.987398 0.818054 2.313934 0.079721 -0.015963 -368528.000000 0 0 1
-21.603437 -22.114435 -29.629977 42.821633 0.797086 2.334968 0.069425 -0.012720 -332035.000000 0 0 1
-20.516437 -22.112835 -30.725157 43.057368 0.822829 2.365401 0.071826 -0.018570 174111.000000 0 0 1
-20.121937 -23.377135 -31.230717 43.894652 0.860093 2.362416 0.077458 -0.024884 -153902.000000 0 0 1
-19.458937 -23.212535 -32.447147 44.387942 0.873137 2.390568 0.075294 -0.018635 -65505.900000 0 0 1
-18.908037 -24.595435 -32.895407 45.216779 0.915395 2.385474 0.082628 -0.020835 -48387.500000 0 0 1
-18.232937 -24.716235 -34.128149 45.913645 0.935220 2.408804 0.080070 -0.023492 -141057.000000 0 0 1
-19.058137 -24.715135 33.033845 45.445411 0.913920 0.757013 0.094799 -0.021507 -350144.000000 0 0 1
-18.368437 -24.490135 31.695576 44.065584 0.927273 0.768028 0.097242 -0.016896 -316220.000000 0 0 1
-17.855137 -23.215635 31.519356 43.026055 0.915183 0.748715 0.072842 -0.019474 -212812.000000 0 0 1
-16.995437 -23.226735 30.409356 41.869499 0.939098 0.757889 0.080277 -0.023283 -30532.500000 0 0 1
-16.139637 -21.976135 30.128826 40.634770 0.937343 0.735561 0.056272 -0.020308 11411.900000 0 0 1
-16.869837 -20.843035 29.722296 40.030468 0.890365 0.734014 0.061250 -0.023369 -13298.600000 0 0 1
-16.067037 -19.683435 29.644616 39.043444 0.886212 0.708602 0.059501 -0.020669 -13946.300000 0 0 1
-15.778237 -18.929135 30.938326 39.553064 0.875935 0.672610 0.053705 -0.024803 -8755.460000 0 0 1
-15.064337 -17.728135 30.829226 38.622042 0.866452 0.646447 0.057516 -0.025413 869.494000 0 0 1
-14.522337 -17.311635 32.103816 39.258705 0.872795 0.613305 0.058361 -0.031201 35197.800000 0 0 1
-14.069537 -15.804735 32.091386 38.439544 0.843416 0.582930 0.067229 -0.029708 -412388.000000 0 0 1
-12.960837 -15.696735 31.245206 37.291201 0.880578 0.577426 0.082758 -0.033069 -299997.000000 0 0 1
-12.703337 -14.458435 30.643646 36.186380 0.849925 0.560803 0.071921 -0.041909 509160.000000 0 0 1
-11.323537 -14.505735 29.894956 35.104803 0.907982 0.551782 0.078879 -0.041354 805722.000000 0 0 1
-10.707437 -13.223135 29.888056 34.391807 0.890138 0.517526 0.091613 -0.039443 552312.000000 0 0 1
-9.319637 -13.241635 30.245256 34.307026 0.957516 0.491544 0.080419 -0.032800 751642.000000 0 0 1
-8.796837 -11.778135 30.224366 33.609836 0.929296 0.452695 0.076228 -0.031311 135163.000000 0 0 1
-9.484537 -10.830535 31.081346 34.253569 0.851558 0.433765 0.078304 -0.029152 289599.000000 0 0 1
-9.081537 -9.494035 30.918996 33.594572 0.807601 0.401804 0.064985 -0.018547 -290184.000000 0 0 1
-9.728337 -8.631835 31.986496 34.529480 0.725747 0.386184 0.031572 -0.018416 -546943.000000 0 0 1
-11.079637 -8.402235 31.724676 34.638287 0.648823 0.413090 0.046029 -0.024155 -507957.000000 0 0 1
-11.852237 -7.790135 32.745889 35.685500 0.581470 0.408735 0.025640 -0.024873 23346.700000 0 0 1
-11.659937 -6.324035 33.098139 35.657178 0.496969 0.381164 0.012797 -0.016071 -473322.000000 0 0 1
-11.966937 -5.452535 32.028756 34.623387 0.427529 0.389599 0.025843 -0.017493 342722.000000 0 0 1
-12.530337 -4.221835 32.492607 35.079947 0.324983 0.386472 0.025748 -0.022113 -543848.000000 0 0 1
-12.147537 -2.926035 31.750436 34.120588 0.236372 0.374922 0.022398 -0.010755 683607.000000 0 0 1
-10.772137 -2.614735 32.028916 33.892878 0.238126 0.333189 0.024145 -0.014224 863904.000000 0 0 1
-10.229437 -1.637535 31.156986 32.834139 0.158734 0.321000 0.016755 -0.009251 1695780.000000 0 0 1
-8.644337 -1.379335 31.202586 32.407229 0.158231 0.273513 0.031765 -0.012132 1909300.000000 0 0 1
-8.248037 -0.805735 32.430977 33.473087 0.097379 0.250183 0.037956 -0.022891 -1148830.000000 0 0 1
-6.914737 -0.491935 32.541764 33.271940 0.071023 0.209888 0.050919 -0.025163 -969430.000000 0 0 1
-6.637137 0.134565 33.947363 34.590362 -0.020272 0.193116 0.074132 -0.037107 -307504.000000 0 0 1
-7.233337 1.411565 -34.128792 34.915443 -0.192725 2.928918 0.063181 -0.024405 101405.000000 0 0 1
-6.623237 2.482465 33.521424 34.259535 -0.358605 0.207954 0.080705 -0.023163 -476050.000000 0 0 1
-7.450237 3.708665 33.739844 34.751076 -0.461879 0.241833 0.085712 -0.018173 -60103.000000 0 0 1
-8.680537 3.614765 33.049054 34.360707 -0.394583 0.277195 0.051269 -0.008923 -461191.000000 0 0 1
-9.523837 4.644365 33.410187 35.050166 -0.453725 0.307112 0.043555 0.011090 -755855.000000 0 0 1
-10.703137 4.775565 32.454070 34.505504 -0.419676 0.346557 0.034279 0.009983 -569342.000000 0 0 1
-11.454337 5.912765 32.726168 35.173352 -0.476526 0.375225 0.034855 0.012827 -4247.270000 0 0 1
-12.611737 5.967665 31.903446 34.820953 -0.441965 0.412269 0.011033 0.015788 590380.000000 0 0 1
-13.314237 7.411165 31.909296 35.360959 -0.507923 0.445518 0.033416 0.000938 276443.000000 0 0 1
-14.145537 7.681665 33.011797 36.727141 -0.497488 0.453682 0.030133 0.000309 76241.200000 0 0 1
-14.564737 9.023665 33.089791 37.262479 -0.554675 0.477778 0.028218 0.003613 -350441.000000 0 0 1
-15.534737 9.291065 -34.057338 38.568825 -0.539009 2.653071 0.019206 -0.003073 -290359.000000 0 0 1
-14.986737 9.211065 -32.740457 37.166969 -0.551096 2.648561 0.028856 -0.009123 -5097.400000 0 0 1
-15.822037 9.582165 -31.630917 36.642457 -0.544543 2.612432 0.040767 -0.009922 -291800.000000 0 0 1
-15.006337 9.870865 -30.302127 35.225602 -0.581825 2.606517 0.068251 -0.017627 945988.000000 0 0 1
-14.026437 10.900565 -30.166517 35.008314 -0.660648 2.609399 0.073267 -0.018053 -9178.120000 0 0 1
-12.801437 10.636665 -30.790617 35.001108 -0.693298 2.646036 0.070700 -0.023832 -520782.000000 0 0 1
-12.029937 11.952865 -30.969637 35.308764 -0.782185 2.640606 0.068234 -0.020561 -292852.000000 0 0 1
-12.583237 12.830465 -31.956207 36.662759 -0.795126 2.629306 0.069738 -0.024175 30641.700000 0 0 1
-11.847437 14.018165 -32.153617 37.023315 -0.869125 2.622903 0.064774 -0.032258 -130962.000000 0 0 1
-12.111137 15.198665 -31.183467 36.743540 -0.897976 2.584279 0.074233 -0.033238 1155540.000000 0 0 1
-13.401237 15.859965 -31.296487 37.557979 -0.869228 2.555819 0.078122 -0.029904 1236430.000000 0 0 1
-13.489237 16.892465 -30.283847 37.207880 -0.896949 2.521646 0.066895 -0.017938 -1032570.000000 0 0 1
-14.844237 17.518665 -30.399467 38.097016 -0.867850 2.494681 0.059419 -0.025604 -1003800.000000 0 0 1
-15.034437 18.357765 -31.541627 39.470446 -0.884596 2.496626 0.058707 -0.022638 202797.000000 0 0 1
-16.314237 18.973665 -31.589337 40.299386 -0.860620 2.471665 0.042794 -0.021982 332925.000000 0 0 1
-16.667537 20.253865 -30.706407 40.384518 -0.882229 2.434650 0.013841 -0.017762 -315986.000000 0 0 1
-16.086937 21.514665 -31.059847 41.065612 -0.928756 2.428507 0.014743 -0.006668 173946.000000 0 0 1
-16.654237 22.606965 -30.365717 41.358376 -0.935871 2.395298 0.006944 -0.006992 376575.000000 0 0 1
-18.030937 23.078965 -30.946347 42.607860 -0.907580 2.383729 0.008171 -0.004063 387645.000000 0 0 1
-19.078237 22.247365 -30.507747 42.304220 -0.861935 2.376259 0.016320 -0.009553 712202.000000 0 0 1
-20.215637 22.178565 -31.419967 43.448534 -0.831667 2.379154 0.042955 -0.015543 1025450.000000 0 0 1
-21.464937 21.419265 -30.842347 43.252501 -0.784333 2.364673 0.057615 -0.022129 282072.000000 0 0 1
-22.310737 22.242465 -30.014057 43.512526 -0.783866 2.331981 0.096726 -0.020626 780015.000000 0 0 1
-23.262637 23.078165 -30.644877 44.864914 -0.781417 2.322724 0.100113 -0.016183 -390461.000000 0 0 1
-24.479937 22.454465 -31.330137 45.662324 -0.742270 2.326948 0.097461 -0.027790 -806145.000000 0 0 1
-24.179337 21.895965 -32.531947 46.069526 -0.735881 2.354841 0.095615 -0.028463 325590.000000 0 0 1
-25.349507 21.507865 -33.251537 47.019682 -0.703595 2.356303 0.108069 -0.030713 197839.000000 0 0 1
-25.161707 20.641565 33.826033 46.940241 -0.687031 0.766102 0.110043 -0.025345 -66905.000000 0 0 1
-24.507337 19.381165 33.991838 46.170165 -0.669125 0.743315 0.117758 -0.030555 385560.000000 0 0 1
-24.528637 18.707565 32.726244 44.973704 -0.651569 0.755870 0.098930 -0.040600 -129045.000000 0 0 1
-24.203037 17.193465 32.734425 44.192135 -0.617662 0.736641 0.055485 -0.014482 317107.000000 0 0 1
-25.196477 16.338065 33.322199 44.857149 -0.575268 0.733477 0.064888 -0.017459 584066.000000 0 0 1
-25.362007 15.153265 32.571788 43.974700 -0.538564 0.736694 0.071743 -0.025250 87016.000000 0 0 1
-26.280427 14.028265 33.230672 44.628809 -0.490314 0.730859 0.070972 -0.016438 -581464.000000 0 0 1
-27.630567 14.389965 33.270329 45.578878 -0.480148 0.752547 0.077814 -0.014294 -872506.000000 0 0 1
-28.433757 13.386465 32.769815 45.404149 -0.440012 0.764489 0.073452 -0.003345 -162839.000000 0 0 1
-28.877317 12.241365 33.706593 46.042207 -0.400947 0.749426 0.042824 -0.001400 -337556.000000 0 0 1
-27.757297 11.425665 33.999913 45.354244 -0.390490 0.723260 0.047008 -0.012087 -100352.000000 0 0 1
-28.122307 10.051765 33.987562 45.244408 -0.343279 0.720919 0.048876 -0.012341 -706619.000000 0 0 1
-27.041287 8.976065 -34.032967 44.385176 -0.320495 2.444582 0.037612 -0.019637 269986.000000 0 0 1
-26.133127 8.718865 33.212510 43.151243 -0.322020 0.692462 0.050037 -0.020808 1026330.000000 0 0 1
-25.143987 9.744065 32.921339 42.555627 -0.369711 0.686282 0.046011 -0.025460 167004.000000 0 0 1
-23.811337 9.275265 32.291065 41.179159 -0.371449 0.669454 0.046301 -0.021732 -86285.400000 0 0 1
-23.989037 8.940865 30.934416 40.154091 -0.356758 0.691340 0.043689 -0.021163 95345.300000 0 0 1
-22.759637 8.773865 30.268096 38.873377 -0.367945 0.678312 0.039276 -0.017640 3869.640000 0 0 1
-22.850837 8.627365 28.727076 37.707255 -0.361006 0.704640 0.057400 -0.026529 -185464.000000 0 0 1
-23.117537 9.867165 28.122496 37.718115 -0.403416 0.729367 0.052214 -0.017297 118945.000000 0 0 1
-23.088937 9.763765 26.715356 36.635234 -0.400071 0.753607 0.052781 -0.018578 -615480.000000 0 0 1
-23.471537 11.108665 25.977436 36.730677 -0.442046 0.785209 0.048920 -0.016293 845226.000000 0 0 1
-24.789037 11.588965 26.254326 37.922158 -0.437314 0.806095 0.067839 -0.011831 369939.000000 0 0 1
-25.817407 10.947765 25.539006 37.929314 -0.401062 0.832091 0.073100 -0.006485 149937.000000 0 0 1
-27.216377 11.617265 25.703036 39.196149 -0.403435 0.855615 0.086369 -0.007111 529782.000000 0 0 1
-27.145987 12.961665 25.250646 39.274731 -0.445470 0.872487 0.092768 -0.005799 24689.500000 0 0 1
-28.410337 13.591965 25.349076 40.428510 -0.446232 0.893087 0.100025 -0.011848 345565.000000 0 0 1
-28.435597 15.077165 24.960286 40.729841 -0.487532 0.911165 0.109996 -0.017147 61810.000000 0 0 1
-27.800877 15.830865 25.973236 41.208179 -0.517644 0.888865 0.128818 -0.017937 72733.100000 0 0 1
-27.426207 17.127965 25.518436 41.191681 -0.558248 0.902685 0.113617 -0.007779 -714597.000000 0 0 1
-22.775637 -9.261235 31.933196 40.301726 0.386208 0.656140 0.066943 -0.013233 -278540.000000 0 0 1
-21.806237 -8.903235 30.993446 38.927795 0.387631 0.649845 0.074988 -0.023986 -396529.000000 0 0 1
-22.081437 -9.376035 29.713776 38.189113 0.401542 0.679210 0.083247 -0.020831 122949.000000 0 0 1
-21.013337 -9.200135 28.577166 36.645016 0.412682 0.676390 0.092127 -0.032355 -458486.000000 0 0 1
-20.813137 -7.856935 28.120176 35.856134 0.360960 0.669310 0.091098 -0.036720 121827.000000 0 0 1
-19.697337 -7.175735 28.689226 35.532350 0.349357 0.631045 0.074196 -0.036431 742456.000000 0 0 1
-18.315337 -7.483035 27.959086 34.251392 0.387869 0.615837 0.071346 -0.029675 353806.000000 0 0 1
-17.747837 -8.764735 28.100786 34.372379 0.458714 0.613671 0.071137 -0.031300 6158.560000 0 0 1
-17.503237 -9.196635 29.404446 35.433922 0.483780 0.591977 0.063620 -0.030940 -732399.000000 0 0 1
-16.242637 -8.645135 30.191686 35.356746 0.489113 0.547332 0.053398 -0.027073 -78308.600000 0 0 1
-15.130037 -9.232935 29.600916 34.501874 0.547914 0.539529 0.042514 -0.025077 -451588.000000 0 0 1
-13.849137 -8.776335 30.037836 34.221254 0.564838 0.499643 0.047519 -0.023974 440585.000000 0 0 1
-12.739537 -9.611035 29.402916 33.454435 0.646328 0.497257 0.060222 -0.027365 -409547.000000 0 0 1
-12.270637 -9.302635 28.082846 32.027391 0.648679 0.501550 0.071511 -0.029424 364731.000000 0 0 1
-11.198137 -10.218135 27.812366 31.675483 0.739670 0.499043 0.076122 -0.025367 102534.000000 0 0 1
-10.653337 -9.992435 26.414216 30.183657 0.753398 0.505120 0.065406 -0.025748 50778.000000 0 0 1
-11.530837 -10.364835 25.345876 29.712008 0.732196 0.548991 0.056626 -0.020646 -133406.000000 0 0 1
-10.961237 -10.038835 24.136706 28.346207 0.741503 0.551963 0.032851 -0.017343 92920.100000 0 0 1
-11.837537 -10.442635 22.904866 27.817418 0.722872 0.603419 0.030118 -0.016265 -378608.000000 0 0 1
-11.891237 -11.833635 22.755766 28.271210 0.782970 0.635273 0.033715 -0.012695 775080.000000 0 0 1
-13.052737 -12.417235 22.110366 28.520693 0.760452 0.683702 0.041596 -0.008133 1852050.000000 0 0 1
-14.420637 -12.226135 22.881966 29.681939 0.703228 0.690535 0.050193 -0.012322 395797.000000 0 0 1
-15.521137 -12.998535 22.438766 30.221942 0.697176 0.734052 0.047674 -0.002444 798805.000000 0 0 1
-16.661737 -12.741635 23.279246 31.335060 0.652858 0.733384 0.050364 -0.003861 957511.000000 0 0 1
-18.000537 -13.447835 22.915266 32.093192 0.641629 0.775569 0.075658 -0.012858 219569.000000 0 0 1
-17.888637 -14.827635 23.107566 32.769218 0.692108 0.788147 0.067873 -0.013700 336796.000000 0 0 1
-19.101337 -15.521935 22.880966 33.605507 0.682383 0.821847 0.072363 -0.013687 177221.000000 0 0 1
-20.016737 -15.772835 24.103186 35.077281 0.667370 0.813244 0.073954 -0.020139 -234680.000000 0 0 1
-19.515137 -16.641635 25.109476 35.892483 0.706091 0.795994 0.066481 -0.017690 -78816.100000 0 0 1
-20.273437 -16.517935 26.293326 37.083600 0.683675 0.782677 0.062451 -0.017921 -39475.100000 0 0 1
-19.836237 -17.522335 27.387116 38.086252 0.723540 0.768317 0.057830 -0.014489 -22412.600000 0 0 1
-20.196737 -18.856435 27.211186 38.780432 0.751092 0.793053 0.069671 -0.013743 137341.000000 0 0 1
-19.887237 -19.605335 28.406076 39.834363 0.778260 0.776879 0.061758 -0.014610 -100325.000000 0 0 1
-19.893737 -21.132935 28.318206 40.549753 0.815594 0.797697 0.071471 -0.013678 -628657.000000 0 0 1
-21.113337 -21.715135 27.992116 41.241710 0.799449 0.824760 0.068349 -0.011946 -627864.000000 0 0 1
-21.040637 -23.111535 27.750036 41.796123 0.832267 0.844724 0.075662 -0.007218 1262470.000000 0 0 1
-22.386337 -23.775635 27.174676 42.484019 0.815485 0.876760 0.078111 -0.002450 1808330.000000 0 0 1
-23.434037 -23.870535 28.161856 43.726955 0.794625 0.871030 0.067600 0.004839 304334.000000 0 0 1
-24.550437 -24.471835 27.540096 44.272469 0.783795 0.899426 0.047294 0.011085 358537.000000 0 0 1
-25.409747 -25.388005 28.502786 45.854278 0.784970 0.900019 0.021551 0.018509 89885.000000 0 0 1
-26.175617 -24.809135 29.530546 46.612329 0.758603 0.884683 0.016653 0.021081 43828.700000 0 0 1
-26.643717 -25.773525 30.427406 47.958203 0.768798 0.883491 0.013813 0.024322 -839576.000000 0 0 1
-27.603707 -25.102035 31.392906 48.760551 0.737969 0.871319 0.005601 0.017183 577920.000000 0 0 1
-28.786797 -24.808335 30.569696 48.771297 0.711302 0.893361 0.002767 0.013674 835691.000000 0 0 1
-29.729957 -24.154435 31.386476 49.521893 0.682293 0.884353 0.014750 -0.004596 -125571.000000 0 0 1
-31.051677 -23.729535 30.704306 49.699616 0.652524 0.904857 0.016709 -0.009006 938058.000000 0 0 1
-32.136847 -24.683635 30.875046 50.944354 0.654972 0.919706 0.011406 -0.013408 954477.000000 0 0 1
-33.208157 -24.519735 29.949996 51.000013 0.636013 0.943133 0.012169 -0.014296 1075000.000000 0 0 1
-34.402820 -25.486455 30.398916 52.509118 0.637603 0.953385 0.013682 -0.017935 799230.000000 0 0 1
-34.100677 -26.856105 30.279066 52.923798 0.667105 0.961701 0.009596 -0.018839 -214887.000000 0 0 1
-35.135938 -27.570865 30.872646 54.293710 0.665336 0.965966 0.022878 -0.022225 -170855.000000 0 0 1
-34.725956 -29.027205 31.200336 54.972098 0.696247 0.967249 0.017934 -0.020662 75597.100000 0 0 1
-33.889837 -29.146665 32.336287 55.169598 0.710295 0.944528 0.015890 -0.009826 105045.000000 0 0 1
-33.248677 -30.415155 32.476667 55.545387 0.740920 0.946302 0.023037 -0.019385 -256621.000000 0 0 1
-32.295167 -30.586715 33.632482 55.764404 0.758236 0.923393 0.023282 -0.024795 -413322.000000 0 0 1
-32.918527 -30.578985 -33.409547 55.990192 0.748570 2.210183 0.021843 -0.010755 -244619.000000 0 0 1
-31.957547 -30.491145 -32.368597 54.760577 0.761921 2.203210 0.028392 -0.016146 31975.700000 0 0 1
-32.495847 -29.856075 -31.098427 53.985900 0.743087 2.184681 0.036632 -0.020828 35904.600000 0 0 1
-32.662077 -28.408685 -31.130737 53.319672 0.715863 2.194260 0.021355 -0.018815 610276.000000 0 0 1
-31.419667 -27.723795 -30.866427 52.043641 0.722989 2.205684 0.029854 -0.011632 459385.000000 0 0 1
-31.584767 -26.186115 -30.836437 51.324419 0.692219 2.215316 0.013237 -0.005065 -33022.500000 0 0 1
-32.424407 -25.781825 -29.759307 51.006480 0.671768 2.193756 0.010477 -0.006901 61698.600000 0 0 1
-32.389007 -24.396735 -29.627837 50.220087 0.645572 2.201805 0.021276 -0.010956 -3801.960000 0 0 1
-31.143577 -23.792035 -28.935967 48.716255 0.652367 2.206780 0.030820 -0.011418 -217752.000000 0 0 1
-30.847917 -22.431935 -29.107077 47.979242 0.628734 2.222648 0.039919 -0.012056 -780210.000000 0 0 1
-29.742027 -22.177435 -28.347507 46.690555 0.640718 2.223247 0.056876 -0.013746 -1039090.000000 0 0 1
-29.401147 -20.708535 -28.470017 45.867338 0.613636 2.240436 0.069300 -0.022893 -127435.000000 0 0 1
-29.145817 -20.340335 -29.834317 46.403603 0.609303 2.269115 0.085725 -0.019188 377340.000000 0 0 1
-28.763837 -18.978035 -29.941537 45.651065 0.583225 2.286142 0.078242 -0.028240 -451690.000000 0 0 1
-28.430697 -18.539435 -31.393707 46.233970 0.577845 2.317221 0.093285 -0.021711 185010.000000 0 0 1
-29.517897 -18.450935 -32.295237 47.483951 0.558654 2.318736 0.090158 -0.034868 551790.000000 0 0 1
-30.462947 -17.427635 -31.959477 47.467060 0.519647 2.309457 0.067362 -0.029287 -753003.000000 0 0 1
-31.055397 -16.682235 -33.213977 48.434522 0.492945 2.326430 0.065958 -0.038579 411210.000000 0 0 1
-31.983797 -17.431035 -34.006607 49.832254 0.498993 2.321867 0.073141 -0.046596 792754.000000 0 0 1
-33.306117 -17.463135 -33.497137 50.361858 0.482915 2.298463 0.067633 -0.045572 -152436.000000 0 0 1
-34.412961 -17.889135 33.845217 51.475933 0.479391 0.853306 0.076951 -0.044519 -439774.000000 0 0 1
-34.631804 -19.281235 33.822892 52.106774 0.508010 0.864386 0.040011 -0.040193 580045.000000 0 0 1
-35.665858 -19.675135 32.910435 52.366602 0.504110 0.891222 0.042654 -0.032847 65402.200000 0 0 1
-35.816791 -21.157135 33.319702 53.297931 0.533556 0.895461 0.015649 -0.025587 -438272.000000 0 0 1
-34.802136 -22.003835 32.901592 52.705523 0.563800 0.896621 0.037178 -0.029125 -351296.000000 0 0 1
-35.064929 -23.249135 33.481161 53.768574 0.585481 0.898620 0.035397 -0.025689 -862880.000000 0 0 1
-33.816257 -24.075535 33.754534 53.502702 0.618702 0.888091 0.031037 -0.019988 -349389.000000 0 0 1
-32.918537 -23.783335 -33.520897 52.658595 0.625661 2.260839 0.022545 -0.026809 -168657.000000 0 0 1
-32.209777 -22.589035 -33.711187 51.809057 0.611605 2.279278 0.034709 -0.025926 -846365.000000 0 0 1
-30.870107 -22.652235 -32.911577 50.490189 0.633047 2.280806 0.038653 -0.020208 20969.200000 0 0 1
-29.919077 -23.576435 -33.386157 50.652097 0.667385 2.290453 0.034314 -0.017288 559511.000000 0 0 1
-28.611647 -23.443135 -32.829267 49.456725 0.686433 2.296682 0.050130 -0.019526 619160.000000 0 0 1
-28.317257 -24.014135 -31.397757 48.624735 0.703354 2.272757 0.051021 -0.008313 -710151.000000 0 0 1
-28.386387 -25.435335 -31.369987 49.364150 0.730623 2.259428 0.037924 -0.011642 129311.000000 0 0 1
-27.706437 -25.809525 -30.170747 48.415413 0.749967 2.243578 0.035840 -0.013474 140714.000000 0 0 1
-27.251687 -27.321815 -30.093317 48.936119 0.786683 2.233120 0.036028 -0.012315 516195.000000 0 0 1
-28.331817 -28.254535 -30.072317 50.053520 0.784032 2.215302 0.026428 -0.004970 475490.000000 0 0 1
-27.771077 -29.443375 -29.604647 50.145590 0.814618 2.202318 0.023218 -0.008585 80812.200000 0 0 1
-28.530987 -30.721095 -29.966917 51.534639 0.822344 2.191356 0.025403 0.002657 -214306.000000 0 0 1
-28.235967 -30.984005 -31.305277 52.319201 0.831769 2.212239 0.039732 -0.016304 345347.000000 0 0 1
-28.660287 -32.277405 -31.661147 53.531964 0.844686 2.203645 0.054677 -0.008384 -198199.000000 0 0 1
-28.257337 -32.650945 -33.115027 54.416600 0.857408 2.225024 0.038842 -0.020535 48400.100000 0 0 1
-26.854947 -32.691545 -33.278247 53.827196 0.883104 2.237301 0.028098 -0.016034 -260553.000000 0 0 1
-26.573467 -33.343985 33.837945 54.433234 0.897918 0.899960 0.035832 -0.018363 -452921.000000 0 0 1
-25.070417 -33.639175 33.741994 53.839038 0.930326 0.893460 0.035165 -0.017372 -314906.000000 0 0 1
-24.704537 34.071784 32.522939 53.187801 -0.943440 0.912875 0.026753 -0.003607 -109161.000000 0 0 1
-23.663237 33.149464 32.815318 52.303736 -0.950846 0.892588 0.023895 0.002761 -372513.000000 0 0 1
-23.403737 32.139000 31.631866 50.805759 -0.941391 0.898730 0.017047 -0.005447 -266267.000000 0 0 1
-24.576337 31.460170 31.246486 50.695971 -0.907631 0.906697 0.059683 -0.032556 -25817.900000 0 0 1
-24.279837 30.419940 30.343466 49.351891 -0.897181 0.908615 0.058578 -0.023347 501809.000000 0 0 1
-25.588547 29.685620 29.884596 49.285889 -0.859386 0.919331 0.057581 -0.022049 511222.000000 0 0 1
-26.355927 29.068600 30.889676 49.937866 -0.834303 0.903885 0.056403 -0.026485 144869.000000 0 0 1
-27.498847 28.466930 30.316306 49.856104 -0.802694 0.917161 0.061786 -0.030337 174250.000000 0 0 1
-27.952677 27.118170 30.938786 49.738876 -0.770246 0.899471 0.053672 -0.048471 -196066.000000 0 0 1
-27.092337 26.063130 30.617756 48.484311 -0.766038 0.887312 0.059541 -0.035568 -92757.600000 0 0 1
-27.604757 24.781940 30.998286 48.343157 -0.731566 0.874718 0.069475 -0.032100 546641.000000 0 0 1
-28.747137 24.158900 30.145976 48.154233 -0.698890 0.894345 0.081139 -0.031081 469814.000000 0 0 1
-28.236687 23.854700 28.856616 46.894152 -0.701475 0.907958 0.086404 -0.031644 -267144.000000 0 0 1
-29.181437 23.331450 27.969396 46.671189 -0.674455 0.928187 0.094046 -0.023193 51549.000000 0 0 1
-28.471107 23.028170 26.616026 45.269343 -0.680099 0.942276 0.114555 -0.030590 1139390.000000 0 0 1
-27.332637 22.144070 26.806266 44.226788 -0.680911 0.919637 0.102192 -0.031981 951800.000000 0 0 1
-26.467437 22.086670 25.663316 42.976179 -0.695417 0.930850 0.068750 -0.022267 966718.000000 0 0 1
-25.095407 21.478270 26.164466 42.138757 -0.707889 0.900891 0.041191 -0.024461 189804.000000 0 0 1
-25.175907 20.105270 26.393926 41.649580 -0.673882 0.884451 0.097562 -0.030034 285259.000000 0 0 1
-24.042437 19.604370 27.091656 41.186502 -0.684065 0.852929 0.039813 -0.026169 -59020.600000 0 0 1
-24.168837 18.286270 27.896526 41.191461 -0.647715 0.826791 0.081804 -0.021235 760013.000000 0 0 1
-22.871537 17.862670 28.381506 40.591773 -0.663048 0.796527 0.043453 -0.013781 1050730.000000 0 0 1
-22.975537 16.583170 29.029086 40.565560 -0.625191 0.773301 0.051830 -0.013991 597814.000000 0 0 1
-21.594237 15.936870 29.389586 39.800033 -0.635786 0.740055 0.046001 -0.017578 452924.000000 0 0 1
-20.802337 16.550770 30.373236 40.363333 -0.672065 0.718953 0.061280 -0.017073 -333038.000000 0 0 1
-19.503837 16.026070 30.253176 39.401640 -0.687826 0.695372 0.040834 -0.011730 -612201.000000 0 0 1
-18.625037 16.710670 31.287586 40.063094 -0.731275 0.674598 0.027120 -0.022127 -883493.000000 0 0 1
-18.788237 16.240270 32.587003 40.971416 -0.712786 0.651196 0.017743 -0.023483 434594.000000 0 0 1
-17.797137 16.705770 33.500344 41.449896 -0.753778 0.629685 0.022694 -0.017735 -814896.000000 0 0 1
-18.168437 16.195070 -33.462207 41.377430 -0.728035 2.512747 0.014091 -0.021000 35440.900000 0 0 1
-19.294037 16.735070 -32.815017 41.583023 -0.714492 2.480211 0.029555 -0.023057 840514.000000 0 0 1
-20.551737 16.326170 -33.402177 42.480857 -0.671313 2.475574 0.024439 -0.015516 215628.000000 0 0 1
-21.780537 17.076770 -32.789767 42.908935 -0.664932 2.440552 0.034259 -0.026111 268920.000000 0 0 1
-21.897137 16.883570 -31.404497 41.842347 -0.656831 2.419680 0.040850 -0.025979 67556.900000 0 0 1
-22.820437 17.735870 -30.767057 42.213093 -0.660678 2.387439 0.048232 -0.021494 -701110.000000 0 0 1
-22.853937 17.498670 -29.253557 41.039938 -0.653457 2.364289 0.047489 -0.014264 102124.000000 0 0 1
-23.495837 16.368870 -28.700957 40.543054 -0.608488 2.357335 0.033793 -0.017564 -71440.100000 0 0 1
-24.817937 16.135770 -29.136857 41.536123 -0.576492 2.348272 0.036419 -0.017944 -418753.000000 0 0 1
-25.563137 15.127970 -28.221447 40.972912 -0.534360 2.330605 0.042193 -0.009187 -271284.000000 0 0 1
-25.183807 13.765170 -28.299697 40.306041 -0.500220 2.349167 0.024653 -0.003126 64123.900000 0 0 1
-26.040497 12.987070 -27.477727 40.022456 -0.462628 2.327540 0.010477 -0.002253 249461.000000 0 0 1
-25.630537 11.488970 -27.469717 39.287482 -0.421400 2.345071 0.020351 -0.003797 1044040.000000 0 0 1
-24.432237 11.246770 -26.713017 37.907906 -0.431407 2.352771 0.017071 -0.005191 332753.000000 0 0 1
-23.591137 10.242070 -27.178597 37.418149 -0.409594 2.383790 0.011068 0.003411 -184769.000000 0 0 1
-22.773837 9.554670 -26.069247 35.910236 -0.397242 2.383220 0.041690 -0.001831 -152076.000000 0 0 1
-23.345937 8.548770 -25.309667 35.478071 -0.351014 2.365119 0.034730 0.000010 -190710.000000 0 0 1
-22.305737 7.971370 -24.551137 34.115202 -0.343224 2.374100 0.063777 0.004743 110946.000000 0 0 1
-22.768437 6.733070 -23.795537 33.614931 -0.287525 2.357297 0.069314 0.001951 162500.000000 0 0 1
-23.153637 5.575670 -24.588437 34.231130 -0.236312 2.372161 0.057778 -0.005104 447753.000000 0 0 1
-23.590637 4.501970 -23.733237 33.764663 -0.188570 2.350265 0.066444 -0.002392 -150162.000000 0 0 1
35.471562 24.710965 -10.086837 44.391529 0.608468 1.800023 0.038899 0.002992 -260799.000000 0 0 1
-36.407077 24.335965 -9.244037 44.756750 -0.589230 1.778833 0.043040 0.000479 -133137.000000 0 0 1
-35.680250 23.293965 -9.879337 43.741175 -0.578378 1.798621 0.068789 -0.001684 692189.000000 0 0 1
-34.580896 22.601465 -8.992737 42.279238 -0.578889 1.785132 0.055407 -0.004903 659283.000000 0 0 1
-35.192937 21.652865 -8.094337 42.105911 -0.551566 1.764238 0.067664 -0.010625 389436.000000 0 0 1
-34.275534 21.081965 -7.150337 40.870391 -0.551429 1.746653 0.042300 -0.013231 88396.600000 0 0 1
-34.887050 20.138765 -6.018837 40.729627 -0.523528 1.719115 0.065662 -0.001045 -36064.600000 0 0 1
-35.502865 18.980965 -6.489937 40.778055 -0.490968 1.730629 0.073597 -0.004415 -61238.700000 0 0 1
-35.981588 18.197865 -5.475437 40.691736 -0.468241 1.705765 0.077096 -0.014487 -334714.000000 0 0 1
36.103852 17.035765 -6.029337 40.373981 0.440879 1.720694 0.073759 -0.003667 582599.000000 0 0 1
34.827942 17.433265 -6.566437 39.497119 0.464091 1.737823 0.069887 -0.004140 587652.000000 0 0 1
34.280122 16.331865 -7.244637 38.656712 0.444609 1.759321 0.079912 -0.005674 -266089.000000 0 0 1
33.127002 16.666765 -8.182737 37.975473 0.466138 1.787974 0.056100 -0.014010 -173826.000000 0 0 1
32.693672 15.589265 -9.038337 37.330858 0.444939 1.815341 0.058369 -0.018185 1747.910000 0 0 1
32.068402 16.054265 -10.214637 37.288882 0.464148 1.848276 0.059418 -0.011397 -620263.000000 0 0 1
31.373352 14.995765 -11.060937 36.489787 0.445875 1.878766 0.049920 -0.012171 111885.000000 0 0 1
30.250392 14.280565 -10.530637 35.070146 0.441062 1.875776 0.048052 -0.010166 551626.000000 0 0 1
30.364562 13.660165 -9.249837 34.556711 0.422747 1.841772 0.043501 -0.014683 -759363.000000 0 0 1
29.203772 12.655265 -8.972737 33.068506 0.408916 1.845579 0.040721 0.000364 206820.000000 0 0 1
29.305882 11.556765 -9.841437 33.003749 0.375626 1.873594 0.044748 -0.003341 313022.000000 0 0 1
28.305342 10.592365 -9.638837 31.722197 0.358085 1.879529 0.058293 -0.002262 -588546.000000 0 0 1
28.723292 9.255865 -10.212537 31.858978 0.311736 1.897111 0.069315 0.002092 -463555.000000 0 0 1
29.841502 8.778165 -9.513537 32.528124 0.286090 1.867606 0.061436 -0.001535 155137.000000 0 0 1
29.962632 7.357065 -9.558437 32.299373 0.240778 1.871228 0.059809 -0.002083 -799710.000000 0 0 1
31.066462 6.997365 -8.588237 32.982511 0.221542 1.834220 0.068493 -0.007061 -689745.000000 0 0 1
32.360742 7.101065 -9.116437 34.362075 0.216011 1.839317 0.065353 -0.015507 -410651.000000 0 0 1
33.292482 6.651465 -8.162037 34.917764 0.197192 1.806729 0.079990 -0.022975 576292.000000 0 0 1
34.780512 6.874165 -8.612637 36.484459 0.195129 1.809109 0.084459 -0.023420 760910.000000 0 0 1
35.209912 5.938865 -9.622737 36.981146 0.167097 1.834032 0.087993 -0.020212 78858.000000 0 0 1
-36.333397 6.001265 -9.847837 38.119691 -0.163694 1.832100 0.092346 -0.024717 -1107300.000000 0 0 1
-35.898419 5.157665 -11.040537 37.910308 -0.142697 1.866306 0.091291 -0.026729 -873480.000000 0 0 1
-34.541677 5.105165 -11.326337 36.707984 -0.146735 1.884467 0.096488 -0.026926 -281834.000000 0 0 1
-33.916877 6.221465 -11.968937 36.500913 -0.181416 1.904884 0.078940 -0.025323 -201835.000000 0 0 1
-33.292827 7.327965 -11.083437 35.846255 -0.216652 1.885141 0.074053 -0.012109 -946796.000000 0 0 1
-34.168680 8.114965 -10.345437 36.611193 -0.233177 1.857275 0.086715 -0.017885 -352463.000000 0 0 1
-34.439701 9.386165 -10.959037 37.340241 -0.266077 1.868673 0.084908 -0.017124 -64928.000000 0 0 1
-35.326330 10.288265 -10.099437 38.154903 -0.283396 1.838685 0.079497 -0.013866 -21814.700000 0 0 1
-34.692277 10.900765 -8.966437 37.453675 -0.304445 1.812545 0.076011 -0.009622 -361086.000000 0 0 1
-35.461716 11.881565 -8.324437 38.314503 -0.323298 1.789809 0.070576 -0.013422 -480240.000000 0 0 1
-34.617128 12.746665 -7.368037 37.617961 -0.352812 1.767936 0.080298 -0.009782 547230.000000 0 0 1
-33.734287 13.661165 -8.046837 37.274404 -0.384778 1.788390 0.063049 -0.013986 110255.000000 0 0 1
-33.203457 14.595665 -7.168137 36.971411 -0.414157 1.765915 0.074920 -0.014425 715289.000000 0 0 1
-32.194947 15.682565 -7.773737 36.645443 -0.453285 1.784554 0.058310 -0.018735 656847.000000 0 0 1
-32.823827 16.624465 -8.587137 37.782475 -0.468815 1.800078 0.042685 -0.014963 -189900.000000 0 0 1
-31.952127 17.673165 -8.990537 37.604640 -0.505231 1.812215 0.047156 -0.013997 -107329.000000 0 0 1
-32.544997 18.689765 -9.959437 38.828785 -0.521289 1.830192 0.024387 -0.008356 -79651.000000 0 0 1
-32.529177 18.221365 -11.286837 38.955850 -0.510606 1.864745 0.011873 -0.006690 449976.000000 0 0 1
-33.597127 18.797065 -12.049937 40.339777 -0.510096 1.874138 0.007523 -0.009053 204515.000000 0 0 1
-33.169507 19.001865 -13.494437 40.538709 -0.520233 1.910150 0.001471 0.002583 622177.000000 0 0 1
-32.174197 20.043365 -13.702037 40.307087 -0.557134 1.917651 0.009743 -0.004506 881351.000000 0 0 1
-31.927087 20.189965 -15.101937 40.682209 -0.563887 1.951116 0.003735 -0.002278 248485.000000 0 0 1
-31.031937 21.456165 -15.468137 40.775132 -0.604946 1.959892 0.016563 -0.011905 1101090.000000 0 0 1
-29.673177 21.302165 -14.997637 39.486818 -0.622634 1.960391 0.005993 -0.007741 1167810.000000 0 0 1
-28.790657 22.374465 -15.186337 39.498652 -0.660648 1.965438 0.026655 -0.010659 19050.600000 0 0 1
-28.449507 22.935065 -16.613637 40.142305 -0.678490 1.997496 0.014478 -0.003013 -1499530.000000 0 0 1
-29.386947 23.820765 -17.083837 41.507578 -0.681165 1.994987 0.035200 0.002511 -474196.000000 0 0 1
-28.953597 24.609365 -18.181037 42.124598 -0.704470 2.017064 0.014971 0.004888 230778.000000 0 0 1
-28.018267 25.824865 -17.901937 42.100194 -0.744684 2.010004 0.024972 0.004747 376209.000000 0 0 1
-28.722987 26.950965 -17.487537 43.094994 -0.753580 1.988640 0.044110 0.004640 -557891.000000 0 0 1
-27.855027 27.988565 -17.160637 43.055195 -0.787789 1.980757 0.044764 0.004517 -115077.000000 0 0 1
-28.466727 29.361765 -16.692537 44.171355 -0.800874 1.958328 0.033969 0.002832 -224646.000000 0 0 1
-29.001557 29.373765 -15.406837 44.059948 -0.791774 1.928025 0.031999 0.005043 324764.000000 0 0 1
-28.031657 29.327565 -14.347537 43.031752 -0.807987 1.910722 0.025338 0.012048 145057.000000 0 0 1
-28.399727 30.190065 -13.100637 43.469659 -0.815946 1.876930 0.025224 0.010261 -12394.600000 0 0 1
-28.004797 31.574365 -13.198237 44.219935 -0.845240 1.873883 0.032767 0.003989 -58605.000000 0 0 1
-28.526057 32.385165 -12.219437 44.853646 -0.848670 1.846713 0.025724 0.000300 79033.400000 0 0 1
-27.895677 33.847265 -12.310637 45.556097 -0.881494 1.844429 0.012085 -0.001201 426247.000000 0 0 1
-28.268807 -33.842339 -13.560337 46.133633 0.874893 1.869139 0.006924 -0.016726 -105033.000000 0 0 1
-27.445547 -32.745039 -13.868237 44.920192 0.873217 1.884654 0.028763 -0.020956 -428054.000000 0 0 1
-27.615017 -31.938939 -15.146837 44.856568 0.857876 1.915240 0.014180 -0.015871 70916.200000 0 0 1
-26.911707 -32.452939 -16.277437 45.192789 0.878471 1.939255 0.012922 -0.015992 91437.400000 0 0 1
-27.309057 -31.763639 -17.450237 45.378675 0.860664 1.965513 0.020617 -0.002573 21256.200000 0 0 1
-26.704497 -32.360739 -18.735937 45.949787 0.880870 1.990783 0.013562 0.003050 -197963.000000 0 0 1
-27.080717 -33.695839 -19.158137 47.284342 0.893815 1.987960 0.014341 0.009391 -111302.000000 0 0 1
-26.438807 33.536665 -18.497837 46.539106 -0.903196 1.979553 0.012091 0.001151 -692665.000000 0 0 1
-26.700597 32.140765 -19.140337 45.959800 -0.877591 2.000342 0.024599 -0.008117 -790887.000000 0 0 1
-27.967497 31.591065 -19.124437 46.324080 -0.846164 1.996366 0.046134 -0.008587 -1274440.000000 0 0 1
-28.713447 32.156165 -20.162137 47.591940 -0.841897 2.008263 0.037658 -0.002604 -1011650.000000 0 0 1
-30.224367 31.893665 -20.140237 48.335778 -0.812265 2.000579 0.037762 -0.005486 -373381.000000 0 0 1
-30.500877 30.583665 -20.485337 47.804949 -0.786753 2.013650 0.041789 -0.007317 515825.000000 0 0 1
-31.876597 30.442465 -20.830437 48.752110 -0.762389 2.012270 0.046392 -0.005274 263450.000000 0 0 1
-32.148217 29.019065 -21.372037 48.294699 -0.734285 2.029219 0.049697 -0.011679 -75299.100000 0 0 1
-33.527147 28.754465 -21.550037 49.145630 -0.708917 2.024718 0.050241 -0.008577 159274.000000 0 0 1
-33.687277 27.398265 -21.898637 48.631758 -0.682805 2.037892 0.043194 0.005307 -12469.900000 0 0 1
-35.129768 26.876865 -22.063237 49.429272 -0.653079 2.033490 0.028712 0.007819 -47032.000000 0 0 1
-35.811629 27.333665 -23.181437 50.665383 -0.651935 2.046023 0.025940 0.003163 142719.000000 0 0 1
36.155682 26.385465 -23.679437 50.637357 0.630430 2.057402 0.035578 0.007036 251566.000000 0 0 1
35.235732 26.869065 -24.781337 50.770249 0.651486 2.080716 0.046636 -0.010486 -397000.000000 0 0 1
35.871392 27.029665 -26.039507 51.917392 0.645748 2.096193 0.064968 -0.013988 -139393.000000 0 0 1
35.014612 27.378965 -27.109487 52.062992 0.663625 2.118473 0.067843 -0.011564 -208188.000000 0 0 1
35.873752 27.667565 -28.334457 53.434649 0.656962 2.129708 0.080357 -0.013315 -58354.000000 0 0 1
36.320682 26.496365 -28.917007 53.455053 0.630259 2.142374 0.064879 0.000788 -9348.620000 0 0 1
-35.974989 26.753665 -30.189767 54.049797 -0.639440 2.163439 0.024236 0.003673 -792463.000000 0 0 1
-35.477427 25.435165 -30.876557 53.469218 -0.622004 2.186416 0.007906 0.006683 -221864.000000 0 0 1
-34.430241 24.867865 -30.202147 52.115467 -0.625515 2.188940 0.014179 0.009344 -517966.000000 0 0 1
-33.128467 25.434765 -30.202487 51.542340 -0.654772 2.196878 -0.007681 0.022079 208380.000000 0 0 1
-32.152117 24.535765 -29.369577 49.983342 -0.651842 2.198870 -0.013658 0.023723 -249747.000000 0 0 1
-31.966947 23.260165 -29.946657 49.595597 -0.629031 2.219077 -0.009475 0.018564 88214.800000 0 0 1
-31.949327 22.326965 -28.899687 48.522622 -0.609936 2.208799 -0.004596 0.025320 -41244.900000 0 0 1
-31.783047 20.829065 -29.338877 48.008143 -0.580128 2.228275 -0.008012 0.017986 -51572.200000 0 0 1
-30.495467 20.627365 -29.889547 47.422007 -0.594716 2.252721 0.024316 0.018511 178103.000000 0 0 1
-30.410937 19.298165 -30.228447 47.021307 -0.565458 2.269032 0.015027 0.002166 214236.000000 0 0 1
-28.950007 18.803165 -30.407157 46.002795 -0.576027 2.292927 0.044464 -0.007798 303035.000000 0 0 1
-28.400237 19.043665 -31.703087 46.629609 -0.590683 2.318411 0.064196 -0.015766 641126.000000 0 0 1
-27.115427 18.504165 -32.034587 45.867912 -0.598831 2.343969 0.067413 -0.020008 683492.000000 0 0 1
-27.122517 16.945765 -32.391357 45.519116 -0.558445 2.362568 0.069946 -0.028713 -185034.000000 0 0 1
-27.361457 16.042065 -31.368057 44.608880 -0.530286 2.350656 0.035368 -0.012802 -13338.200000 0 0 1
-27.280657 14.743365 -31.872087 44.468315 -0.495468 2.369908 0.023650 -0.009551 -161976.000000 0 0 1
-27.836187 13.696165 -30.878007 43.770876 -0.457249 2.353849 0.025504 -0.003087 -284339.000000 0 0 1
-29.246247 13.684965 -30.895547 44.689552 -0.437658 2.334134 0.024947 -0.009730 175767.000000 0 0 1
-29.927207 12.433665 -30.647217 44.603651 -0.393766 2.328288 0.021991 -0.004294 -24240.300000 0 0 1
-29.677197 11.605365 -29.377637 43.341275 -0.372770 2.315592 0.012246 -0.020562 -585978.000000 0 0 1
-29.798647 12.358765 -28.214667 42.857507 -0.393150 2.289403 -0.005992 -0.011891 402479.000000 0 0 1
-30.254467 11.576365 -27.079677 42.221487 -0.365446 2.267081 0.007263 -0.012836 103673.000000 0 0 1
-30.212857 12.285665 -25.762487 41.562724 -0.386215 2.239343 -0.000017 -0.013136 -76235.100000 0 0 1
-28.916517 12.614865 -25.322767 40.454200 -0.411362 2.247160 0.005982 -0.015097 -76796.100000 0 0 1
-28.958447 13.462465 -24.196637 40.066281 -0.435166 2.219201 0.001880 -0.006106 111853.000000 0 0 1
-27.533747 13.664165 -23.599937 38.752725 -0.460659 2.225580 0.015083 -0.000482 78495.200000 0 0 1
-26.759737 14.553565 -24.430637 39.047994 -0.498117 2.246769 0.009237 0.001811 329251.000000 0 0 1
-25.359437 14.507765 -24.235637 37.959747 -0.519641 2.263287 0.028745 -0.009530 359839.000000 0 0 1
-24.817437 15.070065 -22.896737 36.976650 -0.545724 2.238547 0.036142 -0.003584 -1035370.000000 0 0 1
-25.000937 16.467265 -22.848637 37.660031 -0.582443 2.222709 0.043791 -0.002161 192455.000000 0 0 1
-25.198197 16.923565 -21.532237 37.215500 -0.591423 2.187786 0.033502 0.003346 -223155.000000 0 0 1
-26.657747 17.011165 -21.055637 37.991513 -0.567987 2.158221 0.026741 0.005744 -341649.000000 0 0 1
-27.392607 15.804065 -21.118137 38.027610 -0.523296 2.159564 0.030357 -0.000593 -478879.000000 0 0 1
-28.586987 16.062265 -20.443137 38.641093 -0.511913 2.128279 0.029993 0.004456 -1441670.000000 0 0 1
-29.614117 14.911065 -20.453837 38.957609 -0.466453 2.123544 0.006221 -0.004469 575578.000000 0 0 1
-30.365267 14.692165 -21.710837 40.115703 -0.450642 2.142666 -0.002978 0.005519 660726.000000 0 0 1
-31.223977 15.763165 -22.014137 41.328397 -0.467513 2.132541 -0.021727 0.006797 -1096420.000000 0 0 1
-31.625007 15.761865 -23.489337 42.430254 -0.462366 2.157476 -0.019556 0.017647 -248843.000000 0 0 1
-32.748377 14.964765 -23.831337 43.177923 -0.428628 2.155477 -0.004538 0.003482 251978.000000 0 0 1
-33.072027 15.095965 -25.237777 44.255989 -0.428211 2.177628 -0.001909 -0.001392 549876.000000 0 0 1
-34.294772 14.220365 -25.709697 45.159038 -0.393072 2.176468 0.002014 -0.008376 552239.000000 0 0 1
-34.040980 12.869365 -25.843407 44.635083 -0.361446 2.188290 0.003882 -0.015999 43685.200000 0 0 1
-34.115702 12.131565 -24.646137 43.800549 -0.341656 2.168433 0.000386 -0.013269 -183660.000000 0 0 1
-34.164497 10.628165 -24.950137 43.619722 -0.301598 2.179729 0.009205 -0.022615 -589898.000000 0 0 1
-35.422011 10.186565 -25.312107 44.712278 -0.280021 2.172577 0.015019 -0.020022 -710744.000000 0 0 1
-35.189346 9.143165 -26.269737 44.855174 -0.254207 2.196486 0.015633 -0.015867 553890.000000 0 0 1
-36.435377 8.386465 -26.869127 46.041498 -0.226233 2.193933 0.030382 -0.012277 267131.000000 0 0 1
35.855382 7.584165 -25.904307 44.879407 0.208448 2.186090 0.032400 -0.008313 -459516.000000 0 0 1
34.798102 6.929465 -26.570337 44.327286 0.196562 2.213563 0.050653 -0.004507 -162538.000000 0 0 1
33.893422 6.226265 -25.538297 42.892133 0.181676 2.208569 0.058154 -0.010439 104316.000000 0 0 1
34.610572 5.201165 -24.850037 42.923982 0.149161 2.188214 0.046903 -0.011499 102948.000000 0 0 1
33.763632 4.459865 -24.012137 41.670805 0.131331 2.184910 0.060365 -0.005449 -49498.100000 0 0 1
34.481162 3.533265 -22.998837 41.597849 0.102113 2.156619 0.042447 -0.001843 103607.000000 0 0 1
35.069902 2.435565 -23.665837 42.378083 0.069338 2.163307 0.047919 -0.004949 613264.000000 0 0 1
36.079512 1.705365 -22.952537 42.795542 0.047232 2.136879 0.055145 -0.007106 673559.000000 0 0 1
-36.095647 0.594565 -23.722037 43.197040 -0.016470 2.152154 0.076441 -0.005562 347496.000000 0 0 1
35.962092 -0.463535 -24.020637 43.249023 -0.012889 2.159644 0.061273 -0.003416 93677.900000 0 0 1
-36.193007 -1.600035 -24.206037 43.570932 0.044180 2.159826 0.072810 -0.009685 174029.000000 0 0 1
-23.126237 29.614065 27.004306 46.271462 -0.907798 0.947634 0.023956 -0.014898 -119947.000000 0 0 1
-24.486337 29.530065 26.588836 46.675172 -0.878502 0.964708 0.008836 -0.011201 803505.000000 0 0 1
-24.708837 28.937865 25.317636 45.704588 -0.864067 0.983706 0.004082 -0.003928 -329385.000000 0 0 1
-24.885237 27.428065 25.321006 44.863427 -0.833968 0.971088 0.011272 -0.011140 -253789.000000 0 0 1
-26.156457 27.109765 25.854126 45.689555 -0.803293 0.969314 0.023631 -0.012049 -20776.800000 0 0 1
-26.202527 26.663365 27.193886 46.227858 -0.794115 0.941894 0.042489 -0.011661 -890699.000000 0 0 1
-25.566017 25.295965 27.638106 45.358262 -0.780089 0.915582 0.038113 -0.005590 943066.000000 0 0 1
-24.178237 25.313365 28.024476 44.841107 -0.808330 0.895700 0.014458 0.003858 740117.000000 0 0 1
-23.918237 26.077965 29.254696 45.912739 -0.828569 0.879962 0.010730 -0.003223 -671796.000000 0 0 1
-22.530437 25.820265 29.824426 45.429099 -0.853334 0.854620 0.005081 0.005808 126675.000000 0 0 1
-21.390737 26.244065 29.019936 44.592278 -0.886934 0.862180 0.012366 -0.002680 1093720.000000 0 0 1
-20.191737 26.188965 29.781606 44.502946 -0.913989 0.837658 0.037002 -0.010292 454913.000000 0 0 1
-19.466737 24.806765 29.722316 43.332961 -0.905433 0.814949 0.038545 -0.001035 -579721.000000 0 0 1
-19.112137 24.497565 28.393946 42.090624 -0.908268 0.830386 0.038908 -0.006547 -323346.000000 0 0 1
-19.933037 23.642565 27.647186 41.480884 -0.870322 0.841287 0.033448 -0.001950 -273769.000000 0 0 1
-19.745437 22.117765 27.861106 40.685612 -0.842006 0.816481 0.023097 0.007926 -2440.050000 0 0 1
-20.299337 21.681765 29.078396 41.565793 -0.818316 0.795994 0.003672 0.001983 124390.000000 0 0 1
-20.416737 20.258965 29.064986 40.890613 -0.781519 0.780164 0.019307 -0.005327 -33371.200000 0 0 1
-20.924537 19.660665 30.375226 41.797516 -0.754267 0.757257 0.020966 -0.008538 -737904.000000 0 0 1
-20.011637 19.839365 31.378936 42.174680 -0.781075 0.731725 0.017212 -0.007355 -587180.000000 0 0 1
-20.564737 19.656665 32.637061 43.295157 -0.762825 0.716929 0.016535 -0.007834 -586771.000000 0 0 1
-19.728837 20.185465 33.816725 44.048279 -0.796838 0.695522 0.017954 -0.008603 -256450.000000 0 0 1
-19.619037 21.566865 33.988503 44.780069 -0.832657 0.709006 0.007484 -0.001400 572575.000000 0 0 1
-18.797037 22.283265 33.022076 44.049177 -0.870059 0.723242 0.024216 -0.000207 -143313.000000 0 0 1
-17.297737 22.434965 33.317270 43.733052 -0.913980 0.704659 0.032023 0.006617 -140545.000000 0 0 1
-16.592537 21.221765 33.103332 42.679107 -0.907212 0.683079 0.040367 -0.019262 156503.000000 0 0 1
-15.230537 21.434065 33.439730 42.539440 -0.953007 0.666342 0.046137 -0.020167 -209235.000000 0 0 1
-14.299037 20.233765 33.470469 41.643007 -0.955593 0.637229 0.058143 -0.023748 1079160.000000 0 0 1
-12.929837 20.279665 33.946125 41.602703 -1.003204 0.616409 0.044526 -0.024736 1340370.000000 0 0 1
-12.789637 20.561865 -33.008627 40.938180 -1.014352 2.508673 0.053652 -0.023449 -399322.000000 0 0 1
-11.303237 20.437965 -32.629647 40.126892 -1.065614 2.520360 0.043988 -0.027716 -221527.000000 0 0 1
-10.445137 21.390865 -33.170747 40.828525 -1.116553 2.519122 0.036819 -0.023587 -1572840.000000 0 0 1
-9.214737 21.176765 -32.622437 39.969866 -1.160373 2.525558 0.038487 -0.022614 -1097250.000000 0 0 1
-8.282737 22.417365 -32.456537 40.305940 -1.216875 2.506901 0.035806 -0.024170 91525.700000 0 0 1
-8.427237 23.308565 -31.295587 39.921439 -1.223868 2.471766 0.018720 -0.018780 158876.000000 0 0 1
-7.837537 22.822365 -30.082597 38.564881 -1.240000 2.465545 0.017154 -0.018369 -32630.300000 0 0 1
-7.481637 24.003865 -29.088537 38.448712 -1.268654 2.428824 0.012506 -0.016044 244582.000000 0 0 1
-6.358237 24.754365 -29.520737 39.047147 -1.319378 2.428020 0.023107 -0.011073 118747.000000 0 0 1
-6.251937 26.046665 -28.833297 39.355743 -1.335225 2.392978 0.019409 -0.003330 -22453.000000 0 0 1
-4.906737 26.750865 -29.091317 39.824485 -1.389389 2.389833 0.032502 -0.011100 -901912.000000 0 0 1
-3.786737 26.082665 -28.585077 38.881248 -1.426622 2.396742 0.040810 -0.012857 -494187.000000 0 0 1
-2.618837 26.324365 -29.312647 39.484957 -1.471639 2.407405 0.048686 -0.016423 -115145.000000 0 0 1
-1.902337 27.661665 -29.010297 40.129590 -1.502133 2.378809 0.058029 -0.024892 -848379.000000 0 0 1
-1.364237 27.687965 -27.703857 39.191686 -1.521564 2.355875 0.069463 -0.035740 137978.000000 0 0 1
-0.414237 28.721165 -27.637577 39.861167 -1.556375 2.336918 0.080597 -0.029487 -970158.000000 0 0 1
0.231763 29.029465 -26.236647 39.129595 1.562813 2.305688 0.092385 -0.047878 438264.000000 0 0 1
1.204063 28.148465 -25.665147 38.111490 1.528047 2.309625 0.129359 -0.061883 598441.000000 0 0 1
2.268363 27.801365 -26.530447 38.495792 1.489385 2.331150 0.134698 -0.063318 -1836760.000000 0 0 1
3.647463 27.991065 -25.978177 38.362344 1.441218 2.314718 0.121337 -0.062446 -1034990.000000 0 0 1
4.014963 26.875565 -25.135847 37.016574 1.422502 2.317255 0.142356 -0.063372 1108870.000000 0 0 1
5.345563 27.043965 -24.584037 36.936784 1.375650 2.299054 0.111150 -0.055476 1053410.000000 0 0 1
6.001863 25.800465 -23.974737 35.727782 1.342235 2.306406 0.102285 -0.050248 458872.000000 0 0 1
7.294263 26.120765 -23.467437 35.863927 1.298482 2.284115 0.080981 -0.043428 -155328.000000 0 0 1
7.894363 25.036465 -22.793437 34.766167 1.265349 2.285801 0.066051 -0.021997 713022.000000 0 0 1
9.372863 25.369065 -22.411237 35.124117 1.216891 2.262770 0.042917 -0.003518 30239.400000 0 0 1
9.474563 26.207465 -21.226037 35.030604 1.223894 2.221729 0.046588 0.003913 335659.000000 0 0 1
10.810263 26.545365 -20.874237 35.457749 1.184067 2.200255 0.049051 0.000451 605824.000000 0 0 1
11.764963 25.504465 -20.247837 34.624659 1.138593 2.195406 0.039595 0.010770 -24182.000000 0 0 1
12.069263 24.507465 -21.172037 34.562091 1.113188 2.230117 0.039317 0.000895 -289346.000000 0 0 1
12.239663 23.218965 -20.634637 33.387392 1.085673 2.237039 0.036578 0.010368 -326116.000000 0 0 1
12.327763 22.170465 -21.775437 33.431616 1.063324 2.280149 0.037911 0.003702 259182.000000 0 0 1
11.166063 22.012565 -22.575737 33.449931 1.101359 2.311641 0.044879 -0.013941 423678.000000 0 0 1
11.417663 20.880065 -23.350437 33.340412 1.070397 2.346704 0.040665 -0.012303 99666.800000 0 0 1
10.757363 21.163865 -24.738137 34.287104 1.100539 2.376762 0.050826 -0.019032 2322240.000000 0 0 1
9.293563 20.984565 -24.732637 33.740564 1.153882 2.393553 0.053897 -0.029614 2074900.000000 0 0 1
8.702963 21.225865 -25.981987 34.660389 1.181685 2.418278 0.050680 -0.030481 613553.000000 0 0 1
7.179063 20.838665 -26.116887 34.174270 1.239024 2.440638 0.057816 -0.040159 1743490.000000 0 0 1
6.154863 21.687465 -25.543797 34.069254 1.294269 2.418497 0.077911 -0.046344 630069.000000 0 0 1
6.161663 21.642065 -24.129837 32.993850 1.293428 2.391086 0.077233 -0.040055 1809.070000 0 0 1
4.710163 21.707965 -23.536637 32.363478 1.357130 2.385117 0.100157 -0.048178 1278720.000000 0 0 1
4.000763 22.961365 -23.895337 33.379897 1.398289 2.368651 0.106205 -0.047295 -144045.000000 0 0 1
2.669863 23.088665 -23.514637 33.062861 1.455672 2.362014 0.128468 -0.052248 -554160.000000 0 0 1
2.082063 24.240665 -24.359637 34.428720 1.485115 2.356805 0.126455 -0.051489 667008.000000 0 0 1
0.656063 24.319065 -24.202437 34.316255 1.543826 2.353609 0.115621 -0.062661 315964.000000 0 0 1
0.091863 25.081265 -25.193767 35.550024 1.567134 2.358429 0.094920 -0.049338 59468.000000 0 0 1
-1.388137 24.725465 -25.470927 35.525254 -1.514713 2.370258 0.093885 -0.045728 210632.000000 0 0 1
-1.644837 23.488865 -26.117467 35.164675 -1.500884 2.407918 0.109780 -0.051974 -23539.000000 0 0 1
-3.003437 23.454265 -26.530447 35.538540 -1.443434 2.413622 0.101928 -0.036699 303034.000000 0 0 1
-3.413537 22.092065 -27.140237 35.161116 -1.417494 2.452593 0.076319 -0.031399 -962709.000000 0 0 1
-2.576837 21.851765 -28.234727 35.795804 -1.453415 2.479605 0.098620 -0.043332 -16842.600000 0 0 1
-2.923837 20.628165 -28.859757 35.594320 -1.429994 2.516308 0.066160 -0.033150 -1000560.000000 0 0 1
-4.153237 20.470965 -29.718777 36.325136 -1.370629 2.528952 0.056344 -0.029193 -788063.000000 0 0 1
-4.197537 21.030465 -31.027567 37.717499 -1.373792 2.536819 0.052258 -0.031264 -69293.000000 0 0 1
-4.088237 22.459265 -31.055847 38.543455 -1.390739 2.507713 0.060468 -0.032612 -160905.000000 0 0 1
-3.598037 22.905865 -32.517527 39.937628 -1.414990 2.522160 0.050151 -0.029598 162314.000000 0 0 1
-2.322237 22.416865 -32.867877 39.852302 -1.467571 2.540543 0.058262 -0.029713 284865.000000 0 0 1
-2.284937 22.333065 34.030699 40.768556 -1.468839 0.583156 0.052454 -0.012013 413372.000000 0 0 1
-1.026337 21.549565 33.514625 39.858088 -1.523205 0.571947 0.058237 -0.001275 486060.000000 0 0 1
-1.155037 20.134065 33.573285 39.164782 -1.513492 0.540927 0.045349 -0.000361 -322574.000000 0 0 1
-0.084237 19.507265 32.956975 38.297554 -1.566478 0.534447 0.045363 0.005769 -617335.000000 0 0 1
-0.385837 18.031765 32.590366 37.248159 -1.549402 0.505459 0.040676 0.020194 430063.000000 0 0 1
-1.302037 17.918565 31.492066 36.256316 -1.498260 0.518436 0.033008 0.012369 260707.000000 0 0 1
-1.428837 16.570065 31.112816 35.279115 -1.484779 0.490909 0.024083 0.010056 -470904.000000 0 0 1
-2.372737 16.341465 29.904916 34.161050 -1.426607 0.504514 0.027766 0.008386 -1211230.000000 0 0 1
-3.664937 16.730565 30.075646 34.610519 -1.355146 0.517671 0.006456 -0.002612 -1382530.000000 0 0 1
-3.891937 18.100365 29.816156 35.096631 -1.359001 0.555675 0.007732 -0.000384 -762864.000000 0 0 1
-5.364737 18.519565 29.818876 35.509436 -1.288835 0.573983 0.000143 -0.015022 -198479.000000 0 0 1
-6.170837 18.192065 28.735406 34.565214 -1.243771 0.589284 -0.014422 -0.007988 -279077.000000 0 0 1
-7.476837 18.710065 28.873706 35.208813 -1.190621 0.609262 0.014019 -0.022339 -307475.000000 0 0 1
-8.514037 18.072765 27.929996 34.339457 -1.130537 0.620909 0.014013 -0.015200 -103062.000000 0 0 1
-8.895037 16.756265 28.217546 34.001823 -1.082776 0.591898 0.020596 -0.018035 -217560.000000 0 0 1
-9.805237 16.596765 29.264346 35.042791 -1.037175 0.582476 0.038341 -0.019539 -1049270.000000 0 0 1
-10.382037 15.217965 29.540366 34.813882 -0.972102 0.557609 0.039628 -0.023311 -89268.100000 0 0 1
-9.525737 14.082165 29.808756 34.316307 -0.976058 0.518332 0.031586 -0.011572 34582.200000 0 0 1
-8.929237 14.149165 31.079526 35.296842 -1.007838 0.493841 0.030458 -0.011472 -624848.000000 0 0 1
-9.786137 13.745665 32.254359 36.401311 -0.952099 0.481984 0.080306 -0.024764 -531867.000000 0 0 1
-10.103037 12.385465 32.326176 36.061791 -0.886545 0.459192 0.070112 -0.005324 165795.000000 0 0 1
-10.466337 11.927965 33.609360 37.167319 -0.850574 0.441125 0.065119 -0.001034 -386002.000000 0 0 1
-10.737737 10.442365 33.594174 36.781932 -0.771453 0.419400 0.066771 -0.009106 -437805.000000 0 0 1
-9.596637 9.616465 33.499129 36.149183 -0.786430 0.385286 0.059259 -0.007089 -47980.800000 0 0 1
-9.399637 8.740665 -33.710487 36.071448 -0.749088 2.777782 0.095202 -0.012623 164209.000000 0 0 1
-8.546037 9.392065 -32.566297 34.954390 -0.832527 2.769806 0.084526 -0.018950 -9570.950000 0 0 1
-9.238837 10.344165 -31.753597 34.650380 -0.841782 2.729787 0.073348 -0.017044 496023.000000 0 0 1
-8.372137 10.992365 -30.804527 33.761571 -0.919892 2.719940 0.068519 -0.015508 546199.000000 0 0 1
-7.330037 12.061665 -31.318017 34.351585 -1.024724 2.718176 0.053648 -0.019408 -30209.600000 0 0 1
-7.842037 13.266865 -31.754747 35.296901 -1.036947 2.689756 0.060788 -0.023925 26745.500000 0 0 1
-6.854037 14.187865 -32.209747 35.857233 -1.120767 2.686630 0.039878 -0.019048 -96409.300000 0 0 1
-7.407637 15.527565 -32.561807 36.827295 -1.125666 2.655523 0.040731 -0.023028 -604912.000000 0 0 1
-8.263437 15.579965 -33.643267 37.985381 -1.083134 2.658774 0.044253 -0.031282 -307531.000000 0 0 1
-8.494137 16.946565 -33.880637 38.823112 -1.106165 2.631486 0.057702 -0.035002 -903166.000000 0 0 1
-9.170437 17.296165 33.051923 38.414631 -1.083281 0.534744 0.056807 -0.037568 -85777.600000 0 0 1
-10.420337 16.790865 32.714720 38.220014 -1.015370 0.543396 0.041066 -0.035530 136608.000000 0 0 1
-11.487237 17.206565 33.599038 39.457798 -0.982142 0.551922 0.052931 -0.045193 -724779.000000 0 0 1
-12.845137 16.663165 33.182523 39.290438 -0.914072 0.565082 0.058274 -0.041266 -624969.000000 0 0 1
-13.001237 15.279765 33.134741 38.735183 -0.865792 0.544441 0.049913 -0.040554 -390347.000000 0 0 1
-14.317437 14.934965 33.451259 39.332288 -0.806505 0.553902 0.050284 -0.026639 -480935.000000 0 0 1
-14.735637 13.435465 33.350503 38.857519 -0.739278 0.538894 0.054392 -0.017606 -201463.000000 0 0 1
-14.724737 12.879765 32.052286 37.550702 -0.718662 0.547990 0.031397 -0.018460 63811.300000 0 0 1
-13.498537 12.306765 31.651076 36.543913 -0.739248 0.523428 0.037698 -0.005796 -278406.000000 0 0 1
-13.624937 11.813765 30.184116 35.160842 -0.714321 0.538540 0.028350 0.003708 184653.000000 0 0 1
-14.382337 10.606265 30.066566 34.976318 -0.635421 0.536258 0.027450 0.012435 223400.000000 0 0 1
-14.310837 10.161365 28.696366 33.638294 -0.617437 0.548924 0.018167 0.008633 89772.400000 0 0 1
-15.052137 8.828665 28.350986 33.290998 -0.530463 0.551745 0.026290 0.007230 231703.000000 0 0 1
-14.446637 7.672265 28.921176 33.226546 -0.488198 0.514734 0.013840 0.007675 34011.700000 0 0 1
-15.056437 6.483465 28.422356 32.811003 -0.406613 0.523160 0.021306 0.011991 -67781.600000 0 0 1
-14.122737 5.294165 28.322726 32.088264 -0.358655 0.489324 0.018083 0.014860 500311.000000 0 0 1
-13.176937 5.117065 27.259336 30.706472 -0.370410 0.478386 0.011882 0.007410 312264.000000 0 0 1
-13.859637 4.612865 26.133556 29.938784 -0.321295 0.509682 0.016339 0.010826 -193706.000000 0 0 1
-13.043037 4.366165 24.876686 28.425934 -0.323026 0.505070 0.021592 0.017178 -601548.000000 0 0 1
-12.179337 3.278665 24.951906 27.958603 -0.262965 0.468030 0.018283 0.009264 40985.700000 0 0 1
-11.627437 2.820765 23.679136 26.530275 -0.237998 0.467866 0.016948 0.001213 -208330.000000 0 0 1
-10.672637 1.628165 23.778836 26.114922 -0.151388 0.426194 0.016030 -0.004086 -1125580.000000 0 0 1
-9.492037 2.041865 24.327686 26.193592 -0.211885 0.379730 0.018009 -0.005155 -902208.000000 0 0 1
-8.651437 1.005765 24.841696 26.324300 -0.115735 0.337217 0.016078 0.003410 492966.000000 0 0 1
-7.135637 1.316865 24.787496 25.827725 -0.182494 0.284777 0.034383 -0.002570 -272266.000000 0 0 1
-6.693937 1.232165 23.408916 24.378358 -0.182034 0.282959 0.035978 -0.001114 375722.000000 0 1 0
-5.300437 1.259865 23.135566 23.768388 -0.233360 0.231273 0.034247 -0.004202 401100.000000 0 1 0
-4.555037 2.594965 23.375456 23.956088 -0.517836 0.220617 0.050498 -0.012011 -464363.000000 0 1 0
-4.315237 2.839865 24.743166 25.276676 -0.582050 0.205823 0.061476 -0.014305 -149980.000000 0 0 1
-4.393237 4.209065 25.020776 25.749873 -0.763992 0.238534 0.058462 -0.026013 145491.000000 0 0 1
3.983063 -23.251035 13.009763 26.939364 -1.401136 1.066801 0.083555 -0.011610 282413.000000 0 0 1
3.691663 -24.442935 13.730663 28.277491 -1.420897 1.063783 0.073540 -0.008610 -421378.000000 0 0 1
2.548463 -25.067025 13.203063 28.445936 -1.469478 1.088126 0.041183 -0.004940 42674.700000 0 0 1
2.285263 -26.434845 13.932463 29.968933 -1.484562 1.087278 0.032109 -0.004307 116015.000000 0 0 1
2.006163 -26.249505 15.368463 30.483616 -1.494518 1.042393 0.055162 -0.008622 39618.200000 0 0 1
2.232763 -27.444345 16.020563 31.856486 -1.489619 1.043848 0.041467 -0.008765 -394594.000000 0 0 1
2.186363 -27.470675 17.514363 32.652275 -1.491375 1.004642 0.040381 -0.006498 18117.700000 0 0 1
3.193363 -26.805445 18.260963 32.591290 -1.452224 0.976046 0.066701 -0.014875 208751.000000 0 0 1
3.240363 -27.219245 19.644463 33.723762 -1.452307 0.948982 0.052847 -0.013446 -213235.000000 0 0 1
3.978263 -26.320785 20.655263 33.693473 -1.420786 0.910901 0.061070 -0.012646 -150650.000000 0 0 1
3.353663 -25.082615 21.009863 32.890712 -1.437880 0.877887 0.074311 -0.017605 159231.000000 0 0 1
4.190963 -24.348935 21.848463 32.981663 -1.400345 0.846721 0.093158 -0.025017 -28177.000000 0 0 1
3.409263 -23.176935 22.537763 32.507601 -1.424746 0.804728 0.103006 -0.024672 372414.000000 0 0 1
2.819363 -22.131435 21.706563 31.127545 -1.444087 0.799113 0.120301 -0.017450 371990.000000 0 0 1
3.743963 -21.460735 20.891563 30.183402 -1.398078 0.806327 0.120858 -0.011020 -239798.000000 0 0 1
3.033563 -20.352735 20.154863 28.803729 -1.422836 0.795775 0.107804 -0.016927 38495.600000 0 0 1
2.451863 -19.364735 20.999963 28.670595 -1.444852 0.748873 0.085788 -0.019468 187351.000000 0 0 1
1.682263 -18.444335 20.246763 27.440023 -1.479840 0.740909 0.066520 -0.021865 17887.800000 0 0 1
1.408763 -17.146935 20.987163 27.137851 -1.488822 0.686682 0.066045 -0.022585 -436423.000000 0 0 1
2.362463 -16.181635 20.733463 26.406496 -1.425824 0.667833 0.043439 -0.010760 -501318.000000 0 0 1
1.968363 -14.896435 21.175063 25.964620 -1.439421 0.617143 0.048345 -0.011409 284295.000000 0 0 1
2.959663 -13.800535 20.709063 25.061517 -1.359536 0.598238 0.016050 -0.009703 -543180.000000 0 0 1
3.099163 -13.561035 19.313663 23.801765 -1.346120 0.624187 0.002720 -0.009986 918554.000000 0 1 0
1.886263 -13.245535 18.558763 22.878589 -1.429340 0.624621 0.015289 0.000991 1037320.000000 0 1 0
1.173763 -11.927435 19.022463 22.483227 -1.472704 0.562221 0.004541 -0.008572 -601433.000000 0 1 0
1.737863 -10.626635 18.724163 21.599532 -1.408693 0.521891 0.011241 -0.014861 -226219.000000 0 1 0
1.359663 -9.536535 19.572463 21.814570 -1.429177 0.457364 0.016034 -0.025745 473393.000000 0 1 0
-0.163237 -9.246735 19.694563 21.757862 1.553145 0.439017 0.020057 -0.026187 243196.000000 0 1 0
-0.551737 -8.399535 20.784763 22.424606 1.505204 0.384801 0.012387 -0.029461 214816.000000 0 1 0
-1.969837 -8.380035 20.915963 22.618195 1.339925 0.390443 0.017290 -0.019053 340713.000000 0 1 0
-2.461537 -7.716135 22.233863 23.663105 1.261990 0.349335 0.018986 -0.019866 -362322.000000 0 1 0
-2.317037 -8.466635 23.413563 25.004949 1.303670 0.358691 0.018533 -0.010703 128436.000000 0 0 1
-2.153337 -7.589635 24.498263 25.737216 1.294341 0.311544 0.028840 -0.004364 -133440.000000 0 0 1
-2.216137 -8.399135 25.838563 27.259641 1.312823 0.324316 0.024652 -0.008718 180552.000000 0 0 1
-1.071937 -9.193135 26.135963 27.726365 1.454719 0.340346 0.024062 -0.004210 94615.600000 0 0 1
-1.200337 -10.121735 27.159563 29.009174 1.452758 0.359023 0.024244 -0.013276 -692512.000000 0 0 1
0.054163 -10.949835 27.394163 29.501559 -1.565850 0.380264 0.014372 -0.012571 6385.450000 0 0 1
1.112663 -10.288135 28.080863 29.926887 -1.463065 0.353070 0.010436 -0.012077 543074.000000 0 0 1
2.228763 -11.158635 28.280663 30.484068 -1.373656 0.382540 0.011926 -0.017246 540960.000000 0 0 1
3.231063 -10.703935 29.361363 31.418205 -1.277636 0.363851 0.021719 -0.015213 8854.490000 0 0 1
2.665163 -10.823935 30.669063 32.632071 -1.329370 0.348622 0.017238 -0.015261 94470.900000 0 0 1
3.116563 -9.885035 31.613963 33.269649 -1.265380 0.316809 0.034828 -0.020363 -659914.000000 0 0 1
2.552263 -9.967535 33.024663 34.590376 -1.320125 0.302027 0.037489 -0.019543 -445408.000000 0 0 1
2.994163 -11.105035 33.757063 35.662671 -1.307437 0.328381 0.028624 -0.024258 358785.000000 0 0 1
2.466963 -11.191535 -33.227340 35.148150 -1.353835 2.809466 0.032766 -0.017191 -34418.700000 0 0 1
3.344663 -10.363635 -32.261140 34.049565 -1.258618 2.816045 0.032198 -0.013137 22212.700000 0 0 1
2.989063 -8.968835 -32.250140 33.607232 -1.249101 2.856441 0.040421 -0.019460 282905.000000 0 0 1
3.631363 -8.250935 -31.229940 32.504982 -1.156193 2.860576 0.052576 -0.016305 -169837.000000 0 0 1
3.007763 -6.864035 -31.104840 31.994885 -1.157805 2.905168 0.042123 -0.027791 -10873.900000 0 0 1
3.210563 -6.072735 -32.254740 32.978085 -1.084465 2.931761 0.071470 -0.028317 48890.900000 0 0 1
2.841763 -4.766235 -32.001840 32.479384 -1.033155 2.969900 0.061649 -0.024441 -125797.000000 0 0 1
3.090963 -3.813535 -33.173740 33.534969 -0.889671 2.994684 0.070179 -0.022025 7258.950000 0 0 1
2.160463 -3.983335 34.070863 34.370892 -1.073826 0.132226 0.067056 -0.029620 76302.200000 0 0 1
2.274963 -2.836835 33.228363 33.426743 -0.894875 0.109002 0.084845 -0.032358 -72213.800000 0 0 1
1.594463 -2.871435 31.862463 32.031297 -1.063905 0.102719 0.083541 -0.033786 -999117.000000 0 0 1
0.222063 -2.783235 31.941463 32.063262 -1.491179 0.087191 0.071880 -0.033081 -1355550.000000 0 0 1
-0.339437 -3.566335 30.918863 31.125713 1.475904 0.115352 0.064868 -0.017572 673151.000000 0 0 1
-1.900637 -3.693435 30.913963 31.191777 1.095538 0.133566 0.053438 -0.023465 453184.000000 0 0 1
-2.512337 -2.508135 30.492063 30.698021 0.784561 0.115902 0.059500 -0.021113 140736.000000 0 0 1
-3.915237 -2.778235 30.469163 30.845057 0.617137 0.156278 0.056182 -0.020388 292498.000000 0 0 1
-4.793337 -1.767735 29.778863 30.213931 0.353315 0.169908 0.058240 -0.022929 -540561.000000 0 0 1
-4.645337 -1.834635 28.373163 28.809398 0.376138 0.174244 0.046855 -0.016197 -46968.200000 0 0 1
-5.570637 -1.137235 27.535363 28.116214 0.201381 0.203620 0.036583 -0.013660 314865.000000 0 0 1
-5.784037 0.408565 27.854963 28.452082 -0.070520 0.205235 0.053306 -0.013407 -503129.000000 0 0 1
-6.625237 0.623765 28.912163 29.668097 -0.093873 0.226224 0.050001 -0.013340 -916256.000000 0 0 1
-6.716037 2.019565 29.133463 29.965688 -0.292106 0.236229 0.057685 -0.013741 -907358.000000 0 0 1
-7.998937 2.549565 29.761763 30.923224 -0.308558 0.274944 0.030140 -0.013094 439164.000000 0 0 1
-9.102037 2.150665 28.906763 30.382123 -0.232028 0.312916 0.017188 -0.001786 226701.000000 0 0 1
-10.357537 2.679765 29.233563 31.129743 -0.253174 0.350830 0.009747 0.008476 -185512.000000 0 0 1
-11.451437 2.127765 28.311963 30.614213 -0.183713 0.390292 0.013541 0.014090 -270714.000000 0 0 1
-11.848437 0.842565 28.677963 31.040633 -0.070992 0.392686 0.013245 0.009064 -74581.800000 0 0 1
-12.309037 0.085765 27.559463 30.183501 -0.006968 0.420062 0.015563 0.009860 -686765.000000 0 0 1
-12.354437 -1.479035 27.818363 30.474267 0.119150 0.420591 0.014473 0.003463 661514.000000 0 0 1
-11.095037 -2.130735 28.055363 30.244723 0.189734 0.382828 0.023727 -0.004646 775535.000000 0 0 1
-10.036037 -1.979535 27.137763 29.001703 0.194743 0.360473 0.019872 -0.004273 -407607.000000 0 0 1
-10.119637 -2.832935 25.878963 27.931224 0.272957 0.385729 0.025661 -0.006544 -234921.000000 0 0 1
-11.060237 -2.305635 24.940063 27.379765 0.205518 0.425351 0.021080 0.002930 388260.000000 0 0 1
-10.878437 -2.830535 23.619463 26.157816 0.254552 0.444188 0.021879 -0.003314 -362902.000000 0 0 1
-9.725137 -2.317535 22.729763 24.831258 0.233940 0.414373 0.021769 -0.005694 1083220.000000 0 1 0
-8.427837 -2.796135 23.175963 24.818784 0.320346 0.365885 0.022971 -0.006292 796417.000000 0 1 0
-7.468037 -2.291635 22.244263 23.576055 0.297738 0.337725 0.018162 -0.008380 936704.000000 0 1 0
-5.969037 -2.464635 22.682163 23.583561 0.391580 0.277371 0.019018 -0.010857 914479.000000 0 1 0
-5.299237 -3.731435 22.639763 23.549191 0.613503 0.278817 0.020123 -0.013935 39785.500000 0 1 0
-5.757137 -4.737235 23.529063 24.682034 0.688517 0.306859 0.018852 -0.011322 -154343.000000 0 1 0
-5.532437 -6.163535 22.879463 24.332424 0.839304 0.347324 0.018697 -0.014923 -287109.000000 0 1 0
-6.453437 -6.564435 21.867763 23.726308 0.793925 0.398440 0.019536 -0.022946 29684.200000 0 1 0
-6.084937 -6.093535 20.627463 22.352849 0.786104 0.395481 0.019025 -0.026686 85789.100000 0 1 0
-7.305937 -5.994035 19.642063 21.797151 0.687077 0.448428 0.015830 -0.023263 841038.000000 0 1 0
-8.391837 -5.220735 20.125663 22.421447 0.556526 0.456485 0.022391 -0.014047 -467408.000000 0 1 0
-9.408337 -5.019435 19.204163 21.966142 0.490094 0.506883 0.027017 -0.008280 134389.000000 0 1 0
-10.045137 -3.579535 19.197663 21.960603 0.342316 0.507038 0.024942 -0.011501 69087.500000 0 1 0
-9.168137 -2.643835 18.660763 20.958737 0.280755 0.472667 0.018445 -0.017134 -243599.000000 0 1 0
-9.661137 -1.334335 18.777263 21.159008 0.137245 0.479044 0.016045 -0.010927 -474340.000000 0 1 0
-8.595737 -0.336135 18.353463 20.269417 0.039085 0.438297 0.011911 -0.008407 -93412.400000 0 1 0
-7.493137 -0.115235 19.224163 20.633197 0.015377 0.371703 0.016911 -0.000503 442151.000000 0 1 0
-7.780437 0.715565 20.350163 21.798540 -0.091712 0.366587 0.026330 -0.003439 -296308.000000 0 1 0
-7.715537 2.231465 20.088863 21.634957 -0.281535 0.380343 0.028164 -0.009322 -133927.000000 0 1 0
-8.629837 2.707265 19.107163 21.139703 -0.303987 0.442107 0.017677 -0.016577 132497.000000 0 1 0
-8.604037 4.109165 18.926363 21.192496 -0.445556 0.466675 0.015556 -0.011336 -225166.000000 0 1 0
-9.435137 4.496665 17.720663 20.573374 -0.444743 0.532896 0.012234 -0.010993 -802300.000000 0 1 0
-10.810537 4.535265 17.990063 21.472743 -0.397222 0.577538 0.010273 -0.006249 -341926.000000 0 1 0
-11.559937 5.080365 16.901363 21.097353 -0.414071 0.641644 0.013868 -0.002306 100035.000000 0 1 0
-11.766837 6.573565 16.780863 21.523651 -0.509461 0.676693 0.017506 -0.002215 -589134.000000 0 1 0
-10.560637 7.321565 16.694463 21.067450 -0.606207 0.656015 0.014852 -0.000666 303664.000000 0 1 0
-10.808337 8.662665 16.467763 21.518576 -0.675643 0.699318 0.016291 -0.009306 -166139.000000 0 1 0
-9.539037 9.515965 16.622663 21.397657 -0.784187 0.681157 0.012405 -0.006283 -116637.000000 0 1 0
-9.195137 9.717265 17.975063 22.407112 -0.812999 0.639820 0.031964 0.008369 49789.100000 0 1 0
-8.290737 10.806865 18.247763 22.770716 -0.916395 0.641215 0.033339 0.004616 161553.000000 0 1 0
-8.568637 12.236565 17.695163 23.157588 -0.959904 0.701121 0.023825 0.003559 -443375.000000 0 1 0
-8.386937 12.572965 16.316663 22.240811 -0.982521 0.747139 0.020377 -0.013209 -214360.000000 0 1 0
-9.311837 13.559365 15.929463 22.897914 -0.969021 0.801440 0.039966 -0.021287 16096.400000 0 1 0
-9.029337 14.140665 14.563263 22.216570 -1.002522 0.855934 0.049255 -0.018211 284718.000000 0 1 0
-7.983237 15.098265 14.535163 22.426784 -1.084413 0.865688 0.043116 0.002787 -109447.000000 0 1 0
-7.621337 15.414765 13.211263 21.684954 -1.111624 0.915699 0.032925 -0.014030 -279615.000000 0 1 0
-6.653137 16.575865 13.164263 22.188316 -1.189105 0.935648 0.013876 -0.000213 601458.000000 0 1 0
-5.326137 16.279365 13.621063 21.884214 -1.254602 0.898972 0.009320 -0.000575 172936.000000 0 1 0
-4.463037 17.401465 13.506263 22.475516 -1.319733 0.926129 0.006196 -0.005999 1515070.000000 0 1 0
-2.946237 16.922765 13.504963 21.850499 -1.398425 0.904521 0.014710 -0.015464 937834.000000 0 1 0
-2.333337 16.481465 14.689363 22.200463 -1.430158 0.847754 0.013214 -0.010262 32929.300000 0 1 0
-2.859037 15.253365 15.301163 21.793688 -1.385510 0.792466 0.000861 0.003528 -252174.000000 0 1 0
-1.910337 14.749765 16.421963 22.155943 -1.441997 0.735942 0.006897 0.012034 -415943.000000 0 1 0
-0.815637 14.187265 15.749363 21.212878 -1.513369 0.734086 0.012658 -0.007719 -207970.000000 0 1 0
0.319763 13.871865 16.550463 21.597424 1.547749 0.697708 0.007339 0.006844 854646.000000 0 1 0
1.303763 14.948065 17.075263 22.731235 1.483797 0.720948 0.007697 -0.002009 -29417.800000 0 1 0
0.826963 15.623065 18.257163 24.043461 1.517914 0.708498 0.007047 0.001346 -466355.000000 0 1 0
1.634463 16.712565 18.532263 25.008520 1.473308 0.736181 0.034700 -0.004760 -1301050.000000 0 0 1
0.895663 17.903865 19.097863 26.193109 1.520812 0.753764 0.044322 -0.008029 376083.000000 0 0 1
0.207363 18.785565 18.141663 26.116286 1.559758 0.802864 0.023914 -0.003631 -155087.000000 0 0 1
-0.854237 18.145665 17.505463 25.227686 -1.523754 0.803907 0.025923 -0.000005 -1329750.000000 0 0 1
-1.644037 19.198965 16.668263 25.478111 -1.485373 0.857647 0.022762 0.002477 -14675.700000 0 0 1
-2.305337 20.195465 17.410963 26.764025 -1.457137 0.862506 0.020680 0.009084 -163790.000000 0 0 1
-2.866337 21.163665 16.571463 27.032018 -1.436179 0.910905 0.023972 0.000730 42894.500000 0 0 1
-3.605137 22.376865 17.297063 28.511568 -1.411059 0.918934 0.020309 0.006791 -411204.000000 0 0 1
-4.697437 22.076965 18.083963 28.922103 -1.361147 0.895326 0.029322 0.008425 -676683.000000 0 0 1
-5.169837 23.203065 18.784763 30.298132 -1.351569 0.902057 0.029350 0.015193 -74765.100000 0 0 1
-6.344437 22.765765 19.689763 30.760668 -1.299009 0.876174 0.006679 0.012661 -390140.000000 0 0 1
-7.490537 22.405565 18.973463 30.300327 -1.248162 0.894152 -0.004569 0.009790 -445509.000000 0 0 1
-8.458837 21.952965 19.926763 30.831161 -1.203012 0.868046 -0.023871 0.006656 -565736.000000 0 0 1
-9.869037 22.290265 19.499063 31.216458 -1.153987 0.896125 -0.016661 0.000644 -943312.000000 0 0 1
-10.125437 23.637065 19.657763 32.367622 -1.166074 0.918103 -0.014923 0.006044 485093.000000 0 0 1
-11.183337 23.971565 18.719763 32.405748 -1.134285 0.954927 -0.013408 0.002687 710315.000000 0 0 1
-11.735237 25.385665 19.023163 33.823491 -1.137779 0.973481 -0.006583 -0.002858 101449.000000 0 0 1
-12.483537 25.521165 20.221363 34.872225 -1.115871 0.952227 -0.001384 -0.000630 327405.000000 0 0 1
-12.956537 26.857565 20.417863 36.139864 -1.121314 0.970402 0.007523 -0.004251 -124027.000000 0 0 1
-13.779937 27.072165 21.728363 37.348501 -1.099969 0.949889 0.033445 -0.019575 361008.000000 0 0 1
-15.066637 26.461265 21.733063 37.410268 -1.053192 0.950915 0.029737 -0.018361 349507.000000 0 0 1
-15.844437 26.724365 22.854463 38.568956 -1.035626 0.936562 0.019204 -0.008014 161772.000000 0 0 1
-17.336037 26.319865 22.735363 38.860909 -0.988352 0.945861 0.023859 -0.004717 261006.000000 0 0 1
-17.481837 24.889465 22.565863 37.872395 -0.958476 0.932486 0.032973 -0.007779 -230864.000000 0 0 1
-18.788837 24.439165 22.834263 38.362700 -0.915371 0.933256 0.039226 0.000042 -46791.100000 0 0 1
27.203363 24.600765 23.541326 43.582274 0.735201 1.000171 0.077526 -0.030833 -66833.000000 0 0 1
27.223763 23.630565 24.531356 43.604177 0.714859 0.973279 0.076208 -0.033134 59423.900000 0 0 1
26.955063 22.312065 24.097586 42.486437 0.691434 0.967715 0.077492 -0.024271 -155316.000000 0 0 1
26.682263 21.490965 25.362516 42.627010 0.678049 0.933547 0.101911 -0.023181 130282.000000 0 0 1
25.385963 21.746265 25.869796 42.268114 0.708328 0.912158 0.098128 -0.025310 55693.400000 0 0 1
25.200063 21.125565 27.122056 42.625563 0.697670 0.881122 0.101916 -0.028173 583248.000000 0 0 1
23.732363 21.257165 27.669706 42.198397 0.730436 0.855680 0.101587 -0.031438 704679.000000 0 0 1
23.447363 22.508365 28.226086 43.047848 0.764968 0.855699 0.122834 -0.041806 151713.000000 0 0 1
22.369863 22.445965 29.146616 43.055282 0.787096 0.827175 0.127574 -0.035238 -69552.600000 0 0 1
22.221863 23.870265 29.727106 44.128240 0.821146 0.831656 0.123090 -0.033378 -367230.000000 0 0 1
21.754563 24.887065 28.821926 43.855791 0.852459 0.853702 0.120010 -0.029396 85161.800000 0 0 1
21.315363 26.083665 29.416276 44.721578 0.885660 0.852949 0.122760 -0.023261 218700.000000 0 0 1
19.959863 25.977865 30.187106 44.547805 0.915660 0.826256 0.112789 -0.017716 -505028.000000 0 0 1
18.857663 26.162365 29.308786 43.578501 0.946251 0.833145 0.107668 -0.020612 979499.000000 0 0 1
17.587863 26.252065 29.999566 43.571525 0.980516 0.811360 0.087252 -0.013057 1261640.000000 0 0 1
16.937263 25.006265 30.721266 43.081090 0.975454 0.776882 0.053753 -0.014874 -572985.000000 0 0 1
17.478763 24.653265 31.975406 43.996786 0.954066 0.757193 0.074070 -0.010862 -553494.000000 0 0 1
16.535363 24.233865 32.889457 44.072835 0.972032 0.728382 0.059092 -0.011626 -706302.000000 0 0 1
17.027463 23.922165 -34.013317 44.934511 0.952204 2.429434 0.078955 -0.019205 -238860.000000 0 0 1
17.498063 25.123865 -33.317467 45.248695 0.962442 2.398410 0.085413 -0.023240 377622.000000 0 0 1
17.939663 24.943365 -32.011087 44.370178 0.947290 2.376698 0.067351 -0.014893 -406111.000000 0 0 1
18.186563 26.278665 -31.289577 44.725350 0.965415 2.345625 0.064736 -0.009602 -440951.000000 0 0 1
17.072563 27.066065 -31.027887 44.573244 1.008056 2.340761 0.071122 -0.017827 -93096.700000 0 0 1
17.579163 28.238765 -30.455527 45.099822 1.013983 2.312156 0.076433 -0.020254 255074.000000 0 0 1
17.066963 28.458265 -29.002407 44.071462 1.030583 2.289058 0.085152 -0.020153 34155.800000 0 0 1
17.526763 27.457365 -28.082587 43.008442 1.002671 2.282276 0.061989 -0.007699 122358.000000 0 0 1
17.154963 27.880965 -26.781717 42.295406 1.019208 2.256485 0.051467 -0.004850 -50344.600000 0 0 1
17.737763 27.116865 -25.524777 41.248841 0.991528 2.238010 0.039037 -0.000858 -137012.000000 0 0 1
19.138563 27.123365 -25.488537 41.852444 0.956314 2.225608 0.037394 0.006690 -841695.000000 0 0 1
19.625663 26.690465 -24.269437 41.067666 0.936766 2.203047 0.037467 0.009906 517286.000000 0 0 1
21.183463 26.714065 -24.272837 41.851535 0.900356 2.189494 0.037274 0.011746 649411.000000 0 0 1
21.841863 26.637965 -23.038237 41.441628 0.884007 2.160266 0.034258 0.005145 495093.000000 0 0 1
23.203463 26.199965 -23.075037 41.920117 0.845978 2.153703 0.046482 0.006100 765602.000000 0 0 1
23.753563 25.938865 -21.686337 41.320137 0.829346 2.123320 0.060515 0.003385 44175.800000 0 0 1
23.374263 24.656665 -21.203337 40.048581 0.812091 2.128737 0.055838 0.003972 239977.000000 0 0 1
24.021463 24.491665 -19.959237 39.689337 0.795090 2.097732 0.051199 -0.000894 -65477.300000 0 0 1
23.456063 23.311965 -19.113437 38.196310 0.782317 2.094857 0.038753 -0.003211 -111942.000000 0 0 1
23.919063 22.011165 -19.513537 37.912941 0.743883 2.111446 0.049366 -0.001352 424937.000000 0 0 1
23.500963 21.111765 -18.444837 36.581606 0.731895 2.099264 0.043900 0.004594 -669857.000000 0 0 1
23.480663 19.632065 -19.053137 36.052483 0.696366 2.127609 0.047583 -0.003968 306024.000000 0 0 1
22.674663 19.380165 -20.206937 36.028481 0.707220 2.166221 0.042807 -0.005006 915389.000000 0 0 1
21.284963 19.699065 -20.037337 35.250499 0.746722 2.175389 0.048346 -0.006851 170667.000000 0 0 1
20.444763 19.517465 -21.339937 35.416277 0.762198 2.217484 0.033099 0.000990 80153.300000 0 0 1
20.714763 20.420765 -22.424537 36.728312 0.778251 2.227553 0.029588 0.004104 -68856.800000 0 0 1
20.742763 21.827765 -22.139937 37.374997 0.810880 2.204797 0.026536 0.010930 -53229.200000 0 0 1
20.283463 22.674465 -23.366437 38.360665 0.841000 2.225753 0.046506 0.001500 65622.200000 0 0 1
18.879163 22.707265 -23.389337 37.670994 0.877191 2.240667 0.044021 0.008472 -654086.000000 0 0 1
18.328263 23.047165 -24.613337 38.378554 0.898958 2.267027 0.045235 0.006302 874655.000000 0 0 1
16.757863 23.166665 -24.556537 37.690103 0.944563 2.280406 0.045325 0.002622 958818.000000 0 0 1
16.310663 24.319265 -23.857737 37.771100 0.980014 2.254463 0.036840 -0.008111 -553042.000000 0 0 1
14.918263 24.352565 -23.934237 37.261907 1.021167 2.268324 0.037518 -0.009319 -120934.000000 0 0 1
14.173063 25.656965 -23.487837 37.561071 1.066108 2.246343 0.036645 -0.002340 433941.000000 0 0 1
14.529063 26.807565 -24.260137 38.965286 1.074134 2.242869 0.033678 0.000721 65330.300000 0 0 1
13.565763 27.809465 -23.991337 39.153296 1.116947 2.230337 0.044373 -0.001015 361002.000000 0 0 1
13.718363 29.165965 -24.777537 40.654316 1.131145 2.226187 0.044678 0.002523 128864.000000 0 0 1
13.536463 28.861565 -26.136377 41.223003 1.132244 2.257542 0.053259 -0.014091 13177.700000 0 0 1
13.052663 29.855965 -27.028727 42.335597 1.158648 2.263266 0.081671 -0.021488 -38537.800000 0 0 1
13.865963 31.183965 -27.046667 43.545687 1.152400 2.240955 0.090446 -0.022114 1119680.000000 0 0 1
15.245563 30.947065 -27.424657 44.071077 1.113059 2.242451 0.071109 -0.010576 1164660.000000 0 0 1
15.937363 32.225165 -27.436347 45.224042 1.111508 2.222669 0.074094 -0.020729 321853.000000 0 0 1
17.443163 32.101665 -27.775227 45.893835 1.073056 2.220821 0.071045 -0.000059 71198.200000 0 0 1
18.218263 31.334965 -26.885757 45.129027 1.044163 2.208999 0.035774 0.003846 -164249.000000 0 0 1
19.491063 31.094865 -27.444987 45.825970 1.010885 2.212918 0.037404 0.004753 -481215.000000 0 0 1
20.355663 30.183665 -26.496597 45.027506 0.977464 2.199941 0.016073 0.012354 -578651.000000 0 0 1
20.842763 30.747765 -25.288717 44.937346 0.975083 2.168511 0.028062 0.007462 465436.000000 0 0 1
21.705963 31.892565 -25.393137 46.185452 0.973212 2.152931 0.030777 -0.003700 -804672.000000 0 0 1
23.083563 31.804365 -26.002017 47.121900 0.942965 2.155321 0.016159 -0.000919 -1133530.000000 0 0 1
23.050463 31.356865 -27.310027 47.543816 0.936899 2.182689 0.005811 0.009212 190347.000000 0 0 1
24.343463 31.510165 -27.887137 48.612623 0.913013 2.181764 0.001052 0.017365 -260851.000000 0 0 1
24.431763 30.830465 -29.286387 49.042034 0.900673 2.210763 -0.008877 0.017743 184717.000000 0 0 1
23.519463 31.405265 -30.221427 49.525655 0.927998 2.227132 0.014371 0.003418 331087.000000 0 0 1
22.199763 30.908165 -30.099867 48.519544 0.947927 2.240005 0.010882 0.006787 -211071.000000 0 0 1
21.202263 31.645865 -31.046897 49.141699 0.980500 2.254648 0.017719 0.004240 -550177.000000 0 0 1
20.877263 33.036865 -30.694797 49.693713 1.007223 2.236585 0.045911 -0.016304 -76133.300000 0 0 1
20.075863 33.674765 -31.629627 50.373241 1.033198 2.249655 0.058715 -0.025927 -842609.000000 0 0 1
18.571063 33.488665 -31.376947 49.506443 1.064468 2.257246 0.064794 -0.028901 -773004.000000 0 0 1
17.915963 32.271665 -31.575937 48.574499 1.064000 2.278449 0.088124 -0.028910 -15121.400000 0 0 1
18.086363 31.512365 -32.730457 48.902234 1.049755 2.304068 0.098575 -0.034932 -1082580.000000 0 0 1
17.538663 32.103265 -34.003817 49.944809 1.070783 2.319689 0.118245 -0.041234 -571077.000000 0 0 1
18.052163 33.383865 33.857586 50.859602 1.075086 0.842356 0.105565 -0.033516 7078.960000 0 0 1
17.489863 33.899665 32.671660 50.224695 1.094486 0.862541 0.097848 -0.041416 231408.000000 0 0 1
16.063063 -33.794239 32.887082 49.815989 -1.127087 0.849750 0.102919 -0.042064 438731.000000 0 0 1
15.062263 33.447465 32.874101 49.257600 1.147671 0.840096 0.105486 -0.039964 763223.000000 0 0 1
13.712063 33.891165 32.748940 49.082836 1.186338 0.840329 0.076749 -0.040911 704202.000000 0 0 1
13.217763 -33.702839 31.469846 47.968133 -1.197045 0.855214 0.060289 -0.034528 -823406.000000 0 0 1
13.733163 -32.413739 31.284076 47.095049 -1.170041 0.844273 0.086548 -0.033462 470949.000000 0 0 1
13.125163 -31.875439 30.105416 45.767342 -1.180190 0.852912 0.075961 -0.038857 26842.700000 0 0 1
13.433163 -30.344639 29.940506 44.695423 -1.154041 0.836751 0.081534 -0.043788 -190642.000000 0 0 1
13.056663 -29.599239 31.073476 44.857021 -1.155356 0.805539 0.075637 -0.031282 292766.000000 0 0 1
13.349463 -28.243339 30.906266 43.944188 -1.129260 0.790757 0.087639 -0.029581 -771547.000000 0 0 1
12.970263 -27.388339 32.110556 44.152425 -1.128516 0.756466 0.064815 -0.027124 322722.000000 0 0 1
11.607163 -26.979639 32.164326 43.556526 -1.164513 0.740027 0.042230 -0.023055 398562.000000 0 0 1
11.010663 -26.202539 31.153366 42.170368 -1.172987 0.739582 0.017448 -0.026012 -763464.000000 0 0 1
11.335263 -24.740639 31.215656 41.412614 -1.141174 0.717013 0.013106 -0.019412 -8653.930000 0 0 1
10.586163 -24.007139 32.186286 41.525493 -1.155486 0.683928 0.034844 -0.016453 366827.000000 0 0 1
11.226863 -22.795039 32.468059 41.229008 -1.113156 0.664046 0.029668 -0.012370 376072.000000 0 0 1
10.319263 -21.968039 33.458916 41.334985 -1.131649 0.627569 0.029648 -0.013085 -176466.000000 0 0 1
10.093563 -22.526139 -33.529967 41.636110 -1.149538 2.506994 0.028223 -0.006536 -17309.400000 0 0 1
11.165063 -23.090539 -32.785807 41.626203 -1.120408 2.477740 0.042890 -0.011451 -125006.000000 0 0 1
12.205463 -22.096439 -32.261397 40.963688 -1.066134 2.477637 0.045412 -0.020528 -107967.000000 0 0 1
12.909963 -21.419739 -33.294297 41.641117 -1.028384 2.497348 0.037711 -0.018902 -728618.000000 0 0 1
14.034263 -20.777439 -32.827507 41.307478 -0.976733 2.489328 0.046352 -0.018454 -688459.000000 0 0 1
14.183563 -19.442539 -33.658357 41.377177 -0.940537 2.520859 0.047017 -0.014802 -427336.000000 0 0 1
14.684563 -19.717739 33.329925 41.416295 -0.930671 0.635536 0.055463 -0.006220 263720.000000 0 0 1
14.542263 -18.672639 32.389575 40.115202 -0.909116 0.631041 0.043272 -0.000450 1488.880000 0 0 1
15.419263 -17.392839 32.552529 39.999145 -0.845474 0.620082 0.056630 -0.002679 -564592.000000 0 0 1
15.100063 -16.581739 33.641017 40.431225 -0.832132 0.587994 0.056863 -0.013261 553968.000000 0 0 1
15.805663 -15.318839 33.576548 40.148105 -0.769758 0.580266 0.063270 -0.019669 414366.000000 0 0 1
17.325363 -15.240839 33.887903 40.998065 -0.721477 0.597805 0.059413 -0.010885 -244097.000000 0 0 1
18.129163 -15.905039 32.963799 40.844202 -0.720141 0.631637 0.062768 -0.010228 -621959.000000 0 0 1
19.455663 -15.794739 33.436489 41.785109 -0.681914 0.643166 0.069131 -0.010140 -580181.000000 0 0 1
20.407563 -16.480839 32.463985 41.737237 -0.679349 0.679609 0.093616 -0.020149 -663403.000000 0 0 1
20.714163 -15.749839 31.266356 40.678237 -0.650087 0.694106 0.067642 -0.004938 296597.000000 0 0 1
21.270563 -16.580139 30.286226 40.553586 -0.662108 0.727529 0.068723 -0.012099 -345485.000000 0 0 1
21.540063 -15.837339 29.010756 39.451484 -0.633994 0.744609 0.051361 -0.003981 -116824.000000 0 0 1
22.518163 -14.827239 29.184326 39.732097 -0.582297 0.745826 0.040022 -0.004233 274614.000000 0 0 1
22.618563 -14.178239 27.933286 38.637939 -0.559922 0.762734 0.028481 -0.009981 211296.000000 0 0 1
23.283563 -12.734639 27.876066 38.488574 -0.500488 0.760823 0.023288 -0.003557 659761.000000 0 0 1
22.537063 -11.680739 28.565706 38.214636 -0.478172 0.726495 0.019931 -0.007339 412485.000000 0 0 1
23.234763 -10.474039 28.594276 38.303946 -0.423512 0.727995 0.035697 -0.011309 467564.000000 0 0 1
22.250963 -9.236739 28.668486 37.447360 -0.393469 0.698873 0.040108 -0.007245 1078240.000000 0 0 1
21.252763 -9.255839 29.701176 37.676389 -0.410741 0.662717 0.041854 -0.013553 641774.000000 0 0 1
20.296763 -8.202639 29.601296 36.816825 -0.384066 0.636779 0.049806 -0.017159 -144510.000000 0 0 1
19.151863 -8.288739 30.593976 37.033612 -0.408450 0.598621 0.044175 -0.010085 -488029.000000 0 0 1
19.501463 -7.915439 31.933506 38.245392 -0.385573 0.582730 0.050858 -0.015265 338280.000000 0 0 1
20.068263 -8.970639 32.707732 39.408162 -0.420362 0.591736 0.053303 -0.018707 -514756.000000 0 0 1
20.182263 -8.520539 -34.078940 40.512930 -0.399479 2.570270 0.060864 -0.025268 635831.000000 0 0 1
18.902463 -8.428239 -33.425557 39.314198 -0.419423 2.587192 0.046038 -0.027489 736373.000000 0 0 1
18.789663 -7.359939 -32.472397 38.231881 -0.373332 2.585556 0.054064 -0.029848 212377.000000 0 0 1
17.481463 -7.240039 -31.634427 36.861317 -0.392649 2.602551 0.053560 -0.033162 284281.000000 0 0 1
17.488763 -6.105539 -30.762377 35.909028 -0.335884 2.599586 0.057020 -0.025884 -346124.000000 0 0 1
16.315463 -6.112139 -30.022217 34.711469 -0.358440 2.615763 0.055463 -0.018809 -633100.000000 0 0 1
16.180763 -4.882939 -29.051467 33.610236 -0.293084 2.614680 0.045880 -0.014774 248779.000000 0 0 1
17.014863 -4.892739 -27.861387 33.010625 -0.280002 2.575518 0.045588 -0.016250 520298.000000 0 0 1
16.775863 -5.923439 -26.889177 32.241969 -0.339428 2.557079 0.056639 -0.021674 70490.300000 0 0 1
15.471163 -5.989839 -26.049147 30.883541 -0.369390 2.574495 0.048432 -0.019653 259974.000000 0 0 1
15.401063 -4.934739 -25.086077 29.847205 -0.310080 2.568971 0.044323 -0.013745 38265.000000 0 0 1
14.100263 -4.901339 -24.518937 28.705728 -0.334541 2.594706 0.035933 -0.020391 320946.000000 0 0 1
13.791363 -3.655239 -23.665937 27.634020 -0.259082 2.599064 0.037330 -0.018078 -20625.800000 0 0 1
13.711563 -2.423439 -24.384337 28.079813 -0.174938 2.622750 0.019265 -0.016589 66892.700000 0 0 1
13.599663 -1.293439 -23.493937 27.176992 -0.094823 2.614909 0.025785 -0.016573 -89809.700000 0 0 1
14.008963 0.033561 -24.142837 27.912878 0.002396 2.615818 0.023790 -0.016760 -145435.000000 0 0 1
13.124863 0.543561 -25.149667 28.373636 0.041391 2.660251 0.027588 -0.015452 278234.000000 0 0 1
13.715263 1.674561 -25.742837 29.216541 0.121493 2.648990 0.031911 -0.004437 88847.300000 0 0 1
12.857563 2.340561 -26.850607 29.862188 0.180066 2.688621 0.035840 -0.006417 856902.000000 0 0 1
11.678063 3.050561 -26.406717 29.034424 0.255512 2.712868 0.050935 -0.022260 693892.000000 0 0 1
10.962963 3.574561 -27.465627 29.787996 0.315188 2.744106 0.049157 -0.017481 -465238.000000 0 0 1
9.690663 4.332561 -27.056417 29.064235 0.420428 2.767714 0.050343 -0.023323 -247599.000000 0 0 1
9.863063 5.631561 -26.449737 28.785119 0.518804 2.735999 0.061838 -0.033449 236784.000000 0 0 1
8.591563 6.205561 -26.206187 28.268148 0.625527 2.757282 0.068546 -0.028188 262081.000000 0 0 1
7.997063 4.978165 -31.109997 32.504878 0.556799 2.847574 0.040344 -0.014117 -1461.270000 0 0 1
8.355863 3.941265 -30.216287 31.597121 0.440733 2.844866 0.038257 -0.007327 379502.000000 0 0 1
8.037663 2.653565 -30.674627 31.821034 0.318875 2.872353 0.036933 -0.005328 -285225.000000 0 0 1
7.913663 1.615965 -29.451837 30.539288 0.201430 2.873930 0.040593 -0.007151 -355857.000000 0 0 1
9.113163 1.248665 -28.816747 30.249195 0.136170 2.832615 0.042232 -0.009787 108111.000000 0 0 1
8.828763 0.362665 -27.748007 29.120963 0.041055 2.833301 0.039726 -0.014415 -274018.000000 0 0 1
10.025963 -0.285435 -27.044237 28.844275 -0.028462 2.786444 0.036694 -0.023093 -345792.000000 0 0 1
10.695563 -1.194135 -27.881387 29.886331 -0.111187 2.773219 0.034829 -0.010516 151444.000000 0 0 1
11.844863 -1.685135 -27.207887 29.722207 -0.141319 2.727312 0.030995 -0.013682 80710.100000 0 0 1
12.447363 -2.957735 -27.760807 30.567098 -0.233293 2.709741 0.024627 -0.011324 -457698.000000 0 0 1
11.597163 -4.038135 -27.600017 30.208636 -0.335071 2.722962 0.035152 -0.010039 -113090.000000 0 0 1
12.190863 -5.269635 -27.924517 30.921915 -0.408005 2.697651 0.043839 -0.015864 -511314.000000 0 0 1
11.332263 -6.354635 -27.361377 30.289380 -0.511064 2.698272 0.028030 -0.026161 -349309.000000 0 0 1
11.350463 -6.293335 -25.929877 28.996510 -0.506258 2.677530 0.041229 -0.022692 -62588.400000 0 0 1
10.606863 -7.294135 -25.320147 28.404574 -0.602410 2.671245 0.050172 -0.026102 -382770.000000 0 0 1
10.616563 -7.064535 -23.782237 26.985438 -0.587143 2.649400 0.057978 -0.026408 52128.000000 0 0 1
11.863063 -7.065735 -23.105437 26.916874 -0.537184 2.602938 0.050316 -0.024649 -3656.630000 0 0 1
11.721763 -7.038235 -21.702337 25.650106 -0.540744 2.579406 0.067566 -0.033443 222928.000000 0 0 1
13.102763 -6.966135 -21.003337 25.716718 -0.488649 2.526499 0.072705 -0.029362 249911.000000 0 0 1
13.710563 -5.714335 -20.959237 25.688962 -0.394891 2.525054 0.055600 -0.027335 -57169.600000 0 0 1
14.826363 -5.801435 -20.077837 25.624153 -0.372977 2.471157 0.069672 -0.030211 306079.000000 0 0 1
15.301763 -4.477035 -19.405137 25.114680 -0.284638 2.453819 0.065616 -0.028273 28373.000000 0 0 1
15.899163 -3.502135 -20.242037 25.976690 -0.216809 2.464246 0.049941 -0.022984 12384.900000 0 0 1
16.384263 -2.426535 -19.546537 25.620290 -0.147033 2.438633 0.046924 -0.022419 80844.400000 0 0 1
17.443163 -1.606135 -20.354737 26.854402 -0.091819 2.430986 0.034405 -0.017800 919135.000000 0 0 1
18.662763 -2.322135 -20.583237 27.881189 -0.123790 2.401266 0.052484 -0.021509 663800.000000 0 0 1
19.564963 -1.624735 -21.449837 29.077879 -0.082853 2.400407 0.055939 -0.015115 293901.000000 0 0 1
20.927263 -2.325735 -21.594837 30.161173 -0.110680 2.368825 0.044738 -0.015085 -972625.000000 0 0 1
21.804463 -2.059435 -20.530237 30.019436 -0.094171 2.323889 0.047184 -0.019697 652762.000000 0 0 1
23.138363 -2.548935 -20.716837 31.161968 -0.109718 2.298038 0.041105 -0.022792 1166600.000000 0 0 1
24.045163 -1.820735 -21.814137 32.516788 -0.075577 2.306161 0.045185 -0.020640 -804529.000000 0 0 1
23.677263 -1.891035 -23.152237 33.169487 -0.079698 2.343394 0.047885 -0.022429 -468803.000000 0 0 1
24.513963 -1.249235 -24.030137 34.350291 -0.050916 2.345580 0.052511 -0.015429 320820.000000 0 0 1
25.783263 -2.062635 -24.547037 35.659335 -0.079829 2.330044 0.064826 -0.018272 -349877.000000 0 0 1
26.840563 -2.034335 -23.636137 35.822079 -0.075649 2.291376 0.071505 -0.013045 -336999.000000 0 0 1
27.915463 -2.845235 -24.087037 36.980451 -0.101572 2.280152 0.057540 -0.004325 -15818.900000 0 0 1
28.912163 -2.083835 -24.955237 38.249437 -0.071950 2.281588 0.062759 -0.007810 -1352170.000000 0 0 1
28.532063 -1.939935 -26.314377 38.862429 -0.067887 2.314633 0.067507 -0.011134 -193352.000000 0 0 1
29.250463 -0.946835 -26.928197 39.769509 -0.032359 2.314620 0.073025 -0.017912 -806780.000000 0 0 1
28.708963 -0.508835 -28.321677 40.330892 -0.017722 2.349325 0.070932 -0.017902 815184.000000 0 0 1
27.322663 -0.124835 -28.259617 39.308389 -0.004569 2.373045 0.054182 -0.008655 922421.000000 0 0 1
27.066863 1.208265 -27.854447 38.858013 0.044610 2.370036 0.043823 -0.003765 -672939.000000 0 0 1
25.586463 1.557865 -28.052157 38.000231 0.060811 2.401210 0.042016 -0.004525 -902097.000000 0 0 1
24.789063 1.198265 -27.001307 36.674297 0.048301 2.398303 0.051525 -0.007893 -1125720.000000 0 0 1
23.470063 1.399365 -27.407737 36.110748 0.059553 2.432559 0.043527 -0.001305 -705414.000000 0 0 1
22.510063 1.027265 -26.246717 34.592606 0.045604 2.432170 0.040855 -0.001583 -183203.000000 0 0 1
22.645963 1.756365 -25.036837 33.804847 0.077403 2.404802 0.049350 -0.002772 123650.000000 0 0 1
21.509163 1.470265 -24.258537 32.454312 0.068249 2.415038 0.047561 -0.001646 -31127.600000 0 0 1
21.552263 2.077365 -22.819637 31.457135 0.096091 2.382441 0.052725 -0.005046 -236654.000000 0 0 1
21.396363 3.477765 -22.717637 31.400482 0.161131 2.379627 0.061277 -0.008163 365550.000000 0 0 1
21.494363 3.802165 -21.348837 30.532556 0.175080 2.345096 0.056719 -0.018637 -365543.000000 0 0 1
21.009663 5.162565 -20.906837 30.085775 0.240950 2.339088 0.053965 -0.008274 -482181.000000 0 0 1
21.794163 6.220365 -21.448737 31.204596 0.278022 2.328642 0.062074 -0.008697 339479.000000 0 0 1
21.456263 7.519565 -21.032137 30.972018 0.337085 2.317290 0.057405 -0.011859 -409543.000000 0 0 1
21.759363 7.870765 -19.558737 30.297905 0.347076 2.272536 0.066420 -0.015388 225725.000000 0 0 1
23.150563 8.197165 -19.411137 31.303903 0.340305 2.239650 0.084216 -0.011097 844076.000000 0 0 1
23.487963 8.210265 -18.041537 30.734182 0.336276 2.198168 0.084818 -0.029834 -105230.000000 0 0 1
23.390963 9.568665 -17.330537 30.643825 0.388305 2.171893 0.087767 -0.035753 367420.000000 0 0 1
22.005563 9.898765 -17.235637 29.652952 0.422713 2.191054 0.066822 -0.038295 383785.000000 0 0 1
21.786263 11.328065 -17.025337 29.880235 0.479491 2.177042 0.039103 -0.029246 -479368.000000 0 0 1
20.296363 11.593065 -16.746937 28.754155 0.518966 2.192496 0.037416 -0.025312 646483.000000 0 0 1
19.381063 11.463665 -17.867537 28.745262 0.534137 2.241557 0.025798 -0.027912 649922.000000 0 0 1
19.049463 10.098465 -18.136637 28.174433 0.487451 2.270155 0.026700 -0.020126 -697147.000000 0 0 1
18.291663 9.765165 -19.437537 28.421141 0.490366 2.323907 0.020017 -0.007036 277653.000000 0 0 1
19.082663 9.981265 -20.628837 29.821513 0.481920 2.334697 0.029579 -0.011330 744703.000000 0 0 1
18.260063 9.888665 -21.807537 30.112859 0.496330 2.380660 0.023615 -0.015598 485176.000000 0 0 1
19.032163 10.199565 -23.149537 31.656839 0.491963 2.390971 0.039686 -0.014892 48324.300000 0 0 1
19.366063 11.535065 -23.415837 32.502362 0.537202 2.375226 0.046862 -0.017514 320349.000000 0 0 1
19.953563 11.735965 -24.707037 33.857278 0.531671 2.388739 0.063285 -0.023149 43212.900000 0 0 1
20.133763 13.207765 -25.009737 34.717437 0.580582 2.375146 0.071772 -0.024045 525658.000000 0 0 1
21.016963 13.493865 -26.141477 36.154861 0.570764 2.378992 0.068816 -0.030549 898741.000000 0 0 1
21.044063 14.872165 -26.450567 36.927854 0.615219 2.369249 0.073603 -0.026302 -216655.000000 0 0 1
19.831963 15.298665 -27.289287 37.041343 0.657066 2.399011 0.064834 -0.030287 516645.000000 0 0 1
18.607863 15.277465 -26.557797 35.846480 0.687428 2.405170 0.048302 -0.018971 -550935.000000 0 0 1
17.487363 15.656265 -27.272447 35.982119 0.730207 2.430952 0.039041 -0.028762 -474882.000000 0 0 1
16.225763 15.106565 -26.576107 34.608860 0.749693 2.446351 0.048240 -0.034035 -293923.000000 0 0 1
15.945663 13.738465 -26.800307 34.077354 0.711179 2.475845 0.035573 -0.022536 605074.000000 0 0 1
14.725563 13.282065 -26.214807 32.870528 0.733904 2.493965 0.013451 -0.013717 368740.000000 0 0 1
14.383063 11.749365 -26.308537 32.203404 0.684955 2.526897 0.011410 -0.015900 211323.000000 0 0 1
13.097963 11.360965 -25.848727 31.125309 0.714500 2.550752 0.019544 -0.011897 153734.000000 0 0 1
12.932163 9.941165 -25.707007 30.445325 0.655372 2.576178 0.034788 -0.021493 303148.000000 0 0 1
11.459563 9.458565 -25.529947 29.539198 0.690030 2.614501 0.050907 -0.026624 427413.000000 0 0 1
10.870263 9.963165 -24.363037 28.477796 0.741885 2.597331 0.070906 -0.032345 898786.000000 0 0 1
9.663263 9.225865 -24.004837 27.472303 0.762246 2.633724 0.075664 -0.034197 1132600.000000 0 0 1
8.916063 9.856165 -22.765337 26.360970 0.835436 2.613164 0.074647 -0.030601 170434.000000 0 0 1
8.232363 11.042465 -23.198337 26.979079 0.930170 2.605799 0.070913 -0.031880 -40902.900000 0 0 1
7.758963 11.907165 -22.156937 26.323221 0.993282 2.571268 0.074008 -0.021054 -27945.100000 0 0 1
8.874363 12.728565 -21.505337 26.518865 0.961952 2.516561 0.068500 -0.019714 226318.000000 0 0 1
9.702663 11.887565 -20.680137 25.751193 0.886253 2.503234 0.080227 -0.024873 -301009.000000 0 0 1
10.654963 12.618065 -19.965437 25.910664 0.869550 2.450498 0.082614 -0.023708 -96233.000000 0 0 1
11.665463 11.684765 -19.173037 25.302611 0.786225 2.430653 0.078880 -0.026286 760213.000000 0 0 1
12.715163 11.068065 -19.917337 26.093635 0.716254 2.439206 0.058382 -0.025717 626462.000000 0 0 1
12.181363 10.145065 -20.878237 26.214667 0.694444 2.492171 0.064813 -0.025398 -557875.000000 0 0 1
13.280863 9.419665 -21.674437 27.108903 0.616918 2.497312 0.056604 -0.021454 -259042.000000 0 0 1
14.010663 8.508765 -20.927937 26.583384 0.545775 2.477143 0.063572 -0.030222 -633872.000000 0 0 1
14.892063 7.848365 -21.745837 27.500033 0.485027 2.482841 0.055434 -0.031071 -713630.000000 0 0 1
15.532663 6.670665 -21.010537 26.966722 0.405643 2.464070 0.073326 -0.028708 -401029.000000 0 0 1
16.537263 6.941665 -20.103637 26.941121 0.397423 2.413142 0.046236 -0.021157 -441529.000000 0 0 1
17.039863 5.803565 -19.474337 26.519580 0.328265 2.395487 0.038525 -0.030437 108780.000000 0 0 1
17.657363 6.063765 -18.059437 25.974892 0.330795 2.339585 0.048578 -0.026732 933477.000000 0 0 1
18.978163 6.670165 -18.133737 27.083098 0.337980 2.304411 0.050029 -0.031504 1411030.000000 0 0 1
19.571763 6.859565 -16.836337 26.712727 0.337105 2.252702 0.051788 -0.046599 350293.000000 0 0 1
20.292963 5.589065 -16.181937 26.549898 0.268756 2.226215 0.067656 -0.054699 -494153.000000 0 0 1
21.513763 5.323065 -16.812237 27.817770 0.242555 2.219772 0.062995 -0.049689 116667.000000 0 0 1
22.253863 4.382265 -16.018737 27.767582 0.194434 2.185708 0.085634 -0.052898 -726956.000000 0 0 1
23.645363 4.069165 -16.505237 29.121884 0.170422 2.173369 0.062648 -0.009720 -1030630.000000 0 0 1
24.291563 3.101965 -15.719337 29.099824 0.127010 2.141455 0.066769 -0.017359 -402082.000000 0 0 1
25.455763 2.699765 -16.370137 30.385292 0.105662 2.139751 0.062409 -0.021448 -538614.000000 0 0 1
26.212063 1.516065 -15.765337 30.625423 0.057774 2.111547 0.068430 -0.031229 -170604.000000 0 0 1
25.658963 0.264965 -16.013837 30.247241 0.010326 2.128726 0.080435 -0.021352 642196.000000 0 0 1
26.743063 -0.682435 -15.903537 31.122012 -0.025513 2.107151 0.063223 -0.014421 696019.000000 0 0 1
26.296263 -2.153935 -16.115137 30.916509 -0.081728 2.119108 0.047820 -0.019490 -80012.700000 0 0 1
25.500263 -2.676535 -15.074837 29.743536 -0.104578 2.102297 0.052557 -0.018311 330365.000000 0 0 1
25.379563 -4.079235 -15.229237 29.877952 -0.159366 2.105650 0.046450 -0.010353 -1005880.000000 0 0 1
24.998463 -4.881635 -13.954737 29.042868 -0.192850 2.072007 0.046978 -0.011849 634980.000000 0 0 1
23.663963 -4.702435 -13.452337 27.623566 -0.196162 2.079434 0.065464 -0.006528 725169.000000 0 0 1
22.728963 -5.360635 -14.264637 27.364613 -0.231618 2.119147 0.069025 -0.009777 93738.900000 0 0 1
21.237263 -5.275735 -13.754437 25.846455 -0.243490 2.131946 0.080804 -0.016267 724259.000000 0 0 1
20.753863 -6.198535 -12.773537 25.145733 -0.290235 2.103635 0.085360 -0.012070 408758.000000 0 0 1
21.040263 -6.000135 -11.414937 24.677825 -0.277800 2.051675 0.100474 -0.005945 -494227.000000 0 1 0
20.806763 -7.229735 -10.527637 24.413553 -0.334420 2.016642 0.093448 -0.012099 -1222450.000000 0 1 0
19.503963 -7.667535 -10.459337 23.422071 -0.374567 2.033712 0.097315 -0.018172 -465592.000000 0 1 0
19.179363 -8.707535 -11.404137 23.952525 -0.426180 2.067027 0.085997 -0.021640 -176204.000000 0 1 0
17.713363 -9.207535 -11.328637 22.953865 -0.479368 2.086951 0.110299 -0.031749 494683.000000 0 1 0
16.807563 -8.197235 -11.799237 22.111328 -0.453768 2.133682 0.102425 -0.022783 357221.000000 0 1 0
15.525263 -8.711535 -12.108537 21.530009 -0.511340 2.168085 0.102540 -0.020665 133336.000000 0 1 0
14.422063 -7.662635 -12.296637 20.443071 -0.488383 2.216182 0.078587 -0.020936 -374358.000000 0 1 0
14.310563 -6.845735 -13.407537 20.770613 -0.446194 2.272481 0.068318 -0.026362 905970.000000 0 1 0
15.379163 -5.868735 -13.486037 21.279894 -0.364547 2.257182 0.071642 -0.023365 612095.000000 0 1 0
15.077363 -4.791035 -14.553937 21.496464 -0.307673 2.314528 0.047364 -0.025407 69416.300000 0 1 0
14.012763 -3.989135 -14.066437 20.251799 -0.277342 2.338628 0.052052 -0.026545 141628.000000 0 1 0
13.604363 -2.868935 -14.886337 20.369401 -0.207838 2.390317 0.030729 -0.035739 -106626.000000 0 1 0
14.622163 -1.746035 -15.271637 21.215070 -0.118847 2.374380 0.050258 -0.031723 -290959.000000 0 1 0
15.619163 -2.204735 -16.170437 22.589868 -0.140229 2.368604 0.040142 -0.026028 243286.000000 0 1 0
16.784163 -1.398535 -16.167937 23.346653 -0.083133 2.335768 0.044262 -0.019753 -22133.200000 0 1 0
17.902463 -1.870835 -15.250137 23.591627 -0.104124 2.273681 0.072417 -0.019197 -1039860.000000 0 1 0
17.582263 -2.018035 -13.899837 22.503642 -0.114277 2.236574 0.068069 -0.015582 72854.000000 0 1 0
18.691563 -2.492035 -13.155537 22.992454 -0.132542 2.179943 0.072343 -0.009562 31720.900000 0 1 0
18.453963 -2.697235 -11.602837 21.964737 -0.145133 2.127333 0.082242 -0.007390 -158610.000000 0 1 0
18.335563 -1.495235 -10.871537 21.368643 -0.081368 2.104542 0.078387 -0.013144 667049.000000 0 1 0
17.522163 -1.644835 -9.726337 20.108041 -0.093597 2.075678 0.057900 -0.013648 -1394860.000000 0 1 0
17.689363 -0.551135 -8.642537 19.695450 -0.031146 2.025069 0.058403 -0.013753 -24201.100000 0 1 0
18.971463 -0.313435 -8.033837 20.604786 -0.016520 1.971321 0.070509 -0.015029 852265.000000 0 1 0
19.976463 0.192565 -8.839037 21.845474 0.009639 1.987356 0.072997 -0.011042 -978217.000000 0 1 0
19.721763 1.572265 -9.490837 21.943016 0.079554 2.018084 0.076691 -0.012165 -1009820.000000 0 1 0
19.531763 2.616265 -8.545437 21.479271 0.133157 1.979964 0.066443 -0.013766 584021.000000 0 1 0
19.035763 3.726665 -9.189837 21.463956 0.193327 2.013243 0.059619 -0.019830 -446985.000000 0 1 0
18.647663 4.919465 -8.305837 20.998176 0.257935 1.977463 0.050179 -0.018396 -646022.000000 0 1 0
18.075963 5.945565 -9.031637 21.063254 0.317774 2.013945 0.054202 -0.024873 -43677.600000 0 1 0
18.980063 6.975565 -9.313337 22.262964 0.352197 2.002406 0.108897 -0.005780 -315847.000000 0 1 0
-26.364167 -29.297635 5.651163 39.816533 0.838051 1.428385 0.082114 -0.013076 -62391.000000 0 0 1
-26.512817 -28.235355 6.553863 39.282539 0.816851 1.403173 0.070638 -0.013775 -929637.000000 0 0 1
-25.454837 -27.373285 6.443563 37.931055 0.821697 1.400093 0.081098 -0.012741 -1059960.000000 0 0 1
-25.617227 -26.109775 7.337863 37.306928 0.794920 1.372817 0.066148 -0.005059 -185137.000000 0 0 1
-26.723957 -25.246425 7.137863 37.449979 0.756976 1.379026 0.050406 -0.010763 -159947.000000 0 0 1
-27.944077 -25.649095 7.712663 38.707011 0.742602 1.370196 0.047415 -0.007350 -108435.000000 0 0 1
-28.150847 -25.549115 9.223263 39.118998 0.736987 1.332781 0.030479 -0.005991 -821531.000000 0 0 1
-27.225657 -26.283345 9.959963 39.131208 0.767790 1.313437 0.031550 -0.012448 -540409.000000 0 0 1
-27.673067 -26.654875 11.233963 40.031024 0.766659 1.286344 0.020224 -0.014044 -424552.000000 0 0 1
-26.572457 -27.341225 12.052063 39.986126 0.799656 1.264629 0.014253 -0.022696 278717.000000 0 0 1
-25.461937 -26.541405 12.437163 38.825757 0.806153 1.244716 0.029750 -0.015584 34704.500000 0 0 1
-25.743897 -25.547605 13.390063 38.661636 0.781571 1.217130 0.029283 -0.006888 -248062.000000 0 0 1
-24.469137 -25.183855 14.221963 37.884422 0.799791 1.185964 0.038812 -0.012140 532688.000000 0 0 1
-23.995937 -26.257315 15.011963 38.608426 0.830367 1.171439 0.041137 -0.017454 -70229.300000 0 0 1
-22.799237 -25.907735 15.690663 37.910590 0.849132 1.144078 0.040632 -0.009928 233741.000000 0 0 1
-21.990237 -27.167545 16.081263 38.474056 0.890332 1.139579 0.034257 -0.013301 -78695.000000 0 0 1
-22.750137 -28.028385 16.899363 39.859096 0.888973 1.132964 0.023641 -0.002876 117159.000000 0 0 1
-21.978937 -29.115535 17.320263 40.382911 0.924175 1.127521 0.042320 -0.004870 -72242.900000 0 0 1
-22.856337 -30.122345 18.109963 41.925393 0.921697 1.124135 0.056248 -0.018941 -16564.900000 0 0 1
-23.748237 -30.837875 17.309763 42.597901 0.914555 1.152338 0.034997 -0.009305 22473.700000 0 0 1
-24.485237 -31.794235 18.028763 43.993596 0.914545 1.148557 0.041169 -0.008697 -423655.000000 0 0 1
-25.500307 -32.600025 17.272163 44.848131 0.906993 1.175452 0.038012 -0.008632 -298373.000000 0 0 1
-24.839837 -33.551355 16.458363 44.873028 0.933498 1.195255 0.042959 -0.010445 167594.000000 0 0 1
-25.766357 33.856701 15.909163 45.423373 -0.920266 1.212967 0.043597 -0.014117 -1052690.000000 0 0 1
-25.330397 33.381380 14.497963 44.341138 -0.921675 1.237707 0.051148 -0.018872 475948.000000 0 0 1
-24.146137 32.577369 14.366263 43.019884 -0.932955 1.230311 0.043255 -0.010521 1052740.000000 0 0 1
-22.985237 33.380965 14.570863 43.068782 -0.967781 1.225669 0.044307 -0.012204 -630556.000000 0 0 1
-21.624937 32.653486 14.681563 41.826264 -0.985854 1.212144 0.057699 -0.024700 46576.800000 0 0 1
-21.335137 32.016420 13.465263 40.762146 -0.982991 1.234135 0.053832 -0.019964 -547587.000000 0 0 1
-20.207337 31.235150 13.598063 39.609069 -0.996574 1.220361 0.044961 -0.018918 -1018300.000000 0 0 1
-19.898537 30.298140 12.420263 38.316994 -0.989685 1.240689 0.036400 -0.018656 -52079.800000 0 0 1
-19.547737 30.959830 11.201663 38.289716 -1.007615 1.273904 0.029951 -0.015207 100193.000000 0 0 1
-19.864437 30.110390 10.098863 37.459558 -0.987618 1.297825 0.028242 -0.016110 17636.000000 0 0 1
-19.304837 30.647090 8.781863 37.269854 -1.008676 1.332930 0.017157 -0.017235 -915884.000000 0 0 1
-17.927237 30.657710 8.691263 36.562536 -1.041662 1.330789 0.010895 -0.025649 -1345580.000000 0 0 1
-17.410037 31.156040 7.503363 36.470655 -1.061221 1.363580 0.027814 -0.024440 -93132.300000 0 0 1
-16.940737 30.159460 6.401663 35.179012 -1.059011 1.387803 0.023110 -0.021134 -224630.000000 0 0 1
-17.942837 29.215480 5.985163 34.803906 -1.020034 1.397969 0.019866 -0.019979 244200.000000 0 0 1
-17.888037 28.051870 6.773563 33.952473 -1.003133 1.369947 0.013569 -0.016828 117368.000000 0 0 1
-18.885437 26.986580 6.223363 33.521120 -0.960199 1.384058 0.024388 -0.014592 374471.000000 0 0 1
-18.542437 26.458380 4.981763 32.690760 -0.959523 1.417810 0.034583 -0.022392 799632.000000 0 0 1
-19.663337 25.670960 4.551763 32.655223 -0.917149 1.430952 0.050013 -0.026450 348434.000000 0 0 1
-19.343437 24.942110 3.206563 31.726321 -0.911153 1.469554 0.062604 -0.031535 -1722840.000000 0 0 1
-19.255137 25.653360 1.981463 32.136916 -0.926918 1.509100 0.064565 -0.033477 588447.000000 0 0 1
-18.056437 26.394390 1.639263 32.021648 -0.970821 1.519582 0.065469 -0.029952 611746.000000 0 0 1
-16.724337 25.629840 1.879163 30.661432 -0.992642 1.509470 0.060492 -0.027557 -1211750.000000 0 0 1
-16.496737 24.409780 1.201063 29.485967 -0.976480 1.530052 0.087815 -0.033316 15132.700000 0 0 1
-16.090037 24.535320 -0.145337 29.340967 -0.990361 1.575750 0.083025 -0.033849 -267343.000000 0 0 1
-15.851337 23.264640 -0.939837 28.167209 -0.972698 1.604169 0.088015 -0.044933 391481.000000 0 0 1
-16.987337 22.395170 -0.953037 28.125105 -0.921860 1.604688 0.087256 -0.048523 385321.000000 0 0 1
-16.737137 21.211070 -1.660637 27.070260 -0.902752 1.632180 0.084968 -0.044457 180550.000000 0 0 1
-15.697737 20.159970 -1.161737 25.577196 -0.909204 1.616233 0.083404 -0.043164 486958.000000 0 0 1
-16.213737 19.450670 -0.038537 25.322230 -0.875911 1.572318 0.088662 -0.043246 570551.000000 0 0 1
-15.321337 18.376970 0.257563 23.927447 -0.875827 1.560032 0.125242 -0.057524 135793.000000 0 1 0
-16.007237 17.335370 1.134763 23.622751 -0.825210 1.522741 0.092599 -0.045852 -428124.000000 0 1 0
-16.786237 16.504070 0.378463 23.543690 -0.776922 1.554721 0.081257 -0.036383 -160534.000000 0 1 0
-17.540437 15.675970 1.255463 23.557996 -0.729326 1.517479 0.092111 -0.048566 276156.000000 0 1 0
-18.233937 14.480570 0.502963 23.289833 -0.671167 1.549199 0.117773 -0.040033 50787.500000 0 1 0
-19.083037 14.847570 -0.544937 24.184904 -0.661213 1.593330 0.100666 -0.039430 13571.600000 0 1 0
-20.000237 13.804270 -0.736437 24.312748 -0.604122 1.601091 0.117350 -0.029633 -770105.000000 0 1 0
-20.988837 13.869070 -1.894837 25.228412 -0.583918 1.645974 0.120525 -0.028016 -463593.000000 0 0 1
-22.007337 12.912870 -2.105037 25.602662 -0.530622 1.653109 0.121529 -0.026107 986428.000000 0 0 1
-22.968337 12.685570 -1.080837 26.260929 -0.504613 1.611966 0.108316 -0.013585 -93836.200000 0 0 1
-24.060337 13.803370 -0.891937 27.752989 -0.520855 1.602940 0.078761 -0.005092 -530101.000000 0 0 1
-23.599837 15.091970 -0.574337 28.018739 -0.568955 1.591296 0.059181 -0.011796 754973.000000 0 0 1
-24.685237 15.935170 -0.173537 29.382319 -0.573230 1.576703 0.049089 -0.007627 407135.000000 0 0 1
-24.023137 17.060670 0.692363 29.472987 -0.617523 1.547303 0.025275 -0.014068 423957.000000 0 0 1
-23.393037 16.584370 1.855563 28.735320 -0.616704 1.506177 0.021357 -0.015577 86224.400000 0 0 1
-23.044537 17.507770 2.832063 29.079087 -0.649703 1.473250 0.020406 -0.023146 48889.400000 0 0 1
-24.127137 18.536070 3.329663 30.607046 -0.655090 1.461793 0.032869 -0.027778 436176.000000 0 0 1
-25.033537 18.066170 4.334363 31.174528 -0.625128 1.431309 0.045109 -0.028135 1453940.000000 0 0 1
-26.356127 18.642570 4.376163 32.578239 -0.615631 1.436061 0.035471 -0.033162 1210340.000000 0 0 1
-27.385787 18.185670 3.325763 33.041801 -0.586192 1.469972 0.065369 -0.029832 -403324.000000 0 0 1
-28.631517 18.840070 3.446663 34.446937 -0.581992 1.470571 0.071996 -0.027454 133205.000000 0 0 1
-29.326337 18.677970 2.226963 34.840493 -0.567112 1.506834 0.076724 -0.025992 60034.700000 0 0 1
-30.600887 19.493070 1.882063 36.330927 -0.567189 1.518970 0.078827 -0.040926 516771.000000 0 0 1
-31.748667 19.097870 2.633063 37.143499 -0.541546 1.499848 0.122519 -0.034101 741746.000000 0 0 1
-32.884127 19.919970 2.328263 38.517422 -0.544646 1.510312 0.105223 -0.038429 421489.000000 0 0 1
-33.501217 20.501170 3.609363 39.441818 -0.549162 1.479157 0.088005 -0.038906 222851.000000 0 0 1
-32.546397 21.328270 4.310963 39.150319 -0.580105 1.460459 0.074314 -0.037581 771286.000000 0 0 1
-33.048587 21.772270 5.526063 39.959708 -0.582534 1.432061 0.065522 -0.026489 -157617.000000 0 0 1
-32.132467 22.842170 6.203263 39.909155 -0.617987 1.414729 0.069504 -0.027934 -196720.000000 0 0 1
-31.875507 23.965930 5.338463 40.235717 -0.644691 1.437724 0.062830 -0.019249 507373.000000 0 0 1
-31.050847 24.957260 5.939263 40.277721 -0.677026 1.422799 0.051168 -0.020270 94213.100000 0 0 1
-31.597467 26.406370 5.652763 41.565010 -0.696140 1.434375 0.041038 -0.013805 -253476.000000 0 0 1
-32.709447 26.700830 6.442663 42.712412 -0.684603 1.419380 0.059246 -0.008957 -22055.400000 0 0 1
-33.153427 28.076920 6.365963 43.908868 -0.702679 1.425302 0.045207 -0.002077 148975.000000 0 0 1
-34.188636 28.514150 7.426163 45.133884 -0.695146 1.405508 0.036664 0.004515 -683187.000000 0 0 1
-33.651607 28.704850 8.735563 45.085576 -0.706234 1.375808 0.056909 -0.007653 687199.000000 0 0 1
-34.510872 29.166850 9.831163 46.242374 -0.701671 1.356561 0.049814 -0.007713 164239.000000 0 0 1
-35.760165 28.365820 10.260363 46.783375 -0.670596 1.349683 0.035588 0.000668 -100277.000000 0 0 1
-35.452080 27.128810 10.768663 45.921525 -0.653174 1.334091 0.049138 -0.005605 271615.000000 0 0 1
36.407702 26.587960 11.524463 46.532286 0.630763 1.320526 0.044038 -0.007762 33078.300000 0 0 1
-36.030735 25.496270 12.458663 45.863841 -0.615825 1.295695 0.090817 -0.013213 -520094.000000 0 0 1
-34.968526 25.860270 13.266063 45.470208 -0.636766 1.274737 0.111389 -0.024984 -543605.000000 0 0 1
-34.593888 24.845560 14.183263 44.891022 -0.622841 1.249340 0.141768 -0.027062 -305266.000000 0 0 1
-33.263607 25.205400 14.839963 44.294517 -0.648441 1.229160 0.141793 -0.026659 -493645.000000 0 0 1
-33.430537 26.362240 15.617563 45.348393 -0.667731 1.219207 0.118367 -0.030103 367093.000000 0 0 1
-32.270027 26.782520 16.333363 45.004853 -0.692738 1.199392 0.128198 -0.024112 321012.000000 0 0 1
-32.598447 28.086680 17.056763 46.286645 -0.711188 1.193398 0.117215 -0.029821 91067.800000 0 0 1
-32.495037 29.206210 16.161863 46.584718 -0.732146 1.216495 0.121045 -0.022108 234960.000000 0 0 1
-33.029537 30.328310 16.842463 47.900159 -0.742790 1.211500 0.090258 -0.012299 8460.970000 0 0 1
-32.694147 31.663890 16.134063 48.288893 -0.769391 1.230130 0.065664 -0.020487 -649055.000000 0 0 1
-31.367577 32.067390 16.243863 47.708547 -0.796430 1.223368 0.063012 -0.015584 -652339.000000 0 0 1
-31.120507 33.109319 15.390063 47.974650 -0.816352 1.244227 0.033724 -0.008884 -896973.000000 0 0 1
-29.663627 33.397127 15.001463 47.120513 -0.844534 1.246793 0.059583 -0.013855 -132186.000000 0 0 1
-29.055207 32.522293 14.019663 45.808903 -0.841643 1.259759 0.058594 -0.018791 544029.000000 0 0 1
-28.732357 31.197330 14.452863 44.807443 -0.826506 1.242369 0.075980 -0.021705 -414574.000000 0 0 1
-29.830517 30.165460 14.078263 44.699130 -0.790981 1.250386 0.108495 -0.024423 36688.100000 0 0 1
-30.030007 30.062350 12.667763 44.339806 -0.785936 1.281062 0.118487 -0.027920 7414.700000 0 0 1
-30.951067 29.022880 12.448863 44.218439 -0.753259 1.285407 0.124215 -0.029676 -195319.000000 0 0 1
-30.978247 28.651270 10.936963 43.590873 -0.746394 1.317186 0.108006 -0.024306 -145076.000000 0 0 1
-29.865247 28.025520 10.327763 42.237725 -0.753630 1.323777 0.104606 -0.022576 -70628.800000 0 0 1
-29.910197 28.073510 8.910163 41.977766 -0.753733 1.356910 0.094840 -0.022433 298116.000000 0 0 1
-28.763707 27.231820 8.285463 40.466922 -0.758048 1.364592 0.094108 -0.024049 213780.000000 0 0 1
-28.411487 27.610910 6.955963 40.223878 -0.771109 1.396991 0.077485 -0.029121 -231770.000000 0 0 1
-27.345787 26.818310 6.484963 38.846732 -0.775660 1.403074 0.066057 -0.023324 -208919.000000 0 0 1
-26.951647 27.212700 5.075263 38.635225 -0.790218 1.439052 0.059538 -0.029684 -446827.000000 0 0 1
-26.076167 28.258740 4.838563 38.754801 -0.825545 1.445619 0.059840 -0.028936 -252940.000000 0 0 1
-25.783827 28.260400 3.475763 38.412718 -0.831191 1.480188 0.054403 -0.029587 -825768.000000 0 0 1
-24.805537 29.307640 3.005263 38.513427 -0.868405 1.492685 0.053168 -0.031304 -40101.400000 0 0 1
-23.511937 28.996060 3.532563 37.497489 -0.889464 1.476448 0.051104 -0.035906 194778.000000 0 0 1
-22.578237 29.972210 3.123363 37.654556 -0.925183 1.487753 0.055019 -0.032045 1751350.000000 0 0 1
-21.031137 29.606100 3.318763 36.467027 -0.953148 1.479663 0.035680 -0.033480 1511650.000000 0 0 1
-20.169837 30.679310 3.085263 36.845098 -0.989208 1.486962 0.030580 -0.024980 -614931.000000 0 0 1
-18.855837 30.134100 3.124763 35.684320 -1.011672 1.483117 0.033883 -0.028639 74266.600000 0 0 1
-17.780437 31.178740 2.809463 36.002095 -1.052521 1.492681 0.038832 -0.024249 -190462.000000 0 0 1
-17.826137 32.314374 3.611063 37.081393 -1.066689 1.473260 0.041225 -0.023263 445797.000000 0 0 1
-16.780437 33.191905 3.163263 37.326825 -1.102712 1.485950 0.047253 -0.014553 590722.000000 0 0 1
-16.433037 -33.967445 4.137363 37.959844 1.120202 1.461586 0.056779 -0.008650 56303.700000 0 0 1
-17.417037 -32.961145 4.026463 37.496702 1.084679 1.463207 0.059531 -0.012509 116605.000000 0 0 1
-17.193837 -31.902115 4.889463 36.568836 1.076472 1.436689 0.059225 -0.029136 42508.400000 0 0 1
-18.353837 -30.874875 4.885463 36.248986 1.034461 1.435610 0.066616 -0.021415 174610.000000 0 0 1
-18.410137 -30.001815 3.737263 35.397869 1.020412 1.465020 0.073253 -0.017128 -297443.000000 0 0 1
-19.659737 -29.386495 3.836563 35.563894 0.981176 1.462708 0.079777 -0.023585 -611227.000000 0 0 1
-19.966437 -28.490765 2.595263 34.887213 0.959531 1.496337 0.070697 -0.026740 -366951.000000 0 0 1
-19.193237 -27.356905 2.617863 33.520647 0.959006 1.492620 0.073785 -0.029448 -348139.000000 0 0 1
-19.376137 -26.624615 1.394363 32.958292 0.941686 1.528477 0.056403 -0.026170 -252915.000000 0 0 1
-18.443437 -25.433215 1.361763 31.446195 0.943376 1.527478 0.065656 -0.020124 218101.000000 0 0 1
-17.101037 -25.777245 1.059963 30.952146 0.985048 1.536544 0.068166 -0.020012 -451629.000000 0 0 1
-16.228637 -24.693935 1.230363 29.574869 0.989382 1.529183 0.060488 -0.021984 403548.000000 0 0 1
-14.914337 -24.881935 0.405163 29.012278 1.030815 1.556831 0.060492 -0.022300 -58974.000000 0 0 1
-14.969837 -24.800135 -1.027737 28.986185 1.027720 1.606260 0.050611 -0.020536 -80040.900000 0 0 1
-15.305137 -23.493335 -1.466137 28.077278 0.993390 1.623038 0.063832 -0.025621 -144033.000000 0 0 1
-15.337037 -23.364035 -3.003137 28.109103 0.989909 1.677839 0.031989 -0.012998 -179992.000000 0 0 1
-14.059137 -23.673535 -3.491437 27.754021 1.034892 1.696930 0.050847 -0.017238 -251491.000000 0 0 1
-14.003737 -23.455335 -4.897037 27.753168 1.032557 1.748175 0.056987 -0.012796 37500.900000 0 0 1
-12.924737 -24.272635 -5.641837 28.072049 1.081502 1.773152 0.059704 -0.019641 -101308.000000 0 0 1
-13.150237 -25.644255 -5.853137 29.407750 1.096965 1.771168 0.037562 -0.020328 -491134.000000 0 0 1
-12.147537 -26.183015 -6.683937 29.627486 1.136405 1.798354 0.055922 -0.019148 59042.300000 0 0 1
23.171563 12.779065 27.875416 38.435200 0.503992 0.759388 0.013703 0.011451 -446185.000000 0 0 1
24.216963 12.110665 28.518506 39.324734 0.463720 0.759464 0.017176 0.007740 50464.900000 0 0 1
23.751663 11.005565 29.302576 39.292555 0.433908 0.729131 0.024912 0.006398 -172190.000000 0 0 1
23.675963 11.372965 30.763056 40.450725 0.447812 0.706703 0.030140 -0.002619 41583.200000 0 0 1
22.682063 12.297565 31.152046 40.449426 0.496813 0.691723 0.040098 -0.001292 47072.300000 0 0 1
22.937963 12.728065 32.455057 41.731097 0.506590 0.679768 0.044296 -0.004111 -58631.700000 0 0 1
21.824263 13.690365 32.990823 41.858320 0.560252 0.662992 0.040857 -0.011236 2170440.000000 0 0 1
20.574963 12.993865 33.411325 41.333839 0.563287 0.629489 0.042948 -0.010716 1929790.000000 0 0 1
19.745363 13.894865 34.142472 41.816922 0.613207 0.615517 0.049092 -0.011302 664960.000000 0 0 1
18.481363 13.236165 -33.502077 40.486368 0.621509 2.545419 0.041959 -0.013334 1044960.000000 0 0 1
17.385663 12.966365 33.931792 40.271012 0.640813 0.568729 0.024704 -0.006712 679313.000000 0 0 1
16.317163 12.276765 -33.771357 39.464837 0.645025 2.597762 0.024356 -0.009769 1126060.000000 0 0 1
15.013063 11.922165 33.721323 38.789917 0.671145 0.516947 0.031166 -0.004001 1196220.000000 0 0 1
15.272263 10.871065 32.795591 37.775294 0.618613 0.519282 0.026536 0.008039 613683.000000 0 0 1
14.026563 10.349865 32.316627 36.718232 0.635697 0.494671 0.046196 0.000020 561140.000000 0 0 1
14.306663 9.213565 31.249776 35.582564 0.572149 0.498642 0.057275 0.008715 66757.900000 0 0 1
14.645463 8.011265 31.898836 36.002856 0.500547 0.482132 0.048790 0.001517 -561353.000000 0 0 1
15.551763 7.298165 31.163806 35.585156 0.438773 0.503803 0.049051 -0.015815 -346755.000000 0 0 1
15.962763 5.946565 31.809216 36.083204 0.356601 0.491657 0.058727 -0.019125 -253867.000000 0 0 1
14.904763 5.040265 31.802426 35.481693 0.326093 0.459430 0.051679 -0.011879 -189764.000000 0 0 1
15.386763 3.754765 32.189176 35.874695 0.239348 0.457257 0.061546 -0.015814 378587.000000 0 0 1
14.227563 2.724465 32.269211 35.371573 0.189202 0.421950 0.043999 -0.011620 126834.000000 0 0 1
14.534363 1.522065 32.928607 36.025790 0.104342 0.417689 0.053239 -0.017837 744216.000000 0 0 1
13.364163 0.682665 33.149096 35.748139 0.051037 0.383674 0.047935 -0.016093 814102.000000 0 0 1
13.743863 -0.753935 33.534499 36.249480 -0.054801 0.389490 0.031913 -0.017315 -3809.550000 0 0 1
14.179063 -1.545935 32.449145 35.445489 -0.108600 0.414132 0.031080 -0.021652 60689.700000 0 0 1
14.659163 -2.803735 32.883583 36.112075 -0.188979 0.426068 0.047941 -0.023537 -310691.000000 0 0 1
14.697763 -3.857335 31.781656 35.227502 -0.256656 0.445992 0.053110 -0.029733 -978242.000000 0 0 1
15.084063 -5.192035 32.027696 35.780713 -0.331504 0.462117 0.057107 -0.030208 1535660.000000 0 0 1
16.452263 -5.424235 32.479815 36.810836 -0.318473 0.489977 0.045289 -0.027569 2299920.000000 0 0 1
17.707663 -4.928435 31.652806 36.602608 -0.271452 0.526106 0.053472 -0.027420 305080.000000 0 0 1
17.700463 -3.527535 31.615106 36.404186 -0.196713 0.518735 0.054627 -0.029240 -176407.000000 0 0 1
18.891563 -3.129035 30.964366 36.407059 -0.164141 0.553853 0.077112 -0.029005 199807.000000 0 0 1
19.016463 -1.609235 30.850716 36.276468 -0.084422 0.553988 0.080088 -0.024889 -193516.000000 0 0 1
19.127163 -1.025935 32.149886 37.423469 -0.053586 0.537320 0.069647 -0.020489 19087.000000 0 0 1
18.887963 0.370965 32.079596 37.228930 0.019638 0.532216 0.074011 -0.011073 -115818.000000 0 0 1
20.053263 1.303265 31.691176 37.525491 0.064899 0.565121 0.069263 -0.014822 -344346.000000 0 0 1
20.278763 1.314565 30.264676 36.454175 0.064734 0.591309 0.069920 -0.016958 246834.000000 0 0 1
21.448363 2.021365 29.903416 36.855562 0.093966 0.624308 0.064687 -0.019283 93147.200000 0 0 1
21.156163 3.533265 29.806866 36.722152 0.165482 0.623763 0.055390 -0.004049 -305651.000000 0 0 1
21.081563 4.149965 31.108866 37.807619 0.194368 0.604441 0.048607 -0.010974 321578.000000 0 0 1
20.519363 5.432765 31.075416 37.632973 0.258824 0.599266 0.055267 -0.011513 -311033.000000 0 0 1
20.196563 5.992265 32.455234 38.693030 0.288424 0.575744 0.060546 -0.011591 189826.000000 0 0 1
19.033863 5.484665 33.110160 38.583055 0.280553 0.539135 0.063128 -0.014070 508611.000000 0 0 1
19.039163 5.925565 -33.852127 39.288275 0.301728 2.609277 0.057030 -0.005416 71974.300000 0 0 1
17.801963 5.383865 -33.106557 37.972885 0.293686 2.629758 0.059931 -0.003286 45328.100000 0 0 1
17.937063 3.941765 -32.875677 37.657481 0.216317 2.632154 0.055893 -0.009511 281831.000000 0 0 1
16.731763 3.301765 -32.478757 36.684100 0.194832 2.658071 0.058625 -0.009536 243292.000000 0 0 1
16.732363 1.821865 -32.957437 37.006538 0.108455 2.669424 0.054639 -0.017560 -115353.000000 0 0 1
17.719363 0.948465 -32.446117 36.981427 0.053476 2.641134 0.040453 -0.009260 -53528.300000 0 0 1
17.564663 -0.438635 -32.686067 37.109147 -0.024967 2.648364 0.041931 -0.010959 114846.000000 0 0 1
18.696363 -1.301735 -32.023157 37.104327 -0.069513 2.612088 0.050161 -0.007953 159681.000000 0 0 1
18.605363 -1.541535 -30.579657 35.828080 -0.082665 2.593483 0.059122 -0.008539 292166.000000 0 0 1
18.788363 -0.411835 -29.707467 35.152607 -0.021916 2.577548 0.058529 -0.007971 -290155.000000 0 0 1
18.430063 -0.699735 -28.224807 33.716414 -0.037949 2.562800 0.048763 -0.008463 86271.900000 0 0 1
17.045563 -1.019535 -28.106517 32.887186 -0.059741 2.595642 0.047392 -0.008065 603031.000000 0 0 1
16.517063 -1.183335 -26.797407 31.501027 -0.071521 2.588081 0.045767 -0.006200 -5292.910000 0 0 1
17.114763 -2.357335 -25.975307 31.195973 -0.136876 2.554671 0.053997 -0.009144 -882802.000000 0 0 1
18.286563 -1.902935 -25.308087 31.281285 -0.103689 2.513328 0.059261 -0.008761 -206083.000000 0 0 1
19.219963 -2.899335 -25.061937 31.716144 -0.149721 2.481923 0.049668 -0.012664 -55989.600000 0 0 1
19.985863 -3.470735 -26.292397 33.207994 -0.171945 2.484463 0.059718 -0.019134 -1149210.000000 0 0 1
20.937063 -2.514635 -26.674127 34.002839 -0.119532 2.472634 0.065754 -0.010868 -369532.000000 0 0 1
21.508163 -2.742735 -27.968337 35.388579 -0.126836 2.482129 0.059695 -0.014681 286997.000000 0 0 1
22.953963 -2.171135 -27.999687 36.270935 -0.094306 2.452714 0.043700 -0.017762 688541.000000 0 0 1
24.000063 -3.133735 -27.826007 36.879669 -0.129837 2.425701 0.047051 -0.022193 722592.000000 0 0 1
25.273063 -2.622135 -28.243547 37.990805 -0.103382 2.408982 0.043021 -0.021370 351880.000000 0 0 1
26.377763 -3.664435 -28.096897 38.712402 -0.138038 2.382972 0.066684 -0.020926 -520317.000000 0 0 1
26.203563 -4.793235 -28.938317 39.332277 -0.180923 2.397555 0.068100 -0.031113 50360.600000 0 0 1
27.325163 -5.640235 -28.903577 40.173294 -0.203553 2.373839 0.067000 -0.033484 -87976.900000 0 0 1
27.385163 -6.697435 -27.741227 39.552225 -0.239856 2.348131 0.049881 -0.022875 -139182.000000 0 0 1
27.634063 -6.111635 -26.479827 38.757899 -0.217659 2.322947 0.047452 -0.010134 193541.000000 0 0 1
27.417863 -7.064535 -25.451857 38.071563 -0.252177 2.303022 0.027027 -0.010555 -108731.000000 0 0 1
27.476663 -6.533935 -23.966437 37.041185 -0.233463 2.274468 0.021237 -0.008631 -745299.000000 0 0 1
28.790363 -6.358635 -23.575037 37.750492 -0.217370 2.245283 0.013662 -0.004789 -647192.000000 0 0 1
28.877263 -5.805135 -22.259837 36.920133 -0.198384 2.217951 0.026798 -0.012446 -451400.000000 0 0 1
30.290163 -5.441135 -21.795537 37.711343 -0.177738 2.187019 0.026849 -0.003793 -483124.000000 0 0 1
30.898363 -4.381435 -22.545937 38.499676 -0.140862 2.196433 0.046016 -0.007041 -27569.400000 0 0 1
32.090363 -3.976935 -21.933937 39.073073 -0.123301 2.166821 0.044603 -0.003767 -161968.000000 0 0 1
32.682563 -2.707235 -22.490137 39.765378 -0.082646 2.171922 0.055670 -0.007769 -205387.000000 0 0 1
31.866563 -1.649535 -22.089137 38.808875 -0.051718 2.176301 0.047100 -0.005379 116820.000000 0 0 1
32.290363 -0.413135 -22.633237 39.434777 -0.012794 2.182107 0.055557 -0.006377 234892.000000 0 0 1
31.289163 0.759565 -22.343037 38.455168 0.024271 2.190772 0.052437 -0.004213 613777.000000 0 0 1
30.099763 0.639265 -23.120837 37.960209 0.021235 2.225698 0.048583 -0.004884 280819.000000 0 0 1
29.126363 1.603265 -22.800637 37.024107 0.054990 2.234238 0.046026 -0.002530 -433221.000000 0 0 1
27.944063 1.524765 -23.769537 36.717659 0.054511 2.274912 0.048647 -0.004774 -372886.000000 0 0 1
27.066063 2.593765 -23.449137 35.904894 0.095539 2.282454 0.049057 -0.003473 398555.000000 0 0 1
25.932763 2.650265 -24.329437 35.657448 0.101844 2.321714 0.064772 -0.005555 320948.000000 0 0 1
24.895063 3.713665 -23.922237 34.725047 0.148081 2.330773 0.064909 -0.003370 -473077.000000 0 0 1
25.341763 5.009965 -23.898337 35.191408 0.195179 2.317326 0.066704 -0.002363 173451.000000 0 0 1
24.258963 5.909065 -23.684037 34.414357 0.238930 2.329805 0.069303 -0.009696 159943.000000 0 0 1
24.682763 7.310265 -23.136837 34.612021 0.287938 2.302936 0.081270 -0.010630 -312886.000000 0 0 1
25.397263 8.005565 -24.095537 35.912462 0.305355 2.306288 0.083963 -0.009190 -51966.200000 0 0 1
25.671363 9.351665 -23.747337 36.199566 0.349343 2.286319 0.096040 -0.014665 -282538.000000 0 0 1
26.512063 10.133165 -24.776437 37.675488 0.365076 2.288461 0.102914 -0.013242 -9486.840000 0 0 1
25.966363 10.386665 -26.100507 38.254036 0.380510 2.321692 0.108573 -0.029550 -82711.300000 0 0 1
24.810863 11.165165 -26.130697 37.723377 0.422863 2.336012 0.103066 -0.036019 -317126.000000 0 0 1
24.299763 11.546665 -27.519267 38.485244 0.443592 2.367507 0.094154 -0.035358 -258129.000000 0 0 1
23.831563 10.457265 -28.323357 38.464404 0.413500 2.398460 0.091941 -0.027273 607785.000000 0 0 1
24.808663 9.507665 -28.785827 39.172558 0.365975 2.396237 0.094746 -0.029388 620844.000000 0 0 1
25.790663 9.993865 -29.921397 40.747094 0.369684 2.395460 0.106743 -0.023014 157847.000000 0 0 1
26.746463 10.980265 -29.472167 41.286174 0.389552 2.365778 0.109275 -0.018911 1000490.000000 0 0 1
27.447463 11.589665 -30.586197 42.698935 0.399538 2.369314 0.102061 -0.012604 769130.000000 0 0 1
28.701763 10.825265 -31.120547 43.697437 0.360666 2.363399 0.089541 -0.015530 -183336.000000 0 0 1
28.262963 9.679165 -31.824437 43.649469 0.329949 2.387789 0.087522 -0.014261 978030.000000 0 0 1
29.267763 8.625965 -31.916377 44.155004 0.286611 2.378679 0.073465 -0.009341 633137.000000 0 0 1
28.655963 7.476365 -32.707127 44.122743 0.255212 2.405766 0.070386 -0.010049 269483.000000 0 0 1
27.436963 6.993665 -32.160127 42.848245 0.249585 2.419704 0.069204 -0.013686 183950.000000 0 0 1
26.934763 6.081565 -33.130997 43.129223 0.222065 2.446790 0.056450 -0.006860 -696470.000000 0 0 1
25.680563 5.316665 -32.709447 41.924530 0.204147 2.465779 0.056869 -0.007194 -139330.000000 0 0 1
24.489363 6.076265 -32.710977 41.311717 0.243207 2.484561 0.068038 -0.010184 123681.000000 0 0 1
24.250663 6.701165 -31.437457 40.265543 0.269602 2.466667 0.078988 -0.015095 -923360.000000 0 0 1
22.786963 7.104265 -31.297587 39.360580 0.302219 2.490052 0.067930 -0.016989 -341911.000000 0 0 1
22.366463 8.096665 -32.282417 40.099490 0.347325 2.506570 0.074101 -0.017388 177426.000000 0 0 1
20.997463 8.436165 -32.169467 39.331119 0.382032 2.528572 0.062853 -0.009882 268676.000000 0 0 1
20.465163 9.500965 -33.225757 40.162696 0.434641 2.545043 0.054893 -0.011679 18580.700000 0 0 1
20.316063 9.031065 33.754064 40.418305 0.418294 0.582449 0.051476 -0.016581 67535.100000 0 0 1
20.005163 10.065465 32.830522 39.741204 0.466159 0.598631 0.039222 -0.011623 -277.691000 0 0 1
18.943163 9.667365 31.772646 38.233524 0.471882 0.589866 0.040070 -0.005317 -33592.500000 0 0 1
19.312963 8.697565 30.785376 37.368135 0.423144 0.602643 0.033005 -0.007570 335233.000000 0 0 1
20.337063 8.967465 29.824916 37.195929 0.415296 0.640440 0.040156 -0.006401 -127370.000000 0 0 1
19.878463 9.937265 28.671066 36.275784 0.463568 0.659394 0.030576 -0.005560 1074020.000000 0 0 1
18.793363 9.469265 27.801756 34.868253 0.466733 0.647926 0.018683 0.007096 1062460.000000 0 0 1
17.516863 9.718765 28.332076 34.698723 0.506539 0.615445 0.030825 -0.006209 -260381.000000 0 0 1
16.342263 8.962365 27.656336 33.350659 0.501627 0.593016 0.046222 -0.001548 -165452.000000 0 0 1
16.270563 9.254165 26.296406 32.278038 0.517138 0.618612 0.036004 0.000070 127348.000000 0 0 1
15.106463 8.902965 25.577096 31.010576 0.532550 0.600972 0.050079 -0.007888 -53032.100000 0 0 1
14.925863 7.388965 25.215966 30.219582 0.459675 0.583708 0.051995 -0.001522 -152510.000000 0 0 1
14.577263 6.544865 26.310516 30.782708 0.422003 0.545790 0.058415 -0.005628 11141.600000 0 0 1
14.584363 5.220965 25.953616 30.225027 0.343770 0.538108 0.061364 -0.010334 -110827.000000 0 0 1
14.963463 4.325865 27.125826 31.279846 0.281423 0.521248 0.055128 -0.014827 26335.000000 0 0 1
16.329163 4.444565 27.510116 32.298641 0.265748 0.551495 0.057350 -0.004124 222212.000000 0 0 1
16.518563 3.901065 28.779096 33.411339 0.231913 0.532861 0.057451 -0.011730 92870.700000 0 0 1
17.359663 2.575465 28.866476 33.782604 0.147285 0.546252 0.068842 -0.012739 313825.000000 0 0 1
16.629563 1.364165 28.566416 33.082373 0.081849 0.528641 0.061763 -0.020111 1109440.000000 0 0 1
15.634763 0.979765 29.563436 33.457473 0.062584 0.487274 0.051869 -0.017334 674058.000000 0 0 1
15.420163 -0.568835 29.660166 33.433971 -0.036872 0.479715 0.049266 -0.018432 -303781.000000 0 0 1
14.644663 -1.167835 28.643456 32.191265 -0.079576 0.473912 0.040624 -0.022353 335954.000000 0 0 1
15.315663 -1.449035 27.412916 31.434649 -0.094330 0.511399 0.052902 -0.022756 -1289260.000000 0 0 1
16.465963 -2.487735 27.259276 31.943464 -0.149949 0.548399 0.058920 -0.014559 639712.000000 0 0 1
17.718463 -2.024235 27.774336 33.006896 -0.113751 0.570797 0.070143 -0.025693 282781.000000 0 0 1
18.289263 -1.030235 26.933576 32.572627 -0.056271 0.597264 0.072661 -0.023449 -1142920.000000 0 0 1
19.740063 -0.699735 27.386476 33.766533 -0.035433 0.624845 0.104014 -0.025116 -114189.000000 0 0 1
20.692963 -1.628135 26.965796 34.029453 -0.078519 0.656022 0.092833 -0.026995 -126503.000000 0 0 1
21.976363 -1.039335 27.197586 34.982130 -0.047258 0.680162 0.095128 -0.029493 -236021.000000 0 0 1
23.083263 -1.649235 26.402726 35.109271 -0.071326 0.719681 0.086889 -0.016843 -872249.000000 0 0 1
23.060363 -1.244135 25.025866 34.053225 -0.053899 0.745271 0.095887 -0.012766 40263.500000 0 0 1
22.316963 -2.068735 24.158076 32.953590 -0.092434 0.747936 0.092007 -0.000209 -22046.300000 0 0 1
22.308663 -1.398535 22.762466 31.902385 -0.062608 0.776310 0.095921 -0.026573 104167.000000 0 0 1
21.470563 -0.247935 22.816166 31.330879 -0.011547 0.755057 0.087084 -0.016495 255706.000000 0 0 1
21.417363 0.341965 21.584866 30.409321 0.015965 0.781567 0.082832 -0.016951 -65176.300000 0 0 1
-30.520137 -27.604839 -10.660737 42.510672 0.735284 1.824280 0.018980 0.004321 -401670.000000 0 0 1
-30.244277 -26.463739 -9.916937 41.393133 0.718830 1.812729 0.026684 0.004322 -299022.000000 0 0 1
-30.472397 -26.756939 -8.606137 41.455595 0.720567 1.779916 0.048679 -0.002778 -214329.000000 0 0 1
-30.751037 -25.627439 -7.548537 40.735394 0.694769 1.757180 0.075293 -0.008295 -459126.000000 0 0 1
-29.623167 -25.004639 -7.076637 39.406127 0.701053 1.751358 0.053209 -0.008007 -1164160.000000 0 0 1
-28.926777 -25.696039 -6.039337 39.160164 0.726321 1.725636 0.055515 -0.005433 134189.000000 0 0 1
-27.930307 -24.796239 -5.254537 37.716915 0.726028 1.710566 0.049391 0.000660 -16343.900000 0 0 1
-28.390587 -23.625339 -4.513937 37.209646 0.694042 1.692407 0.065171 -0.003516 -274139.000000 0 0 1
-29.072867 -22.627539 -5.235537 37.210858 0.661371 1.711964 0.065882 -0.003938 212749.000000 0 0 1
-29.413467 -21.419339 -4.344937 36.644490 0.629413 1.689646 0.075552 -0.020422 294028.000000 0 0 1
-28.221857 -20.658939 -4.157237 35.221408 0.631894 1.689104 0.079391 -0.018301 499948.000000 0 0 1
-28.380437 -19.601039 -3.245837 34.643692 0.604425 1.664626 0.078505 -0.016507 -243472.000000 0 0 1
-27.188817 -18.639839 -3.142437 33.114201 0.600976 1.665836 0.079138 -0.019497 -91873.000000 0 0 1
-27.207187 -17.678739 -4.166837 32.712863 0.576222 1.698519 0.088182 -0.019727 637338.000000 0 0 1
-26.142217 -16.739939 -3.903337 31.287012 0.569555 1.695881 0.081841 -0.016330 578148.000000 0 0 1
-26.114507 -15.579339 -4.880237 30.797727 0.537899 1.729928 0.088450 -0.026855 129167.000000 0 0 1
-27.389317 -14.957939 -4.873537 31.585851 0.499862 1.725710 0.080419 -0.021189 237931.000000 0 0 1
-27.500967 -13.818939 -5.673137 31.296178 0.465637 1.753077 0.096842 -0.031687 -211304.000000 0 0 1
-28.910877 -13.192439 -5.643937 32.275893 0.428092 1.746565 0.085801 -0.030039 -376407.000000 0 0 1
-29.871207 -13.876239 -6.368637 33.546961 0.434876 1.761798 0.087164 -0.024424 -265766.000000 0 0 1
-31.061997 -13.133239 -6.415537 34.329124 0.400012 1.758785 0.067496 -0.018420 -148776.000000 0 0 1
-32.293297 -13.731639 -7.118937 35.806343 0.402054 1.770948 0.060634 -0.017220 60450.700000 0 0 1
-32.999417 -14.785139 -6.465637 36.733722 0.421225 1.747732 0.054118 -0.018911 565572.000000 0 0 1
-33.446097 -15.722939 -7.434237 37.697747 0.439441 1.769304 0.057671 -0.018996 -613516.000000 0 0 1
-34.243545 -16.980139 -6.883137 38.837135 0.460333 1.748968 0.049718 -0.021588 1585040.000000 0 0 1
-35.669127 -16.751839 -6.731937 39.977865 0.439070 1.739994 0.049369 -0.024436 1277810.000000 0 0 1
-36.076767 -15.939239 -5.677937 39.847603 0.416026 1.713774 0.039586 -0.025038 -583916.000000 0 0 1
35.327912 -15.894939 -5.424737 39.116982 -0.422792 1.709925 0.053865 -0.029403 -758587.000000 0 0 1
34.750952 -15.100239 -6.477537 38.439620 -0.409913 1.740116 0.064187 -0.035647 715858.000000 0 0 1
33.325172 -15.132839 -6.484337 37.170103 -0.426255 1.746144 0.070304 -0.038995 637748.000000 0 0 1
32.570252 -14.477839 -5.266137 36.030007 -0.418280 1.717482 0.084916 -0.042304 -976605.000000 0 0 1
32.569582 -15.201939 -4.052337 36.170404 -0.436698 1.683067 0.080016 -0.038314 444553.000000 0 0 1
32.014682 -14.351939 -3.046837 35.216491 -0.421433 1.657422 0.094996 -0.038662 -1112540.000000 0 0 1
32.151872 -14.777139 -1.550737 35.419084 -0.430812 1.614593 0.096964 -0.033356 475609.000000 0 0 1
33.468992 -14.876939 -0.976537 36.639465 -0.418270 1.597452 0.100985 -0.031162 1043250.000000 0 0 1
34.418152 -15.748839 -1.576037 37.882965 -0.429134 1.612411 0.079006 -0.026109 -717771.000000 0 0 1
34.029892 -17.271439 -1.835037 38.206067 -0.469659 1.618845 0.068794 -0.028765 -860917.000000 0 0 1
34.035612 -18.159239 -0.711837 38.583515 -0.490115 1.589247 0.068505 -0.024890 355353.000000 0 0 1
33.645812 -19.480939 -1.022737 38.892077 -0.524835 1.597096 0.056896 -0.026393 -917760.000000 0 0 1
34.559882 -20.272039 -1.891837 40.111346 -0.530491 1.617978 0.059635 -0.033946 -587904.000000 0 0 1
34.584712 -19.825239 -3.220937 39.993961 -0.520508 1.651419 0.050821 -0.030939 107341.000000 0 0 1
35.653292 -20.340939 -3.986937 41.240838 -0.518461 1.667622 0.043351 -0.028493 114851.000000 0 0 1
35.728642 -19.616339 -5.303737 41.103118 -0.502103 1.700192 0.057873 -0.036889 -72523.200000 0 0 1
34.746312 -20.050639 -6.208537 40.594092 -0.523380 1.724341 0.050300 -0.040574 78841.900000 0 0 1
34.891032 -19.262639 -7.394037 40.535234 -0.504439 1.754233 0.063524 -0.037925 -465349.000000 0 0 1
33.758862 -19.364939 -8.386837 39.812067 -0.520801 1.783047 0.072065 -0.044084 -604143.000000 0 0 1
33.917022 -20.523039 -9.112537 40.676749 -0.544158 1.796737 0.089859 -0.043868 51005.800000 0 0 1
32.869412 -20.723339 -10.014537 40.126625 -0.562527 1.823036 0.081695 -0.042243 -536810.000000 0 0 1
32.785862 -22.199939 -10.406937 40.939644 -0.595204 1.827819 0.092187 -0.027838 -259865.000000 0 0 1
32.306532 -23.120839 -9.477037 40.842374 -0.621166 1.804970 0.083776 -0.027377 -85238.900000 0 0 1
32.106092 -24.432539 -10.017137 41.570340 -0.650500 1.814160 0.076793 -0.014896 -181121.000000 0 0 1
31.282682 -25.258739 -9.007737 41.203755 -0.679258 1.791191 0.083066 -0.014698 668687.000000 0 0 1
29.908512 -24.870239 -8.946137 39.913422 -0.693681 1.796855 0.078193 -0.017637 434117.000000 0 0 1
29.094442 -25.900839 -8.466737 39.862585 -0.727393 1.784825 0.055636 -0.014820 351892.000000 0 0 1
27.603542 -25.589339 -8.126737 38.507320 -0.747550 1.783439 0.054677 -0.022958 636074.000000 0 0 1
26.979542 -25.087039 -9.329037 38.003765 -0.749066 1.818808 0.058686 -0.015532 -1005770.000000 0 0 1
25.859942 -24.379139 -8.980137 36.656813 -0.755932 1.818294 0.056302 -0.022380 -790059.000000 0 0 1
24.997842 -23.828439 -10.154637 35.997268 -0.761452 1.856773 0.078704 -0.030677 -211691.000000 0 0 1
24.337442 -24.785239 -10.972837 36.428318 -0.794514 1.876765 0.065001 -0.027921 314522.000000 0 0 1
23.809042 -24.070539 -12.078737 35.946589 -0.790860 1.913483 0.081735 -0.015351 383075.000000 0 0 1
22.949842 -24.872239 -13.160237 36.311367 -0.825575 1.941667 0.082148 -0.031407 406147.000000 0 0 1
23.647342 -25.927439 -13.789937 37.703995 -0.831359 1.945226 0.079038 -0.026660 86092.000000 0 0 1
23.146042 -27.198239 -13.422437 38.152920 -0.865715 1.930296 0.079907 -0.004301 -78726.500000 0 0 1
24.000542 -28.394739 -13.913037 39.697101 -0.869069 1.928880 0.073035 -0.016078 -186378.000000 0 0 1
23.837242 -28.602939 -15.315937 40.260653 -0.876028 1.961046 0.085058 -0.013306 313033.000000 0 0 1
24.177842 -29.917439 -15.596437 41.507470 -0.891104 1.956002 0.058014 -0.000411 -202903.000000 0 0 1
24.359342 -30.110439 -17.108237 42.340381 -0.890592 1.986752 0.069262 -0.012354 -271562.000000 0 0 1
23.139842 -30.085639 -17.804637 41.923777 -0.915162 2.009417 0.082015 -0.013603 63814.300000 0 0 1
23.226442 -30.448439 -19.186037 42.833154 -0.919146 2.035239 0.082121 -0.017327 213768.000000 0 0 1
21.881042 -30.008139 -19.815137 42.094039 -0.940760 2.060920 0.066899 -0.016456 323555.000000 0 0 1
21.891642 -30.247339 -21.214437 42.944125 -0.944305 2.087482 0.065725 -0.011582 499434.000000 0 0 1
20.561242 -29.932139 -21.612037 42.258464 -0.968897 2.107639 0.071282 -0.022875 165926.000000 0 0 1
20.107242 -30.267839 -23.043437 43.028401 -0.984427 2.135944 0.065178 -0.022973 -411086.000000 0 0 1
20.407542 -29.238039 -23.973937 42.966038 -0.961428 2.162739 0.067263 -0.019834 400033.000000 0 0 1
20.330342 -29.652039 -25.333307 43.981163 -0.969780 2.184628 0.073288 -0.022667 -383412.000000 0 0 1
20.918442 -28.654439 -26.341387 44.187405 -0.940203 2.209467 0.070059 -0.025485 244861.000000 0 0 1
20.059642 -27.520839 -26.486127 43.142795 -0.940944 2.231811 0.084776 -0.029064 663707.000000 0 0 1
18.957442 -27.755739 -27.366467 43.343849 -0.971564 2.254129 0.099352 -0.033142 -85360.600000 0 0 1
18.205742 -26.499439 -27.726997 42.455338 -0.968832 2.282449 0.087588 -0.035246 109749.000000 0 0 1
17.356942 -26.004439 -26.651327 41.082692 -0.982244 2.276703 0.067708 -0.024335 469101.000000 0 0 1
16.909242 -24.685739 -27.070337 40.349862 -0.970222 2.306205 0.050659 -0.005084 -304149.000000 0 0 1
15.780642 -24.114539 -26.213317 38.957383 -0.991332 2.308880 0.056294 -0.006215 409578.000000 0 0 1
14.595742 -24.926239 -26.351507 39.099297 -1.041064 2.310357 0.078907 -0.015293 84284.300000 0 0 1
13.427542 -24.527839 -25.695037 37.975633 -1.069920 2.313958 0.062555 -0.014868 -113629.000000 0 0 1
13.348342 -24.699039 -24.118737 37.012623 -1.075323 2.280535 0.049703 -0.009165 -176061.000000 0 0 1
14.234842 -23.866439 -23.350137 36.296922 -1.033000 2.269609 0.042227 -0.007642 -31521.200000 0 0 1
14.626042 -24.513139 -22.176937 36.147360 -1.032835 2.231300 0.050592 -0.015856 -137054.000000 0 0 1
15.667542 -23.757539 -21.342137 35.572171 -0.987788 2.214256 0.036358 -0.017190 -218061.000000 0 0 1
15.322542 -22.616439 -20.646137 34.242468 -0.975334 2.217977 0.031797 -0.021397 431032.000000 0 0 1
16.525942 -21.988239 -20.165437 34.106221 -0.926284 2.203409 0.033716 -0.012287 586463.000000 0 0 1
16.299542 -20.508239 -19.667037 32.757523 -0.899246 2.214775 0.035081 0.007993 240898.000000 0 0 1
15.677242 -20.467939 -18.365937 31.654701 -0.917171 2.189766 0.047375 -0.011816 516005.000000 0 0 1
14.284742 -20.221439 -18.541937 30.931600 -0.955777 2.213610 0.035470 -0.007509 254477.000000 0 0 1
13.494742 -19.921339 -17.226737 29.592707 -0.975399 2.192139 0.042328 -0.010471 119256.000000 0 0 1
13.716442 -18.614939 -16.690637 28.517260 -0.935764 2.196024 0.058196 -0.018098 214285.000000 0 0 1
12.986542 -18.525039 -15.484937 27.415518 -0.959382 2.171016 0.046706 -0.019963 -131159.000000 0 0 1
13.212242 -17.215939 -14.717037 26.221043 -0.916225 2.166714 0.047101 -0.021560 -553869.000000 0 0 1
12.406942 -16.202639 -15.270137 25.487935 -0.917300 2.213188 0.058524 -0.033119 353596.000000 0 0 1
12.610542 -14.949139 -14.602137 24.407477 -0.870051 2.212130 0.058521 -0.035404 314468.000000 0 1 0
11.223242 -14.320339 -14.283237 23.131021 -0.906057 2.236347 0.052197 -0.025696 502520.000000 0 1 0
10.478442 -14.021339 -15.457537 23.352327 -0.929012 2.294183 0.067449 -0.014215 491831.000000 0 1 0
9.077642 -13.873139 -15.185737 22.482753 -0.991382 2.312357 0.059579 -0.008042 1081440.000000 0 1 0
8.253742 -13.554039 -16.471737 22.872568 -1.023821 2.374818 0.051488 0.006715 21945.200000 0 1 0
8.532642 -12.341839 -17.132537 22.773906 -0.965893 2.422324 0.043776 0.003617 371569.000000 0 1 0
9.740142 -12.378839 -17.918137 23.857193 -0.904133 2.420459 0.064420 -0.003821 687669.000000 0 1 0
9.895642 -11.116639 -18.813737 23.988750 -0.843442 2.472320 0.068622 -0.011164 273527.000000 0 1 0
9.032842 -11.220939 -19.949037 24.606215 -0.893015 2.516197 0.072127 -0.011300 417882.000000 0 1 0
9.007742 -9.995339 -20.648837 24.645907 -0.837322 2.564074 0.052288 -0.014814 -55597.300000 0 1 0
8.878842 -10.152439 -22.177637 25.956761 -0.852220 2.595205 0.067969 -0.010221 85123.500000 0 0 1
10.002642 -10.720339 -22.841837 27.142735 -0.820017 2.570934 0.085864 -0.018849 -149100.000000 0 0 1
10.041242 -10.646239 -24.247137 28.321240 -0.814634 2.598562 0.070238 -0.012979 -18276.000000 0 0 1
11.275142 -11.379739 -24.819737 29.540593 -0.790015 2.568431 0.105648 -0.018067 -63130.700000 0 0 1
11.290442 -12.769239 -24.578337 29.910236 -0.846785 2.535248 0.104735 -0.024015 16329.000000 0 0 1
12.421742 -13.371339 -25.178557 31.097462 -0.822197 2.514379 0.087398 -0.031832 168874.000000 0 0 1
12.315642 -14.874939 -24.898137 31.509619 -0.879246 2.481892 0.080960 -0.025734 -182086.000000 0 0 1
11.338442 -15.580039 -25.603487 32.044289 -0.941685 2.496432 0.092187 -0.029925 -434019.000000 0 0 1
11.142442 -16.844439 -25.018637 32.153093 -0.986386 2.462447 0.086315 -0.028925 -620299.000000 0 0 1
9.915342 -17.554339 -25.528077 32.529242 -1.056633 2.473126 0.099533 -0.035898 -550697.000000 0 0 1
10.058242 -18.116439 -26.784797 33.864420 -1.063970 2.483144 0.100637 -0.042746 359472.000000 0 0 1
8.853642 -18.811239 -27.144187 34.191470 -1.130897 2.487972 0.105202 -0.040661 420899.000000 0 0 1
9.031942 -19.922139 -28.242117 35.722329 -1.145150 2.482587 0.083000 -0.031924 -140730.000000 0 0 1
9.946442 -20.960739 -27.906897 36.291586 -1.127734 2.448014 0.076348 -0.028182 107389.000000 0 0 1
9.662142 -22.110739 -28.653777 37.460389 -1.158815 2.441696 0.072684 -0.019580 -248414.000000 0 0 1
10.653742 -23.267939 -28.564357 38.351294 -1.141415 2.411044 0.052962 -0.011702 -263507.000000 0 0 1
10.295942 -24.267339 -29.499877 39.562014 -1.169543 2.412324 0.062907 -0.011022 -186603.000000 0 0 1
10.918742 -25.474339 -29.312797 40.341058 -1.165866 2.384192 0.072158 -0.015639 -295946.000000 0 0 1
10.302042 -26.404639 -28.284057 40.041540 -1.198801 2.355150 0.071556 -0.016414 194243.000000 0 0 1
10.960342 -26.202639 -27.032507 39.210507 -1.174621 2.331484 0.071064 -0.017380 189242.000000 0 0 1
10.148242 -26.491739 -25.872107 38.394856 -1.204968 2.310194 0.050931 -0.018935 762711.000000 0 0 1
9.227942 -25.359039 -25.353287 37.027354 -1.221800 2.325013 0.045452 -0.015654 578358.000000 0 0 1
10.071342 -24.421839 -24.718237 36.178024 -1.179654 2.322986 0.037816 -0.012124 209618.000000 0 0 1
9.417642 -23.197839 -24.828837 35.260500 -1.185153 2.352028 0.047637 -0.016037 408917.000000 0 0 1
10.429442 -22.009839 -24.620837 34.632238 -1.128284 2.361605 0.080944 -0.021840 527589.000000 0 0 1
10.847342 -21.839739 -23.293437 33.722741 -1.109809 2.333300 0.066354 -0.026103 718092.000000 0 0 1
12.057442 -21.069439 -23.141337 33.538406 -1.051015 2.332279 0.081976 -0.034375 676581.000000 0 0 1
12.406442 -20.803339 -21.658337 32.492804 -1.033052 2.300378 0.063351 -0.014958 -216466.000000 0 0 1
11.547842 -19.909839 -20.958537 31.129000 -1.045207 2.309432 0.050629 -0.008100 41376.600000 0 0 1
11.477342 -18.553739 -21.390337 30.553513 -1.016813 2.346326 0.064302 -0.015794 605812.000000 0 0 1
12.791242 -17.724939 -21.088737 30.373083 -0.945686 2.338275 0.076216 -0.016370 949277.000000 0 0 1
13.837442 -18.022739 -21.995137 31.624042 -0.916015 2.339939 0.074359 -0.010563 -289015.000000 0 0 1
14.842342 -17.047439 -21.856437 31.442235 -0.854436 2.339397 0.072761 -0.005402 187768.000000 0 0 1
16.045542 -17.031439 -22.845637 32.702485 -0.815195 2.344222 0.036830 0.006455 409803.000000 0 0 1
17.093242 -17.866439 -22.371537 33.344779 -0.807511 2.306239 0.040947 0.019909 446742.000000 0 0 1
18.338342 -17.372839 -22.866837 34.073488 -0.758368 2.306493 0.034397 0.019583 -58639.600000 0 0 1
19.557742 -17.673639 -22.024037 34.349979 -0.734836 2.266813 0.019010 0.020202 -428062.000000 0 0 1
19.930542 -19.029239 -22.056137 35.296057 -0.762268 2.245786 0.023177 0.011355 459416.000000 0 0 1
21.151042 -19.304439 -21.361937 35.726186 -0.739785 2.211719 0.032028 0.008116 534990.000000 0 0 1
21.369842 -20.808539 -21.175737 36.579739 -0.772091 2.188166 0.037297 -0.003162 -434721.000000 0 0 1
20.572242 -21.390539 -20.183237 35.890603 -0.804896 2.168027 0.047826 -0.001865 81222.600000 0 0 1
20.653142 -22.825139 -20.259237 36.850725 -0.835313 2.152879 0.064609 -0.018679 -58660.900000 0 0 1
-16.941337 13.006265 28.103046 35.298060 -0.654748 0.649867 0.038770 -0.020025 -91032.900000 0 0 1
-18.125537 13.761065 27.997156 36.079672 -0.649369 0.682527 0.033097 -0.020449 -41933.300000 0 0 1
-18.670337 13.501065 26.702706 35.268892 -0.626081 0.711906 0.044581 -0.012983 165636.000000 0 0 1
-19.873937 14.402465 26.327796 35.993850 -0.627106 0.750347 0.062153 -0.013934 187756.000000 0 0 1
-19.478137 15.733665 26.166376 36.216367 -0.679455 0.763383 0.048283 -0.005941 -454379.000000 0 0 1
-20.541037 16.512965 25.729426 36.832263 -0.677115 0.797418 0.043944 -0.003005 -1183020.000000 0 0 1
-20.455137 17.919365 26.232776 37.784584 -0.719414 0.803389 0.040586 -0.000068 724690.000000 0 0 1
-19.317137 18.651065 25.734406 37.192387 -0.767857 0.806642 0.036446 -0.003224 610086.000000 0 0 1
-18.072337 18.382565 26.328046 36.846900 -0.793908 0.774851 0.028965 0.007310 -294884.000000 0 0 1
-16.888637 19.274165 25.873126 36.416180 -0.851269 0.780610 0.036409 0.002431 261432.000000 0 0 1
-17.131537 20.661765 25.937756 37.325129 -0.878537 0.802496 0.046538 -0.003716 -306290.000000 0 0 1
-16.032237 21.309065 25.371196 36.807696 -0.925782 0.810287 0.078606 -0.011195 -154561.000000 0 0 1
-16.096237 22.856365 25.282216 37.692078 -0.957234 0.835568 0.061445 -0.007485 1513.780000 0 0 1
-15.970637 23.578565 26.485736 38.890927 -0.975443 0.821633 0.053867 -0.004469 31956.300000 0 0 1
-16.172337 24.962865 26.105226 39.574890 -0.995930 0.850455 0.044795 -0.005618 53640.700000 0 0 1
-15.620037 26.045365 27.118416 40.715539 -1.030580 0.841901 0.036339 0.000926 201369.000000 0 0 1
-14.205237 26.139565 27.174356 40.292819 -1.073005 0.830615 0.050799 -0.008634 206009.000000 0 0 1
-13.839137 27.003865 28.266706 41.469713 -1.097209 0.820818 0.050864 -0.003719 125965.000000 0 0 1
-12.318937 27.108465 28.470616 41.197100 -1.144263 0.807810 0.063129 -0.014440 747355.000000 0 0 1
-11.490137 27.657665 27.435176 40.615989 -1.177050 0.829185 0.071245 -0.014569 501219.000000 0 0 1
-10.088937 27.542965 27.589416 40.268815 -1.219676 0.816013 0.056928 -0.011099 281612.000000 0 0 1
-9.337537 28.329465 26.460746 39.873792 -1.252405 0.845159 0.058741 -0.015517 1456170.000000 0 0 1
-7.922237 27.969065 26.392296 39.263007 -1.294776 0.833630 0.045521 -0.014745 1686360.000000 0 0 1
-7.290537 28.605565 25.304906 38.881468 -1.321245 0.862130 0.052346 -0.021890 839296.000000 0 0 1
-5.763337 28.248865 25.140576 38.252621 -1.369538 0.853665 0.044883 -0.022185 847147.000000 0 0 1
-4.884037 28.738265 26.161816 39.168639 -1.402456 0.839376 0.050288 -0.023109 1281800.000000 0 0 1
-3.472037 28.553565 25.936006 38.730318 -1.449793 0.837050 0.038870 -0.019524 1406930.000000 0 0 1
-2.851737 29.444865 24.802696 38.604484 -1.474247 0.873063 0.037223 -0.022091 -729068.000000 0 0 1
-3.047337 28.991865 23.453996 37.415297 -1.466071 0.893285 0.037769 -0.020885 -347.978000 0 0 1
-2.598537 30.055665 22.608866 37.699552 -1.484553 0.927655 0.037657 -0.019553 -73615.200000 0 0 1
-3.086837 29.859765 21.151066 36.721952 -1.467784 0.956995 0.033394 -0.010595 1250790.000000 0 0 1
-4.512037 29.978265 20.954366 36.852955 -1.421407 0.966001 0.024748 -0.000049 1103650.000000 0 0 1
-5.174837 28.710065 21.101866 36.004660 -1.392466 0.944575 0.038114 -0.000502 -867551.000000 0 0 1
-6.654737 28.656665 20.788666 36.023029 -1.342618 0.955631 0.029275 -0.003143 -1003720.000000 0 0 1
-6.994337 28.639965 19.434366 35.310946 -1.331269 0.987980 0.019612 0.004216 438782.000000 0 0 1
-7.916537 27.593465 19.110266 34.485840 -1.291402 0.983457 0.004869 0.007287 -496189.000000 0 0 1
-7.172537 26.242365 19.068666 33.222297 -1.303994 0.959448 -0.009977 0.012331 697570.000000 0 0 1
-6.278237 26.109365 17.933166 32.291077 -1.334817 0.982001 -0.000295 0.011872 579084.000000 0 0 1
-5.021537 26.741465 18.052866 32.653143 -1.385177 0.984995 0.013678 0.010214 -844959.000000 0 0 1
-4.250837 26.906765 16.777866 31.992818 -1.414107 1.018755 0.007956 0.006395 -232505.000000 0 0 1
-3.708637 25.710165 16.256666 30.643854 -1.427537 1.011602 0.022570 -0.001800 219610.000000 0 0 1
-2.951837 25.971465 15.064266 30.168899 -1.457625 1.047970 0.031765 -0.013553 97311.100000 0 0 1
-2.336937 24.723065 14.383066 28.697802 -1.476552 1.045822 0.021674 -0.006738 77444.000000 0 0 1
-1.177737 24.277165 15.044666 28.585132 -1.522322 1.016540 0.028523 -0.003457 -189063.000000 0 0 1
-0.563437 23.111565 14.611166 27.348639 -1.546422 1.007169 0.031431 -0.022234 -170820.000000 0 0 1
0.709563 22.712765 15.388066 27.443866 1.539566 0.975553 0.023982 -0.013762 635315.000000 0 0 1
1.777463 23.668065 15.201766 28.185641 1.495837 1.001138 0.037354 -0.022979 -210939.000000 0 0 1
2.914163 23.189065 15.827166 28.226305 1.445782 0.975536 0.040542 -0.025012 -970566.000000 0 0 1
4.093163 24.147065 15.813966 29.153323 1.402883 0.997456 0.045884 -0.026625 566588.000000 0 0 1
5.375863 23.495065 15.687866 28.758079 1.345860 0.993797 0.044361 -0.025486 994248.000000 0 0 1
6.418063 24.482465 15.594066 29.728060 1.314416 1.018601 0.054860 -0.025230 -932904.000000 0 0 1
7.766863 23.833565 15.695466 29.575507 1.255769 1.011380 0.056656 -0.022031 -1163460.000000 0 0 1
8.200163 23.243665 14.474166 28.583424 1.231637 1.039811 0.046521 -0.020741 294748.000000 0 0 1
9.145163 24.122165 13.841566 29.276301 1.208420 1.078341 0.053882 -0.017537 -22882.300000 0 0 1
9.865063 23.472765 12.613466 28.414604 1.172933 1.110841 0.041610 -0.013560 -477956.000000 0 0 1
10.801563 22.488565 12.960566 28.113797 1.123022 1.091670 0.049682 -0.016527 -407777.000000 0 0 1
11.612363 22.174065 11.863866 27.699954 1.088376 1.128187 0.065597 -0.012386 -231186.000000 0 0 1
12.768563 21.295865 12.326166 27.721552 1.030686 1.110022 0.055918 -0.015650 -366214.000000 0 0 1
12.284763 20.013465 12.407166 26.559216 1.020273 1.084730 0.058232 -0.014078 574519.000000 0 0 1
13.333663 19.036765 12.590766 26.433168 0.959791 1.074327 0.064361 -0.022535 529990.000000 0 0 1
13.606563 18.753365 14.053066 27.098264 0.943126 1.025588 0.062670 -0.025137 -702774.000000 0 0 1
14.758163 17.983565 14.165566 27.237387 0.883592 1.023854 0.070523 -0.030595 -195279.000000 0 0 1
15.253363 18.011865 15.542166 28.260419 0.868133 0.988477 0.061341 -0.030422 120469.000000 0 0 1
16.360263 16.953265 15.730866 28.328988 0.803197 0.982082 0.043408 -0.034210 -353467.000000 0 0 1
16.907963 16.918365 17.030966 29.362631 0.785706 0.952041 0.054984 -0.040576 -851399.000000 0 0 1
17.981563 16.071565 16.838866 29.413929 0.729368 0.961270 0.041809 -0.041817 -815621.000000 0 0 1
18.510963 15.642665 18.248766 30.337537 0.701613 0.925388 0.041922 -0.035848 -413809.000000 0 0 1
19.115663 16.721665 18.956266 31.691681 0.718695 0.929610 0.038168 -0.023406 240409.000000 0 0 1
18.307363 17.703865 19.602066 32.137632 0.768641 0.914810 0.035602 -0.021138 -346533.000000 0 0 1
19.085263 18.567165 20.617266 33.675786 0.771639 0.911921 0.018366 -0.013240 -3979.310000 0 0 1
18.276163 19.630065 21.150966 34.157297 0.821100 0.903044 0.030972 -0.017551 251078.000000 0 0 1
18.975263 20.427265 22.054866 35.549274 0.822232 0.901540 0.027323 -0.012776 -172358.000000 0 0 1
18.127063 21.588165 22.585266 36.121095 0.872327 0.895325 0.033809 -0.009808 659820.000000 0 0 1
16.959563 21.220265 23.320686 35.801967 0.896534 0.861395 0.026034 -0.012815 434976.000000 0 0 1
16.127863 22.268665 23.732546 36.321277 0.943986 0.858721 0.030109 -0.016727 265673.000000 0 0 1
15.464163 21.964265 25.104736 36.767065 0.957351 0.819201 0.033382 -0.014572 -119311.000000 0 0 1
14.619263 20.852665 25.126506 35.775659 0.959350 0.792124 0.034332 -0.009807 -422794.000000 0 0 1
14.158163 20.628665 26.426786 36.391900 0.969301 0.758059 0.035730 -0.006249 377697.000000 0 0 1
13.214763 19.340665 26.471176 35.347057 0.971392 0.724406 0.064246 -0.001973 524193.000000 0 0 1
13.811163 18.057165 26.280586 34.748793 0.917854 0.713154 0.037121 -0.010011 31396.800000 0 0 1
14.447063 17.731565 25.021386 33.899790 0.887117 0.740549 0.038006 -0.013053 369810.000000 0 0 1
13.526163 17.421765 23.750716 32.412520 0.910616 0.748422 0.062382 -0.013710 529.462000 0 0 1
13.049663 18.544865 22.994766 32.294968 0.957604 0.778421 0.066213 -0.010430 -69980.500000 0 0 1
13.941663 19.328165 22.192166 32.564400 0.945909 0.821006 0.045858 -0.014616 71607.300000 0 0 1
14.571163 18.469765 21.049366 31.567813 0.902848 0.840892 0.052179 -0.017103 8491.790000 0 0 1
13.618463 18.039265 20.080866 30.234397 0.924145 0.844410 0.068806 -0.020164 248174.000000 0 0 1
14.133863 17.042265 19.212666 29.314355 0.878418 0.856083 0.057035 -0.026665 813034.000000 0 0 1
12.984263 16.334065 18.351166 27.787732 0.899161 0.849438 0.057457 -0.020025 802194.000000 0 0 1
12.421863 17.188665 17.361966 27.407859 0.945012 0.884771 0.070358 -0.026063 275235.000000 0 0 1
11.346063 16.458465 16.761066 26.087306 0.967237 0.873041 0.058723 -0.026143 156973.000000 0 0 1
10.781163 17.054865 15.473866 25.427198 1.007075 0.916557 0.055835 -0.025277 -251006.000000 0 0 1
10.001263 18.215565 15.687966 26.037364 1.068682 0.924145 0.058546 -0.022867 89435.900000 0 0 1
9.706863 18.799465 14.422866 25.605900 1.094165 0.972466 0.038998 -0.016925 -428456.000000 0 0 1
8.604363 19.859365 14.434766 26.015225 1.161946 0.982604 0.042362 -0.015832 -249232.000000 0 0 1
7.341663 19.391765 14.862466 25.511438 1.208876 0.948896 0.025572 -0.019914 326599.000000 0 0 1
6.446163 20.541965 14.965666 26.220155 1.266723 0.963354 0.035768 -0.018950 864231.000000 0 0 1
5.115963 20.120865 15.657366 26.003373 1.321811 0.924632 0.039922 -0.024048 667027.000000 0 0 1
4.206663 19.273165 14.938766 24.745053 1.355901 0.922653 0.029557 -0.029281 76183.900000 0 1 0
3.157763 18.684965 15.652566 24.578491 1.403378 0.880404 0.017914 -0.026780 -398282.000000 0 1 0
1.985663 18.245565 14.801066 23.577851 1.462393 0.892133 0.018638 -0.025774 -391755.000000 0 1 0
1.340663 19.364165 14.180666 24.038710 1.501672 0.939849 0.018287 -0.027473 -887528.000000 0 1 0
0.354963 18.778565 13.422366 23.085069 1.551896 0.950310 0.018207 -0.029745 -237147.000000 0 1 0
-0.590537 19.732065 12.582766 23.410022 -1.540877 1.003333 0.028795 -0.031726 234529.000000 0 1 0
-1.615537 20.370365 13.264066 24.361798 -1.491654 0.995049 0.027967 -0.025678 -412799.000000 0 1 0
-2.687737 20.622665 12.362166 24.193830 -1.441198 1.034491 0.030171 -0.027794 652866.000000 0 1 0
-3.865837 21.453365 12.950566 25.355645 -1.392512 1.034732 0.025192 -0.019007 439145.000000 0 0 1
-4.724037 20.777965 13.833466 25.404825 -1.347239 0.994978 0.029571 -0.019798 282843.000000 0 0 1
-5.790237 21.614165 14.307566 26.559470 -1.309051 1.001904 0.013955 -0.002829 505640.000000 0 0 1
-6.741137 20.945065 15.346466 26.826343 -1.259418 0.961773 0.007326 -0.005544 -425742.000000 0 0 1
-7.529637 19.880065 14.899166 25.959537 -1.208739 0.959490 0.017906 -0.009881 -220573.000000 0 0 1
-8.091837 19.057765 15.889866 26.099120 -1.169269 0.916214 0.016371 0.003843 338599.000000 0 0 1
-9.309937 19.607265 16.691866 27.381347 -1.127494 0.915231 0.012195 0.007683 -156000.000000 0 0 1
-10.481237 19.602165 15.917066 27.339609 -1.079777 0.949367 0.012041 -0.002071 -86718.700000 0 0 1
-11.636637 19.931965 16.692566 28.483966 -1.042360 0.944641 0.013502 0.005607 340794.000000 0 0 1
-12.931437 19.926065 15.856166 28.560254 -0.995145 0.982213 0.013374 -0.009984 -369741.000000 0 0 1
-12.993237 20.975465 14.836466 28.790885 -1.016198 1.029417 0.004629 0.001137 -226345.000000 0 0 1
-13.867137 20.547665 13.833366 28.387780 -0.977131 1.061801 0.006088 -0.007809 69966.500000 0 0 1
-15.020237 21.591665 13.603366 29.611807 -0.962996 1.093488 -0.004735 -0.000464 -174336.000000 0 0 1
-15.953637 21.618465 14.603166 30.579879 -0.935043 1.072942 -0.020032 -0.004425 -595207.000000 0 0 1
-16.909337 22.649365 14.524566 31.778648 -0.929494 1.096116 0.007601 -0.014564 -137188.000000 0 0 1
-18.168937 22.471065 15.363366 32.727543 -0.890865 1.082149 0.074611 -0.030349 -999713.000000 0 0 1
-19.050737 21.471465 14.898866 32.340850 -0.845066 1.092032 0.064717 -0.028185 328286.000000 0 0 1
-20.156237 21.274365 15.774366 33.282174 -0.812380 1.077016 0.069048 -0.020448 906745.000000 0 0 1
-21.296537 22.352665 15.858166 34.708292 -0.809589 1.096291 0.067718 -0.022040 -173503.000000 0 0 1
-22.230837 22.415165 14.771866 34.854810 -0.789527 1.133147 0.072335 -0.019356 309043.000000 0 0 1
-22.987337 23.599965 14.849566 36.137040 -0.798548 1.147329 0.097545 -0.030345 -283342.000000 0 0 1
-22.385237 24.791465 14.121466 36.264740 -0.836359 1.170817 0.092755 -0.028008 -1194990.000000 0 0 1
-21.155337 25.227065 14.545966 35.993586 -0.872960 1.154773 0.069983 -0.036064 -862873.000000 0 0 1
-20.786837 26.264865 13.639766 36.165992 -0.901302 1.184086 0.053491 -0.026902 453787.000000 0 0 1
-19.289537 26.725465 13.781266 35.724782 -0.945611 1.174763 0.043035 -0.020646 240320.000000 0 0 1
-18.441137 25.926665 13.042166 34.385543 -0.952539 1.181765 0.036212 -0.012275 -1112040.000000 0 0 1
-17.173237 26.505665 13.054666 34.174474 -0.995893 1.178836 -0.013457 -0.007031 -240571.000000 0 0 1
-16.103637 25.689765 12.242566 32.698189 -1.010868 1.187035 -0.005093 -0.008076 287466.000000 0 0 1
-14.778637 26.025465 12.549866 32.453537 -1.054350 1.173743 -0.010040 -0.003293 -35847.800000 0 0 1
-13.813037 25.601365 11.590866 31.314183 -1.076017 1.191629 -0.011310 -0.013079 274103.000000 0 0 1
-12.424737 26.142265 12.009766 31.337304 -1.127125 1.177493 -0.006163 -0.015669 -558016.000000 0 0 1
-11.355137 25.763765 11.172666 30.290910 -1.155669 1.193030 -0.005261 -0.012260 400806.000000 0 0 1
-10.078537 26.245965 11.539266 30.390496 -1.204156 1.181325 0.011561 -0.012175 236475.000000 0 0 1
-9.833037 27.728265 11.135566 31.457052 -1.230010 1.208960 0.028857 -0.027967 -606249.000000 0 0 1
-8.506737 28.103665 11.424766 31.507235 -1.276872 1.199732 0.045270 -0.026026 197720.000000 0 0 1
-8.099337 29.359765 10.883166 32.342517 -1.301626 1.227602 0.057583 -0.030609 -93626.700000 0 0 1
-6.795637 29.924965 11.487966 32.766715 -1.347494 1.212586 0.049955 -0.023570 201069.000000 0 0 1
-5.666137 29.186065 11.109766 31.738910 -1.379043 1.213187 0.061246 -0.027941 -350690.000000 0 0 1
-4.475337 29.453565 11.815066 32.048977 -1.420004 1.193233 0.051517 -0.023435 -272144.000000 0 0 1
-3.232437 29.043765 11.056566 31.244785 -1.459957 1.209092 0.054360 -0.032734 -549992.000000 0 0 1
-2.866837 29.916665 9.971566 31.664771 -1.475261 1.250434 0.080671 -0.043967 672645.000000 0 0 1
-1.615637 29.541965 9.380566 31.037606 -1.516161 1.263763 0.045979 -0.043538 679561.000000 0 0 1
-1.344037 30.431265 8.142666 31.530483 -1.526659 1.309589 0.038492 -0.043020 -322438.000000 0 0 1
-2.123337 30.133565 7.035266 31.016694 -1.500448 1.341983 0.059053 -0.043359 -93802.300000 0 0 1
-2.078337 31.179265 6.062166 31.831053 -1.504237 1.379178 0.060882 -0.031584 -171848.000000 0 0 1
11.111663 33.923565 -25.995007 44.159005 1.254260 2.200207 0.112573 -0.047644 -557112.000000 0 0 1
11.789263 -33.991239 -24.839737 43.719602 -1.236946 2.175065 0.086093 -0.038969 99797.000000 0 0 1
12.787463 -33.023739 -25.148757 43.434394 -1.201355 2.188305 0.086490 -0.033347 -173465.000000 0 0 1
13.614063 -32.726639 -23.901437 42.751074 -1.176579 2.164077 0.072262 -0.023938 -784289.000000 0 0 1
12.806163 -32.203139 -22.869837 41.521915 -1.192302 2.154106 0.072149 -0.023252 358572.000000 0 0 1
13.329363 -32.425439 -21.567837 41.161300 -1.180777 2.122317 0.054060 -0.018878 198930.000000 0 0 1
14.716063 -31.906039 -21.070137 40.969605 -1.138642 2.110972 0.031377 -0.017408 252361.000000 0 0 1
15.757963 -32.553339 -21.719237 42.187185 -1.119977 2.111606 0.057067 -0.008642 1022210.000000 0 0 1
17.122663 -32.237239 -21.292537 42.258695 -1.082544 2.098860 0.042639 -0.006131 1796970.000000 0 0 1
18.043263 -33.474639 -21.458237 43.664250 -1.076428 2.084536 0.027344 -0.007293 1385890.000000 0 0 1
19.465163 -33.246039 -21.214437 43.980041 -1.041116 2.074149 0.045264 -0.003434 1700620.000000 0 0 1
20.165563 33.815865 -21.211837 44.722530 1.033077 2.064964 0.028098 0.000621 143212.000000 0 0 1
21.693063 34.039665 -21.166137 45.577332 1.003410 2.053754 0.060867 0.005794 152355.000000 0 0 1
22.380163 -33.939439 -22.366537 46.400638 -0.987831 2.073767 0.046985 0.003117 510390.000000 0 0 1
23.774863 34.126265 -22.307737 47.196199 0.962306 2.063103 0.036689 0.007667 512796.000000 0 0 1
24.591763 -33.696139 -23.563437 47.910543 -0.940343 2.084977 0.056717 -0.001176 256756.000000 0 0 1
24.977463 -32.319039 -23.559737 47.153528 -0.912837 2.093978 0.060215 -0.003754 269878.000000 0 0 1
23.900863 -31.408139 -23.816837 46.097334 -0.920307 2.113746 0.044903 -0.000840 182950.000000 0 0 1
24.061463 -29.936139 -23.442037 44.996172 -0.893767 2.118793 0.048938 -0.021389 -534289.000000 0 0 1
24.695563 -29.166039 -24.405037 45.344619 -0.868208 2.139111 0.038319 -0.023261 -216716.000000 0 0 1
24.852363 -27.822039 -23.931637 44.321880 -0.841717 2.141175 0.054405 -0.017986 114674.000000 0 0 1
25.486563 -26.977439 -25.029637 44.764158 -0.813808 2.164150 0.048405 -0.015610 247958.000000 0 0 1
24.506163 -26.766039 -26.036357 44.663909 -0.829446 2.193138 0.036159 -0.014535 -160353.000000 0 0 1
25.122763 -26.362939 -27.211867 45.460351 -0.809481 2.212529 0.026955 -0.012293 -258592.000000 0 0 1
24.176963 -26.018639 -28.415787 45.485735 -0.822072 2.245568 0.035968 -0.014997 526777.000000 0 0 1
23.436363 -24.798039 -28.339867 44.354864 -0.813621 2.263909 0.051540 -0.017339 937571.000000 0 0 1
22.212263 -24.953539 -27.581967 43.322381 -0.843453 2.260966 0.050305 -0.016481 225450.000000 0 0 1
21.342663 -23.738139 -27.427057 42.086245 -0.838486 2.280603 0.047852 -0.013816 -273807.000000 0 0 1
20.982263 -23.024139 -28.626717 42.306681 -0.831764 2.313996 0.062923 -0.012632 161366.000000 0 0 1
20.382463 -21.822539 -28.210927 41.079489 -0.819506 2.327791 0.042126 0.003074 -111112.000000 0 0 1
19.351063 -21.368639 -29.283507 41.092654 -0.834906 2.364024 0.054967 -0.007846 1073100.000000 0 0 1
18.170063 -22.197639 -29.400627 41.076554 -0.884841 2.368497 0.058945 -0.015961 1605840.000000 0 0 1
17.044663 -21.512239 -29.986807 40.651022 -0.900753 2.400401 0.048672 -0.018190 1657760.000000 0 0 1
15.691763 -22.342039 -29.935087 40.515523 -0.958500 2.402166 0.047571 -0.019162 711018.000000 0 0 1
15.719763 -23.499739 -30.720657 41.750539 -0.981226 2.397665 0.059315 -0.020092 -124676.000000 0 0 1
14.776863 -24.459639 -30.336747 41.676706 -1.027344 2.386060 0.065889 -0.023059 -244959.000000 0 0 1
15.064663 -25.879139 -30.947037 43.062664 -1.043631 2.372657 0.087209 -0.028011 228102.000000 0 0 1
14.226763 -26.857439 -30.336077 42.941826 -1.083661 2.355260 0.093989 -0.025412 278225.000000 0 0 1
14.558463 -28.148239 -30.795387 44.188552 -1.093478 2.341874 0.147343 -0.030953 -77328.700000 0 0 1
13.753463 -29.185239 -30.041627 44.084411 -1.130414 2.320548 0.139071 -0.038065 -369498.000000 0 0 1
14.151263 -29.528039 -28.710557 43.548357 -1.123887 2.290657 0.152708 -0.045304 -140605.000000 0 0 1
14.149063 -28.506539 -27.761477 42.231722 -1.110077 2.288107 0.123123 -0.036469 14103.500000 0 0 1
15.199663 -28.798539 -26.649137 42.078048 -1.085162 2.256640 0.095505 -0.024704 -173531.000000 0 0 1
14.926663 -29.836739 -25.718427 42.124503 -1.106926 2.227531 0.100558 -0.031533 -64233.700000 0 0 1
15.662463 -29.794239 -24.516737 41.642284 -1.086810 2.200303 0.095626 -0.040118 -1267650.000000 0 0 1
15.421663 -28.580039 -23.559037 40.120750 -1.075976 2.198396 0.079858 -0.035290 730510.000000 0 0 1
14.182963 -28.538439 -22.839037 39.207405 -1.109570 2.192620 0.073480 -0.034677 560047.000000 0 0 1
13.047163 -28.345339 -23.666737 39.163774 -1.139416 2.219686 0.067645 -0.026323 -786881.000000 0 0 1
11.757563 -28.184939 -22.836837 38.133348 -1.175587 2.212883 0.031418 -0.014158 -174402.000000 0 0 1
11.707463 -26.940639 -22.211737 36.826947 -1.160852 2.218226 0.019555 -0.012727 -628403.000000 0 0 1
10.496463 -26.677439 -21.605737 35.898041 -1.195942 2.216629 0.023149 -0.010573 -1149320.000000 0 0 1
10.164963 -25.159039 -21.338237 34.519909 -1.186822 2.237174 0.022433 -0.005799 79532.300000 0 0 1
10.840363 -24.657739 -20.189937 33.662310 -1.156597 2.214021 0.016798 -0.003270 10572.900000 0 0 1
10.482963 -23.290739 -20.090137 32.495610 -1.147866 2.237300 0.025182 -0.005607 -254483.000000 0 0 1
10.893163 -22.507139 -18.825137 31.298851 -1.120041 2.216129 0.009690 -0.005148 -231456.000000 0 0 1
10.157463 -22.974739 -17.745837 30.755933 -1.154519 2.185834 0.020706 -0.010607 -54396.100000 0 0 1
10.219663 -22.109239 -16.626837 29.490875 -1.137815 2.169771 0.019094 -0.008428 49093.200000 0 0 1
9.512463 -22.607439 -15.299437 28.907716 -1.172517 2.128514 0.010869 0.000261 130897.000000 0 0 1
9.972363 -23.808639 -14.703137 29.706591 -1.174142 2.088568 0.014643 0.000455 15220.500000 0 0 1
9.337463 -24.130239 -13.444537 29.158399 -1.201581 2.050015 0.015627 -0.002240 72513.800000 0 0 1
9.319563 -25.603339 -13.103337 30.233800 -1.221706 2.019059 0.036797 -0.008267 -21333.000000 0 0 1
10.559863 -26.121439 -12.690837 30.901418 -1.186623 1.994005 0.041308 -0.013398 -237412.000000 0 0 1
10.869463 -27.379039 -13.232637 32.293338 -1.192879 1.992991 0.046658 -0.019024 -991262.000000 0 0 1
12.109563 -28.035339 -12.562737 33.021873 -1.163063 1.961065 0.051240 -0.012434 559571.000000 0 0 1
13.392163 -27.617739 -13.007537 33.335950 -1.119292 1.971640 0.045868 -0.006197 141150.000000 0 0 1
13.647063 -27.634339 -14.379637 34.009896 -1.112085 2.007337 0.047771 -0.008655 -1728090.000000 0 0 1
15.071363 -27.258939 -14.799237 34.484970 -1.065732 2.014348 0.041411 -0.006664 -412417.000000 0 0 1
16.031763 -28.241139 -14.519537 35.572410 -1.054485 1.991243 0.062725 -0.010796 -354980.000000 0 0 1
17.246563 -27.794139 -15.095837 36.025580 -1.015432 2.003174 0.084628 -0.019653 464704.000000 0 0 1
18.480363 -28.720339 -14.882437 37.254109 -0.999033 1.981751 0.076746 -0.015914 409390.000000 0 0 1
18.494263 -29.866139 -15.714637 38.483423 -1.016351 1.991440 0.061336 -0.010285 110324.000000 0 0 1
19.792863 -30.367039 -16.040037 39.638331 -0.993165 1.987403 0.065847 -0.011283 619354.000000 0 0 1
19.898263 -31.476139 -17.071837 40.965056 -1.007058 2.000654 0.066024 -0.011354 -30722.600000 0 0 1
19.785263 -32.757839 -16.529537 41.686428 -1.027451 1.978520 0.037976 0.000922 -2680.600000 0 0 1
20.349263 -33.636239 -17.488237 43.027056 -1.026723 1.989359 0.039779 0.001429 129093.000000 0 0 1
20.298763 33.180365 -17.151137 42.510445 1.021767 1.986088 0.023189 -0.002525 34995.700000 0 0 1
21.314363 32.780265 -16.255837 42.345013 0.994267 1.964802 0.031004 -0.005423 70118.300000 0 0 1
21.206363 31.405165 -16.010737 41.138035 0.976874 1.970554 0.032296 -0.013071 -44495.400000 0 0 1
22.091063 30.941565 -14.818937 40.804368 0.950762 1.942465 0.023273 -0.016437 -107270.000000 0 0 1
23.477463 30.889965 -15.098437 41.633449 0.920904 1.941908 0.023998 -0.010761 -356703.000000 0 0 1
24.334663 30.488865 -14.111837 41.483619 0.897185 1.917903 0.027381 -0.012204 -612156.000000 0 0 1
24.071563 29.269465 -13.247237 40.145125 0.882538 1.907083 0.017023 -0.000483 -1655630.000000 0 0 1
24.048263 28.096065 -14.121037 39.586760 0.862870 1.935541 0.027346 0.006890 206462.000000 0 0 1
23.591663 26.972565 -13.321037 38.230039 0.852162 1.926707 0.022012 0.006054 20185.800000 0 0 1
22.089563 26.954165 -12.957237 37.180180 0.884264 1.926765 0.015860 -0.003931 -838515.000000 0 0 1
21.316963 26.660365 -14.093837 36.929991 0.896315 1.962363 0.021526 -0.010981 -728932.000000 0 0 1
19.938363 26.665665 -13.894337 36.078368 0.928758 1.966129 0.043026 -0.021230 -464256.000000 0 0 1
19.150363 28.006065 -13.857537 36.648430 0.971030 1.958562 0.055365 -0.016512 -362217.000000 0 0 1
19.206063 28.687265 -15.092537 37.677802 0.980836 1.982933 0.046421 -0.014494 218626.000000 0 0 1
18.512463 28.037465 -16.168537 37.285820 0.987231 2.019322 0.033015 -0.008261 -634514.000000 0 0 1
18.635963 28.813965 -17.466837 38.504988 0.996696 2.041625 0.021961 -0.003070 -433829.000000 0 0 1
17.940863 30.010065 -17.469737 39.085423 1.031975 2.034164 0.023975 -0.006955 -209753.000000 0 0 1
17.957763 30.629065 -18.773337 40.162907 1.040513 2.057177 0.017192 0.000652 229167.000000 0 0 1
16.839263 31.731165 -18.905637 40.593728 1.082903 2.055253 0.011204 0.008543 407723.000000 0 0 1
17.007863 32.978565 -18.190337 41.324830 1.094648 2.026595 0.014820 -0.001099 235353.000000 0 0 1
15.917963 33.864665 -18.443037 41.717415 1.131397 2.028729 0.018858 -0.007287 223676.000000 0 0 1
15.886863 -33.267639 -17.495437 40.807090 -1.125272 2.013889 0.031355 -0.001438 -736528.000000 0 0 1
14.866663 -32.426339 -17.833137 39.881147 -1.140917 2.034381 0.020771 0.001869 -792908.000000 0 0 1
14.744763 -31.409239 -16.862537 38.578407 -1.131894 2.023166 0.030534 -0.000967 -102621.000000 0 0 1
13.557363 -30.474539 -17.086137 37.475802 -1.152212 2.044207 0.034631 -0.003976 936386.000000 0 0 1
12.247563 -31.068139 -16.888337 37.422560 -1.195286 2.039004 0.030558 -0.009953 516995.000000 0 0 1
11.260463 -30.182439 -17.362337 36.595470 -1.213710 2.065124 0.017878 -0.000702 -597024.000000 0 0 1
10.032563 -30.993939 -17.709637 37.079750 -1.257746 2.068728 0.035426 -0.011440 -1876070.000000 0 0 1
9.384663 -31.647639 -16.611437 36.953820 -1.282521 2.037023 0.050981 -0.018018 192053.000000 0 0 1
8.166063 -32.258039 -16.941837 37.340213 -1.322857 2.041727 0.072003 -0.016373 268804.000000 0 0 1
6.970663 -31.471939 -17.523437 36.689834 -1.352827 2.068729 0.062608 -0.013728 -820866.000000 0 0 1
7.183563 -31.079939 -18.869037 37.062201 -1.343653 2.104956 0.042175 -0.009842 -217268.000000 0 0 1
7.038263 -32.032739 -19.905837 38.365035 -1.354512 2.116306 0.039569 -0.019385 -710343.000000 0 0 1
7.217463 -31.374939 -21.278637 38.590918 -1.344691 2.154826 0.028466 -0.007045 377788.000000 0 0 1
8.487963 -30.771339 -21.587037 38.534673 -1.301649 2.165421 0.031870 -0.020229 1631490.000000 0 0 1
9.575463 -31.666739 -21.976237 39.716834 -1.277155 2.157145 0.039696 -0.021715 561965.000000 0 0 1
9.389563 -32.575039 -23.219137 41.090454 -1.290159 2.171319 0.053021 -0.024994 -686748.000000 0 0 1
8.527163 -33.661539 -22.908937 41.600855 -1.322695 2.153980 0.061232 -0.034201 45950.300000 0 0 1
8.204963 33.721265 -23.929837 42.155454 1.332117 2.174453 0.074459 -0.039513 -532906.000000 0 0 1
7.141663 32.752865 -23.420037 40.893174 1.356110 2.180607 0.072501 -0.044127 808611.000000 0 0 1
5.768863 33.179565 -23.361937 40.987113 1.398649 2.177281 0.070970 -0.043296 835302.000000 0 0 1
5.397963 33.523865 -22.038237 40.480507 1.411148 2.146489 0.054929 -0.031217 -842491.000000 0 0 1
4.044763 -34.081239 -21.998337 40.765400 -1.452669 2.140797 0.057695 -0.018926 -1249070.000000 0 0 1
3.020463 33.320965 -22.277837 40.195920 1.480396 2.158236 0.058860 -0.028818 -216818.000000 0 0 1
1.877663 -34.146739 -22.492137 40.931915 -1.515864 2.152563 0.046312 -0.017894 196474.000000 0 0 1
0.457063 33.654765 -22.165637 40.300963 1.557216 2.153164 0.038735 -0.027248 148376.000000 0 0 1
0.298663 33.502065 -20.772337 39.420396 1.561882 2.125797 0.030787 -0.020188 127671.000000 0 0 1
-1.018137 33.096565 -20.403437 38.893695 -1.540043 2.123036 0.027744 -0.026404 663019.000000 0 0 1
-1.338737 33.313965 -18.888437 38.319519 -1.530632 2.086238 0.037896 -0.016089 -77822.200000 0 0 1
-0.464437 32.588465 -18.080737 37.271126 -1.556546 2.077290 0.057834 -0.037749 -321108.000000 0 0 1
-1.086537 32.101765 -16.896837 36.293347 -1.536963 2.055067 0.035185 -0.032215 -379275.000000 0 0 1
-0.091437 31.298065 -16.116237 35.203840 -1.567875 2.046313 0.018711 -0.033608 -200970.000000 0 0 1
1.002263 32.076665 -15.693737 35.724087 1.539561 2.025620 0.034451 -0.023756 -443016.000000 0 0 1
1.692863 31.323765 -14.715037 34.649335 1.516805 2.009410 0.061632 -0.009114 214773.000000 0 0 1
2.767563 32.006865 -13.837837 34.979774 1.484543 1.977512 0.068669 -0.016802 -483730.000000 0 0 1
3.917463 32.440665 -14.459437 35.732599 1.450620 1.987400 0.065159 -0.024128 -758607.000000 0 0 1
4.855763 32.966165 -13.544237 35.969332 1.424553 1.956865 0.070879 -0.032739 -292780.000000 0 0 1
6.161263 33.377765 -14.206237 36.794749 1.388259 1.967190 0.087681 -0.052725 -323070.000000 0 0 1
6.956163 32.267265 -14.561037 36.077534 1.358466 1.986249 0.075000 -0.036618 -801959.000000 0 0 1
8.121163 32.648265 -15.218237 36.925022 1.326997 1.995597 0.063411 -0.019898 -262047.000000 0 0 1
9.228863 31.580665 -15.238637 36.259156 1.286482 2.004539 0.038992 -0.023018 -14428.100000 0 0 1
9.828063 31.309865 -13.965237 35.664076 1.266640 1.973141 0.047209 -0.032149 -134539.000000 0 0 1
10.625663 30.132065 -14.067337 34.910400 1.231775 1.985540 0.055002 -0.028331 208864.000000 0 0 1
9.933863 28.721765 -13.925637 33.429700 1.237810 2.000460 0.050119 -0.023517 255035.000000 0 0 1
9.140663 28.274165 -15.038437 33.303675 1.258115 2.039304 0.044975 -0.030228 306838.000000 0 0 1
8.458363 27.070865 -14.723337 31.955474 1.267955 2.049631 0.040770 -0.017405 -33004.300000 0 0 1
7.589663 26.429665 -15.820437 31.724067 1.291156 2.092882 0.036076 -0.001861 -247173.000000 0 0 1
8.330963 25.888965 -16.857137 31.996977 1.259465 2.125669 0.040716 -0.004799 -529246.000000 0 0 1
7.578463 25.097165 -17.766637 31.669452 1.277538 2.166392 0.039128 0.001854 338561.000000 0 0 1
8.439863 23.900265 -18.291237 31.257372 1.231337 2.195900 0.044022 0.008395 529872.000000 0 0 1
7.801463 23.068365 -19.264737 31.050643 1.244682 2.240087 0.052476 -0.002564 60435.100000 0 0 1
8.799863 22.275965 -19.900337 31.139680 1.194574 2.264081 0.050812 -0.003584 143607.000000 0 0 1
8.243263 21.294265 -21.031237 31.043680 1.201450 2.315117 0.053000 -0.011730 -78930.200000 0 0 1
7.496663 20.250265 -20.448237 29.738924 1.216240 2.328963 0.060102 -0.009356 -146901.000000 0 0 1
7.057563 19.400665 -21.451337 29.771713 1.221899 2.375359 0.060538 -0.006340 -100132.000000 0 0 1
24.863663 -12.547035 -9.817437 29.529847 -0.467347 1.909705 0.066220 -0.014819 -333568.000000 0 0 1
25.572363 -11.780235 -8.897637 29.527743 -0.431686 1.876885 0.084886 -0.024119 153028.000000 0 0 1
25.033063 -12.004835 -7.642137 28.795356 -0.447162 1.839410 0.093288 -0.025166 -533310.000000 0 0 1
25.860263 -11.572835 -6.412837 29.048377 -0.420785 1.793394 0.093582 -0.024238 -465229.000000 0 0 1
25.785763 -10.200235 -6.004437 28.372586 -0.376687 1.784037 0.096735 -0.025900 446752.000000 0 0 1
26.620063 -9.363135 -6.765537 29.018417 -0.338217 1.806108 0.078620 -0.026505 -1003790.000000 0 0 1
26.779763 -7.926935 -6.145737 28.596540 -0.287787 1.787398 0.106474 -0.031425 -433971.000000 0 0 1
27.454963 -7.970235 -4.904637 29.006122 -0.282536 1.740702 0.109766 -0.046766 1515020.000000 0 0 1
28.896763 -8.043035 -5.012737 30.411196 -0.271466 1.736384 0.101403 -0.041348 812195.000000 0 0 1
29.678563 -8.059235 -3.682937 30.973091 -0.265157 1.689986 0.112324 -0.052053 -174629.000000 0 0 1
29.755163 -6.771135 -3.129537 30.675919 -0.223751 1.672993 0.104840 -0.040848 210700.000000 0 0 1
30.235863 -6.815235 -1.827237 31.048247 -0.221697 1.629682 0.110478 -0.036212 -496249.000000 0 0 1
30.661763 -5.475235 -1.296337 31.173745 -0.176706 1.612393 0.096155 -0.042128 -571470.000000 0 0 1
29.579463 -4.605635 -1.072637 29.955084 -0.154464 1.606612 0.108051 -0.036635 -579224.000000 0 0 1
29.989463 -3.290435 -0.668337 30.176837 -0.109283 1.592945 0.093276 -0.020460 45449.000000 0 0 1
30.497963 -3.035035 0.820363 30.659585 -0.099189 1.544036 0.091706 -0.027715 164284.000000 0 0 1
29.561263 -3.185135 1.866463 29.790888 -0.107333 1.508103 0.112951 -0.038288 537517.000000 0 0 1
30.289463 -2.948735 3.068763 30.586989 -0.097046 1.470298 0.087539 -0.026790 362039.000000 0 0 1
29.761663 -3.865435 4.237063 30.309254 -0.129157 1.430543 0.094989 -0.027978 -96167.700000 0 0 1
30.150563 -5.216435 4.138163 30.877047 -0.171317 1.436371 0.085169 -0.027446 202866.000000 0 0 1
30.147163 -5.708835 5.438263 31.161144 -0.187150 1.395377 0.080005 -0.027728 -161222.000000 0 0 1
30.823163 -7.072935 5.578963 32.112593 -0.225563 1.396179 0.051825 -0.016013 494692.000000 0 0 1
32.215763 -7.106735 5.267063 33.408128 -0.217121 1.412478 0.062481 -0.022645 360682.000000 0 0 1
32.728963 -8.417235 5.149263 34.184057 -0.251725 1.419587 0.073430 -0.018029 456168.000000 0 0 1
34.280263 -8.348035 5.299563 35.677885 -0.238873 1.421705 0.095093 -0.023964 244844.000000 0 0 1
34.967663 -7.806135 4.214063 36.075359 -0.219637 1.453716 0.097540 -0.027834 230601.000000 0 0 1
36.308263 -7.497835 4.610963 37.359985 -0.203642 1.447061 0.109420 -0.027058 897632.000000 0 0 1
-35.739417 -7.078535 3.376763 36.589808 0.195529 1.478378 0.091517 -0.026117 -28302.600000 0 0 1
-35.526917 -8.180835 2.488563 36.541494 0.226326 1.502641 0.111016 -0.032110 -338306.000000 0 0 1
-34.465617 -7.922835 1.644863 35.402763 0.225951 1.524318 0.107314 -0.033973 -828438.000000 0 0 1
-34.165417 -9.181135 0.793263 35.386413 0.262524 1.548377 0.098201 -0.031762 76298.200000 0 0 1
-33.604217 -10.232235 1.616363 35.164679 0.295573 1.524815 0.104382 -0.031935 379370.000000 0 0 1
-33.319117 -11.410535 0.884863 35.229914 0.329944 1.545677 0.107658 -0.035882 -131969.000000 0 0 1
-32.966617 -12.657835 1.769863 35.357474 0.366602 1.520719 0.079914 -0.035765 181190.000000 0 0 1
-31.776317 -12.752835 2.510363 34.331778 0.381654 1.497610 0.084411 -0.028535 -352827.000000 0 0 1
-30.756917 -13.505735 1.931463 33.647041 0.413763 1.513361 0.091723 -0.013121 -490835.000000 0 0 1
-29.506917 -13.587035 2.813663 32.606477 0.431526 1.484397 0.083231 -0.014478 -488509.000000 0 0 1
-28.758817 -12.415435 2.827863 31.451699 0.407539 1.480763 0.079044 -0.025174 303783.000000 0 0 1
-27.478917 -12.686835 3.387663 30.455260 0.432536 1.459332 0.072051 -0.016055 83005.000000 0 0 1
-26.628317 -11.493035 3.848463 29.256927 0.407456 1.438874 0.076085 -0.017152 580318.000000 0 0 1
-25.395317 -12.031335 4.383063 28.440928 0.442438 1.416069 0.069577 -0.005062 982783.000000 0 0 1
-24.693317 -10.995635 5.116363 27.510744 0.418928 1.383730 0.067258 -0.006100 698347.000000 0 0 1
-23.312517 -11.472835 5.690063 26.598424 0.457333 1.355205 0.064659 0.010904 379993.000000 0 0 1
-23.335517 -12.594935 6.543263 27.312872 0.494926 1.328876 0.070650 -0.000874 -411847.000000 0 0 1
-22.069217 -12.933235 7.052363 26.534029 0.530084 1.301778 0.065985 0.007451 -209071.000000 0 0 1
-21.805317 -12.328935 8.473863 26.443918 0.514597 1.244595 0.078272 -0.000645 -804377.000000 0 0 1
-21.455217 -10.970535 8.458963 25.538853 0.472665 1.233201 0.070388 0.002422 105752.000000 0 0 1
-22.402317 -9.994435 8.812763 26.065634 0.419634 1.225900 0.074625 -0.004810 -895705.000000 0 0 1
-22.828717 -9.984835 10.326763 26.972009 0.412310 1.177896 0.085792 -0.002364 -442408.000000 0 0 1
-23.411817 -11.166235 10.768763 28.084946 0.445037 1.177283 0.072780 -0.009460 137288.000000 0 0 1
-24.795817 -11.271335 10.498063 29.190492 0.426644 1.202914 0.072797 -0.010422 -154903.000000 0 0 1
-25.781517 -10.803135 11.588863 30.260470 0.396800 1.177787 0.074881 -0.014990 -332047.000000 0 0 1
-26.043417 -11.666435 12.665163 31.221332 0.421157 1.153098 0.081508 -0.018034 523480.000000 0 0 1
-27.167817 -11.166735 13.399763 32.285289 0.389977 1.142807 0.082932 -0.024042 475951.000000 0 0 1
-27.382217 -11.983335 14.658863 33.290665 0.412521 1.114831 0.081413 -0.025007 42097.700000 0 0 1
-27.677217 -13.382035 14.500063 33.990572 0.450364 1.130076 0.061608 -0.025582 298952.000000 0 0 1
-27.142217 -14.001935 15.627963 34.307249 0.476265 1.097829 0.050524 -0.019225 -835629.000000 0 0 1
-26.929217 -15.509735 15.431563 34.696797 0.522544 1.109896 0.048444 -0.013570 -356479.000000 0 0 1
-28.028417 -16.367235 15.524963 35.979202 0.528536 1.124643 0.048704 -0.010129 -113986.000000 0 0 1
-27.516917 -17.673435 15.585763 36.227710 0.570926 1.126064 0.035712 -0.008535 -220565.000000 0 0 1
-28.461717 -18.679635 16.237063 37.717904 0.580796 1.125764 0.021157 0.005241 -250757.000000 0 0 1
-28.579517 -18.500835 17.643763 38.345430 0.574507 1.092658 0.032001 0.007042 96836.400000 0 0 1
-29.256317 -19.567735 18.307663 39.673654 0.589504 1.091160 0.033895 0.013260 699033.000000 0 0 1
-28.256417 -20.753835 18.646963 39.709646 0.633496 1.081978 0.024712 0.009402 1129150.000000 0 0 1
-27.064317 -20.425735 19.360163 39.044894 0.646509 1.051990 0.026928 0.011284 502371.000000 0 0 1
-26.382217 -21.581835 19.855863 39.446828 0.685647 1.043316 0.024968 0.002308 -161960.000000 0 0 1
-25.004117 -21.259435 20.453363 38.671817 0.704632 1.013497 0.021642 0.008409 -254432.000000 0 0 1
-24.065817 -20.974035 19.430663 37.371437 0.716860 1.024023 0.029149 0.002145 -302656.000000 0 0 1
-22.808617 -20.827235 20.057763 36.828257 0.740022 0.994849 0.040997 -0.001070 129181.000000 0 0 1
-21.655817 -20.613735 19.033063 35.442318 0.760750 1.003902 0.042649 -0.010845 -16021.100000 0 0 1
-21.416917 -21.752135 18.229363 35.554878 0.793163 1.032457 0.033675 -0.003334 468094.000000 0 0 1
-20.270817 -21.563735 17.399863 34.331558 0.816294 1.039306 0.044486 -0.005645 404144.000000 0 0 1
-20.230917 -22.562135 16.170663 34.348657 0.839821 1.080622 0.032939 0.002437 -807057.000000 0 0 1
-20.297717 -23.943335 16.547763 35.483926 0.867616 1.085642 0.036453 -0.006671 296963.000000 0 0 1
-19.179217 -24.624435 17.134963 35.606349 0.909073 1.068735 0.054360 -0.013829 -35708.100000 0 0 1
-17.927917 -24.711435 16.247363 34.583840 0.943167 1.081736 0.058930 -0.020494 -568846.000000 0 0 1
-17.199517 -23.506135 16.247663 33.351886 0.939108 1.061963 0.063639 -0.021905 -740540.000000 0 0 1
-15.968417 -23.750635 15.623563 32.606421 0.978879 1.071103 0.066495 -0.020479 -242344.000000 0 0 1
-15.110917 -22.455235 15.604363 31.242175 0.978467 1.047816 0.056004 -0.012920 -242324.000000 0 0 1
-15.617717 -21.465235 14.771163 30.378555 0.941798 1.063019 0.065932 -0.010080 -448824.000000 0 0 1
-16.563917 -20.611835 15.324563 30.562285 0.893857 1.045556 0.055234 -0.007162 -479784.000000 0 0 1
-15.958617 -19.495735 16.190463 29.948158 0.884835 0.999627 0.065626 -0.017745 -11632.900000 0 0 1
-15.180317 -18.543935 15.449163 28.513087 0.884808 0.998187 0.062873 -0.015778 311985.000000 0 0 1
-14.995017 -17.371935 16.234563 28.110419 0.858703 0.955099 0.047650 -0.009853 -622540.000000 0 0 1
-14.313517 -16.224335 15.504463 26.617554 0.847889 0.949007 0.047630 -0.005672 -526935.000000 0 0 1
-14.922517 -15.513635 14.484163 25.945044 0.804817 0.978505 0.056245 -0.016339 -309873.000000 0 0 1
-15.179617 -16.199135 13.249163 25.852912 0.817877 1.032723 0.058424 -0.017418 -448384.000000 0 0 1
-16.175417 -15.459535 12.364763 25.564207 0.762773 1.065948 0.055592 -0.017068 -488361.000000 0 0 1
-17.548817 -15.634735 12.644463 26.688730 0.727780 1.077223 0.053916 -0.014978 -59189.600000 0 0 1
-18.245317 -14.489835 12.140163 26.272237 0.671174 1.090445 0.062487 -0.021514 403897.000000 0 0 1
-19.778017 -14.689635 12.427863 27.593606 0.638829 1.103595 0.064392 -0.021033 476953.000000 0 0 1
-20.408717 -15.745535 11.760663 28.332857 0.657126 1.142755 0.077977 -0.025832 22571.200000 0 0 1
-20.610217 -15.693835 10.326863 27.887660 0.650795 1.191462 0.081381 -0.021186 -311434.000000 0 0 1
-21.462717 -16.906235 9.835263 29.037930 0.667197 1.225257 0.081472 -0.016103 468443.000000 0 0 1
-20.828917 -18.199735 9.943563 29.393002 0.718134 1.225690 0.081011 -0.006231 425630.000000 0 0 1
-21.645517 -19.116635 9.202763 30.309486 0.723438 1.262300 0.069062 -0.006371 439878.000000 0 0 1
-21.153017 -20.606435 9.258363 30.948224 0.772310 1.266988 0.082094 -0.003267 738971.000000 0 0 1
-20.042417 -20.830635 8.360663 30.091768 0.804680 1.289253 0.091243 -0.007130 335969.000000 0 0 1
-19.631117 -22.171135 8.363663 30.771591 0.846086 1.295535 0.084351 -0.019404 -210579.000000 0 0 1
-18.331117 -22.435135 7.604163 29.953103 0.885732 1.314118 0.079053 -0.020484 216985.000000 0 0 1
-17.150517 -21.981535 8.271163 29.081613 0.908231 1.282403 0.055686 -0.017130 363909.000000 0 0 1
-15.986117 -22.231635 7.512963 28.394473 0.947386 1.303015 0.069236 -0.012601 199400.000000 0 0 1
-14.637717 -22.056535 8.237263 27.723744 0.984888 1.269122 0.026689 -0.002146 -102239.000000 0 0 1
-13.518117 -22.479035 7.492763 27.279809 1.029373 1.292557 0.046756 -0.002586 -563472.000000 0 0 1
-12.378517 -22.203735 8.265263 26.731032 1.062215 1.256444 0.051745 -0.007972 -169901.000000 0 0 1
-11.039417 -22.564535 7.607063 26.246797 1.115796 1.276749 0.060906 -0.007653 -64526.300000 0 0 1
-10.748417 -23.891635 7.648963 27.291854 1.148041 1.286726 0.053097 -0.001297 -258896.000000 0 0 1
-9.506817 -24.191135 7.031063 26.926314 1.196350 1.306612 0.066651 -0.005077 410685.000000 0 0 1
-9.222017 -25.749695 7.005063 28.234080 1.226888 1.320071 0.071995 -0.007826 115448.000000 0 0 1
-10.161517 -26.438775 6.190163 28.992815 1.203861 1.355633 0.063218 -0.013241 -184570.000000 0 0 1
-10.012417 -27.833685 6.231363 30.228999 1.225486 1.363169 0.066152 -0.011535 3658.440000 0 0 1
-8.890217 -28.506715 5.415863 30.347987 1.268491 1.391377 0.062985 -0.009605 432083.000000 0 0 1
-7.587517 -28.125535 5.879663 29.718454 1.307296 1.371637 0.061734 -0.011550 38668.800000 0 0 1
-6.546517 -29.048725 5.660963 30.310589 1.349136 1.382928 0.057203 -0.007903 214713.000000 0 0 1
-6.643517 -30.459345 6.288363 31.803325 1.356049 1.371758 0.061635 -0.011392 -605665.000000 0 0 1
-6.602517 -30.403945 7.695563 32.050191 1.356957 1.328317 0.059778 -0.016358 43854.800000 0 0 1
-6.609517 -31.715855 8.095263 33.393329 1.365339 1.325935 0.083601 -0.021991 -27751.900000 0 0 1
-7.021517 -31.803815 9.577963 33.948810 1.353506 1.284783 0.069117 -0.021117 305287.000000 0 0 1
-5.948517 -31.337795 10.408063 33.552496 1.383209 1.255390 0.048800 -0.010391 596063.000000 0 0 1
-6.365517 -31.232475 11.768963 33.977872 1.369739 1.217096 0.043552 -0.016656 -267951.000000 0 0 1
-5.486517 -30.427435 12.736963 33.438912 1.392398 1.180024 0.032843 -0.012438 51802.400000 0 0 1
-5.700517 -29.045155 12.662163 32.193901 1.376996 1.166568 0.040044 -0.010177 -91961.800000 0 0 1
-4.701517 -28.470915 13.447763 31.836136 1.407139 1.134699 0.019664 -0.012850 -400000.000000 0 0 1
-5.272517 -27.822305 14.742663 31.925322 1.383510 1.090789 0.039624 -0.008382 -19732.600000 0 0 1
-5.795517 -28.692635 15.684063 33.209112 1.371492 1.078919 0.054688 -0.013034 108157.000000 0 0 1
-4.812517 -29.374085 16.448863 34.008267 1.408404 1.065951 0.038302 -0.010831 164438.000000 0 0 1
-5.355517 -30.724195 16.920463 35.481823 1.398221 1.073698 0.037214 -0.008500 122926.000000 0 0 1
-5.437517 -31.661605 15.855063 35.824668 1.400717 1.112329 0.033037 -0.007938 211614.000000 0 0 1
-6.032517 -32.832585 16.421363 37.202567 1.389087 1.113634 0.029787 -0.008171 230825.000000 0 0 1
-5.477517 -34.118146 15.752763 37.976316 1.411609 1.143068 0.026144 -0.012585 -45710.900000 0 0 1
-5.946517 34.132088 14.426863 37.529920 -1.398307 1.176228 0.041240 -0.019315 96194.400000 0 0 1
-5.425517 33.018317 13.750463 36.176245 -1.407933 1.180896 0.038611 -0.019583 1154010.000000 0 0 1
-4.201517 33.376292 12.773363 35.983168 -1.445572 1.207902 0.050484 -0.029930 1160340.000000 0 0 1
-4.635517 33.811159 11.467263 36.002508 -1.434546 1.246636 0.050914 -0.030792 488997.000000 0 0 1
-3.531517 -33.910845 10.762863 35.752709 1.467029 1.265017 0.057671 -0.037237 -246547.000000 0 0 1
-3.729517 -33.641795 9.266263 35.093351 1.460388 1.303582 0.060822 -0.037595 -850230.000000 0 0 1
-3.832517 33.512000 8.409663 34.762980 -1.456929 1.326458 0.076256 -0.044796 970290.000000 0 0 1
-4.813517 32.455333 8.643063 33.929650 -1.423558 1.313223 0.082117 -0.046210 872087.000000 0 0 1
-6.287517 32.735297 9.005663 34.528749 -1.381036 1.306929 0.094210 -0.045269 407172.000000 0 0 1
-7.196517 33.020563 7.915463 34.710258 -1.356211 1.340728 0.106301 -0.043889 -933507.000000 0 0 1
-8.448217 33.323468 8.391163 35.386968 -1.322506 1.331390 0.091305 -0.035066 -736982.000000 0 0 1
-9.440417 33.618887 7.228263 35.659484 -1.297040 1.366680 0.089639 -0.039762 93809.200000 0 0 1
-9.127117 -33.501145 6.478163 35.321347 1.304810 1.386346 0.097291 -0.026904 -71391.300000 0 0 1
-9.803617 -33.549975 5.262563 35.346941 1.286502 1.421358 0.087631 -0.016999 -467520.000000 0 0 1
-10.115817 -32.228525 4.603363 34.091032 1.266657 1.435351 0.079625 -0.015230 415981.000000 0 0 1
-11.055417 -31.309615 5.163863 33.603269 1.231363 1.416514 0.080237 -0.019043 1647700.000000 0 0 1
-12.467217 -31.646255 5.047263 34.385924 1.195512 1.423481 0.074797 -0.015893 1709910.000000 0 0 1
-13.459717 -30.604005 5.665163 33.909632 1.156455 1.402943 0.071822 -0.020553 322057.000000 0 0 1
-13.665317 -30.761355 7.067063 34.393970 1.152746 1.363848 0.073571 -0.020501 547444.000000 0 0 1
-14.520017 -29.659285 7.540163 33.872675 1.115535 1.346313 0.067858 -0.021288 692416.000000 0 0 1
33.173812 -12.780635 -12.380037 37.644545 -0.367738 1.905900 0.042007 -0.013838 793084.000000 0 0 1
32.137222 -13.081635 -11.380037 36.516236 -0.386574 1.887718 0.067317 -0.013381 1144650.000000 0 0 1
32.093132 -14.454135 -11.057337 36.893846 -0.423171 1.875182 0.068399 -0.020578 42087.100000 0 0 1
33.165242 -15.028435 -10.068237 37.777726 -0.425460 1.840569 0.065722 -0.025282 -603308.000000 0 0 1
34.407572 -15.234235 -10.615237 39.097905 -0.416815 1.845752 0.062116 -0.020724 -1033410.000000 0 0 1
35.314912 -15.554935 -9.575937 39.759245 -0.414895 1.814036 0.057425 -0.024709 -268926.000000 0 0 1
-36.155187 -15.706435 -10.014937 40.671718 0.409820 1.819594 0.037719 -0.026225 -459355.000000 0 0 1
-35.590933 -14.572735 -10.612437 39.896152 0.388627 1.840039 0.042960 -0.027278 -54680.000000 0 0 1
-34.212151 -14.824535 -10.782537 38.813673 0.408890 1.852302 0.058224 -0.028535 -132709.000000 0 0 1
-33.373997 -13.634535 -11.223137 37.758218 0.387845 1.872594 0.062692 -0.032369 -402742.000000 0 0 1
-33.043507 -12.734835 -10.238037 36.862810 0.367854 1.852230 0.071823 -0.025684 91663.400000 0 0 1
-32.371917 -11.673135 -10.827137 36.075338 0.346082 1.875621 0.064928 -0.022637 -444916.000000 0 0 1
-32.717257 -10.321135 -10.203337 35.791798 0.305583 1.859881 0.066209 -0.014653 -62434.300000 0 0 1
-32.230277 -10.171935 -8.879237 34.944239 0.305708 1.827711 0.070698 -0.011583 593372.000000 0 0 1
-33.111167 -9.324835 -8.157037 35.353065 0.274512 1.803625 0.073852 -0.004959 60828.100000 0 0 1
-32.782447 -9.249535 -6.642437 34.703958 0.275000 1.763388 0.069658 -0.004376 639494.000000 0 0 1
-31.544247 -8.511335 -6.431037 33.299258 0.263546 1.765146 0.078940 -0.015537 1259290.000000 0 0 1
-31.225177 -8.272235 -5.043037 32.693635 0.258973 1.725666 0.083374 -0.018370 -290538.000000 0 0 1
-30.450537 -9.385535 -4.352537 32.160038 0.298983 1.706553 0.088701 -0.015459 -690155.000000 0 0 1
-31.189657 -10.567635 -4.084437 33.183614 0.326679 1.694195 0.087380 -0.016752 381260.000000 0 0 1
-31.185897 -10.848735 -2.670337 33.126816 0.334779 1.651493 0.088027 -0.023101 -341760.000000 0 0 1
-31.898647 -12.165635 -2.368737 34.221883 0.364356 1.640069 0.081835 -0.018715 32803.000000 0 0 1
-33.308277 -12.008835 -2.486037 35.494138 0.346030 1.640895 0.083980 -0.028233 332053.000000 0 0 1
-33.879097 -13.264635 -2.230337 36.451586 0.373182 1.632021 0.091978 -0.040171 -365105.000000 0 0 1
-35.407901 -13.301735 -2.069537 37.880583 0.359359 1.625457 0.077029 -0.033768 -196302.000000 0 0 1
-35.872729 -12.440135 -1.043337 37.982867 0.333808 1.598268 0.089664 -0.036246 239222.000000 0 0 1
35.640522 -12.453935 -1.001837 37.767062 -0.336169 1.597326 0.105285 -0.040324 -29869.400000 0 0 1
35.208262 -11.433435 0.057863 37.018219 -0.313994 1.569233 0.102023 -0.044530 -276137.000000 0 0 1
35.346702 -11.865735 1.370563 37.310367 -0.323875 1.534054 0.118086 -0.042431 114953.000000 0 0 1
35.437802 -10.795435 2.274563 37.115400 -0.295700 1.509474 0.103418 -0.035720 -130950.000000 0 0 1
35.762972 -11.414335 3.616863 37.714174 -0.308946 1.474747 0.109310 -0.035970 -74058.000000 0 0 1
34.760532 -12.264635 4.107963 37.088964 -0.339196 1.459809 0.107401 -0.036092 -137767.000000 0 0 1
35.132432 -12.660435 5.386963 37.730542 -0.345877 1.427532 0.108565 -0.029912 27765.500000 0 0 1
34.009012 -12.641235 6.438963 36.849342 -0.355877 1.395157 0.102598 -0.027210 3431.490000 0 0 1
33.454432 -11.380335 6.803063 35.986007 -0.327895 1.380604 0.095923 -0.025518 168988.000000 0 0 1
33.282542 -11.193835 8.193163 36.057697 -0.324443 1.341570 0.070649 -0.011983 -545210.000000 0 0 1
32.477192 -9.927535 8.446063 34.995142 -0.296657 1.327040 0.059035 -0.023749 -63126.000000 0 0 1
31.131412 -9.959935 7.994463 33.649318 -0.309641 1.330921 0.062841 -0.016299 363535.000000 0 0 1
30.308602 -9.162135 8.827163 32.870578 -0.293561 1.298916 0.052116 -0.001212 904295.000000 0 0 1
28.771002 -9.276435 8.495563 31.400596 -0.311899 1.296828 0.043378 -0.003509 897669.000000 0 0 1
28.369122 -8.696735 7.241563 30.543093 -0.297461 1.331424 0.054488 -0.007770 164335.000000 0 0 1
27.448442 -9.535435 6.567663 29.790530 -0.334352 1.348509 0.082239 -0.020549 -67713.800000 0 0 1
26.530942 -8.766635 5.579763 28.493482 -0.319136 1.373697 0.107987 -0.024333 -416104.000000 0 0 1
25.553842 -7.998435 6.234363 27.492564 -0.303343 1.342041 0.116980 -0.022270 472744.000000 0 0 1
24.678942 -7.331035 5.302863 26.285255 -0.288754 1.367659 0.147710 -0.034023 178941.000000 0 0 1
25.313642 -6.109635 4.582163 26.440581 -0.236828 1.396617 0.141469 -0.027567 -314666.000000 0 0 1
26.023242 -6.421235 3.408663 27.019630 -0.241917 1.444304 0.131643 -0.029254 566201.000000 0 0 1
26.723642 -5.315135 2.798263 27.390400 -0.196331 1.468456 0.134924 -0.030263 217560.000000 0 0 1
27.295242 -5.564435 1.389163 27.891270 -0.201105 1.520969 0.136253 -0.040360 -435636.000000 0 0 1
26.321542 -5.495835 0.404963 26.892225 -0.205839 1.555737 0.160686 -0.053043 -387738.000000 0 0 1
26.881342 -5.629735 -0.853737 27.477797 -0.206445 1.601871 0.138556 -0.048937 -1025520.000000 0 0 1
25.798942 -5.993735 -1.908537 26.554713 -0.228275 1.642730 0.144455 -0.048580 383137.000000 0 0 1
24.836742 -4.959235 -2.043837 25.409350 -0.197081 1.651320 0.158885 -0.042200 231614.000000 0 0 1
24.100742 -5.008735 -3.255737 24.830083 -0.204908 1.702296 0.136241 -0.036842 699535.000000 0 1 0
22.791542 -4.111435 -3.218537 23.381986 -0.178474 1.708885 0.103761 -0.033263 664408.000000 0 1 0
23.013042 -2.718235 -3.195537 23.392315 -0.117572 1.707831 0.093426 -0.034451 384808.000000 0 1 0
23.461242 -2.116635 -4.419337 23.967490 -0.089975 1.756246 0.094774 -0.032824 -430587.000000 0 1 0
22.335642 -1.283735 -5.035837 22.932260 -0.057412 1.792197 0.077938 -0.021281 -58172.700000 0 1 0
21.984942 -0.199835 -4.177437 22.379200 -0.009089 1.758564 0.058969 -0.015922 107044.000000 0 1 0
21.167242 0.666065 -4.909937 21.739441 0.031456 1.798616 0.079014 -0.012995 -791898.000000 0 1 0
21.174142 2.100665 -4.389137 21.726059 0.098885 1.774218 0.086831 -0.006062 255171.000000 0 1 0
22.391642 2.839565 -4.575237 23.030015 0.126140 1.770791 0.110242 -0.007415 923531.000000 0 1 0
23.143742 2.875665 -3.365037 23.563229 0.123619 1.714095 0.107680 -0.010849 -212285.000000 0 1 0
24.395342 3.752665 -3.434837 24.920139 0.152631 1.709070 0.102672 -0.018725 -449263.000000 0 1 0
24.066842 5.150465 -3.460737 24.853911 0.210827 1.710493 0.092781 -0.007058 529862.000000 0 1 0
24.995542 6.023865 -2.840637 25.867611 0.236488 1.680833 0.086967 -0.012082 -264412.000000 0 0 1
24.550042 7.482265 -2.885237 25.826604 0.295833 1.682746 0.064080 -0.010420 48936.800000 0 0 1
23.488742 7.796165 -1.979137 24.827771 0.320470 1.650596 0.069476 -0.009243 289926.000000 0 1 0
22.745642 8.791265 -2.580837 24.521650 0.368817 1.676239 0.074916 -0.001933 6155.080000 0 1 0
21.544442 9.243265 -1.661937 23.502404 0.405281 1.641569 0.054878 0.001949 319431.000000 0 1 0
22.054442 9.814165 -0.502037 24.144737 0.418686 1.591591 0.042568 0.006323 415004.000000 0 1 0
21.026742 10.175665 0.372863 23.362515 0.450717 1.554836 0.036675 0.007183 -120767.000000 0 1 0
21.598342 10.603265 1.778863 24.126375 0.456365 1.496998 0.059756 -0.000226 -337392.000000 0 1 0
22.384542 11.774965 1.830863 25.358817 0.484255 1.498535 0.066520 -0.009971 2458.160000 0 0 1
21.888442 13.054765 1.675763 25.540928 0.537785 1.505138 0.073515 -0.003500 -1043510.000000 0 0 1
20.872642 13.610065 2.704563 25.064232 0.577817 1.462681 0.067905 -0.004153 339181.000000 0 0 1
19.549342 13.138665 2.317163 23.667923 0.591739 1.472736 0.088490 -0.001874 1695930.000000 0 1 0
18.501142 13.811065 3.049063 23.288078 0.641256 1.439491 0.074181 -0.008556 441941.000000 0 1 0
18.437542 13.650565 4.593763 23.396230 0.637308 1.373166 0.061725 -0.009720 -959236.000000 0 1 0
18.115642 12.416965 5.045463 22.534734 0.600879 1.344985 0.050400 -0.005740 253022.000000 0 1 0
18.036642 12.390965 6.487063 22.824077 0.601940 1.282603 0.040378 -0.017209 -27766.100000 0 1 0
18.103942 10.996365 7.035163 22.319639 0.545844 1.250128 0.018883 -0.018604 -705971.000000 0 1 0
19.247842 10.297665 6.692063 22.832106 0.491257 1.273330 0.019386 -0.015320 -211906.000000 0 1 0
19.273542 9.046865 7.319263 22.514147 0.438864 1.239683 0.024728 -0.014573 112408.000000 0 1 0
20.283642 8.105965 6.609363 22.821404 0.380188 1.276974 0.026795 -0.010848 193190.000000 0 1 0
19.876642 7.750965 5.296263 21.982010 0.371816 1.327466 0.015071 -0.013664 461243.000000 0 1 0
20.977642 7.214565 4.615163 22.658578 0.331245 1.365678 0.029765 -0.011342 -295999.000000 0 1 0
20.777442 6.924665 3.131563 22.123738 0.321701 1.428772 0.047252 -0.007770 -525516.000000 0 1 0
21.743642 6.118165 2.534063 22.729703 0.274285 1.459077 0.044178 -0.012873 149708.000000 0 1 0
21.519042 5.935065 1.142863 22.351741 0.269115 1.519643 0.055218 -0.002066 792605.000000 0 1 0
22.733542 5.101765 0.548163 23.305417 0.220758 1.547273 0.083078 -0.010477 877734.000000 0 1 0
22.568042 3.692465 0.723363 22.879556 0.162178 1.539175 0.081630 -0.011912 -394044.000000 0 1 0
23.680742 3.042165 0.276863 23.876955 0.127766 1.559201 0.095673 -0.016754 -867709.000000 0 1 0
23.463942 1.485065 0.358263 23.513621 0.063207 1.555559 0.119631 -0.022863 -443334.000000 0 1 0
22.423742 1.011365 -0.434137 22.450736 0.045072 1.590135 0.094345 -0.017973 271675.000000 0 1 0
22.743042 -0.210735 -1.111537 22.771164 -0.009266 1.619629 0.118365 -0.030629 -761881.000000 0 1 0
22.492542 -1.541435 -0.346137 22.547955 -0.068424 1.586148 0.131331 -0.021172 -120642.000000 0 1 0
23.394242 -1.877135 0.679563 23.479268 -0.080068 1.541849 0.134082 -0.019931 -97119.500000 0 1 0
24.656142 -2.339735 0.245863 24.768128 -0.094611 1.560870 0.140420 -0.035755 -127990.000000 0 1 0
25.610542 -2.160135 1.478763 25.743986 -0.084146 1.513324 0.126650 -0.025874 -148950.000000 0 0 1
25.622442 -0.785435 1.836863 25.700205 -0.030645 1.499263 0.108879 -0.026528 452732.000000 0 0 1
26.441642 -0.522135 2.969463 26.612982 -0.019744 1.458984 0.107852 -0.030130 -10745.000000 0 0 1
26.086142 0.830265 3.643163 26.352396 0.031817 1.432104 0.091190 -0.023020 -103856.000000 0 0 1
26.386442 2.022265 2.903963 26.622676 0.076491 1.461500 0.097284 -0.026432 1290620.000000 0 0 1
27.792242 2.314365 2.713163 28.020105 0.083082 1.473815 0.085592 -0.027792 1058200.000000 0 0 1
27.930482 3.405865 1.649763 28.185696 0.121342 1.512231 0.089608 -0.035961 -169077.000000 0 0 1
27.471042 3.055465 0.370563 27.642926 0.110770 1.557391 0.107124 -0.036319 219193.000000 0 0 1
27.731042 4.101865 -0.582037 28.038808 0.146851 1.591556 0.095071 -0.026411 373948.000000 0 0 1
29.130872 4.103065 -1.281437 29.446306 0.139929 1.614328 0.104899 -0.028242 596844.000000 0 0 1
30.210492 4.382965 -0.398837 30.529384 0.144076 1.583861 0.105664 -0.027395 497739.000000 0 0 1
31.461922 4.469665 -1.058937 31.795469 0.141122 1.604107 0.097871 -0.024269 469968.000000 0 0 1
32.685592 4.776065 -0.158637 33.033073 0.145095 1.575599 0.075301 -0.023965 159522.000000 0 0 1
33.037962 3.893265 0.874963 33.278071 0.117301 1.544501 0.074396 -0.027987 69719.700000 0 0 1
32.336802 4.162265 2.070563 32.669259 0.128012 1.507374 0.070500 -0.018611 -96942.300000 0 0 1
32.476392 3.108465 3.221263 32.783459 0.095424 1.472379 0.061743 -0.021754 -238979.000000 0 0 1
31.559862 2.041265 3.066163 31.774094 0.064589 1.474147 0.069811 -0.026312 278313.000000 0 0 1
31.534152 1.057765 4.075663 31.814032 0.033531 1.442334 0.070138 -0.029570 23299.500000 0 0 1
32.746192 0.078665 4.098963 33.001830 0.002402 1.446271 0.075984 -0.018127 608375.000000 0 0 1
33.965192 0.681065 4.529663 34.272671 0.020049 1.438243 0.070697 -0.024154 -651670.000000 0 0 1
35.024432 -0.130335 4.291363 35.286593 -0.003721 1.448880 0.053235 -0.023091 -522449.000000 0 0 1
36.405732 0.575465 4.629763 36.703450 0.015806 1.444320 0.078237 -0.032103 828535.000000 0 0 1
-36.150997 1.691065 3.815863 36.391140 -0.046744 1.465746 0.074524 -0.033896 322447.000000 0 0 1
-35.741158 1.361865 2.487563 35.853494 -0.038085 1.501359 0.079847 -0.024920 -709000.000000 0 0 1
-35.716522 2.583865 1.509063 35.841646 -0.072218 1.528680 0.072883 -0.028704 1016890.000000 0 0 1
-34.582405 3.485965 1.610163 34.794932 -0.100462 1.524504 0.100456 -0.035872 1099900.000000 0 0 1
-33.382197 2.984965 1.046163 33.531710 -0.089181 1.539592 0.122520 -0.034309 -545.084000 0 0 1
-32.127797 3.856765 1.372063 32.387537 -0.119473 1.528420 0.139189 -0.037042 76358.200000 0 0 1
-31.601337 3.457865 2.607763 31.896736 -0.108988 1.488949 0.137973 -0.043055 76489.200000 0 0 1
-30.844267 4.521165 3.186263 31.336273 -0.145544 1.468941 0.145976 -0.042210 -358979.000000 0 0 1
-31.093457 4.720665 4.761663 31.808194 -0.150671 1.420532 0.154988 -0.033880 274313.000000 0 0 1
-32.373587 5.250265 5.113063 33.192738 -0.160778 1.416139 0.146863 -0.016866 1415350.000000 0 0 1
-33.485687 4.319565 5.034463 34.136428 -0.128289 1.422776 0.139324 -0.018888 427994.000000 0 0 1
-33.602857 3.311865 6.225663 34.334812 -0.098242 1.388466 0.117248 -0.018694 -730279.000000 0 0 1
-33.697597 3.823865 7.532363 34.740272 -0.112993 1.352241 0.114376 -0.015959 342133.000000 0 0 1
-33.914157 2.913365 8.571163 35.101604 -0.085694 1.324121 0.110591 -0.016682 -198501.000000 0 0 1
-35.175535 2.043465 8.667463 36.285244 -0.058028 1.329594 0.091231 -0.014079 -506309.000000 0 0 1
-35.010819 0.887965 7.858263 35.892871 -0.025357 1.350072 0.091744 -0.021653 285948.000000 0 0 1
-35.887899 -0.183535 8.195263 36.812190 0.005114 1.346292 0.094359 -0.019101 -9127.400000 0 0 1
-35.678825 -0.904435 9.566863 36.950256 0.025344 1.308901 0.091797 -0.014460 -594849.000000 0 0 1
-34.516845 -1.664935 9.602163 35.866226 0.048198 1.299769 0.097661 -0.029447 -365308.000000 0 0 1
-34.281909 -2.275335 10.822363 36.021521 0.066274 1.265641 0.099239 -0.025259 48588.200000 0 0 1
-32.947377 -3.066135 10.763763 34.796400 0.092794 1.256302 0.109008 -0.020638 -32531.200000 0 0 1
-32.855757 -4.211635 9.856863 34.560040 0.127490 1.281571 0.108585 -0.021494 993059.000000 0 0 1
-31.548837 -4.824435 9.961163 33.433951 0.151744 1.268267 0.105872 -0.025741 1032950.000000 0 0 1
-31.362927 -5.962735 8.999163 33.168846 0.187878 1.296039 0.103541 -0.018259 1010960.000000 0 0 1
-32.283177 -7.094635 9.302563 34.337662 0.216324 1.296454 0.096072 -0.018183 1030400.000000 0 0 1
-32.407627 -7.848635 8.123263 34.319714 0.237610 1.331835 0.094790 -0.015791 62245.400000 0 0 1
-33.374967 -9.047035 8.186863 35.535362 0.264711 1.338322 0.092908 -0.017255 -109434.000000 0 0 1
-34.740371 -8.752935 8.252863 36.764344 0.246816 1.344387 0.101779 -0.026659 -286270.000000 0 0 1
-35.561448 -9.867335 8.045763 37.771883 0.270664 1.356142 0.107736 -0.028714 -5557.270000 0 0 1
7.351463 -23.683035 10.786263 27.042071 -1.269816 1.160512 0.115490 -0.025027 32079.700000 0 0 1
6.888363 -24.293535 9.598163 27.013887 -1.294501 1.207556 0.104722 -0.020747 -311948.000000 0 0 1
5.792563 -25.141275 9.846563 27.615073 -1.344348 1.206208 0.103712 -0.019269 235618.000000 0 0 1
5.481863 -26.177405 8.742263 28.137777 -1.364367 1.254872 0.095166 -0.013513 -7262.580000 0 0 1
4.935763 -25.616875 7.562963 27.162187 -1.380453 1.288630 0.095148 -0.009314 -225804.000000 0 0 1
4.781963 -26.605265 6.568063 27.818101 -1.392958 1.332438 0.087204 -0.008202 -430145.000000 0 0 1
4.151363 -26.203985 5.233663 27.042075 -1.413677 1.376030 0.068439 -0.007759 858586.000000 0 0 1
2.732063 -26.050295 5.110863 26.687130 -1.466302 1.378096 0.038413 -0.014571 506515.000000 0 0 1
1.967563 -27.248705 5.010763 27.775366 -1.498714 1.389400 0.032974 -0.014527 -124690.000000 0 0 1
0.483563 -26.870195 4.805863 27.300870 -1.552802 1.393841 0.032028 -0.021461 -512590.000000 0 0 1
-0.178337 -26.261125 5.904963 26.917412 1.564006 1.349624 0.026837 -0.018115 -272483.000000 0 0 1
-1.571537 -26.381225 6.021363 27.105268 1.511296 1.346780 0.016911 -0.018822 91056.000000 0 0 1
-2.165437 -27.809475 6.118063 28.556727 1.493086 1.354880 0.027935 -0.015591 -985994.000000 0 0 1
-1.990937 -28.361715 7.437663 29.388255 1.500713 1.314931 0.032624 -0.024304 -7050.140000 0 0 1
-2.420537 -29.709855 7.559963 30.752032 1.489503 1.322414 0.034521 -0.021116 -157263.000000 0 0 1
-2.133137 -30.361885 8.947963 31.724759 1.500655 1.284866 0.029130 -0.020692 715877.000000 0 0 1
-0.795137 -30.709445 9.326963 32.104431 1.544910 1.276027 0.023289 -0.020278 619769.000000 0 0 1
-0.783037 -31.088755 10.707863 32.890457 1.545615 1.239191 0.017278 -0.012211 -2281.370000 0 0 1
0.638863 -31.321025 11.254063 33.287665 -1.550402 1.225915 0.034676 -0.014418 -48478.500000 0 0 1
1.198263 -32.570025 10.881663 34.360630 -1.534023 1.248559 0.035251 -0.017046 1351790.000000 0 0 1
2.643863 -32.576745 11.080763 34.511123 -1.489816 1.243929 0.040766 -0.013088 1655670.000000 0 0 1
3.143363 -33.194355 12.418863 35.580529 -1.476382 1.214255 0.042277 -0.013875 -255431.000000 0 0 1
2.775563 -32.477215 13.560963 35.304007 -1.485542 1.176542 0.043786 -0.013792 -155939.000000 0 0 1
3.536463 -32.876215 14.661963 36.170778 -1.463639 1.153430 0.051174 -0.013169 -352585.000000 0 0 1
3.206963 -32.133935 16.032063 36.054145 -1.471326 1.109995 0.049998 -0.009431 130904.000000 0 0 1
3.575563 -30.745705 16.056363 34.869611 -1.455022 1.092273 0.051531 -0.009910 1482130.000000 0 0 1
4.999563 -30.478155 16.231263 34.890793 -1.408207 1.086934 0.052278 0.000016 1572410.000000 0 0 1
5.513863 -29.138335 15.518263 33.470311 -1.383777 1.088694 0.069065 -0.002819 24480.400000 0 0 1
5.713263 -29.158245 14.100663 32.888802 -1.377308 1.127701 0.066561 -0.004984 352783.000000 0 0 1
4.502763 -29.324095 13.348463 32.532428 -1.418435 1.148000 0.057810 -0.001870 95354.300000 0 0 1
4.632163 -29.334445 11.752563 31.938837 -1.414181 1.193970 0.055332 -0.009548 18289.100000 0 0 1
5.110663 -30.518735 11.150163 32.891308 -1.404876 1.224942 0.057988 -0.012352 842843.000000 0 0 1
6.549563 -30.632835 11.124663 33.241923 -1.360159 1.229554 0.065579 -0.011293 786909.000000 0 0 1
7.087763 -31.930785 10.508663 34.354670 -1.352365 1.259926 0.060053 -0.012732 -173907.000000 0 0 1
6.918563 -33.041965 11.418363 35.637297 -1.364391 1.244639 0.047208 -0.014340 228439.000000 0 0 1
7.220663 34.042108 10.750763 36.422273 1.361784 1.271163 0.058303 -0.014612 -103972.000000 0 0 1
6.994063 32.751367 11.599263 35.441668 1.360406 1.237375 0.050904 -0.008411 548978.000000 0 0 1
5.639663 32.489313 11.969063 35.080190 1.398924 1.222612 0.041535 -0.014904 466049.000000 0 0 1
5.551363 31.253850 12.632763 34.164418 1.395008 1.192042 0.039796 -0.014940 393875.000000 0 0 1
4.209063 31.116170 13.406663 34.141922 1.436343 1.167258 0.038684 -0.018203 341725.000000 0 0 1
4.295863 31.645460 14.694763 35.154312 1.435871 1.139546 0.057082 -0.016331 290654.000000 0 0 1
3.170163 31.334150 15.506363 35.104504 1.469967 1.113281 0.065847 -0.016982 261214.000000 0 0 1
3.558163 31.455750 16.979963 35.922749 1.458159 1.078467 0.064916 -0.020684 78153.200000 0 0 1
3.695763 32.803555 17.430963 37.330555 1.458606 1.084974 0.060710 -0.013937 -6518.250000 0 0 1
4.198563 32.733478 18.726963 37.944797 1.443228 1.054650 0.052004 -0.014944 141652.000000 0 0 1
4.497563 34.093442 19.428163 39.497397 1.439635 1.056543 0.042502 -0.013940 1112330.000000 0 0 1
3.268663 -33.535995 19.778963 39.071146 -1.473636 1.039989 0.038225 -0.009326 559512.000000 0 0 1
3.561463 -32.350615 20.507563 38.468252 -1.461148 1.008532 0.036710 -0.015452 -262535.000000 0 0 1
2.366563 -31.590485 21.063163 38.042294 -1.496022 0.984022 0.038949 -0.015611 -496752.000000 0 0 1
1.570763 -32.346285 21.933063 39.112769 -1.522274 0.975487 0.051270 -0.014463 -203100.000000 0 0 1
0.521463 -31.557075 22.474563 38.745669 -1.554273 0.952002 0.044587 -0.015643 -34110.300000 0 0 1
-0.616537 -32.443445 23.021063 39.786009 1.551795 0.953758 0.037609 -0.013668 -1242200.000000 0 0 1
-1.358837 -33.145875 22.034963 39.825055 1.529824 0.984483 0.035788 -0.016341 -150150.000000 0 0 1
-2.208737 -34.053805 22.694863 40.982886 1.506027 0.983918 0.039178 -0.017331 637275.000000 0 0 1
-3.526837 -33.417425 23.297463 40.889297 1.465647 0.964571 0.060986 -0.012430 309310.000000 0 0 1
-4.602937 -33.301125 22.348363 40.368320 1.433445 0.984102 0.053264 -0.019131 1057770.000000 0 0 1
-5.710137 -32.660645 23.049763 40.380873 1.397713 0.963306 0.056482 -0.008929 1295040.000000 0 0 1
-6.981237 -32.231445 22.239763 39.777013 1.357494 0.977483 0.051949 -0.006133 883174.000000 0 0 1
-7.683137 -33.375755 21.684463 40.536249 1.344537 1.006360 0.035066 0.007585 439636.000000 0 0 1
-8.769437 -32.912835 20.890963 39.957353 1.310402 1.020627 0.050928 -0.010873 723408.000000 0 0 1
-9.994437 -33.873905 20.736263 40.955131 1.283889 1.039888 0.075728 -0.020015 557630.000000 0 0 1
-10.594237 -34.137634 21.991263 41.967029 1.269881 1.019241 0.088101 -0.022725 -31385.700000 0 0 1
-11.851837 33.513748 21.816263 41.708353 -1.230881 1.020351 0.056686 -0.020658 517033.000000 0 0 1
-12.537937 33.343646 23.195563 42.509208 -1.211130 0.993620 0.050552 -0.015334 -208567.000000 0 0 1
-12.770337 -33.849505 24.044463 43.439690 1.210039 0.984219 0.053370 -0.019165 -101111.000000 0 0 1
-11.632137 -33.193815 24.573263 42.906657 1.233738 0.960983 0.056698 -0.021793 -221767.000000 0 0 1
-11.873137 -31.825395 25.264363 42.333381 1.213718 0.931295 0.057284 -0.021424 64858.800000 0 0 1
-12.614837 -31.895855 26.486563 43.336101 1.194175 0.913234 0.057576 -0.017821 343116.000000 0 0 1
-13.246137 -30.639345 26.643763 42.709714 1.162738 0.897158 0.068185 -0.023012 -114210.000000 0 0 1
-13.935237 -30.299025 27.991763 43.540332 1.139721 0.872527 0.052474 -0.017959 225198.000000 0 0 1
-13.082537 -30.099935 29.116263 43.873860 1.160792 0.845128 0.046729 -0.006100 316819.000000 0 0 1
-13.869237 -29.534625 30.141163 44.420035 1.131769 0.825011 0.054068 -0.009546 308749.000000 0 0 1
-13.070637 -29.263795 31.436963 44.894252 1.150733 0.795056 0.043977 -0.005730 -405364.000000 0 0 1
-13.875137 -28.629915 32.430263 45.430313 1.119514 0.775821 0.051299 -0.005458 273256.000000 0 0 1
-13.408937 -28.562955 33.779363 46.224315 1.131884 0.751346 0.039601 0.001403 -367855.000000 0 0 1
-12.879137 -29.840255 -33.816340 46.902642 1.163346 2.376026 0.037341 0.006168 506962.000000 0 0 1
-11.504437 -30.123065 -34.105140 46.935186 1.205977 2.384220 0.034368 0.009396 411577.000000 0 0 1
-11.011437 -31.161195 -33.286540 46.906988 1.231122 2.359767 0.026275 0.007090 -1157690.000000 0 0 1
-9.569837 -31.456765 -33.559740 46.982613 1.275471 2.366421 0.020713 -0.004186 -893314.000000 0 0 1
-8.700537 -30.623915 -32.775140 45.691720 1.293981 2.370731 0.041016 -0.011047 534082.000000 0 0 1
-7.398937 -31.220175 -32.663240 45.785705 1.338097 2.365126 0.059683 -0.019288 731946.000000 0 0 1
-6.521237 -30.372075 -31.654940 44.351152 1.359296 2.365612 0.069791 -0.016231 446809.000000 0 0 1
-6.999937 -30.429095 -30.282440 43.496610 1.344689 2.340890 0.065945 -0.026347 -187496.000000 0 0 1
-6.128637 -29.684445 -29.516340 42.307692 1.367197 2.342921 0.065271 -0.021894 -393945.000000 0 0 1
-6.309337 -29.749205 -27.975140 41.321077 1.361809 2.314500 0.065396 -0.028676 -579903.000000 0 0 1
-5.869037 -30.905515 -27.325240 41.668515 1.383128 2.286007 0.057227 -0.028314 83555.900000 0 0 1
-6.905437 -31.506005 -26.569540 41.788202 1.355030 2.259860 0.061376 -0.024981 278302.000000 0 0 1
-6.414737 -32.871175 -26.016440 42.408939 1.378071 2.231238 0.058893 -0.023032 91653.300000 0 0 1
-5.570437 -32.698765 -24.928840 41.493205 1.402060 2.215289 0.043838 -0.021161 -417463.000000 0 0 1
-5.253737 -33.883325 -24.200140 41.968181 1.416968 2.185395 0.054185 -0.021301 -186777.000000 0 0 1
-4.221137 -33.627635 -23.069540 40.998042 1.445924 2.168443 0.057799 -0.029898 -183686.000000 0 0 1
-4.581937 -32.976625 -21.872340 39.835301 1.432735 2.152047 0.075505 -0.025430 -99410.700000 0 0 1
-4.683837 -31.554035 -22.001240 38.751129 1.423434 2.174575 0.049727 -0.016827 -441803.000000 0 0 1
-5.063637 -30.821275 -20.747640 37.497413 1.407961 2.157127 0.085246 -0.028365 -231986.000000 0 0 1
-6.413137 -30.954195 -20.336240 37.587939 1.366505 2.142459 0.089843 -0.041599 314724.000000 0 0 1
-7.082437 -29.734405 -20.022040 36.540085 1.336963 2.150705 0.092671 -0.035244 302996.000000 0 0 1
-7.514337 -28.743775 -21.165840 36.478249 1.315094 2.189810 0.101511 -0.048494 259333.000000 0 0 1
-6.357637 -28.252805 -21.859140 36.283089 1.349456 2.217377 0.085760 -0.031317 329813.000000 0 0 1
-6.643037 -27.679665 -23.105040 36.662469 1.335254 2.252619 0.109204 -0.044320 121785.000000 0 0 1
-5.396637 -27.867695 -24.058640 37.209545 1.379512 2.273878 0.113917 -0.040859 1698930.000000 0 0 1
-4.176437 -27.147625 -23.839940 36.370027 1.418151 2.285619 0.106450 -0.040896 525653.000000 0 0 1
-3.501537 -27.386385 -22.650540 35.711648 1.443629 2.257850 0.058773 -0.038830 -532289.000000 0 0 1
-2.046737 -26.794195 -22.688140 35.169158 1.494557 2.271970 0.064312 -0.034683 377700.000000 0 0 1
-1.933737 -25.392715 -22.985540 34.305456 1.494790 2.305040 0.077815 -0.040774 26933.000000 0 0 1
-2.322037 -24.526335 -21.934940 32.985975 1.476402 2.298260 0.095753 -0.043508 -1653660.000000 0 0 1
-2.432437 -23.061435 -22.408240 32.247104 1.465708 2.339065 0.110830 -0.043939 -13713.700000 0 0 1
-3.381737 -22.943535 -23.476540 32.999846 1.424456 2.362304 0.092680 -0.052058 1012210.000000 0 0 1
-4.696437 -23.458935 -23.281140 33.382475 1.373210 2.342568 0.088875 -0.050342 -803820.000000 0 0 1
-5.555737 -23.684835 -24.569140 34.575718 1.340392 2.361132 0.072359 -0.037929 322543.000000 0 0 1
-5.808637 -22.477835 -25.303640 34.340465 1.317912 2.399190 0.098145 -0.041117 97432.300000 0 0 1
-6.300837 -22.613535 -26.616440 35.489539 1.299057 2.418828 0.104687 -0.042984 -91020.000000 0 0 1
-6.370037 -21.239535 -27.274340 35.150887 1.279418 2.458971 0.126299 -0.039409 6049.560000 0 0 1
-6.524737 -21.249035 -28.667840 36.275870 1.272875 2.482051 0.130286 -0.033195 987573.000000 0 0 1
-5.282137 -21.578935 -29.318440 36.784811 1.330735 2.493151 0.115921 -0.035591 515155.000000 0 0 1
-5.607437 -21.950335 -30.807740 38.241043 1.320685 2.507517 0.121615 -0.039808 -137446.000000 0 0 1
-6.035737 -20.800235 -31.447540 38.184128 1.288376 2.538484 0.118944 -0.042589 -251548.000000 0 0 1
-6.934837 -21.144135 -32.466340 39.360254 1.253872 2.540735 0.109795 -0.038243 -312456.000000 0 0 1
-6.772937 -20.242635 -33.683240 39.877282 1.247917 2.576749 0.102552 -0.036135 62325.700000 0 0 1
-5.584337 -20.502135 33.905863 40.014121 1.304869 0.559826 0.107173 -0.033666 -196449.000000 0 0 1
-5.573637 -19.954035 32.624563 38.647005 1.298415 0.565785 0.111872 -0.033884 489046.000000 0 0 1
-4.366837 -20.427335 31.754163 38.008843 1.360192 0.581861 0.084797 -0.031849 -407437.000000 0 0 1
-4.299937 -21.848935 31.585363 38.645835 1.376477 0.614081 0.097934 -0.029119 1452790.000000 0 0 1
-3.065237 -22.457635 31.047363 38.440600 1.435145 0.630605 0.088108 -0.016271 2779870.000000 0 0 1
-1.695737 -22.191435 31.831563 38.840490 1.494531 0.610178 0.069030 -0.021688 777378.000000 0 0 1
-1.102637 -20.984435 31.382163 37.767743 1.518299 0.590028 0.052924 -0.015525 68130.500000 0 0 1
-0.124737 -20.355535 32.224863 38.115681 1.564668 0.563391 0.058445 -0.019872 258596.000000 0 0 1
-0.622237 -19.880435 33.611963 39.056151 1.539508 0.534338 0.050643 -0.023673 -324450.000000 0 0 1
-1.458237 -18.772235 33.355763 38.303135 1.493271 0.513895 0.051591 -0.027127 -327173.000000 0 0 1
-1.999437 -18.478435 -33.664240 38.454276 1.463012 2.637133 0.065089 -0.032141 -121938.000000 0 0 1
-3.067637 -17.374135 -33.659540 38.003100 1.396034 2.658807 0.062456 -0.032658 -154703.000000 0 0 1
-2.654837 -16.038535 -33.984840 37.672962 1.406755 2.695412 0.065329 -0.028258 -440181.000000 0 0 1
-3.651437 -15.075235 -33.842740 37.228037 1.333159 2.711833 0.077583 -0.026156 -116409.000000 0 0 1
-3.094037 -13.692735 34.081663 36.859514 1.348566 0.390716 0.054711 -0.024584 245164.000000 0 0 1
-2.172337 -13.123635 -33.295040 35.853989 1.406755 2.761496 0.055008 -0.019980 121152.000000 0 0 1
-1.946337 -11.711435 -33.307140 35.359744 1.406110 2.799190 0.049511 -0.014435 121793.000000 0 0 1
-1.244537 -11.048635 33.769963 35.553222 1.458627 0.318064 0.047937 -0.014101 325654.000000 0 0 1
-2.121537 -11.132535 32.628463 34.540568 1.382483 0.334295 0.054602 -0.019701 892213.000000 0 0 1
-1.439537 -10.856535 31.366863 33.223737 1.438969 0.335912 0.045468 -0.018173 655430.000000 0 0 1
-0.514537 -11.959835 30.756863 33.004348 1.527801 0.371171 0.027825 -0.026994 474951.000000 0 0 1
-1.270537 -13.008635 30.195763 32.903236 1.473436 0.408509 0.047976 -0.030856 778017.000000 0 0 1
-0.316537 -14.086535 29.969663 33.116632 1.548329 0.439480 0.033155 -0.029437 841486.000000 0 0 1
-0.677237 -15.435635 30.548563 34.233495 1.526950 0.468251 0.033694 -0.030894 173217.000000 0 0 1
-1.520437 -16.272535 29.753563 33.946747 1.477631 0.502300 0.040404 -0.033421 274848.000000 0 0 1
-1.930637 -17.365835 30.563263 35.205292 1.460077 0.519346 0.051874 -0.027675 -162727.000000 0 0 1
-2.501137 -18.419935 29.611263 34.962502 1.435837 0.560586 0.055091 -0.024026 -302646.000000 0 0 1
-3.634737 -18.017035 28.873163 34.226954 1.371729 0.566882 0.056717 -0.028989 -169626.000000 0 0 1
-4.173437 -19.135535 28.248363 34.373773 1.356060 0.606234 0.062006 -0.030549 113757.000000 0 0 1
-4.595937 -18.855335 26.782263 33.074701 1.331711 0.627069 0.051265 -0.027209 -404081.000000 0 0 1
-5.141837 -19.878535 26.018063 33.144143 1.317681 0.668105 0.057867 -0.026845 -844387.000000 0 0 1
-4.299737 -20.940835 25.810863 33.514279 1.368283 0.691728 0.071749 -0.023012 -1002180.000000 0 0 1
-29.865947 -33.698739 -0.249737 45.029348 0.845623 1.576342 0.060933 -0.008347 -466638.000000 0 0 1
-28.938707 -32.686239 -0.101737 43.656035 0.846135 1.573127 0.067466 -0.004932 -378873.000000 0 0 1
-28.976007 -32.194039 1.227763 43.330965 0.837958 1.542458 0.051615 -0.001167 322275.000000 0 0 1
-28.195667 -30.860439 1.485263 41.827842 0.830490 1.535280 0.066342 -0.007276 105768.000000 0 0 1
-26.803117 -30.978739 1.557663 40.994093 0.857538 1.532790 0.088323 -0.008203 -830827.000000 0 0 1
-26.266447 -29.735939 1.880763 39.720141 0.847272 1.523428 0.087650 -0.007856 -378935.000000 0 0 1
-24.766537 -29.798339 2.170563 38.807650 0.877355 1.514836 0.079776 -0.011449 -471380.000000 0 0 1
-24.446237 -30.627639 3.259663 39.322973 0.897169 1.487806 0.080518 -0.012286 -1637590.000000 0 0 1
-23.123237 -30.464239 3.523563 38.407935 0.921542 1.478927 0.077810 -0.011869 -1849460.000000 0 0 1
-22.876137 -31.003439 4.969863 38.848815 0.935111 1.442516 0.086095 -0.020801 -97914.700000 0 0 1
-23.289437 -30.193039 6.077763 38.612908 0.913770 1.412737 0.073843 -0.015052 78521.700000 0 0 1
-22.880537 -30.840939 7.304063 39.090048 0.932507 1.382839 0.068770 -0.018192 262398.000000 0 0 1
-23.478237 -30.051239 8.532863 39.078310 0.907579 1.350670 0.073097 -0.011672 119551.000000 0 0 1
-22.805337 -28.857839 8.837263 37.827972 0.902020 1.335000 0.091280 -0.016451 60674.700000 0 0 1
-23.441837 -28.165039 9.910163 37.960512 0.876667 1.306671 0.075428 -0.011661 512380.000000 0 0 1
-22.500637 -27.033739 10.479463 36.700421 0.876658 1.281226 0.072334 -0.018860 276616.000000 0 0 1
-21.320837 -27.524539 11.037963 36.524170 0.911729 1.263786 0.073157 -0.022648 -856224.000000 0 0 1
-20.633937 -26.482039 11.673263 35.543253 0.908888 1.236162 0.060927 -0.021471 1001110.000000 0 0 1
-19.247637 -26.908539 12.317463 35.302421 0.949877 1.214386 0.056040 -0.018480 811291.000000 0 0 1
-19.343837 -27.741939 13.453563 36.397769 0.961900 1.192190 0.052447 -0.013119 -669099.000000 0 0 1
-18.156837 -27.918339 14.164863 36.190437 0.994171 1.168646 0.069537 -0.020905 -454670.000000 0 0 1
-18.258437 -29.087639 15.174063 37.546151 1.010255 1.154753 0.086652 -0.026861 -16863.400000 0 0 1
-18.162037 -30.352439 14.564563 38.252538 1.031575 1.180192 0.089974 -0.028271 -57394.800000 0 0 1
-18.189737 -31.397939 15.534663 39.471798 1.045715 1.166292 0.095162 -0.026854 92658.800000 0 0 1
-17.785237 -32.726439 14.867963 40.104748 1.072995 1.191003 0.086816 -0.035762 30844.700000 0 0 1
-17.821737 -33.734439 15.844763 41.312023 1.084770 1.177171 0.096852 -0.031793 132560.000000 0 0 1
-17.833637 33.249265 15.284263 40.708242 -1.078484 1.185905 0.070091 -0.035367 -267345.000000 0 0 1
-17.636437 31.986065 16.177863 39.948411 -1.066895 1.153852 0.062800 -0.030604 -58534.700000 0 0 1
-18.722537 31.744465 17.050063 40.607255 -1.037919 1.137486 0.072171 -0.034179 255184.000000 0 0 1
-18.555137 30.623965 17.898363 40.030885 -1.026048 1.107260 0.046683 -0.025462 151230.000000 0 0 1
-19.358637 30.853265 19.211363 41.179574 -1.010443 1.085437 0.047266 -0.026878 154455.000000 0 0 1
-18.699437 31.820865 19.947163 41.953852 -1.039509 1.075315 0.047899 -0.024012 315076.000000 0 0 1
-19.371837 32.008865 21.192663 42.999587 -1.026560 1.055426 0.045396 -0.018304 410370.000000 0 0 1
-18.735437 33.248965 21.963263 44.032888 -1.057656 1.048592 0.032403 -0.011623 275804.000000 0 0 1
-17.464537 32.967065 22.502563 43.568369 -1.083627 1.028051 0.027569 -0.018356 -350014.000000 0 0 1
-17.248337 33.809365 23.623763 44.706381 -1.099050 1.014057 0.032709 -0.021426 -187153.000000 0 0 1
-17.771737 33.326165 24.992363 45.288919 -1.080891 0.986224 0.016555 -0.025801 -781833.000000 0 0 1
-19.161837 33.379965 25.046863 45.921056 -1.049675 0.993891 -0.013133 -0.021772 -608692.000000 0 0 1
-19.722837 32.137665 25.385163 45.455762 -1.020365 0.978270 -0.005558 -0.009029 109590.000000 0 0 1
-21.273337 32.149665 25.297963 46.110116 -0.986242 0.990057 0.072026 -0.017221 77611.800000 0 0 1
-21.799737 32.024165 24.029063 45.586967 -0.973122 1.015607 0.049942 -0.006083 -87653.900000 0 0 1
-23.206237 32.050765 24.064063 46.312635 -0.944114 1.024413 0.028420 -0.008120 -264340.000000 0 0 1
-23.954337 31.779265 22.746663 45.838223 -0.924885 1.051536 0.021656 -0.008049 -199178.000000 0 0 1
-23.744337 32.809965 21.841563 46.014576 -0.944345 1.076212 0.032403 -0.008189 189574.000000 0 0 1
-23.768037 32.334265 20.515863 45.070222 -0.936917 1.098202 0.026288 -0.008396 -70464.700000 0 0 1
-23.219937 33.295665 19.419963 44.998909 -0.961827 1.124569 0.035349 -0.005847 -791519.000000 0 0 1
-21.893937 33.624365 19.620863 44.664535 -0.993625 1.115984 0.045069 -0.015889 -870415.000000 0 0 1
-21.297937 34.091365 18.431463 44.221512 -1.012390 1.140876 0.053115 -0.012573 -273889.000000 0 0 1
-19.988837 -33.454739 18.658563 43.207814 1.032225 1.124272 0.064898 -0.018602 -306719.000000 0 0 1
-20.132837 -32.323839 19.461163 42.765624 1.013746 1.098350 0.074912 -0.026876 -403075.000000 0 0 1
-18.877737 -31.789139 19.696363 41.891109 1.034917 1.081302 0.071205 -0.031200 -853274.000000 0 0 1
-18.908137 -30.753239 20.859363 41.694033 1.019541 1.046856 0.079049 -0.030741 -203934.000000 0 0 1
-19.620637 -29.637139 20.405063 40.984095 0.986011 1.049647 0.097157 -0.036457 78339.200000 0 0 1
-20.027137 -28.755039 21.386363 41.052588 0.962441 1.022832 0.098282 -0.030549 -650672.000000 0 0 1
-20.935537 -27.654539 20.864363 40.477054 0.922806 1.029250 0.071921 -0.022843 -735388.000000 0 0 1
-20.335137 -26.604539 20.145463 39.078881 0.918175 1.029196 0.068951 -0.019566 -58838.500000 0 0 1
-20.970737 -25.333439 20.249363 38.621130 0.879339 1.018894 0.053385 -0.004875 -318482.000000 0 0 1
-22.164937 -25.119039 19.290563 38.657165 0.847793 1.048333 0.031294 -0.005835 276639.000000 0 0 1
-23.442337 -25.344839 19.895363 39.846324 0.824374 1.048003 0.025324 -0.003578 969548.000000 0 0 1
-24.458137 -25.209039 18.879863 39.876627 0.800516 1.077585 0.020879 0.003143 501412.000000 0 0 1
-25.847377 -25.766139 19.291863 41.281434 0.783824 1.084533 0.020054 -0.008067 86646.800000 0 0 1
-25.927567 -27.203239 19.372263 42.279304 0.809404 1.094830 0.016270 -0.008891 40863.300000 0 0 1
-26.029907 -27.883039 18.156363 42.245396 0.819757 1.126544 0.015162 -0.009170 118768.000000 0 0 1
-27.288597 -28.817439 18.216563 43.668702 0.812641 1.140485 0.016266 -0.016028 375617.000000 0 0 1
-28.468427 -28.063539 18.086863 43.876511 0.778236 1.145905 0.011354 -0.021814 -981104.000000 0 0 1
-29.613387 -28.846739 18.048963 45.109335 0.772285 1.159153 0.014301 -0.012762 460753.000000 0 0 1
-30.901517 -28.094539 18.580863 45.710561 0.737855 1.152188 0.021447 -0.015581 957468.000000 0 0 1
-31.315807 -27.091939 17.649063 45.012691 0.713207 1.167893 0.044925 -0.004750 -233374.000000 0 0 1
-32.675137 -26.765939 17.833163 45.848684 0.686311 1.171297 0.063303 0.009587 -9435.610000 0 0 1
-33.240017 -25.569939 17.107263 45.292151 0.655709 1.183475 0.075160 -0.004779 -322943.000000 0 0 1
-33.223707 -25.776439 15.673563 44.876498 0.659838 1.214015 0.086902 -0.018339 74943.100000 0 0 1
-33.580947 -24.690539 14.850063 44.247340 0.633997 1.228539 0.084659 -0.021655 -119034.000000 0 0 1
-32.534867 -23.564839 14.821763 42.819433 0.626846 1.217337 0.084872 -0.008661 -79495.600000 0 0 1
-32.562937 -22.832839 16.048663 42.886396 0.611525 1.187248 0.063946 -0.001038 94064.200000 0 0 1
-32.013897 -21.491439 15.999763 41.746425 0.591214 1.177472 0.059300 -0.001220 -455150.000000 0 0 1
-32.883847 -20.392239 16.521063 42.072988 0.555089 1.167257 0.057882 -0.012627 -533005.000000 0 0 1
-33.058257 -20.311039 17.914663 42.735487 0.550942 1.138234 0.056163 0.006051 221314.000000 0 0 1
-33.726477 -19.076439 18.172163 42.797351 0.514758 1.132266 0.056358 0.010497 67748.100000 0 0 1
-34.332116 -18.943339 19.607263 43.840496 0.504199 1.107118 0.049633 -0.010167 -60520.400000 0 0 1
-35.546537 -19.655839 19.778263 45.178402 0.505113 1.117667 0.047909 -0.000347 412264.000000 0 0 1
-35.961713 -19.327039 21.136763 45.973275 0.493144 1.093069 0.047146 0.000640 275952.000000 0 0 1
35.577062 -19.906639 21.573763 46.124060 -0.510135 1.084072 0.051555 -0.000373 348273.000000 0 0 1
35.476012 -21.317239 21.735463 46.748289 -0.541075 1.087222 0.056954 -0.007167 236343.000000 0 0 1
36.194642 -21.878539 22.848863 48.070710 -0.543699 1.075471 0.036523 0.005345 97369.200000 0 0 1
35.596282 -23.251139 23.248363 48.458200 -0.578615 1.070414 0.039455 0.005351 -109187.000000 0 0 1
34.532892 -23.168139 24.145763 48.086393 -0.590928 1.044733 0.058144 -0.013132 -283064.000000 0 0 1
34.252422 -24.354239 24.758463 48.778467 -0.618085 1.038435 0.055243 -0.023119 -906545.000000 0 0 1
33.286022 -24.268439 25.898363 48.658418 -0.629983 1.009542 0.057435 -0.023061 -840670.000000 0 0 1
31.970032 -24.269539 25.431963 47.517136 -0.649321 1.006032 0.070605 -0.026105 -453316.000000 0 0 1
31.029382 -24.295039 26.474263 47.475869 -0.664269 0.979261 0.070337 -0.025471 338477.000000 0 0 1
29.595852 -24.802539 26.173563 46.649071 -0.697510 0.975114 0.047745 -0.026583 372990.000000 0 0 1
28.704122 -23.862439 25.604163 45.264951 -0.693552 0.969574 0.051016 -0.023454 -435278.000000 0 0 1
27.406542 -24.372339 25.719763 44.795487 -0.726866 0.959219 0.032877 -0.012549 -168691.000000 0 0 1
26.252042 -23.442239 25.290263 43.339424 -0.728917 0.947716 0.024581 -0.008917 -234439.000000 0 0 1
26.222442 -22.975239 23.971363 42.309625 -0.719491 0.968459 0.037763 -0.006498 393218.000000 0 0 1
27.285942 -22.072639 23.581463 42.282496 -0.680167 0.979169 0.041535 -0.005022 526803.000000 0 0 1
26.980942 -21.401339 22.241963 40.996262 -0.670582 0.997343 0.053547 -0.012945 217760.000000 0 0 1
26.229242 -20.190839 22.294663 39.908585 -0.656043 0.978047 0.046499 -0.020473 202400.000000 0 0 1
26.131642 -19.656439 20.970563 38.845886 -0.644913 1.000549 0.034923 -0.014203 -250537.000000 0 0 1
25.335742 -18.355339 20.791263 37.564543 -0.626970 0.984258 0.046579 -0.011031 -252981.000000 0 0 1
25.785542 -17.113939 21.363463 37.605567 -0.585948 0.966609 0.051809 -0.030327 674.930000 0 0 1
25.888542 -17.133739 22.720763 38.470959 -0.584645 0.939000 0.050686 -0.016319 -348062.000000 0 0 1
25.832842 -15.791839 23.424863 38.281094 -0.548693 0.912314 0.064002 -0.005160 389575.000000 0 0 1
24.563242 -15.110339 23.433863 37.159402 -0.551492 0.888431 0.020878 -0.012822 502613.000000 0 0 1
24.561742 -13.857539 24.056463 37.067829 -0.513674 0.864547 0.012975 -0.008373 913255.000000 0 0 1
23.158542 -13.198639 23.775963 35.718603 -0.518012 0.842437 -0.010635 -0.012697 1841330.000000 0 0 1
21.980742 -13.953939 24.143063 35.507083 -0.565634 0.823101 0.018078 -0.013753 692375.000000 0 0 1
20.813142 -13.159539 24.089063 34.447690 -0.563811 0.796387 0.030724 -0.014773 -475638.000000 0 0 1
19.556042 -13.925039 24.424663 34.247769 -0.618773 0.776779 0.041968 -0.014231 -797989.000000 0 0 1
19.260742 -14.885439 23.408063 33.771140 -0.657958 0.804963 0.051629 -0.022195 -754814.000000 0 0 1
17.962742 -15.360239 23.539663 33.357350 -0.707457 0.787412 0.050386 -0.010022 -626821.000000 0 0 1
17.591342 -16.678539 22.792963 33.273836 -0.758769 0.816177 0.045053 -0.018222 -649915.000000 0 0 1
18.259042 -17.810639 23.291063 34.541064 -0.772967 0.830779 0.037904 -0.016042 -19772.100000 0 0 1
17.809742 -18.972939 22.683563 34.521057 -0.817011 0.853840 0.042379 -0.022328 -459911.000000 0 0 1
18.542142 -20.196039 23.204463 35.918493 -0.828066 0.868423 0.040812 -0.010521 -441347.000000 0 0 1
18.089842 -20.732039 24.446763 36.806305 -0.853353 0.844373 0.059887 -0.009465 76970.900000 0 0 1
18.361942 -22.116239 24.666963 37.878068 -0.877882 0.861605 0.067266 -0.016030 -255557.000000 0 0 1
17.806542 -23.279039 23.768363 37.734887 -0.917816 0.889401 0.057696 -0.013135 221235.000000 0 0 1
18.486242 -23.439439 22.524063 37.396282 -0.902995 0.924408 0.053016 -0.008862 465283.000000 0 0 1
19.674942 -24.232239 22.551063 38.507859 -0.888822 0.945149 0.056967 -0.016799 67160.600000 0 0 1
20.439542 -24.191139 21.252763 38.140084 -0.869260 0.979751 0.048511 -0.008819 -622775.000000 0 0 1
19.751842 -24.804639 20.160663 37.574695 -0.898318 1.004454 0.058721 -0.017002 -175391.000000 0 0 1
20.574442 -25.324739 19.165463 37.841314 -0.888525 1.039711 0.049448 0.001490 71811.200000 0 0 1
19.723542 -25.963039 17.997763 37.242677 -0.921130 1.066426 0.041769 -0.008321 325325.000000 0 0 1
19.187142 -27.218739 18.366363 38.030639 -0.956773 1.066792 0.065482 -0.017443 195744.000000 0 0 1
18.306142 -27.626839 17.303863 37.386906 -0.985599 1.089609 0.066385 -0.017227 -214334.000000 0 0 1
17.433542 -28.845039 17.707863 38.072734 -1.027158 1.087042 0.073736 -0.016287 3641.500000 0 0 1
16.462242 -28.288639 18.599763 37.645766 -1.043763 1.054028 0.063535 -0.020654 -620657.000000 0 0 1
15.897742 -29.292239 19.310563 38.518454 -1.073553 1.045658 0.068985 -0.027692 -422671.000000 0 0 1
14.680242 -28.817639 20.131763 38.095324 -1.099642 1.014014 0.056401 -0.021348 -430108.000000 0 0 1
13.666642 -28.378539 19.297363 36.939231 -1.121990 1.021123 0.059657 -0.014728 -208429.000000 0 0 1
12.388842 -28.257739 19.928863 36.730679 -1.157611 0.997306 0.034388 -0.008299 467616.000000 0 0 1
11.325242 -27.929639 18.871463 35.559218 -1.185565 1.011364 0.041636 -0.015481 -405035.000000 0 0 1
11.163442 -28.958839 17.893863 35.824951 -1.202858 1.047797 0.041977 -0.020438 76004.700000 0 0 1
10.518642 -28.386939 16.765263 34.605407 -1.215937 1.065040 0.056375 -0.020846 -11150.400000 0 0 1
10.404442 -29.312039 15.494463 34.749481 -1.229714 1.108627 0.057593 -0.017484 304997.000000 0 0 1
9.281542 -30.191939 15.536063 35.200419 -1.272548 1.113682 0.055493 -0.011396 334106.000000 0 0 1
9.298242 -31.007539 14.402663 35.431081 -1.279458 1.152179 0.052493 -0.009355 170500.000000 0 0 1
8.058442 -31.929739 14.307963 35.904938 -1.323578 1.160920 0.051692 -0.012435 -26743.300000 0 0 1
7.965442 -32.876239 15.377363 37.158561 -1.333091 1.144138 0.058807 -0.011600 422350.000000 0 0 1
7.119642 -34.003839 15.005463 37.843286 -1.364400 1.163078 0.049572 -0.012027 307917.000000 0 0 1
7.162942 33.173865 16.039763 37.537809 1.358140 1.129296 0.053651 -0.012923 84409.100000 0 0 1
8.355642 32.426065 16.166763 37.183742 1.318600 1.121002 0.049635 -0.016946 -219653.000000 0 0 1
8.388542 31.585265 17.322363 36.987307 1.311205 1.083394 0.055287 -0.023983 -260228.000000 0 0 1
9.643442 30.718265 17.467063 36.629306 1.266608 1.073717 0.049724 -0.025071 -413449.000000 0 0 1
9.728842 29.737565 16.408063 35.329841 1.254615 1.087811 0.052494 -0.019095 -194862.000000 0 0 1
10.792842 28.855765 16.674463 35.031106 1.212879 1.074707 0.051539 -0.024176 -456395.000000 0 0 1
11.537942 28.307565 15.497963 34.272864 1.183762 1.101573 0.054257 -0.024617 -195878.000000 0 0 1
10.850542 27.362665 14.670463 32.888785 1.193271 1.108435 0.060343 -0.023626 98728.800000 0 0 1
11.651742 27.071865 13.527663 32.429102 1.164360 1.140494 0.050771 -0.014115 281866.000000 0 0 1
-9.429137 -9.222535 19.377566 23.440431 0.774322 0.597628 0.016395 -0.011869 -18642.800000 0 1 0
-9.691037 -9.286135 17.988166 22.443765 0.764065 0.641035 0.019733 -0.012968 232925.000000 0 1 0
-9.183937 -10.482435 17.407166 22.298779 0.851329 0.675118 0.014827 -0.023554 -469155.000000 0 1 0
-9.656537 -10.556735 15.959966 21.433942 0.829904 0.730843 0.017332 -0.026708 -255719.000000 0 1 0
-11.068837 -10.629335 15.954166 22.136786 0.765146 0.765973 0.030077 -0.022409 139953.000000 0 1 0
-11.609437 -10.947835 14.681866 21.683895 0.756077 0.827000 0.038488 -0.025793 72957.000000 0 1 0
-11.546437 -12.452035 14.272366 22.182736 0.823116 0.871865 0.023239 -0.029957 -72001.100000 0 1 0
-10.189637 -12.798135 14.007866 21.536974 0.898388 0.862672 0.024054 -0.028603 490650.000000 0 1 0
-10.013537 -14.198935 13.736966 22.149151 0.956568 0.901795 0.024235 -0.029288 -701509.000000 0 1 0
-9.693437 -15.095835 14.941366 23.347191 0.999976 0.876345 0.032809 -0.031042 -781251.000000 0 1 0
-10.685237 -15.104835 15.886866 24.386939 0.955118 0.861303 0.056378 -0.010209 -724816.000000 0 1 0
-10.233537 -15.618535 17.167266 25.364915 0.990762 0.827374 0.047434 -0.012855 -189145.000000 0 0 1
-11.194737 -15.282635 18.304266 26.342498 0.938581 0.802575 0.048258 -0.003330 -562484.000000 0 0 1
-11.426237 -13.917735 18.497366 25.815010 0.883391 0.771974 0.045894 -0.010744 159036.000000 0 0 1
-12.578937 -13.355135 17.886966 25.622896 0.815319 0.798077 0.040780 -0.018429 411794.000000 0 0 1
-13.868337 -13.513135 18.745366 26.950405 0.772427 0.801611 0.030734 -0.008073 -162248.000000 0 0 1
-14.382837 -14.796535 18.906866 27.987015 0.799575 0.829074 0.042758 -0.004307 -440108.000000 0 0 1
-15.450937 -14.724035 19.810766 29.120355 0.761313 0.822616 0.055489 -0.006059 -273643.000000 0 0 1
-15.975237 -16.109235 20.238866 30.402752 0.789575 0.842376 0.067700 -0.010515 -13184.400000 0 0 1
-17.089637 -16.528635 19.465466 30.727118 0.768712 0.884735 0.067392 -0.005981 271656.000000 0 0 1
-17.599137 -17.779535 19.989066 32.021933 0.790497 0.896650 0.054993 -0.008359 -603133.000000 0 0 1
-18.908937 -18.139635 19.332766 32.563017 0.764636 0.935143 0.057304 -0.008456 -917926.000000 0 0 1
-18.874037 -18.445435 17.956466 31.920182 0.773914 0.973338 0.059103 -0.014781 71945.500000 0 0 1
-19.302537 -17.364035 17.126166 31.103106 0.732579 0.987683 0.050885 -0.017605 -351757.000000 0 0 1
-19.035437 -17.493235 15.609666 30.199715 0.743204 1.027593 0.055911 -0.026827 -246376.000000 0 0 1
-19.697337 -18.451135 14.802666 30.782274 0.752743 1.069135 0.062619 -0.026928 312.176000 0 0 1
-19.243437 -18.360335 13.491566 29.823382 0.761918 1.101362 0.070020 -0.029614 59472.600000 0 0 1
-19.537437 -19.591835 12.549566 30.381623 0.786788 1.144980 0.084288 -0.027254 200764.000000 0 0 1
-18.811237 -20.737235 13.054466 30.891983 0.834059 1.134502 0.077887 -0.019410 362638.000000 0 0 1
-18.655037 -21.771535 12.102166 31.120291 0.862336 1.171377 0.062209 -0.016158 -487365.000000 0 0 1
-17.935937 -23.059235 12.553566 31.796512 0.909727 1.164936 0.053507 -0.013887 -99173.500000 0 0 1
-17.870137 -24.210935 11.812866 32.327310 0.934954 1.196718 0.074314 -0.026664 -275775.000000 0 0 1
-16.864337 -24.166635 10.844466 31.401187 0.961524 1.218182 0.063949 -0.023060 -447755.000000 0 0 1
-17.025637 -25.348035 9.804066 32.070467 0.979335 1.260119 0.070155 -0.024071 -681751.000000 0 0 1
-18.262537 -25.390495 9.171666 32.593204 0.947256 1.285546 0.067190 -0.022156 -805391.000000 0 0 1
-18.298437 -26.507755 8.312466 33.265462 0.966607 1.318237 0.085016 -0.024549 187171.000000 0 0 1
-19.572137 -26.585265 7.453566 33.843766 0.936184 1.348741 0.068277 -0.029269 173691.000000 0 0 1
-19.524237 -25.542285 6.495566 32.799337 0.918150 1.371439 0.077994 -0.031987 -1051510.000000 0 0 1
-20.632837 -25.556575 5.697466 33.336370 0.891596 1.399045 0.083783 -0.023875 -851694.000000 0 0 1
-20.662337 -24.233835 4.854766 32.214588 0.864781 1.419519 0.087905 -0.026209 -3408.470000 0 0 1
-21.484937 -24.256835 3.705866 32.614874 0.845923 1.456925 0.084196 -0.025964 38964.200000 0 0 1
-21.572437 -22.991435 3.000166 31.669814 0.817229 1.475921 0.082895 -0.013146 44325.200000 0 0 1
-22.323437 -23.096935 1.683466 32.165794 0.802426 1.518435 0.070232 -0.009348 -70240.900000 0 0 1
-21.502837 -23.717335 0.716466 32.021825 0.834331 1.548420 0.058128 -0.019413 252051.000000 0 0 1
-21.839937 -23.247935 -0.551034 31.902241 0.816616 1.588070 0.064257 -0.013047 -253064.000000 0 0 1
-21.248737 -24.079835 -1.698534 32.159482 0.847774 1.623637 0.070599 -0.017094 -327353.000000 0 0 1
-19.869537 -23.853035 -1.876534 31.101240 0.876256 1.631169 0.075929 -0.016694 -32588.000000 0 0 1
-19.306637 -24.497035 -3.021434 31.336560 0.903341 1.667365 0.063383 -0.009846 211426.000000 0 0 1
-19.002637 -26.015915 -2.999434 32.356215 0.939942 1.663630 0.073949 -0.014455 -176756.000000 0 0 1
-20.130037 -26.836515 -3.259434 33.705205 0.927232 1.667652 0.080890 -0.017348 224050.000000 0 0 1
-19.625537 -28.085595 -3.650834 34.457088 0.960892 1.676949 0.082311 -0.009420 66029.700000 0 0 1
-20.711437 -28.842285 -4.405634 35.780590 0.948030 1.694239 0.081637 -0.014410 -138652.000000 0 0 1
-21.016937 -28.217305 -5.625534 35.631090 0.930616 1.729342 0.063783 -0.012709 -378934.000000 0 0 1
-21.974537 -28.962075 -6.320934 36.900356 0.921728 1.742943 0.064856 -0.020296 -630543.000000 0 0 1
-22.487837 -28.198485 -7.493034 36.837520 0.897591 1.775633 0.045345 -0.006771 251626.000000 0 0 1
-21.482237 -27.921735 -8.510934 36.242872 0.915011 1.807841 0.064591 -0.010426 630177.000000 0 0 1
-21.921837 -28.090375 -9.842134 36.966251 0.908119 1.840293 0.051985 -0.003280 178174.000000 0 0 1
-22.897637 -26.993135 -10.409834 36.895742 0.867304 1.856822 0.043465 0.008170 13762.200000 0 0 1
-22.292437 -25.759725 -10.704634 35.708617 0.857430 1.875256 0.039090 0.014163 56309.100000 0 0 1
-21.709337 -25.005135 -9.663534 34.495449 0.855833 1.854736 0.028200 0.014563 -167446.000000 0 0 1
-21.442437 -23.516035 -9.877034 33.321732 0.831488 1.871732 0.015201 0.008302 -211452.000000 0 0 1
-22.566637 -22.761335 -10.241134 33.648362 0.789693 1.880060 0.024888 0.008568 -306306.000000 0 0 1
-22.280537 -21.366535 -10.406134 32.576660 0.764460 1.895930 0.040319 0.010506 658684.000000 0 0 1
-23.573037 -20.463635 -10.470334 32.925314 0.714906 1.894418 0.057784 0.011498 299291.000000 0 0 1
-24.227537 -20.727735 -11.704734 33.964884 0.707704 1.922623 0.055968 0.010677 419914.000000 0 0 1
-25.504947 -20.114835 -11.849234 34.576195 0.667790 1.920585 0.061738 0.005026 388328.000000 0 0 1
-25.460237 -18.536135 -12.009934 33.705348 0.629300 1.935124 0.066595 -0.004831 -1280590.000000 0 0 1
-24.754937 -18.071435 -13.161134 33.355646 0.630586 1.976396 0.085942 -0.004039 547898.000000 0 0 1
-24.424237 -16.669435 -13.058234 32.325391 0.598881 1.986640 0.081451 -0.017017 -247230.000000 0 0 1
-23.563337 -16.234435 -11.870134 30.978828 0.603285 1.964021 0.075948 -0.012425 -1103330.000000 0 0 1
-24.189937 -16.236235 -10.586034 30.997298 0.591133 1.919324 0.082948 -0.008848 682329.000000 0 0 1
-23.235737 -16.152535 -9.524934 29.858470 0.607470 1.895473 0.077505 -0.007548 409556.000000 0 0 1
-23.981637 -16.581735 -8.240234 30.298091 0.604954 1.846238 0.069478 -0.010156 332544.000000 0 0 1
-24.303737 -17.936535 -8.192234 31.297022 0.635787 1.835639 0.062596 -0.005944 -8600.340000 0 0 1
-25.506417 -18.176435 -7.500834 32.205941 0.619147 1.805857 0.065765 -0.005472 112022.000000 0 0 1
-25.724977 -19.612435 -7.008934 33.099051 0.651383 1.784168 0.064253 0.003529 67499.500000 0 0 1
-25.816777 -20.472435 -8.077934 33.924616 0.670452 1.811220 0.057039 -0.006450 -10390.800000 0 0 1
-25.833477 -21.749135 -7.519734 34.596818 0.699771 1.789899 0.062694 0.000439 154821.000000 0 0 1
-25.623577 -22.959135 -8.440334 35.424974 0.730610 1.811370 0.056487 0.008121 175059.000000 0 0 1
-25.805297 -24.208635 -7.839734 36.241313 0.753485 1.788840 0.048734 0.008136 -227067.000000 0 0 1
-25.426047 -25.264815 -8.744134 36.895184 0.782217 1.810072 0.029245 0.018286 -378083.000000 0 0 1
-26.021177 -26.609635 -8.400534 38.154204 0.796579 1.792788 0.034728 0.005435 -404733.000000 0 0 1
-25.884227 -27.178735 -7.133334 38.204205 0.809789 1.758615 0.044482 -0.008326 -23332.400000 0 0 1
-26.549717 -28.407645 -6.974234 39.503439 0.819192 1.748274 0.058586 -0.011538 -283609.000000 0 0 1
-26.433097 -28.980375 -5.530134 39.612537 0.831334 1.710859 0.069218 -0.017351 -159483.000000 0 0 1
-27.222607 -28.442785 -4.493034 39.626376 0.807315 1.684426 0.049142 -0.018582 -163381.000000 0 0 1
-26.843697 -28.841115 -3.201434 39.530281 0.821253 1.651872 0.041746 -0.014276 -624918.000000 0 0 1
-27.087327 -30.272965 -2.717234 40.713131 0.840878 1.637587 0.045731 0.005958 -92860.600000 0 0 1
-26.276477 -31.238445 -3.402634 40.961831 0.871458 1.653961 0.084030 -0.008857 214866.000000 0 0 1
-26.147207 -32.525985 -2.773834 41.824757 0.893690 1.637165 0.091145 -0.011973 464011.000000 0 0 1
-25.152577 -32.504145 -1.554034 41.128902 0.912220 1.608590 0.101483 -0.009926 -160126.000000 0 0 1
-23.813937 -32.252665 -1.830134 40.133370 0.934789 1.616413 0.105837 -0.018439 -442995.000000 0 0 1
-22.971037 -32.143565 -0.690034 39.513965 0.950313 1.588260 0.091802 -0.013441 284416.000000 0 0 1
-21.987237 -30.972055 -0.743534 37.990257 0.953453 1.590369 0.096735 -0.011277 -19030.200000 0 0 1
-22.499237 -29.671715 -0.454734 37.240208 0.922022 1.583007 0.089505 -0.015591 11451.300000 0 0 1
-23.133337 -28.997115 -1.555034 37.126838 0.897410 1.612693 0.100290 -0.022939 79370.600000 0 0 1
-23.776137 -27.653715 -1.203434 36.489463 0.860651 1.603783 0.060826 -0.019346 41178.500000 0 0 1
-24.949937 -27.751165 -0.416634 37.320237 0.838501 1.581960 0.086795 -0.023236 -224441.000000 0 0 1
-25.499877 -26.494545 -0.148434 36.772635 0.804526 1.574833 0.078361 -0.025543 71427.300000 0 0 1
-24.901037 -25.721755 1.070466 35.816424 0.801609 1.540904 0.090054 -0.016006 56495.500000 0 0 1
-25.329757 -26.137255 2.376666 36.474665 0.801086 1.505591 0.063047 -0.011370 -248429.000000 0 0 1
-24.818937 -25.270785 3.372266 35.580393 0.794419 1.475875 0.081477 -0.018013 -359658.000000 0 0 1
-25.694877 -24.122135 3.830566 35.451055 0.753838 1.462533 0.085755 -0.018482 -451697.000000 0 0 1
-25.873287 -23.151735 2.814966 34.833229 0.729942 1.489895 0.085362 -0.017661 -233054.000000 0 0 1
-26.779327 -22.153135 3.157266 34.897880 0.691136 1.480201 0.067995 -0.017575 -458370.000000 0 0 1
-26.635547 -20.899035 2.363666 33.938311 0.665298 1.501094 0.065344 -0.010312 -27213.400000 0 0 1
-25.499217 -20.098435 2.573766 32.569639 0.667503 1.491690 0.069391 -0.009032 -339938.000000 0 0 1
-25.233077 -19.250035 1.480066 31.772041 0.651699 1.524196 0.052221 -0.010960 241190.000000 0 0 1
-23.886437 -18.534935 1.750766 30.284829 0.659910 1.512954 0.072734 -0.007512 275412.000000 0 0 1
-22.750437 -19.340135 1.628266 29.904422 0.704552 1.516320 0.075101 -0.009747 268608.000000 0 0 1
-21.482737 -18.766235 1.902866 28.588467 0.718008 1.504186 0.071648 -0.003809 735374.000000 0 0 1
-20.225037 -19.617535 1.616366 28.222552 0.770152 1.513493 0.061393 -0.012356 21361.100000 0 0 1
-19.887437 -19.748035 0.255966 28.027853 0.781881 1.561664 0.050430 -0.007372 237288.000000 0 0 1
-18.834837 -20.698035 0.176666 27.985549 0.832494 1.564484 0.056303 -0.000877 154502.000000 0 0 1
-18.430837 -20.952935 -1.319634 27.936762 0.849350 1.618050 0.055608 -0.008744 12418.300000 0 0 1
-17.795337 -19.879335 -1.975234 26.753757 0.840657 1.644694 0.047407 -0.010516 -25110.400000 0 0 1
-17.821037 -20.032435 -3.422634 27.029655 0.843752 1.697762 0.064250 -0.011104 56394.300000 0 0 1
-17.054737 -18.887835 -4.145134 25.783648 0.836355 1.732263 0.062718 -0.016385 -232751.000000 0 0 1
-15.669837 -19.057535 -4.037934 25.000767 0.882642 1.733019 0.078077 -0.025596 -660235.000000 0 0 1
-15.049937 -18.372735 -5.065634 24.284123 0.884490 1.780938 0.078329 -0.025555 -486773.000000 0 1 0
-13.528137 -18.173135 -5.005734 23.201954 0.930887 1.788252 0.086383 -0.035785 -343997.000000 0 1 0
-12.806037 -19.346135 -5.287234 23.795427 0.986071 1.794862 0.066054 -0.035556 -786354.000000 0 1 0
-11.500437 -19.013535 -5.650934 22.928315 1.026814 1.819823 0.054538 -0.040297 -224071.000000 0 1 0
-10.549937 -20.238535 -5.627434 23.506754 1.090270 1.812541 0.055991 -0.038381 306682.000000 0 1 0
-11.020437 -21.264135 -6.426034 24.797326 1.092644 1.832930 0.055905 -0.031513 560433.000000 0 1 0
-9.841737 -22.003135 -6.808334 25.046979 1.150200 1.846083 0.061578 -0.026301 1057770.000000 0 0 1
-10.203237 -23.230035 -7.682334 26.509599 1.156938 1.864808 0.059234 -0.018977 -396019.000000 0 0 1
-10.480237 -22.803535 -8.975434 26.653236 1.139997 1.914258 0.059285 -0.008246 -271481.000000 0 0 1
-10.392637 -23.854835 -9.924434 27.848778 1.159930 1.935175 0.069612 -0.009230 -256207.000000 0 0 1
-11.188837 -23.676835 -11.221534 28.490444 1.129337 1.975635 0.087878 -0.012436 -185206.000000 0 0 1
-10.653337 -22.783035 -12.178834 27.944306 1.133403 2.021751 0.071820 -0.005244 -124497.000000 0 0 1
-11.565837 -22.463835 -13.218034 28.515064 1.095328 2.052789 0.073822 -0.013687 -508003.000000 0 0 1
-11.177337 -21.302235 -14.108434 27.888456 1.087583 2.101207 0.051609 0.004300 -240092.000000 0 0 1
-10.862937 -20.100535 -13.482134 26.529283 1.075330 2.103888 0.045026 0.006184 -159206.000000 0 0 1
-10.618937 -19.025735 -14.353634 26.091516 1.061729 2.153312 0.035368 0.018929 -16084.900000 0 0 1
-10.245737 -17.734335 -13.594734 24.582485 1.046909 2.156787 0.044387 0.010957 -518734.000000 0 1 0
-11.269037 -17.258235 -12.771934 24.247890 0.992339 2.125538 0.047853 0.001954 -581211.000000 0 1 0
-10.894937 -16.506535 -11.674334 22.966398 0.987397 2.104032 0.043661 -0.003577 -139297.000000 0 1 0
-10.349537 -15.086135 -11.985534 21.871383 0.969508 2.150769 0.039589 -0.002736 359555.000000 0 1 0
-11.323437 -14.167535 -12.475134 22.012911 0.896511 2.173314 0.036157 0.007530 -52255.800000 0 1 0
-11.244937 -13.992035 -13.875734 22.688359 0.893823 2.228852 0.039401 0.002681 218324.000000 0 1 0
-12.476437 -13.341135 -14.613234 23.392178 0.818878 2.245551 0.030376 0.002252 420181.000000 0 1 0
-12.598337 -12.011735 -14.202034 22.465477 0.761567 2.255149 0.029056 0.018188 170090.000000 0 1 0
-13.698237 -11.333535 -14.818134 23.144499 0.691210 2.265613 0.046396 -0.000188 432876.000000 0 1 0
-13.995237 -9.891535 -14.330934 22.340206 0.615261 2.267230 0.050745 -0.007106 -43499.000000 0 1 0
-13.004737 -8.933535 -14.657034 21.535085 0.601910 2.319394 0.041573 -0.003042 208763.000000 0 1 0
-13.262237 -8.223035 -15.822434 22.222841 0.555020 2.363124 0.046587 -0.011557 593594.000000 0 1 0
-12.188537 -7.071435 -15.949534 21.282699 0.525712 2.417972 0.039783 -0.004310 -203469.000000 0 1 0
-10.883337 -7.453035 -16.164334 20.863376 0.600459 2.457149 0.034930 -0.005570 -394743.000000 0 1 0
-9.963237 -6.418635 -15.763434 19.721836 0.572310 2.496906 0.023107 -0.003308 585745.000000 0 1 0
11.243563 21.972365 15.931166 29.376940 1.097822 0.997622 0.078218 -0.020096 -216464.000000 0 0 1
12.271863 21.946865 16.893966 30.293062 1.060946 0.979203 0.091760 -0.022647 -157240.000000 0 0 1
12.536063 20.596865 17.251766 29.648055 1.024049 0.949751 0.079757 -0.021221 572159.000000 0 0 1
13.797763 20.597665 18.183366 30.745355 0.980579 0.937980 0.077759 -0.027138 460302.000000 0 0 1
15.008563 21.066465 17.632666 31.304374 0.951771 0.972464 0.067399 -0.024141 773151.000000 0 0 1
16.075063 20.752965 18.597866 32.171009 0.911742 0.954406 0.065523 -0.021411 778019.000000 0 0 1
17.439163 21.297565 18.159366 32.976859 0.884676 0.987630 0.058397 -0.013864 -1144520.000000 0 0 1
17.724163 22.652465 18.409566 34.149557 0.906856 1.001444 0.061338 -0.017446 689995.000000 0 0 1
18.953563 23.167065 17.853266 34.852397 0.885101 1.032990 0.059317 -0.011994 858817.000000 0 0 1
20.264563 22.703465 18.517066 35.622768 0.842098 1.024168 0.053607 -0.015712 -553039.000000 0 0 1
20.521963 21.340765 18.265666 34.788127 0.804955 1.018017 0.054731 -0.017130 477753.000000 0 0 1
21.806963 20.983765 18.798366 35.626403 0.766163 1.014961 0.051686 -0.015477 627828.000000 0 0 1
22.146863 19.452965 18.618766 34.864880 0.720731 1.007441 0.037874 -0.019064 -200104.000000 0 0 1
22.379463 19.160465 17.252966 34.141304 0.708061 1.041020 0.026140 -0.013017 15054.800000 0 0 1
22.184363 17.760065 17.064166 33.147423 0.675086 1.030026 0.019559 -0.010318 528593.000000 0 0 1
23.324563 16.792665 17.612766 33.708135 0.623994 1.021007 0.026572 -0.011361 460764.000000 0 0 1
24.420063 16.700565 16.718466 33.981693 0.599830 1.056429 0.039084 -0.022559 338439.000000 0 0 1
25.240663 15.543265 17.096466 34.219487 0.551958 1.047646 0.023355 -0.003061 -881933.000000 0 0 1
26.519463 15.583265 16.253066 34.789111 0.531264 1.084688 0.071065 -0.028265 -1447360.000000 0 0 1
27.289063 16.702965 16.501566 35.999773 0.549251 1.094625 0.051924 -0.024670 -15512.300000 0 0 1
28.185363 16.540965 17.594966 37.116048 0.530704 1.076908 0.060554 -0.031005 -1305430.000000 0 0 1
29.516563 15.897165 17.289366 37.720943 0.494037 1.094659 0.086957 -0.040732 -1348250.000000 0 0 1
30.256663 16.573565 16.281166 38.147412 0.501126 1.129849 0.119082 -0.039861 -10546.600000 0 0 1
30.922963 15.653865 15.428166 37.938126 0.468612 1.151994 0.113852 -0.034386 -103993.000000 0 0 1
30.293763 15.320065 14.029366 36.731997 0.468211 1.178903 0.079557 -0.032103 -308793.000000 0 0 1
30.448363 16.367965 13.029366 36.942895 0.493246 1.210353 0.093132 -0.023836 176531.000000 0 0 1
29.680663 16.061565 11.831466 35.761700 0.496020 1.233601 0.082180 -0.019632 1620440.000000 0 0 1
28.151963 16.484265 11.869266 34.715177 0.529724 1.221854 0.059959 -0.021542 936567.000000 0 0 1
28.014063 17.915865 11.832966 35.295680 0.568980 1.228923 0.039151 -0.013844 -152357.000000 0 0 1
28.324663 18.707065 12.997466 36.347970 0.583687 1.205116 0.045415 -0.017903 -369148.000000 0 0 1
27.409563 18.705265 14.240066 36.110256 0.598840 1.165436 0.029714 -0.016611 49938.700000 0 0 1
26.222263 19.492065 14.087166 35.580836 0.639225 1.163727 0.033864 -0.014039 263192.000000 0 0 1
25.391463 19.286665 15.226366 35.334743 0.649600 1.125287 0.026483 -0.016156 -230582.000000 0 0 1
25.739063 19.933365 16.639666 36.561139 0.658960 1.098291 0.041210 -0.028214 -464746.000000 0 0 1
25.926863 21.344965 16.567166 37.447039 0.688773 1.112506 0.024562 -0.023409 -197053.000000 0 0 1
24.785363 22.125865 16.776466 37.219859 0.728767 1.103203 0.019273 -0.015450 -511473.000000 0 0 1
25.063863 23.564765 16.281866 38.060406 0.754580 1.128750 0.023868 -0.007649 -186187.000000 0 0 1
24.934163 23.829265 14.906066 37.573091 0.762744 1.162853 0.048574 -0.019002 58663.300000 0 0 1
24.933163 25.248665 14.616966 38.377251 0.791685 1.180053 0.055937 -0.012980 -218832.000000 0 0 1
24.747563 25.630465 13.155966 37.979495 0.802922 1.217069 0.065118 -0.019305 -595901.000000 0 0 1
23.624363 25.109465 12.550266 36.689303 0.815862 1.221679 0.075520 -0.009785 -460446.000000 0 0 1
23.673663 25.443865 11.230066 36.523239 0.821423 1.258256 0.086668 -0.024698 132126.000000 0 0 1
22.599963 24.698665 10.394066 35.054515 0.829740 1.269759 0.082048 -0.027053 89082.000000 0 0 1
21.232163 24.763665 10.775466 34.353377 0.862027 1.251746 0.098721 -0.024607 299802.000000 0 0 1
20.745563 23.570165 11.318766 33.377321 0.849050 1.224820 0.093056 -0.028971 -101615.000000 0 0 1
20.493863 22.385165 10.377866 32.074821 0.829477 1.241316 0.099606 -0.029622 -420469.000000 0 0 1
19.489163 22.599665 9.378066 31.281312 0.859167 1.266316 0.107074 -0.021195 447693.000000 0 0 1
19.841763 23.450665 8.238466 31.804113 0.868567 1.308771 0.097938 -0.018587 -265065.000000 0 0 1
18.696563 23.588765 7.215266 30.952405 0.900581 1.335523 0.089774 -0.017953 -486931.000000 0 0 1
18.334963 22.348865 6.586266 29.648297 0.883741 1.346781 0.089623 -0.015879 516368.000000 0 0 1
17.519563 22.407365 5.419166 28.955008 0.907211 1.382528 0.089793 -0.014843 1092100.000000 0 0 1
16.076663 23.051465 5.401266 28.618225 0.961801 1.380922 0.071040 -0.009403 723643.000000 0 0 1
16.175763 24.448865 5.409366 29.810461 0.986298 1.388327 0.077823 -0.014334 656195.000000 0 0 1
14.888663 25.000465 5.714466 29.653847 1.033666 1.376878 0.059583 -0.015168 515927.000000 0 0 1
14.749363 26.539365 5.517266 30.859712 1.063546 1.391045 0.058594 -0.020454 -281342.000000 0 0 1
14.470163 26.872565 4.169866 30.804353 1.076846 1.435013 0.059427 -0.017968 369489.000000 0 0 1
14.696363 28.248765 3.869466 32.077229 1.091082 1.449872 0.059633 -0.022079 -207897.000000 0 0 1
14.196663 28.687165 2.460566 32.102229 1.111254 1.494073 0.061346 -0.019452 -188024.000000 0 0 1
14.922963 28.235365 1.350366 31.964890 1.084594 1.528538 0.078681 -0.024890 185428.000000 0 0 1
14.448863 26.949765 0.950466 30.593510 1.078656 1.539724 0.069605 -0.020141 17531.800000 0 0 1
15.282763 26.491065 -0.249734 30.584338 1.047533 1.578962 0.072984 -0.021282 -55962.800000 0 0 1
15.093863 27.106365 -1.490634 31.061258 1.062718 1.618805 0.064328 -0.011075 -455740.000000 0 0 1
16.040263 26.633165 -2.394134 31.182486 1.028712 1.647650 0.061747 -0.012752 -441082.000000 0 0 1
16.153963 27.196465 -3.790334 31.858514 1.034820 1.690053 0.080025 -0.021727 -90888.900000 0 0 1
15.102163 26.759065 -4.653234 31.076929 1.056983 1.721094 0.095930 -0.025424 271897.000000 0 0 1
15.299863 27.320165 -5.913934 31.866155 1.060292 1.757465 0.098503 -0.022505 -306955.000000 0 0 1
14.087263 26.949065 -6.730634 31.144896 1.089125 1.788622 0.118486 -0.042900 -341878.000000 0 0 1
13.995963 25.578065 -7.101334 30.009221 1.070116 1.809701 0.085622 -0.034380 -43971.700000 0 0 1
12.661163 25.342665 -7.514734 29.309162 1.107470 1.830087 0.072874 -0.038024 301388.000000 0 0 1
12.383163 23.888065 -8.013634 28.074913 1.092551 1.860259 0.078456 -0.028411 4377.160000 0 0 1
13.020363 23.635965 -9.253234 28.527374 1.067285 1.901135 0.079785 -0.032508 331337.000000 0 0 1
12.467363 22.412665 -9.699934 27.419910 1.063156 1.932379 0.085032 -0.022763 397292.000000 0 0 1
12.938063 22.068565 -11.199634 27.925738 1.040536 1.983460 0.094935 -0.022338 527397.000000 0 0 1
12.153063 20.961165 -11.692734 26.903298 1.045370 2.020414 0.099907 -0.019968 197397.000000 0 0 1
12.366063 20.602865 -13.033034 27.336012 1.030222 2.067775 0.095207 -0.019817 279570.000000 0 0 1
13.672563 19.862565 -13.404734 27.588900 0.967926 2.078159 0.077845 -0.015492 1060290.000000 0 0 1
14.942463 20.505765 -13.229234 28.614267 0.941070 2.051417 0.066907 -0.014516 -3132.180000 0 0 1
15.985163 19.651565 -13.586634 28.745540 0.887920 2.063094 0.065335 -0.012972 -75861.200000 0 0 1
17.368663 20.335065 -13.469334 29.943418 0.863913 2.037367 0.053850 -0.000280 -33129.900000 0 0 1
17.716163 21.486665 -14.279634 31.296121 0.881283 2.044601 0.036771 -0.001297 36028.600000 0 0 1
16.942163 22.631565 -13.958334 31.528713 0.928187 2.029424 0.041632 -0.006460 -117111.000000 0 0 1
17.498063 23.839665 -14.726334 33.035992 0.937621 2.032827 0.031063 -0.019920 -219694.000000 0 0 1
17.353063 23.758065 -16.135534 33.554879 0.939953 2.072443 0.032928 -0.010804 315633.000000 0 0 1
16.081563 24.193265 -16.647934 33.482600 0.984148 2.091178 0.062624 -0.002912 726858.000000 0 0 1
15.963063 24.420765 -18.192634 34.382628 0.991847 2.128363 0.036096 0.011493 -44180.400000 0 0 1
16.230063 23.220465 -18.875634 34.042540 0.960772 2.158525 0.038367 0.011907 -215096.000000 0 0 1
16.298663 23.387665 -20.274234 34.981050 0.962160 2.189007 0.038717 0.016450 -135330.000000 0 0 1
16.692163 22.113265 -21.003534 34.767417 0.924199 2.219452 0.039766 0.013889 417205.000000 0 0 1
15.628363 21.162365 -20.997834 33.660073 0.934697 2.244417 0.045137 0.014734 528106.000000 0 0 1
16.088063 20.029565 -21.746834 33.659086 0.894098 2.273248 0.038645 0.015635 167060.000000 0 0 1
15.137363 18.827565 -21.790034 32.533407 0.893621 2.304701 0.035703 0.010796 -326607.000000 0 0 1
14.698463 18.256165 -20.512034 31.146042 0.892939 2.289721 0.035424 0.005509 516501.000000 0 0 1
13.951163 17.040565 -20.648334 30.188897 0.884755 2.323989 0.038936 -0.000489 258305.000000 0 0 1
12.448863 17.195765 -20.953434 29.828090 0.944177 2.349663 0.056826 -0.005308 273081.000000 0 0 1
11.540063 17.366665 -19.820734 28.768657 0.984299 2.330863 0.061080 -0.010936 -134366.000000 0 0 1
10.229863 17.510665 -20.277934 28.678705 1.042070 2.356147 0.061948 -0.012606 -238225.000000 0 0 1
9.246263 16.945365 -19.198234 27.225190 1.071298 2.353451 0.064369 -0.017538 -120276.000000 0 0 1
9.401963 15.614865 -18.958134 26.298893 1.028822 2.375856 0.064249 -0.028986 360554.000000 0 0 1
8.229563 14.985865 -18.427134 25.136848 1.068602 2.393625 0.083369 -0.029847 738769.000000 0 0 1
7.754463 15.299265 -16.943634 24.109873 1.101682 2.350076 0.069167 -0.029718 -154583.000000 0 1 0
7.077763 16.532665 -16.856634 24.648933 1.166296 2.323848 0.069764 -0.021517 -269831.000000 0 1 0
6.618263 16.618965 -15.507634 23.674420 1.191812 2.285029 0.059563 -0.027966 -152365.000000 0 1 0
6.072763 17.995665 -15.174634 24.310326 1.245339 2.244910 0.058829 -0.019476 132536.000000 0 1 0
7.094763 18.976065 -14.983334 25.197758 1.213008 2.207601 0.045210 -0.020305 119371.000000 0 0 1
7.760363 19.512965 -16.118734 26.472489 1.192272 2.225452 0.054304 -0.012970 280036.000000 0 0 1
9.065463 20.304665 -15.819434 27.289495 1.150880 2.189144 0.054865 0.000560 187713.000000 0 0 1
9.019663 21.552465 -15.164034 27.853384 1.174446 2.146498 0.050922 -0.007863 -227595.000000 0 0 1
8.623863 21.484065 -13.799534 26.951127 1.189077 2.108332 0.039429 -0.016581 -107556.000000 0 0 1
8.402963 22.909665 -13.136134 27.713184 1.219246 2.064628 0.051285 -0.017102 144156.000000 0 0 1
7.213163 23.542265 -13.633034 28.144762 1.273486 2.076462 0.039173 -0.010264 578564.000000 0 0 1
6.618963 24.539265 -12.789034 28.452515 1.307337 2.036987 0.026708 -0.015791 255586.000000 0 0 1
5.882263 23.944265 -11.546034 27.225719 1.329902 2.008748 0.028878 -0.018196 -1382470.000000 0 0 1
6.669163 23.586865 -10.449034 26.645830 1.295240 1.973759 0.023612 -0.021114 -509263.000000 0 0 1
5.957563 23.185765 -9.306934 25.684456 1.319288 1.941592 0.045843 -0.032145 -19398.700000 0 0 1
6.916563 22.870065 -8.104234 25.230088 1.277113 1.897807 0.024048 -0.034322 313226.000000 0 0 1
7.386163 24.061965 -7.501934 26.264284 1.272963 1.860463 0.036585 -0.025768 333475.000000 0 0 1
8.487263 23.923265 -6.620734 26.233383 1.229878 1.825934 0.052327 -0.023409 70037.400000 0 0 1
8.851463 25.232365 -5.920234 27.387403 1.233411 1.788683 0.047581 -0.024879 -15077.300000 0 0 1
9.322763 26.249965 -6.811034 28.676903 1.229538 1.810597 0.062593 -0.034315 153893.000000 0 0 1
9.601363 27.361765 -5.974034 29.606443 1.233316 1.773973 0.055878 -0.022076 52949.800000 0 0 1
10.036963 28.589265 -6.788534 31.051102 1.233165 1.791201 0.058620 -0.017807 -92832.400000 0 0 1
11.338063 28.482965 -7.301534 31.514178 1.191959 1.804611 0.063463 -0.028859 -521708.000000 0 0 1
11.482263 29.570265 -8.149534 32.751456 1.200413 1.822268 0.064130 -0.019484 -661127.000000 0 0 1
12.887663 29.829665 -8.651334 33.626573 1.162976 1.830999 0.083786 -0.028642 -39312.100000 0 0 1
13.838163 30.155465 -7.603434 34.039081 1.140571 1.796071 0.078124 -0.026382 609596.000000 0 0 1
15.010563 30.692865 -8.227734 35.143486 1.115941 1.807108 0.073358 -0.027181 791627.000000 0 0 1
16.213963 31.015465 -7.294234 35.749931 1.089099 1.776274 0.073026 -0.022474 400723.000000 0 0 1
16.915563 29.885665 -6.776334 35.002971 1.055745 1.765620 0.075203 -0.025205 -129112.000000 0 0 1
18.149663 30.346065 -6.254034 35.908312 1.031783 1.745856 0.060730 -0.014582 285280.000000 0 0 1
19.166363 29.198465 -5.991034 35.437160 0.989923 1.740673 0.056737 -0.009385 -4170.480000 0 0 1
18.695863 28.225865 -5.107434 34.239168 0.985777 1.720524 0.070176 -0.013511 461461.000000 0 0 1
19.703563 27.177765 -4.986734 33.937131 0.943496 1.718271 0.053709 -0.008137 715652.000000 0 0 1
19.642563 26.098565 -6.092834 33.227820 0.925614 1.755205 0.053049 -0.003222 646.169000 0 0 1
20.295263 26.527965 -7.302834 34.190087 0.917732 1.786050 0.050276 0.001315 408651.000000 0 0 1
20.158963 25.539865 -8.271034 33.571990 0.902606 1.819726 0.045113 -0.006783 -92664.300000 0 0 1
20.918763 25.901165 -9.640434 34.661261 0.891415 1.852646 0.038904 -0.006696 841326.000000 0 0 1
22.329663 26.015865 -9.711934 35.633703 0.861498 1.846838 0.028040 -0.002267 394494.000000 0 0 1
22.990263 24.737665 -9.636634 35.119354 0.821994 1.848759 0.042899 -0.000842 -492928.000000 0 0 1
24.508463 24.918065 -9.709034 36.274510 0.793685 1.841754 0.025767 0.010255 -114887.000000 0 0 1
25.080763 25.198965 -11.003834 37.217159 0.787749 1.870949 0.027982 0.007290 795897.000000 0 0 1
26.499963 25.378765 -10.931234 38.286050 0.763790 1.860340 0.013880 0.022099 1200430.000000 0 0 1
27.244563 25.449765 -12.345234 39.272912 0.751351 1.890563 0.008107 0.011667 447895.000000 0 0 1
27.014963 26.632065 -13.086334 40.128883 0.778261 1.902979 0.000301 0.018734 146444.000000 0 0 1
27.777463 26.619565 -14.309834 41.048265 0.764115 1.926884 0.005085 0.017161 515198.000000 0 0 1
27.398163 27.797165 -15.206134 41.887567 0.792627 1.942306 0.011289 0.008900 76678.000000 0 0 1
28.052763 28.963165 -14.786334 42.947155 0.801364 1.922280 0.013836 0.010282 68200.800000 0 0 1
27.661663 30.024065 -15.671534 43.728813 0.826328 1.937328 0.035767 0.002890 -96526.600000 0 0 1
28.158563 31.413565 -15.265334 44.863651 0.839984 1.917990 0.032249 -0.001216 -400308.000000 0 0 1
29.539763 31.622565 -15.300134 45.898566 0.819439 1.910647 0.026199 0.002925 -375624.000000 0 0 1
29.980263 32.947565 -15.387634 47.128946 0.832517 1.903395 0.029992 -0.008505 -52885.700000 0 0 1
15.906063 -32.350939 -27.952897 45.617437 -1.113833 2.230355 0.096131 -0.047344 -607192.000000 0 0 1
17.093763 -32.874639 -27.457777 46.117981 -1.091302 2.208536 0.076522 -0.033843 -322174.000000 0 0 1
17.490463 -32.442839 -26.151287 45.192299 -1.076348 2.187889 0.080720 -0.036763 -406129.000000 0 0 1
18.728963 -33.182139 -25.581587 45.893856 -1.056943 2.162056 0.030682 -0.023073 40562.200000 0 0 1
20.019263 -32.777539 -25.939087 46.346243 -1.022501 2.164797 0.050512 -0.026813 123025.000000 0 0 1
20.331463 -33.148739 -27.294707 47.510087 -1.020625 2.182794 0.059393 -0.025590 -1182640.000000 0 0 1
21.818463 -32.900039 -27.553977 48.142285 -0.985215 2.180159 0.070498 -0.016271 -420717.000000 0 0 1
22.118963 -31.553539 -27.632907 47.417844 -0.959401 2.192909 0.073373 -0.027058 887799.000000 0 0 1
23.511563 -31.290039 -27.392217 47.772311 -0.926395 2.181435 0.032590 -0.012174 685423.000000 0 0 1
24.134563 -30.063739 -28.098537 47.705695 -0.894363 2.200614 0.013440 -0.010123 -53143.700000 0 0 1
24.333363 -30.235139 -29.500037 48.749650 -0.893133 2.220730 0.009749 -0.010858 -166297.000000 0 0 1
25.001563 -29.183139 -30.112597 48.821125 -0.862418 2.235460 0.014505 -0.015795 -374545.000000 0 0 1
25.189463 -29.407139 -31.621107 49.991832 -0.862497 2.255606 0.024599 -0.013379 -166659.000000 0 0 1
26.354163 -30.069239 -32.057237 51.248098 -0.851146 2.246607 0.019866 -0.013995 -441460.000000 0 0 1
26.305063 -30.618339 -33.401777 52.393871 -0.861027 2.262062 0.011296 -0.017239 183013.000000 0 0 1
27.570163 -31.430439 -33.800747 53.763156 -0.850733 2.250673 0.002440 -0.021935 -199960.000000 0 0 1
28.662863 -30.696239 34.132471 54.118799 -0.819640 0.888348 0.017056 -0.028072 -801757.000000 0 0 1
29.751263 -31.493139 33.688998 54.880816 -0.813832 0.909859 0.025087 -0.010291 1093800.000000 0 0 1
31.114963 -30.702239 33.697581 55.193255 -0.778722 0.914057 0.035210 -0.021066 545678.000000 0 0 1
31.117863 -29.826039 32.535504 54.004379 -0.764204 0.924216 0.042208 -0.018726 -7379.610000 0 0 1
32.140963 -28.866639 32.632974 54.140884 -0.731779 0.923864 0.053826 -0.027081 -54042.800000 0 0 1
32.326963 -28.062739 31.349066 53.059530 -0.714903 0.938711 0.048726 -0.028204 -530885.000000 0 0 1
33.523063 -27.327139 31.310716 53.394093 -0.683925 0.944179 0.038067 -0.031651 111886.000000 0 0 1
33.751563 -26.553339 30.103296 52.444792 -0.666596 0.959414 0.053247 -0.023568 2922.190000 0 0 1
34.351563 -27.267239 28.852536 52.497629 -0.670931 0.988915 0.048444 -0.023016 314183.000000 0 0 1
33.406063 -28.130139 28.170146 51.969480 -0.699870 0.997920 0.046985 -0.034026 502930.000000 0 0 1
32.503163 -27.551639 27.290626 50.599671 -0.703134 1.001139 0.056669 -0.038080 -429789.000000 0 0 1
31.678163 -28.718539 26.641036 50.378619 -0.736434 1.013591 0.052543 -0.024915 59963.600000 0 0 1
30.649663 -28.109839 25.878626 48.982325 -0.742201 1.014169 0.058292 -0.023445 331780.000000 0 0 1
29.854663 -29.072839 25.162136 48.679194 -0.772131 1.027574 0.043606 -0.018231 371085.000000 0 0 1
28.457763 -28.660639 24.662476 47.323506 -0.788950 1.022603 0.051113 -0.014485 12690.200000 0 0 1
27.469863 -28.557939 25.664446 47.210306 -0.804816 0.996053 0.041068 -0.012348 -141209.000000 0 0 1
26.281763 -28.045939 25.075156 45.891929 -0.817860 0.992742 0.030447 -0.004183 360905.000000 0 0 1
25.167263 -27.940639 26.149116 45.802256 -0.837572 0.963179 0.040125 -0.004993 112618.000000 0 0 1
25.394563 -26.942839 27.112036 45.889682 -0.814972 0.938735 0.019316 -0.008037 156850.000000 0 0 1
24.191763 -26.852739 27.840986 45.622708 -0.837482 0.914428 0.030672 -0.016053 48883.700000 0 0 1
24.132763 -25.616939 28.732346 45.433088 -0.815222 0.886136 0.036701 -0.004672 -522919.000000 0 0 1
22.863263 -25.505039 29.322086 45.089029 -0.839962 0.862797 0.064010 -0.006566 67732.000000 0 0 1
22.748263 -24.414039 30.247596 45.038271 -0.820704 0.834433 0.071288 -0.004270 -442512.000000 0 0 1
22.470563 -23.011639 29.638906 43.737015 -0.797294 0.826218 0.068499 -0.005582 -490293.000000 0 0 1
23.427463 -22.507839 28.710606 43.356057 -0.765381 0.847038 0.060023 -0.005825 186366.000000 0 0 1
23.342263 -21.126339 28.360396 42.373287 -0.735608 0.837532 0.088004 -0.000284 -22720.600000 0 0 1
23.998263 -20.199139 29.438496 43.017983 -0.699651 0.817112 0.081775 -0.002348 -774470.000000 0 0 1
23.287263 -20.269039 30.652636 43.505340 -0.716214 0.788977 0.094682 -0.002050 111037.000000 0 0 1
23.727963 -19.278339 31.574446 43.950156 -0.682301 0.769275 0.077857 -0.013313 -591972.000000 0 0 1
22.946963 -19.218939 32.877954 44.462237 -0.697214 0.738532 0.088861 -0.014170 -318353.000000 0 0 1
23.164463 -20.338439 33.750976 45.709658 -0.720528 0.740135 0.079066 -0.012631 66322.800000 0 0 1
22.345063 -20.239039 -33.439727 45.023726 -0.735983 2.407910 0.078372 -0.021486 -293843.000000 0 0 1
22.567363 -21.436239 -32.499567 45.000223 -0.759699 2.377787 0.069914 -0.011253 -536673.000000 0 0 1
23.828963 -21.489439 -31.920447 45.260694 -0.733820 2.353583 0.055502 -0.010805 -476643.000000 0 0 1
23.769363 -22.479939 -30.923627 45.017785 -0.757526 2.328039 0.048667 -0.004588 18318.200000 0 0 1
25.015463 -22.586539 -30.007907 45.126485 -0.734417 2.298254 0.046371 -0.007733 577545.000000 0 0 1
25.954063 -23.529539 -30.560907 46.488941 -0.736441 2.288133 0.039722 -0.004748 -485648.000000 0 0 1
27.066363 -23.760039 -29.781737 46.734135 -0.720438 2.261732 0.032166 -0.013528 -497251.000000 0 0 1
28.192163 -24.638239 -30.367737 48.208302 -0.718229 2.252256 0.015417 -0.005232 -323620.000000 0 0 1
29.146263 -23.950339 -31.140327 48.916698 -0.687851 2.260877 0.015951 -0.001906 -154865.000000 0 0 1
28.865563 -23.835439 -32.534337 49.596693 -0.690240 2.286274 0.021814 0.005024 -232262.000000 0 0 1
29.126263 -25.150939 -33.393617 50.951375 -0.712288 2.285511 0.010018 0.005350 -40583.700000 0 0 1
28.329363 -26.262439 -32.991717 50.800806 -0.747555 2.277635 0.034009 -0.005852 -19090.500000 0 0 1
28.551563 -27.489439 -33.679767 52.011419 -0.766448 2.275155 0.019386 -0.015528 -14462.300000 0 0 1
28.003663 -27.598439 33.141833 51.422369 -0.778110 0.870424 0.023942 -0.013790 364218.000000 0 0 1
28.785063 -26.860239 32.161026 50.836836 -0.750821 0.885849 0.009652 -0.012600 375908.000000 0 0 1
28.311763 -26.919139 30.843016 49.774367 -0.760189 0.902491 0.005249 -0.011152 -181030.000000 0 0 1
29.338063 -26.154539 29.931616 49.403274 -0.728093 0.919946 0.025898 -0.019362 376083.000000 0 0 1
29.499863 -24.741039 30.069036 48.851897 -0.697887 0.907758 0.013201 -0.019777 136955.000000 0 0 1
29.950363 -24.275439 31.332436 49.679399 -0.681124 0.888351 0.010200 -0.009066 -1204800.000000 0 0 1
30.499363 -22.834339 31.294046 49.304518 -0.642657 0.883164 0.006870 0.001274 338550.000000 0 0 1
31.681663 -22.580539 30.562186 49.473788 -0.619220 0.904924 0.023789 -0.006185 554360.000000 0 0 1
32.861263 -23.075739 31.190746 50.845009 -0.612212 0.910378 0.020185 -0.006404 777165.000000 0 0 1
34.257663 -22.399639 30.878276 51.271817 -0.579082 0.924484 0.018010 -0.014461 1116690.000000 0 0 1
34.856763 -22.769139 29.631016 51.102101 -0.578636 0.952265 0.023539 -0.019065 -229945.000000 0 0 1
36.080563 -22.130139 29.437786 51.557088 -0.550180 0.963104 0.001721 -0.016298 -339605.000000 0 0 1
-36.237717 -22.503139 28.062806 51.059616 0.555708 0.988901 0.018689 -0.018048 -156149.000000 0 0 1
-35.856217 -23.867739 27.988676 51.368309 0.587299 0.994571 0.023483 -0.026728 135703.000000 0 0 1
-35.470717 -24.112539 26.668606 50.505453 0.597031 1.014512 0.022614 -0.016205 -542052.000000 0 0 1
-35.248717 -25.605739 26.413496 50.948981 0.628245 1.025782 0.016771 -0.017124 -496473.000000 0 0 1
-36.413817 -26.371739 26.276486 52.075794 0.626799 1.041899 0.033322 -0.021971 -259946.000000 0 0 1
-36.248717 -27.716039 25.910226 52.473689 0.652785 1.054370 0.030635 -0.021516 -377279.000000 0 0 1
-35.671417 -28.613739 26.978596 53.094639 0.676049 1.037792 0.018722 -0.022529 -1466840.000000 0 0 1
-35.335217 -29.922439 26.543866 53.371403 0.702643 1.050263 0.019620 -0.016734 801142.000000 0 0 1
-34.012917 -30.329439 26.916486 52.926842 0.728212 1.037285 0.007317 -0.017307 548018.000000 0 0 1
-32.824217 -29.504339 26.447526 51.452958 0.732184 1.030939 0.011946 -0.004963 -1699550.000000 0 0 1
-32.410017 -29.533839 25.130716 50.539190 0.738999 1.050368 0.001881 0.004522 -1354950.000000 0 0 1
-31.236017 -28.875239 24.965876 49.323049 0.746145 1.040058 -0.015984 0.014511 -1285680.000000 0 0 1
-30.687117 -28.874639 23.517306 48.254612 0.754977 1.061734 -0.005399 0.007755 -496364.000000 0 0 1
-30.294117 -30.196839 23.156766 48.639679 0.783790 1.074596 0.002050 0.007008 174580.000000 0 0 1
-30.164117 -30.267039 21.766066 47.955492 0.787101 1.099681 0.000850 0.007700 -588298.000000 0 0 1
-30.224117 -31.678539 21.028866 48.572011 0.808889 1.123042 0.015185 0.005600 323434.000000 0 0 1
-29.179317 -32.609039 21.314366 48.673238 0.840849 1.117527 0.008607 0.004540 -343650.000000 0 0 1
-27.959417 -32.378039 20.705466 47.526653 0.858500 1.120025 0.024453 0.002782 -458929.000000 0 0 1
-27.004517 -33.614139 20.792066 47.869241 0.894005 1.121478 0.022217 0.009459 46612.000000 0 0 1
-27.325917 33.635365 19.894866 47.684895 -0.888530 1.140417 0.023256 0.008841 -254846.000000 0 0 1
-28.342217 32.779065 20.332766 47.866165 -0.857862 1.132073 0.030236 0.006840 -325425.000000 0 0 1
-27.993417 31.676965 21.353166 47.360524 -0.847052 1.103063 0.035577 0.001683 -244313.000000 0 0 1
-27.271017 30.562465 20.884566 45.977578 -0.842249 1.099284 0.038357 -0.001783 -12622.100000 0 0 1
-27.059017 29.600165 21.914066 45.701055 -0.830218 1.070701 0.040793 -0.004875 -225072.000000 0 0 1
-26.307617 28.382265 21.322566 44.184788 -0.823315 1.067202 0.037232 -0.005911 560810.000000 0 0 1
-24.938017 28.780065 21.238066 43.603352 -0.856799 1.062060 0.033601 -0.000234 332974.000000 0 0 1
-24.067617 27.881665 20.574166 42.189261 -0.858685 1.061385 0.031188 -0.003701 651985.000000 0 0 1
-22.569117 28.284565 20.730566 41.702974 -0.897319 1.050542 0.026013 0.000398 231535.000000 0 0 1
-22.269617 28.337765 22.119366 42.287482 -0.904735 1.020346 0.022384 -0.006505 -340727.000000 0 0 1
-20.938617 28.544165 22.460866 41.924760 -0.937906 1.005410 0.024815 -0.009355 -671264.000000 0 0 1
-20.642517 28.660665 23.983766 42.693890 -0.946616 0.974283 0.014755 -0.002904 -738255.000000 0 0 1
-20.444217 27.379065 24.545166 42.071895 -0.929404 0.947875 0.022557 -0.004895 417328.000000 0 0 1
-20.244617 27.309265 25.964806 42.776297 -0.932880 0.918528 0.016032 -0.005169 889112.000000 0 0 1
-18.793417 27.752165 26.426736 42.681935 -0.975545 0.903130 0.027681 -0.003959 252254.000000 0 0 1
-18.535117 29.085165 26.159386 43.287537 -1.003422 0.921888 0.001198 -0.001614 1146370.000000 0 0 1
-17.242217 29.583765 26.609126 43.365179 -1.043100 0.910177 0.014569 0.000389 850844.000000 0 0 1
-17.089217 29.831365 28.096836 44.400269 -1.050571 0.885622 -0.004036 0.006814 -793157.000000 0 0 1
-16.883617 28.687565 28.902876 44.084114 -1.038850 0.855779 0.011002 0.006386 401610.000000 0 0 1
-16.827017 29.140965 30.245606 45.245342 -1.047134 0.838633 0.002636 0.009301 -513290.000000 0 0 1
-16.650117 28.038565 31.295126 45.197040 -1.034927 0.805965 0.005425 0.013550 404770.000000 0 0 1
-15.326017 27.495865 31.355606 44.430658 -1.062294 0.787357 0.018881 0.013070 799966.000000 0 0 1
-15.093217 26.302565 32.216786 44.244225 -1.049841 0.755166 0.037246 0.010268 -587188.000000 0 0 1
-15.462317 26.347565 33.724026 45.503707 -1.040095 0.736049 0.036789 0.012317 -372244.000000 0 0 1
-16.845417 26.111065 33.845465 45.946396 -0.997842 0.742724 0.026969 0.012341 -263965.000000 0 0 1
-17.361717 26.843365 -33.347017 46.195444 -0.996689 2.377294 0.020494 0.010620 -608523.000000 0 0 1
-18.710717 26.333165 -32.856507 46.076855 -0.953033 2.364679 0.012949 0.006703 -1120880.000000 0 0 1
-19.687917 26.590965 -33.786357 47.288597 -0.933468 2.366665 0.009288 0.002606 -467777.000000 0 0 1
-20.897817 25.975265 -33.329027 47.140823 -0.893301 2.356057 0.031517 -0.004875 540704.000000 0 0 1
-22.077117 25.978065 33.959971 48.120043 -0.866397 0.787337 0.055943 -0.022965 -75270.500000 0 0 1
-22.066617 25.042765 32.853211 46.833846 -0.848490 0.793318 0.051280 -0.012860 6291.940000 0 0 1
-22.297417 23.653865 33.287792 46.526952 -0.814909 0.773526 0.048510 -0.014708 -275731.000000 0 0 1
-22.545517 22.683365 32.122406 45.328626 -0.788446 0.783205 0.031830 -0.013268 -193031.000000 0 0 1
-23.901917 22.684665 31.739646 45.752604 -0.759275 0.804151 0.059050 -0.022897 -261088.000000 0 0 1
-24.043817 22.273265 30.389726 44.696072 -0.747190 0.823144 0.066886 -0.020602 -129243.000000 0 0 1
-25.478417 22.010065 29.914476 45.038523 -0.712492 0.844376 0.086661 -0.030315 -264605.000000 0 0 1
-26.045017 20.880665 30.567906 45.263031 -0.675785 0.829372 0.110711 -0.042900 892645.000000 0 0 1
-27.233317 20.427365 29.854656 45.279479 -0.643557 0.850853 0.124875 -0.045749 857039.000000 0 0 1
-27.543517 19.015065 30.362106 45.189329 -0.604230 0.834043 0.150320 -0.046416 -230936.000000 0 0 1
-28.459617 19.060865 31.461056 46.508756 -0.590135 0.827859 0.141721 -0.040431 317050.000000 0 0 1
-28.734317 17.854465 32.176796 46.688211 -0.555980 0.810433 0.120864 -0.026507 119637.000000 0 0 1
-29.529817 16.762265 31.405836 46.252677 -0.516284 0.824389 0.114375 -0.024181 480839.000000 0 0 1
-30.914917 17.064665 31.252756 47.155801 -0.504368 0.846304 0.095714 -0.022989 136728.000000 0 0 1
-31.699617 15.984365 30.869006 47.045309 -0.467038 0.855084 0.089758 -0.004942 578813.000000 0 0 1
-33.232917 16.279365 30.975886 48.259196 -0.455500 0.873868 0.063510 0.001342 515259.000000 0 0 1
-33.588917 16.274065 32.336836 49.383514 -0.451177 0.856865 0.047408 -0.003535 431095.000000 0 0 1
-35.004417 16.278765 32.470982 50.444742 -0.435298 0.871481 0.048619 -0.007150 800.195000 0 0 1
-35.467217 16.657265 33.901086 51.813816 -0.439076 0.857557 0.041134 -0.005139 -1232150.000000 0 0 1
36.188163 17.189465 33.909077 52.487011 0.443450 0.868402 0.025627 -0.005568 -851296.000000 0 0 1
35.831863 17.533265 -33.085497 51.826518 0.455068 2.263200 0.034828 -0.014384 525401.000000 0 0 1
34.314163 17.613965 -32.736187 50.590231 0.474243 2.274551 0.051788 -0.017672 677028.000000 0 0 1
33.655763 16.344465 -32.775257 49.740018 0.452091 2.290194 0.069979 -0.012421 294625.000000 0 0 1
32.310863 16.471665 -32.356807 48.603195 0.471447 2.299274 0.076401 -0.013343 -80563.300000 0 0 1
31.428863 15.232465 -32.444867 47.670440 0.451304 2.319388 0.088662 -0.010708 -182575.000000 0 0 1
31.104963 14.893765 -33.749747 48.253377 0.446563 2.345393 0.086500 -0.020546 82114.900000 0 0 1
30.235963 13.791265 -34.011907 47.552311 0.427933 2.367782 0.086973 -0.010937 280357.000000 0 0 1
30.901563 12.405165 -34.046347 47.622983 0.381748 2.367298 0.085229 -0.007088 49876.200000 0 0 1
31.215763 11.863265 -32.786257 46.798500 0.363183 2.347011 0.088082 0.000098 350935.000000 0 0 1
32.304863 10.940065 -32.874857 47.371357 0.326529 2.337801 0.089904 -0.001158 207985.000000 0 0 1
17.507563 -21.061135 10.110163 29.194204 -0.877275 1.217164 -0.000137 -0.021496 1830.170000 0 0 1
17.425463 -22.231735 10.871763 30.267012 -0.906005 1.203391 0.008165 -0.022177 -173873.000000 0 0 1
18.689763 -22.836535 10.957063 31.478116 -0.884927 1.215269 -0.002484 -0.019416 -408057.000000 0 0 1
18.626763 -24.268935 11.603763 32.719792 -0.916180 1.208267 0.010764 -0.011184 -286512.000000 0 0 1
17.939163 -25.310105 10.986463 32.910748 -0.954206 1.230437 0.005917 -0.019425 -147199.000000 0 0 1
16.592263 -25.333545 11.426563 32.367546 -0.990948 1.209994 0.013501 -0.013967 92599.000000 0 0 1
15.620263 -26.187145 10.562663 32.269630 -1.032965 1.237325 0.038780 -0.010448 100104.000000 0 0 1
15.501263 -25.588465 9.286463 31.325661 -1.026130 1.269824 0.034219 -0.017083 29225.300000 0 0 1
14.805063 -26.452515 8.419463 31.461290 -1.060548 1.299881 0.050652 -0.011308 -365225.000000 0 0 1
14.481963 -25.987595 6.995563 30.561744 -1.062393 1.339849 0.054677 -0.012327 -329017.000000 0 0 1
13.668263 -24.844735 7.066163 29.223499 -1.067840 1.326579 0.067446 -0.023463 -70441.100000 0 0 1
13.299163 -24.321535 5.817363 28.323956 -1.070409 1.363938 0.067901 -0.007396 -75939.700000 0 0 1
12.542863 -22.994135 5.993563 26.869619 -1.071429 1.345843 0.093490 -0.009752 -188250.000000 0 0 1
11.985263 -22.523735 4.812463 25.963916 -1.081786 1.384366 0.094842 -0.012738 -85368.100000 0 0 1
11.098263 -21.449235 5.058763 24.674525 -1.093310 1.364313 0.098482 -0.014568 16251.400000 0 1 0
10.388563 -20.846535 3.840163 23.606082 -1.108481 1.407393 0.083553 -0.017086 275281.000000 0 1 0
11.245163 -20.222935 2.911163 23.321570 -1.063313 1.445643 0.067101 -0.014393 -272216.000000 0 1 0
10.415363 -19.588935 2.024663 22.277913 -1.082114 1.479789 0.056431 -0.004755 -102703.000000 0 1 0
11.194263 -19.229035 0.749863 22.262740 -1.043602 1.537108 0.051005 -0.000602 120406.000000 0 1 0
12.017363 -18.088535 0.967663 21.738180 -0.984390 1.526267 0.049206 -0.000714 -236436.000000 0 1 0
12.705263 -17.847035 -0.250437 21.908972 -0.952130 1.582227 0.057330 -0.004298 -37469.800000 0 1 0
13.986163 -17.004235 0.003563 22.017192 -0.882479 1.570635 0.057151 0.010251 321056.000000 0 1 0
14.987263 -17.797335 0.642263 23.276075 -0.870902 1.543200 0.060042 0.005683 467479.000000 0 1 0
16.250163 -17.117335 0.549163 23.608738 -0.811381 1.547533 0.058060 0.000045 1184390.000000 0 1 0
17.448363 -17.742735 1.350563 24.921357 -0.793763 1.516577 0.054263 0.004580 619193.000000 0 1 0
18.107663 -18.786735 0.642063 26.100596 -0.803802 1.546194 0.056738 -0.006172 93176.000000 0 0 1
19.289263 -19.228135 1.263563 27.265242 -0.783811 1.524436 0.053807 -0.004775 -50379.800000 0 0 1
19.516263 -20.671835 0.887063 28.442857 -0.814144 1.539604 0.042419 -0.004883 -326961.000000 0 0 1
18.567763 -21.639035 1.247563 28.540604 -0.861637 1.527071 0.041778 0.000982 -225648.000000 0 0 1
18.635063 -22.824235 0.462463 29.469054 -0.886099 1.555103 0.042422 0.001963 -770159.000000 0 0 1
17.479063 -23.750135 0.772463 29.498868 -0.936344 1.544607 0.029681 0.001702 -369066.000000 0 0 1
17.638063 -24.273835 2.099563 30.078705 -0.942421 1.500937 0.016746 0.008619 41425.900000 0 0 1
16.527263 -25.072925 2.403863 30.126077 -0.988003 1.490918 0.015431 0.009002 -387425.000000 0 0 1
16.801263 -25.654975 3.839263 30.906312 -0.990989 1.446252 0.015622 -0.001639 659708.000000 0 0 1
17.775463 -26.700425 3.861663 32.307773 -0.983438 1.450983 -0.006200 0.004859 -528448.000000 0 0 1
19.090263 -26.296925 3.984663 32.739027 -0.942865 1.448784 0.005370 0.007385 -1055930.000000 0 0 1
20.123963 -27.445585 4.024163 34.269927 -0.938114 1.453099 0.021909 -0.001942 -115913.000000 0 0 1
20.359163 -28.044305 2.760463 34.764906 -0.942856 1.491309 0.032159 0.001569 -120571.000000 0 0 1
21.154563 -29.210525 2.719863 36.168604 -0.944006 1.495526 0.072133 -0.003655 77840.700000 0 0 1
20.467563 -30.595565 3.124963 36.942863 -0.981200 1.486106 0.067424 -0.000598 10348.000000 0 0 1
20.409363 -30.768745 4.538263 37.200182 -0.985118 1.448496 0.084618 -0.001471 -127153.000000 0 0 1
19.769963 -31.956885 4.863863 37.891306 -1.016780 1.442078 0.068157 -0.014908 -540293.000000 0 0 1
19.627663 -32.283895 6.335363 38.309683 -1.024537 1.404661 0.078686 -0.028284 -358882.000000 0 0 1
20.714863 -32.885095 6.964563 39.484682 -1.008669 1.393482 0.078015 -0.044346 -129505.000000 0 0 1
20.287163 -33.331325 8.251263 39.882697 -1.024040 1.362403 0.072963 -0.044429 765555.000000 0 0 1
21.357263 34.041540 8.967563 41.174948 1.010481 1.351245 0.075209 -0.041376 1158010.000000 0 0 1
22.379063 -33.509745 9.653163 41.435600 -0.981984 1.335668 0.091909 -0.039552 486281.000000 0 0 1
23.504863 33.998920 9.971263 42.518599 0.965905 1.334076 0.095503 -0.043210 -312403.000000 0 0 1
24.590463 -33.578375 10.754063 42.986602 -0.938700 1.317938 0.095550 -0.040270 -507924.000000 0 0 1
25.282263 -32.633265 9.941463 42.461223 -0.911649 1.334472 0.082925 -0.038942 40761.800000 0 0 1
26.219263 -31.873165 10.665763 42.627536 -0.882419 1.317901 0.071700 -0.032106 -24626.000000 0 0 1
26.889463 -30.836445 9.696763 42.047078 -0.853666 1.338085 0.071396 -0.034567 -44950.900000 0 0 1
26.078863 -29.714055 9.339863 40.623456 -0.850461 1.338808 0.060891 -0.033262 420677.000000 0 0 1
26.620563 -29.032095 8.198663 40.233505 -0.828703 1.365582 0.065969 -0.032538 418218.000000 0 0 1
26.009763 -27.607055 8.157563 38.796946 -0.815180 1.358952 0.059561 -0.024704 461565.000000 0 0 1
26.630063 -26.897865 9.228563 38.959232 -0.790401 1.331646 0.060111 -0.025668 435635.000000 0 0 1
26.017763 -25.632305 9.280963 37.683886 -0.777935 1.321951 0.049628 -0.015455 -99302.500000 0 0 1
26.734063 -24.798335 10.321663 37.897285 -0.747852 1.294953 0.043517 -0.020777 542371.000000 0 0 1
28.036963 -24.441535 9.848363 38.476618 -0.716993 1.311959 0.062165 -0.019627 -175993.000000 0 0 1
28.699563 -23.636735 10.793063 38.714988 -0.688962 1.288270 0.041012 -0.022968 59838.000000 0 0 1
30.151063 -23.397735 10.316563 39.534441 -0.659945 1.306789 0.068114 -0.027161 94504.100000 0 0 1
30.244563 -22.676635 9.158363 38.895230 -0.643357 1.333102 0.073268 -0.023636 158953.000000 0 0 1
31.577863 -22.551935 8.653463 39.757183 -0.620172 1.351382 0.074081 -0.034717 435216.000000 0 0 1
31.689963 -21.770535 7.334763 39.140882 -0.601938 1.382288 0.068126 -0.018077 -589252.000000 0 0 1
31.296063 -20.417435 7.483863 38.109361 -0.578058 1.373133 0.060673 -0.010099 -89452.100000 0 0 1
31.460563 -19.616835 6.396863 37.623225 -0.557547 1.399942 0.044474 -0.009472 -168566.000000 0 0 1
31.000363 -18.171235 6.567463 36.528726 -0.530182 1.390024 0.054064 -0.010691 -385000.000000 0 0 1
31.874963 -17.562835 7.465763 37.151097 -0.503604 1.368462 0.071337 -0.012551 14569.900000 0 0 1
31.560263 -16.224035 7.599963 36.290893 -0.474836 1.359817 0.073953 -0.009797 30707.600000 0 0 1
32.272763 -15.510135 8.812163 36.874784 -0.448004 1.329486 0.076274 -0.023847 1325650.000000 0 0 1
33.691363 -15.312035 8.604663 37.994823 -0.426573 1.342345 0.075675 -0.022841 800564.000000 0 0 1
34.311763 -15.118035 9.863163 38.770272 -0.415016 1.313569 0.072790 -0.036105 387637.000000 0 0 1
35.852663 -15.290435 9.764963 40.181654 -0.403123 1.325318 0.071465 -0.046922 323284.000000 0 0 1
-36.423517 -14.172035 9.187663 40.148876 0.371066 1.339911 0.075291 -0.030170 -757637.000000 0 0 1
-35.107417 -14.490035 8.872963 39.002837 0.391436 1.341292 0.082313 -0.037886 -497410.000000 0 0 1
-34.323217 -13.335535 8.239463 37.733386 0.370578 1.350663 0.092118 -0.032454 -646999.000000 0 0 1
-34.686417 -12.993835 6.885963 37.674975 0.358428 1.386990 0.099290 -0.032939 534552.000000 0 0 1
-33.627817 -12.446935 6.071463 36.367828 0.354501 1.403065 0.076052 -0.022132 282751.000000 0 0 1
-32.515317 -13.407235 5.634463 35.619474 0.391095 1.411944 0.052637 -0.019841 -685910.000000 0 0 1
-31.815417 -13.939135 6.703863 35.376009 0.412935 1.380140 0.070318 -0.021349 -829358.000000 0 0 1
-30.894117 -14.894535 6.308863 34.872559 0.449238 1.388883 0.065202 -0.009870 99092.000000 0 0 1
-30.217917 -15.753935 7.433263 34.879254 0.480577 1.356035 0.053054 -0.023213 43266.500000 0 0 1
-31.209717 -16.588235 7.947563 36.226781 0.488536 1.349614 0.064767 -0.029669 -108831.000000 0 0 1
-31.069617 -16.874835 9.326863 36.565988 0.497553 1.312877 0.045637 -0.028032 362898.000000 0 0 1
-32.218517 -17.777235 9.895863 38.104999 0.504202 1.308085 0.015345 -0.027197 -940159.000000 0 0 1
-33.481317 -17.205135 9.866563 38.914834 0.474684 1.314456 0.043787 -0.026830 127085.000000 0 0 1
-34.491117 -17.868435 10.670063 40.283599 0.477990 1.302723 0.072686 -0.034266 449150.000000 0 0 1
-34.878817 -19.313035 10.207563 41.154823 0.505693 1.320152 0.073755 -0.031001 -1213580.000000 0 0 1
-33.969017 -20.378335 10.443663 40.966336 0.540353 1.313018 0.070653 -0.021925 -249730.000000 0 0 1
-33.599817 -20.533435 11.795363 41.105963 0.548554 1.279755 0.060321 -0.032763 -115439.000000 0 0 1
-34.718817 -21.108535 12.733263 42.580541 0.546270 1.267110 0.084058 -0.040665 312351.000000 0 0 1
-35.155017 -22.420135 12.456363 43.516647 0.567716 1.280492 0.096919 -0.048365 360467.000000 0 0 1
-36.182617 -22.551335 11.475663 44.152410 0.557350 1.307867 0.095057 -0.033327 -255794.000000 0 0 1
36.147163 -23.931935 11.343163 44.810961 -0.584813 1.314878 0.100513 -0.024595 -172793.000000 0 0 1
35.595663 -24.312935 12.586163 44.906364 -0.599246 1.286715 0.152712 -0.019505 -48145.100000 0 0 1
35.283063 -25.681125 12.705363 45.451523 -0.629180 1.287485 0.101077 -0.016513 -623932.000000 0 0 1
34.236063 -25.917075 13.767863 45.092758 -0.647973 1.260519 0.098864 -0.022081 683405.000000 0 0 1
32.942263 -25.387685 13.345563 43.678728 -0.656601 1.260292 0.093126 -0.017642 1215620.000000 0 0 1
32.078463 -24.992435 14.421563 43.146623 -0.661869 1.229992 0.064237 0.001389 -147816.000000 0 0 1
32.127963 -23.502035 14.812363 42.473023 -0.631564 1.214562 0.091657 0.000047 -133706.000000 0 0 1
33.268263 -23.048735 15.522263 43.346997 -0.605887 1.204572 0.090191 -0.009742 172649.000000 0 0 1
34.127263 -22.307735 14.636463 43.318947 -0.578946 1.226136 0.087112 -0.017597 1315640.000000 0 0 1
35.511463 -21.812935 15.257363 44.380798 -0.550832 1.219854 0.078782 -0.017201 993648.000000 0 0 1
35.647163 -20.589935 15.956163 44.150479 -0.523789 1.201023 0.074016 -0.001293 95927.600000 0 0 1
34.798263 -20.452335 17.088163 43.831751 -0.531356 1.170319 0.080513 -0.012534 150802.000000 0 0 1
34.959263 -19.054235 17.806563 43.615222 -0.499028 1.150244 0.064406 -0.007003 -42947.300000 0 0 1
34.327163 -17.994735 17.047663 42.341320 -0.482830 1.156414 0.067543 -0.017157 319515.000000 0 0 1
34.403463 -16.684335 17.634463 42.106289 -0.451544 1.138664 0.070339 -0.021069 342064.000000 0 0 1
35.791263 -16.023935 17.923663 43.116571 -0.420944 1.142081 0.047906 -0.020819 152907.000000 0 0 1
-36.440317 -16.432935 19.055463 44.283729 0.423648 1.125967 0.056640 -0.006349 498611.000000 0 0 1
-35.542717 -15.380535 19.459063 43.341674 0.408403 1.105185 0.047738 -0.014511 218584.000000 0 0 1
-35.170717 -15.366735 20.962263 43.732508 0.411922 1.070906 0.031800 -0.000397 102934.000000 0 0 1
-34.377117 -16.471835 21.421463 43.726268 0.446830 1.058822 0.017578 0.006856 420221.000000 0 0 1
-34.216017 -16.393035 22.803263 44.265745 0.446792 1.029620 0.015317 0.008446 -245568.000000 0 0 1
-33.333217 -17.473635 23.421363 44.328224 0.482828 1.014126 0.016384 0.011939 -782639.000000 0 0 1
-33.920917 -18.749935 23.440263 45.294973 0.504955 1.026867 0.016500 0.005939 353526.000000 0 0 1
-33.085017 -19.802635 23.896863 45.363231 0.539344 1.015978 0.005816 0.008721 -551893.000000 0 0 1
-31.983317 -20.345235 22.980663 44.328004 0.566556 1.025790 0.002493 0.013075 -372600.000000 0 0 1
-30.736417 -19.743135 23.218363 43.285229 0.570969 1.004626 0.011620 0.018641 -455857.000000 0 0 1
-29.721517 -20.453435 22.554163 42.548817 0.602742 1.012105 0.016457 0.020386 -861688.000000 0 0 1
-28.534617 -19.545735 22.328863 41.168413 0.600576 0.997531 0.023986 0.011112 -668003.000000 0 0 1
-27.866117 -19.233935 23.569763 41.255283 0.604136 0.962689 0.017257 0.008088 305494.000000 0 0 1
-26.881117 -18.232135 23.440363 40.055658 0.595979 0.945676 0.036656 0.002558 -308007.000000 0 0 1
-26.311817 -17.929235 24.831363 40.377787 0.598143 0.908441 0.034199 -0.007425 -866509.000000 0 0 1
-25.348317 -16.863635 24.728163 39.222460 0.587039 0.888652 0.046700 -0.016573 364220.000000 0 0 1
-25.036517 -16.374635 26.033563 39.657310 0.579203 0.854676 0.047233 -0.018646 26190.900000 0 0 1
-24.117917 -17.275535 26.879163 40.032579 0.621578 0.834657 0.039370 -0.013767 -643728.000000 0 0 1
-24.730417 -18.463735 27.300963 41.204922 0.641322 0.846557 0.036069 -0.011604 -984222.000000 0 0 1
-23.794317 -19.195535 27.955663 41.426527 0.678830 0.830069 0.046497 -0.011218 -644384.000000 0 0 1
-24.306617 -20.535335 28.648863 42.816690 0.701494 0.837792 0.045245 -0.004840 522289.000000 0 0 1
-25.219317 -20.309135 29.760163 43.978883 0.677965 0.827536 0.040307 -0.014551 631138.000000 0 0 1
-25.713617 -21.547935 30.286563 45.197118 0.697484 0.836454 0.045170 -0.011530 -463808.000000 0 0 1
-26.901717 -21.310535 31.220063 46.395405 0.669944 0.832657 0.053708 -0.016534 -1093510.000000 0 0 1
-26.541617 -20.677635 32.462963 46.753245 0.661844 0.803285 0.071206 -0.025876 247522.000000 0 0 1
-27.575017 -20.528535 33.426963 47.949600 0.639947 0.799414 0.074095 -0.031944 221703.000000 0 0 1
-28.759017 -19.596135 33.004163 47.962113 0.598127 0.811888 0.055607 -0.037652 -453667.000000 0 0 1
-29.601217 -20.192335 32.078163 48.093356 0.598642 0.840624 0.054662 -0.038890 741257.000000 0 0 1
-30.971517 -19.780335 32.287863 48.918325 0.568363 0.849929 0.054058 -0.038945 1563240.000000 0 0 1
-32.046317 -20.313435 31.261463 49.161785 0.564958 0.881636 0.044688 -0.015509 352223.000000 0 0 1
-32.116717 -19.711635 29.968563 48.147137 0.550468 0.898944 0.035343 -0.021944 -57581.600000 0 0 1
-33.159617 -20.240735 29.212763 48.606924 0.548034 0.926045 0.028887 -0.017167 -349655.000000 0 0 1
-33.483117 -19.239135 28.040163 47.723308 0.521528 0.942760 0.020282 -0.007791 -766615.000000 0 0 1
-34.553917 -19.721935 27.332763 48.270154 0.518641 0.968853 -0.003510 -0.002634 -569573.000000 0 0 1
-35.137817 -18.731235 26.511463 47.837046 0.489759 0.983390 0.020112 0.002050 712415.000000 0 0 1
-36.456617 -19.132535 25.724163 48.547619 0.483292 1.012343 0.014647 0.000033 329402.000000 0 0 1
35.365363 -19.429835 26.484863 48.266710 -0.502385 0.989965 0.023037 -0.001815 -680875.000000 0 0 1
34.339263 -19.984535 25.697463 47.317293 -0.527059 0.996686 0.066682 -0.004091 -91907.700000 0 0 1
33.238663 -20.659135 26.527963 47.279397 -0.556107 0.975095 0.074915 -0.011114 17147.900000 0 0 1
32.460063 -19.783535 27.355663 46.833495 -0.547356 0.947020 0.066934 -0.007914 440559.000000 0 0 1
31.517563 -20.567335 28.060663 46.944359 -0.578178 0.930113 0.061982 -0.002774 11200.000000 0 0 1
-29.981207 -6.105935 33.795133 45.588005 0.200911 0.735767 0.014411 0.007725 499437.000000 0 0 1
-31.033957 -5.657535 32.919561 45.593987 0.180321 0.764085 0.016177 0.006709 877514.000000 0 0 1
-30.645107 -4.541735 32.179606 44.668523 0.147133 0.766404 0.032545 0.005439 278285.000000 0 0 1
-31.459717 -4.467235 30.817496 44.264975 0.141056 0.800699 0.034448 -0.003652 408762.000000 0 0 1
-31.204917 -5.505635 29.860756 43.539908 0.174638 0.815060 0.023572 -0.003514 199404.000000 0 0 1
-29.921317 -5.379435 29.264966 42.197888 0.177886 0.804437 0.042784 -0.011444 89878.400000 0 0 1
-29.615017 -6.507235 28.267936 41.454427 0.216290 0.820434 0.052294 -0.017826 208436.000000 0 0 1
-30.282057 -6.360135 27.004126 41.069174 0.207021 0.853263 0.047912 -0.027851 412120.000000 0 0 1
-29.608327 -7.228735 26.085506 40.116845 0.239461 0.862898 0.070619 -0.025649 470897.000000 0 0 1
-30.097097 -6.912135 24.611616 39.488536 0.225747 0.897892 0.066661 -0.021906 64570.600000 0 0 1
-29.534977 -5.719035 24.191926 38.604035 0.191269 0.893526 0.086819 -0.028529 1083.710000 0 0 1
-30.089967 -5.272235 22.947466 38.207182 0.173455 0.926537 0.088214 -0.024590 67533.200000 0 0 1
-29.676087 -3.833135 22.585866 37.489790 0.128455 0.924224 0.105897 -0.027082 1331120.000000 0 0 1
-28.287587 -3.809035 22.162366 36.136779 0.133849 0.910576 0.108309 -0.022773 1045080.000000 0 0 1
-27.966937 -2.590935 21.567966 35.412422 0.092379 0.915933 0.118104 -0.013670 134983.000000 0 0 1
-26.673617 -2.703435 20.729566 33.889605 0.101007 0.912615 0.099283 -0.007416 -2719.350000 0 0 1
-26.769077 -3.415035 19.530366 33.311877 0.126888 0.944327 0.100459 -0.008593 499216.000000 0 0 1
-25.461847 -3.360535 18.946766 31.915181 0.131225 0.935197 0.074073 -0.002104 614924.000000 0 0 1
-25.276087 -4.081035 17.576166 31.055708 0.160077 0.969204 0.068878 -0.004490 107507.000000 0 0 1
-26.115647 -3.484035 16.567966 31.123351 0.132625 1.009443 0.083761 -0.006013 303427.000000 0 0 1
-25.801937 -3.838835 15.240466 30.211726 0.147697 1.042045 0.087408 -0.016640 -454729.000000 0 0 1
-27.018347 -3.992535 14.315766 30.836221 0.146710 1.088007 0.099682 -0.021785 -336460.000000 0 0 1
-27.569457 -2.801135 13.948466 31.023878 0.101255 1.104474 0.098868 -0.029289 -239188.000000 0 0 1
-28.811907 -2.973735 13.291866 31.869151 0.102848 1.140570 0.101004 -0.034641 157192.000000 0 0 1
-29.281987 -1.732335 12.531166 31.897741 0.059092 1.167063 0.119016 -0.024718 -204406.000000 0 0 1
-28.521267 -1.448635 11.371166 30.738650 0.050748 1.191862 0.121866 -0.029166 84793.400000 0 0 1
-28.918567 -0.289235 10.623166 30.809395 0.010001 1.218768 0.120166 -0.024934 130853.000000 0 0 1
-30.236107 -0.375635 9.768466 31.777133 0.012423 1.258331 0.118144 -0.021008 620764.000000 0 0 1
-30.200687 -1.109735 8.592366 31.418812 0.036729 1.293789 0.119391 -0.028825 717603.000000 0 0 1
-31.556957 -1.251935 8.124666 32.610107 0.039651 1.318998 0.110741 -0.032239 768930.000000 0 0 1
-31.705867 -2.161335 6.855166 32.510409 0.068063 1.358341 0.118166 -0.034822 35724.700000 0 0 1
-31.158347 -1.596635 5.686766 31.713264 0.051198 1.390503 0.127454 -0.041400 1096930.000000 0 0 1
-32.179937 -0.740035 5.126666 32.594151 0.022993 1.412853 0.124426 -0.039223 539249.000000 0 0 1
-31.731377 -0.152435 3.812666 31.959974 0.004804 1.451217 0.127669 -0.036847 -138122.000000 0 0 1
-32.026737 -0.970535 2.703966 32.155330 0.030295 1.486606 0.118860 -0.045504 -47368.300000 0 0 1
-31.419667 -0.531135 1.560366 31.462872 0.016903 1.521182 0.114649 -0.044404 -481666.000000 0 0 1
-32.167877 -0.960635 0.284066 32.183471 0.029854 1.561970 0.096668 -0.034306 636557.000000 0 0 1
-33.481297 -0.391635 0.125866 33.483824 0.011697 1.567037 0.095180 -0.030844 754325.000000 0 0 1
-34.083236 -0.964335 -1.024334 34.112259 0.028286 1.600829 0.081642 -0.026895 -19658.000000 0 0 1
-35.605759 -0.664335 -0.910734 35.623600 0.018656 1.596365 0.064164 -0.022753 -184845.000000 0 0 1
-36.211677 -1.516335 0.011266 36.243413 0.041850 1.570485 0.065802 -0.021589 -154349.000000 0 0 1
35.317042 -1.401235 -0.090434 35.344945 -0.039655 1.573355 0.061433 -0.017354 -449160.000000 0 0 1
34.576952 -2.568335 0.613166 34.677629 -0.074143 1.553114 0.070547 -0.030108 -394551.000000 0 0 1
34.749182 -2.622635 2.032166 34.907214 -0.075330 1.512547 0.068111 -0.027693 237466.000000 0 0 1
34.081892 -3.751535 2.554966 34.382805 -0.109633 1.496418 0.061127 -0.021878 -93830.500000 0 0 1
34.113242 -3.911835 4.121966 34.583325 -0.114173 1.451323 0.064823 -0.008039 -172651.000000 0 0 1
33.357072 -2.991435 4.867666 33.842830 -0.089440 1.426464 0.066495 -0.017575 218776.000000 0 0 1
33.372882 -3.289835 6.250966 34.112268 -0.098261 1.386508 0.068099 -0.014205 118188.000000 0 0 1
32.537912 -2.291535 7.152566 33.393503 -0.070311 1.354933 0.068310 -0.010989 588455.000000 0 0 1
31.132932 -2.353535 6.967066 31.989664 -0.075453 1.351246 0.061529 -0.008642 269771.000000 0 0 1
30.475452 -1.318635 7.674766 31.454634 -0.043242 1.324313 0.092603 -0.012852 -699958.000000 0 0 1
28.969072 -1.486535 7.776166 30.031412 -0.051270 1.308878 0.068654 -0.016248 -1214760.000000 0 0 1
28.188232 -1.260535 6.567766 28.970691 -0.044689 1.342104 0.071488 -0.018918 1756020.000000 0 0 1
26.801542 -1.567235 6.877666 27.714278 -0.058409 1.320013 0.083101 -0.011297 954930.000000 0 0 1
26.428042 -3.044835 6.993966 27.506872 -0.114707 1.313711 0.098428 -0.014329 -1318670.000000 0 0 1
26.806542 -3.646035 8.199766 28.268718 -0.135183 1.276502 0.080677 -0.009132 245906.000000 0 0 1
26.780642 -5.058635 8.070066 28.423908 -0.186692 1.282918 0.098241 -0.009578 -409553.000000 0 0 1
27.296642 -5.735035 9.365666 29.423001 -0.207088 1.246849 0.064561 -0.010010 279797.000000 0 0 1
26.312142 -5.603035 10.416366 28.848284 -0.209811 1.201377 0.053592 -0.000163 1232910.000000 0 0 1
26.645442 -6.381935 11.585666 29.747880 -0.235085 1.170749 0.046586 0.005715 209201.000000 0 0 1
25.360742 -6.374735 12.436066 28.956178 -0.246260 1.126881 0.044493 -0.002980 850147.000000 0 0 1
24.297942 -7.243235 11.996966 28.049628 -0.289713 1.128844 0.064228 -0.017492 358578.000000 0 0 1
23.121242 -6.961835 12.714666 27.289590 -0.292467 1.086126 0.082639 -0.018916 399738.000000 0 0 1
22.072642 -8.112535 12.585666 26.672340 -0.352213 1.079395 0.088599 -0.019689 483632.000000 0 0 1
22.569742 -9.186235 13.400466 27.809219 -0.386540 1.068007 0.068858 -0.026261 312290.000000 0 0 1
21.611742 -10.195535 13.573266 27.481810 -0.440801 1.054227 0.103731 -0.045344 -113453.000000 0 0 1
22.120842 -11.366035 14.543666 28.810356 -0.474639 1.041638 0.066475 -0.038600 -583893.000000 0 0 1
22.070742 -10.908435 15.853766 29.282307 -0.459036 0.998682 0.061309 -0.036952 193325.000000 0 0 1
22.426842 -11.999235 16.721166 30.439157 -0.491284 0.989233 0.049339 -0.037104 -503586.000000 0 0 1
22.271642 -11.698735 18.225766 31.065495 -0.483662 0.943833 0.059240 -0.034305 663944.000000 0 0 1
20.897142 -11.645335 18.663766 30.342059 -0.508407 0.908268 0.060614 -0.038022 844568.000000 0 0 1
20.677942 -11.870735 20.064366 31.162003 -0.521140 0.871247 0.080096 -0.033854 246353.000000 0 0 1
21.320542 -10.816135 20.993866 31.816610 -0.469479 0.850191 0.056967 -0.028043 -147410.000000 0 0 1
20.492042 -9.679335 21.136666 30.989869 -0.441281 0.820233 0.071955 -0.020428 -32800.000000 0 0 1
20.703642 -8.577135 20.252966 30.205805 -0.392757 0.835915 0.065761 -0.014369 -526027.000000 0 0 1
21.820342 -7.529935 20.591366 30.932695 -0.332292 0.842388 0.041775 -0.006289 1585000.000000 0 0 1
23.175242 -8.030435 20.597766 32.028857 -0.333562 0.872256 0.041306 -0.009742 1093810.000000 0 0 1
23.730642 -8.342035 19.313066 31.713206 -0.338037 0.916008 0.042222 -0.023349 -597763.000000 0 0 1
25.106942 -9.033235 19.435466 33.010532 -0.345370 0.941265 0.009810 -0.028639 -242281.000000 0 0 1
25.051842 -10.267635 20.146566 33.747640 -0.388973 0.931069 0.005757 -0.034433 -135329.000000 0 0 1
26.137842 -11.100935 19.827466 34.634462 -0.401623 0.961271 0.011853 -0.040131 -254488.000000 0 0 1
25.929742 -12.569935 20.161366 35.168672 -0.451389 0.960297 -0.000477 -0.041414 -34815.600000 0 0 1
25.059142 -13.216835 19.240066 34.246539 -0.485347 0.974224 0.029429 -0.045323 192325.000000 0 0 1
24.798542 -14.542635 19.615366 34.802564 -0.530383 0.972037 0.029246 -0.035286 -849945.000000 0 0 1
23.636142 -15.119535 18.866066 33.811181 -0.569085 0.978843 0.050756 -0.032059 -1170780.000000 0 0 1
23.849142 -15.083535 17.410966 33.157749 -0.563943 1.017970 0.038241 -0.031407 863695.000000 0 0 1
22.752742 -15.609335 16.611266 32.206719 -0.601297 1.028890 0.035796 -0.023127 500244.000000 0 0 1
22.440742 -17.080835 16.781866 32.817264 -0.650601 1.034014 0.029179 -0.024961 -1218650.000000 0 0 1
23.504442 -17.877935 16.431866 33.794756 -0.650263 1.063031 0.058659 -0.021815 -574669.000000 0 0 1
23.244442 -19.251635 16.618766 34.454505 -0.691716 1.067473 0.041758 -0.011877 253329.000000 0 0 1
24.487142 -20.148435 16.317966 35.663084 -0.688500 1.095548 0.033567 -0.005668 249064.000000 0 0 1
24.816842 -20.189235 14.970766 35.321448 -0.682936 1.133112 0.028440 -0.012305 -96591.600000 0 0 1
25.868642 -21.098135 14.731866 36.487612 -0.684173 1.155184 0.026694 -0.009491 -139527.000000 0 0 1
26.289742 -21.064235 13.226666 36.191121 -0.675493 1.196662 0.022327 -0.019289 -105285.000000 0 0 1
25.212142 -21.179135 12.320866 35.156957 -0.698682 1.212741 0.031957 -0.015890 98078.400000 0 0 1
25.666042 -21.029435 11.003766 34.958056 -0.686428 1.250581 0.061449 -0.013958 -18098.200000 0 0 1
24.556142 -21.196835 9.935266 33.926677 -0.712107 1.273595 0.026389 -0.017873 -38147.900000 0 0 1
24.167742 -22.506935 9.691766 34.417615 -0.749831 1.285342 0.019437 -0.016859 868195.000000 0 0 1
22.730842 -22.609735 9.802966 33.525952 -0.782727 1.274061 -0.003481 -0.008822 1027340.000000 0 0 1
22.145442 -23.525835 8.706366 33.461714 -0.815613 1.307579 0.003814 -0.012694 -425571.000000 0 0 1
22.501342 -24.871235 8.913266 34.703530 -0.835383 1.311045 -0.000487 -0.010594 -26326.200000 0 0 1
22.237342 -25.803725 7.879166 34.963021 -0.859498 1.343487 0.009972 -0.010811 -89794.400000 0 0 1
20.758442 -26.218295 7.699366 34.316062 -0.901104 1.344504 0.002746 -0.013735 343476.000000 0 0 1
19.880342 -25.175765 7.256066 32.889172 -0.902391 1.348344 0.006631 -0.014326 -935350.000000 0 0 1
18.584842 -25.469375 7.645166 32.442780 -0.940418 1.332908 -0.004405 -0.021511 -873879.000000 0 0 1
17.677542 -24.223235 7.524266 30.917231 -0.940365 1.324960 0.001141 -0.019607 -500559.000000 0 0 1
17.424742 -23.762935 6.194766 30.111025 -0.938086 1.363586 0.004421 -0.016482 200366.000000 0 0 1
16.738042 -22.518735 6.292066 28.754922 -0.931601 1.350194 0.027952 -0.017413 -175066.000000 0 0 1
16.201442 -21.884935 4.969566 27.679120 -0.933531 1.390275 0.036354 -0.006544 -7985.150000 0 0 1
15.512642 -20.679935 5.284366 26.386100 -0.927212 1.369162 0.071002 -0.013518 236262.000000 0 0 1
14.945842 -20.138335 4.091366 25.410037 -0.932332 1.409079 0.058313 -0.010335 445598.000000 0 0 1
14.264142 -18.736735 4.113666 23.905088 -0.920107 1.397852 0.070511 -0.009287 246793.000000 0 1 0
15.216142 -17.735235 4.319866 23.764065 -0.861699 1.387999 0.062815 -0.007974 315298.000000 0 1 0
14.551842 -16.500435 4.488566 22.453679 -0.848068 1.369537 0.049326 -0.004572 624321.000000 0 1 0
15.662042 -15.419335 4.613766 22.457566 -0.777590 1.363879 0.047340 -0.005217 -353651.000000 0 1 0
16.187642 -15.300235 5.923366 23.048280 -0.757223 1.310882 0.065837 -0.018099 25764.700000 0 1 0
17.177742 -14.305735 6.089866 23.169276 -0.694427 1.304829 0.067695 -0.020903 278366.000000 0 1 0
18.576642 -14.742235 5.597366 24.367101 -0.670820 1.339017 0.083435 -0.031049 14072.100000 0 1 0
19.625542 -13.762535 5.551866 24.604725 -0.611569 1.343194 0.105455 -0.032501 -58340.000000 0 1 0
20.842542 -14.293835 5.178466 25.798097 -0.601133 1.368693 0.109323 -0.028978 -875652.000000 0 0 1
22.002842 -13.307535 5.161366 26.226995 -0.543949 1.372707 0.115755 -0.029507 -399247.000000 0 0 1
22.287142 -12.821335 6.452566 26.509224 -0.522044 1.324918 0.140694 -0.036082 664576.000000 0 0 1
23.417342 -11.932135 6.311766 27.029357 -0.471253 1.335105 0.143878 -0.031944 453472.000000 0 0 1
23.678342 -11.158335 7.561666 27.246121 -0.440381 1.289572 0.149180 -0.030373 -179179.000000 0 0 1
24.151142 -11.949035 8.631566 28.294187 -0.459447 1.260790 0.117960 -0.017885 390555.000000 0 0 1
24.208342 -11.191035 9.877966 28.440417 -0.433019 1.216083 0.115294 -0.032619 -30946.400000 0 0 1
24.442942 -12.052635 11.128466 29.437496 -0.458106 1.183121 0.086931 -0.025290 -381544.000000 0 0 1
23.360842 -12.899435 11.272166 28.968709 -0.504517 1.171125 0.085257 -0.030560 -89964.300000 0 0 1
23.794742 -13.961335 12.090566 30.121262 -0.530613 1.157755 0.064984 -0.034605 686950.000000 0 0 1
22.691642 -15.027335 12.477866 29.940417 -0.584932 1.140922 0.050782 -0.041524 1118150.000000 0 0 1
21.576942 -14.538235 13.246566 29.195825 -0.592915 1.099867 0.047764 -0.036704 931062.000000 0 0 1
20.550242 -15.533535 13.440566 29.056014 -0.647254 1.089900 0.037445 -0.034366 482690.000000 0 0 1
19.298042 -14.887635 14.057866 28.136803 -0.657094 1.047630 0.034722 -0.034200 -997842.000000 0 0 1
19.520542 -14.392035 15.329566 28.691076 -0.635308 1.007120 0.034457 -0.035881 -126702.000000 0 0 1
19.012742 -13.146135 15.584766 27.878130 -0.604957 0.977579 0.050835 -0.047128 -1234220.000000 0 0 1
17.512942 -12.992435 15.700566 26.870323 -0.638282 0.946768 0.068821 -0.041875 -1377750.000000 0 0 1
16.783542 -13.284235 14.502566 25.855030 -0.669539 0.975301 0.068501 -0.045074 1720640.000000 0 0 1
15.337742 -13.153535 14.722066 25.000021 -0.708885 0.941121 0.103278 -0.043338 1659880.000000 0 0 1
14.812742 -11.717435 14.498466 23.810105 -0.669252 0.916097 0.088198 -0.030814 -707665.000000 0 1 0
15.239142 -10.694235 15.377166 24.146539 -0.611907 0.880421 0.078588 -0.023571 98892.600000 0 1 0
14.957742 -9.382935 15.016866 23.179296 -0.560249 0.866029 0.070536 -0.017697 -693235.000000 0 1 0
15.421442 -8.264735 15.967266 23.687133 -0.491973 0.831064 0.081410 -0.014859 177306.000000 0 1 0
16.817542 -8.106935 16.151566 24.686539 -0.449187 0.857585 0.075856 -0.026301 406156.000000 0 1 0
17.419242 -9.020935 17.088466 26.015821 -0.477843 0.854164 0.088029 -0.022224 345750.000000 0 0 1
18.973942 -9.103235 16.927666 27.007873 -0.447338 0.893398 0.076136 -0.020129 453568.000000 0 0 1
19.510342 -7.813935 17.119666 27.107084 -0.380939 0.887237 0.070578 -0.024317 -970972.000000 0 0 1
20.712042 -7.821435 16.451266 27.582742 -0.361072 0.931746 0.063770 -0.012118 -1115260.000000 0 0 1
21.424942 -6.457835 16.330066 27.702036 -0.292756 0.940369 0.067178 0.003291 174589.000000 0 0 1
22.202842 -6.221835 17.528266 28.964073 -0.273219 0.920814 0.065892 -0.003878 420830.000000 0 0 1
22.653842 -4.877935 17.555366 29.072009 -0.212087 0.922464 0.083386 -0.008067 -222095.000000 0 0 1
-5.669237 -32.850239 -6.789137 34.020154 1.399901 1.771707 0.029010 -0.021173 -174804.000000 0 0 1
-6.086437 -31.524039 -6.908937 32.841181 1.380070 1.782754 0.029355 -0.028523 -62943.900000 0 0 1
-5.715437 -30.809239 -5.744137 31.857033 1.387371 1.752098 0.030849 -0.027825 -872249.000000 0 0 1
-6.313837 -29.357739 -5.691537 30.563622 1.358958 1.758109 0.038210 -0.029650 1260070.000000 0 0 1
-7.685437 -29.159939 -5.297937 30.617579 1.313095 1.744707 0.038344 -0.027192 1227520.000000 0 0 1
-8.638237 -29.823839 -6.161537 31.655095 1.288869 1.766693 0.040620 -0.024202 -415165.000000 0 0 1
-10.103737 -29.462939 -5.805237 31.683609 1.240433 1.755063 0.060889 -0.009997 -230675.000000 0 0 1
-10.917437 -30.188639 -6.677337 32.789193 1.223789 1.775875 0.048095 -0.012315 -321891.000000 0 0 1
-12.263737 -29.786039 -6.404237 32.842376 1.180221 1.767053 0.048452 -0.009044 936721.000000 0 0 1
-13.332837 -30.528239 -7.290337 34.101128 1.159026 1.786245 0.056922 -0.009084 586894.000000 0 0 1
-13.318637 -30.077739 -8.592537 33.998356 1.153940 1.826301 0.073631 -0.021471 643535.000000 0 0 1
-14.575937 -30.429539 -9.195837 34.971106 1.124084 1.836880 0.077597 -0.016464 1008310.000000 0 0 1
-14.975637 -29.628839 -10.490237 34.816417 1.102805 1.876854 0.093194 -0.018104 -223076.000000 0 0 1
-15.382037 -28.276039 -10.298337 33.796408 1.072575 1.880438 0.092516 -0.022763 199316.000000 0 0 1
-14.358737 -27.353139 -9.916137 32.445298 1.087397 1.881392 0.083169 -0.023264 37764.800000 0 0 1
-14.795537 -25.959339 -9.464237 31.342734 1.052765 1.877544 0.074077 -0.010408 -311144.000000 0 0 1
-15.195537 -25.159139 -10.551237 31.228436 1.027458 1.915452 0.079350 -0.016620 66427.800000 0 0 1
-15.653837 -23.934239 -10.053337 30.314353 0.991590 1.908834 0.063877 -0.008863 -206467.000000 0 0 1
-16.282537 -22.987239 -11.131437 30.289323 0.954502 1.947120 0.068473 -0.006762 703274.000000 0 0 1
-17.544837 -23.473839 -11.613737 31.523346 0.928948 1.948102 0.068776 -0.011809 364599.000000 0 0 1
-17.768937 -22.976939 -12.891037 31.778195 0.912526 1.988493 0.070321 -0.013361 79647.800000 0 0 1
-19.198637 -23.407939 -13.353537 33.088310 0.883873 1.986215 0.052517 -0.000239 394892.000000 0 0 1
-19.550837 -24.715639 -13.714637 34.368435 0.901548 1.981274 0.073493 -0.006536 -111953.000000 0 0 1
-19.480237 -25.555739 -12.636337 34.529009 0.919492 1.945464 0.083997 -0.013756 -1465470.000000 0 0 1
-19.571637 -27.106939 -13.015437 35.878082 0.945447 1.942033 0.083681 -0.019728 157915.000000 0 0 1
-18.625437 -27.727939 -13.886537 36.174320 0.979303 1.964789 0.087714 -0.028306 -409285.000000 0 0 1
-17.297237 -27.492639 -13.554637 35.196133 1.009212 1.966131 0.101710 -0.030078 -1352290.000000 0 0 1
-16.330137 -28.631939 -13.809837 35.737556 1.052466 1.967547 0.097945 -0.034858 -401668.000000 0 0 1
-16.087837 -28.900539 -15.162437 36.386250 1.062853 2.000617 0.103636 -0.034990 -138308.000000 0 0 1
-15.279337 -30.021339 -15.470537 37.068538 1.100015 2.001323 0.125486 -0.041680 -401693.000000 0 0 1
-15.967737 -31.362839 -15.474337 38.445434 1.099872 1.985044 0.126220 -0.049225 -288469.000000 0 0 1
-16.431537 -31.765139 -14.181537 38.472529 1.093419 1.948315 0.123958 -0.046671 -42006.700000 0 0 1
-16.846437 -33.125639 -14.136837 39.761295 1.100323 1.934291 0.109618 -0.043777 -651577.000000 0 0 1
-17.617737 -33.516339 -12.867537 39.991289 1.086843 1.898383 0.111084 -0.031641 768934.000000 0 0 1
-18.961337 -33.003739 -12.741137 40.138706 1.049322 1.893812 0.119343 -0.026508 922391.000000 0 0 1
-19.232037 -31.576339 -12.605037 39.061790 1.023738 1.899372 0.116285 -0.027317 -570873.000000 0 0 1
-18.561137 -30.876939 -11.417137 37.792224 1.029544 1.877694 0.121706 -0.030986 -322376.000000 0 0 1
-19.143337 -31.053939 -10.153337 37.866935 1.018366 1.842250 0.115827 -0.031082 -12196.600000 0 0 1
-18.745437 -29.969239 -9.349437 36.564446 1.011845 1.829365 0.107867 -0.024822 -137392.000000 0 0 1
-18.993337 -30.221139 -7.847637 36.546539 1.009700 1.787212 0.102673 -0.018697 30779.800000 0 0 1
-18.086437 -31.198239 -7.306737 36.794534 1.045417 1.770707 0.102718 -0.018807 408038.000000 0 0 1
-18.335937 -31.488839 -5.951737 36.921224 1.043494 1.732704 0.111687 -0.023636 278894.000000 0 0 1
-17.245837 -32.530039 -5.453837 37.220514 1.083320 1.717854 0.094989 -0.013506 551430.000000 0 0 1
-16.018637 -31.927539 -5.134737 36.087810 1.105775 1.713565 0.076480 -0.010519 -77294.200000 0 0 1
-15.952537 -31.554339 -3.748337 35.555728 1.102713 1.676414 0.059155 -0.006985 -217599.000000 0 0 1
-14.662337 -30.788739 -3.341237 34.265062 1.126350 1.668463 0.061308 -0.012275 239672.000000 0 0 1
-13.546537 -31.653939 -3.230637 34.582041 1.166423 1.664352 0.049891 -0.001499 -124592.000000 0 0 1
-12.477437 -30.942839 -2.632937 33.467568 1.187499 1.649549 0.053292 -0.003430 -41560.900000 0 0 1
-11.085637 -31.564139 -2.602737 33.555335 1.233044 1.648440 0.050351 -0.011680 -491675.000000 0 0 1
-10.929037 -32.628839 -1.642437 34.449711 1.247591 1.618491 0.049860 -0.005106 -15590.000000 0 0 1
-9.640337 -33.212639 -1.676137 34.624051 1.288298 1.619225 0.059446 -0.012297 356459.000000 0 0 1
-8.535637 -32.531939 -0.852137 33.643875 1.314203 1.596127 0.066445 -0.013695 -158119.000000 0 0 1
-8.872737 -32.587239 0.555763 33.778136 1.304964 1.554342 0.076375 -0.010897 -629125.000000 0 0 1
-7.789737 -32.368039 1.382163 33.320869 1.334626 1.529304 0.080285 -0.013375 -301697.000000 0 0 1
-6.945537 -33.628939 1.741363 34.382821 1.367126 1.520128 0.081198 -0.019714 138848.000000 0 0 1
-7.632137 33.672165 2.518263 34.618000 -1.347902 1.497988 0.095193 -0.020985 764746.000000 0 0 1
-6.730937 32.674165 3.116963 33.505553 -1.367637 1.477633 0.091189 -0.027718 468040.000000 0 0 1
-6.073737 33.042865 4.421863 33.886193 -1.389012 1.439932 0.095715 -0.034716 -179025.000000 0 0 1
-5.113137 34.063365 4.260663 34.707496 -1.421802 1.447727 0.081809 -0.027682 -392114.000000 0 0 1
-4.528137 -33.963039 5.505663 34.703089 1.438253 1.411473 0.074291 -0.028628 -168150.000000 0 0 1
-3.210037 -33.181039 5.377463 33.766889 1.474353 1.410863 0.058611 -0.017771 -146539.000000 0 0 1
-3.363137 -31.801439 4.968463 32.362445 1.465434 1.416661 0.053864 -0.012885 58441.700000 0 0 1
-3.555437 -31.706239 3.545363 32.101345 1.459126 1.460128 0.056609 -0.029629 -296019.000000 0 0 1
-4.014437 -30.359239 2.923363 30.762724 1.439328 1.475623 0.050532 -0.029751 109510.000000 0 0 1
-3.108237 -29.257439 2.972663 29.571872 1.464956 1.470103 0.039162 -0.019244 50088.000000 0 0 1
-3.618737 -28.164639 2.264363 28.486304 1.443011 1.491223 0.045363 -0.026022 -59289.500000 0 0 1
-2.654137 -26.961539 2.287963 27.188303 1.472671 1.486544 0.034326 -0.025235 -300081.000000 0 0 1
-2.933737 -25.893339 1.403263 26.096762 1.457977 1.516999 0.039489 -0.029061 -380180.000000 0 0 1
-2.807137 -24.609539 2.071463 24.855591 1.457220 1.487360 0.024164 -0.029630 -952.262000 0 1 0
-3.957737 -24.195139 3.039263 24.704363 1.408657 1.447459 0.019587 -0.023430 -19562.500000 0 1 0
-4.249537 -25.078539 4.074963 25.760377 1.402942 1.411942 0.042061 -0.022683 -686942.000000 0 0 1
-5.050337 -24.417639 4.967363 25.424431 1.366841 1.374154 0.025518 -0.019923 -547492.000000 0 0 1
-5.611237 -25.298939 6.085963 26.618814 1.352532 1.340122 0.041502 -0.014811 155058.000000 0 0 1
-4.631537 -25.647539 7.078863 27.006623 1.392138 1.305582 0.025968 -0.019516 137171.000000 0 0 1
-5.189137 -26.496839 8.084463 28.184538 1.377404 1.279869 0.032137 -0.020184 380080.000000 0 0 1
-4.251537 -26.912539 9.287363 28.785681 1.414115 1.242281 0.029082 -0.019001 355456.000000 0 0 1
-3.817237 -26.020639 10.289063 28.240216 1.425135 1.197871 0.023386 -0.016559 -356114.000000 0 0 1
-4.886437 -25.609739 11.093563 28.333781 1.382259 1.168501 0.040825 -0.018649 -186782.000000 0 0 1
-4.527037 -24.626639 12.171963 27.841015 1.388999 1.118318 0.006117 -0.014187 688217.000000 0 0 1
-3.558437 -25.126939 13.132163 28.574101 1.430113 1.093271 -0.019397 -0.008625 532675.000000 0 0 1
-3.094937 -24.138639 14.057263 28.104433 1.443277 1.046990 0.006262 -0.010463 228095.000000 0 0 1
-2.033137 -24.666539 15.047263 28.965357 1.488557 1.024540 0.024986 -0.005744 277198.000000 0 0 1
-2.655737 -25.547539 16.011063 30.266877 1.467216 1.013379 0.020204 -0.002519 -75873.200000 0 0 1
-1.751737 -26.098439 16.917663 31.151315 1.503776 0.996695 0.027773 0.000991 -333077.000000 0 0 1
-2.398837 -26.548139 18.225263 32.291149 1.480683 0.971085 0.036216 -0.006264 -48691.800000 0 0 1
-2.717837 -25.444939 19.023063 31.885867 1.464387 0.931540 0.052955 -0.005915 -116506.000000 0 0 1
-3.127737 -25.883639 20.316463 33.053051 1.450541 0.908839 0.084972 -0.010768 -32605.500000 0 0 1
-3.113937 -24.702039 21.341363 32.792394 1.445398 0.862156 0.089470 -0.021267 -24153.800000 0 0 1
-2.844837 -25.049139 22.682363 33.912270 1.457711 0.838130 0.095441 -0.020262 -105632.000000 0 0 1
-3.030437 -24.047139 23.628663 33.849109 1.445436 0.798114 0.102510 -0.019250 102955.000000 0 0 1
-2.108037 -22.791039 23.565163 32.851061 1.478565 0.770829 0.103814 -0.024229 -80734.000000 0 0 1
-2.339037 -21.898639 22.498463 31.483366 1.464388 0.774724 0.111968 -0.020129 95772.300000 0 0 1
-1.331337 -20.885439 22.317463 30.594823 1.507138 0.753275 0.108897 -0.023842 -198071.000000 0 0 1
-1.855637 -19.696939 21.513263 29.227269 1.476864 0.743553 0.093102 -0.011963 63415.200000 0 0 1
-2.681137 -18.825139 22.289863 29.298675 1.429325 0.706281 0.096269 -0.027386 1008990.000000 0 0 1
-3.995337 -19.269439 22.678963 30.026811 1.366353 0.714699 0.093481 -0.033571 -149617.000000 0 0 1
-5.140737 -19.087839 21.696363 29.351404 1.307718 0.738924 0.072751 -0.025494 -728490.000000 0 0 1
-5.192137 -19.852639 20.545463 29.037934 1.314992 0.784787 0.089868 -0.020989 -336795.000000 0 0 1
-5.455537 -21.208039 20.659463 30.105767 1.319016 0.814504 0.071339 -0.015174 -65158.800000 0 0 1
-5.485437 -21.820039 19.252963 29.612172 1.324506 0.862987 0.048453 -0.017162 73748.600000 0 0 1
-5.856837 -23.189439 19.076063 30.593280 1.323405 0.897537 0.040341 -0.015823 -163582.000000 0 0 1
-5.673837 -23.613539 17.745063 30.077881 1.334988 0.939774 0.034711 -0.018900 45383.300000 0 0 1
-6.118337 -25.066739 17.454463 31.151785 1.331395 0.976044 0.036714 -0.024743 -102551.000000 0 0 1
-7.512637 -25.180239 17.521863 31.583221 1.280850 0.982693 0.073392 -0.028993 -935004.000000 0 0 1
-7.919237 -26.473139 17.301063 32.601659 1.280127 1.011393 0.103579 -0.031053 706116.000000 0 0 1
-9.477737 -26.602639 17.366463 33.153008 1.228546 1.019458 0.082049 -0.035313 211340.000000 0 0 1
-10.188937 -25.913639 16.364163 32.297321 1.196176 1.039476 0.107415 -0.038780 701401.000000 0 0 1
-11.622037 -25.962939 16.492563 32.880854 1.149907 1.045366 0.118380 -0.039746 1320960.000000 0 0 1
-12.301937 -25.245539 17.682663 33.186616 1.117367 1.008861 0.092647 -0.032262 -660273.000000 0 0 1
-12.513337 -23.884439 17.422063 32.102622 1.088203 0.997149 0.089869 -0.034750 -76894.700000 0 0 1
-13.021537 -23.130139 18.535763 32.374964 1.058051 0.961203 0.071642 -0.020763 -182945.000000 0 0 1
-11.997037 -22.432039 19.467963 32.033215 1.079685 0.917581 0.059175 -0.031204 223176.000000 0 0 1
-11.132137 -23.323039 20.160263 32.776895 1.125471 0.908315 0.072516 -0.028331 -171236.000000 0 0 1
-9.781937 -23.152039 19.790363 31.990025 1.171038 0.903784 0.074468 -0.030052 -96992.200000 0 0 1
-8.844237 -24.031939 20.623263 32.879684 1.218159 0.892799 0.066283 -0.030552 -50386.200000 0 0 1
-8.788837 -23.561339 21.948763 33.378564 1.213763 0.853207 0.054041 -0.028379 -365142.000000 0 0 1
-7.866937 -24.289939 22.680963 34.151368 1.257581 0.844466 0.046901 -0.019556 -272268.000000 0 0 1
-7.860237 -24.022239 24.215863 35.003704 1.254570 0.806806 0.058947 -0.023377 383297.000000 0 0 1
-6.782637 -24.586539 24.961663 35.687346 1.301623 0.796163 0.077832 -0.021690 255054.000000 0 0 1
-6.574437 -23.883839 26.177563 36.040613 1.302182 0.757821 0.073575 -0.019352 170988.000000 0 0 1
-5.525737 -24.560639 27.110863 36.996725 1.349498 0.748382 0.086473 -0.015881 415700.000000 0 0 1
-4.207037 -24.317939 26.673563 36.339239 1.399491 0.746580 0.088996 -0.009844 366376.000000 0 0 1
-3.247837 -24.197839 27.743663 36.956660 1.437374 0.721663 0.087784 -0.009726 803031.000000 0 0 1
-1.884037 -23.564439 27.420863 36.204090 1.491013 0.711479 0.079420 -0.009511 -430158.000000 0 0 1
-1.999937 -22.160439 27.196163 35.138527 1.480792 0.685710 0.092704 -0.013799 970798.000000 0 0 1
-0.708337 -21.512739 26.946663 34.488003 1.537882 0.673995 0.091194 -0.019044 1555100.000000 0 0 1
0.192663 -21.394839 28.208363 35.404632 -1.561791 0.648911 0.086892 -0.015941 -12092.500000 0 0 1
0.941463 -22.569539 28.545463 36.402114 -1.529107 0.669438 0.081558 -0.017234 440366.000000 0 0 1
1.931763 -22.325639 29.529863 37.069916 -1.484485 0.649148 0.065962 -0.020415 206173.000000 0 0 1
2.573263 -23.616639 30.068863 38.321063 -1.462265 0.668655 0.067683 -0.023969 -838975.000000 0 0 1
3.219063 -24.429939 29.066763 38.105918 -1.439784 0.703182 0.058246 -0.029389 469320.000000 0 0 1
3.781263 -25.593739 29.680963 39.373811 -1.424116 0.716932 0.035087 -0.014584 -274685.000000 0 0 1
5.048963 -25.294539 30.534963 39.971111 -1.373779 0.701421 0.014295 -0.014954 -975743.000000 0 0 1
6.223163 -24.887639 29.913563 39.407405 -1.325770 0.708890 0.012855 -0.015652 218084.000000 0 0 1
6.898763 -25.917839 29.102363 39.576190 -1.310650 0.744613 0.016504 -0.015073 385882.000000 0 0 1
8.256763 -25.372639 28.528863 39.062014 -1.256185 0.751965 0.020292 -0.014769 504618.000000 0 0 1
8.102363 -24.637939 27.307063 37.661014 -1.253080 0.759653 0.029973 -0.017846 963563.000000 0 0 1
9.406963 -24.345039 26.776663 37.391999 -1.202067 0.772588 0.012238 -0.005717 763914.000000 0 0 1
9.297463 -23.183439 25.776663 35.893607 -1.189395 0.769669 0.031045 0.003650 68190.600000 0 0 1
8.583763 -23.549339 24.597863 35.118474 -1.221262 0.794803 0.046102 -0.005190 140767.000000 0 0 1
8.028863 -22.332539 24.097663 33.821625 -1.225671 0.777752 0.039908 -0.009759 170107.000000 0 0 1
7.308163 -22.488739 22.715363 32.789333 -1.256592 0.805478 0.053235 -0.007795 -525895.000000 0 0 1
8.206563 -22.843639 21.729463 32.578353 -1.225905 0.840634 0.037873 0.006064 -383984.000000 0 0 1
7.646163 -22.970439 20.459163 31.696723 -1.249463 0.869163 0.061112 -0.002892 -390381.000000 0 0 1
8.490563 -23.854039 19.540863 31.983592 -1.228841 0.913517 0.064894 -0.011582 -193896.000000 0 0 1
9.694263 -23.237939 19.170663 31.646404 -1.175573 0.920054 0.043326 -0.006951 -216634.000000 0 0 1
10.494863 -24.160139 18.417263 32.141096 -1.161001 0.960619 0.070256 -0.014723 515357.000000 0 0 1
11.717463 -23.549839 17.715263 31.713158 -1.109102 0.978088 0.053411 -0.013805 -45626.400000 0 0 1
11.251463 -22.871939 16.586963 30.411319 -1.113623 0.993905 0.057538 -0.006612 -259625.000000 0 0 1
12.216163 -22.081839 15.954563 29.856161 -1.065483 1.007021 0.058878 -0.023221 -209132.000000 0 0 1
-12.251937 22.100065 10.889863 27.515668 -1.064593 1.163891 0.017022 -0.011381 -1013220.000000 0 0 1
-13.287137 21.237065 10.539563 27.177994 -1.011724 1.172555 0.009209 -0.020718 -386196.000000 0 0 1
-12.866037 20.073465 9.854763 25.799133 -1.000811 1.178858 0.041726 -0.030352 42551.400000 0 0 1
-13.947437 19.491465 8.895063 25.565022 -0.949699 1.215425 0.055204 -0.029632 -560436.000000 0 0 1
-14.170237 20.347265 7.839463 26.005077 -0.962477 1.264574 0.062596 -0.026898 296496.000000 0 0 1
-15.048137 19.739665 6.852663 25.749948 -0.919451 1.301427 0.071227 -0.023946 1261390.000000 0 0 1
-16.581137 19.848765 7.208063 26.848906 -0.874855 1.298994 0.051146 -0.024578 235890.000000 0 0 1
-16.989237 18.915165 8.198363 26.713869 -0.838987 1.258867 0.051260 -0.029391 -748917.000000 0 0 1
-18.288037 19.136865 8.619063 27.838106 -0.808075 1.256009 0.069091 -0.026769 -804782.000000 0 0 1
-18.833837 18.020765 9.524763 27.752162 -0.763340 1.220466 0.050429 -0.023065 -60175.400000 0 0 1
-19.121837 16.740365 8.944663 26.942373 -0.719089 1.232381 0.051456 -0.024069 31443.200000 0 0 1
-19.539337 15.730565 9.756063 26.914999 -0.677826 1.199872 0.050636 -0.026728 -503004.000000 0 0 1
-18.514737 15.257765 10.814763 26.316421 -0.689257 1.147299 0.051499 -0.020192 -3129.840000 0 0 1
-17.703437 14.281665 10.201763 24.928971 -0.678823 1.149183 0.041029 -0.010323 -81450.400000 0 1 0
-16.773337 13.555365 10.972963 24.197080 -0.679690 1.100127 0.050600 -0.013837 252785.000000 0 1 0
-17.383037 12.351365 11.740963 24.342892 -0.617766 1.067500 0.038155 -0.019572 -42032.700000 0 1 0
-18.008037 11.360565 10.943963 23.939970 -0.562803 1.096017 0.020528 -0.025548 -732872.000000 0 1 0
-18.844137 10.657265 11.737963 24.626380 -0.514702 1.073966 0.031301 -0.026778 -451641.000000 0 1 0
-19.950737 9.859265 10.971063 24.811313 -0.458981 1.112769 0.036500 -0.028757 -251165.000000 0 1 0
-19.466737 8.867965 10.083563 23.648951 -0.427455 1.130304 0.029657 -0.028440 180306.000000 0 1 0
-19.003237 9.287665 8.830563 22.920789 -0.454600 1.175302 0.041704 -0.024241 -575929.000000 0 1 0
-20.110437 9.534665 7.791463 23.580637 -0.442726 1.234050 0.057298 -0.028607 38341.400000 0 1 0
-20.773837 8.372765 7.319963 23.563475 -0.383128 1.254921 0.050063 -0.028002 592603.000000 0 1 0
-21.737737 8.678365 6.320063 24.244307 -0.379843 1.307067 0.074568 -0.022381 163564.000000 0 1 0
-21.942937 7.462665 5.402863 23.798630 -0.327823 1.341775 0.092725 -0.023096 -308421.000000 0 1 0
-22.486337 6.353865 6.065463 24.141185 -0.275386 1.316825 0.081732 -0.026059 454397.000000 0 1 0
-22.256637 5.191765 5.290363 23.458480 -0.229170 1.343319 0.090754 -0.026353 -278622.000000 0 1 0
-23.269437 4.118065 5.736763 24.317393 -0.175160 1.332639 0.104891 -0.027049 -801036.000000 0 1 0
-24.510037 4.347165 5.165963 25.422961 -0.175537 1.366171 0.127183 -0.030342 -906683.000000 0 0 1
-25.265837 3.187265 5.202563 25.992073 -0.125486 1.369276 0.134044 -0.032329 -592194.000000 0 0 1
-26.399907 3.203265 4.162263 26.917289 -0.120746 1.415542 0.143267 -0.038215 -314731.000000 0 0 1
-26.042237 3.099965 2.764963 26.371441 -0.118479 1.465756 0.142184 -0.037141 27222.800000 0 0 1
-27.141157 2.661665 2.026963 27.346580 -0.097755 1.496607 0.140992 -0.032095 -312924.000000 0 0 1
-26.875177 2.664965 0.504663 27.011699 -0.098838 1.552112 0.155416 -0.033670 -127276.000000 0 0 1
-26.582957 3.970865 -0.024237 26.877909 -0.148280 1.571698 0.154226 -0.038867 379969.000000 0 0 1
-26.564337 4.090765 -1.434737 26.915736 -0.152794 1.624126 0.185696 -0.028706 219478.000000 0 0 1
-27.972697 4.438065 -2.003237 28.393330 -0.157346 1.641408 0.162707 -0.032282 -29249.900000 0 0 1
-28.879857 3.379465 -1.848937 29.135640 -0.116488 1.634299 0.124827 -0.032646 412061.000000 0 0 1
-30.171697 3.950865 -2.126837 30.503509 -0.130205 1.640577 0.114139 -0.021095 343671.000000 0 0 1
-31.269907 2.896165 -2.342237 31.490966 -0.092355 1.645243 0.102400 -0.021489 -239051.000000 0 0 1
-31.200497 2.298065 -3.664337 31.498881 -0.073522 1.687393 0.089021 -0.029700 364338.000000 0 0 1
-32.309387 1.449465 -3.848637 32.570070 -0.044832 1.689238 0.106759 -0.035171 -72090.300000 0 0 1
-32.374057 1.095965 -5.341437 32.830042 -0.033840 1.734223 0.100570 -0.030456 -156719.000000 0 0 1
-31.192967 0.410365 -5.801237 31.730489 -0.013155 1.754659 0.108403 -0.030647 886024.000000 0 0 1
-31.225777 -0.287235 -7.027237 32.008026 0.009198 1.792146 0.113769 -0.028774 -550813.000000 0 0 1
-31.431467 0.550765 -8.302737 32.514242 -0.017521 1.829013 0.111493 -0.033531 -630931.000000 0 0 1
-32.792727 0.881465 -8.333137 33.846434 -0.026873 1.819558 0.104106 -0.032815 -94825.400000 0 0 1
-33.202067 1.662565 -9.445837 34.559589 -0.050032 1.847639 0.102709 -0.033233 671119.000000 0 0 1
-34.752683 1.867865 -9.305337 36.025369 -0.053696 1.832058 0.100576 -0.032159 605611.000000 0 0 1
-34.997920 2.742065 -8.225737 36.056013 -0.078190 1.800961 0.083595 -0.027711 2162700.000000 0 0 1
-36.450877 2.891165 -8.008337 37.432055 -0.079151 1.786406 0.086476 -0.023949 2026480.000000 0 0 1
36.100272 3.899765 -6.843037 36.949493 0.107609 1.757071 0.089734 -0.026191 778837.000000 0 0 1
34.715522 3.772365 -6.462537 35.512852 0.108240 1.753793 0.087895 -0.027700 1156050.000000 0 0 1
34.392892 4.579365 -5.355537 35.107313 0.132370 1.723942 0.088990 -0.028725 -814350.000000 0 0 1
33.006662 4.335465 -4.811337 33.636067 0.130604 1.714330 0.092314 -0.032023 -670334.000000 0 0 1
32.971872 3.139465 -4.088937 33.372444 0.094930 1.693629 0.093795 -0.035801 101540.000000 0 0 1
31.654612 2.635865 -4.056337 32.022120 0.083078 1.697811 0.108413 -0.031596 -79261.400000 0 0 1
31.588152 1.255065 -3.411637 31.796632 0.039711 1.678299 0.128364 -0.032260 -334145.000000 0 0 1
32.296252 0.244865 -4.085137 32.554512 0.007582 1.696614 0.095944 -0.032387 266454.000000 0 0 1
32.097132 -1.022035 -3.488937 32.302371 -0.031831 1.679016 0.094770 -0.029135 -12602.600000 0 0 1
33.371152 -1.858435 -3.700737 33.627118 -0.055632 1.681072 0.070919 -0.030435 -13668.500000 0 0 1
33.236622 -3.144535 -3.179237 33.536081 -0.094330 1.665739 0.058571 -0.023038 65966.900000 0 0 1
34.489422 -3.792535 -3.104637 34.835935 -0.109522 1.660036 0.080687 -0.021883 39142.100000 0 0 1
34.495782 -5.285635 -2.707737 35.003268 -0.152043 1.648230 0.077752 -0.026755 -198216.000000 0 0 1
34.218702 -5.545335 -1.368937 34.692136 -0.160659 1.610266 0.073418 -0.028512 -122661.000000 0 0 1
34.447742 -6.915935 -1.056837 35.151017 -0.198132 1.600866 0.093509 -0.034384 -347067.000000 0 0 1
33.947572 -7.360035 0.338263 34.737907 -0.213502 1.561059 0.085092 -0.026912 642585.000000 0 0 1
32.518632 -7.236735 0.304363 33.315528 -0.218973 1.561660 0.073470 -0.026347 577971.000000 0 0 1
31.788982 -7.502535 1.485263 32.696077 -0.231769 1.525354 0.085059 -0.028976 -392110.000000 0 0 1
31.635782 -9.009235 1.927363 32.950019 -0.277436 1.512269 0.088408 -0.029994 -602472.000000 0 0 1
30.540232 -9.668135 1.411763 32.065116 -0.306589 1.526754 0.089674 -0.037181 1923390.000000 0 0 1
29.153672 -9.291835 1.771463 30.649843 -0.308541 1.512967 0.100877 -0.040566 1451940.000000 0 0 1
28.039132 -10.346935 1.550263 29.927501 -0.353516 1.518973 0.115432 -0.040417 491370.000000 0 0 1
26.746042 -10.036135 2.081863 28.642782 -0.358979 1.498048 0.127932 -0.040340 1414380.000000 0 0 1
25.974742 -8.955235 1.491263 27.515583 -0.332005 1.516573 0.139136 -0.043098 61087.900000 0 0 1
25.240142 -9.312735 0.135563 26.903721 -0.353469 1.565757 0.124776 -0.033059 -242312.000000 0 0 1
26.194842 -9.578435 -0.897637 27.905590 -0.350558 1.602969 0.120580 -0.041107 669075.000000 0 0 1
25.698942 -9.961135 -2.194237 27.649132 -0.369779 1.650240 0.117286 -0.045671 -544391.000000 0 0 1
24.932142 -11.263635 -2.326637 27.457138 -0.424326 1.655635 0.113091 -0.029212 -4230.200000 0 0 1
23.715642 -11.226435 -1.593937 26.286977 -0.442123 1.631470 0.104632 -0.014161 147832.000000 0 0 1
23.072042 -12.476035 -1.666437 26.282077 -0.495708 1.634245 0.090447 -0.009219 340788.000000 0 0 1
21.537042 -12.649035 -1.480137 25.020653 -0.531040 1.629988 0.071406 -0.014050 283634.000000 0 0 1
20.811442 -12.099535 -2.559237 24.208770 -0.526622 1.676710 0.073662 -0.008305 1482620.000000 0 1 0
19.388642 -12.276935 -2.301337 23.063797 -0.564476 1.670744 0.069546 -0.008830 1085450.000000 0 1 0
18.480342 -11.990035 -3.486537 22.303361 -0.575531 1.727764 0.052837 0.004215 -333030.000000 0 1 0
18.524842 -12.873235 -4.604337 23.023681 -0.607307 1.772137 0.057976 0.000186 433510.000000 0 1 0
17.730542 -12.331935 -5.650537 22.324366 -0.607712 1.826691 0.057111 -0.002910 -101232.000000 0 1 0
17.874942 -13.072635 -6.964537 23.214481 -0.631450 1.875498 0.059688 -0.009173 -3064.060000 0 1 0
17.017042 -14.222935 -7.032437 23.266430 -0.696195 1.877856 0.055423 -0.011693 658722.000000 0 1 0
17.167042 -14.732535 -8.338937 24.110014 -0.709228 1.923962 0.064230 -0.017486 -316711.000000 0 1 0
16.168842 -15.784235 -8.830537 24.260089 -0.773362 1.943349 0.059358 -0.021084 -277965.000000 0 1 0
14.812842 -15.341135 -8.844437 23.086680 -0.802916 1.963943 0.062627 -0.013556 413950.000000 0 1 0
14.031042 -16.234435 -9.606237 23.509717 -0.858072 1.991724 0.058465 -0.012857 -189358.000000 0 1 0
13.801942 -15.824835 -11.070737 23.737738 -0.853572 2.055987 0.066249 -0.028222 -905070.000000 0 1 0
13.015442 -14.726135 -11.425937 22.733518 -0.846985 2.097404 0.048655 -0.024985 -105031.000000 0 1 0
13.407242 -13.445235 -10.927137 21.907323 -0.786813 2.092998 0.054620 -0.018784 -243125.000000 0 1 0
13.519842 -12.284735 -11.928537 21.817214 -0.737571 2.149273 0.073192 -0.022612 230767.000000 0 1 0
14.613542 -12.431935 -12.835137 23.083530 -0.704908 2.160398 0.083430 -0.024424 371014.000000 0 1 0
14.388142 -11.702835 -14.023337 23.251429 -0.682838 2.218200 0.100471 -0.027206 359925.000000 0 1 0
15.672742 -11.522135 -14.910637 24.509621 -0.633942 2.224787 0.110332 -0.031701 906869.000000 0 1 0
16.420842 -12.692035 -15.254237 25.757010 -0.658011 2.204628 0.106356 -0.026155 383571.000000 0 0 1
17.498542 -12.441835 -16.146437 26.864580 -0.618085 2.215586 0.094580 -0.017370 711043.000000 0 0 1
18.592842 -13.568535 -16.196637 28.144804 -0.630429 2.183981 0.077199 -0.013443 359248.000000 0 0 1
19.582742 -13.513135 -15.176537 28.220841 -0.604019 2.138595 0.064641 -0.025358 211861.000000 0 0 1
20.532842 -14.541935 -15.333537 29.464943 -0.616227 2.118115 0.041916 -0.017388 41584.800000 0 0 1
21.574242 -14.545035 -14.165937 29.625660 -0.593190 2.069360 0.021822 -0.015375 97679.500000 0 0 1
22.374842 -13.391135 -14.269037 29.724762 -0.539309 2.071495 0.029733 -0.015860 215308.000000 0 0 1
23.318742 -13.230835 -13.194637 29.881720 -0.516097 2.028135 0.030403 -0.011263 483763.000000 0 0 1
23.894142 -11.803135 -13.185037 29.733638 -0.458817 2.030228 0.046809 -0.015324 -181806.000000 0 0 1
22.991042 -10.844235 -12.630137 28.384958 -0.440730 2.031925 0.035038 -0.010021 479651.000000 0 0 1
23.431742 -9.514235 -12.885637 28.383214 -0.385703 2.042032 0.042718 -0.017970 -22311.800000 0 0 1
24.648242 -9.057935 -12.061437 28.897410 -0.352169 2.001366 0.049969 -0.018813 133595.000000 0 0 1
25.886042 -9.678235 -12.391837 30.287176 -0.357787 1.992313 0.047445 -0.013592 438119.000000 0 0 1
26.879742 -9.106135 -11.547037 30.639457 -0.326638 1.957209 0.056277 -0.010036 -15210.900000 0 0 1
28.220742 -9.886935 -11.556437 32.057963 -0.336980 1.939585 0.076958 -0.015991 235617.000000 0 0 1
28.982252 -9.551435 -12.703637 33.054247 -0.318352 1.965275 0.060987 -0.010676 1927620.000000 0 0 1
30.254722 -10.300935 -12.818337 34.434971 -0.328163 1.952226 0.054164 -0.006463 1619340.000000 0 0 1
31.129822 -10.044335 -14.051037 35.600367 -0.312114 1.976525 0.034239 -0.001809 -236226.000000 0 0 1
30.731732 -10.723535 -15.201337 35.923728 -0.335730 2.007722 0.031188 -0.000668 127882.000000 0 0 1
31.478812 -10.253635 -16.293637 36.898987 -0.314893 2.028149 0.007476 -0.002839 -772476.000000 0 0 1
31.109052 -10.871035 -17.699037 37.405995 -0.336184 2.063671 -0.017759 -0.000391 383060.000000 0 0 1
29.813722 -10.507635 -18.203137 36.477700 -0.338849 2.093265 0.003338 -0.005130 665494.000000 0 0 1
29.669052 -9.178335 -18.705937 36.254746 -0.300019 2.112922 0.006579 -0.006421 -1141940.000000 0 0 1
28.292892 -8.703535 -19.113637 35.235925 -0.298435 2.144144 -0.029691 -0.009196 -822920.000000 0 0 1
27.933422 -9.375435 -20.304137 35.783136 -0.323821 2.174168 -0.022503 -0.003036 -215760.000000 0 0 1
26.633342 -9.053535 -20.711337 34.932233 -0.327678 2.205452 0.017995 -0.002334 -183348.000000 0 0 1
26.205042 -9.630935 -22.106437 35.611146 -0.352199 2.240525 0.029808 -0.007629 -67361.800000 0 0 1
25.839042 -10.996935 -22.097437 35.733533 -0.402373 2.237495 0.010829 -0.002012 -12318.400000 0 0 1
25.258442 -11.310235 -23.319437 36.189867 -0.421007 2.270987 0.020410 -0.006890 -660001.000000 0 0 1
25.227642 -12.844035 -23.637437 36.879962 -0.470921 2.266504 0.004818 0.005310 814885.000000 0 0 1
26.386742 -13.482335 -24.193337 38.253772 -0.472370 2.255500 0.004072 0.008337 704521.000000 0 0 1
27.570342 -13.467135 -23.401737 38.589232 -0.454377 2.222362 -0.012198 0.014541 622856.000000 0 0 1
28.855032 -14.029335 -24.101537 40.128783 -0.452547 2.215054 -0.006329 0.017213 617656.000000 0 0 1
29.170722 -13.427735 -25.359437 40.918653 -0.431399 2.239224 0.007013 0.002294 -326111.000000 0 0 1
30.530022 -13.516435 -25.675157 42.118760 -0.416788 2.226339 0.000656 0.001548 -344354.000000 0 0 1
30.898782 -12.931235 -27.044197 43.050438 -0.396355 2.250031 0.018535 -0.011675 25833.400000 0 0 1
30.889412 -13.843835 -28.083007 43.982529 -0.421334 2.263349 0.030717 -0.020872 -17065.000000 0 0 1
31.488582 -13.257335 -29.207957 44.948776 -0.398495 2.278125 0.036270 -0.027096 -69947.600000 0 0 1
31.537902 -14.199935 -30.435957 46.071954 -0.423062 2.292438 0.032974 -0.030460 -291251.000000 0 0 1
32.416322 -15.257635 -30.253417 46.892245 -0.439916 2.272041 0.049653 -0.037378 -410180.000000 0 0 1
32.565952 -16.104535 -31.398177 48.018151 -0.459254 2.283500 0.015246 -0.032015 -183890.000000 0 0 1
31.325562 -16.930335 -31.835237 47.764102 -0.495492 2.300313 0.018929 -0.020309 259564.000000 0 0 1
30.409772 -16.157235 -32.560587 47.392007 -0.488386 2.328215 0.035285 -0.030097 -297828.000000 0 0 1
29.163702 -16.765335 -32.786087 46.973668 -0.521736 2.343352 0.034574 -0.029039 336236.000000 0 0 1
28.266922 -16.007235 -33.840777 46.908940 -0.515263 2.376639 0.050294 -0.029536 -68060.800000 0 0 1
27.657642 -14.799135 -33.489957 45.886129 -0.491319 2.388898 0.053213 -0.033418 -370500.000000 0 0 1
28.477662 -13.678435 -33.438397 46.002209 -0.447781 2.384574 0.056699 -0.033096 -653919.000000 0 0 1
27.725742 -12.315535 -33.268937 45.024564 -0.418013 2.402242 0.062323 -0.029449 265672.000000 0 0 1
26.886142 -11.938335 33.971537 44.938333 -0.417881 0.713678 0.071046 -0.034360 101253.000000 0 0 1
26.350742 -10.626535 -34.120088 44.401186 -0.383324 2.447212 0.056284 -0.025199 81434.000000 0 0 1
20.520063 -29.607039 9.191463 37.177046 -0.964729 1.320971 0.024890 -0.027951 -140479.000000 0 0 1
21.090163 -29.402439 7.953263 37.047980 -0.948558 1.354438 0.027530 -0.029791 1141130.000000 0 0 1
22.421963 -29.981039 7.809763 38.243948 -0.928659 1.365141 0.060936 -0.028185 1293730.000000 0 0 1
23.030463 -29.631839 6.465463 38.082152 -0.910101 1.400193 0.059947 -0.023851 -190658.000000 0 0 1
23.209963 -28.264539 6.252063 37.103569 -0.883280 1.401486 0.056820 -0.019993 11290.100000 0 0 1
23.880963 -28.025839 5.028663 37.162286 -0.865081 1.435064 0.069081 -0.010710 -95343.700000 0 0 1
24.021863 -26.498039 4.765863 36.081982 -0.834373 1.438325 0.064079 -0.015995 -170900.000000 0 0 1
24.833463 -25.816139 5.671363 36.267593 -0.804797 1.413776 0.063078 -0.016740 -264702.000000 0 0 1
24.782763 -24.433739 5.366663 35.213549 -0.778307 1.417797 0.053534 -0.009361 24151.800000 0 0 1
25.695763 -23.462039 6.145563 35.334225 -0.739990 1.395981 0.044661 -0.004949 586903.000000 0 0 1
27.081663 -23.528439 5.767263 36.335454 -0.715305 1.411399 0.045348 -0.003359 691961.000000 0 0 1
27.978863 -22.827839 6.603263 36.708720 -0.684359 1.389929 0.047271 -0.005088 22990.300000 0 0 1
27.832063 -21.314539 6.832463 35.715765 -0.653554 1.378309 0.046510 -0.002002 -702060.000000 0 0 1
27.962063 -20.428539 5.720963 35.098883 -0.630956 1.407070 0.041555 -0.002171 -143020.000000 0 0 1
27.458763 -19.181439 5.943463 34.018172 -0.609755 1.395181 0.051015 -0.009291 -439452.000000 0 0 1
27.517563 -18.393639 4.600363 33.417145 -0.589224 1.432693 0.054206 0.000882 -83127.100000 0 0 1
28.799363 -18.129139 4.080763 34.274212 -0.561827 1.451451 0.043272 0.001073 -5286.410000 0 0 1
28.697263 -17.500739 2.817663 33.730520 -0.547623 1.487164 0.044902 0.002966 633189.000000 0 0 1
29.913463 -16.529739 2.547563 34.271528 -0.504826 1.496393 0.057414 -0.012918 754511.000000 0 0 1
29.799863 -15.342539 3.349563 33.684491 -0.475459 1.471192 0.069226 -0.020385 336798.000000 0 0 1
30.959963 -14.524839 3.302263 34.356880 -0.438664 1.474531 0.083240 -0.024870 341126.000000 0 0 1
30.801563 -13.234839 4.158363 33.781492 -0.405829 1.447387 0.090545 -0.023415 216944.000000 0 0 1
30.459263 -13.466139 5.506863 33.755431 -0.416268 1.406924 0.074405 -0.012716 58493.800000 0 0 1
30.112663 -12.368639 6.286563 33.155340 -0.389735 1.380032 0.061214 -0.015208 -196756.000000 0 0 1
29.767263 -12.762839 7.753663 33.303142 -0.405046 1.335819 0.078588 -0.008360 -139122.000000 0 0 1
28.621163 -13.577139 7.927163 32.655009 -0.442938 1.325592 0.050701 -0.010042 96771.200000 0 0 1
27.919163 -13.256139 9.122463 32.224590 -0.443289 1.283782 0.071535 -0.002662 103481.000000 0 0 1
28.159363 -14.216039 10.261863 33.171544 -0.467514 1.256279 0.080275 -0.007293 -631970.000000 0 0 1
29.318863 -14.150039 11.021663 34.369992 -0.449652 1.244352 0.066843 -0.003095 -540401.000000 0 0 1
29.474163 -15.332939 11.777863 35.249728 -0.479690 1.230118 0.085557 -0.011435 -73827.900000 0 0 1
30.427863 -15.123939 12.959063 36.366546 -0.461279 1.206442 0.087517 -0.014229 -603645.000000 0 0 1
31.765763 -14.974439 12.580863 37.303829 -0.440508 1.226798 0.076808 -0.010049 -905699.000000 0 0 1
32.444563 -15.065039 13.784363 38.335541 -0.434708 1.202988 0.080668 -0.014300 -1021620.000000 0 0 1
33.954963 -14.914539 13.678963 39.528433 -0.413874 1.217435 0.083515 -0.018585 -660510.000000 0 0 1
34.374963 -13.597439 13.459163 39.340532 -0.376675 1.221625 0.079632 -0.022837 483101.000000 0 0 1
35.758363 -13.599139 13.111963 40.441571 -0.363415 1.240609 0.089418 -0.020221 431737.000000 0 0 1
36.451063 -12.215339 13.094063 40.612178 -0.323354 1.242514 0.092761 -0.027697 546499.000000 0 0 1
-35.198417 -12.232039 12.461563 39.291753 0.334461 1.248069 0.096730 -0.029404 361062.000000 0 0 1
-34.509017 -11.032439 12.517663 38.331173 0.309428 1.238128 0.103995 -0.037334 738638.000000 0 0 1
-33.199617 -10.982739 11.615963 36.847872 0.319477 1.250086 0.101206 -0.035910 1605110.000000 0 0 1
-32.113217 -11.835939 12.027263 36.276758 0.353121 1.232859 0.085290 -0.031124 698074.000000 0 0 1
-32.242417 -13.105139 11.458063 36.641579 0.386060 1.252755 0.070978 -0.025050 -433277.000000 0 0 1
-31.160417 -14.082239 11.959363 36.225783 0.424455 1.234351 0.045707 -0.020881 30266.200000 0 0 1
-29.930417 -13.802839 11.353963 34.860589 0.432099 1.239048 0.049812 -0.022582 -224333.000000 0 0 1
-28.861517 -14.679439 11.714263 34.433952 0.470517 1.223672 0.053463 -0.019542 -594329.000000 0 0 1
-27.563517 -14.280539 11.104463 32.969537 0.478019 1.227270 0.058997 -0.021021 -1190060.000000 0 0 1
-27.600117 -14.427239 9.690763 32.616293 0.481661 1.269127 0.051176 -0.016896 -689516.000000 0 0 1
-26.333317 -14.340439 9.157263 31.351989 0.498668 1.274396 0.051991 -0.013841 -825504.000000 0 0 1
-26.387817 -14.287339 7.602963 30.955613 0.496245 1.322649 0.069759 -0.009746 139153.000000 0 0 1
-26.857417 -15.461039 6.940763 31.757499 0.522339 1.350463 0.067809 -0.005033 117866.000000 0 0 1
-26.479317 -15.413739 5.611463 31.148452 0.527157 1.389655 0.067213 -0.004316 -527199.000000 0 0 1
-27.052217 -16.547239 4.683763 32.055751 0.548962 1.424158 0.064603 -0.004641 -501059.000000 0 0 1
-28.443717 -16.580839 4.636563 33.248563 0.527777 1.430889 0.050907 -0.011739 -630194.000000 0 0 1
-28.851317 -17.682639 3.829463 34.054941 0.549842 1.458108 0.051702 -0.004623 -351630.000000 0 0 1
-30.345017 -17.982739 3.959063 35.494691 0.534967 1.459024 0.058999 -0.013564 -467257.000000 0 0 1
-31.161517 -16.984739 3.402463 35.652465 0.499039 1.475217 0.076236 -0.016702 135323.000000 0 0 1
-32.515617 -17.144039 3.805263 36.954884 0.485214 1.467643 0.087720 -0.016253 553706.000000 0 0 1
-33.553217 -16.444239 2.865663 37.475904 0.455692 1.494255 0.085408 -0.026576 352575.000000 0 0 1
-33.634017 -16.920839 1.547963 37.682331 0.466114 1.529705 0.080492 -0.018008 283544.000000 0 0 1
-34.657717 -16.103439 0.966563 38.228423 0.434963 1.545510 0.098035 -0.024463 322140.000000 0 0 1
-35.111717 -16.588239 -0.472337 38.835878 0.441359 1.582959 0.082192 -0.022573 135815.000000 0 0 1
-34.071017 -16.599639 -1.459637 37.927730 0.453361 1.609291 0.083915 -0.019583 646954.000000 0 0 1
-34.513917 -17.319339 -2.608937 38.703701 0.465092 1.638255 0.062588 -0.013132 -289418.000000 0 0 1
-33.396217 -18.010739 -3.373337 38.092958 0.494595 1.659468 0.060098 -0.013420 -379170.000000 0 0 1
-33.897717 -19.044739 -4.187437 39.106162 0.511880 1.678081 0.066348 -0.018968 760635.000000 0 0 1
-32.828417 -19.806539 -4.782737 38.637786 0.542868 1.694899 0.065155 -0.015530 259683.000000 0 0 1
-33.349817 -20.876039 -5.764837 39.764967 0.559298 1.716282 0.073924 -0.015347 177083.000000 0 0 1
-34.045817 -22.004339 -5.176837 40.866958 0.573781 1.697813 0.098504 -0.022749 283680.000000 0 0 1
-34.166317 -23.017339 -6.111037 41.647087 0.592846 1.718062 0.089454 -0.020158 -21496.500000 0 0 1
-34.630617 -24.362839 -5.570037 42.706590 0.613075 1.701595 0.084801 -0.022180 250457.000000 0 0 1
-33.651517 -25.024539 -4.784837 42.208374 0.639417 1.684403 0.096953 -0.017509 -185963.000000 0 0 1
-34.114517 -26.333739 -4.395537 43.319589 0.657384 1.672439 0.078181 -0.010569 253868.000000 0 0 1
-33.067617 -27.252139 -3.698437 43.009590 0.689284 1.656894 0.064929 -0.011095 -889258.000000 0 0 1
-32.073717 -27.604539 -4.647537 42.571510 0.710650 1.680184 0.078897 -0.012308 274453.000000 0 0 1
-31.182117 -28.659739 -4.288937 42.568768 0.743272 1.671721 0.072148 -0.015932 222025.000000 0 0 1
-30.342517 -28.480939 -3.030037 41.725452 0.753762 1.643479 0.071878 -0.016695 -1901520.000000 0 0 1
-31.062317 -28.517639 -1.804137 42.206376 0.742714 1.613555 0.071808 -0.013295 -75115.400000 0 0 1
-30.266817 -28.256439 -0.647137 41.411657 0.751060 1.586424 0.057744 -0.019315 77061.300000 0 0 1
-31.097617 -27.948339 0.626863 41.815839 0.732113 1.555805 0.050146 -0.014570 -101985.000000 0 0 1
-31.799617 -29.077839 1.023363 43.102014 0.740719 1.547051 0.040484 -0.005170 -347891.000000 0 0 1
-32.517217 -28.938039 2.212063 43.585235 0.727223 1.520022 0.053142 -0.002001 -260819.000000 0 0 1
-33.041317 -30.321839 2.688363 44.926271 0.742506 1.510921 0.030976 0.001500 -710407.000000 0 0 1
-33.946917 -30.117639 3.739563 45.535148 0.725697 1.488579 0.020191 0.001375 -107506.000000 0 0 1
-34.506217 -31.249339 4.344063 46.755439 0.735909 1.477752 0.014059 0.009172 -654112.000000 0 0 1
-35.585917 -31.972539 3.573963 47.972637 0.731964 1.496227 0.000194 0.007154 -1246960.000000 0 0 1
-36.038917 -33.074139 4.256763 49.100124 0.742527 1.483992 0.003007 -0.000020 -158273.000000 0 0 1
35.959763 -33.622339 3.329763 49.342209 -0.751818 1.503262 0.011131 0.000996 -1215510.000000 0 0 1
34.924263 33.613865 3.866963 48.626634 0.766281 1.491189 0.007424 0.002493 224936.000000 0 0 1
33.886663 34.138365 4.670163 48.327470 0.789098 1.474010 0.015950 -0.000534 290075.000000 0 0 1
33.180163 -33.014439 4.244963 46.998895 -0.782895 1.480353 0.020967 -0.003364 -1367380.000000 0 0 1
32.201363 -33.067439 3.060163 46.257409 -0.798667 1.504593 0.033105 -0.004556 -623851.000000 0 0 1
32.844163 -33.189839 1.819563 46.729169 -0.790633 1.531848 0.030340 -0.001836 -438793.000000 0 0 1
31.961963 -33.100039 0.735563 46.018700 -0.802889 1.554812 0.039107 0.002231 -792343.000000 0 0 1
32.414463 -33.948539 -0.461837 46.940537 -0.808510 1.580635 0.037760 -0.003048 1258210.000000 0 0 1
33.566163 -33.599339 -1.281537 47.510475 -0.785892 1.597773 0.020228 0.010642 916804.000000 0 0 1
34.803063 -33.404439 -0.609737 48.243979 -0.764896 1.583435 0.019023 0.012679 -581563.000000 0 0 1
35.894463 -33.052639 -1.609537 48.820898 -0.744204 1.603771 0.004357 0.013831 -490615.000000 0 0 1
-36.451717 34.136065 -2.334037 49.994463 -0.752605 1.617499 -0.001574 0.006747 266900.000000 0 0 1
-35.841817 -33.619439 -3.486137 49.265157 0.753415 1.641618 0.009112 0.009085 -688688.000000 0 0 1
-35.224717 33.614365 -4.382637 48.886744 -0.762009 1.660566 0.009568 0.006161 -233058.000000 0 0 1
-34.050017 33.088165 -3.793337 47.630030 -0.771073 1.650522 0.019855 0.010119 -5380.490000 0 0 1
-33.542817 32.069465 -4.679237 46.641896 -0.762947 1.671288 0.039888 -0.006182 -140985.000000 0 0 1
-32.284417 31.352865 -4.183837 45.197237 -0.770761 1.663497 0.049706 -0.015675 -846677.000000 0 0 1
-31.101917 32.099765 -4.191337 44.891998 -0.801185 1.664297 0.056839 -0.012228 -592983.000000 0 0 1
-29.970317 31.362965 -3.836537 43.549679 -0.808101 1.659006 0.095092 -0.022593 -25855.800000 0 0 1
-29.683517 31.207765 -2.319237 43.132524 -0.810425 1.624592 0.076925 -0.026031 -283691.000000 0 0 1
-30.584617 30.314865 -1.675937 43.095459 -0.780969 1.609695 0.041349 -0.012968 -15833.300000 0 0 1
-30.488917 30.363465 -0.269237 43.030066 -0.783337 1.577053 0.034703 0.001456 -226519.000000 0 0 1
-31.635917 29.620565 0.416863 43.340315 -0.752510 1.561178 0.029763 -0.000222 -399324.000000 0 0 1
-31.710017 28.213065 0.107163 42.444242 -0.727107 1.568272 0.032642 -0.008829 439813.000000 0 0 1
-32.873917 27.952065 -0.703637 43.156778 -0.704657 1.587101 0.026697 -0.004574 484361.000000 0 0 1
-33.013517 26.464665 -1.097537 42.325824 -0.675735 1.596730 0.029664 -0.002362 -219683.000000 0 0 1
-33.301517 25.613565 0.010763 42.012449 -0.655639 1.570540 0.023598 -0.003790 -18848.900000 0 0 1
-33.601917 24.312665 -0.448137 41.477649 -0.626357 1.581601 0.051594 -0.008007 -299481.000000 0 0 1
-33.562517 23.230865 0.647363 40.823213 -0.605450 1.554938 0.073467 -0.023860 -615732.000000 0 0 1
-32.301517 22.935665 1.148263 39.632704 -0.617439 1.541820 0.071818 -0.032584 -524887.000000 0 0 1
-31.939817 23.759965 2.216763 39.869812 -0.639584 1.515168 0.057938 -0.029070 343215.000000 0 0 1
-30.381417 23.842865 2.447963 38.697613 -0.665394 1.507495 0.051695 -0.035810 937974.000000 0 0 1
-29.650917 24.745865 1.625763 38.654596 -0.695470 1.528725 0.062635 -0.032525 45157.300000 0 0 1
-29.581517 26.045365 2.038163 39.466204 -0.721914 1.519130 0.035064 -0.028924 -115859.000000 0 0 1
-28.970217 26.931365 0.896163 39.564820 -0.748942 1.548144 0.043360 -0.027522 250203.000000 0 0 1
-27.580817 26.662165 0.778463 38.368979 -0.768464 1.550506 0.051136 -0.032588 135692.000000 0 0 1
-27.008417 27.501665 -0.269837 38.546971 -0.794447 1.577797 0.058223 -0.027959 12188.000000 0 0 1
-25.899117 26.852665 -1.096237 37.323339 -0.803472 1.600172 0.057189 -0.030501 -671669.000000 0 0 1
-26.152717 25.754565 -1.982937 36.758594 -0.777728 1.624767 0.059297 -0.037289 -183043.000000 0 0 1
-24.995917 25.189165 -2.580937 35.580207 -0.789249 1.643399 0.055987 -0.029279 498186.000000 0 0 1
-24.105117 24.202265 -1.767837 34.204262 -0.787409 1.622504 0.038949 -0.031469 -157344.000000 0 0 1
-24.612617 22.964565 -1.539937 33.697531 -0.750772 1.616511 0.021776 -0.026016 177648.000000 0 0 1
-23.562817 22.049765 -1.113337 32.289906 -0.752239 1.605283 0.020819 -0.039240 -200935.000000 0 0 1
-24.018517 20.600765 -0.677537 31.650272 -0.708949 1.592205 0.020091 -0.031157 -833680.000000 0 0 1
-24.766317 20.461265 0.498963 32.129158 -0.690498 1.555266 0.009640 -0.025843 300589.000000 0 0 1
-26.008117 21.133465 0.677463 33.518718 -0.682360 1.550583 0.007465 -0.025097 -145327.000000 0 0 1
-27.090017 20.803465 -0.342037 34.158018 -0.654883 1.580810 0.014723 -0.037611 -1568130.000000 0 0 1
-27.423717 19.467465 -0.303237 33.632342 -0.617324 1.579813 0.034144 -0.035489 -159575.000000 0 0 1
-28.383417 19.217665 -1.292937 34.301730 -0.595173 1.608498 0.057322 -0.034106 -248383.000000 0 0 1
-28.788317 17.708965 -1.503037 33.832436 -0.551481 1.615237 0.053781 -0.013642 111340.000000 0 0 1
-29.636317 17.161965 -0.496337 34.250411 -0.524899 1.585288 0.069282 -0.016136 299789.000000 0 0 1
-29.752217 15.755665 -0.515037 33.670472 -0.487017 1.586093 0.083632 -0.018123 3992.600000 0 0 1
-28.565317 14.871665 -0.023737 32.204725 -0.480007 1.571533 0.085496 -0.001777 -71234.500000 0 0 1
-28.267917 14.929765 1.335363 31.996190 -0.485915 1.529049 0.091442 0.002046 11799.900000 0 0 1
-27.087617 14.284965 1.743763 30.673114 -0.485296 1.513916 0.079276 -0.004153 -390858.000000 0 0 1
-27.134717 12.718665 1.874063 30.026145 -0.438314 1.508341 0.093590 0.002613 -245711.000000 0 0 1
-27.241517 12.074065 0.642563 29.804298 -0.417204 1.549235 0.092154 -0.000974 352711.000000 0 0 1
-27.030817 10.699865 0.788263 29.082186 -0.376915 1.543688 0.129981 -0.003169 -275784.000000 0 0 1
-26.861317 9.889465 -0.515937 28.628623 -0.352767 1.588819 0.128072 -0.004119 51340.600000 0 0 1
-28.059017 9.490765 -1.176537 29.644009 -0.326163 1.610496 0.114480 -0.019743 379766.000000 0 0 1
-27.809217 8.603565 -2.269137 29.197994 -0.300038 1.648590 0.127345 -0.026263 -415473.000000 0 0 1
-29.116217 8.176865 -2.911337 30.382414 -0.273783 1.666767 0.127970 -0.030751 -413119.000000 0 0 1
-28.886717 7.246565 -3.963237 30.044340 -0.245789 1.703095 0.142849 -0.024504 453750.000000 0 0 1
-30.117517 6.833565 -4.525537 31.212865 -0.223119 1.716299 0.127357 -0.023103 -100754.000000 0 0 1
-11.472437 18.241365 -19.838137 29.290202 -1.009380 2.314877 0.076106 -0.017395 9570.440000 0 0 1
-11.638237 17.389065 -20.982637 29.632739 -0.980983 2.357586 0.067385 -0.018667 -1320120.000000 0 0 1
-10.578737 17.329965 -21.826837 29.810203 -1.022743 2.392333 0.060164 -0.023396 -1080980.000000 0 0 1
-10.635137 16.132265 -22.820237 29.901829 -0.987948 2.439004 0.060008 -0.023372 -223000.000000 0 0 1
-10.131937 14.899865 -22.378537 28.730838 -0.973618 2.463711 0.059378 -0.020608 -150306.000000 0 0 1
-10.175537 13.944065 -23.417337 29.092099 -0.940388 2.506367 0.042551 -0.011436 -186396.000000 0 0 1
-9.561137 12.616865 -22.977437 27.902746 -0.922318 2.538319 0.024262 -0.005923 1388960.000000 0 0 1
-8.118237 12.585965 -23.162137 27.582547 -0.997928 2.567598 0.018574 -0.006390 1257440.000000 0 0 1
-7.558537 11.525565 -22.384737 26.287765 -0.990350 2.589687 0.010413 -0.003733 853252.000000 0 0 1
-5.999837 11.480265 -22.238837 25.736364 -1.089215 2.614159 0.014256 -0.003942 642374.000000 0 0 1
-5.401837 11.337165 -23.478337 26.625993 -1.126148 2.650425 0.007957 -0.006036 -922768.000000 0 0 1
-4.024437 11.150365 -23.359237 26.195051 -1.224423 2.671977 0.024604 -0.008832 -252552.000000 0 0 1
-3.240937 10.871465 -24.669137 27.152509 -1.281071 2.710572 0.040337 -0.007912 -24429.100000 0 0 1
-3.416537 9.571865 -25.307887 27.272376 -1.227956 2.759718 0.032101 -0.004150 -157803.000000 0 0 1
-2.629637 9.588665 -26.470537 28.276259 -1.303133 2.782284 0.030888 -0.002597 44695.100000 0 0 1
-2.193337 8.231565 -27.069747 28.378524 -1.310392 2.836708 0.021359 0.014969 645458.000000 0 0 1
-1.240637 7.345165 -26.419067 27.449185 -1.403470 2.866764 0.028011 0.006985 230720.000000 0 0 1
-1.586037 6.679165 -25.207107 26.125180 -1.337654 2.875701 0.036800 -0.005727 -349234.000000 0 0 1
-0.517537 5.740665 -24.634337 25.299677 -1.480887 2.911747 -0.015207 0.002059 151434.000000 0 0 1
0.647963 6.403665 -24.154637 24.997466 1.469953 2.881179 0.024358 0.004770 186133.000000 0 1 0
1.368763 5.624065 -23.221437 23.931961 1.332062 2.897308 0.021811 -0.000264 -346657.000000 0 1 0
1.496663 6.304965 -21.858437 22.798769 1.337732 2.853386 0.028209 -0.003982 -25819.400000 0 1 0
2.353063 7.416865 -21.919037 23.259213 1.263582 2.800474 0.026731 -0.007454 -178302.000000 0 1 0
2.284663 8.148765 -20.676637 22.341562 1.297445 2.753093 0.033551 -0.009286 -267407.000000 0 1 0
3.043263 9.444865 -20.672437 22.930691 1.259087 2.694062 0.052587 -0.017426 -640694.000000 0 1 0
2.870663 10.254365 -19.558537 22.269466 1.297838 2.643022 0.059064 -0.020580 -150254.000000 0 1 0
3.583063 11.458865 -19.641137 23.019952 1.267739 2.592929 0.072776 -0.022838 -296100.000000 0 1 0
4.894763 11.492065 -18.857437 22.619222 1.168142 2.556554 0.070789 -0.023134 147769.000000 0 1 0
5.907763 10.619665 -19.380537 22.875406 1.063126 2.581530 0.072682 -0.023275 -125030.000000 0 1 0
6.988463 10.472065 -18.517637 22.392089 0.982325 2.544497 0.067021 -0.012478 -93406.400000 0 1 0
8.049863 9.402565 -18.908737 22.599754 0.862751 2.561987 0.080861 -0.015683 -14602.800000 0 1 0
7.658763 8.035365 -19.034137 22.034567 0.809390 2.613621 0.077989 -0.020687 138979.000000 0 1 0
6.738763 7.805565 -20.097337 22.588509 0.858615 2.667517 0.059102 -0.022838 100134.000000 0 1 0
6.552063 6.287265 -20.334337 22.269812 0.764777 2.721595 0.069358 -0.019623 176431.000000 0 1 0
7.731963 5.620465 -20.781537 22.874553 0.628561 2.710477 0.065058 -0.002374 333769.000000 0 1 0
7.581563 4.303165 -21.254137 22.972498 0.516242 2.752357 0.057055 0.006560 -366000.000000 0 1 0
7.363263 4.195565 -22.784137 24.309202 0.517915 2.785494 0.066986 -0.002414 -382426.000000 0 1 0
6.117563 4.738065 -23.125437 24.385645 0.658999 2.818701 0.063249 -0.012833 -520421.000000 0 1 0
5.863963 4.319465 -24.413737 25.476939 0.634878 2.851677 0.065753 -0.016237 306770.000000 0 0 1
4.587263 4.972465 -25.053637 25.950976 0.825671 2.877853 0.037627 -0.016251 327135.000000 0 0 1
4.623863 6.378365 -25.308297 26.506104 0.943535 2.839817 0.066411 -0.022570 -25952.000000 0 0 1
4.501763 7.200665 -24.150537 25.600076 1.012063 2.803465 0.060526 -0.026310 -1185850.000000 0 0 1
4.598963 8.741065 -24.499237 26.415323 1.086462 2.758366 0.060009 -0.024021 163321.000000 0 0 1
3.594063 9.350765 -25.291287 27.203002 1.203845 2.764459 0.067029 -0.020316 -511003.000000 0 0 1
2.356263 9.388765 -24.661537 26.493250 1.324908 2.767559 0.052762 -0.009289 -1207740.000000 0 0 1
1.241363 10.060665 -25.453577 27.397857 1.448029 2.762593 0.042388 -0.000016 -370333.000000 0 0 1
1.314863 11.446065 -25.562027 28.038518 1.456423 2.718139 0.065554 -0.018218 228521.000000 0 0 1
0.197063 11.972365 -26.280847 28.880085 1.554338 2.714078 0.071585 -0.019390 162415.000000 0 0 1
0.258263 13.483265 -26.470257 29.707569 1.551644 2.670400 0.067981 -0.021507 -285586.000000 0 0 1
0.095963 14.197765 -25.283177 28.996979 1.564037 2.629915 0.058903 -0.028649 -11864.400000 0 0 1
-0.105337 15.609965 -25.441177 29.848545 -1.564048 2.591244 0.064503 -0.040154 -180407.000000 0 0 1
-0.746037 16.100065 -24.143837 29.029185 -1.524492 2.552975 0.072558 -0.027765 -538223.000000 0 0 1
-1.979437 15.504665 -23.927437 28.580327 -1.443816 2.562939 0.065645 -0.024946 -967404.000000 0 0 1
-2.479437 15.706965 -22.646837 27.671928 -1.414232 2.529426 0.064213 -0.036443 122408.000000 0 0 1
-3.741437 14.842865 -22.266437 27.020423 -1.323871 2.539336 0.056748 -0.025411 1842060.000000 0 0 1
-5.054637 15.214065 -22.728737 27.813893 -1.250035 2.527284 0.045525 -0.025903 652646.000000 0 0 1
-5.165837 15.100765 -24.150237 28.947417 -1.241185 2.557621 0.041104 -0.023442 -128951.000000 0 0 1
-6.616737 15.265965 -24.696237 29.778097 -1.161807 2.548726 0.023542 -0.026655 535120.000000 0 0 1
-7.143737 16.587765 -24.732237 30.624671 -1.164139 2.510854 0.035485 -0.029924 -32608.900000 0 0 1
-8.396737 16.569065 -25.381367 31.452391 -1.101746 2.509812 0.048766 -0.022799 -261744.000000 0 0 1
-8.981737 17.974565 -25.735607 32.650851 -1.107396 2.478685 0.057716 -0.024526 -198138.000000 0 0 1
-9.435137 18.642565 -24.600337 32.276054 -1.102275 2.437479 0.052868 -0.031660 -230688.000000 0 0 1
-10.384537 19.625265 -24.915837 33.373472 -1.084108 2.413697 0.057807 -0.023488 -97933.800000 0 0 1
-10.654837 20.554965 -23.717337 33.144294 -1.092570 2.368248 0.034409 -0.024011 -216551.000000 0 0 1
-10.004837 21.843465 -23.676337 33.731331 -1.141289 2.348871 0.059343 -0.014892 144924.000000 0 0 1
-10.526937 22.961165 -24.415837 35.130679 -1.140924 2.339217 0.050205 -0.029857 -313702.000000 0 0 1
-10.331237 23.004465 -25.924947 36.166874 -1.148694 2.370020 0.036755 -0.021227 -482961.000000 0 0 1
-11.005837 22.051165 -26.663967 36.309083 -1.107865 2.395521 0.043636 -0.020620 -86904.900000 0 0 1
-11.126337 22.471065 -28.026157 37.605979 -1.111044 2.411718 0.038767 -0.011643 123144.000000 0 0 1
-11.801837 21.468765 -29.105777 38.043889 -1.068167 2.441928 0.034679 -0.008225 -116848.000000 0 0 1
-10.999637 20.483465 -29.603447 37.642110 -1.077988 2.475828 0.040469 -0.016933 -652051.000000 0 0 1
-10.785237 19.423065 -28.763097 36.344086 -1.063909 2.483910 0.050184 -0.020228 313017.000000 0 0 1
-9.684337 18.507165 -29.420397 36.081316 -1.088703 2.524201 0.040624 -0.018000 650694.000000 0 0 1
-8.354037 19.040265 -29.236117 35.875788 -1.157332 2.523398 0.037086 -0.025078 853422.000000 0 0 1
-7.340937 18.314565 -29.922647 35.842398 -1.189579 2.558637 0.044860 -0.019552 463234.000000 0 0 1
-6.900837 17.002565 -29.186177 34.475234 -1.185240 2.580330 0.055868 -0.027217 -229455.000000 0 0 1
-7.980937 16.028865 -29.181947 34.237493 -1.108822 2.591238 0.044647 -0.025393 714479.000000 0 0 1
-7.674437 14.798565 -28.572847 33.080238 -1.092385 2.613448 0.025706 -0.021956 -1048030.000000 0 0 1
-8.876237 13.905065 -28.447707 32.884806 -1.002658 2.616089 0.039270 -0.015660 -1260280.000000 0 0 1
-9.764837 14.362165 -27.480647 32.508611 -0.973688 2.577987 0.058954 -0.020234 -341971.000000 0 0 1
-10.962437 13.617565 -27.672587 32.732021 -0.893001 2.578164 0.097247 -0.019521 833908.000000 0 0 1
-12.115537 13.983465 -26.652687 32.445173 -0.856847 2.534778 0.089433 -0.011327 650026.000000 0 0 1
-12.626937 15.269565 -26.815677 33.341861 -0.879846 2.505233 0.081715 -0.017175 -367305.000000 0 0 1
-13.667137 15.603465 -25.927687 33.203972 -0.851455 2.466839 0.076449 -0.020663 482740.000000 0 0 1
-14.552337 16.846065 -26.272267 34.435337 -0.858321 2.438653 0.061272 -0.015612 640863.000000 0 0 1
-13.849637 18.098965 -26.170977 34.703099 -0.917627 2.425139 0.059361 -0.009820 -111222.000000 0 0 1
-14.748037 19.125365 -26.462227 35.826438 -0.913912 2.401822 0.049033 -0.009198 -284879.000000 0 0 1
-14.306337 20.580765 -26.289767 36.323423 -0.963345 2.380045 0.034636 -0.011095 -46862.700000 0 0 1
-15.277737 21.542865 -26.695347 37.551909 -0.953937 2.361562 0.009936 -0.005098 553927.000000 0 0 1
-14.741737 22.909665 -26.788137 38.207013 -0.999024 2.347779 0.005403 -0.006604 205805.000000 0 0 1
-14.466037 23.706065 -25.464797 37.678902 -1.022892 2.312896 -0.005528 -0.010143 75910.000000 0 0 1
-13.999037 24.984965 -25.764247 38.522954 -1.060081 2.303393 0.010518 -0.013883 -98440.600000 0 0 1
-13.644037 25.682565 -24.619737 38.103614 -1.082457 2.273294 0.032483 -0.021018 -41218.100000 0 0 1
-13.149537 27.123665 -24.932837 39.118409 -1.119383 2.261875 0.050384 -0.022113 741519.000000 0 0 1
-14.232837 28.035165 -25.276337 40.341509 -1.101025 2.247927 0.062704 -0.028369 544643.000000 0 0 1
-14.733337 28.678465 -24.125937 40.268927 -1.096216 2.213198 0.066393 -0.027896 -215793.000000 0 0 1
-16.018437 29.398565 -24.625937 41.560832 -1.071899 2.204989 0.044931 -0.027131 810492.000000 0 0 1
-17.154437 28.517365 -24.691837 41.439132 -1.029243 2.209130 0.028909 -0.024197 349352.000000 0 0 1
-18.314337 29.197865 -25.158457 42.671750 -1.010581 2.201336 0.031014 -0.024791 761285.000000 0 0 1
-19.570537 28.262465 -25.183637 42.614416 -0.965151 2.203051 0.047221 -0.012103 283014.000000 0 0 1
-20.053637 27.931065 -23.900137 41.874925 -0.948112 2.178216 0.055521 -0.021776 -202898.000000 0 0 1
-21.127937 27.022865 -24.039437 41.886985 -0.907218 2.182071 0.054860 -0.039675 -111915.000000 0 0 1
-21.754037 26.689265 -22.681637 41.231198 -0.886924 2.153291 0.045511 -0.027062 132808.000000 0 0 1
-22.684037 27.667565 -22.210737 42.111478 -0.884051 2.126366 0.036997 -0.021427 230997.000000 0 0 1
-23.148337 27.373865 -20.901837 41.497721 -0.868841 2.098657 0.012888 -0.008820 3284.310000 0 0 1
-24.460837 28.086465 -20.508537 42.518022 -0.854286 2.074131 0.004801 -0.000128 243003.000000 0 0 1
-25.666207 27.589365 -21.040237 43.158068 -0.821494 2.080039 0.010490 -0.002432 -561679.000000 0 0 1
-26.699837 28.509965 -20.906337 44.303209 -0.818173 2.062232 0.036690 -0.002532 331642.000000 0 0 1
-28.091347 27.911665 -21.296137 44.963433 -0.782190 2.064207 0.035420 0.000344 347695.000000 0 0 1
-28.180367 27.547965 -22.629037 45.443336 -0.774051 2.092043 0.035785 0.003039 -910379.000000 0 0 1
-29.471517 27.244865 -23.030037 46.273487 -0.746159 2.091734 0.036139 0.003482 -837253.000000 0 0 1
-29.691277 26.760565 -24.475637 46.869570 -0.733529 2.120234 0.032853 0.011731 -78206.700000 0 0 1
-29.140607 25.507865 -24.790337 45.982464 -0.719021 2.140195 0.024637 0.028279 -309247.000000 0 0 1
-29.064387 25.179465 -26.160107 46.509088 -0.713901 2.168170 0.040942 0.024726 -44554.800000 0 0 1
-29.237537 23.660065 -26.460927 45.987095 -0.680347 2.183888 0.025113 0.030807 1187220.000000 0 0 1
-28.047387 22.845065 -26.215057 44.674178 -0.683530 2.197904 0.024572 0.012751 1106220.000000 0 0 1
-28.272157 21.691665 -26.945317 44.675422 -0.654447 2.218222 0.038089 0.013539 48710.800000 0 0 1
-27.329077 20.479365 -26.735877 43.371534 -0.643093 2.235008 0.047854 0.011010 -65692.200000 0 0 1
-27.438577 19.826465 -25.483597 42.371901 -0.625718 2.216082 0.034252 0.019458 -297988.000000 0 0 1
-26.820237 18.581165 -25.630917 41.491309 -0.605880 2.236664 0.027672 0.010815 -608449.000000 0 0 1
-27.670857 17.328265 -25.634957 41.510193 -0.559482 2.236431 0.020819 0.018043 -374062.000000 0 0 1
-28.471987 17.143865 -26.806477 42.698400 -0.541985 2.249533 0.013227 0.012352 315928.000000 0 0 1
-29.029957 15.859865 -26.884107 42.626623 -0.500019 2.253236 0.004788 0.003691 -133110.000000 0 0 1
-29.801847 15.527465 -28.185537 43.859740 -0.480325 2.268721 -0.001910 -0.003683 97300.200000 0 0 1
-30.986117 16.282565 -28.341487 45.038886 -0.483823 2.251406 -0.009097 -0.003513 -19705.000000 0 0 1
-31.718597 15.775065 -29.458397 46.072978 -0.461521 2.264495 -0.000823 -0.006713 304953.000000 0 0 1
-33.029947 16.564465 -29.659417 47.381853 -0.464846 2.247166 0.014177 -0.003327 900231.000000 0 0 1
-34.072186 16.411165 -28.648237 47.444301 -0.448867 2.219092 0.008636 -0.006862 1306490.000000 0 0 1
-35.343070 16.800365 -29.176167 48.812228 -0.443735 2.211454 0.023030 -0.008920 274080.000000 0 0 1
36.375722 16.326465 -28.391337 48.947060 0.421879 2.189576 0.046293 -0.013391 -387631.000000 0 0 1
36.050462 17.085265 -27.242267 48.308211 0.442572 2.169929 0.046295 -0.019496 -305718.000000 0 0 1
34.814312 16.656165 -26.749367 46.957351 0.446242 2.176879 0.066143 -0.025656 -369538.000000 0 0 1
34.288512 17.676565 -25.707517 46.357734 0.475990 2.158614 0.075489 -0.023703 -98027.400000 0 0 1
34.052222 18.925565 -26.303147 47.006238 0.507270 2.164660 0.084401 -0.031108 141976.000000 0 0 1
33.587512 19.929165 -25.424107 46.601265 0.535516 2.147862 0.092120 -0.030442 -653005.000000 0 0 1
32.863932 21.048065 -26.261157 47.039425 0.569640 2.163107 0.104751 -0.031170 1281120.000000 0 0 1
31.463542 20.919765 -26.573717 46.192570 0.586771 2.183744 0.106384 -0.033402 979647.000000 0 0 1
30.564212 20.927565 -25.482527 44.961019 0.600389 2.173376 0.099946 -0.029931 169997.000000 0 0 1
29.049152 21.002265 -25.836807 44.186978 0.625990 2.195326 0.072464 -0.029911 854909.000000 0 0 1
28.440222 19.735765 -26.153167 43.385883 0.606646 2.217807 0.087392 -0.042439 -578189.000000 0 0 1
27.140742 19.828065 -26.634397 42.885466 0.630946 2.240889 0.077807 -0.039672 -701511.000000 0 0 1
26.449942 18.437065 -26.697247 41.860098 0.608747 2.262400 0.096580 -0.026871 -605822.000000 0 0 1
27.044642 17.460065 -27.571867 42.384837 0.573277 2.279055 0.098696 -0.027087 1239440.000000 0 0 1
28.295542 16.951165 -27.025347 42.642105 0.539739 2.257216 0.089391 -0.024280 976252.000000 0 0 1
29.007082 15.923165 -27.974587 43.330538 0.502029 2.272617 0.087200 -0.019587 -60279.200000 0 0 1
28.301282 14.716665 -28.238027 42.601984 0.479519 2.295393 0.105223 -0.021972 233787.000000 0 0 1
28.008542 13.859565 -27.147957 41.395381 0.459506 2.286066 0.117673 -0.027073 606700.000000 0 0 1
29.281592 13.299765 -26.391857 41.603192 0.426343 2.257991 0.100356 -0.024327 999860.000000 0 0 1
29.826492 14.184565 -25.397917 41.663842 0.443913 2.226341 0.095608 -0.030619 -397616.000000 0 0 1
31.084332 13.839765 -24.918237 42.174558 0.418882 2.202891 0.086314 -0.022521 -1128360.000000 0 0 1
-14.159537 -31.685239 -23.982337 42.185298 1.150539 2.175478 0.095766 -0.014023 44057.300000 0 0 1
-13.583937 -30.504639 -24.514237 41.424681 1.151852 2.204060 0.089532 -0.019169 56392.600000 0 0 1
-13.883937 -30.350039 -25.912147 42.253141 1.141756 2.230977 0.056146 -0.012469 -28092.800000 0 0 1
-13.334437 -29.064739 -26.484927 41.521292 1.140662 2.262518 0.052120 -0.011420 -8741.370000 0 0 1
-13.917537 -27.883739 -25.966267 40.564119 1.107847 2.265462 0.059484 0.001176 148310.000000 0 0 1
-13.293637 -26.807239 -26.648977 40.068901 1.110436 2.298396 0.053977 -0.004330 -203513.000000 0 0 1
-13.852837 -25.414339 -26.321727 39.123178 1.071739 2.308771 0.025537 -0.001178 -316645.000000 0 0 1
-13.325437 -24.932039 -25.088017 37.796593 1.079954 2.296636 0.032651 -0.016277 338538.000000 0 0 1
-13.886537 -23.640039 -24.835937 36.993393 1.039681 2.306841 0.025640 -0.013169 -161388.000000 0 0 1
-13.467337 -23.017439 -23.514337 35.554124 1.041410 2.293437 0.025157 -0.008389 429287.000000 0 0 1
-12.081437 -22.690839 -23.443137 34.791033 1.081537 2.310172 0.036229 -0.021862 362883.000000 0 0 1
-11.679337 -22.429439 -22.107837 33.589331 1.090715 2.289196 0.025768 -0.013476 231397.000000 0 0 1
-10.162437 -22.183039 -21.942837 32.815400 1.141212 2.303222 0.034171 -0.019919 126465.000000 0 0 1
-9.860637 -20.914339 -22.463137 32.237157 1.130226 2.341735 0.040444 -0.024994 -673645.000000 0 0 1
-8.476137 -20.759239 -22.528737 31.785766 1.183150 2.358547 0.063902 -0.027555 -597072.000000 0 0 1
-8.130437 -19.611939 -23.437037 31.623202 1.177797 2.405555 0.074636 -0.020258 -344750.000000 0 0 1
-8.317237 -18.337339 -22.766437 30.393175 1.144979 2.417445 0.051516 -0.014166 -118968.000000 0 0 1
-8.398137 -17.175739 -23.529037 30.317492 1.116025 2.459235 0.050981 -0.013557 373729.000000 0 0 1
-7.042137 -16.652539 -24.157237 30.174010 1.170717 2.499088 0.070808 -0.025866 840405.000000 0 0 1
-6.795837 -17.398539 -25.329807 31.472078 1.198421 2.506193 0.077640 -0.025938 257174.000000 0 0 1
-5.589737 -16.941839 -25.940447 31.482978 1.252106 2.539146 0.069593 -0.027909 145251.000000 0 0 1
-5.454537 -17.406139 -27.431237 32.942350 1.267120 2.554770 0.080944 -0.012871 -349803.000000 0 0 1
-6.507537 -17.108639 -28.308967 33.711292 1.207330 2.567614 0.103234 -0.012146 -427655.000000 0 0 1
-6.301537 -17.750839 -29.596047 35.081729 1.229675 2.574807 0.101747 -0.027670 -476411.000000 0 0 1
-7.399537 -17.669139 -30.662177 36.154125 1.174203 2.583178 0.111486 -0.026402 -308680.000000 0 0 1
-7.470037 -16.593739 -31.618387 36.481174 1.147799 2.619353 0.099704 -0.023615 -23422.500000 0 0 1
-7.430437 -15.299539 -31.063467 35.415057 1.118683 2.640641 0.076735 -0.019005 -87439.800000 0 0 1
-7.971637 -14.257439 -32.020807 35.946539 1.060977 2.669876 0.068168 -0.020512 546510.000000 0 0 1
-6.970237 -13.995639 -33.039377 36.552190 1.108727 2.699588 0.093255 -0.031242 792175.000000 0 0 1
-7.495737 -13.264739 -34.115288 37.362980 1.056444 2.721564 0.097425 -0.030454 -198982.000000 0 0 1
-7.679137 -11.741439 -33.880367 36.670285 0.991600 2.748996 0.072220 -0.022804 -467461.000000 0 0 1
-6.498537 -11.013739 -33.871247 36.204901 1.037733 2.780590 0.063795 -0.020581 -493132.000000 0 0 1
-6.067837 -10.610839 33.109051 35.293311 1.051331 0.353661 0.057030 -0.027231 -48567.200000 0 0 1
-4.951837 -9.563439 33.083428 34.792143 1.093020 0.314705 0.050781 -0.027013 -262273.000000 0 0 1
-4.793737 -8.848239 31.913516 33.462572 1.074291 0.305463 0.051403 -0.025812 -434197.000000 0 0 1
-3.715237 -7.976039 32.044116 33.230190 1.134881 0.267982 0.042228 -0.032257 -889601.000000 0 0 1
-3.701637 -6.849039 30.926566 31.891439 1.075306 0.246612 0.041741 -0.025850 1077000.000000 0 0 1
-4.850437 -5.945539 30.916936 31.854875 0.886489 0.243269 0.039348 -0.021321 951818.000000 0 0 1
-6.010337 -6.540739 30.352326 31.625450 0.827633 0.284708 0.036576 -0.016237 297722.000000 0 0 1
-7.212237 -5.496739 30.328146 31.654809 0.651226 0.290539 0.026214 -0.009053 403971.000000 0 0 1
-8.359937 -6.180839 29.911596 31.666937 0.636644 0.334518 0.035113 -0.007489 -507015.000000 0 0 1
-9.508137 -5.329639 29.914436 31.838392 0.510895 0.349421 0.029656 -0.010535 277973.000000 0 0 1
-10.615737 -5.958839 29.050436 31.498086 0.511494 0.396827 0.039691 -0.011555 -291398.000000 0 0 1
-10.400037 -5.676939 27.667216 30.097562 0.499657 0.404623 0.033184 -0.008708 589406.000000 0 0 1
-11.337537 -6.371339 26.831716 29.817355 0.511986 0.451327 0.045913 -0.019396 274110.000000 0 0 1
-10.965737 -6.230739 25.354076 28.317815 0.516709 0.461602 0.033576 -0.020372 -658359.000000 0 0 1
-9.939937 -7.044639 24.911966 27.731486 0.616555 0.454848 0.031155 -0.016087 -114297.000000 0 0 1
-9.251137 -6.382239 23.806336 26.325997 0.603906 0.441083 0.025076 -0.016002 97313.100000 0 0 1
-9.987137 -6.458039 22.410766 25.371078 0.574007 0.487900 0.021953 -0.019845 686153.000000 0 0 1
-11.216737 -5.724139 22.452866 25.743196 0.471870 0.511142 0.020633 -0.016921 460538.000000 0 0 1
-12.152837 -5.988839 21.425066 25.349380 0.457866 0.563874 0.018952 -0.016985 253219.000000 0 0 1
-13.308937 -4.963039 21.370366 25.660321 0.356937 0.586618 0.020236 -0.010639 162666.000000 0 0 1
-13.026837 -3.777539 20.703866 24.751128 0.282240 0.579965 0.015863 -0.005499 -238385.000000 0 1 0
-14.188237 -3.008439 20.838166 25.388697 0.208943 0.608047 0.025169 -0.002660 12676.800000 0 0 1
-14.003837 -1.474439 20.433666 24.815643 0.104902 0.603386 0.025508 -0.000505 -93250.800000 0 1 0
-12.968237 -0.857439 21.171566 24.842415 0.066022 0.550554 0.018086 -0.003695 15255.900000 0 1 0
-12.929037 0.558561 20.882566 24.567327 -0.043175 0.554785 0.023300 -0.012210 -295213.000000 0 1 0
-12.481337 1.082561 19.460766 23.144699 -0.086518 0.571981 0.025341 -0.022545 92437.300000 0 1 0
-13.333637 0.860561 18.322166 22.676600 -0.064451 0.630086 0.034021 -0.015472 -257627.000000 0 1 0
-14.560437 1.542561 18.390766 23.507575 -0.105548 0.672393 0.035659 -0.010133 -805228.000000 0 1 0
-15.558337 0.788561 17.543066 23.461518 -0.050641 0.726148 0.051165 -0.009763 -765976.000000 0 1 0
-15.921137 -0.421439 18.121966 24.126041 0.026464 0.721013 0.039012 -0.009816 571080.000000 0 1 0
-16.974637 -1.068439 17.391366 24.325696 0.062860 0.774261 0.040150 0.000883 449985.000000 0 1 0
-16.993537 -2.525439 17.585166 24.584471 0.147532 0.773749 0.044733 0.005967 -35315.500000 0 1 0
-17.488437 -2.996439 18.827766 25.871004 0.169691 0.755753 0.043250 0.001747 30255.600000 0 0 1
-17.365637 -4.387339 18.981766 26.098305 0.247466 0.756390 0.047419 0.002221 -20729.700000 0 0 1
-18.146737 -4.888339 20.240666 27.620363 0.263132 0.748344 0.043426 0.005954 106167.000000 0 0 1
-17.700737 -4.432039 21.554566 28.241076 0.245343 0.702492 0.040110 0.000151 127862.000000 0 0 1
-18.570337 -4.850139 22.579866 29.634973 0.255470 0.704504 0.041176 -0.007261 -555810.000000 0 0 1
-18.509237 -6.357639 23.042966 30.232263 0.330859 0.704095 0.058192 -0.013170 754615.000000 0 0 1
-17.352737 -6.727539 23.839586 30.244059 0.369852 0.662852 0.040869 -0.022548 981590.000000 0 0 1
-16.242037 -7.035339 23.012466 29.032281 0.408759 0.655651 0.046548 -0.020234 -588277.000000 0 0 1
-15.074637 -7.702939 23.717196 29.139069 0.472398 0.619909 0.044927 -0.018923 -390641.000000 0 0 1
-15.435737 -8.936439 24.187986 30.052963 0.524794 0.635382 0.043541 -0.028369 88154.200000 0 0 1
-14.686037 -9.215539 25.358366 30.718928 0.560398 0.599715 0.052579 -0.021557 43411.000000 0 0 1
-15.405937 -10.115239 26.364296 32.167329 0.580987 0.610086 0.043134 -0.025709 -246992.000000 0 0 1
-15.356937 -11.483939 25.931066 32.251148 0.642093 0.636745 0.038754 -0.024980 -161824.000000 0 0 1
-14.602237 -12.163539 26.884256 32.923247 0.694536 0.615346 0.046445 -0.023581 -115249.000000 0 0 1
-14.626737 -13.686039 26.740896 33.411444 0.752185 0.642915 0.036032 -0.022907 787901.000000 0 0 1
-15.926737 -14.191039 27.135066 34.516059 0.727831 0.666229 0.038485 -0.023032 1040690.000000 0 0 1
-16.121237 -15.603539 26.994666 35.100950 0.769081 0.693430 0.053342 -0.016074 52335.700000 0 0 1
-15.183737 -16.553739 27.821646 35.757742 0.828538 0.679226 0.051542 -0.013590 196468.000000 0 0 1
-13.890737 -16.650439 27.268806 34.839309 0.875513 0.671801 0.053231 -0.020934 -78735.000000 0 0 1
-13.018337 -17.333039 28.145076 35.525436 0.926610 0.656307 0.068655 -0.022674 773953.000000 0 0 1
-11.601737 -17.590439 27.516866 34.658358 0.987738 0.653524 0.068736 -0.030196 1221670.000000 0 0 1
-10.529937 -18.071039 28.334696 35.217851 1.043197 0.635871 0.087018 -0.040392 -30085.800000 0 0 1
-9.482937 -18.545039 27.575966 34.558334 1.098113 0.646903 0.076221 -0.036832 -747148.000000 0 0 1
-8.327937 -19.123239 28.395416 35.232832 1.160076 0.633541 0.091412 -0.039016 -367092.000000 0 0 1
-8.639837 -20.426039 28.861886 36.398878 1.170637 0.655188 0.087912 -0.027982 507893.000000 0 0 1
-7.642237 -21.076939 29.666136 37.184953 1.222952 0.647160 0.083203 -0.024513 345615.000000 0 0 1
-8.198337 -22.364939 30.280306 38.526616 1.219436 0.666552 0.075413 -0.023353 165138.000000 0 0 1
-8.281337 -23.406839 29.308646 38.411683 1.230740 0.702833 0.072867 -0.017965 -63854.600000 0 0 1
-8.840037 -24.527039 29.908426 39.676641 1.224869 0.716964 0.067393 -0.017909 -341462.000000 0 0 1
-9.099937 -25.701839 28.966286 39.779883 1.230511 0.755157 0.069095 -0.010475 125691.000000 0 0 1
-10.258137 -25.674639 28.133546 39.445061 1.190683 0.776695 0.057026 -0.013850 332925.000000 0 0 1
-10.184537 -26.914539 27.402736 39.736974 1.209046 0.809856 0.058042 -0.011128 -126271.000000 0 0 1
-11.500837 -27.260439 26.652666 39.821670 1.171565 0.837529 0.064928 -0.018689 29700.500000 0 0 1
-11.785937 -26.583439 25.448556 38.642160 1.153481 0.851880 0.062691 -0.022498 106925.000000 0 0 1
-11.940937 -25.175839 25.538296 37.797003 1.127918 0.828923 0.053272 -0.013839 -533953.000000 0 0 1
-12.098237 -24.548639 24.163546 36.508629 1.112903 0.847501 0.072776 -0.028740 -52070.600000 0 0 1
-13.287637 -24.911839 23.499866 36.734244 1.080798 0.876654 0.061507 -0.021136 -158920.000000 0 0 1
-13.161337 -24.761639 22.075666 35.688858 1.082251 0.903889 0.078688 -0.030199 -222555.000000 0 0 1
-14.463037 -24.727139 21.258866 35.672822 1.041550 0.932360 0.072128 -0.033221 -463094.000000 0 0 1
-15.188437 -25.896839 21.300366 36.810874 1.040364 0.953732 0.073379 -0.030435 -175980.000000 0 0 1
-16.411537 -25.833739 20.598566 36.892025 1.004842 0.978404 0.073445 -0.033752 177129.000000 0 0 1
-16.892037 -27.233239 20.137266 37.848378 1.015604 1.009775 0.077255 -0.036453 -220493.000000 0 0 1
-16.077737 -27.729839 19.105466 37.315632 1.045363 1.033289 0.067925 -0.034494 81416.700000 0 0 1
-16.273437 -29.146939 18.907366 38.364792 1.061585 1.055456 0.082339 -0.026111 -774575.000000 0 0 1
-15.190737 -29.551339 17.969466 37.774884 1.095975 1.075038 0.091078 -0.031151 -528593.000000 0 0 1
-15.306437 -29.090839 16.608366 36.829360 1.086440 1.102962 0.087530 -0.035716 271905.000000 0 0 1
-14.026237 -29.307539 16.034466 36.232186 1.124425 1.112359 0.104798 -0.041616 489049.000000 0 0 1
-14.179737 -28.942239 14.603566 35.383362 1.115235 1.145354 0.090039 -0.029941 -117646.000000 0 0 1
-14.305737 -27.509939 14.451466 34.209585 1.091261 1.134662 0.085528 -0.027334 -193783.000000 0 0 1
-14.619537 -27.070339 13.152766 33.459369 1.075619 1.166799 0.081522 -0.019369 -275740.000000 0 0 1
-13.685537 -27.367839 11.986066 32.862719 1.107101 1.197452 0.069604 -0.013869 40541.900000 0 0 1
-14.125537 -26.605939 10.857266 32.020103 1.082722 1.224861 0.049261 -0.010676 -229141.000000 0 0 1
-13.337037 -26.889539 9.735066 31.554641 1.110359 1.257165 0.052223 -0.012039 -79375.200000 0 0 1
-13.466937 -25.991739 8.485266 30.478331 1.092755 1.288665 0.055039 -0.007685 372518.000000 0 0 1
-14.603737 -26.412639 7.732766 31.155935 1.065724 1.319979 0.055110 -0.019191 77990.800000 0 0 1
-14.746237 -25.740439 6.506466 30.370311 1.050555 1.354885 0.056588 -0.021075 -160650.000000 0 0 1
-15.722337 -26.420939 5.556166 31.243061 1.034009 1.392009 0.059002 -0.027435 -145220.000000 0 0 1
-15.170537 -27.425839 4.779066 31.704279 1.065540 1.419481 0.063867 -0.025404 -742302.000000 0 0 1
-15.985137 -27.647939 3.688666 32.148708 1.046585 1.455805 0.072669 -0.018998 -477315.000000 0 0 1
-15.560537 -28.753739 2.748766 32.809504 1.074761 1.486918 0.067210 -0.016208 212778.000000 0 0 1
-14.329637 -28.490139 2.072266 31.958110 1.104777 1.505908 0.072325 -0.009351 127602.000000 0 0 1
-13.841837 -29.679339 1.447866 32.780420 1.134405 1.526613 0.067353 -0.007701 -256512.000000 0 0 1
-12.423937 -29.611639 0.859866 32.123866 1.173540 1.544026 0.045429 -0.009538 -12390.900000 0 0 1
-12.237137 -28.752239 -0.254034 31.249053 1.168412 1.578926 0.053034 -0.013756 -215195.000000 0 0 1
-12.212337 -27.313039 0.032366 29.918963 1.150336 1.569715 0.050205 -0.018800 -305213.000000 0 0 1
-11.931337 -26.465339 -1.272634 29.058400 1.147253 1.614606 0.050612 -0.018790 77380.600000 0 0 1
-10.688137 -26.719039 -1.879134 28.838767 1.190273 1.636003 0.054726 -0.025206 -517148.000000 0 0 1
-10.402237 -25.814439 -2.972134 27.989737 1.187739 1.677183 0.064849 -0.032339 892682.000000 0 0 1
-9.088337 -26.264539 -3.701434 28.037912 1.237662 1.703198 0.056840 -0.033791 645481.000000 0 0 1
-8.644637 -25.380139 -4.710934 27.222677 1.242514 1.744724 0.052733 -0.034958 79071.000000 0 0 1
-7.477837 -25.936339 -5.320834 27.512234 1.290094 1.765422 0.055414 -0.022206 391586.000000 0 0 1
-6.618937 -24.958339 -6.113834 26.535033 1.311564 1.803291 0.038348 -0.021195 -155447.000000 0 0 1
-7.084937 -24.714239 -7.436534 26.763632 1.291609 1.852362 0.044360 -0.013886 343354.000000 0 0 1
-6.411037 -23.545839 -7.979034 25.674363 1.304962 1.886808 0.043022 -0.012825 180280.000000 0 0 1
-6.601637 -23.529039 -9.513234 26.224014 1.297255 1.942033 0.044295 -0.007708 -305868.000000 0 0 1
-5.801037 -24.467839 -10.162734 27.122101 1.338006 1.954873 0.032449 -0.011378 -311393.000000 0 0 1
-5.953537 -24.587139 -11.602134 27.831305 1.333229 2.000799 0.033223 -0.003833 518228.000000 0 0 1
-7.322437 -25.212039 -12.049534 28.886957 1.288138 2.001078 0.037647 -0.010759 622826.000000 0 0 1
-7.428037 -25.334639 -13.452534 29.630902 1.285593 2.042050 0.045572 -0.011403 24047.500000 0 0 1
-8.468037 -26.237339 -13.805534 30.833398 1.258603 2.035039 0.067336 -0.009923 -279018.000000 0 0 1
-8.750437 -26.182839 -15.356134 31.589905 1.248261 2.078428 0.071203 -0.017872 601366.000000 0 0 1
-7.752037 -26.971939 -16.007434 32.308165 1.290929 2.089162 0.064690 -0.025264 1539310.000000 0 0 1
-6.442037 -26.357239 -16.109234 31.554894 1.331083 2.106579 0.061368 -0.023909 788163.000000 0 0 1
-5.368837 -27.210439 -16.833134 32.443595 1.375991 2.116293 0.051247 -0.022759 38549.200000 0 0 1
-5.427737 -26.980939 -18.247134 33.021044 1.372277 2.156266 0.087530 -0.025131 756558.000000 0 0 1
-4.260537 -27.394039 -18.983234 33.599833 1.416505 2.171205 0.069718 -0.027439 433405.000000 0 0 1
-25.046237 14.651265 -6.262137 29.684810 -0.529294 1.783347 0.074606 -0.021660 -179462.000000 0 0 1
-24.929637 13.471265 -5.524737 28.870132 -0.495421 1.763349 0.067008 -0.022294 22603.700000 0 0 1
-23.604537 13.069665 -5.294337 27.495824 -0.505674 1.764557 0.085565 -0.027203 -581139.000000 0 0 1
-23.511837 11.607465 -4.802237 26.657105 -0.458584 1.751934 0.080939 -0.022925 -424507.000000 0 0 1
-24.018137 10.563465 -5.576837 26.824594 -0.414349 1.780224 0.085314 -0.012889 864037.000000 0 0 1
-25.436027 10.385465 -5.374837 27.995325 -0.387639 1.763986 0.114911 -0.017322 739476.000000 0 0 1
-26.080977 9.630065 -6.577637 28.569579 -0.353709 1.803113 0.127234 -0.015161 -98982.300000 0 0 1
-26.165527 10.504565 -7.658237 29.216935 -0.381769 1.836011 0.150677 -0.019317 -22473.900000 0 0 1
-26.358897 9.820865 -8.865337 29.492966 -0.356650 1.876109 0.138803 -0.013813 -128031.000000 0 0 1
-26.761307 10.808565 -9.976937 30.537386 -0.383853 1.903619 0.115111 -0.010508 162450.000000 0 0 1
-25.726427 11.685165 -10.371637 30.099219 -0.426348 1.922589 0.125271 -0.019450 311418.000000 0 0 1
-26.212737 12.434665 -11.478937 31.200873 -0.442938 1.947551 0.118981 -0.031036 493219.000000 0 0 1
-25.194767 13.495265 -12.030037 31.010003 -0.491750 1.969192 0.103046 -0.031803 207391.000000 0 0 1
-25.106167 14.585965 -11.150037 31.102948 -0.526310 1.937444 0.098762 -0.027046 90772.800000 0 0 1
-24.371937 15.626165 -11.764137 31.250013 -0.570131 1.956760 0.090796 -0.029105 -49119.400000 0 0 1
-24.450237 16.990265 -11.067837 31.764449 -0.607289 1.926697 0.095687 -0.034390 123470.000000 0 0 1
-23.441937 17.098165 -10.073437 30.713935 -0.630176 1.904957 0.079791 -0.028817 176638.000000 0 0 1
-23.421637 18.396965 -9.501337 31.261747 -0.665817 1.879610 0.044876 -0.019068 181236.000000 0 0 1
-22.253937 18.657365 -8.513437 30.262413 -0.697712 1.855966 0.040864 -0.011726 74123.200000 0 0 1
-22.499337 18.103665 -7.273637 29.780340 -0.677558 1.817535 0.057757 -0.016873 -249881.000000 0 0 1
-23.377837 18.824265 -6.492537 30.708782 -0.677915 1.783827 0.043031 -0.019548 -473083.000000 0 0 1
-23.668637 18.137465 -5.162937 30.262650 -0.653857 1.742239 0.035585 -0.017574 824034.000000 0 0 1
-22.477437 18.126765 -4.366437 29.204119 -0.678657 1.720873 0.036948 -0.025533 1133720.000000 0 0 1
-22.916237 17.534865 -3.161537 29.027930 -0.653141 1.679926 0.026623 -0.027485 -557654.000000 0 0 1
-21.722637 17.242665 -2.304837 27.829746 -0.670927 1.653710 0.026521 -0.030090 -1071510.000000 0 0 1
-21.213337 18.440765 -1.768837 28.163741 -0.715593 1.633643 0.025087 -0.032214 -123509.000000 0 0 1
-20.240037 18.204065 -0.791337 27.233680 -0.732488 1.599858 0.064117 -0.041149 -371668.000000 0 0 1
-19.655937 19.451965 -0.171537 27.654371 -0.780183 1.576999 0.072435 -0.050431 -601595.000000 0 0 1
-20.572337 20.229865 0.538663 28.857558 -0.777005 1.552129 0.053490 -0.038217 -347884.000000 0 0 1
-20.145037 21.520965 0.788563 29.488918 -0.818409 1.544052 0.073144 -0.037949 -112491.000000 0 0 1
-21.057337 22.258865 1.793663 30.693416 -0.813130 1.512325 0.040003 -0.034969 134912.000000 0 0 1
-20.858137 21.898165 3.162363 30.407106 -0.809718 1.466607 0.050291 -0.031198 -772408.000000 0 0 1
-22.077937 21.998765 3.780963 31.395488 -0.783602 1.450073 0.022557 -0.029197 -819503.000000 0 0 1
-21.999737 21.726865 5.288363 31.368964 -0.779158 1.401402 0.042810 -0.029655 -38638.700000 0 0 1
-21.271137 22.732765 5.996363 31.704830 -0.818602 1.380519 0.045347 -0.024354 279903.000000 0 0 1
-20.509237 22.128865 7.048263 30.983762 -0.823365 1.341305 0.045793 -0.015094 69798.000000 0 0 1
-21.273637 21.757365 8.335763 31.550523 -0.796639 1.303418 0.036119 -0.028118 -1608170.000000 0 0 1
-22.371137 20.922065 8.144263 31.694315 -0.751940 1.310918 0.044362 -0.019272 30092.500000 0 0 1
-22.861137 20.525765 9.439263 32.140913 -0.731623 1.272718 0.055148 -0.022438 -29185.100000 0 0 1
-23.412937 21.618465 10.398263 33.520852 -0.745570 1.255390 0.055817 -0.021730 -697728.000000 0 0 1
-24.704237 22.090465 10.034263 34.626210 -0.729600 1.276791 0.076440 -0.020343 771239.000000 0 0 1
-25.351367 22.782065 11.099963 35.845830 -0.732070 1.255963 0.090301 -0.021694 51423.200000 0 0 1
-26.104617 24.040665 10.691663 37.063679 -0.744262 1.278171 0.096368 -0.029317 -240022.000000 0 0 1
-27.031577 24.406265 11.677163 38.245628 -0.734404 1.260522 0.101907 -0.022877 23580.600000 0 0 1
-27.391267 25.763165 11.713563 39.385654 -0.754778 1.268821 0.101456 -0.023560 209547.000000 0 0 1
-27.980827 26.183065 13.055763 40.483732 -0.752219 1.242433 0.116425 -0.029848 500607.000000 0 0 1
-26.928777 26.102665 14.027863 40.041093 -0.769822 1.212866 0.100628 -0.027712 734096.000000 0 0 1
-27.369697 26.417765 15.317863 41.007750 -0.767702 1.187979 0.104563 -0.027063 472241.000000 0 0 1
-26.149197 26.545865 16.298763 40.670790 -0.792926 1.158463 0.081320 -0.029066 565711.000000 0 0 1
-25.619827 25.350765 16.798763 39.764749 -0.780119 1.134646 0.083849 -0.030010 595599.000000 0 0 1
-24.518637 25.588965 17.689163 39.608903 -0.806756 1.107840 0.062633 -0.024926 363270.000000 0 0 1
-23.944737 24.253165 18.243463 38.657346 -0.791797 1.079321 0.062609 -0.018258 -689065.000000 0 0 1
-22.911137 24.375765 19.165563 38.554078 -0.816361 1.050533 0.051270 -0.029099 -62545.100000 0 0 1
-22.573537 23.071965 19.536763 37.730164 -0.796317 1.026516 0.050242 -0.030877 -1946980.000000 0 0 1
-21.179537 22.931465 20.025663 37.087088 -0.825094 1.000403 0.042837 -0.028835 -1530690.000000 0 0 1
-20.291437 22.979765 18.889763 36.008821 -0.847446 1.018566 0.055743 -0.031995 338842.000000 0 0 1
-18.955537 22.568365 19.063663 35.100808 -0.872186 0.996658 0.040421 -0.028192 -109707.000000 0 0 1
-18.693137 21.059965 19.088163 34.019310 -0.844866 0.975085 0.044879 -0.012881 -646496.000000 0 0 1
-19.090037 20.326265 20.227663 34.449164 -0.816751 0.943233 0.054962 -0.012604 297487.000000 0 0 1
-18.414537 20.700065 21.431363 35.027007 -0.843763 0.912396 0.060360 -0.007155 -306991.000000 0 0 1
-19.290937 20.319765 22.595463 35.994278 -0.811366 0.892135 0.039146 -0.005445 28327.000000 0 0 1
-20.368737 21.218065 22.865463 37.254814 -0.805818 0.909984 0.021303 -0.010116 228003.000000 0 0 1
-20.837637 20.922665 24.147963 38.145631 -0.787434 0.885314 0.011756 -0.000089 -687824.000000 0 0 1
-21.945637 21.863165 24.569563 39.538240 -0.783516 0.900252 0.007096 -0.004408 -1233470.000000 0 0 1
-21.579237 23.191265 24.713163 40.177589 -0.821389 0.908286 0.022355 -0.012763 419876.000000 0 0 1
-22.629837 24.165965 24.849963 41.395943 -0.818213 0.926921 0.018794 -0.013094 917463.000000 0 0 1
-23.520837 24.526765 23.575363 41.359276 -0.806331 0.964274 0.021436 -0.021148 256652.000000 0 0 1
-24.432937 23.604265 23.083863 41.073038 -0.768149 0.973971 0.022417 -0.016337 -346627.000000 0 0 1
-25.141557 24.235065 22.037163 41.292528 -0.767042 1.007845 0.025109 -0.024245 20423.000000 0 0 1
-26.242477 23.336565 21.381463 41.114837 -0.726853 1.023896 0.043579 -0.023685 358939.000000 0 0 1
-27.296397 23.134665 22.325463 42.175020 -0.703062 1.012959 0.059969 -0.021343 -242666.000000 0 0 1
-28.108257 22.097365 21.883763 41.919766 -0.666240 1.021556 0.084613 -0.022446 -729710.000000 0 0 1
-29.552697 22.230565 22.350463 43.209989 -0.644930 1.027159 0.094927 -0.017262 -806209.000000 0 0 1
-30.215227 23.344065 21.731263 43.933508 -0.657804 1.053376 0.118897 -0.020427 1070610.000000 0 0 1
-31.618637 23.476565 22.012163 45.115659 -0.638678 1.061108 0.129831 -0.026925 1117780.000000 0 0 1
-32.578557 22.589865 21.166063 44.940701 -0.606280 1.080398 0.139723 -0.036417 -835597.000000 0 0 1
-32.575437 21.221065 21.593263 44.472033 -0.577390 1.063808 0.135344 -0.030270 331724.000000 0 0 1
-33.381887 20.360065 20.815863 44.296533 -0.547677 1.081595 0.130450 -0.024332 1261380.000000 0 0 1
-34.957619 20.522965 20.945463 45.628277 -0.530866 1.093876 0.133651 -0.037693 728053.000000 0 0 1
-35.594649 19.675565 20.059863 45.348705 -0.504965 1.112582 0.138887 -0.027446 -674758.000000 0 0 1
35.946312 19.791565 20.077163 45.682994 0.503294 1.115767 0.133475 -0.042678 -180932.000000 0 0 1
35.157642 19.225865 18.861763 44.288371 0.500420 1.130856 0.137753 -0.043620 110453.000000 0 0 1
35.239612 17.807565 18.865863 43.759118 0.467901 1.125052 0.147557 -0.042945 218408.000000 0 0 1
34.675502 17.264565 17.693963 42.585584 0.461958 1.142313 0.148939 -0.053116 53181.200000 0 0 1
34.841022 15.732765 17.689363 42.122800 0.424149 1.137409 0.136014 -0.054874 -129472.000000 0 0 1
34.144832 15.200965 16.624463 40.906133 0.418847 1.152280 0.155573 -0.051029 -36376.600000 0 0 1
34.557532 13.865165 16.453163 40.708383 0.381557 1.154724 0.127712 -0.040729 -274261.000000 0 0 1
33.601402 13.079465 15.578763 39.278805 0.371208 1.162964 0.121404 -0.038881 -486014.000000 0 0 1
33.583282 13.507965 14.234763 38.896407 0.382421 1.196126 0.128275 -0.037916 295465.000000 0 0 1
32.831122 12.659865 13.381563 37.645996 0.368036 1.207393 0.129064 -0.034025 -203257.000000 0 0 1
32.938822 12.951565 11.889263 37.337162 0.374631 1.246724 0.125796 -0.030231 747031.000000 0 0 1
34.248002 12.575465 11.414363 38.227682 0.351905 1.267583 0.118188 -0.024526 1104840.000000 0 0 1
34.313832 12.803365 10.033763 37.974224 0.357126 1.303395 0.106450 -0.017241 554327.000000 0 0 1
35.801622 12.796065 9.525363 39.194744 0.343266 1.325312 0.096484 -0.012823 401005.000000 0 0 1
-36.460387 11.553165 9.706263 39.459435 -0.306860 1.322265 0.124362 -0.026388 -248265.000000 0 0 1
-35.097898 11.651865 9.391563 38.155338 -0.320534 1.322100 0.139569 -0.021078 -354375.000000 0 0 1
-34.756642 11.419565 7.887363 37.425140 -0.317446 1.358454 0.148389 -0.034246 -622687.000000 0 0 1
-35.189768 12.449765 7.093563 37.995198 -0.340047 1.382998 0.132393 -0.036327 -218412.000000 0 0 1
-34.630674 12.236765 5.850263 37.192037 -0.339657 1.412842 0.141493 -0.042406 -157953.000000 0 0 1
-35.365591 12.961265 4.671763 37.954510 -0.351292 1.447395 0.153460 -0.039364 -253068.000000 0 0 1
36.301702 12.371965 4.385663 38.601984 0.328464 1.456938 0.150903 -0.038381 291760.000000 0 0 1
35.269402 13.349165 4.341063 37.960187 0.361828 1.456187 0.129611 -0.034133 166880.000000 0 0 1
34.793152 13.950765 5.709663 37.918169 0.381336 1.419643 0.115623 -0.021813 -1198680.000000 0 0 1
34.043342 15.127865 5.448363 37.649517 0.418163 1.425574 0.102337 -0.018711 418610.000000 0 0 1
33.483132 15.791965 6.608763 37.605612 0.440703 1.394140 0.076302 -0.013736 223702.000000 0 0 1
32.131592 15.230565 7.094663 36.259393 0.442637 1.373862 0.101021 -0.010435 -405855.000000 0 0 1
32.223482 14.130865 8.019963 36.088142 0.413272 1.346693 0.119988 -0.009392 -683682.000000 0 0 1
31.018742 13.472965 8.184363 34.794640 0.409763 1.333352 0.126397 -0.012849 -779240.000000 0 0 1
30.720342 12.179365 7.306363 33.844635 0.377450 1.353204 0.123899 -0.013901 -206275.000000 0 0 1
30.510142 12.443665 5.935463 33.480492 0.387258 1.392573 0.114046 -0.022272 160225.000000 0 0 1
30.776422 11.340565 5.124563 33.197255 0.353044 1.415810 0.125132 -0.023982 -100556.000000 0 0 1
30.160162 11.482965 3.690763 32.482543 0.363787 1.456927 0.111117 -0.028881 85322.300000 0 0 1
28.787512 11.171465 3.573363 31.085229 0.370177 1.455588 0.076295 -0.018643 113643.000000 0 0 1
28.393122 11.533565 2.246563 30.728482 0.385848 1.497621 0.097804 -0.028520 -613092.000000 0 0 1
26.912842 11.299865 1.995563 29.256970 0.397517 1.502535 0.110797 -0.017455 -588189.000000 0 0 1
26.757942 9.965165 1.530063 28.594284 0.356506 1.517261 0.058390 -0.016801 921928.000000 0 0 1
25.386442 9.584165 1.298263 27.166398 0.360988 1.522989 0.045095 -0.016845 625498.000000 0 0 1
25.261242 8.111165 0.972363 26.549329 0.310693 1.534163 0.049221 -0.014337 -120904.000000 0 0 1
25.649842 7.158065 1.963863 26.702230 0.272145 1.497183 0.055650 -0.010193 607936.000000 0 0 1
26.983342 7.143365 2.454563 28.020587 0.258796 1.483085 0.074581 -0.025915 -147416.000000 0 0 1
27.090542 6.293265 3.705563 28.057688 0.228256 1.438340 0.074777 -0.031443 -564862.000000 0 0 1
28.447532 6.054965 3.975563 29.355235 0.209717 1.434949 0.091416 -0.039672 84277.000000 0 0 1
28.622702 5.476265 5.283363 29.616929 0.189041 1.391446 0.077491 -0.026639 831425.000000 0 0 1
30.170632 5.412365 5.596463 31.158966 0.177504 1.390206 0.073412 -0.032601 1050710.000000 0 0 1
30.740132 6.684665 5.891463 32.005466 0.214124 1.385664 0.099590 -0.027457 1050040.000000 0 0 1
32.126532 6.513265 6.296563 33.379386 0.200027 1.381023 0.094313 -0.025247 1112070.000000 0 0 1
32.683012 7.740165 6.967263 34.302073 0.232541 1.366258 0.089567 -0.025883 -253689.000000 0 0 1
32.255082 7.863765 8.308163 34.223599 0.239134 1.325585 0.085863 -0.026845 -129615.000000 0 0 1
32.770082 8.959065 8.994863 35.143288 0.266870 1.311968 0.107313 -0.029682 -216691.000000 0 0 1
32.350782 8.940165 10.493563 35.165531 0.269622 1.267775 0.096769 -0.021992 167157.000000 0 0 1
31.033092 9.392165 10.804163 34.175950 0.293886 1.249145 0.089282 -0.022043 371711.000000 0 0 1
30.659142 8.872465 12.061763 34.120225 0.281695 1.209478 0.082566 -0.023973 928191.000000 0 0 1
29.141372 9.210565 12.389563 32.978104 0.306129 1.185655 0.065951 -0.027114 840293.000000 0 0 1
28.758442 10.514365 12.776863 33.179031 0.350513 1.175493 0.088630 -0.030968 92335.800000 0 0 1
28.925042 11.585765 11.833363 33.330414 0.380976 1.207848 0.096623 -0.036020 -472884.000000 0 0 1
27.846442 11.663165 10.736063 32.042422 0.396640 1.229130 0.080344 -0.026668 -259286.000000 0 0 1
27.987632 12.773665 9.872463 32.310054 0.428167 1.260276 0.067421 -0.004234 -220913.000000 0 0 1
27.062142 12.795365 8.834663 31.211091 0.441663 1.283812 0.067034 -0.011663 -450875.000000 0 0 1
27.122942 14.047065 7.836863 31.533957 0.477868 1.319643 0.073079 -0.007381 -110502.000000 0 0 1
26.923942 15.280565 8.465563 32.094549 0.516214 1.303868 0.067717 -0.000921 229461.000000 0 0 1
27.023442 16.408265 7.583763 32.511707 0.545687 1.335365 0.057954 0.001039 -788162.000000 0 0 1
26.635842 17.731165 8.346263 33.068451 0.587325 1.315643 0.068055 -0.012583 914826.000000 0 0 1
25.267942 18.110165 8.505663 32.230317 0.621863 1.303730 0.076475 -0.015151 723155.000000 0 0 1
24.347042 17.217565 9.096563 31.176441 0.615524 1.274712 0.089089 -0.012172 -1569840.000000 0 0 1
22.986642 17.752865 9.332063 30.506349 0.657629 1.259907 0.088266 -0.019882 -1284410.000000 0 0 1
22.258842 18.100665 8.168063 29.829640 0.682732 1.293430 0.098477 -0.028485 212107.000000 0 0 1
21.296542 19.109765 8.378663 29.814893 0.731331 1.285937 0.141197 -0.032402 13619.700000 0 0 1
20.735042 19.715865 7.102063 29.480445 0.760208 1.327495 0.121727 -0.026840 -306879.000000 0 0 1
21.720742 20.393165 6.381263 30.469532 0.753885 1.359803 0.083060 -0.022207 -178312.000000 0 0 1
21.199142 21.047565 5.231863 30.327810 0.781810 1.397419 0.105413 -0.026759 -581638.000000 0 0 1
18.502363 17.363065 33.313297 41.875879 0.753643 0.650923 0.043741 -0.021512 -1028060.000000 0 0 1
17.454363 17.665365 32.501222 40.902926 0.791406 0.652458 0.040554 -0.020919 -556711.000000 0 0 1
17.300763 16.594765 31.612246 39.674131 0.764573 0.648820 0.042152 -0.024583 -148866.000000 0 0 1
16.540863 17.005065 30.338936 38.512640 0.799235 0.663623 0.035116 -0.025064 -418755.000000 0 0 1
17.283063 17.709965 29.398976 38.427164 0.797597 0.699666 0.034948 -0.007414 -866054.000000 0 0 1
16.643063 17.927765 28.198716 37.330468 0.822543 0.714561 0.034108 -0.009190 -567356.000000 0 0 1
17.526063 18.167265 26.954746 36.929266 0.803360 0.752618 0.034533 -0.012234 -430969.000000 0 0 1
18.139163 19.437865 26.957116 37.862196 0.819945 0.778483 0.037682 -0.018243 19970.700000 0 0 1
18.853763 19.711765 25.766926 37.522693 0.807642 0.813853 0.045814 -0.020657 139035.000000 0 0 1
19.802763 20.957665 25.952446 38.793074 0.813725 0.837938 0.058121 -0.016371 175136.000000 0 0 1
19.139763 22.216465 25.945326 39.154333 0.859657 0.846455 0.050033 -0.016383 314474.000000 0 0 1
19.936063 23.232765 26.519716 40.503127 0.861618 0.856935 0.076624 -0.022509 -141746.000000 0 0 1
19.244963 24.566765 26.283316 40.800824 0.906276 0.870838 0.089206 -0.028540 57832.300000 0 0 1
19.100063 25.005765 24.987016 40.180240 0.918505 0.899664 0.088078 -0.030547 567920.000000 0 0 1
18.061463 25.994665 25.035316 40.357231 0.963559 0.901617 0.083285 -0.027333 394288.000000 0 0 1
17.943363 26.857665 23.719906 40.074086 0.981808 0.937381 0.059607 -0.025509 506845.000000 0 0 1
19.106463 27.715765 23.600416 41.112044 0.967239 0.959351 0.093184 -0.032359 832727.000000 0 0 1
18.937963 28.802565 22.690966 41.268803 0.989160 0.988632 0.087038 -0.023455 73001.200000 0 0 1
20.125263 29.813965 22.635166 42.499994 0.977027 1.009136 0.097612 -0.021711 155267.000000 0 0 1
21.240563 29.292365 21.933666 42.311817 0.943408 1.025839 0.092855 -0.026946 205957.000000 0 0 1
22.254263 30.324365 21.963266 43.556910 0.937696 1.042291 0.110556 -0.039709 171697.000000 0 0 1
23.005863 30.393065 20.661166 43.357720 0.922866 1.074095 0.126650 -0.036715 115642.000000 0 0 1
22.291363 31.160165 19.699566 43.080548 0.949823 1.095870 0.094787 -0.027626 395134.000000 0 0 1
23.082863 31.127065 18.549266 42.962635 0.932713 1.124360 0.088594 -0.000088 72632.000000 0 0 1
22.431463 31.967865 17.440866 42.770302 0.958938 1.150775 0.077344 -0.017720 -151133.000000 0 0 1
22.585063 33.411665 17.575566 43.992328 0.976385 1.159809 0.104101 -0.022335 28780.200000 0 0 1
22.544663 -34.078539 16.394566 44.027156 -0.986344 1.189231 0.098327 -0.022496 538590.000000 0 0 1
23.633463 34.045565 15.237566 44.156817 0.963993 1.218474 0.081691 -0.021881 578453.000000 0 0 1
23.457263 32.897265 14.447666 42.909303 0.951368 1.227384 0.099042 -0.023616 -56633.400000 0 0 1
22.435263 33.083665 13.498666 42.191041 0.974895 1.245129 0.064124 -0.020971 -184996.000000 0 0 1
22.159363 31.895465 12.513766 40.803828 0.963603 1.259092 0.070855 -0.029129 411337.000000 0 0 1
23.303463 31.548265 11.707066 40.931648 0.934592 1.280731 0.102551 -0.047598 511869.000000 0 0 1
23.075063 30.383065 10.990066 39.703536 0.921261 1.290331 0.106407 -0.047212 -399293.000000 0 0 1
24.292863 29.763165 10.237866 39.759315 0.886252 1.310366 0.110757 -0.042934 503409.000000 0 0 1
25.233163 28.988365 11.001766 39.975951 0.854544 1.291989 0.096200 -0.037884 235563.000000 0 0 1
26.081463 29.735065 11.795866 41.274196 0.850762 1.280963 0.090577 -0.037555 -780283.000000 0 0 1
27.489463 29.136465 12.061966 41.834139 0.814476 1.278316 0.085601 -0.032117 423422.000000 0 0 1
27.479863 28.142265 13.010866 41.429610 0.797307 1.251343 0.080381 -0.027618 -256738.000000 0 0 1
28.784563 27.880965 13.446766 42.269549 0.769453 1.247051 0.062630 -0.016437 -333498.000000 0 0 1
28.809763 26.849365 14.627066 42.010022 0.750191 1.215167 0.035363 -0.021949 -203916.000000 0 0 1
30.058663 26.733065 15.260666 43.024039 0.726907 1.208202 0.027357 -0.027353 -91357.200000 0 0 1
30.241563 25.526365 15.955766 42.670059 0.701048 1.187550 0.036286 -0.039359 -356394.000000 0 0 1
31.491563 25.547065 16.842866 43.909603 0.681554 1.177126 0.050341 -0.040489 -87490.100000 0 0 1
32.685063 25.734165 16.076966 44.598536 0.666972 1.202012 0.056497 -0.036423 -546496.000000 0 0 1
33.727263 25.825065 16.978766 45.746483 0.653475 1.190550 0.060872 -0.041334 -11439.400000 0 0 1
35.084963 26.271265 16.325966 46.772547 0.642726 1.214239 0.082212 -0.040244 495848.000000 0 0 1
35.233663 27.614165 15.958066 47.524867 0.664750 1.228359 0.055731 -0.027317 413190.000000 0 0 1
-36.326517 27.837265 15.609266 48.354714 -0.653856 1.242102 0.081129 -0.021825 641001.000000 0 0 1
-36.150217 29.117465 14.752166 48.706174 -0.678060 1.263082 0.041027 -0.012065 -10565.800000 0 0 1
36.386363 30.358765 15.312066 49.800416 0.695335 1.258265 0.037172 -0.016535 79313.000000 0 0 1
-36.383417 31.444065 14.395066 50.196615 -0.712704 1.279939 0.034053 0.000766 170482.000000 0 0 1
35.558863 32.599765 14.781366 50.454595 0.742011 1.273471 0.033950 0.000785 -345352.000000 0 0 1
35.661763 33.694665 13.848666 50.979185 0.757044 1.295686 0.005067 -0.004610 1290630.000000 0 0 1
34.482663 -33.760939 13.860966 50.209376 -0.774823 1.291101 0.012606 0.003472 1122300.000000 0 0 1
33.097763 34.030165 13.409866 49.328882 0.799287 1.295485 0.053442 0.003437 61731.500000 0 0 1
32.512563 33.023365 14.247266 48.482925 0.793192 1.272532 0.038039 -0.004296 464946.000000 0 0 1
31.527763 32.175265 13.627866 47.063428 0.795562 1.277025 0.047457 -0.002824 356358.000000 0 0 1
30.985163 31.041265 14.561266 46.213320 0.786303 1.250247 0.080413 -0.017081 -929642.000000 0 0 1
29.993463 31.498865 15.376966 46.132824 0.809874 1.230974 0.081508 -0.013967 -630989.000000 0 0 1
29.708763 30.532465 16.354366 45.632306 0.799071 1.204249 0.076971 -0.026970 -713502.000000 0 0 1
28.452863 30.806265 17.168566 45.313917 0.825091 1.182210 0.087521 -0.032107 -540334.000000 0 0 1
28.185063 29.923265 18.268066 44.983573 0.815302 1.152608 0.078545 -0.033698 -236989.000000 0 0 1
29.006663 30.092365 19.382766 46.071993 0.803767 1.136573 0.082546 -0.042423 -325169.000000 0 0 1
28.744163 29.049465 20.483766 45.713051 0.790681 1.106164 0.083479 -0.045615 266546.000000 0 0 1
27.506363 29.091665 21.182766 45.294973 0.813401 1.084152 0.100610 -0.050988 224843.000000 0 0 1
27.518263 28.274665 22.331766 45.336732 0.798955 1.055750 0.090297 -0.047113 404098.000000 0 0 1
26.227763 28.372165 23.204166 45.070041 0.824653 1.029967 0.097408 -0.036373 532022.000000 0 0 1
25.026563 27.777065 22.747966 43.764873 0.837440 1.024207 0.112778 -0.035960 -585910.000000 0 0 1
23.994463 27.743465 23.626806 43.630953 0.857733 0.998558 0.120823 -0.037382 -871241.000000 0 0 1
23.902363 26.539765 24.593836 43.365180 0.837636 0.967775 0.113666 -0.037244 56416.900000 0 0 1
25.048363 26.414265 25.445156 44.413847 0.811934 0.960744 0.107092 -0.038991 551586.000000 0 0 1
24.841163 25.337065 26.349276 44.196545 0.795281 0.932057 0.120689 -0.037364 393070.000000 0 0 1
26.149663 25.034965 27.179646 45.269057 0.763624 0.926792 0.113159 -0.038995 714769.000000 0 0 1
26.472163 26.082965 28.097566 46.589373 0.777993 0.923428 0.133545 -0.030585 277971.000000 0 0 1
27.251663 27.124865 27.519766 47.283707 0.783066 0.949593 0.099846 -0.024004 -472732.000000 0 0 1
27.634363 28.298965 28.395556 48.690831 0.797280 0.948158 0.063064 -0.014164 -160601.000000 0 0 1
28.554863 27.975065 29.411696 49.628946 0.775142 0.936474 0.065818 -0.009227 -48820.300000 0 0 1
28.924463 29.173765 30.054416 50.901877 0.789689 0.939195 0.056945 -0.007287 706310.000000 0 0 1
30.466363 29.418965 30.233336 52.035847 0.767910 0.950828 0.040687 -0.005523 625463.000000 0 0 1
30.943663 29.776365 28.970206 51.801689 0.766176 0.977313 0.028977 -0.012258 -245924.000000 0 0 1
32.355663 29.642865 28.917456 52.552903 0.741670 0.988128 0.034555 -0.017084 311950.000000 0 0 1
32.848863 30.123065 27.535576 52.389453 0.742139 1.017383 0.029207 -0.014572 -163326.000000 0 0 1
32.793363 31.527165 27.320286 53.063781 0.765715 1.029955 0.035786 -0.014305 210883.000000 0 0 1
33.236163 31.860065 26.009396 52.879060 0.764262 1.056565 0.048455 -0.025595 -12495.900000 0 0 1
33.022663 33.394765 25.734806 53.553588 0.791001 1.069522 0.038777 -0.029518 -149855.000000 0 0 1
34.032563 34.116365 26.418076 54.955040 0.786628 1.069319 0.049447 -0.024488 250236.000000 0 0 1
33.852763 -32.782239 26.309496 53.971051 -0.769334 1.061602 0.042200 -0.028250 476345.000000 0 0 1
34.891663 -31.966639 27.200276 54.581583 -0.741676 1.049111 0.038431 -0.026137 568110.000000 0 0 1
34.604363 -31.963939 28.561316 55.089964 -0.745754 1.025761 0.048031 -0.029339 238526.000000 0 0 1
35.368463 -30.955539 29.196526 55.331823 -0.718960 1.014950 0.049415 -0.027164 -150431.000000 0 0 1
34.842663 -30.689039 30.613726 55.615002 -0.722099 0.987884 0.057668 -0.030533 -267562.000000 0 0 1
35.092863 -31.744539 31.500476 56.846326 -0.735343 0.983474 0.062600 -0.027975 35234.000000 0 0 1
34.002963 -32.632039 31.563126 56.721093 -0.764827 0.980675 0.064574 -0.030557 -497535.000000 0 0 1
33.879363 -33.455139 32.835059 57.837692 -0.779098 0.967074 0.073180 -0.023753 -608005.000000 0 0 1
33.437163 -32.749039 34.012260 57.856523 -0.775002 0.942370 0.058549 -0.025576 130338.000000 0 0 1
33.607063 -33.459039 -33.063277 57.811091 -0.783191 2.179640 0.061251 -0.024434 -204919.000000 0 0 1
32.819363 33.536065 -32.900747 57.308267 0.796199 2.182302 0.050046 -0.021243 -310720.000000 0 0 1
33.166263 32.517465 -33.833367 57.463756 0.775521 2.200342 0.059101 -0.025286 -140249.000000 0 0 1
32.468663 31.291865 -33.757287 56.328939 0.766944 2.213408 0.056734 -0.016530 -76646.100000 0 0 1
32.648363 30.375865 33.376024 55.700698 0.749356 0.928291 0.047091 -0.005571 -254379.000000 0 0 1
33.940463 29.848965 33.215814 56.091052 0.721345 0.937039 0.054202 -0.014588 -149232.000000 0 0 1
34.060463 28.897965 32.151216 55.035518 0.703583 0.946914 0.036525 -0.008006 -277036.000000 0 0 1
35.469463 28.299765 32.017126 55.534276 0.673436 0.956322 0.031555 -0.010082 -162292.000000 0 0 1
35.706363 27.275465 32.967182 55.729081 0.652327 0.937802 0.028021 -0.005046 606981.000000 0 0 1
-35.902417 26.768265 32.802289 55.511383 -0.640669 0.938609 0.007420 -0.003032 462204.000000 0 0 1
-35.677617 25.469565 33.651441 55.263103 -0.619981 0.916084 -0.000787 -0.001118 17626.200000 0 0 1
-36.394217 24.398865 33.105172 54.916264 -0.590586 0.923753 -0.004583 -0.002289 14771.700000 0 0 1
-36.405517 23.247365 33.966885 54.950440 -0.568296 0.904426 -0.009404 -0.010369 -34125.000000 0 0 1
35.905463 21.939365 33.311492 53.667435 0.548491 0.901158 -0.008348 -0.012504 -176860.000000 0 0 1
-36.292117 21.345165 32.249016 53.035204 -0.531660 0.917171 -0.005322 -0.012814 441229.000000 0 0 1
35.915363 20.239065 31.752046 52.035809 0.513165 0.914488 -0.013265 -0.008001 377091.000000 0 0 1
-36.087117 19.491265 30.767736 51.272244 -0.495224 0.927188 0.006336 -0.011873 259279.000000 0 0 1
-35.802117 20.222765 29.545956 50.633144 -0.514172 0.947728 0.019145 -0.016618 514638.000000 0 0 1
-34.602817 19.735265 28.940516 49.238085 -0.518323 0.942501 0.057326 -0.023975 512075.000000 0 0 1
-34.941217 18.767465 27.803826 48.437166 -0.492897 0.959391 0.081516 -0.019781 -405356.000000 0 0 1
-35.463017 17.557465 28.225766 48.606419 -0.459714 0.951208 0.063240 -0.017341 -11790.800000 0 0 1
-35.922117 16.740465 27.216346 48.076721 -0.436097 0.969026 0.065941 -0.025092 -265102.000000 0 0 1
36.414763 15.455965 27.852386 48.380546 0.401398 0.957344 0.033129 -0.019418 450300.000000 0 0 1
-35.496417 14.596665 28.384456 47.736103 -0.390137 0.934013 0.064204 -0.013863 687317.000000 0 0 1
-36.090617 13.412365 28.823236 48.095770 -0.355813 0.928184 0.065736 -0.016875 202996.000000 0 0 1
-35.025117 12.418965 29.388816 47.378180 -0.340743 0.901668 0.073722 -0.008979 -204287.000000 0 0 1
-34.404917 12.989765 30.520156 47.790294 -0.361009 0.878084 0.075150 -0.004186 662616.000000 0 0 1
-33.548617 11.933365 31.071086 47.258092 -0.341747 0.853332 0.073177 -0.000128 1269700.000000 0 0 1
-32.024917 12.133565 30.738066 46.017903 -0.362167 0.839334 0.072217 0.000562 -217059.000000 0 0 1
-31.567817 11.905965 29.422966 44.765946 -0.360659 0.853616 0.077694 -0.005919 943887.000000 0 0 1
-30.172517 12.161965 29.211556 43.721953 -0.383160 0.839116 0.097250 -0.003277 1537960.000000 0 0 1
-29.085817 11.216065 29.848476 43.159198 -0.368048 0.807108 0.079671 -0.005153 -51877.400000 0 0 1
-28.618717 10.231565 29.022926 42.024351 -0.343352 0.808448 0.074152 -0.016208 -360529.000000 0 0 1
-27.536817 9.586965 29.655256 41.588705 -0.335026 0.776943 0.075104 -0.015904 68173.500000 0 0 1
-26.867517 8.477465 28.780826 40.274890 -0.305641 0.774730 0.069721 -0.024165 547669.000000 0 0 1
-27.641917 7.255265 28.749816 40.537221 -0.256683 0.782405 0.061185 -0.030346 574238.000000 0 0 1
-28.840917 7.341065 27.973816 40.843899 -0.249244 0.816336 0.073562 -0.023269 495137.000000 0 0 1
-29.650017 5.982565 27.934906 41.173699 -0.199100 0.825125 0.062837 -0.026168 89646.700000 0 0 1
-30.274017 5.783965 29.188006 42.448911 -0.188779 0.812613 0.061992 -0.025890 48653.600000 0 0 1
-31.011917 4.580565 29.261036 42.882733 -0.146643 0.819824 0.083380 -0.031337 -488740.000000 0 0 1
-31.712817 4.354565 30.566856 44.260565 -0.136459 0.808462 0.073782 -0.020691 -873687.000000 0 0 1
-32.874117 5.083765 30.802686 45.336052 -0.153428 0.823810 0.072228 -0.019172 -695376.000000 0 0 1
-33.500817 4.455565 31.906626 46.477839 -0.132223 0.814144 0.067208 -0.019424 180226.000000 0 0 1
-35.009517 4.797665 32.018106 47.684829 -0.136191 0.834629 0.059153 -0.009807 134201.000000 0 0 1
-35.222617 6.124865 32.301983 48.182619 -0.172169 0.836039 0.055705 -0.001714 -284993.000000 0 0 1
36.334763 6.419065 32.259113 49.010914 0.174860 0.852368 0.045033 0.005253 -157511.000000 0 0 1
36.071763 7.922465 32.562482 49.236701 0.216198 0.848185 0.041326 0.002426 -324331.000000 0 0 1
36.196863 8.265465 33.929555 50.296575 0.224498 0.830388 0.043843 0.003663 275860.000000 0 0 1
36.133663 9.640865 34.027316 50.561310 0.260737 0.832551 0.048453 -0.006884 -100551.000000 0 0 1
36.297363 10.201765 -32.857587 50.011955 0.273992 2.287622 0.047836 -0.016834 -853285.000000 0 0 1
35.242963 10.002065 -31.979197 48.628971 0.276532 2.288446 0.089019 -0.010459 -776240.000000 0 0 1
35.500363 9.775365 -30.575127 47.860965 0.268700 2.263776 0.098309 -0.000938 -533559.000000 0 0 1
34.269263 9.282165 -29.795547 46.349926 0.264513 2.268995 0.091216 -0.004476 -39973.200000 0 0 1
33.925063 7.947765 -30.174097 46.092874 0.230124 2.284499 0.066583 0.000220 1053020.000000 0 0 1
32.631063 7.558765 -29.676427 44.750548 0.227629 2.295819 0.074315 -0.007142 605365.000000 0 0 1
35.219962 6.108265 -20.196437 41.056701 0.171724 2.085085 0.036528 -0.006373 -687079.000000 0 0 1
34.706162 7.022265 -19.291837 40.323751 0.199640 2.069655 0.030080 -0.004361 -12823.100000 0 0 1
35.405672 8.225365 -19.130537 41.075488 0.228269 2.055268 0.023507 -0.005951 170804.000000 0 0 1
-36.074357 8.193365 -18.477037 41.350833 -0.223336 2.034022 0.033891 -0.009873 920423.000000 0 0 1
-35.097531 7.489565 -19.197137 40.699636 -0.210240 2.061990 0.035023 -0.022171 -182375.000000 0 0 1
-34.555038 8.360565 -20.196937 40.888458 -0.237387 2.087425 0.025149 -0.015192 -353833.000000 0 0 1
-33.543987 7.654765 -21.204337 40.415572 -0.224359 2.123109 0.025540 -0.012776 274790.000000 0 0 1
-34.008177 6.610565 -22.026437 41.053862 -0.191988 2.137111 0.023634 -0.007994 -244806.000000 0 0 1
-34.800495 6.894765 -23.121137 42.346183 -0.195590 2.148382 0.024767 -0.010071 -202328.000000 0 0 1
-34.886477 5.676465 -24.114337 42.787730 -0.161299 2.169510 0.032456 -0.012100 346424.000000 0 0 1
-33.730587 5.546365 -24.940337 42.314715 -0.162973 2.201114 0.017761 -0.015947 282273.000000 0 0 1
-33.539617 4.167665 -25.192767 42.153895 -0.123627 2.211348 0.024197 -0.005528 310456.000000 0 0 1
-32.137777 3.936165 -25.824077 41.415131 -0.121871 2.244062 0.035392 -0.009933 330242.000000 0 0 1
-31.017467 4.315265 -25.071337 40.115792 -0.138236 2.245895 0.043761 -0.013487 -19810.500000 0 0 1
-29.819027 4.012965 -25.767287 39.613525 -0.133774 2.278995 0.051740 -0.012867 -27340.600000 0 0 1
-28.526367 4.420665 -25.069487 38.233167 -0.153745 2.285906 0.045084 -0.012969 -323487.000000 0 0 1
-28.295927 5.846765 -25.150067 38.306266 -0.203762 2.287035 0.035004 -0.009521 -495031.000000 0 0 1
-27.052877 6.155765 -24.597837 37.078366 -0.223736 2.296152 0.053164 -0.008941 -351125.000000 0 0 1
-26.613227 7.592165 -24.795337 37.157954 -0.277896 2.301368 0.047323 -0.010673 -63913.300000 0 0 1
-27.251927 8.495665 -23.893937 37.225853 -0.302197 2.267723 0.037185 -0.013637 -118059.000000 0 0 1
-26.858827 9.848465 -24.094137 37.402090 -0.351452 2.270763 0.033217 -0.011607 86739.300000 0 0 1
-25.474477 10.245265 -23.534737 36.163494 -0.382382 2.279417 0.053374 -0.012882 -72737.200000 0 0 1
-25.473147 10.616465 -22.167437 35.397540 -0.394880 2.247520 0.057772 -0.017413 45711.500000 0 0 1
-24.154137 10.543865 -21.681937 34.127728 -0.411591 2.259216 0.086669 -0.026537 -309843.000000 0 0 1
-24.082037 11.072865 -20.205237 33.328733 -0.430972 2.222121 0.106674 -0.034188 -1032570.000000 0 0 1
-24.469937 12.429865 -19.829437 33.859799 -0.469999 2.196458 0.096228 -0.039848 1725510.000000 0 0 1
-25.853727 12.852265 -20.027937 35.138500 -0.461337 2.177267 0.085605 -0.027462 1617080.000000 0 0 1
-26.919837 11.904665 -19.372737 35.237787 -0.416371 2.152887 0.083365 -0.026412 -989288.000000 0 0 1
-26.876537 11.890465 -17.993537 34.460104 -0.416525 2.120173 0.097901 -0.034813 338766.000000 0 0 1
-27.907277 11.126565 -17.381337 34.709184 -0.379383 2.095285 0.087918 -0.031429 -577395.000000 0 0 1
-27.488517 10.813865 -15.915837 33.554018 -0.374800 2.065005 0.106977 -0.033980 994482.000000 0 0 1
-26.415467 9.844465 -15.855337 32.343193 -0.356733 2.083141 0.123138 -0.036325 964289.000000 0 0 1
-25.116527 10.254265 -16.221137 31.608783 -0.387613 2.109687 0.109272 -0.030925 -774811.000000 0 0 1
-24.155937 9.059365 -16.352937 30.545048 -0.358803 2.135743 0.104821 -0.029502 -532451.000000 0 0 1
-22.794737 9.297065 -16.160537 29.448233 -0.387264 2.151698 0.103614 -0.027388 -337766.000000 0 0 1
-22.123437 8.058065 -16.082837 28.513796 -0.349297 2.170063 0.101874 -0.028538 -575025.000000 0 0 1
-20.646737 8.220665 -15.725037 27.223958 -0.378918 2.186603 0.114274 -0.028857 -841512.000000 0 0 1
-19.875237 8.420765 -16.863537 27.391846 -0.400753 2.233995 0.114679 -0.034546 398145.000000 0 0 1
-18.506437 8.566565 -16.456137 26.204555 -0.433527 2.249761 0.115003 -0.027048 615460.000000 0 0 1
-17.570337 9.223565 -17.542537 26.486440 -0.483409 2.294709 0.078985 -0.022121 247355.000000 0 0 1
-17.289137 8.470565 -18.717137 26.851368 -0.455564 2.342092 0.109592 -0.033493 -169068.000000 0 0 1
-16.316237 7.498265 -18.545737 25.814491 -0.430774 2.372330 0.101933 -0.028256 -965499.000000 0 0 1
-16.002937 6.746265 -19.890637 26.405370 -0.398957 2.423831 0.098029 -0.030854 -7142.520000 0 0 1
-16.965937 5.860265 -20.395037 27.168792 -0.332583 2.419885 0.099470 -0.029570 -318616.000000 0 0 1
-17.895637 6.439765 -21.282437 28.542364 -0.345424 2.412297 0.093371 -0.031772 140557.000000 0 0 1
-18.810137 5.341065 -21.939737 29.388779 -0.276664 2.413635 0.091120 -0.018020 159918.000000 0 0 1
-19.528037 4.577365 -20.991337 29.033304 -0.230243 2.378944 0.112807 -0.022087 117625.000000 0 0 1
-20.283437 3.589765 -21.679837 29.905176 -0.175166 2.381762 0.069714 -0.001916 -61968.900000 0 0 1
-21.229137 2.899665 -20.655637 29.761379 -0.135749 2.337884 0.081821 -0.005354 99405.500000 0 0 1
-21.836037 1.704065 -21.153037 30.449423 -0.077881 2.338791 0.082226 -0.000287 933653.000000 0 0 1
-22.691437 1.006265 -20.199337 30.396169 -0.044317 2.297669 0.077094 -0.007050 431575.000000 0 0 1
-23.217237 -0.356435 -20.747937 31.139108 0.015351 2.300030 0.080828 0.004672 45018.600000 0 0 1
-22.303137 -1.425735 -20.546837 30.358445 0.063838 2.314214 0.059364 -0.004323 120562.000000 0 0 1
-22.760837 -2.725835 -20.914637 31.030758 0.119192 2.310402 0.069027 -0.003154 -635756.000000 0 0 1
-23.228337 -2.913035 -22.354037 32.368880 0.124757 2.333118 0.069973 -0.005453 169635.000000 0 0 1
-22.264437 -2.792935 -23.395037 32.416561 0.124792 2.377052 0.038717 -0.005691 134.114000 0 0 1
-21.420137 -3.889635 -23.612137 32.116733 0.179630 2.396754 0.024012 -0.010149 -37365.200000 0 0 1
-20.527637 -3.735535 -24.865637 32.459791 0.180006 2.443461 0.022954 -0.010678 136156.000000 0 0 1
-21.288137 -3.647435 -26.041797 33.832880 0.169689 2.449197 0.026360 -0.016330 -136041.000000 0 0 1
-20.458737 -3.990735 -27.088977 34.180383 0.192644 2.485743 0.029710 -0.021575 -287283.000000 0 0 1
-21.154337 -4.020435 -28.478037 35.702500 0.187813 2.494182 0.037681 -0.021330 230422.000000 0 0 1
-22.135737 -5.058835 -28.531917 36.464407 0.224678 2.469402 0.046995 -0.023617 235044.000000 0 0 1
-22.758537 -5.159735 -29.786757 37.839461 0.222948 2.477032 0.022237 -0.024420 -627213.000000 0 0 1
-22.234337 -6.303435 -30.697797 38.424651 0.276251 2.496275 0.030168 -0.026215 -602199.000000 0 0 1
-20.925737 -6.104935 -31.126017 37.999811 0.283864 2.530654 0.027563 -0.023192 -766028.000000 0 0 1
-20.403937 -7.302535 -31.568827 38.291494 0.343694 2.539999 0.028751 -0.024008 99890.200000 0 0 1
-19.054237 -7.210635 -32.354197 38.234164 0.361772 2.579631 0.044690 -0.034282 -142016.000000 0 0 1
-19.013737 -6.472135 -33.581167 39.129343 0.328090 2.602567 0.049573 -0.042890 111421.000000 0 0 1
-19.492937 -7.246135 33.672222 39.576503 0.355902 0.553265 0.053164 -0.036677 -667592.000000 0 0 1
-19.210037 -6.782435 32.219116 38.119527 0.339405 0.563833 0.055672 -0.032843 26316.600000 0 0 1
-17.835437 -6.734335 31.861846 37.129924 0.361032 0.539204 0.058638 -0.034990 523711.000000 0 0 1
-17.234637 -5.465035 32.231146 36.956002 0.307066 0.511218 0.041408 -0.034624 771528.000000 0 0 1
-15.860237 -5.174235 31.509236 35.653215 0.315353 0.486938 0.037737 -0.028486 494651.000000 0 0 1
-16.095637 -4.874035 30.128146 34.504071 0.294039 0.509114 0.041170 -0.029338 240368.000000 0 0 1
-14.915737 -4.801435 29.371736 33.290116 0.311429 0.490078 0.024566 -0.019027 -153287.000000 0 0 1
-15.241837 -5.047935 27.873326 32.167025 0.319820 0.522612 0.043292 -0.023956 470225.000000 0 0 1
-16.129537 -4.024635 27.398136 32.047113 0.244526 0.545375 0.031877 -0.017177 265836.000000 0 0 1
-16.693637 -4.114235 26.115626 31.267081 0.241640 0.582221 0.041456 -0.018380 -425096.000000 0 0 1
-15.765437 -3.729935 24.945476 29.744549 0.232318 0.575983 0.039124 -0.007221 37629.900000 0 0 1
-15.506137 -2.325435 25.055776 29.557399 0.148859 0.559164 0.037670 -0.002919 17933.800000 0 0 1
-14.448437 -1.868035 24.232036 28.274342 0.128576 0.541313 0.035720 -0.004366 81007.600000 0 0 1
-14.360237 -0.369535 24.334686 28.258271 0.025728 0.533264 0.032486 -0.002330 -129493.000000 0 0 1
-15.437937 0.310065 23.738186 28.318324 -0.020082 0.576708 0.029171 -0.007858 -75654.200000 0 0 1
-15.432237 1.670665 24.052776 28.626580 -0.107838 0.573098 0.016754 -0.002136 -252814.000000 0 0 1
-16.374537 2.572865 23.253956 28.556813 -0.155852 0.619266 0.018846 -0.001222 -362584.000000 0 0 1
-15.735437 3.085165 22.112366 27.314446 -0.193609 0.627414 0.025638 -0.000963 434581.000000 0 0 1
-16.482937 4.080765 21.420666 27.334681 -0.242695 0.670286 0.020250 -0.006309 -672601.000000 0 0 1
-15.614937 4.753665 20.383566 26.113470 -0.295517 0.675208 0.009152 -0.002669 127263.000000 0 0 1
-14.608337 5.548265 21.038766 26.207183 -0.362973 0.638843 0.018276 -0.001698 493898.000000 0 0 1
-13.362337 5.373765 20.371966 24.948875 -0.382365 0.615390 0.011690 -0.005195 917181.000000 0 1 0
-12.298637 6.474665 20.844666 25.053500 -0.484586 0.588082 0.000403 0.002788 521032.000000 0 0 1
-12.629537 7.826165 20.605966 25.403935 -0.554758 0.624710 0.006876 -0.001983 63122.000000 0 0 1
-11.548737 8.637265 20.179566 24.803035 -0.642154 0.620492 0.011489 -0.004014 50995.900000 0 1 0
-11.945037 10.094265 20.302166 25.627252 -0.701619 0.656374 0.003009 0.000573 -188756.000000 0 0 1
-12.662637 10.550665 19.195766 25.300916 -0.694667 0.709483 0.012800 0.003705 168421.000000 0 0 1
-13.091337 11.916365 19.431166 26.285986 -0.738448 0.738883 0.000906 0.008951 -323289.000000 0 0 1
-13.578637 12.681365 18.175466 25.991229 -0.751243 0.796389 0.009854 0.004782 -284147.000000 0 0 1
-12.617837 13.409165 17.448166 25.366395 -0.815793 0.812279 0.009542 0.005496 11440.400000 0 0 1
-12.297837 14.763065 17.848366 26.224970 -0.876247 0.822233 0.023002 -0.000040 -9558.010000 0 0 1
-13.272637 15.925865 17.417666 27.077134 -0.876018 0.872046 0.023433 0.000342 201151.000000 0 0 1
-13.397237 16.408365 16.067566 26.587348 -0.886082 0.921870 0.032496 -0.011471 -118074.000000 0 0 1
-14.047437 15.512265 15.190266 25.859332 -0.834913 0.942930 0.059377 -0.010825 -386060.000000 0 0 1
-14.427537 16.209465 13.898866 25.769731 -0.843495 1.001133 0.050938 -0.013585 921926.000000 0 0 1
-15.746737 16.787365 13.956666 26.917724 -0.817373 1.025708 0.036736 -0.016628 643219.000000 0 0 1
-16.098437 17.537565 12.800866 27.029392 -0.828157 1.077433 0.044010 -0.016250 -473887.000000 0 0 1
-17.275537 18.471365 12.951266 28.414271 -0.818838 1.097524 0.040548 -0.014616 269045.000000 0 0 1
-18.536037 17.767565 13.058566 28.806201 -0.764233 1.100304 0.048692 -0.017298 331970.000000 0 0 1
-19.595337 18.685965 13.102366 30.080135 -0.761648 1.120112 0.045684 -0.019576 -91715.700000 0 0 1
-20.963337 18.008665 13.298866 30.669747 -0.709728 1.122296 0.052494 -0.015345 205672.000000 0 0 1
-21.427737 17.143065 12.230666 30.043665 -0.674766 1.151524 0.059877 -0.019471 -256684.000000 0 0 1
-22.776537 16.825565 12.460666 30.937655 -0.636245 1.156258 0.049088 -0.014577 -75388.900000 0 0 1
-23.436837 16.176865 11.210666 30.604825 -0.604140 1.195763 0.052752 -0.017454 -444920.000000 0 0 1
-22.808437 14.967065 10.883966 29.371731 -0.580727 1.191185 0.044669 -0.015876 -78623.600000 0 0 1
-23.364037 14.369765 9.781566 29.121254 -0.551403 1.228245 0.043482 -0.015982 145429.000000 0 0 1
-22.449637 13.199165 9.244266 27.634410 -0.531509 1.229700 0.066823 -0.019589 -262616.000000 0 0 1
-22.278837 11.991465 10.070166 27.231417 -0.493773 1.192003 0.056968 -0.026399 112965.000000 0 0 1
-23.404437 11.155765 10.249466 27.879568 -0.444795 1.194333 0.080419 -0.017145 14861.600000 0 0 1
-24.017137 10.496865 8.979066 27.706149 -0.412039 1.240755 0.083661 -0.011263 -82169.900000 0 0 1
-24.359937 11.363065 7.937866 28.027406 -0.436462 1.283649 0.077118 -0.009998 552233.000000 0 0 1
-25.712787 11.297065 7.459966 29.058943 -0.413967 1.311171 0.112208 -0.009472 458316.000000 0 0 1
-26.195957 12.558965 6.693066 29.811959 -0.447052 1.344357 0.096244 0.008167 -42972.600000 0 0 1
-25.380177 12.875465 5.582666 29.001675 -0.469474 1.377093 0.087520 -0.002311 581807.000000 0 0 1
-24.100037 13.443365 5.792066 28.197232 -0.508824 1.363911 0.084464 -0.009073 -220027.000000 0 0 1
-24.138137 14.980265 5.920766 29.019192 -0.555433 1.365324 0.063753 -0.010062 518738.000000 0 0 1
-22.840937 15.557765 6.218866 28.327138 -0.597952 1.349456 0.044232 -0.013572 1287250.000000 0 0 1
-22.905937 16.939565 6.674566 29.260565 -0.636765 1.340662 0.040243 -0.015231 -903889.000000 0 0 1
-21.586237 17.660265 6.557166 28.650428 -0.685696 1.339882 0.042873 -0.015831 -709779.000000 0 0 1
-21.103837 17.809565 5.250366 28.109054 -0.700943 1.382907 0.046035 -0.026818 -741706.000000 0 0 1
-19.721937 17.891165 5.250266 27.140632 -0.736763 1.376122 0.060094 -0.031129 -1033640.000000 0 0 1
-19.148237 18.739265 4.116066 27.106402 -0.774604 1.418358 0.058442 -0.029451 -322791.000000 0 0 1
-17.783937 19.036965 4.311066 26.405677 -0.819415 1.406799 0.055193 -0.034614 14687.200000 0 0 1
-17.250837 19.971665 3.410166 26.609924 -0.858365 1.442289 0.062943 -0.033135 3371.220000 0 0 1
-17.438637 21.519565 3.621566 27.934092 -0.889769 1.440784 0.063696 -0.034057 -330421.000000 0 0 1
-16.676537 21.960265 4.705966 27.973313 -0.921309 1.401762 0.059781 -0.031507 -83581.200000 0 0 1
-16.636837 23.338465 4.948766 29.085367 -0.951498 1.399818 0.043016 -0.036668 -276285.000000 0 0 1
-15.842837 23.630265 6.241366 29.126270 -0.980181 1.354835 0.039560 -0.019377 -255998.000000 0 0 1
-16.452037 23.092765 7.409466 29.306066 -0.951775 1.315192 0.039272 -0.016926 418966.000000 0 0 1
-15.736337 23.360965 8.641666 29.462610 -0.977998 1.273109 0.029542 -0.020453 50411.000000 0 0 1
-16.299937 22.547365 9.794366 29.495783 -0.944853 1.232310 0.017496 -0.015566 -128516.000000 0 0 1
-17.443637 23.191865 10.291066 30.790406 -0.925924 1.230009 0.017977 -0.011703 -362948.000000 0 0 1
-18.299337 22.305065 10.983066 30.870851 -0.883733 1.207054 0.027243 -0.015691 287775.000000 0 0 1
-19.470137 23.077365 11.665466 32.368721 -0.869977 1.202107 0.040325 -0.015510 805177.000000 0 0 1
-20.486937 23.668865 10.813566 33.118922 -0.857335 1.238190 0.059820 -0.011945 748624.000000 0 0 1
-20.125137 24.886565 10.197166 33.590839 -0.890788 1.262359 0.031336 -0.016429 184547.000000 0 0 1
-21.369637 25.658065 9.596966 34.743337 -0.876336 1.290933 0.052090 -0.016654 523295.000000 0 0 1
-22.175337 26.123965 10.647766 35.882894 -0.866970 1.269523 0.077557 -0.024675 -217946.000000 0 0 1
-22.914937 27.221865 10.209266 37.018285 -0.871091 1.291385 0.073372 -0.022735 -521598.000000 0 0 1
-23.641137 27.950965 11.345766 38.326052 -0.868741 1.270260 0.072854 -0.030158 -153266.000000 0 0 1
-22.813937 28.605165 12.290566 38.597788 -0.897553 1.246727 0.092701 -0.027589 379135.000000 0 0 1
-23.620037 29.510665 12.973666 39.963753 -0.895818 1.240170 0.086588 -0.027032 -303390.000000 0 0 1
9.346363 -32.790439 28.040666 44.145740 -1.293126 0.882550 0.054562 -0.034107 176763.000000 0 0 1
10.739363 -32.891439 27.779476 44.372063 -1.255200 0.894309 0.026643 -0.042129 550631.000000 0 0 1
10.935063 -32.773739 26.380006 43.469510 -1.248758 0.918689 0.043961 -0.034787 -56591.300000 0 0 1
12.402863 -32.935239 25.942276 43.721421 -1.210638 0.935577 0.001849 -0.022917 -159855.000000 0 0 1
12.955263 34.076365 25.899286 44.719241 1.207489 0.953107 0.008913 -0.039790 561714.000000 0 0 1
14.383163 34.088565 25.845506 45.131982 1.171525 0.961043 0.028190 -0.030995 -55648.500000 0 0 1
14.974363 32.812865 25.276506 44.043358 1.142669 0.959535 0.054058 -0.020047 -491126.000000 0 0 1
14.820563 32.696465 23.865096 43.107432 1.145220 0.984093 0.027076 -0.034798 233101.000000 0 0 1
15.680063 31.692665 23.371906 42.385556 1.111355 0.986740 0.031883 -0.027205 -151667.000000 0 0 1
15.344863 31.190165 21.943366 41.107208 1.113587 1.007699 0.029619 -0.040232 -512171.000000 0 0 1
14.450263 30.135265 21.880166 39.946038 1.123672 0.991132 0.021124 -0.018512 -558054.000000 0 0 1
14.951263 28.847965 22.139766 39.318120 1.092634 0.972672 0.027880 -0.018191 -250699.000000 0 0 1
14.573463 28.341965 23.534686 39.617348 1.095853 0.934712 0.028255 -0.022383 -64741.300000 0 0 1
15.248663 28.970865 24.646156 40.978845 1.086296 0.925499 0.040102 -0.020787 307323.000000 0 0 1
14.835463 28.390065 25.880796 41.181335 1.089265 0.891225 0.030490 -0.014364 62303.400000 0 0 1
15.647563 28.885465 27.160126 42.624978 1.074340 0.879952 0.048396 -0.017271 308129.000000 0 0 1
15.271463 30.171665 27.590736 43.643965 1.102239 0.886436 0.044678 -0.023320 110376.000000 0 0 1
15.752463 30.487365 28.874906 44.848408 1.093887 0.871299 0.083252 -0.027299 -130210.000000 0 0 1
15.749663 31.990365 29.233706 46.109054 1.113307 0.884066 0.097758 -0.029697 247624.000000 0 0 1
16.523463 32.832265 28.352296 46.420202 1.104537 0.913757 0.088643 -0.030356 355879.000000 0 0 1
16.425363 -34.101539 28.795806 47.559499 -1.121928 0.920441 0.077107 -0.021895 370145.000000 0 0 1
17.374863 -33.153439 27.970076 46.726454 -1.088075 0.929054 0.069248 -0.028438 -43765.700000 0 0 1
16.805663 -32.807939 26.714846 45.524435 -1.097402 0.943665 0.081293 -0.024694 342560.000000 0 0 1
17.512063 -31.652639 26.147576 44.634713 -1.065456 0.944914 0.077076 -0.032533 502184.000000 0 0 1
19.036263 -31.378339 26.047196 45.004843 -1.025488 0.953584 0.096681 -0.027275 496347.000000 0 0 1
19.732463 -31.118339 27.300066 45.858638 -1.005673 0.933146 0.081655 -0.030467 687027.000000 0 0 1
20.812963 -30.209839 27.036536 45.571790 -0.967527 0.935677 0.097138 -0.028384 493601.000000 0 0 1
21.228763 -29.379539 28.278986 45.973022 -0.945083 0.908257 0.112475 -0.027694 -379833.000000 0 0 1
20.086963 -28.698939 28.712166 45.293528 -0.960124 0.884194 0.113093 -0.027988 -224381.000000 0 0 1
20.289563 -27.778239 29.750576 45.479596 -0.939950 0.857735 0.129450 -0.022881 -287123.000000 0 0 1
18.999163 -27.255639 30.386626 45.024272 -0.962038 0.829975 0.111434 -0.025564 131095.000000 0 0 1
18.171063 -26.422639 29.548226 43.605516 -0.968368 0.826267 0.127894 -0.022768 -287153.000000 0 0 1
16.908663 -26.248839 30.095046 43.366072 -0.998532 0.803799 0.113590 -0.019963 -902327.000000 0 0 1
15.963563 -25.633539 29.060106 41.909467 -1.013809 0.804597 0.092764 -0.009546 -789489.000000 0 0 1
15.519463 -26.545139 28.015966 41.597986 -1.041744 0.831872 0.086118 -0.014098 662601.000000 0 0 1
14.703663 -25.905439 27.005986 40.207123 -1.054549 0.834333 0.082597 -0.031614 430526.000000 0 0 1
13.222563 -25.626939 27.413336 39.787776 -1.094460 0.810703 0.039921 -0.011902 -114233.000000 0 0 1
12.350963 -26.715739 27.568776 40.327588 -1.137752 0.818084 0.031846 -0.011386 158890.000000 0 0 1
11.859563 -27.173939 26.330016 39.652767 -1.159283 0.844621 0.026682 -0.011161 -526893.000000 0 0 1
10.902563 -28.412339 26.356586 40.259117 -1.204397 0.857045 0.043888 -0.017202 -352672.000000 0 0 1
9.596563 -28.122639 26.762506 39.990106 -1.241947 0.837627 0.031338 -0.026083 -601862.000000 0 0 1
8.915463 -29.354539 26.962956 40.843303 -1.275933 0.849770 0.030031 -0.032280 851548.000000 0 0 1
7.396563 -29.050339 27.286046 40.535905 -1.321482 0.832359 0.017885 -0.018790 1007890.000000 0 0 1
6.471063 -28.733839 26.232926 39.442040 -1.349285 0.843168 0.035927 -0.028589 346653.000000 0 0 1
6.698563 -27.599039 25.403906 38.104280 -1.332691 0.841032 0.047780 -0.030990 -375013.000000 0 0 1
5.495763 -27.304239 24.455076 37.064479 -1.372172 0.850246 0.066255 -0.034603 -477243.000000 0 0 1
5.326663 -28.116039 23.245866 36.868079 -1.383563 0.888580 0.053964 -0.023217 -52920.100000 0 0 1
4.508563 -29.237339 23.504846 37.783950 -1.417796 0.899393 0.060520 -0.023863 -555305.000000 0 0 1
3.023663 -28.969739 23.767556 37.593683 -1.466800 0.886379 0.058095 -0.026237 -1302530.000000 0 0 1
2.417563 -28.546439 22.504666 36.430808 -1.486309 0.904934 0.062768 -0.021972 850994.000000 0 0 1
1.119063 -27.939639 22.616866 35.963848 -1.530765 0.890687 0.065383 -0.013976 624835.000000 0 0 1
1.045063 -26.507639 23.214366 35.251296 -1.531392 0.851920 0.074941 -0.017355 -286908.000000 0 0 1
1.472063 -26.472939 24.568266 36.146689 -1.515247 0.823467 0.066429 -0.021760 22101.200000 0 0 1
1.350963 -25.145239 25.117466 35.566771 -1.517122 0.786671 0.083463 -0.018104 213429.000000 0 0 1
2.560363 -24.710839 25.993336 35.956008 -1.467552 0.762776 0.079061 -0.012924 148775.000000 0 0 1
3.771163 -24.483939 25.310766 35.416378 -1.417971 0.774655 0.084626 -0.020304 1197180.000000 0 0 1
4.910363 -23.982739 26.086166 35.773894 -1.368842 0.753651 0.072277 -0.013826 1433550.000000 0 0 1
4.881163 -22.488539 26.351716 34.985326 -1.357060 0.717850 0.087466 -0.013224 -506594.000000 0 0 1
5.003663 -21.685839 25.214566 33.631631 -1.344031 0.723146 0.088799 -0.020066 -102028.000000 0 0 1
4.212263 -20.535239 25.288256 32.847147 -1.368479 0.692148 0.094572 -0.025832 -196432.000000 0 0 1
4.257763 -19.652339 24.037676 31.339318 -1.357440 0.696623 0.101354 -0.032869 301867.000000 0 0 1
5.521263 -19.015339 23.882456 31.023203 -1.288208 0.692228 0.087002 -0.023026 81950.400000 0 0 1
5.562463 -18.093539 22.775466 29.614844 -1.272539 0.693434 0.080410 -0.019639 -321919.000000 0 0 1
6.956063 -17.514339 22.586966 29.416150 -1.192737 0.695330 0.068179 -0.018131 -1064140.000000 0 0 1
7.933463 -18.428239 22.159466 29.892838 -1.164272 0.735796 0.058583 -0.016828 -239424.000000 0 0 1
9.012063 -17.586639 21.751066 29.387344 -1.097248 0.737502 0.032977 -0.015695 586595.000000 0 0 1
10.298363 -17.647439 22.652566 30.506182 -1.042552 0.733917 0.024599 -0.012311 277034.000000 0 0 1
10.042863 -17.036439 23.923536 31.039248 -1.038138 0.690777 0.043099 -0.011421 617886.000000 0 0 1
11.175763 -17.258439 24.777686 32.197595 -0.996143 0.692659 0.044764 -0.009810 533733.000000 0 0 1
11.103663 -16.493239 26.026016 32.751668 -0.978267 0.652370 0.057113 -0.018213 -15018.100000 0 0 1
11.381663 -15.084239 25.810426 31.988351 -0.924396 0.631963 0.079462 -0.027040 48246.200000 0 0 1
10.945263 -14.310739 26.891766 32.369169 -0.917872 0.590283 0.076898 -0.023636 -153077.000000 0 0 1
11.179563 -12.832339 26.809996 31.755746 -0.854121 0.565620 0.094322 -0.018782 -65838.600000 0 0 1
10.290863 -12.178139 25.921346 30.432303 -0.869196 0.551440 0.094822 -0.016949 113639.000000 0 0 1
10.452263 -10.755839 25.849566 29.885413 -0.799711 0.525734 0.103201 -0.005471 -349518.000000 0 0 1
9.387563 -10.090039 24.975326 28.525464 -0.821448 0.504234 0.098043 -0.004319 -541260.000000 0 0 1
8.141063 -10.029439 25.600416 28.674864 -0.888952 0.467312 0.065887 -0.000989 -816815.000000 0 0 1
7.185163 -9.479139 24.745146 27.455471 -0.922196 0.448075 0.058740 0.007218 845455.000000 0 0 1
5.707063 -9.486839 25.314086 27.629217 -1.029218 0.412286 0.038975 0.002683 422092.000000 0 0 1
5.387863 -8.412739 26.155966 27.998889 -1.001170 0.364846 0.038276 0.001897 786539.000000 0 0 1
4.030163 -8.355339 26.607736 28.178458 -1.121372 0.335463 0.035264 0.001230 1848120.000000 0 0 1
2.811263 -8.236039 25.591956 27.031162 -1.241860 0.327786 0.031158 0.005920 375558.000000 0 0 1
2.728263 -7.040939 24.854746 25.976463 -1.201125 0.294946 0.033771 0.001775 505327.000000 0 0 1
1.653063 -7.041639 23.885936 24.957067 -1.340216 0.294039 0.047592 -0.015144 738042.000000 0 1 0
1.703163 -5.710839 23.117066 23.872854 -1.280961 0.252299 0.033949 -0.021254 85822.600000 0 1 0
1.231463 -4.571739 23.832596 24.298352 -1.307677 0.196111 0.031457 -0.013974 -165169.000000 0 1 0
1.695463 -3.384839 23.299146 23.604701 -1.106430 0.161076 0.037177 -0.020713 -477838.000000 0 1 0
0.802763 -2.698439 22.169366 22.347411 -1.281642 0.126315 0.022510 -0.023743 708657.000000 0 1 0
-0.338037 -1.976439 22.567766 22.656668 1.401402 0.088617 0.026118 -0.027556 302263.000000 0 1 0
-1.388537 -2.658439 23.243966 23.436665 1.089458 0.128323 0.039638 -0.019761 -358735.000000 0 1 0
-2.387537 -1.757439 23.942086 24.124933 0.634538 0.123197 0.043593 -0.022580 -23576.400000 0 1 0
-1.696737 -1.021439 24.964216 25.042650 0.541890 0.079166 0.055426 -0.026622 758583.000000 0 0 1
-2.431637 0.149561 25.368366 25.485078 -0.061429 0.095741 0.051454 -0.023944 -73719.400000 0 0 1
-1.685037 0.887561 26.507516 26.575844 -0.484803 0.071724 0.083261 -0.033807 129537.000000 0 0 1
-1.543337 0.191561 27.763116 27.806639 -0.123490 0.055958 0.078733 -0.028706 -187329.000000 0 0 1
-0.554237 -0.790439 27.898646 27.915343 0.959281 0.034590 0.089433 -0.032798 80129.200000 0 0 1
0.675263 -0.358439 28.811236 28.821377 -0.487994 0.026529 0.086196 -0.033344 396267.000000 0 0 1
1.693963 0.472561 28.253126 28.307807 0.272051 0.062166 0.085473 -0.027286 295479.000000 0 0 1
2.573563 -0.172439 27.362006 27.483310 -0.066904 0.093989 0.075488 -0.026664 -51096.400000 0 0 1
3.511863 -1.305439 27.839946 28.090922 -0.355894 0.133774 0.066148 -0.029302 -303732.000000 0 0 1
2.738963 -2.493439 28.133536 28.376310 -0.738509 0.130903 0.064082 -0.025034 324617.000000 0 0 1
3.518863 -3.663439 28.352406 28.803855 -0.805525 0.177281 0.057209 -0.015975 -40929.300000 0 0 1
4.057263 -4.304139 27.081386 27.719820 -0.814915 0.215038 0.051504 -0.012830 80614.200000 0 0 1
5.115663 -3.602439 26.452606 27.182493 -0.613538 0.232260 0.052221 -0.009776 25417.400000 0 0 1
5.639063 -4.317839 25.337396 26.313996 -0.653475 0.273295 0.045358 -0.001949 -152821.000000 0 0 1
6.828663 -3.652139 24.563506 25.755282 -0.491118 0.305400 0.051414 -0.001743 994273.000000 0 0 1
8.058963 -3.619639 25.319216 26.816252 -0.422142 0.335717 0.052791 -0.000499 981995.000000 0 0 1
8.767563 -4.863239 25.536166 27.433866 -0.506433 0.374129 0.058244 -0.001771 237501.000000 0 0 1
9.676063 -5.357839 24.329426 26.725523 -0.505696 0.426681 0.052873 -0.002907 330898.000000 0 0 1
8.893863 -5.693339 23.158166 25.452221 -0.569414 0.427830 0.053521 -0.000190 70621.700000 0 0 1
9.547163 -5.428139 21.978166 24.569346 -0.516981 0.463404 0.062873 0.000675 -257961.000000 0 1 0
9.342163 -3.942539 21.566366 23.831235 -0.399340 0.439506 0.057239 -0.004428 947373.000000 0 1 0
8.018463 -3.681039 21.064066 22.837265 -0.430371 0.396664 0.053183 -0.018753 419751.000000 0 1 0
7.942763 -2.524439 20.193066 21.845370 -0.307732 0.391432 0.037506 -0.025653 -668308.000000 0 1 0
6.581563 -1.894439 19.992066 21.132642 -0.280264 0.330045 0.041444 -0.026304 -616952.000000 0 1 0
5.997563 -1.485439 21.232366 22.113133 -0.242788 0.283187 0.044966 -0.024224 924608.000000 0 1 0
4.681063 -0.912439 21.092866 21.625306 -0.192508 0.222364 0.032949 -0.017755 810480.000000 0 1 0
4.109263 -0.460439 22.441666 22.819430 -0.111584 0.182211 0.027614 -0.025680 650024.000000 0 1 0
2.890563 0.313561 22.346466 22.534822 0.108055 0.129384 0.030277 -0.023645 634868.000000 0 1 0
2.403663 0.597561 23.673166 23.802383 0.243665 0.104247 0.043296 -0.022911 -858331.000000 0 1 0
0.975863 1.071561 23.635816 23.680210 0.832105 0.061242 0.052961 -0.025523 -989181.000000 0 1 0
0.968763 2.412561 23.299716 23.444311 1.188955 0.111121 0.054230 -0.016469 -691117.000000 0 1 0
-0.348837 2.828561 23.300386 23.474037 -1.448089 0.121711 0.039804 -0.011423 -741818.000000 0 1 0
-0.752337 4.184561 22.638166 23.033955 -1.392908 0.185647 0.042380 -0.013626 -130736.000000 0 1 0
-0.598437 5.300561 23.545296 24.141976 -1.458372 0.222791 0.055170 -0.014508 -393512.000000 0 1 0
-1.404937 6.323561 23.063466 23.955891 -1.352172 0.273812 0.053088 -0.016804 -141116.000000 0 1 0
-1.358237 7.717561 23.820016 25.075859 -1.396587 0.317822 0.064391 -0.018904 -234253.000000 0 0 1
-0.304037 8.571561 23.512676 25.028184 -1.535341 0.349781 0.052863 -0.012863 -597868.000000 0 0 1
-0.265137 9.762561 24.292216 26.181857 -1.543644 0.382254 0.074255 -0.015797 -453740.000000 0 0 1
0.716463 10.810561 23.694036 26.053577 1.504619 0.428873 0.083490 -0.022427 1088180.000000 0 0 1
2.101663 10.455561 23.847566 26.123593 1.372431 0.420525 0.069599 -0.014191 218271.000000 0 0 1
2.636063 10.847561 25.101536 27.471904 1.332407 0.418458 0.085389 -0.022950 -851539.000000 0 0 1
3.882963 11.720561 24.943776 27.832371 1.250881 0.459635 0.074357 -0.020850 -336952.000000 0 0 1
5.061163 11.178561 24.415366 27.325550 1.145653 0.465718 0.057449 -0.020369 -212811.000000 0 0 1
5.026363 10.830561 23.055866 25.964174 1.136287 0.477846 0.058581 -0.019329 -1352400.000000 0 0 1
6.298463 10.210561 22.495566 25.494640 1.018074 0.489933 0.056079 -0.022538 -215555.000000 0 0 1
7.330363 11.155561 22.246466 25.943901 0.989443 0.540438 0.050989 -0.019986 229383.000000 0 0 1
8.422463 10.480561 21.615366 25.455924 0.893848 0.556462 0.050179 -0.026214 206648.000000 0 0 1
9.352263 11.498561 20.932266 25.648420 0.887973 0.616126 0.038792 -0.024874 -457997.000000 0 0 1
8.733163 12.100561 19.769066 24.769087 0.945644 0.646604 0.046136 -0.020858 238433.000000 0 1 0
9.418163 13.201561 19.149966 25.093907 0.951125 0.702650 0.064003 -0.024443 219515.000000 0 0 1
10.777763 12.855561 18.483466 24.961252 0.873091 0.737003 0.036849 -0.027671 218185.000000 0 1 0
11.852263 12.713561 19.392666 26.042009 0.820445 0.730758 0.041933 -0.028910 5360.510000 0 0 1
13.029463 12.323561 18.702866 25.912048 0.757562 0.764422 0.039761 -0.032900 275502.000000 0 0 1
14.279663 12.300561 19.604566 27.194697 0.711078 0.765701 0.041417 -0.022195 21551.900000 0 0 1
14.842363 13.521561 20.070866 28.389575 0.738866 0.785577 0.036809 -0.024120 360659.000000 0 0 1
15.967163 13.232561 20.912066 29.451069 0.692019 0.781211 0.028874 -0.014570 689279.000000 0 0 1
16.797063 14.490561 21.290766 30.747591 0.711812 0.805935 0.027680 -0.003377 -181922.000000 0 0 1
16.291963 15.216561 22.376366 31.585970 0.751281 0.783529 0.027108 -0.002998 -374336.000000 0 0 1
17.164863 16.210561 22.729166 32.772393 0.756813 0.804397 0.012239 0.004962 -872810.000000 0 0 1
-21.335537 13.250165 -24.338237 34.973159 -0.555745 2.340485 0.040067 0.009801 2234.080000 0 0 1
-21.442837 12.749265 -25.667027 35.792951 -0.536417 2.370425 0.043230 -0.009348 123173.000000 0 0 1
-22.042937 13.732565 -26.510037 37.111407 -0.557154 2.366472 0.035267 -0.013072 -11231.100000 0 0 1
-21.729037 13.391765 -27.985027 37.876803 -0.552324 2.402149 0.028840 -0.004332 -219946.000000 0 0 1
-20.420137 13.738065 -28.340627 37.535418 -0.592216 2.426507 0.044620 -0.009390 -447556.000000 0 0 1
-20.312737 13.980465 -29.759767 38.648473 -0.602804 2.449655 0.036979 -0.011498 341596.000000 0 0 1
-18.902737 14.485865 -30.200607 38.460765 -0.653875 2.473866 0.038611 -0.017985 431267.000000 0 0 1
-17.964637 13.402365 -30.218797 37.623494 -0.640963 2.503426 0.038555 -0.028252 93571.100000 0 0 1
-16.638237 13.895265 -30.347417 37.294438 -0.695804 2.521329 0.053062 -0.012665 380921.000000 0 0 1
-15.747237 13.736265 -29.097927 35.823872 -0.717297 2.518795 0.084018 -0.014956 -253137.000000 0 0 1
-16.192437 14.289265 -27.842187 35.235856 -0.723043 2.481877 0.086554 -0.012122 -15916.000000 0 0 1
-17.012837 13.363665 -27.112517 34.685916 -0.665840 2.468116 0.081747 -0.006054 382829.000000 0 0 1
-17.679937 13.944865 -25.823087 34.261805 -0.667837 2.424469 0.078046 -0.004218 19653.000000 0 0 1
-16.734037 14.323365 -24.846937 33.204775 -0.707934 2.416283 0.129779 -0.019602 12845.300000 0 0 1
-17.348837 14.829865 -23.684137 32.891419 -0.707277 2.374700 0.110092 -0.023233 -297408.000000 0 0 1
-16.323237 15.394265 -22.714837 31.927971 -0.756118 2.362342 0.107909 -0.018258 -56541.800000 0 0 1
-15.826937 16.663565 -23.150237 32.620543 -0.811142 2.359844 0.103575 -0.028042 315865.000000 0 0 1
-14.908837 17.264965 -22.213137 31.839848 -0.858499 2.342911 0.093609 -0.027125 1294.570000 0 0 1
-14.866137 18.772365 -22.547837 32.890860 -0.901004 2.326135 0.086225 -0.025394 1120880.000000 0 0 1
-16.038137 19.617665 -22.308137 33.759852 -0.885454 2.292666 0.077928 -0.026460 1888350.000000 0 0 1
-17.129637 19.344865 -23.229437 34.745576 -0.846057 2.303065 0.061172 -0.022052 705074.000000 0 0 1
-18.400137 20.217065 -23.024937 35.741328 -0.832413 2.270787 0.044549 -0.018247 257424.000000 0 0 1
-18.219437 21.579165 -23.356837 36.649012 -0.869617 2.261801 0.038830 -0.017747 218202.000000 0 0 1
-19.465637 22.248765 -23.312837 37.648466 -0.852018 2.238551 0.049438 -0.029060 301396.000000 0 0 1
-19.171937 23.703065 -23.729037 38.632444 -0.890690 2.232201 0.040303 -0.033582 79632.400000 0 0 1
-18.524337 24.308965 -22.638337 38.033816 -0.919636 2.208331 0.036755 -0.027910 -267792.000000 0 0 1
-17.702837 25.377065 -23.061337 38.590299 -0.961688 2.211294 0.034296 -0.014435 11169.700000 0 0 1
-16.453537 25.637165 -22.134037 37.654996 -1.000218 2.199147 0.036448 -0.023538 876217.000000 0 0 1
-15.383237 24.668565 -22.184637 36.569663 -1.013207 2.222624 0.047395 -0.034847 381872.000000 0 0 1
-15.766837 23.351965 -21.912737 35.694194 -0.976921 2.231791 0.059787 -0.021446 -1147710.000000 0 0 1
-14.586937 22.352365 -21.724737 34.414694 -0.992602 2.253977 0.074610 -0.023950 235460.000000 0 0 1
-13.803337 22.625665 -20.603137 33.569959 -1.023002 2.231582 0.082643 -0.028157 -529924.000000 0 0 1
-12.849137 21.663665 -20.296537 32.347552 -1.035452 2.249073 0.071450 -0.029664 -66896.700000 0 0 1
-12.144037 22.064865 -18.920837 31.501333 -1.067662 2.215093 0.058224 -0.028809 304498.000000 0 0 1
-12.902637 21.857065 -17.738337 30.965432 -1.037526 2.180767 0.067853 -0.022535 196466.000000 0 0 1
-13.713137 22.941665 -17.288437 31.831748 -1.032041 2.144944 0.069177 -0.031333 418581.000000 0 0 1
-14.357437 22.754265 -15.873237 31.238634 -1.007910 2.103807 0.081779 -0.027229 315635.000000 0 0 1
-13.510037 23.133365 -14.830037 30.620315 -1.042220 2.076382 0.079233 -0.036508 -435941.000000 0 0 1
-14.302637 23.333965 -13.726837 30.618057 -1.020907 2.035687 0.092739 -0.037035 -28237.500000 0 0 1
-13.555337 23.851165 -12.434437 30.120433 -1.053989 1.996349 0.111281 -0.044195 53741.100000 0 0 1
-13.067737 25.176765 -12.616437 31.045286 -1.092033 1.989294 0.105155 -0.048452 28980.200000 0 0 1
-12.188837 25.407665 -11.554937 30.457081 -1.123495 1.959927 0.078978 -0.041273 -275350.000000 0 0 1
-11.510937 26.832465 -11.555537 31.400849 -1.165549 1.947654 0.098442 -0.043571 -174585.000000 0 0 1
-10.690237 27.004365 -12.646737 31.677388 -1.193855 1.981479 0.094119 -0.046529 -302764.000000 0 0 1
-10.680037 28.364865 -12.918537 32.947191 -1.210691 1.973708 0.082210 -0.031282 -1088050.000000 0 0 1
-10.095137 28.718265 -14.334737 33.647218 -1.232765 2.010897 0.115030 -0.052573 -216759.000000 0 0 1
-8.719037 28.830765 -14.566737 33.457801 -1.277120 2.021253 0.091159 -0.048670 -482194.000000 0 0 1
-8.040937 27.622965 -14.209037 32.087094 -1.287528 2.029546 0.090363 -0.047357 -1266960.000000 0 0 1
-6.657537 27.477165 -14.847837 31.933927 -1.333084 2.054380 0.094127 -0.049066 226130.000000 0 0 1
-5.686837 28.373165 -14.324637 32.288881 -1.372987 2.030452 0.082001 -0.051622 222295.000000 0 0 1
-4.404837 28.166865 -14.933737 32.183713 -1.415669 2.053319 0.090289 -0.056372 1246920.000000 0 0 1
-3.251637 29.071965 -14.385237 32.598886 -1.459411 2.027821 0.066315 -0.045735 255597.000000 0 0 1
-3.437737 30.504365 -14.557237 33.974218 -1.458573 2.013605 0.051790 -0.035195 269373.000000 0 0 1
-4.495037 31.075765 -13.775237 34.287982 -1.427145 1.984225 0.038813 -0.028409 225697.000000 0 0 1
-4.541937 32.611365 -13.874537 35.730003 -1.432412 1.969600 0.034659 -0.035712 -30548.800000 0 0 1
-3.415337 33.349065 -13.434637 36.115290 -1.468740 1.951952 0.017185 -0.033940 -65950.100000 0 0 1
-3.535537 -33.529939 -13.741337 36.408532 1.465740 1.957806 0.010415 -0.030265 512539.000000 0 0 1
-2.621537 -32.650939 -12.828637 35.178548 1.490678 1.944077 0.012827 -0.027576 -448794.000000 0 0 1
-3.198337 -32.367639 -11.628137 34.541381 1.472303 1.914147 0.018657 -0.022843 -293515.000000 0 0 1
-2.227537 -31.945139 -10.701237 33.763446 1.501179 1.893306 0.002435 -0.022525 -82396.600000 0 0 1
-2.754937 -31.834139 -9.256337 33.266828 1.484471 1.852763 0.001779 -0.024302 171962.000000 0 0 1
-1.736737 -31.325039 -8.366637 32.469600 1.515411 1.831413 0.001817 -0.023926 264049.000000 0 0 1
-2.136737 -31.065739 -7.068837 31.931399 1.502123 1.794021 0.002876 -0.028440 -389467.000000 0 0 1
-0.991637 -30.389139 -6.321337 31.055473 1.538177 1.775779 0.019598 -0.027945 -67857.300000 0 0 1
-1.124837 -30.520639 -4.911537 30.933766 1.533958 1.730247 0.024998 -0.025029 631854.000000 0 0 1
0.043163 -29.972739 -4.266637 30.274926 -1.569356 1.712197 0.030105 -0.029328 755024.000000 0 0 1
-0.024837 -30.148039 -2.717237 30.270254 1.569972 1.660683 0.026119 -0.020763 -344667.000000 0 0 1
-0.024437 -31.472539 -2.165137 31.546936 1.570020 1.639483 0.034405 -0.017088 -152378.000000 0 0 1
1.057763 -32.319439 -2.438737 32.428575 -1.538080 1.646071 0.032916 -0.019225 620536.000000 0 0 1
2.476563 -31.948939 -1.859337 32.098679 -1.493435 1.628754 0.046313 -0.021246 -88472.400000 0 0 1
2.735763 -32.350139 -0.491537 32.469332 -1.486430 1.585935 0.037807 -0.013359 105634.000000 0 0 1
3.972963 -31.989739 0.095563 32.235648 -1.447234 1.567832 0.041138 -0.012075 153497.000000 0 0 1
4.307263 -30.479639 0.209563 30.783191 -1.430410 1.563989 0.032400 -0.016065 -581841.000000 0 0 1
4.463063 -29.859839 -1.050437 30.209805 -1.422428 1.605575 0.049158 -0.028104 39141.200000 0 0 1
4.527563 -28.506939 -0.939437 28.879525 -1.413289 1.603332 0.049657 -0.022709 -215471.000000 0 0 1
4.275463 -27.774439 -2.301237 28.195651 -1.418060 1.652504 0.040050 -0.017616 422464.000000 0 0 1
2.932863 -27.901539 -2.785137 28.193165 -1.466066 1.669745 0.045857 -0.020660 527108.000000 0 0 1
2.536763 -26.994739 -3.822137 27.381743 -1.477099 1.710841 0.045216 -0.028228 -135240.000000 0 0 1
3.034463 -27.166839 -5.235537 27.832642 -1.459560 1.760032 0.039531 -0.021931 -66007.600000 0 0 1
2.282563 -28.142639 -5.949737 28.855114 -1.489867 1.778480 0.039625 -0.018577 -26743.300000 0 0 1
2.742863 -28.219039 -7.252937 29.265040 -1.473902 1.821242 0.054120 -0.030860 -243465.000000 0 0 1
1.780063 -28.900139 -8.253337 30.108209 -1.509280 1.848473 0.041222 -0.029534 -852282.000000 0 0 1
0.617863 -28.168739 -8.406837 29.402968 -1.548865 1.860761 0.035396 -0.021489 -1053100.000000 0 0 1
0.231263 -28.132739 -9.761037 29.778891 -1.562576 1.904753 0.040460 -0.018563 192517.000000 0 0 1
-1.194137 -27.576039 -10.008737 29.360496 1.527520 1.918661 0.017627 -0.021087 -150077.000000 0 0 1
-1.348837 -26.215639 -9.598837 27.950255 1.519390 1.921358 0.034758 -0.012451 1039130.000000 0 0 1
-2.741037 -25.818239 -9.444137 27.627640 1.465026 1.919667 0.038113 -0.022659 1683000.000000 0 0 1
-3.517537 -26.413739 -8.206637 27.882030 1.438405 1.869555 0.039935 -0.016832 -232541.000000 0 0 1
-3.137137 -26.104939 -6.831437 27.165751 1.451196 1.824998 0.048230 -0.026060 -119165.000000 0 0 1
-1.906037 -26.690139 -6.442137 27.522675 1.499504 1.807055 0.037122 -0.029010 467018.000000 0 0 1
-1.418237 -26.372639 -4.959837 26.872430 1.517071 1.756430 0.048997 -0.029583 -190630.000000 0 0 1
-2.211937 -26.956839 -3.992737 27.340552 1.488925 1.717358 0.054506 -0.031339 -500208.000000 0 0 1
-1.950337 -26.418439 -2.753337 26.633036 1.497105 1.674362 0.050782 -0.034024 -490856.000000 0 0 1
-3.054337 -26.676939 -1.739537 26.907509 1.456799 1.635490 0.039365 -0.028559 -1188220.000000 0 0 1
-4.166137 -25.917839 -1.878337 26.317660 1.411416 1.642229 0.044282 -0.025663 -1061050.000000 0 0 1
-5.195337 -26.068939 -0.892437 26.596571 1.374081 1.604357 0.057361 -0.028269 954707.000000 0 0 1
-6.342837 -25.048739 -1.276437 25.870837 1.322790 1.620155 0.053133 -0.027360 389658.000000 0 0 1
-5.999837 -23.661439 -1.051837 24.432931 1.322460 1.613860 0.041322 -0.031440 -234627.000000 0 1 0
-6.491037 -23.216839 0.202463 24.108011 1.298174 1.562398 0.050410 -0.017800 -42959.700000 0 1 0
-6.044737 -21.749539 0.532363 22.580184 1.299713 1.547218 0.029010 -0.020642 552883.000000 0 1 0
-4.886037 -21.736239 1.370863 22.320769 1.349684 1.509341 0.027046 -0.025769 320632.000000 0 1 0
-4.516337 -20.389039 1.705063 20.952743 1.352808 1.489330 0.016131 -0.021820 12566.900000 0 1 0
-3.385437 -20.288739 2.777963 20.755992 1.405457 1.436554 0.017081 -0.014364 182751.000000 0 1 0
-3.817137 -20.451739 4.119163 21.208764 1.386278 1.375334 0.015675 0.002776 -537513.000000 0 1 0
-2.809437 -20.380839 5.063163 21.187429 1.433813 1.329491 0.014683 -0.000156 -46710.000000 0 1 0
-1.879937 -21.611839 5.287163 22.328454 1.484028 1.331735 0.010046 -0.014082 487781.000000 0 1 0
-1.016937 -21.985039 4.214963 22.408526 1.524573 1.381573 0.029827 -0.015900 62374.000000 0 1 0
-0.305537 -23.180739 4.578363 23.630519 1.557616 1.375815 0.028278 -0.016246 -548382.000000 0 1 0
0.725963 -23.511839 3.442863 23.773660 -1.539930 1.425467 0.033834 -0.029224 -223951.000000 0 1 0
1.720563 -22.544839 3.409263 22.865983 -1.494627 1.421141 0.015609 -0.027247 -686883.000000 0 1 0
2.814863 -22.985239 4.187763 23.532574 -1.448939 1.391887 0.036231 -0.026220 -312449.000000 0 1 0
4.003063 -21.954939 4.284763 22.724504 -1.390447 1.381108 0.047395 -0.020345 443296.000000 0 1 0
4.750963 -21.750739 3.142863 22.484303 -1.355746 1.430557 0.037214 -0.020152 40257.900000 0 1 0
5.721063 -20.679439 3.380163 21.720849 -1.300892 1.414543 0.056519 -0.021748 668711.000000 0 1 0
6.569363 -20.542839 2.126363 21.672245 -1.261285 1.472524 0.066352 -0.016723 -28727.800000 0 1 0
7.338763 -21.705039 1.786963 22.981719 -1.244750 1.492962 0.073100 -0.010956 110673.000000 0 1 0
7.120763 -22.030939 0.411063 23.156781 -1.258178 1.553044 0.063164 -0.013248 217514.000000 0 1 0
8.362263 -22.683039 -0.214937 24.176309 -1.217598 1.579687 0.057888 -0.010137 395243.000000 0 1 0
9.347363 -21.868539 -0.842837 23.797407 -1.166866 1.606221 0.059768 -0.007003 456112.000000 0 1 0
10.485163 -22.689339 -1.200737 25.023719 -1.137910 1.618799 0.056921 -0.012873 1609970.000000 0 0 1
11.751163 -21.848239 -1.658537 24.863349 -1.077326 1.637552 0.063159 -0.016056 585335.000000 0 1 0
11.465463 -20.965339 -2.723537 24.050363 -1.070354 1.684283 0.062567 -0.006960 -405923.000000 0 1 0
12.614563 -20.670139 -3.474037 24.463254 -1.022853 1.713288 0.057635 -0.006499 -169284.000000 0 1 0
12.394663 -19.423339 -4.356837 23.449431 -1.002809 1.757679 0.050156 -0.023334 -390176.000000 0 1 0
12.844863 -18.236639 -3.717337 22.613803 -0.957161 1.735929 0.072855 -0.013198 178000.000000 0 1 0
12.980563 -17.209639 -4.613337 22.044264 -0.924574 1.781631 0.068803 -0.021096 -258709.000000 0 1 0
13.664663 -15.945139 -3.930937 21.364053 -0.862264 1.755848 0.099801 -0.016125 479877.000000 0 1 0
14.975563 -16.113039 -3.447637 22.266201 -0.821970 1.726259 0.078765 -0.006357 247731.000000 0 1 0
16.005963 -15.963239 -4.410537 23.031906 -0.784062 1.763483 0.080658 -0.011343 394022.000000 0 1 0
17.445563 -15.762239 -3.846837 23.824231 -0.734751 1.732974 0.070892 -0.008646 379751.000000 0 1 0
18.030063 -16.887639 -3.218137 24.912485 -0.752692 1.700336 0.074787 -0.009991 37316.500000 0 1 0
19.359463 -16.520839 -2.927737 25.618325 -0.706449 1.685329 0.052534 -0.001854 -628905.000000 0 0 1
20.137563 -17.642039 -2.317137 26.872516 -0.719439 1.657131 0.063636 -0.012216 71996.400000 0 0 1
21.543763 -17.443039 -2.432237 27.826410 -0.680601 1.658316 0.060394 -0.011661 413637.000000 0 0 1
22.286763 -18.176139 -1.507637 28.798347 -0.684156 1.623172 0.055179 -0.005214 -565892.000000 0 0 1
23.799063 -18.062239 -1.551237 29.917323 -0.649203 1.622670 0.060192 -0.011934 -424772.000000 0 0 1
24.425563 -16.792839 -1.233637 29.666975 -0.602295 1.612391 0.072417 -0.010899 1032900.000000 0 0 1
25.766863 -17.022539 -0.776537 30.891764 -0.583816 1.595936 0.084031 -0.012212 997471.000000 0 0 1
26.452063 -15.704039 -0.182137 30.762992 -0.535759 1.576717 0.090499 -0.019995 441283.000000 0 0 1
25.773063 -15.226939 0.961763 29.950550 -0.533633 1.538679 0.097917 -0.020455 3105.540000 0 0 1
26.526863 -14.186939 1.472063 30.118278 -0.491109 1.521901 0.087162 -0.027231 192099.000000 0 0 1
25.723163 -13.282639 2.478063 29.055987 -0.476657 1.485407 0.110860 -0.026377 129480.000000 0 0 1
25.235563 -13.757839 3.743563 28.984928 -0.499133 1.441279 0.104295 -0.015490 236987.000000 0 0 1
26.182363 -14.311339 4.641663 30.197278 -0.500231 1.416473 0.094918 -0.014362 -105257.000000 0 0 1
25.506263 -14.935339 5.842963 30.129288 -0.529731 1.375630 0.084743 -0.010694 -91445.100000 0 0 1
24.790663 -16.099139 5.531863 30.072591 -0.575956 1.385792 0.094061 -0.015487 -245399.000000 0 0 1
24.002363 -16.458739 6.632663 29.849552 -0.601073 1.346723 0.079341 -0.019128 -318166.000000 0 0 1
23.334563 -17.791539 6.495563 30.053835 -0.651424 1.352946 0.074500 -0.020678 -389811.000000 0 0 1
24.217663 -18.879039 6.652563 31.419260 -0.662151 1.357446 0.074496 -0.015893 -311129.000000 0 0 1
23.570063 -20.109039 6.584963 31.674644 -0.706326 1.361375 0.043497 -0.004080 -144707.000000 0 0 1
1.582363 23.124965 -3.404937 23.427793 1.502476 1.716650 0.018039 -0.014306 380456.000000 0 1 0
2.450763 24.148965 -2.949937 24.451603 1.469657 1.691735 0.025890 -0.014046 502847.000000 0 1 0
3.270263 24.788065 -3.938437 25.311146 1.439625 1.727032 0.038177 -0.014581 279938.000000 0 0 1
4.324763 25.795865 -3.509537 26.390284 1.404688 1.704177 0.024975 -0.004012 -359155.000000 0 0 1
5.380763 25.339965 -2.720837 26.047445 1.361561 1.675444 0.017742 -0.006900 -479186.000000 0 0 1
6.034163 26.396765 -2.034837 27.154022 1.346063 1.645804 0.014637 -0.006691 -19215.400000 0 0 1
7.278463 25.775265 -1.353637 26.817395 1.295580 1.621294 0.008343 -0.018043 394059.000000 0 0 1
8.355263 25.394465 -2.227737 26.826332 1.252934 1.653935 0.020658 -0.023343 535329.000000 0 0 1
9.153463 24.400565 -1.583737 26.109035 1.211909 1.631492 0.016059 -0.017447 -96788.500000 0 0 1
10.444163 24.050265 -2.341137 26.324451 1.161105 1.659848 0.038187 -0.016679 -1312380.000000 0 0 1
11.516063 24.857565 -1.982637 27.467237 1.136952 1.643041 0.047848 -0.014243 62378.700000 0 0 1
12.546263 24.897565 -2.998837 28.040872 1.104021 1.677946 0.062410 -0.022329 660330.000000 0 0 1
13.492163 23.687265 -3.187437 27.446034 1.053033 1.687194 0.070670 -0.024665 -697753.000000 0 0 1
12.901863 22.406165 -3.538737 26.096302 1.048348 1.706818 0.074234 -0.027326 15119.500000 0 0 1
12.604763 22.172265 -4.902437 25.971586 1.053866 1.760697 0.085237 -0.036165 315754.000000 0 0 1
11.492263 21.105165 -5.220037 24.591643 1.072167 1.784692 0.075840 -0.033225 886673.000000 0 1 0
10.189163 21.500265 -4.796937 24.271198 1.128239 1.769745 0.057967 -0.030138 291986.000000 0 1 0
9.272863 20.452565 -5.031237 23.013187 1.145132 1.791201 0.023588 -0.018507 1166840.000000 0 1 0
7.742063 20.796065 -4.821437 22.708195 1.214408 1.784746 0.012591 -0.015588 1134170.000000 0 1 0
7.303963 21.093165 -3.513237 22.596733 1.237447 1.726905 -0.002981 -0.015727 -759274.000000 0 1 0
6.020263 21.625065 -3.577737 22.730755 1.299279 1.728850 0.010707 -0.004201 -498662.000000 0 1 0
5.664763 22.266365 -2.221037 23.082755 1.321672 1.667166 0.016312 -0.008770 -160456.000000 0 1 0
5.160963 21.376765 -1.293037 22.028926 1.333901 1.629527 0.009977 -0.009662 -157102.000000 0 1 0
4.960763 22.039765 -0.069037 22.591264 1.349403 1.573852 0.032164 -0.005226 314349.000000 0 1 0
4.407463 21.150965 1.117463 21.634181 1.365355 1.519121 0.014577 -0.004368 31166.100000 0 1 0
3.950263 21.854865 2.231563 22.320833 1.391977 1.470652 0.034226 0.001583 124391.000000 0 1 0
3.345463 20.995265 3.184363 21.497290 1.412781 1.422121 0.023574 0.003185 800075.000000 0 1 0
2.200963 21.604565 4.090463 22.098266 1.469272 1.384619 0.017905 0.001294 967630.000000 0 1 0
0.967563 21.942365 3.486263 22.238651 1.526729 1.413381 0.020671 0.009892 120449.000000 0 1 0
-0.028237 22.272665 4.422463 22.707501 -1.569529 1.374786 0.018897 -0.001272 328957.000000 0 1 0
-1.422137 22.600265 3.842463 22.968652 -1.507954 1.402714 0.014594 0.004101 -123234.000000 0 1 0
-2.427537 22.729365 4.790263 23.355162 -1.464398 1.364225 0.033079 -0.010088 -253232.000000 0 1 0
-3.699137 22.951865 4.189863 23.622589 -1.411001 1.392486 0.038631 -0.008662 95399.700000 0 1 0
-4.814337 23.022965 5.225363 24.094381 -1.364656 1.352189 0.049712 -0.024227 -688900.000000 0 1 0
-5.105337 24.378265 5.555563 25.519180 -1.364358 1.351338 0.068691 -0.021096 -236200.000000 0 0 1
-6.172337 24.462565 6.455563 26.042065 -1.323638 1.320295 0.086294 -0.031708 -161394.000000 0 0 1
-6.535837 25.856365 7.031963 27.581104 -1.323208 1.312994 0.091009 -0.039752 -898592.000000 0 0 1
-5.486137 26.478565 7.660163 28.104986 -1.366495 1.294748 0.069339 -0.042028 -787445.000000 0 0 1
-5.853037 27.678165 8.324963 29.489725 -1.362399 1.284605 0.085083 -0.041824 -52786.600000 0 0 1
-6.281237 28.856865 7.450663 30.457922 -1.356471 1.323667 0.096741 -0.047088 -387715.000000 0 0 1
-7.551537 28.753965 6.893863 30.517890 -1.313970 1.342934 0.098841 -0.050182 -924182.000000 0 0 1
-7.779937 29.851365 5.960363 31.419061 -1.315845 1.379934 0.114767 -0.050146 1219380.000000 0 0 1
-9.294837 30.163965 5.534463 32.045110 -1.271885 1.397218 0.116460 -0.049307 1695450.000000 0 0 1
-10.086237 30.641765 6.582463 32.923833 -1.252801 1.369510 0.096023 -0.040508 -423803.000000 0 0 1
-10.677237 29.641065 7.378863 32.358056 -1.225048 1.340734 0.070681 -0.032741 -519499.000000 0 0 1
-11.479337 30.123365 8.623863 33.370096 -1.206708 1.309399 0.046243 -0.029637 -257428.000000 0 0 1
-10.792137 30.774165 9.623063 34.001806 -1.233509 1.283859 0.060708 -0.033379 -813309.000000 0 0 1
-11.692137 31.058665 10.634663 34.848857 -1.210752 1.260684 0.056739 -0.028603 -434580.000000 0 0 1
-11.044937 31.625765 11.900163 35.549874 -1.234800 1.229461 0.059113 -0.028937 -203427.000000 0 0 1
-10.619037 32.963965 11.819363 36.593501 -1.259153 1.241908 0.056927 -0.027696 -320348.000000 0 0 1
-9.573237 33.257765 12.681363 36.858415 -1.290524 1.219563 0.055666 -0.028210 -286415.000000 0 0 1
-9.276137 -33.533739 12.756763 37.057973 1.300924 1.219369 0.051610 -0.025153 -402787.000000 0 0 1
-10.257737 -32.748839 13.333663 36.817037 1.267252 1.200212 0.056590 -0.022182 -612161.000000 0 0 1
-9.945337 -31.357439 13.284263 35.477745 1.263671 1.187004 0.056493 -0.017317 484942.000000 0 0 1
-10.931937 -30.456239 14.128863 35.308845 1.226180 1.159115 0.067754 -0.019299 73842.400000 0 0 1
-10.926737 -30.710939 15.510263 36.098804 1.228970 1.126679 0.071425 -0.028009 282172.000000 0 0 1
-9.771337 -30.304039 16.246763 35.745925 1.258879 1.098978 0.082433 -0.021907 442498.000000 0 0 1
-9.849737 -30.660539 17.735763 36.764701 1.259959 1.067389 0.078039 -0.031069 151064.000000 0 0 1
-10.573937 -29.683039 18.469563 36.524180 1.228584 1.040626 0.099534 -0.036224 -36785.200000 0 0 1
-11.335437 -30.330539 19.442763 37.768436 1.213139 1.030035 0.081371 -0.032448 -26357.300000 0 0 1
-11.714337 -29.437539 20.670063 37.829167 1.192068 0.992730 0.090753 -0.038115 -377157.000000 0 0 1
-10.585337 -29.128939 21.410563 37.669041 1.222238 0.966253 0.080440 -0.029137 -481933.000000 0 0 1
-10.930737 -28.442139 22.576663 37.922843 1.203884 0.933118 0.064257 -0.021459 312599.000000 0 0 1
-9.779137 -28.287439 23.617163 38.125859 1.237952 0.902751 0.073083 -0.024407 286456.000000 0 0 1
-9.583337 -29.427639 24.434763 39.432017 1.255970 0.902477 0.072248 -0.018486 60165.400000 0 0 1
-8.373337 -29.393339 25.166663 39.590934 1.293276 0.881924 0.082250 -0.023155 86871.200000 0 0 1
-8.193537 -30.549039 26.147163 41.037202 1.308754 0.879992 0.087618 -0.022983 -90651.800000 0 0 1
-7.893337 -31.764139 25.501363 41.491985 1.327231 0.908906 0.112859 -0.023698 316002.000000 0 0 1
-8.054437 -32.787139 26.468063 42.900219 1.329908 0.905912 0.111646 -0.020316 -165682.000000 0 0 1
-8.001337 34.096065 25.796563 43.497422 -1.340297 0.935943 0.101789 -0.022068 1438410.000000 0 0 1
-6.599037 33.805765 25.472263 42.839389 -1.378016 0.934029 0.095141 -0.018018 1889620.000000 0 0 1
-6.404437 32.455865 25.048763 41.495066 -1.375972 0.922717 0.084121 -0.016041 -176767.000000 0 0 1
-6.933137 32.158165 23.628963 40.503628 -1.358452 0.947914 0.085401 -0.015882 -664322.000000 0 0 1
-7.998537 31.287065 23.809163 40.121482 -1.320507 0.935487 0.065319 -0.010829 -352075.000000 0 0 1
-8.732837 31.169965 22.578563 39.466704 -1.297632 0.961743 0.048873 -0.003536 172215.000000 0 0 1
-9.867837 30.137665 22.715663 39.008389 -1.254372 0.949207 0.040697 -0.015935 -232307.000000 0 0 1
-9.341137 28.839265 22.656263 37.845294 -1.257557 0.928976 0.035164 -0.012264 320399.000000 0 0 1
-10.205437 27.741365 23.062363 37.491424 -1.218284 0.908237 0.026810 -0.010398 -56823.100000 0 0 1
-9.713637 26.336265 22.676963 36.085984 -1.217445 0.891283 0.013019 -0.010887 136097.000000 0 0 1
-8.513837 25.999465 23.365363 35.977740 -1.254339 0.863949 0.012737 -0.014277 428649.000000 0 0 1
-8.081737 24.623765 23.154163 34.752835 -1.253665 0.841624 0.019815 -0.013183 579836.000000 0 0 1
-6.635737 24.318165 23.651063 34.565575 -1.304410 0.817239 0.020474 -0.009896 418912.000000 0 0 1
-5.645237 25.046365 22.935163 34.426891 -1.349109 0.841696 0.011341 -0.007883 -716113.000000 0 0 1
-4.409937 24.652065 23.435663 34.298720 -1.393782 0.818550 0.058168 -0.005847 -334495.000000 0 0 1
-3.172037 25.261765 22.734763 34.133386 -1.445883 0.841887 0.046697 -0.001841 59163.300000 0 0 1
-3.064237 24.892165 21.376863 32.954206 -1.448312 0.864942 0.052326 -0.000252 -43281.300000 0 0 1
-1.986337 25.509065 20.712463 32.919053 -1.493085 0.890281 0.058864 -0.002808 -64796.500000 0 0 1
-1.409237 24.715565 19.526463 31.529793 -1.513840 0.902943 0.047671 -0.007364 -271884.000000 0 0 1
-0.506537 23.774265 20.039263 31.097336 -1.549493 0.870552 0.062562 -0.000297 -324538.000000 0 0 1
-0.238137 22.822365 19.061863 29.736706 -1.560362 0.874968 0.045876 0.001879 -157931.000000 0 0 1
0.890063 21.810965 19.379863 29.190572 1.530011 0.844763 0.049172 0.009708 101927.000000 0 0 1
2.171863 22.259665 19.027563 29.364227 1.473535 0.865861 0.044162 -0.005286 -338741.000000 0 0 1
3.172163 21.265465 19.144463 28.788767 1.422719 0.843306 0.051882 0.004035 -201906.000000 0 0 1
4.572563 21.867265 19.090463 29.385905 1.364661 0.863676 0.039421 -0.001136 -134609.000000 0 0 1
5.588963 20.856165 19.271963 28.941747 1.308971 0.842113 0.054556 -0.006482 1535790.000000 0 0 1
6.864763 21.435665 18.822063 29.340804 1.260867 0.874347 0.073054 -0.012743 1401690.000000 0 0 1
7.860163 20.329165 18.364463 28.501063 1.201856 0.870632 0.064082 -0.006685 -118179.000000 0 0 1
8.304763 19.498565 19.395263 28.728720 1.168150 0.829672 0.069751 -0.005679 142055.000000 0 0 1
9.178863 18.486465 18.900463 27.986218 1.109938 0.829359 0.059972 -0.012899 102846.000000 0 0 1
10.004663 17.685365 19.913763 28.450367 1.055977 0.795472 0.077673 -0.014483 -252038.000000 0 0 1
9.257263 16.736565 20.646263 28.143875 1.065564 0.747196 0.087134 -0.015630 -199006.000000 0 0 1
9.954163 16.236165 21.759063 28.916349 1.020810 0.718972 0.086079 -0.023959 111572.000000 0 0 1
9.146063 15.151365 22.548963 28.664788 1.027700 0.665443 0.072147 -0.014624 724432.000000 0 0 1
8.036063 15.696765 23.291663 29.214180 1.097629 0.648033 0.081611 -0.003117 1863320.000000 0 0 1
6.904063 14.783465 23.552463 28.651971 1.133885 0.605849 0.072356 -0.008145 1641010.000000 0 0 1
7.243463 13.647565 24.542263 29.000801 1.082851 0.561868 0.084740 -0.013215 -469617.000000 0 0 1
7.685563 14.172565 25.785163 30.410592 1.073896 0.558783 0.092525 -0.022636 -31691.000000 0 0 1
8.009663 13.097165 26.720163 30.816514 1.021922 0.521500 0.104104 -0.027023 -271125.000000 0 0 1
9.042563 13.569865 27.786163 32.217698 0.982999 0.530705 0.069518 -0.021526 320043.000000 0 0 1
10.369163 13.713065 27.308463 32.269488 0.923370 0.561866 0.085592 -0.019319 240558.000000 0 0 1
10.598363 14.936465 26.584963 32.282868 0.953681 0.603242 0.073022 -0.012592 -1392340.000000 0 0 1
11.888563 14.939865 25.818963 32.111623 0.898645 0.636741 0.064729 -0.013911 -941081.000000 0 0 1
11.714463 14.128265 24.668763 30.747104 0.878532 0.639638 0.068933 -0.019182 -149788.000000 0 0 1
12.850763 13.748265 23.938763 30.450308 0.819127 0.666228 0.058017 -0.016538 -403434.000000 0 0 1
12.474763 12.492365 23.054963 29.038082 0.786103 0.653508 0.049579 -0.018747 77579.900000 0 0 1
12.270863 11.277165 23.638263 28.922586 0.743224 0.614097 0.051963 -0.015084 895256.000000 0 0 1
10.944163 11.166065 24.191663 28.804379 0.795434 0.573770 0.072498 -0.017198 413524.000000 0 0 1
10.717063 9.796565 24.846663 28.778200 0.740556 0.528856 0.059573 -0.013741 -57704.200000 0 0 1
10.624363 8.750365 23.867163 27.551542 0.688974 0.523103 0.057522 -0.012325 98558.300000 0 0 1
10.469363 7.524265 24.455363 27.645739 0.623162 0.485165 0.060629 -0.014528 29835.900000 0 0 1
10.695263 6.304365 23.533663 26.607648 0.532629 0.485440 0.064094 -0.017329 1199830.000000 0 0 1
12.084963 6.076865 23.159963 26.820859 0.465921 0.528617 0.062327 -0.016287 1467860.000000 0 0 1
12.239463 5.016665 22.255463 25.889709 0.388991 0.536259 0.067426 -0.026016 -59343.900000 0 0 1
12.039863 3.628565 22.914963 26.138483 0.292722 0.501889 0.063164 -0.027753 -547567.000000 0 0 1
13.050663 3.286065 23.821563 27.360279 0.246665 0.514249 0.054389 -0.018714 -270343.000000 0 0 1
12.721963 2.073865 24.474663 27.661496 0.161593 0.484749 0.056719 -0.012767 -601025.000000 0 0 1
13.855963 1.253765 25.184163 28.771543 0.090240 0.504709 0.029280 -0.002366 332121.000000 0 0 1
14.733263 0.447765 24.391163 28.499094 0.030382 0.543590 0.050939 -0.012862 -539691.000000 0 0 1
15.887863 1.186265 24.172163 28.950386 0.074527 0.582752 0.046728 -0.020966 -1304460.000000 0 0 1
16.796663 0.356765 23.221063 28.661349 0.021237 0.626325 0.052555 -0.019471 -472508.000000 0 0 1
17.166163 -0.789035 23.957763 29.483455 -0.045932 0.622226 0.056285 -0.015374 -142742.000000 0 0 1
17.891563 -1.634535 23.111163 29.272949 -0.091105 0.660793 0.085370 -0.011335 111224.000000 0 0 1
18.222363 -3.057235 23.568863 29.948163 -0.166226 0.664884 0.077317 -0.006325 71363.900000 0 0 1
17.099563 -3.842935 23.298963 29.154843 -0.221066 0.644924 0.066829 0.002436 72947.400000 0 0 1
17.476463 -5.164035 23.445863 29.695159 -0.287310 0.660718 0.078636 0.003220 -38206.300000 0 0 1
16.590763 -6.164735 22.696563 28.781788 -0.355766 0.662310 0.069488 0.000777 -229964.000000 0 0 1
16.614663 -6.174335 21.282363 27.696722 -0.355804 0.694448 0.065776 -0.003491 -65211.600000 0 0 1
15.929763 -7.258035 20.687163 27.099725 -0.427524 0.702280 0.080073 -0.007225 -60400.900000 0 0 1
16.624463 -8.659635 20.726863 27.945749 -0.480225 0.735222 0.081744 -0.013455 125026.000000 0 0 1
16.605663 -9.232535 22.014563 29.079696 -0.507428 0.712022 0.069733 -0.012086 646915.000000 0 0 1
17.544163 -10.338835 22.129763 30.073502 -0.532517 0.743867 0.054200 -0.023988 310853.000000 0 0 1
17.318763 -11.159135 23.399663 31.177076 -0.572384 0.721916 0.046968 -0.018145 -721043.000000 0 0 1
16.230663 -12.000635 23.256463 30.794686 -0.636670 0.714822 0.064884 -0.025534 -471773.000000 0 0 1
15.881563 -12.549635 24.499063 31.779261 -0.668738 0.690522 0.060658 -0.015478 -304421.000000 0 0 1
14.624563 -13.436935 24.396263 31.458015 -0.743101 0.683261 0.079793 -0.023020 -261021.000000 0 0 1
14.713563 -14.564735 23.579963 31.378895 -0.780315 0.720525 0.069314 -0.032333 -340916.000000 0 0 1
13.488563 -15.131335 23.221663 30.824410 -0.842735 0.717650 0.076142 -0.033828 -670090.000000 0 0 1
13.690963 -15.985035 21.976263 30.428932 -0.862549 0.763795 0.046773 -0.033834 -326130.000000 0 0 1
14.516763 -17.090135 22.255363 31.592883 -0.866637 0.789159 0.061530 -0.036062 45609.100000 0 0 1
14.575763 -17.982535 21.216563 31.400111 -0.889655 0.828904 0.048245 -0.017749 -511124.000000 0 0 1
-25.435057 -33.174339 25.790976 49.118768 0.916687 1.017995 0.020578 -0.009727 -19235.300000 0 0 1
-24.800237 33.869265 26.024656 49.390906 -0.938763 1.015833 0.036934 0.005034 67606.900000 0 0 1
-25.494957 32.957965 26.878616 49.585081 -0.912387 0.997897 0.027835 -0.008809 -240402.000000 0 0 1
-25.636557 33.447365 28.414246 50.826456 -0.916835 0.977564 0.018485 0.000060 -58678.700000 0 0 1
-26.643437 -33.914139 28.727366 51.819910 0.904889 0.983191 0.042080 -0.007282 32733.500000 0 0 1
-26.727467 -33.784439 30.147036 52.579365 0.901495 0.960192 0.026341 -0.008950 -259210.000000 0 0 1
-28.010177 -33.093139 30.658576 53.100604 0.868393 0.955295 0.012603 -0.010740 -313727.000000 0 0 1
-28.144997 -31.719439 30.306606 52.122491 0.845036 0.950287 -0.010593 -0.002236 24846.300000 0 0 1
-29.124217 -31.065239 31.091836 52.725434 0.817636 0.940117 -0.002742 0.011624 -171612.000000 0 0 1
-29.170657 -29.522039 30.882596 51.732125 0.791385 0.931076 -0.017449 0.012320 -57756.600000 0 0 1
-29.808257 -29.137239 29.674356 51.167160 0.774015 0.952130 -0.021147 0.012090 295871.000000 0 0 1
-29.977997 -27.709239 29.681456 50.472478 0.746090 0.942123 -0.013739 0.010683 -179912.000000 0 0 1
-30.754767 -27.080939 28.502526 49.916199 0.721962 0.963064 -0.017155 0.008032 -170823.000000 0 0 1
-30.052037 -26.989139 27.288096 48.746064 0.731753 0.976651 -0.008912 0.017226 -102160.000000 0 0 1
-29.137037 -25.900139 27.260126 47.569934 0.726653 0.960569 -0.005820 0.005073 19745.400000 0 0 1
-28.175977 -26.000239 26.030546 46.340991 0.745259 0.974336 0.002243 0.013579 -258157.000000 0 0 1
-28.752347 -25.912339 24.759046 45.947330 0.733492 1.001717 -0.003112 0.003712 -91238.800000 0 0 1
-27.773237 -25.792939 23.746286 44.727111 0.748446 1.011117 0.016883 0.000234 27309.700000 0 0 1
-28.347477 -25.954639 22.259266 44.415061 0.741361 1.045852 0.011831 0.003579 -19133.900000 0 0 1
-28.917907 -24.827139 21.702766 43.859346 0.709430 1.053161 0.006694 0.002653 -63095.100000 0 0 1
-29.458967 -25.097139 20.447666 43.769900 0.705617 1.084717 0.009263 0.004623 -390588.000000 0 0 1
-30.190997 -23.915739 19.820866 43.316574 0.669935 1.095523 0.018108 0.002460 680294.000000 0 0 1
-31.495327 -23.751739 20.418366 44.418582 0.646142 1.093161 0.035025 0.003844 1031480.000000 0 0 1
-32.273057 -22.773039 19.702866 44.140281 0.614499 1.108092 0.049787 0.008359 174438.000000 0 0 1
-33.780157 -22.721639 20.016666 45.365613 0.592122 1.113828 0.054323 0.011929 200069.000000 0 0 1
-34.543221 -23.790539 19.415566 46.218915 0.603114 1.137265 0.058792 0.009228 544040.000000 0 0 1
-35.898921 -23.384339 19.336866 47.005045 0.577355 1.146830 0.051669 0.004774 465940.000000 0 0 1
35.994422 -24.363939 18.709366 47.320612 -0.595041 1.164321 0.054445 -0.001926 356854.000000 0 0 1
35.787102 -25.497639 19.534766 48.087975 -0.619054 1.152472 0.043788 -0.000267 -221855.000000 0 0 1
35.063362 -26.428739 18.779866 47.755638 -0.645892 1.166633 0.057258 0.001938 -65373.900000 0 0 1
34.737442 -27.761039 19.558466 48.578789 -0.674233 1.156426 0.053675 -0.000599 31125.000000 0 0 1
33.592482 -27.715839 20.398466 48.090748 -0.689836 1.132755 0.042864 -0.004775 110988.000000 0 0 1
33.647642 -26.952039 21.611166 48.224669 -0.675355 1.106118 0.043836 -0.010121 -1417480.000000 0 0 1
32.315272 -27.048539 22.293966 47.675163 -0.696910 1.084197 0.046894 -0.017882 -652179.000000 0 0 1
31.313312 -26.294539 21.631366 46.258430 -0.698498 1.084200 0.048181 -0.013027 -313873.000000 0 0 1
30.291772 -25.877639 22.479766 45.744765 -0.706973 1.057080 0.048990 -0.009767 -394721.000000 0 0 1
29.386412 -24.744939 21.932066 44.236735 -0.699863 1.052054 0.048848 -0.003748 148342.000000 0 0 1
29.964902 -23.439939 21.576866 43.736567 -0.663821 1.054874 0.049574 0.008535 -2334.620000 0 0 1
30.980682 -22.936439 22.419966 44.593024 -0.637294 1.043998 0.065513 -0.008428 -226677.000000 0 0 1
31.800402 -21.892139 21.669966 44.273228 -0.602914 1.059326 0.066203 -0.007549 -143200.000000 0 0 1
31.074622 -20.722539 21.255766 42.975148 -0.588139 1.053415 0.074984 -0.017140 462319.000000 0 0 1
31.881422 -19.792139 20.553766 42.785642 -0.555577 1.069698 0.088022 -0.017887 65002.900000 0 0 1
31.146692 -18.420939 20.746766 41.711818 -0.534091 1.050216 0.080185 -0.013022 252387.000000 0 0 1
31.008662 -18.031339 22.080066 42.121202 -0.526701 1.019017 0.069562 -0.018608 840699.000000 0 0 1
29.747682 -18.384639 22.671366 41.676257 -0.553564 0.995614 0.077447 -0.019087 264460.000000 0 0 1
29.624502 -18.011739 24.116296 42.233039 -0.546282 0.963037 0.069592 -0.012361 -145619.000000 0 0 1
29.429992 -16.646439 24.393496 41.692577 -0.514763 0.945818 0.072276 -0.014342 224547.000000 0 0 1
29.287482 -16.459539 25.794336 42.355883 -0.512009 0.916009 0.067089 -0.009222 -171875.000000 0 0 1
29.102632 -15.020539 26.198286 41.939599 -0.476463 0.896091 0.056870 -0.011284 1012990.000000 0 0 1
27.740142 -14.538939 26.081836 40.757311 -0.482751 0.876389 0.070892 -0.014983 1245740.000000 0 0 1
27.708842 -13.157339 26.407216 40.475135 -0.443320 0.860009 0.057770 -0.014016 155692.000000 0 0 1
28.220872 -12.181839 25.286016 39.801978 -0.407499 0.882405 0.062385 -0.034109 -330955.000000 0 0 1
27.332342 -12.155939 24.203306 38.478875 -0.418476 0.890527 0.044313 -0.020039 -143165.000000 0 0 1
27.638642 -11.238239 23.168566 37.775323 -0.386194 0.910532 0.044946 -0.014904 349799.000000 0 0 1
28.992862 -11.525839 22.416866 38.418054 -0.378384 0.947767 0.056374 -0.036376 243595.000000 0 0 1
29.025222 -12.689839 21.592466 38.337059 -0.412159 0.972510 0.050736 -0.041621 9776.820000 0 0 1
29.350682 -13.939139 22.198066 39.351192 -0.443381 0.971452 0.066375 -0.038259 -608870.000000 0 0 1
28.781162 -15.162039 21.497566 38.992154 -0.484860 0.986838 0.079855 -0.035604 -415271.000000 0 0 1
29.266922 -15.309439 20.164866 38.698236 -0.481954 1.022681 0.077824 -0.036902 185819.000000 0 0 1
28.417412 -16.177439 19.416466 38.029699 -0.517524 1.034960 0.076785 -0.041791 -284557.000000 0 0 1
28.778502 -16.210939 17.915266 37.575970 -0.512997 1.073815 0.077783 -0.035912 -433904.000000 0 0 1
28.016912 -17.078339 17.144566 37.020983 -0.547428 1.089302 0.089087 -0.035815 174759.000000 0 0 1
26.675242 -16.681939 16.872266 35.700546 -0.558866 1.078552 0.041852 -0.034280 24919.100000 0 0 1
26.545042 -15.694039 15.696566 34.602374 -0.533941 1.099966 0.052489 -0.031940 -527438.000000 0 0 1
26.768342 -15.996539 14.325866 34.317107 -0.538647 1.140153 0.076556 -0.033824 188361.000000 0 0 1
25.886342 -17.017839 13.886066 33.948967 -0.581564 1.149408 0.051468 -0.030050 33541.900000 0 0 1
26.115742 -17.565739 12.466866 33.852768 -0.592107 1.193652 0.061917 -0.016355 -196002.000000 0 0 1
25.856942 -16.655539 11.387966 32.797473 -0.572246 1.216190 0.052870 -0.022248 -128320.000000 0 0 1
25.714842 -17.219439 10.091866 32.551620 -0.590052 1.255575 0.055402 -0.023379 112255.000000 0 0 1
26.997842 -17.568739 9.282566 33.521786 -0.576900 1.290218 0.069967 -0.018633 152245.000000 0 0 1
27.728642 -18.524339 9.976766 34.807537 -0.588965 1.280093 0.077263 -0.015510 -17480.800000 0 0 1
29.104762 -18.545039 9.588866 35.818320 -0.567312 1.299782 0.081436 -0.007043 352225.000000 0 0 1
30.056822 -19.267039 10.512266 37.217457 -0.570037 1.284444 0.086602 -0.016827 -289640.000000 0 0 1
30.298262 -18.687539 11.788466 37.499023 -0.552671 1.251006 0.103700 -0.028710 160078.000000 0 0 1
30.213642 -19.718039 12.779166 38.274957 -0.578215 1.230382 0.087287 -0.029090 71951.600000 0 0 1
30.492662 -19.231139 14.226166 38.755941 -0.562674 1.194939 0.101763 -0.020320 151830.000000 0 0 1
30.283922 -20.246639 15.215666 39.478587 -0.589313 1.175138 0.095187 -0.012533 2518.620000 0 0 1
30.069482 -19.641439 16.443466 39.501234 -0.578623 1.141449 0.107265 -0.018777 20622.100000 0 0 1
29.817202 -20.595239 17.561366 40.269480 -0.604468 1.119540 0.083409 -0.008084 90899.900000 0 0 1
28.620832 -21.350039 17.542666 39.783430 -0.640911 1.114135 0.052412 -0.003389 12194.800000 0 0 1
28.451882 -22.208039 18.678566 40.639826 -0.662766 1.093238 0.051361 -0.005678 -375402.000000 0 0 1
27.163942 -22.986339 18.463166 40.089151 -0.702288 1.092179 0.031410 0.008885 -173161.000000 0 0 1
25.993342 -22.338339 18.948266 39.162380 -0.709918 1.065761 0.045788 -0.001348 -674872.000000 0 0 1
24.885542 -23.034439 18.511966 38.633774 -0.746788 1.071093 0.048378 -0.000805 -570322.000000 0 0 1
23.610942 -22.655039 19.318166 37.998933 -0.764740 1.037486 0.035902 -0.000554 -80586.700000 0 0 1
23.091242 -21.423639 18.876966 36.722168 -0.747954 1.030899 0.022613 -0.008001 -199182.000000 0 0 1
21.880642 -20.984239 19.448866 36.018873 -0.764489 1.000403 0.033922 -0.013253 79885.500000 0 0 1
21.922142 -20.415239 20.872066 36.510347 -0.749820 0.962250 0.026762 -0.008599 -313082.000000 0 0 1
22.014542 -21.452639 21.800966 37.684717 -0.772472 0.953896 0.043885 -0.007689 -245908.000000 0 0 1
22.342942 -20.919839 23.079866 38.334409 -0.752516 0.924710 0.041407 -0.007961 -86333.800000 0 0 1
22.862342 -21.986039 24.039316 39.799011 -0.765861 0.922263 0.041940 -0.008679 -788739.000000 0 0 1
21.904342 -22.755639 24.649726 40.065300 -0.804458 0.908108 0.052149 -0.006900 -486098.000000 0 0 1
22.406142 -23.521639 25.704576 41.424968 -0.809681 0.901404 0.052579 -0.005870 484214.000000 0 0 1
21.190042 -24.330839 26.300256 41.625846 -0.854286 0.886891 0.071358 -0.010372 734863.000000 0 0 1
20.645942 -25.423239 25.535286 41.528868 -0.888727 0.908562 0.086225 -0.008740 334249.000000 0 0 1
19.596942 -25.922639 26.369886 41.849662 -0.923480 0.889102 0.100394 -0.018814 267695.000000 0 0 1
18.752742 -27.063839 25.750276 41.799443 -0.964846 0.907086 0.096969 -0.018475 334521.000000 0 0 1
17.871142 -26.594839 24.724446 40.471736 -0.979126 0.913591 0.093075 -0.024517 442949.000000 0 0 1
17.088342 -27.620539 24.141656 40.468817 -1.016753 0.931601 0.084805 -0.027281 155901.000000 0 0 1
16.102642 -27.078839 23.065266 39.045680 -1.034314 0.938839 0.068964 -0.031070 647350.000000 0 0 1
14.922742 -26.415739 23.554456 38.409529 -1.056571 0.910634 0.048388 -0.020450 659627.000000 0 0 1
14.235042 -25.826639 22.454466 37.065547 -1.067050 0.920020 0.024503 -0.014643 -797432.000000 0 0 1
12.947542 -25.105739 22.717866 36.249668 -1.094652 0.893478 0.027255 -0.010224 -401550.000000 0 0 1
11.832542 -25.996739 22.790166 36.540815 -1.143664 0.897341 0.024413 -0.012348 -9971.140000 0 0 1
10.629742 -25.344539 22.468566 35.498923 -1.173670 0.885456 0.014486 -0.004428 400495.000000 0 0 1
9.395742 -26.314739 22.435766 35.834467 -1.227853 0.894262 0.019375 -0.005973 418525.000000 0 0 1
9.209442 -27.241139 21.349166 35.814527 -1.244788 0.932157 0.029448 -0.011842 -571639.000000 0 0 1
7.926042 -27.762839 21.326066 35.894268 -1.292703 0.934606 0.032707 -0.010904 -655301.000000 0 0 1
7.561442 -28.637339 20.085166 35.786680 -1.312647 0.974905 0.045620 -0.011124 -48394.600000 0 0 1
8.183442 -29.913639 20.104966 36.959494 -1.303761 0.995632 0.051230 -0.015903 223134.000000 0 0 1
8.035942 -30.586639 18.892966 36.838336 -1.313875 1.032282 0.051322 -0.014160 75033.000000 0 0 1
8.787742 -31.953839 18.866466 38.134181 -1.302417 1.053262 0.040548 -0.015450 -172608.000000 0 0 1
8.113642 -32.946439 19.630566 39.200232 -1.329334 1.046300 0.045406 -0.017551 202853.000000 0 0 1
9.026442 -33.949439 20.023566 40.434939 -1.310929 1.052726 0.045933 -0.025198 -56648.500000 0 0 1
8.522242 33.112665 20.901466 40.074287 1.318892 1.022109 0.059735 -0.037328 -811748.000000 0 0 1
7.691342 32.173965 20.263666 38.793517 1.336145 1.021196 0.047854 -0.036895 -112333.000000 0 0 1
7.434442 31.140765 21.225566 38.412795 1.336446 0.985358 0.057586 -0.049867 -377004.000000 0 0 1
6.463542 30.050265 20.830666 37.131018 1.358933 0.975198 0.052210 -0.041326 -712922.000000 0 0 1
5.122742 30.256765 21.127566 37.257058 1.403078 0.967845 0.064405 -0.044373 -956068.000000 0 0 1
4.299142 29.170665 20.825066 36.098389 1.424471 0.955871 0.077581 -0.043701 277221.000000 0 0 1
2.868542 29.296865 21.409766 36.399353 1.473194 0.941976 0.077135 -0.036574 230871.000000 0 0 1
2.707642 28.968065 22.832366 36.983740 1.477597 0.905411 0.067478 -0.037960 386987.000000 0 0 1
1.305842 28.894365 23.110666 37.022864 1.525633 0.896655 0.067638 -0.030155 652613.000000 0 0 1
0.947242 28.270265 24.485916 37.412100 1.537302 0.857286 0.073825 -0.023255 -288309.000000 0 0 1
1.060042 29.184265 25.579236 38.821931 1.534490 0.851459 0.074403 -0.021884 206145.000000 0 0 1
0.921042 28.616265 26.890256 39.278809 1.538621 0.816742 0.069439 -0.018464 166873.000000 0 0 1
2.230642 27.960265 27.428816 39.231265 1.491186 0.796579 0.050841 -0.012364 135773.000000 0 0 1
2.625442 26.804365 26.709626 37.931136 1.473159 0.789556 0.057082 -0.015394 558387.000000 0 0 1
3.651442 26.124665 27.440676 38.063393 1.431926 0.765667 0.031239 0.004523 215739.000000 0 0 1
4.270442 24.847965 26.848256 36.830516 1.400596 0.753984 0.035249 0.013264 61775.000000 0 0 1
3.312142 23.812565 26.642466 35.886342 1.432591 0.734132 0.054828 0.010916 247326.000000 0 0 1
3.841542 22.472965 26.688066 35.100491 1.401492 0.706971 0.057455 0.016522 888005.000000 0 0 1
2.662742 21.470565 26.368146 34.107983 1.447408 0.687116 0.052534 0.022031 782403.000000 0 0 1
2.966042 20.104365 26.587476 33.464560 1.424321 0.652618 0.064425 0.022195 225110.000000 0 0 1
3.749842 19.446165 25.576916 32.348003 1.380303 0.658878 0.069244 0.024083 -157146.000000 0 0 1
4.103442 18.008965 25.895446 31.807785 1.346766 0.619579 0.069406 0.013717 49138.300000 0 0 1
5.231342 17.914365 26.737126 32.606216 1.286677 0.609384 0.064514 0.010028 323752.000000 0 0 1
6.456342 17.705765 26.044816 32.148264 1.221134 0.626394 0.082017 0.009412 -493359.000000 0 0 1
7.701542 17.498365 26.941986 33.035998 1.156181 0.617145 0.066421 -0.003038 296329.000000 0 0 1
8.360942 18.628665 27.518676 34.266748 1.148923 0.638363 0.047767 0.003317 447532.000000 0 0 1
8.870342 19.537565 26.525296 34.117309 1.144609 0.680158 0.027388 -0.001769 -462509.000000 0 0 1
9.312442 20.968865 27.140706 35.539173 1.152853 0.701796 0.023608 0.004256 149266.000000 0 0 1
10.422342 20.818765 27.990876 36.407902 1.106651 0.693813 0.035130 -0.014531 -234824.000000 0 0 1
10.541142 21.798765 29.000036 37.779676 1.120382 0.695693 0.035519 -0.020718 -297597.000000 0 0 1
11.633142 21.355265 29.965806 38.591798 1.071998 0.681734 0.049033 -0.024938 556229.000000 0 0 1
12.988742 21.530265 29.553696 38.803101 1.027970 0.704968 0.042507 -0.021938 130928.000000 0 0 1
13.869642 21.357465 30.640026 39.841178 0.994840 0.693436 0.052766 -0.011685 -229271.000000 0 0 1
15.301842 21.151165 30.134826 39.870113 0.944504 0.713883 0.036076 -0.017147 -269576.000000 0 0 1
15.887142 22.260065 29.460876 40.197699 0.950931 0.748222 0.033402 -0.018689 -289740.000000 0 0 1
16.970642 21.802565 28.703946 39.840570 0.909379 0.766316 0.064271 -0.007024 -501134.000000 0 0 1
-8.706837 16.971365 4.593563 19.619813 -1.096778 1.334474 0.023526 -0.009688 -45574.100000 0 1 0
-8.345237 18.239165 5.084463 20.692073 -1.141686 1.322534 0.026936 -0.010045 1479700.000000 0 1 0
-6.919637 18.539365 5.203963 20.461444 -1.213569 1.313641 0.016928 -0.005103 1258990.000000 0 1 0
-6.688437 20.036465 5.580263 21.847986 -1.248614 1.312521 0.021563 -0.006123 -329130.000000 0 1 0
-6.925437 21.023065 4.580763 22.603415 -1.252571 1.366725 0.025236 -0.014228 -31126.300000 0 1 0
-8.284137 21.167965 4.198463 23.115726 -1.197767 1.388155 0.025401 -0.022142 186038.000000 0 1 0
-8.424637 22.428165 3.308163 24.185555 -1.211476 1.433584 0.059804 -0.027276 158142.000000 0 1 0
-7.859537 22.357165 1.974863 23.780565 -1.232746 1.487655 0.032384 -0.022634 -270755.000000 0 1 0
-8.434537 21.457765 1.087663 23.081597 -1.196273 1.523656 0.051744 -0.022772 -1184110.000000 0 1 0
-7.959237 21.499965 -0.398237 22.929382 -1.216243 1.588165 0.028817 0.000459 339483.000000 0 1 0
-6.686237 20.946665 -0.711237 21.999419 -1.261817 1.603132 0.018110 0.000821 718351.000000 0 1 0
-5.584037 21.724565 -0.205137 22.431681 -1.319205 1.579941 0.018489 -0.001737 -219022.000000 0 1 0
-4.212737 21.473465 -0.827237 21.898429 -1.377073 1.608581 0.015710 0.001785 -228632.000000 0 1 0
-4.244137 21.870265 -2.182037 22.384872 -1.379119 1.668430 0.011827 0.000692 826618.000000 0 1 0
-2.927737 21.805865 -2.766837 22.174824 -1.437331 1.695896 0.012396 0.010689 872117.000000 0 1 0
-2.958537 22.176765 -4.242837 22.771990 -1.438172 1.758210 0.011188 0.000513 -531245.000000 0 1 0
-1.716837 22.373565 -4.835437 22.954420 -1.494211 1.783040 0.028198 0.001644 -857282.000000 0 1 0
-1.751837 22.636065 -6.229637 23.542913 -1.493559 1.838593 0.028132 -0.007369 -857674.000000 0 1 0
-0.412237 23.108665 -6.726137 24.071171 -1.552959 1.853994 0.020740 -0.018935 -917539.000000 0 1 0
0.659363 22.320965 -6.274637 23.195502 1.541265 1.844720 0.033684 -0.007660 -12458.800000 0 1 0
1.843763 22.759665 -6.951837 23.869015 1.489963 1.866329 0.031068 -0.016700 371152.000000 0 1 0
3.101063 21.907465 -6.733837 23.127866 1.430178 1.866232 0.028843 -0.008096 -132710.000000 0 1 0
3.116263 20.686665 -7.515937 22.229227 1.421279 1.915705 0.032720 -0.024658 -292030.000000 0 1 0
4.282463 19.938165 -7.332637 21.671121 1.359224 1.915970 0.036320 -0.018322 -157625.000000 0 1 0
4.445963 18.773465 -8.383337 21.035445 1.338259 1.980714 0.020804 -0.020739 -158136.000000 0 1 0
4.760963 19.126365 -9.716637 21.974933 1.326833 2.028812 0.029231 -0.022100 -726971.000000 0 1 0
3.546563 19.189265 -10.445437 22.133982 1.388038 2.062262 0.023291 -0.022799 -213478.000000 0 1 0
3.543363 19.398365 -11.981337 23.073891 1.390125 2.116781 0.037986 -0.026939 -228722.000000 0 1 0
3.809963 20.679465 -12.448137 24.435880 1.388601 2.105308 0.069076 -0.024690 -45271.700000 0 1 0
3.812063 20.618265 -13.826137 25.115867 1.387973 2.153752 0.075583 -0.019293 44840.600000 0 0 1
4.294963 21.927165 -14.530037 26.652754 1.377371 2.147377 0.069283 -0.015336 540447.000000 0 0 1
3.270963 22.920465 -14.768937 27.462127 1.429044 2.138613 0.098416 -0.020370 158806.000000 0 0 1
3.793863 24.180065 -15.255237 28.840791 1.415165 2.128155 0.080472 -0.015781 50763.900000 0 0 1
2.747963 25.217965 -15.733137 29.850104 1.462256 2.125947 0.097705 -0.023093 272720.000000 0 0 1
1.838663 25.637665 -14.726237 29.623177 1.499202 2.091071 0.117794 -0.033169 -157451.000000 0 0 1
1.632763 27.041965 -14.748337 30.845539 1.510491 2.069327 0.083367 -0.026608 78139.600000 0 0 1
0.613463 27.539665 -13.656337 30.745814 1.548524 2.031043 0.094942 -0.021987 1213100.000000 0 0 1
-0.738237 27.067765 -13.728737 30.359301 -1.543529 2.040036 0.085007 -0.038794 458236.000000 0 0 1
-1.085937 25.700365 -13.629837 29.111175 -1.528568 2.058048 0.081965 -0.044059 -406616.000000 0 0 1
-0.728137 24.981965 -12.298337 27.854585 -1.541658 2.028088 0.089498 -0.044126 -638203.000000 0 0 1
-1.564437 25.413865 -11.213837 27.821973 -1.509315 1.985651 0.062717 -0.035733 67810.400000 0 0 1
-2.220737 24.266565 -10.730237 26.625850 -1.479536 1.985590 0.090527 -0.035637 480059.000000 0 0 1
-3.296137 24.518565 -9.588337 26.532259 -1.437163 1.940548 0.055437 -0.023395 445457.000000 0 0 1
-2.827537 24.871165 -8.283137 26.366270 -1.457595 1.890364 0.061350 -0.026711 -150030.000000 0 0 1
-2.405037 26.218365 -8.134937 27.556562 -1.479321 1.870470 0.051827 -0.029864 -153915.000000 0 0 1
-2.182537 26.638165 -6.695337 27.553273 -1.489046 1.816250 0.044031 -0.030215 220482.000000 0 0 1
-1.026037 26.064465 -6.107837 26.790199 -1.531451 1.800807 0.037016 -0.027137 -26250.200000 0 0 1
-0.722037 26.424765 -4.751937 26.858341 -1.543479 1.748659 0.038560 -0.032240 -373403.000000 0 0 1
-1.693137 25.949565 -3.640537 26.258335 -1.505641 1.709887 0.035068 -0.020629 -938262.000000 0 0 1
-2.818537 26.780965 -3.633537 27.172907 -1.465938 1.704917 0.027924 -0.017725 -376153.000000 0 0 1
-3.651337 26.557765 -2.501837 26.924085 -1.434166 1.663852 0.018664 -0.003346 -351985.000000 0 0 1
-4.576037 25.333265 -2.506637 25.864990 -1.392090 1.667861 0.019195 -0.011384 -177495.000000 0 0 1
-5.771737 25.667865 -3.276337 26.512010 -1.349613 1.694692 0.008385 -0.018916 502455.000000 0 0 1
-6.538637 24.486065 -3.417737 25.573465 -1.309850 1.704841 -0.025395 -0.022399 -950094.000000 0 0 1
-7.920637 24.839765 -3.910137 26.363604 -1.262119 1.719661 0.009272 -0.015814 -1141690.000000 0 0 1
-8.669137 25.345865 -2.838237 26.937380 -1.241236 1.676357 0.023748 -0.021583 248646.000000 0 0 1
-9.952637 25.751665 -3.391637 27.815579 -1.201995 1.693034 0.053477 -0.018276 1350130.000000 0 0 1
-10.904637 26.365665 -2.296637 28.624010 -1.178628 1.651117 0.055466 -0.016489 481622.000000 0 0 1
-11.555837 25.457465 -1.382037 27.991605 -1.144681 1.620190 0.058916 -0.018386 342063.000000 0 0 1
-10.640137 24.802665 -0.525337 26.993716 -1.165550 1.590259 0.067636 -0.028489 23065.600000 0 0 1
-11.148037 23.367765 -0.251937 25.891981 -1.125661 1.580527 0.061735 -0.025210 113346.000000 0 0 1
-12.162137 23.291565 0.746763 26.286351 -1.089571 1.542384 0.083526 -0.031834 262611.000000 0 0 1
-12.513837 21.936065 0.947763 25.272225 -1.052374 1.533285 0.085787 -0.035706 406784.000000 0 0 1
-13.469737 21.669665 2.170263 25.606996 -1.014650 1.485942 0.093047 -0.040794 528450.000000 0 0 1
-12.769337 21.698665 3.392063 25.404609 -1.038887 1.436875 0.099471 -0.039429 178556.000000 0 0 1
-12.581937 23.040965 3.948163 26.547678 -1.070977 1.421523 0.077438 -0.040636 -48677.200000 0 0 1
-12.347937 23.001565 5.463163 26.671890 -1.078120 1.364508 0.073555 -0.036320 -340856.000000 0 0 1
-11.089737 22.523865 5.866863 25.782297 -1.113283 1.341231 0.064814 -0.031470 -99378.400000 0 0 1
-11.246537 21.966165 7.134663 25.688527 -1.097600 1.289358 0.045880 -0.034288 -207218.000000 0 0 1
-9.966137 21.729865 7.957263 25.195813 -1.140782 1.249479 0.042665 -0.026527 -488124.000000 0 0 1
-9.514137 23.009265 8.324863 26.253541 -1.178714 1.248132 0.050713 -0.032360 159582.000000 0 0 1
-8.335837 22.976065 9.117063 26.086521 -1.222760 1.213766 0.060106 -0.030361 49215.200000 0 0 1
-8.461637 22.689865 10.633963 26.448260 -1.213845 1.157023 0.044785 -0.031261 -437934.000000 0 0 1
-9.074937 21.441565 10.893863 25.705475 -1.170417 1.133165 0.054774 -0.028906 -293569.000000 0 0 1
-8.953837 20.925465 12.205663 25.826818 -1.166479 1.078562 0.035984 -0.019316 -301158.000000 0 0 1
-10.063537 19.943065 12.659563 25.676160 -1.103465 1.055207 0.036568 -0.013580 -288172.000000 0 0 1
-10.207937 18.793665 11.855663 24.453233 -1.073221 1.064627 0.057901 -0.025276 -130180.000000 0 1 0
-10.794137 17.685565 12.501863 24.198950 -1.022811 1.027888 0.054583 -0.022853 -153174.000000 0 1 0
-10.961737 16.505065 11.604363 22.961666 -0.984542 1.040974 0.059220 -0.028113 -143027.000000 0 1 0
-11.326937 15.332265 12.341563 22.708854 -0.934525 0.996232 0.050133 -0.021055 47389.300000 0 1 0
-11.441037 14.257765 11.477863 21.585239 -0.894568 1.010136 0.044407 -0.016720 -32134.000000 0 1 0
-11.871337 12.963665 12.211963 21.403675 -0.829353 0.963615 0.027782 -0.017736 -63808.100000 0 1 0
-13.026037 12.976665 13.003963 22.520536 -0.783499 0.955223 0.039658 -0.012383 -266606.000000 0 1 0
-13.458537 11.683565 13.326063 22.253581 -0.714918 0.928760 0.030114 -0.009444 197629.000000 0 1 0
-14.325437 11.669365 14.603463 23.551080 -0.683575 0.901957 0.032113 -0.013342 -57262.000000 0 1 0
-15.492837 12.423265 14.503063 24.590737 -0.675881 0.940013 0.048262 -0.018597 -558583.000000 0 1 0
-16.319637 12.404765 15.645663 25.787507 -0.649942 0.918875 0.042216 -0.016262 -246611.000000 0 0 1
-17.356837 13.523565 15.528763 26.931192 -0.661897 0.956224 0.053181 -0.017274 201116.000000 0 0 1
-18.450937 13.178165 14.653163 26.996598 -0.620211 0.997055 0.047709 -0.021925 324494.000000 0 0 1
-19.349537 14.272265 14.539563 28.098061 -0.635519 1.026919 0.055466 -0.022803 268602.000000 0 0 1
-20.585537 13.836065 13.700563 28.335604 -0.591772 1.066136 0.047875 -0.021610 -262305.000000 0 0 1
-21.443037 12.935965 14.356563 28.866138 -0.542821 1.050255 0.047204 -0.014528 -920485.000000 0 0 1
-22.586937 12.923165 13.574663 29.350458 -0.519691 1.089981 0.036751 -0.015705 -1001210.000000 0 0 1
-23.612337 11.897365 14.030363 29.932271 -0.466733 1.082936 0.065867 -0.026037 -378608.000000 0 0 1
-24.096837 12.146765 15.304563 31.023074 -0.466907 1.054884 0.075995 -0.020347 -227461.000000 0 0 1
-24.989837 11.232865 15.854163 31.654758 -0.422436 1.046220 0.078449 -0.029055 182967.000000 0 0 1
-25.839307 11.762065 17.110163 33.147755 -0.427170 1.028413 0.066633 -0.018779 381956.000000 0 0 1
-26.891627 12.607765 16.666863 34.057300 -0.438407 1.059421 0.063733 -0.008097 -122990.000000 0 0 1
-27.612837 12.990965 17.788463 35.322279 -0.439744 1.043030 0.059607 0.013863 -29197.100000 0 0 1
-28.742067 14.005265 17.421363 36.410957 -0.453415 1.071891 0.047973 0.011205 438631.000000 0 0 1
-28.318657 15.286765 17.023863 36.406640 -0.494988 1.084219 0.042421 0.009625 356236.000000 0 0 1
-29.472207 16.107965 17.151363 37.712687 -0.500189 1.098660 0.053899 0.004955 468866.000000 0 0 1
-29.014457 17.612365 16.795963 37.870021 -0.545566 1.111278 0.066121 0.005216 24742.800000 0 0 1
-28.101617 18.231065 17.655063 37.865207 -0.575500 1.085737 0.058093 0.009486 246736.000000 0 0 1
-28.754977 18.733965 18.820563 39.141075 -0.577431 1.069185 0.075662 -0.003082 568949.000000 0 0 1
-27.665557 19.019465 19.963363 39.059685 -0.602272 1.034333 0.070476 -0.008145 1109450.000000 0 0 1
-27.292887 17.848965 20.715063 38.634196 -0.579167 1.004886 0.075681 -0.005701 259937.000000 0 0 1
-26.640977 16.775865 19.979063 37.287186 -0.561973 1.005323 0.064946 0.009279 -388446.000000 0 0 1
-26.430657 15.518765 20.838063 37.062603 -0.530918 0.973705 0.058798 0.005371 64139.900000 0 0 1
-27.573567 14.696565 20.938863 37.612852 -0.489694 0.980395 0.060027 -0.002095 -55622.700000 0 0 1
-27.276797 13.436065 21.434763 37.202158 -0.457696 0.956762 0.060963 0.007609 -775041.000000 0 0 1
-28.469047 12.595965 21.839763 38.027887 -0.416553 0.959036 0.056708 -0.000622 -506315.000000 0 0 1
-29.311437 12.305165 20.742363 37.958175 -0.397464 0.992673 0.054931 -0.002117 -475650.000000 0 0 1
-30.162817 11.254965 20.964363 38.418411 -0.357139 0.993590 0.090091 -0.004917 -873078.000000 0 0 1
-31.156147 11.010465 19.826463 38.536015 -0.339697 1.030381 0.113615 -0.008138 -564638.000000 0 0 1
-30.669877 10.622865 18.564863 37.391720 -0.333430 1.051238 0.118509 -0.019360 28836.000000 0 0 1
-30.129877 9.335665 18.494163 36.564986 -0.300466 1.040500 0.123483 -0.022404 -297241.000000 0 0 1
-29.500107 8.984165 17.103863 35.263489 -0.295623 1.064398 0.118618 -0.038192 229641.000000 0 0 1
-30.376227 8.876365 15.957263 35.442055 -0.284299 1.103768 0.124034 -0.031299 482847.000000 0 0 1
-30.719277 10.132865 15.344063 35.802084 -0.318616 1.127876 0.122369 -0.026494 52872.300000 0 0 1
-29.523477 10.941965 14.743863 34.766993 -0.354924 1.132854 0.114998 -0.019565 443993.000000 0 0 1
-28.924067 10.443265 13.564963 33.610589 -0.346492 1.155357 0.117249 -0.031027 669331.000000 0 0 1
-27.790967 11.257365 13.208163 32.764641 -0.384872 1.155870 0.077599 -0.018398 539524.000000 0 0 1
-27.373997 11.360165 11.709263 31.866847 -0.393369 1.194538 0.102545 -0.021768 -122738.000000 0 0 1
-26.699837 10.241665 11.188563 30.707604 -0.366276 1.197853 0.110894 -0.023681 282130.000000 0 0 1
-27.506087 9.065765 11.113363 31.020634 -0.318379 1.204396 0.119388 -0.019451 23755.000000 0 0 1
-26.823047 7.824965 10.474463 29.839911 -0.283848 1.212134 0.132748 -0.025419 -141817.000000 0 0 1
-26.391237 8.047265 9.159663 29.071555 -0.295966 1.250263 0.119144 -0.018927 205843.000000 0 0 1
-26.160987 6.858065 8.422463 28.326104 -0.256380 1.268892 0.144485 -0.033862 -37327.800000 0 0 1
-25.580477 7.143665 7.011463 27.469135 -0.272325 1.312691 0.129471 -0.022806 146774.000000 0 0 1
-26.519757 7.734665 6.116363 28.293682 -0.283785 1.352902 0.127273 -0.022845 295364.000000 0 0 1
-25.860667 8.033465 4.894463 27.518474 -0.301193 1.391984 0.121534 -0.022082 -333928.000000 0 0 1
-26.728057 8.436865 3.709863 28.272475 -0.305757 1.439199 0.100165 -0.014969 -701412.000000 0 0 1
-27.420517 7.302865 3.152263 28.550891 -0.260287 1.460162 0.126432 -0.024026 255499.000000 0 0 1
-26.731207 6.296165 2.379363 27.565567 -0.231320 1.484372 0.135471 -0.027973 -266579.000000 0 0 1
-25.889207 6.879965 1.218163 26.815460 -0.259743 1.525353 0.148949 -0.025057 -270251.000000 0 0 1
-24.707637 7.530865 1.640963 25.881925 -0.295854 1.507352 0.125404 -0.016495 11169.300000 0 0 1
-23.785137 7.472765 0.564763 24.937801 -0.304413 1.548148 0.140742 -0.007225 574335.000000 0 1 0
-22.412637 8.115965 1.034363 23.859277 -0.347427 1.527430 0.112289 -0.008214 544122.000000 0 1 0
-22.492037 9.509865 1.193663 24.449010 -0.400015 1.521954 0.082766 -0.005372 864545.000000 0 1 0
-21.408937 10.051565 1.934663 23.730139 -0.438954 1.489178 0.089462 -0.010073 382418.000000 0 1 0
-21.910437 11.492765 2.351163 24.853146 -0.483081 1.476052 0.087974 -0.012221 585471.000000 0 1 0
-20.796137 12.240865 2.835863 24.297330 -0.532004 1.453815 0.084690 -0.017623 104143.000000 0 1 0
-21.173237 13.387665 3.522363 25.297087 -0.563826 1.431103 0.067419 -0.027157 -253278.000000 0 0 1
-20.056537 14.127765 4.336163 24.913064 -0.613671 1.395854 0.038375 -0.019783 417682.000000 0 1 0
-19.524437 13.307965 5.411963 24.240357 -0.598274 1.345636 0.041654 -0.029428 177661.000000 0 1 0
-18.707337 14.059565 6.272963 24.227792 -0.644495 1.308897 0.038623 -0.028173 -150991.000000 0 1 0
-18.035737 13.170765 7.344063 23.509405 -0.630747 1.253090 0.020622 -0.037663 168854.000000 0 1 0
-17.187837 12.146665 6.814963 22.122544 -0.615209 1.257648 0.039107 -0.030008 387176.000000 0 1 0
-16.373537 11.607265 7.833463 21.544941 -0.616677 1.198681 0.025750 -0.025968 -418045.000000 0 1 0
11.342463 -32.748039 -14.093237 37.412630 -1.237372 1.957025 0.054137 -0.015150 56666.800000 0 0 1
12.325963 -32.568539 -13.087537 37.201112 -1.208994 1.930295 0.030241 -0.010383 164817.000000 0 0 1
13.065863 -31.378139 -13.324537 36.508187 -1.176232 1.944401 0.021193 -0.016850 -578562.000000 0 0 1
14.451663 -31.398939 -12.715137 36.829589 -1.139443 1.923293 0.053839 -0.008159 -557521.000000 0 0 1
15.332363 -32.384239 -13.236637 38.197236 -1.128612 1.924670 0.043689 -0.010705 -188607.000000 0 0 1
16.659663 -32.110539 -12.857337 38.391955 -1.092205 1.912292 0.062556 -0.001542 -71683.100000 0 0 1
17.681263 -33.019439 -13.552337 39.831850 -1.079169 1.917967 0.053822 -0.013831 -10267.300000 0 0 1
17.734063 33.990565 -13.012637 40.486840 1.089912 1.898008 0.057588 -0.011695 -616139.000000 0 0 1
18.500263 33.135665 -13.770237 40.371419 1.061589 1.918871 0.045738 -0.004275 -219212.000000 0 0 1
18.599963 31.728265 -13.114437 39.046510 1.040566 1.913322 0.042584 -0.014319 92547.500000 0 0 1
19.316763 31.776565 -11.890837 39.042022 1.024593 1.880278 0.043019 -0.022461 -108768.000000 0 0 1
19.310963 30.516065 -11.241737 37.822218 1.006598 1.872582 0.037103 -0.021920 -155580.000000 0 0 1
20.314263 30.270365 -10.108737 37.830555 0.979735 1.841294 0.042911 -0.020208 36726.100000 0 0 1
21.625963 29.888265 -10.463937 38.346899 0.944432 1.847177 0.035767 -0.010823 48983.300000 0 0 1
22.441263 29.995665 -9.320237 38.603329 0.928480 1.814642 0.032520 -0.005527 51299.500000 0 0 1
23.737663 29.126265 -9.281037 38.703406 0.886981 1.812955 0.003034 0.007346 242908.000000 0 0 1
24.667263 29.729565 -10.146137 39.940769 0.878193 1.827641 0.005093 0.001003 725901.000000 0 0 1
25.942063 29.030365 -10.163437 40.237398 0.841518 1.826149 0.002786 0.012157 1366360.000000 0 0 1
26.985763 29.661365 -11.145937 41.620427 0.832596 1.841905 0.009806 0.006632 -46827.600000 0 0 1
27.465663 30.918065 -10.665037 42.708693 0.844462 1.823183 -0.003208 -0.006677 332028.000000 0 0 1
28.379263 31.510965 -11.585437 43.960731 0.837641 1.837487 -0.000206 0.001346 236443.000000 0 0 1
28.787963 32.935765 -11.192437 45.152875 0.852497 1.821286 0.002257 -0.009090 -450873.000000 0 0 1
28.030663 33.878765 -11.913937 45.556895 0.879581 1.835391 0.020810 -0.008707 -84404.900000 0 0 1
28.230363 -33.062339 -11.484037 44.966151 -0.864070 1.829050 0.038627 -0.007029 -168675.000000 0 0 1
27.137363 -32.038139 -11.882137 43.635582 -0.868027 1.846583 0.037239 -0.013568 -635168.000000 0 0 1
25.954963 -32.337639 -11.218837 42.956319 -0.894457 1.835029 0.027116 -0.009882 70695.400000 0 0 1
24.832363 -31.418039 -11.333937 41.619678 -0.901945 1.846601 0.037847 -0.010677 1127500.000000 0 0 1
25.082663 -29.971239 -10.784437 40.542808 -0.873962 1.840039 0.061133 -0.021690 -853502.000000 0 0 1
26.058763 -29.243939 -11.474037 40.815691 -0.842930 1.855756 0.049743 -0.006763 -321279.000000 0 0 1
26.401663 -27.971139 -10.934137 39.987345 -0.814255 1.847764 0.044893 -0.004520 407528.000000 0 0 1
27.337163 -27.253039 -11.979737 40.417357 -0.783857 1.871718 0.051667 -0.005089 624960.000000 0 0 1
28.632063 -27.722639 -12.294937 41.707376 -0.769262 1.870033 0.040931 0.005671 194665.000000 0 0 1
28.623563 -28.629539 -13.391937 42.641562 -0.785503 1.890261 0.046849 -0.005457 -598500.000000 0 0 1
29.973863 -29.184339 -13.841537 44.065250 -0.772053 1.890320 0.048968 0.006363 -336050.000000 0 0 1
30.384363 -30.207339 -12.952237 44.759952 -0.782477 1.864366 0.049051 -0.008294 92105.000000 0 0 1
31.501963 -30.931639 -13.417937 46.143049 -0.776264 1.865849 0.048264 -0.008156 313.121000 0 0 1
32.005663 -31.952939 -12.340737 46.879063 -0.784574 1.837182 0.048974 -0.006978 679723.000000 0 0 1
33.286463 -32.504139 -12.672237 48.219221 -0.773508 1.836724 0.037378 -0.009352 698540.000000 0 0 1
33.950363 -33.383139 -11.756737 49.043674 -0.776974 1.812873 0.039552 -0.008817 375057.000000 0 0 1
33.259863 33.523865 -11.407837 48.581959 0.789351 1.807826 0.031522 -0.005982 198003.000000 0 0 1
32.411263 33.724165 -10.296337 47.893881 0.805247 1.787470 0.024378 -0.011332 -202673.000000 0 0 1
31.963163 32.480165 -9.699437 46.590600 0.793421 1.780515 0.025710 -0.005464 -342158.000000 0 0 1
31.295563 32.685865 -8.303837 46.007953 0.807125 1.752278 0.013537 -0.008277 -8821.350000 0 0 1
30.195963 33.553065 -8.415637 45.917615 0.838011 1.755115 0.018071 -0.010586 -237306.000000 0 0 1
29.598163 33.869465 -7.124437 45.540636 0.852596 1.727883 0.019435 -0.009004 780858.000000 0 0 1
28.430763 -33.412139 -7.276437 44.470506 -0.865774 1.735159 0.025183 -0.018315 -166515.000000 0 0 1
28.916363 -32.100439 -7.504537 43.851024 -0.837534 1.742780 0.021267 -0.026292 169151.000000 0 0 1
27.972363 -31.155839 -7.979537 42.624083 -0.839186 1.759115 0.017545 -0.013991 190644.000000 0 0 1
26.930063 -30.576039 -6.987437 41.339409 -0.848715 1.740638 0.033014 -0.016152 -25171.300000 0 0 1
26.138863 -29.625939 -7.624437 40.237650 -0.847849 1.761434 0.049437 -0.023409 -95947.800000 0 0 1
25.134963 -29.096139 -6.751437 39.037592 -0.858311 1.744617 0.049019 -0.031321 -172205.000000 0 0 1
24.265863 -28.092739 -7.428637 37.857876 -0.858358 1.768302 0.064778 -0.035317 -479521.000000 0 0 1
23.307163 -28.693539 -8.299537 37.887008 -0.888613 1.791648 0.072466 -0.032175 355787.000000 0 0 1
22.552163 -27.777939 -9.063837 36.910257 -0.888857 1.818898 0.084372 -0.029134 -338274.000000 0 0 1
21.436063 -28.446739 -9.858437 36.958227 -0.925027 1.840811 0.074412 -0.021916 -452613.000000 0 0 1
21.846963 -29.156639 -11.010937 38.061005 -0.927746 1.864289 0.083343 -0.022808 814529.000000 0 0 1
20.794763 -29.936339 -11.675837 38.274427 -0.963682 1.880793 0.069125 -0.015547 1022140.000000 0 0 1
20.399463 -31.320739 -11.040537 38.974610 -0.993502 1.858004 0.062299 -0.015425 420326.000000 0 0 1
21.454063 -32.276339 -11.077537 40.308197 -0.984157 1.849200 0.054916 -0.015475 78018.200000 0 0 1
21.042963 -33.482939 -10.494037 40.915013 -1.009707 1.830179 0.047848 -0.019012 -40531.800000 0 0 1
22.131963 33.745665 -10.524837 41.705706 0.990322 1.825914 0.033445 -0.017867 -206267.000000 0 0 1
23.199863 33.951365 -9.662437 42.240875 0.971349 1.801586 0.025470 -0.015016 -1126120.000000 0 0 1
24.330163 33.212765 -9.926337 42.350641 0.938554 1.807382 0.016856 -0.012436 -837834.000000 0 0 1
25.507963 33.647765 -9.044837 43.181447 0.922139 1.781820 0.011903 -0.010217 -579009.000000 0 0 1
25.479463 33.160565 -7.736037 42.528489 0.915644 1.753717 0.002363 -0.021131 137719.000000 0 0 1
26.005063 31.849065 -7.604437 41.814516 0.886069 1.753675 0.003244 0.002296 -287345.000000 0 0 1
25.992863 31.500365 -6.123037 41.296411 0.880901 1.719615 0.010338 0.000927 -123459.000000 0 0 1
27.005163 32.139765 -5.342437 42.317667 0.871995 1.697380 0.008391 -0.009530 630145.000000 0 0 1
27.967163 31.273965 -4.710337 42.218602 0.841160 1.682599 0.016600 -0.010717 381537.000000 0 0 1
27.423263 30.208965 -3.720237 40.968977 0.833696 1.661728 0.022523 0.004662 -680877.000000 0 0 1
27.085663 30.626665 -2.448937 40.958797 0.846677 1.630622 0.034068 0.001857 -22861.600000 0 0 1
26.820963 29.560565 -1.533537 39.944246 0.833950 1.609198 0.034267 0.006208 132233.000000 0 0 1
25.514563 28.722165 -1.671537 38.454515 0.844470 1.614278 0.021427 0.010994 -245880.000000 0 0 1
24.414463 29.404265 -1.150037 38.236101 0.877849 1.600878 0.029660 0.014800 -607802.000000 0 0 1
23.251163 28.592565 -1.156137 36.871236 0.888065 1.602158 0.039928 0.011016 402477.000000 0 0 1
22.040563 29.301965 -0.497837 36.669326 0.925897 1.584373 0.040841 0.003258 85925.600000 0 0 1
22.178063 29.463765 0.881563 36.888441 0.925555 1.546896 0.045887 -0.003493 -42479.300000 0 0 1
21.047363 30.085665 1.439163 36.745203 0.960352 1.531620 0.038283 -0.002493 -6373.330000 0 0 1
20.240063 29.186065 2.432363 35.600603 0.964457 1.502419 0.052927 -0.017926 60911.500000 0 0 1
19.557663 28.097165 1.758463 34.278930 0.962711 1.519475 0.074649 -0.018527 480951.000000 0 0 1
18.833163 27.381765 2.752263 33.347025 0.968306 1.488168 0.088907 -0.022180 352749.000000 0 0 1
18.025263 26.113665 2.276763 31.812219 0.966636 1.499166 0.088972 -0.011130 275878.000000 0 0 1
18.895063 25.079165 1.819363 31.453108 0.925112 1.512920 0.086093 -0.021000 545419.000000 0 0 1
19.652563 24.443765 2.851963 31.493723 0.893627 1.480116 0.088802 -0.014932 112717.000000 0 0 1
20.857363 23.637665 2.320563 31.609395 0.847803 1.497317 0.091093 -0.016385 157412.000000 0 0 1
20.444963 22.577065 1.504063 30.495616 0.834916 1.521456 0.089475 -0.014887 658331.000000 0 0 1
21.662363 21.913365 1.198163 30.836490 0.791158 1.531931 0.050803 -0.010388 497580.000000 0 0 1
21.546463 20.823865 0.098963 29.964867 0.768345 1.567494 0.078109 -0.017631 -265493.000000 0 0 1
21.141963 21.354465 -1.120237 30.070762 0.790399 1.608058 0.070829 -0.009359 314667.000000 0 0 1
21.306963 20.436565 -2.124837 29.599912 0.764550 1.642643 0.101439 -0.016726 -15558.100000 0 0 1
21.089263 21.077065 -3.508937 30.021864 0.785109 1.687943 0.086168 -0.008844 419558.000000 0 0 1
22.162063 21.997465 -3.803637 31.456528 0.781671 1.692010 0.079859 -0.007372 765129.000000 0 0 1
21.896663 22.735165 -4.936437 31.948709 0.804183 1.725929 0.062214 -0.006081 220986.000000 0 0 1
23.067763 23.731365 -5.310237 33.518622 0.799577 1.729893 0.052204 0.008515 570504.000000 0 0 1
23.324763 24.853065 -4.455637 34.374004 0.817110 1.700784 0.037058 0.012487 75067.900000 0 0 1
23.642363 24.642765 -3.101337 34.290604 0.806114 1.661363 0.052795 0.005891 -461125.000000 0 0 1
22.434063 24.477065 -2.145137 33.271843 0.828921 1.635314 0.050214 -0.006314 -1524250.000000 0 0 1
21.659763 25.643165 -2.094337 33.631882 0.869410 1.633109 0.053167 -0.003692 487972.000000 0 0 1
20.515163 25.508565 -1.253837 32.758677 0.893472 1.609081 0.063367 -0.002042 1498780.000000 0 0 1
19.437463 24.331465 -1.625337 31.184562 0.896750 1.622940 0.085882 -0.015850 -404394.000000 0 0 1
18.724163 24.617865 -2.788037 31.054899 0.920550 1.660695 0.065925 -0.012613 -163121.000000 0 0 1
17.910063 23.578565 -3.229337 29.785025 0.921185 1.679431 0.070350 -0.019075 -160064.000000 0 0 1
17.421163 23.844965 -4.677937 29.899204 0.939826 1.727899 0.066357 -0.023735 -327981.000000 0 0 1
16.850663 22.727065 -5.327937 28.789777 0.932799 1.756933 0.071620 -0.026614 95210.800000 0 0 1
16.339063 23.243665 -6.560937 29.159541 0.958095 1.797741 0.063764 -0.028091 -123335.000000 0 0 1
15.552663 22.176465 -7.344937 28.064730 0.959189 1.835594 0.082579 -0.028677 -590865.000000 0 0 1
16.321463 21.056565 -7.779437 27.754076 0.911408 1.854902 0.063315 -0.023037 419606.000000 0 0 1
15.586563 20.096365 -8.573937 26.838727 0.911117 1.895957 0.089164 -0.024912 -167153.000000 0 0 1
16.290663 18.777665 -8.746637 26.353180 0.856198 1.909114 0.073865 -0.015620 -649958.000000 0 0 1
17.408263 18.861765 -9.563137 27.391010 0.825451 1.927443 0.076460 -0.019085 -140226.000000 0 0 1
18.068863 17.624665 -9.934237 27.125665 0.772954 1.945751 0.083458 -0.016194 -191465.000000 0 0 1
19.453863 17.875565 -10.515037 28.435095 0.743143 1.949580 0.067194 -0.013389 -737415.000000 0 0 1
19.498263 18.536065 -11.735637 29.351204 0.760105 1.982133 0.061979 -0.014459 -70792.100000 0 0 1
20.834763 18.641365 -12.167737 30.490026 0.729893 1.981302 0.052929 -0.008844 -63082.300000 0 0 1
21.010263 19.094065 -13.648437 31.500703 0.737654 2.018919 0.044958 -0.016534 -171404.000000 0 0 1
20.987563 17.991265 -14.516237 31.223142 0.708679 2.054340 0.036128 -0.008951 190328.000000 0 0 1
21.220463 18.342465 -15.837637 32.211564 0.712781 2.084809 0.030332 -0.008065 16080.700000 0 0 1
21.188363 17.144165 -16.788037 32.011050 0.680284 2.122860 0.038216 -0.004203 -186676.000000 0 0 1
22.274063 16.261865 -16.555837 32.166409 0.630630 2.111446 0.041596 -0.007143 118706.000000 0 0 1
22.426763 15.286365 -17.508237 32.298158 0.598279 2.143709 0.057363 -0.014575 -397336.000000 0 0 1
23.139263 15.684965 -18.818037 33.698103 0.595705 2.163289 0.060521 -0.020651 -1078880.000000 0 0 1
24.494563 15.887465 -18.594137 34.614117 0.575399 2.137891 0.077580 -0.017531 -400355.000000 0 0 1
25.171663 16.374165 -19.749837 35.941369 0.576727 2.152564 0.108614 -0.028376 -76473.200000 0 0 1
26.632063 16.773865 -19.489937 37.020089 0.562070 2.125239 0.097645 -0.032559 -156105.000000 0 0 1
26.802963 17.971165 -18.781037 37.337501 0.590646 2.097871 0.076305 -0.021918 364585.000000 0 0 1
28.186663 17.978065 -18.448037 38.184144 0.567766 2.075026 0.070457 -0.030846 228298.000000 0 0 1
28.682863 18.949365 -17.325037 38.496000 0.583826 2.037615 0.076247 -0.026865 30145.100000 0 0 1
28.051663 18.762765 -16.091637 37.388206 0.589523 2.015725 0.073365 -0.027211 -414146.000000 0 0 1
26.759663 19.286365 -16.057837 36.686477 0.624501 2.023840 0.069737 -0.021442 -271359.000000 0 0 1
25.804463 18.794165 -14.920537 35.237954 0.629487 2.008016 0.070388 -0.016684 407761.000000 0 0 1
26.274063 19.231065 -13.677837 35.316335 0.631843 1.968492 0.070745 -0.020581 509989.000000 0 0 1
25.321863 18.814565 -12.679937 33.999491 0.639017 1.952977 0.065601 -0.024132 483690.000000 0 0 1
25.641063 19.284265 -11.264637 34.003515 0.644834 1.908455 0.074155 -0.017806 -162366.000000 0 0 1
25.473663 20.729865 -11.180237 34.693408 0.683085 1.898910 0.070090 -0.007797 -13692.800000 0 0 1
26.196363 21.351865 -10.156637 35.288934 0.683863 1.862739 0.065137 -0.006684 -104188.000000 0 0 1
25.459463 21.406565 -8.819937 34.412448 0.699134 1.829990 0.076867 -0.010308 -293532.000000 0 0 1
25.520963 20.127465 -8.238537 33.530701 0.667790 1.819039 0.089157 -0.020074 396434.000000 0 0 1
24.757763 19.972365 -7.032237 32.577516 0.678820 1.788371 0.093510 -0.020229 952837.000000 0 0 1
23.243663 19.609265 -7.217837 31.255213 0.700790 1.803832 0.096685 -0.017178 909024.000000 0 0 1
22.384463 20.650965 -7.733037 31.421751 0.745139 1.819456 0.074463 -0.010239 -125079.000000 0 0 1
21.118263 20.138365 -8.027737 30.265151 0.761651 1.839256 0.063634 -0.010660 -451658.000000 0 0 1
20.111463 21.302865 -8.148337 30.408525 0.814158 1.842074 0.041416 -0.007716 -436065.000000 0 0 1
20.363863 22.229165 -9.203237 31.520189 0.829164 1.867092 0.047210 -0.009770 -101512.000000 0 0 1
19.780863 22.049265 -10.486437 31.423208 0.839574 1.911039 0.048373 0.000895 941874.000000 0 0 1
18.276163 22.528665 -10.565337 30.873698 0.889239 1.920066 0.052901 -0.011063 764556.000000 0 0 1
18.143063 23.891965 -10.309037 31.721806 0.921319 1.901790 0.060198 -0.023762 -683553.000000 0 0 1
16.864263 24.362065 -10.574637 31.460079 0.965301 1.913600 0.069852 -0.026361 -544199.000000 0 0 1
16.537663 25.758965 -10.011937 32.206482 1.000054 1.886902 0.068373 -0.022347 144834.000000 0 0 1
17.335563 26.822265 -10.495637 33.617169 0.997018 1.888315 0.089457 -0.014856 50644.800000 0 0 1
16.991963 27.925965 -9.703837 34.099132 1.024176 1.859362 0.084761 -0.037739 126324.000000 0 0 1
20.608763 28.906265 33.351847 48.709742 0.951431 0.816596 0.058006 0.001404 67731.200000 0 0 1
19.249063 29.169865 33.583758 48.469333 0.987496 0.805311 0.086178 -0.017976 -313691.000000 0 0 1
18.451963 28.006165 33.546302 47.436005 0.988222 0.785279 0.079029 -0.018080 -224656.000000 0 0 1
16.959563 28.237665 33.789014 47.187816 1.029935 0.772664 0.114304 -0.028099 -424962.000000 0 0 1
16.354663 28.954865 32.740372 46.666810 1.056636 0.793188 0.100109 -0.022804 58292.600000 0 0 1
14.986063 29.156365 33.072718 46.566945 1.096020 0.780987 0.128827 -0.039268 516149.000000 0 0 1
14.060263 29.671665 31.926926 45.797678 1.128277 0.799410 0.101557 -0.036884 319226.000000 0 0 1
13.541863 28.556365 31.185966 44.400591 1.127989 0.792065 0.084241 -0.028877 -10376.300000 0 0 1
12.247863 28.733065 30.676356 43.779424 1.167856 0.794415 0.077075 0.000047 59852.200000 0 0 1
11.314363 27.496565 30.359886 42.494689 1.180430 0.774974 0.051900 -0.009951 327081.000000 0 0 1
11.605563 26.642765 29.240366 41.225296 1.159983 0.782317 0.047307 -0.008878 530632.000000 0 0 1
12.772363 25.833865 29.457376 41.209936 1.111636 0.774440 0.031361 -0.013874 498863.000000 0 0 1
12.888863 24.793165 28.259946 39.742274 1.091391 0.779763 0.035395 0.001517 -213487.000000 0 0 1
13.021863 25.512265 27.046286 39.394748 1.098851 0.814069 0.017143 -0.001620 138011.000000 0 0 1
13.200563 24.610465 26.025546 38.174060 1.078470 0.820631 0.018526 -0.002228 -143129.000000 0 0 1
11.932663 23.871465 25.530466 36.932912 1.107252 0.807557 0.028524 -0.002979 -386342.000000 0 0 1
12.083863 23.408465 24.198736 35.770865 1.094259 0.827806 0.042042 -0.008632 209908.000000 0 0 1
11.146863 22.382265 23.863046 34.563902 1.108732 0.808749 0.061283 -0.014964 204717.000000 0 0 1
11.202263 21.917365 22.354666 33.250454 1.098297 0.833469 0.080952 -0.017023 -254989.000000 0 0 1
10.601463 22.867565 21.542966 33.157442 1.136688 0.863584 0.082903 -0.024894 -113549.000000 0 0 1
10.759963 22.625965 20.171166 32.164997 1.126893 0.892952 0.087512 -0.017732 -609061.000000 0 0 1
10.301363 23.751565 19.199466 32.231575 1.161569 0.932694 0.071024 -0.025392 -511819.000000 0 0 1
8.965563 24.093765 19.063966 32.005088 1.214561 0.932716 0.073533 -0.027578 -565810.000000 0 0 1
8.354563 24.765865 20.149966 33.002544 1.245442 0.914031 0.060501 -0.030149 -884438.000000 0 0 1
7.073063 25.478365 19.770666 33.015974 1.300005 0.928768 0.066309 -0.034794 -402318.000000 0 0 1
7.260663 26.593665 18.944266 33.448848 1.304270 0.968707 0.063634 -0.038480 -51909.700000 0 0 1
5.982563 27.030465 18.571966 33.336992 1.352981 0.979909 0.063807 -0.041933 -299652.000000 0 0 1
6.060563 28.138165 17.556366 33.715171 1.358651 1.023095 0.069157 -0.036021 56653.500000 0 0 1
6.429263 27.544465 16.316766 32.653787 1.341488 1.047556 0.061141 -0.029470 -111992.000000 0 0 1
6.913763 28.570065 15.517766 33.239281 1.333368 1.085071 0.054711 -0.026144 -129089.000000 0 0 1
7.381563 28.097265 14.097266 32.290505 1.313887 1.119007 0.053218 -0.029222 173530.000000 0 0 1
6.316263 27.720965 13.238566 31.362505 1.346769 1.135020 0.049893 -0.027242 -40030.500000 0 0 1
6.593063 26.650765 12.384966 30.118419 1.328278 1.147016 0.035420 -0.027435 10874.900000 0 0 1
6.031263 26.869165 10.910366 29.620335 1.349988 1.193573 0.038137 -0.026081 -125901.000000 0 0 1
6.812063 27.607865 10.013866 30.147569 1.328885 1.232202 0.032992 -0.024853 -43013.100000 0 0 1
6.774063 29.012365 10.283566 31.517566 1.341417 1.238430 0.034529 -0.020303 -101870.000000 0 0 1
6.777763 29.794165 8.929566 31.833434 1.347117 1.286472 0.048924 -0.010699 169959.000000 0 0 1
5.553363 29.681165 8.220366 31.295141 1.385834 1.305006 0.031798 -0.015304 28992.100000 0 0 1
5.490663 28.594865 7.339466 30.028011 1.381090 1.323874 0.015742 -0.008810 666386.000000 0 0 1
4.019963 28.263365 6.884866 29.366295 1.429512 1.334146 0.029124 -0.009611 802120.000000 0 0 1
3.516163 29.308165 6.066866 30.135342 1.451395 1.368090 0.045996 -0.011830 972420.000000 0 0 1
2.074363 29.136765 5.990366 29.818427 1.499722 1.368525 0.027160 -0.009030 1436220.000000 0 0 1
1.415963 30.324665 5.208266 30.801239 1.524137 1.400887 0.027563 -0.018348 -381584.000000 0 0 1
1.756263 30.188865 3.853566 30.484455 1.512686 1.444046 0.038426 -0.014687 249967.000000 0 0 1
0.798963 30.823065 3.027366 30.981682 1.544881 1.472925 0.040439 -0.023592 532569.000000 0 0 1
-0.244037 29.827765 2.399166 29.925092 -1.562615 1.490538 0.040858 -0.026871 -134033.000000 0 0 1
0.260963 29.114665 1.303166 29.144984 1.561833 1.526068 0.044176 -0.020059 -170754.000000 0 0 1
-0.520037 27.996165 0.921366 28.016149 -1.552223 1.537903 0.050296 -0.021527 647.210000 0 0 1
-0.947037 27.978365 -0.601834 28.000857 -1.536960 1.592291 0.036753 -0.019632 -590590.000000 0 0 1
-1.888237 28.963165 -0.773534 29.034957 -1.505694 1.597441 0.035530 -0.023869 -654534.000000 0 0 1
-1.474737 29.790465 -1.823834 29.882655 -1.521333 1.631867 0.044152 -0.020760 -468337.000000 0 0 1
-2.541837 30.788565 -2.232734 30.973889 -1.488425 1.642943 0.054354 -0.025703 -159188.000000 0 0 1
-3.681337 30.363665 -2.969734 30.729851 -1.450144 1.667587 0.031308 -0.022220 139998.000000 0 0 1
-3.498437 29.777865 -4.239234 30.280876 -1.453848 1.711255 0.022928 -0.021129 -796922.000000 0 0 1
-4.809437 29.551365 -4.987534 30.352749 -1.409462 1.735864 0.028823 -0.012190 -102176.000000 0 0 1
-5.507137 30.722265 -5.395934 31.674947 -1.393425 1.741985 0.030236 -0.014963 741791.000000 0 0 1
-6.609637 30.285065 -6.236034 31.618991 -1.355918 1.769322 0.037533 -0.014134 232497.000000 0 0 1
-7.361937 31.278865 -7.107534 32.910220 -1.339639 1.788479 0.039106 -0.007958 228103.000000 0 0 1
-8.325737 31.997365 -6.292734 33.656319 -1.316240 1.758874 0.025525 -0.002346 287469.000000 0 0 1
-8.659637 33.174565 -6.964734 34.986406 -1.315461 1.771205 0.028788 -0.012234 56962.500000 0 0 1
-9.671737 34.075165 -6.183434 35.956839 -1.294235 1.743624 0.035461 -0.016000 1372910.000000 0 0 1
-11.035537 33.664865 -6.405034 36.001815 -1.254029 1.749657 0.040944 -0.004258 388946.000000 0 0 1
-11.997337 -33.872539 -5.689434 36.382065 1.230393 1.727821 0.055171 -0.000302 48968.800000 0 0 1
-13.384237 33.917965 -6.120434 36.973313 -1.194948 1.737098 0.061676 -0.002341 -154228.000000 0 0 1
-13.735737 34.147565 -7.511134 37.565195 -1.188355 1.772103 0.072335 -0.007297 -66729.700000 0 0 1
-15.023437 33.639765 -7.765534 37.651574 -1.150775 1.778535 0.075013 -0.010732 -558500.000000 0 0 1
-15.442637 33.816465 -9.259834 38.311525 -1.142418 1.814912 0.107027 -0.021184 637218.000000 0 0 1
-16.788337 33.551165 -9.639434 38.735612 -1.106845 1.822291 0.121334 -0.027445 804138.000000 0 0 1
-17.787237 -33.833139 -9.165134 39.307338 1.086774 1.806128 0.113292 -0.027062 688544.000000 0 0 1
-19.272437 33.990365 -9.433934 40.196653 -1.054997 1.807701 0.110278 -0.031618 1171590.000000 0 0 1
-19.839937 33.055565 -8.486034 39.475388 -1.030230 1.787458 0.090982 -0.024026 284646.000000 0 0 1
-19.908637 33.456365 -7.096434 39.573244 -1.034015 1.751096 0.060390 -0.008660 -545976.000000 0 0 1
-20.366937 32.291465 -6.139734 38.668426 -1.008093 1.730250 0.054432 -0.015012 -367929.000000 0 0 1
-20.197437 32.549965 -4.776334 38.603757 -1.015435 1.694841 0.067875 -0.019902 -507902.000000 0 0 1
-21.218237 33.139765 -4.037834 39.557069 -1.001295 1.673051 0.069179 -0.021760 -616884.000000 0 0 1
-21.755537 -33.769339 -4.374034 40.407968 0.998481 1.679256 0.096248 -0.032630 -369056.000000 0 0 1
-22.658437 -33.719839 -5.435034 40.987461 0.979137 1.703790 0.100131 -0.023611 19005.300000 0 0 1
-23.500437 -32.587539 -5.456734 40.546198 0.946018 1.705787 0.096839 -0.026169 -296624.000000 0 0 1
-24.387237 -32.545539 -6.671234 41.212314 0.927726 1.733387 0.095821 -0.024335 -372919.000000 0 0 1
-23.721737 -32.142539 -7.890334 40.720032 0.935009 1.765800 0.118765 -0.028359 79815.500000 0 0 1
-24.184237 -32.697539 -9.125934 41.680800 0.933962 1.791533 0.078693 -0.019678 39251.100000 0 0 1
-25.352087 -31.919039 -9.752534 41.912591 0.899564 1.805636 0.065910 -0.016621 337413.000000 0 0 1
-26.593607 -31.930639 -9.050334 42.528746 0.876340 1.785241 0.074778 -0.016033 884855.000000 0 0 1
-27.767397 -31.543339 -9.776034 43.146048 0.848976 1.799361 0.027335 -0.010202 719550.000000 0 0 1
-27.923837 -29.981339 -9.898834 42.149832 0.820915 1.807859 0.011556 -0.004800 -501747.000000 0 0 1
-26.961367 -29.214539 -10.632834 41.151692 0.825486 1.832143 0.014548 0.005059 613.785000 0 0 1
-27.107327 -29.286739 -12.049134 41.685752 0.824025 1.864027 0.010460 0.000919 437610.000000 0 0 1
-25.980587 -28.564939 -12.891234 40.707869 0.832742 1.893020 0.033476 0.005644 -265429.000000 0 0 1
-24.757837 -29.182139 -12.781434 40.347402 0.867238 1.893134 0.044078 -0.005151 -699368.000000 0 0 1
-23.767337 -28.588339 -13.626334 39.596167 0.877221 1.922111 0.049436 -0.002106 1312540.000000 0 0 1
-22.398437 -29.378039 -13.779934 39.428997 0.919393 1.927820 0.066379 -0.018842 842794.000000 0 0 1
-22.441437 -30.670739 -14.406534 40.643088 0.939118 1.933138 0.077832 -0.020076 -66426.500000 0 0 1
-23.155937 -31.672339 -13.665034 41.545970 0.939495 1.905949 0.066591 -0.017285 136684.000000 0 0 1
-23.447837 -32.963839 -14.423334 42.947041 0.952513 1.913293 0.069605 -0.021885 -149891.000000 0 0 1
-23.920737 -33.966239 -13.555134 43.699528 0.957223 1.886189 0.053639 -0.023338 -253991.000000 0 0 1
-24.161637 33.160865 -14.268534 43.439829 -0.941120 1.905476 0.051474 -0.031300 -115020.000000 0 0 1
-24.683237 31.971365 -13.398934 42.555397 -0.913337 1.891104 0.035622 -0.017970 383914.000000 0 0 1
-23.807937 31.455165 -12.352134 41.337882 -0.922903 1.874241 0.041031 -0.013335 470109.000000 0 0 1
-23.642537 32.353065 -11.269734 41.625681 -0.939719 1.844958 0.065725 -0.019159 213743.000000 0 0 1
-22.859637 31.881265 -9.992034 40.482328 -0.948736 1.820198 0.062057 -0.021660 322530.000000 0 0 1
-23.553937 30.929165 -9.191234 39.948467 -0.919948 1.802953 0.053642 -0.007880 -189861.000000 0 0 1
-22.663737 30.270165 -8.343034 38.723819 -0.928118 1.787949 0.051839 -0.005742 -401145.000000 0 0 1
-23.334637 29.189465 -7.512934 38.117901 -0.896409 1.769193 0.053937 -0.012522 -269704.000000 0 0 1
-23.517837 28.042065 -8.289234 37.525425 -0.872921 1.793530 0.047050 -0.007371 -61779.200000 0 0 1
-23.898437 26.922565 -7.543234 36.781248 -0.844834 1.777346 0.044714 -0.012806 -229359.000000 0 0 1
-22.894337 26.381365 -6.510334 35.531839 -0.856046 1.755063 0.057304 -0.012696 -244758.000000 0 0 1
-22.857637 27.051765 -5.255734 35.803524 -0.869236 1.718122 0.070099 -0.013083 -133487.000000 0 0 1
-21.756837 26.772465 -4.440234 34.782762 -0.888385 1.698802 0.061236 -0.013249 -804910.000000 0 0 1
-20.549937 27.699465 -4.434834 34.773957 -0.932506 1.698678 0.039578 -0.015280 -354042.000000 0 0 1
-19.896737 27.384865 -5.664134 34.320452 -0.942467 1.736592 0.037968 -0.011914 736455.000000 0 0 1
-18.656037 28.133265 -5.786634 34.249284 -0.985246 1.740567 0.061789 -0.011868 1153900.000000 0 0 1
-17.808437 27.850465 -7.043734 33.799453 -1.001887 1.780733 0.086318 -0.018242 -272714.000000 0 0 1
-18.337037 28.418365 -8.232434 34.808381 -0.997765 1.809566 0.093538 -0.021766 236239.000000 0 0 1
-18.168237 29.805865 -8.358434 35.893424 -1.023383 1.805822 0.088752 -0.018609 -87473.000000 0 0 1
-18.204637 30.322265 -9.796934 36.699162 -1.030103 1.841026 0.084862 -0.023175 358908.000000 0 0 1
-16.925837 30.224165 -10.418334 36.173552 -1.060300 1.862944 0.097213 -0.028920 279081.000000 0 0 1
-16.926437 30.928265 -11.646834 37.130993 -1.070043 1.889851 0.101658 -0.034652 -562266.000000 0 0 1
-15.579537 31.011565 -12.337534 36.832783 -1.105248 1.912360 0.116513 -0.033966 -442037.000000 0 0 1
-15.639737 31.851865 -13.532434 37.977223 -1.114363 1.935134 0.118242 -0.038944 -96184.100000 0 0 1
-15.961837 31.081665 -14.719434 37.914534 -1.096371 1.969503 0.119303 -0.043425 381556.000000 0 0 1
-15.163537 31.645265 -15.956234 38.548114 -1.123949 1.997564 0.158451 -0.050357 626126.000000 0 0 1
-13.756137 31.490865 -15.872034 37.852707 -1.158949 2.003482 0.149143 -0.057814 -242138.000000 0 0 1
-13.301237 31.783865 -17.177034 38.499189 -1.174452 2.033273 0.141357 -0.063773 -333616.000000 0 0 1
-11.782737 31.884665 -17.367234 38.171791 -1.216819 2.043141 0.150314 -0.063960 -194821.000000 0 0 1
-11.073137 30.646365 -17.498334 36.986562 -1.224073 2.063602 0.154448 -0.069153 338861.000000 0 0 1
-9.855737 30.819965 -18.224334 37.136669 -1.261289 2.083732 0.137296 -0.059410 332718.000000 0 0 1
-9.913137 30.804865 -19.705534 37.888232 -1.259458 2.117760 0.132474 -0.061136 -605310.000000 0 0 1
-10.152337 29.509965 -20.275434 37.215605 -1.239449 2.146959 0.125328 -0.063371 40531.900000 0 0 1
-10.134937 29.439665 -21.728634 37.967676 -1.239243 2.180096 0.093708 -0.058697 96151.700000 0 0 1
-11.523837 29.383865 -22.447534 38.731152 -1.197047 2.189001 0.105810 -0.050096 161479.000000 0 0 1
-12.184537 30.600565 -22.491034 39.883633 -1.191860 2.169917 0.123141 -0.050974 13413.000000 0 0 1
-13.212337 30.708965 -21.491734 39.742937 -1.164493 2.142147 0.129124 -0.051250 1547.490000 0 0 1
-14.003737 32.034865 -21.684434 41.140636 -1.158688 2.125958 0.147828 -0.049006 331717.000000 0 0 1
-14.957737 31.945365 -22.748534 41.973040 -1.132887 2.143587 0.106471 -0.042591 82705.800000 0 0 1
-15.626337 33.157165 -22.996234 43.271316 -1.130387 2.131099 0.102892 -0.042300 228918.000000 0 0 1
-16.190037 33.202065 -24.435434 44.289783 -1.117101 2.155218 0.083089 -0.032958 529854.000000 0 0 1
-15.124237 33.132865 -25.403834 44.405902 -1.142573 2.179839 0.083061 -0.030788 338274.000000 0 0 1
-15.497337 33.116465 -26.760434 45.309917 -1.133104 2.202609 0.082202 -0.019485 -73140.100000 0 0 1
-16.034437 -33.912439 -27.364734 46.432590 1.129129 2.201042 0.068096 -0.013960 -113541.000000 0 0 1
-17.308837 -33.498839 -26.948234 46.346256 1.093878 2.191312 0.063150 -0.006460 -571415.000000 0 0 1
-17.715137 -32.545039 -27.888034 46.376159 1.072319 2.215979 0.046626 -0.000834 -85644.100000 0 0 1
-19.117037 -31.961139 -27.624734 46.369187 1.031750 2.209003 0.046716 -0.008862 733628.000000 0 0 1
-20.160337 -32.938139 -27.836634 47.605025 1.021551 2.195358 0.044662 -0.009794 750973.000000 0 0 1
-21.498437 -32.416439 -27.781734 47.799928 0.985201 2.191010 0.031291 -0.008794 776044.000000 0 0 1
-22.496737 -33.573239 -27.789034 49.045856 0.980435 2.173161 0.011949 -0.001944 -535214.000000 0 0 1
-22.360037 33.892165 -26.623134 48.553490 -0.987604 2.151157 0.038461 -0.012363 3943.450000 0 0 1
-23.464537 33.014665 -26.440134 48.369757 -0.952905 2.149125 0.023005 -0.012315 384058.000000 0 0 1
-23.291837 31.751265 -27.333834 47.935280 -0.937892 2.177575 0.035294 -0.015684 207391.000000 0 0 1
-22.423937 30.768665 -26.806534 46.563226 -0.941007 2.184259 0.044242 -0.041327 -210401.000000 0 0 1
-23.025437 29.914465 -25.828034 45.739844 -0.914800 2.170833 0.041838 -0.034710 -43696.600000 0 0 1
31.283372 9.949665 -27.187527 42.624018 0.307933 2.262494 0.087153 -0.022350 -187087.000000 0 0 1
31.120542 8.618165 -26.800127 41.964363 0.270158 2.263526 0.077309 -0.015195 1180750.000000 0 0 1
29.739552 8.180465 -26.844737 40.890108 0.268431 2.286978 0.085992 -0.019139 1151950.000000 0 0 1
29.558222 6.836665 -26.190947 40.079848 0.227298 2.282955 0.075012 -0.011096 -111044.000000 0 0 1
29.688002 6.731365 -24.796337 39.262541 0.222967 2.254350 0.062409 -0.001933 236303.000000 0 0 1
29.160152 5.457365 -24.375537 38.396147 0.185011 2.258602 0.054505 -0.000002 238057.000000 0 0 1
29.246372 5.221665 -22.859437 37.485597 0.176679 2.226629 0.055497 0.002095 569492.000000 0 0 1
30.560902 4.990365 -22.373337 38.202601 0.161864 2.196478 0.051571 0.001392 677390.000000 0 0 1
30.287672 4.777265 -21.022237 37.176603 0.156441 2.171799 0.054138 -0.001344 31245.700000 0 0 1
31.544282 4.543265 -20.157437 37.709485 0.143044 2.134766 0.040481 -0.002318 -216945.000000 0 0 1
32.192802 3.327465 -20.380937 38.246976 0.102995 2.132793 0.046988 0.000657 7030.910000 0 0 1
33.123002 3.034165 -19.385437 38.498502 0.091348 2.098485 0.048435 -0.004950 -416708.000000 0 0 1
33.620102 1.586265 -19.224837 38.761087 0.047147 2.089763 0.059073 -0.010870 -150344.000000 0 0 1
32.735612 0.657865 -18.643037 37.677791 0.020094 2.088403 0.064326 -0.011450 -282809.000000 0 0 1
33.316762 -0.636335 -18.569537 38.147599 -0.019097 2.079198 0.072406 -0.010707 97480.900000 0 0 1
32.378232 -1.807535 -18.123537 37.149424 -0.055768 2.080427 0.056346 -0.007202 238439.000000 0 0 1
32.172882 -1.804235 -16.741537 36.312927 -0.056021 2.049958 0.062032 -0.012514 191182.000000 0 0 1
30.801462 -1.495735 -16.502437 34.975674 -0.048522 2.062157 0.048646 -0.013170 190493.000000 0 0 1
30.323412 -1.996335 -15.140737 33.951975 -0.065740 2.033027 0.055003 -0.010611 -261810.000000 0 0 1
30.370572 -3.403635 -14.958537 34.025200 -0.111604 2.025984 0.053389 -0.015400 225456.000000 0 0 1
29.656102 -3.765535 -13.818237 32.933377 -0.126298 2.003781 0.059945 -0.010674 -263822.000000 0 0 1
29.366592 -5.224235 -13.460437 32.724192 -0.176055 1.994709 0.051334 -0.001799 -380582.000000 0 0 1
28.484082 -5.746035 -14.392737 32.427006 -0.199056 2.030687 0.041967 -0.011353 40503.000000 0 0 1
28.226812 -7.088235 -14.168037 32.368647 -0.246030 2.023845 0.038211 -0.012093 -476284.000000 0 0 1
27.497642 -7.741435 -15.326437 32.418356 -0.274428 2.063228 0.020597 -0.011190 -160424.000000 0 0 1
26.133142 -7.403135 -15.489237 31.267619 -0.276053 2.089064 0.029647 -0.016280 224050.000000 0 0 1
25.645542 -8.217835 -16.569837 31.619395 -0.310101 2.122384 0.025619 -0.015643 -1378520.000000 0 0 1
24.214742 -7.951535 -16.884437 30.572289 -0.317282 2.155892 0.038441 -0.017178 -1664700.000000 0 0 1
24.057542 -6.671335 -17.483737 30.478732 -0.270510 2.181736 0.040016 -0.017255 163285.000000 0 0 1
22.779242 -6.580035 -18.088037 29.822271 -0.281206 2.222482 0.068191 -0.025896 118890.000000 0 0 1
22.605842 -7.212435 -19.462637 30.689372 -0.308843 2.257746 0.047022 -0.021081 64102.800000 0 0 1
23.389842 -6.498735 -20.451437 31.742394 -0.271009 2.270896 0.042634 -0.021491 827158.000000 0 0 1
23.029242 -6.929135 -21.754037 32.428337 -0.292268 2.306129 0.055112 -0.025784 39456.700000 0 0 1
23.532342 -5.867735 -22.747537 33.251344 -0.244365 2.324177 0.054091 -0.026168 -2931.040000 0 0 1
23.356342 -6.318635 -24.091837 34.144699 -0.264207 2.354038 0.067233 -0.027782 -10831.300000 0 0 1
23.718342 -5.347735 -24.984837 34.862589 -0.221760 2.369807 0.071904 -0.030506 -289565.000000 0 0 1
23.676842 -5.876135 -26.432967 35.969759 -0.243266 2.396266 0.079074 -0.028215 701925.000000 0 0 1
22.363742 -6.369535 -26.768197 35.457641 -0.277468 2.426351 0.083862 -0.027512 768603.000000 0 0 1
22.246442 -6.403335 -28.145467 36.442753 -0.280260 2.453282 0.072460 -0.031683 -89976.300000 0 0 1
21.003642 -7.127535 -28.679247 36.255399 -0.327154 2.483293 0.065310 -0.033670 -181753.000000 0 0 1
20.982742 -8.497035 -28.302927 36.242665 -0.384769 2.466947 0.061240 -0.025675 -264580.000000 0 0 1
19.972742 -9.220635 -28.905847 36.324627 -0.432509 2.491065 0.055022 -0.026776 -587625.000000 0 0 1
20.072142 -10.724735 -28.655777 36.593229 -0.490717 2.470415 0.072689 -0.018626 -326927.000000 0 0 1
19.055842 -11.118435 -27.762797 35.461495 -0.528173 2.470110 0.074303 -0.016091 188671.000000 0 0 1
19.175142 -12.434035 -27.198917 35.525658 -0.575282 2.442791 0.073799 -0.017869 -387283.000000 0 0 1
19.141342 -13.702935 -28.173027 36.713497 -0.621305 2.445534 0.057172 -0.012344 607292.000000 0 0 1
17.874942 -13.842935 -28.847027 36.650940 -0.658955 2.476849 0.050360 -0.015437 1048150.000000 0 0 1
17.960142 -14.811335 -29.869817 37.870151 -0.689608 2.479558 0.040482 -0.014246 115173.000000 0 0 1
16.602142 -15.098435 -30.569987 37.922526 -0.737999 2.508357 0.046616 -0.023462 228995.000000 0 0 1
15.624842 -15.899335 -29.951767 37.336750 -0.794105 2.501777 0.055868 -0.029457 21284.600000 0 0 1
14.635442 -16.255235 -30.887397 37.847855 -0.837786 2.525416 0.061256 -0.035529 550800.000000 0 0 1
13.362142 -16.803735 -30.113497 36.982902 -0.898996 2.522240 0.075894 -0.038280 801253.000000 0 0 1
13.672742 -18.113435 -29.640417 37.330882 -0.924205 2.488144 0.069589 -0.034763 516862.000000 0 0 1
12.676442 -18.541435 -28.713727 36.454837 -0.971106 2.477785 0.078920 -0.032515 331888.000000 0 0 1
13.151642 -19.829235 -27.963517 36.716788 -0.985166 2.436575 0.078527 -0.029159 1005540.000000 0 0 1
14.267442 -19.594435 -27.061837 36.329669 -0.941435 2.411176 0.069799 -0.023493 744486.000000 0 0 1
14.397242 -20.668735 -26.113547 36.282152 -0.962375 2.374217 0.053285 -0.011502 250870.000000 0 0 1
15.485642 -20.442135 -25.014737 35.824894 -0.922490 2.343746 0.054800 -0.001713 -264018.000000 0 0 1
16.782742 -20.811335 -25.354247 36.845759 -0.892151 2.329689 0.045154 0.000299 -529923.000000 0 0 1
17.574342 -20.807235 -24.176237 36.418250 -0.869430 2.296751 0.035231 0.012397 204936.000000 0 0 1
19.035442 -21.315435 -24.291637 37.507059 -0.841842 2.275299 0.016217 0.016161 48560.500000 0 0 1
19.200442 -22.683935 -24.664537 38.620685 -0.868376 2.263520 0.031318 0.004880 110588.000000 0 0 1
18.818242 -23.642035 -23.753537 38.435694 -0.898520 2.237002 0.046698 -0.010828 -563944.000000 0 0 1
19.425042 -25.051235 -23.993837 39.756771 -0.911229 2.218699 0.051070 -0.017515 255502.000000 0 0 1
20.826542 -25.029635 -23.713337 40.280887 -0.876801 2.200245 0.054449 -0.010534 571019.000000 0 0 1
21.358842 -26.298785 -23.346637 41.144765 -0.888684 2.174174 0.068430 -0.028732 -120731.000000 0 0 1
21.317142 -26.476655 -21.818337 40.391505 -0.892935 2.141437 0.090219 -0.030955 65474.200000 0 0 1
19.996942 -26.400515 -21.276637 39.364453 -0.922547 2.141832 0.081678 -0.025775 593498.000000 0 0 1
20.068342 -26.462105 -19.885237 38.709224 -0.921953 2.110297 0.077805 -0.030326 -363822.000000 0 0 1
18.738642 -26.831295 -19.234537 37.960802 -0.961153 2.102143 0.070226 -0.022046 -881140.000000 0 0 1
18.554142 -28.227205 -19.389237 38.948348 -0.989296 2.091879 0.070543 -0.019294 1307730.000000 0 0 1
17.323142 -28.838025 -18.887637 38.580640 -1.029859 2.082384 0.049428 -0.008466 1478750.000000 0 0 1
15.977842 -28.373915 -19.489237 37.949978 -1.057938 2.110114 0.051481 -0.008889 -398389.000000 0 0 1
15.310842 -27.292925 -18.885237 36.551030 -1.059561 2.113767 0.048639 -0.007248 795313.000000 0 0 1
14.018242 -27.217665 -19.540537 36.320036 -1.095188 2.138871 0.036876 0.003649 1364240.000000 0 0 1
12.903942 -26.346165 -18.879837 34.886679 -1.115354 2.142631 0.016981 -0.002325 -286379.000000 0 0 1
12.475042 -26.962355 -17.647537 34.554751 -1.137445 2.106809 0.024262 -0.003237 706904.000000 0 0 1
11.446342 -26.195315 -16.973237 33.246113 -1.158838 2.106601 0.029621 -0.009508 681778.000000 0 0 1
9.974842 -26.396105 -17.376737 33.139143 -1.209494 2.122756 0.033345 -0.013509 -1165280.000000 0 0 1
9.380542 -27.418915 -16.585637 33.389741 -1.241159 2.090622 0.043398 -0.010054 93320.400000 0 0 1
7.975542 -27.189075 -16.514337 32.796012 -1.285464 2.098496 0.036070 -0.003658 479460.000000 0 0 1
7.152542 -27.748695 -17.697137 33.679928 -1.318526 2.124041 0.037790 -0.002946 -748303.000000 0 0 1
7.416042 -27.132035 -18.963837 33.923032 -1.303982 2.164006 0.043500 -0.006160 -82658.900000 0 0 1
6.782542 -27.894045 -19.991937 34.982255 -1.332271 2.179114 0.038121 -0.003296 129794.000000 0 0 1
6.983542 -27.334135 -21.425737 35.425796 -1.320659 2.220319 0.041846 -0.019017 -829716.000000 0 0 1
6.160342 -26.253185 -21.597337 34.548871 -1.340315 2.246087 0.068110 -0.024302 -277912.000000 0 0 1
6.316942 -25.705875 -22.898437 35.000488 -1.329832 2.283963 0.064666 -0.027575 -395327.000000 0 0 1
5.094942 -24.820235 -23.244337 34.384614 -1.368335 2.313131 0.052225 -0.024287 -198966.000000 0 0 1
4.025242 -25.714935 -23.440937 35.027674 -1.415523 2.303944 0.046376 -0.017667 -203500.000000 0 0 1
2.855042 -25.029535 -23.864437 34.700724 -1.457220 2.329142 0.059625 -0.024737 1204420.000000 0 0 1
1.641242 -25.903375 -24.367937 35.601613 -1.507521 2.324661 0.038064 -0.031303 1076030.000000 0 0 1
2.105642 -26.750685 -25.370387 36.928165 -1.492245 2.328176 0.025744 -0.021219 727092.000000 0 0 1
0.959142 -27.521775 -25.783937 37.725051 -1.535960 2.323302 0.025812 -0.035169 831538.000000 0 0 1
1.203542 -28.601585 -26.809267 39.220351 -1.528742 2.323418 0.013601 -0.015160 -211163.000000 0 0 1
1.873842 -28.135255 -27.959657 39.709524 -1.504293 2.351958 0.015529 -0.018614 -20870.300000 0 0 1
2.135342 -29.191735 -28.847117 41.095903 -1.497778 2.348923 0.029821 -0.021813 161608.000000 0 0 1
3.613242 -29.602355 -29.083017 41.655454 -1.449338 2.343649 0.028182 -0.010163 65685.100000 0 0 1
4.164442 -30.344215 -28.043307 41.527593 -1.434408 2.312159 0.015963 -0.024019 -463825.000000 0 0 1
5.371442 -30.961685 -28.393407 42.351669 -1.399019 2.305571 0.031414 -0.021971 -61397.700000 0 0 1
5.736142 -32.012435 -27.305417 42.465105 -1.393493 2.269216 0.042582 -0.028089 -347384.000000 0 0 1
4.982642 -33.153035 -27.474427 43.345064 -1.421621 2.257322 0.047433 -0.034610 -95781.700000 0 0 1
5.367142 -34.064264 -26.485047 43.481467 -1.414522 2.225736 0.058527 -0.044160 23864.400000 0 0 1
4.269642 33.182142 -26.120137 42.444622 1.442827 2.233681 0.075770 -0.051056 -32816.100000 0 0 1
3.839342 32.316822 -27.173447 42.397096 1.452547 2.266502 0.072869 -0.050179 148346.000000 0 0 1
2.522642 31.873710 -26.882707 41.772923 1.491816 2.269916 0.056229 -0.044076 -110381.000000 0 0 1
1.551642 32.374955 -27.948177 42.797733 1.522906 2.282374 0.071314 -0.028205 -1029610.000000 0 0 1
1.313242 31.452920 -29.033217 42.824508 1.529068 2.315778 0.081840 -0.030417 -33650.600000 0 0 1
0.488142 32.047310 -29.992857 43.895784 1.555566 2.323034 0.077677 -0.040937 105435.000000 0 0 1
-0.064258 30.982750 -31.003127 43.830684 -1.568722 2.356522 0.078554 -0.036962 204881.000000 0 0 1
0.966542 30.717880 -31.937137 44.322715 1.539342 2.375405 0.090786 -0.041601 376696.000000 0 0 1
0.610342 29.785350 -32.900987 44.384846 1.550308 2.405751 0.107529 -0.036813 -367271.000000 0 0 1
1.796442 29.466500 -33.813597 44.887205 1.509906 2.423864 0.100287 -0.032294 -47021.500000 0 0 1
2.106442 30.513280 33.575062 45.417861 1.501872 0.738843 0.091922 -0.031176 609102.000000 0 0 1
3.152942 30.294640 32.600030 44.614663 1.467094 0.751446 0.065134 -0.026007 379439.000000 0 0 1
2.757542 29.282380 31.403996 43.026419 1.476903 0.752654 0.069183 -0.017702 -301891.000000 0 0 1
2.717242 27.886870 31.625776 42.252226 1.473665 0.725000 0.078725 -0.018078 -177167.000000 0 0 1
3.943342 27.218600 31.743556 42.000660 1.426921 0.713941 0.068980 -0.008965 -860112.000000 0 0 1
3.722642 25.786500 32.201076 41.421141 1.427423 0.680264 0.063183 -0.003885 -122912.000000 0 0 1
3.073842 25.141530 31.121886 40.126261 1.449139 0.683133 0.065994 0.000676 256107.000000 0 0 1
3.115042 23.728800 31.336736 39.430324 1.440266 0.652222 0.048212 0.006850 -493455.000000 0 0 1
2.442742 22.920870 30.263776 38.042468 1.464624 0.650921 0.052710 0.015088 -858304.000000 0 0 1
1.175442 22.528470 30.671976 38.074712 1.518668 0.634154 0.057328 0.002010 -672807.000000 0 0 1
0.496042 21.950470 29.544536 36.809629 1.548202 0.639104 0.039669 0.007830 696129.000000 0 0 1
-0.912858 21.368470 29.916466 36.775532 -1.528102 0.620671 0.033154 0.004829 635258.000000 0 0 1
-1.873358 22.378170 30.185886 37.622861 -1.487277 0.639611 0.037295 -0.006428 -880630.000000 0 0 1
-3.122658 21.825670 30.239876 37.424069 -1.428688 0.629991 0.029314 -0.014128 -1084510.000000 0 0 1
-4.316358 22.794370 30.357776 38.207444 -1.383651 0.652528 0.023836 -0.025762 36840.200000 0 0 1
-4.354658 23.345000 31.631936 39.554158 -1.386381 0.643981 0.042946 -0.027466 -301328.000000 0 0 1
-5.264958 24.376400 31.741846 40.366737 -1.358078 0.665940 0.034117 -0.023057 -815561.000000 0 0 1
-5.405358 24.780710 33.176601 41.761087 -1.356033 0.652714 0.045268 -0.018439 -456150.000000 0 0 1
-6.687758 25.208150 33.499731 42.454786 -1.311469 0.661505 0.025133 -0.014762 -497898.000000 0 0 1
-6.636358 25.539700 -33.440637 42.598049 -1.316574 2.473537 0.024948 -0.014617 889722.000000 0 0 1
-7.993858 26.108040 -32.866027 42.728296 -1.273676 2.448363 0.035229 -0.000151 527798.000000 0 0 1
-8.391258 27.367310 -33.366227 43.962347 -1.273281 2.432530 0.024423 0.003459 -728615.000000 0 0 1
-9.614158 27.781900 -32.850007 44.083886 -1.237637 2.411587 0.020194 0.005812 -402763.000000 0 0 1
-9.792658 28.144360 -31.385157 43.278508 -1.235954 2.382107 0.016060 0.005367 -276978.000000 0 0 1
-9.119358 29.378820 -31.106907 43.748342 -1.269820 2.361775 0.019783 0.005619 227366.000000 0 0 1
-8.962358 29.542520 -29.719977 42.852787 -1.276249 2.337183 0.036121 -0.000259 -82003.400000 0 0 1
-8.524858 30.957640 -29.228017 43.420337 -1.302085 2.309245 0.029524 -0.006358 -79825.000000 0 0 1
-7.214658 31.251700 -29.648087 43.677559 -1.343915 2.316916 0.018316 -0.001715 -201597.000000 0 0 1
-6.693758 32.498062 -29.116127 44.143848 -1.367663 2.291048 0.029461 -0.005113 963820.000000 0 0 1
-5.122458 32.588633 -29.072047 43.970928 -1.414887 2.293167 0.034860 -0.013305 1023700.000000 0 0 1
-4.519258 33.798251 -28.570997 44.486485 -1.437872 2.268213 0.051944 -0.019114 110439.000000 0 0 1
-4.504958 -33.368235 -29.491357 44.760182 1.436600 2.290118 0.051507 -0.020977 147661.000000 0 0 1
-3.502058 -33.419995 -30.720027 45.528898 1.466388 2.311404 0.057792 -0.037466 198153.000000 0 0 1
-3.776358 33.927956 -31.747107 46.618086 -1.459947 2.319929 0.057159 -0.024209 119681.000000 0 0 1
-4.780058 -34.126495 -32.714877 47.515574 1.431633 2.330227 0.066865 -0.026693 96389.300000 0 0 1
-4.249258 -33.211985 -33.818417 47.589678 1.443544 2.361183 0.038676 -0.026099 -162841.000000 0 0 1
-4.370358 -31.806925 -33.542987 46.431804 1.434249 2.378084 0.031776 -0.022833 -2645.530000 0 0 1
-3.648058 -30.994555 33.844016 46.036813 1.453635 0.744907 0.025273 -0.024113 214828.000000 0 0 1
32.503142 19.633065 12.458466 39.964045 0.543382 1.253771 0.103047 -0.035878 196738.000000 0 0 1
33.705452 18.967765 12.802766 40.739961 0.512580 1.251124 0.110727 -0.040241 182008.000000 0 0 1
33.389792 17.614665 13.165566 39.981080 0.485441 1.235240 0.114795 -0.032815 802417.000000 0 0 1
34.633762 16.817265 13.769366 40.889037 0.452041 1.227334 0.123034 -0.043001 432208.000000 0 0 1
35.555862 16.435865 12.819666 41.215299 0.432998 1.254508 0.122945 -0.021107 -875775.000000 0 0 1
36.350502 15.433065 13.359766 41.689589 0.401500 1.244583 0.128829 -0.022921 7417.650000 0 0 1
-35.497600 14.894865 12.364566 40.432896 -0.397290 1.260013 0.122008 -0.027240 791964.000000 0 0 1
-34.564405 13.894065 12.759166 39.376890 -0.382209 1.240814 0.102945 -0.026660 105275.000000 0 0 1
-35.212023 12.685565 13.011966 39.624757 -0.345788 1.236209 0.106604 -0.026150 -385490.000000 0 0 1
-34.547505 11.891765 14.082866 39.157008 -0.331512 1.202902 0.117964 -0.034145 -110756.000000 0 0 1
-34.789237 12.452565 15.403466 40.032789 -0.343733 1.175836 0.116208 -0.030543 146030.000000 0 0 1
-34.132287 11.631865 16.329766 39.585029 -0.328444 1.145574 0.118260 -0.026760 -91127.800000 0 0 1
-34.017097 12.267165 17.728066 40.273199 -0.346102 1.114980 0.112324 -0.018800 813910.000000 0 0 1
-35.257857 12.366065 18.468066 41.678598 -0.337327 1.111735 0.116305 -0.024408 778266.000000 0 0 1
-35.099334 13.015165 19.701266 42.302454 -0.355092 1.086344 0.115245 -0.028728 405644.000000 0 0 1
-36.444197 13.266065 20.468966 43.853695 -0.349101 1.085177 0.128541 -0.039073 537955.000000 0 0 1
36.041552 12.099265 21.128066 43.494607 0.323882 1.063561 0.120309 -0.021564 -56505.500000 0 0 1
34.981912 12.349465 22.016566 43.138992 0.339367 1.035189 0.125519 -0.025282 -62507.300000 0 0 1
34.576492 11.065365 22.823966 42.882509 0.309726 1.009547 0.123499 -0.018009 -295861.000000 0 0 1
35.610192 10.533265 23.613786 44.007344 0.287593 1.004409 0.114980 -0.009971 -347571.000000 0 0 1
35.309452 10.684365 25.021906 44.575877 0.293833 0.974801 0.109570 -0.010642 -1309060.000000 0 0 1
-36.306537 10.386565 25.755236 45.709709 -0.278638 0.972238 0.095983 -0.014157 599706.000000 0 0 1
-35.380283 11.486165 25.604566 45.158501 -0.313914 0.967945 0.089382 -0.018891 364975.000000 0 0 1
-34.706549 11.562665 24.396456 43.970750 -0.321590 0.982633 0.098251 -0.019377 -1543750.000000 0 0 1
-33.975867 12.872765 24.008046 43.548294 -0.362168 0.986878 0.108972 -0.021736 140646.000000 0 0 1
-32.971577 13.322265 24.877226 43.399124 -0.383995 0.960367 0.104710 -0.021527 106020.000000 0 0 1
-33.487137 13.976865 26.025616 44.655053 -0.395399 0.948608 0.084823 -0.018919 -692691.000000 0 0 1
-32.361077 14.614865 26.836736 44.508920 -0.424199 0.923600 0.098837 -0.016848 -178851.000000 0 0 1
-31.723437 15.728465 26.255496 44.080746 -0.460282 0.932756 0.140747 -0.024772 -182092.000000 0 0 1
-31.276337 16.527065 27.307266 44.688252 -0.486125 0.913396 0.151211 -0.019300 -76709.300000 0 0 1
-30.616007 17.825065 26.754706 44.394674 -0.527239 0.923971 0.154853 -0.016555 -524191.000000 0 0 1
-31.526957 18.704965 26.141586 45.024518 -0.535479 0.951321 0.122149 -0.045625 217187.000000 0 0 1
-30.923917 19.928865 25.788486 44.927656 -0.572463 0.959414 0.131286 -0.050505 -3866.090000 0 0 1
-31.964977 20.962865 25.253436 45.814163 -0.580447 0.986977 0.144102 -0.036217 273280.000000 0 0 1
-32.960077 21.189165 26.274196 47.177121 -0.571349 0.980115 0.114463 -0.040869 862120.000000 0 0 1
-33.963847 22.158065 26.003276 48.173573 -0.578062 1.000617 0.101958 -0.033750 -435646.000000 0 0 1
-33.461277 23.523465 25.662556 48.286409 -0.612740 1.010467 0.102938 -0.029651 -435307.000000 0 0 1
-34.453630 24.236565 24.953956 48.960838 -0.613041 1.035993 0.097392 -0.029861 283849.000000 0 0 1
-33.879937 25.451465 24.545766 48.970622 -0.644285 1.045771 0.084582 -0.024612 -25395.600000 0 0 1
-34.695741 26.297565 23.572366 49.507705 -0.648568 1.074542 0.089542 -0.025424 -241053.000000 0 0 1
-34.740050 25.784065 22.274266 48.660374 -0.638490 1.095334 0.104413 -0.034350 528628.000000 0 0 1
-35.549080 26.568965 21.358066 49.252553 -0.641828 1.122264 0.097339 -0.033706 461416.000000 0 0 1
-35.289788 26.158265 19.894266 48.222462 -0.637872 1.145543 0.123887 -0.053826 276126.000000 0 0 1
-35.749506 24.822865 19.585766 47.726345 -0.606928 1.147930 0.132072 -0.049836 264639.000000 0 0 1
-35.309513 24.469365 18.269766 46.682929 -0.606010 1.168689 0.134092 -0.040060 42453.600000 0 0 1
-35.783494 23.073265 17.756066 46.131463 -0.572712 1.175695 0.150567 -0.040924 -824194.000000 0 0 1
35.848302 23.023365 17.313966 45.988581 0.570904 1.184798 0.123621 -0.049104 -1203620.000000 0 0 1
35.644502 22.045365 16.289366 44.965232 0.553896 1.200099 0.131174 -0.045472 72273.800000 0 0 1
34.324482 22.297365 15.533166 43.779240 0.576098 1.208089 0.112751 -0.043322 1124150.000000 0 0 1
33.153152 21.792665 16.205466 42.856375 0.581513 1.183016 0.106547 -0.058952 942176.000000 0 0 1
31.945952 21.763165 15.461966 41.632339 0.598031 1.190287 0.107905 -0.054699 115636.000000 0 0 1
30.848302 20.879365 16.103566 40.581899 0.595013 1.162750 0.053020 -0.054531 136607.000000 0 0 1
30.213812 21.337465 17.280466 40.826173 0.614885 1.133746 0.054882 -0.046571 43945.600000 0 0 1
29.094462 22.128865 16.918766 40.279263 0.650242 1.137311 0.050505 -0.036511 -770645.000000 0 0 1
28.650882 22.914565 18.132466 40.923547 0.674610 1.111763 0.031351 -0.024122 -169160.000000 0 0 1
29.505402 23.967765 18.557066 42.301149 0.682207 1.116657 0.013530 -0.030267 -259317.000000 0 0 1
28.907282 24.660365 19.619066 42.762979 0.706282 1.094168 0.002446 -0.017238 -288344.000000 0 0 1
29.880372 25.193065 20.700966 44.227335 0.700493 1.083704 0.019934 -0.025855 -229568.000000 0 0 1
30.840462 26.062265 20.217966 45.156859 0.701623 1.106574 0.046937 -0.036464 -293547.000000 0 0 1
31.734152 26.478565 21.240166 46.468435 0.695360 1.096078 0.063342 -0.044449 306196.000000 0 0 1
32.967602 27.256665 20.618366 47.485846 0.690853 1.121646 0.071900 -0.041986 1340910.000000 0 0 1
34.019512 27.644165 21.543566 48.843140 0.682375 1.113998 0.070334 -0.032636 1060430.000000 0 0 1
33.622992 28.689865 22.399466 49.551489 0.706396 1.101741 0.038618 -0.025472 -450168.000000 0 0 1
34.596252 28.824265 23.568636 50.825383 0.694637 1.088609 0.046684 -0.032700 693247.000000 0 0 1
35.899792 29.382065 23.338086 51.930406 0.685888 1.104691 0.060294 -0.028431 718045.000000 0 0 1
36.275562 30.056465 24.522156 53.109732 0.691914 1.090856 0.057194 -0.015331 -509503.000000 0 0 1
-35.292618 30.711065 24.420296 52.773945 -0.716096 1.089720 0.044798 -0.020799 -325455.000000 0 0 1
-34.133269 29.948165 24.133896 51.423901 -0.720182 1.082284 0.048214 -0.019392 269263.000000 0 0 1
-33.034727 30.852765 24.112476 51.230829 -0.751258 1.080754 0.044303 -0.009522 68929.800000 0 0 1
-31.639897 30.212065 23.999596 49.898222 -0.762318 1.069034 0.070708 -0.012623 -428987.000000 0 0 1
-31.197677 29.899165 22.646266 48.786356 -0.764148 1.088073 0.052580 -0.007776 269706.000000 0 0 1
-31.705787 28.810565 21.854466 48.092861 -0.737593 1.099073 0.071473 -0.009644 -153619.000000 0 0 1
-31.197337 27.400065 22.412566 47.184325 -0.720686 1.075832 0.080220 -0.008989 336101.000000 0 0 1
-29.770277 27.340865 22.367266 46.196178 -0.742885 1.065371 0.051473 -0.009146 718567.000000 0 0 1
-29.253647 26.279965 23.167466 45.641471 -0.731902 1.038403 0.062852 -0.013769 68313.900000 0 0 1
-29.029467 26.664965 24.701836 46.517857 -0.742969 1.010994 0.073945 -0.014151 -93372.000000 0 0 1
-30.265817 26.767465 25.398096 47.724000 -0.724136 1.009615 0.063410 -0.014427 454175.000000 0 0 1
-29.968007 26.993665 26.739456 48.391507 -0.733229 0.985358 0.074864 -0.023394 -546411.000000 0 0 1
-31.191687 27.369765 27.580696 49.826902 -0.720227 0.984199 0.077305 -0.029913 -453116.000000 0 0 1
-31.883157 26.237165 28.010006 49.894739 -0.688559 0.974742 0.068441 -0.025799 -850675.000000 0 0 1
-32.882357 26.606765 28.869336 51.211404 -0.680295 0.971903 0.061521 -0.011200 -505399.000000 0 0 1
-33.821177 25.454265 29.297356 51.479381 -0.645171 0.965375 0.057157 -0.016168 53531.600000 0 0 1
-33.136987 24.673465 30.262836 51.212098 -0.640030 0.938583 0.056799 -0.018038 -104084.000000 0 0 1
-33.875827 23.546765 30.523196 51.319463 -0.607423 0.933819 0.033489 -0.022718 -521770.000000 0 0 1
-33.168267 22.485765 31.337556 50.870286 -0.595760 0.907105 0.068008 -0.039540 -130949.000000 0 0 1
-31.932857 22.036065 30.760296 49.512537 -0.604034 0.900443 0.084456 -0.032877 620319.000000 0 0 1
-31.195587 21.165465 31.604546 49.193383 -0.596134 0.873098 0.078467 -0.031395 215941.000000 0 0 1
-30.386747 21.834265 32.759848 49.732255 -0.623065 0.851674 0.067880 -0.029553 -482313.000000 0 0 1
-31.138817 22.385365 33.852042 51.153604 -0.623291 0.847616 0.092209 -0.031846 262117.000000 0 0 1
-30.689497 21.858965 -33.236017 50.242337 -0.618908 2.293632 0.072514 -0.025031 431244.000000 0 0 1
-29.365367 22.408965 -32.588557 49.259523 -0.651838 2.293705 0.072307 -0.014768 590539.000000 0 0 1
-29.486957 23.732365 -32.158067 49.667365 -0.677687 2.275055 0.055863 -0.014720 -41932.800000 0 0 1
-28.445817 24.062665 -31.255767 48.632287 -0.702116 2.268808 0.086563 -0.004756 61007.100000 0 0 1
-28.753517 25.263565 -30.316067 48.827005 -0.720880 2.240670 0.060148 -0.002165 -297013.000000 0 0 1
-28.339657 26.504265 -30.849757 49.571360 -0.751945 2.242513 0.072974 -0.017924 276014.000000 0 0 1
-29.304737 27.063365 -31.770617 50.995740 -0.745656 2.243375 0.062536 -0.014817 206914.000000 0 0 1
-29.197337 28.529465 -32.266457 52.034019 -0.773829 2.239670 0.074219 -0.020031 -64508.600000 0 0 1
-29.243527 29.441665 -31.198427 51.916639 -0.788774 2.215464 0.064438 -0.029547 -25649.600000 0 0 1
-28.899157 30.704765 -31.735357 52.773827 -0.815682 2.215982 0.074863 -0.045857 -291231.000000 0 0 1
-29.101227 31.884865 -30.746707 52.998925 -0.831010 2.189695 0.056111 -0.032021 -301859.000000 0 0 1
-28.149297 31.997965 -29.759177 51.979432 -0.849298 2.180370 0.045647 -0.031518 -573358.000000 0 0 1
-28.485637 33.061465 -28.923997 52.355416 -0.859608 2.156103 0.031493 -0.021567 -722361.000000 0 0 1
-27.592587 33.141065 -27.713187 51.261114 -0.876503 2.141980 0.036026 -0.018363 587264.000000 0 0 1
-26.269607 33.672765 -27.909567 51.018539 -0.908280 2.149630 0.019264 -0.017920 639024.000000 0 0 1
-26.162567 -33.213639 -28.073077 50.751585 0.903597 2.156933 0.026754 0.002341 -881741.000000 0 0 1
-26.590537 -32.347739 -26.841777 49.738455 0.882771 2.140828 0.023587 0.009555 948173.000000 0 0 1
-28.009197 -32.095239 -26.863787 50.361519 0.853276 2.133434 0.019607 -0.006542 643404.000000 0 0 1
-28.401017 -31.148439 -25.898277 49.472859 0.831502 2.121732 0.006157 0.003926 -828070.000000 0 0 1
-29.872437 -30.880439 -25.747877 50.089093 0.801988 2.110686 -0.006624 0.005306 -809770.000000 0 0 1
-30.442817 -29.960039 -26.667887 50.354198 0.777406 2.128932 0.003503 0.000407 -658072.000000 0 0 1
-31.791767 -29.791939 -26.384487 50.935422 0.752936 2.115306 0.009069 -0.001813 -737612.000000 0 0 1
-32.430217 -28.811739 -27.407527 51.312843 0.726382 2.134270 0.021386 -0.007260 117193.000000 0 0 1
-33.844017 -28.743039 -27.385497 52.168432 0.704076 2.123445 0.023379 -0.007744 231525.000000 0 0 1
-34.362000 -27.800439 -28.310277 52.488887 0.680233 2.140470 0.028459 -0.012038 -795725.000000 0 0 1
-35.827572 -28.012939 -28.626097 53.738191 0.663595 2.132579 0.033336 -0.016560 -560726.000000 0 0 1
36.270822 -27.624239 -27.566787 53.278503 -0.650891 2.114617 0.026109 -0.003198 1476990.000000 0 0 1
34.847812 -27.859939 -27.821327 52.579202 -0.674420 2.128373 0.032694 -0.006940 2533110.000000 0 0 1
33.803142 -27.337539 -26.737477 51.038086 -0.680040 2.122188 0.036812 -0.006969 671489.000000 0 0 1
33.827152 -28.076139 -25.538027 50.840306 -0.692761 2.097074 0.034127 -0.005541 50554.300000 0 0 1
32.820862 -27.656439 -24.659737 49.499397 -0.700210 2.092298 0.038952 -0.006814 -192968.000000 0 0 1
32.712402 -28.406939 -23.326837 49.205658 -0.715071 2.064702 0.026798 0.002126 25021.100000 0 0 1
32.223172 -29.762239 -23.556537 49.789900 -0.745717 2.063624 0.045626 -0.007562 582028.000000 0 0 1
31.589932 -30.265239 -22.316537 49.111469 -0.763985 2.042501 0.055431 -0.009845 -3260.800000 0 0 1
32.526992 -30.454139 -21.108837 49.305607 -0.752498 2.013211 0.044791 -0.004247 -668683.000000 0 0 1
33.665932 -31.266039 -21.370737 50.672168 -0.748455 2.006165 0.024980 -0.009528 716018.000000 0 0 1
34.727722 -31.135139 -20.436037 50.921933 -0.730906 1.983755 0.006901 -0.005349 248365.000000 0 0 1
35.558762 -29.848039 -20.537237 50.765236 -0.698308 1.987287 0.007009 -0.006402 -1199450.000000 0 0 1
34.981822 -28.682639 -20.077237 49.492597 -0.686776 1.988499 0.016332 -0.000433 -121102.000000 0 0 1
35.582902 -27.567539 -20.731937 49.557294 -0.659148 2.002416 0.015662 -0.002653 144553.000000 0 0 1
34.718572 -26.304339 -20.487537 48.135608 -0.648376 2.010445 0.025673 0.000406 -43455.400000 0 0 1
33.465012 -26.450339 -21.085537 47.582848 -0.668852 2.029887 0.034597 -0.004401 -369872.000000 0 0 1
32.520992 -25.502039 -20.645637 46.197525 -0.665015 2.034092 0.040849 -0.007050 -259115.000000 0 0 1
31.272742 -25.410539 -21.507237 45.675389 -0.682344 2.061075 0.043417 -0.012524 -62150.500000 0 0 1
30.470322 -26.566939 -21.665237 45.865295 -0.717069 2.062770 0.058012 -0.014521 580161.000000 0 0 1
29.219472 -26.365739 -22.328137 45.249038 -0.734103 2.086848 0.059920 -0.012537 668950.000000 0 0 1
28.630782 -27.740139 -22.731037 45.890490 -0.769600 2.089014 0.059678 -0.006545 -183117.000000 0 0 1
28.199422 -28.553239 -21.651337 45.599071 -0.791632 2.065555 0.065886 -0.013135 -15497.800000 0 0 1
27.836842 -29.827539 -22.099737 46.400111 -0.819907 2.067223 0.062811 -0.014337 -345333.000000 0 0 1
27.253242 -30.622339 -20.946237 46.034897 -0.843545 2.043177 0.081787 -0.014710 -354372.000000 0 0 1
28.157712 -30.907039 -19.936537 46.320269 -0.831912 2.015739 0.080881 -0.015724 -252211.000000 0 0 1
28.859892 -32.131639 -20.036137 47.610739 -0.838989 2.005159 0.082712 -0.009225 382386.000000 0 0 1
29.744192 -32.534739 -18.823037 47.932588 -0.830175 1.974360 0.070511 -0.011422 117583.000000 0 0 1
29.005902 -32.899639 -17.687237 47.292357 -0.848213 1.954112 0.074360 -0.011907 83765.500000 0 0 1
28.366762 -31.838439 -16.944637 45.885511 -0.842998 1.949031 0.059829 -0.007193 285263.000000 0 0 1
27.633142 -32.433239 -15.707737 45.411877 -0.865142 1.923989 0.051350 -0.003623 158455.000000 0 0 1
26.523842 -33.237839 -16.084437 45.464022 -0.897275 1.932410 0.067272 -0.010453 70143.100000 0 0 1
26.021842 -33.952739 -14.967937 45.320679 -0.916873 1.907383 0.053802 -0.002897 88305.500000 0 0 1
24.486442 -34.089439 -14.855837 44.523832 -0.947894 1.910980 0.042692 -0.005905 392323.000000 0 0 1
23.816142 -32.859339 -14.531937 43.105939 -0.943625 1.914654 0.049800 -0.001747 -151053.000000 0 0 1
22.469742 -33.117639 -14.240837 42.479039 -0.974658 1.912660 0.053445 -0.010633 -305043.000000 0 0 1
-0.617237 -7.023835 -28.919517 29.766654 1.483144 2.902447 0.056542 -0.017448 228217.000000 0 0 1
-0.015837 -8.306035 -28.863947 30.035278 1.568890 2.861398 0.055768 -0.012245 -67245.000000 0 0 1
-0.364737 -9.057135 -30.012617 31.351586 1.530547 2.848282 0.049259 -0.011392 53974.200000 0 0 1
-0.206037 -10.565735 -29.859657 31.674538 1.551298 2.801435 0.055801 -0.006021 220558.000000 0 0 1
1.117163 -11.017635 -29.652267 31.652698 -1.469744 2.784167 0.030617 -0.007027 62334.200000 0 0 1
1.154963 -12.410935 -29.495787 32.021348 -1.478003 2.741767 0.040681 -0.006139 331042.000000 0 0 1
2.539863 -12.827535 -28.923687 31.742341 -1.375324 2.716989 0.039101 -0.004811 708479.000000 0 0 1
3.579963 -12.796535 -29.950147 32.765512 -1.298010 2.724018 0.046771 -0.008654 2353640.000000 0 0 1
4.961463 -12.879035 -29.465177 32.537399 -1.203082 2.703538 0.067275 -0.019319 2008440.000000 0 0 1
5.429663 -14.224135 -28.893947 32.659875 -1.206146 2.656630 0.075524 -0.031122 -1189090.000000 0 0 1
5.026363 -14.443335 -27.570957 31.528272 -1.235899 2.635167 0.072908 -0.021945 -285806.000000 0 0 1
5.696463 -15.489935 -26.939597 31.593190 -1.218395 2.591934 0.082861 -0.030138 -305779.000000 0 0 1
5.258163 -16.931935 -27.231757 32.494727 -1.269692 2.564470 0.070815 -0.030390 -282298.000000 0 0 1
5.698663 -17.401935 -28.487947 33.865399 -1.254329 2.570315 0.064030 -0.034835 192536.000000 0 0 1
5.396163 -18.769235 -28.661797 34.682868 -1.290846 2.543474 0.057557 -0.033987 -431590.000000 0 0 1
5.532963 -19.303235 -30.062747 36.152418 -1.291647 2.552699 0.046899 -0.030702 -410861.000000 0 0 1
6.851563 -19.209535 -30.545847 36.728721 -1.228187 2.552889 0.049929 -0.031460 28235.000000 0 0 1
6.836463 -19.743935 -31.839457 38.082952 -1.237460 2.560850 0.036522 -0.031619 553136.000000 0 0 1
8.261763 -19.776035 -32.483057 38.916542 -1.175069 2.558357 0.044958 -0.026171 496899.000000 0 0 1
8.761663 -18.483635 -32.674667 38.549259 -1.128146 2.582258 0.047101 -0.030103 -14750.600000 0 0 1
10.008663 -18.423035 -33.325707 39.372380 -1.073136 2.580029 0.036622 -0.024220 63064.100000 0 0 1
10.211763 -17.068635 -34.033467 39.419478 -1.031645 2.612701 0.037928 -0.018601 245371.000000 0 0 1
9.102063 -16.827135 33.416178 38.505077 -1.074954 0.519962 0.036206 -0.023970 316115.000000 0 0 1
9.192163 -15.541435 32.812523 37.452552 -1.036679 0.503065 0.054286 -0.022616 -486463.000000 0 0 1
8.258563 -15.116935 31.692686 36.071483 -1.070789 0.497857 0.051587 -0.034313 -590618.000000 0 0 1
8.373463 -15.982135 30.571116 35.498403 -1.088191 0.533176 0.061116 -0.030820 -76015.700000 0 0 1
7.664163 -15.517135 29.454196 34.162413 -1.112028 0.531236 0.054704 -0.025516 -878767.000000 0 0 1
7.984763 -16.371935 28.220276 33.588400 -1.117029 0.573183 0.049032 -0.020402 -688088.000000 0 0 1
7.555163 -17.666135 28.395756 34.285445 -1.166672 0.594879 0.054628 -0.020249 229241.000000 0 0 1
7.769763 -18.451435 27.228876 33.796987 -1.172240 0.634008 0.049032 -0.023055 -113447.000000 0 0 1
7.322063 -19.911435 27.452846 34.694907 -1.218413 0.657922 0.047409 -0.018110 -402596.000000 0 0 1
8.183463 -20.681235 28.265636 35.967050 -1.194007 0.666685 0.044336 -0.008373 -12707.000000 0 0 1
7.530263 -21.666435 29.041816 37.007652 -1.236302 0.668501 0.018173 -0.004640 -451622.000000 0 0 1
7.842763 -21.726635 30.546736 38.296979 -1.224378 0.647444 0.008329 -0.007325 -506190.000000 0 0 1
7.205163 -20.868635 31.456966 38.431172 -1.238348 0.611953 0.022673 -0.013072 29271.400000 0 0 1
7.269663 -19.513735 31.195376 37.507137 -1.214183 0.588601 0.026681 -0.018827 -359321.000000 0 0 1
6.702663 -18.694835 32.373531 37.979837 -1.226543 0.550262 0.031943 -0.019688 347203.000000 0 0 1
5.288763 -18.807135 32.508125 37.927002 -1.296666 0.541137 0.031393 -0.025007 143249.000000 0 0 1
4.847563 -17.740235 33.328197 38.065516 -1.304056 0.504227 0.033440 -0.023079 395452.000000 0 0 1
3.420763 -18.006135 33.887592 38.526502 -1.383056 0.495793 0.041402 -0.024596 289814.000000 0 0 1
3.278163 -19.164435 -33.534107 38.762846 -1.401381 2.616165 0.035140 -0.026483 -27745.200000 0 0 1
2.602263 -18.814935 -32.351147 37.514934 -1.433360 2.610697 0.034348 -0.034278 -181545.000000 0 0 1
2.187163 -20.096135 -31.526297 37.450577 -1.462388 2.571425 0.054906 -0.026321 114549.000000 0 0 1
1.023963 -20.829435 -31.986717 38.184603 -1.521676 2.563829 0.056400 -0.032101 733778.000000 0 0 1
0.543663 -21.767435 -31.041737 37.917097 -1.545826 2.529894 0.062824 -0.030467 -167650.000000 0 0 1
-0.422837 -21.060935 -30.086267 36.727717 1.550722 2.530760 0.063146 -0.032137 -703408.000000 0 0 1
-1.626637 -20.683635 -30.758737 37.102003 1.492314 2.548170 0.071600 -0.043703 -95692.400000 0 0 1
-2.351837 -19.755935 -29.988657 35.988160 1.452309 2.555833 0.084913 -0.022578 -324897.000000 0 0 1
-1.910837 -18.244435 -30.061857 35.216842 1.466441 2.593695 0.064573 -0.010454 -4128.810000 0 0 1
-2.753037 -17.265235 -29.416857 34.220155 1.412672 2.605352 0.078045 -0.017995 -134885.000000 0 0 1
-2.437037 -15.940635 -29.856977 33.933495 1.419089 2.646380 0.083194 -0.018817 165132.000000 0 0 1
-3.404437 -14.824635 -29.359897 33.066048 1.345063 2.663593 0.079166 -0.004941 224579.000000 0 0 1
-3.462637 -14.565235 -27.982717 31.735916 1.337396 2.650327 0.064654 -0.011077 17576.400000 0 0 1
-4.215937 -13.371135 -27.715417 31.059712 1.265361 2.673271 0.057648 -0.011577 258674.000000 0 0 1
-4.222437 -13.048435 -26.204947 29.576847 1.257834 2.659432 0.055244 -0.012810 -320217.000000 0 0 1
-5.042037 -13.912435 -25.455647 29.444319 1.223107 2.615021 0.059882 -0.010705 201440.000000 0 0 1
-4.947037 -13.665035 -24.036237 28.088201 1.223452 2.597778 0.048793 -0.008656 165994.000000 0 0 1
-5.999637 -12.612435 -23.519437 27.353849 1.126783 2.605717 0.053115 -0.012852 796753.000000 0 0 1
-7.335137 -13.106235 -23.614937 27.986477 1.060561 2.575118 0.053654 -0.014517 -41027.900000 0 0 1
-8.312837 -12.143435 -23.429237 27.667588 0.970512 2.580758 0.050684 -0.015147 177617.000000 0 0 1
-9.758037 -12.729735 -23.507337 28.458045 0.916784 2.542832 0.066390 -0.021126 417696.000000 0 0 1
-10.113837 -13.751535 -22.596637 28.319647 0.936660 2.494623 0.053780 -0.016051 -714045.000000 0 0 1
-11.352537 -14.257735 -23.007137 29.351175 0.898354 2.471650 0.030208 -0.007624 -297128.000000 0 0 1
-11.850537 -15.350835 -22.071037 29.380504 0.913376 2.420695 0.018977 -0.004772 -71056.400000 0 0 1
-10.971237 -16.447635 -22.126037 29.672449 0.982535 2.412345 0.038061 -0.009914 -520318.000000 0 0 1
-11.531637 -17.666735 -21.629737 30.214859 0.992503 2.368657 0.036036 -0.005546 34462.100000 0 0 1
-12.175437 -18.573835 -22.730937 31.779303 0.990554 2.367814 0.019701 0.002704 395139.000000 0 0 1
-13.345537 -17.991535 -23.275937 32.304302 0.932585 2.375350 0.011183 -0.000995 -286256.000000 0 0 1
-13.759237 -18.676535 -24.403137 33.669610 0.935854 2.381515 0.008991 -0.001583 185617.000000 0 0 1
-14.920537 -17.979535 -25.188477 34.356156 0.878110 2.393750 0.007896 -0.007529 898085.000000 0 0 1
-16.142437 -17.984135 -24.438237 34.369097 0.839313 2.361790 0.003551 0.001421 358223.000000 0 0 1
-17.288337 -17.657035 -25.194847 35.290761 0.795948 2.365880 0.003618 -0.007030 264747.000000 0 0 1
-17.836437 -16.213335 -24.874137 34.637168 0.737766 2.371914 -0.000546 0.001666 -155913.000000 0 0 1
-18.573137 -16.151735 -23.666337 34.145797 0.715780 2.336572 0.008771 -0.002467 -99886.100000 0 0 1
-19.457637 -15.054635 -23.711337 34.168248 0.658506 2.337768 0.018059 -0.009427 -247962.000000 0 0 1
-20.124437 -14.946335 -22.359337 33.590562 0.638810 2.299152 0.024252 -0.024784 -335921.000000 0 0 1
-19.252337 -14.575935 -21.312837 32.207878 0.648029 2.293917 0.022839 -0.009341 -361545.000000 0 0 1
-19.739437 -14.836435 -20.045837 31.805672 0.644533 2.252684 0.052550 -0.014963 -585257.000000 0 0 1
-20.189637 -13.613535 -19.303137 31.073475 0.593257 2.241081 0.083618 -0.025452 -297969.000000 0 0 1
-21.367237 -13.078635 -19.855737 31.966542 0.549261 2.240994 0.082240 -0.034597 -159556.000000 0 0 1
-21.859237 -12.037635 -19.011437 31.371414 0.503372 2.221833 0.103869 -0.038749 1067240.000000 0 0 1
-23.403737 -11.718335 -19.061837 32.379128 0.464210 2.200255 0.109135 -0.032676 1147210.000000 0 0 1
-23.935337 -11.150135 -20.255637 33.279374 0.435951 2.225160 0.116195 -0.039304 -701782.000000 0 0 1
-25.324647 -11.188735 -20.227037 34.287878 0.416024 2.201754 0.119841 -0.036776 -447862.000000 0 0 1
-25.927397 -10.098835 -21.205637 34.984217 0.371426 2.222006 0.124774 -0.021744 -129241.000000 0 0 1
-25.902557 -10.569535 -22.567537 35.943724 0.387427 2.249594 0.103813 -0.022449 173051.000000 0 0 1
-26.263697 -9.594535 -23.515337 36.535024 0.350253 2.270039 0.084414 -0.011974 -74210.200000 0 0 1
-26.486667 -10.204935 -24.921737 37.772705 0.367758 2.291324 0.072021 -0.000058 557372.000000 0 0 1
-25.324427 -10.047135 -25.733337 37.476341 0.377690 2.327675 0.054999 -0.000053 526735.000000 0 0 1
-24.569337 -11.248535 -25.913247 37.438994 0.429345 2.335254 0.049370 0.001324 -52441.000000 0 0 1
-23.507937 -11.158835 -27.004377 37.501721 0.443190 2.374719 0.046106 0.004227 -479614.000000 0 0 1
-24.013637 -11.120535 -28.343337 38.777130 0.433688 2.390479 0.049833 0.011938 23803.800000 0 0 1
-23.083837 -10.610235 -29.288667 38.771983 0.430841 2.427073 0.034787 0.014597 79406.100000 0 0 1
-23.363337 -10.920535 -30.779627 40.155810 0.437247 2.444178 0.032843 0.013003 879619.000000 0 0 1
-24.474137 -10.170835 -31.321727 41.030231 0.393860 2.439329 0.024244 0.012981 762382.000000 0 0 1
-23.962637 -9.246335 -32.218727 41.203751 0.368262 2.468563 0.024022 0.001350 -95087.600000 0 0 1
-25.000037 -8.183935 -32.706707 41.972698 0.316362 2.464245 0.036675 -0.004047 -152928.000000 0 0 1
-25.975937 -8.586235 -33.649277 43.367575 0.319240 2.458951 0.049149 0.003442 1179920.000000 0 0 1
-27.145817 -9.336035 -33.322057 43.982001 0.331250 2.430470 0.047694 0.000906 -34757.600000 0 0 1
-28.109287 -8.679235 -32.332017 43.712933 0.299481 2.403338 0.034335 0.007548 -1126750.000000 0 0 1
-29.375697 -9.266135 -32.547277 44.812031 0.305557 2.383730 0.028275 0.004845 -213719.000000 0 0 1
-30.246187 -8.933835 -31.488177 44.566249 0.287204 2.355404 0.031026 0.009955 1180610.000000 0 0 1
-31.748737 -9.398435 -31.704597 45.842059 0.287806 2.334505 0.033304 0.004106 1136880.000000 0 0 1
-31.915217 -10.790635 -31.787437 46.319111 0.326037 2.327145 0.029971 -0.000634 995853.000000 0 0 1
-33.264657 -11.210035 -31.502737 47.165928 0.325043 2.302197 0.020967 -0.007311 737785.000000 0 0 1
-33.406857 -12.793735 -31.490657 47.658779 0.365737 2.292617 0.030920 -0.014975 -260920.000000 0 0 1
-34.727545 -13.171835 -31.202317 48.508599 0.362527 2.269509 0.026298 -0.024041 -219596.000000 0 0 1
-35.036769 -14.503335 -31.579447 49.347577 0.392471 2.265215 0.019932 -0.023535 116615.000000 0 0 1
-36.268997 -15.068235 -30.848457 49.941157 0.393761 2.236606 0.029792 -0.031930 85188.700000 0 0 1
-36.010830 -15.070435 -29.395727 48.867235 0.396350 2.216227 0.041510 -0.027236 386514.000000 0 0 1
36.220942 -16.161335 -28.726017 48.972742 -0.419679 2.197615 0.034463 -0.028796 289492.000000 0 0 1
36.353002 -16.015535 -27.211587 48.150894 -0.414973 2.171389 0.050546 -0.026867 -74745.700000 0 0 1
-35.215374 -15.967535 -26.872817 47.087504 0.425699 2.178154 0.050383 -0.029898 -172119.000000 0 0 1
-35.051330 -15.818535 -25.470477 46.125557 0.423931 2.155796 0.072531 -0.029865 100432.000000 0 0 1
-33.614327 -15.642935 -24.903837 44.663469 0.435558 2.162274 0.084718 -0.021815 73024.000000 0 0 1
-32.706707 -16.690135 -25.114957 44.486519 0.471851 2.170687 0.085388 -0.022013 -388601.000000 0 0 1
-31.448257 -16.223435 -24.692537 43.149903 0.476268 2.180043 0.088020 -0.008370 -70881.000000 0 0 1
-30.314997 -17.273435 -24.845037 42.832773 0.517916 2.189583 0.079000 -0.015779 -4295.120000 0 0 1
-30.277657 -18.390435 -24.041337 42.812738 0.545838 2.167050 0.082382 -0.019717 -172808.000000 0 0 1
-31.063827 -19.430135 -24.554537 44.106879 0.558952 2.161211 0.078230 -0.027048 -157818.000000 0 0 1
-30.812957 -20.794435 -23.892737 44.189475 0.593654 2.142052 0.070326 -0.035069 524151.000000 0 0 1
-29.516567 -21.308435 -24.209637 43.719374 0.625283 2.157658 0.068052 -0.023320 500776.000000 0 0 1
-29.212127 -22.513235 -23.461437 43.710790 0.656606 2.137368 0.058055 -0.022586 -322735.000000 0 0 1
-27.732307 -22.942135 -23.569537 43.022616 0.691150 2.150577 0.053483 -0.017233 -29059.100000 0 0 1
-26.805457 -22.049135 -22.985037 41.629422 0.688347 2.155718 0.052094 -0.015876 -221039.000000 0 0 1
-26.650947 -21.855735 -21.597137 40.674101 0.686862 2.130553 0.048200 -0.025555 -450827.000000 0 0 1
-26.519717 -23.132635 -20.734337 40.845158 0.717288 2.103231 0.040682 -0.021560 -182800.000000 0 0 1
-26.501007 -22.764535 -19.389537 39.955995 0.709700 2.077471 0.040505 -0.020492 126.777000 0 0 1
-26.566137 -23.870035 -18.518637 40.230313 0.731993 2.049147 0.026222 0.009496 -74104.100000 0 0 1
-26.622897 -23.347835 -17.090337 39.318948 0.719952 2.020456 0.024907 0.009948 607342.000000 0 0 1
-27.825947 -22.636735 -16.726937 39.578978 0.682926 2.007132 0.030608 0.000078 459900.000000 0 0 1
-27.663927 -21.741435 -15.633737 38.501904 0.666092 1.988925 0.037781 -0.005310 -737417.000000 0 0 1
-28.961437 -21.264735 -15.035237 38.948840 0.633340 1.967115 0.051610 -0.003594 -667480.000000 0 0 1
-29.738277 -20.522135 -15.952137 39.496757 0.604045 1.986556 0.059998 -0.009557 5499.250000 0 0 1
-30.976307 -20.163035 -15.341537 40.018025 0.577020 1.964234 0.065817 -0.011601 45559.500000 0 0 1
-31.867367 -19.464635 -16.368937 40.771843 0.548324 1.983925 0.079584 -0.032401 -598549.000000 0 0 1
-32.537277 -20.342535 -17.212737 42.056764 0.558748 1.992454 0.068803 -0.027156 -283630.000000 0 0 1
-33.259717 -19.667635 -18.238937 42.728017 0.534024 2.011815 0.061520 -0.025194 -114385.000000 0 0 1
-34.084256 -20.547135 -19.178637 44.178517 0.542500 2.019854 0.060395 -0.022217 947060.000000 0 0 1
-35.210513 -21.305335 -18.688137 45.198938 0.544150 1.997052 0.057103 -0.019533 580502.000000 0 0 1
-34.859223 -22.391535 -17.833937 45.106491 0.570973 1.977271 0.051353 -0.017387 -849142.000000 0 0 1
-35.805511 -23.553535 -17.760937 46.392397 0.581852 1.963667 0.056261 -0.006984 -538994.000000 0 0 1
35.885522 -23.258035 -17.143537 46.071767 -0.575051 1.952072 0.053681 -0.007693 534786.000000 0 0 1
35.143272 -24.487635 -16.935137 46.059665 -0.608571 1.947307 0.057117 -0.004687 47790.100000 0 0 1
33.696472 -24.385835 -16.483137 44.741647 -0.626450 1.948091 0.046953 -0.001420 -158090.000000 0 0 1
32.616482 -24.190135 -17.380337 44.170959 -0.638138 1.975209 0.046329 0.000483 351232.000000 0 0 1
31.410752 -24.441435 -16.677237 43.152628 -0.661258 1.967598 0.050570 -0.000892 540088.000000 0 0 1
30.110082 -24.340535 -17.525637 42.499725 -0.679833 1.995851 0.048929 -0.013044 381221.000000 0 0 1
29.652182 -22.989335 -17.718937 41.493640 -0.659497 2.012000 0.025191 -0.009314 -271848.000000 0 0 1
28.436882 -22.994735 -18.403237 40.940118 -0.679977 2.037020 0.043546 -0.017223 -641280.000000 0 0 1
34.892932 29.489465 -18.123637 49.148871 0.701667 1.948460 0.027963 0.000491 44518.800000 0 0 1
34.049082 29.729165 -19.253637 49.131109 0.717768 1.973474 0.032866 -0.009832 241968.000000 0 0 1
34.530192 29.075365 -20.428637 49.548363 0.699847 1.995770 0.022215 0.002567 -229053.000000 0 0 1
33.600512 29.056965 -21.657737 49.420231 0.713011 2.024432 0.038043 -0.003768 -447305.000000 0 0 1
32.461102 28.188065 -21.443837 48.042984 0.715059 2.033475 0.036188 -0.002339 607466.000000 0 0 1
31.604132 28.254265 -22.551137 48.017481 0.729493 2.059684 0.049152 -0.000662 48262.700000 0 0 1
30.625182 29.448765 -22.670237 48.156736 0.765818 2.060948 0.056364 -0.004932 -664454.000000 0 0 1
31.281142 30.716065 -22.738437 49.386467 0.776284 2.049263 0.054300 -0.013197 286919.000000 0 0 1
30.321932 31.770165 -22.835837 49.499883 0.808718 2.050291 0.070142 -0.009387 -96048.200000 0 0 1
30.978482 33.117965 -22.530637 50.636900 0.818765 2.031909 0.061323 -0.012681 117811.000000 0 0 1
31.329622 33.310365 -21.166337 50.389875 0.816031 2.004298 0.070559 -0.025015 769745.000000 0 0 1
32.583982 32.689465 -20.825137 50.635989 0.787014 1.994645 0.060355 -0.017248 44935.200000 0 0 1
32.840592 32.740265 -19.251837 50.210185 0.783868 1.964298 0.044115 -0.010133 -288053.000000 0 0 1
32.997832 34.080965 -18.876537 51.055781 0.801544 1.949508 0.053580 -0.014929 288758.000000 0 0 1
33.254872 34.109165 -17.475637 50.741695 0.798079 1.922400 0.025110 -0.023241 -560049.000000 0 0 1
33.017122 -32.745239 -16.855337 49.461939 -0.781264 1.918536 0.027185 -0.010132 -49189.400000 0 0 1
34.037502 -31.762339 -16.917937 49.533972 -0.750835 1.919354 0.037761 -0.002431 -325516.000000 0 0 1
35.127512 -32.092539 -16.082637 50.224739 -0.740279 1.896751 0.039309 -0.003161 -526825.000000 0 0 1
36.334762 -31.213239 -16.463237 50.650957 -0.709722 1.901843 0.030734 0.002129 -541097.000000 0 0 1
-35.839697 -31.838239 -17.433037 51.010471 0.726342 1.919579 0.022227 0.001401 -714970.000000 0 0 1
-34.734472 -31.040539 -17.804937 49.869975 0.729297 1.935880 0.011800 0.006725 79265.500000 0 0 1
-33.824927 -31.785939 -18.805837 50.081245 0.754331 1.955740 0.009037 -0.001692 -940679.000000 0 0 1
-33.075337 -32.825139 -18.174537 50.017812 0.781602 1.942670 0.011590 -0.001754 -25845.700000 0 0 1
-32.230937 -33.621639 -18.955037 50.284604 0.806513 1.957303 0.020569 0.000386 -348269.000000 0 0 1
-30.977077 -32.825939 -19.380937 49.119673 0.814368 1.976391 0.015186 -0.002236 -1542120.000000 0 0 1
-31.114827 -31.894639 -20.514837 49.053634 0.797774 2.002273 0.009109 -0.004050 255084.000000 0 0 1
-29.896907 -31.456039 -21.132137 48.268775 0.810805 2.023948 0.023340 -0.010296 528180.000000 0 0 1
-28.994807 -32.501039 -21.861537 48.733389 0.842352 2.035989 0.024477 0.003057 207510.000000 0 0 1
-29.688717 -33.152139 -22.922237 50.059097 0.840457 2.046432 0.019323 0.013235 -262815.000000 0 0 1
-28.962587 34.068565 -23.399537 50.468178 -0.866229 2.052906 0.019022 0.001546 -100060.000000 0 0 1
-29.645497 33.294265 -24.548937 50.892179 -0.843306 2.074156 0.016112 -0.009355 399839.000000 0 0 1
-30.798847 32.503665 -24.209737 50.903523 -0.812323 2.066443 0.017409 -0.015272 653020.000000 0 0 1
-31.539777 31.875265 -25.240857 51.457662 -0.790688 2.083479 0.015937 -0.011206 686924.000000 0 0 1
-32.320137 32.829065 -26.226317 53.010928 -0.793210 2.088325 0.023146 -0.020432 -197288.000000 0 0 1
-31.492787 33.386865 -27.218397 53.360281 -0.814584 2.106083 0.016115 -0.021298 -396380.000000 0 0 1
-32.165317 -33.844839 -27.785507 54.333371 0.810836 2.107597 0.016887 -0.021895 -25517.300000 0 0 1
-31.462057 -33.209539 -28.991017 54.159151 0.812412 2.135651 0.022207 -0.023551 -295371.000000 0 0 1
-31.445147 -33.943839 -30.196007 55.251971 0.823592 2.148993 0.038708 -0.023622 330389.000000 0 0 1
-32.688697 -33.953239 -30.899627 56.357434 0.804371 2.151102 0.051410 -0.026395 307883.000000 0 0 1
-32.709037 33.466065 -32.195817 56.801666 -0.796837 2.173426 0.078260 -0.029117 -360970.000000 0 0 1
-31.712337 33.900065 -33.054347 56.986636 -0.818729 2.189570 0.057542 -0.032893 -431076.000000 0 0 1
-31.618987 33.076165 34.124389 57.081231 -0.807918 0.930016 0.047079 -0.046609 -404356.000000 0 0 1
-30.714917 33.632365 33.015411 56.254417 -0.830706 0.943578 0.048567 -0.040712 935651.000000 0 0 1
-29.314397 33.325965 33.018968 55.319129 -0.849352 0.931188 0.059083 -0.037248 589195.000000 0 0 1
-29.054467 31.940365 32.637631 54.125446 -0.832677 0.923540 0.068545 -0.043825 544419.000000 0 0 1
-27.576777 31.481165 32.924557 53.250060 -0.851413 0.904217 0.047376 -0.037922 753059.000000 0 0 1
-27.208527 31.328165 -34.009577 53.650808 -0.855659 2.257390 0.055637 -0.047331 630732.000000 0 0 1
-25.825307 31.036865 -33.758807 52.629750 -0.876795 2.267170 0.042562 -0.041606 820830.000000 0 0 1
-25.175837 29.601465 -33.992547 51.629089 -0.866016 2.289486 0.070827 -0.036887 116784.000000 0 0 1
-25.707757 28.713265 -33.072777 50.785323 -0.840569 2.279997 0.075648 -0.035412 -26173.500000 0 0 1
-25.351887 27.453465 -33.450487 50.153226 -0.825176 2.300925 0.064630 -0.026014 -256098.000000 0 0 1
-25.464967 26.500965 -32.207037 48.867770 -0.805332 2.290371 0.081961 -0.028748 220237.000000 0 0 1
-24.441637 26.636165 -31.193497 47.748437 -0.828336 2.282716 0.071227 -0.027065 201975.000000 0 0 1
-24.397737 27.843665 -30.432777 47.923619 -0.851264 2.258839 0.057684 -0.033932 424503.000000 0 0 1
-23.113437 27.964665 -29.562657 46.799617 -0.880091 2.254522 0.091521 -0.035118 853270.000000 0 0 1
-21.822237 27.886865 -30.193867 46.535545 -0.906801 2.276848 0.082412 -0.028381 885613.000000 0 0 1
-20.714037 27.898965 -29.318597 45.464313 -0.932134 2.271650 0.041663 -0.028094 288976.000000 0 0 1
-20.392037 29.175165 -28.576247 45.646767 -0.960774 2.247248 0.028860 -0.015088 -911453.000000 0 0 1
-20.004437 30.265565 -29.366957 46.675477 -0.986752 2.251285 0.023571 -0.007441 -79952.900000 0 0 1
-19.392837 31.276665 -28.646857 46.636406 -1.015770 2.232244 0.037255 -0.009928 -155029.000000 0 0 1
-19.177137 32.583165 -29.485487 47.946003 -1.038831 2.233148 0.037730 -0.004203 347234.000000 0 0 1
-18.047937 32.373265 -30.326877 47.890248 -1.062217 2.256552 0.035858 -0.005455 -184683.000000 0 0 1
-17.813537 33.462965 -31.126247 49.050336 -1.081616 2.258258 0.037143 0.003998 697832.000000 0 0 1
-16.311237 33.606865 -31.541847 48.891369 -1.118934 2.272005 0.030472 0.009719 534288.000000 0 0 1
-15.486137 -34.090139 -30.560097 48.330917 1.144397 2.255327 0.044686 0.001450 215721.000000 0 0 1
-14.102637 -33.941739 -30.826087 47.970550 1.177004 2.268689 0.056302 0.001767 953381.000000 0 0 1
-13.202137 33.070965 -30.810977 47.088231 -1.190974 2.284085 0.051638 -0.001126 -397622.000000 0 0 1
-13.095037 32.522965 -29.534827 45.842440 -1.188016 2.270862 0.056561 -0.013517 -202733.000000 0 0 1
-12.573437 31.233165 -29.554427 44.800291 -1.188079 2.291206 0.048332 -0.008598 -98117.600000 0 0 1
-12.529137 30.598265 -28.139007 43.417011 -1.182151 2.275897 0.035856 -0.023408 372379.000000 0 0 1
-11.364437 31.023865 -27.432737 42.943984 -1.219664 2.263738 0.041582 -0.017597 71368.700000 0 0 1
-11.292437 30.565465 -26.106087 41.752780 -1.216900 2.246253 0.036098 -0.023355 1110150.000000 0 0 1
-9.884937 30.903665 -25.453787 41.238863 -1.261218 2.236011 0.043449 -0.024316 897075.000000 0 0 1
-8.792437 30.242365 -26.051247 40.872669 -1.287863 2.261884 0.045026 -0.019726 -477053.000000 0 0 1
-7.638737 30.731065 -25.401007 40.595072 -1.327167 2.246846 0.061490 -0.019932 178637.000000 0 0 1
-6.302537 30.062665 -25.791197 40.108250 -1.364143 2.269257 0.037510 -0.015028 -11416.900000 0 0 1
-6.325237 28.734665 -25.316747 38.815297 -1.354126 2.281327 0.038163 -0.025688 -295364.000000 0 0 1
-5.113237 28.082065 -25.563537 38.317646 -1.390688 2.301170 0.040475 -0.025940 -265718.000000 0 0 1
-4.887237 26.948065 -24.512737 36.755375 -1.391389 2.300858 0.045705 -0.027307 -194513.000000 0 0 1
-5.652437 25.783565 -24.731137 36.171417 -1.354984 2.323645 0.049690 -0.033187 121652.000000 0 0 1
-5.355437 24.761365 -23.760437 34.732755 -1.357795 2.324156 0.048368 -0.046479 -341463.000000 0 0 1
-6.135137 23.427865 -23.933637 34.048844 -1.314674 2.350292 0.046932 -0.038314 -16383.200000 0 0 1
-5.873137 22.641565 -25.045937 34.270004 -1.316994 2.390350 0.043393 -0.037930 955915.000000 0 0 1
-6.957037 21.663565 -25.238337 33.980643 -1.260060 2.407930 0.044530 -0.042072 486474.000000 0 0 1
-6.838237 20.870665 -26.604507 34.498492 -1.254171 2.451487 0.046028 -0.035176 -825096.000000 0 0 1
-5.629737 20.221965 -26.818037 34.056262 -1.299275 2.477478 0.051021 -0.040656 -1083250.000000 0 0 1
-5.476937 19.091265 -26.008947 32.725198 -1.291418 2.489422 0.049530 -0.042651 -602409.000000 0 0 1
-4.251437 18.216465 -26.310117 32.282141 -1.341516 2.523535 0.044235 -0.039814 44264.300000 0 0 1
-4.356437 17.534365 -27.555087 32.950195 -1.327276 2.561232 0.045422 -0.038746 149327.000000 0 0 1
-3.285337 16.575365 -27.630367 32.387858 -1.375126 2.592712 0.049624 -0.031668 574213.000000 0 0 1
-2.759937 16.420265 -29.100227 33.527087 -1.404272 2.621880 0.063511 -0.027496 49480.300000 0 0 1
-2.068237 17.542565 -29.604717 34.474026 -1.453440 2.603630 0.064904 -0.035942 53162.500000 0 0 1
-1.643637 17.271565 -30.942847 35.474897 -1.475918 2.630573 0.064912 -0.042346 85270.300000 0 0 1
-0.927337 18.538565 -31.506027 36.567309 -1.520816 2.609190 0.068245 -0.026741 -760205.000000 0 0 1
0.354063 18.705965 -30.987617 36.197665 1.551871 2.598408 0.077037 -0.031721 -617485.000000 0 0 1
0.899563 19.838565 -31.684767 37.393881 1.525483 2.581724 0.078157 -0.019925 144295.000000 0 0 1
0.518763 21.231065 -31.067257 37.632456 1.546367 2.541962 0.079197 -0.031246 -246707.000000 0 0 1
1.232163 21.537565 -29.897917 36.868285 1.513649 2.516551 0.096089 -0.046763 -208975.000000 0 0 1
0.612163 22.556165 -29.190437 36.894945 1.543663 2.483528 0.092465 -0.050600 -205131.000000 0 0 1
1.340663 22.808765 -27.838337 36.014028 1.512085 2.454331 0.097442 -0.050641 436636.000000 0 0 1
2.520063 23.579865 -27.935897 36.643896 1.464327 2.437751 0.093959 -0.057596 -601218.000000 0 0 1
3.690063 22.820565 -27.775727 36.137042 1.410485 2.447481 0.103407 -0.059226 448415.000000 0 0 1
4.928363 23.775865 -27.527207 36.705962 1.366407 2.418765 0.110513 -0.064591 543193.000000 0 0 1
5.473763 24.457865 -28.653377 38.067904 1.350621 2.422937 0.095683 -0.063427 122333.000000 0 0 1
6.031463 25.704665 -28.270157 38.682169 1.340321 2.390336 0.105427 -0.066966 -204029.000000 0 0 1
6.818763 26.530665 -29.274827 40.092234 1.319227 2.389392 0.092955 -0.055339 -523748.000000 0 0 1
8.149563 26.124065 -29.397257 40.163178 1.268407 2.391969 0.093312 -0.053422 -509877.000000 0 0 1
8.857163 26.997765 -30.269197 41.515696 1.253790 2.387806 0.105986 -0.052993 -184040.000000 0 0 1
10.375863 26.812965 -30.117757 41.637398 1.201571 2.379415 0.104322 -0.048929 -306167.000000 0 0 1
11.092363 27.817465 -30.782127 42.946377 1.191363 2.369937 0.110645 -0.049531 3882.180000 0 0 1
12.389963 27.957265 -30.226817 42.997446 1.153632 2.350391 0.105645 -0.048726 337770.000000 0 0 1
13.295663 28.982665 -30.966837 44.449011 1.140694 2.341559 0.111873 -0.052082 284242.000000 0 0 1
12.807563 30.308365 -30.822167 45.084772 1.170981 2.323547 0.115617 -0.047210 1029710.000000 0 0 1
13.852463 31.175665 -31.291397 46.292163 1.152663 2.313056 0.150788 -0.052380 865864.000000 0 0 1
13.306363 32.627965 -31.295667 47.128147 1.183566 2.297025 0.147631 -0.057676 985456.000000 0 0 1
12.231063 32.812165 -32.244377 47.601859 1.213991 2.314987 0.117517 -0.060588 1160520.000000 0 0 1
11.379063 33.935865 -31.944327 47.974640 1.247267 2.299440 0.097388 -0.040128 234546.000000 0 0 1
10.153363 -34.127039 -32.827777 48.429418 -1.281619 2.315628 0.068100 -0.036096 -140724.000000 0 0 1
10.441163 -33.620239 -34.114731 49.021967 -1.269678 2.340478 0.057075 -0.024852 265016.000000 0 0 1
9.233863 -33.444539 33.460236 48.201543 -1.301413 0.803525 0.065555 -0.031512 373934.000000 0 0 1
9.402563 -32.653939 32.174836 46.796453 -1.290435 0.812689 0.061162 -0.024117 -188864.000000 0 0 1
9.360063 -31.232539 32.341782 45.924646 -1.279624 0.789450 0.052607 -0.027322 -28426.500000 0 0 1
9.708063 -30.631839 31.134386 44.742664 -1.263883 0.801187 0.060499 -0.026635 -622981.000000 0 0 1
9.212363 -29.187439 31.088896 43.626754 -1.265065 0.777584 0.042920 -0.039547 645843.000000 0 0 1
7.811363 -28.979739 30.861836 43.049919 -1.307508 0.771472 0.025627 -0.019999 904625.000000 0 0 1
7.075263 -28.915839 32.091786 43.772912 -1.330827 0.747865 0.022568 -0.007083 -112958.000000 0 0 1
5.566363 -28.610439 32.010386 43.292106 -1.378640 0.738611 0.021611 -0.012607 340550.000000 0 0 1
4.692963 -29.629939 31.507086 43.504639 -1.413715 0.760889 0.051008 -0.021814 230852.000000 0 0 1
4.745163 -30.094739 30.129056 42.848219 -1.414410 0.790968 0.056188 -0.025253 -309861.000000 0 0 1
4.118163 -29.159439 29.003766 41.333408 -1.430495 0.793012 0.034547 -0.018590 919507.000000 0 0 1
2.683963 -29.166339 28.883626 41.135664 -1.479032 0.792376 0.059434 -0.022058 1036570.000000 0 0 1
2.413063 -28.614439 27.579006 39.814703 -1.486665 0.805593 0.070791 -0.027370 85154.400000 0 0 1
1.060963 -29.031239 26.931196 39.613480 -1.534267 0.823239 0.064274 -0.019528 193066.000000 0 0 1
0.986363 -30.366139 26.467356 40.293873 -1.538325 0.854152 0.062385 -0.025974 60717.100000 0 0 1
0.685463 -31.326439 27.471286 41.671179 -1.548919 0.850989 0.090847 -0.038283 -440885.000000 0 0 1
1.289263 -32.754239 27.091626 42.525975 -1.531455 0.880117 0.087954 -0.042582 -760311.000000 0 0 1
2.657563 -32.882339 27.052596 42.663261 -1.490151 0.883958 0.077069 -0.037630 -1108940.000000 0 0 1
3.248063 -32.405739 25.837116 41.572087 -1.470899 0.900138 0.074487 -0.040602 -1942260.000000 0 0 1
4.717163 -32.455739 26.103406 41.916756 -1.426466 0.898552 0.096287 -0.029256 -1452210.000000 0 0 1
5.366363 -32.177639 24.855226 41.011956 -1.405544 0.919713 0.081797 -0.046352 45652.900000 0 0 1
6.771363 -32.118839 25.046206 41.289025 -1.363017 0.919011 0.070688 -0.046107 -289379.000000 0 0 1
7.498463 -31.925739 23.725816 40.477081 -1.340106 0.944492 0.057177 -0.040240 -466919.000000 0 0 1
8.847363 -31.622339 23.982226 40.661964 -1.297990 0.939991 0.048263 -0.026525 70660.500000 0 0 1
9.485163 -31.053539 22.827966 39.691392 -1.274351 0.958025 0.034973 -0.018569 200118.000000 0 0 1
10.701163 -30.162439 23.092066 39.465569 -1.229866 0.945769 0.022755 -0.013520 619022.000000 0 0 1
11.920963 -30.745539 23.561636 40.528363 -1.200912 0.950395 0.029354 -0.026635 603684.000000 0 0 1
13.004463 -29.841839 23.476976 40.135020 -1.159831 0.945978 0.037688 -0.022897 254211.000000 0 0 1
14.097163 -30.179339 24.520246 41.361395 -1.133803 0.936229 0.065989 -0.021220 -372343.000000 0 0 1
13.608063 -29.970539 25.826236 41.837866 -1.144581 0.905499 0.055366 -0.024168 -354486.000000 0 0 1
14.592863 -29.775039 26.778946 42.621785 -1.115097 0.891440 0.066266 -0.026668 -1104980.000000 0 0 1
-10.774537 -13.428835 25.457846 30.733144 0.894628 0.594638 0.065461 -0.023073 384553.000000 0 0 1
-9.355037 -13.377135 25.457276 30.241318 0.960520 0.570179 0.056545 -0.023624 -234252.000000 0 0 1
-8.803737 -14.008235 26.546496 31.280231 1.009707 0.557337 0.070075 -0.030224 -294827.000000 0 0 1
-7.271737 -13.920835 26.402686 30.720833 1.089418 0.536625 0.078982 -0.029991 -164107.000000 0 0 1
-6.620137 -14.936135 25.636186 30.399479 1.153587 0.567384 0.072542 -0.032430 234781.000000 0 0 1
-6.669237 -14.744835 24.237756 29.143741 1.146023 0.588701 0.063731 -0.027480 -497544.000000 0 0 1
-6.100237 -16.018235 23.576906 29.149052 1.206924 0.628620 0.061619 -0.026068 257460.000000 0 0 1
-7.020437 -17.091435 23.508206 29.900492 1.181051 0.666137 0.063360 -0.027107 -159331.000000 0 0 1
-7.337537 -17.815835 24.684036 31.313656 1.180112 0.662782 0.075514 -0.029982 -368661.000000 0 0 1
-7.786337 -19.249435 24.433786 32.065209 1.186419 0.704396 0.070239 -0.029114 90221.800000 0 0 1
-9.120037 -19.302235 23.946136 32.080660 1.129401 0.728107 0.052142 -0.026364 -19895.900000 0 0 1
-9.486637 -20.611235 23.558866 32.708400 1.139439 0.766605 0.048266 -0.024958 -140167.000000 0 0 1
-10.999137 -20.865635 23.443486 33.255868 1.085672 0.788454 0.040579 -0.023183 -341220.000000 0 0 1
-11.542237 -20.751735 24.687626 34.254001 1.063201 0.765952 0.047386 -0.023526 -137213.000000 0 0 1
-12.950937 -20.571935 24.732686 34.679057 1.008936 0.776761 0.055538 -0.018954 349055.000000 0 0 1
-13.531037 -20.462435 26.138996 35.847556 0.986545 0.753687 0.059796 -0.022818 -388779.000000 0 0 1
-13.382637 -21.730835 26.856166 37.048317 1.018814 0.759913 0.061569 -0.021344 17541.700000 0 0 1
-12.342637 -21.688235 27.805056 37.360960 1.053412 0.731419 0.061272 -0.022159 -57916.900000 0 0 1
-12.110537 -23.030435 28.536856 38.618883 1.086684 0.739308 0.054068 -0.013612 -134101.000000 0 0 1
-13.025637 -23.462135 29.527896 39.900321 1.063987 0.737664 0.053358 -0.015772 -103266.000000 0 0 1
-12.703237 -24.788335 29.924156 40.881400 1.097224 0.749580 0.052407 -0.011691 -212703.000000 0 0 1
-13.656437 -25.449795 30.950786 42.333692 1.078297 0.750842 0.051355 -0.017880 145521.000000 0 0 1
-13.471437 -24.871835 32.209016 42.866169 1.074399 0.720637 0.050154 -0.014893 -189600.000000 0 0 1
-14.548037 -25.115945 33.077167 44.006306 1.045785 0.720242 0.057499 -0.017869 -226961.000000 0 0 1
-14.388637 -24.477335 -33.826147 44.163118 1.039370 2.443293 0.054452 -0.018029 76887.700000 0 0 1
-14.405637 -23.101135 -33.728187 43.344843 1.013212 2.462489 0.051008 -0.021502 251319.000000 0 0 1
-15.632537 -22.500935 -34.151781 43.783701 0.963602 2.465480 0.063290 -0.027190 214681.000000 0 0 1
-15.820737 -20.952235 -33.856397 42.843290 0.924048 2.481994 0.040695 -0.022157 -22706.600000 0 0 1
-16.112237 -20.775235 -32.470967 41.780118 0.911143 2.460980 0.034725 -0.018590 17632.000000 0 0 1
-16.301937 -19.407135 -32.158177 40.945554 0.872138 2.474120 0.026553 -0.019136 -286267.000000 0 0 1
-16.424937 -19.053135 -30.640917 39.644247 0.859343 2.454190 0.015485 -0.012893 709528.000000 0 0 1
-17.628937 -19.603335 -30.063627 39.986146 0.838378 2.421661 0.020298 -0.012504 702489.000000 0 0 1
-17.694437 -19.385235 -28.653527 38.857497 0.830966 2.400010 0.013302 -0.003664 100362.000000 0 0 1
-16.810337 -20.366935 -27.840277 38.372914 0.880774 2.382585 0.005280 -0.002405 74994.900000 0 0 1
-15.432737 -20.086335 -27.867237 37.659170 0.915673 2.403845 0.004228 -0.005541 174061.000000 0 0 1
-14.638837 -21.123635 -27.247567 37.455753 0.964779 2.385409 0.004864 -0.007273 907690.000000 0 0 1
-13.123837 -21.206735 -27.585807 37.187867 1.016630 2.406541 0.035778 -0.012249 155932.000000 0 0 1
-12.408537 -20.201135 -26.864347 35.829468 1.019965 2.418531 0.032459 -0.015487 517004.000000 0 0 1
-10.986037 -20.284635 -26.909847 35.444313 1.074430 2.432902 0.024967 -0.027226 718683.000000 0 0 1
-10.356537 -21.339535 -25.980527 35.179844 1.118960 2.401648 0.046283 -0.027099 -724406.000000 0 0 1
-10.489937 -22.623335 -26.554077 36.427642 1.136626 2.387589 0.044615 -0.028995 144519.000000 0 0 1
-9.919237 -23.615135 -25.717747 36.296947 1.173137 2.358220 0.069622 -0.031952 -68631.000000 0 0 1
-10.165437 -25.063965 -26.285737 37.715758 1.185489 2.341922 0.067308 -0.029866 -1003000.000000 0 0 1
-9.038137 -25.539765 -26.950827 38.214063 1.230665 2.353585 0.071110 -0.030957 -327966.000000 0 0 1
-9.167137 -26.772485 -27.612087 39.537700 1.240900 2.343919 0.063322 -0.024666 -294829.000000 0 0 1
-9.047037 -27.990395 -26.687527 39.718197 1.258176 2.307597 0.085619 -0.025929 -862023.000000 0 0 1
-9.885937 -28.050505 -25.591907 39.236568 1.231955 2.281340 0.078080 -0.028999 -482566.000000 0 0 1
-9.684637 -29.227225 -24.773837 39.519183 1.250826 2.248340 0.108864 -0.025731 -347827.000000 0 0 1
-10.723137 -29.434535 -23.655137 39.254847 1.221435 2.217557 0.116136 -0.027948 -177099.000000 0 0 1
-10.689137 -28.402775 -22.673337 37.882126 1.210850 2.212453 0.103873 -0.032457 -60802.600000 0 0 1
-11.615337 -27.372205 -22.975137 37.576729 1.169478 2.228649 0.081021 -0.026799 -131410.000000 0 0 1
-11.491737 -26.142945 -22.045337 36.076453 1.156647 2.228211 0.083550 -0.024515 -139659.000000 0 0 1
-12.194637 -26.345795 -20.862037 35.749611 1.137293 2.193902 0.069805 -0.023235 -39356.800000 0 0 1
-11.967637 -25.320215 -19.909137 34.361481 1.129266 2.188792 0.068577 -0.015079 19427.400000 0 0 1
-12.605737 -25.795805 -18.546137 34.180219 1.116251 2.144324 0.078184 -0.019753 -449136.000000 0 0 1
-13.985837 -25.918045 -18.558537 34.810458 1.075959 2.133094 0.088971 -0.021590 -832283.000000 0 0 1
-14.472437 -26.153535 -17.251137 34.511745 1.065374 2.094237 0.080662 -0.023091 -162664.000000 0 0 1
-15.985837 -26.324985 -17.088137 35.221531 1.025063 2.077344 0.079110 -0.023734 -371113.000000 0 0 1
-16.786537 -25.196605 -17.408737 34.924502 0.983101 2.092627 0.061627 -0.009377 1377080.000000 0 0 1
-18.223737 -25.288405 -17.260837 35.630668 0.946354 2.076517 0.061610 -0.011355 1504730.000000 0 0 1
-19.012437 -26.218645 -18.248237 37.173758 0.943390 2.083908 0.059914 -0.014248 -915747.000000 0 0 1
-18.755037 -27.621025 -18.259837 38.053831 0.974295 2.071271 0.068649 -0.028143 23712.400000 0 0 1
-19.399537 -28.290585 -17.179237 38.364377 0.969716 2.035090 0.077984 -0.032880 869454.000000 0 0 1
-20.944537 -28.584215 -17.150337 39.368325 0.938439 2.021543 0.066324 -0.027967 794202.000000 0 0 1
-21.308937 -29.675525 -17.988937 40.722345 0.948049 2.028340 0.061095 -0.025534 64228.000000 0 0 1
-22.429737 -30.403345 -17.508437 41.641348 0.935188 2.004746 0.055121 -0.014939 148240.000000 0 0 1
-23.064237 -31.273545 -18.600837 43.081142 0.935343 2.017243 0.036258 -0.015039 -563678.000000 0 0 1
-22.342337 -32.407165 -18.956337 43.689210 0.967202 2.019603 0.031963 -0.019124 42476.000000 0 0 1
-22.927437 -33.196565 -19.992037 45.026224 0.966368 2.030864 0.014770 -0.001551 329753.000000 0 0 1
-22.278337 33.666069 -19.802937 44.965374 -0.986209 2.026845 0.004335 0.001401 323333.000000 0 0 1
-22.948037 32.956308 -18.787737 44.336325 -0.962546 2.008383 0.008253 -0.000307 87086.700000 0 0 1
-22.271637 31.724520 -18.593537 42.990588 -0.958708 2.018063 0.001375 -0.009742 -261515.000000 0 0 1
-23.138237 30.571080 -18.076237 42.387726 -0.922915 2.011360 0.005418 -0.017603 -179827.000000 0 0 1
-23.509437 30.645480 -16.708937 42.083580 -0.916414 1.979088 -0.003276 -0.017709 -345498.000000 0 0 1
-23.933437 29.408210 -16.152837 41.213667 -0.887676 1.973524 -0.003409 -0.007950 -248663.000000 0 0 1
-22.921337 28.268550 -15.935237 39.729465 -0.889479 1.983507 0.000450 -0.022849 -250864.000000 0 0 1
-22.326337 27.683000 -17.080937 39.453419 -0.892105 2.018547 -0.003454 -0.016966 -38557.900000 0 0 1
-21.991337 26.330960 -16.917537 38.251032 -0.874964 2.028932 0.003176 -0.016174 165010.000000 0 0 1
-21.214437 25.790080 -18.159437 38.012442 -0.882437 2.068858 0.021839 -0.012668 -944861.000000 0 0 1
-20.940137 24.407570 -18.168737 36.936727 -0.861713 2.085053 0.032058 -0.025257 323777.000000 0 0 1
-20.102237 23.959030 -19.242737 36.720811 -0.872708 2.122370 0.027181 -0.010844 -614783.000000 0 0 1
-18.725237 24.564710 -19.374037 36.461114 -0.919481 2.131003 0.035041 -0.018701 -2079930.000000 0 0 1
-18.020637 24.225470 -18.179737 35.243717 -0.931229 2.112772 0.047949 -0.024609 -1267990.000000 0 0 1
-16.982137 25.064340 -17.975437 35.209806 -0.975303 2.106590 0.067715 -0.031461 -1309810.000000 0 0 1
-17.299737 26.397640 -17.302037 35.992733 -0.990668 2.072260 0.074337 -0.042553 -242767.000000 0 0 1
-18.014637 27.414030 -18.048937 37.440891 -0.989424 2.073806 0.053138 -0.036746 123471.000000 0 0 1
-17.932937 28.586060 -17.304337 37.923517 -1.010522 2.044624 0.070664 -0.046791 -59665.600000 0 0 1
-19.117037 29.584840 -17.499637 39.331427 -0.997113 2.031890 0.051539 -0.037931 165259.000000 0 0 1
-19.405237 30.037040 -18.792837 40.397497 -0.997207 2.054655 0.070418 -0.035140 82943.200000 0 0 1
-19.870737 29.105430 -19.739537 40.393336 -0.971765 2.081376 0.029501 -0.024762 -680449.000000 0 0 1
-19.778537 29.632480 -21.177837 41.446052 -0.982244 2.107113 0.026678 -0.028717 458050.000000 0 0 1
-20.798337 30.619910 -21.372337 42.742561 -0.974138 2.094424 0.029233 -0.028360 534491.000000 0 0 1
-20.831637 30.881340 -22.757637 43.652312 -0.977342 2.119215 0.034101 -0.026914 -78749.600000 0 0 1
-21.386137 32.231250 -23.213037 45.111700 -0.984974 2.111300 0.032315 -0.023199 -818333.000000 0 0 1
-20.584637 33.328421 -22.937637 45.394340 -1.017514 2.100523 0.015597 -0.018667 -323365.000000 0 0 1
-20.639437 -33.832955 -23.830737 46.244559 1.023028 2.112177 0.023229 -0.006695 299036.000000 0 0 1
-19.463237 -32.805745 -23.610837 44.860964 1.035327 2.125053 0.041740 -0.009406 530176.000000 0 0 1
-19.657337 -31.981735 -22.498237 43.765431 1.019680 2.110713 0.042810 -0.013323 85684.500000 0 0 1
-19.314737 -32.620185 -21.278937 43.473310 1.036199 2.082280 0.066921 -0.026345 -386940.000000 0 0 1
-18.872237 -31.574775 -20.219537 41.975676 1.032070 2.073386 0.082766 -0.032494 -4623.930000 0 0 1
-17.633137 -30.984025 -20.548437 41.148215 1.053404 2.093675 0.090976 -0.033119 -136059.000000 0 0 1
-17.336137 -30.099915 -19.524537 39.846632 1.048246 2.082877 0.082235 -0.035547 -494594.000000 0 0 1
-16.105637 -29.213085 -19.713337 38.748052 1.066943 2.104537 0.103212 -0.032083 664261.000000 0 0 1
-14.872337 -29.976875 -19.694437 38.828730 1.110252 2.102744 0.120010 -0.041616 665900.000000 0 0 1
-13.812337 -29.079855 -20.017437 37.909318 1.127365 2.127081 0.107325 -0.041204 43118.600000 0 0 1
-12.442737 -29.786855 -20.208737 38.085056 1.175103 2.130130 0.131735 -0.046845 368028.000000 0 0 1
-11.767537 -30.391805 -19.122437 37.786298 1.201378 2.101416 0.129039 -0.045434 72495.000000 0 0 1
-11.202037 -29.512795 -18.174637 36.425377 1.208029 2.093189 0.101188 -0.039700 -155512.000000 0 0 1
-10.298337 -30.224155 -17.122037 36.231470 1.242402 2.063005 0.094791 -0.028238 -98519.100000 0 0 1
-10.965737 -31.006885 -16.194237 36.659618 1.230869 2.028340 0.122839 -0.038842 -166487.000000 0 0 1
-11.491337 -32.283815 -16.608337 38.080604 1.228833 2.022097 0.134804 -0.036567 987574.000000 0 0 1
-12.632037 -32.944175 -15.732637 38.631630 1.204649 1.990235 0.140033 -0.045938 846659.000000 0 0 1
-12.073137 -33.282395 -14.474137 38.248909 1.222810 1.958885 0.126992 -0.043648 355973.000000 0 0 1
-13.148337 -33.668565 -13.653937 38.637818 1.198487 1.931981 0.135316 -0.035645 223633.000000 0 0 1
-12.568737 34.085530 -12.330837 38.364646 -1.217524 1.898016 0.102425 -0.026338 766098.000000 0 0 1
-11.856437 -33.120565 -11.635837 37.053200 1.227032 1.890232 0.078753 -0.014950 400961.000000 0 0 1
-11.614637 -33.469115 -10.248937 36.879834 1.236774 1.852405 0.084852 -0.015449 605142.000000 0 0 1
-10.364937 -32.812295 -9.515837 35.701957 1.264830 1.840593 0.072438 -0.019056 868437.000000 0 0 1
-9.185337 -33.261585 -10.135637 35.964351 1.301357 1.856492 0.048001 -0.021696 44511.600000 0 0 1
-8.005437 -32.549125 -9.700637 34.894626 1.329634 1.852506 0.033812 -0.022820 -174289.000000 0 0 1
-6.788837 -33.054605 -10.389537 35.307757 1.368231 1.869474 0.026583 -0.028907 -1121090.000000 0 0 1
-6.228737 -34.124108 -9.694437 36.017135 1.390252 1.843319 0.023893 -0.017083 -44604.200000 0 0 1
-5.123737 33.568679 -10.364937 35.504096 -1.419331 1.867047 0.029364 -0.017100 534691.000000 0 0 1
-4.368137 32.484862 -9.494637 34.124698 -1.437131 1.852751 0.032165 -0.021891 377618.000000 0 0 1
-3.627737 33.159613 -8.453637 34.411980 -1.461827 1.818997 0.054111 -0.021894 75377.900000 0 0 1
-3.285037 32.211090 -7.468737 33.228419 -1.469163 1.797503 0.039237 -0.029513 -113718.000000 0 0 1
-3.046537 32.788732 -6.089737 33.488315 -1.478148 1.753660 0.047479 -0.027911 483244.000000 0 0 1
-1.998637 33.804839 -6.152337 34.418207 -1.511742 1.750515 0.031063 -0.024069 727608.000000 0 0 1
-1.581337 -33.997115 -4.884537 34.382599 1.524316 1.713343 0.033439 -0.019789 228389.000000 0 0 1
-0.578737 33.428482 -4.078637 33.681354 -1.553485 1.692189 0.043335 -0.024344 -521747.000000 0 0 1
0.720463 33.361811 -4.608637 33.686333 1.549204 1.708037 0.036378 -0.027143 28457.300000 0 0 1
1.516663 32.627101 -3.622337 32.862582 1.524345 1.681248 0.037881 -0.023383 668289.000000 0 0 1
3.020163 32.519056 -3.997237 32.902710 1.478188 1.692584 0.053427 -0.020101 447745.000000 0 0 1
3.670263 33.801689 -3.878837 34.220906 1.462638 1.684387 0.048141 -0.015212 -537890.000000 0 0 1
5.049163 33.688020 -4.130737 34.313842 1.422024 1.691470 0.062430 -0.010926 -79201.200000 0 0 1
5.760763 -33.347835 -3.650037 34.038026 -1.399737 1.678237 0.061538 -0.009648 -42037.000000 0 0 1
5.428663 -32.230535 -4.446037 32.985527 -1.403930 1.705995 0.063464 -0.012640 -395859.000000 0 0 1
5.999863 -31.119455 -3.910537 31.932916 -1.380332 1.693566 0.063204 -0.021079 -182535.000000 0 0 1
5.900663 -29.763735 -4.649537 30.697165 -1.375084 1.722846 0.061090 -0.019878 -7365.050000 0 0 1
6.706663 -29.674725 -5.841437 30.978880 -1.348525 1.760494 0.067237 -0.020808 183680.000000 0 0 1
6.628663 -28.410545 -6.549037 29.899634 -1.341580 1.791621 0.064545 -0.020226 140340.000000 0 0 1
7.302663 -27.188905 -5.865637 28.757106 -1.308399 1.776210 0.060342 -0.016625 57493.400000 0 0 1
6.498763 -26.625765 -4.852537 27.833655 -1.331399 1.746032 0.063502 -0.026003 -400137.000000 0 0 1
7.020063 -25.469535 -4.281637 26.763985 -1.301848 1.731464 0.055916 -0.027668 -824817.000000 0 0 1
6.061363 -24.903735 -3.253737 25.836465 -1.332047 1.697067 0.058018 -0.028743 140639.000000 0 0 1
4.829963 -24.483535 -3.839137 25.248980 -1.376023 1.723440 0.054980 -0.033303 310434.000000 0 0 1
3.924663 -24.102535 -2.802837 24.580298 -1.409381 1.685073 0.046755 -0.028139 516662.000000 0 1 0
2.635663 -23.326235 -3.168837 23.687580 -1.458282 1.704975 0.047620 -0.033207 498201.000000 0 1 0
1.845763 -23.969435 -4.122037 24.391224 -1.493943 1.740608 0.052043 -0.033131 -656680.000000 0 1 0
0.691263 -23.236835 -4.428437 23.665151 -1.541057 1.759035 0.049204 -0.030069 99165.000000 0 1 0
-15.300137 23.113165 17.830766 32.958289 -0.986055 0.999159 -0.007944 -0.005816 -193807.000000 0 0 1
-15.558037 22.579665 19.094666 33.414070 -0.967472 0.962518 0.011846 -0.007110 207725.000000 0 0 1
-15.346437 23.521165 20.107266 34.540708 -0.992699 0.949447 0.013239 -0.007933 -711869.000000 0 0 1
-15.247837 22.934265 21.505866 34.942515 -0.984053 0.907822 0.027585 -0.013050 890347.000000 0 0 1
-14.041037 22.203065 21.915866 34.211577 -1.006899 0.875520 0.030457 -0.007765 2178940.000000 0 0 1
-12.846837 23.023765 22.070166 34.383531 -1.061846 0.873846 0.010407 -0.010901 659837.000000 0 0 1
-12.666037 23.962965 23.277936 35.728343 -1.084557 0.861202 0.032178 -0.014190 -500757.000000 0 0 1
-12.276737 23.226565 24.443276 35.884054 -1.084559 0.821432 0.034592 -0.006630 138681.000000 0 0 1
-12.138937 24.100165 25.483106 37.115501 -1.104204 0.814009 0.060448 -0.016948 -251670.000000 0 0 1
-11.468437 23.622165 26.763676 37.494347 -1.118820 0.775879 0.056645 -0.015024 22467.800000 0 0 1
-10.074137 23.478665 26.557146 36.851295 -1.165478 0.766047 0.032530 -0.021118 -121922.000000 0 0 1
-9.581937 22.630165 27.588336 36.946639 -1.170269 0.727698 0.032393 -0.018958 -1182260.000000 0 0 1
-8.106737 22.303565 27.416096 36.260316 -1.222170 0.713477 0.035948 -0.029571 -401396.000000 0 0 1
-7.125737 23.228565 27.885006 36.985347 -1.273144 0.716746 0.025343 -0.026503 116511.000000 0 0 1
-7.097337 24.459765 27.187286 37.253199 -1.288388 0.752771 0.028762 -0.022887 -1538170.000000 0 0 1
-6.019637 25.428065 27.612236 38.016550 -1.338344 0.757841 0.027033 -0.025080 -233124.000000 0 0 1
-4.736937 24.815265 27.518296 37.356292 -1.382177 0.742702 0.019727 -0.025621 42016.400000 0 0 1
-3.805637 25.744465 28.089136 38.291773 -1.424036 0.747258 0.035268 -0.020117 1527930.000000 0 0 1
-2.296837 25.225765 28.165786 37.880419 -1.479995 0.732440 0.050922 -0.019116 1309970.000000 0 0 1
-1.790637 25.122165 26.844396 36.809661 -1.499639 0.753533 0.049024 -0.018854 416098.000000 0 0 1
-0.394537 24.790565 26.855666 36.550712 -1.554883 0.745497 0.065131 -0.006773 846902.000000 0 0 1
0.089363 24.729665 25.414976 35.461039 1.567183 0.771736 0.060176 -0.008757 138855.000000 0 0 1
-0.371437 23.477965 24.854116 34.191810 -1.554977 0.756996 0.055528 -0.004017 246224.000000 0 0 1
0.089663 23.402965 23.531596 33.187992 1.566965 0.782661 0.060863 -0.002860 -23217.800000 0 0 1
-0.438237 22.114565 22.993166 31.905042 -1.550982 0.766021 0.046909 0.003883 -40170.400000 0 0 1
0.329063 21.002065 23.384766 31.433140 1.555129 0.731830 0.062428 0.004979 -407941.000000 0 0 1
-0.076037 19.776565 22.805366 30.186140 -1.566952 0.714393 0.058181 0.005833 -272086.000000 0 0 1
0.916763 18.638565 23.001266 29.619163 1.521650 0.681598 0.067277 0.011518 -647850.000000 0 0 1
2.133463 18.875865 22.366966 29.345035 1.458248 0.704082 0.067754 0.006401 -694399.000000 0 0 1
2.923263 17.674165 22.405666 28.686851 1.406883 0.674462 0.059841 0.004173 286051.000000 0 0 1
4.307063 17.961265 21.763966 28.545193 1.335443 0.703722 0.071361 -0.001121 -121212.000000 0 0 1
5.222063 18.583465 22.620266 29.737040 1.296855 0.706442 0.069110 0.003888 -598490.000000 0 0 1
6.346263 18.957465 21.848066 29.614161 1.247759 0.741054 0.075678 -0.006580 176515.000000 0 0 1
7.600463 19.407965 22.655266 30.784691 1.197539 0.743762 0.079189 -0.012860 111958.000000 0 0 1
7.620163 20.668365 23.401666 32.138546 1.217572 0.755178 0.062904 -0.004704 -46900.800000 0 0 1
7.302063 21.817865 22.640266 32.278801 1.247832 0.793440 0.066009 -0.011568 255462.000000 0 0 1
5.878363 22.388065 22.933766 32.584325 1.314025 0.790024 0.049963 -0.004203 471134.000000 0 0 1
5.677663 23.771565 22.641566 33.316117 1.336346 0.823582 0.046323 -0.017346 -50676.300000 0 0 1
4.371863 24.131765 23.033666 33.645283 1.391574 0.816737 0.037808 -0.012744 -94059.300000 0 0 1
3.990163 25.604865 22.699966 34.450239 1.416204 0.851414 0.049925 -0.018562 -98357.300000 0 0 1
3.790563 25.925365 21.326066 33.783043 1.425614 0.887613 0.049678 -0.025231 218956.000000 0 0 1
2.697663 25.352165 20.614766 32.786861 1.464788 0.890851 0.063203 -0.019397 36079.700000 0 0 1
2.417663 25.865765 19.223666 32.317677 1.477598 0.933737 0.059853 -0.022283 -248136.000000 0 0 1
1.844463 27.158265 19.063166 33.232179 1.502985 0.959859 0.070769 -0.034301 299345.000000 0 0 1
1.793163 27.672765 17.747766 32.923860 1.506088 1.001482 0.074096 -0.024132 259042.000000 0 0 1
0.515663 28.548465 17.737466 33.613962 1.552736 1.014928 0.060416 -0.009234 315497.000000 0 0 1
0.826163 29.746265 18.347466 34.959296 1.543030 1.018288 0.064596 -0.010726 383456.000000 0 0 1
-0.368837 30.454265 18.550966 35.661417 -1.558686 1.023715 0.048110 -0.006711 -80690.400000 0 0 1
0.026963 31.784365 19.201566 37.134172 1.569948 1.027353 0.044286 -0.001344 130056.000000 0 0 1
0.582863 31.560665 20.466866 37.620578 1.552330 0.995559 0.060048 -0.008723 -110074.000000 0 0 1
0.862263 32.787465 21.034466 38.964216 1.544504 1.000549 0.049262 -0.015743 -209574.000000 0 0 1
1.484363 32.688865 22.410666 39.661104 1.525419 0.970298 0.050240 -0.027462 -106276.000000 0 0 1
0.518763 32.316165 23.358976 39.877881 1.554745 0.944976 0.049138 -0.016816 396291.000000 0 0 1
1.026063 32.555565 24.641056 40.842371 1.539289 0.923138 0.064582 -0.028255 99266.100000 0 0 1
-0.083637 32.044365 25.586436 41.006268 -1.568186 0.896991 0.068829 -0.027736 -187592.000000 0 0 1
-1.158337 32.945465 25.669146 41.780982 -1.535652 0.909204 0.062867 -0.023534 455822.000000 0 0 1
-2.279437 32.573565 26.472376 42.035933 -1.500932 0.889557 0.058218 -0.022736 578830.000000 0 0 1
-2.057837 32.861465 27.962266 43.197209 -1.508256 0.866738 0.078013 -0.029139 -700509.000000 0 0 1
-0.915637 32.241265 28.471786 43.023019 -1.542404 0.847605 0.085704 -0.034794 -211249.000000 0 0 1
-0.637437 32.424965 29.836666 44.068258 -1.551140 0.827042 0.091190 -0.037567 -1233360.000000 0 0 1
0.611563 31.721465 30.380676 43.927336 1.551520 0.807078 0.081043 -0.030826 -243292.000000 0 0 1
1.855563 32.223465 29.920476 44.011700 1.513276 0.823265 0.072523 -0.029018 182323.000000 0 0 1
2.192363 31.870765 28.615726 42.888365 1.502115 0.840334 0.065766 -0.027296 -1897390.000000 0 0 1
3.667663 31.938065 28.266966 42.807863 1.456460 0.849549 0.060653 -0.021799 -686615.000000 0 0 1
4.345263 30.945765 28.985696 42.622673 1.431293 0.822961 0.056914 -0.021364 -71876.600000 0 0 1
5.712763 30.764265 28.679546 42.445165 1.387193 0.828903 0.055283 -0.032626 67693.100000 0 0 1
6.436463 29.646265 29.406446 42.250067 1.357005 0.800972 0.049828 -0.013122 -145972.000000 0 0 1
6.703963 29.895465 30.799086 43.442671 1.350199 0.782775 0.062667 -0.021820 161333.000000 0 0 1
7.260763 28.723965 31.403876 43.173930 1.323206 0.756299 0.038275 -0.014060 -138393.000000 0 0 1
7.326363 28.765165 32.965375 44.360188 1.321403 0.733061 0.066673 -0.031426 -915884.000000 0 0 1
6.026363 28.677265 33.465506 44.481936 1.363666 0.719191 0.065529 -0.032108 -550063.000000 0 0 1
6.009663 28.193765 -33.490547 44.188474 1.360784 2.430888 0.081483 -0.035728 -12898.000000 0 0 1
6.197163 26.680865 -33.261367 43.088188 1.342573 2.452679 0.069059 -0.035003 120101.000000 0 0 1
7.455263 26.109265 -33.599247 43.199353 1.292657 2.461910 0.056155 -0.031211 342519.000000 0 0 1
7.595963 24.808365 -33.009187 41.985237 1.273674 2.475447 0.066066 -0.031422 84367.500000 0 0 1
8.985063 24.367565 -33.529177 42.411264 1.217534 2.482540 0.063876 -0.030441 -257250.000000 0 0 1
9.044363 23.841765 33.440338 42.053376 1.208218 0.651479 0.038560 -0.014546 611269.000000 0 0 1
10.240363 23.090565 33.157072 41.682498 1.153372 0.651018 0.056675 -0.023964 275409.000000 0 0 1
10.290363 21.634865 33.683607 41.334542 1.126828 0.618236 0.041634 -0.027703 -957481.000000 0 0 1
9.516063 20.852365 32.827163 40.037472 1.142671 0.609541 0.030360 -0.022333 -115938.000000 0 0 1
9.381863 19.541365 33.299593 39.733452 1.123193 0.577052 0.033864 -0.023098 -89398.400000 0 0 1
8.123663 19.430165 -34.123818 40.099379 1.174788 2.588647 0.043527 -0.031134 -661637.000000 0 0 1
8.076563 20.053365 -32.874617 39.346014 1.187919 2.559886 0.045986 -0.027762 -250264.000000 0 0 1
6.925463 20.821165 -32.647247 39.336061 1.249691 2.549827 0.061339 -0.030434 -467440.000000 0 0 1
6.780263 21.471365 -31.305017 38.561582 1.264925 2.518057 0.074544 -0.045868 -500705.000000 0 0 1
7.921363 22.188265 -30.949317 38.896367 1.227893 2.490937 0.089242 -0.044706 -275941.000000 0 0 1
7.939263 22.659665 -29.641437 38.145867 1.233792 2.460770 0.066481 -0.041822 242809.000000 0 0 1
9.401863 23.003965 -29.191257 38.336757 1.182807 2.436333 0.072836 -0.042266 322351.000000 0 0 1
10.074163 21.798965 -28.988177 37.643035 1.137893 2.449764 0.062452 -0.039207 -147084.000000 0 0 1
11.480363 22.056465 -29.015677 38.212510 1.090885 2.433070 0.062752 -0.036044 505673.000000 0 0 1
12.143663 20.652265 -29.040387 37.647426 1.039242 2.451800 0.053055 -0.044070 -325678.000000 0 0 1
12.105163 19.907065 -30.293897 38.217096 1.024454 2.485988 0.033620 -0.034775 817419.000000 0 0 1
10.868663 19.179265 -30.531577 37.658323 1.055231 2.516233 0.038687 -0.034344 855264.000000 0 0 1
10.978863 18.102565 -31.666687 38.092222 1.025625 2.552268 0.038414 -0.033057 -531772.000000 0 0 1
11.660163 16.950165 -31.258827 37.421675 0.968232 2.559499 0.032470 -0.024107 35003.800000 0 0 1
11.752363 16.054765 -32.401757 38.022985 0.938904 2.590900 0.030225 -0.014303 73461.500000 0 0 1
12.961763 16.193965 -33.369347 39.290777 0.895807 2.585439 0.023058 -0.009643 -246745.000000 0 0 1
12.939963 17.486465 -33.952877 40.323901 0.933727 2.571783 0.035845 -0.015976 -93005.300000 0 0 1
13.440063 17.584565 33.032574 39.761830 0.918199 0.590323 0.038271 -0.020047 -160874.000000 0 0 1
12.588963 16.941765 31.953616 38.295417 0.931743 0.583757 0.046098 -0.030278 -992997.000000 0 0 1
13.193463 17.111065 30.701536 37.542513 0.913960 0.613252 0.036089 -0.032120 107941.000000 0 0 1
12.359363 16.752765 29.605136 36.192168 0.935181 0.612874 0.050860 -0.026323 1644010.000000 0 0 1
10.857363 17.291765 29.514226 35.888396 1.010120 0.605199 0.052822 -0.026888 974078.000000 0 0 1
9.976163 16.560665 30.334876 35.971991 1.028613 0.567418 0.059721 -0.024577 -473721.000000 0 0 1
8.735563 17.234265 30.449206 36.062225 1.101666 0.565442 0.070363 -0.022969 -371351.000000 0 0 1
7.859363 16.364065 31.306876 36.189400 1.123047 0.525478 0.074385 -0.019985 -575712.000000 0 0 1
8.227263 16.414065 32.658019 37.465392 1.106163 0.512166 0.074670 -0.019367 -23705.300000 0 0 1
7.612463 15.359465 33.290228 37.444653 1.110659 0.475527 0.076868 -0.017409 -348884.000000 0 0 1
7.683363 15.460865 -33.432227 37.626935 1.109587 2.664903 0.067113 -0.021824 90163.400000 0 0 1
6.688663 16.322865 -32.877647 37.311042 1.181894 2.649143 0.069541 -0.027054 531981.000000 0 0 1
6.852063 16.509265 -31.508237 36.225345 1.177389 2.625561 0.074738 -0.024788 -88491.300000 0 0 1
6.071463 17.741065 -30.979557 36.212443 1.241063 2.597302 0.072524 -0.031678 -367643.000000 0 0 1
6.178263 17.853965 -29.598697 35.114355 1.237650 2.573489 0.071468 -0.039378 36444.100000 0 0 1
5.489663 18.931465 -29.043367 35.100626 1.288561 2.545315 0.079753 -0.043768 179561.000000 0 0 1
3.959063 18.742665 -28.876467 34.652735 1.362624 2.555865 0.093230 -0.047815 -790232.000000 0 0 1
3.407963 17.778465 -27.981947 33.326827 1.381403 2.567384 0.109310 -0.043927 335703.000000 0 0 1
2.021563 17.579465 -28.188127 33.282050 1.456304 2.581013 0.083197 -0.039848 475080.000000 0 0 1
0.987463 18.695965 -27.936587 33.629854 1.518028 2.551174 0.068111 -0.043059 -741760.000000 0 0 1
0.636863 18.934465 -26.584917 32.644715 1.537174 2.522441 0.103826 -0.047483 -340999.000000 0 0 1
-0.241737 19.995365 -26.460487 33.166707 -1.558707 2.494438 0.110281 -0.055076 -391635.000000 0 0 1
-0.680937 20.407665 -24.994537 32.274810 -1.537442 2.456608 0.075302 -0.058220 205156.000000 0 0 1
-1.554937 19.544865 -24.279537 31.207620 -1.491406 2.462273 0.060797 -0.051645 255449.000000 0 0 1
-2.034337 20.195165 -23.075937 30.732428 -1.470401 2.420169 0.087227 -0.050104 663289.000000 0 0 1
-3.162537 19.375665 -22.339737 29.740241 -1.409001 2.420617 0.071110 -0.047724 945862.000000 0 0 1
-4.509137 19.575465 -22.779337 30.371522 -1.344399 2.418893 0.055013 -0.036114 340940.000000 0 0 1
-5.210937 18.450965 -22.271037 29.386920 -1.295544 2.430816 0.038382 -0.038945 922200.000000 0 0 1
-6.794037 18.511565 -22.375737 29.824664 -1.219044 2.419225 0.066761 -0.030248 1277240.000000 0 0 1
-7.459637 19.268765 -21.394337 29.743053 -1.201428 2.373598 0.028397 -0.011755 -21281.600000 0 0 1
-7.403537 20.686065 -21.716337 30.892151 -1.227101 2.350365 0.035056 -0.025395 -478006.000000 0 0 1
-8.239937 21.618465 -20.816637 31.122130 -1.206642 2.303483 0.042983 -0.033221 219465.000000 0 0 1
-7.619337 21.747265 -19.520637 30.200217 -1.233802 2.273619 0.052608 -0.036850 395169.000000 0 0 1
-7.948337 23.034665 -18.968137 30.879801 -1.238529 2.232241 0.078661 -0.035866 164347.000000 0 0 1
-7.268737 23.344065 -17.578637 30.112928 -1.268938 2.194145 0.108169 -0.047738 576836.000000 0 0 1
-5.844737 23.421065 -17.559937 29.850606 -1.326241 2.199703 0.123840 -0.053646 77740.000000 0 0 1
-5.436837 23.749865 -16.234337 29.277449 -1.345753 2.158558 0.138335 -0.044715 -795129.000000 0 0 1
-3.927537 23.686465 -16.137737 28.929237 -1.406478 2.162571 0.125572 -0.047336 -629893.000000 0 0 1
-3.394637 24.962065 -16.512537 30.121291 -1.435634 2.151009 0.108439 -0.050107 15547.800000 0 0 1
-2.089837 24.850965 -17.081437 30.227693 -1.486899 2.171341 0.104844 -0.048802 609814.000000 0 0 1
-1.414637 26.264365 -17.241237 31.449616 -1.516987 2.151028 0.090391 -0.063881 323781.000000 0 0 1
-2.250937 27.211265 -17.880537 32.637912 -1.488263 2.150583 0.091423 -0.068023 298388.000000 0 0 1
-1.444337 28.352165 -18.220137 33.732844 -1.519898 2.141388 0.089750 -0.060695 -256489.000000 0 0 1
-2.099037 29.402465 -19.122737 35.136733 -1.499527 2.146277 0.107566 -0.051188 -170595.000000 0 0 1
-3.007937 30.311365 -18.554937 35.666683 -1.471886 2.117919 0.066058 -0.039261 -506602.000000 0 0 1
-4.304637 29.735865 -18.513737 35.291785 -1.427033 2.123030 0.040891 -0.043047 -660983.000000 0 0 1
-5.193537 30.679565 -17.681437 35.788850 -1.403103 2.087537 0.067233 -0.036923 -238510.000000 0 0 1
-5.417337 31.925165 -18.278437 37.184204 -1.402709 2.084682 0.112917 -0.044698 -106894.000000 0 0 1
-5.696537 32.924465 -17.353237 37.651106 -1.399474 2.049801 0.104594 -0.056989 -300275.000000 0 0 1
-6.400837 -34.131839 -17.902637 39.069906 1.385417 2.046789 0.104947 -0.040962 -550327.000000 0 0 1
-7.717337 33.956965 -18.283837 39.331050 -1.347324 2.054284 0.124972 -0.056411 -712600.000000 0 0 1
-8.371237 -33.167539 -18.718737 38.994287 1.323567 2.071494 0.166261 -0.055388 193137.000000 0 0 1
29.453563 -20.364935 -26.070587 44.293549 -0.604948 2.200106 0.045956 -0.003167 226538.000000 0 0 1
29.003363 -21.693935 -25.740007 44.433882 -0.642207 2.188651 0.048620 -0.008207 -561708.000000 0 0 1
27.644363 -21.922035 -25.983097 43.816752 -0.670459 2.205569 0.031275 -0.007295 -294064.000000 0 0 1
27.282363 -23.261435 -25.274487 43.865948 -0.706012 2.184838 0.025618 -0.002856 112676.000000 0 0 1
27.696163 -24.501335 -25.867217 45.127661 -0.724268 2.181203 0.028832 0.003050 -404917.000000 0 0 1
29.070863 -24.772835 -25.738297 46.057229 -0.705743 2.163774 0.037492 0.001560 -171823.000000 0 0 1
29.427563 -26.139955 -26.426487 47.409260 -0.726303 2.162062 0.035250 0.002060 79122.500000 0 0 1
28.952463 -27.285115 -25.688537 47.356346 -0.755759 2.144149 0.047632 -0.007364 -363562.000000 0 0 1
29.107063 -28.568305 -26.337917 48.549511 -0.776057 2.144202 0.040229 -0.002805 499902.000000 0 0 1
27.941663 -29.218605 -27.188827 48.720588 -0.807734 2.162838 0.044124 -0.004795 315460.000000 0 0 1
27.711563 -28.630435 -28.484307 48.979468 -0.801706 2.191437 0.027428 -0.009395 -408443.000000 0 0 1
28.708663 -28.783155 -29.457507 50.203606 -0.786694 2.197849 0.008130 -0.006997 -1028020.000000 0 0 1
28.957863 -30.089435 -30.233187 51.555577 -0.804560 2.197428 0.019892 0.001937 -868799.000000 0 0 1
29.616563 -31.194195 -29.575127 52.200639 -0.811336 2.173129 0.031255 0.002635 879237.000000 0 0 1
30.913263 -30.914475 -29.016787 52.471978 -0.785418 2.156752 0.031925 0.001252 213120.000000 0 0 1
32.058463 -30.605635 -29.965647 53.501308 -0.762218 2.165293 0.025088 -0.003244 -1106620.000000 0 0 1
31.894163 -29.352475 -30.549837 53.029218 -0.743923 2.184739 0.022337 -0.003292 -146066.000000 0 0 1
33.074363 -28.988195 -31.248477 53.950869 -0.719654 2.188546 0.034613 -0.012145 336701.000000 0 0 1
33.135763 -27.515815 -31.633667 53.439571 -0.693002 2.204275 0.025601 -0.001043 146283.000000 0 0 1
33.065163 -26.385375 -30.675177 52.253799 -0.673509 2.198197 0.020860 0.008800 -482973.000000 0 0 1
31.805063 -26.217255 -30.108657 51.043488 -0.689390 2.201685 0.027142 0.009280 -558183.000000 0 0 1
31.717663 -24.792035 -29.471457 49.892103 -0.663450 2.202727 0.026648 0.011298 -508842.000000 0 0 1
32.640763 -24.593235 -28.432067 49.785832 -0.645706 2.178626 0.034974 0.003206 -73264.400000 0 0 1
32.559663 -23.369135 -27.771037 48.759395 -0.622528 2.176758 0.033497 0.002614 73895.000000 0 0 1
33.605063 -23.125735 -26.639177 48.721100 -0.602737 2.149297 0.041938 -0.000070 -259847.000000 0 0 1
33.391263 -23.893935 -25.481187 48.323777 -0.621102 2.126218 0.045551 -0.006081 853713.000000 0 0 1
32.376163 -23.412435 -24.551337 46.894842 -0.626087 2.121797 0.053020 -0.002092 529130.000000 0 0 1
32.683963 -22.062835 -23.772737 46.045121 -0.593774 2.113312 0.062588 -0.006648 -249219.000000 0 0 1
32.830663 -20.960235 -24.623537 46.081476 -0.568202 2.134532 0.059807 -0.014167 104796.000000 0 0 1
32.833963 -19.856235 -23.807237 45.156657 -0.543902 2.126115 0.040277 -0.024398 -16175.400000 0 0 1
32.941763 -18.467535 -24.554637 45.045974 -0.510954 2.147307 0.030806 -0.027197 458541.000000 0 0 1
31.762863 -18.241435 -25.323727 44.529996 -0.521309 2.175708 0.048367 -0.021581 505367.000000 0 0 1
31.711563 -16.956435 -25.894747 44.313450 -0.491027 2.194880 0.055092 -0.021018 -153734.000000 0 0 1
30.763463 -16.971535 -27.112467 44.379156 -0.504131 2.228029 0.029235 -0.009522 530783.000000 0 0 1
29.399463 -16.972735 -26.685227 43.179897 -0.523572 2.236994 0.020134 -0.003491 729309.000000 0 0 1
28.499263 -17.210735 -27.786297 43.364682 -0.543283 2.266282 0.000363 -0.011225 536931.000000 0 0 1
27.024163 -16.768735 -27.590517 42.103830 -0.555363 2.285372 -0.016795 -0.001974 775717.000000 0 0 1
26.205563 -17.588735 -26.713747 41.348753 -0.591123 2.273207 0.022116 0.004688 290072.000000 0 0 1
26.551063 -17.454335 -25.360757 40.654406 -0.581551 2.244409 0.006763 0.011846 -391775.000000 0 0 1
25.743363 -18.317035 -24.339937 39.883167 -0.618419 2.227212 0.009386 0.011417 -117500.000000 0 0 1
26.064863 -17.947735 -23.039637 39.144899 -0.603020 2.200089 0.006492 0.014679 84000.900000 0 0 1
25.327763 -18.726935 -22.097937 38.477428 -0.636672 2.182556 0.015663 0.006574 -54051.900000 0 0 1
25.439663 -18.188335 -20.668037 37.485460 -0.620696 2.154792 0.012572 0.002878 -38532.400000 0 0 1
24.523163 -17.164435 -20.314637 36.175790 -0.610677 2.167058 0.014881 0.003366 50265.800000 0 0 1
24.599063 -15.900835 -20.990937 36.035675 -0.573840 2.192603 0.001755 0.007457 129616.000000 0 0 1
25.830463 -15.008435 -20.659137 36.321700 -0.526359 2.175821 0.001442 -0.001854 238537.000000 0 0 1
25.756163 -14.365835 -19.410437 35.306121 -0.508784 2.152892 0.008901 -0.015263 262992.000000 0 0 1
26.994463 -13.744235 -19.125037 35.824183 -0.470941 2.133953 0.000002 -0.009650 -75765.100000 0 0 1
26.890563 -12.691635 -17.989237 34.753311 -0.440976 2.114871 0.010765 -0.014483 -318312.000000 0 0 1
26.911063 -13.184135 -16.716437 34.314224 -0.455547 2.079628 0.006901 -0.004502 -54155.600000 0 0 1
26.795963 -12.211735 -15.737437 33.388876 -0.427609 2.061603 0.006205 -0.003925 24150.100000 0 0 1
27.577563 -12.453035 -14.429937 33.523471 -0.424154 2.015780 0.020286 -0.002211 -161745.000000 0 0 1
27.132863 -13.669635 -13.869237 33.397708 -0.466686 1.999042 0.048522 -0.016105 444266.000000 0 0 1
27.571563 -13.844935 -12.498837 33.288049 -0.465362 1.955706 0.063434 -0.012203 -333434.000000 0 0 1
27.058863 -15.129435 -11.886937 33.202125 -0.509826 1.936940 0.072021 -0.029510 171966.000000 0 0 1
25.671063 -15.004135 -11.631637 31.928397 -0.528927 1.943681 0.048282 -0.028907 175912.000000 0 0 1
25.029863 -16.156635 -11.235737 31.839797 -0.573201 1.931447 0.028362 -0.032487 89611.300000 0 0 1
23.565863 -16.034635 -10.739237 30.459656 -0.597462 1.931115 0.049501 -0.038271 178575.000000 0 0 1
23.430763 -15.656235 -9.408337 29.709176 -0.589057 1.893025 0.050010 -0.033321 1364560.000000 0 0 1
22.073663 -15.834735 -8.934537 28.597401 -0.622281 1.888541 0.057408 -0.033133 795612.000000 0 0 1
21.763163 -15.467735 -7.481037 27.728180 -0.617891 1.843981 0.058615 -0.034869 -594506.000000 0 0 1
22.013363 -14.136235 -7.174537 27.127389 -0.570848 1.838457 0.068829 -0.024050 475779.000000 0 0 1
21.907463 -13.694935 -5.790937 26.476841 -0.558690 1.791296 0.071250 -0.021229 491992.000000 0 0 1
22.923963 -14.454735 -4.832537 27.528183 -0.562581 1.747259 0.083076 -0.018880 -42615.600000 0 0 1
24.265063 -14.072535 -4.852237 28.467064 -0.525547 1.742084 0.094890 -0.025774 132024.000000 0 0 1
25.088263 -14.907035 -4.009937 29.457091 -0.536132 1.707348 0.090944 -0.030096 1719490.000000 0 0 1
26.635763 -14.656535 -4.335837 30.709565 -0.503041 1.712458 0.102464 -0.029513 1327730.000000 0 0 1
27.056163 -13.424535 -3.766137 30.437442 -0.460581 1.694848 0.111157 -0.026130 216572.000000 0 0 1
28.338263 -13.116135 -4.290537 31.519817 -0.433482 1.707342 0.108846 -0.029636 120284.000000 0 0 1
29.059063 -11.933735 -3.526937 31.611429 -0.389672 1.682601 0.110038 -0.035955 -307414.000000 0 0 1
29.620463 -12.387735 -2.288937 32.187995 -0.396110 1.641968 0.108760 -0.040103 359142.000000 0 0 1
30.070963 -11.258635 -1.510937 32.145024 -0.358246 1.617817 0.110324 -0.041285 -322768.000000 0 0 1
31.562963 -10.946935 -1.657537 33.448519 -0.333847 1.620372 0.103088 -0.039597 -679561.000000 0 0 1
31.821163 -10.259235 -2.899737 33.559600 -0.311881 1.657310 0.118148 -0.040188 380007.000000 0 0 1
32.925363 -10.833735 -3.584537 34.846782 -0.317881 1.673844 0.105950 -0.036898 -46216.300000 0 0 1
33.017063 -10.536835 -5.097837 35.030548 -0.308916 1.716840 0.110644 -0.028922 51252.300000 0 0 1
31.931063 -11.135635 -5.815337 34.313456 -0.335552 1.741095 0.087198 -0.033771 689091.000000 0 0 1
31.935263 -11.019535 -7.223037 34.546540 -0.332266 1.781432 0.079583 -0.024972 -466536.000000 0 0 1
30.627463 -11.543135 -7.815737 33.650723 -0.360425 1.805198 0.101603 -0.028588 -234582.000000 0 0 1
30.574163 -12.981735 -7.751737 34.108566 -0.401530 1.800066 0.085664 -0.029600 -170701.000000 0 0 1
29.344363 -13.431335 -8.224037 33.303561 -0.429251 1.820319 0.085557 -0.032207 -428040.000000 0 0 1
29.011963 -14.961635 -8.163837 33.648072 -0.476133 1.815866 0.092143 -0.036654 -82115.200000 0 0 1
29.490463 -15.773335 -9.223637 34.692376 -0.491147 1.839902 0.092422 -0.033681 284743.000000 0 0 1
29.430663 -17.150535 -9.003037 35.232931 -0.527634 1.829191 0.082339 -0.030166 -199602.000000 0 0 1
29.728963 -17.909535 -10.300537 36.203090 -0.542202 1.859303 0.078483 -0.030479 1120250.000000 0 0 1
31.064963 -17.732035 -10.857437 37.381023 -0.518676 1.865497 0.089211 -0.022960 1462000.000000 0 0 1
31.216563 -18.182935 -12.213037 38.134645 -0.527435 1.896801 0.072381 -0.011993 -241692.000000 0 0 1
30.521263 -17.368635 -13.306137 37.553565 -0.517364 1.932988 0.062839 -0.021863 -271226.000000 0 0 1
31.226463 -16.211735 -13.744837 37.773441 -0.478863 1.943222 0.050673 -0.014268 15105.400000 0 0 1
30.539063 -15.351735 -14.618937 37.175576 -0.465799 1.974950 0.029680 -0.014507 -98366.100000 0 0 1
31.500063 -14.324835 -15.314637 37.841683 -0.426802 1.987450 0.023010 -0.012760 839458.000000 0 0 1
32.525363 -14.742035 -16.194637 39.210880 -0.425551 1.996557 -0.000510 -0.014786 1296610.000000 0 0 1
33.792963 -15.182235 -15.672337 40.225449 -0.422248 1.971007 0.014738 -0.015703 598684.000000 0 0 1
34.722563 -15.801935 -16.741537 41.660972 -0.427080 1.984335 0.035978 -0.019561 -452562.000000 0 0 1
36.031863 -15.921635 -16.242537 42.610018 -0.416078 1.961880 0.049100 -0.024467 -96232.100000 0 0 1
-36.140817 -16.556435 -17.324137 43.363578 0.429577 1.981777 0.064381 -0.028925 326105.000000 0 0 1
-34.609217 -16.288135 -17.231037 41.952471 0.439877 1.994048 0.061224 -0.024290 478431.000000 0 0 1
-33.907617 -17.009935 -16.216537 41.255793 0.464971 1.974768 0.065122 -0.027296 238219.000000 0 0 1
-34.250417 -16.577035 -14.859637 40.849699 0.450762 1.943102 0.071352 -0.032316 -791022.000000 0 0 1
-33.630417 -17.347535 -13.673637 40.235684 0.476230 1.917542 0.072746 -0.027095 281717.000000 0 0 1
-32.221017 -17.167135 -13.627637 38.969436 0.489537 1.928048 0.068369 -0.027737 244709.000000 0 0 1
-31.663617 -17.901535 -12.557337 38.480336 0.514564 1.903216 0.075511 -0.017891 1437330.000000 0 0 1
-30.155317 -17.610835 -12.129837 36.967791 0.528575 1.905108 0.096391 -0.019096 1337790.000000 0 0 1
-29.999717 -16.262235 -11.768737 36.096350 0.496742 1.902905 0.092266 -0.025843 -13867.500000 0 0 1
-28.833717 -16.020935 -11.010937 34.774909 0.507157 1.892976 0.097965 -0.023773 -56135.400000 0 0 1
-28.916017 -16.074135 -9.489337 34.417457 0.507354 1.850128 0.096027 -0.018438 -173690.000000 0 0 1
-29.444717 -17.257235 -9.030537 35.303740 0.530128 1.829467 0.082460 -0.016302 -177666.000000 0 0 1
-29.900517 -17.144435 -7.741637 35.325706 0.520618 1.791740 0.100558 -0.015704 -486219.000000 0 0 1
-30.130617 -18.510235 -7.086337 36.065205 0.550892 1.768570 0.088744 -0.015669 351176.000000 0 0 1
-31.329617 -19.206435 -7.426837 37.491198 0.549956 1.770211 0.067453 -0.014564 107579.000000 0 0 1
-31.336017 -19.671935 -8.786637 38.028094 0.560592 1.803960 0.072236 -0.013401 -151293.000000 0 0 1
-32.666517 -20.273535 -9.293637 39.553624 0.555444 1.807977 0.056169 -0.012860 486334.000000 0 0 1
-33.732317 -19.397335 -9.684837 40.098901 0.521862 1.814732 0.068126 -0.010206 829994.000000 0 0 1
-34.859417 -20.186435 -10.052637 41.517786 0.524896 1.815355 0.071522 -0.019680 156569.000000 0 0 1
-36.044617 -19.396535 -10.635437 42.291281 0.493681 1.825006 0.065876 -0.029504 -109060.000000 0 0 1
-36.023217 -19.097835 -12.004537 42.503039 0.487478 1.857133 0.055949 -0.028709 -1038010.000000 0 0 1
35.591763 -18.906435 -12.320637 42.142911 -0.488297 1.867484 0.081644 -0.030154 -1064220.000000 0 0 1
35.169463 -18.897535 -13.814237 42.247380 -0.493062 1.903907 0.071388 -0.026324 -1537.220000 0 0 1
35.231763 -20.197535 -14.431537 43.098571 -0.520538 1.912242 0.067742 -0.028403 226839.000000 0 0 1
34.606163 -20.216935 -15.729637 43.054993 -0.528721 1.944793 0.062221 -0.028229 1283080.000000 0 0 1
33.173663 -20.883535 -15.731837 42.238663 -0.561844 1.952445 0.075152 -0.021212 895930.000000 0 0 1
32.206263 -20.237235 -14.890037 40.847304 -0.561014 1.943924 0.080041 -0.022981 1383750.000000 0 0 1
30.866363 -20.755935 -15.107737 40.147041 -0.591992 1.956607 0.085233 -0.025052 2044110.000000 0 0 1
30.090063 -20.307135 -16.470737 39.863226 -0.593666 1.996741 0.075587 -0.022673 67490.100000 0 0 1
29.354363 -19.091635 -16.409537 38.670946 -0.576646 2.009027 0.048505 -0.019583 114142.000000 0 0 1
28.588763 -18.883735 -17.556737 38.498725 -0.583742 2.044330 0.037111 -0.017283 -172179.000000 0 0 1
27.727563 -17.589535 -17.426937 37.174018 -0.565309 2.058721 0.030192 -0.007353 633958.000000 0 0 1
26.704663 -17.785835 -16.404237 36.035731 -0.587555 2.043417 0.034348 -0.024702 569731.000000 0 0 1
26.190863 -16.566535 -16.025637 34.888858 -0.563997 2.048042 0.019370 -0.012094 -1753650.000000 0 0 1
24.867063 -16.515035 -15.256337 33.524215 -0.586246 2.043263 0.013550 -0.014084 -272826.000000 0 0 1
23.754063 -16.986835 -15.964837 33.281888 -0.620797 2.071093 0.015603 -0.012116 13645.600000 0 0 1
23.383463 -16.226835 -17.096437 33.202179 -0.606651 2.111710 0.016543 -0.005816 -1684930.000000 0 0 1
22.328163 -16.928135 -17.944237 33.273176 -0.648698 2.140402 0.021503 -0.002953 176881.000000 0 0 1
21.034763 -16.929635 -17.346437 32.093187 -0.677686 2.141830 0.030766 -0.000702 292752.000000 0 0 1
20.151063 -17.757135 -18.108237 32.392737 -0.722331 2.164002 0.031773 -0.005712 161828.000000 0 0 1
18.732963 -17.935235 -17.546337 31.312465 -0.763646 2.165620 0.045875 0.002112 -38417.900000 0 0 1
18.029563 -16.708935 -17.577837 30.219762 -0.747400 2.191573 0.049591 0.002631 -327145.000000 0 0 1
16.682963 -16.893835 -17.222237 29.331354 -0.791678 2.198344 0.060229 -0.007656 -109942.000000 0 0 1
15.849463 -15.611735 -17.278337 28.168647 -0.777842 2.231141 0.071387 -0.005679 -431793.000000 0 0 1
15.265563 -15.251635 -18.517837 28.435191 -0.784942 2.280000 0.072607 0.004734 185939.000000 0 0 1
14.146863 -14.447635 -18.160537 27.178539 -0.795916 2.302575 0.081857 -0.004236 6923.620000 0 0 1
13.429263 -14.022035 -19.448337 27.480909 -0.806988 2.357039 0.085169 -0.008352 -224675.000000 0 0 1
13.480563 -12.661235 -19.806337 27.098403 -0.754067 2.390442 0.100277 -0.018627 244629.000000 0 0 1
12.832563 -12.486735 -21.069137 27.649625 -0.771740 2.437199 0.090427 -0.012775 193190.000000 0 0 1
13.012063 -11.078735 -21.714037 27.632437 -0.705318 2.474812 0.087200 -0.010323 -448710.000000 0 0 1
14.252363 -10.997435 -22.351837 28.699792 -0.657196 2.463571 0.085207 -0.004486 -508321.000000 0 0 1
14.325763 -9.799535 -23.053937 28.857276 -0.599941 2.496252 0.074761 -0.016226 -903532.000000 0 0 1
15.642863 -9.530935 -23.719137 29.968906 -0.547217 2.483987 0.054302 -0.005820 -782139.000000 0 0 1
15.811963 -10.210035 -24.929637 31.236994 -0.573358 2.494899 0.062704 -0.007770 -276574.000000 0 0 1
16.986063 -9.804735 -25.577307 32.231317 -0.523503 2.487425 0.062185 -0.016047 -515344.000000 0 0 1
22.662263 4.803665 -7.273237 24.280720 0.208876 1.875015 0.144248 0.011279 -99820.600000 0 1 0
22.457263 6.212465 -7.340037 24.429481 0.269886 1.875969 0.105805 0.015636 982937.000000 0 1 0
21.768563 6.650365 -6.131037 23.573021 0.296498 1.833909 0.084051 0.010858 83833.200000 0 1 0
21.510363 8.161865 -6.179037 23.822096 0.362656 1.833179 0.081790 0.006882 -251749.000000 0 1 0
20.371563 8.467165 -6.968937 23.135677 0.393913 1.876769 0.064181 0.003258 536175.000000 0 1 0
20.206463 9.870165 -7.219337 23.618640 0.454378 1.881431 0.076748 0.008184 -72012.100000 0 1 0
19.651163 10.794765 -6.080337 23.230705 0.502321 1.835618 0.085398 0.004613 -318733.000000 0 1 0
20.570563 11.161365 -5.087837 23.950161 0.497136 1.784862 0.091347 0.006002 -234384.000000 0 1 0
20.057063 12.163865 -4.269137 23.842628 0.545158 1.750822 0.098493 -0.003357 -235439.000000 0 1 0
20.991963 12.568865 -3.129237 24.666394 0.539497 1.698001 0.093956 -0.018563 231375.000000 0 1 0
22.233463 13.132265 -3.599837 26.071864 0.533518 1.709312 0.095768 -0.023436 1074780.000000 0 0 1
23.145463 13.494565 -2.605337 26.918461 0.527850 1.667734 0.093626 -0.027498 75019.800000 0 0 1
24.026763 12.365465 -1.974837 27.094096 0.475302 1.643749 0.072010 -0.019543 56657.200000 0 0 1
25.243463 12.031465 -2.653537 28.089675 0.444767 1.665404 0.062039 -0.024453 1008240.000000 0 0 1
25.975363 10.964365 -2.009837 28.266168 0.399417 1.641960 0.058261 -0.017890 -95356.500000 0 0 1
27.404363 10.732265 -2.498837 29.536838 0.373267 1.655498 0.072452 -0.020037 -563349.000000 0 0 1
28.241463 11.803565 -2.173137 30.685940 0.395885 1.641674 0.067755 -0.029359 -293885.000000 0 0 1
29.587363 11.509865 -2.446037 31.841359 0.370999 1.647692 0.071823 -0.025663 -239558.000000 0 0 1
30.558363 12.541265 -1.850937 33.083574 0.389443 1.626773 0.058633 -0.024887 -578660.000000 0 0 1
30.512763 12.544665 -0.394937 32.993231 0.390063 1.582767 0.090884 -0.031676 626419.000000 0 0 1
31.375063 13.500165 0.260663 34.157239 0.406337 1.563165 0.100283 -0.030889 810806.000000 0 0 1
32.881863 13.099065 0.346663 35.396647 0.379098 1.561003 0.120038 -0.033417 1394970.000000 0 0 1
33.859863 14.164465 0.636363 36.708682 0.396204 1.553460 0.131909 -0.043541 1369740.000000 0 0 1
34.683763 14.583965 -0.458037 37.627985 0.398039 1.582969 0.117352 -0.029428 98841.500000 0 0 1
34.052263 15.629965 -1.442637 37.495781 0.430313 1.609280 0.088446 -0.016258 -400415.000000 0 0 1
32.979863 15.143765 -2.191037 36.356645 0.430464 1.631098 0.076881 -0.011121 -407485.000000 0 0 1
32.454963 16.197565 -3.003837 36.396549 0.462910 1.653421 0.059241 0.002775 -518701.000000 0 0 1
31.051063 15.900365 -3.488637 35.059388 0.473258 1.670468 0.063346 -0.008823 -1532370.000000 0 0 1
31.103363 14.835565 -4.432137 34.744165 0.445060 1.698710 0.036979 -0.006685 155817.000000 0 0 1
30.071263 14.730565 -5.411537 33.919834 0.455499 1.731020 0.038945 -0.018886 174649.000000 0 0 1
28.741863 14.267065 -4.742237 32.436594 0.460752 1.717522 0.050823 -0.025529 -1129400.000000 0 0 1
27.780363 14.003465 -5.691037 31.626469 0.466905 1.751727 0.069630 -0.032463 -321996.000000 0 0 1
26.658263 13.337565 -5.139437 30.248429 0.463901 1.741532 0.061849 -0.011433 514601.000000 0 0 1
25.483663 13.155365 -6.165837 29.334251 0.476545 1.782568 0.060915 -0.010663 -14848.800000 0 0 1
25.905963 12.364365 -7.238737 29.603982 0.445306 1.817820 0.053707 -0.003223 442177.000000 0 0 1
24.975563 12.123965 -8.298337 28.976399 0.451926 1.861246 0.062585 0.003209 29625.400000 0 0 1
24.560563 13.380765 -9.161637 29.431305 0.498847 1.887345 0.079390 -0.001772 -209916.000000 0 0 1
23.707663 14.259465 -8.488537 28.938571 0.541500 1.868504 0.099406 -0.014918 -116146.000000 0 0 1
23.281963 15.344965 -9.275637 29.386310 0.582741 1.891932 0.091325 -0.019053 -452131.000000 0 0 1
22.252363 16.241265 -8.500937 28.830753 0.630491 1.870102 0.098165 -0.003795 1451190.000000 0 0 1
20.862463 15.840465 -8.572037 27.561613 0.649414 1.887056 0.097635 -0.011230 1286170.000000 0 0 1
20.567163 14.622965 -7.944337 26.456602 0.618061 1.875780 0.094121 -0.014153 176778.000000 0 0 1
19.065563 14.135165 -8.131137 25.088124 0.637973 1.900860 0.093706 -0.016213 1356660.000000 0 0 1
18.115463 14.891565 -7.360937 24.578692 0.688034 1.874949 0.115707 -0.040294 96648.800000 0 1 0
16.888863 14.239065 -7.539437 23.341546 0.700477 1.899699 0.124497 -0.053923 -183634.000000 0 1 0
15.631463 14.731365 -6.779237 22.523628 0.755762 1.876520 0.092663 -0.029074 197206.000000 0 1 0
15.548663 14.354165 -5.408637 21.841619 0.745473 1.821029 0.034312 -0.016720 189759.000000 0 1 0
16.278363 15.180465 -4.532737 22.715135 0.750513 1.771692 0.100135 -0.001059 -500645.000000 0 1 0
16.017563 14.799665 -3.096437 22.026810 0.745899 1.711839 0.069372 0.025858 -485214.000000 0 1 0
16.601663 13.541265 -2.789137 21.604638 0.684215 1.700257 0.044844 0.002141 558842.000000 0 1 0
16.142063 12.783265 -1.655437 20.657167 0.669796 1.651021 0.023931 -0.002423 -72472.700000 0 1 0
16.256063 13.451765 -0.295537 21.102060 0.691281 1.584802 0.026978 -0.009067 -66653.200000 0 1 0
15.515163 14.655965 -0.191337 21.343716 0.756928 1.579761 0.045004 -0.008882 514920.000000 0 1 0
15.829263 15.293565 1.004963 22.033353 0.768187 1.525170 0.056814 -0.007544 -625446.000000 0 1 0
14.697963 16.218865 1.425663 21.934316 0.834552 1.505754 0.057008 -0.002926 -709909.000000 0 1 0
14.449963 17.178365 0.448663 22.452148 0.871450 1.550812 0.060600 -0.011084 -515540.000000 0 1 0
13.440563 17.965265 0.928763 22.455781 0.928486 1.529425 0.051302 -0.022514 -910763.000000 0 1 0
13.250163 19.413165 0.355563 23.506685 0.971888 1.555670 0.040934 -0.018521 -161204.000000 0 1 0
12.760663 19.360965 -0.985537 23.208894 0.988056 1.613273 0.044028 -0.025015 139273.000000 0 1 0
12.195363 20.598665 -1.365937 23.977024 1.036246 1.627796 0.046019 -0.026685 484790.000000 0 1 0
10.642163 20.672165 -1.263737 23.284997 1.095374 1.625096 0.031901 -0.023942 388669.000000 0 1 0
10.219363 20.643265 0.113263 23.034596 1.111120 1.565879 0.013610 -0.020974 -554556.000000 0 1 0
8.856163 20.332965 0.182263 22.178691 1.160018 1.562578 0.009119 -0.024376 -258062.000000 0 1 0
8.449763 20.369565 1.651563 22.114370 1.177577 1.496044 0.006621 -0.020626 -107454.000000 0 1 0
8.207563 21.700865 2.094063 23.295423 1.209211 1.480783 0.000248 -0.010516 137733.000000 0 1 0
7.303563 21.876065 3.162963 23.278930 1.248571 1.434502 0.002445 -0.006837 -140841.000000 0 1 0
7.079863 23.292065 3.737063 24.629462 1.275710 1.418477 0.008508 0.001464 52361.500000 0 1 0
7.887963 23.595165 4.862063 25.349387 1.248172 1.377798 0.013846 -0.004227 196776.000000 0 0 1
7.502263 24.775665 5.535363 26.471830 1.276766 1.360138 0.019966 0.000155 -225386.000000 0 0 1
8.153463 24.951365 6.947163 27.153502 1.254961 1.312072 0.018575 -0.007229 -293021.000000 0 0 1
7.654163 24.075565 7.904463 26.470731 1.262979 1.267559 0.026342 -0.018931 118245.000000 0 0 1
8.231863 24.122565 9.226463 27.106998 1.241936 1.223484 0.030367 -0.028597 -94960.000000 0 0 1
7.663263 23.013365 10.153663 26.295198 1.249353 1.174352 0.026277 -0.025428 -681195.000000 0 0 1
6.423263 23.354065 10.688263 26.474698 1.302394 1.155221 0.024733 -0.025765 -396541.000000 0 0 1
5.882463 22.394565 11.593963 25.894785 1.313926 1.106567 0.014128 -0.017312 -487938.000000 0 0 1
4.533863 22.832865 12.120563 26.245070 1.374779 1.090748 0.022905 -0.023032 -1290830.000000 0 0 1
3.581863 23.081765 11.173563 25.892975 1.416843 1.124610 0.013518 -0.019976 -748779.000000 0 0 1
2.418963 23.625265 11.788263 26.513538 1.468763 1.110054 0.009482 -0.018767 -33604.300000 0 0 1
1.300363 23.704665 10.752063 26.061638 1.515994 1.145531 0.037426 -0.015431 -542730.000000 0 0 1
1.379163 24.821465 9.931863 26.770303 1.515290 1.190707 0.038625 -0.016884 750492.000000 0 0 1
0.372263 24.863865 8.876763 26.403547 1.555825 1.227922 0.025882 -0.012925 1206090.000000 0 0 1
-0.948037 25.645465 9.165363 27.250551 -1.533846 1.227772 0.033304 -0.024592 451582.000000 0 0 1
-1.892737 24.911465 9.901463 26.873826 -1.494963 1.193463 0.034912 -0.021535 -997553.000000 0 0 1
-3.170237 25.407465 9.720063 27.387394 -1.446662 1.207978 0.039586 -0.023611 -1062020.000000 0 0 1
-4.236037 24.418365 10.268063 26.825989 -1.399028 1.178008 0.060090 -0.031175 72384.100000 0 0 1
-4.617637 24.594865 11.662463 27.608749 -1.385209 1.134684 0.038442 -0.012589 386482.000000 0 0 1
-5.583537 25.635965 11.826863 28.779390 -1.356345 1.147302 0.051208 -0.014582 -166079.000000 0 0 1
-6.123137 25.741365 13.269263 29.600406 -1.337265 1.105956 0.021353 -0.001042 -250183.000000 0 0 1
-7.022937 24.714565 13.628263 29.083688 -1.293933 1.083105 0.025043 -0.019163 76180.400000 0 0 1
-7.458037 24.930665 14.977363 30.024686 -1.280118 1.048542 -0.004849 0.015274 43465.800000 0 0 1
-8.655337 24.048665 15.406963 29.843386 -1.225321 1.028317 -0.002173 0.001411 512959.000000 0 0 1
-9.908437 24.566565 14.940063 30.412148 -1.187422 1.057268 -0.012389 0.006480 830952.000000 0 0 1
-10.964637 23.627265 15.256463 30.186596 -1.136306 1.040945 -0.006484 -0.001048 920581.000000 0 0 1
-12.382337 24.227065 15.044063 31.090140 -1.098312 1.065707 -0.007016 -0.007181 227436.000000 0 0 1
-12.786537 25.256165 15.960263 32.497683 -1.102142 1.057421 -0.006538 -0.003574 138653.000000 0 0 1
-13.982837 25.882865 15.548563 33.274619 -1.075481 1.084585 -0.009167 -0.008448 -152701.000000 0 0 1
-14.483237 27.017665 16.490563 34.808865 -1.078714 1.077257 0.007619 -0.010481 -100596.000000 0 0 1
-15.469337 26.610465 17.410163 35.362848 -1.044221 1.056033 0.004070 -0.012235 -114735.000000 0 0 1
-15.818837 27.591765 18.332063 36.709749 -1.050228 1.047915 0.022600 -0.016974 -245052.000000 0 0 1
-17.063137 27.156565 19.155063 37.357009 -1.009810 1.032403 0.021818 -0.022948 305941.000000 0 0 1
-18.204237 27.227965 18.319763 37.528257 -0.981466 1.060817 0.022372 -0.024776 -485969.000000 0 0 1
-19.338137 26.573065 18.819863 37.871871 -0.941698 1.050733 0.026049 -0.017408 535183.000000 0 0 1
-20.538837 26.759665 17.802763 38.142652 -0.916170 1.085193 0.035735 -0.022837 139589.000000 0 0 1
-21.094837 28.030265 17.873463 39.371927 -0.925650 1.099586 0.024931 -0.022849 -105243.000000 0 0 1
-21.930737 28.217565 16.767663 39.475850 -0.910112 1.132102 0.049688 -0.027133 -697201.000000 0 0 1
-22.881237 29.377465 16.876763 40.882901 -0.909073 1.145262 0.044387 -0.028942 -119383.000000 0 0 1
-24.195037 29.162565 17.379163 41.688012 -0.878229 1.140779 0.044927 -0.029395 196483.000000 0 0 1
-24.934037 30.298265 17.138863 42.818591 -0.882216 1.158988 0.049090 -0.027008 611415.000000 0 0 1
-26.421257 30.276865 17.661763 43.894297 -0.853296 1.156692 0.043262 -0.017687 1110550.000000 0 0 1
-27.353377 29.373165 17.053263 43.609676 -0.820989 1.169032 0.067288 -0.023243 94178.500000 0 0 1
-28.637597 29.465165 17.615963 44.706041 -0.799640 1.165773 0.094128 -0.020612 17606.200000 0 0 1
-28.960137 28.412665 18.726563 44.683926 -0.775856 1.138354 0.078314 -0.019641 -472178.000000 0 0 1
-29.131617 27.058565 18.317463 43.776095 -0.748521 1.139074 0.103451 -0.020371 259895.000000 0 0 1
-29.233567 26.106465 19.323263 43.698255 -0.728951 1.112749 0.102303 -0.021060 -136040.000000 0 0 1
-29.294117 24.759165 18.637663 42.644156 -0.701696 1.118479 0.101199 -0.021753 357605.000000 0 0 1
-30.502337 24.526865 17.904763 43.041146 -0.677235 1.141763 0.120049 -0.027167 538065.000000 0 0 1
-30.350597 23.530565 16.906863 41.960556 -0.659492 1.156088 0.120551 -0.017393 -256657.000000 0 0 1
-30.704907 22.041765 17.224963 41.537093 -0.622611 1.143196 0.106857 -0.010199 -398276.000000 0 0 1
-32.063297 21.752765 17.069363 42.339119 -0.596104 1.155831 0.119672 -0.013661 -303429.000000 0 0 1
-32.380557 20.355565 17.181963 41.929338 -0.561209 1.148579 0.118959 -0.021100 140707.000000 0 0 1
-33.788827 19.898765 16.753863 42.641970 -0.532229 1.167018 0.142147 -0.029917 -16297.900000 0 0 1
-33.799277 19.721065 15.374563 42.043891 -0.528181 1.196434 0.122047 -0.028980 589768.000000 0 0 1
-35.058436 19.245565 14.880563 42.672203 -0.502042 1.214593 0.125521 -0.042307 622991.000000 0 0 1
-35.265696 19.634865 13.413863 42.533857 -0.508026 1.249951 0.126212 -0.029794 161375.000000 0 0 1
-35.463729 21.004065 13.209363 43.282030 -0.534716 1.260655 0.134630 -0.037128 -278492.000000 0 0 1
-35.739477 21.478965 11.899663 43.361944 -0.541145 1.292803 0.099542 -0.025283 241790.000000 0 0 1
-34.610903 21.392665 10.827263 42.104517 -0.553615 1.310722 0.094303 -0.018309 161261.000000 0 0 1
-34.549181 20.115765 10.245663 41.270614 -0.527255 1.319917 0.108386 -0.024347 -751486.000000 0 0 1
-33.383027 19.951865 9.517063 40.038455 -0.538701 1.330801 0.108067 -0.019849 -201222.000000 0 0 1
-32.449547 18.865265 10.127263 38.877150 -0.526610 1.307263 0.088459 -0.019534 256387.000000 0 0 1
-31.890437 19.190265 11.393063 38.923876 -0.541710 1.273746 0.085489 -0.018059 329643.000000 0 0 1
-31.078947 18.177165 12.015763 37.956407 -0.529221 1.248688 0.067077 -0.021787 302675.000000 0 0 1
-30.492827 18.677865 13.337263 38.164876 -0.549584 1.213797 0.070625 -0.006864 661419.000000 0 0 1
-29.477897 19.690365 13.169563 37.816588 -0.588905 1.215095 0.058104 -0.004214 440710.000000 0 0 1
-30.059907 20.969165 13.290663 38.986480 -0.609099 1.222918 0.090861 -0.004145 -36497.000000 0 0 1
-29.003847 22.060365 13.461763 38.847161 -0.650252 1.216925 0.090985 -0.010661 75891.200000 0 0 1
-28.204447 21.774465 14.596763 38.505632 -0.657447 1.181993 0.092518 -0.003046 83455.200000 0 0 1
-27.176697 22.748665 14.814963 38.412990 -0.696937 1.174856 0.090432 -0.014885 -66951.600000 0 0 1
-26.638787 22.399565 16.168563 38.376919 -0.699165 1.135908 0.067232 -0.016580 -176058.000000 0 0 1
-25.665997 21.329865 16.154363 37.076542 -0.693392 1.119977 0.068068 -0.011836 570083.000000 0 0 1
-25.427137 20.849165 17.460863 37.230481 -0.686792 1.082645 0.054677 -0.002903 -1279990.000000 0 0 1
-24.306237 19.897865 17.570163 35.992066 -0.685999 1.060807 0.053081 -0.004346 -1126260.000000 0 0 1
-23.915637 19.806965 18.954363 36.380509 -0.691702 1.022770 0.041655 -0.000265 94579.200000 0 0 1
-23.012837 18.768865 19.203663 35.364412 -0.684170 0.996764 0.039591 -0.003026 -117927.000000 0 0 1
-22.518437 18.686465 20.683663 35.834033 -0.692667 0.955492 0.027999 -0.012754 363268.000000 0 0 1
-23.508937 18.103465 21.526763 36.657975 -0.656221 0.943161 0.029943 0.002344 228553.000000 0 0 1
-23.378737 18.448265 22.914063 37.576031 -0.668062 0.914981 0.022974 0.002795 78218.300000 0 0 1
-24.162637 17.521565 23.927163 38.253724 -0.627407 0.895042 0.058384 -0.004012 77577.000000 0 0 1
-23.437437 16.376565 24.391563 37.582625 -0.609877 0.864512 0.058781 -0.000534 419008.000000 0 0 1
-24.276537 15.336365 24.923863 38.023063 -0.563429 0.855961 0.079281 -0.007288 123464.000000 0 0 1
20.647363 24.379965 33.937737 46.609723 0.868105 0.755213 0.081906 -0.021428 63314.800000 0 0 1
21.666163 23.672965 33.220717 46.189262 0.829631 0.768102 0.085585 -0.026926 333282.000000 0 0 1
21.664063 22.275365 33.531007 45.714898 0.799310 0.747367 0.089216 -0.032327 -111193.000000 0 0 1
20.489763 21.456865 32.951267 44.339750 0.808450 0.733024 0.086278 -0.036442 -13541.000000 0 0 1
20.713463 20.974165 31.640356 43.244367 0.791652 0.750036 0.094433 -0.032808 342208.000000 0 0 1
19.672663 20.101765 31.217106 42.019071 0.796186 0.733364 0.075354 -0.026303 136337.000000 0 0 1
19.976863 19.619865 29.754546 40.857645 0.776383 0.755033 0.052656 -0.012594 -166953.000000 0 0 1
21.139363 18.826365 29.727436 41.049058 0.727588 0.760933 0.069074 -0.019898 -199611.000000 0 0 1
21.344163 18.261565 28.457926 39.986393 0.707723 0.778895 0.048729 -0.014896 89755.000000 0 0 1
22.585463 17.339065 28.470066 40.265257 0.654739 0.785460 0.059054 -0.012018 1883890.000000 0 0 1
23.887263 18.032565 28.445126 41.290434 0.646632 0.810821 0.069051 -0.012249 1734860.000000 0 0 1
24.957463 17.127565 28.661996 41.686190 0.601452 0.812665 0.060602 -0.004787 129279.000000 0 0 1
26.346663 17.727165 28.900356 42.937508 0.592266 0.832432 0.068482 -0.011736 -72509.100000 0 0 1
27.045863 18.199465 27.745966 42.808152 0.592313 0.865648 0.055248 -0.001839 -37937.200000 0 0 1
28.330563 18.564065 28.195646 44.070849 0.580069 0.876584 0.049381 -0.003498 397983.000000 0 0 1
29.513863 18.550465 27.183296 44.205423 0.561137 0.908498 0.038177 0.007707 528485.000000 0 0 1
29.368063 19.586165 26.246306 43.988289 0.588178 0.931457 0.046631 -0.002256 519223.000000 0 0 1
30.490063 19.456365 25.359296 44.173385 0.567979 0.959310 0.041111 -0.006008 322494.000000 0 0 1
30.613063 20.508165 24.199636 44.083634 0.590248 0.989691 0.047757 -0.015415 -544724.000000 0 0 1
29.715663 20.541865 23.152766 42.907335 0.604850 1.000835 0.041437 -0.009017 -405945.000000 0 0 1
30.215963 21.321565 22.080366 43.071523 0.614501 1.032535 0.030090 -0.015057 -77618.900000 0 0 1
30.901363 20.436565 21.034366 42.602723 0.584312 1.054419 0.040357 -0.027458 141509.000000 0 0 1
30.020363 19.446965 20.461166 41.207596 0.574822 1.051190 0.054579 -0.026308 655570.000000 0 0 1
30.690663 18.770965 19.428666 40.886905 0.548918 1.075627 0.062748 -0.026560 454467.000000 0 0 1
31.619963 17.627465 19.990666 41.354278 0.508567 1.066262 0.093987 -0.031697 735210.000000 0 0 1
30.825163 16.451265 20.239766 40.379239 0.490240 1.045763 0.087526 -0.034556 542440.000000 0 0 1
31.708663 15.413365 20.466266 40.766152 0.452460 1.044840 0.082741 -0.037019 -798461.000000 0 0 1
31.037763 14.087565 20.852066 39.957613 0.426080 1.021773 0.083527 -0.028405 33260.400000 0 0 1
30.497363 13.858065 22.154066 40.161396 0.426509 0.986484 0.066174 -0.024437 577929.000000 0 0 1
29.333763 14.639265 22.421566 39.717809 0.462894 0.970943 0.070121 -0.019450 -270650.000000 0 0 1
28.487163 13.994465 23.547826 39.520420 0.456627 0.932486 0.044128 -0.008320 54085.300000 0 0 1
27.976563 12.743365 23.054966 38.426721 0.427420 0.927330 0.053279 -0.009354 -395829.000000 0 0 1
27.204763 12.198265 24.060336 38.311833 0.421512 0.891799 0.038437 0.003169 -218708.000000 0 0 1
26.621563 10.813665 23.589006 37.176392 0.385839 0.883415 0.057145 -0.007901 80076.800000 0 0 1
25.488063 10.890165 22.748566 35.857137 0.403788 0.883535 0.029190 -0.003524 -23497.200000 0 0 1
25.253563 9.535265 22.378566 35.063712 0.361032 0.878605 0.034919 0.007865 -197686.000000 0 0 1
24.042963 9.275965 21.461466 33.536579 0.368212 0.876374 0.035125 -0.000056 169816.000000 0 0 1
22.790863 9.674465 22.038166 33.146636 0.401438 0.843478 0.021338 0.006117 1263970.000000 0 0 1
21.768363 8.867865 21.409366 31.794050 0.386847 0.832030 0.009033 0.010033 752834.000000 0 0 1
20.328063 8.819665 21.982766 31.213116 0.409357 0.789388 0.000669 0.007830 372840.000000 0 0 1
20.338863 8.234265 23.273246 31.986191 0.384684 0.755975 0.016519 0.013509 -759278.000000 0 0 1
19.059763 8.247165 23.765116 31.560593 0.408375 0.718187 0.016382 0.009932 -1087060.000000 0 0 1
18.871563 7.286165 25.016246 32.171985 0.368460 0.679991 0.026205 0.013416 -401251.000000 0 0 1
19.014863 5.927765 24.683916 31.717489 0.302196 0.678933 0.034580 0.004272 352003.000000 0 0 1
18.792563 5.163065 25.861456 32.382596 0.268124 0.645794 0.043107 -0.009469 -419319.000000 0 0 1
19.143963 3.667665 25.649886 32.215830 0.189290 0.649826 0.047835 -0.014250 368425.000000 0 0 1
20.532163 3.498865 25.391316 32.840991 0.168788 0.686989 0.066801 -0.009319 319576.000000 0 0 1
20.852863 2.098565 25.115536 32.711405 0.100299 0.695409 0.070258 -0.023225 411688.000000 0 0 1
22.402663 2.027165 25.002956 33.632373 0.090242 0.732628 0.071805 -0.016429 317874.000000 0 0 1
23.065363 2.460265 26.185936 34.982383 0.106263 0.724929 0.076143 -0.020820 145625.000000 0 0 1
24.459763 2.554065 25.931626 35.738669 0.104042 0.758905 0.080618 -0.023399 431296.000000 0 0 1
25.297263 2.831865 27.207616 37.258896 0.111479 0.752136 0.058329 -0.023962 -668037.000000 0 0 1
25.559363 1.712165 28.101936 38.025404 0.066888 0.739166 0.059814 -0.028029 24024.600000 0 0 1
26.290663 1.960565 29.290526 39.407838 0.074435 0.732856 0.055010 -0.013754 458550.000000 0 0 1
27.796463 2.208565 28.997436 40.228999 0.079288 0.765827 0.055187 -0.021904 -1204890.000000 0 0 1
28.082363 3.402565 28.310346 40.020897 0.120576 0.784999 0.046162 -0.003929 216867.000000 0 0 1
29.472363 3.628765 28.072036 40.863520 0.122508 0.813484 0.042418 -0.005411 254501.000000 0 0 1
30.078363 2.698065 27.050926 40.543064 0.089462 0.840333 0.046179 -0.006227 -1302170.000000 0 0 1
29.542263 2.863465 25.791376 39.320984 0.096626 0.855397 0.032245 0.006813 -118777.000000 0 0 1
29.992663 1.857665 24.912486 39.033866 0.061858 0.878603 0.039995 0.012932 -307035.000000 0 0 1
29.553763 2.165965 23.454846 37.792143 0.073158 0.901254 0.048129 -0.004612 482889.000000 0 0 1
30.186863 3.340665 22.896066 38.034676 0.110218 0.924820 0.050517 0.004338 1198770.000000 0 0 1
31.561763 3.128165 22.490466 38.881247 0.098790 0.953981 0.041965 0.007230 1111600.000000 0 0 1
32.192663 4.301165 21.737766 39.081940 0.132820 0.980978 0.062591 0.003128 -279175.000000 0 0 1
31.720363 4.355165 20.374266 37.950752 0.136446 1.004085 0.055266 -0.005507 354310.000000 0 0 1
32.164863 5.581265 19.735066 38.147107 0.171810 1.027055 0.087662 0.000771 -384154.000000 0 0 1
33.617363 5.765265 19.223566 39.152405 0.169844 1.057567 0.076290 -0.001571 -181407.000000 0 0 1
34.561963 5.804765 20.265766 40.483649 0.166399 1.046515 0.087092 0.003537 47595.500000 0 0 1
34.583863 6.944865 21.072266 41.089112 0.198177 1.032303 0.101337 -0.003335 -547172.000000 0 0 1
35.401363 6.697165 22.400966 42.425367 0.186969 1.014542 0.097829 -0.007142 630040.000000 0 0 1
34.590863 5.956765 23.315516 42.138155 0.170534 0.984462 0.092435 -0.002089 264615.000000 0 0 1
35.277563 5.757065 24.502786 43.336321 0.161767 0.969866 0.092510 -0.005490 -50166.700000 0 0 1
34.530063 4.912265 25.571966 43.247902 0.141312 0.938141 0.080385 -0.005523 118118.000000 0 0 1
34.500363 3.553565 25.232756 42.890498 0.102639 0.941833 0.074131 -0.006022 -138359.000000 0 0 1
33.887563 2.804265 26.233826 42.946996 0.082564 0.913673 0.048413 0.000272 -227970.000000 0 0 1
33.878363 1.265165 26.000956 42.724628 0.037327 0.916538 0.030747 0.005217 12039.500000 0 0 1
33.021763 0.882765 24.936386 41.388880 0.026726 0.924179 0.045756 -0.000021 -197259.000000 0 0 1
33.291563 -0.435935 24.468426 41.318544 -0.013094 0.937022 0.033974 -0.002925 -456049.000000 0 0 1
32.310963 -1.024235 23.433146 39.926929 -0.031689 0.943571 0.040200 -0.000421 110163.000000 0 0 1
31.088963 -1.439035 24.014576 39.310231 -0.046255 0.913601 0.049024 0.002868 -133636.000000 0 0 1
30.202263 -1.930435 23.005966 38.015493 -0.063830 0.920813 0.058027 -0.009619 1573620.000000 0 0 1
28.729363 -2.184535 23.562856 37.220379 -0.075892 0.885292 0.052181 0.002293 1518550.000000 0 0 1
27.986663 -0.971535 23.730916 36.706315 -0.034700 0.867798 0.052824 -0.000724 -159585.000000 0 0 1
26.595563 -1.204935 23.676086 35.627698 -0.045275 0.843916 0.065926 -0.005753 -136524.000000 0 0 1
25.777063 0.036665 23.453666 34.850147 0.001422 0.832558 0.079107 -0.013476 -426367.000000 0 0 1
25.945163 0.590265 22.168966 34.131553 0.022747 0.863850 0.062178 -0.015160 141136.000000 0 0 1
25.123463 1.729265 22.072866 33.487164 0.068722 0.851116 0.074807 -0.013783 -108722.000000 0 0 1
25.349163 2.610865 20.795166 32.891269 0.102634 0.886356 0.068345 -0.010584 -303670.000000 0 0 1
24.721863 2.079665 19.653266 31.650377 0.083925 0.900844 0.079128 -0.010513 350297.000000 0 0 1
24.132963 3.217365 18.989666 30.876508 0.132537 0.908385 0.059183 -0.009392 139984.000000 0 0 1
23.610063 2.831165 17.607166 29.588221 0.119344 0.933439 0.055885 -0.004680 -361552.000000 0 0 1
24.707363 2.731665 16.751966 29.975726 0.110114 0.977797 0.048642 -0.013750 -20378.900000 0 0 1
24.494263 3.153865 15.450466 29.131300 0.128055 1.011755 0.036708 -0.003849 -563659.000000 0 0 1
23.962463 2.115865 14.430066 28.051797 0.088071 1.030479 0.047216 0.008118 147307.000000 0 0 1
22.589463 1.826765 14.636066 26.978423 0.080692 0.997374 0.067014 0.009049 241373.000000 0 0 1
22.240663 0.662165 13.998266 26.287582 0.029764 1.009239 0.077212 -0.004439 -158574.000000 0 0 1
20.706863 0.415465 14.029666 25.015561 0.020061 0.975399 0.093832 -0.023689 691671.000000 0 0 1
19.888463 1.173665 13.075166 23.830409 0.058944 0.990017 0.104047 -0.024991 982811.000000 0 1 0
20.104663 0.937965 11.648166 23.254183 0.046620 1.046151 0.121132 -0.017926 -964297.000000 0 1 0
19.837063 -0.462735 11.089366 22.730975 -0.023323 1.061168 0.119874 -0.016100 -145311.000000 0 1 0
20.955363 -1.312735 11.139266 23.768335 -0.062563 1.083023 0.116568 -0.027280 250254.000000 0 1 0
21.973263 -1.066535 10.181266 24.240873 -0.048500 1.137347 0.114248 -0.027388 -172797.000000 0 1 0
23.214063 -1.948935 10.461266 25.536819 -0.083758 1.148721 0.117453 -0.027689 217332.000000 0 0 1
23.868363 -1.660735 11.712466 26.639043 -0.069467 1.115562 0.108123 -0.028401 280300.000000 0 0 1
24.728063 -2.674835 12.147466 27.680187 -0.107751 1.116477 0.055388 -0.013274 -94454.200000 0 0 1
25.061163 -2.582435 13.634266 28.646536 -0.102683 1.074755 0.052174 -0.007495 210804.000000 0 0 1
25.879163 -1.488335 14.056366 29.487754 -0.057448 1.073917 0.051583 -0.010800 259018.000000 0 0 1
25.867763 -1.240335 15.477366 30.169992 -0.047912 1.032114 0.057164 -0.011557 -881939.000000 0 0 1
26.989063 -0.309435 15.819766 31.285304 -0.011465 1.040648 0.065976 -0.010440 -581565.000000 0 0 1
28.209863 -1.035235 15.780866 32.340436 -0.036681 1.061044 0.070665 -0.014266 22118.600000 0 0 1
29.262263 -0.150635 16.159066 33.427805 -0.005148 1.066260 0.054858 -0.012287 728740.000000 0 0 1
30.692463 -0.770235 16.243566 34.734334 -0.025090 1.084164 0.058326 -0.010680 432351.000000 0 0 1
31.274163 -1.139935 15.035466 34.719417 -0.036434 1.122915 0.067073 -0.012031 935632.000000 0 0 1
32.660263 -1.488035 15.260866 36.080480 -0.045530 1.134079 0.056904 -0.013583 916702.000000 0 0 1
33.399763 -2.136735 14.078666 36.308658 -0.063887 1.172607 0.059135 -0.025049 -128996.000000 0 0 1
33.488463 -1.256535 12.983466 35.939204 -0.037504 1.201175 0.068374 -0.025873 43258.100000 0 0 1
33.871663 -1.957435 11.804166 35.922965 -0.057726 1.235979 0.066908 -0.025308 -145295.000000 0 0 1
33.200863 -1.399835 10.535966 34.860628 -0.042138 1.263764 0.071239 -0.010746 -322005.000000 0 0 1
33.656863 -0.095535 10.291466 35.195281 -0.002838 1.274050 0.076486 -0.018684 383256.000000 0 0 1
32.752363 0.654365 9.509666 34.111277 0.019977 1.288269 0.068102 -0.021760 -442239.000000 0 0 1
33.197363 2.068065 9.180966 34.505535 0.062216 1.301480 0.061398 -0.025850 -188304.000000 0 0 1
34.163263 2.091165 8.164166 35.187428 0.061135 1.336643 0.076074 -0.027728 143757.000000 0 0 1
34.278463 3.402265 7.657766 35.287814 0.098930 1.352047 0.066879 -0.024905 -206494.000000 0 0 1
35.001963 3.532165 6.306666 35.740560 0.100573 1.393411 0.071145 -0.030516 -131679.000000 0 0 1
34.970063 4.869065 5.859766 35.790361 0.138346 1.406331 0.046562 -0.017559 167055.000000 0 0 1
35.424363 4.904865 4.499766 36.044293 0.137585 1.445630 0.087696 -0.017736 -387778.000000 0 0 1
35.748963 6.327665 3.916166 36.515258 0.175188 1.463342 0.121146 -0.029662 -959158.000000 0 0 1
34.779263 7.287865 3.944366 35.752876 0.206558 1.460248 0.107413 -0.032118 -1109920.000000 0 0 1
35.208963 8.545865 3.467666 36.396807 0.238114 1.475378 0.123106 -0.037424 -715672.000000 0 0 1
34.043163 9.553965 3.513266 35.532495 0.273605 1.471760 0.131844 -0.042939 338992.000000 0 0 1
32.914363 9.339865 2.706966 34.320781 0.276494 1.491842 0.127604 -0.043293 439799.000000 0 0 1
32.126463 8.156865 2.894766 33.271966 0.248645 1.483683 0.131027 -0.038369 -344984.000000 0 0 1
30.787963 7.982165 2.133666 31.877361 0.253677 1.503813 0.135835 -0.044206 258077.000000 0 0 1
31.054463 7.831065 0.730666 32.034967 0.247022 1.547986 0.135446 -0.045413 -513704.000000 0 0 1
29.909663 7.817965 -0.027134 30.914548 0.255666 1.571674 0.105164 -0.035795 -1038130.000000 0 0 1
30.244763 7.730365 -1.528234 31.254435 0.250236 1.619712 0.092126 -0.032066 -609975.000000 0 0 1
29.210163 7.270865 -2.331534 30.191640 0.243958 1.648098 0.089210 -0.029199 264976.000000 0 0 1
29.695963 7.058465 -3.639234 30.739489 0.233361 1.689464 0.103110 -0.030571 11085.700000 0 0 1
28.791463 6.131365 -4.528534 29.783378 0.209823 1.723437 0.098110 -0.025191 -95424.200000 0 0 1
28.878163 4.719965 -4.352334 29.583258 0.162012 1.718454 0.104411 -0.028465 520894.000000 0 0 1
27.947863 4.105365 -5.199234 28.722275 0.145851 1.752817 0.085432 -0.015953 -502980.000000 0 0 1
27.832963 2.545265 -5.104034 28.411325 0.091194 1.751425 0.104061 -0.011112 -534975.000000 0 0 1
27.509563 2.112865 -3.818734 27.853599 0.076654 1.708330 0.108254 -0.028733 572940.000000 0 0 1
27.542263 0.712965 -3.702134 27.799107 0.025880 1.704368 0.103590 -0.032259 -106995.000000 0 0 1
27.537563 0.266165 -2.225134 27.628598 0.009665 1.651421 0.105703 -0.035974 1308210.000000 0 0 1
28.886263 0.472465 -1.716334 28.941064 0.016355 1.630136 0.109435 -0.035938 1489750.000000 0 0 1
28.951263 0.326665 -0.311234 28.954779 0.011283 1.581546 0.113141 -0.033316 313064.000000 0 0 1
30.343263 0.817265 0.173066 30.354760 0.026927 1.565095 0.130934 -0.035740 -235464.000000 0 0 1
31.431163 0.068765 -0.207434 31.431923 0.002188 1.577396 0.101283 -0.027262 48748.800000 0 0 1
32.672863 0.694165 0.131366 32.680500 0.021243 1.566777 0.069061 -0.026391 7.967230 0 0 1
-2.348237 -21.115835 -8.385237 22.840860 1.460044 1.946703 0.042754 -0.007817 151173.000000 0 1 0
-3.052137 -21.561535 -7.255037 22.953232 1.430176 1.892390 0.040170 -0.013236 -245767.000000 0 1 0
-2.602037 -22.842435 -6.836037 23.984971 1.457373 1.859817 0.042149 -0.011322 8758.770000 0 1 0
-3.310037 -23.347835 -5.564437 24.228923 1.429964 1.802526 0.033415 -0.012128 -341872.000000 0 1 0
-3.004637 -22.643735 -4.383337 23.258981 1.438875 1.760388 0.036710 -0.017760 -67464.300000 0 1 0
-3.610237 -23.328835 -3.320037 23.838854 1.417260 1.710521 0.034415 -0.027514 -248115.000000 0 1 0
-3.177637 -22.615635 -2.056537 22.930191 1.431204 1.660604 0.028764 -0.037117 1031250.000000 0 1 0
-1.768737 -22.723335 -1.743737 22.858674 1.493115 1.647154 0.050703 -0.032610 747147.000000 0 1 0
-1.443637 -22.479135 -0.382037 22.528682 1.506663 1.587755 0.042177 -0.033476 -320050.000000 0 1 0
0.036163 -22.377935 -0.034937 22.377991 -1.569180 1.572358 0.043015 -0.037608 -366890.000000 0 1 0
0.757863 -21.367135 -0.730837 21.393058 -1.535343 1.604965 0.026821 -0.033303 -747512.000000 0 1 0
1.980463 -21.192535 -0.091237 21.285067 -1.477616 1.575083 0.028369 -0.028035 -523122.000000 0 1 0
2.888163 -20.135635 -0.730737 20.354833 -1.428333 1.606704 0.032417 -0.023104 429174.000000 0 1 0
3.671263 -20.619435 -1.828937 21.023422 -1.394594 1.657902 0.041250 -0.021825 1023520.000000 0 1 0
4.704363 -19.718735 -2.353737 20.408322 -1.336601 1.686386 0.046033 -0.013289 1106810.000000 0 1 0
5.658463 -20.313935 -3.413337 21.361765 -1.299132 1.731271 0.042064 -0.011212 -797471.000000 0 1 0
6.515163 -21.284035 -2.846937 22.440199 -1.273747 1.698007 0.049551 -0.018668 395133.000000 0 1 0
7.622863 -21.727135 -3.647037 23.312600 -1.233369 1.727882 0.045651 -0.019167 709341.000000 0 1 0
8.661663 -20.741035 -4.146737 22.856298 -1.175202 1.753233 0.051162 -0.022367 -1403700.000000 0 1 0
8.219863 -20.027335 -5.214637 22.267751 -1.181329 1.807170 0.035448 -0.004811 -1480730.000000 0 1 0
9.285363 -19.567235 -5.911937 22.450961 -1.127726 1.837265 0.044312 0.001562 -1837290.000000 0 1 0
9.039163 -18.230335 -6.660237 21.410519 -1.110490 1.887118 0.028305 -0.000641 251731.000000 0 1 0
10.003963 -17.948535 -7.699037 21.943207 -1.062313 1.929288 0.031976 0.004628 761667.000000 0 1 0
9.648363 -16.752535 -8.275537 21.029095 -1.048260 1.975262 0.023489 0.002876 196288.000000 0 1 0
10.180463 -16.639735 -9.750337 21.808064 -1.021734 2.034314 0.020744 -0.002836 -61648.200000 0 1 0
9.313063 -17.199235 -10.693537 22.291221 -1.074517 2.071132 0.014440 -0.002114 -43788.900000 0 1 0
9.540263 -16.644335 -11.958337 22.606466 -1.050328 2.128193 0.013036 0.009812 27325.300000 0 1 0
8.965363 -17.455835 -13.142537 23.618005 -1.096326 2.160919 0.009692 0.007353 1211490.000000 0 1 0
7.610163 -17.951735 -13.006337 23.438092 -1.169838 2.159067 0.014918 0.015639 1366970.000000 0 1 0
7.120763 -18.607935 -14.182137 24.455950 -1.205315 2.189409 0.013916 0.021525 493085.000000 0 1 0
5.848263 -19.465935 -13.979237 24.668682 -1.278940 2.173267 0.025596 0.029270 416289.000000 0 1 0
6.208263 -20.658935 -13.332437 25.359180 -1.278870 2.124386 0.033468 0.018780 432671.000000 0 0 1
5.037563 -21.451435 -13.183837 25.677902 -1.340140 2.109975 0.064062 0.004858 240601.000000 0 0 1
5.318663 -22.946135 -12.894937 26.853169 -1.343029 2.071681 0.037788 -0.000127 -297160.000000 0 0 1
5.658263 -23.621735 -14.089037 28.080300 -1.335690 2.096407 0.039598 -0.004052 -114374.000000 0 0 1
5.287363 -25.006835 -14.120337 29.200718 -1.362429 2.075515 0.038342 -0.004967 550585.000000 0 0 1
3.779363 -25.272815 -14.422437 29.342894 -1.422354 2.084623 0.048816 -0.022530 228145.000000 0 0 1
2.921163 -24.787235 -13.411437 28.333846 -1.453488 2.063871 0.049097 -0.021855 695931.000000 0 0 1
1.514063 -24.966435 -13.693237 28.515259 -1.510227 2.071687 0.050059 -0.031817 1351710.000000 0 0 1
0.843963 -26.278485 -13.242737 29.438769 -1.538691 2.037383 0.037005 -0.022304 -510792.000000 0 0 1
1.202563 -27.402375 -14.069937 30.826927 -1.526939 2.044761 0.038476 -0.025052 104994.000000 0 0 1
0.858163 -28.633915 -13.444137 31.644626 -1.540835 2.009590 0.026109 -0.013802 -243252.000000 0 0 1
-0.578037 -29.159375 -13.548837 32.158580 1.550976 2.005689 0.014330 -0.014271 723118.000000 0 0 1
-1.663937 -28.380985 -12.989737 31.256715 1.512235 1.999379 0.007066 -0.016564 1243980.000000 0 0 1
-2.932237 -28.908455 -13.430237 32.010436 1.469710 2.003755 0.010182 -0.013279 49086.800000 0 0 1
-4.185437 -28.089505 -13.131937 31.288751 1.422881 2.003913 0.015191 -0.013011 -40787.800000 0 0 1
-4.646837 -28.047955 -11.773737 30.771769 1.406613 1.963421 0.011663 -0.019269 -11728.300000 0 0 1
-5.156837 -29.309765 -11.377037 31.860512 1.396636 1.935946 0.006541 -0.020802 -934892.000000 0 0 1
-5.462137 -29.299505 -9.854937 31.391332 1.386488 1.890134 0.014157 -0.021008 -96626.800000 0 0 1
-6.795837 -28.994135 -9.522037 31.265195 1.340566 1.880270 0.025987 -0.019552 -548942.000000 0 0 1
-7.082037 -27.597045 -9.343937 29.984351 1.319594 1.887701 0.031308 -0.014075 -1067580.000000 0 0 1
-8.555237 -27.247465 -9.038637 29.955189 1.266561 1.877312 0.032136 -0.013357 474415.000000 0 0 1
-9.523337 -27.479485 -10.057437 30.772846 1.237188 1.903742 0.046096 -0.017427 37591.300000 0 0 1
-9.652537 -28.842815 -10.337337 32.123822 1.247852 1.898423 0.051855 -0.028015 -1071290.000000 0 0 1
-10.975337 -29.186195 -11.096937 33.097341 1.211109 1.912701 0.072937 -0.023287 328942.000000 0 0 1
-11.052737 -28.540355 -12.326137 32.994674 1.201315 1.953661 0.078310 -0.023820 304611.000000 0 0 1
-12.079837 -29.112295 -13.146437 34.150798 1.177478 1.965953 0.086638 -0.025228 314969.000000 0 0 1
-12.287137 -28.267315 -14.456737 34.044266 1.160758 2.009366 0.089567 -0.025436 -207775.000000 0 0 1
-13.247237 -27.224395 -14.430337 33.539403 1.117931 2.015566 0.083843 -0.029789 -123552.000000 0 0 1
-12.933837 -26.127655 -13.616037 32.176621 1.111137 2.007733 0.076881 -0.020543 -431104.000000 0 0 1
-13.887937 -24.965235 -13.722737 31.693079 1.063136 2.018602 0.088442 -0.018012 -683086.000000 0 0 1
-13.636637 -24.176435 -14.828537 31.469722 1.057233 2.061447 0.077114 -0.014264 666786.000000 0 0 1
-14.692137 -23.220335 -15.098137 31.352776 1.006660 2.073226 0.077510 -0.010416 330230.000000 0 0 1
-14.498437 -22.514135 -16.458137 31.431850 0.998671 2.121883 0.067738 -0.005190 631401.000000 0 0 1
-13.493637 -21.473635 -16.513037 30.263437 1.009769 2.147953 0.054400 -0.002767 721562.000000 0 0 1
-13.606837 -20.811335 -17.796537 30.577351 0.991741 2.192003 0.041662 0.000787 -207555.000000 0 0 1
-13.622637 -19.296335 -17.642237 29.481745 0.956075 2.212314 0.029754 0.004926 508295.000000 0 0 1
-12.359837 -18.605235 -17.641737 28.463155 0.984420 2.239296 0.034059 0.012457 720534.000000 0 0 1
-12.582737 -17.238435 -17.361937 27.512284 0.940269 2.253717 0.040792 0.013180 750397.000000 0 0 1
-11.315837 -16.358635 -17.685437 26.616307 0.965639 2.297566 0.046690 0.007891 815400.000000 0 0 1
-10.555837 -16.037135 -16.542837 25.343260 0.988670 2.282006 0.054718 0.004474 -1304220.000000 0 0 1
-9.294737 -15.654535 -16.862437 24.815285 1.034992 2.317902 0.057524 0.003324 -862267.000000 0 1 0
-8.358737 -14.903835 -15.814437 23.282809 1.059665 2.317513 0.044044 0.009274 680221.000000 0 1 0
-7.923637 -15.713035 -14.669137 22.909977 1.103737 2.265678 0.037916 0.008393 271471.000000 0 1 0
-6.739337 -16.455435 -14.898837 23.198606 1.182084 2.268200 0.040918 0.003693 -380640.000000 0 1 0
-6.267937 -17.282035 -13.760837 22.963371 1.222866 2.213362 0.034020 0.002597 -615160.000000 0 1 0
-5.629137 -16.512035 -12.747237 21.606169 1.242241 2.201832 0.030842 -0.005264 274778.000000 0 1 0
-5.344737 -17.240435 -11.530637 21.418553 1.270180 2.139272 0.019592 -0.011732 -37359.400000 0 1 0
-4.318637 -18.419835 -11.601837 22.193322 1.340500 2.120885 0.042091 -0.010228 -280622.000000 0 1 0
-3.029437 -17.938635 -11.883137 21.729727 1.403497 2.149406 0.040855 -0.004910 -498706.000000 0 1 0
-2.088037 -18.998035 -11.698937 22.408711 1.461328 2.120074 0.039827 0.000417 -246431.000000 0 1 0
-0.660437 -18.704835 -12.084037 22.278487 1.535503 2.144097 0.041272 0.013849 -1278960.000000 0 1 0
-0.517437 -18.455235 -13.504937 22.874588 1.542766 2.202339 0.048249 0.011586 475127.000000 0 1 0
0.675563 -17.705635 -13.850237 22.489441 -1.532660 2.234267 0.044151 0.004667 1574600.000000 0 1 0
2.030263 -18.497535 -13.768337 23.148388 -1.461475 2.207796 0.063632 -0.001325 37425.700000 0 1 0
2.155763 -19.556835 -14.711937 24.567421 -1.461009 2.212847 0.082421 -0.004229 59586.400000 0 1 0
1.568063 -20.807235 -14.359437 25.329691 -1.495577 2.173536 0.079061 -0.009718 -400400.000000 0 0 1
1.534863 -21.714735 -15.636337 26.802622 -1.500231 2.193691 0.096280 -0.019453 -399141.000000 0 0 1
2.716763 -22.309435 -16.056637 27.620776 -1.449617 2.191152 0.072734 -0.020959 -588932.000000 0 0 1
3.452263 -21.566035 -17.024437 27.691938 -1.412064 2.232903 0.073020 -0.008112 -752152.000000 0 0 1
4.848063 -22.086035 -17.266037 28.450179 -1.354715 2.222934 0.070459 -0.009635 -897380.000000 0 0 1
4.937763 -23.223335 -18.048537 29.823723 -1.361295 2.220781 0.066740 -0.020242 -319115.000000 0 0 1
6.258863 -23.659635 -18.226337 30.514768 -1.312183 2.210921 0.052657 -0.016423 -104987.000000 0 0 1
6.674663 -23.459735 -19.716737 31.363354 -1.293605 2.250619 0.063739 -0.013345 -172169.000000 0 0 1
6.969363 -22.128335 -20.099737 30.695841 -1.265679 2.284719 0.080380 -0.025654 46708.500000 0 0 1
7.317863 -21.990535 -21.459437 31.585474 -1.249550 2.317752 0.074996 -0.023052 42967.200000 0 0 1
7.389263 -20.531635 -21.971637 30.966144 -1.225332 2.359638 0.086980 -0.033606 539718.000000 0 0 1
6.054463 -20.096435 -22.156837 30.519644 -1.278174 2.383264 0.113487 -0.039286 259717.000000 0 0 1
6.147463 -18.751935 -22.568637 29.979489 -1.254006 2.423106 0.128537 -0.042497 200518.000000 0 0 1
4.725163 -18.228035 -22.825537 29.590430 -1.317154 2.451807 0.134526 -0.044271 -981874.000000 0 0 1
4.058163 -18.801635 -23.960537 30.725844 -1.358217 2.465170 0.134620 -0.034874 555684.000000 0 0 1
3.016463 -17.950935 -24.471337 30.498876 -1.404312 2.502049 0.113471 -0.026675 495180.000000 0 0 1
1.771063 -17.591035 -23.638337 29.518675 -1.470455 2.499414 0.095698 -0.025849 -745362.000000 0 0 1
2.067063 -16.996735 -22.361237 28.163570 -1.449775 2.488120 0.107762 -0.025903 -937168.000000 0 0 1
0.989263 -16.179535 -22.018037 27.341360 -1.509729 2.506980 0.070983 -0.013089 -111641.000000 0 0 1
1.183463 -15.221035 -20.750037 25.761299 -1.493201 2.507270 0.054186 -0.010097 -217803.000000 0 0 1
1.965963 -14.075635 -20.979937 25.340605 -1.432023 2.546181 0.051942 -0.006624 -171701.000000 0 0 1
1.940563 -13.383035 -19.781337 23.961901 -1.426798 2.541942 0.044089 -0.005773 225939.000000 0 1 0
3.196763 -12.473335 -19.720037 23.551714 -1.319909 2.563137 0.036582 -0.006134 278145.000000 0 1 0
4.410763 -13.199235 -19.501137 23.957650 -1.248295 2.521774 0.047155 -0.008365 944829.000000 0 1 0
5.626563 -12.424135 -19.483937 23.783211 -1.145555 2.530865 0.053542 -0.016525 1080870.000000 0 1 0
5.771963 -11.435335 -18.265937 22.309794 -1.103357 2.530011 0.049732 -0.008503 -967110.000000 0 1 0
5.023763 -10.205635 -18.255937 21.509821 -1.113365 2.584367 0.018374 0.002205 54416.900000 0 1 0
5.308863 -9.114935 -19.102437 21.821301 -1.043392 2.637066 0.033082 -0.008483 -590481.000000 0 1 0
4.660363 -9.200835 -20.526137 22.971649 -1.101950 2.675970 0.044498 -0.018032 -536910.000000 0 1 0
3.290363 -8.952635 -20.587237 22.689436 -1.218591 2.707731 0.027152 -0.015271 -957515.000000 0 1 0
2.846063 -9.109935 -21.896037 23.885716 -1.267991 2.730538 0.029111 -0.019204 363078.000000 0 1 0
1.294863 -9.034335 -21.933137 23.756228 -1.428439 2.747274 0.022251 -0.019589 365631.000000 0 1 0
0.888663 -7.689535 -21.670537 23.011537 -1.455739 2.798518 0.021531 -0.020720 -472449.000000 0 1 0
-0.507437 -7.551835 -21.737137 23.017186 1.503703 2.806523 0.019852 -0.017593 13510.900000 0 1 0
-1.006337 -6.566235 -22.849337 23.795385 1.418720 2.858665 0.029619 -0.016224 -314078.000000 0 1 0
-0.564037 -7.007735 -24.094437 25.099171 1.490482 2.857689 0.030043 -0.017538 -440860.000000 0 0 1
-0.985437 -6.352135 -25.253937 26.059203 1.416888 2.892346 0.030089 -0.020252 -186328.000000 0 0 1
-0.484637 -4.902635 -25.622417 26.091741 1.472264 2.951637 0.045020 -0.025625 -489961.000000 0 0 1
-1.069037 -4.289835 -26.831387 27.193177 1.326568 2.978289 0.045149 -0.023675 134665.000000 0 0 1
-0.737937 -2.936735 -27.181197 27.349341 1.324615 3.030648 0.042188 -0.019853 -873837.000000 0 0 1
-1.294337 -1.840535 -26.238217 26.334520 0.957899 3.056046 0.048393 -0.026444 1874310.000000 0 0 1
-2.759537 -1.784335 -26.170557 26.376068 0.573986 3.016679 0.035575 -0.026198 1674170.000000 0 0 1
-3.391837 -1.246335 -27.314517 27.552509 0.352136 3.010061 0.053110 -0.019865 -486585.000000 0 0 1
-4.927737 -1.301035 -27.215177 27.688286 0.258132 2.956467 0.044688 -0.021423 85264.500000 0 0 1
-5.455537 -0.459735 -26.167767 26.734365 0.084071 2.935346 0.052168 -0.020132 80369.000000 0 0 1
-6.845637 -0.690735 -26.031697 26.925622 0.100561 2.883193 0.061154 -0.032313 -330578.000000 0 0 1
-7.596037 0.481565 -25.392007 26.508220 -0.063312 2.850364 0.055284 -0.026262 -685375.000000 0 0 1
-7.860937 1.604465 -26.196227 27.397280 -0.201341 2.844397 0.067666 -0.024604 753747.000000 0 0 1
-8.919137 1.537465 -27.179167 28.646500 -0.170701 2.820142 0.074119 -0.028295 1967910.000000 0 0 1
-10.418337 1.212365 -26.700347 28.686584 -0.115847 2.767284 0.059675 -0.035185 855864.000000 0 0 1
-11.299937 1.931965 -27.537147 29.828100 -0.169334 2.747108 0.064404 -0.037674 462842.000000 0 0 1
-12.645437 1.537565 -27.251837 30.082118 -0.120997 2.704331 0.036514 -0.027371 199066.000000 0 0 1
-13.691437 2.155165 -28.189207 31.412284 -0.156129 2.684625 0.031004 -0.021673 -62798.600000 0 0 1
-14.965037 1.558465 -27.913587 31.710401 -0.103766 2.647219 0.034377 -0.020786 679526.000000 0 0 1
-16.072937 2.055565 -28.626827 32.894679 -0.127199 2.626520 0.033423 -0.018418 254839.000000 0 0 1
-16.720437 3.455265 -28.258817 33.016248 -0.203781 2.598097 0.032119 -0.007054 -376785.000000 0 0 1
-15.917137 4.613465 -28.416227 32.895612 -0.282112 2.613620 0.044717 -0.011382 -34322.700000 0 0 1
-15.707137 5.053065 -29.774897 34.041036 -0.311249 2.635565 0.042569 -0.023813 -267841.000000 0 0 1
-16.934937 5.589965 -30.554717 35.378391 -0.318824 2.613272 0.031103 -0.013059 -19919.800000 0 0 1
-17.574537 6.613965 -29.806497 35.228343 -0.359943 2.579411 0.026564 -0.001894 -368707.000000 0 0 1
-18.453137 7.302465 -30.612237 36.482233 -0.376820 2.566423 0.014095 0.003736 -323084.000000 0 0 1
-19.179737 8.447365 -29.792347 36.425324 -0.414869 2.528551 0.017980 -0.005546 67452.200000 0 0 1
-18.293137 9.526065 -29.604347 36.080496 -0.480106 2.533096 0.019859 -0.000612 269532.000000 0 0 1
-18.918537 10.518065 -28.798287 36.026131 -0.507412 2.497046 0.043680 -0.002214 175749.000000 0 0 1
-8.635937 24.639065 30.820436 40.392601 -1.233678 0.702821 0.038538 -0.014016 -749641.000000 0 0 1
-9.417937 25.806865 30.670556 41.174930 -1.220875 0.730435 0.042511 -0.013468 213471.000000 0 0 1
-9.188837 26.829365 31.648676 42.495744 -1.240826 0.730637 0.036978 -0.006057 -572118.000000 0 0 1
-7.894937 27.574365 31.379156 42.512669 -1.291942 0.740527 0.037418 -0.009150 -547247.000000 0 0 1
-7.946237 28.446565 30.250316 42.278025 -1.298401 0.773444 0.048561 -0.004520 -523056.000000 0 0 1
-6.661937 28.691865 29.800396 41.900694 -1.342650 0.779571 0.048976 -0.007152 -800235.000000 0 0 1
-6.554537 29.865465 28.833326 42.026999 -1.354753 0.814727 0.062650 -0.008851 -232299.000000 0 0 1
-6.783537 31.077165 29.470306 43.362490 -1.355887 0.823543 0.063605 -0.010345 307315.000000 0 0 1
-6.244937 32.162865 28.759756 43.595558 -1.379017 0.850384 0.074511 -0.015323 -83042.000000 0 0 1
-6.480837 33.599465 29.369436 45.094224 -1.380251 0.861513 0.071798 -0.019534 -134775.000000 0 0 1
-5.793637 33.729265 30.603396 45.910755 -1.400688 0.841179 0.063606 -0.020344 168964.000000 0 0 1
-6.429937 -33.686039 31.549096 46.598699 1.382187 0.827066 0.058269 -0.021320 888549.000000 0 0 1
-7.687137 34.090065 32.360114 47.627740 -1.349011 0.823799 0.021924 -0.013880 663895.000000 0 0 1
-7.523037 33.026965 33.316104 47.511465 -1.346833 0.793686 0.020129 -0.009761 -187617.000000 0 0 1
-7.241837 31.731065 32.838762 46.235149 -1.346414 0.780935 0.034306 -0.005176 -228574.000000 0 0 1
-7.054837 30.615565 33.931355 46.243058 -1.344317 0.746955 0.023631 0.003352 563654.000000 0 0 1
-5.846337 30.782765 -33.625987 45.961564 -1.383109 2.391478 0.036056 -0.005503 381833.000000 0 0 1
-6.045837 30.098365 -32.383177 44.622124 -1.372565 2.382877 0.028107 -0.001329 -519706.000000 0 0 1
-4.746637 29.814865 -31.604717 43.707149 -1.412918 2.379079 0.043365 -0.008752 282991.000000 0 0 1
-4.107837 28.573265 -31.897747 43.020601 -1.428010 2.406029 0.058318 -0.005821 335395.000000 0 0 1
-3.360037 28.582665 -33.124957 43.880763 -1.453778 2.426276 0.051757 -0.010790 -24272.700000 0 0 1
-2.516937 27.265865 -33.363777 43.161372 -1.478746 2.454354 0.061025 -0.021145 -723144.000000 0 0 1
-1.284137 27.217565 -32.741897 42.596675 -1.523651 2.447523 0.076511 -0.017296 -360204.000000 0 0 1
-0.466137 26.073365 -32.898927 41.980675 -1.552920 2.471346 0.083005 -0.018961 464976.000000 0 0 1
0.117863 25.699265 33.995690 42.616582 1.566210 0.647307 0.080116 -0.016296 -828252.000000 0 0 1
-0.861137 25.178665 33.157661 41.642973 -1.536609 0.649747 0.071020 -0.014065 -293658.000000 0 0 1
-0.550037 25.080065 31.778336 40.486724 -1.548869 0.668249 0.068101 -0.010942 -296531.000000 0 0 1
-0.484537 26.488265 31.053286 40.818740 -1.552506 0.706312 0.060826 -0.013216 -222561.000000 0 0 1
-1.722937 27.140265 30.990816 41.230973 -1.507399 0.720253 0.053751 -0.019914 -234228.000000 0 0 1
-1.692637 28.239565 30.137266 41.335129 -1.510929 0.753797 0.047309 -0.019086 -281816.000000 0 0 1
-2.753537 29.312965 30.349086 42.283554 -1.477135 0.770229 0.060744 -0.023219 -287790.000000 0 0 1
-2.576637 29.954065 31.570326 43.595534 -1.484988 0.760975 0.067466 -0.020184 471937.000000 0 0 1
-3.568137 30.978865 31.624246 44.413000 -1.456122 0.778384 0.063241 -0.015742 204471.000000 0 0 1
-3.242437 31.848665 32.838779 45.861054 -1.469338 0.772670 0.071703 -0.016358 -557747.000000 0 0 1
-1.982237 32.425565 32.704158 46.096730 -1.509740 0.782053 0.120682 -0.031779 -779805.000000 0 0 1
-1.489137 32.712365 34.003257 47.207392 -1.525306 0.766569 0.097580 -0.033976 -561200.000000 0 0 1
-0.033037 33.162765 33.877286 47.407179 -1.569800 0.774741 0.094695 -0.039042 -439363.000000 0 0 1
0.177163 -33.826939 33.453215 47.575317 -1.565559 0.790960 0.097190 -0.029157 359058.000000 0 0 1
1.564463 -33.534639 33.351237 47.321502 -1.524178 0.788684 0.084836 -0.030369 310750.000000 0 0 1
1.815863 -32.053839 32.963184 46.014318 -1.514206 0.772214 0.082928 -0.033437 -202504.000000 0 0 1
1.293663 -31.100439 33.863930 45.996485 -1.529224 0.743316 0.069313 -0.016791 158935.000000 0 0 1
1.662363 -29.812039 33.513501 44.885141 -1.515093 0.727784 0.068181 -0.017298 9202.690000 0 0 1
1.431363 -28.836039 -33.597217 44.298295 -1.521199 2.431699 0.071065 -0.014420 773129.000000 0 0 1
0.068663 -28.400739 -33.474027 43.898943 -1.568379 2.438003 0.052600 -0.019264 654691.000000 0 0 1
-0.105237 -27.699039 -32.260967 42.520793 1.566997 2.432127 0.053894 -0.023944 434894.000000 0 0 1
-1.610537 -27.339939 -32.076717 42.177979 1.511956 2.434892 0.078626 -0.022244 340585.000000 0 0 1
-1.964137 -26.735239 -30.883717 40.895413 1.497462 2.426737 0.090099 -0.028835 -226053.000000 0 0 1
-3.351437 -26.515339 -30.945757 40.889305 1.445067 2.429227 0.095865 -0.037918 -278511.000000 0 0 1
-3.887837 -26.056739 -29.595147 39.622490 1.422682 2.414226 0.091045 -0.043086 -235682.000000 0 0 1
-4.183537 -27.031439 -28.554057 39.541559 1.417249 2.377670 0.081743 -0.042861 79401.900000 0 0 1
-4.437237 -26.370439 -27.301947 38.216298 1.404092 2.366571 0.080746 -0.035643 -16094.000000 0 0 1
-3.192437 -25.891939 -26.518157 37.199420 1.448117 2.364371 0.084607 -0.040851 -254501.000000 0 0 1
-2.596937 -24.756739 -27.102647 36.799371 1.466280 2.398674 0.096947 -0.042078 177810.000000 0 0 1
-1.546737 -24.249239 -26.298097 35.805138 1.507098 2.395694 0.091678 -0.041428 -1020110.000000 0 0 1
-0.678837 -23.204039 -27.045617 35.642021 1.541550 2.432285 0.083113 -0.042728 -52292.000000 0 0 1
0.030863 -23.747139 -28.145907 36.825530 -1.569497 2.440758 0.068006 -0.042410 111083.000000 0 0 1
1.089163 -24.614739 -27.783597 37.134888 -1.526577 2.416112 0.061393 -0.036950 -436583.000000 0 0 1
2.075163 -25.025639 -28.921267 38.301810 -1.488064 2.426586 0.027184 -0.032648 638206.000000 0 0 1
2.862763 -23.995539 -29.555307 38.177186 -1.452054 2.456186 0.031586 -0.030380 960084.000000 0 0 1
3.614163 -24.447139 -30.730597 39.434685 -1.424024 2.464310 0.023637 -0.020415 134513.000000 0 0 1
4.480063 -23.266039 -31.377307 39.318125 -1.380567 2.494827 0.023106 -0.024160 718936.000000 0 0 1
5.714563 -22.891239 -30.745497 38.755008 -1.326157 2.487055 0.026455 -0.018140 1544230.000000 0 0 1
6.740763 -23.904039 -30.641247 39.442705 -1.295941 2.460451 0.023978 -0.007364 -122623.000000 0 0 1
7.551163 -24.286839 -31.857767 40.765033 -1.269355 2.467859 0.026305 -0.001727 -855741.000000 0 0 1
6.850563 -25.129139 -32.733877 41.831932 -1.304649 2.469482 0.006923 -0.004186 28164.200000 0 0 1
7.225663 -24.889139 -34.119197 42.846226 -1.288249 2.491979 0.016241 -0.003917 -92959.200000 0 0 1
6.779663 -23.630539 33.458659 41.519249 -1.291398 0.633672 0.011080 0.002279 64730.300000 0 0 1
5.361663 -23.580239 33.479803 41.299786 -1.347218 0.625530 0.006433 -0.002878 80302.200000 0 0 1
4.905063 -22.379339 32.923289 40.110315 -1.355030 0.607954 0.016458 -0.010681 113394.000000 0 0 1
3.481063 -21.985239 33.456565 40.184702 -1.413764 0.587066 0.034683 -0.016388 869692.000000 0 0 1
2.462563 -22.878139 33.028073 40.253286 -1.463571 0.608500 0.049978 -0.019332 -19232.400000 0 0 1
2.087363 -23.818439 34.002709 41.567527 -1.483383 0.612851 0.042393 -0.009802 329309.000000 0 0 1
0.702063 -24.518539 33.779078 41.745392 -1.542170 0.628060 0.061911 -0.010989 618916.000000 0 0 1
0.662863 -25.450039 32.722052 41.459336 -1.544757 0.661199 0.062807 -0.004346 370859.000000 0 0 1
-0.679237 -25.779539 32.380070 41.394624 1.544455 0.672561 0.071509 -0.007535 495864.000000 0 0 1
-0.693637 -26.763539 31.140206 41.066782 1.544885 0.710122 0.073500 -0.013637 280399.000000 0 0 1
-2.030037 -27.077039 30.784016 41.048054 1.495964 0.722809 0.080062 -0.009730 230757.000000 0 0 1
-2.057737 -28.068639 29.797456 40.987451 1.497616 0.756869 0.085948 -0.015807 1688650.000000 0 0 1
-3.464037 -28.088639 29.005826 40.525413 1.448091 0.773107 0.093706 -0.013583 1932740.000000 0 0 1
-4.548337 -28.653539 29.734216 41.543185 1.413374 0.773110 0.098663 -0.013272 42955.500000 0 0 1
-5.728337 -28.691239 28.967216 41.171600 1.373733 0.790384 0.098144 -0.017974 458945.000000 0 0 1
-6.980137 -29.120339 29.808516 42.252385 1.335535 0.787686 0.076078 -0.013160 246855.000000 0 0 1
-8.110937 -29.535139 29.049046 42.213254 1.302784 0.811860 0.090503 -0.008739 545444.000000 0 0 1
-9.317837 -29.634739 29.791776 43.041721 1.266161 0.806318 0.079079 -0.007838 189417.000000 0 0 1
-9.418137 -30.739539 30.862266 44.565682 1.273492 0.805831 0.048155 -0.001444 -760309.000000 0 0 1
-9.492637 -32.128139 30.437886 45.263588 1.283508 0.833271 0.061717 -0.003194 243573.000000 0 0 1
-10.712437 -32.418239 29.777866 45.303640 1.251648 0.853572 0.069877 -0.005620 -77453.400000 0 0 1
-10.757437 -33.810839 29.209496 45.957480 1.262759 0.882041 0.079258 -0.006310 -81661.200000 0 0 1
-10.810437 33.451465 30.119366 46.293005 -1.258222 0.862390 0.055793 -0.001379 195127.000000 0 0 1
-10.415637 32.289665 29.475336 44.943335 -1.258765 0.855510 0.055865 -0.012749 -157318.000000 0 0 1
-10.742237 31.001165 30.257126 44.631397 -1.237233 0.825848 0.043021 0.008876 144026.000000 0 0 1
-12.134837 30.849665 30.459826 45.019519 -1.196032 0.827672 0.037126 0.013772 68723.300000 0 0 1
-12.434037 29.583765 31.004186 44.621340 -1.172914 0.802615 0.034537 0.012270 14840.200000 0 0 1
-12.462037 29.459065 32.565020 45.646680 -1.170596 0.776437 0.031521 -0.002780 -156265.000000 0 0 1
-13.575737 30.093665 33.164794 46.795650 -1.147015 0.783121 0.024669 0.006728 339533.000000 0 0 1
-13.606637 29.692265 -33.790227 46.995220 -1.141099 2.373179 0.025148 0.000509 -1364680.000000 0 0 1
-14.933737 29.953865 -33.189747 47.136078 -1.108303 2.351988 0.028484 0.001942 -1377860.000000 0 0 1
-14.981437 29.599765 -31.815877 45.965635 -1.102254 2.335283 0.020754 -0.002583 1057620.000000 0 0 1
-16.286537 29.905965 -31.249447 46.218460 -1.072115 2.313287 0.030582 -0.005092 1275570.000000 0 0 1
-16.305537 29.496765 -29.779057 44.974681 -1.065813 2.294453 0.046689 -0.014002 -11100.400000 0 0 1
-16.304837 28.091965 -29.596827 43.942900 -1.044906 2.309769 0.034211 -0.015864 21121.700000 0 0 1
-16.486637 27.910765 -28.168927 42.945413 -1.037250 2.286202 0.035762 -0.017166 -22575.000000 0 0 1
-16.812537 26.462465 -27.758357 41.874215 -1.004799 2.295480 0.022655 -0.018762 929905.000000 0 0 1
-18.185037 26.154265 -28.063707 42.453655 -0.963232 2.293005 0.026038 -0.018084 560838.000000 0 0 1
-18.515437 24.883965 -27.563447 41.494298 -0.931101 2.297314 0.022128 -0.012673 -92951.400000 0 0 1
-19.988737 24.569865 -27.875927 42.193545 -0.887850 2.292505 0.033587 -0.013948 -92536.600000 0 0 1
-20.939537 25.281265 -27.091727 42.562522 -0.879058 2.260769 0.039680 -0.022384 -169804.000000 0 0 1
-22.216737 24.874665 -27.504477 43.229951 -0.841780 2.260407 0.072311 -0.021856 -250661.000000 0 0 1
-23.331237 24.970465 -26.435947 43.205672 -0.819322 2.229210 0.089898 -0.033158 -213738.000000 0 0 1
-23.719937 26.321265 -26.256087 44.100188 -0.837335 2.208527 0.053295 -0.022221 503563.000000 0 0 1
-25.059277 26.496465 -25.783657 44.663487 -0.813267 2.186199 0.044500 -0.019883 690890.000000 0 0 1
-25.349017 26.212465 -24.297137 43.817997 -0.802143 2.158560 0.044949 -0.002852 -404178.000000 0 0 1
-25.136497 24.833165 -23.991437 42.709702 -0.779328 2.167275 0.040923 0.001047 1299530.000000 0 0 1
-26.425567 24.146665 -23.810137 42.991798 -0.740366 2.157753 0.033376 0.013946 1047480.000000 0 0 1
-27.090867 24.345365 -22.425637 42.772902 -0.732072 2.122684 0.022934 0.009349 -192969.000000 0 0 1
-26.500557 23.671965 -21.305137 41.431273 -0.729080 2.110904 0.018119 0.007135 1296250.000000 0 0 1
-25.168077 24.179465 -20.994937 40.729179 -0.765367 2.112360 0.023781 0.008665 1325950.000000 0 0 1
-24.463437 23.436965 -19.794937 39.237618 -0.763972 2.099586 0.014841 0.005506 104747.000000 0 0 1
-25.051817 23.693565 -18.554537 39.156729 -0.757541 2.064457 0.014524 0.010180 281891.000000 0 0 1
-24.169337 23.243865 -17.561237 37.852757 -0.765881 2.053229 0.003007 0.003454 247053.000000 0 0 1
-24.883037 23.301465 -16.160637 37.726516 -0.752587 2.013477 -0.000288 -0.001329 -515.710000 0 0 1
-25.300077 24.568165 -15.719037 38.610579 -0.770722 1.990092 0.001945 -0.008232 18905.900000 0 0 1
-25.720507 24.536365 -14.384837 38.347115 -0.761841 1.955324 -0.025772 -0.002613 -103080.000000 0 0 1
-25.991637 25.956765 -13.870037 39.264447 -0.784727 1.931836 -0.025000 0.003932 96906.200000 0 0 1
-24.762237 26.681465 -13.655137 38.878423 -0.822688 1.929677 -0.006543 0.001047 731868.000000 0 0 1
-24.925737 27.462965 -12.429637 39.115249 -0.833791 1.894173 0.007078 -0.008919 -96446.700000 0 0 1
-23.634537 28.135165 -11.942737 38.636872 -0.872116 1.885045 0.017648 -0.013151 -106210.000000 0 0 1
-22.672837 27.198965 -11.495737 37.228930 -0.875905 1.884712 0.019948 -0.019851 520682.000000 0 0 1
-21.574937 27.790965 -10.789337 36.799803 -0.910656 1.868358 0.031477 -0.023438 319060.000000 0 0 1
-20.680737 26.724765 -10.110537 35.272212 -0.912210 1.861517 0.078295 -0.024842 198256.000000 0 0 1
-19.866437 25.974965 -11.009137 34.504714 -0.917871 1.895536 0.059994 -0.029359 204834.000000 0 0 1
-19.219537 24.893565 -10.335737 33.104496 -0.913320 1.888321 0.075489 -0.018136 21716.300000 0 0 1
-18.414137 24.023165 -11.361537 32.330751 -0.916809 1.929879 0.076050 -0.024968 7400.190000 0 0 1
-17.851937 22.897665 -10.703837 30.944577 -0.908594 1.923998 0.057465 -0.019491 435824.000000 0 0 1
-17.272837 21.935165 -11.595937 30.231906 -0.903755 1.964451 0.067535 -0.018470 300852.000000 0 0 1
-16.836137 20.540265 -11.122437 28.793517 -0.884179 1.967394 0.056365 -0.009160 300622.000000 0 0 1
-17.960537 19.680465 -10.915137 28.793087 -0.831059 1.959608 0.053436 -0.003371 229226.000000 0 0 1
-17.635637 18.438565 -10.398137 27.552090 -0.807652 1.957783 0.081217 -0.017183 -293601.000000 0 0 1
-18.841037 17.440465 -10.254637 27.646195 -0.746814 1.950800 0.056775 -0.003807 537028.000000 0 0 1
-19.413137 16.940765 -11.447037 28.193866 -0.717494 1.988882 0.028214 -0.000521 261311.000000 0 0 1
-20.319737 17.860065 -12.069837 29.623548 -0.721064 1.990446 0.030301 0.004654 -121565.000000 0 0 1
-21.101137 17.248365 -13.247937 30.303002 -0.685269 2.023260 0.050835 -0.001884 -444135.000000 0 0 1
-20.307337 17.167865 -14.347037 30.215245 -0.701819 2.065565 0.059485 -0.009797 -153886.000000 0 0 1
-21.013437 16.465365 -15.374037 30.806393 -0.664638 2.093302 0.065433 -0.000645 407618.000000 0 0 1
-20.160437 16.379865 -16.654037 30.856121 -0.682302 2.140915 0.087781 -0.017082 80488.900000 0 0 1
-19.626037 17.589065 -17.177837 31.458459 -0.730718 2.148436 0.060415 -0.019194 638890.000000 0 0 1
-18.925837 17.437565 -18.432737 31.654728 -0.744493 2.192359 0.059972 -0.012023 135124.000000 0 0 1
-18.328637 18.806765 -19.002637 32.415021 -0.798273 2.197193 0.043875 0.000504 991081.000000 0 0 1
-16.914337 18.862765 -18.702337 31.490890 -0.839805 2.206690 0.046231 -0.001448 1076420.000000 0 0 1
-16.527437 20.178365 -18.947437 32.238610 -0.884537 2.199040 0.062454 -0.013832 -168003.000000 0 0 1
33.711702 30.649865 2.075863 45.609235 0.737862 1.525267 0.060104 -0.014757 -716865.000000 0 0 1
34.936702 30.549965 1.453863 46.432610 0.718511 1.539480 0.067227 -0.013328 -738067.000000 0 0 1
34.970632 31.329065 0.257763 46.952337 0.730527 1.565306 0.054169 -0.007182 -506720.000000 0 0 1
36.344092 31.197965 -0.403537 47.899571 0.709354 1.579221 0.015365 -0.000016 -823798.000000 0 0 1
-35.722770 31.984865 0.331163 47.950574 -0.730248 1.563890 -0.013683 0.007105 -542880.000000 0 0 1
-34.624839 32.340865 -0.490837 47.381980 -0.751305 1.581156 0.000857 0.001251 -188481.000000 0 0 1
-33.727127 33.469365 0.056463 47.515479 -0.781562 1.569608 -0.001041 0.004565 -284383.000000 0 0 1
-33.016027 33.063565 1.205763 46.740895 -0.786118 1.544997 -0.001390 0.013234 -54727.600000 0 0 1
-32.785667 -34.074839 1.984963 47.327949 0.804677 1.528843 -0.012995 0.002500 -417019.000000 0 0 1
-31.880487 33.933365 3.190463 46.669238 -0.816580 1.502380 0.019449 0.011390 -102243.000000 0 0 1
-31.688897 -33.207439 3.931863 46.069293 0.808793 1.485346 0.014506 0.014661 -184847.000000 0 0 1
-30.980497 -33.500039 5.095663 45.913066 0.824453 1.459582 0.042172 -0.003644 -563249.000000 0 0 1
-30.906637 -32.285539 6.068463 45.104351 0.807215 1.435844 0.041285 -0.006121 185948.000000 0 0 1
-32.122707 -31.810139 6.621263 45.690200 0.780509 1.425368 0.025600 -0.003170 131294.000000 0 0 1
-32.717987 -32.666839 7.593363 46.853476 0.784616 1.408012 0.014845 -0.013397 -1836240.000000 0 0 1
-33.805917 -32.160339 8.518163 47.430861 0.760458 1.390225 0.028202 -0.006623 466424.000000 0 0 1
-35.061737 -31.831139 7.896763 48.009433 0.737141 1.405562 0.020443 -0.005491 460028.000000 0 0 1
-35.749414 -32.952139 7.383763 49.177068 0.744704 1.420080 0.002366 -0.006790 -848180.000000 0 0 1
35.648562 -32.676039 7.388463 48.919658 -0.741920 1.419184 0.006477 -0.001753 492435.000000 0 0 1
34.955012 -32.697939 8.636063 48.637328 -0.752048 1.392289 0.003805 0.002982 -44283.500000 0 0 1
33.577202 -32.616839 8.385763 47.556364 -0.770891 1.393536 0.004101 0.013024 -113610.000000 0 0 1
32.706402 -32.511139 9.683263 47.121635 -0.782404 1.363827 0.012868 -0.000794 541474.000000 0 0 1
31.312962 -32.495239 9.333363 46.082034 -0.803925 1.366847 0.030181 -0.007621 1446210.000000 0 0 1
30.346422 -32.501939 10.416663 45.670431 -0.819682 1.340688 0.045624 -0.007165 559199.000000 0 0 1
30.455402 -31.235739 11.393163 45.088880 -0.798047 1.315345 0.056255 -0.007355 -716634.000000 0 0 1
29.941582 -29.971839 10.965463 43.761294 -0.785903 1.317523 0.052377 -0.011783 563480.000000 0 0 1
30.600972 -29.416539 9.780763 43.559334 -0.765666 1.344327 0.048449 -0.015715 335337.000000 0 0 1
30.120742 -27.957139 9.554963 42.191919 -0.748162 1.342350 0.046405 -0.019853 163872.000000 0 0 1
30.355542 -27.636339 8.204963 41.863440 -0.738543 1.373526 0.047731 -0.022258 -124804.000000 0 0 1
29.978962 -26.323239 7.994863 40.688683 -0.720559 1.373021 0.057002 -0.022462 12806.200000 0 0 1
30.036562 -25.811339 6.511263 40.134983 -0.709886 1.407842 0.049892 -0.014164 745811.000000 0 0 1
31.370142 -25.492039 6.103963 40.880170 -0.682389 1.420922 0.056864 -0.017444 208090.000000 0 0 1
31.410882 -25.075339 4.776063 40.475016 -0.673704 1.452520 0.046070 -0.011805 -243912.000000 0 0 1
32.737112 -24.495939 4.274863 41.110145 -0.642388 1.466622 0.051781 -0.019338 -178949.000000 0 0 1
33.679102 -25.497139 4.013763 42.432256 -0.648005 1.476062 0.037687 -0.006073 105331.000000 0 0 1
35.017202 -24.987639 3.893163 43.194251 -0.619783 1.480542 0.038889 -0.008288 447056.000000 0 0 1
35.977652 -26.124739 3.671063 44.613565 -0.628054 1.488417 0.030847 -0.005687 -567244.000000 0 0 1
36.100642 -26.785039 4.929563 45.221624 -0.638332 1.461570 0.018806 -0.002730 -87016.800000 0 0 1
-36.337847 -28.108739 4.802463 46.190952 0.658397 1.466638 0.018247 -0.006167 -787168.000000 0 0 1
36.150412 -29.004239 5.967163 46.730132 -0.676155 1.442753 0.013158 -0.005040 240472.000000 0 0 1
34.903232 -29.674439 5.912463 46.192696 -0.704605 1.442449 -0.005315 0.000635 124513.000000 0 0 1
33.760282 -28.852839 6.033163 44.817876 -0.707181 1.435771 0.014268 -0.003986 -1407600.000000 0 0 1
32.463692 -29.606839 6.213063 44.374074 -0.739405 1.430319 0.034670 -0.012715 -715364.000000 0 0 1
31.926502 -30.234239 5.086263 44.263764 -0.758181 1.455634 0.018862 -0.013630 89102.900000 0 0 1
31.082622 -29.275739 4.395863 42.924608 -0.755471 1.468208 0.032983 -0.017055 -397318.000000 0 0 1
29.599562 -29.663839 4.310963 42.126736 -0.786483 1.468284 0.042141 -0.017223 -147858.000000 0 0 1
29.520162 -30.984139 3.803963 42.964253 -0.809590 1.482142 0.047551 -0.014639 -258432.000000 0 0 1
28.199702 -31.446739 3.582463 42.390502 -0.839783 1.486184 0.061507 -0.011130 -35882.300000 0 0 1
28.084842 -32.974839 3.173963 43.430087 -0.865313 1.497649 0.066343 -0.008054 -339239.000000 0 0 1
28.165752 -33.086039 1.777563 43.487416 -0.865555 1.529910 0.065803 0.000795 223397.000000 0 0 1
28.090762 33.836465 1.378263 43.998829 0.877915 1.539466 0.058030 0.007645 -125904.000000 0 0 1
27.908242 33.694465 -0.154537 43.751696 0.879051 1.574328 0.042603 -0.001592 -253627.000000 0 0 1
28.964652 -34.080239 -0.907437 44.735190 -0.866363 1.591082 0.041732 -0.001487 -242576.000000 0 0 1
28.720742 34.126465 -2.279337 44.661976 0.871201 1.621854 0.046659 0.001690 -185361.000000 0 0 1
29.903152 -33.655639 -3.120037 45.129095 -0.844369 1.639987 0.029662 -0.001209 -71524.800000 0 0 1
30.037522 -32.235439 -3.119737 44.171360 -0.820678 1.641483 0.024035 -0.008045 -173671.000000 0 0 1
30.784132 -31.862839 -4.230937 44.506226 -0.802615 1.666004 0.023403 -0.010363 -418179.000000 0 0 1
31.038752 -30.344239 -4.275337 43.617147 -0.774084 1.668974 0.028311 0.000710 88953.800000 0 0 1
30.001892 -29.476839 -4.774137 42.329540 -0.776571 1.683822 0.030124 -0.010379 499888.000000 0 0 1
30.421022 -28.137139 -4.642037 41.697550 -0.746416 1.682354 0.035267 -0.016797 567450.000000 0 0 1
31.470652 -27.624539 -5.704537 42.261790 -0.720406 1.706191 0.055150 -0.014781 56289.300000 0 0 1
32.778302 -27.997839 -5.342037 43.437696 -0.706903 1.694090 0.059891 -0.013006 154439.000000 0 0 1
33.798372 -27.541539 -6.268437 44.047244 -0.683747 1.713593 0.073369 -0.017214 643445.000000 0 0 1
33.922692 -28.401039 -7.583137 44.887326 -0.697033 1.740548 0.076514 -0.017739 -119973.000000 0 0 1
32.809632 -28.225239 -8.497337 44.106018 -0.710428 1.764666 0.073218 -0.015643 633192.000000 0 0 1
32.765982 -29.208639 -9.503137 44.911734 -0.728061 1.784004 0.050507 -0.003914 116954.000000 0 0 1
32.532242 -30.704039 -9.111037 45.651898 -0.756496 1.771722 0.037093 0.005940 257321.000000 0 0 1
33.689792 -31.310239 -8.556137 46.781841 -0.748806 1.754726 0.048964 -0.000455 -207208.000000 0 0 1
33.349002 -32.499339 -7.950837 47.239590 -0.772496 1.739910 0.048582 -0.009891 536156.000000 0 0 1
34.514152 -33.075639 -7.074937 48.324728 -0.764118 1.717729 0.044083 -0.009143 408852.000000 0 0 1
34.367742 33.923865 -6.451837 48.719571 0.778899 1.703615 0.033769 -0.014948 84346.800000 0 0 1
33.815702 33.928965 -5.111237 48.174694 0.787070 1.677094 0.037053 -0.010180 -59266.700000 0 0 1
33.589982 32.522065 -4.508837 46.971281 0.769246 1.666936 0.015463 -0.004459 -369534.000000 0 0 1
32.536542 31.856465 -5.123637 45.822621 0.774837 1.682845 0.026342 -0.012569 -302039.000000 0 0 1
32.594052 30.476565 -4.935537 44.894909 0.751837 1.680954 0.030718 0.001640 4939.440000 0 0 1
31.357152 29.713165 -5.451137 43.541453 0.758485 1.696320 0.039000 -0.019674 -93902.800000 0 0 1
31.171252 29.650765 -6.825637 43.559203 0.760404 1.728143 0.012690 -0.008771 -390383.000000 0 0 1
29.933512 29.136465 -7.224237 42.392669 0.771906 1.742045 -0.000248 -0.003563 -435843.000000 0 0 1
29.869492 28.940065 -8.715937 42.493312 0.769595 1.777376 0.007217 0.001005 -471061.000000 0 0 1
30.572732 27.759965 -9.050937 42.275609 0.737216 1.786560 0.023007 -0.001443 66684.700000 0 0 1
30.837462 27.589865 -10.446737 42.676505 0.729872 1.818098 0.014427 0.006861 91467.300000 0 0 1
32.074222 28.404165 -10.903137 44.208944 0.724789 1.819995 0.037238 0.004268 -1358560.000000 0 0 1
33.252162 27.940565 -10.339437 44.646226 0.698814 1.804504 0.033688 -0.004909 -83533.300000 0 0 1
34.407612 28.623865 -10.843837 46.052126 0.693895 1.808497 0.048552 -0.008415 379749.000000 0 0 1
34.697722 30.075265 -10.261737 47.050577 0.714155 1.790664 0.045826 -0.017329 -477968.000000 0 0 1
35.440122 30.037565 -9.005537 47.321848 0.703075 1.762268 0.036772 -0.011419 410049.000000 0 0 1
35.429632 31.254365 -8.302937 47.969084 0.722867 1.744762 0.033656 -0.013567 -138958.000000 0 0 1
-36.268677 31.337265 -7.358637 48.493202 -0.712584 1.723131 0.029214 -0.003577 1263840.000000 0 0 1
-34.953755 31.483265 -7.913137 47.703026 -0.733208 1.737450 0.053728 -0.005153 442917.000000 0 0 1
-34.368258 30.288765 -8.370537 46.568792 -0.722387 1.751524 0.065391 -0.015193 -1819950.000000 0 0 1
-32.929417 30.531865 -8.686337 45.738318 -0.747636 1.761871 0.088498 -0.014896 -1539930.000000 0 0 1
-32.214737 31.110965 -7.608337 45.426515 -0.767970 1.739076 0.070153 -0.010440 172422.000000 0 0 1
-30.838207 31.334065 -7.848137 44.658839 -0.793374 1.747449 0.075636 -0.017033 228533.000000 0 0 1
-30.417907 32.563265 -8.727537 45.406885 -0.819448 1.764207 0.050435 -0.015723 -292630.000000 0 0 1
-30.663577 33.832565 -8.211537 46.393176 -0.834493 1.748733 0.041151 -0.009058 -229172.000000 0 0 1
-29.670107 -34.126639 -7.281137 45.803468 0.855140 1.730438 0.063037 -0.018939 -101588.000000 0 0 1
-29.773297 -32.724839 -6.629037 44.735986 0.832589 1.719525 0.046397 -0.021050 282691.000000 0 0 1
-30.878797 -32.548439 -5.751337 45.232498 0.811716 1.698292 0.035523 -0.019284 74757.100000 0 0 1
-30.651567 -33.014339 -4.416537 45.265560 0.822493 1.668521 0.051825 -0.014975 330769.000000 0 0 1
-31.872057 -32.998539 -3.424337 46.004975 0.802761 1.645299 0.039009 -0.008431 91821.200000 0 0 1
-32.224517 -31.690639 -2.959237 45.293192 0.777045 1.636178 0.037546 -0.006852 -5016.470000 0 0 1
-33.038517 -31.929739 -1.813837 45.981973 0.768333 1.610253 0.038420 -0.002757 -131031.000000 0 0 1
-33.697187 -30.569439 -1.485637 45.521403 0.736768 1.603438 0.047611 -0.003322 929678.000000 0 0 1
-34.756827 -30.648739 -0.478937 46.342331 0.722671 1.581131 0.030179 0.003096 727598.000000 0 0 1
-35.375831 -29.391539 -0.289437 45.993432 0.693263 1.577089 0.043924 -0.006883 229410.000000 0 0 1
-36.397807 -29.350139 0.902463 46.765858 0.678614 1.551498 0.041346 -0.004932 -536943.000000 0 0 1
35.398632 -30.079339 0.555363 46.455767 -0.704338 1.558841 0.013051 -0.005915 -286877.000000 0 0 1
34.393282 -30.147839 1.565763 45.762886 -0.719714 1.536575 0.014174 -0.009160 688719.000000 0 0 1
33.481682 -28.902739 1.846063 44.269621 -0.712131 1.529084 0.010078 0.010140 -538874.000000 0 0 1
32.546062 -28.668239 0.812763 43.379427 -0.722134 1.552059 0.011938 -0.002691 -69869.200000 0 0 1
31.984392 -27.369939 0.932163 42.106815 -0.707810 1.548656 0.015654 -0.002573 -240981.000000 0 0 1
30.704722 -27.150639 0.058963 40.987079 -0.724045 1.569358 0.019345 -0.013566 624187.000000 0 0 1
29.517592 -27.715439 0.614663 40.494588 -0.753921 1.555617 0.022423 0.000359 357442.000000 0 0 1
29.429432 -29.141239 0.534363 41.419668 -0.780478 1.557895 0.023024 -0.003625 -737585.000000 0 0 1
28.954702 -29.776239 -0.824937 41.541302 -0.799385 1.590656 0.021475 -0.000717 1355400.000000 0 0 1
27.591842 -29.501339 -1.268337 40.413456 -0.818831 1.602186 0.039278 -0.003348 1384540.000000 0 0 1
27.336142 -30.119439 -2.523637 40.753086 -0.833803 1.632761 0.036960 -0.005821 -177440.000000 0 0 1
25.892342 -30.571639 -2.769937 40.158574 -0.868081 1.639826 0.048919 -0.013233 27925.200000 0 0 1
24.978442 -29.506439 -2.974637 38.773715 -0.868313 1.647590 0.059210 -0.006149 288335.000000 0 0 1
23.654242 -30.023039 -3.046437 38.343016 -0.903496 1.650332 0.042358 -0.006102 931171.000000 0 0 1
22.454042 -29.020939 -3.153137 36.828538 -0.912287 1.656518 0.036016 -0.005090 572395.000000 0 0 1
22.437542 -28.269839 -4.350237 36.353152 -0.899914 1.690750 0.035422 -0.014740 120218.000000 0 0 1
21.669042 -27.065139 -4.239637 34.929124 -0.895674 1.692475 0.036013 -0.018460 114106.000000 0 0 1
21.380142 -26.484839 -5.664337 34.505679 -0.891644 1.735699 0.045820 -0.025573 -401741.000000 0 0 1
20.041742 -26.600439 -6.051837 33.850843 -0.925099 1.750542 0.055740 -0.021813 -766832.000000 0 0 1
19.691842 -25.929739 -7.249437 33.356774 -0.921287 1.789875 0.063025 -0.022934 -918872.000000 0 0 1
18.217842 -25.862439 -7.524337 32.517245 -0.957115 1.804308 0.063238 -0.019200 -621276.000000 0 0 1
17.501042 -25.218539 -6.442437 31.365047 -0.964125 1.777671 0.059129 -0.019902 196145.000000 0 0 1
16.105442 -25.179939 -6.681337 30.627682 -1.001757 1.790712 0.051450 -0.016762 314614.000000 0 0 1
15.314342 -24.383039 -5.622937 29.337333 -1.009990 1.763655 0.036377 -0.007621 -34426.700000 0 0 1
15.244842 -24.958139 -4.308137 29.561360 -1.022461 1.717053 0.023904 -0.003354 157796.000000 0 0 1
14.606142 -24.057339 -3.379537 28.346362 -1.025144 1.690304 0.024713 -0.003133 208496.000000 0 0 1
14.392542 -24.692339 -1.974937 28.648862 -1.043064 1.639787 0.032674 -0.003176 187864.000000 0 0 1
13.576642 -25.862039 -2.018737 29.278757 -1.087377 1.639800 0.029565 -0.004194 -9095.440000 0 0 1
14.396842 -26.991839 -1.972537 30.654842 -1.080805 1.635187 0.041409 -0.008666 111859.000000 0 0 1
13.529142 -28.273239 -2.215737 31.421700 -1.124485 1.641371 0.033390 0.001198 126132.000000 0 0 1
12.872442 -28.780739 -1.107737 31.547707 -1.150224 1.605917 0.053471 -0.011286 92085.200000 0 0 1
12.151942 -30.020339 -1.246637 32.410563 -1.186167 1.609270 0.052211 -0.014690 392914.000000 0 0 1
13.031042 -31.280939 -0.967237 33.900454 -1.176078 1.599332 0.059485 -0.016991 -305140.000000 0 0 1
14.041742 -31.598239 -1.861037 34.627774 -1.152623 1.624566 0.063435 -0.020319 -887550.000000 0 0 1
14.662542 -32.750239 -1.446937 35.911864 -1.149850 1.611099 0.063291 -0.020927 -1060800.000000 0 0 1
16.116642 -32.781439 -1.909037 36.578865 -1.113860 1.623010 0.055477 -0.020467 -329387.000000 0 0 1
16.926242 -31.861139 -1.156537 36.096640 -1.082462 1.602842 0.045175 -0.006290 -862081.000000 0 0 1
18.258642 -31.975739 -1.492837 36.851791 -1.051962 1.611317 0.048554 -0.006277 -1129320.000000 0 0 1
19.046842 -30.819939 -0.861737 36.240771 -1.017244 1.594577 0.051537 0.000914 -333428.000000 0 0 1
18.812842 -29.525439 -1.470237 35.040494 -1.003491 1.612767 0.038274 -0.002522 130261.000000 0 0 1
19.089042 -28.531839 -0.521837 34.332633 -0.981150 1.585996 0.027043 0.005257 -109485.000000 0 0 1
18.343342 -27.190939 -0.701537 32.807279 -0.977313 1.592182 0.013991 0.002559 82720.800000 0 0 1
18.995142 -26.331939 -1.613037 32.508281 -0.945870 1.620436 0.027160 -0.007166 397303.000000 0 0 1
18.145542 -26.149939 -2.736637 31.946349 -0.964173 1.656565 0.037214 -0.003782 101012.000000 0 0 1
32.131782 -28.952439 14.249463 45.538361 -0.733397 1.252540 0.041534 -0.018615 -446971.000000 0 0 1
32.946802 -29.603139 15.193463 46.826050 -0.731993 1.240349 0.059122 -0.010158 -184401.000000 0 0 1
32.329912 -30.212639 16.340063 47.170165 -0.751558 1.217058 0.056871 -0.005196 -500415.000000 0 0 1
33.304892 -30.729339 17.387463 48.536914 -0.745198 1.204423 0.049573 -0.004172 -255683.000000 0 0 1
32.662932 -31.194539 18.570863 48.834858 -0.762407 1.180699 0.036616 -0.012234 780587.000000 0 0 1
33.642682 -31.482939 19.567863 50.059033 -0.752248 1.169192 0.029166 -0.017208 452332.000000 0 0 1
34.535612 -32.755639 19.470163 51.426916 -0.758953 1.182515 0.023513 -0.013631 -474460.000000 0 0 1
35.612462 -32.743139 18.600163 51.829786 -0.743446 1.203739 0.019035 -0.003607 -155993.000000 0 0 1
36.350042 -33.961739 18.711163 53.149157 -0.751444 1.211036 0.008945 -0.009575 -22970.500000 0 0 1
-35.386050 -33.999239 17.733563 52.178540 0.765414 1.224025 0.003102 0.001093 -479178.000000 0 0 1
-34.386428 -33.115239 18.124163 51.063987 0.766568 1.207957 0.020004 0.000792 37702.900000 0 0 1
-33.394157 -32.940639 17.111063 49.930391 0.778561 1.221009 0.025777 0.007771 378631.000000 0 0 1
-32.254897 -31.933339 17.490763 48.641991 0.780389 1.202977 0.023355 0.007026 497329.000000 0 0 1
-31.264027 -31.759439 16.472563 47.512595 0.793259 1.216747 0.021980 -0.000747 241149.000000 0 0 1
-31.575827 -30.787539 15.459263 46.732154 0.772759 1.233639 0.033322 -0.002976 -291426.000000 0 0 1
-30.482427 -30.817239 14.354263 45.660984 0.790860 1.251008 0.028574 -0.016450 75963.700000 0 0 1
-29.237287 -30.544439 14.941563 44.844532 0.807260 1.231116 0.019957 -0.019656 -673064.000000 0 0 1
-28.206087 -30.623939 13.973963 43.916747 0.826474 1.246974 0.030115 -0.016193 382436.000000 0 0 1
-26.854957 -30.194539 14.614663 42.970772 0.843870 1.223766 0.039921 -0.018193 141358.000000 0 0 1
-25.796207 -30.109739 13.707463 41.951582 0.862403 1.237939 0.047227 -0.017024 -171337.000000 0 0 1
-24.594237 -29.760339 14.418863 41.212351 0.880158 1.213367 0.043399 -0.015228 884340.000000 0 0 1
-23.385437 -29.541239 13.449363 40.005610 0.901186 1.227931 0.063696 -0.013470 415546.000000 0 0 1
-23.044737 -30.768839 12.808363 40.519570 0.927959 1.249177 0.069192 -0.010303 -13885.800000 0 0 1
-21.746637 -30.817739 12.263463 39.661591 0.956286 1.256442 0.075179 -0.019478 207936.000000 0 0 1
-21.149337 -32.228639 12.000163 40.373055 0.990055 1.269004 0.070623 -0.017307 14242.200000 0 0 1
-21.660737 -32.810839 10.820763 40.777783 0.987305 1.302220 0.062919 -0.018153 60416.200000 0 0 1
-21.703137 34.028965 10.921163 41.812300 -1.003057 1.306536 0.066612 -0.014931 -708048.000000 0 0 1
-22.672237 33.436865 9.959263 41.608187 -0.974947 1.329091 0.058270 -0.014431 -644196.000000 0 0 1
-22.372937 33.447365 8.593563 41.147587 -0.981249 1.360400 0.055384 -0.018974 -257073.000000 0 0 1
-23.544937 33.270165 7.828163 41.503591 -0.954928 1.381046 0.064623 -0.022104 -106406.000000 0 0 1
-23.199737 33.392765 6.299163 41.145887 -0.963600 1.417099 0.057497 -0.014920 -809436.000000 0 0 1
-22.439537 32.347165 5.638663 39.770170 -0.964305 1.428536 0.052160 -0.017039 500404.000000 0 0 1
-21.041937 32.357065 5.906763 39.046545 -0.994207 1.418938 0.035535 -0.018831 45356.400000 0 0 1
-20.276937 33.624465 5.480563 39.645875 -1.028144 1.432114 0.046914 -0.015375 -1549660.000000 0 0 1
-20.336737 -33.488239 6.249963 39.675018 1.025041 1.412608 0.065574 -0.023599 -12596.600000 0 0 1
-19.685937 -33.615539 7.507163 39.672384 1.041017 1.380419 0.067421 -0.026037 -384958.000000 0 0 1
-19.600237 -32.301839 8.319563 38.688412 1.025404 1.354063 0.076393 -0.027663 -228552.000000 0 0 1
-18.479137 -31.487539 8.026663 37.381425 1.040086 1.354388 0.061417 -0.034962 -281407.000000 0 0 1
-18.351237 -30.285239 8.788163 36.485551 1.026016 1.327537 0.064274 -0.035603 151354.000000 0 0 1
-17.720737 -30.419939 10.187063 36.649331 1.043316 1.289126 0.064150 -0.030254 -1082400.000000 0 0 1
-16.402837 -30.794239 10.104963 36.324214 1.081364 1.288889 0.062710 -0.035698 -1469060.000000 0 0 1
-15.852737 -30.826939 11.419163 36.496667 1.095814 1.252570 0.067738 -0.032321 -530815.000000 0 0 1
-14.525737 -31.546539 11.406263 36.555219 1.139283 1.253469 0.067758 -0.033491 -777001.000000 0 0 1
-13.530737 -30.957239 10.625463 35.416549 1.158740 1.266089 0.057269 -0.026390 -461381.000000 0 0 1
-12.490737 -31.838439 10.225463 35.696846 1.196931 1.280274 0.060859 -0.018305 334484.000000 0 0 1
-11.445737 -31.002139 9.444363 34.370533 1.217127 1.292435 0.067215 -0.012452 198172.000000 0 0 1
-10.531437 -30.253139 10.229263 33.627391 1.235806 1.261704 0.070924 -0.013855 -205286.000000 0 0 1
-9.759337 -29.302239 9.527963 32.321014 1.249294 1.271559 0.073407 -0.008366 196322.000000 0 0 1
-8.860937 -28.537839 10.516363 31.678358 1.269737 1.232402 0.073418 -0.008473 261556.000000 0 0 1
-9.552737 -27.674839 11.409763 31.421875 1.238424 1.199187 0.080115 -0.019161 -516968.000000 0 0 1
-8.707237 -27.397539 12.472863 31.337094 1.263080 1.161436 0.073018 -0.017862 -51894.700000 0 0 1
-8.948737 -26.091039 13.257763 30.603766 1.240388 1.122748 0.089538 -0.018619 7620.320000 0 0 1
-8.483137 -24.956139 12.519263 29.180549 1.243128 1.127380 0.072566 -0.020326 891335.000000 0 0 1
-9.445337 -24.410439 11.540263 28.605272 1.201600 1.155533 0.063667 -0.018055 753061.000000 0 0 1
-8.964637 -23.129239 10.953663 27.116584 1.201035 1.154969 0.055861 -0.016714 37524.900000 0 0 1
-7.943937 -23.305839 9.973463 26.565734 1.242291 1.185940 0.043433 -0.018151 -107226.000000 0 0 1
-7.467537 -22.047339 9.612363 25.184257 1.244219 1.179182 0.042161 -0.009192 341760.000000 0 0 1
-6.164637 -22.037839 8.741863 24.496720 1.298038 1.205894 0.029397 -0.013372 464787.000000 0 1 0
-5.015537 -22.427639 9.429663 24.840957 1.350784 1.181431 0.016369 -0.015972 -286388.000000 0 1 0
-3.907437 -22.629739 8.566063 24.510214 1.399814 1.213770 0.015007 -0.016599 355416.000000 0 1 0
-2.617437 -23.264339 9.087063 25.112849 1.458759 1.200546 0.023775 -0.017955 24403.400000 0 0 1
-1.859337 -22.459539 9.963163 24.640468 1.488199 1.154538 0.021666 -0.012729 -317432.000000 0 1 0
-0.979937 -23.264139 10.703963 25.627237 1.528699 1.139907 0.022366 -0.011455 144158.000000 0 0 1
-0.087637 -22.634039 11.803463 25.527028 1.566924 1.090107 0.020387 -0.011567 363017.000000 0 0 1
-0.820337 -22.088939 12.926863 25.606600 1.533675 1.041617 0.029448 -0.010104 -56285.400000 0 0 1
-0.050037 -21.915539 14.091363 26.054939 1.568513 0.999370 0.055940 -0.010920 -107917.000000 0 0 1
0.815363 -20.643639 14.211963 25.075975 -1.531320 0.968233 0.059839 -0.019799 -240786.000000 0 0 1
1.925063 -20.531639 13.382563 24.583471 -1.477309 0.995156 0.048934 -0.024430 -552408.000000 0 1 0
2.445363 -19.211439 13.203563 23.439140 -1.444190 0.972407 0.049923 -0.027326 61791.000000 0 1 0
3.934263 -19.274839 12.832263 23.487546 -1.369448 0.992804 0.068569 -0.024286 -234015.000000 0 1 0
4.154963 -19.654439 11.440263 23.117965 -1.362463 1.053117 0.062275 -0.025494 -327579.000000 0 1 0
5.366163 -20.357739 11.219463 23.856018 -1.313065 1.081167 0.074311 -0.014307 318748.000000 0 1 0
5.430763 -20.960039 9.817363 23.773873 -1.317271 1.145108 0.076016 -0.023546 -592541.000000 0 1 0
5.819863 -20.089539 8.790763 22.687836 -1.288819 1.172915 0.063426 -0.022588 -405474.000000 0 1 0
6.124063 -20.713939 7.562263 22.885787 -1.283336 1.234032 0.064211 -0.027426 217215.000000 0 1 0
7.420663 -21.638239 7.464163 24.062281 -1.240423 1.255391 0.069418 -0.010902 1382830.000000 0 1 0
8.660163 -20.984639 7.147963 23.800144 -1.179398 1.265755 0.079452 -0.014029 368508.000000 0 1 0
9.155763 -19.988139 7.966063 23.384009 -1.141260 1.223175 0.082364 -0.007532 -223670.000000 0 1 0
9.908763 -20.362839 9.300563 24.481202 -1.117918 1.181101 0.068162 -0.006631 307425.000000 0 1 0
8.992463 -20.296939 10.371363 24.502965 -1.153741 1.133745 0.078668 -0.015258 -349903.000000 0 1 0
9.616163 -20.051939 11.616263 25.089608 -1.123632 1.089430 0.074326 -0.008734 -27148.500000 0 0 1
8.781363 -20.279139 12.887363 25.582024 -1.162149 1.042843 0.085379 -0.012132 -173275.000000 0 0 1
8.936763 -21.615039 13.272063 26.892811 -1.178748 1.054667 0.076192 -0.010471 -198708.000000 0 0 1
8.146363 -22.012939 14.357763 27.515052 -1.216353 1.021819 0.097351 -0.006308 -102725.000000 0 0 1
8.455563 -23.434139 14.909963 29.033815 -1.224513 1.031494 0.087821 -0.016538 113087.000000 0 0 1
8.108163 -24.468439 14.028163 29.346826 -1.250812 1.072405 0.098073 -0.012607 -240571.000000 0 0 1
8.147863 -25.688039 14.715663 30.705272 -1.263649 1.070990 0.099167 -0.014770 278673.000000 0 0 1
8.005363 -26.763739 13.645363 31.089862 -1.280154 1.116421 0.105532 -0.023262 1046000.000000 0 0 1
9.261763 -26.915339 12.939063 31.267157 -1.239381 1.144147 0.105488 -0.019525 841123.000000 0 0 1
9.266163 -27.988639 12.066263 31.856246 -1.251085 1.182327 0.099358 -0.029752 -627632.000000 0 0 1
10.608463 -28.278039 11.414663 32.287482 -1.211896 1.209452 0.089661 -0.026357 540951.000000 0 0 1
11.554363 -28.903139 12.380263 33.498741 -1.190496 1.192246 0.070095 -0.022907 1227770.000000 0 0 1
12.808463 -29.189339 11.776163 33.981646 -1.157290 1.216911 0.096344 -0.020639 -242508.000000 0 0 1
13.746563 -29.985539 12.644763 35.326910 -1.140946 1.204740 0.052383 -0.020921 -2136610.000000 0 0 1
14.343563 -29.131239 13.586163 35.198732 -1.113265 1.174522 0.044157 -0.016650 4385.060000 0 0 1
15.295363 -29.858739 14.365463 36.494643 -1.097391 1.166217 0.029004 -0.013019 753422.000000 0 0 1
16.615663 -30.058939 13.538563 36.917648 -1.065829 1.195312 0.038323 -0.011384 -1162090.000000 0 0 1
17.214463 -28.808439 13.176263 36.053818 -1.032181 1.196668 0.033738 -0.022133 -405633.000000 0 0 1
18.508463 -29.014139 12.705263 36.685245 -1.002966 1.217138 0.022012 -0.022758 -1065030.000000 0 0 1
19.298763 -27.717439 12.660763 36.069289 -0.962580 1.212144 0.012214 -0.020975 -584841.000000 0 0 1
20.605663 -28.057639 12.238163 36.899825 -0.937351 1.232735 0.008222 -0.021186 44851.500000 0 0 1
21.361063 -26.857039 12.036163 36.365709 -0.898890 1.233459 0.000394 -0.011833 627423.000000 0 0 1
22.869663 -27.063339 11.676763 37.306737 -0.869188 1.252453 0.012252 -0.015287 239740.000000 0 0 1
23.647463 -27.399339 12.773863 38.380957 -0.858765 1.231506 0.025105 -0.011086 -425200.000000 0 0 1
24.582463 -28.329739 12.290063 39.470460 -0.856101 1.254158 0.016594 -0.018390 -585247.000000 0 0 1
25.604463 -28.885239 13.335563 40.838497 -0.845535 1.238152 0.033329 -0.011820 699177.000000 0 0 1
26.694663 -28.058639 13.737663 41.092769 -0.810304 1.229925 0.024563 -0.006635 1389530.000000 0 0 1
27.776063 -27.897539 12.758963 41.383251 -0.787580 1.257378 0.014970 -0.007766 869591.000000 0 0 1
28.996563 -27.114639 13.341263 41.880707 -0.751872 1.246593 0.038956 -0.010884 -4.632720 0 0 1
28.805763 -25.758739 13.532363 40.943980 -0.729614 1.233953 0.041269 -0.008232 -77788.400000 0 0 1
28.069463 -25.429139 14.711463 40.632044 -0.736085 1.200314 0.043256 -0.004359 -324953.000000 0 0 1
28.845163 -25.313239 16.078863 41.609294 -0.720276 1.174044 0.030069 0.004620 -344895.000000 0 0 1
29.455863 -26.492839 16.485463 42.910242 -0.732488 1.176472 0.041060 0.003244 129867.000000 0 0 1
30.194963 -26.341239 17.691263 43.801569 -0.717340 1.155025 0.054291 0.006161 -64816.600000 0 0 1
30.631563 -27.572039 18.400463 45.134100 -0.732881 1.150880 0.038950 0.007581 -1052090.000000 0 0 1
29.623663 -28.351339 18.891163 45.146826 -0.763456 1.139071 0.035678 0.001264 -862170.000000 0 0 1
30.090763 -29.411239 19.708663 46.464033 -0.773978 1.132751 0.052908 -0.014009 -625077.000000 0 0 1
29.045863 -30.329639 20.284963 46.637205 -0.807016 1.120811 0.069010 -0.014064 -1174830.000000 0 0 1
28.257763 -29.839039 21.344163 46.308128 -0.812609 1.091769 0.059338 -0.005227 679078.000000 0 0 1
27.290863 -30.744739 21.899563 46.579191 -0.844841 1.081327 0.044019 -0.007498 814756.000000 0 0 1
26.012163 -31.017439 21.051563 45.627650 -0.872940 1.091249 0.089485 -0.009796 -538399.000000 0 0 1
26.215663 -31.943839 20.045363 45.929146 -0.883572 1.119157 0.097760 -0.017020 126706.000000 0 0 1
25.195163 -31.948039 19.066763 44.933450 -0.903027 1.132571 0.098430 -0.010507 -108687.000000 0 0 1
25.416663 -30.930639 17.913263 43.858821 -0.882945 1.150063 0.082826 -0.004820 874593.000000 0 0 1
26.670463 -31.181039 17.237463 44.505066 -0.863209 1.173079 0.076776 -0.012661 940794.000000 0 0 1
27.166163 -30.059839 16.536663 43.761348 -0.835921 1.183288 0.060530 -0.012345 298393.000000 0 0 1
28.442663 -30.412439 15.702763 44.502565 -0.818854 1.210180 0.063009 -0.017040 163986.000000 0 0 1
28.193163 -31.291339 14.603163 44.578635 -0.837435 1.237053 0.084563 -0.016609 233747.000000 0 0 1
28.390963 -32.596839 15.021263 45.762856 -0.854252 1.236355 0.059523 -0.027297 -103657.000000 0 0 1
27.681863 -33.759139 14.230163 45.917998 -0.883990 1.255704 0.084162 -0.024081 -12399.400000 0 0 1
28.270963 -34.042039 12.991263 46.118117 -0.877749 1.285236 0.093231 -0.020139 74297.100000 0 0 1
27.736863 33.121465 12.307663 44.920414 0.873646 1.293259 0.099334 -0.026165 -321980.000000 0 0 1
28.301763 32.756665 10.915463 44.644554 0.858230 1.323795 0.103050 -0.032077 116846.000000 0 0 1
29.624263 32.230065 10.980863 45.132620 0.827501 1.325027 0.063023 -0.025797 552171.000000 0 0 1
29.949663 31.569965 9.777863 44.601027 0.811730 1.349772 0.061077 -0.027245 -1541950.000000 0 0 1
31.374663 31.156065 9.869263 45.304219 0.781902 1.351191 0.021568 -0.016053 -1572470.000000 0 0 1
31.612863 30.144565 10.846963 45.008050 0.761627 1.327400 0.007114 -0.005189 -329539.000000 0 0 1
32.957663 29.783965 10.902163 45.740019 0.734858 1.330129 0.015592 -0.004635 -588398.000000 0 0 1
33.225163 28.772765 11.996063 45.559730 0.713706 1.304351 0.008576 -0.001372 -231432.000000 0 0 1
32.636163 27.518565 11.747763 44.276410 0.700529 1.302252 0.016914 -0.004098 324866.000000 0 0 1
32.616063 26.815765 12.934063 44.160874 0.688110 1.273553 0.031917 -0.019114 -270705.000000 0 0 1
32.613063 25.286165 12.802663 43.207756 0.659522 1.269975 0.018855 -0.018091 -293896.000000 0 0 1
33.754763 24.728365 12.191663 43.583400 0.632265 1.287282 0.027810 -0.011457 -302253.000000 0 0 1
33.719963 23.323865 11.916863 42.697192 0.605129 1.287938 0.039610 -0.023509 -701617.000000 0 0 1
32.565863 22.717965 11.122363 41.235280 0.609114 1.297684 0.038196 -0.022317 795852.000000 0 0 1
31.408163 22.315065 11.915263 40.328753 0.617729 1.270866 0.048219 -0.039614 838651.000000 0 0 1
30.226263 22.827165 11.334763 39.537113 0.646827 1.280030 0.041653 -0.030846 -750564.000000 0 0 1
28.939263 22.434965 12.018363 38.538937 0.659462 1.253657 0.028847 -0.023455 -582340.000000 0 0 1
28.722163 22.998565 13.293463 39.123047 0.675183 1.224107 0.029393 -0.019377 820903.000000 0 0 1
27.534363 22.402265 13.892363 38.118242 0.682986 1.197749 0.053207 -0.037434 620824.000000 0 0 1
24.057263 9.297065 25.781326 36.467301 0.368776 0.785590 0.016614 0.008565 -204533.000000 0 0 1
23.803463 7.968465 26.143536 36.243423 0.323035 0.765073 0.017136 0.009371 840232.000000 0 0 1
22.397963 7.726465 26.302526 35.400422 0.332180 0.733254 0.014132 0.010292 282117.000000 0 0 1
22.128863 6.444465 27.079496 35.560045 0.283386 0.705149 0.021532 0.011883 -229942.000000 0 0 1
22.451463 6.458465 28.506496 36.856482 0.280101 0.686537 0.035118 0.005812 1187360.000000 0 0 1
23.823863 6.700165 28.880576 38.033621 0.274156 0.708493 0.030090 -0.001468 581165.000000 0 0 1
24.269663 6.686665 30.352516 39.433529 0.268845 0.692404 0.032295 -0.000635 -543630.000000 0 0 1
23.728763 7.688265 31.121846 39.883993 0.313333 0.675636 0.036827 0.000361 127491.000000 0 0 1
23.940863 7.504865 32.534291 41.084888 0.303773 0.656915 0.035290 -0.002321 -267894.000000 0 0 1
23.954763 8.776465 33.393213 42.023370 0.351189 0.652391 0.054337 -0.011443 -208451.000000 0 0 1
24.983463 9.677865 33.075659 42.565640 0.369572 0.680830 0.054926 -0.005569 -103874.000000 0 0 1
25.531563 10.272365 -34.038907 43.772473 0.382522 2.461688 0.077291 -0.003029 268758.000000 0 0 1
26.619963 11.314865 33.880777 44.548352 0.401915 0.706653 0.054581 -0.000461 -117550.000000 0 0 1
26.161663 12.530465 33.325922 44.182149 0.446677 0.716232 0.036493 -0.000441 162571.000000 0 0 1
26.072663 13.530465 -33.949127 44.893212 0.478694 2.428312 0.057551 -0.012830 -47111.700000 0 0 1
25.518963 14.904165 33.883146 44.960195 0.528604 0.717236 0.055728 -0.011981 -306631.000000 0 0 1
26.516663 15.533065 33.094712 45.162700 0.529902 0.748385 0.054017 -0.006396 347822.000000 0 0 1
26.569463 16.974765 32.986602 45.631074 0.568520 0.762809 0.071713 -0.020525 -438494.000000 0 0 1
27.143663 17.655765 -34.075252 47.006673 0.576696 2.381689 0.074660 -0.026181 -545766.000000 0 0 1
26.430363 17.489265 -32.868327 45.659232 0.584564 2.374399 0.074194 -0.031903 435822.000000 0 0 1
27.262163 17.020865 -31.786017 45.202724 0.558125 2.350668 0.079074 -0.022895 -69307.200000 0 0 1
26.445163 16.410565 -30.631957 43.668869 0.555393 2.348240 0.078946 -0.028067 -387644.000000 0 0 1
25.618663 15.416865 -31.178197 43.198097 0.541729 2.377123 0.082319 -0.020259 -12741.600000 0 0 1
24.851563 14.869165 -30.133097 41.793490 0.539183 2.376040 0.095622 -0.029616 205537.000000 0 0 1
24.041963 13.551665 -30.458017 41.101757 0.513276 2.405413 0.079469 -0.028791 -1114860.000000 0 0 1
22.931063 13.734465 -31.261347 41.130779 0.539644 2.434183 0.076538 -0.031526 -269029.000000 0 0 1
22.270463 12.543865 -31.657747 40.688267 0.512960 2.462361 0.063819 -0.022169 57123.500000 0 0 1
21.396263 11.950065 -30.529237 39.148927 0.509355 2.465180 0.069674 -0.018463 -946931.000000 0 0 1
20.156963 12.567965 -30.271447 38.478792 0.557523 2.476249 0.074012 -0.019878 130894.000000 0 0 1
19.429963 11.770365 -29.355187 37.118620 0.544662 2.482990 0.074595 -0.012859 -579291.000000 0 0 1
18.026663 12.295265 -29.124007 36.391509 0.598584 2.498586 0.045962 -0.011764 -691020.000000 0 0 1
17.072163 12.171265 -30.156127 36.728605 0.619352 2.534049 0.022789 -0.005576 59513.500000 0 0 1
15.902663 12.823765 -29.730637 36.072904 0.678626 2.539553 0.015523 -0.007229 -968743.000000 0 0 1
14.769263 13.026565 -30.741727 36.508579 0.722784 2.571853 0.017436 -0.010876 -488047.000000 0 0 1
14.217263 11.813065 -31.066337 36.149639 0.693298 2.604856 0.016294 -0.001474 -751523.000000 0 0 1
12.953663 11.676665 -30.483307 35.119424 0.733598 2.621936 0.004917 0.004974 -878326.000000 0 0 1
11.854263 11.224065 -31.439697 35.425383 0.758098 2.662667 0.015176 0.003782 -251144.000000 0 0 1
11.704563 12.196965 -32.457437 36.595737 0.805997 2.661427 0.020609 0.004976 -158793.000000 0 0 1
10.691663 11.745465 -33.316937 36.909158 0.832331 2.696740 0.038915 0.009015 -290651.000000 0 0 1
10.375363 12.575465 33.709879 37.445245 0.880968 0.450465 0.053745 0.002355 -525065.000000 0 0 1
11.434563 12.684265 32.839078 37.014117 0.837166 0.479547 0.041815 0.004097 -405273.000000 0 0 1
10.967263 13.311465 31.682176 36.072652 0.881654 0.498527 0.067269 -0.012964 400234.000000 0 0 1
11.868163 12.997065 30.413586 35.139197 0.830768 0.524614 0.060049 -0.013938 236851.000000 0 0 1
12.058963 11.697665 30.024036 34.404893 0.770191 0.510158 0.054552 -0.010590 -49491.500000 0 0 1
12.320463 11.641565 28.619766 33.262754 0.757074 0.534713 0.062256 -0.007181 -451405.000000 0 0 1
12.832863 10.301265 28.161966 32.617399 0.676401 0.528820 0.064044 -0.005426 -267729.000000 0 0 1
11.828663 9.321465 28.300236 32.057921 0.667406 0.489040 0.071681 -0.014380 578254.000000 0 0 1
12.387763 7.984665 28.076066 31.709257 0.572542 0.483396 0.058559 -0.016289 433244.000000 0 0 1
11.350563 6.878165 28.478026 31.418822 0.544802 0.436114 0.055090 -0.016422 1127270.000000 0 0 1
10.246563 6.776565 27.545426 30.160643 0.584313 0.419506 0.051459 -0.016816 931777.000000 0 0 1
9.348163 5.653865 27.784496 29.855193 0.543949 0.374633 0.047296 -0.020140 685163.000000 0 0 1
9.936363 4.305865 27.343706 29.410033 0.408917 0.377088 0.044013 -0.012210 269644.000000 0 0 1
10.726263 3.565665 28.312116 30.485121 0.320932 0.379853 0.047129 -0.014100 604971.000000 0 0 1
11.181463 2.323265 27.761216 30.018457 0.204863 0.390274 0.024922 -0.009299 -120522.000000 0 0 1
11.702263 1.255265 28.742196 31.058533 0.106858 0.388653 0.021061 -0.009549 -31180.300000 0 0 1
10.667163 0.831365 29.597056 31.471658 0.077780 0.346888 0.022822 -0.012792 -14626.800000 0 0 1
11.047463 -0.264535 30.410436 32.356004 -0.023941 0.348547 0.018407 -0.015235 -101429.000000 0 0 1
10.029963 -0.488935 31.519316 33.080303 -0.048709 0.308427 0.031206 -0.015923 -171844.000000 0 0 1
10.055263 0.647665 32.415519 33.945451 0.064322 0.301374 0.025980 -0.011667 -517445.000000 0 0 1
8.962263 0.779365 33.254722 34.450052 0.086743 0.264197 0.037275 -0.021424 -669338.000000 0 0 1
8.928363 2.236765 33.903433 35.130635 0.245471 0.265096 0.038556 -0.015574 -396541.000000 0 0 1
8.774363 3.320365 33.012391 34.319560 0.361763 0.276884 0.036052 -0.012784 468641.000000 0 0 1
9.966663 3.585965 32.262910 33.957162 0.345375 0.317220 0.037116 -0.006651 425989.000000 0 0 1
9.967763 4.965165 31.568626 33.475174 0.462144 0.339126 0.037368 -0.002093 38109.100000 0 0 1
10.136363 6.011165 32.519389 34.588880 0.535279 0.347671 0.039506 -0.000916 74527.800000 0 0 1
10.200363 7.308965 31.905886 34.284893 0.621740 0.374719 0.040224 -0.006036 -108923.000000 0 0 1
10.394463 8.569065 32.826355 35.483000 0.689435 0.389421 0.055689 -0.011190 -317653.000000 0 0 1
9.316663 9.019565 33.592974 36.008897 0.769197 0.368392 0.051661 -0.007032 -546884.000000 0 0 1
8.991363 8.237965 -33.568127 35.714533 0.741698 2.793137 0.044132 -0.000612 992460.000000 0 0 1
7.509463 8.620765 -33.167727 35.082870 0.854185 2.809649 0.038358 -0.004235 876647.000000 0 0 1
6.890463 7.807665 -32.199237 33.841232 0.847720 2.828805 0.041171 -0.003594 -381410.000000 0 0 1
5.545063 8.217965 -32.138397 33.632711 0.977219 2.842383 0.039987 -0.007173 -2468.010000 0 0 1
4.709763 7.616065 -31.006797 32.273949 1.016958 2.860445 0.054041 -0.008856 -228877.000000 0 0 1
5.223663 8.056365 -29.726737 31.238927 0.995554 2.829173 0.047396 -0.007809 397672.000000 0 0 1
4.771163 7.268165 -28.588247 29.881066 0.989903 2.846360 0.039789 -0.008565 1215410.000000 0 0 1
3.218363 7.230665 -28.277347 29.364072 1.152025 2.868685 0.046781 -0.002452 1113140.000000 0 0 1
2.487163 6.394565 -29.157377 29.953783 1.199852 2.910480 0.040546 0.000175 333356.000000 0 0 1
1.083663 6.433865 -28.962997 29.688788 1.403931 2.920021 0.033914 0.008809 439753.000000 0 0 1
0.183863 6.052265 -30.154397 30.756323 1.540426 2.943426 0.041832 0.003959 9027.480000 0 0 1
0.350963 6.974965 -31.263197 32.033745 1.520521 2.921814 0.057966 -0.004605 225626.000000 0 0 1
-0.182937 6.485065 -32.497727 33.138977 -1.542595 2.944549 0.075523 -0.017650 -688446.000000 0 0 1
0.276063 7.341665 -33.761207 34.551344 1.533212 2.927321 0.094966 -0.023861 81280.500000 0 0 1
1.663463 7.361565 -34.021087 34.848158 1.348563 2.923290 0.087571 -0.022501 -75900.000000 0 0 1
2.295463 6.128565 33.986033 34.610387 1.212419 0.190231 0.081813 -0.019039 -1009880.000000 0 0 1
2.041363 5.520165 32.606120 33.133041 1.216591 0.178581 0.072702 -0.024446 -1134610.000000 0 0 1
0.734863 5.172365 32.285780 32.705733 1.429666 0.160424 0.089279 -0.029638 -883741.000000 0 0 1
0.488563 5.309265 30.884496 31.341331 1.479034 0.170949 0.109762 -0.034701 141289.000000 0 0 1
1.150363 4.314265 29.862636 30.194589 1.310217 0.148418 0.108098 -0.044921 82212.100000 0 0 1
1.070963 4.680665 28.491656 28.893425 1.345863 0.166959 0.098778 -0.041628 -24665.300000 0 0 1
1.706063 3.740665 27.658606 27.962505 1.142893 0.147566 0.078420 -0.037091 -51108.500000 0 0 1
1.660163 4.180065 26.207676 26.590813 1.192739 0.169961 0.079224 -0.032852 324833.000000 0 0 1
2.550263 5.246865 25.849576 26.499698 1.118367 0.221965 0.068666 -0.025464 131154.000000 0 0 1
2.404263 5.666565 24.475476 25.237657 1.169528 0.246388 0.070998 -0.027198 -695334.000000 0 0 1
2.938263 7.107565 24.144956 25.340279 1.178792 0.308371 0.066394 -0.029008 109776.000000 0 0 1
4.320463 7.323365 24.154546 25.607424 1.037795 0.338471 0.049870 -0.024059 -540721.000000 0 0 1
5.047363 6.729865 23.108866 24.592410 0.927299 0.349118 0.046481 -0.028167 -1193740.000000 0 1 0
6.558063 6.654265 23.324316 25.125906 0.792679 0.380989 0.052819 -0.025237 -480831.000000 0 0 1
7.012063 5.863765 24.410506 26.065793 0.696451 0.358296 0.053485 -0.020501 70365.300000 0 0 1
6.606563 4.466565 24.533086 25.796689 0.594491 0.314288 0.048180 -0.018847 -787131.000000 0 0 1
6.802563 3.564865 23.229066 24.465744 0.482700 0.319309 0.044751 -0.019870 271363.000000 0 1 0
5.884063 3.712265 22.144666 23.211836 0.562832 0.304407 0.040256 -0.011670 1166230.000000 0 1 0
4.563663 3.183565 22.452566 23.131792 0.609107 0.242933 0.042204 -0.013262 1010750.000000 0 1 0
3.474163 3.413965 21.371066 21.919111 0.776659 0.224089 0.028581 -0.010862 100916.000000 0 1 0
3.207263 4.780465 21.280166 22.045064 0.979862 0.264195 0.034780 -0.018209 -69757.900000 0 1 0
2.022463 5.068065 20.569266 21.280750 1.191100 0.259311 0.028395 -0.011381 -209979.000000 0 1 0
1.694863 6.626665 20.563166 21.670926 1.320400 0.321120 0.033720 -0.015002 331328.000000 0 1 0
2.627863 7.512265 19.929166 21.459530 1.234291 0.379942 0.036131 -0.012373 -189613.000000 0 1 0
2.336163 8.791265 20.329166 22.271483 1.311062 0.420735 0.041084 -0.006623 629102.000000 0 1 0
3.251063 9.957065 19.761266 22.365603 1.255201 0.487394 0.067510 -0.014149 -557051.000000 0 1 0
3.055363 10.221265 18.394466 21.264192 1.280329 0.525558 0.026188 -0.006381 -69859.300000 0 1 0
3.887863 11.181365 17.753366 21.338238 1.236164 0.588097 0.032422 -0.010620 651949.000000 0 1 0
5.427163 11.025365 17.981466 21.779483 1.113373 0.599505 0.038819 -0.010554 -120833.000000 0 1 0
5.864063 9.814265 17.387466 20.809397 1.032214 0.581648 0.031209 -0.003410 -1079820.000000 0 1 0
7.174363 9.547765 17.729666 21.376912 0.926388 0.592792 0.040907 0.002625 -860123.000000 0 1 0
7.471363 8.020065 18.087566 21.149533 0.820803 0.544815 0.051683 -0.004658 -193312.000000 0 1 0
6.905363 7.535965 19.277866 21.819966 0.829037 0.487521 0.047808 -0.013608 -297417.000000 0 1 0
6.989463 6.134965 19.523966 21.625809 0.720383 0.444540 0.052462 -0.027888 1181030.000000 0 1 0
8.439063 5.573665 19.875866 22.300977 0.583694 0.470690 0.053113 -0.023113 703134.000000 0 1 0
9.291663 5.606865 18.769066 21.680631 0.542938 0.524236 0.050489 -0.023893 545773.000000 0 1 0
10.582863 4.963765 18.929866 22.248051 0.438573 0.553186 0.065494 -0.026632 1036280.000000 0 1 0
10.568663 3.381865 19.069866 22.063396 0.309694 0.526997 0.069568 -0.025683 -762728.000000 0 1 0
10.038063 2.836065 20.247966 22.776876 0.275354 0.475705 0.067761 -0.023771 45302.000000 0 1 0
10.023963 1.438365 20.222166 22.616028 0.142520 0.464263 0.063484 -0.029658 116491.000000 0 1 0
9.163163 0.721265 21.294466 23.193491 0.078552 0.407480 0.065555 -0.031496 281614.000000 0 1 0
9.735163 0.995065 22.568866 24.599131 0.101860 0.409133 0.044849 -0.024223 281518.000000 0 1 0
9.048063 0.257565 23.555656 25.234950 0.028459 0.366873 0.053780 -0.031816 -556440.000000 0 0 1
9.532763 0.469365 25.012256 26.771380 0.049197 0.364532 0.042938 -0.028843 -172404.000000 0 0 1
10.777863 -0.163135 25.309316 27.509097 -0.015135 0.402628 0.034790 -0.024424 216139.000000 0 0 1
10.777663 -1.557735 25.260716 27.507968 -0.143540 0.407018 0.032920 -0.026188 -161587.000000 0 0 1
12.236463 -2.078535 25.381526 28.253728 -0.168258 0.454815 0.023253 -0.018617 156733.000000 0 0 1
12.294363 -3.473235 25.386896 28.420225 -0.275331 0.466232 0.032532 -0.011357 -358305.000000 0 0 1
13.558963 -4.071535 25.385006 29.065811 -0.291717 0.508732 0.041239 -0.009495 -661984.000000 0 0 1
13.527263 -5.615235 25.514516 29.419521 -0.393460 0.521115 0.049565 -0.009770 -75299.300000 0 0 1
12.966163 -6.241735 24.333956 28.270515 -0.448646 0.534047 0.054696 -0.004029 419229.000000 0 0 1
12.774563 -7.618735 24.485046 28.648770 -0.537767 0.545895 0.074912 -0.011933 -21422.600000 0 0 1
12.536463 -8.355835 23.137666 27.610405 -0.587903 0.577179 0.077318 -0.013478 96672.400000 0 0 1
12.346363 -9.737935 23.318976 28.125339 -0.667831 0.593284 0.086498 -0.009631 -253164.000000 0 0 1
12.361963 -10.419835 22.048166 27.340678 -0.700355 0.632718 0.087417 -0.019706 235163.000000 0 0 1
11.774863 -11.872035 22.165566 27.765174 -0.789507 0.646292 0.090885 -0.020595 479180.000000 0 0 1
10.364263 -11.876535 22.324066 27.328262 -0.853289 0.614805 0.091504 -0.014630 -21169.600000 0 0 1
9.951763 -13.206435 22.616966 28.017399 -0.925024 0.631323 0.085742 -0.014158 408362.000000 0 0 1
8.461563 -13.286835 23.070066 27.935031 -1.003729 0.599093 0.068114 -0.005604 1133980.000000 0 0 1
7.572963 -12.655135 22.123566 26.588613 -1.031547 0.587969 0.065651 -0.004927 -424996.000000 0 0 1
6.229463 -12.533035 22.422966 26.432415 -1.109517 0.558005 0.041035 -0.003812 -353452.000000 0 0 1
5.499663 -11.447235 21.610766 25.066126 -1.122922 0.531298 0.037080 0.009968 23322.800000 0 0 1
5.764663 -10.138335 22.063766 24.956500 -1.053785 0.486256 0.041423 0.010910 41940.300000 0 1 0
4.964563 -9.217535 21.325266 23.756615 -1.076748 0.456375 0.036301 0.009214 324739.000000 0 1 0
5.210863 -7.802835 21.849166 23.778632 -0.981998 0.405622 0.037676 -0.007130 -44577.900000 0 1 0
4.700263 -6.795235 21.080766 22.642137 -0.965663 0.373540 0.036278 -0.014307 -182445.000000 0 1 0
5.257163 -5.592735 21.590366 22.914195 -0.816317 0.341580 0.057615 -0.016467 215884.000000 0 1 0
-8.479737 -14.928635 -20.450837 26.702187 1.054225 2.443215 0.061275 -0.000311 -39418.300000 0 0 1
-7.672737 -14.400635 -19.420937 25.365764 1.081250 2.442825 0.054417 -0.004299 -489514.000000 0 0 1
-6.674237 -13.508535 -19.756837 24.846701 1.111899 2.490050 0.047397 -0.009931 -153299.000000 0 1 0
-5.783237 -13.233735 -18.521037 23.486302 1.158800 2.479307 0.034005 -0.007860 -303016.000000 0 1 0
-5.009837 -14.282335 -18.076637 23.576437 1.233434 2.444520 0.038398 -0.003091 -508005.000000 0 1 0
-4.227637 -13.798735 -17.002037 22.301284 1.273498 2.437778 0.038038 -0.000546 -70912.300000 0 1 0
-3.340337 -14.886435 -16.390937 22.392557 1.350064 2.392022 0.043050 0.009245 2712.130000 0 1 0
-2.176237 -15.073435 -17.153837 22.939018 1.427411 2.415541 0.031294 0.003224 -1098820.000000 0 1 0
-1.168037 -15.769735 -16.553037 22.892179 1.496863 2.379057 0.041279 0.008293 -387332.000000 0 1 0
0.095763 -16.049335 -17.390337 23.664618 -1.564830 2.396266 0.035774 0.011586 216111.000000 0 1 0
-0.127737 -16.988835 -18.398437 25.042750 1.563278 2.395993 0.051599 -0.000826 -236941.000000 0 0 1
-0.368237 -18.316835 -18.053737 25.721187 1.550695 2.348860 0.057666 -0.002357 -229969.000000 0 0 1
-0.734237 -19.074235 -19.305837 27.149234 1.532322 2.361859 0.064590 -0.004780 3796.110000 0 0 1
-1.989137 -18.727235 -19.852637 27.364086 1.464977 2.382557 0.071732 -0.011765 -333867.000000 0 0 1
-2.260137 -19.248235 -21.140437 28.679624 1.453911 2.399601 0.074148 -0.018525 461055.000000 0 0 1
-3.497637 -18.468935 -21.744337 28.742846 1.383633 2.428761 0.056924 -0.013042 624441.000000 0 0 1
-3.356337 -17.052335 -21.964837 28.008948 1.376455 2.472215 0.052593 -0.013228 -384394.000000 0 0 1
-3.584037 -16.311435 -20.781637 26.660545 1.354508 2.464648 0.036874 -0.006114 37838.000000 0 0 1
-2.616237 -15.115335 -20.546137 25.641018 1.399409 2.500261 0.049823 -0.000850 56985.900000 0 0 1
-2.682137 -14.162135 -21.593437 25.962212 1.383625 2.553005 0.045229 -0.000054 3634.120000 0 0 1
-1.841337 -13.085935 -21.228637 25.005744 1.431003 2.584792 0.032195 0.007740 -3395.520000 0 0 1
-1.617437 -12.015135 -22.378737 25.451669 1.436984 2.645111 0.030271 0.004843 209999.000000 0 0 1
-2.540337 -10.934935 -22.423137 25.076347 1.342531 2.677425 0.027807 -0.007981 139948.000000 0 0 1
-2.611437 -10.378335 -23.743837 26.044179 1.324290 2.718139 0.030155 -0.005061 -470517.000000 0 0 1
-3.406537 -9.120435 -23.825237 25.737691 1.213336 2.753664 0.021494 -0.007973 212442.000000 0 0 1
-4.820737 -9.352735 -23.734537 25.962307 1.094876 2.724306 0.044794 -0.015592 787614.000000 0 0 1
-5.511937 -8.109535 -23.888737 25.822815 0.973834 2.752100 0.029767 -0.021273 -1251760.000000 0 0 1
-6.980837 -8.309035 -23.557837 25.937306 0.872048 2.709905 0.034652 -0.030294 -345278.000000 0 0 1
-7.824937 -8.727435 -24.665937 27.309453 0.839868 2.697967 0.050637 -0.026723 599629.000000 0 0 1
-8.225537 -7.637635 -25.480257 27.843068 0.748354 2.726647 0.042955 -0.032003 -368708.000000 0 0 1
-9.288137 -8.168535 -26.477167 29.223874 0.721350 2.704560 0.036819 -0.032457 426615.000000 0 0 1
-10.029337 -7.181135 -27.220467 29.884948 0.621392 2.716116 0.051812 -0.042139 264657.000000 0 0 1
-10.641437 -7.727335 -28.376827 31.276128 0.628065 2.707614 0.055187 -0.036087 181816.000000 0 0 1
-11.687337 -6.798035 -29.064537 32.055490 0.526824 2.706176 0.056121 -0.041095 256445.000000 0 0 1
-11.041737 -5.775935 -29.778177 32.280353 0.481957 2.745268 0.030113 -0.026345 -38783.800000 0 0 1
-11.879037 -5.304135 -30.802767 33.437342 0.419950 2.741972 0.036604 -0.022518 -143827.000000 0 0 1
-11.278537 -4.237335 -31.753427 33.962340 0.359383 2.778942 0.027055 -0.014383 -108219.000000 0 0 1
-10.143837 -4.620235 -32.488427 34.347371 0.427395 2.811086 0.040358 -0.017011 2596.190000 0 0 1
-9.730637 -3.561135 -33.337707 34.910882 0.350832 2.840245 0.031416 -0.014807 -89920.900000 0 0 1
-8.648537 -4.024435 33.967257 35.281267 0.435530 0.273779 0.019526 -0.009343 342162.000000 0 0 1
-7.324037 -4.039735 -33.818597 34.837602 0.504049 2.899131 0.025587 -0.017417 215728.000000 0 0 1
-6.386037 -4.258735 33.466051 34.335038 0.588152 0.225462 0.023368 -0.016846 -233417.000000 0 0 1
-4.917537 -4.025435 33.825294 34.417100 0.685972 0.185713 0.045559 -0.026216 -294372.000000 0 0 1
-4.590037 -2.730835 33.973920 34.391178 0.536697 0.155932 0.069249 -0.031448 -193880.000000 0 0 1
-3.192937 -2.542335 34.083065 34.326573 0.672442 0.119183 0.067383 -0.038160 163287.000000 0 0 1
-2.826737 -1.153935 -33.679537 33.817647 0.387574 3.051185 0.088877 -0.038793 -183516.000000 0 0 1
-3.229837 -0.973535 -32.337217 32.512693 0.292758 3.037650 0.076195 -0.038913 8341.390000 0 0 1
-3.708437 0.306465 -32.122797 32.337602 -0.082453 3.026267 0.091054 -0.039055 -575688.000000 0 0 1
-4.144237 0.560365 -30.642637 30.926686 -0.134400 3.005956 0.106374 -0.035369 501590.000000 0 0 1
-5.219337 -0.258635 -30.191327 30.640245 0.049513 2.970203 0.081750 -0.034614 117554.000000 0 0 1
-6.486337 0.342765 -30.373337 31.060098 -0.052795 2.930914 0.080387 -0.032359 -283880.000000 0 0 1
-7.619237 -0.700035 -30.363297 31.312500 0.091620 2.894739 0.062947 -0.031514 -353309.000000 0 0 1
-7.974637 -1.134335 -29.102287 30.196435 0.141295 2.871573 0.055148 -0.032968 75380.200000 0 0 1
-8.977137 -2.138635 -29.119567 30.546881 0.233872 2.834693 0.029586 -0.025131 195357.000000 0 0 1
-9.334637 -2.705435 -27.743827 29.396850 0.282098 2.804647 0.032484 -0.032659 -286060.000000 0 0 1
-10.172937 -1.931635 -26.916047 28.839096 0.187646 2.774342 0.034393 -0.030207 -20652.000000 0 0 1
-10.372637 -2.674335 -25.695567 27.838927 0.252331 2.746624 0.032359 -0.033537 519155.000000 0 0 1
-11.397237 -1.988135 -24.722737 27.295850 0.172702 2.703901 0.042776 -0.035025 550984.000000 0 0 1
-10.792537 -0.833835 -24.131937 26.448526 0.077107 2.719934 0.041610 -0.029645 242561.000000 0 0 1
-11.683837 -0.032035 -23.401337 26.155987 0.002742 2.678519 0.042677 -0.029030 -39964.200000 0 0 1
-10.917737 1.208165 -22.900137 25.398286 -0.110212 2.694345 0.050449 -0.031437 192299.000000 0 0 1
-10.416037 2.051265 -23.898137 26.150000 -0.194445 2.723553 0.036179 -0.028935 -463841.000000 0 0 1
-9.659537 3.029965 -23.301437 25.405596 -0.303956 2.731734 0.035542 -0.027315 -812389.000000 0 0 1
-9.486137 4.297365 -24.089537 26.244237 -0.425359 2.733547 0.049946 -0.031754 413051.000000 0 0 1
-10.687437 5.066765 -24.343837 27.065030 -0.442702 2.689322 0.061721 -0.025386 660424.000000 0 0 1
-11.265637 4.670365 -25.571667 28.330850 -0.393001 2.696588 0.054920 -0.030156 -669999.000000 0 0 1
-12.731137 5.016665 -25.800707 29.204884 -0.375364 2.653946 0.053363 -0.016510 -428922.000000 0 0 1
-12.925937 6.380765 -25.984827 29.715405 -0.458547 2.635111 0.049346 -0.010406 -6.327600 0 0 1
-14.319937 6.583265 -26.117537 30.504520 -0.430914 2.598638 0.060338 -0.023310 79637.100000 0 0 1
-14.681137 8.014865 -26.438837 31.285555 -0.499713 2.577514 0.078063 -0.014414 -648439.000000 0 0 1
-14.382437 8.953865 -25.441317 30.566106 -0.556840 2.554108 0.102527 -0.015480 -27926.800000 0 0 1
-14.860637 10.273165 -25.686007 31.402984 -0.604863 2.528631 0.091480 -0.011883 -184623.000000 0 0 1
-14.567837 11.364565 -24.633237 30.792395 -0.662497 2.498055 0.080918 -0.012326 -77132.800000 0 0 1
-15.217137 11.109565 -23.424737 30.061637 -0.630623 2.464222 0.101764 -0.011471 73677.900000 0 0 1
-14.777137 12.097265 -22.479737 29.496546 -0.686008 2.437369 0.078542 -0.009120 146897.000000 0 0 1
-15.369237 11.996565 -21.041037 28.685472 -0.662773 2.394266 0.075783 -0.011624 -509285.000000 0 0 1
-16.695537 12.397365 -21.058737 29.595710 -0.638720 2.362494 0.063757 -0.010561 -723619.000000 0 0 1
-17.255337 12.681165 -19.764437 29.140892 -0.633775 2.316157 0.061286 -0.003885 -1210150.000000 0 0 1
-18.734437 12.860965 -19.847037 30.170987 -0.601600 2.288715 0.072279 -0.015634 -1394380.000000 0 0 1
-19.100837 13.998565 -20.556537 31.358779 -0.632452 2.285677 0.068374 -0.014672 -209214.000000 0 0 1
-20.487137 14.225865 -20.572337 32.331395 -0.606944 2.260484 0.053917 -0.016432 -54718.600000 0 0 1
-20.879037 15.599465 -21.140537 33.558901 -0.641665 2.252289 0.055082 -0.018320 -8759.130000 0 0 1
-20.679837 15.766865 -22.539437 34.413311 -0.651407 2.284930 0.059457 -0.019208 22363.300000 0 0 1
-21.210437 16.983065 -22.979237 35.585847 -0.675164 2.272790 0.043503 -0.002702 -37094.900000 0 0 1
-21.305237 17.195965 -24.532637 36.762272 -0.679070 2.301417 0.048692 -0.006899 -251426.000000 0 0 1
-20.080437 17.443765 -25.154127 36.609275 -0.715248 2.328282 0.058382 -0.010244 -318788.000000 0 0 1
-20.109737 17.063865 -26.485987 37.377594 -0.703644 2.358317 0.057312 -0.016011 -501168.000000 0 0 1
-19.038237 17.704665 -27.356497 37.739735 -0.749119 2.381646 0.038293 -0.006885 -415131.000000 0 0 1
-19.270437 19.002165 -27.798207 38.796551 -0.778389 2.369586 0.025462 -0.009594 302909.000000 0 0 1
-18.696237 19.958765 -26.940027 38.388366 -0.818048 2.348684 0.012201 -0.018244 -1208960.000000 0 0 1
-19.437337 21.245365 -27.219217 39.624000 -0.829811 2.328063 0.045887 -0.009033 836194.000000 0 0 1
-20.651237 21.451665 -26.482567 39.849390 -0.804407 2.297710 0.059145 -0.006595 848855.000000 0 0 1
-21.764837 20.618965 -26.725557 40.163482 -0.758369 2.298852 0.075958 -0.010975 -1143070.000000 0 0 1
-22.962837 20.998165 -25.870787 40.466189 -0.740737 2.264408 0.060095 0.011216 -384310.000000 0 0 1
-22.896037 20.553265 -24.530037 39.349561 -0.731531 2.243864 0.033327 0.005590 305927.000000 0 0 1
-24.007537 21.088465 -23.816837 39.853820 -0.720758 2.211307 0.030500 -0.005878 271326.000000 0 0 1
-23.923837 20.650865 -22.345337 38.705585 -0.712103 2.186234 0.037599 0.012990 38236.000000 0 0 1
-22.898837 21.267065 -21.598737 37.988818 -0.748469 2.175545 0.033090 0.009838 590131.000000 0 0 1
-21.771237 20.477165 -21.200237 36.643569 -0.754778 2.187750 0.027885 0.009615 301124.000000 0 0 1
-21.938637 19.814865 -19.854737 35.610999 -0.734577 2.162222 0.055309 -0.005257 -941542.000000 0 0 1
-22.863237 18.763565 -19.899237 35.647982 -0.687228 2.163029 0.094942 -0.013885 49065.400000 0 0 1
-23.107637 18.209165 -18.616837 34.815560 -0.667390 2.134982 0.056947 -0.007753 -209426.000000 0 0 1
-24.193237 18.968865 -17.806337 35.527401 -0.664943 2.095781 0.016344 0.000120 -1170930.000000 0 0 1
-25.346567 19.021565 -18.562337 36.726404 -0.643795 2.100667 0.019851 -0.000397 -922151.000000 0 0 1
-26.237987 19.991065 -18.108837 37.629837 -0.651082 2.072861 0.015872 -0.002251 -27389.800000 0 0 1
-27.712567 19.915965 -18.636737 38.883930 -0.623141 2.070644 -0.000919 0.017840 729933.000000 0 0 1
-28.538287 18.838365 -18.231037 38.751627 -0.583449 2.060607 0.007021 0.008100 148728.000000 0 0 1
-28.709187 18.565065 -16.809237 38.097632 -0.574023 2.027748 0.003230 -0.006127 -972083.000000 0 0 1
-29.718087 17.468365 -16.466337 38.202732 -0.531402 2.016425 0.013816 -0.008266 -300896.000000 0 0 1
-29.440257 16.228465 -17.127937 37.728743 -0.503790 2.042019 0.037712 -0.010980 -207549.000000 0 0 1
-30.075837 15.146765 -16.530237 37.513054 -0.466539 2.027122 0.037791 -0.009278 -52068.700000 0 0 1
-29.242867 14.317565 -15.481437 36.052917 -0.455300 2.014634 0.067595 -0.019056 64314.200000 0 0 1
-28.826787 14.921765 -14.250037 35.450054 -0.477656 1.984469 0.068215 -0.021539 817755.000000 0 0 1
-29.903987 15.402665 -13.398637 36.207928 -0.475631 1.949856 0.042859 -0.018446 575824.000000 0 0 1
-29.457577 15.982665 -12.062337 35.618737 -0.497117 1.916280 0.053366 -0.018108 -78651.300000 0 0 1
-28.696187 17.199765 -12.029637 35.552992 -0.539960 1.915968 0.044433 -0.017556 -130922.000000 0 0 1
-29.351497 18.374365 -12.317237 36.753803 -0.559326 1.912538 0.008800 -0.011978 -761674.000000 0 0 1
-28.358467 19.497965 -12.604737 36.650412 -0.602324 1.921883 0.014075 -0.013863 -188455.000000 0 0 1
-27.777317 19.938265 -11.380137 36.036389 -0.622566 1.892091 -0.000201 -0.023593 279928.000000 0 0 1
-26.756407 20.907765 -11.666137 35.904578 -0.663303 1.901724 -0.001192 -0.021647 787305.000000 0 0 1
-25.978767 21.394265 -10.380137 35.218719 -0.688924 1.869973 0.002534 -0.009764 -12930.700000 0 0 1
-26.732857 22.277065 -9.627937 36.105546 -0.694731 1.840723 0.010974 -0.009950 -208279.000000 0 0 1
-26.439467 23.587865 -9.884637 36.785036 -0.728459 1.842854 0.008759 -0.004514 -47960.000000 0 0 1
-27.163757 24.475565 -8.885537 37.628125 -0.733388 1.809189 0.028478 0.003304 44537.300000 0 0 1
-26.563137 24.423165 -7.621937 36.880689 -0.743451 1.778961 0.028252 -0.002668 884430.000000 0 0 1
-27.540307 24.922765 -6.673537 37.737897 -0.735546 1.748570 0.054942 -0.011239 734700.000000 0 0 1
-27.474067 24.342665 -5.286337 37.085510 -0.725039 1.713828 0.064057 -0.018239 -159054.000000 0 0 1
-27.705197 22.951165 -5.354737 36.373165 -0.691824 1.718550 0.057135 -0.018969 -99809.400000 0 0 1
-27.233067 22.201465 -4.258837 35.393258 -0.683964 1.691418 0.055977 -0.019910 130011.000000 0 0 1
-27.457797 20.668965 -4.500037 34.661031 -0.645261 1.700994 0.053862 -0.019705 54523.500000 0 0 1
-26.558437 20.090365 -5.431937 33.741359 -0.647622 1.732487 0.044331 -0.035033 -27864.500000 0 0 1
-26.652197 20.395165 -6.804137 34.243228 -0.653180 1.770828 0.032493 -0.027107 -538350.000000 0 0 1
-27.848017 19.799065 -7.594737 35.002787 -0.618050 1.789511 0.019262 -0.029292 -257505.000000 0 0 1
-27.850437 18.391465 -7.442937 34.194885 -0.583628 1.790215 0.028208 -0.027052 148955.000000 0 0 1
-28.268597 17.886565 -8.719937 34.569931 -0.564143 1.825791 0.021676 -0.021288 -99635.000000 0 0 1
-27.728627 16.413865 -9.026037 33.462831 -0.534477 1.843912 0.048305 -0.026911 -39688.500000 0 0 1
-28.230237 15.442165 -8.160037 33.196279 -0.500543 1.819153 0.045350 -0.020286 -62831.800000 0 0 1
-27.812647 14.134765 -8.497137 32.334753 -0.470197 1.836705 0.057525 -0.018512 -95572.000000 0 0 1
-28.465217 13.051365 -7.604437 32.224745 -0.429902 1.809025 0.069712 -0.016766 231054.000000 0 0 1
-29.854417 12.833865 -7.798837 33.418800 -0.405998 1.806335 0.087487 -0.012754 -27494.500000 0 0 1
-30.237157 11.974065 -6.722337 33.209242 -0.377058 1.774629 0.095514 -0.016459 -53397.800000 0 0 1
-30.825057 10.624965 -7.147237 33.378991 -0.331933 1.786591 0.079445 -0.011349 138437.000000 0 0 1
-29.910257 9.755465 -7.828937 32.420439 -0.315279 1.814689 0.089006 -0.003732 220692.000000 0 0 1
-30.495117 8.506765 -8.124137 32.685147 -0.272039 1.821987 0.076526 -0.004741 -198849.000000 0 0 1
-29.483457 7.475465 -8.651837 31.622952 -0.248315 1.847924 0.114129 -0.011478 -155030.000000 0 0 1
-29.061217 7.709365 -9.986137 31.681408 -0.259308 1.891469 0.109698 -0.016990 383659.000000 0 0 1
-28.158097 6.733365 -10.495037 30.795494 -0.234720 1.918562 0.123960 -0.021828 -200729.000000 0 0 1
-27.507027 7.072065 -11.822637 30.764028 -0.251650 1.965247 0.099515 -0.016401 -583487.000000 0 0 1
-26.511557 8.034465 -11.665537 30.058278 -0.294257 1.969363 0.122690 -0.029695 -20509.800000 0 0 1
-25.877267 8.259865 -12.922237 30.080601 -0.308972 2.014832 0.109608 -0.018257 -21943.100000 0 0 1
-30.637207 25.630465 33.595157 52.193810 -0.696651 0.871523 0.035707 -0.002332 44920.500000 0 0 1
-30.594427 26.915365 33.029560 52.453862 -0.721512 0.889645 0.018243 -0.012463 -283235.000000 0 0 1
-31.876417 27.213865 32.578064 53.085127 -0.706656 0.910065 0.046328 -0.025134 -544204.000000 0 0 1
-31.895917 28.687865 32.020306 53.531702 -0.732495 0.929598 0.056850 -0.030813 -529964.000000 0 0 1
-33.156767 29.049965 31.543646 54.205842 -0.719475 0.949705 0.081083 -0.028346 -353465.000000 0 0 1
-33.417687 30.466365 31.338006 55.018286 -0.739233 0.964786 0.105188 -0.032789 100217.000000 0 0 1
-32.776347 31.149465 30.041706 54.287035 -0.759954 0.984372 0.090212 -0.030589 -407254.000000 0 0 1
-31.398847 30.988665 29.917366 53.303225 -0.778824 0.974880 0.066277 -0.032481 -635866.000000 0 0 1
-30.909907 31.797865 28.866476 52.913137 -0.799557 0.993758 0.060413 -0.013657 189609.000000 0 0 1
-29.497657 31.451465 28.343696 51.601081 -0.817444 0.989288 0.064929 -0.012919 -140753.000000 0 0 1
-29.373427 30.161765 27.746956 50.422454 -0.798639 0.988085 0.080411 -0.020501 483919.000000 0 0 1
-28.229377 30.098365 26.887466 49.251854 -0.817430 0.993312 0.051118 -0.008897 240643.000000 0 0 1
-28.372617 30.861565 25.494656 49.065457 -0.827392 1.024408 0.044331 0.000563 -367299.000000 0 0 1
-28.628077 32.279465 25.724896 50.232469 -0.845276 1.033149 0.034040 -0.002762 230644.000000 0 0 1
-29.185607 32.903465 24.553676 50.371824 -0.845206 1.061631 0.025261 -0.004509 59944.500000 0 0 1
-29.320557 -33.886939 24.798996 51.215329 0.857517 1.065336 0.025844 0.007716 142525.000000 0 0 1
-30.142887 -33.722739 25.962676 52.152443 0.841392 1.049710 0.038284 -0.008807 230948.000000 0 0 1
-30.005307 -32.478139 26.612216 51.607732 0.824953 1.029015 0.020070 -0.006328 -17409.100000 0 0 1
-30.489417 -32.554039 28.099356 52.715688 0.818136 1.008612 0.032752 -0.011864 592474.000000 0 0 1
-31.893467 -32.796739 28.235626 53.759370 0.799360 1.017820 0.012288 -0.020499 296835.000000 0 0 1
-32.192877 -32.772839 29.620826 54.661080 0.794325 0.998100 0.029065 -0.023058 -608118.000000 0 0 1
-33.642537 -33.108939 29.919046 55.885342 0.777405 1.005857 0.037445 -0.032910 -488987.000000 0 0 1
-33.759767 -33.492439 31.259126 56.908684 0.781423 0.989287 0.038710 -0.040981 941624.000000 0 0 1
-35.162645 -33.619439 31.567706 57.993089 0.762966 0.995199 0.037454 -0.042556 699310.000000 0 0 1
-35.443970 34.144765 32.980763 59.244162 -0.766731 0.980398 0.066726 -0.035048 -218749.000000 0 0 1
-35.151167 32.743665 33.157837 58.371177 -0.749954 0.966660 0.052817 -0.028198 19342.900000 0 0 1
-36.047967 32.115165 34.048444 59.077375 -0.727765 0.956558 0.065229 -0.025378 85337.900000 0 0 1
-35.623196 30.701265 -33.857997 57.947768 -0.711324 2.194795 0.047973 -0.020513 257073.000000 0 0 1
-34.499277 30.664865 -32.999357 56.740565 -0.726624 2.191470 0.051406 -0.021089 -241472.000000 0 0 1
-34.053108 29.342565 -32.782187 55.635170 -0.711231 2.200908 0.034833 -0.020630 5594.100000 0 0 1
-33.309057 29.227865 -31.448617 54.339460 -0.720230 2.187984 0.035044 -0.016780 -137562.000000 0 0 1
-34.035287 29.478165 -30.261547 54.250569 -0.713770 2.162542 0.038641 -0.021113 -406454.000000 0 0 1
-34.357140 30.840365 -29.991347 55.054719 -0.731510 2.146894 0.038371 -0.020543 359810.000000 0 0 1
-35.369414 31.221165 -28.891657 55.321646 -0.723184 2.120282 0.032191 -0.007188 324481.000000 0 0 1
-34.805404 30.913565 -27.636517 54.137249 -0.726248 2.106551 0.013252 -0.018450 -391153.000000 0 0 1
-35.800823 30.715465 -26.677997 54.192751 -0.709094 2.085503 0.022398 -0.014473 -527806.000000 0 0 1
-35.356912 30.452865 -25.212697 53.039309 -0.711017 2.066168 0.028995 -0.021057 -421527.000000 0 0 1
-35.095831 31.657665 -24.563037 53.266011 -0.733938 2.050075 0.024166 -0.020420 -84895.400000 0 0 1
-34.717179 31.548565 -23.161137 52.316659 -0.737618 2.029416 0.015609 -0.021502 -578438.000000 0 0 1
-35.814012 31.285065 -22.123937 52.448712 -0.718004 2.006248 0.000978 -0.014163 -276819.000000 0 0 1
36.147692 32.335465 -22.042537 53.273928 0.729789 1.997375 0.006499 -0.020839 -97456.600000 0 0 1
36.446852 33.558365 -21.391837 53.964318 0.744161 1.978396 0.014362 -0.025183 -371275.000000 0 0 1
-36.320707 33.574265 -19.812237 53.281796 -0.746125 1.951785 0.008541 -0.015174 16001.300000 0 0 1
-35.159777 32.849665 -19.492137 51.915834 -0.751444 1.955686 0.005670 -0.013888 -195608.000000 0 0 1
-35.139248 32.619865 -18.098737 51.248285 -0.748234 1.931741 0.031942 0.002415 376518.000000 0 0 1
-33.958847 31.664165 -17.726337 49.699554 -0.750445 1.935497 0.031852 0.000586 422064.000000 0 0 1
-33.773757 31.374565 -16.386937 48.924040 -0.748588 1.912345 0.040428 0.004277 792359.000000 0 0 1
-32.580787 30.565665 -16.175737 47.512336 -0.753497 1.918195 0.048845 0.002578 873060.000000 0 0 1
-32.259467 30.182665 -14.702137 46.559847 -0.752151 1.892063 0.058956 0.003759 652094.000000 0 0 1
-33.193667 29.271465 -14.049037 46.432894 -0.722690 1.878181 0.062392 0.006973 744691.000000 0 0 1
-32.670427 29.008965 -12.801837 45.527617 -0.726105 1.855829 0.076543 0.004916 472986.000000 0 0 1
-33.646437 28.070965 -12.012837 45.435340 -0.695304 1.838372 0.082793 -0.002020 357405.000000 0 0 1
-32.993367 27.716865 -10.861537 44.438271 -0.698703 1.817716 0.088045 0.001944 433772.000000 0 0 1
-33.836037 26.801165 -10.175037 44.347618 -0.669899 1.802297 0.087965 -0.005743 320926.000000 0 0 1
-33.192407 26.185265 -8.905337 43.205428 -0.667932 1.778401 0.089808 -0.001103 82655.200000 0 0 1
-32.888437 27.238365 -8.029837 43.451768 -0.691704 1.756664 0.085740 -0.007610 -82000.700000 0 0 1
-32.089217 26.781165 -7.005137 42.379484 -0.695476 1.736854 0.076971 -0.015341 -426873.000000 0 0 1
-31.750627 27.752865 -5.789437 42.565731 -0.718314 1.707231 0.083955 -0.017212 -361945.000000 0 0 1
-30.864727 27.070965 -4.971537 41.354380 -0.720009 1.691306 0.095110 -0.018303 -106829.000000 0 0 1
-30.609477 27.532465 -3.663537 41.332774 -0.732525 1.659548 0.091948 -0.011636 286916.000000 0 0 1
-29.645167 26.578665 -2.866137 39.918368 -0.730911 1.642658 0.084782 -0.015631 420318.000000 0 0 1
-30.308507 25.311165 -2.623237 39.574513 -0.695790 1.637131 0.073414 -0.014786 580604.000000 0 0 1
-29.538707 24.433765 -1.767637 38.375365 -0.691095 1.616874 0.041494 -0.016455 482039.000000 0 0 1
-30.185357 23.041765 -1.447237 38.002279 -0.651986 1.608888 0.047838 -0.025350 -91184.800000 0 0 1
-30.367157 22.226865 -2.573737 37.720312 -0.631841 1.639082 0.034138 -0.019342 1268980.000000 0 0 1
-31.406897 21.191865 -2.354737 37.960942 -0.593579 1.632867 0.045666 -0.015400 1242830.000000 0 0 1
-31.778637 20.383865 -3.630537 37.928413 -0.570329 1.666664 0.064364 -0.018094 -231532.000000 0 0 1
-30.737747 19.507365 -3.931637 36.616993 -0.565501 1.678376 0.044049 -0.020070 28121.800000 0 0 1
-31.082367 18.681765 -4.994837 36.606971 -0.541184 1.707668 0.058069 -0.016195 90977.000000 0 0 1
-29.879457 17.758065 -5.250437 35.152495 -0.536235 1.720719 0.069764 -0.014957 -160945.000000 0 0 1
-29.879427 16.625465 -4.387937 34.473762 -0.507758 1.698426 0.074524 -0.025513 165947.000000 0 0 1
-29.356037 15.474965 -5.007237 33.560749 -0.485129 1.720555 0.070797 -0.022066 -262880.000000 0 0 1
-29.074527 14.236865 -4.057137 32.626321 -0.455348 1.695471 0.074051 -0.019701 228983.000000 0 0 1
-30.264547 13.655765 -3.547137 33.391689 -0.423862 1.677225 0.087514 -0.015939 325759.000000 0 0 1
-30.012817 12.384965 -3.085537 32.614063 -0.391369 1.665546 0.075757 -0.016554 418451.000000 0 0 1
-31.225037 11.590965 -2.458437 33.397565 -0.355442 1.644474 0.103383 -0.014315 1010850.000000 0 0 1
-32.253407 11.261765 -3.420837 34.333828 -0.335931 1.670597 0.107240 -0.008326 292474.000000 0 0 1
-33.121587 10.314565 -2.967637 34.817189 -0.301896 1.656135 0.093658 -0.004400 -922966.000000 0 0 1
-34.244057 9.926765 -3.908237 35.867401 -0.282149 1.679977 0.075872 -0.012295 -465450.000000 0 0 1
-33.796457 9.100265 -5.005837 35.356382 -0.263028 1.712856 0.063629 -0.022512 629213.000000 0 0 1
-34.837109 8.556965 -5.820837 36.341821 -0.240860 1.731658 0.071026 -0.014636 96555.500000 0 0 1
-34.275298 7.746865 -7.009937 35.832237 -0.222284 1.767698 0.074345 -0.017378 -315685.000000 0 0 1
-33.717077 6.547665 -6.621637 34.979412 -0.191807 1.761247 0.058443 -0.017006 422567.000000 0 0 1
-33.111707 5.868065 -7.724237 34.503379 -0.175399 1.796579 0.070732 -0.018959 -145734.000000 0 0 1
-32.213507 4.647065 -7.325537 33.361186 -0.143270 1.792183 0.088835 -0.027029 519531.000000 0 0 1
-30.900327 5.029965 -6.901537 32.058727 -0.161365 1.787773 0.092897 -0.021347 583821.000000 0 0 1
-30.250847 3.821965 -6.524137 31.181494 -0.125677 1.781585 0.085829 -0.023470 122115.000000 0 0 1
-28.714867 3.893665 -6.292237 29.652934 -0.134776 1.784618 0.136620 -0.016577 435082.000000 0 0 1
-27.975477 4.311565 -7.439037 29.266981 -0.152916 1.827795 0.138482 -0.013540 -994049.000000 0 0 1
-26.651967 4.434465 -7.098137 27.935200 -0.164874 1.827706 0.165291 -0.024696 -1245730.000000 0 0 1
-25.789227 4.877765 -8.280937 27.521823 -0.186931 1.876418 0.164704 -0.022478 -390699.000000 0 0 1
-25.695257 4.026565 -9.367737 27.644420 -0.155440 1.916507 0.145322 -0.033072 189506.000000 0 0 1
-24.788137 4.406965 -10.371437 27.229392 -0.175947 1.961556 0.138240 -0.031910 -164183.000000 0 0 1
-24.769337 3.577865 -11.650037 27.605154 -0.143455 2.006473 0.120318 -0.036790 -761107.000000 0 0 1
-25.915187 3.890065 -12.340237 28.965686 -0.148995 2.010896 0.109297 -0.012731 -554735.000000 0 0 1
-26.011947 3.248565 -13.577337 29.521495 -0.124244 2.048694 0.105372 -0.020037 -84773.700000 0 0 1
-26.954847 3.947665 -14.567537 30.892734 -0.145421 2.061846 0.082272 -0.013616 -378892.000000 0 0 1
-26.372687 5.143965 -15.092337 30.818138 -0.192630 2.082568 0.075654 -0.012076 769665.000000 0 0 1
-27.237597 6.106165 -15.777437 32.063990 -0.220535 2.085252 0.117148 -0.024412 361744.000000 0 0 1
-27.969737 5.572765 -17.033937 33.219225 -0.196667 2.109209 0.063184 -0.014651 -347116.000000 0 0 1
-29.055937 4.742665 -16.754837 33.874252 -0.161799 2.088192 0.069216 -0.026039 -600652.000000 0 0 1
-29.644627 4.261465 -17.930737 34.906666 -0.142774 2.110261 0.070009 -0.016641 158832.000000 0 0 1
-31.105367 3.761365 -17.727337 35.999309 -0.120339 2.085682 0.067463 -0.018992 277553.000000 0 0 1
-31.310137 2.535465 -16.980437 35.708382 -0.080803 2.066364 0.076523 -0.027138 -11979.200000 0 0 1
-30.768327 1.337565 -17.478137 35.411359 -0.043445 2.086991 0.104152 -0.027683 -196439.000000 0 0 1
-31.160597 0.165965 -16.591037 35.302590 -0.005326 2.060049 0.099261 -0.030066 -120155.000000 0 0 1
-30.712397 -1.117435 -17.033537 35.137464 0.036368 2.076895 0.110383 -0.022494 291076.000000 0 0 1
-30.872137 -2.060035 -15.971537 34.819859 0.066629 2.047317 0.111250 -0.032033 24828.900000 0 0 1
-30.758607 -3.498535 -16.326237 34.998253 0.113255 2.056112 0.106944 -0.024707 -571498.000000 0 0 1
-31.828727 -3.842735 -17.126437 36.347618 0.120150 2.061430 0.109612 -0.029647 -429863.000000 0 0 1
-31.578547 -4.865135 -18.046037 36.695145 0.152863 2.084932 0.104409 -0.022103 -385903.000000 0 0 1
-32.565607 -4.920735 -19.197437 38.121831 0.149968 2.098535 0.111568 -0.013753 -279365.000000 0 0 1
-32.243297 -6.012635 -20.001837 38.416864 0.184360 2.118411 0.109320 -0.011629 -81723.100000 0 0 1
-33.119397 -6.066235 -21.077137 39.723285 0.181155 2.130103 0.100540 -0.008812 -590776.000000 0 0 1
-32.944217 -7.321935 -21.962037 40.264913 0.218698 2.147709 0.096500 -0.004068 408360.000000 0 0 1
-31.719547 -7.361735 -22.704637 39.696667 0.228051 2.179681 0.096355 -0.007324 377210.000000 0 0 1
-31.775347 -8.141335 -23.890837 40.579873 0.250820 2.200291 0.081446 0.010612 494879.000000 0 0 1
-30.452217 -8.158735 -24.749037 40.080136 0.261771 2.236343 0.084239 0.013364 490935.000000 0 0 1
-30.174567 -7.013235 -25.527617 40.141614 0.228368 2.260021 0.085508 0.011402 51080.600000 0 0 1
-30.236477 -7.270735 -26.931517 41.138969 0.235982 2.284512 0.070474 0.010352 -543052.000000 0 0 1
-31.648117 -7.191335 -27.513407 42.547693 0.223434 2.273979 0.066938 0.010499 -85470.100000 0 0 1
-32.490757 -8.286535 -27.072127 43.095429 0.249719 2.250021 0.060263 0.010325 -543695.000000 0 0 1
-33.635937 -8.349135 -27.857587 44.464924 0.243303 2.247860 0.058366 0.006956 -324513.000000 0 0 1
-34.524309 -9.558035 -27.511817 45.168396 0.270085 2.225715 0.058356 0.007933 -437064.000000 0 0 1
-33.990497 -10.806235 -28.011947 45.351933 0.307814 2.236557 0.054324 0.008671 513167.000000 0 0 1
-34.807993 -11.965635 -27.753907 46.098288 0.331106 2.216874 0.043201 0.010136 -457227.000000 0 0 1
-36.166067 -12.044735 -28.413477 47.543514 0.321486 2.211339 0.040463 -0.001312 -501790.000000 0 0 1
35.791552 -11.126535 -27.911977 46.732360 -0.301400 2.210893 0.031640 -0.000779 21294.500000 0 0 1
34.762012 -10.902235 -28.833377 46.460950 -0.303909 2.240296 0.036923 -0.015272 -400737.000000 0 0 1
33.827672 -9.712135 -28.629837 45.368542 -0.279586 2.253703 0.036885 -0.007011 304658.000000 0 0 1
32.867142 -9.981335 -27.595427 44.061136 -0.294836 2.247592 0.025849 -0.001167 101372.000000 0 0 1
32.019162 -8.906735 -27.342707 43.036965 -0.271310 2.259233 0.015214 0.001648 -615746.000000 0 0 1
30.757812 -9.224335 -26.581277 41.685677 -0.291367 2.262253 0.005739 0.004467 -605051.000000 0 0 1
31.057012 -9.431735 -25.213597 41.100135 -0.294840 2.231240 -0.007088 0.014486 183524.000000 0 0 1
29.899992 -9.843735 -24.519437 39.901271 -0.318046 2.232552 -0.016756 0.015149 -97434.100000 0 0 1
30.123792 -10.086935 -23.002437 39.221184 -0.323114 2.197502 -0.029629 0.011185 -192456.000000 0 0 1
31.142752 -11.004235 -22.721537 40.090304 -0.339654 2.173363 -0.045313 0.010595 68125.100000 0 0 1
31.420202 -11.043535 -21.339837 39.554740 -0.337992 2.140641 -0.036155 0.010628 -140797.000000 0 0 1
32.094352 -12.318035 -20.858237 40.210042 -0.366469 2.116164 -0.021581 0.008798 434174.000000 0 0 1
33.484882 -12.403135 -21.168337 41.511126 -0.354740 2.105916 -0.009011 0.009626 814762.000000 0 0 1
34.201452 -13.293635 -20.287337 41.928941 -0.370715 2.075845 0.013176 0.004431 868012.000000 0 0 1
35.729522 -13.444335 -20.614237 43.385432 -0.359893 2.065922 0.038134 -0.004089 816789.000000 0 0 1
-36.329267 -12.289835 -20.503637 43.488560 0.326205 2.061755 0.048772 -0.005621 815790.000000 0 0 1
36.418302 -11.340335 -21.537737 43.803768 -0.301874 2.084822 0.052380 0.008929 -564753.000000 0 0 1
-35.785481 -11.673435 -22.923037 44.071934 0.315322 2.117797 0.048041 0.008426 147715.000000 0 0 1
-36.306557 -12.640335 -23.847637 45.239960 0.335031 2.126024 0.044404 0.008819 635117.000000 0 0 1
35.344082 -12.185635 -24.314637 44.597034 -0.332009 2.147433 0.035907 0.006225 132024.000000 0 0 1
34.639782 -13.149335 -25.277807 44.852949 -0.362799 2.169498 0.042043 -0.009234 -108609.000000 0 0 1
34.346472 -14.475235 -24.817537 44.778597 -0.398858 2.158231 0.048851 -0.023369 360749.000000 0 0 1
33.511702 -14.602335 -23.683737 43.556650 -0.410931 2.145690 0.034508 -0.015786 -467045.000000 0 0 1
-29.826377 8.502565 -19.246237 36.501014 -0.277703 2.126192 0.040192 -0.011597 218227.000000 0 0 1
-28.472307 8.099465 -19.171037 35.267581 -0.277147 2.145502 0.048397 -0.008686 170042.000000 0 0 1
-27.796237 8.305065 -20.429137 35.481750 -0.290341 2.184335 0.070182 -0.030057 286040.000000 0 0 1
-26.656597 7.283065 -20.604337 34.469638 -0.266709 2.211492 0.080973 -0.027164 -800785.000000 0 0 1
-25.485997 7.596265 -19.959337 33.250781 -0.289673 2.214631 0.087627 -0.027858 473.256000 0 0 1
-24.434337 6.625665 -20.205437 32.391295 -0.264795 2.244382 0.098830 -0.026712 1136300.000000 0 0 1
-23.001537 7.016965 -19.766337 31.129031 -0.296097 2.258780 0.085940 -0.028076 450137.000000 0 0 1
-22.382137 8.015865 -20.554137 31.427483 -0.343905 2.283680 0.078121 -0.028507 -659682.000000 0 0 1
-21.150537 8.385165 -20.021637 30.307131 -0.377444 2.292447 0.067937 -0.021828 -193270.000000 0 0 1
-20.323237 9.413665 -20.867337 30.612037 -0.433774 2.320840 0.071133 -0.012627 127050.000000 0 0 1
-19.867137 8.885165 -22.109937 31.024162 -0.420547 2.364091 0.077069 -0.018298 -34487.000000 0 0 1
-19.084137 9.851465 -22.767337 31.298679 -0.476533 2.385353 0.078732 -0.007445 161733.000000 0 0 1
-18.204137 9.279565 -23.886537 31.433543 -0.471417 2.433965 0.090293 -0.011372 146923.000000 0 0 1
-19.049937 8.574665 -24.776037 32.407978 -0.422950 2.441068 0.080794 -0.011181 372421.000000 0 0 1
-18.294537 7.979465 -25.809607 32.626642 -0.411291 2.483335 0.068511 -0.007814 -436888.000000 0 0 1
-19.101637 6.933165 -26.548127 33.432684 -0.348175 2.488284 0.038169 -0.002684 -161901.000000 0 0 1
-19.468037 5.799165 -25.795127 32.833266 -0.289512 2.474526 0.056253 -0.002837 70003.000000 0 0 1
-20.160737 4.852465 -26.557757 33.694454 -0.236196 2.478665 0.038208 -0.004357 -901481.000000 0 0 1
-20.538237 3.526765 -25.794797 33.160652 -0.170059 2.462071 0.043113 0.001389 655656.000000 0 0 1
-19.480537 2.574565 -25.512867 32.202890 -0.131399 2.485290 0.040894 0.002938 1806960.000000 0 0 1
-18.239437 3.111265 -24.967537 31.076276 -0.168953 2.503826 0.045257 -0.003256 218438.000000 0 0 1
-17.286637 2.034165 -24.508737 30.060670 -0.117134 2.524059 0.037575 -0.001264 -470274.000000 0 0 1
-17.618937 1.333965 -23.316737 29.255369 -0.075568 2.493120 0.037145 0.000311 321892.000000 0 0 1
-18.650837 0.356165 -23.501537 30.005047 -0.019094 2.470677 0.025310 0.001292 233921.000000 0 0 1
-19.164437 -0.374935 -22.276437 29.388023 0.019562 2.431054 0.052202 0.000567 188631.000000 0 0 1
-18.424437 -1.540035 -21.864537 28.633714 0.083393 2.439658 0.045042 -0.005028 584508.000000 0 0 1
-19.066137 -2.157435 -20.708637 28.231538 0.112676 2.394295 0.050950 -0.005541 -108014.000000 0 0 1
-18.623637 -3.543535 -20.369637 27.826581 0.188023 2.392080 0.042675 -0.025722 -197724.000000 0 0 1
-18.758837 -4.427435 -21.466737 28.849904 0.231777 2.409958 0.042907 -0.027671 302191.000000 0 0 1
-19.087137 -5.711835 -21.020637 28.962235 0.290769 2.382985 0.047624 -0.024110 -599633.000000 0 0 1
-19.089037 -6.733235 -22.217137 30.055432 0.339103 2.402686 0.032204 -0.026409 -15732.400000 0 0 1
-17.848437 -7.101035 -22.821437 29.829673 0.378653 2.441928 0.025442 -0.022180 166319.000000 0 0 1
-17.893737 -7.853135 -24.013237 30.959540 0.413565 2.458513 0.038414 -0.028098 539966.000000 0 0 1
-16.538837 -7.806435 -24.809837 30.822096 0.441003 2.506365 0.049373 -0.035768 95637.500000 0 0 1
-16.557137 -8.502635 -26.018437 31.990509 0.474415 2.520628 0.049434 -0.055168 466381.000000 0 0 1
-15.298337 -8.610135 -26.687877 31.943956 0.512629 2.559764 0.057181 -0.054504 957761.000000 0 0 1
-14.163037 -9.486435 -26.040847 31.124103 0.590170 2.561985 0.050226 -0.047526 -158813.000000 0 0 1
-13.485137 -8.823435 -24.988537 29.734305 0.579398 2.568806 0.055220 -0.042811 -307840.000000 0 0 1
-12.610037 -9.724035 -24.395637 29.132748 0.656891 2.563297 0.032828 -0.030345 142865.000000 0 0 1
-11.697637 -9.043035 -23.260337 27.561830 0.658100 2.575369 0.061293 -0.036900 592668.000000 0 0 1
-12.341237 -8.600135 -22.056737 26.697717 0.608617 2.543064 0.048011 -0.028701 32361.100000 0 0 1
-11.433037 -7.949735 -21.205437 25.368941 0.607585 2.560534 0.049592 -0.027234 -624859.000000 0 0 1
-12.096937 -7.592635 -19.831237 24.438943 0.560502 2.517443 0.042869 -0.018030 1012770.000000 0 1 0
-13.251637 -6.704635 -19.787437 24.740669 0.468394 2.497748 0.040342 -0.014468 2422040.000000 0 1 0
-14.511337 -7.349435 -20.196737 25.932630 0.468803 2.463572 0.043598 -0.020034 1334450.000000 0 0 1
-15.779637 -6.492935 -19.927537 26.234746 0.390360 2.433472 0.039132 -0.010861 -182951.000000 0 0 1
-16.101337 -6.185135 -18.601037 25.367450 0.366758 2.393906 0.050686 -0.013897 416699.000000 0 0 1
-15.482537 -4.986235 -18.101037 24.335551 0.311566 2.409550 0.050228 -0.016716 -254509.000000 0 1 0
-15.270937 -4.904135 -16.579037 23.067651 0.310738 2.372747 0.066745 -0.004351 362475.000000 0 1 0
-16.321337 -4.335535 -15.761237 23.099773 0.259640 2.321716 0.079932 -0.015307 574811.000000 0 1 0
-16.322737 -2.894935 -15.803337 22.903228 0.175531 2.332292 0.026379 -0.020051 -22131.600000 0 1 0
-17.388537 -2.252235 -14.888837 23.002419 0.128807 2.274797 0.015402 -0.019553 -130980.000000 0 1 0
-17.416137 -2.696135 -13.527037 22.216474 0.153588 2.225437 0.051913 -0.029703 -49139.300000 0 1 0
-18.331837 -1.948235 -12.831337 22.460968 0.105879 2.178852 0.055493 -0.025895 -625781.000000 0 1 0
-17.672037 -0.764335 -12.079037 21.419343 0.043224 2.169935 0.037999 -0.026588 -65854.200000 0 1 0
-17.477237 0.287265 -12.987137 21.776181 -0.016435 2.209795 0.057973 -0.025972 336213.000000 0 1 0
-16.595537 1.258665 -12.500537 20.814887 -0.075699 2.214995 0.051538 -0.018619 -895700.000000 0 1 0
-16.190037 2.310365 -13.611437 21.277366 -0.141746 2.264923 0.056584 -0.012728 81631.700000 0 1 0
-15.392237 1.949865 -14.704737 21.376441 -0.126007 2.329381 0.049245 -0.018434 -390265.000000 0 1 0
-14.164037 1.392165 -14.358337 20.216823 -0.097974 2.360603 0.038840 -0.012497 -1391700.000000 0 1 0
-13.789537 0.309765 -15.384237 20.662092 -0.022460 2.410677 0.044995 -0.015110 -29353.300000 0 1 0
-13.312637 0.867465 -16.600037 21.296480 -0.065069 2.464621 0.041191 -0.017114 58487.100000 0 1 0
-12.687037 -0.158835 -17.320737 21.470773 0.012519 2.509364 0.017118 -0.019268 -252985.000000 0 1 0
-12.135837 0.467065 -18.590437 22.205879 -0.038467 2.562913 0.034103 -0.020366 -654630.000000 0 1 0
-10.991437 1.235165 -18.424737 21.489725 -0.111906 2.600943 0.026386 -0.014428 -761181.000000 0 1 0
-10.714537 1.934265 -19.628037 22.445546 -0.178604 2.635146 0.032724 -0.011423 -272247.000000 0 1 0
-9.338737 2.566365 -19.448237 21.726301 -0.268188 2.679558 0.021696 -0.010606 -553909.000000 0 1 0
-8.229037 1.647365 -19.507737 21.236353 -0.197578 2.735322 0.019047 -0.010385 784047.000000 0 1 0
-6.963037 2.274565 -19.300937 20.644217 -0.315735 2.778863 0.015459 -0.003675 649161.000000 0 1 0
-6.510237 3.483665 -20.217437 21.523566 -0.491336 2.791428 0.013761 -0.000709 -1033040.000000 0 1 0
-6.211437 2.987865 -21.515937 22.593026 -0.448354 2.831569 0.008514 0.000203 281162.000000 0 1 0
-5.982237 3.928765 -22.534937 23.644148 -0.581098 2.834073 0.010492 0.004864 -565132.000000 0 1 0
-5.452137 3.269165 -23.849037 24.681771 -0.540134 2.881092 0.027988 -0.008884 -384633.000000 0 1 0
-4.191037 2.693365 -23.692937 24.211036 -0.571190 2.934344 0.033594 -0.015583 -640936.000000 0 1 0
-3.725637 2.222065 -24.915937 25.290747 -0.537787 2.969216 0.057898 -0.018222 -561408.000000 0 0 1
-2.332137 1.619165 -24.922737 25.083927 -0.606879 3.028165 0.043208 -0.016656 -586241.000000 0 0 1
-1.283837 2.583065 -24.691237 24.859156 -1.109535 3.025296 0.035448 -0.015285 1051720.000000 0 1 0
0.026463 2.009365 -24.807037 24.888297 1.557627 3.060762 0.040123 -0.017759 680187.000000 0 1 0
0.548163 1.054465 -23.726837 23.756582 1.091396 3.091546 0.042229 -0.022211 -1003940.000000 0 1 0
0.068363 -0.265935 -23.787437 23.789022 -1.319178 3.130050 0.035041 -0.023163 -6135.860000 0 1 0
0.611763 -0.996435 -22.697537 22.727634 -1.020181 3.090124 0.034901 -0.024476 -824545.000000 0 1 0
0.237863 -2.509635 -22.732537 22.871884 -1.476299 3.031151 0.045014 -0.028775 387732.000000 0 1 0
-0.986337 -2.866235 -22.087037 22.294066 1.239367 3.005206 0.033660 -0.023606 -178874.000000 0 1 0
-2.165837 -2.707435 -22.798537 23.060667 0.896080 2.990672 0.040913 -0.026888 -794964.000000 0 1 0
-2.875437 -1.386135 -22.662037 22.885748 0.449193 3.001657 0.047307 -0.030139 -1875080.000000 0 1 0
-3.313437 -1.033035 -21.347537 21.627838 0.302221 2.980420 0.030903 -0.031137 771298.000000 0 1 0
-4.292137 0.021765 -21.281837 21.710355 -0.005071 2.942579 0.023510 -0.029705 339515.000000 0 1 0
-5.592437 -0.084835 -22.060837 22.758802 0.015168 2.893295 0.027144 -0.023565 -1079050.000000 0 1 0
-6.439337 -1.128235 -21.592837 22.560776 0.173449 2.847606 0.030672 -0.018905 437043.000000 0 1 0
-7.798137 -0.872535 -21.970737 23.329928 0.111427 2.798564 0.020477 -0.014004 853776.000000 0 1 0
-8.653737 -2.127635 -21.559337 23.328502 0.241081 2.749635 0.021984 -0.020106 156990.000000 0 1 0
-8.401437 -3.238935 -22.416637 24.157410 0.367963 2.759645 0.032576 -0.027500 49986.000000 0 1 0
-9.097737 -4.366935 -21.944137 24.153345 0.447522 2.710558 0.039319 -0.033023 -16231.500000 0 1 0
-9.907737 -5.234535 -22.935837 25.526775 0.486052 2.687139 0.045740 -0.037459 -547015.000000 0 0 1
-11.262937 -4.939935 -22.955737 26.042707 0.413334 2.649752 0.047704 -0.039650 -736159.000000 0 0 1
-11.990937 -5.582235 -23.988737 27.393492 0.435700 2.637699 0.042678 -0.047336 -129072.000000 0 0 1
-13.513437 -5.471435 -23.843237 27.947264 0.384713 2.592792 0.061839 -0.044640 -454772.000000 0 0 1
-13.919737 -4.200235 -24.207837 28.238634 0.293058 2.600720 0.057367 -0.042855 548844.000000 0 0 1
-15.342837 -4.059235 -24.079437 28.839198 0.258643 2.558848 0.044848 -0.039538 862235.000000 0 0 1
-15.906037 -2.684235 -24.416437 29.263792 0.167181 2.557761 0.036845 -0.030725 -278909.000000 0 0 1
-15.661637 -2.394035 -25.763177 30.244993 0.151686 2.590239 0.043385 -0.026917 -99535.500000 0 0 1
-16.164437 -1.154935 -26.222027 30.825600 0.071328 2.588031 0.034314 -0.015875 731228.000000 0 0 1
-17.681137 -1.277035 -26.653357 32.010231 0.072101 2.554674 0.035037 -0.009761 812137.000000 0 0 1
-17.987237 -1.818035 -27.952067 33.289097 0.100731 2.567483 0.034894 -0.021168 -56580.500000 0 0 1
-17.885137 -0.965335 -29.039177 34.118673 0.053922 2.588917 0.023765 -0.025640 -229462.000000 0 0 1
-17.950737 -1.767435 -30.406077 35.353675 0.098144 2.606172 0.031413 -0.027650 375538.000000 0 0 1
-19.250837 -2.254135 -30.695987 36.303161 0.116562 2.578383 0.038051 -0.033417 173622.000000 0 0 1
-19.296137 -2.818035 -31.963547 37.442630 0.145016 2.593783 0.044811 -0.037044 28959.800000 0 0 1
-20.689837 -3.304335 -32.499677 38.668036 0.158371 2.568963 0.031268 -0.031952 784268.000000 0 0 1
-21.739237 -2.373335 -32.695457 39.334718 0.108742 2.552079 0.036945 -0.033163 303900.000000 0 0 1
-22.343037 -1.867935 -31.522957 38.683295 0.083409 2.523350 0.030131 -0.018850 -616326.000000 0 0 1
-23.431437 -0.851935 -31.911977 39.599651 0.036343 2.507931 0.035656 -0.016963 -11526.600000 0 0 1
-22.871837 0.345665 -32.400897 39.661802 -0.015112 2.526863 0.040825 -0.022231 455709.000000 0 0 1
-23.947937 1.117665 -32.877617 40.690178 -0.046637 2.511544 0.039871 -0.023557 138706.000000 0 0 1
-23.503737 2.422665 -33.601287 41.077262 -0.102713 2.528725 0.042999 -0.022038 -349507.000000 0 0 1
-22.908937 3.488565 -32.854187 40.204317 -0.151119 2.527299 0.034428 -0.020037 455004.000000 0 0 1
-23.630537 4.151065 -31.801057 39.836426 -0.173891 2.495248 0.030321 -0.017272 230649.000000 0 0 1
-24.855937 5.066165 -32.214767 41.003352 -0.201067 2.474561 0.026322 -0.018128 -177649.000000 0 0 1
-25.942167 4.378465 -32.691017 41.962717 -0.167202 2.463944 0.049070 -0.027444 -1107730.000000 0 0 1
-26.759177 5.193065 -33.462447 43.159667 -0.191684 2.458014 0.063041 -0.035375 -559454.000000 0 0 1
-28.053747 4.414865 -33.761067 44.117042 -0.156092 2.442244 0.065146 -0.028839 -424410.000000 0 0 1
-27.821667 3.250865 33.812097 43.907530 -0.116319 0.691837 0.073280 -0.030617 163405.000000 0 0 1
-29.005107 2.909465 33.139782 44.136225 -0.099974 0.721445 0.077502 -0.031614 -131688.000000 0 0 1
-29.084067 1.381865 32.798474 43.858094 -0.047477 0.726006 0.075182 -0.008354 -100390.000000 0 0 1
-29.393257 0.627965 33.962590 44.920100 -0.021361 0.713514 0.070448 -0.001448 81326.800000 0 0 1
-29.806397 -0.660835 33.748238 45.031118 0.022167 0.723577 0.057401 0.007888 -592746.000000 0 0 1
-29.588437 -1.575735 -33.338027 44.602496 0.053205 2.415008 0.030151 0.013887 1050370.000000 0 0 1
-28.225487 -1.786735 -32.891057 43.378476 0.063218 2.431397 0.044093 0.001230 1621050.000000 0 0 1
-27.509567 -0.697435 -32.298927 42.432103 0.025347 2.435944 0.042396 0.001167 -314568.000000 0 0 1
-27.824437 -0.473335 -30.803267 41.512223 0.017010 2.406888 0.055817 -0.001832 446921.000000 0 0 1
-26.866127 -1.177235 -29.937017 40.241765 0.043791 2.409727 0.043551 -0.007006 1156100.000000 0 0 1
-26.928497 -0.763935 -28.579887 39.275151 0.028361 2.385735 0.052055 -0.010000 -632096.000000 0 0 1
-25.763597 -1.282635 -27.766277 37.899528 0.049744 2.392972 0.048678 -0.012305 -521065.000000 0 0 1
-25.660937 -2.727435 -27.695607 37.854580 0.105890 2.391509 0.037225 -0.000776 -208321.000000 0 0 1
-24.633437 -3.075335 -26.821777 36.546842 0.124201 2.394844 0.049250 -0.003472 -436774.000000 0 0 1
-24.843737 -4.408435 -26.095737 36.299216 0.175618 2.373024 0.055132 -0.005786 240382.000000 0 0 1
-25.923037 -4.337235 -25.174437 36.394612 0.165776 2.334648 0.066214 0.001191 86330.300000 0 0 1
-26.144587 -5.535335 -24.450337 36.221518 0.208639 2.311791 0.080617 -0.006154 159266.000000 0 0 1
-27.318937 -5.449535 -23.455437 36.416745 0.196894 2.270621 0.090660 -0.014150 120954.000000 0 0 1
-27.487177 -6.557535 -22.569337 36.165193 0.234190 2.244727 0.109476 -0.018045 -230367.000000 0 0 1
-28.670757 -6.562435 -21.812937 36.618057 0.225013 2.208918 0.112427 -0.017886 -276171.000000 0 0 1
-28.999867 -7.805235 -20.938237 36.610432 0.262917 2.179641 0.126901 -0.020820 -620542.000000 0 0 1
-28.207287 -8.066835 -19.827337 35.409719 0.278549 2.165110 0.131795 -0.026544 175894.000000 0 0 1
-28.840937 -9.044835 -18.942337 35.671008 0.303897 2.130611 0.126222 -0.027059 600711.000000 0 0 1
-29.708347 -8.327335 -17.857537 35.648591 0.273290 2.095472 0.122141 -0.031819 128493.000000 0 0 1
-28.881977 -7.823935 -16.837937 34.335094 0.264544 2.083345 0.116631 -0.038255 337220.000000 0 0 1
-29.570527 -7.001535 -15.875137 34.284946 0.232493 2.052213 0.110903 -0.037308 -147398.000000 0 0 1
-28.677437 -6.369835 -14.795937 32.892096 0.218572 2.037374 0.103116 -0.030618 96755.700000 0 0 1
-27.816207 -5.353235 -15.302837 32.195890 0.190126 2.066106 0.105889 -0.023229 443076.000000 0 0 1
-26.789727 -5.005335 -14.402337 30.824830 0.184708 2.056953 0.106967 -0.037484 -144457.000000 0 0 1
-13.937037 20.918365 -4.794837 25.589245 -0.983076 1.759288 0.072178 -0.024204 -104917.000000 0 0 1
-14.041337 20.437365 -6.118337 25.539755 -0.968820 1.812710 0.093050 -0.031837 543238.000000 0 0 1
-15.061537 19.424065 -6.126337 25.331329 -0.911233 1.815067 0.075957 -0.041920 396324.000000 0 0 1
-15.313937 18.792465 -7.576537 25.398373 -0.887037 1.873716 0.101476 -0.045916 -272379.000000 0 0 1
-14.141937 18.129165 -8.012037 24.348589 -0.908329 1.906100 0.087206 -0.043452 84799.400000 0 1 0
-14.234037 17.093865 -8.966137 23.983321 -0.876433 1.953952 0.072887 -0.048310 -641179.000000 0 1 0
-14.846337 15.842765 -8.398537 23.279656 -0.817855 1.939887 0.075231 -0.045107 -923175.000000 0 1 0
-16.225937 15.970365 -8.286037 24.227918 -0.777460 1.919845 0.082488 -0.030815 -583121.000000 0 1 0
-16.725837 15.040665 -7.290337 23.645809 -0.732399 1.884217 0.091978 -0.024076 -595603.000000 0 1 0
-18.131637 15.402465 -6.860537 24.760032 -0.704192 1.851551 0.096826 -0.021433 -573411.000000 0 1 0
-19.123937 14.919265 -7.725137 25.455593 -0.662511 1.879134 0.095931 -0.024071 -659031.000000 0 0 1
-20.432937 15.214865 -7.359537 26.517161 -0.640052 1.852027 0.088483 -0.031360 -612903.000000 0 0 1
-21.484237 14.497265 -8.188837 27.180879 -0.593603 1.876823 0.091160 -0.020219 -462125.000000 0 0 1
-21.649737 13.114865 -7.969937 26.537346 -0.544655 1.875834 0.110267 -0.024557 -74901.600000 0 0 1
-22.332837 12.499265 -9.034437 27.140529 -0.510245 1.910148 0.111062 -0.021792 77314.400000 0 0 1
-22.720337 10.992565 -8.692837 26.694862 -0.450620 1.902482 0.106543 -0.024567 -356644.000000 0 0 1
-21.630737 10.137065 -8.608337 25.391974 -0.438248 1.916669 0.107695 -0.028886 -117910.000000 0 0 1
-21.902337 9.248265 -7.529637 24.938689 -0.399539 1.877509 0.122807 -0.027480 -146865.000000 0 1 0
-20.743837 8.231665 -7.434437 23.523137 -0.377766 1.892357 0.085398 -0.015054 -358908.000000 0 1 0
-20.636637 7.186265 -8.337037 23.388446 -0.335096 1.935272 0.083102 -0.018120 -152673.000000 0 1 0
-19.722637 6.283665 -7.822437 22.128204 -0.308434 1.932112 0.072547 -0.005281 -507685.000000 0 1 0
-19.410937 5.090365 -8.735737 21.886283 -0.256467 1.981377 0.055281 -0.013834 116065.000000 0 1 0
-20.574337 4.243665 -8.831337 22.788255 -0.203408 1.968757 0.085516 -0.012417 1086330.000000 0 1 0
-20.499237 3.269865 -9.890637 22.994248 -0.158179 2.015439 0.085584 -0.007495 205485.000000 0 1 0
-21.319837 1.954065 -9.546037 23.441004 -0.091399 1.990223 0.088890 -0.016903 540112.000000 0 1 0
-20.719737 1.064765 -8.570237 22.447499 -0.051344 1.962529 0.065917 -0.019181 756848.000000 0 1 0
-21.556337 -0.054935 -8.173737 23.054038 0.002548 1.933226 0.074261 -0.020715 183473.000000 0 1 0
-21.639637 -1.263135 -9.117737 23.516006 0.058305 1.968958 0.074619 -0.032229 -344485.000000 0 1 0
-20.545437 -2.121535 -8.968537 22.517783 0.102896 1.980445 0.056816 -0.019719 78651.000000 0 1 0
-20.592237 -3.422735 -9.523337 22.944483 0.164709 1.998805 0.052735 -0.016413 -365582.000000 0 1 0
-21.588637 -4.354435 -8.820937 23.724234 0.199030 1.951756 0.068271 -0.017727 -5191.920000 0 1 0
-21.220737 -4.424535 -7.436237 22.917107 0.205556 1.901263 0.052055 -0.012074 246131.000000 0 1 0
-22.194237 -4.966235 -6.573837 23.674099 0.220136 1.852175 0.069205 -0.015476 -743041.000000 0 1 0
-22.429437 -6.469735 -6.573337 24.251719 0.280826 1.845276 0.094471 -0.027076 -187725.000000 0 1 0
-21.238437 -7.153735 -6.280837 23.274365 0.324894 1.844045 0.072963 -0.031856 398828.000000 0 1 0
-21.433737 -8.495435 -6.531237 23.963192 0.377363 1.846842 0.075315 -0.029512 228222.000000 0 1 0
-20.454537 -9.471935 -5.758937 23.265231 0.433672 1.820931 0.079075 -0.026066 1383230.000000 0 1 0
-19.146037 -9.595935 -6.366837 22.342545 0.464605 1.859766 0.059677 -0.021092 1080770.000000 0 1 0
-18.517337 -10.740835 -5.861637 22.194956 0.525615 1.838065 0.074973 -0.009404 -168703.000000 0 1 0
-17.530437 -11.418835 -6.835137 22.009659 0.577339 1.886570 0.050570 -0.011717 -70468.300000 0 1 0
-16.314037 -10.728335 -7.039237 20.755622 0.581709 1.916808 0.049413 -0.036383 438106.000000 0 1 0
-16.264937 -10.189635 -8.367137 20.937665 0.559662 1.981900 0.033104 -0.037123 -813013.000000 0 1 0
-15.162337 -10.786335 -9.192137 20.754201 0.618329 2.029632 0.032053 -0.028265 -961494.000000 0 1 0
-15.355537 -12.107135 -9.838137 21.889819 0.667661 2.036934 0.044792 -0.022006 -605840.000000 0 1 0
-14.233437 -12.519835 -10.530237 21.684623 0.721433 2.077855 0.045062 -0.019420 -781950.000000 0 1 0
-14.432037 -13.904735 -11.210637 22.963095 0.766792 2.080825 0.041696 -0.011511 158349.000000 0 1 0
-15.349837 -13.777835 -12.279337 24.004757 0.731481 2.107770 0.057091 -0.005511 -46202.100000 0 1 0
-15.448137 -14.970235 -12.973937 25.121224 0.769688 2.113500 0.042551 0.000423 365486.000000 0 0 1
-16.223837 -14.900635 -14.356137 26.293354 0.742910 2.148377 0.049739 0.004978 260719.000000 0 0 1
-16.346837 -16.178035 -15.057237 27.489421 0.780208 2.150465 0.035845 0.012653 101917.000000 0 0 1
-16.667337 -15.956735 -16.386837 28.300988 0.763620 2.188322 0.033576 0.008761 -292598.000000 0 0 1
-16.991437 -17.180835 -17.249937 29.689229 0.790941 2.190774 0.032897 -0.002265 -452499.000000 0 0 1
-18.248837 -17.696235 -16.937537 30.545981 0.770026 2.158550 0.027874 0.000744 -1216260.000000 0 0 1
-19.058137 -17.875535 -18.037637 31.750649 0.753389 2.174995 0.019776 0.002610 -655479.000000 0 0 1
-20.556937 -17.777635 -17.726537 32.447836 0.713024 2.148747 0.015567 -0.008316 -110522.000000 0 0 1
-21.052637 -16.496635 -17.369637 31.891328 0.664654 2.146769 0.052807 -0.009610 145306.000000 0 0 1
-20.667437 -16.129935 -16.077337 30.753837 0.662707 2.120899 0.040613 -0.009890 -678320.000000 0 0 1
-21.047437 -14.663535 -15.715837 30.083241 0.608501 2.120473 0.078561 -0.020489 -353582.000000 0 0 1
-22.413837 -14.388535 -15.613437 30.873766 0.570694 2.101011 0.088479 -0.018318 -204761.000000 0 0 1
-22.654637 -13.047035 -15.258337 30.270027 0.522518 2.099106 0.103580 -0.020319 -880546.000000 0 0 1
-24.021537 -12.649135 -14.764237 30.903358 0.484681 2.068894 0.112988 -0.031235 -975778.000000 0 0 1
-24.273537 -13.024635 -13.444237 30.652785 0.492480 2.024834 0.111868 -0.024894 -872581.000000 0 0 1
-25.520697 -12.575035 -13.119837 31.329979 0.457822 2.002879 0.105762 -0.024871 -1350430.000000 0 0 1
-26.095527 -12.928035 -11.722537 31.393128 0.459970 1.953480 0.095384 -0.021916 367956.000000 0 0 1
-27.092207 -11.980835 -11.283937 31.699453 0.416369 1.934744 0.091357 -0.026550 739742.000000 0 0 1
-27.589107 -12.396735 -10.001037 31.856845 0.422300 1.890133 0.083675 -0.018295 -245250.000000 0 0 1
-28.517507 -11.436135 -9.293937 32.100010 0.381387 1.864533 0.079623 -0.015240 -379193.000000 0 0 1
-27.894857 -10.277535 -8.843037 31.015320 0.353006 1.859926 0.097380 -0.017123 -282789.000000 0 0 1
-28.807057 -9.606535 -8.055137 31.416831 0.321881 1.830088 0.102479 -0.015060 -532579.000000 0 0 1
-28.208697 -8.374635 -7.395337 30.340668 0.288593 1.817020 0.107979 -0.013827 109995.000000 0 0 1
-27.343237 -8.684935 -6.303737 29.373761 0.307548 1.787083 0.108259 -0.016404 208789.000000 0 0 1
-26.667807 -7.640435 -5.618537 28.303995 0.279030 1.770631 0.105807 -0.017579 116412.000000 0 0 1
-27.533267 -6.550135 -4.902237 28.723109 0.233557 1.742308 0.118080 -0.022587 -107329.000000 0 0 1
-28.370917 -6.976135 -3.800937 29.462222 0.241107 1.700167 0.122940 -0.022102 517586.000000 0 0 1
-27.787457 -7.250335 -2.559637 28.831612 0.255231 1.659692 0.117244 -0.023421 -579628.000000 0 0 1
-27.075807 -6.137935 -1.802737 27.821277 0.222927 1.635639 0.119674 -0.024678 81369.800000 0 0 1
-28.005007 -5.160735 -1.348137 28.508439 0.182235 1.618103 0.129098 -0.029637 572294.000000 0 0 1
-27.345607 -4.024435 -0.797637 27.651664 0.146120 1.599646 0.132873 -0.031853 -192426.000000 0 0 1
-28.332127 -2.989635 -0.261037 28.490621 0.105132 1.579959 0.140324 -0.034399 -178860.000000 0 0 1
-29.227707 -3.418935 0.709863 29.435555 0.116447 1.546678 0.134120 -0.033604 42299.900000 0 0 1
-28.627227 -3.362635 1.992763 28.892846 0.116927 1.501771 0.128357 -0.032065 552235.000000 0 0 1
-29.649987 -3.687835 3.152363 30.044288 0.123743 1.465679 0.112149 -0.029483 606246.000000 0 0 1
-30.063107 -5.034135 3.331863 30.663239 0.165913 1.461922 0.116258 -0.030532 -307323.000000 0 0 1
-31.293917 -5.113835 3.978763 31.957645 0.161981 1.445971 0.105058 -0.031045 -591097.000000 0 0 1
-31.881507 -6.513235 3.874663 32.769891 0.201522 1.452281 0.097785 -0.029427 -578998.000000 0 0 1
-31.195467 -7.493435 4.554763 32.404546 0.235743 1.429770 0.092965 -0.025714 196145.000000 0 0 1
-31.895477 -8.704435 4.281663 33.337986 0.266417 1.442009 0.098445 -0.024673 495850.000000 0 0 1
-31.040937 -9.971535 4.647463 32.932813 0.310826 1.429204 0.083048 -0.020470 281977.000000 0 0 1
-31.044337 -10.373635 5.998563 33.276807 0.322490 1.389543 0.081580 -0.022361 567935.000000 0 0 1
-29.836927 -11.089035 6.261863 32.441021 0.355835 1.376554 0.064435 -0.018234 40301.000000 0 0 1
-29.785297 -11.485035 7.694163 32.837023 0.368026 1.334284 0.056605 -0.020210 -228152.000000 0 0 1
-29.479447 -10.421935 8.519763 32.407420 0.339818 1.304774 0.070342 -0.016246 346564.000000 0 0 1
-29.533327 -10.653135 9.934163 32.930142 0.346189 1.264349 0.081348 -0.018832 -244111.000000 0 0 1
-29.704957 -9.322335 10.662863 32.908768 0.304097 1.240828 0.084867 -0.023146 -61950.900000 0 0 1
-28.508617 -8.572635 10.758063 31.653866 0.292102 1.224022 0.082338 -0.018457 356199.000000 0 0 1
-28.651597 -7.468035 11.644163 31.816224 0.254977 1.196109 0.102374 -0.024506 -190824.000000 0 0 1
-27.646457 -6.339735 11.397563 30.568338 0.225417 1.188712 0.101269 -0.021497 -268306.000000 0 0 1
-27.848537 -5.668835 10.162263 30.181920 0.200816 1.227386 0.102682 -0.026879 360800.000000 0 0 1
-27.303547 -4.357435 10.211263 29.474409 0.158258 1.217018 0.098627 -0.030816 -212427.000000 0 0 1
-27.399687 -3.672635 8.861063 29.030149 0.133245 1.260609 0.113631 -0.032034 320078.000000 0 0 1
-26.414167 -4.195535 7.966563 27.906574 0.157521 1.281297 0.092930 -0.025972 536959.000000 0 0 1
-26.747307 -3.850735 6.657063 27.830973 0.142985 1.329258 0.102441 -0.036247 511042.000000 0 0 1
-25.656527 -4.373835 5.622263 26.627010 0.168853 1.358046 0.092661 -0.029682 -100867.000000 0 0 1
-24.433437 -3.692135 5.755563 25.372253 0.149975 1.341960 0.102313 -0.041451 -402101.000000 0 0 1
-23.687537 -4.172735 4.693763 24.505969 0.174368 1.378070 0.102260 -0.027136 -1145670.000000 0 1 0
-22.255937 -3.667335 4.641163 23.028601 0.163312 1.367867 0.090348 -0.022611 -695597.000000 0 1 0
-22.067537 -2.218035 4.506663 22.631966 0.100175 1.370328 0.073867 -0.024286 -648007.000000 0 1 0
-20.800237 -1.723235 4.707263 21.395741 0.082658 1.348972 0.053363 -0.023044 -1536870.000000 0 1 0
-20.811437 -0.178535 5.010563 21.406857 0.008578 1.334541 0.060939 -0.026448 -662241.000000 0 1 0
-20.999037 0.720165 3.929763 21.375716 -0.034282 1.385902 0.071085 -0.030322 -207745.000000 0 1 0
-22.328137 0.868665 3.588163 22.631288 -0.038885 1.411576 0.080255 -0.038974 -1218530.000000 0 1 0
-22.428137 1.896065 2.409563 22.636749 -0.084339 1.464150 0.102888 -0.021339 -93673.200000 0 1 0
-21.951537 3.202265 2.770263 22.356181 -0.144857 1.446562 0.092993 -0.026720 376742.000000 0 1 0
-22.249937 4.133565 1.771863 22.699902 -0.183685 1.492661 0.117678 -0.018084 635105.000000 0 1 0
-21.107137 4.245765 0.665463 21.540209 -0.198504 1.539897 0.103659 -0.006557 377459.000000 0 1 0
-21.374437 4.886565 -0.577337 21.933500 -0.224755 1.597122 0.123891 0.007915 433519.000000 0 1 0
-22.174437 4.207265 -1.541637 22.622630 -0.187506 1.638995 0.137755 -0.011255 -177010.000000 0 1 0
-21.493637 3.056365 -2.263237 21.827507 -0.141252 1.674670 0.113742 -0.003935 -341053.000000 0 1 0
-21.392137 1.944565 -1.364637 21.523640 -0.090652 1.634241 0.074760 0.000296 578696.000000 0 1 0
-20.568637 0.946365 -1.936437 20.681253 -0.045978 1.664566 0.041681 0.002990 -85185.700000 0 1 0
-19.774737 0.107565 -0.910037 19.795958 -0.005439 1.616783 0.039613 0.001496 138321.000000 0 1 0
-20.661337 -0.698435 -0.120937 20.673492 0.033791 1.576646 0.055809 -0.004451 1025570.000000 0 1 0
-19.948637 -1.418735 0.860763 20.017538 0.071000 1.527783 0.048907 -0.010020 -19524.300000 0 1 0
-19.039237 -2.564635 0.312963 19.213741 0.133897 1.554507 0.013116 -0.008667 142063.000000 0 1 0
-18.202437 -3.234435 1.233163 18.528653 0.175857 1.504193 0.008613 -0.007921 477244.000000 0 1 0
-17.752037 -4.546635 0.807963 18.342833 0.250729 1.526734 0.016983 -0.003854 -260616.000000 0 1 0
-18.859137 -5.604735 0.636363 19.684640 0.288876 1.538463 0.027749 -0.002161 -185417.000000 0 1 0
-19.410637 -5.951235 1.898463 20.391032 0.297498 1.477558 0.047903 -0.006796 216715.000000 0 1 0
-20.425237 -6.894835 1.682163 21.623106 0.325554 1.492923 0.052703 -0.010332 -428841.000000 0 1 0
-21.136837 -7.296935 3.011163 22.562762 0.332413 1.436940 0.060645 -0.009910 47843.900000 0 1 0
-20.217537 -7.872535 3.922763 22.047986 0.371328 1.391925 0.047048 -0.007314 644601.000000 0 1 0
-20.897237 -8.526135 4.960463 23.108347 0.387386 1.354452 0.046918 -0.006473 -99619.200000 0 1 0
-19.988737 -9.434835 5.810963 22.854606 0.441004 1.313716 0.041765 -0.004699 -67659.300000 0 1 0
-19.482637 -10.647535 5.191863 22.801285 0.500163 1.341081 0.046924 0.003969 584807.000000 0 1 0
-18.697037 -11.378435 6.107263 22.723262 0.546696 1.298684 0.058925 0.001237 -254287.000000 0 1 0
-18.166037 -12.707035 5.639863 22.875351 0.610386 1.321680 0.049311 0.005678 100959.000000 0 1 0
-19.153037 -13.710335 5.448263 24.176345 0.621272 1.343489 0.068099 0.003920 165134.000000 0 1 0
-18.480837 -14.952335 5.288663 24.353308 0.680248 1.351888 0.058141 0.003822 -363038.000000 0 1 0
-19.332637 -16.234535 5.114963 25.757985 0.698512 1.370890 0.069381 0.004798 -448845.000000 0 0 1
-18.607137 -17.437535 4.922463 25.971596 0.752961 1.380110 0.067113 -0.000206 -245589.000000 0 0 1
-19.204037 -18.621535 5.411563 27.291786 0.770000 1.371188 0.068113 -0.001042 -418265.000000 0 0 1
-18.315037 -19.853935 5.399263 27.545804 0.825694 1.373509 0.071376 -0.011478 -678892.000000 0 0 1
-18.357837 -20.470035 4.102263 27.800379 0.839744 1.422694 0.072882 -0.010877 661053.000000 0 0 1
-17.409637 -21.535935 3.905463 27.966848 0.890955 1.430692 0.059549 -0.015728 508850.000000 0 0 1
-15.902337 -21.226335 3.819263 26.796051 0.927820 1.427778 0.059758 -0.014619 -161263.000000 0 0 1
-15.118737 -22.359635 4.027663 27.290136 0.976249 1.422668 0.049448 -0.014593 267152.000000 0 0 1
-13.707337 -22.128735 3.993563 26.334778 1.016208 1.418563 0.050599 -0.010193 1007230.000000 0 0 1
-12.839637 -23.441435 4.230463 27.060191 1.069696 1.413817 0.059168 -0.009406 276294.000000 0 0 1
-12.815837 -24.334135 3.093063 27.676033 1.086048 1.458803 0.059649 -0.009443 -62144.200000 0 0 1
-12.259037 -25.539625 3.495663 28.544283 1.123276 1.448024 0.067472 -0.018029 -46314.500000 0 0 1
18.973763 19.252565 -24.710737 36.623565 0.792692 2.311385 0.063281 -0.005782 -552164.000000 0 0 1
18.218063 19.909265 -25.633557 37.220370 0.829726 2.330487 0.043039 -0.014931 -409786.000000 0 0 1
18.388863 19.411765 -26.893287 37.923816 0.812452 2.359074 0.057850 -0.014363 1100670.000000 0 0 1
17.121063 19.705665 -27.848797 38.170664 0.855466 2.388513 0.040815 -0.017714 1159250.000000 0 0 1
17.142363 20.954265 -28.417257 39.248979 0.885125 2.380417 0.044916 -0.005383 12467.800000 0 0 1
16.095363 21.094865 -29.333427 39.553812 0.919028 2.406261 0.031676 -0.004301 -665779.000000 0 0 1
15.854963 22.554465 -29.789227 40.589184 0.958084 2.394872 0.053508 -0.013514 44349.500000 0 0 1
15.092663 23.295565 -28.819157 40.012694 0.995915 2.374959 0.053820 -0.016165 507938.000000 0 0 1
15.065463 24.648565 -29.162807 41.048621 1.022175 2.360927 0.061002 -0.021563 -286226.000000 0 0 1
14.254963 25.450265 -28.157957 40.543687 1.060224 2.338534 0.062616 -0.020340 -209646.000000 0 0 1
12.887763 25.108365 -28.134497 39.850651 1.096577 2.354628 0.061579 -0.029869 -64038.600000 0 0 1
12.234863 25.571265 -26.947877 39.112269 1.124528 2.330888 0.059293 -0.022365 -161771.000000 0 0 1
10.738863 25.168365 -26.839787 38.329414 1.167503 2.346530 0.080004 -0.037710 700727.000000 0 0 1
10.014763 25.984765 -25.887027 38.021595 1.202931 2.319720 0.070798 -0.029829 211407.000000 0 0 1
9.740963 27.323765 -26.330167 39.175914 1.228341 2.307839 0.085466 -0.044870 -770741.000000 0 0 1
9.173863 28.218765 -25.261037 38.968943 1.256476 2.276061 0.080778 -0.038888 -461092.000000 0 0 1
10.098663 28.514165 -24.261337 38.776966 1.230418 2.246778 0.070870 -0.029957 -191008.000000 0 0 1
9.533063 29.385065 -23.302537 38.695860 1.257090 2.217047 0.068004 -0.028972 -233411.000000 0 0 1
10.453063 29.709565 -22.115837 38.484218 1.232482 2.183001 0.045605 -0.019780 170797.000000 0 0 1
11.559363 30.510665 -22.510137 39.638691 1.208643 2.174728 0.045136 -0.024565 323234.000000 0 0 1
12.346163 31.008665 -21.445937 39.672324 1.191884 2.141919 0.021923 -0.010373 890970.000000 0 0 1
13.601063 31.850865 -21.900437 40.976770 1.167213 2.134665 0.027592 -0.003972 -187785.000000 0 0 1
14.713463 31.185465 -22.299837 41.064607 1.129958 2.144853 0.032751 -0.008293 -1149460.000000 0 0 1
15.725763 32.106265 -22.643037 42.318070 1.115339 2.135384 0.029609 -0.007744 -213763.000000 0 0 1
17.005263 31.530465 -23.249837 42.707191 1.076183 2.146471 0.016635 -0.000688 -355560.000000 0 0 1
17.777263 30.875765 -22.287537 42.024734 1.048385 2.129802 0.014398 0.008543 -318752.000000 0 0 1
18.988263 30.487665 -22.914837 42.604479 1.013768 2.138682 0.017643 0.010347 326168.000000 0 0 1
20.008163 29.779365 -21.957837 42.062855 0.979193 2.120019 0.017347 0.011825 197091.000000 0 0 1
20.665063 30.566565 -21.011437 42.459866 0.976314 2.088463 0.018902 0.011519 -91999.500000 0 0 1
21.662763 29.810765 -20.378237 42.109733 0.942391 2.075938 0.035423 0.016621 -319183.000000 0 0 1
22.334463 30.482365 -19.206937 42.389967 0.938459 2.041037 0.038969 -0.006739 -609113.000000 0 0 1
23.370663 31.337665 -19.616937 43.738557 0.930008 2.035888 0.056982 -0.006727 -35766.800000 0 0 1
23.915063 31.955765 -18.444737 43.969416 0.928333 2.003680 0.058890 -0.011073 75882.900000 0 0 1
25.214763 32.774965 -18.731037 45.396414 0.915038 1.996114 0.071692 -0.009123 220396.000000 0 0 1
26.307363 31.922265 -18.970137 45.507961 0.881528 2.000777 0.076288 -0.010077 -992647.000000 0 0 1
27.476263 32.671965 -18.820537 46.654206 0.871566 1.986031 0.070543 -0.014682 -178560.000000 0 0 1
28.751563 31.955865 -19.340237 47.136764 0.838132 1.993580 0.087350 -0.017648 219387.000000 0 0 1
29.154963 30.888065 -18.452537 46.309616 0.814254 1.980634 0.072957 -0.006221 699419.000000 0 0 1
30.302463 30.144765 -18.928937 46.746666 0.782789 1.987694 0.052876 -0.002050 682100.000000 0 0 1
30.800663 29.075465 -17.953837 46.004389 0.756593 1.971714 0.037770 -0.002504 -51267.100000 0 0 1
31.362363 29.536365 -16.749537 46.222740 0.755423 1.941601 0.026453 0.007231 -66322.000000 0 0 1
31.377063 28.520965 -15.765137 45.238314 0.737752 1.926757 0.025628 0.002407 -239020.000000 0 0 1
31.774763 28.986665 -14.347337 45.339921 0.739544 1.892770 0.028585 0.000682 527193.000000 0 0 1
33.120463 29.424565 -14.194437 46.521524 0.726375 1.880856 0.028771 0.004506 210034.000000 0 0 1
33.302663 30.795965 -14.510537 47.623676 0.746311 1.880411 0.026811 0.005312 96770.300000 0 0 1
34.783363 31.232565 -14.581837 48.969230 0.731663 1.873158 0.041585 -0.002163 660739.000000 0 0 1
35.537163 31.294665 -13.353637 49.199244 0.722003 1.845664 0.046545 -0.005196 -494667.000000 0 0 1
-36.057417 31.574765 -13.600737 49.820509 -0.719215 1.847301 0.049309 -0.011710 -744564.000000 0 0 1
-35.303517 31.856965 -12.319037 49.121922 -0.734125 1.824287 0.052078 -0.007837 -376439.000000 0 0 1
-35.716317 33.101965 -11.761737 50.097244 -0.747427 1.807787 0.057545 -0.011627 387893.000000 0 0 1
-34.882217 33.548265 -10.684837 49.562293 -0.765907 1.788086 0.045713 -0.007643 126034.000000 0 0 1
-35.372717 -33.460739 -10.019237 49.711520 0.757628 1.773734 0.041470 0.000315 874154.000000 0 0 1
-34.400817 -32.737839 -9.174837 48.366930 0.760634 1.761645 0.035421 -0.003625 508080.000000 0 0 1
-34.488317 -33.277839 -7.826037 48.560328 0.767537 1.732663 0.031342 -0.001930 96102.400000 0 0 1
-34.228017 -32.196739 -6.759837 47.475073 0.754828 1.713669 0.017957 -0.020054 268921.000000 0 0 1
-35.286417 -31.266639 -6.566037 47.600911 0.725072 1.709177 0.032553 -0.003089 217823.000000 0 0 1
-34.916217 -30.333939 -5.579737 46.587804 0.715287 1.690853 0.051956 -0.001789 99226.500000 0 0 1
-36.236317 -29.833039 -5.002737 47.202842 0.688782 1.676980 0.046828 -0.003102 -104268.000000 0 0 1
36.076163 -30.737939 -4.117137 47.573745 -0.705671 1.657447 0.031629 -0.000200 362750.000000 0 0 1
34.741063 -30.500139 -3.683237 46.376354 -0.720486 1.650301 0.030147 0.001065 314282.000000 0 0 1
34.530863 -29.444539 -2.577037 45.453300 -0.706061 1.627523 0.021287 0.000315 -541202.000000 0 0 1
34.894263 -28.096139 -2.885137 44.892390 -0.677891 1.635108 0.048062 -0.002333 380798.000000 0 0 1
34.100663 -27.223139 -2.088937 43.684301 -0.673714 1.618634 0.049866 -0.000182 13217.500000 0 0 1
34.385863 -25.744239 -2.328937 43.018338 -0.642660 1.624961 0.087674 -0.021555 -270361.000000 0 0 1
33.987463 -25.386339 -3.649637 42.578559 -0.641535 1.656617 0.077019 -0.021906 420184.000000 0 0 1
34.261363 -24.016539 -3.808137 42.013534 -0.611384 1.661562 0.068348 -0.027033 -23886.400000 0 0 1
33.904563 -23.583539 -5.257237 41.633415 -0.607757 1.697409 0.073740 -0.024405 -618330.000000 0 0 1
34.933663 -23.810039 -6.162437 42.722996 -0.598255 1.715543 0.075931 -0.026111 -279795.000000 0 0 1
34.618363 -23.387139 -7.450937 42.437080 -0.594141 1.747287 0.066435 -0.028056 -297130.000000 0 0 1
35.865563 -23.207339 -8.351737 43.527815 -0.574309 1.763865 0.069167 -0.026881 72015.800000 0 0 1
-36.451617 -24.394939 -8.885837 44.752559 0.589783 1.770680 0.060737 -0.013640 135055.000000 0 0 1
-35.413517 -24.000339 -9.779737 43.883672 0.595614 1.795539 0.072354 -0.012900 123661.000000 0 0 1
-34.709217 -25.235339 -10.379337 44.150682 0.628651 1.808106 0.068546 -0.016772 -201795.000000 0 0 1
-33.987817 -26.012739 -9.450837 43.830955 0.653256 1.788123 0.069597 -0.012613 -253620.000000 0 0 1
-34.709917 -27.143139 -9.082837 44.989179 0.663668 1.774083 0.059913 -0.013965 -15884.600000 0 0 1
-33.815517 -28.345839 -8.672437 44.968733 0.697633 1.764867 0.054857 -0.006559 -188472.000000 0 0 1
-33.173017 -29.029539 -9.707637 45.137583 0.718884 1.787558 0.044878 -0.010752 -148081.000000 0 0 1
-32.525317 -30.161239 -9.181637 45.297892 0.747703 1.774905 0.029780 -0.008639 -309049.000000 0 0 1
-32.001917 -31.202439 -10.176037 45.839575 0.772750 1.794654 0.028407 -0.006676 -362841.000000 0 0 1
-30.861017 -30.862839 -10.935937 44.994577 0.785428 1.816305 0.013936 0.009207 -52233.500000 0 0 1
-30.766617 -31.580539 -12.185937 45.742893 0.798452 1.840453 0.001595 0.005252 -230678.000000 0 0 1
-31.040917 -30.630439 -13.416437 45.626342 0.778742 1.869258 -0.001694 0.008087 -121346.000000 0 0 1
-30.029917 -29.669739 -13.641337 44.364123 0.779365 1.883346 -0.000202 0.012722 -45732.500000 0 0 1
-30.400417 -28.891839 -14.761137 44.461386 0.759961 1.909218 -0.006888 0.014648 -268848.000000 0 0 1
-29.318517 -27.914139 -15.179637 43.234199 0.760865 1.929545 0.004664 0.007352 210026.000000 0 0 1
-28.093617 -28.529239 -15.576437 42.962707 0.793091 1.941807 0.012104 0.002919 60509.400000 0 0 1
-27.197917 -27.607239 -16.147837 41.983794 0.792867 1.965593 0.019852 0.012833 -23232.200000 0 0 1
-25.842617 -28.242539 -16.528437 41.697375 0.829742 1.978378 0.041120 0.004493 -215805.000000 0 0 1
-25.879517 -29.027639 -17.684337 42.721060 0.842671 1.997584 0.033447 0.003378 -220821.000000 0 0 1
-26.015617 -28.421939 -18.961837 42.943803 0.829573 2.028122 0.022880 0.008152 57294.600000 0 0 1
-24.839117 -27.612939 -19.591237 41.991341 0.838232 2.056187 0.033926 -0.001079 195835.000000 0 0 1
-24.481517 -26.414239 -18.961737 40.701403 0.823354 2.055419 0.034135 0.001188 351056.000000 0 0 1
-23.078917 -26.207039 -19.143637 39.823663 0.848782 2.072261 0.035791 -0.008790 401978.000000 0 0 1
-22.569517 -25.094639 -18.174537 38.333247 0.838326 2.064760 0.041407 -0.004702 -250031.000000 0 0 1
-22.727017 -25.531839 -16.872237 38.119083 0.843453 2.029314 0.051960 -0.006360 160216.000000 0 0 1
-22.345617 -24.502839 -15.969337 36.806731 0.831412 2.019580 0.055865 -0.006693 -63890.600000 0 0 1
-22.707917 -24.731339 -14.488437 36.567792 0.828025 1.978179 0.041900 -0.001610 554028.000000 0 0 1
-24.114817 -24.524739 -14.302537 37.249829 0.793826 1.964880 0.019093 0.011937 698746.000000 0 0 1
-24.470717 -24.176339 -12.947737 36.755343 0.779347 1.930790 0.022692 0.012888 566010.000000 0 0 1
-25.987017 -23.979639 -12.643237 37.552624 0.745245 1.914186 0.023546 0.023468 653284.000000 0 0 1
-26.753217 -25.190239 -12.715837 38.884126 0.755317 1.903943 0.025527 0.015328 386485.000000 0 0 1
-28.003617 -25.293539 -12.058437 39.615295 0.734593 1.880093 0.021866 0.018759 -32127.000000 0 0 1
-29.217517 -24.665539 -12.771337 40.313263 0.701119 1.893153 0.029902 0.011891 -891481.000000 0 0 1
-29.500217 -23.295839 -12.416537 39.586984 0.668419 1.889833 0.040172 0.012837 3925.490000 0 0 1
-29.937017 -23.046139 -11.077337 39.370762 0.656066 1.856007 0.048522 0.007144 -468412.000000 0 0 1
-31.398217 -23.508739 -10.815737 40.687701 0.642687 1.839854 0.043583 0.004733 -36931.800000 0 0 1
-32.452217 -22.703439 -11.313237 41.189584 0.610455 1.849035 0.068571 -0.004588 212891.000000 0 0 1
-32.655817 -22.835039 -12.706437 41.824573 0.610232 1.879478 0.062733 -0.002882 -1452730.000000 0 0 1
-34.014517 -22.422639 -13.248237 42.840143 0.582821 1.885199 0.042652 -0.016599 -408160.000000 0 0 1
-35.011717 -23.361539 -12.891337 44.020091 0.588406 1.868004 0.052508 -0.008712 -322315.000000 0 0 1
-36.295117 -22.921039 -13.259137 44.927878 0.563273 1.870378 0.077317 -0.014684 -116912.000000 0 0 1
35.580663 -23.997039 -12.862437 44.802720 -0.593365 1.861984 0.073065 -0.001847 -250099.000000 0 0 1
35.532763 -25.164039 -13.631637 45.624858 -0.616203 1.874207 0.055578 0.004535 102930.000000 0 0 1
34.621663 -26.169239 -13.207237 45.364300 -0.647243 1.866212 0.058762 -0.004505 253387.000000 0 0 1
34.442563 -27.388839 -14.162637 46.227902 -0.671809 1.882169 0.048310 -0.007123 401679.000000 0 0 1
33.745963 -27.151839 -15.398337 45.968698 -0.677537 1.912374 0.046820 -0.014043 157216.000000 0 0 1
33.647663 -28.356139 -16.100637 46.855804 -0.700263 1.921566 0.036522 0.004700 73380.800000 0 0 1
32.858463 -28.299539 -17.467937 46.751164 -0.710992 1.953723 0.040745 -0.001842 -191276.000000 0 0 1
31.493863 -28.466139 -17.218137 45.811011 -0.734945 1.956112 0.059958 0.001596 -674314.000000 0 0 1
30.715363 -28.366839 -18.382937 45.673225 -0.745669 1.985030 0.056201 -0.003342 791536.000000 0 0 1
29.179863 -28.240739 -18.113137 44.464474 -0.769044 1.990360 0.055591 -0.004614 650812.000000 0 0 1
28.708763 -27.216839 -17.262437 43.161802 -0.758728 1.982255 0.052629 -0.008666 -1719.360000 0 0 1
27.304863 -27.215639 -17.093437 42.171461 -0.783762 1.988138 0.073852 -0.009991 288625.000000 0 0 1
26.880063 -26.307639 -15.863537 40.820111 -0.774636 1.969930 0.062916 -0.013242 79606.700000 0 0 1
26.822463 -24.931739 -16.191737 40.040086 -0.748882 1.987106 0.060372 -0.018672 -92849.800000 0 0 1
26.530263 -24.161539 -15.051637 38.912551 -0.738704 1.967963 0.063745 -0.019566 -79829.000000 0 0 1
26.301463 -22.670539 -15.308337 37.948195 -0.711391 1.986027 0.058693 -0.023272 33575.600000 0 0 1
25.058763 -22.367739 -15.911137 37.167481 -0.728718 2.013178 0.070932 -0.031760 65373.000000 0 0 1
24.904163 -20.972239 -16.141237 36.339946 -0.699900 2.031048 0.056465 -0.028551 -371852.000000 0 0 1
23.418963 -20.613239 -16.137237 35.124975 -0.721764 2.048142 0.067403 -0.030401 -376273.000000 0 0 1
22.927563 -20.577639 -14.791837 34.174710 -0.731436 2.018426 0.074834 -0.033605 136687.000000 0 0 1
21.545763 -20.288539 -14.737737 33.061240 -0.755355 2.032832 0.062801 -0.032299 101025.000000 0 0 1
21.182063 -18.860539 -14.193137 31.715057 -0.727487 2.034787 0.059161 -0.024618 -81893.200000 0 0 1
20.939963 -18.890739 -12.817637 30.977958 -0.733995 1.997384 0.050789 -0.033146 28150.400000 0 0 1
20.202463 -17.814639 -12.298837 29.610172 -0.722671 1.999133 0.046842 -0.035298 -298755.000000 0 0 1
19.342963 -18.160439 -11.069137 28.748523 -0.753878 1.966040 0.054299 -0.026712 -100925.000000 0 0 1
20.076763 -18.600139 -9.913537 29.108758 -0.747238 1.918318 0.058913 -0.040090 -83138.500000 0 0 1
19.252863 -18.697939 -8.779537 28.237669 -0.770777 1.886953 0.054938 -0.041506 -466418.000000 0 0 1
19.797463 -19.326039 -7.495337 28.663835 -0.773349 1.835363 0.055688 -0.039849 -190545.000000 0 0 1
20.681463 -18.476939 -6.781337 28.550074 -0.729160 1.810613 0.048719 -0.038848 170382.000000 0 0 1
21.413763 -19.148339 -5.757037 29.297638 -0.729605 1.768585 0.045481 -0.025086 -374402.000000 0 0 1
22.676563 -18.355639 -5.434837 29.676480 -0.680479 1.754972 0.056184 -0.028336 -566737.000000 0 0 1
23.580863 -18.311339 -6.528137 30.561067 -0.660268 1.786065 0.044762 -0.045312 -69069.600000 0 0 1
24.587863 -17.397739 -6.225637 30.757160 -0.615791 1.774617 0.067044 -0.043342 -636103.000000 0 0 1
25.859863 -17.374139 -7.105137 31.954283 -0.591588 1.795024 0.068932 -0.046473 29153.400000 0 0 1
26.680363 -18.508639 -7.089337 33.236579 -0.606497 1.785747 0.084275 -0.050580 178799.000000 0 0 1
26.288363 -19.539739 -7.945537 33.704762 -0.639189 1.808776 0.081496 -0.056678 -473795.000000 0 0 1
27.353263 -20.660739 -7.862837 35.169466 -0.646904 1.796272 0.080969 -0.059258 183527.000000 0 0 1
28.570563 -20.315739 -8.480337 36.068302 -0.618119 1.808137 0.085426 -0.047425 6005.920000 0 0 1
29.515563 -21.373239 -8.474037 37.413809 -0.626741 1.799274 0.084047 -0.045418 -4749.140000 0 0 1
-30.633937 30.342965 4.025263 43.305154 -0.780626 1.477711 0.054722 -0.010203 67110.700000 0 0 1
-29.646857 31.076165 3.352163 43.080172 -0.808932 1.492905 0.050509 -0.003926 -1032070.000000 0 0 1
-28.436297 31.087765 4.025163 42.323446 -0.829913 1.475548 0.050083 -0.011801 -710180.000000 0 0 1
-27.496367 32.127865 3.452863 42.428436 -0.862921 1.489325 0.058772 -0.018396 -755882.000000 0 0 1
-26.919507 31.814865 2.185563 41.732747 -0.868553 1.518402 0.065584 -0.020386 36204.100000 0 0 1
-26.431877 32.872165 1.382263 42.203484 -0.893572 1.538038 0.077849 -0.020217 -112943.000000 0 0 1
-25.206207 33.603665 1.937663 42.051323 -0.927229 1.524701 0.090176 -0.016358 -505725.000000 0 0 1
-23.963537 32.965365 1.701763 40.790470 -0.942224 1.529065 0.076885 -0.016490 323354.000000 0 0 1
-22.936537 33.694865 2.402163 40.831349 -0.973132 1.511931 0.065392 -0.016143 907315.000000 0 0 1
-21.464537 33.269065 2.117063 39.648947 -0.997817 1.517376 0.057652 -0.018574 566483.000000 0 0 1
-20.999237 33.843265 0.889763 39.838753 -1.015450 1.548460 0.070536 -0.014418 443467.000000 0 0 1
-19.608337 33.583365 0.688763 38.894777 -1.042321 1.553087 0.055309 -0.014224 292169.000000 0 0 1
-19.063737 -33.996939 -0.559937 38.981168 1.059738 1.585161 0.058164 -0.009097 189696.000000 0 0 1
-18.638137 -32.611539 -0.562337 37.566060 1.051582 1.585766 0.063873 -0.009936 718393.000000 0 0 1
-17.549437 -32.197139 0.270263 36.670309 1.071752 1.563426 0.066376 -0.009654 268571.000000 0 0 1
-17.483437 -30.615839 0.320363 35.257663 1.051929 1.561710 0.070876 -0.014246 -172773.000000 0 0 1
-16.746137 -29.980539 -0.707637 34.347730 1.061400 1.591400 0.072743 -0.011928 -45310.300000 0 0 1
-16.857137 -28.561039 -0.602237 33.170148 1.037603 1.588953 0.060119 -0.010775 -225474.000000 0 0 1
-15.923937 -27.824039 -1.572737 32.097078 1.050987 1.619815 0.055867 -0.010520 -224135.000000 0 0 1
-16.297137 -27.929839 -2.909237 32.467465 1.042596 1.660521 0.059578 -0.017171 -246907.000000 0 0 1
-15.468237 -27.133239 -3.719837 31.453398 1.052664 1.689339 0.045871 -0.008471 -189129.000000 0 0 1
-15.826337 -27.209039 -5.210537 31.905399 1.043973 1.734843 0.062900 -0.017737 965868.000000 0 0 1
-17.132537 -26.637539 -5.486937 32.143254 0.999236 1.742339 0.062137 -0.012547 632946.000000 0 0 1
-17.400937 -26.836239 -6.897137 32.719212 0.995538 1.783187 0.077102 -0.013077 582432.000000 0 0 1
-18.193637 -25.585139 -7.431637 32.262006 0.952658 1.803236 0.045950 -0.008114 752661.000000 0 0 1
-17.372737 -24.433739 -7.123337 30.814956 0.952716 1.804071 0.045882 -0.004169 338024.000000 0 0 1
-18.034437 -23.230439 -7.301037 30.301805 0.910657 1.814135 0.044986 -0.001668 276545.000000 0 0 1
-17.082837 -22.020839 -6.914637 28.715029 0.911013 1.813988 0.045322 -0.004215 -136533.000000 0 0 1
-16.061237 -21.915139 -7.805237 28.269390 0.938340 1.850532 0.056837 -0.007125 -1169930.000000 0 0 1
-14.972737 -21.144439 -7.328137 26.925300 0.954643 1.846439 0.081171 -0.027501 692106.000000 0 0 1
-13.745137 -21.047139 -8.262537 26.460922 0.992270 1.888361 0.068993 -0.023094 338301.000000 0 0 1
-14.101537 -20.252639 -9.375637 26.399343 0.962570 1.933867 0.076761 -0.016460 -91529.100000 0 0 1
-13.082237 -20.246839 -10.356637 26.236222 0.997141 1.976587 0.064979 -0.007990 279904.000000 0 0 1
-13.414137 -19.278139 -11.527337 26.162286 0.962880 2.027073 0.065485 -0.006559 -21321.400000 0 0 1
-14.591937 -19.647139 -12.210737 27.350262 0.931983 2.033599 0.063291 0.001199 -285877.000000 0 0 1
-14.805737 -18.813039 -13.347937 27.409993 0.904037 2.079417 0.055880 -0.000432 68298.400000 0 0 1
-15.973637 -19.287239 -14.238037 28.807575 0.879097 2.087764 0.056252 0.000075 1460060.000000 0 0 1
-17.264037 -19.040239 -13.590737 29.073800 0.834285 2.057208 0.065789 -0.001895 1311180.000000 0 0 1
-18.318237 -19.544839 -14.403537 30.414149 0.817783 2.064148 0.040293 0.009976 922535.000000 0 0 1
-19.786137 -19.391439 -13.890037 30.991164 0.775324 2.035540 0.033808 0.012925 128386.000000 0 0 1
-20.695537 -20.171939 -14.527237 32.345835 0.772587 2.036579 0.042613 -0.000998 -855265.000000 0 0 1
-22.018637 -19.728839 -14.283637 32.833973 0.730604 2.020864 0.045916 0.000562 170885.000000 0 0 1
-22.982537 -20.620939 -15.127237 34.383913 0.731290 2.026340 0.048563 -0.006997 -242350.000000 0 0 1
-23.162237 -20.095939 -16.431337 34.789723 0.714633 2.062700 0.048707 -0.017659 311472.000000 0 0 1
-23.832037 -20.989939 -17.322637 36.174816 0.722074 2.070151 0.060947 -0.021936 -70497.400000 0 0 1
-24.212637 -20.367039 -18.643337 36.723863 0.699348 2.103266 0.059419 -0.022812 579189.000000 0 0 1
-23.048137 -19.932539 -19.346437 36.094423 0.713036 2.136482 0.031276 -0.022962 761125.000000 0 0 1
-23.507437 -19.504839 -20.592037 36.838436 0.692608 2.163954 0.049375 -0.028156 -60161.900000 0 0 1
-22.417837 -18.746839 -21.364437 36.200036 0.696455 2.202075 0.027854 -0.022954 144705.000000 0 0 1
-21.304937 -19.535839 -21.748337 36.173741 0.742108 2.215822 0.010305 -0.012959 302912.000000 0 0 1
-20.353137 -18.715239 -22.459737 35.622327 0.743499 2.252988 0.008749 -0.009446 1372660.000000 0 0 1
-19.018437 -19.519839 -22.777637 35.518246 0.798408 2.266980 0.009185 -0.004694 844951.000000 0 0 1
-19.233537 -20.634539 -23.659637 36.817001 0.820525 2.268720 -0.003316 -0.002946 602065.000000 0 0 1
-17.927137 -21.226439 -23.766137 36.561910 0.869465 2.278413 0.004462 -0.002173 858816.000000 0 0 1
-17.706937 -22.621639 -24.405437 37.694821 0.906667 2.275027 0.013346 -0.000923 -293015.000000 0 0 1
-17.835937 -22.646439 -25.801437 38.687156 0.903673 2.300871 0.015138 -0.004228 172766.000000 0 0 1
-17.662137 -23.992039 -26.157267 39.645576 0.936208 2.291319 0.027532 -0.014909 -91512.600000 0 0 1
-17.689437 -24.251539 -27.706257 40.849603 0.940600 2.316175 0.047059 -0.002789 -393706.000000 0 0 1
-16.607637 -23.611439 -28.290277 40.418479 0.957811 2.346102 0.021346 -0.004193 -460022.000000 0 0 1
-16.557537 -23.983339 -29.649837 41.574817 0.966558 2.364804 0.045391 -0.006460 -524087.000000 0 0 1
-15.167237 -23.859639 -30.279117 41.426470 1.004550 2.390454 0.016046 -0.010549 -347720.000000 0 0 1
-14.399137 -24.975039 -29.817997 41.475302 1.047805 2.373064 0.028479 -0.009593 -1015420.000000 0 0 1
-13.111337 -24.798239 -30.282027 41.277851 1.084437 2.394422 0.039160 -0.011945 -1103500.000000 0 0 1
-12.203637 -25.986839 -29.988937 41.516032 1.131756 2.377985 0.041862 -0.010731 -1067350.000000 0 0 1
-12.550437 -27.145339 -30.683717 42.847093 1.137726 2.369026 0.034629 -0.004624 68563.600000 0 0 1
-11.632037 -28.211739 -30.622037 43.230957 1.179721 2.357934 0.033292 -0.007153 230381.000000 0 0 1
-10.269937 -28.060939 -31.345377 43.306126 1.219951 2.380104 0.035337 -0.010184 70854.300000 0 0 1
-9.369237 -27.178039 -30.712807 42.067861 1.238819 2.389232 0.051418 -0.018182 -131767.000000 0 0 1
-8.352937 -26.679439 -31.532427 42.140930 1.267378 2.416234 0.043615 -0.017728 197306.000000 0 0 1
-7.506437 -25.431539 -31.000977 40.794244 1.283783 2.434010 0.081990 -0.027623 542693.000000 0 0 1
-8.099337 -24.105939 -30.994727 40.092003 1.246657 2.454495 0.078803 -0.024802 461043.000000 0 0 1
-9.054737 -23.860139 -29.949957 39.348373 1.208093 2.435878 0.058160 -0.019811 135427.000000 0 0 1
-9.473337 -22.405639 -29.988567 38.614388 1.170782 2.460073 0.058674 -0.026511 -118837.000000 0 0 1
-10.228837 -21.971339 -31.106807 39.433518 1.135084 2.479719 0.054352 -0.023509 93613.000000 0 0 1
-10.556637 -20.578239 -30.999327 38.676411 1.096803 2.500604 0.058281 -0.023971 -100984.000000 0 0 1
-11.394737 -20.085739 -32.170337 39.600600 1.054764 2.519001 0.055678 -0.021604 -8701.320000 0 0 1
-12.062737 -18.852939 -31.847377 38.925549 1.001601 2.529002 0.054552 -0.019239 110617.000000 0 0 1
-12.420937 -18.287739 -33.041167 39.754746 0.974170 2.551924 0.062686 -0.019881 -5158.790000 0 0 1
-13.400937 -17.069039 -32.827787 39.352266 0.905206 2.557483 0.064014 -0.025203 228297.000000 0 0 1
-12.862937 -15.743739 -32.983397 38.745645 0.885764 2.589216 0.080641 -0.029884 127733.000000 0 0 1
-12.031437 -15.303139 -31.900037 37.370495 0.904522 2.593684 0.079816 -0.018948 367742.000000 0 0 1
-11.742937 -13.771239 -31.980537 36.746406 0.864728 2.626615 0.076347 -0.028326 -115851.000000 0 0 1
-10.928037 -13.218239 -33.002017 37.192432 0.879962 2.662322 0.086721 -0.029362 -40823.200000 0 0 1
-11.363437 -13.378239 33.977412 38.243555 0.866652 0.476844 0.087415 -0.031960 -219933.000000 0 0 1
-12.081737 -12.144339 33.334511 37.478567 0.787982 0.474703 0.069011 -0.024196 1120060.000000 0 0 1
-13.378237 -11.861739 33.901412 38.327324 0.725387 0.485325 0.061196 -0.020135 561728.000000 0 0 1
-14.125037 -11.038539 32.986010 37.542547 0.663350 0.497811 0.041455 -0.028415 546761.000000 0 0 1
-15.341837 -10.321039 33.579871 38.334104 0.592194 0.503335 0.053392 -0.029231 391099.000000 0 0 1
-14.762037 -9.420339 -33.782687 38.051682 0.567997 2.663362 0.063758 -0.029656 506828.000000 0 0 1
-15.715637 -8.833239 -32.930117 37.541976 0.512060 2.640701 0.059937 -0.037687 377254.000000 0 0 1
-14.928937 -7.869939 -31.962577 36.144370 0.485139 2.655796 0.061326 -0.049415 306170.000000 0 0 1
-14.620437 -6.598739 -32.573547 36.308904 0.423965 2.684010 0.049675 -0.050027 408456.000000 0 0 1
-15.674537 -5.637039 -32.590817 36.600938 0.345228 2.669100 0.055361 -0.044665 116018.000000 0 0 1
-16.066837 -5.014639 -31.195417 35.446353 0.302531 2.646815 0.062200 -0.043572 -387598.000000 0 0 1
-16.614937 -5.929239 -30.305137 35.065843 0.342775 2.614425 0.070834 -0.049919 -245454.000000 0 0 1
-16.848037 -5.539839 -28.978747 33.975196 0.317676 2.592385 0.066743 -0.051022 572933.000000 0 0 1
-15.559437 -5.137039 -28.138517 32.561655 0.318888 2.614277 0.061781 -0.052190 867480.000000 0 0 1
-15.124537 -3.850539 -28.597107 32.578717 0.249293 2.642015 0.054644 -0.040365 -638178.000000 0 0 1
-13.876137 -3.572739 -28.035987 31.485365 0.252000 2.669118 0.051927 -0.036507 -527964.000000 0 0 1
-13.476537 -2.218439 -28.577797 31.673791 0.163152 2.695764 0.028815 -0.010262 -175355.000000 0 0 1
-13.281337 -2.203439 -30.003767 32.885789 0.164407 2.719815 0.022936 -0.018293 183414.000000 0 0 1
-13.271237 -0.905439 -30.504607 33.278771 0.068120 2.730385 0.021658 -0.022685 -51970.200000 0 0 1
-13.353037 -1.021439 -32.080577 34.763636 0.076346 2.746134 0.017597 -0.028458 -704804.000000 0 0 1
-14.670037 -1.277439 -32.490987 35.672203 0.086859 2.716065 0.022454 -0.029718 64894.500000 0 0 1
-14.727537 -1.416439 -33.888787 36.977785 0.095881 2.729947 0.025287 -0.023929 -218600.000000 0 0 1
-16.144237 -1.715439 33.901842 37.588748 0.105860 0.446614 0.021671 -0.028259 -70462.000000 0 0 1
-16.126237 -1.791439 32.529315 36.351356 0.110635 0.462683 0.026122 -0.023143 142258.000000 0 0 1
-17.445037 -1.798439 32.047296 36.532080 0.102729 0.500720 0.034835 -0.021218 -129336.000000 0 0 1
-17.452437 -1.844439 30.516716 35.203117 0.105293 0.521896 0.038728 -0.013126 -1295.500000 0 0 1
-16.999037 -0.618439 30.006366 34.492488 0.036365 0.515717 0.024210 0.005442 35368.200000 0 0 1
-17.202437 -0.726439 28.617406 33.397716 0.042204 0.541635 0.032527 -0.000215 156804.000000 0 0 1
-16.563837 0.506561 27.800006 32.364450 -0.030573 0.537547 0.023506 -0.001163 268268.000000 0 0 1
-17.031137 1.811561 28.151196 32.951953 -0.105969 0.546574 0.026673 -0.004084 107391.000000 0 0 1
-18.358037 2.139561 27.777546 33.364461 -0.116023 0.587103 0.039011 -0.007734 123116.000000 0 0 1
-18.500637 2.950561 26.453646 32.415656 -0.158152 0.616207 0.037018 -0.013624 -598295.000000 0 0 1
-18.000537 4.228561 26.429706 32.255688 -0.230730 0.610466 0.041824 -0.013187 -127202.000000 0 0 1
-18.390637 4.864561 25.263226 31.624517 -0.258591 0.645416 0.031877 -0.005529 -423990.000000 0 0 1
-18.323537 6.378561 25.285256 31.871338 -0.334988 0.654497 0.031206 -0.007011 -578011.000000 0 0 1
-17.060537 6.936561 25.239216 31.244132 -0.386170 0.630375 0.028159 -0.002420 -744619.000000 0 0 1
-16.426037 7.023561 23.963736 29.889893 -0.404060 0.640606 0.016682 -0.002961 585335.000000 0 0 1
-15.198637 7.998561 23.958876 29.478861 -0.484441 0.621944 0.006101 -0.001625 86638.800000 0 0 1
-14.064737 7.564561 24.632456 29.356384 -0.493458 0.575200 0.006920 0.002896 -704385.000000 0 0 1
-12.978037 8.288561 24.109646 28.607773 -0.568362 0.568396 0.011768 0.003385 -520712.000000 0 0 1
-11.697737 8.321561 24.942896 28.779046 -0.618324 0.522241 0.012689 0.021733 -674067.000000 0 0 1
-10.670137 8.809561 24.106786 27.795634 -0.690173 0.521071 0.011007 0.006702 68381.400000 0 0 1
-9.449237 9.063561 24.810716 28.053660 -0.764568 0.485585 0.017310 -0.004843 392234.000000 0 0 1
-9.297737 10.358561 25.608556 29.146969 -0.839314 0.497872 0.024610 -0.014029 -429330.000000 0 0 1
-10.166337 10.381561 26.788276 30.475284 -0.795872 0.497001 0.015352 -0.008479 610941.000000 0 0 1
-10.183537 11.539561 27.562186 31.568021 -0.847740 0.509262 0.012998 -0.008360 -506990.000000 0 0 1
-10.899937 12.720561 26.896716 31.686821 -0.862324 0.557029 0.013500 -0.011917 825557.000000 0 0 1
-12.316737 12.550561 26.668206 31.943885 -0.794801 0.582944 0.026699 -0.008971 1081370.000000 0 0 1
-12.547637 11.957561 25.378826 30.732902 -0.761323 0.599200 0.022448 -0.000917 -955211.000000 0 0 1
-13.986537 11.719561 24.914566 30.882145 -0.697437 0.632144 0.032146 -0.007644 -188275.000000 0 0 1
-14.693037 12.942561 24.663306 31.490854 -0.722141 0.671017 0.033437 -0.007797 310111.000000 0 0 1
-16.050937 12.870561 24.272356 31.818723 -0.675872 0.703114 0.034608 0.006005 294792.000000 0 0 1
-16.350037 12.398561 22.793066 30.668744 -0.648805 0.732953 0.030310 0.007026 -265914.000000 0 0 1
-16.081737 11.033561 22.513066 29.785900 -0.601331 0.713876 0.021974 0.001457 -20016.400000 0 0 1
-16.125237 10.920561 21.117566 28.726878 -0.595283 0.744960 0.012608 0.007921 -194535.000000 0 0 1
-16.367037 9.460561 20.570566 27.937972 -0.524105 0.743219 0.003533 -0.001923 499500.000000 0 0 1
-17.708537 8.999561 20.666866 28.665375 -0.470190 0.765596 0.010861 -0.000034 -40236.400000 0 0 1
-17.857737 7.586561 20.386066 28.143318 -0.401729 0.760682 0.007325 -0.000646 632523.000000 0 0 1
-19.280937 7.027561 20.733266 29.172066 -0.349518 0.780271 0.026579 -0.001820 629847.000000 0 0 1
-19.664137 7.316561 22.060966 30.444976 -0.356205 0.760317 0.017216 -0.007664 351708.000000 0 0 1
-21.080537 7.253561 22.220966 31.476571 -0.331398 0.787029 0.008414 -0.011405 546990.000000 0 0 1
-21.569437 7.908561 23.576716 32.918801 -0.351435 0.772443 0.034639 -0.011455 -607661.000000 0 0 1
-21.626337 9.332561 23.552936 33.309697 -0.407394 0.785423 0.037050 -0.015385 695337.000000 0 0 1
-20.398837 10.077561 23.353876 32.604805 -0.458857 0.772353 0.030720 -0.012986 573140.000000 0 0 1
-19.377237 9.912561 24.471216 32.750215 -0.472850 0.726946 0.039313 -0.018878 -790178.000000 0 0 1
-19.863337 10.271561 25.740086 34.097055 -0.477243 0.715285 0.050050 -0.011884 117001.000000 0 0 1
-18.911537 9.922561 26.730226 34.214155 -0.483198 0.674111 0.061342 -0.017880 293355.000000 0 0 1
-31.355247 -13.777735 20.349366 39.838099 0.414010 1.034679 0.059521 -0.011516 268226.000000 0 0 1
-30.420717 -14.852735 20.162666 39.402498 0.454199 1.033622 0.053579 -0.012652 396093.000000 0 0 1
-30.876547 -15.859735 19.257566 39.695669 0.474508 1.064284 0.037736 0.002054 161899.000000 0 0 1
-30.586897 -15.456035 17.785866 38.610676 0.467891 1.092073 0.042814 0.009710 -145708.000000 0 0 1
-31.472217 -14.486935 17.340766 38.743695 0.431393 1.106743 0.049808 -0.008204 -213515.000000 0 0 1
-31.053687 -13.976035 16.039666 37.642156 0.422904 1.130609 0.055187 -0.009489 -632711.000000 0 0 1
-32.008977 -12.891235 15.535166 37.843096 0.382865 1.147777 0.052704 -0.013058 765138.000000 0 0 1
-33.297997 -13.345435 15.037866 38.897232 0.381185 1.173849 0.068594 -0.010722 955811.000000 0 0 1
-34.238096 -13.646735 16.021066 40.188993 0.379285 1.160759 0.083892 -0.014676 -875995.000000 0 0 1
-34.958952 -12.436535 16.710666 40.694496 0.341785 1.147644 0.090243 -0.013616 -1380980.000000 0 0 1
-35.977352 -12.891735 17.488466 42.028718 0.344076 1.141636 0.063349 -0.013075 -1078060.000000 0 0 1
36.392532 -11.752235 18.089666 42.305643 -0.312358 1.128966 0.077882 -0.015932 28358.800000 0 0 1
35.487832 -12.106735 19.281266 42.163094 -0.328771 1.095837 0.074006 -0.014490 -16271.600000 0 0 1
36.271492 -12.335135 20.429266 43.418102 -0.327808 1.080912 0.053763 -0.007106 138003.000000 0 0 1
35.497332 -12.192935 21.591466 43.300342 -0.330862 1.048762 0.042059 -0.007728 -670565.000000 0 0 1
36.310932 -12.530435 22.897866 44.719211 -0.332291 1.033242 0.039906 -0.013938 629269.000000 0 0 1
-35.523944 -11.635235 23.153666 43.970689 0.316520 1.016235 0.049836 -0.014354 633547.000000 0 0 1
-34.348628 -12.100435 22.481266 42.797851 0.338707 1.017741 0.043823 -0.019808 -571147.000000 0 0 1
-33.223257 -11.084535 22.654666 41.711936 0.322025 0.996646 0.055312 -0.022775 -470277.000000 0 0 1
-33.492137 -9.968135 21.796566 41.184672 0.289277 1.013092 0.081176 -0.022872 553287.000000 0 0 1
-32.364257 -9.090135 21.801766 40.067352 0.273815 0.995447 0.098735 -0.022489 212279.000000 0 0 1
-32.558067 -7.868235 20.883166 39.472059 0.237121 1.013302 0.110043 -0.026137 -48896.500000 0 0 1
-32.714287 -8.261835 19.540266 38.991082 0.247373 1.045873 0.112692 -0.022078 553320.000000 0 0 1
-34.055653 -8.520935 19.125866 39.977401 0.245173 1.071945 0.101713 -0.022238 115677.000000 0 0 1
-34.200193 -8.582935 17.573266 39.397203 0.245883 1.108445 0.110244 -0.023539 -942726.000000 0 0 1
-35.534016 -8.619835 17.205666 40.410429 0.237983 1.130980 0.057657 -0.019387 -678026.000000 0 0 1
-35.739572 -8.726935 15.818466 40.046226 0.239495 1.164723 0.077167 -0.011928 792404.000000 0 0 1
35.665912 -8.769935 15.459266 39.849190 -0.241108 1.172396 0.073308 -0.014931 1198920.000000 0 0 1
34.925162 -9.964335 15.797966 39.605942 -0.277922 1.160503 0.067723 -0.001343 -480922.000000 0 0 1
33.556012 -9.801835 15.658266 38.304872 -0.284197 1.149679 0.052786 -0.003821 -676866.000000 0 0 1
32.845772 -11.180635 15.663666 38.068383 -0.328095 1.146740 0.047294 -0.000219 -19375.800000 0 0 1
32.652252 -11.734035 16.944866 38.613283 -0.344992 1.116494 0.034449 -0.008621 678927.000000 0 0 1
31.483202 -12.569535 17.072866 37.956132 -0.379856 1.104249 0.046052 -0.013631 678658.000000 0 0 1
31.209982 -13.013135 18.472566 38.531031 -0.395036 1.070802 0.038539 -0.019181 -486499.000000 0 0 1
32.146262 -13.918535 18.925766 39.815730 -0.408606 1.075453 0.055394 -0.018108 -401503.000000 0 0 1
32.259402 -13.914235 20.336766 40.593830 -0.407214 1.046064 0.046595 -0.018096 -720376.000000 0 0 1
32.961072 -15.170235 20.789866 41.818499 -0.431343 1.050491 0.042325 -0.007049 -206064.000000 0 0 1
33.496732 -15.031235 22.070866 42.837976 -0.421803 1.029535 0.039465 -0.016405 -368896.000000 0 0 1
34.100052 -16.237335 22.367866 43.895171 -0.444400 1.036106 0.039292 -0.000219 -212262.000000 0 0 1
34.564862 -16.341935 23.800066 45.035893 -0.441644 1.014000 0.056276 -0.012699 48899.000000 0 0 1
35.440182 -15.307235 24.199896 45.562626 -0.407715 1.010857 0.046630 -0.001368 -106422.000000 0 0 1
35.861992 -15.464535 25.482836 46.632706 -0.407130 0.992667 0.042210 -0.000213 75593.400000 0 0 1
-35.907373 -14.501035 25.885966 46.580067 0.383817 0.981555 0.033818 -0.000973 417506.000000 0 0 1
-34.601029 -14.841435 25.455876 45.447783 0.405195 0.976275 0.008821 -0.004015 47162.900000 0 0 1
-33.685167 -13.880635 25.886916 44.693343 0.390868 0.953035 0.022261 -0.009868 -882045.000000 0 0 1
-32.235077 -14.283335 25.792506 43.684862 0.417100 0.939215 0.015261 -0.004717 -1018750.000000 0 0 1
-31.691637 -14.416835 24.453426 42.546151 0.426929 0.958497 0.024205 -0.002866 -466672.000000 0 0 1
-30.409077 -14.903735 24.302796 41.682840 0.455703 0.948330 0.023750 -0.012639 -820255.000000 0 0 1
-30.034127 -16.344035 24.780696 42.228653 0.498366 0.943668 0.025267 -0.005159 -717972.000000 0 0 1
-30.032737 -16.410035 26.187006 43.093083 0.500079 0.917654 0.021886 -0.006567 95730.200000 0 0 1
-29.939547 -17.773735 26.633336 43.836249 0.535740 0.917806 0.024545 -0.015676 -252865.000000 0 0 1
-29.645047 -17.755835 28.135736 44.561397 0.539645 0.887449 0.036713 -0.026563 393349.000000 0 0 1
-28.342537 -17.243235 28.407626 43.676329 0.546564 0.862669 0.038427 -0.026243 148188.000000 0 0 1
-27.793217 -17.823535 29.561226 44.317123 0.570228 0.840570 0.060494 -0.030650 344810.000000 0 0 1
-26.494477 -17.024335 29.882896 43.413969 0.571128 0.811620 0.051317 -0.027989 -92578.000000 0 0 1
-26.785297 -15.763335 30.402556 43.477008 0.531926 0.796408 0.072177 -0.034336 230649.000000 0 0 1
-25.803177 -14.807935 30.001606 42.251334 0.520992 0.781192 0.056783 -0.033408 -647546.000000 0 0 1
-25.935257 -13.430535 30.755666 42.413769 0.477824 0.759567 0.064639 -0.017997 -10873.400000 0 0 1
-25.468257 -13.557935 32.082166 43.147596 0.489189 0.732441 0.064642 -0.019980 117977.000000 0 0 1
-25.433957 -12.337735 32.796251 43.297805 0.451648 0.711386 0.067480 -0.007832 -241721.000000 0 0 1
-24.709737 -12.399135 -34.131763 43.923649 0.465080 2.460794 0.060984 -0.006126 1075250.000000 0 0 1
-23.303637 -12.723635 -34.144138 43.252428 0.499762 2.480653 0.041153 -0.005388 1078480.000000 0 0 1
-22.925137 -14.090035 34.002048 43.361622 0.551093 0.669470 0.033361 -0.007425 -230877.000000 0 0 1
-22.674137 -14.941035 -33.022477 42.753187 0.582639 2.453404 0.030111 -0.007616 -465313.000000 0 0 1
-21.607537 -14.473035 -32.241947 41.423394 0.590178 2.462832 0.008855 0.001352 -190141.000000 0 0 1
-21.442037 -15.140635 -31.040367 40.651005 0.614821 2.439638 0.026623 0.000310 170497.000000 0 0 1
-20.171537 -14.875035 -30.174607 39.225814 0.635406 2.448469 0.028782 0.001939 287859.000000 0 0 1
-20.129237 -13.656135 -29.422317 38.175240 0.596097 2.450762 0.017328 -0.005533 332730.000000 0 0 1
-20.763537 -13.847535 -28.140407 37.613312 0.588175 2.416066 0.025903 -0.003757 185159.000000 0 0 1
-20.283337 -12.729335 -27.205477 36.243451 0.560450 2.419814 0.030138 -0.003388 -628973.000000 0 0 1
-18.931337 -12.684435 -26.863127 35.226666 0.590323 2.438087 0.020184 -0.007048 -570973.000000 0 0 1
-18.577737 -11.509335 -26.186737 34.107804 0.554651 2.446140 0.024622 -0.013081 -737968.000000 0 0 1
-17.213137 -11.681435 -25.590617 32.979201 0.596243 2.459036 0.026181 -0.014718 -1539330.000000 0 0 1
-17.310837 -12.467735 -24.391137 32.404275 0.624173 2.422971 0.032302 -0.015255 317708.000000 0 0 1
-16.135037 -12.676535 -23.608637 31.279413 0.665931 2.426094 0.021802 -0.019227 437881.000000 0 0 1
-15.019237 -13.543135 -24.245037 31.572390 0.733764 2.446382 0.012072 -0.010499 -534870.000000 0 0 1
-14.218737 -12.852035 -25.148277 31.619347 0.734955 2.490372 0.037915 -0.022381 -363405.000000 0 0 1
-13.407537 -13.742535 -25.891857 32.233640 0.797736 2.503538 0.052249 -0.019013 249057.000000 0 0 1
-12.432837 -13.015735 -26.878747 32.348908 0.808299 2.551522 0.057251 -0.018445 70245.900000 0 0 1
-13.128837 -12.123735 -27.695327 32.960316 0.745617 2.568564 0.072545 -0.027370 -71261.900000 0 0 1
-12.302037 -11.534535 -28.669847 33.261776 0.753211 2.609891 0.080729 -0.043017 212858.000000 0 0 1
-13.127437 -10.506835 -29.496187 33.952146 0.674968 2.623485 0.062510 -0.038597 510731.000000 0 0 1
-12.289437 -9.739435 -30.364507 34.174408 0.670154 2.664897 0.063642 -0.034030 246796.000000 0 0 1
-11.708637 -10.367335 -31.471847 35.143292 0.724714 2.680416 0.080123 -0.028743 -72467.400000 0 0 1
-10.908137 -9.400135 -32.362667 35.421635 0.711279 2.722949 0.059556 -0.023635 -416689.000000 0 0 1
-9.651737 -9.138635 -31.817047 34.481809 0.758098 2.745874 0.052167 -0.020768 -662332.000000 0 0 1
-9.137937 -7.936935 -32.375497 34.563994 0.715176 2.783830 0.040707 -0.018874 -21359.700000 0 0 1
-7.643537 -7.712335 -32.040867 33.830769 0.789878 2.814849 0.052938 -0.015312 -156169.000000 0 0 1
-7.304237 -7.506535 -30.655317 32.395191 0.799056 2.812365 0.039924 -0.010966 162820.000000 0 0 1
-7.730837 -6.245535 -30.056097 31.656619 0.679523 2.822247 0.040840 -0.014374 -391211.000000 0 0 1
-6.913937 -5.065135 -30.597017 31.774763 0.632270 2.868475 0.038614 -0.021251 -753191.000000 0 0 1
-5.594637 -5.056735 -30.156877 31.085491 0.734940 2.896550 0.049583 -0.023735 -761862.000000 0 0 1
-5.076537 -3.892035 -30.810417 31.467459 0.654086 2.936883 0.058608 -0.028343 80543.200000 0 0 1
-3.629037 -3.510435 -30.409667 30.825978 0.768787 2.977059 0.059884 -0.021261 -345160.000000 0 0 1
-2.636037 -4.358635 -30.955917 31.372204 1.026866 2.978505 0.050083 -0.024526 423687.000000 0 0 1
-1.303837 -4.013535 -30.573657 30.863522 1.256691 3.004432 0.064862 -0.027998 728368.000000 0 0 1
-0.697837 -2.679935 -31.228447 31.350996 1.316060 3.053145 0.068763 -0.030391 -325133.000000 0 0 1
0.440163 -2.309735 -30.427977 30.518690 -1.382486 3.064472 0.074206 -0.027396 539444.000000 0 0 1
0.995863 -1.082435 -30.905437 30.940418 -0.827029 3.094037 0.060628 -0.024829 190718.000000 0 0 1
1.181363 -0.071935 -29.668967 29.692565 -0.060816 3.101722 0.060053 -0.024390 -767009.000000 0 0 1
0.002563 0.487965 -29.256947 29.261016 1.565544 3.124915 0.060924 -0.016578 -1123050.000000 0 0 1
0.257963 1.806265 -28.922677 28.980173 1.428940 3.078591 0.069923 -0.017327 -151821.000000 0 0 1
-0.938837 2.557865 -28.332497 28.463213 -1.219023 3.045718 0.052675 -0.005899 -715479.000000 0 0 1
-2.003937 2.744565 -29.199137 29.396225 -0.940122 3.025731 0.057121 -0.017972 -711692.000000 0 0 1
-2.843437 3.754665 -28.670947 29.055221 -0.922635 2.978774 0.077296 -0.011956 -531543.000000 0 0 1
-3.988337 4.018165 -29.643957 30.179740 -0.789124 2.952882 0.096464 -0.016585 -472049.000000 0 0 1
-3.566037 4.545865 -30.890397 31.426074 -0.905605 2.956691 0.103256 -0.016717 140863.000000 0 0 1
-4.623737 5.191065 -31.561357 32.317880 -0.843137 2.924795 0.114005 -0.011598 33008.600000 0 0 1
-4.092037 5.778665 -32.942637 33.695031 -0.954636 2.929871 0.117214 -0.011383 248851.000000 0 0 1
-3.845637 4.856865 -34.032327 34.591579 -0.901079 2.961531 0.122675 -0.021304 -436246.000000 0 0 1
-2.781937 3.978665 -33.930357 34.275911 -0.960598 2.999476 0.115206 -0.027351 -784144.000000 0 0 1
-2.325437 3.292665 33.096792 33.341369 -0.955890 0.121199 0.099307 -0.033366 -294382.000000 0 0 1
-3.287437 2.371565 32.633349 32.884145 -0.624946 0.123583 0.099249 -0.037761 -273018.000000 0 0 1
-3.026937 1.680065 31.460286 31.650190 -0.506703 0.109600 0.101986 -0.038269 -119531.000000 0 0 1
-2.802437 2.593165 30.197296 30.437720 -0.746632 0.125772 0.103497 -0.038490 -235828.000000 0 0 1
-3.918537 3.387165 29.924746 30.369692 -0.712792 0.171388 0.088826 -0.035813 -376629.000000 0 0 1
-3.742537 4.162065 28.804166 29.342960 -0.838422 0.191929 0.085465 -0.039293 583691.000000 0 0 1
-4.975037 5.135365 28.753206 29.628868 -0.801255 0.243726 0.084550 -0.023872 707826.000000 0 0 1
-4.993337 5.952565 27.602196 28.674861 -0.872808 0.274385 0.077553 -0.017354 -388396.000000 0 0 1
-6.067337 6.868365 27.641706 29.121314 -0.847243 0.320139 0.055870 -0.009809 -158335.000000 0 0 1
-6.294237 7.486465 26.268026 28.029872 -0.871698 0.356443 0.053521 -0.011691 -353199.000000 0 0 1
-5.366337 8.515865 26.189006 28.056756 -1.008497 0.366940 0.070036 -0.023889 -390501.000000 0 0 1
-5.477937 9.218565 24.966746 27.172194 -1.034631 0.405680 0.062353 -0.019049 97559.100000 0 0 1
-4.774837 10.574265 25.207756 27.749686 -1.146652 0.431360 0.058567 -0.018605 -213613.000000 0 0 1
-4.726437 11.359965 24.043666 27.008996 -1.176521 0.472991 0.062633 -0.019721 28329.500000 0 0 1
-4.311937 12.663165 24.236726 27.683342 -1.242601 0.504330 0.055484 -0.010524 -15130.700000 0 0 1
-2.779537 12.931965 24.277466 27.647005 -1.359082 0.498872 0.061042 -0.008928 262425.000000 0 0 1
-1.931037 12.531465 25.341826 28.336807 -1.417904 0.463915 0.074907 -0.009175 77778.600000 0 0 1
-2.261937 13.017065 26.603606 29.703740 -1.398747 0.460947 0.067949 -0.011352 -558002.000000 0 0 1
-1.380237 12.443865 27.734826 30.429844 -1.460331 0.424038 0.068549 -0.010564 367714.000000 0 0 1
-0.005637 12.770265 27.695426 30.497808 -1.570355 0.432043 0.070561 -0.003253 -72267.200000 0 0 1
0.712963 12.224865 28.792076 31.288005 1.512542 0.402136 0.067672 -0.010785 -1120130.000000 0 0 1
2.193363 12.396365 28.703776 31.343061 1.395673 0.413317 0.064332 -0.005572 -1207210.000000 0 0 1
2.570263 13.779065 28.811246 32.039925 1.386382 0.452791 0.064115 -0.004096 -435719.000000 0 0 1
3.934263 13.812265 28.479796 31.896016 1.293307 0.467062 0.076615 -0.006902 -136332.000000 0 0 1
4.561663 15.222465 28.755316 32.854229 1.279646 0.504866 0.076908 -0.006897 -185337.000000 0 0 1
4.664163 15.685465 30.072876 34.236911 1.281767 0.498343 0.078097 -0.000090 437843.000000 0 0 1
3.629063 16.544865 30.543826 34.926035 1.354869 0.506333 0.048193 0.005827 151574.000000 0 0 1
3.701063 17.962465 29.862366 35.044385 1.367596 0.550755 0.061302 0.010189 -85221.200000 0 0 1
4.813963 18.630465 30.409196 35.985937 1.317935 0.564175 0.071620 0.011870 -92563.100000 0 0 1
5.233363 19.600965 29.519596 35.818884 1.309887 0.602123 0.062376 0.007359 264936.000000 0 0 1
6.404063 20.439965 30.108876 36.950624 1.267173 0.618342 0.071688 0.004828 340678.000000 0 0 1
5.911163 21.267565 31.164776 38.190240 1.299696 0.616270 0.048377 -0.000331 29192.600000 0 0 1
6.864663 22.177965 31.611236 39.220606 1.270623 0.633458 0.027439 0.000954 -620347.000000 0 0 1
7.131863 23.520265 30.854266 39.446826 1.276386 0.672650 0.024891 0.005770 -215916.000000 0 0 1
7.763263 23.373365 29.608586 38.512995 1.250119 0.693842 0.012657 0.012903 183886.000000 0 0 1
7.999763 24.658265 29.112226 38.981379 1.257084 0.727523 0.014800 0.008104 94593.800000 0 0 1
8.652463 24.664765 27.693446 38.080739 1.233407 0.756519 0.021808 0.004354 162741.000000 0 0 1
7.748063 24.137865 26.729806 36.839538 1.260194 0.758928 0.027305 0.002318 555026.000000 0 0 1
8.233263 24.344465 25.430146 36.154279 1.244673 0.790657 0.047777 -0.006300 -288817.000000 0 0 1
28.912732 2.101565 6.714563 29.756479 0.072559 1.343186 0.068232 -0.014729 -1273.590000 0 0 1
29.384532 2.957565 7.707163 30.522095 0.100313 1.315522 0.058018 -0.015259 221521.000000 0 0 1
28.525732 2.930365 8.843763 30.008609 0.102368 1.271647 0.059700 -0.006481 31679.900000 0 0 1
28.802932 3.985865 9.938163 30.728865 0.137511 1.241461 0.048359 -0.007512 -225784.000000 0 0 1
28.439782 5.353365 9.752063 30.538213 0.186058 1.245764 0.043170 -0.012030 -281443.000000 0 0 1
29.382222 6.160965 9.090063 31.367208 0.206689 1.276784 0.053634 -0.024596 -430913.000000 0 0 1
29.047222 7.640465 8.840463 31.309290 0.257210 1.284544 0.062370 -0.027988 -139943.000000 0 0 1
28.042822 7.912965 7.867063 30.181212 0.275024 1.307090 0.068351 -0.024376 183819.000000 0 0 1
28.244412 9.212465 7.303763 30.593485 0.315289 1.329732 0.077825 -0.032528 -322814.000000 0 0 1
27.317642 9.493865 6.134363 29.563787 0.334478 1.361782 0.084318 -0.027009 293430.000000 0 0 1
25.961842 9.675465 6.560263 28.472249 0.356735 1.338298 0.061381 -0.016761 458815.000000 0 0 1
25.146242 9.790965 5.411563 27.522382 0.371301 1.372883 0.082373 -0.025091 121246.000000 0 0 1
23.668742 10.146865 5.684863 26.372067 0.405003 1.353527 0.038085 -0.016090 25440.400000 0 0 1
23.569942 11.483765 6.139863 26.927996 0.453372 1.340763 0.045221 -0.005680 -53029.600000 0 0 1
22.252542 11.955965 6.269163 26.027354 0.493029 1.327536 0.042286 -0.006537 -222839.000000 0 0 1
22.244642 13.414665 6.710763 26.829307 0.542660 1.317984 0.041838 -0.000616 -51264.800000 0 0 1
22.310042 14.373765 5.684663 27.141454 0.572339 1.359788 0.056104 0.004552 315812.000000 0 0 1
22.092642 15.676665 6.166463 27.782512 0.617132 1.346977 0.074965 -0.013620 -124873.000000 0 0 1
21.955842 16.636865 4.899763 27.979492 0.648438 1.394769 0.086267 -0.019392 580284.000000 0 0 1
20.684542 16.488465 4.240963 26.790027 0.672994 1.411824 0.097475 -0.018334 895902.000000 0 0 1
20.406242 17.641665 3.461163 27.196006 0.712865 1.443183 0.096614 -0.021107 871224.000000 0 0 1
18.953042 17.623465 2.808063 26.032471 0.749064 1.462718 0.090373 -0.014781 552050.000000 0 0 1
18.010742 17.902365 3.791363 25.675980 0.782380 1.422593 0.087110 -0.021288 -68194.100000 0 0 1
16.774342 18.201065 3.140663 24.950373 0.826168 1.444585 0.077470 -0.021465 -154080.000000 0 1 0
15.828842 19.051965 4.031063 25.095400 0.877540 1.409468 0.081119 -0.030506 -60048.700000 0 0 1
14.496642 18.918365 3.583763 24.101879 0.916961 1.421551 0.078196 -0.033073 -287985.000000 0 1 0
13.758442 20.028965 4.025363 24.630423 0.968898 1.406629 0.060272 -0.025682 46553.500000 0 1 0
12.233142 19.852765 3.831963 23.631885 1.018555 1.407925 0.043882 -0.025026 -63260.400000 0 1 0
11.579142 19.102265 4.794863 22.846527 1.025855 1.359352 0.025686 -0.025199 784144.000000 0 1 0
10.158642 19.016465 4.562563 22.037263 1.080163 1.362249 0.013017 -0.016565 1163150.000000 0 1 0
9.394942 18.421165 5.785663 21.472731 1.099174 1.297982 0.011034 -0.017306 -655288.000000 0 1 0
9.263442 19.267565 6.931463 22.474332 1.122643 1.257268 0.019919 -0.023070 -41409.400000 0 1 0
8.619142 18.589765 7.981963 21.990469 1.136649 1.199339 0.020760 -0.018635 -35088.900000 0 1 0
7.575342 19.407965 8.775863 22.606873 1.198661 1.172125 0.020240 -0.021134 435704.000000 0 1 0
6.390242 20.005265 8.277863 22.573632 1.261612 1.195332 0.019500 -0.017071 303479.000000 0 1 0
6.533042 21.077565 7.309063 23.245791 1.270234 1.250945 0.020549 -0.015222 31133.500000 0 1 0
5.161442 21.327665 6.589363 22.911340 1.333355 1.279074 0.017307 0.000464 1679430.000000 0 1 0
4.035342 21.768665 7.409163 23.346402 1.387503 1.247854 0.021684 0.009580 985235.000000 0 1 0
4.172042 23.082465 7.972263 24.774243 1.391982 1.243170 0.025776 0.003052 -522849.000000 0 1 0
3.998542 24.226865 6.916963 25.510267 1.407225 1.296215 0.030231 -0.004509 -750281.000000 0 0 1
2.739042 24.409265 6.360063 25.372524 1.459051 1.317427 0.025534 -0.002519 -601816.000000 0 0 1
2.765642 25.324165 5.211263 26.002296 1.462018 1.369014 0.034493 -0.002551 -364760.000000 0 0 1
1.405142 25.474765 4.506163 25.908369 1.515694 1.395980 0.037848 -0.005280 -509111.000000 0 0 1
0.570742 26.248565 5.327963 26.789926 1.549056 1.370582 0.047390 -0.012461 -738391.000000 0 0 1
-0.605758 26.474365 4.598063 26.877521 -1.547919 1.398876 0.043874 -0.009041 -457948.000000 0 0 1
-1.794758 27.128365 5.338663 27.706871 -1.504735 1.376900 0.045919 -0.018601 188619.000000 0 0 1
-2.736858 27.419765 4.303763 27.890075 -1.471313 1.415866 0.072073 -0.023769 -240386.000000 0 0 1
-3.903058 27.981365 4.856563 28.666651 -1.432203 1.400560 0.067587 -0.036383 -417754.000000 0 0 1
-4.903358 28.418365 3.783063 29.085357 -1.399937 1.440359 0.075015 -0.043727 -187507.000000 0 0 1
-4.457958 29.523865 2.999363 30.008802 -1.420933 1.470680 0.076774 -0.037817 301045.000000 0 0 1
-5.304858 29.744765 1.872263 30.272066 -1.394306 1.508909 0.079574 -0.036793 95111.600000 0 0 1
-4.520258 30.462865 0.741063 30.805325 -1.423485 1.546738 0.066877 -0.032795 367676.000000 0 0 1
-4.018658 31.833065 1.030563 32.102270 -1.445219 1.538688 0.064058 -0.025439 923343.000000 0 0 1
-2.887658 31.957165 1.920263 32.144772 -1.480681 1.511023 0.070391 -0.030641 -9962.740000 0 0 1
-2.152558 33.322165 1.675863 33.433647 -1.506288 1.520650 0.061949 -0.029474 -590098.000000 0 0 1
-1.385858 33.457565 0.495363 33.489919 -1.529399 1.556004 0.037718 -0.022370 238236.000000 0 0 1
-0.509458 -33.732339 0.570263 33.741006 1.555695 1.553894 0.038788 -0.018267 276518.000000 0 0 1
0.756842 -33.742639 1.447263 33.782141 -1.548370 1.527942 0.029228 -0.009449 -668037.000000 0 0 1
0.485242 -33.692539 2.845263 33.815946 -1.556395 1.486557 0.030059 -0.015834 847079.000000 0 0 1
1.702542 -34.068139 3.523263 34.292129 -1.520863 1.467872 0.017178 -0.011426 805990.000000 0 0 1
1.575642 -34.047739 5.043063 34.455242 -1.524552 1.423903 0.019626 -0.020272 -437341.000000 0 0 1
0.515442 33.559565 5.618063 34.030468 1.555439 1.404948 0.038330 -0.034331 -659552.000000 0 0 1
0.202042 33.952965 6.964963 34.660574 1.564846 1.368471 0.045717 -0.035771 404269.000000 0 0 1
1.198342 33.747265 8.187863 34.747015 1.535302 1.332917 0.028581 -0.026956 132120.000000 0 0 1
1.259342 32.391065 8.563763 33.527677 1.531937 1.312510 0.031828 -0.036022 260791.000000 0 0 1
2.308442 32.155265 9.503563 33.609637 1.499129 1.284123 0.039496 -0.031178 -323026.000000 0 0 1
2.772842 30.675765 9.719763 32.298065 1.480649 1.265119 0.033788 -0.027333 -601233.000000 0 0 1
1.951742 29.755365 10.338763 31.560752 1.505297 1.237052 0.041406 -0.029802 -421718.000000 0 0 1
2.457242 28.447165 10.243363 30.334893 1.484631 1.226350 0.052504 -0.029748 -154583.000000 0 0 1
1.979842 27.524665 11.349363 29.838482 1.498990 1.180611 0.033733 -0.032753 -442925.000000 0 0 1
2.415042 28.007365 12.580663 30.798020 1.484780 1.149998 0.054177 -0.022251 -250682.000000 0 0 1
2.267842 27.087465 13.632463 30.409175 1.487268 1.105933 0.048133 -0.016403 -1481860.000000 0 0 1
0.863442 26.935165 14.126063 30.426868 1.538751 1.087994 0.032510 -0.019786 -1069590.000000 0 0 1
0.311842 28.108265 14.795163 31.765841 1.559702 1.086306 0.039174 -0.022019 157512.000000 0 0 1
-0.140558 29.113465 13.936963 32.277741 -1.565968 1.124328 0.047275 -0.022271 -716544.000000 0 0 1
-0.898658 30.237865 14.683563 33.626524 -1.541085 1.118907 0.036053 -0.019364 420347.000000 0 0 1
-2.063958 29.793765 15.375663 33.590763 -1.501632 1.095351 0.026774 -0.013250 297260.000000 0 0 1
-2.754158 30.886665 15.925963 34.859830 -1.481862 1.096337 0.017653 -0.007291 283562.000000 0 0 1
-4.209158 30.661565 16.456763 35.052441 -1.434371 1.082084 0.005667 0.003180 -240650.000000 0 0 1
-5.054858 30.263265 15.481963 34.367252 -1.405295 1.103487 0.010630 0.001635 -527655.000000 0 0 1
-6.258058 29.823065 16.114663 34.471160 -1.363958 1.084356 0.016187 0.002368 32505.600000 0 0 1
-7.360758 29.411965 15.096563 33.869613 -1.325569 1.108811 0.010713 -0.010768 -348374.000000 0 0 1
-8.509658 28.969465 15.732563 34.046406 -1.285087 1.090444 0.006612 -0.004494 -660318.000000 0 0 1
-9.469558 28.445065 14.853563 33.457773 -1.249430 1.110795 0.014157 -0.010021 351200.000000 0 0 1
-10.751658 27.859065 15.527363 33.657461 -1.202478 1.091297 0.010199 -0.006210 64674.400000 0 0 1
-11.566558 28.760265 16.199763 34.976713 -1.188419 1.089241 0.019274 -0.014485 99026.100000 0 0 1
-11.126458 29.055265 17.517563 35.705343 -1.205082 1.058001 0.026261 -0.015408 -545322.000000 0 0 1
-11.746258 30.365265 18.018663 37.211505 -1.201693 1.065322 0.032338 -0.021999 46520.100000 0 0 1
-13.038258 30.118065 18.542263 37.694954 -1.162249 1.056522 0.029038 -0.016377 305134.000000 0 0 1
-13.847158 31.277565 18.710363 38.988557 -1.154014 1.070263 0.044348 -0.026796 200229.000000 0 0 1
-15.028158 30.957765 19.632463 39.618965 -1.118864 1.052349 0.047283 -0.026408 -244694.000000 0 0 1
-14.573658 30.732465 20.953263 39.948907 -1.127992 1.018667 0.041803 -0.025176 140234.000000 0 0 1
-15.604158 30.474365 21.893263 40.638549 -1.097562 1.001866 0.023087 -0.020657 -131965.000000 0 0 1
-15.147358 30.457565 23.364963 41.267750 -1.109290 0.968933 0.023765 -0.009949 189061.000000 0 0 1
-14.071758 29.514965 23.631263 40.343328 -1.125907 0.944986 0.013980 -0.011336 980923.000000 0 0 1
-13.811858 29.196665 25.003963 40.846185 -1.128930 0.912021 0.034212 -0.008133 -33106.700000 0 0 1
-13.248758 30.351065 25.857263 42.015649 -1.159211 0.907878 0.033519 -0.003042 -415387.000000 0 0 1
-14.237058 31.345065 25.938563 43.104709 -1.144452 0.925097 0.031858 -0.000150 233960.000000 0 0 1
-13.706958 32.525265 26.514663 44.145225 -1.171958 0.926516 0.031542 -0.001538 -323541.000000 0 0 1
-14.733958 33.508665 27.089463 45.538546 -1.156536 0.933694 0.052880 -0.002457 46064.300000 0 0 1
-15.468358 33.096565 28.277763 46.198318 -1.133591 0.912089 0.010440 -0.003455 279854.000000 0 0 1
-14.696058 33.019365 29.434963 46.611904 -1.152046 0.887323 0.038179 0.008144 -620505.000000 0 0 1
-15.328958 32.286765 30.587463 47.042588 -1.127531 0.862938 0.016332 0.004458 -459250.000000 0 0 1
-16.545958 32.822765 31.036063 48.107586 -1.103874 0.869592 0.019695 0.009196 -410560.000000 0 0 1
-16.882558 32.270265 32.286763 48.670585 -1.088792 0.845479 0.009083 0.013367 578454.000000 0 0 1
-18.385158 32.573465 32.574563 49.599867 -1.056949 0.854299 0.015321 0.012176 373269.000000 0 0 1
-18.629758 33.876065 32.984563 50.819652 -1.068000 0.864460 0.034677 0.005319 153563.000000 0 0 1
-20.021458 34.002365 33.245563 51.597355 -1.038634 0.870654 0.026389 0.002382 105168.000000 0 0 1
-20.590958 -32.885639 33.367563 51.174672 1.011379 0.860534 0.038071 0.013554 -90613.800000 0 0 1
-20.169158 -32.062539 -33.826940 50.784478 1.009285 2.299748 0.041026 0.012927 -92266.200000 0 0 1
-20.914658 -32.334039 -32.680040 50.506416 0.996652 2.274502 0.029372 0.003896 -107897.000000 0 0 1
-20.379758 -31.644339 -31.396840 49.014899 0.998633 2.266020 0.043549 0.000878 -49091.300000 0 0 1
-20.473858 -30.221439 -31.554140 48.251197 0.975358 2.283598 0.066544 0.003354 247774.000000 0 0 1
-19.901758 -29.417839 -30.502640 46.817735 0.976003 2.280381 0.065507 -0.002061 39747.700000 0 0 1
-20.255558 -27.911439 -30.643140 46.133915 0.943024 2.297248 0.078818 -0.013402 475666.000000 0 0 1
-21.532258 -27.556339 -30.111840 46.148812 0.907506 2.281668 0.072215 -0.015191 372869.000000 0 0 1
-21.803858 -26.160439 -30.204440 45.520160 0.875979 2.296337 0.076148 -0.014971 -517426.000000 0 0 1
-23.068858 -25.885639 -29.423240 45.474889 0.842874 2.274468 0.078684 -0.020191 -583000.000000 0 0 1
-22.976558 -26.131339 -27.970440 44.644312 0.849552 2.247873 0.072620 -0.021544 -18388.100000 0 0 1
-22.320358 -25.110639 -27.267840 43.269824 0.844159 2.252583 0.070651 -0.028058 -263743.000000 0 0 1
-22.221158 -25.392539 -25.707440 42.419728 0.851906 2.221851 0.061290 -0.018512 -193657.000000 0 0 1
-23.435458 -25.235339 -25.021140 42.568773 0.822362 2.199110 0.055751 -0.017994 -249259.000000 0 0 1
-23.334858 -25.600239 -23.672140 41.955429 0.831659 2.170286 0.051284 -0.009169 743006.000000 0 0 1
-24.752358 -25.611939 -22.930840 42.361233 0.802464 2.142799 0.043433 -0.006351 2135350.000000 0 0 1
-25.743258 -26.532839 -23.493940 43.802649 0.800501 2.136913 0.031135 -0.000774 437502.000000 0 0 1
-25.458058 -27.878939 -23.261340 44.344536 0.830755 2.122994 0.042465 -0.001777 -1485100.000000 0 0 1
-26.721758 -28.782839 -23.287940 45.659964 0.822515 2.106016 0.017366 0.004411 828932.000000 0 0 1
-27.631558 -28.519139 -22.220040 45.503565 0.801204 2.080953 0.015562 0.012891 -72594.300000 0 0 1
-28.538658 -27.477139 -22.460140 45.540159 0.766450 2.086554 0.011420 0.011640 -672734.000000 0 0 1
-29.097758 -26.853339 -21.163740 44.896383 0.745306 2.061663 0.009737 0.008503 149170.000000 0 0 1
-29.988458 -27.717239 -20.470840 45.679407 0.746060 2.035482 0.013826 0.013094 244085.000000 0 0 1
-30.215158 -27.366139 -19.163940 45.045731 0.735960 2.010237 0.012477 0.013214 -905197.000000 0 0 1
-31.097658 -28.451639 -18.453040 46.011681 0.740993 1.983460 0.009571 0.012220 902898.000000 0 0 1
-32.445358 -28.619239 -18.919540 47.219817 0.722823 1.983044 0.013240 0.008635 1223010.000000 0 0 1
-33.318458 -27.491039 -18.930340 47.161792 0.689859 1.983832 0.015790 0.014470 -403066.000000 0 0 1
-33.949858 -26.987439 -17.607440 46.807442 0.671636 1.956453 0.022495 0.006901 100523.000000 0 0 1
-32.984858 -26.171839 -16.896540 45.370244 0.670734 1.952406 0.021508 0.013311 904068.000000 0 0 1
-33.478058 -25.462539 -15.761540 44.917117 0.650234 1.929331 0.028139 0.006043 -193185.000000 0 0 1
-33.209158 -26.215839 -14.429040 44.702523 0.668254 1.899461 0.019496 0.003870 121193.000000 0 0 1
-33.977058 -27.412339 -14.234840 45.918487 0.678867 1.885992 0.029408 0.002772 259323.000000 0 0 1
-33.835558 -28.007539 -12.987640 45.803341 0.691437 1.858293 0.023045 -0.005305 242210.000000 0 0 1
-34.778758 -29.245039 -12.666240 47.172746 0.699180 1.842640 0.039977 -0.007181 392486.000000 0 0 1
-34.482558 -30.296939 -13.566340 47.864359 0.720875 1.858168 0.024515 -0.000830 211365.000000 0 0 1
-34.880458 -31.548939 -13.016640 48.799742 0.735289 1.840801 0.023730 -0.003420 -297852.000000 0 0 1
-34.510058 -32.811039 -13.821140 49.583589 0.760166 1.853283 0.017699 0.003989 -306019.000000 0 0 1
-33.109858 -32.959839 -13.875040 48.735310 0.783128 1.859492 0.012923 0.004948 -296383.000000 0 0 1
-32.902358 -33.769939 -15.011240 49.480413 0.798410 1.879031 0.018955 -0.007524 -21667.800000 0 0 1
-31.409958 -34.067939 -15.246040 48.781673 0.825969 1.888658 0.016534 0.001525 184924.000000 0 0 1
-30.977158 33.381765 -16.283940 48.364173 -0.822743 1.914200 0.025301 0.001034 -389102.000000 0 0 1
-29.581158 33.198465 -16.399240 47.393228 -0.842954 1.924127 0.032901 0.002571 85577.500000 0 0 1
9.326863 20.303865 -9.242737 24.179858 1.140183 1.963026 0.036940 -0.022759 -986472.000000 0 1 0
7.938563 20.213265 -9.192337 23.581687 1.196564 1.971220 0.038857 -0.022287 -650732.000000 0 1 0
7.381463 20.167265 -10.502437 23.906187 1.219929 2.025637 0.043182 -0.026780 -576483.000000 0 1 0
7.502263 18.790065 -11.317337 23.182593 1.190922 2.080802 0.036357 -0.022701 -931050.000000 0 1 0
8.761363 18.519065 -11.855337 23.669945 1.128900 2.095389 0.050552 -0.021940 -475059.000000 0 1 0
8.728163 17.315765 -12.576537 23.112461 1.103907 2.146166 0.046562 -0.028709 -51832.200000 0 1 0
9.982263 17.081065 -13.438937 23.916802 1.041923 2.167482 0.056130 -0.015594 188791.000000 0 1 0
9.847063 15.898665 -14.139837 23.444983 1.016260 2.218187 0.063315 -0.024374 778936.000000 0 1 0
11.089263 15.644165 -14.825237 24.238385 0.954160 2.228932 0.088495 -0.029631 653100.000000 0 1 0
11.004463 14.261765 -15.564637 23.806598 0.913610 2.283386 0.083742 -0.028924 -450612.000000 0 1 0
11.076663 13.108865 -14.849337 22.694441 0.869227 2.284074 0.084717 -0.025419 205761.000000 0 1 0
12.260463 12.748665 -14.150337 22.651257 0.804917 2.245549 0.100726 -0.029721 34772.800000 0 1 0
13.286163 11.968165 -14.995337 23.337079 0.733256 2.268623 0.096359 -0.027671 -252528.000000 0 1 0
13.817763 12.717465 -16.099337 24.735666 0.743956 2.279507 0.074346 -0.017988 30248.200000 0 1 0
14.633163 11.879165 -16.878137 25.300505 0.681893 2.301115 0.062185 -0.023922 223645.000000 0 0 1
15.368163 12.721265 -18.010837 26.877524 0.691445 2.305150 0.040469 -0.018036 150462.000000 0 0 1
16.347663 13.651665 -17.655137 27.664380 0.695770 2.262942 0.028412 -0.012866 -200105.000000 0 0 1
17.070063 14.044365 -18.815237 29.028338 0.688459 2.275972 0.013034 -0.003559 85427.300000 0 0 1
18.358863 14.850365 -18.552637 30.029678 0.680140 2.236751 0.012690 0.008126 -375801.000000 0 0 1
18.232763 16.170765 -18.090737 30.351311 0.725534 2.209362 0.019868 0.002116 97673.900000 0 0 1
17.750863 17.204065 -18.965237 31.156913 0.769757 2.225218 0.022069 0.003258 48940.500000 0 0 1
17.498963 18.530165 -18.201837 31.319125 0.814012 2.190966 0.031980 -0.001644 201036.000000 0 0 1
18.665763 19.318765 -18.126037 32.406460 0.802588 2.164379 0.029321 0.003789 142341.000000 0 0 1
18.318763 20.564565 -17.493537 32.626711 0.843092 2.136692 0.028051 0.007451 263206.000000 0 0 1
19.408063 21.644565 -17.780337 34.077860 0.839823 2.119705 0.041495 -0.001554 792980.000000 0 0 1
20.551663 21.497765 -16.935337 34.224705 0.807894 2.088433 0.031678 0.000149 -164158.000000 0 0 1
20.454263 22.405565 -15.872437 34.239166 0.830894 2.052823 0.037154 0.000006 -506117.000000 0 0 1
21.751963 22.816665 -15.134337 34.968504 0.809283 2.018392 0.025776 -0.007234 -540904.000000 0 0 1
22.190463 21.906365 -14.159637 34.246180 0.778956 1.997054 0.037203 -0.007428 -46671.700000 0 0 1
23.106863 22.581465 -13.293937 34.936778 0.773899 1.961148 0.043390 -0.007816 789276.000000 0 0 1
24.620863 22.556765 -13.680637 36.085376 0.741674 1.959640 0.049510 -0.008628 112374.000000 0 0 1
24.871363 23.250265 -14.908337 37.167433 0.751723 1.983528 0.051287 -0.008585 -761503.000000 0 0 1
26.207563 23.297065 -15.261137 38.242541 0.726673 1.981290 0.060413 0.000914 -845265.000000 0 0 1
26.422863 23.719365 -16.752637 39.261009 0.731534 2.011636 0.056883 -0.002899 -254462.000000 0 0 1
27.058463 22.666965 -17.433237 39.368382 0.697312 2.029541 0.067248 -0.012277 67877.400000 0 0 1
27.233463 23.127865 -18.746737 40.348480 0.704055 2.054003 0.061339 -0.004188 -325615.000000 0 0 1
27.843363 22.140365 -19.765737 40.695614 0.671792 2.077957 0.064988 -0.010741 -232691.000000 0 0 1
29.222163 21.930165 -19.773037 41.543230 0.643798 2.066855 0.070499 -0.005298 -685743.000000 0 0 1
29.654963 21.182665 -20.901737 42.011960 0.620262 2.091532 0.077737 -0.021107 -169838.000000 0 0 1
31.139963 21.394965 -21.182537 43.314452 0.601987 2.081786 0.096813 -0.029776 -601973.000000 0 0 1
31.359863 22.669865 -21.709737 44.369770 0.625927 2.082073 0.074623 -0.007408 407794.000000 0 0 1
32.751263 22.990765 -21.654837 45.498928 0.612054 2.066831 0.082613 -0.010691 324494.000000 0 0 1
33.186463 24.312765 -22.314837 46.801750 0.632279 2.067801 0.058920 0.000765 -60732.700000 0 0 1
33.321063 24.492265 -23.724237 47.676029 0.633857 2.091642 0.064942 -0.005295 600409.000000 0 0 1
32.056063 24.355365 -24.375637 47.063220 0.649727 2.115230 0.078016 -0.015678 360371.000000 0 0 1
32.120763 24.706965 -25.884867 48.085381 0.655670 2.139227 0.075620 -0.018118 -143629.000000 0 0 1
32.058563 26.083165 -26.145767 48.904848 0.682985 2.134861 0.067494 -0.013991 -504417.000000 0 0 1
30.753963 26.536565 -26.392067 48.441065 0.711916 2.146981 0.064217 -0.006948 -161043.000000 0 0 1
30.176663 26.433165 -27.776937 48.794482 0.719366 2.176407 0.067401 -0.003531 -274766.000000 0 0 1
29.605463 25.174865 -28.041207 47.922506 0.704694 2.195845 0.072752 -0.015082 -82862.500000 0 0 1
29.366363 24.893565 -29.419327 48.451725 0.703151 2.223314 0.070844 -0.017816 -302514.000000 0 0 1
28.549863 23.628465 -29.591287 47.424080 0.691358 2.244611 0.084451 -0.023799 -137413.000000 0 0 1
27.193563 23.661965 -29.234317 46.411462 0.716066 2.252213 0.079302 -0.022877 -158253.000000 0 0 1
26.468463 22.474165 -29.465767 45.540082 0.703967 2.274478 0.094383 -0.035023 407794.000000 0 0 1
25.057163 22.583965 -28.806497 44.358891 0.733532 2.277587 0.086021 -0.023638 208047.000000 0 0 1
25.066663 22.376965 -27.370787 43.338507 0.728766 2.254358 0.051458 -0.010961 778977.000000 0 0 1
23.789763 22.660565 -26.784407 42.389368 0.761093 2.254755 0.054304 -0.020182 384033.000000 0 0 1
23.971163 22.839065 -25.245327 41.636115 0.761218 2.222237 0.061539 -0.014894 -246124.000000 0 0 1
24.186063 21.592465 -24.557137 40.672511 0.728803 2.219027 0.051009 -0.009517 267368.000000 0 0 1
24.499663 21.820565 -23.178037 40.169540 0.727624 2.185854 0.052094 -0.012433 -18099.100000 0 0 1
25.130163 20.531765 -22.521837 39.500780 0.685031 2.177499 0.054613 -0.007386 27485.600000 0 0 1
26.463263 20.297865 -22.911237 40.462729 0.654306 2.172722 0.055559 -0.011923 -54052.000000 0 0 1
26.673363 18.909065 -22.605537 39.749608 0.616682 2.175719 0.080610 -0.020606 -42444.300000 0 0 1
27.902563 18.266565 -23.283237 40.673450 0.579641 2.180279 0.094110 -0.032717 463862.000000 0 0 1
29.130663 18.465565 -22.566637 41.216814 0.564965 2.150183 0.115039 -0.045042 440069.000000 0 0 1
30.161863 17.931465 -23.374037 42.161843 0.536371 2.158424 0.099735 -0.040351 607483.000000 0 0 1
31.450463 17.322765 -22.708537 42.483967 0.503454 2.134736 0.101147 -0.032622 833020.000000 0 0 1
32.373063 18.360965 -22.432437 43.455201 0.515928 2.113228 0.092899 -0.033256 -542670.000000 0 0 1
33.598463 17.938665 -21.911237 43.940354 0.490409 2.092847 0.093851 -0.026761 -212740.000000 0 0 1
34.231763 19.055665 -21.065337 44.482361 0.507947 2.064132 0.077738 -0.032216 299935.000000 0 0 1
33.445063 19.324265 -19.859337 43.432623 0.523929 2.045691 0.079004 -0.024261 379078.000000 0 0 1
33.905063 20.358465 -19.059937 43.901043 0.540754 2.019898 0.051035 -0.008771 -370877.000000 0 0 1
33.302963 20.451065 -17.633137 42.874945 0.550716 1.994642 0.055659 -0.013142 -42892.200000 0 0 1
33.658463 19.342465 -16.828137 42.310865 0.521585 1.979834 0.063946 -0.028330 549442.000000 0 0 1
33.095463 19.419365 -15.484137 41.378496 0.530633 1.954338 0.061193 -0.020823 -123845.000000 0 0 1
33.481463 18.258165 -14.547737 40.816732 0.499244 1.935226 0.057420 -0.003736 -965025.000000 0 0 1
34.852363 18.234665 -14.314037 41.857877 0.482033 1.919806 0.054006 -0.010306 -510670.000000 0 0 1
35.330963 17.235065 -13.455537 41.549680 0.453854 1.900584 0.046367 -0.000433 72991.000000 0 0 1
35.089463 17.548265 -11.966337 41.017134 0.463728 1.866842 0.044506 -0.007840 -764822.000000 0 0 1
36.067263 18.448565 -11.586437 42.136001 0.472809 1.849362 0.045288 -0.014870 -312478.000000 0 0 1
36.043863 18.836065 -10.211837 41.931361 0.481554 1.816807 0.056597 -0.014552 -481515.000000 0 0 1
34.986663 19.865465 -9.807137 41.411149 0.516407 1.809891 0.059380 -0.015336 322650.000000 0 0 1
33.669563 19.375965 -10.031037 40.120932 0.522191 1.823497 0.070391 -0.019391 -147840.000000 0 0 1
32.678163 20.384165 -10.075037 39.810588 0.557726 1.826653 0.058316 -0.006605 147873.000000 0 0 1
31.300563 19.703865 -10.253137 38.380912 0.561832 1.841222 0.040749 -0.005483 -111102.000000 0 0 1
31.029863 19.219665 -11.528837 38.277435 0.554557 1.876738 0.053727 -0.013679 -569621.000000 0 0 1
29.679563 18.932965 -11.717737 37.103086 0.567831 1.892113 0.051254 -0.016608 -383141.000000 0 0 1
29.379763 18.299465 -13.128837 37.019012 0.557059 1.933337 0.080957 -0.017911 -118572.000000 0 0 1
30.053163 17.043965 -13.183537 36.979657 0.515898 1.935324 0.087226 -0.020415 252757.000000 0 0 1
29.593563 16.116465 -14.151437 36.548360 0.498683 1.968386 0.087809 -0.028786 214508.000000 0 0 1
30.781463 15.571765 -15.048137 37.635419 0.468342 1.982138 0.075839 -0.027311 543759.000000 0 0 1
31.586963 14.672665 -14.350337 37.669026 0.434860 1.961629 0.060646 -0.028286 583674.000000 0 0 1
32.770363 14.341765 -15.089837 38.823783 0.412532 1.969990 0.059463 -0.020197 939039.000000 0 0 1
33.832663 13.400165 -14.428137 39.145685 0.377115 1.948272 0.046412 -0.025026 -80275.700000 0 0 1
34.560463 14.002065 -13.417337 39.629640 0.384935 1.916191 0.049349 -0.011498 255564.000000 0 0 1
35.312263 13.033065 -12.622337 39.700631 0.353571 1.894350 0.048063 -0.007091 308530.000000 0 0 1
36.244063 13.727665 -11.617037 40.460307 0.362060 1.862017 0.069594 -0.004596 107117.000000 0 0 1
-35.365717 13.905865 -12.099237 39.881055 -0.374632 1.879037 0.043567 -0.006635 -270352.000000 0 0 1
-34.572017 14.383165 -11.060237 39.043932 -0.394253 1.858005 0.027049 -0.007641 -238585.000000 0 0 1
-33.088617 14.619465 -11.470437 37.949391 -0.416037 1.877855 0.047445 -0.017190 331258.000000 0 0 1
-32.239917 13.543865 -11.827437 36.915265 -0.397710 1.896942 0.038828 -0.016805 219676.000000 0 0 1
-32.025317 12.544065 -10.783137 36.045118 -0.373324 1.874605 0.064950 -0.010182 -747265.000000 0 0 1
-30.827617 11.660265 -11.154537 34.795509 -0.361609 1.897132 0.077047 -0.009311 -239684.000000 0 0 1
-31.037017 10.910565 -12.348037 35.139876 -0.338041 1.929859 0.063867 -0.004437 -563116.000000 0 0 1
-30.145417 9.901765 -12.551637 34.122349 -0.317364 1.947484 0.087736 -0.013705 -942528.000000 0 0 1
-30.299817 9.159765 -13.914037 34.577169 -0.293570 1.984939 0.082608 -0.018408 704082.000000 0 0 1
-31.507717 8.399465 -14.189137 35.561480 -0.260526 1.981226 0.067211 -0.020869 1038690.000000 0 0 1
-31.350217 7.695765 -15.376837 35.756230 -0.240717 2.015340 0.073417 -0.025555 -912591.000000 0 0 1
-32.558517 7.295765 -16.190837 37.086769 -0.220440 2.022575 0.067847 -0.029903 -1017620.000000 0 0 1
-33.339717 6.415065 -15.436537 37.295797 -0.190092 1.997525 0.087746 -0.031946 -106927.000000 0 0 1
-34.439817 5.964565 -16.211837 38.529218 -0.171487 2.005087 0.064748 -0.033445 138363.000000 0 0 1
-35.297017 5.014365 -15.326437 38.806223 -0.141118 1.976807 0.070631 -0.028077 11936.400000 0 0 1
36.428463 4.475865 -15.807537 39.961788 0.122255 1.977481 0.062570 -0.022972 339951.000000 0 0 1
35.615763 3.993565 -14.730837 38.748273 0.111663 1.960774 0.066061 -0.025358 546166.000000 0 0 1
34.446663 3.074865 -15.126137 37.746886 0.089029 1.983105 0.062418 -0.022908 128803.000000 0 0 1
35.002563 1.821165 -15.577637 38.355688 0.051983 1.989018 0.070698 -0.027938 475166.000000 0 0 1
34.128663 0.721865 -15.371337 37.437478 0.021148 1.993894 0.063183 -0.018648 58963.600000 0 0 1
33.705563 0.356565 -13.909637 36.464642 0.010578 1.962167 0.063328 -0.022607 -619107.000000 0 0 1
34.661163 -0.298235 -13.141537 37.070003 -0.008604 1.933182 0.075573 -0.023776 -75377.600000 0 0 1
34.477063 -0.115435 -11.727537 36.417253 -0.003348 1.898672 0.071915 -0.020285 -188136.000000 0 0 1
34.742463 1.353465 -11.203837 36.529393 0.038937 1.882528 0.069550 -0.026515 443835.000000 0 0 1
33.667363 2.221365 -11.649637 35.695095 0.065884 1.903252 0.063166 -0.023841 1179640.000000 0 0 1
33.391863 3.286565 -10.831637 35.258224 0.098108 1.883055 0.070187 -0.020507 -692733.000000 0 0 1
32.235963 4.122765 -11.359737 34.426707 0.127203 1.907067 0.061660 -0.011515 -587730.000000 0 0 1
32.510163 4.808765 -12.576637 35.188162 0.146851 1.936291 0.060346 -0.015330 -458991.000000 0 0 1
31.459863 5.574365 -12.995437 34.491708 0.175370 1.957103 0.063203 -0.015126 -968107.000000 0 0 1
31.625063 6.253965 -14.419537 35.315432 0.195234 1.991395 0.036823 -0.009080 -183044.000000 0 0 1
31.633763 5.307065 -15.521737 35.634032 0.166218 2.021487 0.029180 -0.004532 86129.600000 0 0 1
32.238763 5.752565 -16.712237 36.765863 0.176578 2.042673 0.032440 -0.004670 -774636.000000 0 0 1
31.467963 6.807265 -17.591237 36.688189 0.213041 2.070858 0.040755 -0.003236 1417700.000000 0 0 1
30.195963 6.456565 -18.193637 35.839808 0.210650 2.103237 0.044474 -0.007230 1280670.000000 0 0 1
29.132863 6.162965 -17.302837 34.439716 0.208473 2.097179 0.049450 -0.004642 379808.000000 0 0 1
27.711063 6.143165 -18.008637 33.614766 0.218158 2.136175 0.054856 -0.010975 1021840.000000 0 0 1
27.681263 5.032065 -18.864337 33.873843 0.179822 2.161445 0.054819 -0.003451 -245010.000000 0 0 1
26.584063 5.189065 -19.700437 33.492477 0.192771 2.199634 0.054506 -0.006875 -495008.000000 0 0 1
26.027263 3.929465 -20.361137 33.278146 0.149843 2.229190 0.056234 0.008805 -171589.000000 0 0 1
25.274763 3.137265 -19.472037 32.059574 0.123495 2.223543 0.058791 -0.005648 109384.000000 0 0 1
24.881363 1.949865 -20.168837 32.088412 0.078207 2.250470 0.054837 -0.005340 -337786.000000 0 0 1
23.851763 1.156765 -19.343137 30.731119 0.048460 2.251618 0.054421 -0.014576 232626.000000 0 0 1
22.573263 1.804065 -19.350937 29.787004 0.079751 2.277912 0.059585 -0.021545 558311.000000 0 0 1
21.753963 1.109665 -18.416537 28.524290 0.050966 2.272663 0.066506 -0.023916 227209.000000 0 0 1
20.265463 1.540965 -18.384737 27.405513 0.075893 2.306138 0.061262 -0.030494 -629849.000000 0 0 1
19.467063 1.127165 -19.504637 27.580209 0.057837 2.356322 0.052136 -0.024989 897165.000000 0 0 1
18.265463 1.851665 -19.774837 26.983328 0.101030 2.393303 0.043011 -0.025844 1190670.000000 0 0 1
17.154263 1.808365 -18.654137 25.407002 0.105030 2.395302 0.054158 -0.030476 -652311.000000 0 0 1
17.513463 2.341765 -17.398337 24.797326 0.132924 2.348467 0.059295 -0.031880 237852.000000 0 1 0
16.471163 2.292065 -16.408337 23.362070 0.138268 2.349489 0.045747 -0.019173 791424.000000 0 1 0
15.409963 3.441565 -16.368637 22.742990 0.219728 2.374199 0.047077 -0.018255 146307.000000 0 1 0
14.392363 3.254465 -17.337837 22.766911 0.222384 2.436477 0.036939 -0.025059 227816.000000 0 1 0
13.668163 4.469565 -17.413937 22.584085 0.316045 2.451318 0.047330 -0.020192 -226201.000000 0 1 0
-19.772337 -21.802235 -17.434437 34.208805 0.834185 2.105572 0.034906 -0.005499 21788.700000 0 0 1
-19.491537 -22.461335 -18.625637 35.090539 0.856069 2.130326 0.037077 -0.011686 573308.000000 0 0 1
-20.544837 -22.258735 -19.596037 36.076949 0.825418 2.145008 0.042470 -0.011061 419541.000000 0 0 1
-20.369937 -22.948235 -20.945237 37.151834 0.844848 2.169744 0.026222 -0.004085 -132038.000000 0 0 1
-20.318537 -24.355435 -20.879337 37.973370 0.875517 2.152971 0.028673 -0.003016 189920.000000 0 0 1
-19.889737 -24.973235 -22.072537 38.813155 0.898229 2.175705 0.027859 -0.008085 -111943.000000 0 0 1
-19.769737 -26.483575 -21.857837 39.623065 0.929545 2.155131 0.038049 0.000011 69865.400000 0 0 1
-21.046237 -27.032795 -21.600837 40.500768 0.909276 2.133345 0.035168 0.002605 -2694.900000 0 0 1
-20.944837 -28.428125 -21.491137 41.336587 0.935820 2.117537 0.067850 -0.012053 -218814.000000 0 0 1
-22.216237 -29.253305 -21.747337 42.687981 0.921279 2.105340 0.058574 -0.011326 -335704.000000 0 0 1
-22.770137 -29.186435 -23.044737 43.604897 0.908270 2.127617 0.038220 -0.008852 -8161.500000 0 0 1
-21.917737 -29.620865 -24.105337 44.032376 0.933763 2.150105 0.038348 -0.010109 -89914.300000 0 0 1
-22.572637 -29.108735 -25.418287 44.754125 0.911199 2.174814 0.032566 -0.002163 -284765.000000 0 0 1
-23.859437 -29.593005 -25.656787 45.861633 0.892254 2.164505 0.035562 0.001715 -274426.000000 0 0 1
-24.450337 -29.044345 -26.851587 46.501620 0.871066 2.186378 0.035047 0.002348 77946.300000 0 0 1
-23.794137 -29.267815 -28.244957 47.122644 0.888191 2.213538 0.045493 -0.016549 -372505.000000 0 0 1
-24.139037 -30.554215 -28.694597 48.369753 0.902158 2.205867 0.038023 -0.008078 177403.000000 0 0 1
-23.948537 -30.612725 -30.100107 49.159819 0.906938 2.229751 0.061731 -0.011367 -302496.000000 0 0 1
-24.414637 -31.900635 -30.825397 50.635265 0.917554 2.225310 0.036279 -0.008318 52537.100000 0 0 1
-23.676637 -33.110135 -30.673567 50.967950 0.950016 2.216575 0.025291 -0.017973 -265368.000000 0 0 1
-24.465237 -34.125078 -31.186407 52.303544 0.948799 2.209628 0.033683 -0.019292 -104212.000000 0 0 1
-23.842337 32.761526 -31.010787 51.023951 -0.941685 2.224045 0.043816 -0.021488 101423.000000 0 0 1
-22.867937 32.386840 -31.948547 50.917184 -0.955997 2.249084 0.041223 -0.031678 -308819.000000 0 0 1
-22.416337 31.093790 -31.600757 49.678203 -0.946163 2.260241 0.050990 -0.026422 -1745.650000 0 0 1
-21.214337 30.658060 -32.482097 49.447461 -0.965483 2.287498 0.043568 -0.013393 77707.200000 0 0 1
-21.514837 30.443670 -33.837567 50.345667 -0.955581 2.307844 0.032715 -0.003147 -108220.000000 0 0 1
-20.623337 29.512920 33.938148 49.478605 -0.960883 0.814935 0.024202 0.002595 -316678.000000 0 0 1
-20.815237 29.225940 32.474570 48.394497 -0.951917 0.835188 0.007660 0.004669 -107777.000000 0 0 1
-20.359537 30.309580 31.660176 48.327509 -0.979304 0.856459 0.009835 0.007253 206273.000000 0 0 1
-20.369337 29.998900 30.305076 47.257185 -0.974302 0.874631 0.018944 0.003737 -515673.000000 0 0 1
-19.986837 31.246770 29.464716 47.370917 -1.001735 0.899502 0.011319 -0.011147 -515470.000000 0 0 1
-20.999537 32.235250 29.446996 48.448090 -0.993405 0.917503 0.000725 -0.004773 -11040.700000 0 0 1
-20.632737 33.502948 28.889936 48.813786 -1.018805 0.937457 0.008455 -0.011767 -305733.000000 0 0 1
-21.688137 -33.696235 28.971576 49.448597 0.998907 0.944815 0.031908 -0.018045 -225104.000000 0 0 1
-21.998037 -33.208205 30.280096 50.035814 0.985734 0.920819 0.015471 -0.000838 -201122.000000 0 0 1
-23.173537 -32.449705 30.353976 50.113471 0.950645 0.920145 0.027379 -0.006267 -335420.000000 0 0 1
-22.959237 -30.936955 30.152326 48.922229 0.932351 0.906720 0.051393 0.001361 -288052.000000 0 0 1
-22.424137 -30.675205 28.845686 47.706223 0.939555 0.921467 0.038285 0.002459 -8258.240000 0 0 1
-22.539237 -29.323955 28.475416 46.677198 0.915479 0.914673 0.044477 -0.002375 102145.000000 0 0 1
-23.862037 -28.750395 27.857226 46.604796 0.878045 0.930126 0.033415 0.004298 -178809.000000 0 0 1
-24.872637 -28.687835 28.828696 47.673196 0.856510 0.921388 0.032287 0.008556 602142.000000 0 0 1
-25.909787 -29.698185 28.670776 48.737179 0.853420 0.941875 0.016153 0.007151 1328170.000000 0 0 1
-27.008527 -29.596055 27.511676 48.603285 0.831079 0.969095 0.012732 0.014107 798229.000000 0 0 1
-26.397627 -29.821675 26.191546 47.667222 0.846228 0.989071 0.012766 0.017359 439945.000000 0 0 1
-27.373147 -29.886505 25.147336 47.695711 0.829264 1.015441 0.015503 0.012024 -232855.000000 0 0 1
-26.985917 -30.046425 23.710766 46.831910 0.839009 1.039913 0.025648 0.009455 -828017.000000 0 0 1
-26.328817 -28.890095 23.242066 45.475683 0.831749 1.034346 0.006920 0.006630 421242.000000 0 0 1
-25.668647 -28.911705 21.974466 44.470701 0.844746 1.053958 0.033832 0.005165 -151762.000000 0 0 1
-24.371437 -29.693675 21.811266 44.174796 0.883523 1.054401 0.037082 -0.003910 -938500.000000 0 0 1
-24.557537 -31.084425 21.652666 45.145897 0.902166 1.070580 0.044212 -0.016569 122843.000000 0 0 1
-23.375237 -31.847205 21.615366 45.031880 0.937627 1.070140 0.052186 -0.007026 -14020.800000 0 0 1
-22.781237 -32.405335 22.935766 45.772697 0.958054 1.045950 0.047049 -0.016729 -174951.000000 0 0 1
-22.136237 -31.461905 23.725726 45.197063 0.957666 1.018152 0.075825 -0.030647 -76764.000000 0 0 1
-21.501837 -32.150955 24.796326 45.944212 0.981334 1.000710 0.063220 -0.037839 -59550.700000 0 0 1
-20.357037 -31.341275 25.433216 45.205452 0.994753 0.973252 0.056647 -0.020040 -823151.000000 0 0 1
-19.193737 -31.379245 24.634476 44.270915 1.021840 0.980691 0.066753 -0.026450 1242360.000000 0 0 1
-18.031037 -30.685725 25.192486 43.604969 1.039542 0.954835 0.088489 -0.030370 1366780.000000 0 0 1
-17.309437 -31.274975 26.428806 44.454723 1.065301 0.934139 0.059915 -0.025073 -64928.400000 0 0 1
-18.201537 -31.301975 27.592336 45.524131 1.044104 0.919644 0.055775 -0.016497 890826.000000 0 0 1
-17.642637 -32.016115 28.709556 46.481532 1.067144 0.905039 0.059737 -0.013788 193428.000000 0 0 1
-18.224437 -31.558105 30.067666 47.245196 1.047094 0.880952 0.068382 -0.010514 269071.000000 0 0 1
-17.800137 -30.210895 30.298556 46.341617 1.038359 0.858189 0.080155 -0.009576 466289.000000 0 0 1
-18.602437 -29.624345 31.299886 46.939698 1.010083 0.840876 0.066199 0.001904 147340.000000 0 0 1
-18.262837 -28.108105 31.387656 45.921473 0.994607 0.818240 0.069797 -0.004299 13126.300000 0 0 1
-18.988037 -27.324515 30.442866 45.099254 0.963496 0.829806 0.085746 -0.011256 199635.000000 0 0 1
-18.875537 -27.581295 29.047056 44.280302 0.970644 0.855314 0.099176 -0.001892 393741.000000 0 0 1
-17.449537 -27.349405 28.426576 43.134052 1.002887 0.851270 0.083157 -0.007105 342812.000000 0 0 1
-17.039237 -26.044205 28.438596 42.159102 0.991444 0.830436 0.070794 -0.006966 273605.000000 0 0 1
-15.758237 -25.973475 27.821776 41.194594 1.025461 0.829324 0.060818 -0.015271 99143.200000 0 0 1
-15.578237 -24.613035 26.989936 39.710698 1.006517 0.823492 0.067171 -0.005460 -308915.000000 0 0 1
-16.330337 -24.415435 25.805986 39.099134 0.981282 0.849959 0.089845 -0.017217 -21062.300000 0 0 1
-16.103637 -23.171835 25.087166 37.757475 0.963457 0.844067 0.068045 -0.016888 -263794.000000 0 0 1
-16.835437 -21.946335 25.610926 37.696061 0.916429 0.823844 0.078801 -0.017078 -390145.000000 0 0 1
-16.687437 -20.868935 24.744116 36.417774 0.896281 0.823781 0.058867 -0.015315 185206.000000 0 0 1
-17.384137 -19.719335 25.225356 36.433212 0.848253 0.806024 0.070561 -0.010438 22973.100000 0 0 1
-17.118637 -18.480035 24.370726 35.049846 0.823622 0.801937 0.058761 -0.018255 -481509.000000 0 0 1
-15.775437 -18.132935 24.537906 34.347875 0.854812 0.775039 0.061855 -0.016593 -587336.000000 0 0 1
-15.409237 -17.095035 23.632056 32.987253 0.837216 0.772168 0.056685 -0.012983 -488051.000000 0 0 1
-14.030737 -16.517435 23.897306 32.260943 0.866622 0.736610 0.053324 -0.014865 -1128650.000000 0 0 1
-12.990737 -17.453535 23.756576 32.214283 0.930951 0.741502 0.022434 -0.007762 326173.000000 0 0 1
-11.670337 -16.905535 23.786446 31.429108 0.966592 0.712349 0.018333 -0.012323 534433.000000 0 0 1
-11.254537 -16.190435 22.501966 29.918777 0.963343 0.719551 0.017284 -0.006727 -724411.000000 0 0 1
-10.712537 -16.939635 21.426666 29.339592 1.006897 0.752037 0.045326 -0.006044 1277790.000000 0 0 1
-9.309637 -17.310635 21.530166 29.152623 1.077369 0.739905 0.041382 -0.009484 938899.000000 0 0 1
-8.968237 -18.507535 20.646166 29.141418 1.119567 0.783452 0.041121 -0.008211 -114722.000000 0 0 1
-8.946437 -18.154135 19.257066 27.936462 1.112922 0.810251 0.033738 -0.009362 36367.000000 0 0 1
-8.548637 -19.326735 18.442666 28.048775 1.154346 0.853272 0.035955 -0.015170 20989.100000 0 0 1
-8.346737 -18.980135 16.992966 26.808103 1.156489 0.884244 0.030457 -0.018516 -1437300.000000 0 0 1
-7.221237 -18.239435 16.757866 25.800180 1.193818 0.863837 0.049012 -0.016692 -992169.000000 0 0 1
-6.963437 -18.058235 15.363666 24.710959 1.202756 0.899841 0.055525 -0.014765 214480.000000 0 1 0
-5.861337 -17.014735 15.098766 23.491045 1.239042 0.872719 0.028572 -0.018472 275035.000000 0 1 0
-6.302837 -15.723335 15.532366 22.982676 1.189550 0.828707 0.023610 -0.020991 230419.000000 0 1 0
-5.185637 -14.853035 15.558466 22.126213 1.234897 0.790952 0.012181 -0.011523 -473233.000000 0 1 0
-5.279437 -13.671535 16.536966 22.096483 1.202275 0.725153 -0.008064 -0.008799 -371582.000000 0 1 0
-4.999637 -14.018035 17.896766 23.276509 1.228203 0.693714 0.002745 -0.009365 31111.500000 0 1 0
-5.941037 -14.838635 18.562166 24.495612 1.189966 0.710900 0.033385 -0.021810 -80765.400000 0 1 0
-7.232037 -14.251335 19.160466 24.950478 1.101195 0.695178 0.043345 -0.024107 85944.300000 0 1 0
-6.991237 -13.415735 20.241266 25.269906 1.090394 0.641828 0.034712 -0.026919 -986666.000000 0 0 1
-8.183837 -12.961535 20.748766 25.797051 1.007612 0.636287 0.040499 -0.014651 -546779.000000 0 0 1
-7.934937 -11.919835 21.881166 26.150164 0.983469 0.579474 0.044925 -0.014346 -204988.000000 0 0 1
-7.427437 -10.668635 21.421666 25.057421 0.962629 0.545432 0.028718 -0.012674 31805.500000 0 0 1
-7.206837 -9.824935 22.559066 25.639409 0.937923 0.495231 0.033020 -0.019238 -708909.000000 0 0 1
-5.815837 -9.904735 23.146866 25.839991 1.039859 0.460620 0.042580 -0.020596 -786650.000000 0 0 1
-5.685437 -11.096935 23.877126 26.936653 1.097323 0.481249 0.050095 -0.020455 312501.000000 0 0 1
-4.308337 -11.370935 24.146086 27.035040 1.208619 0.466517 0.045697 -0.018859 309144.000000 0 0 1
-4.157337 -12.482235 25.201446 28.428902 1.249291 0.481130 0.050846 -0.020542 -1032820.000000 0 0 1
-2.837337 -12.784435 25.532356 28.694833 1.352399 0.473913 0.043632 -0.020056 -492115.000000 0 0 1
-2.660737 -13.795035 26.535066 30.024860 1.380260 0.486938 0.043389 -0.028045 -75878.100000 0 0 1
-2.709237 -15.260635 26.097256 30.352820 1.395096 0.535925 0.052606 -0.034723 -509736.000000 0 0 1
-1.576837 -15.755835 25.470156 29.991025 1.471049 0.556216 0.058742 -0.032404 -353231.000000 0 0 1
-1.877537 -17.073735 25.066756 30.387165 1.461270 0.600749 0.078725 -0.027326 -11431.500000 0 0 1
-0.524337 -17.825135 24.918866 30.642458 1.541389 0.621143 0.084058 -0.027574 708290.000000 0 0 1
0.165263 -18.258135 26.082366 31.838288 -1.561745 0.610758 0.082427 -0.030318 133485.000000 0 0 1
0.684263 -17.302335 26.962596 32.044041 -1.531269 0.570885 0.075829 -0.032658 -689134.000000 0 0 1
1.375563 -17.889435 28.197136 33.421587 -1.494055 0.566694 0.064469 -0.028530 682975.000000 0 0 1
2.693063 -18.438335 27.939976 33.583731 -1.425764 0.588184 0.066688 -0.026810 1194890.000000 0 0 1
3.525363 -18.515635 29.088496 34.661181 -1.382649 0.574942 0.047972 -0.024656 190820.000000 0 0 1
4.348063 -17.245235 29.408276 34.367869 -1.323813 0.543912 0.045240 -0.027170 -1237330.000000 0 0 1
3.621563 -16.162335 29.806336 34.099185 -1.350363 0.507202 0.035149 -0.025785 -271089.000000 0 0 1
4.419263 -15.209635 30.489826 34.358293 -1.288025 0.479105 0.045559 -0.026781 -756907.000000 0 0 1
3.550363 -14.345735 31.370646 34.677407 -1.328186 0.440257 0.034271 -0.029448 -290868.000000 0 0 1
3.005863 -15.019935 32.475249 35.906482 -1.373281 0.440732 0.018281 -0.035585 -325774.000000 0 0 1
2.041363 -14.216835 33.060198 36.045280 -1.428183 0.409838 0.018846 -0.022940 -4542.790000 0 0 1
1.049963 -14.845635 34.087918 37.195180 -1.500189 0.411653 0.025320 -0.015375 415896.000000 0 0 1
1.653763 -15.021635 -32.962757 36.261933 -1.461146 2.711718 0.041158 -0.013742 -465482.000000 0 0 1
0.847263 -15.683035 -32.041467 35.683765 -1.516825 2.685836 0.046409 -0.017550 -219214.000000 0 0 1
1.564063 -15.931635 -30.679267 34.604634 -1.472937 2.660663 0.052424 -0.015202 118108.000000 0 0 1
0.941563 -16.846235 -29.823247 34.265263 -1.514963 2.626737 0.042077 -0.018321 -481446.000000 0 0 1
1.656363 -16.847035 -28.626667 33.257363 -1.472794 2.607561 0.048475 -0.013071 81227.600000 0 0 1
1.262063 -18.017135 -27.739647 33.101329 -1.500863 2.564445 0.069165 -0.024679 3405.870000 0 0 1
1.867263 -19.197535 -28.234267 34.193652 -1.473836 2.542268 0.069447 -0.022495 117596.000000 0 0 1
1.668763 -20.187635 -27.256537 33.959449 -1.488321 2.502471 0.101166 -0.039776 -701810.000000 0 0 1
2.671463 -21.347935 -27.337277 34.787897 -1.446304 2.474829 0.096296 -0.040622 -24258.300000 0 0 1
4.003963 -21.036735 -26.969417 34.437267 -1.382714 2.470506 0.076757 -0.038918 195761.000000 0 0 1
4.214363 -21.462935 -25.676187 33.729587 -1.376908 2.436014 0.086269 -0.041763 -171185.000000 0 0 1
5.705163 -21.761235 -25.294527 33.851342 -1.314396 2.414671 0.079455 -0.041016 649233.000000 0 0 1
6.272063 -23.049035 -25.582377 35.000783 -1.305111 2.390449 0.074703 -0.036966 178051.000000 0 0 1
6.219463 -23.475235 -26.932007 36.264326 -1.311809 2.407828 0.061360 -0.026282 -343894.000000 0 0 1
5.426363 -24.791735 -27.321877 37.290220 -1.355317 2.393051 0.043105 -0.012249 -52736.000000 0 0 1
5.998463 -25.884335 -26.677417 37.651891 -1.343075 2.358206 0.056681 -0.009866 450413.000000 0 0 1
5.166063 -27.070865 -26.775817 38.424788 -1.382229 2.341774 0.053318 -0.010388 353985.000000 0 0 1
5.498063 -28.150205 -25.715167 38.521845 -1.377913 2.301707 0.051767 -0.019461 -400299.000000 0 0 1
6.858163 -28.463555 -25.739177 38.983504 -1.334358 2.291959 0.055308 -0.021063 -678388.000000 0 0 1
7.188763 -29.602635 -24.981537 39.396339 -1.332566 2.257651 0.046488 -0.019503 638129.000000 0 0 1
8.720163 -29.869405 -25.198967 40.040111 -1.286748 2.251504 0.056661 -0.030679 603055.000000 0 0 1
8.997563 -30.497355 -26.482097 41.380506 -1.283908 2.265250 0.059887 -0.024805 -212278.000000 0 0 1
10.379163 -30.707845 -26.646557 41.961146 -1.244854 2.258843 0.095651 -0.035041 72532.900000 0 0 1
10.880263 -30.649875 -28.174007 43.029869 -1.229687 2.284654 0.103302 -0.043474 -15528.500000 0 0 1
10.372363 -31.635555 -29.015657 44.162230 -1.253970 2.287661 0.104592 -0.046341 -71820.500000 0 0 1
10.317063 -31.147245 -30.322607 44.677211 -1.250935 2.316793 0.100563 -0.032277 23604.000000 0 0 1
-34.625069 -4.616335 -5.120937 35.304815 0.132542 1.716359 0.110609 -0.021280 2284.150000 0 0 1
-34.349465 -3.763235 -4.010237 34.786918 0.109122 1.686333 0.100347 -0.036190 308573.000000 0 0 1
-33.732037 -2.551335 -4.408137 34.114386 0.075492 1.700375 0.107750 -0.029452 -310579.000000 0 0 1
-34.640510 -1.475735 -5.046537 35.037270 0.042576 1.715332 0.121006 -0.026390 -582392.000000 0 0 1
-35.310620 -0.661635 -4.124937 35.556895 0.018735 1.687068 0.091116 -0.027560 -166657.000000 0 0 1
-36.120507 0.213765 -4.832637 36.442984 -0.005918 1.703796 0.082354 -0.030339 -513346.000000 0 0 1
36.078892 1.210565 -3.897937 36.309033 0.033541 1.678358 0.079102 -0.023099 237264.000000 0 0 1
-36.033447 2.197065 -3.270537 36.248211 -0.060898 1.661145 0.074909 -0.024612 129208.000000 0 0 1
36.069152 2.972465 -2.467837 36.275467 0.082224 1.638879 0.085618 -0.029228 -219096.000000 0 0 1
-36.171047 4.291865 -1.947337 36.476799 -0.118103 1.624207 0.081290 -0.033496 1665.900000 0 0 1
-35.956641 5.234965 -2.998537 36.459239 -0.144575 1.653133 0.090725 -0.027830 860919.000000 0 0 1
-34.831161 4.952265 -3.867637 35.393408 -0.141233 1.680291 0.070635 -0.033413 781590.000000 0 0 1
-33.573047 5.814765 -3.456437 34.247744 -0.171496 1.671893 0.045516 -0.036401 24820.800000 0 0 1
-33.245457 5.726965 -2.098937 33.800356 -0.170589 1.632934 0.052683 -0.039989 266464.000000 0 0 1
-33.155717 7.002765 -1.595937 33.924730 -0.208149 1.617857 0.073638 -0.047040 -453612.000000 0 0 1
-32.486617 7.119565 -0.232637 33.258422 -0.215743 1.577791 0.072059 -0.038303 -293942.000000 0 0 1
-31.087607 6.870465 -0.332937 31.839495 -0.217507 1.581253 0.094524 -0.039498 649003.000000 0 0 1
-30.348047 7.302665 0.826563 31.225248 -0.236141 1.544322 0.101423 -0.037007 159358.000000 0 0 1
-30.183557 8.807765 1.101363 31.461673 -0.283923 1.535783 0.106449 -0.032880 -1195230.000000 0 0 1
-31.358047 9.446765 1.534263 32.786010 -0.292608 1.523983 0.097158 -0.031850 -77402.100000 0 0 1
-31.246577 10.837465 1.716863 33.117169 -0.333854 1.518931 0.108865 -0.017780 -294207.000000 0 0 1
-32.545407 11.641465 1.543763 34.599284 -0.343517 1.526163 0.111628 -0.023076 -321213.000000 0 0 1
-33.083567 11.666465 0.187763 35.080822 -0.339021 1.565444 0.098826 -0.011791 698805.000000 0 0 1
-34.264669 12.438465 0.009663 36.452477 -0.348219 1.570531 0.102327 -0.012080 273489.000000 0 0 1
-35.585891 11.691265 0.271263 37.458176 -0.317427 1.563555 0.144640 -0.030628 -287379.000000 0 0 1
-36.031175 10.854665 -0.808937 37.639391 -0.292610 1.592290 0.136947 -0.028503 -141756.000000 0 0 1
35.787662 10.074665 -0.470037 37.181670 0.274410 1.583438 0.152597 -0.034052 -68583.700000 0 0 1
35.439072 8.991565 -1.485137 36.592099 0.248476 1.611394 0.139889 -0.043731 126169.000000 0 0 1
34.882052 9.531965 -2.677037 36.259929 0.266750 1.644693 0.121525 -0.040549 269734.000000 0 0 1
34.228762 8.563565 -3.471337 35.454097 0.245154 1.668864 0.102620 -0.042278 90263.100000 0 0 1
33.666752 9.086465 -4.818337 35.202705 0.263613 1.708101 0.083036 -0.035375 -1112010.000000 0 0 1
32.416562 9.625965 -4.759237 34.148837 0.288653 1.710619 0.092970 -0.034730 -1047200.000000 0 0 1
31.956332 10.053265 -6.015337 34.036152 0.304791 1.748463 0.068473 -0.024765 140452.000000 0 0 1
30.481922 10.557065 -5.996537 32.810938 0.333409 1.754590 0.081346 -0.020010 326547.000000 0 0 1
29.536322 9.480465 -5.963237 31.588507 0.310588 1.760715 0.070275 -0.013810 2070260.000000 0 0 1
28.200102 10.093665 -6.091437 30.565233 0.343722 1.771433 0.079533 -0.006449 1629950.000000 0 0 1
27.055142 9.032265 -6.190237 29.187011 0.322212 1.784508 0.091141 0.000395 15956.500000 0 0 1
27.084542 8.250865 -7.364137 29.255422 0.295702 1.825252 0.084649 -0.001392 305017.000000 0 0 1
26.145742 7.193565 -7.330537 28.090639 0.268490 1.834813 0.098902 -0.006197 17854.800000 0 0 1
26.435742 6.241065 -8.492937 28.459258 0.231839 1.873838 0.097846 -0.010684 565822.000000 0 0 1
27.528842 5.334665 -8.217537 29.220262 0.191412 1.855869 0.089282 -0.012203 1157070.000000 0 0 1
27.543942 4.304265 -9.204037 29.358300 0.155015 1.889680 0.085125 -0.012563 95162.900000 0 0 1
28.555842 3.167365 -8.855837 30.064833 0.110467 1.869789 0.063337 -0.006559 -297412.000000 0 0 1
29.922122 3.479565 -8.871237 31.402860 0.115767 1.857193 0.075215 -0.008414 359625.000000 0 0 1
30.741572 2.993965 -7.816237 31.860660 0.097085 1.818652 0.068135 -0.010972 110643.000000 0 0 1
30.897362 1.428265 -7.640137 31.859985 0.046193 1.812960 0.070202 -0.016016 241187.000000 0 0 1
29.616152 0.786765 -7.351037 30.524961 0.026559 1.814008 0.088285 -0.019311 1585420.000000 0 0 1
29.749292 -0.572935 -6.964537 30.559016 -0.019256 1.800721 0.087649 -0.022266 -408413.000000 0 0 1
29.721342 -1.635935 -8.121737 30.854450 -0.054987 1.837162 0.077672 -0.012342 -440601.000000 0 0 1
30.917952 -1.783335 -8.853337 32.209962 -0.057616 1.849244 0.078503 -0.009808 393734.000000 0 0 1
30.706902 -2.852535 -9.770937 32.349993 -0.092630 1.877626 0.061200 -0.014015 -233479.000000 0 0 1
31.845682 -3.004135 -10.769037 33.751214 -0.094056 1.895546 0.065373 -0.010535 -872775.000000 0 0 1
33.088002 -3.484535 -10.393537 34.856613 -0.104924 1.873581 0.075791 -0.004685 -445656.000000 0 0 1
33.901872 -3.871235 -11.466137 35.997163 -0.113697 1.894973 0.063645 -0.017594 -711000.000000 0 0 1
35.309142 -4.157035 -10.966237 37.205844 -0.117193 1.869985 0.073966 -0.010667 -840118.000000 0 0 1
35.366512 -5.282435 -10.056237 37.145958 -0.148267 1.844940 0.067905 -0.010171 513881.000000 0 0 1
-36.242387 -5.456435 -9.565037 37.878401 0.149432 1.826080 0.069869 -0.012221 203720.000000 0 0 1
-36.090587 -6.699135 -8.695937 37.723046 0.183531 1.803409 0.069852 -0.010008 -179462.000000 0 0 1
36.261792 -6.568235 -7.399637 37.587417 -0.179191 1.768955 0.072921 -0.011095 549130.000000 0 0 1
35.934982 -7.835835 -6.838837 37.409798 -0.214695 1.754639 0.074617 -0.010726 -100615.000000 0 0 1
35.373112 -7.770435 -5.377737 36.613615 -0.216236 1.718208 0.081245 -0.018074 -110041.000000 0 0 1
36.400312 -7.520735 -4.397537 37.428365 -0.203745 1.688560 0.089680 -0.019742 837299.000000 0 0 1
-36.409647 -8.576035 -3.463637 37.566043 0.231326 1.663129 0.091913 -0.025107 -173793.000000 0 0 1
-35.625139 -9.815435 -3.983737 37.166698 0.268849 1.678188 0.094587 -0.024496 -451414.000000 0 0 1
-36.433217 -10.630735 -4.774637 38.251653 0.283905 1.695944 0.080309 -0.024726 673910.000000 0 0 1
-35.633395 -11.600235 -5.472937 37.871590 0.314724 1.715817 0.077838 -0.022582 418545.000000 0 0 1
36.444672 -12.206435 -6.615537 38.999699 -0.323187 1.741251 0.071031 -0.019881 154698.000000 0 0 1
36.250852 -11.257335 -7.624937 38.716812 -0.301098 1.769033 0.077004 -0.006694 334681.000000 0 0 1
36.083202 -11.864035 -8.897437 39.011757 -0.317662 1.800892 0.079669 -0.006276 -103054.000000 0 0 1
36.172352 -10.964535 -10.151837 39.137193 -0.294316 1.833188 0.055088 -0.010177 20761.000000 0 0 1
35.099682 -10.065235 -10.367937 37.957750 -0.279267 1.847456 0.044421 -0.006006 556482.000000 0 0 1
35.455782 -9.316635 -11.505837 38.422604 -0.256959 1.874918 0.036500 -0.005159 -371127.000000 0 0 1
34.310562 -8.513635 -12.138337 37.376943 -0.243222 1.901549 0.046157 -0.004113 -466093.000000 0 0 1
34.618412 -7.853435 -13.375737 37.934434 -0.223081 1.931146 0.046335 -0.003309 771965.000000 0 0 1
33.527022 -7.064135 -13.853237 36.957752 -0.207662 1.955020 0.047356 -0.005039 173303.000000 0 0 1
33.767342 -6.492935 -15.273837 37.625546 -0.189966 1.988807 0.035450 -0.009644 -551717.000000 0 0 1
34.785722 -5.548335 -15.352237 38.425534 -0.158168 1.981803 0.046563 -0.014873 -135059.000000 0 0 1
34.408142 -4.170135 -15.301337 37.887217 -0.120608 1.986535 0.055000 -0.009496 134752.000000 0 0 1
35.613562 -3.181435 -15.336637 38.905781 -0.089096 1.975993 0.063294 -0.019394 307520.000000 0 0 1
36.272532 -3.061635 -16.652837 40.029829 -0.084207 1.999850 0.058745 -0.019758 -776426.000000 0 0 1
-35.304324 -2.873535 -16.659437 39.143190 0.081214 2.010424 0.080398 -0.021844 -1088090.000000 0 0 1
-34.962821 -1.389435 -16.286837 38.595213 0.039719 2.006437 0.080666 -0.024483 -716350.000000 0 0 1
-35.308484 -0.461635 -17.261837 39.304875 0.013074 2.025480 0.076777 -0.018401 61608.200000 0 0 1
-34.937701 0.805565 -16.786237 38.769442 -0.023053 2.018588 0.080833 -0.019704 -17443.700000 0 0 1
-35.374341 1.971165 -17.704737 39.606656 -0.055665 2.034221 0.062840 -0.020083 81163.200000 0 0 1
-34.579846 2.020365 -18.865037 39.442835 -0.058360 2.069501 0.062659 -0.014334 110044.000000 0 0 1
-34.917012 3.141465 -19.632537 40.180879 -0.089728 2.081285 0.055051 -0.010726 -245919.000000 0 0 1
-34.073403 3.378165 -20.890437 40.110088 -0.098821 2.118616 0.058341 -0.004948 -99152.800000 0 0 1
-32.735407 3.762865 -20.639937 38.881526 -0.114446 2.130390 0.055816 -0.009766 349282.000000 0 0 1
-32.019357 3.923465 -21.848637 38.961465 -0.121926 2.166119 0.035011 -0.007638 -38477.500000 0 0 1
-30.623077 4.576465 -21.697237 37.808557 -0.148347 2.182021 0.072751 -0.016515 -345592.000000 0 0 1
-29.709747 3.777765 -21.032237 36.596388 -0.126477 2.183044 0.069915 -0.004805 -229775.000000 0 0 1
-28.378987 4.191065 -21.345837 35.757191 -0.146622 2.210511 0.064120 -0.006248 400619.000000 0 0 1
-27.351917 3.162065 -20.815837 34.517026 -0.115096 2.218128 0.090038 -0.000127 -137865.000000 0 0 1
-27.051227 3.238065 -19.456837 33.478687 -0.119134 2.190963 0.089850 -0.000075 -344718.000000 0 0 1
-26.211017 2.202365 -19.041837 32.472441 -0.083828 2.197404 0.093140 -0.006793 -460820.000000 0 0 1
-25.411507 2.486465 -17.765937 31.105558 -0.097538 2.178702 0.085767 -0.012274 -584336.000000 0 0 1
-24.377937 3.364365 -18.037737 30.511682 -0.137142 2.203311 0.082103 -0.014936 -489143.000000 0 0 1
-23.679437 3.721165 -16.853637 29.302012 -0.155873 2.183608 0.091553 -0.022696 -101620.000000 0 0 1
-22.463237 4.651065 -16.965237 28.531539 -0.204167 2.207581 0.106909 -0.026432 -556499.000000 0 0 1
-21.392237 4.020265 -17.583837 27.981810 -0.185764 2.250294 0.116226 -0.027664 -870526.000000 0 0 1
-20.235637 4.753265 -17.305637 27.047359 -0.230713 2.265070 0.095276 -0.025734 -502100.000000 0 0 1
-18.938637 4.231465 -17.938937 26.426932 -0.219820 2.316941 0.105563 -0.028289 -292491.000000 0 0 1
-18.434837 3.072765 -17.354137 25.503945 -0.165164 2.319172 0.115183 -0.026332 1016520.000000 0 0 1
-17.234437 2.426365 -17.873937 24.947760 -0.139867 2.369503 0.084211 -0.024013 556526.000000 0 1 0
-17.152837 0.945465 -17.473837 24.504055 -0.055064 2.364706 0.078517 -0.023487 -33214.400000 0 1 0
-18.060837 -0.075735 -17.875237 25.411094 0.004193 2.351025 0.065222 -0.024350 -188557.000000 0 0 1
-19.334537 0.158665 -17.330937 25.965571 -0.008206 2.301587 0.075416 -0.025268 -591137.000000 0 0 1
-20.413137 -0.874535 -17.730037 27.052083 0.042816 2.285513 0.062472 -0.023967 -186142.000000 0 0 1
-20.473637 -2.039635 -16.946037 26.655170 0.099295 2.259777 0.054757 -0.021184 352806.000000 0 0 1
-21.578237 -2.831935 -17.320237 27.814219 0.130495 2.243000 0.069138 -0.013657 -45744.900000 0 0 1
-21.768137 -4.019135 -16.316637 27.499780 0.182578 2.205994 0.087999 -0.025352 -399101.000000 0 0 1
-22.310637 -3.657735 -15.096037 27.185178 0.162500 2.159525 0.092127 -0.025536 1338.570000 0 0 1
-22.761237 -4.771135 -14.436737 27.372560 0.206625 2.126353 0.104748 -0.040243 -399922.000000 0 0 1
-23.231937 -4.443435 -13.028037 27.003644 0.188982 2.074251 0.116914 -0.037097 13846.600000 0 0 1
-24.265937 -3.466035 -12.936137 27.716290 0.141876 2.056391 0.110450 -0.035176 561452.000000 0 0 1
-24.408737 -3.076035 -11.585137 27.193084 0.125361 2.010899 0.121667 -0.043327 -325905.000000 0 0 1
-25.313017 -1.847635 -11.405737 27.825410 0.072862 1.993145 0.135540 -0.043978 -252348.000000 0 0 1
-25.598007 -1.504735 -10.092237 27.556768 0.058716 1.945755 0.133018 -0.047416 512684.000000 0 0 1
-26.086897 -0.168635 -10.054937 27.958119 0.006464 1.938681 0.132602 -0.043185 -350257.000000 0 0 1
-26.219197 0.367365 -8.591537 27.593401 -0.014010 1.887422 0.150923 -0.038384 359875.000000 0 0 1
-24.998937 0.682365 -7.900937 26.226652 -0.027289 1.876806 0.132489 -0.031487 1098600.000000 0 0 1
-25.284437 0.775265 -6.516237 26.122120 -0.030652 1.822912 0.128084 -0.037188 520042.000000 0 0 1
-24.000437 1.187465 -5.722837 24.701861 -0.049437 1.804597 0.086412 -0.024133 396983.000000 0 1 0
-23.927837 2.589965 -5.694637 24.732129 -0.107821 1.803134 0.124026 -0.028690 100700.000000 0 1 0
-22.620437 3.081665 -5.579537 23.501321 -0.135400 1.810499 0.109941 -0.008490 -505479.000000 0 1 0
-22.534737 4.614265 -5.808037 23.724231 -0.201971 1.818125 0.122109 -0.015177 -322259.000000 0 1 0
-22.982137 5.361365 -4.724037 24.067393 -0.229185 1.768363 0.127117 -0.014333 526941.000000 0 1 0
-22.865237 6.729665 -5.062837 24.366776 -0.286236 1.780097 0.149268 -0.016570 -669575.000000 0 1 0
-23.233137 7.729065 -3.866837 24.788496 -0.321157 1.727429 0.133240 -0.016460 -378892.000000 0 1 0
-22.487237 7.651265 -2.642237 23.899772 -0.327962 1.681578 0.111105 -0.013092 1655880.000000 0 1 0
-21.059137 7.839065 -2.707937 22.633407 -0.356349 1.690727 0.119464 -0.013969 733777.000000 0 1 0
-20.647237 9.351865 -2.756137 22.833355 -0.425292 1.691798 0.105569 -0.010732 -589869.000000 0 1 0
-20.521237 9.888365 -4.070537 23.140229 -0.449031 1.747624 0.090181 -0.007953 813984.000000 0 1 0
-19.782637 11.110065 -4.028037 23.043684 -0.511711 1.746499 0.076808 -0.008778 -205871.000000 0 1 0
-19.531837 11.683065 -5.424337 23.396797 -0.539062 1.804766 0.058526 -0.014931 217569.000000 0 1 0
-18.417237 11.183665 -6.186437 22.417426 -0.545725 1.850390 0.037203 -0.015040 496530.000000 0 1 0
-18.461437 11.595665 -7.513137 23.059301 -0.560827 1.902673 0.050523 -0.014489 79530.600000 0 1 0
-17.163137 11.199865 -8.249937 22.092345 -0.578168 1.953500 0.041540 -0.011385 -205669.000000 0 1 0
-16.941137 9.811365 -8.597137 21.381669 -0.524943 1.984584 0.033035 -0.007967 365619.000000 0 1 0
-17.864837 9.209765 -9.503737 22.232706 -0.475990 2.012485 0.049319 -0.005852 -226398.000000 0 1 0
-17.952637 9.758465 -10.917437 23.167116 -0.497891 2.061501 0.055511 -0.003731 38610.700000 0 1 0
-16.796637 9.492065 -11.677337 22.551863 -0.514375 2.115073 0.043218 -0.005563 -48220.500000 0 1 0
-16.860137 10.227265 -12.906037 23.567498 -0.545254 2.150314 0.049847 -0.009036 269569.000000 0 1 0
-15.688137 9.943665 -13.894237 23.195775 -0.564926 2.213046 0.032418 0.000124 77072.400000 0 1 0
-15.756037 8.747365 -14.665337 23.234484 -0.506808 2.253881 0.039854 -0.011345 57939.300000 0 1 0
-15.435937 7.560265 -13.936337 22.127975 -0.455441 2.252100 0.030580 -0.005263 -288037.000000 0 1 0
-15.454937 6.295165 -14.818837 22.317754 -0.386804 2.296943 0.039761 -0.006938 68247.100000 0 1 0
-14.388337 6.278365 -15.752237 22.239044 -0.411446 2.357904 0.042985 -0.009732 336084.000000 0 1 0
-14.334737 5.043665 -16.410337 22.365653 -0.338321 2.394591 0.037434 -0.013238 -127755.000000 0 1 0
32.573062 -15.846035 28.426996 46.045578 -0.452771 0.905406 0.057450 0.007333 -171234.000000 0 0 1
31.546592 -14.950335 28.774546 45.240186 -0.442561 0.881441 0.060990 0.002423 -53436.700000 0 0 1
30.717652 -15.440935 29.854496 45.533367 -0.465784 0.855737 0.064151 0.006561 366760.000000 0 0 1
31.256842 -15.531935 31.303786 46.884520 -0.461175 0.839710 0.055300 -0.009168 -240364.000000 0 0 1
31.484012 -14.204335 31.738946 46.908068 -0.423818 0.827633 0.055035 -0.015429 33352.100000 0 0 1
31.654592 -14.076035 33.160392 47.955808 -0.418418 0.807263 0.045718 -0.026643 -450612.000000 0 0 1
31.834422 -12.600735 33.456819 47.870321 -0.376899 0.796931 0.060687 -0.030834 -115422.000000 0 0 1
31.918802 -12.361835 -33.461347 47.867386 -0.369502 2.344854 0.038899 -0.034631 161253.000000 0 0 1
32.227472 -11.020735 -33.212117 47.572169 -0.329501 2.343595 0.048066 -0.032076 -118785.000000 0 0 1
31.690122 -10.559135 -31.849287 46.153399 -0.321630 2.332388 0.045228 -0.027788 9662.730000 0 0 1
30.282942 -10.490335 -31.760767 45.120395 -0.333474 2.351686 0.072360 -0.030827 -61710.900000 0 0 1
29.979262 -10.085835 -30.477987 43.924799 -0.324532 2.337642 0.063552 -0.022029 -353777.000000 0 0 1
28.631852 -10.580635 -29.929027 42.749029 -0.353976 2.346348 0.057182 -0.011075 -230511.000000 0 0 1
28.315032 -10.294835 -28.600267 41.541545 -0.348723 2.330179 0.045939 -0.009061 198270.000000 0 0 1
27.279842 -11.143935 -28.134467 40.742181 -0.387816 2.333044 0.054648 -0.007101 -423489.000000 0 0 1
26.779742 -10.882735 -26.690567 39.344312 -0.385994 2.316358 0.048051 -0.001017 -423375.000000 0 0 1
25.929542 -9.764035 -26.365027 38.246467 -0.360138 2.331381 0.045312 -0.007295 660868.000000 0 0 1
24.722142 -9.509335 -27.065407 37.870147 -0.367203 2.366977 0.046745 -0.008405 1074220.000000 0 0 1
23.605842 -10.646635 -26.995917 37.408103 -0.423699 2.376993 0.046866 0.002101 -42363.500000 0 0 1
24.081942 -11.785535 -27.702897 38.552423 -0.455126 2.372551 0.037773 -0.004331 -184151.000000 0 0 1
23.249942 -12.880235 -27.494477 38.241424 -0.505901 2.373117 0.031292 -0.014038 -228605.000000 0 0 1
23.869842 -14.190735 -28.058237 39.476715 -0.536369 2.361366 0.047492 -0.001282 120599.000000 0 0 1
24.050442 -14.180835 -29.435037 40.570202 -0.532759 2.382606 0.052893 -0.012304 -122645.000000 0 0 1
25.152042 -14.921735 -29.852177 41.790380 -0.535450 2.366464 0.048164 -0.010265 -719267.000000 0 0 1
25.263342 -15.180435 -31.347987 43.027647 -0.541072 2.387006 0.064067 -0.024855 -446042.000000 0 0 1
24.158342 -15.876435 -31.874937 43.031364 -0.581408 2.404964 0.076118 -0.023893 -3150.580000 0 0 1
24.196742 -16.214735 -33.277377 44.224244 -0.590390 2.422599 0.082126 -0.028933 -168662.000000 0 0 1
24.293142 -15.140635 33.995817 44.442222 -0.557338 0.699842 0.062704 -0.025138 346080.000000 0 0 1
23.159342 -14.293635 33.794893 43.390758 -0.552961 0.677966 0.065452 -0.022767 370405.000000 0 0 1
23.362142 -13.488435 32.608843 42.320966 -0.523608 0.691151 0.058108 -0.019766 -382329.000000 0 0 1
22.484342 -12.218135 32.568703 41.419185 -0.497767 0.665968 0.071965 -0.025849 1212360.000000 0 0 1
21.061242 -12.439435 32.509131 40.683646 -0.533502 0.645047 0.052393 -0.015193 1193250.000000 0 0 1
20.501342 -12.548435 31.189026 39.376688 -0.549254 0.656607 0.046819 -0.011663 -342522.000000 0 0 1
18.975242 -12.766235 31.259046 38.731957 -0.592226 0.631639 0.038391 -0.002464 172547.000000 0 0 1
18.216042 -11.612235 31.524126 38.215686 -0.567518 0.600771 0.045832 -0.009022 -370470.000000 0 0 1
17.339942 -11.690435 32.588309 38.721282 -0.593194 0.570535 0.030094 -0.005814 -500971.000000 0 0 1
16.584742 -10.419435 32.877954 38.269807 -0.560936 0.537269 0.039011 -0.011411 -117872.000000 0 0 1
15.732542 -9.993835 31.769886 36.833616 -0.565924 0.530559 0.068427 -0.021659 627112.000000 0 0 1
14.977142 -8.798735 31.778776 36.216337 -0.531161 0.500233 0.073028 -0.017832 950230.000000 0 0 1
13.868542 -8.742835 32.914307 36.771255 -0.562478 0.462119 0.075130 -0.024309 -1589.040000 0 0 1
13.000842 -9.890535 32.931576 36.760485 -0.650353 0.460475 0.086375 -0.021772 270613.000000 0 0 1
11.893542 -9.791235 33.783125 37.129828 -0.688752 0.427838 0.088244 -0.032198 -802689.000000 0 0 1
10.658042 -9.091035 33.303542 36.129859 -0.706218 0.398167 0.100004 -0.030342 -1385750.000000 0 0 1
10.880942 -7.708135 32.946232 35.542431 -0.616346 0.384583 0.090963 -0.026870 592401.000000 0 0 1
9.675142 -7.150135 32.433844 34.593164 -0.636438 0.355193 0.084545 -0.014527 447849.000000 0 0 1
9.933542 -5.668335 32.244876 34.213116 -0.518541 0.340849 0.076809 -0.016558 138406.000000 0 0 1
10.175242 -4.984835 33.458841 35.325319 -0.455534 0.326523 0.069034 -0.024948 476762.000000 0 0 1
10.782242 -3.710235 33.204326 35.107689 -0.331414 0.330793 0.053338 -0.022538 -34283.000000 0 0 1
10.707342 -2.884735 -33.859797 35.629408 -0.263168 2.825100 0.049297 -0.026567 1431510.000000 0 0 1
9.339142 -2.534735 -33.460237 34.831479 -0.265025 2.860065 0.046802 -0.012814 1572920.000000 0 0 1
9.412242 -1.598435 -32.380557 33.758640 -0.168220 2.854879 0.050802 -0.012954 -982300.000000 0 0 1
8.057642 -1.213735 -31.855137 32.880823 -0.149507 2.891163 0.055903 -0.010617 -696391.000000 0 0 1
7.257842 -0.633735 -32.884907 33.682266 -0.087096 2.923570 0.052275 -0.016912 629621.000000 0 0 1
5.905942 -0.435935 -32.436577 32.972742 -0.073679 2.961010 0.061198 -0.016175 764945.000000 0 0 1
5.129242 0.504065 -33.361337 33.757103 0.097958 2.988316 0.067793 -0.017703 47451.400000 0 0 1
5.798642 1.763365 -33.433317 33.978234 0.295214 2.962259 0.050371 -0.017069 289855.000000 0 0 1
5.193042 2.661965 33.888752 34.387516 0.473679 0.170525 0.072160 -0.022445 265828.000000 0 0 1
5.728042 4.112965 33.908768 34.634253 0.622731 0.205039 0.049468 -0.017449 -170561.000000 0 0 1
5.388342 4.918465 32.804981 33.606432 0.739841 0.218831 0.062783 -0.024354 -291324.000000 0 0 1
6.214642 6.039665 32.756234 33.883184 0.771120 0.258635 0.049525 -0.020202 -341957.000000 0 0 1
5.642142 7.123465 31.826316 33.098216 0.900922 0.278125 0.063397 -0.019974 -328717.000000 0 0 1
4.458642 7.622765 32.448540 33.628764 1.041545 0.265718 0.065116 -0.024995 -176998.000000 0 0 1
4.035042 8.817165 31.851146 33.294436 1.141611 0.295520 0.074338 -0.023781 -49595.600000 0 0 1
3.657942 8.934265 30.337146 31.836206 1.182188 0.308094 0.076311 -0.028179 -203574.000000 0 0 1
2.422042 8.387065 29.925966 31.173267 1.289662 0.283837 0.080981 -0.030324 -117845.000000 0 0 1
2.343142 8.541965 28.495016 29.839930 1.303072 0.301376 0.075325 -0.024322 219549.000000 0 0 1
1.089242 7.911565 27.827896 28.951185 1.433979 0.279474 0.074596 -0.028042 386380.000000 0 0 1
-0.133558 8.425565 28.306546 29.534192 -1.554946 0.289338 0.080008 -0.021211 -424766.000000 0 0 1
-1.190358 8.165765 27.412766 28.627895 -1.426042 0.292402 0.080044 -0.023317 551626.000000 0 0 1
-2.598758 8.497465 27.975476 29.352814 -1.274002 0.307555 0.078595 -0.021298 182952.000000 0 0 1
-2.867958 9.816065 28.347786 30.135980 -1.286539 0.346219 0.077352 -0.022927 -470542.000000 0 0 1
-4.230658 9.807465 28.700566 30.623640 -1.163542 0.356274 0.058967 -0.009455 -211969.000000 0 0 1
-4.780958 10.895665 29.730476 32.023027 -1.157300 0.380688 0.036380 0.001918 115657.000000 0 0 1
-5.044558 12.177865 29.230366 32.064969 -1.178075 0.423641 0.038615 -0.011313 321259.000000 0 0 1
-6.239458 12.366665 28.473526 31.663969 -1.103525 0.452766 0.046354 -0.014938 202111.000000 0 0 1
-6.439058 13.821365 27.969966 31.856092 -1.134818 0.499108 0.026492 -0.010122 -23882.100000 0 0 1
-5.540358 14.114665 26.929306 30.904803 -1.196751 0.512823 0.029408 -0.008665 -106674.000000 0 0 1
-5.578358 15.506965 26.776666 31.441595 -1.225478 0.551705 0.009694 -0.004307 -82335.600000 0 0 1
-4.396658 16.146465 26.031966 30.946764 -1.304943 0.571325 0.047574 -0.010774 -281881.000000 0 0 1
-4.397558 15.957265 24.658106 29.698401 -1.301888 0.591179 0.043111 0.009824 -415610.000000 0 0 1
-3.345758 16.681965 24.108566 29.507711 -1.372861 0.614562 0.060044 0.012675 -380483.000000 0 0 1
-3.124458 16.510065 22.581866 28.147560 -1.383763 0.639713 0.056550 0.006229 -46688.600000 0 0 1
-2.512558 15.316665 22.185166 27.075723 -1.408204 0.610477 0.050821 -0.000828 -267185.000000 0 0 1
-2.772458 15.108765 20.813166 25.867918 -1.389315 0.635805 0.046316 -0.000883 262025.000000 0 0 1
-1.819558 14.172465 20.002666 24.582030 -1.443108 0.620288 0.035499 -0.003279 44725.400000 0 1 0
-1.984158 12.767465 20.296066 24.059828 -1.416622 0.566906 0.045457 -0.003439 411674.000000 0 1 0
-1.185158 11.857765 19.505566 22.857784 -1.471179 0.548429 0.042062 -0.000567 320701.000000 0 1 0
-2.043758 10.575665 19.298266 22.100785 -1.379899 0.509079 0.026527 -0.004953 -299445.000000 0 1 0
-2.229858 9.725765 20.424666 22.731690 -1.345418 0.454432 0.051866 -0.017866 -576594.000000 0 1 0
-3.100358 10.140365 21.407666 23.889901 -1.274078 0.459900 0.067545 -0.017496 -312049.000000 0 1 0
-4.609658 10.234665 21.036566 23.843960 -1.147613 0.490155 0.052480 -0.011723 -447472.000000 0 1 0
-5.182658 8.967265 21.096666 23.501938 -1.046746 0.456374 0.042611 -0.010049 -1067000.000000 0 1 0
-6.527558 9.117765 20.769766 23.603513 -0.949468 0.495052 0.029038 -0.005354 -404741.000000 0 1 0
-7.343358 7.784565 20.759166 23.355242 -0.814555 0.475980 0.032647 -0.011902 88228.200000 0 1 0
-7.346358 7.024765 21.988766 24.224411 -0.763024 0.433000 0.033279 -0.016216 -508927.000000 0 1 0
-8.184358 5.938365 21.952666 24.169556 -0.627685 0.431648 0.030790 -0.013015 -226741.000000 0 1 0
-8.078958 5.117265 23.246566 25.136801 -0.564622 0.390281 0.026389 -0.013386 236270.000000 0 0 1
-8.677758 5.773065 24.377876 26.512499 -0.587036 0.404025 0.016831 -0.011601 -67327.300000 0 0 1
-8.956358 4.869265 25.385406 27.355893 -0.497967 0.381873 0.017899 0.006564 58281.200000 0 0 1
-9.839058 5.497365 26.518466 28.814182 -0.509520 0.401881 0.024748 0.007220 -199844.000000 0 0 1
-9.216158 6.450165 27.322426 29.547540 -0.610643 0.390566 0.016392 0.006010 -281732.000000 0 0 1
-10.121658 7.158065 28.205606 30.809772 -0.615544 0.414107 0.019511 0.013690 396765.000000 0 0 1
-9.479958 8.238965 29.136456 31.728271 -0.715475 0.407001 0.034757 0.002467 396848.000000 0 0 1
-8.372258 7.671765 29.835426 31.923397 -0.741765 0.363679 0.052083 -0.004825 223458.000000 0 0 1
-7.881458 8.601465 30.840136 32.972967 -0.829052 0.361646 0.051932 -0.008612 127530.000000 0 0 1
-6.881258 7.870765 31.779476 33.454981 -0.852374 0.317824 0.077178 -0.003473 316159.000000 0 0 1
-5.651158 7.617265 31.126606 32.539574 -0.932507 0.295774 0.078818 -0.013642 -612368.000000 0 0 1
-4.862858 6.740665 31.887986 32.953415 -0.945838 0.254979 0.097274 -0.008630 554010.000000 0 0 1
-3.345058 7.016565 31.647196 32.587829 -1.125932 0.240851 0.084145 -0.013644 701937.000000 0 0 1
-2.804158 8.276665 32.033816 33.204395 -1.244131 0.266319 0.080979 -0.010841 1207580.000000 0 0 1
-1.415558 8.492765 31.634236 32.784992 -1.405637 0.265734 0.072847 -0.020888 1778580.000000 0 0 1
-1.173058 9.990765 31.386386 32.959015 -1.453917 0.310158 0.069743 -0.017302 86881.800000 0 0 1
-1.348458 10.814465 32.521806 34.299254 -1.446746 0.323344 0.069912 -0.021150 -46804.000000 0 0 1
-1.597558 12.119065 32.026246 34.279795 -1.439730 0.364618 0.063068 -0.011910 -58546.400000 0 0 1
-1.594058 13.238765 33.109646 35.693901 -1.450965 0.382861 0.052305 -0.016889 466877.000000 0 0 1
-0.273258 13.652565 33.432963 36.114127 -1.550784 0.387759 0.084422 -0.025487 178088.000000 0 0 1
-0.423258 14.619365 -33.798487 36.827201 -1.541853 2.733196 0.084058 -0.025935 -247147.000000 0 0 1
0.880542 14.995465 -33.108717 36.356932 1.512143 2.715669 0.078636 -0.021539 -593091.000000 0 0 1
1.655542 15.879865 -33.886547 37.459432 1.466917 2.701283 0.070250 -0.022547 -223939.000000 0 0 1
2.860542 16.143165 -33.221167 37.046328 1.395418 2.683158 0.077416 -0.022715 -306974.000000 0 0 1
3.705942 17.185265 -33.991697 38.268823 1.358402 2.664284 0.080139 -0.017558 -146694.000000 0 0 1
3.078542 18.423765 -34.079372 38.862786 1.405230 2.640203 0.063939 -0.009067 221927.000000 0 0 1
3.984242 19.337065 33.622535 38.990654 1.367598 0.530957 0.053238 0.005801 192480.000000 0 0 1
3.487342 20.808365 33.563923 39.644502 1.404746 0.561190 0.056328 -0.007092 -108111.000000 0 0 1
3.630442 21.355865 -33.457527 39.857988 1.402409 2.567008 0.060988 -0.030100 114320.000000 0 0 1
3.219642 22.709965 -33.416637 40.531226 1.429963 2.540055 0.066524 -0.024550 -58360.400000 0 0 1
3.403742 23.441165 -32.124297 39.912957 1.426600 2.506234 0.067387 -0.030306 -220720.000000 0 0 1
2.951942 24.762965 -32.152077 40.689980 1.452148 2.481886 0.080575 -0.036456 201073.000000 0 0 1
2.974542 25.141665 -30.776517 39.851540 1.453032 2.453217 0.102024 -0.046644 -173414.000000 0 0 1
2.520042 26.583765 -30.506587 40.542559 1.476282 2.422583 0.112177 -0.054345 565569.000000 0 0 1
3.566342 27.578365 -30.620367 41.362929 1.442193 2.404291 0.106541 -0.051774 709532.000000 0 0 1
3.161742 28.781465 -30.045327 41.726383 1.461382 2.374679 0.097775 -0.050568 -428029.000000 0 0 1
4.293542 29.769065 -29.735207 42.294377 1.427556 2.350479 0.106233 -0.055511 -303387.000000 0 0 1
5.233842 29.335965 -28.779827 41.427894 1.394243 2.338795 0.100946 -0.067332 -547252.000000 0 0 1
5.961142 30.441165 -28.420957 42.070781 1.377418 2.312508 0.095047 -0.056633 -1645800.000000 0 0 1
7.156242 30.071065 -27.571767 41.420806 1.337164 2.299161 0.101804 -0.062361 674326.000000 0 0 1
8.306942 29.507965 -28.316757 41.732051 1.296383 2.316566 0.108936 -0.060810 2457730.000000 0 0 1
9.448242 30.380465 -28.598247 42.779688 1.269281 2.302987 0.122277 -0.057447 878630.000000 0 0 1
9.216142 31.664965 -29.439587 44.207427 1.287569 2.299552 0.125361 -0.063178 -1275050.000000 0 0 1
8.710042 32.710265 -28.639917 44.340401 1.310556 2.273011 0.112971 -0.055580 313069.000000 0 0 1
8.228942 33.914565 -29.254207 45.538137 1.332759 2.268437 0.086860 -0.048027 619282.000000 0 0 1
6.938742 33.744665 -30.122177 45.762366 1.367998 2.289262 0.070869 -0.032914 258261.000000 0 0 1
7.282542 33.168665 -31.408427 46.256730 1.354665 2.317199 0.065186 -0.033848 521258.000000 0 0 1
6.136542 32.479565 -31.887027 45.927789 1.384062 2.338224 0.071789 -0.032319 283787.000000 0 0 1
6.369142 31.914965 -33.321167 46.577153 1.373818 2.367989 0.079398 -0.042524 64012.600000 0 0 1
6.288142 32.909665 33.973439 47.715630 1.381999 0.778457 0.080470 -0.036103 83620.600000 0 0 1
6.139642 32.294565 32.717894 46.379896 1.382925 0.787763 0.092201 -0.037429 -602243.000000 0 0 1
5.788542 33.212865 31.565706 46.184363 1.398243 0.818288 0.077941 -0.036676 -190971.000000 0 0 1
6.779142 34.122765 31.172986 46.712685 1.374681 0.840172 0.083216 -0.032322 -179276.000000 0 0 1
6.282942 -33.347739 30.161536 45.401160 -1.384572 0.844194 0.050878 -0.030633 -115314.000000 0 0 1
17.704163 -22.183635 29.438736 40.892422 -0.897231 0.767128 0.109081 -0.005684 138697.000000 0 0 1
16.820263 -21.183135 29.992336 40.387951 -0.899700 0.733843 0.103614 -0.001087 794610.000000 0 0 1
15.449363 -21.556535 29.926256 39.986845 -0.948956 0.725146 0.114288 0.000354 309777.000000 0 0 1
14.899963 -22.145235 31.213206 41.069265 -0.978539 0.707462 0.117256 -0.005583 -623845.000000 0 0 1
15.528763 -23.361635 31.575466 42.236459 -0.984148 0.726374 0.136242 -0.016906 231732.000000 0 0 1
15.221663 -23.687135 32.888059 43.294385 -0.999632 0.708040 0.103122 -0.019913 531570.000000 0 0 1
16.245563 -24.737935 33.518359 44.714249 -0.989721 0.723320 0.111675 -0.030156 593621.000000 0 0 1
16.013463 -26.060095 33.180268 45.127483 -1.019796 0.744752 0.117684 -0.036965 -18975.400000 0 0 1
16.862063 -26.801395 34.018589 46.474813 -1.009219 0.749574 0.119189 -0.038277 105430.000000 0 0 1
16.570463 -28.324485 33.835056 47.134570 -1.041462 0.770102 0.111012 -0.034136 154346.000000 0 0 1
17.224763 -28.850085 32.704543 46.889305 -1.032553 0.798916 0.106957 -0.043372 -2438.360000 0 0 1
16.739463 -30.110475 32.406593 47.297331 -1.063408 0.815963 0.112250 -0.049732 24638.300000 0 0 1
17.516263 -30.737705 31.225766 47.187651 -1.052832 0.847664 0.119208 -0.045846 375987.000000 0 0 1
18.749163 -31.345605 31.614236 48.306707 -1.031743 0.857344 0.125233 -0.048309 53745.900000 0 0 1
19.441263 -31.692065 30.471316 48.071309 -1.020551 0.884240 0.090582 -0.037490 -568057.000000 0 0 1
20.825063 -32.336395 30.693756 49.208051 -0.998641 0.897259 0.075030 -0.028097 -329237.000000 0 0 1
21.833063 -31.431955 31.073746 49.297343 -0.963695 0.888814 0.063811 -0.031886 -693956.000000 0 0 1
22.949763 -32.199755 31.398206 50.491218 -0.951577 0.899687 0.042087 -0.025900 -534972.000000 0 0 1
24.238463 -31.337135 31.362666 50.528565 -0.912440 0.901172 0.024454 -0.026639 -7697.330000 0 0 1
24.712463 -30.864505 30.129116 49.710030 -0.895643 0.919652 0.015474 -0.018648 -478974.000000 0 0 1
25.578263 -29.788365 30.214076 49.542755 -0.861293 0.914914 0.008400 -0.012401 -743947.000000 0 0 1
26.714063 -29.682945 29.214736 49.479482 -0.837992 0.939191 0.030292 -0.014890 -716105.000000 0 0 1
27.746563 -30.531255 29.636026 50.796882 -0.833145 0.947860 0.039734 -0.010811 -452916.000000 0 0 1
28.869663 -30.469315 28.763706 50.884058 -0.812349 0.970025 0.037527 -0.027212 748359.000000 0 0 1
30.010363 -31.381985 29.357546 52.414848 -0.807736 0.976290 0.049324 -0.020788 402798.000000 0 0 1
29.691463 -32.773795 29.160806 52.972230 -0.834703 0.987842 0.039709 -0.020150 -320045.000000 0 0 1
30.686563 -33.590215 29.666766 54.314682 -0.830542 0.992973 0.055444 -0.018438 -782466.000000 0 0 1
30.047963 33.358912 30.105966 54.056140 0.837568 0.980101 0.043278 -0.010062 -141686.000000 0 0 1
29.196063 33.353025 31.222076 54.218561 0.851760 0.957146 0.036818 -0.009076 2182130.000000 0 0 1
27.890763 34.064780 31.148156 53.930617 0.884723 0.955060 0.013708 -0.002577 1958040.000000 0 0 1
26.860263 33.729548 30.017746 52.537807 0.898290 0.962640 0.034206 -0.000960 -33410.100000 0 0 1
26.455663 32.342499 29.918976 51.391482 0.885185 0.949392 0.024223 0.001830 509756.000000 0 0 1
25.180163 32.155800 30.549486 51.003011 0.906466 0.928577 0.029615 -0.000973 586986.000000 0 0 1
24.688663 30.698780 30.555316 49.855516 0.893486 0.911099 0.061327 -0.004778 45385.800000 0 0 1
24.417463 30.356940 29.191716 48.681748 0.893411 0.927740 0.072145 -0.018554 115021.000000 0 0 1
23.841763 29.076620 29.042486 47.511530 0.884001 0.913129 0.107883 -0.030924 -238580.000000 0 0 1
23.137663 28.786970 27.726956 46.182520 0.893770 0.926823 0.108916 -0.031580 1165460.000000 0 0 1
21.824063 29.415290 27.604846 45.864763 0.932481 0.924950 0.129272 -0.027695 1156200.000000 0 0 1
21.197563 29.132570 26.393256 44.661474 0.941770 0.938545 0.133344 -0.028247 76236.800000 0 0 1
19.838963 29.844270 26.190326 44.386913 0.984122 0.939680 0.114557 -0.025651 97430.100000 0 0 1
19.897263 31.151550 25.679496 45.008406 1.002388 0.963622 0.135050 -0.035181 -134755.000000 0 0 1
18.651463 31.807030 25.695426 44.942398 1.040441 0.962170 0.106233 -0.030745 -315016.000000 0 0 1
18.714963 33.234940 25.075156 45.646188 1.057943 0.989225 0.114675 -0.030319 -191865.000000 0 0 1
19.239563 33.309814 23.744386 45.205092 1.047014 1.017777 0.111099 -0.034011 1074240.000000 0 0 1
20.590663 33.823176 23.821426 46.210853 1.023950 1.029212 0.117915 -0.036754 762829.000000 0 0 1
21.244663 33.988332 22.403466 45.917945 1.012156 1.061111 0.121451 -0.040616 -66559.700000 0 0 1
20.871663 -33.175055 21.693666 44.797608 -1.009227 1.065280 0.104893 -0.026265 189153.000000 0 0 1
21.468863 -33.186935 20.406466 44.482677 -0.996598 1.094207 0.124741 -0.023385 8386.890000 0 0 1
21.176963 -31.938325 19.544566 43.017559 -0.985296 1.099166 0.112578 -0.015668 -235715.000000 0 0 1
21.682863 -30.782485 20.155366 42.707689 -0.957130 1.079309 0.109653 -0.013887 216269.000000 0 0 1
21.226963 -29.580335 19.550966 41.325784 -0.948353 1.077997 0.094407 -0.014644 -122938.000000 0 0 1
22.016863 -29.122085 18.310266 40.842428 -0.923454 1.105917 0.070567 -0.016266 -406016.000000 0 0 1
21.680563 -29.796555 17.100766 40.624102 -0.941773 1.136303 0.064713 -0.011589 50905.200000 0 0 1
22.147563 -29.176795 15.968366 39.959837 -0.921508 1.159705 0.061905 -0.005633 -507616.000000 0 0 1
21.774863 -29.824765 14.638166 39.723257 -0.940158 1.193397 0.052214 -0.021751 -45354.000000 0 0 1
22.531563 -31.019475 14.329666 40.929432 -0.942592 1.213111 0.060637 -0.016708 353298.000000 0 0 1
22.696963 -31.332755 12.937066 40.795359 -0.943892 1.248104 0.054475 -0.024152 -206823.000000 0 0 1
21.461063 -31.707275 12.074566 40.146278 -0.975777 1.265302 0.040645 -0.018072 -30768.500000 0 0 1
20.625863 -32.729165 12.576366 40.679103 -1.008468 1.256486 0.045989 -0.021996 -258204.000000 0 0 1
19.348063 -32.641915 12.004266 39.798800 -1.035735 1.264401 0.050556 -0.010815 -140109.000000 0 0 1
18.326163 -33.524665 12.786366 40.289484 -1.070531 1.247850 0.046839 -0.009259 -5788.990000 0 0 1
17.906163 -32.942715 14.027166 40.032668 -1.072915 1.212806 0.047629 -0.008772 286670.000000 0 0 1
18.657463 -33.353415 15.169166 41.117572 -1.060775 1.192948 0.040517 -0.010225 -440129.000000 0 0 1
18.560863 -32.216755 16.213966 40.562515 -1.048117 1.159576 0.050373 -0.004241 2085920.000000 0 0 1
17.177563 -31.923515 16.647666 39.891405 -1.077147 1.140297 0.050259 -0.013921 2341750.000000 0 0 1
16.343463 -32.894065 17.319566 40.609058 -1.109671 1.130182 0.044882 -0.007702 307369.000000 0 0 1
16.954963 -33.533775 18.647066 41.948753 -1.102672 1.110158 0.026578 -0.016093 316015.000000 0 0 1
17.752163 33.588190 18.426866 42.223870 1.084591 1.119193 0.028825 -0.011198 262494.000000 0 0 1
18.150963 32.969066 19.659766 42.460843 1.067535 1.089409 0.036905 -0.017769 385901.000000 0 0 1
19.009163 31.670780 19.501266 41.769438 1.030221 1.085038 0.055319 -0.018269 222945.000000 0 0 1
18.222463 30.526680 19.168466 40.390177 1.032633 1.076307 0.046004 -0.020705 365840.000000 0 0 1
19.004563 29.312450 18.954966 39.745237 0.995586 1.073659 0.042473 -0.021568 298630.000000 0 0 1
18.156363 28.056410 18.671666 38.281154 0.996436 1.061285 0.048771 -0.015906 -128245.000000 0 0 1
17.741763 27.283400 19.770166 38.079043 0.994227 1.024896 0.050032 -0.021901 41429.600000 0 0 1
17.190863 26.038450 19.360866 36.720155 0.987277 1.015430 0.050039 -0.025266 -588192.000000 0 0 1
17.061263 25.016940 20.566666 36.604941 0.972261 0.974170 0.044893 -0.021001 675268.000000 0 0 1
15.907263 25.264960 21.395866 36.730672 1.008883 0.948987 0.042612 -0.021596 164699.000000 0 0 1
14.767963 24.629090 20.909166 35.522922 1.030660 0.941457 0.051392 -0.025676 -793447.000000 0 0 1
13.506563 24.823220 21.768766 35.672099 1.072486 0.914425 0.050494 -0.031435 -377851.000000 0 0 1
12.927563 26.069570 21.543466 36.205873 1.110444 0.933497 0.044363 -0.034333 -104115.000000 0 0 1
11.578263 26.130920 21.991966 36.062830 1.153706 0.914958 0.036489 -0.036186 190278.000000 0 0 1
10.851763 27.178260 21.131166 36.096326 1.190910 0.945410 0.033399 -0.041879 -425932.000000 0 0 1
11.299763 28.480090 21.448266 37.400913 1.193086 0.960062 0.028680 -0.041265 -75024.100000 0 0 1
10.913263 29.368860 20.402966 37.388638 1.215016 0.993573 0.043010 -0.041940 -233954.000000 0 0 1
11.488763 30.791830 20.431466 38.698492 1.213683 1.014593 0.045703 -0.046201 -488021.000000 0 0 1
10.993463 31.712020 21.384266 39.796925 1.237095 1.003523 0.040894 -0.049263 -803245.000000 0 0 1
11.247063 31.348270 22.759266 40.338501 1.226323 0.971324 0.025487 -0.038523 -215276.000000 0 0 1
10.875363 32.438717 23.830106 41.694338 1.247314 0.962411 0.015549 -0.037122 -279366.000000 0 0 1
9.502763 32.396528 24.074126 41.465661 1.285473 0.951356 0.028981 -0.044889 -752106.000000 0 0 1
9.183963 32.521527 25.403646 42.276945 1.295567 0.926187 0.029004 -0.027446 -1089170.000000 0 0 1
7.840363 32.105870 25.958426 42.024969 1.331281 0.904994 0.095410 -0.044882 -817863.000000 0 0 1
6.741963 32.971790 25.624156 42.298822 1.369100 0.920039 0.091390 -0.042420 840366.000000 0 0 1
5.968663 32.540733 24.486506 41.159606 1.389391 0.933635 0.082115 -0.048785 56031.600000 0 0 1
5.149763 31.246840 24.550146 40.069873 1.407456 0.911345 0.074400 -0.043363 -920538.000000 0 0 1
5.933663 30.118340 24.812236 39.471126 1.376276 0.891022 0.059039 -0.035920 -365771.000000 0 0 1
5.274163 28.841030 24.525366 38.224539 1.389925 0.874197 0.045796 -0.028965 -1153460.000000 0 0 1
6.165963 27.646810 24.667946 37.561586 1.351361 0.854318 0.039126 -0.030866 -359452.000000 0 0 1
7.204963 27.394930 23.721646 36.947397 1.313617 0.873642 0.039636 -0.032155 602407.000000 0 0 1
8.279263 28.326490 23.713496 37.858501 1.286437 0.893906 0.051802 -0.036906 -734787.000000 0 0 1
9.468263 28.012430 24.619736 38.476949 1.244850 0.876484 0.035535 -0.037203 -1060210.000000 0 0 1
9.225663 28.120200 26.022336 39.408381 1.253782 0.849545 0.035412 -0.022326 -163862.000000 0 0 1
10.349763 27.977970 26.859876 40.141466 1.216482 0.837758 0.038202 -0.008588 -48056.300000 0 0 1
11.322963 29.182770 26.893066 41.268396 1.200676 0.861022 0.031104 -0.012858 -419429.000000 0 0 1
10.843863 30.309680 27.527306 42.355857 1.227217 0.863336 0.035666 -0.021208 54336.600000 0 0 1
11.912363 31.193000 27.853326 43.482357 1.205997 0.875561 0.027314 -0.014177 -94284.900000 0 0 1
11.478263 32.367929 28.767586 44.799635 1.230013 0.873511 0.027456 -0.024456 -117330.000000 0 0 1
11.280763 32.108410 30.127076 45.451582 1.232934 0.846192 0.040025 -0.041024 276613.000000 0 0 1
9.954563 31.674770 30.357556 44.988505 1.266296 0.830123 0.063310 -0.036541 -228513.000000 0 0 1
9.737563 31.566080 31.844256 45.883485 1.271576 0.803732 0.100992 -0.044630 -173852.000000 0 0 1
10.151263 30.329880 32.463437 45.572190 1.247821 0.777953 0.074090 -0.042270 179148.000000 0 0 1
10.572163 30.471010 33.841649 46.749441 1.236834 0.761366 0.110997 -0.042114 -81024.900000 0 0 1
10.749163 29.068720 -33.836447 45.885075 1.216606 2.400035 0.106846 -0.037803 167341.000000 0 0 1
11.916963 28.373470 34.031241 45.882384 1.173165 0.735186 0.106236 -0.033310 566041.000000 0 0 1
11.650563 26.978260 -34.145769 45.049924 1.163138 2.430967 0.116610 -0.034443 -594918.000000 0 0 1
12.845763 26.148300 33.731771 44.571062 1.114161 0.712379 0.095899 -0.028738 -483005.000000 0 0 1
12.846563 24.754330 34.023780 43.993506 1.092094 0.686638 0.080531 -0.027811 -114674.000000 0 0 1
13.138363 24.506180 -32.915187 43.088038 1.078668 2.440140 0.085041 -0.039241 -315560.000000 0 0 1
13.135163 22.964670 -32.597157 41.981939 1.051240 2.459820 0.067819 -0.050031 353798.000000 0 0 1
14.139263 22.176870 -33.281477 42.419206 1.003210 2.472823 0.062897 -0.035285 673944.000000 0 0 1
14.028363 20.811670 -32.931137 41.405077 0.977691 2.490366 0.055535 -0.033162 -474594.000000 0 0 1
15.361063 20.115970 -33.145507 41.704186 0.918632 2.489436 0.055831 -0.041408 -870050.000000 0 0 1
16.399663 20.526770 -32.334737 41.663323 0.896702 2.459248 0.056542 -0.043989 -1038790.000000 0 0 1
17.532163 19.773870 -32.624707 41.985166 0.845416 2.460767 0.052734 -0.043259 -436734.000000 0 0 1
18.760063 20.135670 -31.756137 42.021868 0.820750 2.427526 0.039794 -0.042827 -187870.000000 0 0 1
19.539363 21.255070 -32.141627 43.204732 0.827431 2.409740 0.056078 -0.033604 -42198.900000 0 0 1
20.696263 21.463670 -31.386257 43.291126 0.803598 2.381837 0.054310 -0.024806 -183372.000000 0 0 1
20.464663 21.996070 -29.922057 42.402347 0.821449 2.354164 0.046908 -0.023324 -47051.400000 0 0 1
19.815063 23.263220 -29.858827 42.724275 0.865272 2.344616 0.037717 -0.010167 69561.500000 0 0 1
19.381863 23.685570 -28.601937 41.889541 0.884997 2.322377 0.046811 -0.006148 191793.000000 0 0 1
20.548163 24.176060 -27.676747 42.103577 0.866338 2.288092 0.033034 -0.001174 569740.000000 0 0 1
21.329363 25.267680 -28.183427 43.447704 0.869716 2.276638 0.033852 -0.004325 275511.000000 0 0 1
20.620563 26.518010 -28.236367 43.882854 0.909860 2.269791 0.027636 0.005098 -223151.000000 0 0 1
21.561463 27.655790 -28.752357 45.347960 0.908596 2.257561 0.020631 0.004765 -8261.580000 0 0 1
21.768863 27.798940 -30.118067 46.408646 0.906456 2.277033 0.026365 0.004135 49451.400000 0 0 1
22.314363 26.729360 -30.866457 46.530932 0.875178 2.296088 0.025451 0.001217 360738.000000 0 0 1
23.738263 26.151450 -30.548757 46.697217 0.833731 2.283905 0.042711 -0.012114 241964.000000 0 0 1
24.777663 27.030030 -30.887277 47.943498 0.828846 2.270830 0.040521 -0.005469 183738.000000 0 0 1
26.062463 26.410590 -30.710137 48.165172 0.792032 2.262176 0.065795 -0.011077 -14518.200000 0 0 1
27.201763 27.356470 -30.988177 49.483123 0.788234 2.247514 0.042004 -0.002425 -828187.000000 0 0 1
27.336863 28.362070 -30.032977 49.534744 0.803802 2.222197 0.026380 0.000910 42203.900000 0 0 1
28.278263 29.345150 -30.420777 50.854908 0.803911 2.212034 0.023396 0.001159 225788.000000 0 0 1
28.202863 30.480790 -29.351197 50.852461 0.824196 2.186072 0.019249 0.006063 -70531.200000 0 0 1
28.688563 30.070970 -28.080807 50.158036 0.808920 2.164997 0.039608 -0.002241 -343957.000000 0 0 1
27.862063 30.513580 -27.090117 49.408983 0.830789 2.151106 0.034308 0.003581 -766941.000000 0 0 1
28.410763 30.346800 -25.658967 48.851636 0.818336 2.123797 0.060544 -0.005459 -526662.000000 0 0 1
28.374463 29.021850 -25.050337 47.695884 0.796677 2.123758 0.055240 0.001453 35106.200000 0 0 1
27.128263 28.582300 -24.557437 46.432297 0.811492 2.128085 0.061530 -0.004062 -52684.500000 0 0 1
26.602563 29.230550 -23.226837 45.843292 0.832432 2.102099 0.071870 0.009656 -67784.200000 0 0 1
26.418663 30.646190 -23.364337 46.722874 0.859346 2.094467 0.098397 -0.001301 134967.000000 0 0 1
26.046363 31.260060 -22.109837 46.308199 0.876128 2.068546 0.078234 0.006313 59513.300000 0 0 1
3.264863 -26.373105 -20.185037 33.371181 -1.447628 2.220392 0.055574 -0.020185 -302960.000000 0 0 1
3.223263 -27.402385 -19.157837 33.590219 -1.453707 2.177716 0.052042 -0.012650 120198.000000 0 0 1
3.322563 -26.822415 -17.861737 32.396342 -1.447552 2.154778 0.059848 -0.017605 -288512.000000 0 0 1
3.139663 -27.820885 -16.709637 32.604771 -1.458419 2.108879 0.052454 -0.024386 230956.000000 0 0 1
4.240963 -28.644845 -16.327537 33.243065 -1.423811 2.084213 0.046573 -0.022442 80193.700000 0 0 1
3.916563 -29.391165 -15.187337 33.314190 -1.438320 2.044159 0.050462 -0.032467 -394265.000000 0 0 1
5.123663 -30.077185 -14.540637 33.798211 -1.402066 2.015532 0.106592 -0.031622 -315094.000000 0 0 1
6.102563 -29.148155 -14.082637 32.942023 -1.364414 2.012519 0.070690 -0.018463 97879.500000 0 0 1
7.401863 -29.735865 -14.139737 33.748206 -1.326834 2.003115 0.081150 -0.014013 623908.000000 0 0 1
7.881163 -30.636925 -12.948537 34.181844 -1.319012 1.959310 0.080163 -0.025363 -606891.000000 0 0 1
8.333163 -29.898735 -11.839237 33.219625 -1.298982 1.935201 0.068754 -0.020462 -86053.300000 0 0 1
8.678563 -30.741815 -10.752637 33.704537 -1.295652 1.895498 0.084049 -0.020976 -363597.000000 0 0 1
9.967663 -31.530975 -10.597037 34.725407 -1.264614 1.880910 0.073079 -0.020917 -105162.000000 0 0 1
11.025263 -30.821525 -9.947737 34.212283 -1.227267 1.865823 0.076002 -0.022107 1008590.000000 0 0 1
12.163563 -31.656405 -9.644537 35.257585 -1.203952 1.847873 0.065254 -0.016921 1012480.000000 0 0 1
13.343663 -30.966125 -8.901537 34.873938 -1.163929 1.828902 0.061179 -0.013777 233288.000000 0 0 1
14.209363 -30.130955 -9.671637 34.688917 -1.130136 1.853352 0.056109 -0.014641 360973.000000 0 0 1
15.303563 -29.918495 -8.791237 34.736166 -1.097984 1.826665 0.046217 -0.014817 -494740.000000 0 0 1
16.440963 -29.034715 -9.274637 34.631471 -1.055561 1.841915 0.052788 -0.015928 -300939.000000 0 0 1
16.160463 -27.612505 -9.500737 33.374766 -1.041286 1.859457 0.052749 -0.021246 -26369.300000 0 0 1
15.249463 -27.379225 -10.561037 33.071189 -1.062616 1.895832 0.042371 -0.016955 -225496.000000 0 0 1
14.978063 -25.875505 -10.694137 31.752932 -1.046073 1.914304 0.043477 -0.017945 -634248.000000 0 0 1
13.965563 -25.403285 -9.847137 30.615844 -1.068142 1.898252 0.035982 -0.015199 -102538.000000 0 0 1
13.492363 -24.099235 -10.084737 29.402702 -1.060409 1.920891 0.033552 -0.007229 247582.000000 0 0 1
12.843663 -23.658835 -11.435137 29.248290 -1.073444 1.972479 0.009866 0.006955 112946.000000 0 0 1
13.782663 -23.173635 -12.385837 29.671335 -1.034241 2.001417 0.015652 -0.005416 156233.000000 0 0 1
13.184163 -23.135735 -13.650237 29.923458 -1.052832 2.044485 0.012899 -0.006864 283731.000000 0 0 1
14.271563 -22.735535 -14.689637 30.600122 -1.010243 2.071510 0.030095 -0.010333 255813.000000 0 0 1
15.096163 -23.775235 -15.146537 31.977703 -1.005072 2.064237 0.043687 -0.015859 -145801.000000 0 0 1
15.640663 -23.346035 -16.385837 32.529422 -0.980524 2.098700 0.052187 -0.019622 -255656.000000 0 0 1
16.584263 -24.394635 -17.073437 34.082814 -0.973734 2.095481 0.064874 -0.022126 1537680.000000 0 0 1
17.870563 -24.629035 -16.463637 34.597655 -0.943102 2.066738 0.091823 -0.031194 1052390.000000 0 0 1
18.919363 -23.707135 -16.748237 34.647857 -0.897249 2.075313 0.094526 -0.035852 817671.000000 0 0 1
20.360963 -24.145135 -16.348537 35.564463 -0.870220 2.048440 0.081031 -0.034376 959070.000000 0 0 1
21.124163 -24.869935 -17.313137 36.938985 -0.866659 2.058610 0.096577 -0.033157 1010510.000000 0 0 1
22.439463 -25.225575 -16.820237 37.719749 -0.843784 2.033005 0.103690 -0.020071 1220870.000000 0 0 1
23.167863 -26.269615 -17.733837 39.259795 -0.848057 2.039472 0.095991 -0.019390 -183822.000000 0 0 1
23.847463 -25.605705 -18.779737 39.711864 -0.820937 2.063375 0.096576 -0.016098 -158255.000000 0 0 1
24.387263 -26.551135 -19.672737 41.069672 -0.827853 2.070322 0.088589 -0.018275 -377139.000000 0 0 1
25.645363 -26.076825 -20.432337 41.894699 -0.793740 2.080258 0.065380 -0.024650 -18712.600000 0 0 1
25.401663 -24.980935 -21.308237 41.513041 -0.777048 2.109811 0.065369 -0.023079 -162010.000000 0 0 1
25.586663 -23.793735 -20.648437 40.585429 -0.749106 2.104546 0.063250 -0.018901 -476571.000000 0 0 1
24.453863 -22.735335 -20.791337 39.334038 -0.748996 2.127728 0.079478 -0.021471 -183497.000000 0 0 1
24.311663 -22.131435 -22.056037 39.589470 -0.738489 2.161709 0.065413 -0.010720 159683.000000 0 0 1
23.840563 -23.033935 -23.105337 40.407811 -0.768192 2.179499 0.042690 -0.014143 -284405.000000 0 0 1
23.235763 -22.354835 -24.373137 40.418920 -0.766078 2.218069 0.030849 -0.008838 451273.000000 0 0 1
24.107263 -21.464035 -25.068937 40.869506 -0.727461 2.231142 0.013790 0.001923 431878.000000 0 0 1
23.306063 -20.842335 -26.072137 40.710340 -0.729650 2.265855 0.002599 0.011225 399843.000000 0 0 1
24.072863 -20.023635 -27.151097 41.444309 -0.693828 2.285141 0.018753 0.004720 148868.000000 0 0 1
23.104063 -19.312735 -27.928997 41.070772 -0.696252 2.318588 0.021975 0.004264 504220.000000 0 0 1
23.554863 -18.941235 -29.237017 42.052409 -0.677256 2.339567 0.039270 -0.011290 -267677.000000 0 0 1
22.691263 -17.946135 -30.052337 41.714507 -0.669157 2.375217 0.055324 -0.014783 180305.000000 0 0 1
21.414063 -18.467935 -30.415267 41.529690 -0.711661 2.392598 0.049797 -0.012626 535708.000000 0 0 1
20.576063 -17.471335 -30.967537 41.080534 -0.703977 2.424661 0.048581 -0.011500 388045.000000 0 0 1
19.192963 -18.058935 -31.372477 40.972274 -0.754965 2.442926 0.047698 -0.008671 145182.000000 0 0 1
19.287263 -18.712635 -32.574867 42.228938 -0.770277 2.451815 0.065738 -0.011304 746352.000000 0 0 1
18.027563 -19.163235 -33.074837 42.263074 -0.815925 2.469618 0.071288 -0.018018 197004.000000 0 0 1
18.147663 -19.930835 33.956629 43.354682 -0.832193 0.670954 0.109175 -0.010147 165597.000000 0 0 1
19.012563 -21.051435 -34.089890 44.348180 -0.836245 2.447583 0.107730 -0.011644 522547.000000 0 0 1
19.137263 -21.948935 33.125143 44.105166 -0.853725 0.721147 0.088909 -0.015682 98153.500000 0 0 1
20.040363 -23.187935 33.458249 45.373460 -0.858083 0.741588 0.081915 -0.014791 156513.000000 0 0 1
19.525663 -24.152135 -33.910757 45.983873 -0.890927 2.400082 0.097160 -0.020168 127963.000000 0 0 1
19.525163 -23.725835 -32.545627 44.758966 -0.882218 2.384930 0.108539 -0.015079 -489774.000000 0 0 1
18.722063 -24.695235 -31.697597 44.329538 -0.922116 2.367484 0.107526 -0.024181 -342671.000000 0 0 1
19.170563 -26.074405 -31.869647 45.420914 -0.936818 2.348509 0.110871 -0.035873 512674.000000 0 0 1
20.401163 -26.385335 -31.226927 45.689324 -0.912611 2.323291 0.097677 -0.032391 263893.000000 0 0 1
20.644963 -27.879765 -31.058007 46.562813 -0.933403 2.300989 0.087362 -0.035104 -126939.000000 0 0 1
19.572763 -28.544865 -30.427547 46.084032 -0.969743 2.291964 0.099628 -0.036484 -132337.000000 0 0 1
19.725663 -29.912575 -30.335747 46.948072 -0.987811 2.273332 0.099009 -0.032434 494705.000000 0 0 1
18.427463 -30.632295 -29.721787 46.489714 -1.029223 2.264409 0.119330 -0.034974 2166060.000000 0 0 1
17.212163 -30.457935 -30.507677 46.418344 -1.056424 2.287938 0.131339 -0.043009 741433.000000 0 0 1
17.213463 -30.927925 -31.867987 47.627812 -1.062925 2.303800 0.134870 -0.054861 -1139170.000000 0 0 1
15.989463 -31.714015 -32.358007 48.046668 -1.103813 2.309690 0.138189 -0.060542 -580058.000000 0 0 1
14.966263 -30.866685 -32.754807 47.430145 -1.119328 2.333102 0.139400 -0.055676 -910481.000000 0 0 1
13.777563 -31.597765 -32.905537 47.655161 -1.159621 2.332966 0.097661 -0.040559 34325.700000 0 0 1
12.633263 -30.796225 -33.594447 47.292639 -1.181510 2.360795 0.089750 -0.033197 -88549.300000 0 0 1
11.934463 -29.914235 -32.772977 45.949547 -1.191190 2.364904 0.096670 -0.031136 -746194.000000 0 0 1
11.083063 -29.294465 -33.684737 45.996320 -1.209107 2.392542 0.066603 -0.023903 -827022.000000 0 0 1
10.123763 -28.268655 -33.073767 44.670812 -1.226900 2.404445 0.070323 -0.027337 -95607.000000 0 0 1
9.074863 -28.959085 -32.408337 44.399122 -1.267120 2.389019 0.070367 -0.015284 318300.000000 0 0 1
8.047763 -27.987445 -32.076287 43.323801 -1.290801 2.404439 0.028019 -0.008570 813823.000000 0 0 1
6.841863 -28.601155 -31.297957 42.946470 -1.335992 2.387315 0.023013 -0.003124 766306.000000 0 0 1
5.899463 -29.333195 -32.108837 43.888693 -1.372325 2.391458 0.022917 -0.005133 301391.000000 0 0 1
6.341963 -30.658025 -32.418627 45.067753 -1.366812 2.373635 0.036132 -0.005939 169036.000000 0 0 1
5.275863 -31.819775 -32.623767 45.876388 -1.406487 2.361891 0.066765 -0.017844 301430.000000 0 0 1
4.574163 -31.960055 -31.422807 45.052867 -1.428640 2.342651 0.067548 -0.032418 218955.000000 0 0 1
3.483663 -32.863715 -31.647527 45.757247 -1.465187 2.334553 0.090876 -0.054893 -460017.000000 0 0 1
2.480563 -33.073125 -30.458567 45.030091 -1.495934 2.313667 0.073481 -0.061415 398712.000000 0 0 1
1.560763 -32.009595 -30.361677 44.146139 -1.522076 2.329187 0.052500 -0.044702 -481864.000000 0 0 1
0.531263 -31.947575 -31.289767 44.721128 -1.554169 2.345724 0.037389 -0.009954 -1651780.000000 0 0 1
-0.494337 -30.902135 -30.948217 43.737609 1.554801 2.356876 0.023767 -0.006878 -512042.000000 0 0 1
-1.266637 -31.132935 -29.765967 43.091493 1.530134 2.333339 0.022181 -0.016684 364584.000000 0 0 1
-1.933037 -29.938645 -29.365187 41.980630 1.506319 2.345485 0.045247 -0.013755 115225.000000 0 0 1
-2.652537 -30.156845 -27.985187 41.226714 1.483064 2.316940 0.047699 -0.017811 -349790.000000 0 0 1
-1.826737 -30.068495 -26.822817 40.335033 1.510118 2.298291 0.032410 -0.008239 -10373.100000 0 0 1
-2.403737 -30.488955 -25.601937 39.885003 1.492119 2.267762 0.048914 -0.020783 523881.000000 0 0 1
-1.271837 -30.456235 -24.509937 39.114407 1.529061 2.248007 0.025539 -0.011213 526056.000000 0 0 1
-1.770737 -30.545325 -23.186537 38.389684 1.512890 2.219280 0.049562 -0.020702 -382629.000000 0 0 1
-0.791237 -30.970175 -22.279637 38.159665 1.545254 2.194263 0.035525 -0.008845 -236748.000000 0 0 1
-1.193437 -30.777795 -20.787437 37.159312 1.532040 2.164475 0.007919 0.003490 -48864.400000 0 0 1
-1.261037 -29.401535 -20.328437 35.767105 1.527932 2.175302 0.008702 -0.011161 -323360.000000 0 0 1
-0.058837 -28.911885 -19.806637 35.045733 1.568761 2.171430 0.035968 -0.022993 -641736.000000 0 0 1
-0.171937 -27.469605 -19.247637 33.542216 1.564537 2.181975 0.036160 -0.028394 -136928.000000 0 0 1
-0.861437 -27.526155 -17.981237 32.890062 1.539511 2.149223 0.033671 -0.027265 345082.000000 0 0 1
-0.825537 -26.214635 -17.434137 31.493455 1.539315 2.157453 0.049714 -0.027472 -76877.700000 0 0 1
-1.664037 -26.191475 -16.153137 30.816979 1.507348 2.122529 0.038074 -0.022559 -164176.000000 0 0 1
-1.870437 -24.880635 -15.725037 29.492733 1.495761 2.133155 0.041062 -0.020464 298787.000000 0 0 1
-2.833737 -24.806635 -14.670537 28.959003 1.457056 2.102029 0.041373 -0.014483 142534.000000 0 0 1
-2.709937 -23.613935 -13.684037 27.426530 1.456536 2.093165 0.045436 -0.013693 -406759.000000 0 0 1
-1.541537 -23.690735 -12.919637 27.028582 1.505819 2.069172 0.048153 -0.014909 -400578.000000 0 0 1
-1.424337 -22.574935 -12.059537 25.633744 1.507786 2.060603 0.059398 -0.011872 655733.000000 0 0 1
-0.120337 -22.671135 -11.193737 25.284275 1.565488 2.029421 0.053239 -0.012000 608812.000000 0 0 1
0.310063 -21.433335 -10.734537 23.973199 -1.556331 2.035069 0.048445 -0.005639 -226615.000000 0 1 0
1.497563 -21.562435 -9.968137 23.802207 -1.501455 2.002909 0.038275 -0.007146 323192.000000 0 1 0
2.146663 -20.245135 -9.536637 22.481572 -1.465158 2.008872 0.038911 0.002647 -295055.000000 0 1 0
2.763763 -19.568935 -10.668537 22.458835 -1.430492 2.065790 0.036685 0.015904 494815.000000 0 1 0
3.552563 -18.394435 -10.385737 21.420538 -1.380013 2.076987 0.023315 0.014253 1011140.000000 0 1 0
4.935063 -18.631335 -9.691537 21.573302 -1.311863 2.036708 0.029351 -0.005653 173974.000000 0 1 0
4.811663 -19.241135 -8.413537 21.544395 -1.325750 1.971994 0.029342 -0.005015 -289562.000000 0 1 0
6.022863 -19.875935 -8.098337 22.291494 -1.276569 1.942596 0.037267 -0.008151 -414800.000000 0 1 0
5.863563 -21.005335 -7.057237 22.921825 -1.298579 1.883763 0.041952 -0.011350 -483005.000000 0 1 0
5.215663 -22.033135 -7.703837 23.916757 -1.338356 1.898754 0.053768 -0.014749 -233837.000000 0 1 0
4.972163 -23.167235 -6.860037 24.667859 -1.359383 1.852608 0.063193 -0.018594 -53730.100000 0 1 0
3.778463 -23.870135 -7.537937 25.315620 -1.413806 1.873140 0.065918 -0.021919 -64267.600000 0 0 1
4.102663 -24.446435 -8.751937 26.287952 -1.404523 1.910201 0.059803 -0.020866 346693.000000 0 0 1
2.936863 -24.987735 -9.360237 26.844480 -1.453801 1.926963 0.049873 -0.013859 491687.000000 0 0 1
3.349463 -25.918325 -10.488437 28.160003 -1.442277 1.952453 0.041467 -0.013943 -78522.000000 0 0 1
3.946263 -27.118755 -10.072537 29.196847 -1.426293 1.923021 0.051910 -0.019159 -71853.700000 0 0 1
4.578763 -27.696885 -11.205237 30.226476 -1.406961 1.950569 0.064459 -0.015806 189709.000000 0 0 1
4.531863 -29.225755 -11.022637 31.562336 -1.416958 1.927550 0.074556 -0.025573 86330.800000 0 0 1
3.264763 -29.774055 -11.301637 32.013747 -1.461581 1.931598 0.085458 -0.024230 -123530.000000 0 0 1
3.357763 -31.197835 -11.130837 33.293768 -1.463581 1.911682 0.074142 -0.025187 405400.000000 0 0 1
2.106463 -32.053605 -11.514837 34.124218 -1.505174 1.914991 0.052665 -0.029556 292683.000000 0 0 1
1.879063 -32.049445 -12.906337 34.601609 -1.512233 1.953035 0.062937 -0.037126 -163149.000000 0 0 1
0.901363 -32.963205 -13.264137 35.543250 -1.543459 1.953234 0.048736 -0.036020 -852119.000000 0 0 1
0.481863 -33.012535 -14.760737 36.165439 -1.556201 1.991217 0.056552 -0.024040 111308.000000 0 0 1
-0.442637 -31.961245 -15.062037 35.335280 1.556948 2.011151 0.043573 -0.021651 63000.600000 0 0 1
-0.668737 -31.821825 -16.487037 35.845476 1.549784 2.048732 0.011591 -0.022478 -259105.000000 0 0 1
-1.792637 -30.828555 -16.823437 35.165912 1.512713 2.069630 0.011598 -0.011882 -14256.800000 0 0 1
-3.036637 -31.337005 -16.414837 35.505998 1.474195 2.051397 0.019287 -0.020593 -670400.000000 0 0 1
-4.125937 -30.729135 -17.063337 35.390119 1.437327 2.073903 0.030245 -0.017312 1084170.000000 0 0 1
-5.508337 -30.915555 -16.318637 35.389422 1.394473 2.050049 0.043047 -0.022409 708116.000000 0 0 1
-5.668937 -30.159605 -15.130237 34.214948 1.385000 2.028859 0.021496 -0.016010 176225.000000 0 0 1
-7.032237 -30.131185 -14.718537 34.263333 1.341513 2.014814 0.040685 -0.015801 507930.000000 0 0 1
-7.467037 -31.252445 -13.743737 34.947993 1.336267 1.974974 0.039963 -0.024326 24889.100000 0 0 1
-7.736837 -32.424335 -14.459537 36.335580 1.336564 1.980071 0.048110 -0.029885 -251076.000000 0 0 1
-8.660837 -33.261065 -13.789637 37.033264 1.316063 1.952345 0.056684 -0.025816 324881.000000 0 0 1
-8.932637 33.681020 -14.485637 37.736412 -1.311552 1.964773 0.093325 -0.029894 86060.800000 0 0 1
-7.881437 32.767081 -14.236137 36.585055 -1.334751 1.970477 0.086708 -0.036483 -12029.800000 0 0 1
-8.001237 31.616840 -14.959937 35.880971 -1.322931 2.000864 0.105797 -0.045993 -477635.000000 0 0 1
-7.356637 -21.638835 -3.048637 23.057612 1.243081 1.703403 0.048008 -0.033444 235692.000000 0 1 0
-7.375237 -20.793335 -4.216637 22.461899 1.229947 1.759641 0.035251 -0.024598 -911310.000000 0 1 0
-6.129137 -20.751335 -4.801837 22.163976 1.283601 1.789179 0.030867 -0.022607 -754581.000000 0 1 0
-6.073137 -19.846135 -5.986037 21.600572 1.273834 1.851596 0.027915 -0.019121 472913.000000 0 1 0
-6.983337 -20.146335 -7.065537 22.462493 1.237126 1.890777 0.033332 -0.018130 153469.000000 0 1 0
-6.892937 -19.177535 -8.094137 21.927277 1.225747 1.948875 0.017450 -0.015210 -317082.000000 0 1 0
-7.881137 -19.390535 -9.257737 22.886914 1.184748 1.987227 0.025399 -0.016577 150776.000000 0 1 0
-7.431737 -20.328235 -10.133037 23.898667 1.220304 2.008654 0.032386 -0.006248 376167.000000 0 1 0
-8.365237 -20.341235 -11.247637 24.703286 1.180633 2.043516 0.050182 -0.009352 739619.000000 0 1 0
-7.856137 -21.202135 -12.397237 25.786448 1.215946 2.072324 0.047023 -0.004311 183652.000000 0 0 1
-6.700237 -20.701835 -13.076037 25.385860 1.257782 2.111911 0.053796 0.000388 195063.000000 0 0 1
-6.449437 -21.492735 -14.205437 26.557999 1.279271 2.135166 0.048209 -0.000661 654335.000000 0 0 1
-5.281437 -20.940835 -15.119637 26.363148 1.323741 2.181585 0.043408 0.006454 31337.700000 0 0 1
-4.065237 -20.774235 -14.461337 25.636405 1.377552 2.170132 0.041288 -0.004005 -380471.000000 0 0 1
-3.037937 -20.142835 -15.213537 25.424684 1.421105 2.212270 0.052681 -0.005432 311640.000000 0 0 1
-3.190137 -18.597135 -15.421937 24.369377 1.400911 2.256013 0.059625 0.002705 -27413.200000 0 1 0
-4.345937 -18.127335 -16.164737 24.673592 1.335493 2.285169 0.059101 0.003543 622407.000000 0 1 0
-4.281337 -18.301635 -17.555037 25.718845 1.340997 2.322076 0.061964 -0.007536 -695304.000000 0 0 1
-5.666637 -18.068035 -18.141637 26.223723 1.266884 2.334779 0.056694 0.001823 81450.100000 0 0 1
-6.632737 -19.096835 -17.878237 26.987287 1.236510 2.294906 0.046626 0.000341 601638.000000 0 0 1
-7.799637 -18.952035 -18.699637 27.743294 1.180376 2.310439 0.035375 0.004789 874411.000000 0 0 1
-8.924937 -19.933935 -18.207537 28.434674 1.149835 2.265722 0.047922 0.002499 180466.000000 0 0 1
-8.505437 -21.280135 -18.260637 29.302516 1.190558 2.243594 0.049900 0.000305 285108.000000 0 0 1
-9.414437 -22.237035 -17.691837 29.935237 1.170309 2.203099 0.061794 0.000571 336388.000000 0 0 1
-8.953937 -23.669735 -18.029837 31.072566 1.209148 2.189831 0.069909 -0.010566 -535949.000000 0 0 1
-8.968037 -24.001835 -19.439937 32.162477 1.213219 2.219845 0.056168 -0.014839 65873.200000 0 0 1
-8.164037 -25.083495 -19.884337 33.033620 1.256135 2.216728 0.069688 -0.033269 1922980.000000 0 0 1
-6.593637 -24.703135 -19.952937 32.432092 1.309962 2.233464 0.067831 -0.027962 1280180.000000 0 0 1
-6.197137 -23.600335 -20.767537 32.041706 1.314007 2.275937 0.069036 -0.032197 -14513.300000 0 0 1
-6.090337 -22.332135 -20.120437 30.669992 1.304554 2.286343 0.058611 -0.026619 -103039.000000 0 0 1
-5.087837 -22.191235 -18.917637 29.600912 1.345419 2.264110 0.080698 -0.018693 794510.000000 0 0 1
-3.732037 -22.450835 -19.292937 29.835977 1.406071 2.273959 0.083183 -0.035116 397610.000000 0 0 1
-2.836137 -22.120135 -18.260537 28.823450 1.443277 2.256904 0.056102 -0.036511 1325860.000000 0 0 1
-1.410837 -22.834735 -18.347837 29.326757 1.509090 2.246741 0.093134 -0.042203 1600960.000000 0 0 1
-0.585537 -22.364235 -19.423437 29.627213 1.544620 2.285766 0.106490 -0.037429 -135765.000000 0 0 1
0.680663 -22.987035 -19.393937 30.083083 -1.541194 2.271400 0.085239 -0.041585 29506.300000 0 0 1
1.660863 -22.350235 -20.386037 30.296567 -1.496622 2.308895 0.108085 -0.039336 -25771.700000 0 0 1
1.301363 -22.543435 -21.741237 31.346154 -1.513133 2.337251 0.102698 -0.053770 -205277.000000 0 0 1
0.735763 -21.447535 -22.401437 31.021968 -1.536505 2.377652 0.118572 -0.045851 -547857.000000 0 0 1
0.391663 -21.745135 -23.832837 32.264662 -1.552787 2.401887 0.116801 -0.047374 -237169.000000 0 0 1
-0.009737 -20.626435 -24.678937 32.163642 1.570324 2.445406 0.105096 -0.049451 1822220.000000 0 0 1
-1.398237 -20.163635 -24.455837 31.727200 1.501563 2.450918 0.093336 -0.044818 1828470.000000 0 0 1
-1.842137 -18.922435 -25.271617 31.624463 1.473750 2.496620 0.079278 -0.031876 -86792.700000 0 0 1
-1.209937 -17.759435 -24.859537 30.575449 1.502772 2.520178 0.073864 -0.025521 -233853.000000 0 0 1
-1.726537 -16.655835 -25.587137 30.579394 1.467506 2.562107 0.073171 -0.021141 158954.000000 0 0 1
-1.036237 -15.344935 -25.113087 29.448395 1.503369 2.592087 0.059863 -0.011376 734365.000000 0 0 1
0.314563 -15.152835 -25.548667 29.705921 -1.550040 2.606170 0.055637 -0.020254 246149.000000 0 0 1
0.820563 -13.904535 -25.072587 28.681772 -1.511851 2.634509 0.054315 -0.016256 182885.000000 0 0 1
0.363963 -12.633135 -25.837547 28.762952 -1.541994 2.686665 0.034737 -0.006549 -261685.000000 0 0 1
0.846963 -11.400635 -25.342837 27.802000 -1.496642 2.717828 0.038839 -0.004132 -38967.700000 0 0 1
0.671963 -10.293935 -26.190417 28.148794 -1.505611 2.766375 0.030083 -0.002670 -1486160.000000 0 0 1
1.462063 -9.028435 -25.809587 27.382203 -1.410250 2.801033 0.042021 -0.009630 1238870.000000 0 0 1
2.901663 -9.010335 -25.968157 27.639663 -1.259247 2.792037 0.053940 -0.022894 1082910.000000 0 0 1
3.292463 -9.357235 -27.284707 29.031938 -1.232463 2.792891 0.049678 -0.014428 -1980710.000000 0 0 1
4.721363 -8.954635 -27.577117 29.376422 -1.085584 2.789781 0.048455 -0.025351 -1446100.000000 0 0 1
4.800263 -7.562935 -27.892007 29.295129 -1.005246 2.830841 0.051674 -0.020635 1558810.000000 0 0 1
6.053263 -7.063835 -28.489637 29.969971 -0.862289 2.825979 0.070580 -0.021539 1443150.000000 0 0 1
7.359563 -7.205935 -27.662977 29.518282 -0.774851 2.785159 0.076663 -0.021781 -188440.000000 0 0 1
7.990063 -8.452235 -27.392757 29.759780 -0.813499 2.740058 0.067321 -0.024420 720397.000000 0 0 1
8.719263 -8.989135 -28.521787 31.149999 -0.800637 2.727862 0.075614 -0.034800 -71004.200000 0 0 1
9.366163 -10.387335 -28.288827 31.557558 -0.837048 2.682421 0.080545 -0.029096 450345.000000 0 0 1
8.379963 -11.429735 -28.113997 31.484273 -0.938152 2.674661 0.085714 -0.035727 732574.000000 0 0 1
8.782963 -12.514735 -27.276097 31.268906 -0.958857 2.630698 0.082816 -0.037259 -195902.000000 0 0 1
9.404363 -13.727535 -27.999457 32.570798 -0.970159 2.605379 0.101362 -0.045900 -29281.600000 0 0 1
8.475163 -14.562735 -28.648777 33.236336 -1.043735 2.609942 0.104703 -0.047230 -52218.400000 0 0 1
9.194963 -15.423435 -29.500967 34.536021 -1.033199 2.594823 0.108062 -0.045433 719672.000000 0 0 1
8.215963 -16.054235 -30.586227 35.507151 -1.097783 2.608836 0.084305 -0.043947 369875.000000 0 0 1
7.871963 -15.018835 -31.531297 35.801619 -1.088024 2.648182 0.082669 -0.039624 126572.000000 0 0 1
6.975163 -15.563035 -32.456667 36.664645 -1.149450 2.657786 0.068664 -0.034575 -543149.000000 0 0 1
6.057563 -14.500135 -33.078447 36.621464 -1.175075 2.698087 0.065074 -0.027327 -593032.000000 0 0 1
6.683063 -13.661435 -33.945737 37.196925 -1.115833 2.720384 0.073488 -0.031946 -603026.000000 0 0 1
5.824663 -12.712435 33.826723 36.603003 -1.141156 0.391988 0.048811 -0.023176 -642879.000000 0 0 1
6.559263 -11.784335 32.845300 35.506453 -1.062893 0.389625 0.071074 -0.029183 58069.600000 0 0 1
6.756263 -12.321035 31.540186 34.528804 -1.069219 0.419124 0.070726 -0.036839 96069.600000 0 0 1
6.940463 -11.286635 30.610626 33.355188 -1.019473 0.408502 0.079281 -0.027764 -268450.000000 0 0 1
7.353863 -11.776435 29.207766 32.339717 -1.012588 0.443735 0.070045 -0.017410 -499092.000000 0 0 1
6.404363 -12.417735 28.435356 31.682573 -1.094634 0.456711 0.054002 -0.024194 -230609.000000 0 0 1
6.948063 -12.594035 27.128396 30.705620 -1.066653 0.487516 0.060436 -0.006341 321433.000000 0 0 1
6.047463 -13.419135 26.161566 30.017870 -1.147394 0.512476 0.047418 -0.030332 -789050.000000 0 0 1
6.072663 -14.807635 26.526146 30.980311 -1.181610 0.542877 0.044748 -0.023666 -128984.000000 0 0 1
5.341463 -15.661035 25.656776 30.529811 -1.242102 0.572804 0.029584 -0.022432 -785337.000000 0 0 1
3.841863 -15.525235 25.794366 30.350323 -1.328210 0.555024 0.047941 -0.030151 -1457520.000000 0 0 1
3.282063 -14.270635 25.439496 29.352868 -1.344740 0.522291 0.042269 -0.032459 -159737.000000 0 0 1
1.897663 -14.410335 25.154336 29.051669 -1.439862 0.523953 0.042953 -0.030882 411024.000000 0 0 1
1.147463 -13.089735 24.953756 28.201910 -1.483359 0.484678 0.035604 -0.031414 -311536.000000 0 0 1
1.531163 -12.482035 23.748926 26.872981 -1.448737 0.486986 0.028605 -0.015168 232071.000000 0 0 1
0.708463 -11.352335 23.405386 26.022865 -1.508470 0.452364 0.016024 -0.010708 792290.000000 0 0 1
-0.741337 -11.598235 22.915666 25.694286 1.506965 0.469359 0.018270 -0.012887 -140855.000000 0 0 1
-0.826937 -12.345735 21.701566 24.981172 1.503915 0.518190 0.024238 -0.013744 -1106420.000000 0 1 0
-2.092137 -12.813935 21.431266 25.057396 1.408954 0.544692 0.037586 -0.023153 -852883.000000 0 0 1
-2.250037 -13.556435 20.084666 24.335845 1.406320 0.600042 0.054326 -0.026545 154678.000000 0 1 0
-1.293737 -14.591435 19.884166 24.697444 1.482363 0.634935 0.069271 -0.033057 -128189.000000 0 1 0
-1.424137 -15.307635 18.691766 24.201941 1.478029 0.688303 0.070953 -0.031980 200481.000000 0 1 0
-2.620237 -16.298135 18.569366 24.845848 1.411391 0.726682 0.059435 -0.033864 45335.500000 0 1 0
-2.511337 -17.264135 17.501166 24.711292 1.426344 0.783815 0.050952 -0.032348 -770522.000000 0 1 0
-3.475637 -18.266935 17.590766 25.596796 1.382774 0.813134 0.055178 -0.014587 -400044.000000 0 0 1
-3.073537 -19.660635 17.054466 26.207670 1.415722 0.862233 0.049715 -0.015915 -286168.000000 0 0 1
-2.180537 -20.278835 17.926066 27.153816 1.463680 0.849755 0.068402 -0.015061 -666139.000000 0 0 1
-2.057537 -21.673935 17.682066 28.047252 1.476149 0.888678 0.072047 -0.020212 -14671.400000 0 0 1
-0.868737 -22.450435 18.331866 28.997138 1.532120 0.886413 0.087398 -0.018221 580753.000000 0 0 1
0.314163 -22.307135 17.552666 28.386670 -1.556714 0.904165 0.080187 -0.017746 -571287.000000 0 0 1
1.249463 -23.257335 18.022366 29.449455 -1.517125 0.912239 0.092888 -0.014291 -448411.000000 0 0 1
2.510263 -23.173135 17.160866 28.944618 -1.462891 0.936158 0.081288 -0.021732 -359350.000000 0 0 1
3.156663 -21.924935 17.371266 28.150100 -1.427803 0.905752 0.095536 -0.027636 -731480.000000 0 0 1
4.193263 -21.681835 16.488866 27.560263 -1.379755 0.929438 0.077388 -0.027569 -390876.000000 0 0 1
5.147263 -20.566835 16.922466 27.126718 -1.325564 0.897162 0.081935 -0.019444 -444069.000000 0 0 1
5.969863 -20.899335 18.066666 28.263507 -1.292558 0.877310 0.079195 -0.011501 198590.000000 0 0 1
6.592063 -19.795235 18.725166 28.034593 -1.249334 0.839372 0.079093 -0.010207 1173600.000000 0 0 1
7.740463 -19.044935 17.917166 27.269931 -1.184758 0.853924 0.069137 -0.007175 523432.000000 0 0 1
7.128363 -18.379035 16.835666 25.923775 -1.200805 0.863962 0.071011 -0.010688 -228995.000000 0 0 1
8.165663 -17.945235 16.031766 25.411159 -1.143765 0.888090 0.072459 -0.012785 -203270.000000 0 0 1
7.698563 -16.974235 14.911766 23.869505 -1.144999 0.896023 0.078638 -0.010789 -152868.000000 0 1 0
6.868763 -17.623835 13.983766 23.522864 -1.199164 0.934183 0.070254 -0.009843 -121865.000000 0 1 0
6.236163 -16.665635 13.159566 22.131590 -1.212733 0.934021 0.055251 -0.006729 -209871.000000 0 1 0
6.362463 -16.771335 11.594466 21.358610 -1.208204 0.996973 0.046721 -0.012946 106732.000000 0 1 0
7.714763 -16.396135 11.410466 21.413769 -1.131007 1.008824 0.049983 -0.007725 163672.000000 0 1 0
8.221363 -16.760635 10.123566 21.236672 -1.114764 1.073897 0.054841 -0.008651 658072.000000 0 1 0
9.511463 -15.962535 9.790866 21.003130 -1.033425 1.085848 0.045454 -0.011166 453748.000000 0 1 0
10.262263 -16.355735 8.671866 21.166609 -1.010443 1.148676 0.053284 -0.015708 -840014.000000 0 1 0
11.589663 -15.965935 8.806366 21.605171 -0.942899 1.150967 0.049208 -0.010622 -574236.000000 0 1 0
12.565363 -16.767335 7.945166 22.408871 -0.927682 1.208359 0.059872 -0.020629 -191404.000000 0 1 0
12.777063 -18.009535 8.588466 23.693003 -0.953749 1.199859 0.065381 -0.027373 -72695.600000 0 1 0
13.450263 -18.902735 7.715166 24.448859 -0.952360 1.249746 0.057129 -0.025722 -95278.500000 0 1 0
14.082363 -20.100835 8.389066 25.937095 -0.959677 1.241435 0.058540 -0.028694 24152.400000 0 0 1
13.147663 -20.959635 9.019566 26.334766 -1.010556 1.221223 0.071147 -0.024823 -3871.330000 0 0 1
13.811563 -22.142735 9.310966 27.708375 -1.013095 1.228093 0.054068 -0.017092 -341767.000000 0 0 1
12.983163 -23.077935 10.127166 28.349834 -1.058347 1.205505 0.082831 -0.018251 -271440.000000 0 0 1
12.788263 -22.535535 11.424966 28.318189 -1.054639 1.155512 0.084461 -0.022571 42381.800000 0 0 1
11.734463 -23.126735 12.200266 28.659901 -1.101248 1.131071 0.096069 -0.021153 348777.000000 0 0 1
11.844163 -24.619135 12.672466 30.116065 -1.122386 1.136483 0.082858 -0.018163 253964.000000 0 0 1
12.939663 -24.786735 13.568266 31.079172 -1.089673 1.119013 0.050300 -0.017357 278048.000000 0 0 1
12.855763 -26.073605 14.179566 32.344452 -1.112719 1.116987 0.051001 -0.025602 464953.000000 0 0 1
14.006363 -26.363795 15.202766 33.501522 -1.082445 1.099779 0.035279 -0.019304 311991.000000 0 0 1
13.956063 -25.651675 16.427266 33.505748 -1.072525 1.058383 0.031264 -0.010516 -303941.000000 0 0 1
15.084663 -25.894125 17.192466 34.549003 -1.043305 1.049937 0.036349 -0.010943 -1151140.000000 0 0 1
14.893063 -25.528585 18.658066 34.951901 -1.042681 1.007683 0.039083 -0.009565 -272064.000000 0 0 1
15.292563 -24.228435 19.004766 34.381109 -1.007764 0.985115 0.021939 -0.004324 -421199.000000 0 0 1
16.643063 -24.180335 19.369666 35.169078 -0.967973 0.987524 0.030373 -0.010646 -737033.000000 0 0 1
16.935063 -22.705935 19.770166 34.542948 -0.929961 0.961445 0.026204 -0.019029 -207348.000000 0 0 1
17.044163 -21.805835 18.724766 33.415786 -0.907355 0.975980 0.013794 -0.015351 537921.000000 0 0 1
15.792163 -21.186035 18.416566 32.208855 -0.930243 0.962115 0.022404 -0.009524 -223068.000000 0 0 1
15.774563 -20.211635 17.258966 30.906616 -0.908078 0.978313 0.017284 -0.012001 207443.000000 0 0 1
16.549863 -19.010735 17.416666 30.637334 -0.854490 0.966141 0.017137 -0.012908 180784.000000 0 0 1
17.944663 -19.186835 17.375666 31.496973 -0.818839 0.986441 0.007636 -0.014316 -429737.000000 0 0 1
18.810963 -17.913735 17.524866 31.334887 -0.760972 0.977284 0.021715 -0.016050 -119625.000000 0 0 1
18.693363 -17.412735 18.812166 31.726057 -0.749945 0.936071 0.014101 -0.011592 496578.000000 0 0 1
19.552063 -16.282035 18.918266 31.706286 -0.694396 0.931448 0.024697 -0.016228 -217960.000000 0 0 1
20.113363 -16.069635 20.339666 32.809793 -0.674102 0.902147 0.031489 -0.016571 -3965.910000 0 0 1
21.187963 -16.946935 20.681366 34.115205 -0.674642 0.919496 0.028738 -0.018383 301766.000000 0 0 1
21.581763 -16.799435 22.015666 35.109586 -0.661436 0.893029 0.026482 -0.015534 122705.000000 0 0 1
33.736442 -0.761135 -7.853237 34.646792 -0.022557 1.799449 0.088350 -0.025709 1083150.000000 0 0 1
35.088352 -0.476935 -8.355837 36.072704 -0.013592 1.804558 0.080658 -0.028887 1564650.000000 0 0 1
35.843132 -1.629235 -8.231537 36.812264 -0.045423 1.796312 0.084995 -0.022906 901891.000000 0 0 1
-35.604585 -1.572935 -8.798137 36.709233 0.044149 1.812823 0.086171 -0.031644 1273090.000000 0 0 1
-34.824098 -2.732435 -8.488537 35.947730 0.078303 1.809183 0.097190 -0.016658 356293.000000 0 0 1
-33.475067 -2.439035 -8.820237 34.703395 0.072733 1.827776 0.146020 -0.025723 -309829.000000 0 0 1
-32.463377 -3.545935 -8.563637 33.760634 0.108797 1.827256 0.129944 -0.016818 -420488.000000 0 0 1
-32.064787 -3.596735 -7.227437 33.065434 0.111704 1.791155 0.131155 -0.021155 747902.000000 0 0 1
-30.840337 -4.330135 -7.081837 31.937891 0.139493 1.794393 0.127216 -0.023185 383761.000000 0 0 1
-30.267927 -4.322235 -5.679537 31.098011 0.141840 1.754461 0.133238 -0.034003 -348507.000000 0 0 1
-29.564857 -3.122335 -5.416437 30.218662 0.105220 1.751012 0.136426 -0.030829 544638.000000 0 0 1
-29.807747 -2.772735 -4.051737 30.209376 0.092754 1.705324 0.136925 -0.032794 -240909.000000 0 0 1
-29.228487 -1.440035 -3.560337 29.479725 0.049228 1.691864 0.148231 -0.030440 546884.000000 0 0 1
-27.817047 -1.365835 -3.313637 28.046993 0.049061 1.689219 0.142079 -0.029640 1026350.000000 0 0 1
-27.555297 -0.049835 -2.917137 27.709323 0.001809 1.676268 0.147295 -0.034614 -262361.000000 0 0 1
-26.132177 0.247065 -2.422137 26.245351 -0.009454 1.663216 0.142171 -0.021825 -233804.000000 0 0 1
-25.757447 -0.423335 -1.241637 25.790831 0.016434 1.618958 0.143774 -0.024909 -296727.000000 0 0 1
-24.391237 -0.374235 -0.994337 24.414365 0.015342 1.611535 0.109668 -0.019677 -687604.000000 0 1 0
-23.986537 -1.096035 0.262963 24.013005 0.045662 1.559845 0.089194 -0.020910 -348842.000000 0 1 0
-24.272537 -2.481935 0.280663 24.400714 0.101899 1.559294 0.105966 -0.017307 921282.000000 0 1 0
-23.215037 -3.323335 0.803563 23.465469 0.142188 1.536545 0.082055 -0.019798 197217.000000 0 1 0
-23.408637 -4.840035 0.773363 23.916277 0.203890 1.538454 0.078858 -0.015663 -975385.000000 0 1 0
-24.501337 -5.224235 1.522963 25.098358 0.210077 1.510079 0.093984 -0.020815 -327777.000000 0 0 1
-24.878937 -6.546635 1.227463 25.755128 0.257307 1.523119 0.090282 -0.020907 137123.000000 0 0 1
-26.191777 -7.013635 1.924263 27.182771 0.261642 1.499947 0.100979 -0.021458 228741.000000 0 0 1
-26.167507 -6.968935 3.351663 27.286226 0.260279 1.447652 0.096963 -0.020409 79891.900000 0 0 1
-27.455667 -7.347435 3.789963 28.673372 0.261484 1.438231 0.087928 -0.014002 120320.000000 0 0 1
-27.608967 -7.486335 5.331563 29.098554 0.264789 1.386531 0.092329 -0.021478 5213.920000 0 0 1
-26.855347 -8.605835 5.822263 28.795291 0.310112 1.367198 0.075944 -0.008448 279963.000000 0 0 1
-26.774937 -8.794135 7.267063 29.104025 0.317346 1.318433 0.060826 -0.017499 -148226.000000 0 0 1
-26.038957 -7.701135 8.058563 28.324463 0.287557 1.282302 0.083645 -0.012686 1067840.000000 0 0 1
-24.613037 -7.565535 7.837463 26.915883 0.298213 1.275333 0.093220 -0.018023 1232660.000000 0 0 1
-24.127537 -6.420935 8.493163 26.372339 0.260096 1.242904 0.088175 -0.018787 -624632.000000 0 0 1
-22.732537 -5.957835 8.107463 24.859505 0.256319 1.238588 0.085104 -0.018896 -7219.890000 0 1 0
-21.625637 -6.622235 8.709463 24.235860 0.297155 1.203212 0.086286 -0.016826 -97716.000000 0 1 0
-20.444137 -6.307635 8.032063 22.853075 0.299264 1.211661 0.080063 -0.014664 18163.000000 0 1 0
-19.196737 -6.507735 8.945263 22.155881 0.326844 1.155193 0.078717 -0.014172 56182.700000 0 1 0
-19.094137 -5.344835 9.793463 22.114819 0.272935 1.112026 0.077642 -0.015764 374750.000000 0 1 0
-18.095337 -5.474935 10.794463 21.770084 0.293804 1.051995 0.075588 -0.016912 -100818.000000 0 1 0
-17.869837 -4.244735 11.651063 21.750773 0.233214 1.005505 0.074198 -0.012115 -270746.000000 0 1 0
-18.836837 -4.052935 12.644863 23.046589 0.211929 0.990029 0.078600 -0.007562 -42887.100000 0 1 0
-18.850137 -2.781335 13.206063 23.183261 0.146493 0.964731 0.083406 -0.008745 753891.000000 0 1 0
-20.106837 -2.656235 14.152763 24.731380 0.131345 0.961538 0.082578 -0.009154 614765.000000 0 1 0
-20.072537 -3.573935 15.217563 25.441187 0.176204 0.929610 0.080423 0.001974 417144.000000 0 0 1
-21.271737 -3.626335 15.982263 26.852743 0.168853 0.933305 0.066953 0.001836 246817.000000 0 0 1
-21.132237 -4.726435 17.063463 27.569410 0.220039 0.903420 0.065599 0.014518 -111690.000000 0 0 1
-22.051337 -4.592035 18.114363 28.904643 0.205309 0.893493 0.049317 0.008658 257592.000000 0 0 1
-21.674337 -5.476635 19.134663 29.426276 0.247498 0.862873 0.059683 0.006577 -256963.000000 0 0 1
-22.459137 -5.322535 20.452363 30.838958 0.232695 0.845712 0.052415 -0.000242 -273947.000000 0 0 1
-22.383737 -4.013735 20.878663 30.871675 0.177429 0.828062 0.045967 -0.000622 212149.000000 0 0 1
-23.160737 -3.898835 22.025863 32.198747 0.166774 0.817483 0.039582 -0.011065 -338881.000000 0 0 1
-23.053837 -2.464635 22.559363 32.349323 0.106503 0.799079 0.028681 -0.001708 612603.000000 0 0 1
-23.961237 -1.541835 21.884263 32.487522 0.064258 0.831700 0.034824 -0.004193 434796.000000 0 0 1
-23.740737 -0.202535 22.260563 32.545296 0.008531 0.817582 0.035262 -0.012119 -292711.000000 0 0 1
-24.870637 0.783965 21.892463 33.142769 -0.031511 0.849245 0.047913 -0.015128 -371306.000000 0 0 1
-25.960457 0.598265 22.755363 34.526943 -0.023041 0.851227 0.055387 -0.013387 -980903.000000 0 0 1
-27.062817 1.257965 22.216463 35.036406 -0.046450 0.883957 0.070405 -0.008396 -926336.000000 0 0 1
-28.232427 1.312265 23.173363 36.548553 -0.046447 0.884026 0.076927 -0.014477 -680920.000000 0 0 1
-28.080737 2.138065 24.294963 37.193337 -0.075993 0.858984 0.061678 -0.011995 22016.400000 0 0 1
-29.015287 1.751065 25.277963 38.521793 -0.060277 0.855026 0.065189 -0.019326 -72251.000000 0 0 1
-28.716187 2.478365 26.579363 39.207451 -0.086092 0.825872 0.076264 -0.025315 529916.000000 0 0 1
-27.506597 2.169465 27.278363 38.799852 -0.078708 0.791114 0.061709 -0.030116 529371.000000 0 0 1
-27.035047 3.173965 28.156363 39.163102 -0.116867 0.768504 0.057056 -0.035202 126137.000000 0 0 1
-25.802997 2.672565 28.937463 38.862759 -0.103208 0.730851 0.058829 -0.037797 327922.000000 0 0 1
-26.272537 1.788565 29.973463 39.898041 -0.067973 0.720840 0.060014 -0.034479 1159260.000000 0 0 1
-25.159387 1.504465 30.849563 39.836587 -0.059726 0.685026 0.057842 -0.034485 615880.000000 0 0 1
-25.483427 0.379765 31.854463 40.795295 -0.014901 0.674792 0.058321 -0.029222 -171169.000000 0 0 1
-25.458727 -0.920135 31.272063 40.335287 0.036126 0.683602 0.062277 -0.023693 -238927.000000 0 0 1
-26.245927 -1.843935 31.974263 41.407756 0.070141 0.688531 0.048982 -0.018168 -527133.000000 0 0 1
-26.992507 -2.789435 30.965763 41.173473 0.102976 0.719583 0.059997 -0.003251 1276490.000000 0 0 1
-28.209827 -2.323735 30.306463 41.468974 0.082188 0.751270 0.053964 -0.004520 1203160.000000 0 0 1
-28.106187 -1.005935 29.693063 40.898015 0.035775 0.758270 0.057724 -0.000601 -232072.000000 0 0 1
-29.436927 -0.627635 28.947963 41.290570 0.021318 0.793886 0.073624 -0.013145 1605230.000000 0 0 1
-30.543287 -0.274235 29.787063 42.664232 0.008978 0.797952 0.084363 -0.022199 233700.000000 0 0 1
-31.803637 -0.687735 29.289963 43.241719 0.021621 0.826636 0.073856 -0.022508 384583.000000 0 0 1
-32.896747 -0.428835 30.350563 44.760882 0.013035 0.825676 0.055497 -0.022536 -232810.000000 0 0 1
-32.892567 -1.409835 31.387263 45.487019 0.042836 0.809270 0.053539 -0.017517 263522.000000 0 0 1
-33.698127 -1.028135 32.516963 46.839873 0.030501 0.803467 0.063326 -0.017082 198019.000000 0 0 1
-33.837167 -2.280735 33.427263 47.618668 0.067301 0.792625 0.062395 -0.016858 -280559.000000 0 0 1
-34.820033 -3.227435 33.074463 48.132849 0.092425 0.813238 0.040421 -0.013214 79208.800000 0 0 1
-34.762618 -4.397835 33.872563 48.735317 0.125842 0.802333 0.032434 -0.004905 6662.430000 0 0 1
-35.989390 -5.237135 33.494263 49.442183 0.144505 0.826515 0.029783 -0.016137 87837.500000 0 0 1
35.760992 -5.032835 -34.069940 49.648150 -0.139817 2.327087 0.040542 -0.024411 -370999.000000 0 0 1
34.633262 -5.375035 33.497963 48.481619 -0.153970 0.808006 0.046043 -0.029867 389846.000000 0 0 1
33.230792 -5.045635 -34.138340 47.907935 -0.150685 2.363968 0.067028 -0.036868 651159.000000 0 0 1
32.975192 -5.840135 -32.976440 46.999107 -0.175289 2.348492 0.075715 -0.035659 77136.300000 0 0 1
32.640132 -7.202235 -33.201740 47.112694 -0.217176 2.352839 0.076916 -0.030926 197282.000000 0 0 1
31.192472 -7.397635 -33.788940 46.576687 -0.232859 2.382481 0.076327 -0.033885 864631.000000 0 0 1
30.124922 -7.165135 -32.871340 45.159441 -0.233509 2.386044 0.080197 -0.033257 -733684.000000 0 0 1
28.935972 -7.649935 -33.334640 44.799668 -0.258461 2.409957 0.076043 -0.030008 -465676.000000 0 0 1
27.709742 -7.275435 -32.422640 43.266492 -0.256763 2.417907 0.080505 -0.027166 102459.000000 0 0 1
26.463742 -7.723435 -32.857040 42.890164 -0.283963 2.443507 0.067690 -0.026092 -882986.000000 0 0 1
25.466842 -7.384635 -31.954440 41.523236 -0.282230 2.448941 0.077228 -0.028382 -599125.000000 0 0 1
24.073942 -7.860335 -32.444240 41.157846 -0.315595 2.478818 0.073378 -0.030407 -24264.700000 0 0 1
23.902242 -9.285935 -32.510940 41.406606 -0.370550 2.473756 0.071038 -0.034322 118485.000000 0 0 1
23.786242 -9.842435 -31.211640 40.457698 -0.392335 2.451935 0.074535 -0.028151 -629393.000000 0 0 1
23.351542 -11.294335 -31.257940 40.619150 -0.450495 2.448912 0.079331 -0.029340 -589764.000000 0 0 1
22.046442 -11.530435 -31.681140 40.282641 -0.481883 2.475871 0.090233 -0.034906 -560201.000000 0 0 1
21.864242 -12.951535 -31.692140 40.622396 -0.534784 2.465725 0.070028 -0.025110 -961530.000000 0 0 1
20.636542 -13.433935 -32.465940 40.747696 -0.577062 2.492703 0.058497 -0.020548 224288.000000 0 0 1
19.326142 -13.163435 -31.999040 39.632239 -0.597943 2.510527 0.047508 -0.018313 287025.000000 0 0 1
19.013242 -11.762135 -32.078640 39.101027 -0.554004 2.532914 0.046872 -0.026704 147280.000000 0 0 1
17.521842 -11.361535 -31.709440 37.968250 -0.575265 2.559214 0.048374 -0.028410 1666940.000000 0 0 1
16.475042 -11.988135 -32.459140 38.324120 -0.629046 2.581044 0.041732 -0.020000 115528.000000 0 0 1
15.224242 -11.457735 -32.086340 37.317428 -0.645162 2.605717 0.061344 -0.030986 -308045.000000 0 0 1
14.090042 -12.082935 -32.900140 37.774936 -0.708862 2.627932 0.067354 -0.034888 -985891.000000 0 0 1
13.859742 -13.416935 -32.605540 37.884401 -0.769166 2.607358 0.073665 -0.026502 765795.000000 0 0 1
12.713742 -14.004535 -33.266840 38.268118 -0.833672 2.624600 0.070346 -0.035182 950267.000000 0 0 1
11.375942 -13.776835 -32.502440 37.089376 -0.880562 2.638981 0.069210 -0.033223 -148704.000000 0 0 1
10.845842 -12.462235 -32.652040 36.593651 -0.854636 2.673182 0.095220 -0.031668 -104074.000000 0 0 1
9.860842 -12.312835 -31.631340 35.346623 -0.895532 2.678981 0.099875 -0.034818 646248.000000 0 0 1
8.622542 -11.467835 -32.116640 35.175816 -0.926087 2.721453 0.090077 -0.032363 100126.000000 0 0 1
8.899942 -10.175935 -32.347140 35.058467 -0.852189 2.745726 0.085901 -0.032352 -144078.000000 0 0 1
7.769442 -9.363235 -32.254740 34.473216 -0.878158 2.780882 0.084342 -0.026236 -406250.000000 0 0 1
8.105342 -7.890735 -32.425940 34.342421 -0.771983 2.805938 0.089554 -0.023565 -463379.000000 0 0 1
8.851942 -7.257435 -31.457340 33.475237 -0.686739 2.792606 0.076504 -0.026780 117851.000000 0 0 1
8.971042 -5.885735 -31.845340 33.604273 -0.580639 2.816614 0.061819 -0.022098 -106666.000000 0 0 1
9.222442 -4.881335 -30.725640 32.449127 -0.486803 2.814208 0.057340 -0.023905 451157.000000 0 0 1
8.058342 -4.672135 -29.923640 31.339910 -0.525426 2.839814 0.067782 -0.024460 584984.000000 0 0 1
8.378542 -3.700935 -28.966040 30.379736 -0.415943 2.835326 0.062200 -0.018583 192965.000000 0 0 1
7.056642 -3.180635 -28.379840 29.416457 -0.423460 2.875328 0.059201 -0.023609 -787349.000000 0 0 1
6.433342 -2.223235 -29.240740 30.022517 -0.332732 2.912885 0.059481 -0.016275 859160.000000 0 0 1
5.178842 -1.701735 -28.751040 29.263264 -0.317479 2.954214 0.084199 -0.023935 791664.000000 0 0 1
3.984642 -2.660935 -28.806140 29.201912 -0.588785 2.976768 0.071935 -0.028470 -951795.000000 0 0 1
4.075142 -3.693635 -27.917940 28.454544 -0.736330 2.947079 0.072728 -0.034845 285013.000000 0 0 1
2.839542 -4.422235 -27.891840 28.382634 -0.999991 2.955356 0.075185 -0.031399 705804.000000 0 0 1
2.768342 -5.459235 -26.751640 27.442981 -1.101490 2.916655 0.048955 -0.028187 -506948.000000 0 0 1
2.703642 -4.870935 -25.443040 26.045805 -1.064079 2.926036 0.050846 -0.037614 -71493.300000 0 0 1
2.952242 -5.824235 -24.431440 25.288984 -1.101652 2.880429 0.046082 -0.040837 -267761.000000 0 0 1
2.793742 -5.250635 -23.052240 23.807140 -1.081818 2.889093 0.047692 -0.039579 -101901.000000 0 1 0
3.875442 -4.401335 -22.734240 23.478426 -0.848851 2.889143 0.052666 -0.041453 -60465.400000 0 1 0
3.789542 -3.883135 -21.419740 22.096258 -0.797596 2.893502 0.051483 -0.038503 98902.800000 0 1 0
4.907242 -2.857135 -21.144140 21.893353 -0.527249 2.879226 0.067339 -0.034999 98845.700000 0 1 0
6.231142 -3.258835 -20.925940 22.075826 -0.481871 2.817412 0.062468 -0.033245 -362047.000000 0 1 0
7.068942 -2.155435 -20.684540 21.965110 -0.295961 2.798444 0.079109 -0.018440 329745.000000 0 1 0
8.513542 -2.557235 -20.285040 22.147296 -0.291799 2.728578 0.071418 -0.023547 -218214.000000 0 1 0
9.333542 -2.970435 -21.372840 23.510355 -0.308118 2.711872 0.081635 -0.034577 155344.000000 0 1 0
10.493242 -3.706435 -21.073540 23.831489 -0.339542 2.655731 0.061541 -0.036103 22316.000000 0 1 0
11.681542 -2.927235 -20.527940 23.799652 -0.245530 2.611047 0.046435 -0.026190 -1071450.000000 0 1 0
11.490642 -2.689335 -19.150340 22.494508 -0.229907 2.589319 0.050142 -0.013898 -113011.000000 0 1 0
12.505242 -1.987335 -18.483740 22.404893 -0.157602 2.540975 0.039802 -0.023142 -385333.000000 0 1 0
12.602942 -0.456535 -18.635540 22.501687 -0.036209 2.546656 0.029406 -0.017776 36882.300000 0 1 0
13.192742 0.055365 -19.812140 23.802782 0.004197 2.554123 0.032931 -0.020240 225104.000000 0 1 0
13.203942 1.437965 -19.780640 23.826153 0.108477 2.550275 0.050005 -0.029839 -73353.700000 0 1 0
13.526442 2.167065 -21.079140 25.139430 0.158860 2.565301 0.043840 -0.022280 -546955.000000 0 0 1
14.858142 2.096465 -21.540040 26.251341 0.140173 2.533136 0.044380 -0.015525 48914.200000 0 0 1
15.088842 3.222165 -22.401040 27.200406 0.210386 2.538447 0.052559 -0.018996 -564128.000000 0 0 1
16.530642 3.357165 -22.897540 28.439937 0.200362 2.506673 0.043984 -0.014570 -158177.000000 0 0 1
16.930942 2.513865 -23.985740 29.466796 0.147401 2.521788 0.040389 -0.007238 238012.000000 0 0 1
17.381742 1.230265 -23.538240 29.286298 0.070661 2.504332 0.046429 -0.010084 -467713.000000 0 0 1
9.812363 26.524865 3.191563 28.461149 1.216477 1.458422 0.028731 0.002355 -2223.710000 0 0 1
9.663563 26.965765 4.502063 28.996647 1.226690 1.414904 0.029349 0.001148 468443.000000 0 0 1
10.903963 27.426565 5.029563 29.940097 1.192387 1.402009 0.031396 -0.003247 222489.000000 0 0 1
10.728363 28.162365 6.369163 30.802319 1.206822 1.362518 0.032807 -0.011282 -35352.100000 0 0 1
10.496763 27.268865 7.490863 30.164318 1.203343 1.319835 0.028161 -0.018431 131655.000000 0 0 1
10.420663 28.004665 8.702763 31.122172 1.214567 1.287385 0.033866 -0.011319 -340980.000000 0 0 1
10.453763 27.154265 9.995863 30.766094 1.203308 1.239892 0.039493 -0.019168 -104317.000000 0 0 1
11.646063 26.551065 10.431263 30.812353 1.157439 1.225430 0.039085 -0.013218 -53565.800000 0 0 1
12.196663 25.506065 9.612263 29.861573 1.124751 1.243067 0.040859 -0.014310 -555284.000000 0 0 1
13.513263 24.903965 10.089463 30.076786 1.073641 1.228706 0.043601 -0.018168 -450189.000000 0 0 1
14.580763 25.836465 9.974963 31.298905 1.057004 1.246439 0.039196 -0.016907 -87856.500000 0 0 1
15.731763 25.212265 10.484963 31.513190 1.012936 1.231613 0.060549 -0.021815 -648844.000000 0 0 1
16.873563 26.094365 10.923863 32.938789 0.996789 1.232754 0.064101 -0.017442 -611774.000000 0 0 1
17.527263 26.812065 9.844863 33.511388 0.991819 1.272621 0.063030 -0.020942 1194840.000000 0 0 1
18.962363 26.776565 9.867763 34.262639 0.954608 1.278655 0.080080 -0.029584 1044800.000000 0 0 1
19.690463 27.610265 10.992263 35.649277 0.951294 1.257344 0.075912 -0.024975 -441779.000000 0 0 1
19.651963 28.997065 11.069363 36.736361 0.975179 1.264721 0.069931 -0.034415 -390552.000000 0 0 1
18.393263 29.513265 11.363263 36.585088 1.013478 1.254974 0.055594 -0.020067 -512677.000000 0 0 1
18.451863 31.085765 11.449363 37.919440 1.035111 1.264070 0.046285 -0.010208 -328015.000000 0 0 1
18.850263 31.836865 10.239963 38.389781 1.036214 1.300791 0.062865 -0.033027 592997.000000 0 0 1
17.923763 31.836265 9.141063 37.661228 1.058028 1.325630 0.058629 -0.037414 125965.000000 0 0 1
16.575063 32.533865 9.298363 37.678172 1.099601 1.321436 0.048449 -0.025230 -393176.000000 0 0 1
16.730263 33.911565 9.580663 39.008782 1.112483 1.322655 0.041515 -0.027098 576314.000000 0 0 1
15.457263 -33.800439 9.872563 38.456003 -1.141880 1.311166 0.045676 -0.012833 585830.000000 0 0 1
15.612263 -32.299639 10.162063 37.286418 -1.120551 1.294764 0.047923 -0.007775 -262645.000000 0 0 1
16.012363 -31.625739 9.071263 36.590586 -1.102115 1.320271 0.040150 -0.015787 -219882.000000 0 0 1
16.079963 -30.229139 9.225763 35.460975 -1.081928 1.307602 0.036173 -0.020901 -564440.000000 0 0 1
16.784663 -29.553939 8.109963 34.941833 -1.054289 1.336561 0.020327 -0.021168 -179336.000000 0 0 1
16.094963 -29.561839 6.824663 34.344231 -1.072224 1.370751 0.024539 -0.019768 567764.000000 0 0 1
16.942963 -29.070839 5.774263 34.139710 -1.043108 1.400843 0.004912 -0.013582 318723.000000 0 0 1
16.520363 -29.599239 4.406063 34.182609 -1.061729 1.441539 0.019560 -0.007418 -192387.000000 0 0 1
16.725463 -30.995839 4.133863 35.462261 -1.075970 1.453960 0.032547 -0.015787 -56038.700000 0 0 1
16.618063 -31.138939 2.697163 35.398704 -1.080573 1.494529 0.034531 -0.014969 -217373.000000 0 0 1
16.810063 -32.559439 2.172963 36.707180 -1.094203 1.511564 0.045469 -0.016638 -153118.000000 0 0 1
18.183263 -32.867839 2.271263 37.630899 -1.065482 1.510403 0.050395 -0.006021 19714.300000 0 0 1
18.472563 34.108065 1.779863 38.829932 1.074433 1.524943 0.078474 -0.010322 -480140.000000 0 0 1
19.929863 33.708265 2.011863 39.210894 1.036839 1.519465 0.078008 -0.015132 -365160.000000 0 0 1
20.319963 33.656665 3.354863 39.457916 1.027629 1.485670 0.076671 -0.035678 267558.000000 0 0 1
21.660863 33.221965 3.513263 39.815010 0.993013 1.482442 0.055628 -0.015077 20851.300000 0 0 1
21.918163 32.759865 4.942263 39.724559 0.981142 1.446060 0.065469 -0.011049 -53384.900000 0 0 1
21.218663 31.604565 5.420763 38.450811 0.979538 1.429346 0.058514 -0.026123 632777.000000 0 0 1
22.135063 30.560465 5.747063 38.169776 0.943945 1.419656 0.064391 -0.032121 513817.000000 0 0 1
21.396263 29.605365 6.722163 37.141152 0.944987 1.388804 0.072603 -0.040738 1311980.000000 0 0 1
20.294063 28.890165 6.102163 35.829137 0.958424 1.399649 0.062957 -0.035679 179585.000000 0 0 1
19.225863 28.636965 6.949363 35.185270 0.979548 1.371981 0.062523 -0.041934 -214467.000000 0 0 1
17.909163 28.667965 6.121963 34.352129 1.012406 1.391627 0.073093 -0.036346 -253904.000000 0 0 1
17.350063 29.972965 5.913663 35.133670 1.046068 1.401672 0.065605 -0.044750 -15923.300000 0 0 1
17.927963 30.730365 4.891163 35.912264 1.042675 1.434174 0.077300 -0.042796 -498044.000000 0 0 1
17.808963 32.263765 5.055163 37.197640 1.066434 1.434474 0.085539 -0.037643 14289.100000 0 0 1
16.465763 32.691365 5.017363 36.946186 1.104215 1.434573 0.065199 -0.030059 -170382.000000 0 0 1
16.454963 34.076465 5.203963 38.197546 1.120935 1.434133 0.062379 -0.039039 -876685.000000 0 0 1
15.066063 -33.662739 5.404263 37.274285 -1.149974 1.425297 0.049563 -0.030923 -874187.000000 0 0 1
14.258763 -33.645239 4.272263 36.790850 -1.169945 1.454411 0.053907 -0.026020 -808854.000000 0 0 1
13.106263 -32.896639 4.461763 35.691320 -1.191664 1.445459 0.045433 -0.020027 -526037.000000 0 0 1
12.326563 -32.693639 3.154863 35.082351 -1.210245 1.480747 0.052659 -0.013684 763853.000000 0 0 1
11.112463 -31.911539 3.250763 33.947027 -1.235702 1.474890 0.055299 -0.012773 885640.000000 0 0 1
10.615863 -31.585339 1.978063 33.380278 -1.246557 1.511503 0.056423 -0.010939 -1082540.000000 0 0 1
9.749463 -30.313839 1.958063 31.903211 -1.259627 1.509383 0.070784 -0.012744 -132073.000000 0 0 1
9.231463 -29.900439 0.735263 31.301706 -1.271341 1.547305 0.071110 -0.009428 813017.000000 0 0 1
8.191963 -30.838439 0.283563 31.909215 -1.311151 1.561910 0.058101 -0.012210 -42948.700000 0 0 1
8.588363 -31.551339 -0.979337 32.714004 -1.305033 1.600737 0.066828 -0.016415 13792.200000 0 0 1
9.605363 -32.554039 -0.891237 33.953244 -1.283879 1.597048 0.060117 -0.020399 152314.000000 0 0 1
9.792763 -33.218239 -2.097337 34.695078 -1.284116 1.631284 0.058841 -0.010334 -709947.000000 0 0 1
11.081863 -34.005539 -2.142637 35.829810 -1.255765 1.630632 0.067200 -0.011647 -798423.000000 0 0 1
11.141863 33.263465 -1.123737 35.097892 1.247584 1.602819 0.064031 -0.009890 1334050.000000 0 0 1
12.452963 32.620665 -1.159837 34.936075 1.206120 1.604001 0.080635 -0.015185 935041.000000 0 0 1
12.662563 31.605865 -0.027037 34.048083 1.189739 1.571590 0.067249 -0.012403 -712548.000000 0 0 1
12.782563 32.111765 1.328263 34.587912 1.191959 1.532384 0.063316 -0.016874 10562.300000 0 0 1
13.883963 32.969965 1.497263 35.805374 1.172226 1.528967 0.069032 -0.020925 29851.000000 0 0 1
15.277363 32.277865 1.609763 35.747024 1.128730 1.525749 0.080947 -0.026100 -498086.000000 0 0 1
15.776163 31.775865 0.411963 35.479045 1.109967 1.559185 0.094299 -0.033035 -102521.000000 0 0 1
16.763463 30.796165 0.640263 35.068895 1.072312 1.552538 0.094794 -0.027576 -171605.000000 0 0 1
17.641563 30.270965 -0.511737 35.040234 1.043129 1.585401 0.087610 -0.022556 418884.000000 0 0 1
18.726563 31.129665 -0.880337 36.338894 1.029226 1.595024 0.079933 -0.010474 335974.000000 0 0 1
18.378163 32.188965 -1.779837 37.108681 1.052014 1.618778 0.074116 -0.018235 -106092.000000 0 0 1
19.685563 32.766565 -2.340637 38.296838 1.029802 1.631953 0.075058 -0.009145 102751.000000 0 0 1
20.557863 33.392165 -1.413437 39.238505 1.018949 1.606826 0.053090 -0.008705 -86452.700000 0 0 1
21.433763 -34.090339 -2.170837 40.327037 -1.009516 1.624653 0.041712 -0.000002 -659752.000000 0 0 1
22.683563 -33.603239 -1.357037 40.565543 -0.977019 1.604256 0.040170 0.003819 680709.000000 0 0 1
23.706363 33.698665 -1.102337 41.216585 0.957738 1.597545 0.043566 0.002922 1088790.000000 0 0 1
24.339363 32.978565 -2.184537 41.045859 0.934996 1.624043 0.051660 0.008570 -448719.000000 0 0 1
24.997663 33.770665 -3.283637 42.144077 0.933585 1.648790 0.028443 0.006770 -1372930.000000 0 0 1
24.057063 -33.822539 -4.027637 41.700459 -0.952545 1.667532 0.024313 -0.009736 -264434.000000 0 0 1
24.608763 -33.167939 -5.174437 41.623049 -0.932471 1.695435 0.021933 -0.012053 -413952.000000 0 0 1
23.587163 -32.880939 -6.273537 40.949575 -0.948520 1.724604 0.019224 -0.019831 -473735.000000 0 0 1
22.649363 -31.886939 -5.871637 39.550558 -0.953190 1.719806 0.037130 -0.016056 -533417.000000 0 0 1
21.925863 -31.515839 -6.961237 39.018591 -0.962956 1.750165 0.042600 -0.021345 -641687.000000 0 0 1
20.907763 -30.437839 -6.527037 37.499318 -0.968916 1.745745 0.056698 -0.024517 -542174.000000 0 0 1
19.779463 -30.833639 -5.834537 37.094235 -1.000427 1.728742 0.055281 -0.017205 -823111.000000 0 0 1
19.088763 -29.628639 -5.487837 35.670064 -0.998462 1.725260 0.072774 -0.028179 -208534.000000 0 0 1
17.830763 -29.767639 -4.633037 35.007335 -1.031114 1.703531 0.067054 -0.014877 -175772.000000 0 0 1
16.768563 -30.360939 -5.347337 35.093665 -1.066184 1.723765 0.062356 -0.018595 -745309.000000 0 0 1
15.623163 -30.274739 -4.553737 34.371203 -1.094394 1.703674 0.046178 -0.012195 669776.000000 0 0 1
14.390263 -31.181139 -5.001937 34.703926 -1.138416 1.715432 0.045252 -0.010978 927737.000000 0 0 1
14.686763 -32.570339 -4.988437 36.075095 -1.147174 1.709520 0.052411 -0.005416 -112524.000000 0 0 1
13.622463 -33.306339 -5.550037 36.409980 -1.182551 1.723825 0.061419 -0.007110 26538.800000 0 0 1
13.749863 33.472465 -5.475337 36.598415 1.181030 1.720966 0.059427 -0.007947 14445.400000 0 0 1
13.907463 32.962765 -4.152637 36.016744 1.171542 1.686351 0.070619 -0.016301 -63664.600000 0 0 1
14.333563 31.578165 -4.092937 34.919675 1.144698 1.688276 0.074971 -0.019453 -156357.000000 0 0 1
13.426063 30.444765 -4.631837 33.594595 1.155454 1.709111 0.073172 -0.023122 -764909.000000 0 0 1
12.361663 30.078565 -3.850037 32.746810 1.180861 1.688639 0.073754 -0.017008 -740255.000000 0 0 1
12.723463 29.163365 -2.800237 31.941035 1.159408 1.658578 0.081468 -0.016514 -705408.000000 0 0 1
11.557563 28.475865 -2.142437 30.806529 1.185238 1.640397 0.067238 -0.009914 -71126.300000 0 0 1
10.670263 29.249165 -1.324837 31.162853 1.220993 1.613322 0.051212 -0.005402 456002.000000 0 0 1
9.855163 28.380965 -0.543937 30.048283 1.236577 1.588899 0.036478 0.004215 432621.000000 0 0 1
8.938563 29.123165 0.502163 30.468161 1.273001 1.554314 0.030668 0.016931 827422.000000 0 0 1
7.917463 28.281965 1.059163 29.388392 1.297836 1.534748 0.034862 0.005984 -232615.000000 0 0 1
6.812363 29.066165 1.328063 29.883340 1.340577 1.526340 0.040737 0.009774 -737163.000000 0 0 1
5.557863 28.354465 1.845663 28.952928 1.377237 1.507006 0.028085 0.000982 149737.000000 0 0 1
5.039863 27.401865 0.895463 27.875873 1.388905 1.538668 0.030407 -0.005387 78806.600000 0 0 1
3.844763 26.827965 1.390263 27.137700 1.428454 1.519544 0.030043 -0.008760 279135.000000 0 0 1
3.138863 25.911265 0.349663 26.103034 1.450245 1.557400 0.028896 -0.008022 -464338.000000 0 0 1
1.861963 25.523365 0.741963 25.601945 1.497974 1.541812 0.040546 -0.008079 -583455.000000 0 0 1
1.329963 24.602565 -0.154237 24.638969 1.516791 1.577056 0.027293 -0.003993 -378883.000000 0 1 0
-0.037437 24.046465 0.214163 24.047448 -1.569239 1.561890 0.022635 -0.000119 337226.000000 0 1 0
-1.109637 24.984265 0.391763 25.011963 -1.526412 1.555133 0.025253 -0.009987 -78981.100000 0 0 1
-2.320037 24.314765 0.559863 24.431616 -1.475668 1.547879 0.022373 -0.001842 -101011.000000 0 1 0
-3.485437 25.229865 1.101863 25.493303 -1.433518 1.527561 0.033745 -0.019356 -16098.200000 0 0 1
-4.636837 24.441165 1.170563 24.904639 -1.383310 1.523777 0.029915 -0.015796 1130.120000 0 1 0
-5.688937 24.933065 2.018263 25.653365 -1.346468 1.492041 0.027280 -0.022774 297812.000000 0 0 1
-6.873637 25.564265 1.288463 26.503560 -1.308132 1.522162 0.042480 -0.025347 -681633.000000 0 0 1
-6.550937 26.793165 0.661863 27.590334 -1.331001 1.546805 0.043412 -0.028958 316659.000000 0 0 1
-7.398637 26.911965 -0.487237 27.914711 -1.302505 1.588252 0.035159 -0.019168 -91366.800000 0 0 1
-7.055237 28.141965 -1.380037 29.045673 -1.325157 1.618327 0.031648 -0.015520 19260.700000 0 0 1
-7.541437 29.351865 -0.853437 30.317217 -1.319304 1.598950 0.053257 -0.032203 -299696.000000 0 0 1
-7.434637 30.307865 -1.839137 31.260566 -1.330242 1.629663 0.059573 -0.027034 39674.300000 0 0 1
-7.465637 31.812165 -1.338437 32.703838 -1.340289 1.611734 0.056057 -0.024142 -528396.000000 0 0 1
-7.652837 32.760565 -2.386837 33.727104 -1.341312 1.641625 0.045475 -0.009151 129863.000000 0 0 1
-6.636637 33.015565 -3.378337 33.845024 -1.372425 1.670781 0.039158 -0.011861 1282450.000000 0 0 1
-5.173237 33.358065 -2.898237 33.881008 -1.416940 1.656443 0.046271 -0.021357 450394.000000 0 0 1
-5.116037 -33.575439 -2.654437 34.066552 1.419585 1.648795 0.049854 -0.017178 -160969.000000 0 0 1
-3.988537 -33.208939 -1.898237 33.501423 1.451265 1.627488 0.050149 -0.018435 -95338.500000 0 0 1
-3.752337 -31.719739 -1.832237 31.993421 1.453047 1.628097 0.048080 -0.022860 207974.000000 0 0 1
-4.861337 -31.009639 -1.300337 31.415302 1.415293 1.612200 0.057951 -0.022290 -62626.800000 0 0 1
-5.140237 -29.871839 -2.086337 30.382587 1.400389 1.639519 0.064216 -0.017682 -635173.000000 0 0 1
-6.572537 -29.397939 -1.955537 30.187103 1.350842 1.635622 0.074133 -0.016897 -614964.000000 0 0 1
-6.894037 -29.065039 -0.629437 29.878093 1.337907 1.591865 0.070380 -0.012394 -581895.000000 0 0 1
-8.214837 -28.624639 -0.442937 29.783380 1.291322 1.585669 0.066911 -0.014325 66286.700000 0 0 1
-8.349937 -28.163639 1.038763 29.393725 1.282573 1.535449 0.068222 -0.011800 367722.000000 0 0 1
-7.690537 -26.894039 1.217363 27.998494 1.292272 1.527303 0.069380 -0.021317 43677.300000 0 0 1
-7.425837 -26.605039 2.583763 27.742512 1.298609 1.477527 0.072879 -0.012794 355777.000000 0 0 1
-8.414437 -25.523439 3.107963 27.053801 1.252342 1.455661 0.070484 -0.013205 255691.000000 0 0 1
-7.930837 -24.198039 2.959663 25.635969 1.254082 1.455089 0.066418 -0.022656 181804.000000 0 0 1
-8.884637 -23.162539 3.344763 25.032528 1.204527 1.436779 0.065482 -0.021283 451805.000000 0 0 1
-8.264737 -21.837939 3.795563 23.656030 1.208998 1.409652 0.036649 -0.004271 410602.000000 0 1 0
-7.495637 -21.837739 5.004463 23.624480 1.240154 1.357345 0.041107 -0.006461 571.178000 0 1 0
-6.935137 -20.593239 5.339463 22.376047 1.245958 1.329848 0.018399 -0.006242 180651.000000 0 1 0
-7.959737 -19.606239 5.973663 21.987421 1.185146 1.295652 0.027945 -0.008517 101489.000000 0 1 0
-8.509637 -20.130539 7.141863 22.992580 1.170856 1.254955 0.040194 -0.010415 -12517.500000 0 1 0
-9.255637 -19.133839 7.848063 22.657509 1.120248 1.217089 0.028415 -0.006978 -375327.000000 0 1 0
-27.025677 29.085265 -5.385737 40.066770 -0.822087 1.705623 0.107581 -0.008031 -334383.000000 0 0 1
-25.967987 29.747765 -4.789737 39.776972 -0.853135 1.691504 0.112894 -0.029834 -723873.000000 0 0 1
-25.234837 28.907665 -3.978737 38.578238 -0.853131 1.674114 0.094037 -0.028347 -212580.000000 0 0 1
-24.184537 29.654865 -3.155837 38.396122 -0.886655 1.653081 0.083498 -0.035766 22058.700000 0 0 1
-24.841137 30.264265 -2.000237 39.204704 -0.883496 1.621839 0.078262 -0.038744 910292.000000 0 0 1
-24.014437 31.187065 -1.275137 39.382131 -0.914610 1.603181 0.076524 -0.037192 478758.000000 0 0 1
-22.809937 30.680065 -0.435137 38.232826 -0.931483 1.582178 0.064451 -0.035112 746320.000000 0 0 1
-21.690437 30.307365 -1.233937 37.289865 -0.949623 1.603893 0.062243 -0.030230 -743491.000000 0 0 1
-20.511537 30.222765 -0.551937 36.530033 -0.974524 1.585906 0.039752 -0.027361 -1414510.000000 0 0 1
-19.401937 29.578465 -1.339437 35.399363 -0.990251 1.608643 0.055303 -0.019360 -326412.000000 0 0 1
-18.132337 29.637865 -0.713637 34.751892 -1.021748 1.591333 0.052470 -0.014338 -106491.000000 0 0 1
-17.112537 29.215965 -1.574537 33.895291 -1.040939 1.617266 0.055281 -0.011794 368942.000000 0 0 1
-15.653937 29.504265 -1.110737 33.418276 -1.082997 1.604040 0.064096 -0.007816 493313.000000 0 0 1
-15.279137 28.679365 0.023163 32.495516 -1.081288 1.570084 0.066918 -0.022421 -294610.000000 0 0 1
-14.219337 29.271665 0.700463 32.550124 -1.118596 1.549275 0.059572 -0.022521 -259747.000000 0 0 1
-13.857637 28.498765 2.003263 31.752587 -1.118206 1.507665 0.045548 -0.027060 197090.000000 0 0 1
-14.887937 28.606965 2.983663 32.386901 -1.090938 1.478540 0.037473 -0.021153 35449.000000 0 0 1
-14.597937 27.959665 4.176363 31.816421 -1.089620 1.439152 0.032609 -0.027362 264242.000000 0 0 1
-13.467437 28.553765 5.069463 31.974816 -1.130083 1.411579 0.044298 -0.031250 180094.000000 0 0 1
-13.741637 29.747665 5.822663 33.281520 -1.138058 1.394939 0.039846 -0.026598 -342744.000000 0 0 1
-13.703337 30.947265 5.059763 34.221570 -1.153949 1.422399 0.047053 -0.017641 -304969.000000 0 0 1
-13.444137 32.100265 6.015763 35.318002 -1.174174 1.399630 0.051820 -0.029368 210668.000000 0 0 1
-14.587337 32.650265 6.664663 36.376475 -1.150627 1.386542 0.048616 -0.027134 192397.000000 0 0 1
-14.222637 33.779765 7.478463 37.406996 -1.172284 1.369519 0.066260 -0.027441 297847.000000 0 0 1
-15.433837 -34.001139 8.290463 38.249347 1.144686 1.352314 0.052747 -0.029451 113409.000000 0 0 1
-15.697837 33.535965 9.407263 38.204446 -1.133001 1.322003 0.037503 -0.032797 -279380.000000 0 0 1
-16.780037 34.030065 10.161363 39.279362 -1.112688 1.309126 0.060912 -0.031978 -525929.000000 0 0 1
-16.913037 33.354465 11.504163 39.126934 -1.101509 1.272365 0.055539 -0.029013 142379.000000 0 0 1
-16.002237 33.631865 12.548963 39.302041 -1.126691 1.245810 0.057005 -0.031180 186453.000000 0 0 1
-14.730037 32.998865 12.510163 38.241382 -1.150957 1.237524 0.053415 -0.031745 92095.600000 0 0 1
-13.854137 33.325265 13.740863 38.617635 -1.176808 1.207007 0.065744 -0.031150 -218750.000000 0 0 1
-14.141637 32.610265 14.934463 38.554552 -1.161617 1.173031 0.050844 -0.026999 -95161.100000 0 0 1
-13.440937 31.414565 15.082563 37.349932 -1.166508 1.155110 0.034750 -0.024337 -532461.000000 0 0 1
-14.125837 30.161865 14.484163 36.318981 -1.132801 1.160584 0.030395 -0.027616 -117103.000000 0 0 1
-14.091937 30.242465 13.142763 35.859749 -1.134745 1.195547 0.025673 -0.033204 546473.000000 0 0 1
-15.219337 29.588565 12.569263 35.568213 -1.095722 1.209610 0.006734 -0.025409 118748.000000 0 0 1
-15.362037 29.607965 11.047063 35.137749 -1.092184 1.250979 0.009040 -0.017496 27321.300000 0 0 1
-14.444937 28.753265 10.389063 33.813298 -1.105250 1.258497 -0.004193 -0.010234 252416.000000 0 0 1
-14.870737 28.569065 9.048763 33.454603 -1.090869 1.296906 0.006476 -0.010874 -274178.000000 0 0 1
-14.362337 27.258665 8.476263 31.955572 -1.085868 1.302332 0.010426 -0.011790 -449857.000000 0 0 1
-13.000137 27.289665 8.182863 31.315949 -1.126226 1.306427 0.030945 -0.020738 -386642.000000 0 0 1
-12.395537 26.030665 7.987863 29.917400 -1.126378 1.300521 0.029483 -0.025279 -94852.200000 0 0 1
-10.997037 26.046265 7.364963 29.216185 -1.171290 1.315962 0.055185 -0.032458 -219208.000000 0 0 1
-11.074337 26.404965 5.998863 29.254906 -1.173675 1.364276 0.056546 -0.034187 816663.000000 0 0 1
-9.795737 26.235965 5.362663 28.513865 -1.213455 1.381597 0.073610 -0.038206 435626.000000 0 0 1
-9.802137 26.378865 3.826263 28.400118 -1.215018 1.435658 0.064624 -0.028971 -47282.500000 0 0 1
-9.791037 27.673165 3.324763 29.541878 -1.230732 1.458013 0.067657 -0.028694 20481.400000 0 0 1
-9.983037 27.834565 1.913063 29.632480 -1.226431 1.506192 0.068346 -0.028534 -149209.000000 0 0 1
-9.790837 29.349065 1.621263 30.981553 -1.248806 1.518442 0.077302 -0.024882 575071.000000 0 0 1
-10.775737 30.266265 2.122863 32.197358 -1.228759 1.504816 0.064838 -0.029973 343106.000000 0 0 1
-10.326037 31.540665 1.761663 33.234682 -1.254406 1.517765 0.069274 -0.022754 198146.000000 0 0 1
-11.129437 32.621965 2.498663 34.558650 -1.242015 1.498431 0.068551 -0.015416 1123110.000000 0 0 1
-12.448737 32.998265 2.060263 35.328477 -1.210051 1.512446 0.059028 -0.014241 669395.000000 0 0 1
-12.379337 33.952965 1.001763 36.153221 -1.221172 1.543084 0.058144 -0.008300 219773.000000 0 0 1
-13.737937 -33.758239 0.515563 36.450177 1.184312 1.556652 0.063644 -0.005433 754755.000000 0 0 1
-14.608837 33.620365 -0.165937 36.657532 -1.160887 1.575323 0.051738 0.001220 212208.000000 0 0 1
-14.612637 33.649465 -1.578337 36.719298 -1.161108 1.613793 0.042785 0.006635 797522.000000 0 0 1
-13.293337 33.205165 -2.348937 35.844293 -1.189997 1.636375 0.049517 0.002875 919204.000000 0 0 1
-13.041737 31.827265 -2.434737 34.481730 -1.181899 1.641465 0.046781 0.002900 -549614.000000 0 0 1
-11.683537 31.534565 -2.319737 33.709272 -1.215977 1.639667 0.045779 0.000677 -426413.000000 0 0 1
-11.349137 30.035765 -2.623037 32.215376 -1.209526 1.652308 0.029850 -0.007691 12733.900000 0 0 1
-11.317037 29.582065 -4.001037 31.924633 -1.205411 1.696454 0.036779 -0.006589 -475543.000000 0 0 1
-10.081637 29.748365 -4.631037 31.749821 -1.244047 1.717179 0.026506 -0.003387 -454250.000000 0 0 1
-10.143737 29.245065 -6.117737 31.553066 -1.236928 1.765919 0.033235 -0.008186 -463213.000000 0 0 1
-10.369837 27.854865 -6.098537 30.341707 -1.214412 1.773170 0.040119 -0.003610 -45283.500000 0 0 1
-10.257637 27.213265 -7.338737 29.993966 -1.210330 1.817980 0.043294 -0.004492 45664.300000 0 0 1
-10.869437 25.803865 -7.510037 28.989391 -1.172121 1.832847 0.055776 -0.017771 421977.000000 0 0 1
-10.145937 24.769365 -6.795837 27.616026 -1.182028 1.819433 0.025190 -0.006963 113884.000000 0 0 1
-10.876537 23.555265 -6.839237 26.831414 -1.138218 1.828537 0.072765 -0.027794 -162628.000000 0 0 1
-10.418237 22.335565 -5.975837 25.359964 -1.134354 1.808674 0.054031 -0.025240 -505705.000000 0 0 1
-9.052937 22.016165 -6.076837 24.568174 -1.180676 1.820736 0.042489 -0.027351 -230093.000000 0 1 0
-8.663337 20.800765 -5.490937 23.192146 -1.176155 1.809824 0.043612 -0.022420 -452047.000000 0 1 0
-8.528237 20.786765 -3.934737 22.810143 -1.181466 1.744163 0.034060 -0.024973 178787.000000 0 1 0
-9.684337 20.830865 -3.084437 23.178117 -1.135618 1.704268 0.057689 -0.023168 25914.400000 0 1 0
-10.459837 19.672565 -3.125437 22.498586 -1.082114 1.710164 0.066893 -0.024807 -486845.000000 0 1 0
-11.745037 19.803765 -2.287137 23.137978 -1.035487 1.669806 0.067935 -0.021404 -444739.000000 0 1 0
-11.693037 19.574265 -0.866637 22.817319 -1.032314 1.608787 0.073865 -0.025879 96311.600000 0 1 0
-11.401337 18.222965 -0.447837 21.500407 -1.011724 1.591627 0.064592 -0.022408 -140324.000000 0 1 0
-11.061337 18.257465 1.049063 21.372617 -1.026084 1.521692 0.060570 -0.018836 -488336.000000 0 1 0
-12.179937 18.315765 1.872563 22.075430 -0.983950 1.485869 0.082975 -0.024440 -462535.000000 0 1 0
-11.871837 18.399465 3.229363 22.133902 -0.997784 1.424372 0.077169 -0.023259 145803.000000 0 1 0
-13.099137 18.271265 4.183363 22.867598 -0.948801 1.386822 0.076797 -0.029941 531571.000000 0 1 0
-13.644837 16.959065 4.431863 22.213349 -0.893272 1.369935 0.058444 -0.031024 755262.000000 0 1 0
-14.935837 16.983165 5.030763 23.169284 -0.849452 1.351922 0.069594 -0.036845 447973.000000 0 1 0
-15.350137 15.624065 5.644663 22.618584 -0.794242 1.318572 0.047696 -0.033724 -481198.000000 0 1 0
-14.544537 15.199665 6.698563 22.078137 -0.807420 1.262535 0.048440 -0.028167 -33908.800000 0 1 0
-15.006437 15.682465 7.978963 23.125672 -0.807423 1.218530 0.049954 -0.026588 -239575.000000 0 1 0
-13.913037 15.606865 9.115063 22.808578 -0.842715 1.159680 0.041486 -0.019521 632126.000000 0 1 0
-12.850737 16.522865 8.903863 22.746984 -0.909768 1.168611 0.044487 -0.020756 726790.000000 0 1 0
-11.832137 16.013965 7.995263 21.456253 -0.934461 1.188954 0.042948 -0.023981 -96177.900000 0 1 0
-10.679037 16.989565 7.710063 21.497261 -1.009638 1.203972 0.061359 -0.028939 -279804.000000 0 1 0
-9.757037 17.216165 8.721563 21.625489 -1.055194 1.155676 0.055284 -0.024865 -474493.000000 0 1 0
-9.000637 18.359265 8.425063 22.114606 -1.114979 1.179948 0.040987 -0.026846 -1040960.000000 0 1 0
-7.825237 18.516965 9.347063 22.169347 -1.170962 1.135564 0.040373 -0.020635 -496534.000000 0 1 0
-6.787237 17.601365 8.934863 20.873582 -1.202758 1.128466 0.031326 -0.020034 423880.000000 0 1 0
-5.510037 17.765165 9.519263 20.894448 -1.270045 1.097764 0.030592 -0.018515 293940.000000 0 1 0
-4.582037 18.864165 9.022663 21.407014 -1.332515 1.135718 0.026649 -0.018887 -1289510.000000 0 1 0
-4.941237 20.232565 9.242963 22.786068 -1.331263 1.153116 0.034016 -0.024967 -460656.000000 0 1 0
-4.481237 21.079065 8.297463 23.092344 -1.361323 1.203261 0.037333 -0.028371 177383.000000 0 1 0
-3.044837 21.653465 8.475663 23.451662 -1.431096 1.201017 0.046071 -0.025597 323910.000000 0 1 0
-1.959937 20.779265 8.339563 22.475932 -1.476753 1.190663 0.029096 -0.005606 198269.000000 0 1 0
-0.717137 21.489965 8.394563 23.082495 -1.537438 1.198585 0.021828 -0.005073 1674470.000000 0 1 0
0.594263 20.631065 8.155763 22.192577 1.542000 1.194477 0.013277 -0.000623 1199110.000000 0 1 0
0.871563 19.773965 9.264163 21.853925 1.526749 1.133035 0.017537 -0.013660 -1048240.000000 0 1 0
2.261363 19.825265 9.468363 22.086304 1.457222 1.127745 0.011937 0.000759 -21273.300000 0 1 0
2.731263 18.786165 10.556463 21.721388 1.426421 1.063296 -0.003607 -0.028050 -511354.000000 0 1 0
4.119963 18.754465 10.711963 21.987501 1.354552 1.061934 0.019686 -0.007444 -395554.000000 0 1 0
4.361263 17.942865 11.822763 21.925892 1.332356 1.001292 0.010154 -0.017597 134650.000000 0 1 0
5.861863 17.934765 12.191563 22.464449 1.254898 0.997142 0.019041 -0.022387 -148081.000000 0 1 0
6.651363 17.012065 11.533763 21.602747 1.198091 1.007587 0.006637 -0.021598 393726.000000 0 1 0
7.766863 16.610065 12.359363 22.112718 1.133403 0.977707 0.017199 -0.012614 -112777.000000 0 1 0
8.965563 15.941765 11.723763 21.724820 1.058487 1.000777 0.028702 -0.017072 -388247.000000 0 1 0
9.698763 16.919665 10.994963 22.388173 1.050298 1.057438 0.036508 -0.031201 701742.000000 0 1 0
10.960163 16.369765 10.567563 22.355486 0.980809 1.078438 0.032188 -0.024538 511591.000000 0 1 0
11.827863 17.367865 9.812063 23.190896 0.972923 1.133933 0.033752 -0.017497 -1191830.000000 0 1 0
12.980463 16.795565 9.358963 23.198569 0.912831 1.155536 0.048649 -0.017421 -1455400.000000 0 1 0
13.848763 17.730165 8.832563 24.169426 0.907696 1.196687 0.063838 -0.017638 -144808.000000 0 1 0
14.540563 17.325665 7.481163 23.823821 0.872576 1.251372 0.071350 -0.024508 -252896.000000 0 1 0
15.520263 16.332765 7.610763 23.781537 0.810900 1.245037 0.077613 -0.035503 -169874.000000 0 1 0
16.577063 16.670865 6.726763 24.453345 0.788219 1.292118 0.075703 -0.020751 745168.000000 0 1 0
18.001563 16.765165 7.384563 25.683824 0.749850 1.279162 0.077998 -0.016093 609654.000000 0 0 1
18.400663 15.540365 8.034963 25.389919 0.701324 1.248798 0.087450 -0.022126 635593.000000 0 0 1
19.507863 15.779965 8.917663 26.628720 0.680146 1.229309 0.087761 -0.025904 392883.000000 0 0 1
19.868863 14.686465 10.010763 26.658570 0.636534 1.185841 0.076024 -0.028528 44187.900000 0 0 1
20.497763 13.548065 9.431763 26.318558 0.584037 1.204276 0.075574 -0.027094 271975.000000 0 0 1
20.741163 12.614065 10.471463 26.437890 0.546402 1.163555 0.078762 -0.027470 -339840.000000 0 0 1
21.480363 11.355365 9.973663 26.264506 0.486296 1.181282 0.059958 -0.020922 -111326.000000 0 0 1
22.887163 11.644065 9.981963 27.550791 0.470631 1.200050 0.052236 -0.023832 1261040.000000 0 0 1
23.726463 10.706865 9.301363 27.642311 0.423903 1.227609 0.058422 -0.016626 65799.700000 0 0 1
23.781163 9.287665 9.831063 27.357892 0.372331 1.203225 0.062617 -0.022506 -1187410.000000 0 0 1
22.691863 8.484365 9.451763 26.004633 0.357801 1.198812 0.073924 -0.027702 61026.700000 0 0 1
22.786163 7.135565 9.758363 25.794402 0.303480 1.182823 0.075047 -0.025313 -228276.000000 0 0 1
23.885363 6.231765 9.116963 26.314720 0.255214 1.217003 0.068583 -0.026166 204289.000000 0 0 1
23.837063 6.072465 7.730863 25.784620 0.249443 1.266288 0.073556 -0.016336 95471.600000 0 0 1
24.859363 5.173365 7.383663 26.443716 0.205177 1.287813 0.069451 -0.023600 -126749.000000 0 0 1
24.956663 4.756465 5.911663 26.084607 0.188330 1.342176 0.106602 -0.027346 18820.400000 0 0 1
23.790863 4.007065 5.530863 24.751812 0.166863 1.345441 0.095209 -0.019776 1062370.000000 0 1 0
23.625163 3.759365 4.156663 24.280836 0.157802 1.398758 0.108811 -0.020486 -215078.000000 0 1 0
22.464763 2.796065 3.847463 22.962720 0.123828 1.402450 0.100033 -0.017689 -212287.000000 0 1 0
22.816363 1.441265 4.099463 23.226477 0.063084 1.393367 0.096689 -0.019054 -112237.000000 0 1 0
21.870863 0.549565 3.640563 22.178601 0.025122 1.405903 0.090279 -0.013493 -790020.000000 0 1 0
22.331863 -0.937335 3.732663 22.661056 -0.041948 1.405325 0.099623 -0.018443 -242599.000000 0 1 0
22.289363 -1.544035 4.996663 22.894680 -0.069162 1.350780 0.090007 -0.022955 943560.000000 0 1 0
22.867063 -2.883835 5.115563 23.609067 -0.125451 1.352386 0.105049 -0.024048 -472694.000000 0 1 0
22.506263 -3.539535 6.461563 23.681469 -0.155991 1.294439 0.118764 -0.026280 -409298.000000 0 1 0
22.948163 -4.866735 6.679163 24.390869 -0.208979 1.293414 0.126412 -0.023310 530348.000000 0 1 0
23.083263 -5.080935 8.085063 24.980416 -0.216658 1.241205 0.157526 -0.022776 -313743.000000 0 1 0
22.794363 -6.595535 8.481163 25.199488 -0.281657 1.227534 0.178355 -0.032212 -703523.000000 0 0 1
21.433163 -6.851335 8.529663 24.064006 -0.309395 1.208463 0.180798 -0.038942 -361634.000000 0 1 0
21.178563 -8.232335 8.913663 24.408118 -0.370737 1.196957 0.163306 -0.037735 149567.000000 0 1 0
-26.629867 -32.971139 4.985363 42.674345 0.891395 1.453706 0.059857 -0.017493 378605.000000 0 0 1
-27.515877 -33.894639 5.628563 44.018755 0.888898 1.442578 0.058255 -0.022400 286099.000000 0 0 1
-27.496987 -33.795039 7.059763 44.136484 0.887794 1.410153 0.052735 -0.016250 -98341.700000 0 0 1
-28.167897 33.300065 7.786463 44.305234 -0.868698 1.394133 0.069632 -0.018642 -901137.000000 0 0 1
-29.538857 33.294565 7.682563 45.167399 -0.845100 1.399874 0.055701 -0.016561 -1267790.000000 0 0 1
-30.091647 32.040165 8.059363 44.688172 -0.816749 1.389457 0.076357 -0.018749 -218981.000000 0 0 1
-31.611287 31.940465 8.028563 45.650023 -0.790578 1.394005 0.050060 -0.014538 -390953.000000 0 0 1
-32.231087 32.177065 6.796563 46.047799 -0.784559 1.422657 0.042553 -0.011072 -543645.000000 0 0 1
-33.620127 32.035665 6.861063 46.943274 -0.761270 1.424114 0.021548 -0.003312 -433200.000000 0 0 1
-34.287961 32.055465 5.500163 47.259591 -0.751760 1.454150 -0.000162 0.004896 -334820.000000 0 0 1
-33.986927 30.909365 4.739763 46.184039 -0.738011 1.467988 0.008204 0.000114 264987.000000 0 0 1
-34.712450 30.843465 3.522463 46.569102 -0.726448 1.495085 0.011980 0.013823 -57664.100000 0 0 1
-34.361637 29.633765 2.741763 45.457666 -0.711654 1.510445 0.018045 0.005912 -406187.000000 0 0 1
-34.795665 28.448665 3.294463 45.065712 -0.685376 1.497628 0.032772 -0.004114 -93613.400000 0 0 1
-34.264794 27.317965 2.696863 43.904674 -0.673068 1.509332 0.032120 -0.004902 -475781.000000 0 0 1
-34.621193 26.048365 3.465363 43.464389 -0.645024 1.490983 0.046172 -0.009032 21034.800000 0 0 1
-35.982710 25.691365 3.286963 44.335153 -0.620055 1.496589 0.057948 -0.012623 -98134.400000 0 0 1
-36.378247 24.789865 4.272763 44.228620 -0.598166 1.474039 0.069995 -0.013098 478507.000000 0 0 1
35.048652 24.380165 4.131063 42.893661 0.607773 1.474337 0.085998 -0.020680 224007.000000 0 0 1
34.752012 23.598265 3.005463 42.114289 0.596525 1.499371 0.091973 -0.031318 179964.000000 0 0 1
35.181972 22.240465 3.143563 41.740765 0.563728 1.495413 0.092011 -0.025278 -848493.000000 0 0 1
34.504692 21.256065 2.199563 40.586108 0.552126 1.516575 0.105158 -0.027959 -1287740.000000 0 0 1
33.146062 21.086065 2.371863 39.356186 0.566581 1.510493 0.110465 -0.038270 -598284.000000 0 0 1
32.692802 20.241765 3.423563 38.604005 0.554382 1.481996 0.094328 -0.030935 -407951.000000 0 0 1
32.985522 18.766565 3.145163 38.080451 0.517263 1.488110 0.103617 -0.032745 -780555.000000 0 0 1
32.131812 18.162665 2.215063 36.976239 0.514480 1.510855 0.104076 -0.037915 53124.600000 0 0 1
32.289562 16.774265 1.983563 36.440724 0.479122 1.516337 0.096298 -0.032218 -524249.000000 0 0 1
31.665412 15.827365 3.023763 35.529523 0.463513 1.485588 0.108721 -0.032956 -822509.000000 0 0 1
30.282772 15.800865 2.945563 34.283961 0.480917 1.484774 0.093881 -0.024683 -688585.000000 0 0 1
29.651872 15.097065 4.015363 33.515341 0.470936 1.450701 0.081411 -0.023105 701162.000000 0 0 1
28.112182 15.389565 4.085063 32.308223 0.500871 1.444017 0.066865 -0.012892 442019.000000 0 0 1
27.442342 14.814765 2.961763 31.326211 0.495018 1.476109 0.060266 -0.015950 -1605780.000000 0 0 1
26.144542 15.184765 3.154963 30.398487 0.526183 1.466822 0.035090 -0.003179 -1456640.000000 0 0 1
25.232242 14.601165 2.039163 29.223591 0.524589 1.500962 0.045315 -0.010568 -317016.000000 0 0 1
25.512742 15.151365 0.787363 29.683056 0.535903 1.544268 0.056536 -0.015723 653324.000000 0 0 1
26.487742 14.488565 -0.036937 30.191396 0.500530 1.572020 0.055034 -0.017901 -139264.000000 0 0 1
26.994542 15.366865 -1.268037 31.087840 0.517508 1.611596 0.076041 -0.019876 311222.000000 0 0 1
27.666542 16.618265 -1.026637 32.290220 0.540907 1.602596 0.062879 -0.022395 529321.000000 0 0 1
28.766242 16.573765 -0.148737 33.199526 0.522701 1.575276 0.082572 -0.027744 -882224.000000 0 0 1
29.411472 17.939965 0.061163 34.451137 0.547714 1.569021 0.099992 -0.017451 -179957.000000 0 0 1
30.153712 18.315765 -1.097437 35.297564 0.545853 1.601892 0.082593 -0.015061 198312.000000 0 0 1
30.886062 19.479165 -0.847537 36.525403 0.562672 1.594002 0.085535 -0.008092 95091.300000 0 0 1
30.665392 20.426465 -2.035837 36.901916 0.587616 1.625993 0.088445 -0.007503 -279930.000000 0 0 1
31.730922 21.310165 -2.140937 38.282610 0.591403 1.626750 0.063394 -0.003719 -193170.000000 0 0 1
31.471612 22.322665 -3.083237 38.707495 0.616937 1.650536 0.068730 -0.006420 -289572.000000 0 0 1
32.588172 23.382965 -3.252137 40.240880 0.622394 1.651701 0.064577 -0.007315 -215844.000000 0 0 1
32.738522 24.340365 -2.221937 40.855859 0.639314 1.625208 0.078971 -0.008125 380120.000000 0 0 1
33.419932 23.825165 -1.070337 41.056985 0.619333 1.596869 0.084664 -0.003583 -427527.000000 0 0 1
33.364752 24.818765 0.117763 41.583551 0.639561 1.567964 0.089513 -0.025303 -129934.000000 0 0 1
34.033742 26.035865 -0.136137 42.850676 0.653033 1.573973 0.094053 -0.019326 1067240.000000 0 0 1
35.401222 25.975365 0.358363 43.910074 0.633015 1.562635 0.085660 -0.018083 1508640.000000 0 0 1
36.277432 27.266465 0.086163 45.381931 0.644530 1.568898 0.041382 -0.009789 -9564.640000 0 0 1
-36.275407 27.594265 -1.248937 45.595049 -0.650306 1.598192 0.036961 -0.013445 181038.000000 0 0 1
35.582662 27.721265 -2.160337 45.158183 0.661846 1.618654 0.038357 -0.013802 -151507.000000 0 0 1
36.003882 27.231165 -3.575537 45.283555 0.647546 1.649837 0.040504 -0.007236 181416.000000 0 0 1
-35.893765 27.984565 -4.193737 45.706517 -0.662209 1.662679 0.033213 -0.003961 106049.000000 0 0 1
-35.650564 27.492365 -5.519837 45.357044 -0.656908 1.692796 0.036019 -0.001769 -235069.000000 0 0 1
36.216632 27.584065 -6.650637 46.008218 0.650910 1.715858 0.029045 0.006514 -89076.500000 0 0 1
35.027632 26.915065 -6.361737 44.629894 0.655170 1.713828 0.034715 0.006737 -569240.000000 0 0 1
34.029912 26.986965 -7.355137 44.050304 0.670481 1.738553 0.028049 -0.002222 319082.000000 0 0 1
32.839612 26.072265 -6.997937 42.510873 0.671027 1.736164 0.043610 -0.000203 -226750.000000 0 0 1
33.147922 24.682565 -7.228337 41.955484 0.640048 1.743946 0.039588 0.008268 -251900.000000 0 0 1
34.108442 24.075065 -6.425137 42.240703 0.614634 1.723497 0.047958 0.000861 -327466.000000 0 0 1
34.192182 22.576865 -6.729737 41.522398 0.583577 1.733589 0.058546 0.005156 89407.600000 0 0 1
33.109642 21.838965 -6.214937 40.147407 0.583091 1.726224 0.050264 0.006852 -6744.490000 0 0 1
33.332432 20.466065 -6.359137 39.627636 0.550649 1.731965 0.061885 0.002576 -36731.300000 0 0 1
32.281552 19.515765 -5.746737 38.157420 0.543757 1.721978 0.071336 -0.004544 192726.000000 0 0 1
31.010742 19.606365 -6.360237 37.236116 0.563792 1.742446 0.067200 -0.006567 472428.000000 0 0 1
30.010762 18.816065 -5.679737 35.874080 0.560020 1.729790 0.099708 -0.015071 1000420.000000 0 0 1
28.763002 18.574965 -6.593537 34.868530 0.573413 1.761039 0.075100 -0.019403 308830.000000 0 0 1
28.992692 17.653065 -7.666837 34.799243 0.546923 1.792935 0.056120 -0.023940 -215748.000000 0 0 1
27.899992 17.607265 -8.537237 34.077996 0.562963 1.824014 0.068759 -0.025718 -355651.000000 0 0 1
28.005082 16.534065 -9.659737 33.925956 0.533327 1.859521 0.058153 -0.026389 129179.000000 0 0 1
26.895242 16.394265 -10.560037 33.221084 0.547419 1.894280 0.063081 -0.022050 474930.000000 0 0 1
27.067542 15.292565 -11.438037 33.126169 0.514270 1.923341 0.056275 -0.014249 -365132.000000 0 0 1
26.324742 15.302565 -12.757337 33.013788 0.526556 1.967548 0.063443 -0.013058 -622881.000000 0 0 1
24.931942 15.144565 -12.606737 31.778758 0.545869 1.978719 0.057817 -0.011676 378487.000000 0 0 1
24.157042 15.092565 -13.819437 31.659518 0.558433 2.022503 0.049555 -0.011147 4547.010000 0 0 1
24.147342 13.750565 -14.641737 31.409436 0.517649 2.055739 0.044084 -0.015075 125736.000000 0 0 1
25.368842 13.215365 -15.207537 32.395883 0.480250 2.059439 0.062863 -0.020399 864386.000000 0 0 1
25.629142 13.816965 -16.478337 33.455897 0.494445 2.085801 0.077989 -0.026630 -274949.000000 0 0 1
27.058142 13.516965 -16.987237 34.690311 0.463290 2.082522 0.100875 -0.025706 145732.000000 0 0 1
27.160242 12.166565 -17.305637 34.426576 0.421152 2.097495 0.102159 -0.028977 805619.000000 0 0 1
28.522022 11.731465 -17.472037 35.445806 0.390220 2.086242 0.105967 -0.016871 814954.000000 0 0 1
28.578702 10.374665 -18.252737 35.461787 0.348227 2.111472 0.083473 -0.014185 -255822.000000 0 0 1
27.998622 10.487665 -19.504337 35.697803 0.358401 2.148825 0.090141 -0.016032 -312310.000000 0 0 1
28.080642 9.317165 -20.324537 35.894552 0.320370 2.172720 0.069934 0.002244 -105803.000000 0 0 1
29.411632 9.076865 -21.079137 37.306348 0.299341 2.171264 0.078821 -0.003830 -440972.000000 0 0 1
29.755512 9.975765 -22.149637 38.412405 0.323482 2.185391 0.081678 -0.009148 375591.000000 0 0 1
30.361802 9.417565 -23.346237 39.440796 0.300768 2.204249 0.069743 -0.014620 1106850.000000 0 0 1
31.742202 8.662665 -23.106537 40.205985 0.266419 2.183039 0.057606 -0.010368 50568.100000 0 0 1
32.801782 9.517165 -22.790037 41.059946 0.282388 2.159211 0.054827 -0.011598 -468091.000000 0 0 1
34.002402 8.796865 -22.747337 41.844827 0.253162 2.145530 0.024985 0.000724 -567690.000000 0 0 1
35.278242 9.609765 -22.761137 43.069378 0.265947 2.127601 0.042159 -0.014708 -737414.000000 0 0 1
35.313612 10.470965 -21.672537 42.736298 0.288255 2.102639 0.037493 -0.010837 233050.000000 0 0 1
36.454352 11.299865 -21.499137 43.804334 0.300581 2.083803 0.011031 -0.008684 30251.900000 0 0 1
36.454092 12.063165 -20.172237 43.374416 0.319571 2.054513 0.020345 -0.013405 -173911.000000 0 0 1
-36.377247 11.367165 -18.915437 42.547742 -0.302867 2.031490 0.019427 -0.010592 183145.000000 0 0 1
36.308002 12.276965 -17.875137 42.290844 0.326065 2.007187 0.024638 -0.001904 -182785.000000 0 0 1
-36.247387 11.798465 -16.490237 41.533177 -0.314683 1.979083 0.012321 0.007107 16340.200000 0 0 1
35.806432 10.747965 -16.015937 40.670992 0.291611 1.975550 0.011966 -0.002158 677722.000000 0 0 1
36.368222 10.076965 -14.917637 40.579906 0.270300 1.947236 0.007946 -0.019441 -319531.000000 0 0 1
35.841332 8.686965 -14.683237 39.694608 0.237787 1.949703 0.065664 -0.021602 183451.000000 0 0 1
34.596162 8.673565 -13.989737 38.312373 0.245646 1.944590 0.067388 -0.014102 759760.000000 0 0 1
34.718612 8.288865 -12.631037 37.863313 0.234357 1.910912 0.061210 -0.016780 -673772.000000 0 0 1
33.456852 8.686465 -11.885737 36.552516 0.254023 1.901987 0.060815 -0.016701 -553569.000000 0 0 1
33.416402 10.050965 -11.786137 36.831928 0.292172 1.896524 0.074379 -0.020742 329457.000000 0 0 1
32.518532 10.556365 -10.804937 35.855801 0.313894 1.876898 0.046401 -0.014630 -62918.700000 0 0 1
33.054692 10.424765 -9.368937 35.903557 0.305506 1.834800 0.057473 -0.012699 -49117.900000 0 0 1
34.164562 11.248465 -9.062437 37.092763 0.318065 1.817613 0.062521 -0.014768 37618.300000 0 0 1
33.980402 12.630065 -8.665737 37.273064 0.355863 1.805437 0.064969 -0.016705 -723657.000000 0 0 1
33.449002 12.867765 -7.242637 36.563246 0.367246 1.770200 0.059981 -0.019647 84822.900000 0 0 1
34.522882 12.860465 -6.287437 37.373157 0.356595 1.739834 0.087077 -0.020368 767902.000000 0 0 1
34.127702 13.150965 -4.969337 36.909921 0.367810 1.705841 0.090130 -0.020554 -584923.000000 0 0 1
35.279182 13.005365 -3.987737 37.810875 0.353184 1.676458 0.116309 -0.021325 -372321.000000 0 0 1
36.167312 14.075265 -4.102437 39.025858 0.371136 1.676112 0.113223 -0.017497 307773.000000 0 0 1
-35.485841 13.773065 -3.518737 38.227265 -0.370231 1.662975 0.098561 -0.017976 802030.000000 0 0 1
-34.472960 14.928865 -3.586437 37.737495 -0.408678 1.665976 0.093126 -0.024897 5533.810000 0 0 1
-34.664522 15.994765 -2.609637 38.265805 -0.432307 1.639047 0.119877 -0.021253 106857.000000 0 0 1
-33.518767 16.812465 -2.629637 37.590979 -0.464914 1.640807 0.126501 -0.029577 145024.000000 0 0 1
-33.615297 17.900765 -1.507537 38.114279 -0.489323 1.610360 0.125154 -0.023495 387205.000000 0 0 1
-34.680483 18.811665 -1.811437 39.495518 -0.497011 1.616677 0.106211 -0.020269 465871.000000 0 0 1
-35.126818 19.352965 -0.572837 40.109335 -0.503569 1.585079 0.095741 -0.025442 154561.000000 0 0 1
-36.217157 20.475265 -0.608737 41.608767 -0.514550 1.585427 0.083656 -0.021668 168704.000000 0 0 1
-35.884902 21.638465 -1.357937 41.926047 -0.542620 1.603191 0.084626 -0.010606 -21753.900000 0 0 1
-36.308907 21.625565 -2.714037 42.348174 -0.537178 1.634929 0.045827 -0.000332 -106273.000000 0 0 1
-35.815116 22.829665 -3.538037 42.619642 -0.567489 1.653906 0.062898 -0.018765 81650.700000 0 0 1
-34.444308 22.745865 -3.860937 41.457105 -0.583628 1.664062 0.062133 -0.012715 -104147.000000 0 0 1
-33.934387 23.961365 -4.403637 41.774175 -0.614814 1.676408 0.062876 -0.012169 369337.000000 0 0 1
-32.470667 23.801165 -4.890037 40.555544 -0.632535 1.691667 0.065026 -0.020022 189951.000000 0 0 1
-32.164757 22.857965 -5.902437 39.898583 -0.617840 1.719277 0.056248 -0.012680 -1118540.000000 0 0 1
-30.911277 23.161365 -6.405237 39.153326 -0.643044 1.735129 0.049812 -0.005851 -949300.000000 0 0 1
-30.470747 22.196165 -7.509737 38.438683 -0.629560 1.767430 0.048001 -0.019018 -130582.000000 0 0 1
-31.254597 22.308365 -8.694137 39.371322 -0.619903 1.793456 0.053150 -0.023460 203819.000000 0 0 1
-30.500607 21.968965 -9.842537 38.856119 -0.624207 1.826894 0.014561 -0.023910 486475.000000 0 0 1
-31.392797 21.981965 -11.152237 39.913493 -0.610876 1.853976 0.034657 -0.016906 327026.000000 0 0 1
-31.755847 23.314165 -11.464337 41.029443 -0.633292 1.853984 0.050012 -0.008629 338188.000000 0 0 1
-32.535867 23.324365 -12.679237 41.992520 -0.621966 1.877524 0.035840 -0.009440 -105614.000000 0 0 1
-32.998867 24.683065 -13.163737 43.260408 -0.642218 1.879990 0.061444 -0.009377 962004.000000 0 0 1
-31.938737 25.659465 -13.369937 43.095781 -0.676808 1.886239 0.058312 -0.004651 740577.000000 0 0 1
-30.932827 25.473665 -14.344437 42.561841 -0.688916 1.914552 0.051771 -0.001834 261938.000000 0 0 1
-29.622817 26.236965 -13.974537 41.966383 -0.724859 1.910273 0.044491 0.005207 189962.000000 0 0 1
-28.765847 25.631065 -12.980637 40.656149 -0.727834 1.895764 0.024213 -0.006559 -156708.000000 0 0 1
-29.237077 25.627865 -11.637137 40.583459 -0.719709 1.861625 0.038840 -0.006602 -479867.000000 0 0 1
-29.337947 27.002665 -10.980637 41.357387 -0.743973 1.839525 0.041647 0.011468 361086.000000 0 0 1
-28.100607 27.488965 -10.493837 40.686705 -0.774396 1.831663 0.028037 0.011265 -227792.000000 0 0 1
-28.348507 28.683365 -9.749337 41.490034 -0.791270 1.807995 0.032511 0.009993 -85726.700000 0 0 1
-27.168767 29.521965 -9.235637 41.170200 -0.826884 1.797050 0.053228 0.003228 -254525.000000 0 0 1
-27.499177 30.812165 -8.746437 42.214860 -0.842153 1.779497 0.052104 -0.007201 -447705.000000 0 0 1
-26.397737 31.466665 -8.176137 41.878882 -0.872775 1.767291 0.076276 -0.009161 -538665.000000 0 0 1
34.391362 -25.438935 33.942097 54.607427 -0.636870 0.900057 0.015865 -0.005817 40067.200000 0 0 1
33.958072 -24.075535 34.065769 53.789020 -0.616726 0.884958 0.004752 -0.007316 30725.500000 0 0 1
33.004542 -23.912435 -33.231837 52.587635 -0.626993 2.254841 0.004473 0.000882 -166455.000000 0 0 1
32.695892 -22.464935 -32.829967 51.492732 -0.602007 2.262130 0.001257 0.000559 144854.000000 0 0 1
32.218452 -21.670835 -33.929117 51.563929 -0.592114 2.288957 0.003465 -0.000593 175535.000000 0 0 1
31.854232 -20.382035 -33.563777 50.563293 -0.569209 2.296681 0.001090 -0.005220 229025.000000 0 0 1
31.532772 -19.437235 33.511542 49.951429 -0.552401 0.835398 0.010657 -0.001952 -125026.000000 0 0 1
32.719442 -19.138235 32.827983 50.144894 -0.529257 0.857060 0.021878 -0.010008 -46852.900000 0 0 1
32.560572 -19.022135 31.465386 49.113165 -0.528727 0.875424 0.032131 0.005062 -901482.000000 0 0 1
33.889312 -18.917135 30.752676 49.518386 -0.509120 0.900733 0.026240 0.005988 -1273280.000000 0 0 1
34.561762 -17.763335 31.024766 49.725120 -0.474752 0.897041 0.023349 -0.005555 -20132.800000 0 0 1
35.704162 -17.776435 30.171636 50.011163 -0.461951 0.923166 0.031787 -0.010421 110662.000000 0 0 1
-36.174827 -16.656535 30.401746 50.103138 0.431506 0.918789 0.027726 -0.019601 -757575.000000 0 0 1
-35.255083 -16.614935 29.326346 48.775111 0.440407 0.925724 0.039677 -0.017638 -394162.000000 0 0 1
-34.208351 -15.753235 29.615946 47.911167 0.431558 0.904418 0.039102 -0.025617 78084.200000 0 0 1
-33.027857 -16.410835 30.425306 47.810606 0.461147 0.881011 0.051091 -0.028208 -478210.000000 0 0 1
-32.038547 -15.474235 30.820626 47.072618 0.449946 0.856949 0.047270 -0.029851 -443189.000000 0 0 1
-30.992617 -16.167535 31.397466 46.986512 0.480823 0.838979 0.048625 -0.034514 -792706.000000 0 0 1
-29.791347 -15.320435 31.795296 46.186371 0.474989 0.811498 0.048902 -0.032565 -441056.000000 0 0 1
-30.191017 -14.432335 32.789531 46.850220 0.445921 0.795567 0.056838 -0.034876 -57235.200000 0 0 1
-29.191167 -13.558535 33.237490 46.267578 0.434825 0.769332 0.049713 -0.025732 -300818.000000 0 0 1
-29.546477 -12.901535 -33.708257 46.644298 0.411699 2.378448 0.047174 -0.008503 -48551.400000 0 0 1
-29.405537 -13.820035 -32.656347 46.066430 0.439345 2.358729 0.062548 -0.011621 157633.000000 0 0 1
-29.436567 -13.186635 -31.433707 45.038614 0.421163 2.343296 0.061660 0.006161 -250944.000000 0 0 1
-29.532607 -14.071135 -30.162617 44.496687 0.444640 2.315647 0.068207 -0.001792 124494.000000 0 0 1
-30.832277 -14.620435 -30.002137 45.436931 0.442789 2.292018 0.068756 -0.008788 198099.000000 0 0 1
-31.015257 -15.293635 -28.795717 45.000386 0.458113 2.265164 0.079919 -0.009364 44660.400000 0 0 1
-32.347377 -16.046435 -28.866617 46.229022 0.460495 2.245193 0.067805 -0.022941 -230327.000000 0 0 1
-32.242557 -17.337635 -29.497187 47.013404 0.493370 2.249033 0.072633 -0.025229 -378958.000000 0 0 1
-33.428077 -18.072935 -29.589627 48.162364 0.495637 2.232387 0.057835 -0.026850 -695718.000000 0 0 1
-33.262757 -19.531435 -30.226957 49.005682 0.530944 2.235474 0.050411 -0.025823 77552.700000 0 0 1
-34.465219 -20.259135 -30.412987 50.231799 0.531411 2.221131 0.026234 -0.021413 5535.270000 0 0 1
-34.191319 -21.493435 -30.977387 50.898060 0.561200 2.225112 0.019587 -0.019076 -31789.200000 0 0 1
-35.413518 -22.403735 -31.289097 52.297726 0.564069 2.212159 0.014420 -0.019677 -97866.000000 0 0 1
-36.107757 -22.939335 -30.196877 52.362530 0.565973 2.185466 0.010640 -0.008531 -283820.000000 0 0 1
35.846132 -23.879835 -30.529377 52.794267 -0.587663 2.187404 0.020281 -0.008865 -144828.000000 0 0 1
36.417552 -25.284395 -30.846177 54.009493 -0.606884 2.178672 0.018320 -0.000969 73013.200000 0 0 1
-36.030762 -25.575895 -32.139917 54.638050 0.617296 2.199669 0.023116 -0.007799 197431.000000 0 0 1
-35.245801 -26.795485 -32.151787 54.717474 0.650026 2.198881 0.014574 -0.003506 360091.000000 0 0 1
-35.600646 -27.695165 -33.378697 56.112080 0.661144 2.207885 0.026369 -0.014917 248026.000000 0 0 1
36.128462 -28.401595 -33.126557 56.650553 -0.666225 2.195371 0.030501 -0.010970 -67704.300000 0 0 1
36.079212 -29.640215 -33.816777 57.652635 -0.687733 2.197602 0.032715 -0.015179 495686.000000 0 0 1
-35.982626 -30.775815 -33.191607 57.823723 0.707561 2.182195 0.035099 -0.021753 146571.000000 0 0 1
36.293042 -31.139635 -32.003417 57.541989 -0.709123 2.160573 0.057969 -0.024712 931.981000 0 0 1
-35.890791 -32.073405 -31.311667 57.421883 0.729290 2.147533 0.050457 -0.029774 -394198.000000 0 0 1
36.343652 -32.443245 -30.011537 57.219905 -0.728756 2.122918 0.041451 -0.022874 306974.000000 0 0 1
35.375152 -33.490305 -30.134627 57.280866 -0.758035 2.124787 0.061762 -0.021101 517143.000000 0 0 1
34.745512 -33.720765 -28.869377 56.371815 -0.770432 2.108453 0.054478 -0.020638 390774.000000 0 0 1
33.635672 33.462429 -28.910387 55.559906 0.782816 2.118053 0.053303 -0.022888 -10541.500000 0 0 1
32.486442 33.939894 -29.511557 55.481685 0.807275 2.131657 0.060405 -0.019099 -662946.000000 0 0 1
31.303842 33.213209 -29.211597 54.188239 0.814984 2.140136 0.049051 -0.021387 987759.000000 0 0 1
30.027372 33.824870 -29.871397 54.203923 0.844801 2.154470 0.017632 -0.008976 368193.000000 0 0 1
29.872112 33.349077 -31.197987 54.569391 0.840340 2.179388 0.024198 0.005618 659130.000000 0 0 1
28.495852 33.469781 -31.591837 54.132098 0.865496 2.193959 0.025376 0.007325 693961.000000 0 0 1
28.267852 33.088081 -33.051177 54.646801 0.863799 2.220329 0.012819 -0.006631 -60243.800000 0 0 1
28.326042 31.692360 -33.163697 53.912904 0.841428 2.233353 0.002710 -0.002586 -17878.700000 0 0 1
28.352002 31.261420 33.798055 54.068669 0.834164 0.895543 0.015339 -0.003850 -5186.900000 0 0 1
28.314922 29.723570 33.658217 53.085789 0.809664 0.884037 0.020401 -0.009862 -511751.000000 0 0 1
29.568772 29.162410 33.843979 53.573999 0.778479 0.887021 0.029090 -0.005102 -639083.000000 0 0 1
29.380372 27.803040 -34.052017 52.874901 0.757821 2.270526 0.035156 -0.014279 1577060.000000 0 0 1
30.812772 27.166740 -33.755507 53.168534 0.722596 2.258646 0.050555 -0.017086 1476980.000000 0 0 1
31.353262 27.504920 -32.494167 52.871718 0.720108 2.232656 0.049877 -0.014026 -1399630.000000 0 0 1
32.537232 26.830160 -32.360427 53.157560 0.689561 2.225298 0.049806 -0.017785 -839798.000000 0 0 1
33.269212 27.184680 -31.053207 53.010839 0.685088 2.196651 0.079311 -0.020999 -236224.000000 0 0 1
33.835562 28.484610 -30.849547 53.925067 0.699746 2.179838 0.062961 -0.020484 54831.900000 0 0 1
32.898102 29.498510 -30.632937 53.766384 0.730968 2.176988 0.081087 -0.015607 -97680.000000 0 0 1
32.216982 29.489510 -29.247117 52.563857 0.741226 2.160857 0.055196 -0.003932 306161.000000 0 0 1
33.087092 29.850920 -28.174807 52.722413 0.734025 2.134593 0.046023 -0.005188 429854.000000 0 0 1
32.266162 30.224790 -27.057217 51.833736 0.752743 2.119991 0.048410 -0.003232 176891.000000 0 0 1
32.978682 30.719170 -25.819337 51.941304 0.749941 2.091034 0.057072 -0.005825 -435002.000000 0 0 1
33.593442 31.969710 -25.968617 53.150266 0.760637 2.081268 0.044978 -0.011208 -299359.000000 0 0 1
34.341982 32.121970 -24.813237 53.168501 0.752009 2.056341 0.037269 -0.024123 -598383.000000 0 0 1
34.672922 33.689424 -24.654837 54.268313 0.771013 2.042398 0.047625 -0.018876 250446.000000 0 0 1
33.472942 -33.903095 -24.321937 53.492189 -0.791782 2.042812 0.062738 -0.019921 793905.000000 0 0 1
33.609312 -32.487825 -24.358537 52.710369 -0.768433 2.051181 0.051552 -0.023577 -732603.000000 0 0 1
33.751592 -31.756195 -25.770097 53.025690 -0.754947 2.078295 0.046811 -0.021443 773213.000000 0 0 1
35.029022 -31.802915 -26.430697 54.194460 -0.737164 2.080251 0.058968 -0.020961 751455.000000 0 0 1
36.067452 -31.052625 -25.845817 54.158405 -0.710822 2.068292 0.053553 -0.014243 112259.000000 0 0 1
-35.419610 -31.315435 -26.405397 54.152103 0.723976 2.080153 0.023035 -0.006946 488497.000000 0 0 1
-35.019598 -32.676035 -26.138527 54.564806 0.750793 2.070353 0.021868 -0.013584 -74727.100000 0 0 1
-34.874337 -33.164235 -24.826037 54.151805 0.760269 2.047050 0.022885 -0.010513 -231159.000000 0 0 1
-33.612227 -32.727225 -23.996737 52.694368 0.772058 2.043612 0.016395 -0.009930 519583.000000 0 0 1
-33.561377 -31.308855 -23.749437 51.678295 0.750689 2.048300 0.000793 -0.006096 -155527.000000 0 0 1
-33.243867 -30.963155 -22.421037 50.661371 0.749892 2.029255 0.014688 -0.007063 -545916.000000 0 0 1
-33.001207 -29.451565 -22.272837 49.523263 0.728622 2.037276 0.025405 -0.000705 445214.000000 0 0 1
-34.179804 -28.654305 -22.423737 49.921460 0.697686 2.036644 0.008514 -0.001742 240479.000000 0 0 1
-34.251273 -28.229385 -23.763937 50.346525 0.689315 2.062363 0.009604 0.001797 423256.000000 0 0 1
-35.490510 -27.315025 -24.061137 50.839209 0.655955 2.063806 0.019482 -0.001423 499078.000000 0 0 1
-35.398116 -25.988095 -23.476437 49.795088 0.633290 2.061743 0.021640 -0.004796 -268568.000000 0 0 1
-36.463117 -25.162835 -23.880537 50.328990 0.604044 2.065179 0.030509 -0.006073 -76966.500000 0 0 1
-36.196617 -24.356735 -25.208827 50.387802 0.592306 2.094737 0.029496 0.006771 1241210.000000 0 0 1
-34.971860 -23.543535 -25.272587 49.153155 0.592521 2.110824 0.026588 -0.006776 1296930.000000 0 0 1
-34.880006 -22.975735 -26.591377 49.513640 0.582472 2.137734 0.028783 -0.007883 -283483.000000 0 0 1
-33.729447 -22.000535 -26.822227 48.385235 0.577966 2.158375 0.028538 -0.017037 -750028.000000 0 0 1
-33.723207 -20.690135 -26.207007 47.456755 0.550307 2.155832 0.057076 -0.017313 -467614.000000 0 0 1
-34.749369 -19.775735 -26.479867 47.956039 0.517386 2.155761 0.056478 -0.015660 -151900.000000 0 0 1
-35.879725 -19.857135 -25.415297 48.245184 0.505477 2.125621 0.064957 -0.020893 73106.500000 0 0 1
-35.499907 -19.330035 -24.115337 47.068494 0.498618 2.108710 0.070205 -0.031498 -116136.000000 0 0 1
-34.878734 -20.281935 -23.244637 46.563893 0.526704 2.093470 0.047093 -0.028131 -53251.900000 0 0 1
-35.600047 -21.608135 -22.779637 47.467744 0.545528 2.071334 0.059780 -0.024160 1281280.000000 0 0 1
36.202222 -21.298535 -21.887237 47.363273 -0.531788 2.051174 0.055780 -0.023155 1273510.000000 0 0 1
35.618072 -22.468235 -21.275837 47.181881 -0.562766 2.038606 0.058836 -0.012994 -185711.000000 0 0 1
34.515562 -22.184035 -20.281937 45.769121 -0.571244 2.029890 0.064564 -0.017400 151469.000000 0 0 1
33.297002 -21.653735 -20.827237 44.848059 -0.576601 2.053748 0.064587 -0.014030 630516.000000 0 0 1
32.287822 -21.796935 -19.798337 43.698787 -0.593806 2.040995 0.049546 -0.009840 347071.000000 0 0 1
30.969792 -21.147035 -20.271637 42.629384 -0.599108 2.066365 0.044472 -0.006396 -678744.000000 0 0 1
30.445752 -21.884635 -21.345637 43.145304 -0.623237 2.088330 0.034989 -0.003094 877558.000000 0 0 1
29.190272 -21.403135 -21.893837 42.302556 -0.632681 2.114786 0.040297 -0.003431 930553.000000 0 0 1
29.100822 -20.036135 -22.565437 41.922590 -0.602971 2.139173 0.042383 -0.013342 -548063.000000 0 0 1
29.292072 -18.929035 -21.720637 41.086737 -0.573711 2.127810 0.036153 -0.009267 45411.000000 0 0 1
29.189502 -17.700435 -22.381237 40.819753 -0.545110 2.151120 0.028715 -0.008841 -197661.000000 0 0 1
29.894602 -16.536135 -21.610037 40.424308 -0.505257 2.134807 0.027359 -0.012529 41332.500000 0 0 1
29.277262 -16.032335 -20.394337 39.116785 -0.501002 2.119253 0.000477 -0.006358 1004600.000000 0 0 1
30.296842 -15.435935 -19.554937 39.224512 -0.471211 2.092709 -0.012450 -0.010602 667622.000000 0 0 1
31.297622 -16.348535 -18.785537 39.996402 -0.481373 2.059725 0.021051 -0.018726 -608773.000000 0 0 1
32.215172 -16.788835 -19.711637 41.330751 -0.480422 2.067948 0.030329 -0.025056 -1040660.000000 0 0 1
33.008102 -17.827135 -19.204737 42.144555 -0.495198 2.043940 0.042386 -0.019771 173858.000000 0 0 1
34.187252 -18.237335 -20.141437 43.669739 -0.490051 2.050168 0.062025 -0.029187 347727.000000 0 0 1
35.163142 -17.242835 -20.330137 44.125689 -0.455911 2.049617 0.054696 -0.033800 415339.000000 0 0 1
36.261632 -17.776935 -21.077337 45.554138 -0.455810 2.051821 0.066919 -0.033957 595033.000000 0 0 1
-35.629833 -16.741735 -21.594037 44.900703 0.439262 2.072510 0.063263 -0.026684 6756.360000 0 0 1
-34.815940 -16.160835 -20.599737 43.562271 0.434583 2.063353 0.074665 -0.036619 -52194.900000 0 0 1
-34.109728 -15.100435 -21.233837 42.922867 0.416768 2.088283 0.083344 -0.030919 56893.100000 0 0 1
-32.889877 -14.573135 -20.353937 41.332832 0.417092 2.085687 0.087740 -0.035474 1485520.000000 0 0 1
-31.674597 -15.348235 -20.369237 40.666377 0.451219 2.095419 0.096586 -0.044349 739113.000000 0 0 1
-31.738737 -16.686535 -19.926737 41.022710 0.484032 2.078016 0.096558 -0.048211 -769272.000000 0 0 1
-30.448687 -17.522935 -20.098337 40.473682 0.522203 2.090448 0.084151 -0.056479 3293.230000 0 0 1
-30.555027 -18.808635 -19.509637 40.841160 0.551787 2.068826 0.072295 -0.051745 -299158.000000 0 0 1
-29.531977 -19.686735 -19.886537 40.683898 0.587973 2.081517 0.069869 -0.053958 -371267.000000 0 0 1
-29.641407 -21.079235 -19.192937 41.125612 0.618164 2.056342 0.057945 -0.025921 460509.000000 0 0 1
-30.717477 -21.865835 -19.750537 42.564796 0.618626 2.053314 0.057358 -0.024547 800617.000000 0 0 1
-30.630447 -23.180835 -19.330437 43.002804 0.647833 2.037019 0.042378 -0.006824 455264.000000 0 0 1
-31.712937 -23.996635 -20.128437 44.572445 0.647764 2.039342 0.030798 -0.010186 356337.000000 0 0 1
-31.449367 -24.109035 -21.498537 45.083205 0.654040 2.067879 0.022313 -0.009036 358856.000000 0 0 1
-32.464447 -24.886235 -22.108137 46.497685 0.654021 2.066292 0.020903 -0.005319 2256.710000 0 0 1
-32.291407 -25.052435 -23.630137 47.209563 0.659824 2.095015 0.015706 -0.001373 -321487.000000 0 0 1
-31.162507 -25.775625 -24.052537 47.053259 0.691070 2.107350 0.024699 -0.002574 -238224.000000 0 0 1
-31.069537 -25.770615 -25.436047 47.711982 0.692442 2.133076 0.022798 0.005901 -400773.000000 0 0 1
-29.741177 -26.195855 -26.041197 47.422615 0.722102 2.152120 0.028338 -0.001206 -223072.000000 0 0 1
-28.649387 -25.303725 -25.926147 46.186913 0.723467 2.166790 0.036207 -0.006776 -285307.000000 0 0 1
-27.447577 -25.919415 -26.315717 46.018502 0.756771 2.179557 0.038260 -0.011851 -499454.000000 0 0 1
-26.331417 -24.899335 -26.496687 44.893149 0.757452 2.202124 0.051222 -0.019759 -480880.000000 0 0 1
-26.429107 -24.234835 -27.722397 45.325007 0.742115 2.228923 0.060313 -0.024559 -23517.600000 0 0 1
-25.626417 -23.080335 -27.606097 44.175918 0.733172 2.245816 0.074692 -0.021188 36379.300000 0 0 1
-25.557497 -22.198135 -28.889297 44.503195 0.715169 2.277264 0.069575 -0.030696 -18975.600000 0 0 1
-24.896637 -22.843335 -29.976147 45.168904 0.742415 2.296478 0.072691 -0.016201 211844.000000 0 0 1
-24.982937 -22.174435 -31.222837 45.724373 0.725912 2.322451 0.063380 -0.013840 -46389.200000 0 0 1
-24.428637 -23.049135 -32.390347 46.659999 0.756351 2.338074 0.058471 -0.029932 128162.000000 0 0 1
-25.373487 -24.025535 -32.692537 47.852295 0.758118 2.322928 0.029152 -0.023442 -16378.500000 0 0 1
-24.682337 -25.144475 -33.240507 48.439588 0.794673 2.327084 0.050519 -0.000643 498826.000000 0 0 1
-19.837137 -15.101735 -12.073537 27.700987 0.650685 2.021781 0.069606 0.003270 288819.000000 0 0 1
-20.286837 -14.472435 -10.863937 27.185148 0.619656 1.981907 0.075787 -0.007832 157342.000000 0 0 1
-19.348137 -14.769035 -9.862537 26.262986 0.651979 1.955765 0.053856 -0.010779 -77724.900000 0 0 1
-19.591937 -14.080435 -8.482937 25.574653 0.623157 1.908894 0.070040 -0.018168 -123004.000000 0 0 1
-20.712537 -14.530935 -7.745837 26.460447 0.611767 1.867880 0.093019 -0.019082 370714.000000 0 0 1
-20.962637 -13.904035 -6.529737 25.988301 0.585652 1.824775 0.079377 -0.030603 101086.000000 0 0 1
-22.149837 -14.603735 -5.802637 27.157963 0.582896 1.786119 0.093763 -0.026315 -93287.100000 0 0 1
-21.859837 -15.832135 -5.219637 27.490973 0.626821 1.761823 0.071938 -0.025975 404515.000000 0 0 1
-21.794237 -15.797335 -3.786337 27.182364 0.627203 1.710545 0.081107 -0.031406 -313572.000000 0 0 1
-21.607337 -17.238935 -3.179837 27.823897 0.673415 1.685331 0.066486 -0.019130 -132243.000000 0 0 1
-22.683737 -18.160435 -3.233337 29.237096 0.675102 1.681613 0.070717 -0.018457 94109.400000 0 0 1
-22.458437 -19.235635 -2.309437 29.660151 0.708255 1.648739 0.063997 -0.008023 466389.000000 0 0 1
-23.662137 -20.201835 -1.990937 31.176509 0.706674 1.634700 0.059875 -0.020914 414206.000000 0 0 1
-24.012537 -21.073035 -3.077737 32.095906 0.720292 1.666836 0.038961 -0.019284 -299664.000000 0 0 1
-25.043337 -21.936635 -2.741737 33.405116 0.719366 1.652964 0.055945 -0.012557 -382289.000000 0 0 1
-25.009937 -23.067135 -3.821337 34.237294 0.745010 1.682643 0.055332 -0.012639 355831.000000 0 0 1
-23.848437 -23.907135 -3.774137 33.978569 0.786627 1.682100 0.050509 -0.012720 103037.000000 0 0 1
-23.666637 -24.651835 -4.972237 34.533256 0.805785 1.715283 0.038010 -0.010894 345173.000000 0 0 1
-22.243037 -24.597335 -5.611637 33.634388 0.835618 1.738422 0.035267 -0.004994 582923.000000 0 0 1
-21.858437 -23.357235 -6.207837 32.586637 0.818534 1.762470 0.024581 0.002430 87724.100000 0 0 1
-21.588737 -22.246735 -5.312937 31.451837 0.800408 1.740533 0.026759 -0.000619 -458766.000000 0 0 1
-21.570037 -20.836335 -5.833937 30.552482 0.768098 1.762924 0.040703 0.006867 160529.000000 0 0 1
-20.411837 -20.481435 -6.573937 29.653818 0.787100 1.794343 0.019206 0.008970 189430.000000 0 0 1
-20.521637 -19.237135 -7.225237 29.041505 0.753102 1.822227 0.018128 0.008961 119356.000000 0 0 1
-19.157437 -19.000335 -7.888737 28.111426 0.781281 1.855240 0.035849 0.001883 -184174.000000 0 0 1
-18.991237 -19.676835 -9.151637 28.837430 0.803127 1.893733 0.026362 0.008784 1013410.000000 0 0 1
-17.689837 -19.631735 -9.814337 28.189653 0.837383 1.926397 0.051477 0.007401 1367890.000000 0 0 1
-17.276437 -18.246135 -10.482337 27.226386 0.812689 1.966011 0.049015 0.006744 -53869.500000 0 0 1
-17.091837 -17.253935 -9.482437 26.071935 0.790118 1.943036 0.071851 -0.008760 -194332.000000 0 0 1
-15.745137 -17.108235 -9.083337 24.962132 0.826865 1.943231 0.073579 -0.014335 -109396.000000 0 1 0
-15.472937 -15.794935 -8.287137 23.612886 0.795696 1.929391 0.066737 -0.020460 -68487.100000 0 1 0
-15.834037 -15.989035 -6.939937 23.548433 0.790269 1.869947 0.035482 -0.026123 211294.000000 0 1 0
-16.194837 -14.844835 -6.230737 22.835585 0.741933 1.847153 0.052307 -0.030407 -446687.000000 0 1 0
-16.786037 -15.213235 -4.872937 23.172377 0.736286 1.782669 0.048625 -0.030009 -440812.000000 0 1 0
-17.341937 -14.068535 -4.322137 22.745270 0.681559 1.761982 0.056465 -0.026690 97079.600000 0 1 0
-17.784337 -14.333335 -3.031637 23.041657 0.678360 1.702751 0.046403 -0.025024 -399269.000000 0 1 0
-18.581437 -13.171835 -2.436437 22.906402 0.616655 1.677363 0.043757 -0.017957 -526976.000000 0 1 0
-19.889437 -13.063535 -2.939837 23.976828 0.581146 1.693717 0.065103 -0.027741 201678.000000 0 1 0
-20.557337 -12.049435 -2.188437 23.928691 0.530164 1.662381 0.063849 -0.017292 -790782.000000 0 1 0
-22.064737 -12.267435 -2.288837 25.349188 0.507419 1.661212 0.072671 -0.018777 -733215.000000 0 0 1
-22.632937 -11.634635 -3.419537 25.676990 0.474830 1.704368 0.091746 -0.028301 635032.000000 0 0 1
-23.998837 -12.010635 -3.583037 27.074669 0.464021 1.703525 0.086955 -0.023772 -106842.000000 0 0 1
-24.625337 -11.306835 -4.782337 27.515859 0.430441 1.745486 0.099003 -0.028678 -384656.000000 0 0 1
-24.085037 -11.687235 -6.019437 27.439280 0.451777 1.791968 0.109286 -0.032448 372692.000000 0 0 1
-24.649337 -10.959735 -7.129437 27.902231 0.418376 1.829177 0.112773 -0.030247 -160476.000000 0 0 1
-24.076137 -11.289335 -8.495037 27.915499 0.438461 1.880013 0.125241 -0.027617 -726748.000000 0 0 1
-22.719637 -10.980135 -8.561837 26.646769 0.450189 1.897907 0.121893 -0.033013 -67790.900000 0 0 1
-22.104237 -11.522935 -9.771537 26.774209 0.480542 1.944387 0.102037 -0.021655 596303.000000 0 0 1
-20.694737 -10.857135 -9.910137 25.384254 0.483159 1.971868 0.103761 -0.027159 381806.000000 0 0 1
-20.841237 -9.524935 -10.454437 25.186838 0.428679 1.998822 0.103500 -0.027561 770825.000000 0 0 1
-19.648137 -8.803835 -10.156237 23.805587 0.421252 2.011562 0.102073 -0.024469 297088.000000 0 1 0
-19.558137 -7.346335 -10.662537 23.455896 0.359310 2.042695 0.093817 -0.029596 -112001.000000 0 1 0
-19.345637 -7.251435 -12.084637 23.934816 0.358627 2.100060 0.120273 -0.029442 288672.000000 0 1 0
-19.483837 -5.938835 -12.569237 23.934815 0.295862 2.123681 0.117522 -0.038397 -221871.000000 0 1 0
-18.984537 -5.644135 -14.032737 24.273167 0.288979 2.187216 0.146896 -0.033048 -398911.000000 0 1 0
-19.646037 -6.368235 -15.010037 25.530813 0.313462 2.199280 0.127948 -0.040526 -3124.800000 0 0 1
-18.926837 -6.382935 -16.211337 25.724978 0.325265 2.252580 0.106457 -0.041903 -569499.000000 0 0 1
-19.462537 -7.323035 -17.268337 27.029848 0.359878 2.263814 0.086815 -0.036432 -864377.000000 0 0 1
-20.724237 -7.031335 -17.766337 28.188232 0.327094 2.252704 0.091675 -0.042626 -389665.000000 0 0 1
-20.996537 -7.924435 -18.826437 29.293105 0.360887 2.268803 0.094244 -0.043191 903472.000000 0 0 1
-22.472137 -7.762735 -19.408137 30.690924 0.332605 2.255410 0.092790 -0.036852 528084.000000 0 0 1
-22.549937 -6.575835 -20.230237 31.000061 0.283744 2.281790 0.086066 -0.030543 744052.000000 0 0 1
-23.843337 -6.413335 -20.833437 32.305846 0.262759 2.271664 0.078868 -0.028590 1149420.000000 0 0 1
-24.952337 -5.962435 -19.819537 32.418880 0.234555 2.228572 0.110682 -0.027354 -311406.000000 0 0 1
-24.870037 -4.650335 -19.323137 31.835954 0.184851 2.223026 0.089233 -0.021865 104450.000000 0 0 1
-26.026467 -4.482335 -18.531037 32.262481 0.170549 2.182647 0.102578 -0.015913 -57425.700000 0 0 1
-26.189417 -3.087835 -17.875837 31.858529 0.117362 2.166511 0.090839 -0.014245 115299.000000 0 0 1
-26.495967 -1.978235 -18.795637 32.545747 0.074523 2.186477 0.100483 -0.010656 984015.000000 0 0 1
-27.848487 -1.948035 -19.296037 33.936266 0.069837 2.175595 0.125594 -0.006734 770999.000000 0 0 1
-28.077867 -0.705035 -20.140837 34.561786 0.025105 2.192903 0.119692 -0.001633 -297352.000000 0 0 1
-27.511037 -0.572235 -21.419937 34.871168 0.020797 2.232243 0.107147 -0.004463 46046.000000 0 0 1
-28.070517 -1.393935 -22.451537 35.971774 0.049618 2.244831 0.107279 -0.003338 -263083.000000 0 0 1
-27.181327 -1.420335 -23.701537 36.091616 0.052207 2.287237 0.108013 -0.003954 -328996.000000 0 0 1
-27.078327 -0.239735 -24.515437 36.528071 0.008853 2.306541 0.106388 -0.001655 403589.000000 0 0 1
-26.416877 0.972865 -24.038337 35.730093 -0.036811 2.308750 0.072976 -0.000284 685309.000000 0 0 1
-24.876737 0.902065 -23.788737 34.432104 -0.036246 2.333513 0.070979 0.000222 371107.000000 0 0 1
-24.157737 0.807065 -24.991237 34.767939 -0.033396 2.372873 0.056478 0.000848 -93526.500000 0 0 1
-22.808837 0.415565 -24.830637 33.719079 -0.018217 2.398526 0.052751 0.002335 218355.000000 0 0 1
-22.208537 -0.127935 -26.139997 34.300655 0.005761 2.437323 0.043161 0.001125 -80656.600000 0 0 1
-22.308637 0.782665 -27.220567 35.202942 -0.035069 2.454742 0.027580 0.004373 586371.000000 0 0 1
-21.576537 0.255165 -28.355537 35.632128 -0.011826 2.491100 0.011646 0.002231 249782.000000 0 0 1
-21.413837 1.268065 -29.500427 36.475137 -0.059148 2.512874 0.016162 0.008055 -606001.000000 0 0 1
-20.550537 2.329465 -29.208327 35.789347 -0.112871 2.525457 0.024019 0.006137 128651.000000 0 0 1
-20.377737 3.330465 -30.254607 36.629024 -0.162004 2.542723 0.019826 -0.002408 -293570.000000 0 0 1
-19.817037 2.821465 -31.599647 37.406060 -0.141425 2.576938 0.023638 -0.008635 262541.000000 0 0 1
-18.393037 2.718865 -31.614537 36.676628 -0.146758 2.609960 0.019011 -0.010965 503531.000000 0 0 1
-17.863737 1.929765 -32.660167 37.276314 -0.107610 2.638642 0.016481 -0.005482 -157996.000000 0 0 1
-16.330137 1.866165 -32.660787 36.563410 -0.113784 2.675351 0.020288 -0.015119 -396228.000000 0 0 1
-15.727837 3.110265 -32.941907 36.636155 -0.195236 2.688651 0.024371 -0.011039 34050.800000 0 0 1
-14.335237 2.789665 -32.966737 36.056719 -0.192200 2.724578 0.020976 -0.011204 584295.000000 0 0 1
-13.396037 4.020165 -33.247687 36.069714 -0.291550 2.743396 0.035455 -0.001165 -53992.000000 0 0 1
-13.422137 4.919165 -32.171847 35.204825 -0.351295 2.723457 0.043689 -0.013096 -59077.200000 0 0 1
-12.938937 6.105465 -32.609907 35.610376 -0.440889 2.728147 0.062623 -0.005092 -386128.000000 0 0 1
-12.584837 7.118965 -31.514157 34.672754 -0.514800 2.711441 0.065866 -0.012540 -582816.000000 0 0 1
-11.446537 6.956665 -30.741417 33.532867 -0.546101 2.730675 0.079869 -0.020899 -458254.000000 0 0 1
-11.654837 6.067465 -29.707487 32.483598 -0.479989 2.725161 0.082664 -0.024982 319302.000000 0 0 1
-10.363837 5.308665 -29.202187 31.438174 -0.473383 2.762165 0.093489 -0.025631 422445.000000 0 0 1
-9.771137 4.473665 -30.175027 32.031564 -0.429359 2.799457 0.076823 -0.028848 469461.000000 0 0 1
-10.510137 3.255565 -30.361247 32.293452 -0.300382 2.793917 0.076869 -0.025779 60650.000000 0 0 1
-9.904237 2.270965 -31.443027 33.044140 -0.225396 2.829022 0.067805 -0.020947 -471571.000000 0 0 1
-10.805537 1.317565 -31.885177 33.692138 -0.121335 2.812601 0.064672 -0.021357 -111861.000000 0 0 1
-10.317537 0.497065 -32.939247 34.520902 -0.048140 2.837713 0.051664 -0.017776 -625156.000000 0 0 1
-10.782637 0.956365 33.975451 35.658255 -0.088463 0.308443 0.050840 -0.013362 198925.000000 0 0 1
-12.180637 1.000465 33.747907 35.892758 -0.081952 0.347454 0.013180 -0.009315 -38991.600000 0 0 1
-12.346737 0.971565 32.343604 34.633720 -0.078528 0.365693 0.013312 -0.000044 -313748.000000 0 0 1
-13.777937 1.002165 31.798156 34.669274 -0.072609 0.409838 0.016600 0.006597 -592787.000000 0 0 1
-14.465837 2.186765 31.907136 35.101392 -0.150032 0.429920 0.018703 0.007454 300285.000000 0 0 1
-15.799437 1.817565 31.518296 35.303381 -0.114536 0.467308 0.014818 0.008995 730156.000000 0 0 1
-16.906337 2.888765 31.347616 35.732929 -0.169234 0.500641 0.033032 0.008790 149517.000000 0 0 1
-17.285337 3.483365 32.536017 37.006879 -0.198858 0.496640 0.032567 -0.004173 -3804.430000 0 0 1
-16.629737 4.703965 32.688550 36.975894 -0.275663 0.486338 0.027686 0.005084 -656880.000000 0 0 1
-17.238537 5.621165 33.718596 38.284571 -0.315210 0.493383 0.017993 -0.003806 48158.800000 0 0 1
-18.566037 6.045065 33.486707 38.763386 -0.314773 0.527884 0.014391 -0.005551 -358788.000000 0 0 1
-19.467037 5.455165 -33.928937 39.495533 -0.273218 2.604222 0.014631 -0.008880 172606.000000 0 0 1
-20.913837 6.035365 -33.953497 40.331801 -0.280949 2.571506 0.016387 -0.006472 246741.000000 0 0 1
-21.070737 7.418165 -33.602367 40.350021 -0.338509 2.554892 0.018819 -0.008849 10861.300000 0 0 1
-20.482037 8.397065 33.852260 40.447497 -0.389073 0.579122 0.000064 -0.009542 -328560.000000 0 0 1
-20.621937 9.820965 -33.891337 40.869774 -0.444459 2.548564 0.004749 0.000322 -880779.000000 0 0 1
-19.871837 9.904565 -32.684067 39.512512 -0.462385 2.544872 0.008595 -0.004657 316915.000000 0 0 1
-19.420937 11.218565 -32.336197 39.353001 -0.523826 2.535177 0.014527 -0.005691 409562.000000 0 0 1
-18.543637 11.988765 -33.392097 40.032851 -0.573922 2.557327 -0.000549 -0.022869 -549291.000000 0 0 1
-19.249137 12.375565 33.756611 40.782259 -0.571379 0.595750 0.013424 -0.020119 151736.000000 0 0 1
-18.375537 12.749565 32.688743 39.607647 -0.606575 0.600038 0.018413 -0.018109 3676.310000 0 0 1
-18.938737 12.362565 31.307326 38.621981 -0.578317 0.625605 0.040912 -0.019300 -181299.000000 0 0 1
-19.102837 11.010765 31.065696 38.095049 -0.522881 0.617241 0.030177 -0.004559 783666.000000 0 0 1
-17.864137 10.297165 30.839656 37.097754 -0.522897 0.589340 0.043605 -0.006818 868397.000000 0 0 1
-17.980137 8.773065 30.867676 36.784037 -0.453946 0.575060 0.049772 -0.001938 -21215.300000 0 0 1
-18.602737 8.198065 29.743136 36.026715 -0.415086 0.599557 0.058673 -0.016334 -22490.000000 0 0 1
-18.923837 6.848965 30.030446 36.150347 -0.347257 0.590415 0.044459 -0.018689 -38502.100000 0 0 1
-19.518137 6.117265 28.801116 35.325386 -0.303718 0.617533 0.045159 -0.014802 1251470.000000 0 0 1
-20.958637 6.167265 28.667046 36.043018 -0.286181 0.651201 0.066116 -0.027258 887408.000000 0 0 1
-21.399537 5.187565 27.720066 35.401314 -0.237827 0.671284 0.054483 -0.025907 -73620.800000 0 0 1
-22.934837 5.100565 27.665016 36.295669 -0.218832 0.704072 0.050609 -0.020113 -66027.600000 0 0 1
-23.561337 5.952765 26.735786 36.129963 -0.247471 0.737742 0.054685 -0.021032 688615.000000 0 0 1
-24.986337 5.896965 26.818976 37.126119 -0.231767 0.763566 0.061156 -0.024103 181477.000000 0 0 1
-25.705937 6.720465 25.754256 37.003264 -0.255713 0.800985 0.065429 -0.021689 -298018.000000 0 0 1
-25.509457 6.234565 24.421086 35.860725 -0.239703 0.821672 0.051122 -0.015427 167765.000000 0 0 1
-26.366267 5.176365 24.105706 36.097920 -0.193860 0.839565 0.041077 -0.003586 -436599.000000 0 0 1
-26.115117 4.645065 22.666866 34.890726 -0.176028 0.863668 0.048787 -0.002732 -354091.000000 0 0 1
-26.734577 5.349465 21.614466 34.792808 -0.197487 0.900480 0.058667 -0.003988 -69650.900000 0 0 1
-26.395587 4.797665 20.359066 33.678423 -0.179797 0.921641 0.045283 -0.002275 103893.000000 0 0 1
-27.255687 5.312565 19.170466 33.743186 -0.192502 0.966566 0.106044 -0.016259 80452.700000 0 0 1
-28.637397 5.054365 19.243766 34.870756 -0.174696 0.986204 0.119728 -0.015271 -199778.000000 0 0 1
-29.303407 5.436865 18.069866 34.853539 -0.183451 1.025757 0.125782 -0.017719 -275491.000000 0 0 1
-30.829877 5.363465 18.249066 36.225357 -0.172246 1.042845 0.124573 -0.018447 -360276.000000 0 0 1
-31.234567 6.447465 19.053266 37.150975 -0.203562 1.032283 0.136123 -0.007475 -606403.000000 0 0 1
-32.575917 6.263065 19.391466 38.424540 -0.189943 1.041804 0.140396 -0.010213 -447480.000000 0 0 1
-33.127157 7.392465 20.273166 39.535532 -0.219557 1.032373 0.155184 -0.004697 -126700.000000 0 0 1
-32.648817 7.396165 21.592166 39.835539 -0.222777 0.997942 0.116423 -0.007030 391827.000000 0 0 1
-33.559647 8.040065 22.497666 41.195115 -0.235143 0.993065 0.127550 -0.011578 353982.000000 0 0 1
-0.474637 32.578265 11.452363 34.535855 -1.556228 1.232789 0.042239 -0.017456 -567839.000000 0 0 1
-0.828337 32.825265 12.784163 35.236615 -1.545567 1.199516 0.029613 -0.013253 -157970.000000 0 0 1
-0.338237 34.039965 13.194963 36.509460 -1.560860 1.201014 0.021079 -0.018008 -461432.000000 0 0 1
-0.322037 -34.103239 14.735663 37.152044 1.561354 1.162952 0.014778 -0.011337 154192.000000 0 0 1
-1.573537 -34.099539 15.378963 37.440180 1.524684 1.147508 0.015646 0.003600 -271268.000000 0 0 1
-1.280537 -34.068739 16.798163 38.006539 1.533227 1.112991 0.010095 -0.010612 -113161.000000 0 0 1
-2.395637 -33.688939 17.769163 38.163161 1.499805 1.086472 0.016140 -0.002499 -643926.000000 0 0 1
-3.204737 33.534365 18.181063 38.280217 -1.475520 1.075893 0.016564 0.001291 -188943.000000 0 0 1
-3.981837 33.907465 19.299563 39.217909 -1.453899 1.056283 0.019052 -0.000534 -658122.000000 0 0 1
-5.085437 32.944765 19.654763 38.697919 -1.417643 1.038048 0.014434 -0.002099 60829.300000 0 0 1
-6.194237 33.078765 18.741963 38.520572 -1.385683 1.062666 0.020163 -0.007052 -242625.000000 0 0 1
-7.214437 32.224565 19.094463 38.145370 -1.350548 1.046538 0.026899 -0.020727 -739273.000000 0 0 1
-8.278137 32.119265 17.984963 37.731070 -1.318555 1.073943 0.014301 -0.026162 -559572.000000 0 0 1
-9.112737 33.229065 17.885763 38.821557 -1.303137 1.091993 0.041895 -0.029757 -497627.000000 0 0 1
-9.729437 33.154365 16.613563 38.339071 -1.285351 1.122609 0.051620 -0.025791 -85138.300000 0 0 1
-10.862737 -34.130239 16.368463 39.380184 1.262661 1.142136 0.093719 -0.035234 -196562.000000 0 0 1
-12.045537 33.891965 17.103163 39.828111 -1.229310 1.126941 0.079716 -0.038823 -189354.000000 0 0 1
-12.883537 -33.302039 16.804663 39.464009 1.201661 1.130926 0.061160 -0.039801 -327201.000000 0 0 1
-14.298837 -33.425739 17.386163 40.299075 1.166574 1.124721 0.079072 -0.036543 -99401.400000 0 0 1
-14.362537 -33.106639 18.791263 40.687143 1.161473 1.090719 0.069985 -0.028862 -344599.000000 0 0 1
-15.568337 -33.529339 19.344463 41.722871 1.136098 1.088695 0.061747 -0.037003 -254222.000000 0 0 1
-15.447037 -33.058539 20.822463 42.012533 1.133679 1.052242 0.051571 -0.043916 -31931.900000 0 0 1
-15.382737 -31.634239 21.081063 41.009327 1.118194 1.030890 0.063460 -0.039498 157090.000000 0 0 1
-15.060037 -31.381939 22.435163 41.412164 1.123362 0.998275 0.043914 -0.029759 71443.000000 0 0 1
-15.027037 -29.850739 22.736863 40.420829 1.104428 0.973386 0.065321 -0.037423 -150262.000000 0 0 1
-15.048037 -29.514439 24.173763 41.011173 1.099297 0.940427 0.063943 -0.039111 -40582.500000 0 0 1
-14.854237 -28.179939 24.537963 40.210309 1.085688 0.914432 0.065073 -0.019329 698681.000000 0 0 1
-16.083737 -27.231839 24.229163 39.841084 1.037301 0.917074 0.073833 -0.022984 1267070.000000 0 0 1
-17.311537 -27.434039 24.926363 40.910138 1.007877 0.915625 0.089607 -0.020022 231719.000000 0 0 1
-18.296537 -26.611439 24.408163 40.480741 0.968479 0.923593 0.090006 -0.018085 -640765.000000 0 0 1
-19.471237 -26.216539 25.365863 41.350490 0.931978 0.910393 0.093666 -0.014205 318185.000000 0 0 1
-20.369837 -27.215639 25.757463 42.650535 0.928281 0.922388 0.101922 -0.012586 280283.000000 0 0 1
-21.213637 -27.786839 24.763163 42.840881 0.918748 0.954488 0.083228 -0.010714 -368108.000000 0 0 1
-22.601137 -27.164239 24.516463 43.008886 0.876835 0.964251 0.055314 0.000325 -282141.000000 0 0 1
-22.617837 -25.874739 23.958363 41.893577 0.852460 0.961993 0.069579 -0.006104 860896.000000 0 0 1
-23.867437 -25.612539 23.287663 42.047259 0.820652 0.983821 0.051374 -0.004430 569240.000000 0 0 1
-24.264237 -24.141739 23.136163 41.314148 0.782868 0.976404 0.056537 0.000890 28806.500000 0 0 1
-24.937137 -23.653539 24.299463 42.092928 0.758988 0.955401 0.053265 0.000684 281089.000000 0 0 1
-25.627677 -22.432639 24.026563 41.680653 0.719016 0.956426 0.034565 0.005172 251257.000000 0 0 1
-26.147587 -21.820839 25.334663 42.446325 0.695442 0.931210 0.040980 0.002378 40246.000000 0 0 1
-27.288767 -22.464739 25.869263 43.801371 0.688742 0.938989 0.029517 0.004368 199169.000000 0 0 1
-27.720667 -21.639539 26.938763 44.299007 0.662817 0.917116 0.021683 -0.004368 -1306950.000000 0 0 1
-28.863187 -22.151139 27.808863 45.793989 0.654578 0.918189 0.014875 0.000090 -510008.000000 0 0 1
-30.204007 -21.997839 27.456663 46.368689 0.629473 0.937087 0.016301 -0.001829 -113520.000000 0 0 1
-30.585517 -22.420239 26.156463 46.068444 0.632554 0.966997 0.020274 0.000549 -1189450.000000 0 0 1
-32.018787 -22.995639 26.167763 47.315473 0.622831 0.984777 -0.000037 -0.004031 -25601.300000 0 0 1
-32.579597 -23.410839 24.912463 47.224235 0.623083 1.015099 -0.003607 -0.003340 182504.000000 0 0 1
-31.958907 -24.563939 24.383063 47.109369 0.655306 1.026771 -0.009871 -0.002069 -380771.000000 0 0 1
-32.491297 -25.034839 23.004563 47.028050 0.656498 1.059662 -0.003678 -0.003776 1468340.000000 0 0 1
-33.882887 -25.448439 23.144163 48.283800 0.644186 1.070898 0.007846 -0.005865 1322040.000000 0 0 1
-34.452042 -25.948839 21.955963 48.397828 0.645538 1.099933 0.021130 -0.002132 -536838.000000 0 0 1
-35.614543 -26.894339 22.130963 49.814463 0.646789 1.110439 0.032636 -0.011853 -1134480.000000 0 0 1
-35.477237 -28.135639 22.953063 50.765063 0.670496 1.101630 0.019885 -0.009029 408808.000000 0 0 1
-34.273879 -28.868039 22.698063 50.232107 0.699992 1.101943 0.004457 -0.001878 -141366.000000 0 0 1
-34.371340 -29.874839 21.481063 50.352071 0.715523 1.130047 0.012983 0.001080 -283258.000000 0 0 1
-34.781834 -29.292539 20.252963 49.779628 0.699936 1.151791 0.019167 0.004407 603968.000000 0 0 1
-35.100239 -30.369539 19.365663 50.292789 0.713266 1.175525 0.022558 0.005793 -747292.000000 0 0 1
-35.619078 -29.991039 18.008663 49.924874 0.699828 1.201762 0.030600 0.006315 -647492.000000 0 0 1
-34.723172 -29.431239 17.060563 48.610280 0.703097 1.212194 0.064609 -0.003331 171965.000000 0 0 1
-35.326276 -29.089739 15.817463 48.418497 0.688882 1.238005 0.079469 0.002808 17005.400000 0 0 1
-35.659118 -30.297739 14.861063 49.095589 0.704290 1.263276 0.057482 0.000221 583206.000000 0 0 1
-34.520802 -30.944039 14.265263 48.504815 0.730816 1.272283 0.045668 -0.005300 435898.000000 0 0 1
-34.918391 -31.821739 13.231563 49.061098 0.739033 1.297719 0.044507 -0.006742 101556.000000 0 0 1
-34.989307 -31.122739 11.870863 48.309356 0.726980 1.322528 0.050829 -0.014272 279932.000000 0 0 1
-35.990659 -30.109339 11.913563 48.413147 0.696656 1.322161 0.045151 -0.013081 220617.000000 0 0 1
-35.927088 -29.318739 10.734063 47.597944 0.684459 1.343324 0.046153 -0.008509 361701.000000 0 0 1
35.609832 -28.644339 10.533763 46.899024 -0.677415 1.344259 0.064843 -0.004407 364143.000000 0 0 1
35.434692 -27.712039 9.491963 45.974688 -0.663706 1.362840 0.090277 -0.038612 -51997.800000 0 0 1
34.214062 -27.013539 9.513663 44.618865 -0.668333 1.355926 0.077388 -0.032678 -61143.000000 0 0 1
34.182512 -26.059139 8.286463 43.774289 -0.651360 1.380347 0.071670 -0.029102 231850.000000 0 0 1
35.055362 -24.968539 8.501363 43.870030 -0.618907 1.375777 0.086374 -0.039776 122884.000000 0 0 1
34.983212 -24.135939 7.396363 43.140177 -0.603935 1.398496 0.072352 -0.037853 250818.000000 0 0 1
35.619792 -22.736239 7.628763 42.940706 -0.568109 1.392190 0.085189 -0.046594 -120422.000000 0 0 1
34.755582 -21.958339 8.385363 41.957520 -0.563469 1.369588 0.072849 -0.043482 -392625.000000 0 0 1
35.032292 -20.576039 8.139563 41.435340 -0.531062 1.373070 0.087131 -0.040503 -167192.000000 0 0 1
34.271172 -19.551739 8.983163 40.465800 -0.518447 1.346937 0.095679 -0.033726 -219223.000000 0 0 1
34.813832 -19.540939 10.281363 41.225692 -0.511476 1.318744 0.084182 -0.044024 54636.600000 0 0 1
34.158672 -18.640439 11.166463 40.484204 -0.499537 1.291351 0.081301 -0.030359 88858.800000 0 0 1
34.783962 -18.673339 12.580963 41.435471 -0.492682 1.262298 0.076339 -0.037079 158086.000000 0 0 1
35.986042 -17.951939 12.783263 42.198094 -0.462734 1.263026 0.036231 -0.022983 430051.000000 0 0 1
-36.461617 -18.186439 14.125863 43.124658 0.462674 1.237078 0.043645 -0.015637 775089.000000 0 0 1
-35.197822 -17.371939 14.661863 41.900372 0.458476 1.213308 0.060007 -0.022196 620230.000000 0 0 1
-34.053280 -17.681439 13.917763 40.816214 0.478912 1.222831 0.051853 -0.022842 -935616.000000 0 0 1
-32.934037 -17.140239 14.510463 39.862164 0.479867 1.198220 0.043849 -0.019079 -387038.000000 0 0 1
-31.616737 -17.214739 13.692563 38.515602 0.498597 1.207340 0.064152 -0.020983 393962.000000 0 0 1
-31.093107 -18.521739 13.522863 38.635527 0.537242 1.213213 0.059225 -0.022867 -394742.000000 0 0 1
-29.882667 -18.528339 12.837163 37.430815 0.555022 1.220733 0.021213 -0.011497 -564259.000000 0 0 1
-29.294967 -19.944839 12.560963 37.600126 0.597743 1.230181 0.020914 -0.015590 -541937.000000 0 0 1
-29.939277 -20.838139 11.695363 38.306264 0.608045 1.260530 0.040744 -0.017544 -450892.000000 0 0 1
-29.120187 -21.364739 10.672363 37.660811 0.632971 1.283478 0.035087 -0.012932 -92604.100000 0 0 1
-29.984237 -22.118239 9.623363 38.482205 0.635558 1.318041 0.046028 -0.015823 476776.000000 0 0 1
-30.539607 -23.379839 9.976863 39.734397 0.653384 1.316991 0.049191 -0.025075 -35635.800000 0 0 1
-31.858287 -23.267339 10.466863 40.815129 0.630799 1.311453 0.070159 -0.026746 109456.000000 0 0 1
-32.706617 -24.581739 10.604663 42.266341 0.644513 1.317186 0.084450 -0.033113 412061.000000 0 0 1
-33.056547 -25.193939 9.391363 42.610651 0.651230 1.348572 0.073503 -0.025312 -128731.000000 0 0 1
-33.933347 -26.306839 9.478163 43.969960 0.659466 1.353531 0.081532 -0.024486 273281.000000 0 0 1
-34.088355 -27.152039 8.170663 44.339699 0.672615 1.385463 0.062573 -0.022608 -441653.000000 0 0 1
-32.883467 -27.703739 7.748163 43.690429 0.700113 1.392511 0.047073 -0.022862 -705833.000000 0 0 1
-32.930897 -28.531839 6.627763 44.073088 0.713947 1.419843 0.042696 -0.017712 -828254.000000 0 0 1
-31.599607 -28.637839 5.918163 43.054450 0.736270 1.432902 0.045695 -0.012651 -414403.000000 0 0 1
-31.172727 -27.575639 5.075863 41.927547 0.724246 1.449436 0.054398 -0.011492 -309840.000000 0 0 1
-29.843697 -27.760239 4.652063 41.023394 0.749245 1.457152 0.051328 -0.014888 129538.000000 0 0 1
-29.176827 -26.516939 3.976663 39.626369 0.737675 1.470273 0.049954 -0.008012 344546.000000 0 0 1
-29.685737 -26.173939 2.700863 39.668788 0.722613 1.502658 0.055392 -0.005054 -351162.000000 0 0 1
-28.953877 -25.042039 2.283663 38.349001 0.713078 1.511212 0.056089 -0.016181 -121423.000000 0 0 1
-29.146887 -24.414539 0.809663 38.029808 0.697273 1.549505 0.063968 -0.015735 -313915.000000 0 0 1
-28.593807 -25.115839 -0.289637 38.059100 0.720733 1.578407 0.064627 -0.013773 -124393.000000 0 0 1
-28.860787 -24.645839 -1.654137 37.988138 0.706786 1.614354 0.066975 -0.016544 416309.000000 0 0 1
-30.351297 -24.582539 -2.098237 39.114001 0.680769 1.624466 0.085199 -0.016658 484359.000000 0 0 1
-31.158317 -23.534439 -1.560537 39.078713 0.646896 1.610740 0.072414 -0.009952 -204970.000000 0 0 1
-32.428157 -23.648539 -2.166937 40.193711 0.630094 1.624735 0.086789 -0.015321 222876.000000 0 0 1
-33.246317 -22.299239 -2.134437 40.089020 0.590809 1.624064 0.081511 -0.015471 268271.000000 0 0 1
-33.501647 -21.850439 -0.817137 40.005872 0.577934 1.591223 0.090725 -0.020856 157609.000000 0 0 1
-34.325015 -20.708139 -0.753837 40.094912 0.542839 1.589599 0.085728 -0.018798 -112412.000000 0 0 1
-34.486962 -20.148839 0.687663 39.947455 0.528754 1.553581 0.084592 -0.023535 -148557.000000 0 0 1
-35.298305 -20.962239 1.508363 41.081151 0.535892 1.534071 0.079807 -0.025719 196264.000000 0 0 1
-35.316692 -20.520239 2.821863 40.942788 0.526358 1.501820 0.081466 -0.028438 -512975.000000 0 0 1
-36.254967 -21.428139 3.650663 42.271919 0.533805 1.484327 0.087974 -0.018270 1517880.000000 0 0 1
35.265952 -21.435239 3.317263 41.402429 -0.546147 1.490588 0.064542 -0.019546 1159130.000000 0 0 1
34.562472 -20.320239 3.832163 40.276073 -0.531496 1.475505 0.061235 -0.023832 364651.000000 0 0 1
33.248462 -19.931639 3.045263 38.884497 -0.540034 1.492400 0.041662 -0.006600 982822.000000 0 0 1
32.240022 -20.937839 3.130363 38.569565 -0.575979 1.489545 0.036619 -0.007608 -732002.000000 0 0 1
31.115552 -20.456539 2.453063 37.318429 -0.581586 1.505016 0.029010 -0.012142 -349940.000000 0 0 1
29.852282 -21.281939 2.787863 36.767538 -0.619337 1.494899 0.027217 0.002790 -361259.000000 0 0 1
29.882682 -22.615239 2.312663 37.546933 -0.647839 1.509163 0.026887 0.000711 553858.000000 0 0 1
28.648462 -23.330639 2.543563 37.034077 -0.683446 1.502061 0.032854 0.001045 861164.000000 0 0 1
28.411142 -24.571739 1.659063 37.599413 -0.713060 1.526657 0.033123 0.004576 -42945.100000 0 0 1
27.997852 -24.190039 0.325563 37.001942 -0.712564 1.561998 0.035335 0.001961 70477.900000 0 0 1
27.168642 -25.192839 -0.233437 37.052244 -0.747682 1.577097 0.029844 -0.003153 -107343.000000 0 0 1
26.261642 -24.602939 -1.335537 36.010584 -0.752800 1.607892 0.042838 -0.011939 -310070.000000 0 0 1
26.857242 -24.360739 -2.596437 36.352422 -0.736694 1.642281 0.029237 -0.023118 -41545.600000 0 0 1
27.150842 -25.525939 -3.404437 37.421010 -0.754561 1.661899 0.030532 -0.020475 288216.000000 0 0 1
25.890942 -26.100139 -4.161737 36.998354 -0.789422 1.683519 0.042248 -0.029462 729995.000000 0 0 1
25.387142 -25.326439 -5.214137 36.237036 -0.784201 1.715187 0.036994 -0.037650 539231.000000 0 0 1
24.516242 -24.246039 -4.824737 34.816586 -0.779857 1.709820 0.045158 -0.040022 -202729.000000 0 0 1
24.181942 -23.232239 -5.890637 34.047069 -0.765371 1.744686 0.037260 -0.048600 309192.000000 0 0 1
23.350942 -23.734639 -6.975837 34.018553 -0.793547 1.777321 0.027115 -0.035929 446124.000000 0 0 1
22.420542 -22.814039 -7.488837 32.851846 -0.794097 1.800776 0.034616 -0.035864 -281961.000000 0 0 1
22.915942 -21.466339 -8.099237 32.427485 -0.752748 1.823233 0.034599 -0.033503 -816631.000000 0 0 1
23.356442 -21.446139 -9.397237 33.072169 -0.742786 1.858909 0.044692 -0.034419 -42594.400000 0 0 1
23.177942 -20.141439 -9.849037 32.247451 -0.715417 1.881176 0.041919 -0.028942 -390499.000000 0 0 1
23.768242 -19.865039 -11.230337 32.949501 -0.696181 1.918601 0.039156 -0.025084 -945968.000000 0 0 1
25.135942 -20.093039 -11.235137 34.084808 -0.674360 1.906701 0.057460 -0.026437 -927820.000000 0 0 1
25.546342 -19.949739 -12.602137 34.776739 -0.663000 1.941609 0.052856 -0.030375 -791637.000000 0 0 1
27.058842 -19.999839 -12.759137 35.985693 -0.636504 1.933241 0.047552 -0.018627 -484548.000000 0 0 1
27.588142 -21.318839 -12.879337 37.168210 -0.657905 1.924650 0.031693 -0.017410 80535.400000 0 0 1
27.985702 -21.932239 -11.670837 37.422334 -0.664719 1.887955 0.056571 -0.021930 -529471.000000 0 0 1
28.643022 -23.280039 -11.867637 38.771430 -0.682476 1.881882 0.052970 -0.011435 -214041.000000 0 0 1
29.809402 -23.252139 -12.658937 39.868674 -0.662443 1.893905 0.049763 -0.016408 270188.000000 0 0 1
30.231602 -24.503239 -13.230037 41.102219 -0.681121 1.898512 0.060583 -0.013659 110519.000000 0 0 1
-3.989837 -9.384735 -27.496517 29.326618 1.168806 2.786447 0.041828 -0.008852 145643.000000 0 0 1
-3.658437 -8.075035 -27.161097 28.571236 1.145405 2.826104 0.028906 -0.005745 -150424.000000 0 0 1
-4.386637 -7.161135 -27.921007 29.156596 1.021191 2.849427 0.029812 -0.004258 -174243.000000 0 0 1
-4.411337 -5.729335 -27.267317 28.209781 0.914645 2.882375 0.028949 -0.012510 281641.000000 0 0 1
-5.271137 -5.628035 -26.116447 27.231020 0.818132 2.854495 0.024107 -0.017554 505117.000000 0 0 1
-5.025337 -4.370835 -25.478367 26.334491 0.715854 2.885908 0.029261 -0.019595 168037.000000 0 0 1
-5.474937 -4.150735 -24.014137 24.977636 0.648686 2.862935 0.021763 -0.020630 -163640.000000 0 1 0
-4.843237 -5.069335 -23.151237 24.189561 0.808203 2.847534 0.014916 -0.027177 172752.000000 0 1 0
-5.242737 -5.013035 -21.779537 22.955719 0.763005 2.820094 0.014591 -0.022523 -438753.000000 0 1 0
-4.654937 -6.029035 -20.835537 22.184168 0.913309 2.791111 0.016372 -0.017152 -668295.000000 0 1 0
-5.319637 -7.290335 -20.820337 22.692156 0.940425 2.732576 0.022355 -0.017785 301699.000000 0 1 0
-4.547437 -8.281535 -20.167637 22.270981 1.068640 2.703487 0.028815 -0.016505 -487757.000000 0 1 0
-5.306337 -9.682335 -20.095937 22.929272 1.069457 2.639197 0.047923 -0.017295 1100260.000000 0 1 0
-6.513137 -9.722335 -19.332337 22.598319 0.980548 2.597267 0.056365 -0.014645 900699.000000 0 1 0
-7.620237 -8.970735 -19.859837 23.085823 0.866619 2.606578 0.040312 -0.012433 -1291580.000000 0 1 0
-8.811237 -9.086235 -18.952537 22.790266 0.800762 2.552791 0.037280 -0.002863 -1334630.000000 0 1 0
-9.370937 -10.378235 -19.029437 23.614438 0.836359 2.507887 0.062073 0.005925 -43971.000000 0 1 0
-9.894437 -10.757935 -17.773937 23.011864 0.827185 2.453378 0.041946 0.004852 148112.000000 0 1 0
-10.804137 -12.052135 -17.887337 24.123436 0.839946 2.406088 0.028417 0.023641 445143.000000 0 1 0
-12.075437 -11.914135 -18.481037 25.086082 0.778674 2.398981 0.044506 0.005610 -98324.300000 0 0 1
-12.127937 -11.707435 -19.872637 26.059021 0.767758 2.438121 0.047485 -0.008260 -601324.000000 0 0 1
-13.599937 -11.504035 -20.327837 27.028172 0.702102 2.422036 0.026266 -0.002047 504921.000000 0 0 1
-14.430637 -12.624135 -20.528837 28.089949 0.718725 2.390326 0.013893 -0.000405 -365216.000000 0 0 1
-14.897137 -13.173835 -19.369837 27.760857 0.724084 2.343033 0.013101 0.006589 -806032.000000 0 0 1
-15.972137 -14.230935 -19.696337 29.078761 0.727812 2.314943 0.009780 0.012533 -179850.000000 0 0 1
-15.475437 -15.478235 -20.071937 29.697602 0.785489 2.312951 0.007874 0.015236 -293043.000000 0 0 1
-16.368737 -16.115335 -20.954237 31.092115 0.777597 2.310326 0.004546 0.009978 -119263.000000 0 0 1
-16.018737 -17.580435 -21.272437 31.909061 0.831845 2.300513 -0.005471 0.009106 39034.200000 0 0 1
-16.249737 -18.490535 -20.196837 31.841263 0.849810 2.257896 0.009518 0.014416 69209.400000 0 0 1
-15.871737 -19.713335 -20.774237 32.742885 0.892937 2.258113 0.009225 0.009346 -55728.500000 0 0 1
-16.437137 -20.984735 -20.047137 33.353055 0.906328 2.215621 0.011468 0.004828 -332173.000000 0 0 1
-15.951337 -22.199535 -20.496037 34.166534 0.947733 2.214155 0.017884 0.004452 -300920.000000 0 0 1
-16.601837 -23.319235 -19.976137 34.906357 0.952103 2.180077 0.034833 0.001411 -235917.000000 0 0 1
-16.093737 -24.709035 -20.563037 35.949732 0.993487 2.179731 0.046881 -0.005092 189053.000000 0 0 1
-16.478637 -25.029735 -21.910937 37.123069 0.988565 2.202133 0.037313 -0.006235 182334.000000 0 0 1
-15.720137 -26.159455 -22.289337 37.792252 1.029689 2.201590 0.045641 -0.007555 -34591.800000 0 0 1
-15.958837 -26.592015 -23.734637 39.053204 1.030277 2.224022 0.047612 -0.009518 -683454.000000 0 0 1
-17.139137 -27.264825 -24.056237 40.197304 1.009600 2.212366 0.063493 -0.010065 -572908.000000 0 0 1
-17.071237 -28.677915 -23.872737 41.033614 1.033859 2.191718 0.067842 -0.007434 68549.700000 0 0 1
-18.215437 -29.439115 -24.626537 42.484467 1.016704 2.189107 0.068459 -0.014627 164157.000000 0 0 1
-18.312537 -29.401575 -26.062957 43.348349 1.013750 2.215854 0.068130 -0.009621 -60628.800000 0 0 1
-18.384537 -28.083635 -26.538087 42.789623 0.991169 2.239793 0.081521 -0.022628 -321994.000000 0 0 1
-17.191637 -27.716595 -27.447307 42.627652 1.015609 2.270361 0.086049 -0.022979 -14074.200000 0 0 1
-17.225737 -28.160215 -28.796607 43.806030 1.021815 2.288115 0.087540 -0.011006 -243380.000000 0 0 1
-16.050937 -27.841585 -29.503767 43.626353 1.047828 2.313502 0.056907 -0.002989 -148665.000000 0 0 1
-16.119337 -28.094295 -31.005497 44.838190 1.049896 2.334356 0.075245 -0.002110 -108425.000000 0 0 1
-16.127037 -29.468695 -31.404327 45.986053 1.070059 2.322535 0.059974 -0.002918 171146.000000 0 0 1
-16.753137 -29.706715 -32.644587 47.210439 1.057305 2.334318 0.070218 -0.000833 -123068.000000 0 0 1
-16.756637 -31.166645 -33.084277 48.442894 1.077487 2.322596 0.062216 0.000683 1198490.000000 0 0 1
-15.465337 -31.597245 -33.595037 48.643489 1.115623 2.333167 0.062095 -0.000038 610325.000000 0 0 1
-15.619037 -32.562325 33.674483 49.378437 1.123548 0.820347 0.053839 0.001194 527641.000000 0 0 1
-14.316337 -33.113585 32.991426 48.886615 1.162725 0.830027 0.038856 -0.000329 786842.000000 0 0 1
-13.599237 -34.044395 33.808573 49.869626 1.190759 0.825841 0.043492 -0.000896 106526.000000 0 0 1
-12.398937 33.858299 33.171627 48.994641 -1.219762 0.827055 0.046783 0.001274 657438.000000 0 0 1
-11.412437 33.021537 34.085787 48.810926 -1.238041 0.797745 0.030584 0.000998 532880.000000 0 0 1
-10.723837 33.789768 -33.246437 48.601180 -1.263481 2.324119 0.032138 0.001298 -96415.200000 0 0 1
-9.917637 32.936357 -32.442687 47.283095 -1.278317 2.326962 0.028580 -0.004979 -110599.000000 0 0 1
-9.071237 33.793890 -31.506697 47.084884 -1.308550 2.303856 0.017043 -0.008148 -106800.000000 0 0 1
-9.858937 -33.970565 -30.432937 46.662207 1.288336 2.281275 0.032915 -0.014390 176334.000000 0 0 1
-9.294437 -32.779785 -29.932847 45.352797 1.294506 2.291615 0.026541 -0.014558 -648502.000000 0 0 1
-10.232437 -32.001175 -29.042847 44.410189 1.261318 2.283614 0.040659 -0.012122 -166898.000000 0 0 1
-10.491337 -32.441875 -27.713187 43.938185 1.258022 2.253292 0.078367 -0.021445 38347.500000 0 0 1
-10.936237 -33.763005 -27.427837 44.853406 1.257549 2.228751 0.074639 -0.021146 -118666.000000 0 0 1
-11.300437 -33.835205 -25.915177 44.092146 1.248460 2.199072 0.091636 -0.022497 -759761.000000 0 0 1
-10.224037 -33.799225 -25.062597 43.301874 1.277054 2.188038 0.099359 -0.032655 -987785.000000 0 0 1
-10.541737 -33.997295 -23.697337 42.761058 1.270122 2.158174 0.106184 -0.040940 823743.000000 0 0 1
-9.241737 -33.841935 -22.813137 41.846451 1.304211 2.147380 0.111998 -0.042971 1339100.000000 0 0 1
-8.405637 33.294567 -22.837537 41.239981 -1.323501 2.157684 0.093182 -0.036328 185215.000000 0 0 1
-7.508137 33.173959 -21.737537 40.365879 -1.348220 2.139467 0.099372 -0.031043 65437.700000 0 0 1
-6.784037 31.793070 -21.700037 39.085983 -1.360568 2.159384 0.090652 -0.034681 -97173.200000 0 0 1
-5.577737 31.705380 -22.407337 39.222838 -1.396654 2.178864 0.065318 -0.042943 -370873.000000 0 0 1
-4.869537 30.514400 -22.256037 38.081127 -1.412549 2.194983 0.046050 -0.027175 -1098720.000000 0 0 1
-3.564637 30.678830 -22.977537 38.494993 -1.455123 2.210424 0.056373 -0.037198 -1095310.000000 0 0 1
-3.622037 30.965730 -24.386137 39.581300 -1.454356 2.234581 0.064056 -0.031614 -597656.000000 0 0 1
-2.349837 31.416290 -24.745337 40.060414 -1.496139 2.236612 0.046320 -0.033730 -342256.000000 0 0 1
-2.352537 31.866560 -26.276297 41.369746 -1.497105 2.259009 0.057450 -0.016071 -436820.000000 0 0 1
-1.308037 32.703379 -26.652967 42.209035 -1.530821 2.254220 0.064420 -0.027394 -458430.000000 0 0 1
-1.713437 34.055278 -26.653967 43.279693 -1.520525 2.234266 0.051573 -0.019572 -65009.700000 0 0 1
-0.538337 -33.363055 -27.102797 42.987729 1.554662 2.252965 0.018927 -0.008893 308766.000000 0 0 1
0.482263 -33.253535 -26.076477 42.261245 -1.556295 2.235760 0.031885 -0.016764 549285.000000 0 0 1
1.343963 -32.156255 -26.407327 41.631453 -1.529026 2.257914 0.019702 -0.012875 -314288.000000 0 0 1
2.464263 -31.967815 -25.403337 40.906519 -1.493863 2.240826 0.026204 -0.010593 -860459.000000 0 0 1
2.103763 -31.328345 -24.205037 39.645615 -1.503745 2.227532 0.022364 -0.009171 -8864.120000 0 0 1
3.139663 -30.487125 -23.776537 38.789766 -1.468175 2.230597 0.012127 -0.007109 -352091.000000 0 0 1
2.977763 -29.794275 -22.392137 37.389486 -1.471183 2.212909 0.025489 -0.011681 -178142.000000 0 0 1
2.874963 -30.773905 -21.357537 37.569176 -1.477645 2.175460 0.035680 -0.008447 370071.000000 0 0 1
3.280863 -30.159865 -20.127637 36.407462 -1.462440 2.156569 0.040405 -0.014869 -437927.000000 0 0 1
3.323363 -31.172125 -18.922037 36.616794 -1.464584 2.113857 0.036874 -0.006530 -216121.000000 0 0 1
2.109863 -31.788435 -18.550637 36.865733 -1.504522 2.098088 0.041674 -0.008814 -5159.290000 0 0 1
2.042463 -33.131955 -18.972237 38.234067 -1.509228 2.090028 0.040055 0.003839 -526755.000000 0 0 1
2.732363 34.080612 -18.110737 38.690473 1.490794 2.057928 0.032800 -0.017470 436441.000000 0 0 1
4.148863 34.091816 -18.260037 38.895937 1.449695 2.059474 0.035267 -0.011793 -16867.500000 0 0 1
4.661263 32.890244 -17.699437 37.639947 1.430012 2.060348 0.050543 -0.033249 -194069.000000 0 0 1
5.727963 32.326645 -18.621437 37.743602 1.395426 2.086752 0.057563 -0.027181 -72280.900000 0 0 1
6.954263 33.051422 -18.573437 38.545179 1.363414 2.073574 0.082751 -0.026998 -553166.000000 0 0 1
7.868663 32.401682 -19.396337 38.574639 1.332561 2.097662 0.055293 -0.027271 -363298.000000 0 0 1
9.221363 33.143383 -19.320637 39.456360 1.299433 2.082509 0.032765 -0.033462 -133666.000000 0 0 1
9.975963 33.137356 -18.143437 39.074141 1.278378 2.053678 0.031245 -0.025001 -949994.000000 0 0 1
11.250563 33.610049 -18.344437 39.909008 1.247782 2.048405 0.037476 -0.011052 -927798.000000 0 0 1
12.076463 33.758429 -17.073937 39.711356 1.227250 2.015235 0.023293 -0.006583 -417655.000000 0 0 1
12.737463 32.600796 -16.682437 38.773168 1.198324 2.015574 0.021393 -0.013740 51010.200000 0 0 1
13.502563 32.753484 -15.461237 38.654363 1.179776 1.982299 0.024517 -0.022077 941286.000000 0 0 1
14.709863 31.738020 -15.405837 38.223315 1.136791 1.985641 0.028578 -0.019064 564520.000000 0 0 1
14.407463 30.392620 -15.078737 36.859933 1.128128 1.992244 0.055286 -0.022871 -601864.000000 0 0 1
15.558263 29.609650 -14.915937 36.623437 1.087000 1.990269 0.041093 -0.013859 -578210.000000 0 0 1
15.370163 28.401650 -13.978937 35.189577 1.074757 1.979311 0.059688 -0.023043 -494625.000000 0 0 1
15.264963 28.670450 -12.608837 34.842454 1.081544 1.941082 0.062032 -0.029826 214453.000000 0 0 1
13.964463 28.989260 -12.111337 34.381215 1.121886 1.930788 0.075298 -0.033979 540261.000000 0 0 1
13.094263 27.756210 -11.745937 32.860827 1.129995 1.936327 0.079512 -0.036572 -558838.000000 0 0 1
12.570563 27.002820 -12.796837 32.418056 1.135105 1.976586 0.065274 -0.031668 -42788.300000 0 0 1
12.089063 25.683030 -12.492437 31.013295 1.130860 1.985380 0.093763 -0.035505 830692.000000 0 0 1
11.066463 25.484500 -11.272937 29.983420 1.161123 1.956242 0.093425 -0.032708 64255.400000 0 0 1
9.909063 26.253940 -11.502037 30.327475 1.209896 1.959794 0.077199 -0.030644 -352821.000000 0 0 1
9.244463 26.383850 -10.271037 29.783583 1.233780 1.922881 0.048687 -0.015704 -170923.000000 0 0 1
8.155063 27.458300 -10.247037 30.421457 1.282096 1.914351 0.053028 -0.013728 -28132.900000 0 0 1
8.689063 28.726870 -10.564037 31.817161 1.277074 1.909244 0.058031 -0.021699 -504119.000000 0 0 1
7.770363 29.708560 -10.307737 32.391766 1.314974 1.894649 0.054807 -0.020614 -556965.000000 0 0 1
8.305063 31.076260 -10.608337 33.871003 1.309651 1.889355 0.080765 -0.033687 79948.700000 0 0 1
9.255863 31.614450 -9.690437 34.337283 1.285983 1.856897 0.066820 -0.030266 275682.000000 0 0 1
9.903763 32.841536 -10.078237 35.752229 1.277907 1.856561 0.084393 -0.033242 279727.000000 0 0 1
10.914063 32.866000 -11.253637 36.413392 1.250176 1.884993 0.077476 -0.036354 -635105.000000 0 0 1
12.168563 32.434403 -10.813137 36.290334 1.211873 1.873353 0.056958 -0.026902 -942662.000000 0 0 1
13.139163 32.658144 -11.806737 37.129382 1.188288 1.894404 0.065558 -0.024741 167333.000000 0 0 1
14.552563 32.612073 -11.167637 37.417115 1.151080 1.873879 0.060810 -0.028325 177681.000000 0 0 1
14.842263 33.618337 -10.211037 38.141193 1.155039 1.841819 0.060035 -0.014966 907067.000000 0 0 1
16.278163 33.696021 -10.077537 38.755092 1.120769 1.833851 0.048960 -0.015969 1123720.000000 0 0 1
16.833763 -33.578375 -9.098937 38.648072 -1.106087 1.808458 0.055135 -0.015113 8542.190000 0 0 1
16.788663 -33.989245 -7.754937 38.694534 -1.112008 1.772577 0.059773 -0.023666 14482.800000 0 0 1
17.571263 -33.152195 -6.958337 38.160657 -1.083424 1.754165 0.060289 -0.018329 -784300.000000 0 0 1
17.881463 -33.802525 -5.523037 38.637564 -1.084220 1.714232 0.063442 -0.013788 1037040.000000 0 0 1
18.894363 33.456382 -5.485337 38.812567 1.056702 1.712600 0.057325 -0.024518 2002260.000000 0 0 1
20.233463 33.862238 -5.927737 39.889626 1.032200 1.719952 0.058680 -0.018071 411363.000000 0 0 1
20.903163 32.826520 -6.888537 39.521824 1.003773 1.745988 0.047937 -0.014859 91950.800000 0 0 1
21.265763 31.634650 -6.222137 38.622516 0.978952 1.732603 0.052470 -0.003059 618618.000000 0 0 1
22.289063 31.701470 -5.186537 39.098410 0.957998 1.703842 0.047227 0.003260 -19043.000000 0 0 1
22.622663 30.299000 -4.710837 38.105200 0.929444 1.694741 0.024066 0.007935 -135360.000000 0 0 1
23.350163 29.527970 -5.660737 38.068032 0.901702 1.720050 0.011804 0.006201 40085.600000 0 0 1
23.675163 28.261750 -5.189137 37.231264 0.873480 1.710627 0.011082 0.018206 140248.000000 0 0 1
24.693963 27.547900 -6.132737 37.500521 0.839973 1.735072 0.010850 0.018391 -170258.000000 0 0 1
25.993363 28.108250 -6.139137 38.773930 0.824469 1.729797 0.019279 0.011482 403173.000000 0 0 1
26.916863 27.197280 -6.785537 38.861975 0.790580 1.746302 0.013368 0.013881 437402.000000 0 0 1
27.554263 26.171060 -5.779137 38.439045 0.759658 1.721714 0.020385 0.014309 -574110.000000 0 0 1
28.549463 26.694100 -4.925337 39.394235 0.751826 1.696151 0.021061 0.002135 75242.600000 0 0 1
29.057763 25.779310 -3.963737 39.046608 0.725684 1.672484 0.039011 -0.001029 640672.000000 0 0 1
30.409363 26.308740 -3.345937 40.349405 0.713225 1.653816 0.045220 -0.007429 498193.000000 0 0 1
30.373063 27.353260 -2.385537 40.944042 0.733133 1.629093 0.059528 -0.008185 -155072.000000 0 0 1
31.697263 27.612400 -1.973237 42.083902 0.716633 1.617702 0.088427 -0.028035 -51086.300000 0 0 1
31.859263 28.735150 -0.917837 42.913447 0.733886 1.592186 0.082241 -0.017864 74959.900000 0 0 1
31.799263 30.014250 -1.560737 43.754819 0.756529 1.606474 0.047866 -0.003771 19313.900000 0 0 1
30.552863 30.651410 -1.349537 43.299049 0.787008 1.601969 0.068585 -0.011590 71395.500000 0 0 1
33.032842 22.727865 19.224366 44.466850 0.602653 1.123721 0.105197 -0.047500 -44001.000000 0 0 1
33.472672 22.416265 20.517366 45.209192 0.590092 1.099736 0.087555 -0.052016 97062.000000 0 0 1
34.230682 23.559065 20.913166 46.520207 0.602792 1.104535 0.106948 -0.042829 -7558.060000 0 0 1
34.324612 23.657665 22.487466 47.366130 0.603463 1.076107 0.066564 -0.031248 465937.000000 0 0 1
33.075972 24.158565 22.953566 46.952342 0.630836 1.060003 0.039143 -0.017202 539623.000000 0 0 1
33.151062 24.349065 24.324346 47.786439 0.633499 1.036748 0.024517 -0.011742 29856.700000 0 0 1
31.916912 25.069365 24.921116 47.625879 0.665810 1.020115 0.036814 -0.017135 156746.000000 0 0 1
31.809702 26.502065 24.730916 48.226910 0.694627 1.032349 0.034952 -0.018092 195257.000000 0 0 1
30.497412 26.900465 25.066486 47.770869 0.722813 1.018406 0.034512 -0.022061 106268.000000 0 0 1
30.349632 28.428765 25.094276 48.569719 0.752730 1.027845 0.031975 -0.016152 -151447.000000 0 0 1
30.463492 29.084465 23.867386 48.410563 0.762244 1.055239 0.046989 -0.036763 195443.000000 0 0 1
30.104792 30.438865 24.032766 49.095793 0.790916 1.059271 0.055803 -0.031734 -257448.000000 0 0 1
30.433452 31.419265 22.907466 49.377295 0.801335 1.088373 0.063403 -0.028694 -269807.000000 0 0 1
31.765122 31.863465 22.959866 50.511967 0.786944 1.098937 0.034555 -0.032311 -470318.000000 0 0 1
32.240032 32.342865 21.738966 50.577300 0.786990 1.126507 0.027439 -0.029871 917676.000000 0 0 1
33.813252 32.456065 21.754766 51.672063 0.764921 1.136231 0.007220 -0.042044 901306.000000 0 0 1
34.333452 33.345465 22.671866 52.959603 0.770801 1.128410 0.021938 -0.021820 44518.600000 0 0 1
35.719282 33.600365 22.533766 53.968716 0.754840 1.140067 0.016358 -0.020031 217870.000000 0 0 1
35.985862 -33.399639 23.307826 54.348624 -0.748142 1.127568 0.014401 -0.010648 -304866.000000 0 0 1
35.360892 -32.250539 22.694466 52.967242 -0.739427 1.128006 0.011162 -0.011530 523657.000000 0 0 1
35.613082 -31.111939 23.487076 52.800446 -0.718042 1.109815 0.028501 -0.014670 -1011100.000000 0 0 1
34.724122 -29.930239 23.146666 51.355156 -0.711387 1.103227 0.030215 -0.018350 -616117.000000 0 0 1
33.381202 -29.983539 23.529056 50.664916 -0.731829 1.087833 0.023390 -0.016875 -43938.600000 0 0 1
32.482112 -30.574639 22.604666 50.008670 -0.755157 1.101773 0.035635 -0.015296 -362669.000000 0 0 1
31.921622 -31.983539 22.914166 50.665528 -0.786367 1.101495 0.026194 -0.015526 -295864.000000 0 0 1
30.897882 -31.975739 23.887576 50.475175 -0.802540 1.077815 0.046667 -0.022999 186143.000000 0 0 1
30.288952 -33.251339 23.937186 50.951556 -0.831987 1.081729 0.042517 -0.027475 290254.000000 0 0 1
29.308672 -33.550239 25.123976 51.145195 -0.852774 1.057297 0.044962 -0.022457 393771.000000 0 0 1
28.934592 33.370465 25.307286 50.904394 0.856474 1.050482 0.060118 -0.033678 218692.000000 0 0 1
28.254172 33.178265 26.564236 51.036792 0.865382 1.023369 0.063444 -0.023695 -723991.000000 0 0 1
27.787042 31.732665 26.659976 49.898257 0.851592 1.007133 0.067424 -0.021767 485165.000000 0 0 1
26.844442 31.338965 25.672436 48.598650 0.862493 1.014253 0.075180 -0.024477 1286530.000000 0 0 1
25.553342 32.003965 25.628906 48.312192 0.897005 1.011623 0.065924 -0.026737 363516.000000 0 0 1
24.865042 31.723265 24.246106 47.037321 0.906005 1.029246 0.114901 -0.037827 -109197.000000 0 0 1
25.226842 32.505465 23.099066 47.186499 0.910812 1.059249 0.129405 -0.049364 1577440.000000 0 0 1
26.634342 32.605565 22.726766 47.843672 0.885856 1.075808 0.106236 -0.038218 1214580.000000 0 0 1
26.957842 33.349065 21.375566 47.914510 0.890982 1.108372 0.119086 -0.044872 -530594.000000 0 0 1
28.332022 33.378765 21.130166 48.614086 0.866997 1.121146 0.109669 -0.044009 -418603.000000 0 0 1
28.622962 34.122765 19.978866 48.813852 0.872827 1.149124 0.094965 -0.038437 -125643.000000 0 0 1
30.106882 -33.990539 19.610366 49.460566 -0.845914 1.163112 0.086868 -0.044408 -54636.300000 0 0 1
30.718822 33.158565 19.044666 49.049320 0.823574 1.172036 0.086103 -0.044760 532439.000000 0 0 1
31.813672 33.440865 18.157366 49.599306 0.810329 1.196002 0.077904 -0.029926 134805.000000 0 0 1
32.557302 32.239065 17.634466 49.094905 0.780487 1.203395 0.053505 -0.025593 -692269.000000 0 0 1
33.468552 31.708265 18.552666 49.696675 0.758397 1.188213 0.032828 -0.023050 -379424.000000 0 0 1
34.350592 30.852665 17.901166 49.520722 0.731803 1.200933 0.030967 -0.024614 -40002.300000 0 0 1
35.341522 30.129665 18.862766 50.126080 0.705960 1.184990 0.029436 -0.030356 -35796.600000 0 0 1
36.200862 30.980765 19.568666 51.509639 0.707853 1.181105 0.044961 -0.031443 -576193.000000 0 0 1
-35.955462 30.218065 20.396466 51.204907 -0.698912 1.161101 0.058293 -0.028720 -77909.900000 0 0 1
-34.693814 30.983965 20.919166 51.002729 -0.728973 1.148169 0.045774 -0.022545 -11728.500000 0 0 1
-33.913077 31.538865 19.911366 50.410905 -0.749140 1.164749 0.045446 -0.018896 -277791.000000 0 0 1
-32.737297 32.205065 20.323166 50.218800 -0.777203 1.154154 0.042421 -0.007003 107830.000000 0 0 1
-32.824707 33.587465 21.043066 51.462509 -0.796883 1.149547 0.017797 0.009388 -500487.000000 0 0 1
-33.267417 33.645765 22.372266 52.338101 -0.791052 1.129119 0.023003 0.005781 151808.000000 0 0 1
-33.103707 -33.366139 23.017766 52.335191 0.789346 1.115404 0.015149 0.007226 -222639.000000 0 0 1
-33.210257 -33.393339 24.562376 53.116349 0.788147 1.090067 0.016459 -0.002909 -89921.200000 0 0 1
-34.418378 -33.927639 25.076716 54.447692 0.778218 1.092164 0.015412 -0.006239 -122945.000000 0 0 1
-34.230506 33.724265 26.324706 54.790909 -0.777949 1.069620 0.025161 -0.002262 697366.000000 0 0 1
-35.637794 33.398665 26.911956 55.765371 -0.752976 1.067184 0.015254 -0.012340 710362.000000 0 0 1
-35.564526 32.855465 28.253976 56.058936 -0.745824 1.042567 0.035642 -0.022997 742904.000000 0 0 1
36.007092 32.848165 28.749026 56.586387 0.739553 1.037871 0.049592 -0.025208 1088510.000000 0 0 1
35.934382 31.667965 29.804746 56.413321 0.722371 1.014166 0.054239 -0.023554 -56459.700000 0 0 1
35.856212 30.293365 29.358796 55.365105 0.701501 1.011870 0.034258 -0.022347 639444.000000 0 0 1
-35.910346 29.845865 28.662046 54.789064 -0.693432 1.020272 0.039377 -0.022564 31271.000000 0 0 1
-36.164177 28.424965 28.109646 53.907129 -0.666145 1.022252 0.050316 -0.020770 -1130070.000000 0 0 1
35.747502 28.341765 27.210106 53.118071 0.670355 1.032986 0.029221 -0.016298 -604715.000000 0 0 1
35.722062 27.067965 26.573246 52.104490 0.648435 1.035613 0.031530 -0.011743 50090.200000 0 0 1
35.193332 25.816565 27.357796 51.512277 0.632899 1.010907 0.011254 -0.008622 -198352.000000 0 0 1
36.155792 25.241065 28.218726 52.351210 0.609463 1.001515 0.022564 -0.005872 -19575.500000 0 0 1
35.685612 24.072065 28.878366 51.835193 0.593447 0.979884 0.027391 -0.010407 -239965.000000 0 0 1
35.852782 22.761565 28.007656 50.871796 0.565660 0.987769 0.000052 0.001506 -304110.000000 0 0 1
34.952452 22.595165 26.923956 49.569293 0.573879 0.996603 0.013633 -0.006721 -4904.770000 0 0 1
35.410352 21.783565 25.863236 48.962473 0.551503 1.014287 0.021552 -0.023320 -537469.000000 0 0 1
35.320602 20.265065 26.103256 48.369389 0.520892 1.000757 0.007331 -0.016131 -156417.000000 0 0 1
33.961372 19.844465 26.076476 47.192798 0.528814 0.985373 0.021484 -0.011470 504828.000000 0 0 1
33.780812 18.651865 26.866516 47.019624 0.504488 0.962598 0.027471 -0.011695 -496543.000000 0 0 1
33.810532 18.777765 28.449236 48.011619 0.506966 0.936577 0.006327 -0.004223 144241.000000 0 0 1
32.726472 19.471765 29.084886 47.917661 0.536724 0.918546 0.009535 -0.004848 493818.000000 0 0 1
32.713642 20.870865 28.787456 48.316592 0.567884 0.932524 -0.000078 -0.007559 -447029.000000 0 0 1
31.696562 21.807865 29.517786 48.492832 0.602640 0.916370 0.023133 -0.015374 405551.000000 0 0 1
30.350462 21.589465 29.106486 47.269896 0.618296 0.907458 0.045660 -0.025412 547483.000000 0 0 1
29.752922 22.434165 28.087106 46.662765 0.646066 0.924897 0.048480 -0.020773 313996.000000 0 0 1
29.691652 23.991765 28.252686 47.491192 0.679619 0.933650 0.056855 -0.013583 -430360.000000 0 0 1
31.015582 24.463065 28.137376 48.498658 0.667834 0.951861 0.050432 -0.019081 -81650.400000 0 0 1
31.250882 25.650065 28.888446 49.689896 0.687283 0.950379 0.045138 -0.010726 76778.800000 0 0 1
31.529612 25.592265 30.369106 50.708610 0.681828 0.928676 0.034016 -0.012794 -281143.000000 0 0 1
32.730862 24.921065 30.654736 51.303817 0.650753 0.930399 -0.005983 0.003431 -266253.000000 0 0 1
33.102482 24.914365 32.017196 52.360298 0.645191 0.912869 0.011053 -0.002169 -30107.600000 0 0 1
32.642202 23.735265 32.859834 52.044643 0.628706 0.887468 0.020668 -0.001294 -465561.000000 0 0 1
33.085402 23.788265 -34.135515 53.157867 0.623361 2.268101 0.030032 -0.018074 171151.000000 0 0 1
32.663032 22.645565 -33.390037 51.909439 0.606221 2.269514 0.037405 -0.024200 -653888.000000 0 0 1
33.395952 22.541565 -32.053947 51.486574 0.593735 2.242818 0.032642 -0.027937 -348771.000000 0 0 1
32.975162 23.570065 -31.180727 51.138509 0.620578 2.226517 0.033601 -0.028207 129294.000000 0 0 1
33.234042 23.359065 -29.785797 50.372028 0.612647 2.203486 0.055867 -0.032251 34778.600000 0 0 1
34.592282 23.673465 -29.113217 51.035658 0.600150 2.177848 0.055494 -0.008221 25567.200000 0 0 1
34.942112 22.903265 -27.987407 50.287232 0.580206 2.161025 0.052931 -0.013279 -565232.000000 0 0 1
35.966102 23.478865 -27.241237 50.861603 0.578345 2.136009 0.065585 -0.006278 -438106.000000 0 0 1
-36.284177 22.473665 -26.287197 50.126080 -0.554547 2.122832 0.052925 -0.001623 -463871.000000 0 0 1
-35.375271 21.681365 -26.980637 49.491880 -0.549848 2.147368 0.034870 0.002858 -217785.000000 0 0 1
-35.406745 20.403065 -26.395787 48.648333 -0.522772 2.144306 0.010293 0.010644 -237175.000000 0 0 1
-34.223440 19.498065 -26.827877 47.656620 -0.517864 2.168737 0.014050 0.025227 -230399.000000 0 0 1
-33.097737 19.900865 -26.090267 46.606938 -0.541357 2.164933 0.024286 0.023351 -412161.000000 0 0 1
-32.077427 18.907465 -26.157687 45.504705 -0.532613 2.183199 -0.010127 0.020791 829141.000000 0 0 1
-30.818467 19.316165 -25.310197 44.311378 -0.559873 2.178751 -0.013571 0.028243 113710.000000 0 0 1
-31.055777 19.374865 -23.939937 43.737482 -0.557789 2.149997 -0.011073 0.026210 -459253.000000 0 0 1
-29.886407 19.461865 -23.187537 42.539669 -0.577215 2.147281 -0.015058 0.030222 -426263.000000 0 0 1
-30.171517 19.821665 -21.714837 42.127818 -0.581257 2.112331 -0.018447 0.020002 167347.000000 0 0 1
-30.931217 18.880565 -20.967737 41.867194 -0.548035 2.095337 -0.017069 0.012727 151730.000000 0 0 1
-31.367567 19.375165 -19.704437 41.804140 -0.553319 2.061619 -0.002794 0.016582 -261560.000000 0 0 1
-32.529117 18.489765 -19.105037 42.012109 -0.516865 2.042889 -0.005578 0.002952 760828.000000 0 0 1
-33.149957 19.239365 -18.020537 42.353425 -0.525863 2.010289 0.008591 -0.009117 447144.000000 0 0 1
-34.222070 20.069065 -18.469837 43.761311 -0.530387 2.006511 0.003878 -0.005017 -1091870.000000 0 0 1
-35.395285 20.065765 -17.537537 44.306053 -0.515729 1.977765 0.021283 -0.017781 -1062480.000000 0 0 1
-35.257951 20.794365 -16.345337 44.076057 -0.532869 1.950714 0.026892 -0.021205 -213816.000000 0 0 1
-36.243577 20.516565 -15.395437 44.402093 -0.515101 1.924876 0.033965 -0.008453 -1125390.000000 0 0 1
-36.199077 21.325565 -14.076337 44.309098 -0.532380 1.894083 0.044360 -0.005494 -148789.000000 0 0 1
-36.401507 22.735065 -14.216537 45.211313 -0.558286 1.890670 0.052933 -0.011808 1068410.000000 0 0 1
35.256782 23.075965 -14.799837 44.660677 0.579540 1.908566 0.060597 0.000576 583327.000000 0 0 1
34.962672 24.607565 -14.864137 45.264371 0.613288 1.905389 0.055609 -0.004209 9397.510000 0 0 1
35.245692 25.281865 -13.679337 45.481379 0.622245 1.876294 0.059642 -0.002674 65314.900000 0 0 1
35.217502 26.676265 -13.821037 46.291648 0.648266 1.873984 0.048691 0.005504 1057820.000000 0 0 1
-36.447087 27.444265 -14.442637 47.855696 -0.645411 1.877372 0.061874 0.011422 1007650.000000 0 0 1
-36.389547 27.328465 -15.873037 48.197484 -0.644139 1.906394 0.061467 0.017042 -642273.000000 0 0 1
-35.206636 27.860265 -16.367937 47.787142 -0.669435 1.920392 0.076619 0.005234 -1238460.000000 0 0 1
-34.939246 27.510865 -17.873237 47.927563 -0.667005 1.952952 0.060212 0.001004 -154932.000000 0 0 1
-34.586588 26.184465 -18.214837 47.049321 -0.648011 1.968328 0.059485 -0.006021 14057.600000 0 0 1
-33.302987 25.904565 -17.695737 45.752318 -0.661085 1.967925 0.061347 -0.003245 -332236.000000 0 0 1
-32.752457 24.523865 -18.232637 44.794782 -0.642710 1.989992 0.052671 -0.000791 -29969.200000 0 0 1
-32.355317 24.589765 -19.603737 45.120169 -0.649865 2.020255 0.035109 0.008914 62175.700000 0 0 1
-31.962367 23.331565 -20.069037 44.370273 -0.630558 2.040148 0.019965 0.017721 -287849.000000 0 0 1
-31.520227 23.401365 -21.527837 44.772719 -0.638635 2.072392 0.014005 0.027664 -109721.000000 0 0 1
-32.550987 23.823665 -22.379537 46.130006 -0.631808 2.077320 0.021652 0.023902 16987.000000 0 0 1
-32.090727 23.710965 -23.741637 46.429409 -0.636342 2.107550 0.017221 0.030285 370593.000000 0 0 1
-33.020437 24.192765 -24.916837 47.921686 -0.632311 2.117588 0.002585 0.026622 105058.000000 0 0 1
-32.799857 25.585465 -25.266327 48.670668 -0.662456 2.116627 0.002908 0.028960 238683.000000 0 0 1
-33.707407 26.081765 -26.249377 50.054746 -0.658541 2.122822 0.013036 0.019611 513504.000000 0 0 1
-33.106307 27.464565 -26.706407 50.631632 -0.692523 2.126410 0.013408 0.013857 924264.000000 0 0 1
-31.951347 27.294465 -27.550217 50.248292 -0.706957 2.151104 0.009397 0.017147 51693.400000 0 0 1
-31.528107 28.653565 -27.727437 50.831674 -0.737670 2.147753 0.025904 -0.004943 361832.000000 0 0 1
-30.099877 28.808965 -28.315927 50.376094 -0.763488 2.167708 0.038844 -0.015347 92350.800000 0 0 1
-29.088907 28.358865 -27.427637 49.016987 -0.772691 2.164644 0.024296 -0.009868 967557.000000 0 0 1
-27.805367 28.350165 -28.137147 48.667950 -0.795099 2.187250 0.040201 -0.017738 1787500.000000 0 0 1
-26.877947 29.590265 -27.819747 48.702630 -0.833394 2.178784 0.051647 -0.034106 184207.000000 0 0 1
-26.320587 29.728965 -26.488657 47.730846 -0.846133 2.159110 0.037089 -0.031436 427082.000000 0 0 1
-27.285927 29.904665 -25.455267 47.820304 -0.831156 2.132124 0.028362 -0.019268 473461.000000 0 0 1
-26.513737 30.364365 -24.161337 46.997268 -0.852995 2.110755 -0.002965 -0.014962 478738.000000 0 0 1
-26.021737 31.698765 -24.217437 47.628004 -0.883437 2.104204 -0.002940 -0.003510 38655.500000 0 0 1
-25.579397 32.113865 -22.919837 47.020473 -0.898180 2.079956 0.022737 0.000972 87054.300000 0 0 1
-24.783537 33.433165 -22.869437 47.486961 -0.932896 2.073269 0.010287 0.013767 -154178.000000 0 0 1
-25.577857 -33.839139 -23.431837 48.459933 0.923551 2.075479 -0.013628 0.008096 248366.000000 0 0 1
-24.866037 -32.598739 -23.490737 47.252644 0.919159 2.091085 0.006339 0.004615 336825.000000 0 0 1
16.501563 8.379665 -25.424497 31.447185 0.469876 2.512365 0.041236 -0.020538 176602.000000 0 0 1
15.258263 7.763365 -25.074887 30.361726 0.470661 2.542543 0.037724 -0.020825 276920.000000 0 0 1
15.255363 6.374765 -25.185007 30.127202 0.395816 2.560668 0.036181 -0.024189 478067.000000 0 0 1
13.844963 5.681965 -25.174637 29.287029 0.389439 2.605250 0.025719 -0.023533 780315.000000 0 0 1
13.221363 5.894165 -23.902237 27.943918 0.419361 2.597050 0.067499 -0.047134 374396.000000 0 0 1
11.923263 5.316765 -23.889637 27.224014 0.419452 2.641464 0.070160 -0.045962 -17476.400000 0 0 1
11.164263 5.440965 -22.580437 25.770546 0.453481 2.638739 0.074186 -0.048134 -604546.000000 0 0 1
11.728663 4.689465 -21.587037 25.011053 0.380359 2.612172 0.069607 -0.041589 -225234.000000 0 0 1
11.199463 4.942665 -20.326637 23.728255 0.415621 2.599523 0.077997 -0.038744 -391806.000000 0 1 0
11.496163 6.360265 -19.728437 23.702868 0.505336 2.554081 0.062371 -0.041087 -341395.000000 0 1 0
11.215163 6.602065 -18.371237 22.513763 0.532049 2.525254 0.059486 -0.028359 -483412.000000 0 1 0
11.397863 7.916065 -17.892637 22.643362 0.607040 2.481921 0.053786 -0.023762 383131.000000 0 1 0
12.911063 8.255065 -17.712737 23.421843 0.568873 2.428357 0.042221 -0.017704 300240.000000 0 1 0
13.441163 7.638265 -16.563737 22.657567 0.516765 2.390651 0.050749 -0.016637 -65534.300000 0 1 0
14.768063 8.049665 -16.366937 23.468477 0.499052 2.342561 0.037302 -0.008378 -457928.000000 0 1 0
15.351363 7.556965 -15.032737 22.776199 0.457442 2.291641 0.053559 -0.019496 -94775.300000 0 1 0
16.619563 8.115765 -14.745237 23.653700 0.454265 2.243854 0.041132 -0.024590 407744.000000 0 1 0
16.890463 7.983565 -13.382737 22.980921 0.441543 2.192402 0.031671 -0.027375 -11112.000000 0 1 0
17.538263 9.261365 -12.869937 23.643156 0.485848 2.146400 0.066832 -0.026941 -8181.790000 0 1 0
16.587663 10.319965 -12.916337 23.419736 0.556545 2.154976 0.075788 -0.021950 582042.000000 0 1 0
17.101663 11.556565 -12.422637 24.090309 0.594269 2.112585 0.102304 -0.038480 -341866.000000 0 1 0
16.157563 12.739465 -12.622637 24.139010 0.667660 2.121063 0.112336 -0.020473 40317.100000 0 1 0
15.013363 12.800265 -11.758237 22.967455 0.705997 2.108252 0.097081 -0.007504 664614.000000 0 1 0
15.171763 13.634465 -10.634937 23.003976 0.732082 2.051393 0.074454 -0.014204 -289775.000000 0 1 0
14.824063 15.093765 -11.022937 23.855392 0.794413 2.051128 0.077813 -0.013498 9501.190000 0 1 0
13.473863 15.470765 -10.827637 23.197571 0.854279 2.056417 0.081772 -0.015977 169715.000000 0 1 0
13.311363 16.861965 -10.806237 24.047724 0.902533 2.036852 0.089514 -0.013192 274282.000000 0 1 0
12.098863 17.290165 -9.945537 23.329081 0.960235 2.011211 0.079202 -0.014641 138322.000000 0 1 0
12.324863 16.893265 -8.579837 22.603059 0.940497 1.960147 0.066673 -0.020052 337346.000000 0 1 0
11.408363 17.460465 -7.653237 22.216900 0.992047 1.922479 0.052393 -0.009171 -65641.200000 0 1 0
11.799463 17.154565 -6.171237 21.716137 0.968283 1.858945 0.046110 -0.016340 200448.000000 0 1 0
12.822963 18.054565 -5.805737 22.893281 0.953235 1.827196 0.059656 -0.016223 293772.000000 0 1 0
13.476163 17.649265 -4.601337 22.677651 0.918677 1.775117 0.064092 -0.022140 49730.400000 0 1 0
14.580963 18.558965 -4.011637 23.940194 0.904863 1.739160 0.066956 -0.030255 62268.700000 0 1 0
15.830363 18.444265 -4.655937 24.748112 0.861514 1.760057 0.083964 -0.035742 147962.000000 0 1 0
16.590063 19.626465 -4.486137 26.087425 0.869043 1.743621 0.065635 -0.031683 -329102.000000 0 0 1
17.948063 19.655765 -5.179837 27.116652 0.830780 1.762998 0.071424 -0.025946 69634.300000 0 0 1
19.050763 18.951665 -4.607037 27.263932 0.782791 1.740590 0.084857 -0.038109 475184.000000 0 0 1
19.179963 17.636865 -5.148937 26.560150 0.743510 1.765891 0.092083 -0.039801 -692469.000000 0 0 1
20.303363 16.803765 -4.552937 26.745510 0.691366 1.741861 0.097153 -0.041686 649419.000000 0 0 1
21.611763 17.174565 -5.060237 28.064925 0.671492 1.752093 0.094925 -0.041515 1103810.000000 0 0 1
22.596063 16.449965 -4.353937 28.286749 0.629273 1.725332 0.103676 -0.040686 -169457.000000 0 0 1
24.073363 16.764265 -4.639637 29.700061 0.608294 1.727655 0.094716 -0.033000 -11610.900000 0 0 1
24.556963 18.005765 -4.120137 30.728286 0.632678 1.705284 0.095180 -0.034934 -423035.000000 0 0 1
25.928563 17.876465 -3.924937 31.737415 0.603611 1.694783 0.078783 -0.023716 -420266.000000 0 0 1
26.629963 19.101365 -3.198937 32.927956 0.622235 1.668099 0.095882 -0.022971 134828.000000 0 0 1
26.606463 20.284465 -3.966537 33.691198 0.651383 1.688802 0.093560 -0.019749 202124.000000 0 0 1
26.901863 21.469865 -3.254437 34.572485 0.673570 1.665070 0.105576 -0.010149 -216188.000000 0 0 1
26.738463 22.774665 -4.123237 35.364274 0.705513 1.687655 0.074666 -0.003241 -57732.800000 0 0 1
27.685863 23.094265 -5.138637 36.417821 0.695222 1.712371 0.063655 0.006221 249116.000000 0 0 1
28.086163 22.204965 -6.203137 36.336923 0.668984 1.742348 0.066274 0.006299 -135019.000000 0 0 1
29.197963 22.728065 -7.103937 37.676941 0.661439 1.760480 0.049773 0.008737 -220933.000000 0 0 1
28.745763 23.772165 -7.967237 38.143304 0.690977 1.781222 0.027080 0.011106 413903.000000 0 0 1
29.805163 24.600665 -8.417237 39.552375 0.690028 1.785249 0.012461 0.010191 519928.000000 0 0 1
30.886363 24.116765 -9.443037 40.308271 0.662937 1.807264 0.021342 0.004765 499208.000000 0 0 1
30.314963 23.793965 -10.690737 39.993020 0.665460 1.841402 0.021355 0.012668 134402.000000 0 0 1
31.372863 23.696465 -11.610137 40.994808 0.646895 1.857936 0.022579 0.009468 45069.000000 0 0 1
31.151163 22.709165 -12.790637 40.616518 0.629924 1.891160 0.009961 0.006609 52963.800000 0 0 1
30.574863 23.343565 -13.928737 40.911539 0.652078 1.918202 0.034642 0.011611 118019.000000 0 0 1
30.345663 22.476065 -14.978337 40.624911 0.637502 1.948405 0.043144 0.007887 -11969.500000 0 0 1
30.368963 23.014765 -16.407537 41.486873 0.648499 1.977395 0.047477 0.002115 408434.000000 0 0 1
31.600863 23.642765 -16.780237 42.885560 0.642328 1.972818 0.038827 0.011513 434910.000000 0 0 1
31.540163 24.261465 -18.060437 43.698741 0.655692 1.996865 0.048906 0.002557 58242.300000 0 0 1
32.893763 24.985465 -18.282737 45.172244 0.649605 1.987484 0.031605 0.001161 371768.000000 0 0 1
33.935863 23.995265 -18.276337 45.403084 0.615460 1.985081 0.035068 0.009276 231327.000000 0 0 1
35.175963 24.677565 -18.535537 46.796333 0.611763 1.978050 0.042636 0.001395 422568.000000 0 0 1
36.269963 23.618065 -18.833837 47.202083 0.577200 1.981227 0.045325 -0.012652 -269497.000000 0 0 1
36.126463 22.885565 -20.001337 47.211481 0.564677 2.008272 0.032630 -0.003367 593082.000000 0 0 1
-35.666617 23.004165 -20.879337 47.299534 -0.572836 2.027986 0.035600 0.000504 433294.000000 0 0 1
-35.396617 21.968865 -22.010437 47.116991 -0.555464 2.056855 0.049434 -0.002482 -43102.500000 0 0 1
-34.948117 20.702365 -21.554737 45.984405 -0.534793 2.058660 0.034277 -0.006417 177258.000000 0 0 1
-34.627917 19.950665 -22.698337 45.960159 -0.522694 2.087331 0.024134 0.002026 13996.900000 0 0 1
-34.410817 18.427165 -22.392637 45.001055 -0.491647 2.091629 0.009759 0.010158 205890.000000 0 0 1
-35.550417 17.630865 -22.099737 45.421118 -0.460394 2.078935 0.028779 -0.011662 165019.000000 0 0 1
-35.288717 16.319365 -22.454837 44.898050 -0.433161 2.094545 0.012352 -0.007732 -185618.000000 0 0 1
36.384063 15.430165 -22.468337 45.461151 0.401101 2.087747 0.019864 -0.015671 -56316.800000 0 0 1
35.370663 15.688365 -23.446637 45.243269 0.417470 2.115582 0.074432 -0.025642 -458699.000000 0 0 1
34.305263 14.856665 -23.204837 44.000410 0.408688 2.126308 0.095248 -0.024539 -1279050.000000 0 0 1
34.292863 13.393165 -23.670237 43.768224 0.372336 2.142195 0.056133 -0.028319 -1336250.000000 0 0 1
34.177363 13.261565 -25.079017 44.417546 0.370138 2.170769 0.070208 -0.020898 148112.000000 0 0 1
34.615563 12.039365 -25.598447 44.704183 0.334715 2.180493 0.049604 -0.017834 -123474.000000 0 0 1
34.753563 12.085965 -27.148397 45.726537 0.334680 2.206460 0.070250 -0.015326 694051.000000 0 0 1
33.451863 11.998365 -27.756767 45.093525 0.344383 2.233864 0.086447 -0.019482 883524.000000 0 0 1
33.015263 13.201965 -28.405837 45.510340 0.380398 2.244855 0.088201 -0.013138 -94486.700000 0 0 1
33.459063 13.438765 -29.908037 46.846558 0.381926 2.263247 0.082553 -0.015196 471691.000000 0 0 1
34.788663 13.942665 -30.090837 48.063577 0.381180 2.247291 0.085025 -0.012881 628636.000000 0 0 1
35.224763 13.724765 -31.422627 49.158261 0.371538 2.264272 0.069743 -0.013995 -522035.000000 0 0 1
-36.193317 13.999465 -31.649867 50.076494 -0.369073 2.254967 0.062238 -0.016673 450517.000000 0 0 1
-35.367617 12.933065 -31.170617 48.884966 -0.350571 2.262217 0.046974 -0.014653 212040.000000 0 0 1
-35.232117 12.882165 -29.763947 47.886791 -0.350537 2.241514 0.030919 -0.017006 -942011.000000 0 0 1
-34.057817 11.993165 -29.261497 46.475866 -0.338581 2.251843 0.025153 -0.016437 290771.000000 0 0 1
-34.360217 10.624465 -29.481207 46.504251 -0.299883 2.257442 0.024019 -0.023623 1222330.000000 0 0 1
-33.173317 9.809465 -29.386977 45.390406 -0.287510 2.275000 0.019971 -0.026015 662439.000000 0 0 1
-33.569017 8.387265 -29.796357 45.662326 -0.244839 2.281724 0.023985 -0.015174 -782496.000000 0 0 1
-33.728517 8.263765 -31.206687 46.687900 -0.240275 2.302866 0.018041 -0.015532 185496.000000 0 0 1
-34.166217 7.031565 -31.678527 47.120084 -0.202971 2.308099 0.022637 -0.012967 -330050.000000 0 0 1
-35.504117 6.439565 -31.117707 47.647896 -0.179425 2.282436 0.024491 -0.002760 -73248.500000 0 0 1
-35.349517 5.786865 -29.864857 46.636743 -0.162265 2.265779 0.023496 -0.014117 69224.200000 0 0 1
36.424463 5.063865 -29.544307 47.172559 0.138138 2.247598 0.029436 -0.002503 -326244.000000 0 0 1
-36.336417 4.198265 -28.300267 46.247873 -0.115029 2.229290 0.022248 0.002999 210181.000000 0 0 1
-35.451117 3.112865 -28.552757 45.625996 -0.087583 2.246953 0.020790 0.005886 561905.000000 0 0 1
-35.924017 2.053165 -27.722567 45.423465 -0.057091 2.227253 0.036023 0.007011 -132626.000000 0 0 1
-35.002117 0.836865 -27.649227 44.613095 -0.023904 2.239228 0.059929 0.001599 305765.000000 0 0 1
-33.846817 1.050265 -26.814937 43.194339 -0.031020 2.240556 0.062360 -0.005189 162556.000000 0 0 1
-32.948517 -0.015935 -26.968557 42.578258 0.000484 2.256720 0.072934 -0.006659 159688.000000 0 0 1
-31.786317 0.260265 -25.955437 41.038060 -0.008188 2.255537 0.074101 -0.006571 246984.000000 0 0 1
-32.239817 0.034365 -24.614837 40.562263 -0.001066 2.222876 0.072246 -0.004019 460310.000000 0 0 1
-31.218117 0.319465 -23.689137 39.189898 -0.010233 2.219897 0.091888 -0.001307 -30393.900000 0 0 1
-31.735517 0.097665 -22.275637 38.773142 -0.003077 2.182804 0.093194 0.008191 -183313.000000 0 0 1
-31.987217 -1.247135 -21.938937 38.807916 0.038969 2.171619 0.119975 -0.006289 307065.000000 0 0 1
-32.259717 -1.518335 -20.528937 38.267897 0.047031 2.137025 0.105394 -0.012825 1116080.000000 0 0 1
-33.760017 -1.418235 -20.018137 39.274367 0.041985 2.105632 0.087947 -0.008280 770578.000000 0 0 1
-34.623317 -2.347635 -20.582937 40.347773 0.067701 2.106142 0.088939 -0.008391 -39780.300000 0 0 1
-35.952817 -2.122635 -20.147037 41.267587 0.058971 2.080828 0.074887 -0.006477 539046.000000 0 0 1
36.113463 -3.432535 -20.050737 41.448722 -0.094764 2.075728 0.066962 -0.006595 39304.000000 0 0 1
35.576763 -4.084135 -21.194437 41.612383 -0.114297 2.105202 0.060553 0.003766 219477.000000 0 0 1
-36.388517 -4.797135 -21.915737 42.748523 0.131075 2.109084 0.055775 0.003530 -500411.000000 0 0 1
35.960763 -5.701235 -23.023437 43.078524 -0.157232 2.134657 0.054279 0.001907 -290275.000000 0 0 1
35.309963 -6.873635 -22.564837 42.464246 -0.192261 2.131030 0.053697 0.003815 253010.000000 0 0 1
34.761963 -7.716635 -23.546137 42.689121 -0.218443 2.155044 0.048116 0.008203 309186.000000 0 0 1
33.395363 -7.367935 -24.189237 41.888613 -0.217149 2.186417 0.032256 0.009680 -198596.000000 0 0 1
33.454963 -6.275335 -25.052937 42.264217 -0.185421 2.205290 0.046692 0.006191 69809.300000 0 0 1
32.147263 -5.792935 -25.281717 41.305809 -0.178287 2.229462 0.035250 0.004216 96940.900000 0 0 1
32.048963 -4.660135 -26.329957 41.738705 -0.144395 2.253417 0.077278 -0.023483 -22532.700000 0 0 1
32.069763 -5.076935 -27.671637 42.661042 -0.157006 2.276592 0.073938 -0.024922 278910.000000 0 0 1
31.606763 -4.042035 -28.502057 42.751524 -0.127195 2.300557 0.080189 -0.026107 66877.900000 0 0 1
31.407163 -4.453635 -29.987727 43.652131 -0.140864 2.328108 0.088557 -0.022741 12597.100000 0 0 1
30.808663 -3.494235 -30.785477 43.693581 -0.112935 2.352623 0.079674 -0.036351 116672.000000 0 0 1
30.120863 -4.058935 -31.910727 44.068536 -0.133948 2.380548 0.084708 -0.039445 -203795.000000 0 0 1
29.364463 -3.072335 -32.795677 44.127852 -0.104248 2.408632 0.092207 -0.032829 -714391.000000 0 0 1
28.336363 -2.235335 -32.226127 42.970565 -0.078723 2.418795 0.079000 -0.033184 653207.000000 0 0 1
27.083863 -2.791435 -31.886367 41.929323 -0.102704 2.434847 0.098074 -0.029392 -13693.400000 0 0 1
26.284763 -3.172635 -33.161117 42.433643 -0.120121 2.467833 0.090246 -0.035143 -1478940.000000 0 0 1
26.918863 -4.172635 -33.927217 43.509679 -0.153784 2.465083 0.097463 -0.039120 -406794.000000 0 0 1
26.345463 -4.393735 33.115308 42.544235 -0.165253 0.678725 0.078748 -0.023703 -425234.000000 0 0 1
27.021363 -5.565435 32.357176 42.521935 -0.203124 0.706016 0.063586 -0.036877 1206610.000000 0 0 1
28.424563 -5.440435 32.015486 43.157217 -0.189112 0.734995 0.069391 -0.029464 1192940.000000 0 0 1
28.766863 -4.613635 30.919156 42.483081 -0.159026 0.755689 0.084210 -0.030480 -648451.000000 0 0 1
29.338863 -3.212535 31.164236 42.922009 -0.109063 0.758212 0.073335 -0.032372 466236.000000 0 0 1
30.659263 -3.151935 31.726016 44.231947 -0.102445 0.770927 0.063449 -0.036038 591245.000000 0 0 1
31.163463 -1.862835 31.805556 44.567084 -0.059705 0.776093 0.052737 -0.031742 -639874.000000 0 0 1
32.618663 -1.808735 32.247146 45.903454 -0.055394 0.791893 0.037984 -0.032042 -484897.000000 0 0 1
33.531763 -2.040235 31.193536 45.842975 -0.060770 0.822429 0.042767 -0.026666 87907.500000 0 0 1
34.843463 -2.150635 31.715406 47.165232 -0.061645 0.833307 0.044808 -0.023074 16111.500000 0 0 1
35.936263 -2.572935 30.735286 47.357077 -0.071475 0.864512 0.034858 -0.014130 -207496.000000 0 0 1
36.168663 -1.762335 29.599646 46.769830 -0.048687 0.885530 0.030776 -0.007748 777482.000000 0 0 1
-35.738317 -2.410735 28.787676 45.953990 0.067353 0.893812 0.032190 -0.002976 743804.000000 0 0 1
-35.609617 -1.683335 27.441476 44.987921 0.047237 0.914768 0.039710 -0.000712 -288122.000000 0 0 1
36.308563 -1.974835 26.525116 45.008815 -0.054337 0.940565 0.030833 -0.017713 -522996.000000 0 0 1
-36.288817 -1.514035 25.268746 44.245678 0.041698 0.962950 0.054566 -0.019873 -157869.000000 0 0 1
-26.471757 14.971365 12.484863 32.875029 -0.514711 1.181252 0.048455 -0.010772 -628293.000000 0 0 1
-27.754877 14.433665 12.635763 33.739093 -0.479551 1.186924 0.046258 -0.010417 221054.000000 0 0 1
-28.697347 15.425365 13.091163 35.112080 -0.493210 1.188729 0.047558 -0.004669 453788.000000 0 0 1
-30.068957 14.779265 13.412863 36.089801 -0.456835 1.190008 0.052496 -0.004948 452913.000000 0 0 1
-30.987837 15.593365 14.120063 37.453642 -0.466212 1.184240 0.076220 -0.007882 -710312.000000 0 0 1
-32.139807 14.950065 14.504463 38.299492 -0.435387 1.182392 0.094462 -0.016475 -564333.000000 0 0 1
-33.081007 15.613865 15.534063 39.742332 -0.440989 1.169220 0.095027 -0.016210 119398.000000 0 0 1
-32.583427 15.594965 16.885263 39.874738 -0.446395 1.133538 0.081905 -0.012046 -113263.000000 0 0 1
-33.479097 16.154065 17.793763 41.211913 -0.449560 1.124350 0.103846 -0.025611 -119667.000000 0 0 1
-32.782377 16.347065 19.151463 41.336295 -0.462570 1.089071 0.114708 -0.016682 38334.100000 0 0 1
-32.202747 15.166665 19.631663 40.650299 -0.440159 1.066787 0.103241 -0.012548 458474.000000 0 0 1
-31.289767 15.386965 20.753863 40.577470 -0.457032 1.033910 0.088739 -0.009799 813594.000000 0 0 1
-31.874187 15.955365 22.099563 41.939578 -0.464106 1.015802 0.100969 -0.022927 -408057.000000 0 0 1
-32.485897 17.241465 21.960063 42.835102 -0.487934 1.032510 0.118114 -0.032051 329384.000000 0 0 1
-32.936527 17.865265 23.176363 44.058215 -0.497001 1.016859 0.133705 -0.040229 -180325.000000 0 0 1
-33.983077 17.063565 24.080063 45.009601 -0.465342 1.006291 0.115883 -0.037837 568412.000000 0 0 1
-35.233994 16.761765 23.485263 45.540627 -0.444041 1.028973 0.097467 -0.034250 429554.000000 0 0 1
-36.089887 17.872165 23.177863 46.466198 -0.459810 1.048570 0.076790 -0.034804 -448332.000000 0 0 1
35.394292 17.369365 22.969663 45.629554 0.456212 1.043274 0.045115 -0.034406 -61339.100000 0 0 1
34.728232 16.879265 24.099263 45.516307 0.452416 1.012827 0.047404 -0.033941 42448.700000 0 0 1
33.549382 16.202765 23.674863 44.142834 0.449917 1.004721 0.061200 -0.033578 375771.000000 0 0 1
33.012702 15.169365 24.703763 43.934315 0.430727 0.973646 0.035822 -0.011367 -191276.000000 0 0 1
32.401372 15.713165 25.840863 44.322711 0.451538 0.948360 0.044996 -0.018904 16230.700000 0 0 1
32.398922 14.919065 27.053163 44.767648 0.431535 0.921907 0.045886 -0.011630 73428.700000 0 0 1
31.478902 13.662365 27.120463 43.739010 0.409483 0.901987 0.051162 -0.008723 113709.000000 0 0 1
32.149192 12.600665 26.521563 43.540104 0.373542 0.915834 0.052358 -0.003591 -92867.900000 0 0 1
31.430082 11.451265 26.809363 42.868677 0.349393 0.895173 0.059527 -0.003316 -160097.000000 0 0 1
32.204282 10.110265 26.677863 43.023733 0.304198 0.901960 0.070298 -0.005916 -632082.000000 0 0 1
32.998482 9.730765 27.745563 44.197329 0.286758 0.892117 0.074549 -0.007870 -316039.000000 0 0 1
33.459772 8.405865 27.534663 44.140374 0.246129 0.897204 0.082283 -0.003682 195356.000000 0 0 1
34.599992 7.930365 28.485763 45.513612 0.225310 0.894545 0.066432 -0.003709 1276550.000000 0 0 1
35.934792 8.344865 28.108863 46.379459 0.228178 0.919695 0.070289 -0.003940 1112570.000000 0 0 1
-35.984701 7.645465 28.814163 46.729090 -0.209351 0.906352 0.071308 -0.004295 534665.000000 0 0 1
-34.610303 8.344565 28.974163 45.902145 -0.236585 0.887676 0.079080 -0.008800 675514.000000 0 0 1
-33.852637 8.476865 27.762063 44.593614 -0.245360 0.898791 0.080429 -0.005052 459305.000000 0 0 1
-32.650567 9.208165 27.900563 43.923698 -0.274882 0.882522 0.074063 -0.005230 273990.000000 0 0 1
-32.051367 9.775465 26.610863 42.790044 -0.296032 0.899638 0.071905 -0.012169 34858.600000 0 0 1
-31.487847 8.826465 25.701763 41.592927 -0.273299 0.904682 0.072461 -0.013909 406800.000000 0 0 1
-30.683407 9.555565 24.764963 40.571957 -0.301905 0.914236 0.072003 -0.007643 -150223.000000 0 0 1
-29.797267 8.637465 23.951863 39.194064 -0.282142 0.913335 0.071571 -0.005882 -225508.000000 0 0 1
-28.803717 9.399265 23.290263 38.215660 -0.315426 0.915439 0.069141 -0.012842 507140.000000 0 0 1
-27.873467 8.503565 22.633263 36.898582 -0.296108 0.910449 0.041701 -0.000699 596000.000000 0 0 1
-26.743777 9.089865 21.770863 35.662666 -0.327637 0.914147 0.044104 -0.001400 -633016.000000 0 0 1
-25.639647 9.600565 22.508163 35.442626 -0.358282 0.882711 0.050634 -0.005084 376936.000000 0 0 1
-24.595237 10.118365 21.719163 34.336992 -0.390291 0.885982 0.047660 -0.000054 192284.000000 0 0 1
-23.885737 9.326665 20.611263 32.898925 -0.372264 0.893738 0.045833 -0.006094 -924895.000000 0 0 1
-24.641937 9.181865 19.396363 32.676453 -0.356675 0.935286 0.042616 -0.010505 164165.000000 0 0 1
-23.904837 8.570465 18.386163 31.351955 -0.344249 0.944135 0.057031 -0.019371 -612092.000000 0 0 1
-23.854137 6.987365 18.420863 30.938185 -0.284949 0.933022 0.046686 -0.009440 -300607.000000 0 0 1
-22.587937 6.595665 18.951663 30.213957 -0.284101 0.892781 0.019635 -0.004189 800202.000000 0 0 1
-22.430637 5.164165 19.212163 29.981816 -0.226285 0.875264 0.007681 -0.007867 -417331.000000 0 0 1
-22.685437 4.184965 18.057963 29.295614 -0.182427 0.906627 0.025770 -0.006979 -1392450.000000 0 0 1
-24.039037 4.013865 17.802363 30.181295 -0.165447 0.939926 0.064215 -0.004625 -324725.000000 0 0 1
-24.419137 3.062265 16.828463 29.813904 -0.124753 0.971029 0.052484 -0.009824 -163686.000000 0 0 1
-24.511837 1.539265 17.295963 30.039138 -0.062714 0.957237 0.049213 -0.011521 -805711.000000 0 0 1
-23.269837 0.994765 17.653763 29.225506 -0.042723 0.922219 0.027300 -0.005188 38957.800000 0 0 1
-23.380637 -0.204435 18.399863 29.753167 0.008744 0.904070 0.038174 -0.006709 -15290.700000 0 0 1
-22.049037 -0.992535 18.582163 28.852070 0.044985 0.871016 0.037155 0.000595 207724.000000 0 0 1
-21.252937 -0.414335 19.609363 28.920341 0.019493 0.825693 0.022216 0.001662 -13414.900000 0 0 1
-20.172837 -1.257335 19.895163 28.360919 0.062248 0.793297 0.035082 0.002340 354845.000000 0 0 1
-19.041137 -0.831635 20.881363 28.271679 0.043648 0.739810 0.033170 -0.001866 620287.000000 0 0 1
-19.547437 -0.695235 22.169863 29.564987 0.035552 0.722933 0.025011 -0.007014 -55997.500000 0 0 1
-18.494037 -0.744435 23.114163 29.611621 0.040231 0.675207 0.024615 -0.006464 -205042.000000 0 0 1
-18.955437 -0.766535 24.592563 31.059464 0.040417 0.657063 0.028278 -0.007337 -76825.800000 0 0 1
-19.617137 0.365965 25.009263 31.787249 -0.018653 0.665237 0.030741 -0.014763 179638.000000 0 0 1
-21.042737 0.218865 24.936463 32.629310 -0.010401 0.700942 0.051842 -0.016698 283577.000000 0 0 1
-21.702637 1.366265 25.761063 33.712067 -0.062871 0.701074 0.046025 -0.026201 -475567.000000 0 0 1
-21.714237 2.636365 25.178663 33.353014 -0.120820 0.715273 0.039951 -0.017039 -427445.000000 0 0 1
-22.837537 2.893165 24.401463 33.546310 -0.126013 0.756276 0.037073 -0.018436 -1590490.000000 0 0 1
-22.624437 4.036665 23.331563 32.749376 -0.176563 0.777845 0.025401 -0.011886 -290678.000000 0 0 1
-21.958137 3.719665 22.103063 31.377398 -0.167805 0.789182 0.015557 -0.005412 727717.000000 0 0 1
-20.649337 3.216965 22.355463 30.602462 -0.154548 0.751725 0.017528 -0.001903 -360760.000000 0 0 1
-19.893437 2.529665 21.152863 29.147755 -0.126482 0.758728 0.014550 -0.001286 70987.200000 0 0 1
-19.433637 3.437765 20.117363 28.181426 -0.175086 0.775813 0.011532 -0.002657 322645.000000 0 0 1
-18.997337 2.608965 19.030863 27.016278 -0.136479 0.789188 0.018042 -0.008464 -104410.000000 0 0 1
-18.722237 3.372565 17.761163 26.026050 -0.178226 0.819704 0.019715 -0.007177 199256.000000 0 0 1
-17.506337 4.115265 17.697863 25.231361 -0.230881 0.793404 0.026058 -0.013751 269020.000000 0 0 1
-17.260837 4.685065 16.463263 24.308956 -0.265042 0.826777 0.039506 -0.013161 108366.000000 0 1 0
-15.765537 5.036465 16.169563 23.138127 -0.309213 0.797039 0.037501 -0.017330 189710.000000 0 1 0
-15.151737 5.851965 17.095263 23.581108 -0.368574 0.759826 0.025597 -0.020344 -145848.000000 0 1 0
-15.529237 7.222865 17.139863 24.230185 -0.435351 0.785017 0.011116 -0.027740 -684990.000000 0 1 0
-14.896137 8.065365 16.004563 23.304314 -0.496248 0.813769 -0.000674 -0.020189 -417665.000000 0 1 0
-15.369137 7.903165 14.638063 22.648251 -0.474961 0.868042 0.005152 -0.015506 1237010.000000 0 1 0
-16.755837 8.292465 14.467763 23.639780 -0.459559 0.912198 0.011020 -0.014331 932890.000000 0 1 0
-17.331437 7.534965 13.285763 23.101210 -0.410106 0.958056 0.023660 -0.017469 -372516.000000 0 1 0
-17.340737 6.161765 13.365863 22.744555 -0.341419 0.942644 0.034446 -0.014828 247447.000000 0 1 0
-18.033437 5.502665 12.318363 22.521684 -0.296163 0.992073 0.051117 -0.016742 215217.000000 0 1 0
-17.696637 4.003365 12.333763 21.938997 -0.222477 0.973772 0.048408 -0.013835 198827.000000 0 1 0
-18.267837 3.412065 13.487063 22.962076 -0.184652 0.943000 0.048822 -0.015589 246496.000000 0 1 0
-17.815537 2.043565 13.649063 22.535892 -0.114208 0.920203 0.046400 -0.017297 -408906.000000 0 1 0
-18.641337 1.208865 14.616063 23.718982 -0.064758 0.906865 0.050945 -0.016705 1780730.000000 0 1 0
-20.051137 1.206365 14.200763 24.600103 -0.060092 0.955422 0.064091 -0.010884 1926470.000000 0 1 0
-20.966237 0.613065 15.095463 25.842445 -0.029232 0.946983 0.054235 -0.016180 627724.000000 0 0 1
-22.442037 0.421965 14.595563 26.774121 -0.018800 0.994244 0.061634 -0.022613 474646.000000 0 0 1
-22.591537 -0.404535 13.477963 26.309631 0.017905 1.032956 0.083324 -0.024193 850877.000000 0 0 1
-23.966937 -0.614335 13.143563 27.341264 0.025627 1.069318 0.092154 -0.035076 426089.000000 0 0 1
-24.161937 -1.712035 12.106363 27.079407 0.070738 1.107310 0.091423 -0.032230 -103718.000000 0 0 1
-23.857037 -2.876235 12.806463 27.229330 0.119982 1.081144 0.092281 -0.017436 188608.000000 0 0 1
-23.795237 -3.995135 11.876063 26.892662 0.166345 1.113404 0.106689 -0.012910 -205080.000000 0 0 1
-23.388637 -5.355035 12.494763 27.052243 0.225079 1.090688 0.099614 -0.015923 413076.000000 0 0 1
-24.449437 -5.954835 13.246263 28.437625 0.238906 1.086257 0.087366 -0.016401 497103.000000 0 0 1
-24.343637 -7.352235 13.361763 28.726377 0.293308 1.087005 0.091851 -0.017543 -270829.000000 0 0 1
-25.137877 -7.795535 14.575763 30.085480 0.300707 1.065030 0.089471 -0.012671 -385228.000000 0 0 1
-26.499987 -7.469735 14.528663 31.130825 0.274748 1.085244 0.106605 -0.025294 -449127.000000 0 0 1
-27.088737 -7.843735 15.713563 32.283741 0.281849 1.062450 0.115498 -0.019183 -1006410.000000 0 0 1
-28.449417 -7.213735 16.029163 33.441611 0.248330 1.070919 0.117115 -0.020120 181164.000000 0 0 1
-29.560387 -7.551335 15.166363 34.071362 0.250106 1.109471 0.106756 -0.024781 1095830.000000 0 0 1
-30.104287 -8.854935 15.119463 34.832113 0.286074 1.121794 0.121265 -0.042840 -496630.000000 0 0 1
-30.501087 -9.517635 16.450463 35.937716 0.302468 1.095334 0.111842 -0.046004 -150100.000000 0 0 1
-29.373547 -9.794935 17.307363 35.472395 0.321866 1.061102 0.119119 -0.018858 733794.000000 0 0 1
-29.688647 -10.662735 18.396363 36.517610 0.344805 1.042842 0.095059 -0.018316 348457.000000 0 0 1
-28.407487 -11.106735 19.159163 36.019695 0.372706 1.009944 0.107051 -0.018794 654400.000000 0 0 1
-27.423597 -11.818635 18.394063 35.072430 0.406913 1.018716 0.101200 -0.018782 125696.000000 0 0 1
-26.284857 -11.895735 19.223863 34.669282 0.424989 0.983043 0.100913 -0.022550 -237206.000000 0 0 1
-25.212487 -12.854435 18.655963 33.896179 0.471492 0.987971 0.076790 -0.018526 -80553.800000 0 0 1
-24.709137 -12.439935 17.382263 32.671647 0.466408 1.009801 0.075234 -0.022573 237665.000000 0 0 1
-23.827037 -13.405035 16.834363 32.106361 0.512464 1.018867 0.076362 -0.023598 -274846.000000 0 0 1
-23.428837 -13.174535 15.353263 30.954829 0.512254 1.051823 0.067356 -0.015673 288853.000000 0 0 1
-22.488037 -12.100035 15.170663 29.703058 0.493634 1.034746 0.068966 -0.020763 289909.000000 0 0 1
-22.199337 -11.806835 13.833563 28.698073 0.488806 1.067817 0.075705 -0.012937 788015.000000 0 0 1
-20.871637 -11.006735 13.536363 27.203062 0.485290 1.049962 0.078708 -0.017492 156190.000000 0 0 1
-20.939937 -9.619035 13.680963 26.798797 0.430613 1.035022 0.076309 -0.011009 592520.000000 0 0 1
-19.715937 -8.900535 13.454363 25.474646 0.424050 1.014379 0.079413 -0.011936 543868.000000 0 0 1
-19.157737 -8.885735 12.009563 24.294130 0.434287 1.053721 0.071549 -0.005625 -427894.000000 0 1 0
-18.670537 -10.113335 11.545463 24.169530 0.496428 1.072777 0.056127 -0.018189 58787.900000 0 1 0
-18.534337 -10.116335 10.175863 23.439498 0.499625 1.121721 0.065085 -0.017193 -209570.000000 0 1 0
-17.752337 -11.406535 9.622863 23.191679 0.571111 1.142933 0.031791 -0.016549 1454210.000000 0 1 0
-16.329237 -11.448035 9.827463 22.232420 0.611448 1.112932 0.036969 -0.021086 1155690.000000 0 1 0
-15.780037 -11.481435 11.093163 22.447520 0.629005 1.053903 0.049151 -0.020699 -1537150.000000 0 1 0
-14.351737 -11.966035 11.025863 21.696267 0.694995 1.037712 0.047711 -0.021544 -887731.000000 0 1 0
-14.187037 -13.374435 11.014863 22.393631 0.755923 1.056555 0.051044 -0.021080 -213076.000000 0 1 0
-12.840237 -13.749035 10.937163 21.760725 0.819564 1.044181 0.058894 -0.019334 -350594.000000 0 1 0
-12.625537 -15.343435 10.904163 22.665523 0.882269 1.068898 0.065526 -0.015878 -301408.000000 0 1 0
-12.883837 -15.818235 9.605463 22.549384 0.887281 1.130758 0.053481 -0.022208 43152.800000 0 1 0
-12.371337 -17.073935 9.640063 23.184047 0.943767 1.141968 0.048956 -0.017778 105988.000000 0 1 0
-12.903937 -18.009435 8.521263 23.737381 0.949076 1.203621 0.048947 -0.010932 455081.000000 0 1 0
-12.090737 -17.845335 7.325263 22.766233 0.975311 1.243209 0.051045 -0.015204 588082.000000 0 1 0
-12.653637 -18.601135 6.247063 23.348288 0.973441 1.299937 0.049468 -0.011677 -6063.250000 0 1 0
-11.729937 -18.471035 5.036963 22.453096 1.005006 1.344538 0.047277 -0.008085 -56263.100000 0 1 0
-12.213237 -18.994635 3.811763 22.901721 0.999369 1.403578 0.060459 -0.014156 245099.000000 0 1 0
-11.229537 -18.844435 2.794663 22.113918 1.033392 1.444082 0.058862 -0.022278 384959.000000 0 1 0
-11.442437 -19.768535 1.611063 22.898032 1.046095 1.500380 0.059108 -0.022331 -5078.960000 0 1 0
-11.070437 -21.097335 1.933763 23.903798 1.087560 1.489810 0.048989 -0.026518 -97221.200000 0 1 0
-11.446037 -22.104835 0.965363 24.911190 1.093005 1.532034 0.048556 -0.028189 26172.500000 0 1 0
-10.497937 -22.254335 -0.265037 24.607567 1.130023 1.581567 0.056288 -0.026472 158186.000000 0 1 0
-10.683337 -21.340635 -1.280637 23.899716 1.106661 1.624406 0.056742 -0.033070 61974.600000 0 1 0
-11.898437 -21.598835 -2.000137 24.740311 1.067275 1.651730 0.074677 -0.026513 310129.000000 0 1 0
-12.566537 -20.268035 -2.336737 23.961874 1.015788 1.668471 0.061905 -0.030117 -160692.000000 0 1 0
-13.161137 -19.725535 -1.157037 23.741335 0.982415 1.619551 0.058287 -0.037233 225524.000000 0 1 0
-13.895237 -18.526535 -1.352037 23.197804 0.927284 1.629112 0.055052 -0.042021 8032.560000 0 1 0
26.594863 -19.982335 -4.037037 33.509373 -0.644371 1.691565 0.056054 -0.030285 -403618.000000 0 0 1
25.422463 -20.095135 -3.295937 32.572677 -0.668889 1.672157 0.059419 -0.028540 -336215.000000 0 0 1
25.390663 -21.368335 -2.637837 33.290384 -0.699587 1.650117 0.046601 -0.023669 -117397.000000 0 0 1
24.072863 -21.686435 -1.885937 32.455522 -0.733294 1.628937 0.045376 -0.019231 -385974.000000 0 0 1
23.126963 -22.195235 -2.770237 32.173888 -0.764843 1.657005 0.044075 -0.026124 -300757.000000 0 0 1
21.889263 -22.315135 -2.060137 31.326494 -0.795032 1.636607 0.042158 -0.016661 695034.000000 0 0 1
20.829763 -23.085835 -2.920637 31.230833 -0.836726 1.664451 0.043841 -0.021191 161411.000000 0 0 1
20.437163 -22.356535 -4.044637 30.558982 -0.830220 1.703541 0.043591 -0.023542 -581708.000000 0 0 1
19.500363 -23.018835 -4.825737 30.551901 -0.867960 1.729413 0.053196 -0.024371 -821747.000000 0 0 1
18.405663 -22.156635 -5.418537 29.309477 -0.877610 1.756739 0.052158 -0.011503 -1027290.000000 0 0 1
17.409763 -21.748035 -4.536337 28.225081 -0.895738 1.732216 0.055228 -0.009680 -343552.000000 0 0 1
17.712763 -20.721035 -3.625837 27.499999 -0.863510 1.703030 0.046808 -0.016551 -742754.000000 0 0 1
16.553063 -20.370535 -2.683637 26.384929 -0.888421 1.672684 0.065674 -0.003022 -225344.000000 0 0 1
16.251863 -21.239335 -1.638337 26.793964 -0.917652 1.631980 0.058186 -0.013085 452445.000000 0 0 1
15.388763 -20.515735 -0.749037 25.656782 -0.927234 1.599995 0.062687 -0.003121 235484.000000 0 0 1
14.906663 -21.084935 0.644463 25.830184 -0.955400 1.545844 0.044029 -0.004476 -101535.000000 0 0 1
14.084363 -22.197535 0.545463 26.294436 -1.005394 1.550050 0.064724 -0.010261 -638027.000000 0 0 1
13.504163 -22.505835 1.747263 26.304523 -1.030355 1.504323 0.060988 -0.009149 195982.000000 0 0 1
12.526463 -23.722635 1.636463 26.876638 -1.084970 1.509871 0.066989 -0.015063 600871.000000 0 0 1
13.302763 -24.940835 1.607663 28.312423 -1.080808 1.513983 0.043468 -0.007596 320215.000000 0 0 1
12.519563 -26.100995 1.373663 28.980827 -1.123554 1.523380 0.040219 -0.013113 -60659.300000 0 0 1
13.038063 -27.469435 1.882463 30.464809 -1.127643 1.508966 0.040789 -0.002656 -62776.100000 0 0 1
12.777963 -27.488765 3.272663 30.489651 -1.135668 1.463252 0.059954 -0.009752 141382.000000 0 0 1
13.002963 -28.710205 3.884463 31.755975 -1.145530 1.448167 0.059638 -0.013347 -210571.000000 0 0 1
12.559663 -28.682875 5.363763 31.768261 -1.158067 1.401143 0.075869 -0.012313 60831.800000 0 0 1
12.678763 -29.971185 5.932263 33.078916 -1.170594 1.390484 0.057432 -0.017767 -170402.000000 0 0 1
12.378463 -29.951085 7.303463 33.220993 -1.178886 1.349141 0.062594 -0.019888 88095.400000 0 0 1
12.587263 -31.307615 7.929663 34.662450 -1.188523 1.339984 0.043638 -0.016198 -39350.100000 0 0 1
12.309163 -31.343365 9.316063 34.938675 -1.196582 1.300891 0.047160 -0.007424 -166044.000000 0 0 1
11.472663 -32.435395 9.583163 35.714336 -1.230822 1.299139 0.046025 -0.007977 88570.400000 0 0 1
11.150463 -32.696065 11.068563 36.275040 -1.242131 1.260723 0.044045 -0.002326 141847.000000 0 0 1
12.338863 -33.182085 11.668263 37.275282 -1.214787 1.252415 0.036842 -0.002675 343167.000000 0 0 1
12.223763 -33.522595 13.078463 38.003038 -1.221137 1.219471 0.041954 -0.001540 292559.000000 0 0 1
11.118863 33.746155 13.494663 38.007079 1.252513 1.207822 0.041872 -0.008333 305593.000000 0 0 1
11.403063 32.452839 13.025663 36.781578 1.232899 1.208807 0.046841 -0.009069 -385988.000000 0 0 1
10.448463 31.493510 13.320563 35.755404 1.250457 1.189044 0.048216 -0.006902 -409165.000000 0 0 1
10.569663 30.291580 12.280963 34.352870 1.235074 1.205213 0.056386 -0.008666 -31524.900000 0 0 1
10.146263 30.551070 10.924963 33.995137 1.250149 1.243622 0.065114 -0.006700 581717.000000 0 0 1
10.989663 31.445830 10.158163 34.825295 1.234586 1.274804 0.038321 -0.005919 378414.000000 0 0 1
10.373363 31.692470 8.777963 34.482923 1.254474 1.313404 0.039907 -0.011119 318562.000000 0 0 1
9.132663 32.381252 8.773663 34.769644 1.295901 1.315702 0.039945 -0.011659 173403.000000 0 0 1
8.598163 32.632549 7.459063 34.560806 1.313167 1.353260 0.037914 -0.012760 74453.200000 0 0 1
9.265863 33.830522 6.761663 35.722269 1.303462 1.380363 0.046988 -0.007203 -481242.000000 0 0 1
8.692563 -33.288095 7.144563 35.138336 -1.315369 1.366042 0.045275 -0.009821 -279515.000000 0 0 1
9.149563 -32.180095 6.465963 34.074648 -1.293783 1.379880 0.058800 -0.017250 -324954.000000 0 0 1
8.234463 -30.942295 6.657263 32.703992 -1.310701 1.365802 0.063171 -0.013837 43627.000000 0 0 1
8.233063 -30.435865 7.999363 32.528679 -1.306614 1.322330 0.075060 -0.014523 -93050.700000 0 0 1
7.812263 -29.085545 8.063363 31.177206 -1.308393 1.309193 0.091691 -0.011253 -216712.000000 0 0 1
8.811663 -28.015415 7.595263 30.334747 -1.266064 1.317722 0.102093 -0.017313 108248.000000 0 0 1
9.719063 -27.434765 8.542363 30.333125 -1.230331 1.285316 0.098072 -0.015133 396769.000000 0 0 1
10.479963 -26.322765 8.090663 29.464833 -1.191900 1.292636 0.086660 -0.021269 -132846.000000 0 0 1
9.776263 -25.121625 7.438863 27.964406 -1.199672 1.301543 0.094362 -0.018013 -261547.000000 0 0 1
9.423963 -25.372755 6.088563 27.742717 -1.215167 1.349530 0.090758 -0.017179 -794913.000000 0 0 1
8.542163 -24.483135 5.562063 26.520350 -1.235102 1.359499 0.089293 -0.018392 -248714.000000 0 0 1
8.055063 -24.820135 4.098463 26.414400 -1.256983 1.415007 0.089884 -0.014997 477649.000000 0 0 1
7.297963 -26.029325 3.852863 27.306236 -1.297440 1.429226 0.076167 -0.016827 -21355.600000 0 0 1
7.939063 -27.248335 3.997463 28.661475 -1.287285 1.430869 0.077867 -0.011125 5829.080000 0 0 1
7.000663 -28.380665 3.454563 29.434765 -1.328954 1.453162 0.078070 -0.011382 181305.000000 0 0 1
5.923963 -28.654405 4.314063 29.576669 -1.366930 1.424414 0.064726 -0.009785 -16999.200000 0 0 1
4.859463 -29.431725 3.771363 30.067656 -1.407163 1.445036 0.056119 -0.006839 487152.000000 0 0 1
5.070363 -30.952305 3.884863 31.604523 -1.408426 1.447564 0.049391 -0.002315 375268.000000 0 0 1
6.299763 -31.483725 3.380263 32.285261 -1.373309 1.465904 0.049726 -0.006764 413283.000000 0 0 1
6.438263 -32.843585 3.780063 33.681466 -1.377223 1.458330 0.045106 -0.007722 -226630.000000 0 0 1
7.536563 -33.614825 3.070763 34.585919 -1.350240 1.481893 0.054566 -0.009890 -292603.000000 0 0 1
7.218663 -33.774505 1.691163 34.578697 -1.360233 1.521869 0.055547 -0.010238 -83425.400000 0 0 1
8.036263 33.546542 1.069163 34.512246 1.335672 1.539812 0.045294 -0.010250 -324464.000000 0 0 1
7.486063 32.908259 -0.254737 33.749956 1.347120 1.578344 0.057468 -0.005545 693197.000000 0 0 1
6.292263 32.130370 -0.197337 32.741292 1.377408 1.576824 0.046460 -0.003364 168845.000000 0 0 1
5.086763 32.885456 -0.216037 33.277245 1.417331 1.577288 0.047590 -0.013407 -260629.000000 0 0 1
3.887763 31.949860 -0.063437 32.185591 1.449708 1.572767 0.044672 -0.014188 -338767.000000 0 0 1
3.745363 31.110150 -1.199137 31.357728 1.450983 1.609046 0.048100 -0.012962 -205526.000000 0 0 1
2.918663 30.035730 -0.815037 30.188209 1.473927 1.597798 0.037798 -0.017321 120389.000000 0 0 1
2.679063 28.995390 -1.943337 29.183670 1.478662 1.637436 0.037760 -0.013118 55967.600000 0 0 1
1.970663 29.480270 -3.061737 29.704277 1.504049 1.674054 0.042855 -0.024999 -52475.400000 0 0 1
2.124963 28.639290 -4.167437 29.018820 1.496735 1.714906 0.050740 -0.028005 -157691.000000 0 0 1
1.789763 29.351120 -5.473837 29.910774 1.509894 1.754839 0.053353 -0.034670 683388.000000 0 0 1
0.453463 29.874220 -5.575437 30.393423 1.555618 1.755283 0.055788 -0.033544 756561.000000 0 0 1
0.237363 30.695590 -6.720437 31.423556 1.563064 1.786327 0.052919 -0.027508 -164668.000000 0 0 1
0.194263 29.998690 -8.157637 31.088683 1.564321 1.836304 0.055707 -0.024939 -324020.000000 0 0 1
-0.907037 29.143450 -8.478237 30.365176 -1.539683 1.853767 0.068516 -0.022758 415943.000000 0 0 1
-1.062137 28.846480 -9.866237 30.505576 -1.533993 1.900142 0.074784 -0.027692 -11699.400000 0 0 1
-1.322937 29.921430 -10.986137 31.901996 -1.526611 1.922366 0.064084 -0.030487 880692.000000 0 0 1
-0.139937 30.690690 -11.328837 32.715143 -1.566237 1.924407 0.058167 -0.019995 915941.000000 0 0 1
-0.520237 32.008610 -11.705137 34.085657 -1.554545 1.921335 0.050458 -0.027218 222627.000000 0 0 1
-0.768437 32.978865 -10.461937 34.607054 -1.547500 1.877908 0.038830 -0.028352 415251.000000 0 0 1
0.434363 33.283342 -9.772337 34.691038 1.557747 1.856358 0.032691 -0.037643 427230.000000 0 0 1
0.008863 -34.104148 -8.727137 35.203066 -1.570536 1.821317 0.029407 -0.027839 -285716.000000 0 0 1
1.064763 -33.722905 -7.716437 34.610857 -1.539233 1.795634 0.044983 -0.030465 -362335.000000 0 0 1
2.168063 -32.990525 -8.183937 34.059537 -1.505173 1.813454 0.053713 -0.025972 -460008.000000 0 0 1
3.050063 -32.681315 -7.158737 33.594921 -1.477738 1.785533 0.060337 -0.028564 519651.000000 0 0 1
4.311563 -31.788905 -7.534137 32.952803 -1.435988 1.801471 0.054196 -0.029490 1167600.000000 0 0 1
5.321063 -32.382305 -8.307437 33.851748 -1.407932 1.818735 0.068979 -0.021587 97383.700000 0 0 1
6.364163 -33.061975 -7.629337 34.522507 -1.380630 1.793632 0.086604 -0.007932 -714688.000000 0 0 1
6.797863 33.913437 -8.318437 35.574268 1.372971 1.806814 0.080988 -0.015954 207648.000000 0 0 1
5.879063 32.812160 -8.608137 34.428204 1.393504 1.823509 0.069036 -0.019387 356682.000000 0 0 1
4.756163 33.132383 -9.426537 34.774064 1.428220 1.845311 0.076295 -0.025867 -259275.000000 0 0 1
3.719463 32.074170 -9.433037 33.638802 1.455348 1.855029 0.062529 -0.038776 -515707.000000 0 0 1
4.202863 30.992640 -10.209837 32.900586 1.436010 1.886330 0.054954 -0.020409 -322299.000000 0 0 1
3.244863 29.989950 -10.261337 31.862537 1.463017 1.898691 0.047526 -0.023921 -460137.000000 0 0 1
3.559163 28.705270 -11.041737 30.960945 1.447436 1.935459 0.043454 -0.022112 -82649.500000 0 0 1
3.808763 28.984330 -12.422537 31.763462 1.440137 1.972618 0.049120 -0.018324 238786.000000 0 0 1
5.118863 28.762710 -12.938637 31.951597 1.394672 1.987715 0.038884 -0.010005 294094.000000 0 0 1
5.314663 29.239700 -14.444637 33.043203 1.390997 2.023217 0.048107 -0.013690 -407373.000000 0 0 1
4.635763 28.547030 -15.420437 32.775190 1.409811 2.060644 0.063008 -0.014800 -305057.000000 0 0 1
4.740063 29.207030 -16.629137 33.941818 1.409907 2.082807 0.077823 -0.009964 -215149.000000 0 0 1
3.822763 28.613080 -17.672837 33.847467 1.437981 2.120145 0.063895 -0.019346 30736.800000 0 0 1
4.248063 27.319670 -18.099137 33.045260 1.416537 2.150418 0.070235 -0.014151 79785.400000 0 0 1
3.261363 26.883600 -19.010437 33.087175 1.450072 2.182858 0.103728 -0.030569 299621.000000 0 0 1
3.668663 25.691070 -19.954837 32.736611 1.428956 2.226298 0.113472 -0.029939 189824.000000 0 0 1
4.037263 24.530070 -19.241237 31.436429 1.407674 2.229470 0.114870 -0.041301 -40927.800000 0 0 1
4.389763 23.445130 -20.088437 31.184763 1.385704 2.270740 0.106100 -0.022482 -14839.400000 0 0 1
4.802163 22.152470 -19.313937 29.779538 1.357322 2.276493 0.099982 -0.020896 6606.230000 0 0 1
3.803463 21.218270 -18.877737 28.653975 1.393426 2.290042 0.129270 -0.019131 -84537.400000 0 0 1
4.360063 20.046770 -18.375337 27.541535 1.356637 2.301221 0.099706 -0.009822 278220.000000 0 0 1
3.266863 19.036770 -17.906137 26.338200 1.400844 2.318360 0.094808 -0.021189 374849.000000 0 0 1
2.747463 19.210270 -16.583737 25.526523 1.428739 2.277943 0.106759 -0.022005 -29484.300000 0 0 1
1.799863 18.185370 -16.255337 24.457784 1.472144 2.297793 0.084704 -0.016794 467373.000000 0 1 0
2.339263 16.869270 -15.569537 23.074985 1.433005 2.311404 0.058338 -0.011657 -114959.000000 0 1 0
3.290763 16.063170 -16.245237 23.081644 1.368728 2.351552 0.070616 -0.017759 -224135.000000 0 1 0
2.828563 15.085070 -17.223337 23.069535 1.385441 2.413708 0.077405 -0.017121 -7788.250000 0 1 0
3.001963 15.522470 -18.719037 24.502270 1.379760 2.440242 0.075842 -0.017623 489959.000000 0 1 0
4.329363 15.302170 -19.185537 24.919563 1.295078 2.449479 0.077615 -0.020960 220216.000000 0 1 0
4.407263 15.973370 -20.446137 26.317619 1.301581 2.460522 0.078629 -0.020239 -506838.000000 0 0 1
4.733563 14.878570 -21.524137 26.590731 1.262776 2.514028 0.076656 -0.033102 44001.600000 0 0 1
3.845063 13.800270 -21.816637 26.099763 1.299066 2.560556 0.069967 -0.025110 -54693.700000 0 0 1
2.519663 14.198570 -22.075237 26.367863 1.395166 2.562944 0.070924 -0.025977 7736.300000 0 0 1
1.505063 13.073870 -22.442437 26.016423 1.456181 2.611234 0.070145 -0.024873 537498.000000 0 0 1
0.777063 12.368270 -21.403137 24.732008 1.508052 2.616749 0.069436 -0.025991 237324.000000 0 1 0
0.057363 11.351470 -22.095537 24.840933 1.565743 2.667004 0.046894 -0.017686 -297773.000000 0 1 0
-0.710237 10.473870 -21.129137 23.593364 -1.503090 2.680472 0.029907 -0.014951 -577589.000000 0 1 0
-1.844737 11.093170 -20.533237 23.411008 -1.406009 2.640537 0.031942 -0.011404 171030.000000 0 1 0
-2.527537 10.290670 -19.577737 22.261494 -1.329949 2.645489 0.024767 -0.004880 305172.000000 0 1 0
-3.474337 9.199070 -20.122437 22.396571 -1.209675 2.687047 0.030161 -0.004237 -599229.000000 0 1 0
-2.769237 8.097370 -20.694137 22.393825 -1.241273 2.749471 0.018860 -0.005566 -196564.000000 0 1 0
-3.694137 7.096770 -21.094737 22.561000 -1.090854 2.779081 0.014622 0.001172 -31338.400000 0 1 0
-3.079337 5.866270 -21.801337 22.785823 -1.087410 2.846564 0.012658 -0.007011 -36632.500000 0 1 0
-2.227437 5.014670 -21.048737 21.752189 -1.152789 2.886582 0.016269 -0.003380 134324.000000 0 1 0
-1.906337 3.808370 -21.743237 22.156402 -1.106697 2.948171 0.027768 -0.011948 -67454.300000 0 1 0
-1.051337 2.860070 -20.844537 21.066088 -1.218537 2.996435 0.028029 -0.014860 -87269.900000 0 1 0
0.332163 3.052370 -21.011737 21.234886 1.462402 2.996492 0.018514 -0.003952 -711987.000000 0 1 0
1.012563 2.313570 -20.027037 20.185641 1.158249 3.016153 0.023350 -0.012622 853561.000000 0 1 0
2.561263 2.408870 -20.301937 20.604159 0.754746 2.970105 0.019374 -0.008241 718397.000000 0 1 0
3.009963 1.730370 -21.416137 21.695737 0.521745 2.980875 0.040203 -0.010517 1319640.000000 0 1 0
4.464463 1.871170 -21.382437 21.923534 0.396884 2.918957 0.064848 -0.006210 1886340.000000 0 1 0
5.296463 0.906870 -22.313437 22.951349 0.169577 2.905272 0.071568 -0.017881 547692.000000 0 1 0
6.702363 1.098170 -22.228437 23.242871 0.162405 2.845059 0.062112 -0.019533 23167.700000 0 1 0
7.343763 0.424370 -23.263537 24.398834 0.057722 2.835337 0.058903 -0.023072 411820.000000 0 1 0
8.899063 0.371870 -23.138937 24.793992 0.041763 2.774146 0.065398 -0.027721 647459.000000 0 1 0
9.426163 1.674570 -23.377137 25.261577 0.175817 2.752894 0.053043 -0.033357 -274938.000000 0 0 1
10.812263 1.736570 -23.181337 25.637767 0.159251 2.700269 0.046135 -0.024546 -899512.000000 0 0 1
14.348563 -21.668235 22.158166 34.152276 -0.985897 0.864783 0.038486 0.002547 -247765.000000 0 0 1
13.108963 -22.308835 22.483666 34.278918 -1.039535 0.855417 0.027082 0.017134 526665.000000 0 0 1
12.009963 -21.425035 22.374566 33.224878 -1.059884 0.831960 0.017087 0.004619 374428.000000 0 0 1
11.468263 -21.034235 20.982366 31.846817 -1.071631 0.851504 0.022323 -0.010461 -865556.000000 0 0 1
12.149663 -19.955735 20.482366 31.070451 -1.023909 0.851011 0.008124 -0.010413 -142374.000000 0 0 1
11.672763 -19.587135 19.165066 29.786053 -1.033367 0.871833 0.037685 -0.011951 114871.000000 0 0 1
11.820963 -18.140235 18.720066 28.622441 -0.993267 0.857891 0.053476 -0.024996 -183935.000000 0 0 1
10.802963 -17.305435 19.230366 28.035496 -1.012735 0.814916 0.057466 -0.025175 -196739.000000 0 0 1
10.912963 -15.993035 18.765366 26.963102 -0.972010 0.801034 0.066870 -0.021346 -762362.000000 0 0 1
9.758963 -15.118935 19.155266 26.282004 -0.997606 0.754176 0.080000 -0.023825 -802547.000000 0 0 1
8.571163 -15.496735 18.494166 25.605620 -1.065580 0.763718 0.068999 -0.017744 -858576.000000 0 0 1
7.590163 -14.593335 18.901266 25.056612 -1.091189 0.716144 0.055808 -0.017022 -210246.000000 0 0 1
6.208763 -14.883735 18.248766 24.353475 -1.175593 0.723748 0.043873 -0.014766 -329666.000000 0 1 0
6.156163 -14.929135 16.793766 23.298239 -1.179681 0.765816 0.045929 -0.017659 -72158.900000 0 1 0
4.809263 -15.057035 16.395166 22.773773 -1.261635 0.767117 0.028610 -0.020869 -58328.300000 0 1 0
4.006963 -16.318035 16.672966 23.671117 -1.330006 0.789277 0.023648 -0.012231 -739135.000000 0 1 0
2.704063 -16.257835 16.132666 23.062785 -1.405981 0.796084 0.024935 -0.018625 -109645.000000 0 1 0
2.002563 -17.448535 16.483666 24.086777 -1.456527 0.817091 0.041355 -0.020684 371033.000000 0 1 0
0.481863 -17.356435 16.227266 23.765567 -1.543041 0.819200 0.042857 -0.015123 103669.000000 0 1 0
0.154563 -17.335435 14.829866 22.813726 -1.561881 0.863157 0.039681 -0.016853 841017.000000 0 1 0
-1.282237 -17.364235 14.657366 22.759594 1.497087 0.871070 0.031859 -0.013226 913534.000000 0 1 0
-1.618837 -18.009535 13.323366 22.460544 1.481149 0.935781 0.021180 -0.015990 -288790.000000 0 1 0
-2.980737 -18.324635 13.174166 22.764790 1.409546 0.953653 0.016083 -0.012248 -203505.000000 0 1 0
-3.111237 -19.517735 12.410366 23.337501 1.412721 1.010098 0.027063 -0.017117 -320790.000000 0 1 0
-4.590537 -19.852135 12.286266 23.793541 1.343554 1.028190 0.021995 -0.016032 -245137.000000 0 1 0
-5.240537 -20.438135 13.423666 25.007506 1.319794 1.004174 0.018359 -0.011762 -334991.000000 0 0 1
-6.341837 -21.162035 12.975766 25.620716 1.279633 1.039727 0.017700 -0.010302 -638222.000000 0 0 1
-7.044837 -22.126235 13.923166 27.074980 1.262552 1.030670 0.037380 -0.007281 80224.500000 0 0 1
-8.319137 -21.680135 14.363066 27.304467 1.204401 1.016866 0.045519 -0.013496 100900.000000 0 0 1
-8.899437 -22.558635 15.321566 28.685229 1.195038 1.007321 0.054178 -0.015283 -125012.000000 0 0 1
-10.358037 -22.157835 15.557166 28.987652 1.133513 1.004296 0.071790 -0.017274 -279308.000000 0 0 1
-10.468937 -20.982635 16.314566 28.566320 1.108002 0.962937 0.045629 -0.015926 -245403.000000 0 0 1
-11.694537 -20.286335 16.098366 28.415752 1.047855 0.968508 0.051429 -0.015428 234728.000000 0 0 1
-11.954837 -19.119235 17.123466 28.313889 1.011997 0.921316 0.045806 -0.013521 -699832.000000 0 0 1
-12.339237 -19.604035 18.392366 29.577932 1.009022 0.899723 0.046872 -0.012871 -125225.000000 0 0 1
-12.756237 -18.532435 19.199266 29.576756 0.967953 0.864351 0.041143 -0.009905 -91273.900000 0 0 1
-13.272737 -19.011535 20.573366 30.997861 0.961319 0.845038 0.041096 -0.018567 120822.000000 0 0 1
-14.465137 -19.758435 20.386666 31.863020 0.938850 0.876530 0.054750 -0.018301 24682.700000 0 0 1
-14.824237 -20.441635 21.565866 33.207002 0.943358 0.863952 0.056251 -0.008927 -471187.000000 0 0 1
-16.182737 -21.134235 21.530066 34.235662 0.917315 0.890687 0.061878 -0.016037 -1563460.000000 0 0 1
-16.372537 -22.156335 20.541066 34.364204 0.934401 0.930110 0.072024 -0.015952 112051.000000 0 0 1
-17.690337 -22.144035 20.029766 34.705876 0.896741 0.955588 0.060204 -0.015783 54914.100000 0 0 1
-18.719737 -22.729935 21.008266 36.172168 0.881847 0.951103 0.070636 -0.022393 -1221690.000000 0 0 1
-19.195737 -21.878735 22.055266 36.518353 0.850626 0.922348 0.072780 -0.018199 -2350.000000 0 0 1
-20.095037 -22.514735 22.932166 37.902612 0.842125 0.920994 0.062934 -0.021723 136622.000000 0 0 1
-20.833637 -21.614735 23.960766 38.410356 0.803797 0.897188 0.063721 -0.013428 113037.000000 0 0 1
-21.833937 -20.804235 23.387326 38.164171 0.761253 0.911187 0.059312 -0.004660 149895.000000 0 0 1
-21.921937 -19.707335 24.232926 38.159993 0.732250 0.882743 0.070327 -0.012430 213971.000000 0 0 1
-22.826837 -18.565835 23.690916 37.775841 0.682818 0.892914 0.062454 -0.012265 -7859.020000 0 0 1
-22.283137 -17.883635 22.579166 36.416772 0.676302 0.902027 0.076404 -0.010397 24771.100000 0 0 1
-23.261837 -16.988235 22.113966 36.314469 0.630777 0.916051 0.059501 -0.010026 -46669.300000 0 0 1
-22.955937 -16.413335 20.676766 34.984300 0.620718 0.938461 0.059101 -0.012946 -471488.000000 0 0 1
-21.782937 -15.655035 20.609266 33.827774 0.623155 0.915693 0.080015 -0.013243 -511450.000000 0 0 1
-21.538837 -15.073135 19.377866 32.659188 0.610600 0.935600 0.076472 -0.013984 684341.000000 0 0 1
-20.185337 -14.295435 19.173766 31.296015 0.616214 0.911377 0.080363 -0.025141 742850.000000 0 0 1
-20.065037 -13.925335 17.787066 30.214241 0.606694 0.941349 0.080753 -0.023278 -321872.000000 0 0 1
-19.097337 -12.980935 17.453966 28.945705 0.596988 0.923553 0.085122 -0.025554 -966753.000000 0 0 1
-18.827137 -12.932035 15.917366 27.839920 0.601868 0.962164 0.070977 -0.025741 109423.000000 0 0 1
-18.234237 -11.708935 15.412166 26.591754 0.570830 0.952578 0.063267 -0.012584 -458006.000000 0 0 1
-16.899637 -11.610035 15.794466 25.881572 0.601947 0.914409 0.063883 -0.024277 -1165170.000000 0 0 1
-16.128537 -10.469735 15.103266 24.451047 0.575773 0.904989 0.052209 -0.012479 -36748.500000 0 1 0
-16.516037 -9.203635 15.583066 24.501394 0.508396 0.881483 0.044896 -0.002605 245444.000000 0 1 0
-15.907837 -8.217235 14.769566 23.210392 0.476802 0.881060 0.015495 0.004845 -479203.000000 0 1 0
-16.241637 -6.713435 15.203866 23.238298 0.391959 0.857594 0.044874 0.008263 -96072.400000 0 1 0
-15.743337 -6.293635 16.433466 23.611889 0.380304 0.801009 0.031557 0.004027 1306240.000000 0 1 0
-14.304637 -6.124435 16.541066 22.709870 0.404530 0.754864 0.026327 0.000307 1103870.000000 0 1 0
-13.698037 -6.208635 17.970066 23.433024 0.425553 0.696848 0.031800 0.012815 -59489.300000 0 1 0
-13.783937 -7.366935 18.742766 24.404096 0.490832 0.695057 0.031510 -0.008351 228484.000000 0 1 0
-13.230737 -8.554935 18.095866 23.993742 0.573978 0.716375 0.028907 -0.006827 -364568.000000 0 1 0
-13.372837 -9.872735 19.009766 25.252225 0.635950 0.718497 0.036154 -0.009603 534326.000000 0 0 1
-14.650537 -10.360635 19.400066 26.426190 0.615532 0.746423 0.043776 -0.014676 78667.200000 0 0 1
-15.493937 -9.507135 20.103266 27.103302 0.550362 0.735154 0.051358 -0.014818 -1477960.000000 0 0 1
-16.900837 -9.998035 20.402166 28.316909 0.534198 0.766282 0.055396 -0.012978 216165.000000 0 0 1
-17.909237 -9.999635 19.376166 28.216471 0.509232 0.813861 0.067597 -0.011781 641630.000000 0 0 1
-18.276337 -8.773035 18.757166 27.619230 0.447537 0.824214 0.056820 -0.005673 -658211.000000 0 0 1
-19.396237 -8.949635 17.696466 27.739410 0.432303 0.878958 0.075274 0.001078 318381.000000 0 0 1
-20.605637 -9.126335 18.430766 29.113148 0.416938 0.885279 0.078004 -0.009413 -146405.000000 0 0 1
-21.669237 -9.322235 17.530366 29.390026 0.406272 0.931696 0.086609 -0.005858 79393.000000 0 0 1
-23.068537 -9.633735 18.109566 30.869445 0.395598 0.943880 0.085796 -0.010874 99616.000000 0 0 1
-23.602737 -8.468335 18.745366 31.307996 0.344481 0.928869 0.089147 -0.006308 32754.000000 0 0 1
-24.987937 -8.633935 18.899166 32.498004 0.332682 0.950165 0.082528 -0.008667 -430388.000000 0 0 1
-25.714887 -7.542835 19.697666 33.258800 0.285322 0.936943 0.092547 -0.013610 -182564.000000 0 0 1
-25.586837 -7.570435 21.104566 34.020588 0.287666 0.901611 0.101126 -0.023481 416031.000000 0 0 1
-26.219417 -6.419535 21.707066 34.639067 0.240115 0.893531 0.098571 -0.027048 -540131.000000 0 0 1
-26.191497 -6.322235 23.252166 35.589723 0.236854 0.858809 0.099345 -0.026826 113055.000000 0 0 1
-25.001637 -6.106835 23.984526 35.180005 0.239567 0.820623 0.083411 -0.024844 -351338.000000 0 0 1
-23.971537 -7.038335 23.890556 34.567780 0.285586 0.807756 0.090743 -0.027404 -959363.000000 0 0 1
-22.856937 -6.776535 24.877136 34.456246 0.288221 0.764119 0.081400 -0.022623 -381538.000000 0 0 1
-22.219237 -5.513735 24.692686 33.672310 0.243238 0.747599 0.061376 -0.016990 -372733.000000 0 0 1
-21.394937 -5.242835 25.745156 33.882793 0.240315 0.707745 0.074815 -0.019813 -566199.000000 0 0 1
-20.711937 -3.880435 25.625016 33.176551 0.185206 0.688211 0.054561 -0.018456 -419212.000000 0 0 1
-19.677037 -3.572735 26.509706 33.207148 0.179612 0.646307 0.057770 -0.017278 -827249.000000 0 0 1
-20.018737 -3.397335 27.891146 34.499387 0.168106 0.629277 0.063732 -0.021574 -73697.100000 0 0 1
-20.909537 -2.215335 28.316406 35.269467 0.105555 0.638721 0.065036 -0.028288 -460502.000000 0 0 1
-22.210737 -2.184235 27.839886 35.681185 0.098026 0.675747 0.060094 -0.030104 -977284.000000 0 0 1
-22.992537 -1.218235 28.504766 36.642360 0.052934 0.679450 0.061910 -0.026824 34155.200000 0 0 1
-24.362337 -1.052335 27.840826 37.010032 0.043168 0.719325 0.064181 -0.030419 -581590.000000 0 0 1
-24.258637 -0.488135 26.528386 35.951008 0.020119 0.740837 0.041621 -0.036010 865654.000000 0 0 1
-25.487307 -0.157835 25.825566 36.284812 0.006193 0.778816 0.066808 -0.033211 420643.000000 0 0 1
-26.397877 -1.252835 25.351136 36.620999 0.047424 0.806185 0.070679 -0.023816 -264843.000000 0 0 1
-27.380207 -1.718335 26.283386 37.992694 0.062676 0.806816 0.075678 -0.022979 375668.000000 0 0 1
-27.973997 -2.972035 26.000056 38.306401 0.105846 0.824752 0.076488 -0.027260 -310633.000000 0 0 1
-27.063067 -4.172835 26.046976 37.792421 0.152984 0.810396 0.084228 -0.034818 -357127.000000 0 0 1
-26.658987 -4.618235 27.320406 38.450413 0.171531 0.780537 0.073359 -0.023950 -471654.000000 0 0 1
-25.778137 -5.680635 27.220536 37.917536 0.216900 0.770033 0.081058 -0.029143 -398378.000000 0 0 1
-25.420647 -6.310835 28.613576 38.791399 0.243337 0.741248 0.065908 -0.023071 110378.000000 0 0 1
-26.548987 -6.821635 29.319736 40.137642 0.251505 0.751772 0.077405 -0.013388 299706.000000 0 0 1
-26.221837 -7.406735 30.509826 40.905915 0.275292 0.728981 0.083124 -0.008511 624833.000000 0 0 1
-27.536287 -7.948235 31.197756 42.364153 0.281008 0.743035 0.037290 -0.005964 794141.000000 0 0 1
-28.151247 -8.996835 30.482336 42.457138 0.309330 0.769936 0.023003 -0.007302 368542.000000 0 0 1
-29.465557 -9.227735 30.985726 43.743403 0.303495 0.783636 0.032422 -0.001124 610524.000000 0 0 1
-30.300117 -10.122535 30.017106 43.835938 0.322419 0.816522 0.018378 -0.021643 -26356.700000 0 0 1
-29.861017 -11.429335 30.150096 43.946994 0.365549 0.814742 0.024657 -0.024649 307519.000000 0 0 1
-30.689197 -12.324635 29.414096 44.259603 0.381881 0.843863 0.007587 -0.015653 -25823.300000 0 0 1
-29.924847 -13.478635 28.711246 43.606257 0.423200 0.852078 0.018447 -0.023285 -263843.000000 0 0 1
-29.132947 -12.923035 27.709796 42.232289 0.417509 0.855120 0.036065 -0.023597 -314896.000000 0 0 1
-28.199947 -13.853135 27.173376 41.539604 0.456621 0.857730 0.045987 -0.028267 -478439.000000 0 0 1
-27.056757 -13.052335 26.570126 40.104901 0.449473 0.846624 0.073164 -0.033834 -893330.000000 0 0 1
-26.235577 -12.287335 27.422086 39.890536 0.438006 0.812847 0.072414 -0.035678 -33576.700000 0 0 1
-26.670607 -11.012635 27.951556 40.173236 0.391588 0.801297 0.070637 -0.039854 -650187.000000 0 0 1
-26.637887 -9.712035 27.016266 39.163494 0.349617 0.809538 0.078549 -0.039023 533057.000000 0 0 1
-25.338377 -9.389035 26.499876 37.847467 0.354860 0.795153 0.093137 -0.040003 765634.000000 0 0 1
-24.784737 -10.209335 25.436396 36.952996 0.390740 0.811592 0.085048 -0.042558 76689.700000 0 0 1
-25.552497 -10.193935 24.061826 36.548842 0.379593 0.852176 0.087950 -0.036319 -192233.000000 0 0 1
-26.882967 -10.641335 24.187916 37.695984 0.376914 0.874139 0.077678 -0.035973 -169085.000000 0 0 1
-27.544197 -10.532635 22.952966 37.369209 0.365234 0.909397 0.096463 -0.026480 329577.000000 0 0 1
-28.962347 -11.165535 22.740166 38.478589 0.367961 0.938520 0.088520 -0.029752 963970.000000 0 0 1
-30.038897 -10.625735 23.496076 39.589230 0.339996 0.935400 0.081846 -0.032678 32463.300000 0 0 1
-30.009297 -10.713735 24.904996 40.442562 0.342910 0.907381 0.087040 -0.036480 -1688770.000000 0 0 1
-31.376457 -10.540535 25.494436 41.779794 0.324093 0.914471 0.028404 -0.024716 -1234940.000000 0 0 1
-31.915787 -9.201535 25.403606 41.816610 0.280695 0.917886 0.045302 -0.033658 358240.000000 0 0 1
-33.292287 -8.963035 25.703486 43.004436 0.262987 0.930175 0.035649 -0.016410 708619.000000 0 0 1
-33.648227 -9.123535 27.186656 44.210364 0.264778 0.908488 0.014859 -0.011470 -452119.000000 0 0 1
-33.737357 -10.507335 27.565096 44.815710 0.301924 0.908313 0.015780 -0.021227 -140805.000000 0 0 1
-34.144859 -10.614435 28.902386 45.977011 0.301394 0.891010 0.024712 -0.016324 -1010980.000000 0 0 1
-34.699617 -11.975035 29.192596 46.900666 0.332308 0.898947 0.032914 -0.016515 707535.000000 0 0 1
-35.993842 -12.383535 28.725906 47.687380 0.331361 0.924317 0.029526 -0.011221 675906.000000 0 0 1
35.811122 -11.721535 29.255236 47.704294 -0.316325 0.910612 0.040691 -0.008844 280084.000000 0 0 1
34.496442 -12.377335 28.667776 46.530037 -0.344493 0.906998 0.052080 -0.008136 657524.000000 0 0 1
34.314422 -12.016035 27.324046 45.480415 -0.336830 0.926311 0.049142 -0.008736 302282.000000 0 0 1
33.360512 -12.801635 26.568686 44.527527 -0.366408 0.931439 0.057095 -0.005919 447303.000000 0 0 1
33.160842 -12.385935 25.113236 43.401929 -0.357464 0.953760 0.055625 -0.015289 -185406.000000 0 0 1
32.534472 -11.165935 24.968276 42.503938 -0.330607 0.942911 0.056304 -0.026636 -160129.000000 0 0 1
32.534282 -10.621535 23.618946 41.583063 -0.315563 0.966729 0.051992 -0.028434 -399316.000000 0 0 1
32.100742 -9.196235 23.508396 40.837153 -0.279008 0.957383 0.041208 -0.000470 866341.000000 0 0 1
30.660462 -9.060435 23.505106 39.681802 -0.287331 0.936837 0.051932 -0.015170 867107.000000 0 0 1
30.293992 -7.704835 23.296236 38.984677 -0.249055 0.930324 0.045091 -0.006626 895409.000000 0 0 1
28.738422 -7.512835 23.260516 37.727857 -0.255699 0.906463 0.039103 0.003350 1115180.000000 0 0 1
28.038222 -8.170735 22.186066 36.675937 -0.283561 0.921129 0.035630 0.008417 624053.000000 0 0 1
26.673142 -7.805935 22.005866 35.449221 -0.284701 0.901070 0.032641 -0.017629 229530.000000 0 0 1
15.312563 -18.002735 25.501276 34.769068 -0.865972 0.747417 0.051987 0.008723 373940.000000 0 0 1
14.406763 -19.097235 25.754996 35.150803 -0.924492 0.748515 0.047256 0.012108 598872.000000 0 0 1
15.121963 -20.244035 26.088216 36.319274 -0.929228 0.769437 0.046902 0.003944 -449780.000000 0 0 1
14.202163 -21.547135 25.957976 36.603237 -0.988036 0.782474 0.033224 -0.002559 856791.000000 0 0 1
13.324063 -21.793735 27.055616 37.208922 -1.022058 0.756669 0.032144 -0.007072 358954.000000 0 0 1
12.215363 -20.922935 27.050806 36.314327 -1.042354 0.730401 0.038480 -0.000538 -1038060.000000 0 0 1
11.426863 -20.740235 28.345536 36.935077 -1.067223 0.695954 0.032305 0.002320 -237427.000000 0 0 1
12.078563 -20.092835 29.427126 37.624053 -1.029541 0.672710 0.030941 -0.002467 -213040.000000 0 0 1
11.186163 -19.521735 30.353736 37.783298 -1.050458 0.637874 0.026468 0.002535 107096.000000 0 0 1
10.810063 -18.048135 30.084256 36.710422 -1.031144 0.610255 0.038646 -0.002598 490018.000000 0 0 1
11.904963 -17.204835 30.467676 36.959623 -0.965490 0.601743 0.037024 0.001105 249015.000000 0 0 1
11.881563 -15.905535 29.866986 35.863552 -0.929213 0.586659 0.052213 -0.005392 -220001.000000 0 0 1
12.807263 -14.856635 30.461186 36.230228 -0.859344 0.572098 0.057081 0.001543 -198959.000000 0 0 1
12.604763 -13.581535 29.933646 35.204563 -0.822682 0.554284 0.087564 -0.003772 -347483.000000 0 0 1
13.362863 -12.605235 30.517616 35.619979 -0.756231 0.541851 0.080293 0.001482 -535394.000000 0 0 1
13.086863 -11.169735 29.901676 34.498393 -0.706527 0.522137 0.085013 -0.013896 -60199.000000 0 0 1
13.388063 -10.852735 28.575546 33.370404 -0.681188 0.542706 0.102520 -0.011735 241402.000000 0 0 1
14.767563 -10.850835 28.248676 33.672083 -0.633686 0.575474 0.082122 -0.007302 -33245.400000 0 0 1
15.018063 -9.959335 26.976426 32.441611 -0.585569 0.588926 0.071837 -0.009105 53212.100000 0 0 1
15.096063 -8.535935 27.209466 32.266210 -0.514621 0.567438 0.076343 -0.012180 1281620.000000 0 0 1
16.434063 -8.133935 27.602586 33.138226 -0.459594 0.586373 0.073842 -0.017092 469137.000000 0 0 1
16.863563 -6.696335 27.463286 32.915843 -0.377994 0.583846 0.066646 -0.016816 -35312.200000 0 0 1
18.263463 -6.566235 27.642166 33.775121 -0.345138 0.612144 0.053277 -0.020609 137954.000000 0 0 1
18.702663 -5.227335 27.432996 33.610770 -0.272542 0.615999 0.059878 -0.018916 139188.000000 0 0 1
20.232563 -5.121435 27.212106 34.294087 -0.247921 0.654270 0.066539 -0.020162 -576346.000000 0 0 1
20.682263 -5.943935 26.155416 33.870225 -0.279851 0.688461 0.069905 -0.012897 94734.700000 0 0 1
22.053763 -5.951335 25.859376 34.503538 -0.263577 0.723535 0.065145 -0.009420 211178.000000 0 0 1
23.178363 -6.178135 26.921966 36.058260 -0.260491 0.727823 0.061835 -0.020119 -493810.000000 0 0 1
23.470863 -4.970935 27.598336 36.568562 -0.208708 0.715598 0.080272 -0.027879 205609.000000 0 0 1
24.358463 -5.206935 28.695506 37.998407 -0.210593 0.714873 0.086111 -0.037037 271478.000000 0 0 1
24.993463 -3.824635 29.147656 38.586096 -0.151847 0.714543 0.099185 -0.032376 161740.000000 0 0 1
25.882663 -3.279235 28.182746 38.404853 -0.126025 0.746849 0.081869 -0.028905 172342.000000 0 0 1
26.316963 -2.015935 28.562396 38.890320 -0.076453 0.745963 0.066359 -0.032759 -355771.000000 0 0 1
27.353763 -1.354835 27.635086 38.907093 -0.049490 0.780895 0.065196 -0.029563 436997.000000 0 0 1
28.688363 -1.689835 27.998416 40.122176 -0.058835 0.798434 0.077803 -0.030561 17862.300000 0 0 1
29.593663 -1.477335 26.937866 40.045175 -0.049879 0.832962 0.062693 -0.021133 284098.000000 0 0 1
31.069563 -1.328635 27.401306 41.447733 -0.042737 0.848506 0.039444 -0.015808 289460.000000 0 0 1
31.252563 -0.106235 28.134536 42.050994 -0.003399 0.837856 0.021662 -0.008214 333487.000000 0 0 1
32.471063 -0.163035 28.881746 43.457470 -0.005021 0.843841 0.030041 -0.012084 467630.000000 0 0 1
32.592263 1.027565 29.818506 44.186590 0.031517 0.830060 0.031235 -0.022569 -166669.000000 0 0 1
32.798263 2.278265 29.140726 43.932885 0.069352 0.845575 0.026680 -0.016494 173546.000000 0 0 1
32.977363 3.423365 29.953696 44.681649 0.103439 0.836075 0.024955 -0.016310 -372147.000000 0 0 1
32.881463 4.743765 29.198776 44.229655 0.143280 0.849761 0.034775 -0.014001 -254775.000000 0 0 1
32.943063 5.859965 30.075426 44.990175 0.176040 0.838621 0.037487 -0.006533 352149.000000 0 0 1
31.691363 6.157565 30.677286 44.534862 0.191907 0.810912 0.043273 -0.000103 -54999.300000 0 0 1
31.905263 6.805665 32.085556 45.757467 0.210159 0.793704 0.036926 -0.000285 -160858.000000 0 0 1
32.441063 5.990765 33.094583 46.728612 0.182609 0.783809 0.034328 0.010444 161174.000000 0 0 1
32.848563 6.802965 -34.118146 47.847219 0.204214 2.364656 0.032244 0.002249 -199300.000000 0 0 1
33.558163 6.075365 -32.913977 47.396100 0.179100 2.338444 0.053020 0.004240 58030.100000 0 0 1
32.875663 5.077165 -32.118347 46.240405 0.153225 2.338653 0.036223 0.008064 368084.000000 0 0 1
32.499763 3.920265 -32.922157 46.427056 0.120044 2.359040 0.058992 -0.001445 -91776.400000 0 0 1
32.129663 2.756565 -31.979137 45.415626 0.085585 2.352013 0.058797 -0.009135 -123266.000000 0 0 1
32.215563 1.480765 -32.605337 45.860039 0.045932 2.361680 0.055466 -0.009223 -1258.050000 0 0 1
32.482163 0.450465 -31.667457 45.366526 0.013867 2.343447 0.046563 -0.019056 -94028.700000 0 0 1
32.962863 -0.860935 -32.316717 46.169923 -0.026112 2.346126 0.054287 -0.041224 219504.000000 0 0 1
34.274663 -0.726235 -32.871857 47.495673 -0.021186 2.335194 0.057318 -0.025025 601769.000000 0 0 1
35.167563 -1.803035 -32.586277 47.977848 -0.051225 2.317461 0.073544 -0.021563 697389.000000 0 0 1
35.912963 -1.782035 -31.212967 47.614765 -0.049580 2.285682 0.068782 -0.021873 -531352.000000 0 0 1
34.975463 -1.840335 -30.128607 46.199598 -0.052569 2.281200 0.064287 -0.023212 639243.000000 0 0 1
35.651163 -1.983735 -28.878627 45.922933 -0.055586 2.250869 0.076611 -0.022502 84139.900000 0 0 1
34.731163 -1.616035 -27.701307 44.454782 -0.046496 2.243540 0.085404 -0.020200 -21626.600000 0 0 1
34.458963 -0.200235 -27.597427 44.148366 -0.005811 2.246064 0.071686 -0.014640 600650.000000 0 0 1
33.545963 0.147065 -26.558697 42.786886 0.004384 2.240458 0.077066 -0.009505 100361.000000 0 0 1
33.202763 1.648365 -26.440757 42.476514 0.049605 2.242703 0.066587 -0.006402 -182011.000000 0 0 1
32.348263 1.958465 -27.505177 42.506240 0.060469 2.274552 0.079170 -0.021041 612579.000000 0 0 1
31.437563 3.048865 -27.198657 41.681925 0.096679 2.281713 0.060196 0.001754 364998.000000 0 0 1
30.724863 3.465465 -28.473087 42.032646 0.112316 2.315024 0.071525 0.001996 -279750.000000 0 0 1
29.614563 4.273465 -28.136587 41.072526 0.143314 2.325464 0.073350 -0.001210 120902.000000 0 0 1
28.909263 4.563865 -29.345307 41.445403 0.156576 2.357526 0.070952 -0.004128 681672.000000 0 0 1
27.628863 5.449365 -29.166677 40.543122 0.194735 2.373733 0.066025 -0.010305 685993.000000 0 0 1
26.582463 4.977265 -28.341127 39.174226 0.185095 2.379603 0.074511 -0.009358 633770.000000 0 0 1
25.787863 5.980165 -27.715537 38.326587 0.227871 2.379136 0.081323 -0.011245 63120.400000 0 0 1
24.340163 5.575865 -27.389487 37.063699 0.225195 2.402358 0.069429 -0.005469 -5296.820000 0 0 1
23.553763 5.135065 -28.482197 37.314665 0.214656 2.439199 0.071110 -0.010939 -249935.000000 0 0 1
22.275263 4.746465 -28.065957 36.144353 0.209943 2.459883 0.070435 -0.009295 25169.500000 0 0 1
21.386863 4.440965 -29.336207 36.575034 0.204740 2.501571 0.060790 -0.007623 16283.400000 0 0 1
21.670263 3.182565 -29.901027 37.064814 0.145821 2.509381 0.056261 -0.007809 -78222.300000 0 0 1
20.896163 2.723565 -30.998197 37.482738 0.129607 2.544545 0.036711 -0.008931 -80712.800000 0 0 1
21.262963 3.375965 -32.354287 38.862715 0.157458 2.554451 0.045349 -0.004723 -195113.000000 0 0 1
22.448063 3.029565 -33.007807 40.032601 0.134148 2.540155 0.034715 -0.005713 -422162.000000 0 0 1
22.321763 3.352365 33.962307 40.779133 0.149070 0.586586 0.045202 -0.008719 290577.000000 0 0 1
23.599463 3.054165 33.112759 40.776431 0.128701 0.623129 0.038167 0.002653 413729.000000 0 0 1
23.915663 1.662065 33.166187 40.923311 0.069385 0.625881 0.060116 -0.008536 877527.000000 0 0 1
25.301463 1.391765 32.878067 41.509858 0.054952 0.656629 0.065103 -0.013132 611714.000000 0 0 1
25.520863 -0.178235 32.770668 41.536284 -0.006984 0.661674 0.065802 -0.013744 -322726.000000 0 0 1
24.985663 -0.943535 31.650616 40.335283 -0.037745 0.668604 0.077376 -0.016002 811529.000000 0 0 1
23.580763 -0.874835 31.416946 39.291757 -0.037082 0.644199 0.077372 -0.021505 111529.000000 0 0 1
22.726863 -1.776835 32.293324 39.528802 -0.078023 0.614682 0.067944 -0.025611 -765122.000000 0 0 1
22.857263 -3.150535 31.933096 39.396738 -0.136972 0.625703 0.087240 -0.035248 512310.000000 0 0 1
22.252663 -4.021035 32.949271 39.962534 -0.178770 0.601471 0.079474 -0.023859 206289.000000 0 0 1
22.190763 -5.507035 32.498676 39.735643 -0.243254 0.613093 0.082030 -0.020349 551931.000000 0 0 1
23.460163 -6.142535 32.329482 40.414173 -0.256080 0.643578 0.086166 -0.021782 588469.000000 0 0 1
23.214163 -7.467835 31.922306 40.170879 -0.311238 0.652344 0.075047 -0.025903 790516.000000 0 0 1
24.561963 -8.276135 31.630856 40.893709 -0.325001 0.686468 0.075784 -0.027842 1100870.000000 0 0 1
25.269963 -7.732435 30.526556 40.376134 -0.296946 0.713533 0.076684 -0.026672 148320.000000 0 0 1
26.441763 -8.524235 30.343366 41.140603 -0.311858 0.741357 0.066132 -0.019595 557904.000000 0 0 1
27.146463 -8.391635 28.964556 40.574567 -0.299807 0.775802 0.065907 -0.022348 125908.000000 0 0 1
26.350963 -8.985235 27.975456 39.468136 -0.328620 0.782985 0.055319 -0.018100 -40657.000000 0 0 1
26.719463 -8.568035 26.678946 38.718304 -0.310307 0.810615 0.061938 -0.013025 263198.000000 0 0 1
25.858463 -9.280435 25.583436 37.540628 -0.344576 0.821004 0.027718 -0.014715 -319715.000000 0 0 1
24.570663 -8.830635 25.329626 36.377019 -0.345022 0.800555 0.027615 -0.011992 -760294.000000 0 0 1
23.967563 -9.631535 24.333146 35.486793 -0.382106 0.815237 0.026417 -0.015300 290117.000000 0 0 1
22.573763 -9.045135 23.938816 34.124128 -0.381103 0.793266 0.022383 -0.014296 662457.000000 0 0 1
21.619563 -9.332035 24.972306 34.323584 -0.407488 0.756045 0.019443 -0.007593 -574631.000000 0 0 1
20.396563 -8.735735 24.722256 33.219313 -0.404658 0.731440 0.038318 -0.001247 -890315.000000 0 0 1
19.366363 -8.963235 25.819916 33.497218 -0.433468 0.690688 0.047828 -0.013376 -920395.000000 0 0 1
18.882563 -10.252835 26.067266 33.781269 -0.497437 0.689367 0.059602 -0.010381 -7264.290000 0 0 1
19.652663 -11.082535 26.886486 35.098901 -0.513468 0.698169 0.035396 -0.010957 -385029.000000 0 0 1
18.717563 -12.015335 27.714936 35.536363 -0.570680 0.676285 0.039823 -0.010618 560110.000000 0 0 1
17.955263 -12.905935 26.892566 34.816156 -0.623221 0.688159 0.053444 -0.011328 381558.000000 0 0 1
17.095063 -13.813135 27.559396 35.250023 -0.679611 0.673207 0.045890 -0.007505 149028.000000 0 0 1
17.787063 -15.139735 27.937426 36.415531 -0.705170 0.696356 0.053705 -0.000601 -34808.800000 0 0 1
16.831163 -16.012735 28.484776 36.757015 -0.760485 0.684163 0.055290 -0.002426 344998.000000 0 0 1
17.450863 -17.126835 29.129896 38.031722 -0.776027 0.698299 0.062606 0.002560 111304.000000 0 0 1
18.029363 -18.233335 28.204576 38.118375 -0.791023 0.737844 0.058471 0.002803 435116.000000 0 0 1
19.274163 -17.871635 27.618146 38.126771 -0.747659 0.760666 0.066435 -0.002323 452925.000000 0 0 1
19.709863 -18.661435 26.516756 37.945568 -0.758082 0.797063 0.065660 0.009083 -755147.000000 0 0 1
20.784863 -18.111135 25.635686 37.645878 -0.716766 0.821711 0.045867 -0.011869 -436677.000000 0 0 1
21.996763 -18.059235 26.388386 38.811602 -0.687412 0.823157 0.047186 -0.006472 499603.000000 0 0 1
23.062363 -17.573135 25.554786 38.648864 -0.651126 0.848374 0.037050 -0.006505 176993.000000 0 0 1
24.407963 -17.456135 26.280936 39.889257 -0.620843 0.851511 0.054410 -0.012629 -298176.000000 0 0 1
24.961963 -18.694335 26.636476 41.013163 -0.642805 0.863920 0.058364 -0.010724 668282.000000 0 0 1
26.379263 -18.581435 26.779186 41.931611 -0.613670 0.878067 0.050064 -0.011332 231738.000000 0 0 1
27.160863 -19.847635 27.052316 43.167915 -0.631063 0.893515 0.032034 -0.011926 -189008.000000 0 0 1
26.785063 -20.447235 28.293066 44.000302 -0.652011 0.872361 0.034335 -0.003576 -325655.000000 0 0 1
27.532063 -21.606735 28.534566 45.156250 -0.665394 0.886785 0.036473 -0.007199 -215358.000000 0 0 1
26.801063 -22.642635 29.392086 45.769865 -0.701491 0.873469 0.039071 -0.002824 -296067.000000 0 0 1
26.529963 -22.330935 30.728106 46.332775 -0.699670 0.845704 0.051220 -0.011343 -50919.000000 0 0 1
26.105263 -23.542335 31.348396 47.100405 -0.733822 0.842545 0.060791 -0.006819 -315594.000000 0 0 1
25.890163 -23.451635 32.877079 47.970637 -0.736017 0.815701 0.058076 -0.008462 -103552.000000 0 0 1
25.342963 -24.605935 33.375300 48.596588 -0.770644 0.813743 0.057316 -0.008826 -75382.000000 0 0 1
25.085063 -24.541435 -33.554917 48.553835 -0.774444 2.333788 0.072471 -0.007609 -298445.000000 0 0 1
24.914463 -25.948645 -32.907017 48.753814 -0.805728 2.311711 0.064188 -0.007239 358001.000000 0 0 1
23.682663 -26.579365 -33.253267 48.714586 -0.842966 2.322130 0.085619 -0.017441 187141.000000 0 0 1
23.498063 -27.075435 33.718064 49.215302 -0.856017 0.816037 0.079310 -0.017079 -1570630.000000 0 0 1
22.180763 -27.714615 33.545063 48.840120 -0.895856 0.813672 0.106803 -0.024088 -1225960.000000 0 0 1
22.198863 -29.094975 33.900231 49.885195 -0.919040 0.823627 0.096741 -0.028076 1032400.000000 0 0 1
20.841763 -29.562295 34.077803 49.695120 -0.956715 0.815180 0.127395 -0.039769 731750.000000 0 0 1
20.645463 -31.078755 -34.055077 50.516061 -0.984437 2.310601 0.094282 -0.034344 -139340.000000 0 0 1
21.122363 -31.637285 -32.826117 50.245656 -0.982119 2.282748 0.061592 -0.031697 1235440.000000 0 0 1
22.553663 -31.799845 -32.826377 50.965369 -0.953897 2.270632 0.028627 -0.009320 471273.000000 0 0 1
23.206763 -32.592685 -31.667777 51.026317 -0.952046 2.240325 0.012492 -0.010637 -117872.000000 0 0 1
24.495963 -33.162975 -31.917797 52.140012 -0.934596 2.229580 0.006142 -0.000453 414250.000000 0 0 1
24.953463 -33.817365 -30.750857 52.075951 -0.935091 2.202475 -0.000540 0.007371 -47070.100000 0 0 1
25.827663 -33.023675 -29.765067 51.415858 -0.907069 2.188186 -0.003663 0.005493 -483279.000000 0 0 1
26.296863 -33.789385 -28.680867 51.534839 -0.909454 2.161004 0.017486 0.004285 243815.000000 0 0 1
27.112163 -32.896655 -27.868487 50.930461 -0.881495 2.149796 0.019474 -0.001884 208574.000000 0 0 1
27.580863 -33.523235 -26.527677 50.874639 -0.882343 2.119325 0.032223 -0.010966 171794.000000 0 0 1
28.647163 33.859594 -26.759657 51.799723 0.868596 2.113670 0.030582 0.009485 -506078.000000 0 0 1
29.681563 -34.080937 -25.898787 52.088891 -0.854285 2.091169 0.041391 -0.004050 -290413.000000 0 0 1
-27.473797 -30.136639 8.994063 41.760265 0.831587 1.353722 0.051698 -0.013222 -169269.000000 0 0 1
-27.554937 -31.256439 9.821863 42.810145 0.848254 1.339306 0.054520 -0.014811 103822.000000 0 0 1
-26.415827 -31.475939 10.652163 42.449962 0.872583 1.317151 0.050699 -0.018259 385151.000000 0 0 1
-26.445547 -32.809439 11.431563 43.663565 0.892386 1.305899 0.050096 -0.020558 106249.000000 0 0 1
-26.494307 -33.952439 10.640963 44.361543 0.908161 1.328565 0.054610 -0.020387 127743.000000 0 0 1
-27.172437 33.347565 11.361963 44.491523 -0.887081 1.312562 0.038612 -0.019865 295455.000000 0 0 1
-26.405267 31.957765 11.187163 42.938206 -0.880250 1.307214 0.060819 -0.016824 583810.000000 0 0 1
-26.411127 31.573965 9.832663 42.321911 -0.874201 1.336323 0.080577 -0.029998 -69441.800000 0 0 1
-26.571917 30.187165 9.705063 41.370521 -0.849007 1.334001 0.093462 -0.028766 -250227.000000 0 0 1
-26.072987 29.648365 8.392163 40.364026 -0.849476 1.361357 0.080401 -0.027439 -388195.000000 0 0 1
-24.668937 29.677165 8.285963 39.470847 -0.877293 1.359297 0.069369 -0.021276 -120405.000000 0 0 1
-24.234237 29.585365 6.958463 38.871742 -0.884500 1.390815 0.060916 -0.021017 690709.000000 0 0 1
-22.787337 28.952365 6.847663 37.475228 -0.903994 1.387039 0.069581 -0.019372 924109.000000 0 0 1
-22.566737 27.595865 7.044563 36.337519 -0.885321 1.375696 0.073234 -0.019982 91633.600000 0 0 1
-22.989037 26.892565 5.888563 35.866155 -0.863495 1.405868 0.059424 -0.023290 -383869.000000 0 0 1
-23.264237 25.389065 6.264563 35.001059 -0.829043 1.390845 0.064145 -0.018879 358128.000000 0 0 1
-24.544337 25.225165 6.898863 35.865412 -0.799077 1.377236 0.074134 -0.021351 786383.000000 0 0 1
-24.768037 23.954165 7.405563 35.243440 -0.768695 1.359093 0.072105 -0.029473 -336914.000000 0 0 1
-25.444167 22.942965 6.498563 34.871430 -0.733753 1.383343 0.048575 -0.033553 -565093.000000 0 0 1
-26.666867 23.349165 5.934963 35.937851 -0.719162 1.404891 0.048735 -0.037404 -205625.000000 0 0 1
-27.036127 22.522965 4.900563 35.528181 -0.694582 1.432421 0.037539 -0.033836 -26022.800000 0 0 1
-26.938787 23.272965 3.510063 35.772192 -0.712520 1.472516 0.024396 -0.032313 110468.000000 0 0 1
-25.593427 23.642565 3.219563 34.990856 -0.745796 1.478654 0.027454 -0.028653 487546.000000 0 0 1
-25.477617 24.472365 2.079563 35.388278 -0.765276 1.511998 0.029087 -0.034997 -176810.000000 0 0 1
-24.079937 25.081965 2.180263 34.838225 -0.805778 1.508173 0.048645 -0.034510 -95484.200000 0 0 1
-23.545737 25.657865 1.013363 34.838982 -0.828298 1.541705 0.034310 -0.039217 303176.000000 0 0 1
-22.246237 26.233865 1.166663 34.416157 -0.867466 1.536891 0.051571 -0.040655 210209.000000 0 0 1
-21.697337 26.990865 -0.116637 34.630837 -0.893696 1.574164 0.060715 -0.036795 267204.000000 0 0 1
-21.211637 26.240065 -1.262637 33.764905 -0.890974 1.608200 0.050980 -0.031394 157742.000000 0 0 1
-20.138737 25.359565 -1.019437 32.399314 -0.899646 1.602266 0.055056 -0.040038 -394834.000000 0 0 1
-19.822137 24.359665 -2.134037 31.478001 -0.887741 1.638643 0.063490 -0.046149 311179.000000 0 0 1
-20.860737 23.396165 -2.260237 31.427052 -0.842624 1.642779 0.047728 -0.041500 -58636.600000 0 0 1
-20.495837 22.502665 -3.236737 30.609243 -0.832036 1.676738 0.046114 -0.036833 -382271.000000 0 0 1
-21.625837 21.824265 -4.032237 30.987648 -0.789965 1.701290 0.049188 -0.030263 -401802.000000 0 0 1
-22.082837 22.709665 -5.010537 32.070018 -0.799391 1.727676 0.033556 -0.020683 -107633.000000 0 0 1
-23.322437 22.309265 -5.553737 32.748792 -0.763199 1.741206 0.036983 -0.015940 177109.000000 0 0 1
-23.604237 22.809665 -6.991037 33.560623 -0.768281 1.780644 0.028789 -0.004878 -159854.000000 0 0 1
-23.015337 22.030565 -7.981837 32.844502 -0.763540 1.816273 0.034716 -0.007669 149773.000000 0 0 1
-22.489437 22.870165 -9.037237 33.324029 -0.793792 1.845428 0.023711 -0.012331 -18772.000000 0 0 1
-21.762637 22.214265 -10.198537 32.727605 -0.795667 1.887693 0.024013 -0.014310 -591881.000000 0 0 1
-22.621637 21.662265 -11.153837 33.247561 -0.763737 1.912909 0.017996 -0.008761 -390948.000000 0 0 1
-22.035637 21.242065 -12.365837 33.010734 -0.767063 1.954762 0.014140 -0.001389 157819.000000 0 0 1
-23.002637 20.835665 -13.571437 33.873739 -0.736007 1.983020 -0.005688 -0.009104 579713.000000 0 0 1
-23.688137 19.583965 -13.387237 33.524285 -0.690835 1.981582 0.011324 -0.001568 -224784.000000 0 0 1
-24.731837 19.492865 -14.282437 34.577790 -0.667485 1.996599 0.018772 -0.007339 -691720.000000 0 0 1
-25.417537 18.144065 -14.432437 34.402813 -0.619955 2.003705 0.053466 -0.014731 -102266.000000 0 0 1
-24.705237 17.231965 -15.214937 33.745869 -0.609048 2.038534 0.044464 -0.013478 335846.000000 0 0 1
-25.512557 16.066465 -15.259737 33.791737 -0.562006 2.039334 0.082308 -0.032001 352406.000000 0 0 1
-24.955837 15.086665 -16.274337 33.395439 -0.543747 2.079817 0.086140 -0.020661 684576.000000 0 0 1
-23.712437 14.449165 -15.952237 32.023927 -0.547266 2.092243 0.088827 -0.020009 625585.000000 0 0 1
-23.311637 13.694965 -17.072937 31.976080 -0.531158 2.134036 0.111141 -0.036478 793471.000000 0 0 1
-22.127337 12.685565 -16.762137 30.520679 -0.520554 2.152210 0.123837 -0.030584 744161.000000 0 0 1
-20.845137 13.193265 -16.478937 29.667109 -0.564273 2.159714 0.100392 -0.028888 -152238.000000 0 0 1
-19.984937 12.117965 -16.199337 28.436971 -0.545079 2.176886 0.086019 -0.037245 -1029580.000000 0 0 1
-18.724437 12.583065 -15.511037 27.377552 -0.591695 2.173122 0.080436 -0.027205 -1031950.000000 0 0 1
-17.959637 13.362965 -16.366937 27.730742 -0.639686 2.202114 0.064401 -0.016389 -390945.000000 0 0 1
-17.079337 14.243465 -15.713537 27.230412 -0.695107 2.185919 0.067030 0.003760 -52782.500000 0 0 1
-16.346837 15.192365 -16.679037 27.860677 -0.748810 2.212622 0.035408 0.010057 -53053.400000 0 0 1
-15.441637 14.665465 -17.637037 27.651132 -0.759624 2.262489 0.060961 -0.000583 13774.800000 0 0 1
-14.868137 15.763465 -18.325637 28.379171 -0.814619 2.272792 0.034585 0.002049 -124565.000000 0 0 1
-13.880037 15.358365 -19.426037 28.388479 -0.835916 2.324430 0.027536 0.003466 -246213.000000 0 0 1
-12.889137 14.550965 -18.863037 27.086429 -0.845886 2.341168 0.028594 0.007231 -510303.000000 0 0 1
-11.755937 14.416165 -19.709837 27.101763 -0.886694 2.385107 0.039910 -0.006910 261816.000000 0 0 1
-11.090237 13.044465 -19.546737 25.985118 -0.866194 2.422234 0.031077 -0.008669 -146910.000000 0 0 1
-11.644837 11.945465 -20.269937 26.251985 -0.798141 2.452982 0.044896 0.003453 -257801.000000 0 0 1
-11.051637 10.719865 -20.048837 25.278649 -0.770161 2.486700 0.022027 0.007255 -474212.000000 0 0 1
-11.555637 9.612465 -20.957837 25.790758 -0.693858 2.519414 0.034809 -0.000632 -113304.000000 0 0 1
-11.252737 9.790465 -22.317637 26.843141 -0.716021 2.552435 0.045698 -0.001594 -214600.000000 0 0 1
-11.742037 8.753565 -23.098037 27.349948 -0.640608 2.576496 0.048162 0.009063 -106047.000000 0 0 1
-11.374737 8.938265 -24.563037 28.506491 -0.666022 2.609337 0.050709 -0.009376 1542230.000000 0 0 1
-9.954237 8.709465 -24.886037 28.182556 -0.718802 2.653076 0.044971 -0.009508 1646790.000000 0 0 1
-9.810837 8.303365 -26.264027 29.240341 -0.702369 2.686481 0.030955 -0.016281 -243856.000000 0 0 1
-9.583637 9.436665 -27.324487 30.455285 -0.777671 2.684185 0.065022 -0.017640 837569.000000 0 0 1
-8.225637 9.919065 -27.347287 30.231161 -0.878458 2.701251 0.045084 -0.016472 907170.000000 0 0 1
-7.885437 10.903665 -26.372327 29.606920 -0.944675 2.669786 0.025076 -0.009461 -19839.900000 0 0 1
-6.410337 11.360265 -26.481637 29.519911 -1.057058 2.683906 0.023651 -0.006659 -144437.000000 0 0 1
-6.063137 11.991565 -27.652207 30.744168 -1.102665 2.689258 0.031223 -0.019991 936082.000000 0 0 1
-4.692037 12.438165 -27.712507 30.736074 -1.210073 2.694315 0.045060 -0.012117 835645.000000 0 0 1
-4.210937 12.661765 -29.181077 32.087187 -1.249732 2.712710 0.053614 -0.015458 -60275.500000 0 0 1
-2.885037 13.152165 -29.211817 32.165714 -1.354858 2.709679 0.066629 -0.019973 83189.000000 0 0 1
-2.283937 12.745065 -30.468657 33.105772 -1.393477 2.739752 0.071296 -0.018972 360419.000000 0 0 1
-0.748237 12.611765 -30.442817 32.960304 -1.511537 2.748218 0.080240 -0.021408 -80753.700000 0 0 1
-0.283637 11.585265 -29.545447 31.736923 -1.546319 2.767799 0.067594 -0.003577 1230500.000000 0 0 1
1.120063 11.205965 -29.572927 31.644687 1.471175 2.777734 0.073599 -0.004634 1713840.000000 0 0 1
1.645563 10.419865 -30.875137 32.627528 1.414164 2.812361 0.080076 -0.011678 -77590.700000 0 0 1
1.762163 11.319665 -31.975197 33.965472 1.416363 2.797562 0.093612 -0.024574 195522.000000 0 0 1
1.801263 10.572665 -33.164207 34.855279 1.402047 2.828817 0.093585 -0.020849 -98024.900000 0 0 1
2.066563 11.547365 33.977702 35.945744 1.393707 0.332438 0.088147 -0.023066 106327.000000 0 0 1
3.403763 11.971765 33.767520 35.988250 1.293790 0.353136 0.085040 -0.028046 59699.400000 0 0 1
3.444063 12.768665 32.607516 35.187362 1.307338 0.385308 0.084809 -0.022035 210024.000000 0 0 1
4.877663 13.155865 32.158636 35.086268 1.215748 0.411407 0.099055 -0.021338 343606.000000 0 0 1
5.496363 12.013965 31.510046 34.167651 1.141725 0.397017 0.090725 -0.024014 -53666.600000 0 0 1
6.860863 12.172065 31.225086 34.208721 1.057529 0.420753 0.088566 -0.017010 279401.000000 0 0 1
7.498263 10.766665 30.723366 33.407637 0.962468 0.403606 0.070507 -0.009794 358426.000000 0 0 1
7.015563 10.408565 29.455316 32.018307 0.977721 0.402837 0.064160 -0.018200 -72946.300000 0 0 1
7.891063 9.542265 28.803306 31.352099 0.879832 0.406009 0.066722 -0.018072 23493.800000 0 0 1
7.151263 8.724565 27.713826 29.921810 0.884176 0.386569 0.048509 -0.013669 -242127.000000 0 0 1
6.322663 7.822165 28.327156 30.059775 0.891014 0.341179 0.042062 -0.014630 -435214.000000 0 0 1
5.622663 7.046165 27.350506 28.797794 0.897291 0.318382 0.058974 -0.020883 217718.000000 0 0 1
4.975763 5.739365 27.924596 28.939274 0.856542 0.265591 0.057651 -0.036505 -348009.000000 0 0 1
5.916763 4.787865 28.288266 29.294329 0.680328 0.262837 0.042667 -0.028523 -151391.000000 0 0 1
5.480163 4.030365 29.411176 30.187635 0.634121 0.227298 0.040426 -0.028085 93923.000000 0 0 1
6.378963 2.795665 29.629926 30.437467 0.413051 0.230865 0.058969 -0.017070 166193.000000 0 0 1
6.256763 1.718765 28.735936 29.459383 0.268092 0.222075 0.056772 -0.027999 164844.000000 0 0 1
7.563463 1.227865 28.491876 29.504247 0.160938 0.262720 0.057822 -0.020971 106236.000000 0 0 1
7.595463 -0.174235 27.853066 28.870654 -0.022935 0.266291 0.050036 -0.017787 -238727.000000 0 0 1
7.404463 -1.158035 28.835706 29.793708 -0.155140 0.254277 0.041821 -0.028638 120409.000000 0 0 1
7.541963 -2.474635 28.373206 29.462583 -0.317047 0.272782 0.053713 -0.028500 -376074.000000 0 0 1
8.214863 -3.423335 29.385446 30.703544 -0.394840 0.294077 0.032682 -0.017134 520747.000000 0 0 1
9.615663 -3.367935 29.619276 31.322603 -0.336902 0.331301 0.035477 -0.021227 355382.000000 0 0 1
10.380063 -4.190535 28.750526 30.852861 -0.383701 0.371292 0.048094 -0.013210 188404.000000 0 0 1
11.895463 -4.095135 29.108536 31.710866 -0.331552 0.407951 0.034770 -0.015483 671485.000000 0 0 1
12.838263 -5.007535 28.573236 31.722645 -0.371897 0.449371 0.050002 -0.016867 448299.000000 0 0 1
12.927063 -6.237835 29.294136 32.621556 -0.449583 0.455595 0.068850 -0.014843 -45699.300000 0 0 1
12.001563 -7.450635 28.850436 32.123155 -0.555577 0.455322 0.078225 -0.010749 -232030.000000 0 0 1
10.664563 -7.241435 29.159866 31.882112 -0.596505 0.416241 0.076528 -0.011186 -1080430.000000 0 0 1
9.831063 -8.185035 28.588556 31.320123 -0.694287 0.420743 0.071541 -0.009957 -173254.000000 0 0 1
8.357363 -7.743935 28.576036 30.763677 -0.747319 0.379395 0.068612 -0.008799 -39384.300000 0 0 1
7.718763 -7.558835 29.839676 31.735178 -0.774930 0.347370 0.069552 -0.015501 714505.000000 0 0 1
6.304863 -7.422635 29.586846 31.148487 -0.866645 0.317994 0.053990 -0.013464 1176820.000000 0 0 1
5.554463 -6.832035 30.861186 32.092702 -0.888177 0.277927 0.049536 -0.014515 178840.000000 0 0 1
5.292963 -7.634835 31.993196 33.314722 -0.964605 0.282606 0.051024 -0.009758 193841.000000 0 0 1
4.741663 -6.947335 33.143245 34.193910 -0.971902 0.248537 0.059537 -0.013970 293174.000000 0 0 1
5.703063 -5.914035 33.816090 34.799837 -0.803557 0.238340 0.062022 -0.017031 4483.490000 0 0 1
5.724563 -4.748335 33.040240 33.867015 -0.692452 0.221415 0.063953 -0.012638 -330528.000000 0 0 1
6.503863 -3.713735 33.587817 34.412694 -0.518826 0.219392 0.061702 -0.014051 -281115.000000 0 0 1
6.573263 -2.481435 32.698523 33.444860 -0.360964 0.211655 0.046303 -0.016062 -683139.000000 0 0 1
5.351063 -1.891835 32.408889 32.902112 -0.339828 0.173368 0.060508 -0.023304 -893956.000000 0 0 1
5.424463 -0.732635 31.618986 32.089279 -0.134249 0.171416 0.055112 -0.019594 573948.000000 0 0 1
4.052563 -0.115835 31.166856 31.429438 -0.028575 0.129355 0.067367 -0.026544 867819.000000 0 0 1
3.164163 0.273765 32.208926 32.365132 0.086306 0.098288 0.073715 -0.029104 -149011.000000 0 0 1
1.986863 0.871665 31.732336 31.806423 0.413429 0.068268 0.089280 -0.028889 -624466.000000 0 0 1
0.920263 1.042265 32.774840 32.804318 0.847484 0.042397 0.093409 -0.035245 -571346.000000 0 0 1
1.312263 1.991165 33.761458 33.845573 0.988090 0.070517 0.076868 -0.027493 661172.000000 0 0 1
0.474363 1.902465 -33.372887 33.430435 1.326438 3.082908 0.067602 -0.024620 178565.000000 0 0 1
1.084863 2.766965 -32.289227 32.425719 1.197139 3.049807 0.059535 -0.018568 -257066.000000 0 0 1
2.356863 2.421465 -31.833907 32.012747 0.798917 3.035841 0.046777 -0.015610 -372014.000000 0 0 1
2.953563 3.494865 -31.157537 31.491741 0.869145 2.995776 0.035821 -0.007201 -231259.000000 0 0 1
4.081663 3.060465 -30.219137 30.646740 0.643379 2.974349 0.042599 -0.004820 85984.000000 0 0 1
3.532363 2.320665 -29.086917 29.392377 0.581261 2.997298 0.047435 -0.012546 264798.000000 0 0 1
4.487063 2.315065 -28.080397 28.530720 0.476320 2.963686 0.059751 -0.022017 -383191.000000 0 0 1
4.047063 1.570865 -26.775937 27.125581 0.370249 2.980859 0.057319 -0.026945 7865.810000 0 0 1
3.924163 0.192465 -26.735077 27.022221 0.049007 2.995681 0.069508 -0.027400 293751.000000 0 0 1
3.345363 -0.313035 -25.509867 25.730192 -0.093301 3.010634 0.070119 -0.031169 35322.500000 0 0 1
3.968863 -1.686735 -25.223367 25.589357 -0.401864 2.972261 0.072092 -0.035782 35220.300000 0 0 1
5.287563 -1.702035 -24.737737 25.353715 -0.311420 2.920711 0.060842 -0.038382 -229930.000000 0 0 1
5.753263 -3.074635 -24.746937 25.592271 -0.490800 2.883855 0.062328 -0.042430 -659145.000000 0 0 1
7.146563 -3.427435 -24.266937 25.528512 -0.447188 2.825901 0.066138 -0.045993 -207989.000000 0 0 1
8.159963 -2.947935 -25.151377 26.605772 -0.346678 2.809418 0.053954 -0.031076 82409.300000 0 0 1
9.407063 -3.511635 -24.750837 26.710080 -0.357277 2.756192 0.049136 -0.028833 402127.000000 0 0 1
-29.712667 -3.896235 17.567266 34.736610 0.130386 1.040571 0.121093 -0.024838 229818.000000 0 0 1
-31.115817 -3.805335 17.694866 35.996985 0.121692 1.056910 0.140756 -0.020428 -72718.300000 0 0 1
-31.628057 -4.880435 18.505266 36.967519 0.153100 1.046526 0.141110 -0.025932 1039220.000000 0 0 1
-33.139677 -4.695935 18.919766 38.447985 0.140764 1.056310 0.126669 -0.022500 832156.000000 0 0 1
-33.980277 -4.881835 17.811866 38.674980 0.142690 1.092179 0.111104 -0.023394 -264478.000000 0 0 1
-35.324532 -4.714635 18.188366 40.010836 0.132682 1.098889 0.092252 -0.012405 -391736.000000 0 0 1
-36.374257 -4.739935 17.064366 40.456719 0.129580 1.135374 0.069766 -0.013853 812078.000000 0 0 1
35.247652 -4.867735 17.664466 39.725624 -0.137233 1.110000 0.050777 -0.004958 1149560.000000 0 0 1
34.241682 -4.989735 16.624366 38.389579 -0.144703 1.122930 0.030361 -0.009058 1021310.000000 0 0 1
32.909502 -5.597335 17.141866 37.526112 -0.168470 1.096404 0.024994 -0.004686 737646.000000 0 0 1
32.080602 -4.806935 18.036666 37.115940 -0.148733 1.063341 0.039381 -0.002804 45070.300000 0 0 1
31.063952 -5.609335 18.511766 36.593978 -0.178649 1.040407 0.047001 -0.009397 -948858.000000 0 0 1
30.251872 -5.066135 19.679366 36.443366 -0.165925 1.000361 0.045803 0.000010 608313.000000 0 0 1
29.331092 -3.994235 19.270066 35.321414 -0.135345 0.993735 0.053662 -0.003277 997073.000000 0 0 1
29.973802 -2.720135 19.341166 35.775811 -0.090502 0.999621 0.060737 -0.009742 -59151.800000 0 0 1
29.008952 -1.564835 19.668266 35.082883 -0.053891 0.975659 0.063665 -0.001839 69696.000000 0 0 1
29.579972 -0.253035 19.451566 35.403421 -0.008554 0.989119 0.063466 -0.005554 139825.000000 0 0 1
28.731132 0.753165 19.958666 34.991335 0.026208 0.963817 0.065824 -0.006741 139774.000000 0 0 1
29.106892 2.158865 19.437666 35.067003 0.074035 0.983274 0.048998 -0.005557 22580.800000 0 0 1
28.962332 2.301865 18.047266 34.202618 0.079311 1.014956 0.044345 -0.005089 45962.500000 0 0 1
28.667142 3.626465 17.629566 33.849046 0.125834 1.022975 0.034963 0.000707 170353.000000 0 0 1
28.319582 3.608465 16.095566 32.773267 0.126737 1.057423 0.036266 -0.004247 -8494.650000 0 0 1
28.152952 4.882865 15.425366 32.471110 0.171732 1.075777 0.035499 -0.000261 342250.000000 0 0 1
27.724442 4.676965 14.090066 31.449144 0.167121 1.106239 0.030810 -0.001562 -226812.000000 0 0 1
27.420842 5.849965 13.214166 30.995788 0.210189 1.130374 0.032504 0.000184 559292.000000 0 0 1
26.227842 6.534465 13.635366 30.274117 0.244171 1.103587 0.040360 -0.001150 512138.000000 0 0 1
25.747142 7.553665 12.743966 29.704913 0.285371 1.127390 0.048166 -0.021148 -806700.000000 0 0 1
24.535242 8.245965 13.390566 29.142431 0.324226 1.093379 0.059746 -0.023386 -624796.000000 0 0 1
23.320742 7.573165 13.403766 27.944065 0.313996 1.070524 0.058955 -0.010061 -201641.000000 0 0 1
23.236742 6.271665 13.986366 27.836997 0.263621 1.044380 0.074859 -0.003919 -1450250.000000 0 0 1
21.916642 5.509965 13.764866 26.460734 0.246301 1.023712 0.086515 -0.009626 -330394.000000 0 0 1
21.505342 5.407265 12.438266 25.424963 0.246332 1.059607 0.108222 -0.022107 -124728.000000 0 0 1
20.411042 4.561865 12.360966 24.294336 0.219886 1.037006 0.112034 -0.018803 -673062.000000 0 1 0
19.897442 4.398565 10.874366 23.097780 0.217563 1.080602 0.114832 -0.020753 -103243.000000 0 1 0
20.857842 3.877465 9.964366 23.438705 0.183801 1.131697 0.118379 -0.025934 507127.000000 0 1 0
20.412542 3.711265 8.633966 22.471999 0.179848 1.176444 0.129228 -0.029481 -559349.000000 0 1 0
21.475542 3.083165 7.761766 23.042349 0.142592 1.227229 0.115443 -0.023961 -1215790.000000 0 1 0
21.726742 1.737365 8.158566 23.272988 0.079795 1.212628 0.110046 -0.026474 225467.000000 0 1 0
22.582042 0.993565 7.363166 23.772926 0.043970 1.255888 0.093443 -0.015612 -283823.000000 0 1 0
24.111342 1.266165 7.354366 25.239784 0.052465 1.275127 0.078311 -0.016578 -176670.000000 0 0 1
24.807342 1.175565 8.587666 26.278017 0.047352 1.237880 0.057520 -0.000225 306840.000000 0 0 1
24.545542 2.029165 9.691966 26.467629 0.082482 1.195894 0.055876 -0.003054 -533371.000000 0 0 1
25.263242 1.486965 10.974366 27.584039 0.058791 1.161622 0.039647 0.005941 -544684.000000 0 0 1
26.649142 1.497465 10.921166 28.839054 0.056133 1.182412 0.037839 0.004328 -651591.000000 0 0 1
27.163442 0.742165 12.017366 29.712295 0.027315 1.154411 0.040255 0.000949 213295.000000 0 0 1
28.705692 0.621265 12.099466 31.157661 0.021639 1.171977 0.064051 -0.006288 570364.000000 0 0 1
29.345702 1.851665 12.495166 31.948835 0.063015 1.168971 0.057652 -0.003693 -387409.000000 0 0 1
30.719642 1.714465 12.722566 33.294136 0.055752 1.178700 0.048406 -0.007857 -179745.000000 0 0 1
31.337632 3.074565 13.107866 34.107423 0.097798 1.176335 0.047829 -0.017512 -253682.000000 0 0 1
31.339242 4.014365 12.025766 33.806542 0.127400 1.207109 0.054071 -0.018141 116788.000000 0 0 1
32.163522 5.118765 12.338166 34.827062 0.157825 1.208664 0.046754 -0.017373 749241.000000 0 0 1
33.580722 5.071465 11.668766 35.910232 0.149890 1.239845 0.060028 -0.014313 372614.000000 0 0 1
34.407092 4.073965 12.193966 36.730614 0.117856 1.232391 0.049210 -0.023596 1001680.000000 0 0 1
35.776462 4.199365 11.761366 37.893530 0.116843 1.255204 0.069603 -0.018485 984350.000000 0 0 1
-36.102637 3.336465 12.478966 38.343930 -0.092154 1.239311 0.112238 -0.013892 -347902.000000 0 0 1
-35.977095 1.975765 12.226566 38.049230 -0.054862 1.243657 0.094238 -0.010190 111320.000000 0 0 1
35.883562 1.149765 12.646066 38.064090 0.032031 1.232129 0.076074 -0.010101 -65637.700000 0 0 1
35.656492 0.908965 14.176366 38.382040 0.025487 1.192488 0.062018 -0.005788 -806256.000000 0 0 1
-36.373477 0.040765 14.741866 39.247345 -0.001121 1.185737 0.079047 -0.012788 -491117.000000 0 0 1
36.189522 -0.369335 16.070966 39.599165 -0.010205 1.152897 0.086275 -0.018641 -313059.000000 0 0 1
-35.685858 -1.175235 16.872666 39.491119 0.032921 1.129345 0.092636 -0.020068 -586686.000000 0 0 1
-34.517563 -0.456335 17.116266 38.530987 0.013220 1.110492 0.118145 -0.024482 -71134.900000 0 0 1
-33.594787 -1.098235 18.019766 38.138272 0.032679 1.078688 0.115644 -0.021472 569303.000000 0 0 1
-34.011577 -1.047535 19.539466 39.238698 0.030790 1.049547 0.126990 -0.022761 50429.700000 0 0 1
-35.111610 -1.892735 19.896466 40.401447 0.053854 1.055872 0.099523 -0.023339 344571.000000 0 0 1
-35.424971 -1.712835 21.247266 41.343786 0.048313 1.031052 0.098795 -0.022818 -67333.200000 0 0 1
-35.634397 -3.057735 22.011866 41.996217 0.085599 1.019092 0.066197 -0.017923 24547.500000 0 0 1
-34.498134 -3.915835 22.122766 41.168820 0.113025 1.003484 0.085006 -0.022677 151571.000000 0 0 1
-34.732283 -5.207935 22.619466 41.774326 0.148836 0.998614 0.072760 -0.016611 -66602.800000 0 0 1
-34.958181 -5.268135 24.185686 42.834274 0.149573 0.970807 0.062635 -0.026675 722696.000000 0 0 1
-33.782327 -4.740835 24.820846 42.187623 0.139424 0.941787 0.075371 -0.032389 310627.000000 0 0 1
-33.837437 -4.872735 26.270656 43.114534 0.143021 0.915590 0.067132 -0.036487 691463.000000 0 0 1
-32.654157 -4.116535 27.003556 42.572665 0.125403 0.883702 0.066561 -0.028724 496689.000000 0 0 1
-32.568187 -2.698935 26.846666 42.293197 0.082681 0.883079 0.067035 -0.022921 -33963.800000 0 0 1
-32.057267 -2.301235 25.544876 41.054899 0.071662 0.899230 0.078037 -0.028755 -144702.000000 0 0 1
-31.957927 -0.755435 25.320696 40.780110 0.023634 0.900896 0.089269 -0.028408 -90900.800000 0 0 1
-33.198717 -0.118135 25.117466 41.629987 0.003558 0.923101 0.087880 -0.033823 -164272.000000 0 0 1
-33.174857 1.216465 24.749646 41.407679 -0.036652 0.930159 0.109285 -0.025823 -349697.000000 0 0 1
-34.587464 1.785365 24.525296 42.437841 -0.051573 0.954630 0.098744 -0.020500 -151907.000000 0 0 1
-35.123605 1.126065 23.388886 42.213453 -0.032049 0.983560 0.096227 -0.011108 -655083.000000 0 0 1
-36.375417 1.601365 22.994466 43.063683 -0.043995 1.007514 0.082677 -0.000820 -200231.000000 0 0 1
-36.355077 2.897165 22.110766 42.649398 -0.079523 1.025781 0.093341 -0.001292 -174741.000000 0 0 1
-35.673435 2.581965 20.942566 41.446973 -0.072252 1.041083 0.127765 -0.023219 -15898.900000 0 0 1
-36.352017 3.140465 19.837766 41.531538 -0.086176 1.072812 0.102001 -0.017587 88736.100000 0 0 1
-35.769384 2.765665 18.439766 40.337609 -0.077166 1.096024 0.121351 -0.019949 -402113.000000 0 0 1
-34.543809 3.371565 18.147366 39.165917 -0.097294 1.089029 0.140554 -0.024300 -232278.000000 0 0 1
-34.117501 2.760165 16.923066 38.183930 -0.080726 1.111633 0.155456 -0.025495 227935.000000 0 0 1
-33.202797 3.564765 15.935066 37.000805 -0.106954 1.125563 0.143853 -0.023596 312624.000000 0 0 1
-33.836567 4.755265 15.529566 37.532562 -0.139622 1.144213 0.149001 -0.032734 -33975.300000 0 0 1
-33.007797 5.435165 14.614166 36.505199 -0.163199 1.158918 0.151563 -0.022954 -145341.000000 0 0 1
-33.470507 6.829365 14.098166 36.955018 -0.201278 1.179383 0.160270 -0.039064 268713.000000 0 0 1
-32.575457 7.380665 13.121866 35.886181 -0.222810 1.196463 0.163046 -0.029539 256463.000000 0 0 1
-32.865167 8.704065 12.800466 36.328114 -0.258898 1.210708 0.146880 -0.030738 121956.000000 0 0 1
-32.092697 9.249565 11.551466 35.340232 -0.280609 1.237812 0.153114 -0.030434 237268.000000 0 0 1
-32.314557 10.647465 11.450766 35.898735 -0.318292 1.246150 0.140847 -0.022910 -33561.500000 0 0 1
-31.475167 11.251665 10.508366 35.038720 -0.343321 1.266201 0.125912 -0.025470 -213333.000000 0 0 1
-31.556077 12.768265 10.533266 35.633752 -0.384484 1.270715 0.125786 -0.024438 -227295.000000 0 0 1
-30.719187 13.388565 9.615566 34.862318 -0.411014 1.291358 0.109194 -0.023992 -214120.000000 0 0 1
-30.819847 14.786265 9.739766 35.543771 -0.447328 1.293224 0.082288 -0.017188 235532.000000 0 0 1
-30.030367 15.622665 8.656266 34.940257 -0.479699 1.320445 0.080897 -0.017151 -360891.000000 0 0 1
-28.658317 15.415265 8.782666 33.705560 -0.493505 1.307184 0.083850 -0.010354 -618696.000000 0 0 1
-27.963227 16.354865 7.966766 33.360052 -0.529221 1.329655 0.060281 -0.016974 288694.000000 0 0 1
-26.521937 16.603365 8.499366 32.424128 -0.559335 1.305567 0.055968 -0.007680 26004.000000 0 0 1
-26.409497 17.235265 9.739866 33.005771 -0.578212 1.271241 0.041537 -0.007934 62549.000000 0 0 1
-26.649107 18.588665 9.847466 33.951229 -0.609069 1.276520 0.046042 -0.018069 -254688.000000 0 0 1
-26.708777 19.005765 11.311566 34.677506 -0.618464 1.238523 0.062345 -0.003058 283203.000000 0 0 1
-25.483327 19.009565 12.047766 33.998709 -0.640911 1.208567 0.052974 -0.003500 349957.000000 0 0 1
-25.582597 19.547465 13.385166 34.867396 -0.652459 1.176793 0.049761 -0.007590 1736.670000 0 0 1
-26.049497 18.574865 14.501966 35.127040 -0.619438 1.145223 0.041421 -0.003353 278265.000000 0 0 1
-25.152137 17.463465 14.757166 33.990831 -0.606899 1.121700 0.048289 -0.005680 480714.000000 0 0 1
-25.558567 16.688065 15.882366 34.409031 -0.578435 1.091026 0.048547 0.001036 -409585.000000 0 0 1
-24.560837 15.572265 16.176166 33.277598 -0.565065 1.063177 0.042024 -0.005925 72421.600000 0 0 1
-23.344437 15.999465 16.785266 32.904267 -0.600836 1.035467 0.041647 -0.005831 356302.000000 0 0 1
-22.415937 14.951265 17.026666 31.873530 -0.588228 1.007242 0.028234 -0.015897 -12616.000000 0 0 1
-22.831237 13.824565 17.980666 32.182112 -0.544462 0.977959 0.041621 -0.014182 -773650.000000 0 0 1
-22.785437 14.296865 19.326266 33.122214 -0.560364 0.947785 0.045535 -0.008497 257235.000000 0 0 1
-23.067437 13.202865 20.158166 33.358267 -0.519848 0.921918 0.044617 -0.009796 -440303.000000 0 0 1
-22.851737 13.591465 21.650366 34.288018 -0.536563 0.887405 0.031806 -0.001834 -32350.000000 0 0 1
-21.547837 13.759165 22.165666 33.836972 -0.568277 0.856518 0.036008 -0.004666 65846.000000 0 0 1
-21.008137 15.053365 21.947166 33.906101 -0.621747 0.866769 0.042531 0.005200 -1096940.000000 0 0 1
-19.546337 15.240165 22.334666 33.364041 -0.662236 0.837364 0.073794 -0.004626 -405022.000000 0 0 1
-18.666637 14.557865 21.469966 31.958320 -0.662356 0.834145 0.055870 -0.008096 -197504.000000 0 0 1
-18.285237 15.331265 20.332266 31.349619 -0.697751 0.865099 0.058841 -0.007538 -767403.000000 0 0 1
-17.048537 14.711865 19.597866 29.852436 -0.711959 0.854638 0.049481 -0.005245 1336960.000000 0 0 1
-15.814237 14.535365 20.303566 29.556754 -0.743285 0.813533 0.048474 -0.001626 423174.000000 0 0 1
-15.166537 15.745165 20.616966 30.049848 -0.804115 0.814692 0.038167 -0.002713 -1275730.000000 0 0 1
-14.012637 15.577365 21.591866 30.086824 -0.838229 0.770372 0.023343 0.002409 -249945.000000 0 0 1
-13.024737 14.712265 21.047766 28.794148 -0.846164 0.751049 0.011695 0.000399 312253.000000 0 0 1
-11.863137 14.721865 21.875566 28.913798 -0.892518 0.712731 0.017549 0.009957 788968.000000 0 0 1
-10.671137 13.790565 21.537166 27.711051 -0.912237 0.680585 0.013123 0.011626 -476727.000000 0 0 1
-10.555537 12.701265 22.421766 27.847389 -0.877400 0.634841 0.022538 0.002463 674595.000000 0 0 1
-9.353037 11.939265 22.256166 26.932550 -0.906269 0.598171 0.027898 0.010971 1113600.000000 0 0 1
-7.989637 12.557865 22.686366 27.133106 -1.004165 0.580636 0.018481 0.015543 220082.000000 0 0 1
-7.312237 13.343065 21.705866 26.507561 -1.069476 0.611382 0.018051 0.011410 -380631.000000 0 0 1
-6.763037 14.535765 22.172466 27.361385 -1.135318 0.626037 0.015879 0.016655 -385194.000000 0 0 1
-7.686837 15.653165 22.682266 28.611086 -1.114316 0.655441 0.015422 0.002662 238271.000000 0 0 1
-8.531837 16.279165 21.705966 28.442089 -1.088059 0.702602 -0.022548 0.009458 346579.000000 0 0 1
-7.865737 17.424765 21.104066 28.475847 -1.146769 0.736057 -0.000062 0.018704 -372012.000000 0 0 1
-8.687837 17.875565 19.864666 28.100165 -1.118397 0.785657 0.002735 0.024494 1159540.000000 0 0 1
-9.918537 18.579565 19.979966 29.030616 -1.080444 0.811739 -0.002817 0.021688 240664.000000 0 0 1
-10.891137 18.070565 20.873766 29.679560 -1.028394 0.790761 0.001057 0.019967 -1105380.000000 0 0 1
-12.151037 18.948265 20.853766 30.684915 -1.000580 0.823566 0.004558 0.008751 36808.400000 0 0 1
-12.970137 18.749265 19.704366 30.133394 -0.965617 0.858062 0.012538 0.010591 718689.000000 0 0 1
-14.169537 19.538965 19.749866 31.186602 -0.943361 0.885012 0.014832 -0.000201 793339.000000 0 0 1
-15.074737 19.455565 18.504266 30.792443 -0.911593 0.926126 0.029328 -0.000063 -238817.000000 0 0 1
-15.775737 18.253665 18.277166 30.267556 -0.858087 0.922470 0.039934 -0.000586 128136.000000 0 0 1
-16.713037 18.444765 17.236566 30.275967 -0.834614 0.965124 0.046010 -0.013092 -476514.000000 0 0 1
-17.520237 17.181665 16.789466 29.733054 -0.775642 0.970759 0.043657 -0.020256 1009320.000000 0 0 1
-18.652137 16.859065 17.609166 30.695489 -0.734948 0.959813 0.045320 -0.010940 -104143.000000 0 0 1
-19.800237 17.612465 17.421566 31.713708 -0.726988 0.989224 0.054423 -0.013617 -922765.000000 0 0 1
34.037342 -9.506735 11.836963 37.269725 -0.272362 1.247596 0.058250 -0.016282 109425.000000 0 0 1
32.686782 -9.762735 11.476563 35.992336 -0.290241 1.246268 0.038795 -0.008202 396895.000000 0 0 1
32.296572 -11.030335 12.006963 36.178779 -0.329112 1.232502 0.066641 -0.009811 177330.000000 0 0 1
30.766452 -11.281935 11.895263 34.861926 -0.351471 1.222592 0.050710 -0.005217 -333341.000000 0 0 1
30.087502 -10.546435 12.832263 34.367893 -0.337143 1.188147 0.047255 0.000794 -1458350.000000 0 0 1
28.753142 -10.849335 12.923963 33.338867 -0.360809 1.172711 0.038566 -0.001210 -982918.000000 0 0 1
28.230772 -11.898735 13.919363 33.649741 -0.398886 1.144332 0.021541 -0.008769 -918411.000000 0 0 1
28.411492 -11.429935 15.262163 34.216808 -0.382487 1.108457 0.021166 -0.007199 137385.000000 0 0 1
27.671642 -12.083535 16.301863 34.314462 -0.411718 1.075750 0.025150 -0.019294 43412.600000 0 0 1
26.141142 -11.939135 16.190163 32.985203 -0.428427 1.057753 0.011779 -0.028987 -583797.000000 0 0 1
25.654242 -10.659335 16.539163 32.331184 -0.393797 1.033803 0.015000 -0.032390 -158744.000000 0 0 1
25.113642 -9.973235 15.446463 31.124808 -0.378025 1.051494 0.029757 -0.028148 -906978.000000 0 0 1
24.865742 -8.459635 15.766363 30.634111 -0.327929 1.030177 0.051099 -0.027410 -275881.000000 0 0 1
26.054742 -7.743435 15.934263 31.507318 -0.288885 1.040566 0.028326 -0.019878 -469794.000000 0 0 1
25.835542 -6.436335 16.374063 31.257185 -0.244157 1.019432 0.048586 -0.021641 666265.000000 0 0 1
27.117542 -5.517735 16.247263 32.090186 -0.200734 1.039907 0.048925 -0.017802 778009.000000 0 0 1
27.498442 -5.146835 14.920863 31.706252 -0.185027 1.080829 0.065613 -0.012131 1002390.000000 0 0 1
28.740632 -4.415035 15.066463 32.749271 -0.152425 1.092739 0.059134 -0.013554 921811.000000 0 0 1
29.204372 -3.544135 13.871163 32.524843 -0.120766 1.130200 0.065748 -0.010701 -25506.000000 0 0 1
29.640192 -4.259335 12.756263 32.548505 -0.142724 1.168084 0.035189 -0.003298 351702.000000 0 0 1
30.200382 -3.372635 11.772163 32.588673 -0.111214 1.201205 0.037348 0.000355 -20310.000000 0 0 1
30.438072 -4.068735 10.391963 32.419496 -0.132885 1.244490 0.053900 -0.002895 -724491.000000 0 0 1
31.654702 -4.733335 10.374163 33.645919 -0.148430 1.257356 0.063963 -0.009882 -462531.000000 0 0 1
31.907842 -5.473235 9.186763 33.652092 -0.169879 1.294294 0.062499 -0.007898 550075.000000 0 0 1
33.265312 -6.271135 9.077563 35.047258 -0.186332 1.308800 0.070175 -0.009999 732087.000000 0 0 1
34.376422 -5.395435 8.994663 35.940967 -0.155682 1.317845 0.074210 -0.015344 318813.000000 0 0 1
35.543112 -6.126735 8.594263 37.077096 -0.170697 1.336874 0.081128 -0.026376 491078.000000 0 0 1
-36.241807 -5.162435 8.219063 37.518959 0.141492 1.349941 0.076822 -0.029200 -31507.800000 0 0 1
-36.426477 -4.503035 6.994963 37.364355 0.122996 1.382476 0.069353 -0.027281 -54382.400000 0 0 1
-35.357858 -3.626435 6.772063 36.182731 0.102206 1.382523 0.094701 -0.022974 -296875.000000 0 0 1
-35.372101 -2.958035 5.343963 35.895591 0.083432 1.421366 0.085868 -0.028780 -304632.000000 0 0 1
-34.699497 -3.593135 4.265863 35.144890 0.103182 1.449117 0.091668 -0.030228 218797.000000 0 0 1
-34.644320 -2.874035 3.067263 34.898382 0.082769 1.482792 0.086140 -0.021781 -126503.000000 0 0 1
-34.051118 -3.664035 1.859863 34.298147 0.107192 1.516543 0.110155 -0.025875 -62836.100000 0 0 1
-34.748154 -4.837535 1.525363 35.116416 0.138328 1.527345 0.093510 -0.021892 100598.000000 0 0 1
-35.672256 -4.793435 0.435063 35.995502 0.133574 1.558709 0.073257 -0.021231 -178514.000000 0 0 1
-35.028500 -4.931335 -0.995437 35.387918 0.139861 1.598929 0.093897 -0.018817 -1088150.000000 0 0 1
-34.802732 -6.305035 -1.199937 35.389596 0.179221 1.604709 0.095870 -0.031880 1100050.000000 0 0 1
-33.690917 -6.563535 -2.103237 34.388683 0.192406 1.631995 0.084811 -0.030787 1574450.000000 0 0 1
-32.246527 -6.130935 -1.630037 32.864630 0.187884 1.620415 0.097189 -0.034356 -3403.290000 0 0 1
-31.875207 -6.972935 -0.590137 32.634321 0.215365 1.588881 0.087741 -0.031780 70166.900000 0 0 1
-30.636077 -6.489135 -0.060437 31.315838 0.208728 1.572726 0.112726 -0.034663 76079.800000 0 0 1
-30.112007 -7.671735 0.782663 31.083775 0.249466 1.545615 0.104844 -0.031033 -317193.000000 0 0 1
-29.535377 -8.714835 -0.015237 30.794270 0.286922 1.571291 0.111357 -0.024585 617361.000000 0 0 1
-28.931127 -9.712635 0.821563 30.529008 0.323893 1.543882 0.102106 -0.026146 98591.900000 0 0 1
-28.429817 -10.942135 0.023163 30.462852 0.367406 1.570036 0.082287 -0.021748 -449248.000000 0 0 1
-27.316007 -10.700135 -0.790937 29.347618 0.373345 1.597750 0.091132 -0.025856 143210.000000 0 0 1
-26.676747 -11.901635 -1.245637 29.237807 0.419642 1.613413 0.083534 -0.012440 -301396.000000 0 0 1
-27.494817 -12.812935 -2.177337 30.411791 0.436090 1.642453 0.079673 -0.015309 -425500.000000 0 0 1
-28.517857 -13.524435 -1.492037 31.597542 0.442832 1.618034 0.088341 -0.019116 558251.000000 0 0 1
-28.903557 -14.702035 -2.215337 32.503433 0.470550 1.639006 0.075518 -0.015405 -543187.000000 0 0 1
-29.950157 -15.562035 -1.507537 33.785522 0.479203 1.615432 0.081176 -0.017258 -615071.000000 0 0 1
-29.454157 -16.287435 -0.456037 33.660598 0.505125 1.584345 0.064876 -0.008443 -317298.000000 0 0 1
-30.396677 -16.890235 0.367363 34.776040 0.507179 1.560232 0.072071 -0.006972 -270597.000000 0 0 1
-30.880747 -18.319735 0.063563 35.905950 0.535435 1.569026 0.075893 -0.012834 1009930.000000 0 0 1
-29.729037 -19.173035 0.323163 35.376904 0.572800 1.561661 0.094018 -0.018811 1222170.000000 0 0 1
-29.938047 -20.544235 0.130763 36.309356 0.601421 1.567195 0.078997 -0.017999 116699.000000 0 0 1
-30.906167 -21.179935 1.153863 37.484826 0.600791 1.540009 0.076780 -0.018603 -80239.000000 0 0 1
-30.235877 -21.302535 2.380563 37.063099 0.613770 1.506522 0.071448 -0.017178 426152.000000 0 0 1
-31.122417 -21.732435 3.400463 38.111241 0.609577 1.481453 0.067245 -0.015208 369832.000000 0 0 1
-30.255917 -22.034335 4.648563 37.716595 0.629445 1.447232 0.059511 -0.013370 97001.800000 0 0 1
-29.856157 -20.821935 5.230163 36.773600 0.608985 1.428086 0.048341 -0.013707 85296.600000 0 0 1
-28.954277 -21.008735 6.322363 36.327529 0.627690 1.395868 0.042972 -0.015533 137958.000000 0 0 1
-28.611077 -19.589835 6.846163 35.344381 0.600379 1.375865 0.041424 -0.013048 339637.000000 0 0 1
-27.741867 -19.627535 7.999963 34.912042 0.615746 1.339596 0.036176 -0.017810 227483.000000 0 0 1
-27.395957 -18.347135 8.505963 34.051538 0.590101 1.318326 0.049908 -0.021056 -441994.000000 0 0 1
-26.288307 -18.459735 9.527663 33.505421 0.612203 1.282456 0.048319 -0.017394 -534576.000000 0 0 1
-26.668587 -19.107435 10.771363 34.530130 0.621699 1.253561 0.047259 -0.021811 52253.900000 0 0 1
-25.566867 -19.520135 11.564363 34.182376 0.652081 1.225672 0.042807 -0.008876 129825.000000 0 0 1
-24.987937 -18.405835 12.485363 33.452295 0.634863 1.188309 0.042318 -0.016011 -437675.000000 0 0 1
-24.241537 -17.356735 11.922263 32.109947 0.621378 1.190393 0.046504 -0.020451 67848.600000 0 0 1
-23.860037 -16.262035 12.751463 31.565091 0.598242 1.154940 0.051995 -0.015418 600391.000000 0 0 1
-23.012737 -16.518535 14.060363 31.625019 0.622572 1.110073 0.054491 -0.017179 -49270.200000 0 0 1
-23.820037 -17.108635 15.034563 32.956602 0.622867 1.097084 0.044874 -0.022811 -400911.000000 0 0 1
-23.118237 -17.439235 16.167663 33.165842 0.646279 1.061596 0.058084 -0.023032 -143614.000000 0 0 1
-24.008537 -18.041235 17.323463 34.669848 0.644429 1.047579 0.040096 -0.004533 -45630.100000 0 0 1
-24.752437 -17.054535 17.926663 34.998650 0.603308 1.033040 0.058557 -0.011650 -408639.000000 0 0 1
-25.753147 -17.588735 18.753663 36.390769 0.599208 1.029391 0.040895 0.001698 -483062.000000 0 0 1
-26.749037 -16.588735 19.376963 36.961653 0.555113 1.018968 0.051625 -0.001067 -10769.100000 0 0 1
-26.218087 -15.870435 20.473663 36.856881 0.544325 0.981843 0.053483 -0.008360 540634.000000 0 0 1
-27.256917 -15.105435 21.063563 37.613659 0.506052 0.976413 0.058354 -0.011637 234032.000000 0 0 1
-26.673377 -14.461435 22.353963 37.686891 0.496810 0.935831 0.065818 -0.016010 -231824.000000 0 0 1
-25.632617 -13.638035 21.924763 36.382994 0.488964 0.924028 0.069704 -0.019003 -221960.000000 0 0 1
-24.646337 -13.575935 22.942063 36.305457 0.503480 0.886771 0.067097 -0.023578 274796.000000 0 0 1
-23.270237 -13.013935 22.473563 34.870151 0.509919 0.870437 0.079721 -0.022422 152151.000000 0 0 1
-23.296037 -11.654635 22.142063 34.187816 0.463875 0.866288 0.092324 -0.021990 -264395.000000 0 0 1
-22.211937 -11.173135 21.411663 32.812625 0.466064 0.859860 0.085951 -0.021651 -1260670.000000 0 0 1
-21.833537 -9.689835 21.685563 32.262360 0.417690 0.833670 0.087916 -0.023050 59821.100000 0 0 1
-21.267837 -9.510235 23.000363 32.738084 0.420494 0.791812 0.095851 -0.030108 -126525.000000 0 0 1
-19.917837 -9.890335 22.956363 31.961438 0.460889 0.769510 0.077487 -0.025385 -1166510.000000 0 0 1
-19.270937 -9.930535 24.326063 32.584381 0.475822 0.727926 0.068562 -0.025786 -145947.000000 0 0 1
-19.543037 -11.119835 25.041463 33.654953 0.517307 0.731663 0.072279 -0.019437 -97722.900000 0 0 1
-18.939737 -11.161135 26.333763 34.303814 0.532513 0.695610 0.070241 -0.017126 -897791.000000 0 0 1
-19.072237 -12.487435 27.126663 35.433629 0.579703 0.698881 0.072326 -0.029596 1165340.000000 0 0 1
-20.350537 -12.674635 27.761163 36.680688 0.557027 0.712342 0.083779 -0.026448 1995500.000000 0 0 1
-21.577137 -12.776835 26.944063 36.807647 0.534625 0.749509 0.072851 -0.022542 1178830.000000 0 0 1
-22.844437 -12.970135 27.777263 38.231780 0.516375 0.757510 0.065228 -0.024161 -263732.000000 0 0 1
-22.989237 -14.258335 28.474363 39.275876 0.555153 0.759786 0.050516 -0.021458 -600981.000000 0 0 1
-22.108637 -14.533535 29.524663 39.644939 0.581538 0.730670 0.050235 -0.016756 -445894.000000 0 0 1
-22.544437 -15.658435 30.499663 41.032519 0.607065 0.732799 0.033934 -0.016879 -867994.000000 0 0 1
-22.377437 -17.023535 30.073263 41.169789 0.650343 0.751788 0.035108 -0.011807 -210537.000000 0 0 1
-22.407837 -17.981835 31.156063 42.381102 0.676251 0.744922 0.037584 -0.016227 -152377.000000 0 0 1
-23.761037 -18.336335 31.817063 43.739382 0.657244 0.756236 0.051359 -0.018163 -42807.700000 0 0 1
-24.306437 -17.339335 32.684463 44.268832 0.619639 0.740224 0.054908 -0.013126 382072.000000 0 0 1
-25.568057 -17.732135 33.221663 45.517392 0.606368 0.752668 0.063243 -0.029198 141060.000000 0 0 1
-26.350307 -16.647035 33.998363 46.123217 0.563445 0.741997 0.064258 -0.029089 38228.300000 0 0 1
-25.754617 -16.392235 -33.066740 45.004610 0.566810 2.396081 0.059642 -0.023956 -9503.850000 0 0 1
-26.446477 -15.360535 -32.354340 44.521517 0.526194 2.384320 0.073402 -0.013429 -215593.000000 0 0 1
-25.895907 -14.886635 -31.018040 43.061917 0.521732 2.375049 0.068468 -0.001923 -257017.000000 0 0 1
-26.233997 -15.827335 -30.000440 42.880689 0.542853 2.345670 0.073619 0.002367 240423.000000 0 0 1
-25.643377 -15.343935 -28.806240 41.506850 0.539212 2.337843 0.081688 0.012316 -47103.300000 0 0 1
-26.031097 -16.209735 -27.559740 41.229999 0.556948 2.302904 0.072934 0.010476 1053570.000000 0 0 1
-27.345087 -16.027835 -26.974940 41.620820 0.530160 2.275899 0.084822 0.003378 960923.000000 0 0 1
-27.437827 -14.896835 -26.143540 40.721428 0.497399 2.267913 0.093872 0.003432 -379642.000000 0 0 1
-26.694827 -14.755235 -24.782040 39.299876 0.504943 2.253107 0.099859 -0.014133 -592776.000000 0 0 1
-25.399147 -14.263235 -24.978740 38.373089 0.511678 2.279624 0.092438 -0.019007 -329711.000000 0 0 1
-24.439737 -14.489235 -23.997640 37.190394 0.535150 2.272166 0.090227 -0.017864 23268.800000 0 0 1
-23.714537 -15.863935 -24.137540 37.371975 0.589584 2.272962 0.081436 -0.008719 -760678.000000 0 0 1
-22.828637 -15.966135 -25.220640 37.578515 0.610317 2.306549 0.040209 -0.003994 316447.000000 0 0 1
-22.137237 -17.214835 -25.306940 37.773655 0.660958 2.304955 0.033707 -0.009677 37317.800000 0 0 1
-21.392437 -17.408035 -26.669040 38.365528 0.683067 2.339397 0.027261 -0.007414 124889.000000 0 0 1
-22.214137 -17.421335 -27.820240 39.635042 0.665060 2.348872 0.038016 -0.005838 393812.000000 0 0 1
-23.021037 -18.595735 -27.939740 40.698877 0.679462 2.327460 0.055469 -0.013320 148958.000000 0 0 1
-23.809037 -18.746035 -29.248040 42.115697 0.666980 2.338478 0.051093 -0.011819 276159.000000 0 0 1
-22.833737 -18.909435 -30.276640 42.374771 0.691663 2.366701 0.055460 -0.012888 424227.000000 0 0 1
-23.330137 -18.636535 -31.563040 43.449295 0.674020 2.383915 0.047174 -0.014130 -794366.000000 0 0 1
-22.468037 -19.000835 -32.750940 44.028042 0.701982 2.409632 0.050049 -0.018890 -898937.000000 0 0 1
-21.313537 -18.153435 -32.949940 43.237861 0.705499 2.437288 0.043538 -0.008397 675150.000000 0 0 1
-20.068537 -18.740335 -32.645640 42.657756 0.751187 2.442291 0.039444 -0.016703 -210205.000000 0 0 1
-19.737537 -19.867235 -33.620440 43.756272 0.788673 2.447066 0.042536 -0.019445 -1991960.000000 0 0 1
-19.452137 -19.435935 33.385163 43.251708 0.784982 0.689002 0.046316 -0.020648 69324.400000 0 0 1
-19.342937 -20.535235 32.468563 43.012238 0.815288 0.715343 0.055344 -0.023850 407366.000000 0 0 1
-20.665137 -21.256835 32.011763 43.630882 0.799511 0.747052 0.057470 -0.019619 -387843.000000 0 0 1
-21.424137 -21.806735 33.051263 45.021254 0.794248 0.746418 0.048580 -0.020425 -105449.000000 0 0 1
-22.688137 -22.196235 32.510663 45.435312 0.774439 0.773403 0.053020 -0.009555 296789.000000 0 0 1
-22.761737 -23.373335 31.492463 45.345172 0.798654 0.803064 0.061867 0.001737 -1030940.000000 0 0 1
-22.266037 -24.584835 32.000163 46.089054 0.834851 0.803333 0.070451 0.000408 93257.700000 0 0 1
-22.498937 -25.690915 31.127663 46.207755 0.851539 0.831665 0.066548 0.010556 -131312.000000 0 0 1
-22.197437 -27.087405 31.664163 47.213059 0.884293 0.835691 0.099253 0.008018 51003.100000 0 0 1
-22.917737 -27.559195 32.815563 48.596225 0.877092 0.829466 0.054257 0.004163 235433.000000 0 0 1
-22.324537 -28.694565 33.416163 49.380188 0.909611 0.827509 0.054333 0.001558 -334858.000000 0 0 1
-23.234337 -29.192155 -33.714740 50.286181 0.898554 2.305621 0.048473 -0.005016 806955.000000 0 0 1
-24.255937 -30.160515 -34.052240 51.551549 0.893483 2.292344 0.020729 0.002305 466481.000000 0 0 1
-25.396517 -29.596575 33.646663 51.507652 0.861624 0.858946 0.013387 0.011877 -567544.000000 0 0 1
-26.559617 -29.207415 -33.734040 51.927563 0.832842 2.277903 0.011744 0.003493 -776608.000000 0 0 1
-27.589527 -28.512315 33.944863 52.214824 0.801845 0.863080 0.017868 0.008444 -760313.000000 0 0 1
-28.408557 -27.980145 -33.381540 52.002517 0.777801 2.267798 0.023268 0.008721 -755691.000000 0 0 1
-29.515937 -27.053665 -33.888240 52.454782 0.741899 2.273190 0.008137 0.002886 -133478.000000 0 0 1
-30.380037 -27.816065 33.587563 53.148890 0.741369 0.886727 -0.004053 -0.000002 -891662.000000 0 0 1
-31.544727 -27.131615 33.296463 53.290231 0.710328 0.895904 0.004848 -0.013847 -620896.000000 0 0 1
