# x y z rho theta phi s1 s2 stress_xx np intf bulk
-0.790707 -10.709713 -14.319405 17.898842 1.497099 2.498122 -0.008997 0.003563 -470036.000000 1 0 0
1.919793 -13.432613 -13.129605 18.881399 -1.428837 2.339734 0.001504 0.010552 908401.000000 1 0 0
2.085093 -11.077713 -14.664505 18.496244 -1.384749 2.486246 -0.004070 0.005738 1626790.000000 1 0 0
-5.585007 -6.352513 -16.559905 18.595085 0.849603 2.669355 0.011669 0.004882 -998794.000000 1 0 0
4.312593 -14.095713 -11.529805 18.714272 -1.273889 2.234574 -0.005837 0.008420 1246500.000000 1 0 0
14.143193 -10.636313 -7.945505 19.398250 -0.644808 1.992811 0.022629 0.003431 -133383.000000 1 0 0
7.106193 10.872787 -10.788405 16.885057 0.991911 2.263906 0.005388 -0.003705 510993.000000 1 0 0
5.771793 -4.169313 -12.631905 14.500406 -0.625576 2.628318 -0.002991 -0.000981 1014920.000000 1 0 0
13.739293 0.595687 -10.080505 17.051088 0.043329 2.203335 0.013482 0.003987 947952.000000 1 0 0
14.133193 5.095287 -10.430305 18.289351 0.346015 2.177660 0.010799 -0.007393 501391.000000 1 0 0
4.073993 4.296487 -13.555505 14.792192 0.811973 2.729778 0.005899 0.004556 1809570.000000 1 0 0
10.273593 -5.028913 -13.709405 17.854536 -0.455212 2.446257 0.013525 -0.001120 188330.000000 1 0 0
2.555093 -7.570513 -12.095105 14.495956 -1.245295 2.557799 0.001911 0.002358 2903310.000000 1 0 0
-5.601407 -1.989213 -15.226805 16.345896 0.341235 2.769413 0.003518 0.001103 -123620.000000 1 0 0
10.720993 0.106587 -9.715705 14.468793 0.009942 2.307019 0.007495 -0.001310 1701370.000000 1 0 0
-1.705307 -9.425613 -16.905105 19.430204 1.391810 2.626085 0.003100 -0.002096 959850.000000 1 0 0
8.727293 1.543987 -17.832105 19.913149 0.175103 2.680336 0.015705 0.004194 -263847.000000 1 0 0
16.392693 -5.934713 -8.870705 19.560946 -0.347355 2.041474 0.002851 0.010099 -5471.160000 1 0 0
10.086093 7.551487 -9.943005 16.050469 0.642670 2.238881 0.003646 -0.002218 349872.000000 1 0 0
13.784293 -2.263913 -10.686605 17.587938 -0.162785 2.223844 0.016887 0.004349 -2661250.000000 1 0 0
7.218993 -1.794113 -13.751205 15.634204 -0.243592 2.645731 0.004470 -0.002074 -360127.000000 1 0 0
-2.861207 6.666387 -13.787905 15.579908 -1.165374 2.657247 0.004778 -0.005992 1691150.000000 1 0 0
11.135293 1.853687 -14.008905 17.991118 0.164957 2.463318 0.000959 0.001260 791975.000000 1 0 0
-2.350707 10.761587 -12.946105 16.998212 -1.355739 2.436599 0.003852 -0.001749 -1571060.000000 1 0 0
2.862193 -1.022413 -15.186305 15.487457 -0.343086 2.944067 0.010463 -0.004532 798122.000000 1 0 0
-9.006607 0.485687 -15.300805 17.761461 -0.053873 2.608936 -0.003956 0.001454 -723164.000000 1 0 0
2.298793 -1.794613 -18.009705 18.244302 -0.662847 2.981054 0.021009 -0.011057 1121020.000000 1 0 0
1.008693 7.818587 -13.180405 15.358087 1.442493 2.602561 0.007798 -0.003446 -224765.000000 1 0 0
9.444093 -9.081713 -9.923605 16.436129 -0.765840 2.219016 0.020946 0.004247 728363.000000 1 0 0
3.929793 7.277687 -13.558605 15.882184 1.075680 2.593844 0.002457 0.000311 1098180.000000 1 0 0
-2.722007 9.055187 -15.509105 18.164197 -1.278787 2.594092 0.002870 -0.007599 474505.000000 1 0 0
5.563393 -7.658813 -15.338005 18.023960 -0.942568 2.588642 -0.001547 0.001647 1101890.000000 1 0 0
4.188593 7.302387 -16.446905 18.476197 1.050021 2.668508 0.017515 0.001574 839248.000000 1 0 0
-0.267707 5.068487 -13.570305 14.488423 -1.518027 2.783682 0.009231 -0.003075 1694440.000000 1 0 0
8.693493 4.254187 -16.767905 19.360722 0.455094 2.618100 0.006178 0.011379 356882.000000 1 0 0
5.312893 0.414287 -14.364105 15.320769 0.077820 2.786337 0.001503 0.001751 1303080.000000 1 0 0
6.205093 8.049887 -11.604305 15.426074 0.914097 2.422271 -0.004623 0.002864 593499.000000 1 0 0
2.695793 -8.330513 -15.080505 17.438073 -1.257827 2.615555 -0.000619 0.002953 1449190.000000 1 0 0
3.905393 11.576787 -13.766605 18.406344 1.245438 2.415730 0.007543 -0.002968 -186884.000000 1 0 0
0.592893 -4.466013 -13.698805 14.420612 -1.438811 2.823860 0.008424 -0.000993 403318.000000 1 0 0
8.486493 -0.111813 -11.641305 14.406701 -0.013175 2.511627 -0.001912 0.000531 940701.000000 1 0 0
-0.984107 -4.958613 -16.306605 17.072249 1.374878 2.840971 0.009191 -0.004743 308780.000000 1 0 0
4.471293 0.882487 -11.648605 12.508447 0.194863 2.768650 -0.001559 -0.001667 1785830.000000 1 0 0
-2.891007 -7.100613 -15.553505 17.340362 1.184142 2.683627 0.004148 -0.000039 1299900.000000 1 0 0
11.377493 -3.749313 -11.423405 16.552911 -0.318331 2.332444 0.012908 -0.000277 227104.000000 1 0 0
6.486093 -7.001913 -12.565505 15.779357 -0.823622 2.491992 0.000937 0.003452 59662.200000 1 0 0
3.398393 -3.949613 -14.617705 15.518564 -0.860274 2.799187 0.007030 -0.002776 4520730.000000 1 0 0
-0.630107 -1.439413 -18.353005 18.420145 1.158174 3.056186 0.024118 -0.008696 1440460.000000 1 0 0
14.969093 2.981887 -8.496705 17.468812 0.196629 2.078753 0.012974 -0.001180 -1339270.000000 1 0 0
6.901093 4.318187 -14.297505 16.452674 0.559121 2.623990 0.004556 0.006334 1719460.000000 1 0 0
10.124493 -9.720413 -14.031305 19.846141 -0.765039 2.356049 0.035953 -0.001169 -329428.000000 1 0 0
8.884093 -3.262213 -15.570005 18.220708 -0.351912 2.595427 0.010279 -0.009725 715916.000000 1 0 0
-5.532707 -1.952213 -18.106405 19.033231 0.339211 2.828238 0.001282 0.005824 -1186700.000000 1 0 0
4.973793 -9.101213 -11.114105 15.201777 -1.070646 2.390737 -0.001200 0.004873 2658460.000000 1 0 0
-2.475207 4.068487 -17.274905 17.919307 -1.024234 2.872598 0.014860 -0.004477 1604180.000000 1 0 0
9.504693 9.311687 -14.495605 19.676617 0.775141 2.398962 0.017809 -0.003385 -421105.000000 1 0 0
9.812293 10.055787 -11.610005 18.226139 0.797653 2.261393 0.012137 -0.001816 -534748.000000 1 0 0
12.025993 -5.937513 -9.783005 16.600775 -0.458614 2.201001 0.022584 -0.000527 355068.000000 1 0 0
8.061593 6.978187 -13.754705 17.403341 0.713486 2.482174 0.000720 0.006369 365601.000000 1 0 0
3.986793 -4.142613 -17.582605 18.498750 -0.804563 2.825558 0.013138 -0.007025 -423050.000000 1 0 0
9.339293 -7.519213 -12.381005 17.235145 -0.677853 2.372235 0.017494 -0.000434 189745.000000 1 0 0
12.122693 -8.684913 -8.877405 17.354991 -0.621660 2.107748 0.026620 0.000410 875417.000000 1 0 0
-2.933207 -2.391213 -13.919105 14.424392 0.683954 2.876125 0.005564 -0.002808 -1204450.000000 1 0 0
-0.408907 6.193787 -17.640305 18.700550 -1.504873 2.803244 0.018578 -0.008106 1852450.000000 1 0 0
0.995993 -8.321713 -17.505405 19.408300 -1.451677 2.695071 -0.002307 -0.006970 1721800.000000 1 0 0
0.090593 8.618487 -15.998305 18.172294 1.560285 2.647434 0.010272 -0.005106 993355.000000 1 0 0
1.716893 3.359687 -15.077405 15.542309 1.098366 2.896389 0.014967 0.000450 1682250.000000 1 0 0
-1.951307 -0.382913 -15.830105 15.954512 0.193772 3.016631 0.015891 -0.004181 1314190.000000 1 0 0
14.137193 -4.254713 -8.559205 17.065251 -0.292336 2.096195 0.015769 0.005338 183838.000000 1 0 0
0.576293 0.706187 -14.598405 14.626833 0.886338 3.079236 0.012869 -0.006243 1773110.000000 1 0 0
8.761793 2.762187 -12.547705 15.551321 0.305392 2.509610 0.000930 0.000595 1641820.000000 1 0 0
5.973493 0.988787 -17.120405 18.159531 0.164042 2.801662 0.011368 0.006182 -1195720.000000 1 0 0
15.332193 1.657087 -12.385405 19.779290 0.107661 2.247441 0.011416 0.001236 -921565.000000 1 0 0
8.817693 -11.295013 -11.867805 18.605747 -0.907953 2.262509 0.028447 0.004112 229020.000000 1 0 0
-4.622907 0.836187 -15.185105 15.895216 -0.178944 2.841555 0.007319 -0.002707 889250.000000 1 0 0
2.331293 5.085887 -17.332805 18.213382 1.140992 2.829367 0.020405 -0.001608 910182.000000 1 0 0
5.858593 -11.695313 -12.424905 18.041112 -1.106401 2.330490 0.005829 0.007778 1800890.000000 1 0 0
12.744193 7.151587 -8.706005 17.010413 0.511374 2.108080 0.005852 -0.003105 -945316.000000 1 0 0
-5.125607 3.720587 -15.763105 16.987940 -0.627886 2.759536 0.007642 -0.004178 1946810.000000 1 0 0
-0.628807 -4.385913 -19.145005 19.651027 1.428397 2.914165 0.020109 -0.008103 -2096990.000000 1 0 0
9.765293 4.426787 -10.238705 14.825264 0.425610 2.333150 -0.002904 0.001977 -540663.000000 1 0 0
13.209393 3.661387 -12.844905 18.785244 0.270392 2.323722 0.006827 -0.006349 -166385.000000 1 0 0
-6.201407 6.047687 -17.150805 19.214111 -0.772849 2.673909 -0.002161 0.000005 -446906.000000 1 0 0
-10.257907 3.214787 -15.500905 18.863657 -0.303701 2.535243 0.002733 0.002922 799703.000000 1 0 0
10.795993 13.505487 -8.289705 19.174745 0.896435 2.017865 0.023703 0.001824 576098.000000 1 0 0
7.357393 13.521387 -12.243505 19.668822 1.072471 2.242708 0.014308 -0.002695 -623995.000000 1 0 0
5.241993 15.235987 -11.166005 19.603404 1.239429 2.176810 0.015809 -0.004953 -1333930.000000 1 0 0
13.941893 9.435487 -9.921805 19.540906 0.594966 2.103362 0.007921 -0.003343 -329003.000000 1 0 0
8.074293 -17.263613 -2.272005 19.193451 -1.133316 1.689449 0.009631 0.007205 -932216.000000 1 0 0
0.646493 -15.992713 -0.042705 16.005832 -1.530394 1.573464 0.002752 -0.005162 2141160.000000 1 0 0
-9.114007 -11.688013 7.617395 16.664318 0.908511 1.096055 0.008659 -0.004737 863386.000000 1 0 0
1.973593 -15.877713 -2.621405 16.213223 -1.447131 1.733192 0.000588 -0.004696 2931960.000000 1 0 0
-1.361507 -11.014513 -9.409805 14.550520 1.447810 2.274045 0.001676 0.002764 416632.000000 1 0 0
-4.857207 -12.650513 -12.989605 18.771195 1.204199 2.335048 0.011649 0.000452 38266.100000 1 0 0
-8.270907 -17.809213 -1.757505 19.714583 1.136018 1.660062 0.005284 -0.011830 -561677.000000 1 0 0
-11.318607 -7.178813 -8.815205 16.042259 0.565223 2.152561 0.007878 -0.002678 4004560.000000 1 0 0
-13.548207 -11.512313 -4.665705 18.380862 0.704337 1.827439 -0.004798 0.005739 -1047000.000000 1 0 0
-5.593307 -13.496013 9.585595 17.473153 1.177903 0.990120 -0.000119 -0.008639 -1617960.000000 1 0 0
0.061293 -13.999113 -3.685205 14.476176 -1.566418 1.828200 0.002612 -0.002435 -1465000.000000 1 0 0
-14.818907 -11.598513 1.986095 18.922740 0.664093 1.465645 -0.003134 0.003971 454099.000000 1 0 0
-4.089807 -16.492913 -7.505405 18.576162 1.327726 1.986719 -0.000035 -0.005631 -884483.000000 1 0 0
0.402893 -15.341613 -9.336405 17.963738 -1.544541 2.117338 -0.001297 0.005881 776298.000000 1 0 0
4.454293 -14.146213 -2.697005 15.074147 -1.265749 1.750681 -0.001345 0.002034 266014.000000 1 0 0
-3.607107 -18.090413 -2.527905 18.618930 1.373984 1.706988 -0.002557 -0.012578 1982130.000000 1 0 0
-1.029207 -13.535913 0.660595 13.591048 1.494907 1.522172 0.003550 -0.003666 1983590.000000 1 0 0
-8.481607 -11.267213 -10.628705 17.659477 0.925525 2.216637 0.010488 -0.005283 1274080.000000 1 0 0
-3.840907 -14.084013 -0.366105 14.602946 1.304557 1.595870 -0.000812 0.001473 5250860.000000 1 0 0
-1.688207 -14.940113 -7.353205 16.736984 1.458275 2.025659 -0.004874 0.001046 1314040.000000 1 0 0
-14.176207 -7.985513 -1.846905 16.375113 0.513000 1.683824 0.001843 0.002634 1407480.000000 1 0 0
-10.824207 -7.258413 -11.714705 17.523765 0.590702 2.302992 0.012249 -0.001790 70919.600000 1 0 0
-9.395307 -14.703313 6.907995 18.766449 1.002198 1.193828 0.002454 0.002091 -52482.200000 1 0 0
-2.573307 -14.404313 -12.396905 19.177836 1.394013 2.273677 0.012255 0.000766 561238.000000 1 0 0
2.260393 -17.750513 -4.737705 18.510428 -1.444136 1.829624 0.003263 -0.007866 -438492.000000 1 0 0
-6.629007 -9.605013 -9.281705 14.911407 0.966704 2.242674 0.004376 -0.003842 530137.000000 1 0 0
-11.041207 -15.263613 0.467895 18.844232 0.944559 1.545964 0.005259 -0.003487 340716.000000 1 0 0
-12.681207 -10.990913 4.065095 17.266678 0.714115 1.333135 0.010217 0.001775 3899710.000000 1 0 0
-16.984007 -8.837213 -1.574105 19.210170 0.479776 1.652830 -0.010889 0.002994 -1171030.000000 1 0 0
-1.372907 -19.241913 -4.078605 19.717279 1.499567 1.779155 -0.004805 -0.006628 493666.000000 1 0 0
3.060593 -14.441713 -8.733305 17.152286 -1.361959 2.105008 -0.002855 0.007877 2136200.000000 1 0 0
-4.353507 -7.910313 -13.109005 15.917666 1.067678 2.538439 0.002994 0.003664 2631130.000000 1 0 0
5.453293 -16.676313 1.237495 17.588895 -1.254749 1.500382 0.009197 0.000379 4721650.000000 1 0 0
-2.820507 -13.786213 -3.161405 14.422531 1.368992 1.791790 0.001519 -0.002240 -98615.200000 1 0 0
-0.491207 -13.939613 3.620395 14.410460 1.535573 1.316842 0.000019 -0.001169 -1822220.000000 1 0 0
1.150993 -16.162013 6.908495 17.614277 -1.499700 1.167763 0.007474 -0.005967 2051830.000000 1 0 0
-5.575307 -10.300013 -14.595405 18.713636 1.074664 2.465357 0.013287 -0.000470 -719211.000000 1 0 0
-0.320807 -17.187413 -5.889305 18.171241 1.552133 1.900857 -0.000710 -0.007450 125432.000000 1 0 0
-6.643707 -13.331613 -1.377105 14.958849 1.108476 1.662986 0.002964 -0.000695 1186050.000000 1 0 0
-1.756607 -17.803313 -0.237905 17.891345 1.472447 1.584094 -0.000574 -0.003687 2845880.000000 1 0 0
-9.521407 -9.759613 -4.862505 14.475883 0.797752 1.913361 0.010705 -0.005218 2178010.000000 1 0 0
-0.868607 -16.612213 4.768595 17.304901 1.518557 1.291621 0.002049 -0.006941 2080740.000000 1 0 0
-6.924207 -9.748013 -6.380605 13.552879 0.953178 2.060986 0.006812 -0.003877 2937740.000000 1 0 0
-6.088907 -14.476413 -8.532005 17.872785 1.172651 2.068460 0.004393 -0.008711 -835410.000000 1 0 0
-5.705707 -12.134313 -10.315405 16.917572 1.131261 2.226535 0.005699 -0.002897 1311890.000000 1 0 0
-10.666307 -12.128613 -8.917205 18.449659 0.849461 2.075247 0.012751 -0.014278 1256980.000000 1 0 0
3.918593 -17.118613 6.513795 18.730505 -1.345765 1.215611 0.019459 -0.003205 275555.000000 1 0 0
-6.684607 -14.296313 -4.160805 16.321178 1.133423 1.828575 0.000647 -0.006294 -195580.000000 1 0 0
-2.889007 -12.178713 -7.125105 14.402588 1.337884 2.088297 0.003725 0.000463 2941390.000000 1 0 0
-7.072507 -12.807013 4.388995 15.274267 1.066237 1.279342 0.001954 0.001132 2621920.000000 1 0 0
2.477593 -16.353613 2.297795 16.699071 -1.420438 1.432758 0.002617 -0.003754 2199800.000000 1 0 0
-6.191307 -11.947913 7.184495 15.254569 1.092702 1.080403 0.001994 -0.000643 941152.000000 1 0 0
-11.334707 -12.684913 -0.981505 17.039541 0.841552 1.628430 0.002999 -0.000242 831324.000000 1 0 0
-14.325407 -8.653613 4.698095 17.383165 0.543410 1.297126 0.008348 -0.000724 414966.000000 1 0 0
-7.947307 -15.563713 4.365695 18.012444 1.098680 1.325987 -0.000131 0.008762 860285.000000 1 0 0
-16.445307 -9.157513 1.243595 18.864112 0.508084 1.504825 -0.013921 0.005665 -2029430.000000 1 0 0
-6.639207 -17.036513 2.271195 18.424988 1.199197 1.447215 0.001022 0.000079 2307150.000000 1 0 0
-11.570307 -14.871013 -4.620205 19.400137 0.909587 1.811260 0.008884 -0.005242 -232389.000000 1 0 0
-10.179507 -9.974113 -12.713005 19.097796 0.775207 2.299200 0.014692 -0.000562 -21378.100000 1 0 0
-4.361607 -15.990113 -4.526405 17.181259 1.304505 1.837393 -0.003955 -0.007559 582757.000000 1 0 0
-11.846507 -8.226513 0.117595 14.423213 0.606975 1.562643 0.006114 -0.000402 1595080.000000 1 0 0
-9.666107 -11.164513 3.465295 15.168660 0.857207 1.340310 0.006959 0.004178 2470210.000000 1 0 0
-14.257807 -12.787113 -0.596505 19.161189 0.731072 1.601932 0.001812 0.003388 -348657.000000 1 0 0
5.503593 -14.955613 -7.137605 17.461538 -1.218181 1.991893 0.003845 -0.001162 2348490.000000 1 0 0
-7.427307 -10.502713 -1.293805 12.928488 0.955268 1.671038 0.005993 -0.001698 1079340.000000 1 0 0
-11.639807 -8.219713 -6.108705 15.503712 0.614857 1.975793 0.005838 -0.004082 -666054.000000 1 0 0
-14.388307 -6.710913 -9.122105 18.310449 0.436420 2.092308 0.004485 -0.006733 2181680.000000 1 0 0
-3.887107 -16.423513 1.428595 16.937599 1.338393 1.486351 -0.002317 -0.003324 1168950.000000 1 0 0
-8.037507 -15.451313 0.076595 17.416959 1.091133 1.566399 0.006477 -0.005349 2008410.000000 1 0 0
0.964793 -18.524213 3.645095 18.904074 -1.518761 1.376760 0.006970 -0.005824 42804.200000 1 0 0
-14.043707 -8.680613 -4.635205 17.148291 0.553632 1.844502 -0.003320 -0.001883 685558.000000 1 0 0
-3.283207 -14.495013 11.068195 18.530780 1.348049 0.930682 -0.007571 -0.011197 57449.300000 1 0 0
-10.862307 -12.118713 -3.775005 16.706394 0.840015 1.798726 0.007105 -0.003172 -208667.000000 1 0 0
-9.940407 -10.665713 0.535295 14.589574 0.820582 1.534098 0.004123 0.002748 2332310.000000 1 0 0
-0.203907 -13.204013 -11.126005 17.267760 1.555355 2.270933 0.001875 0.003470 -323934.000000 1 0 0
-5.958807 -12.545013 -6.352805 15.272291 1.127353 1.999805 -0.002632 -0.004856 3757350.000000 1 0 0
1.650393 -15.918013 9.812995 18.772368 -1.467485 1.020739 0.011048 -0.006822 257889.000000 1 0 0
-8.987807 -15.663313 -5.385505 18.844727 1.049855 1.860620 0.013375 -0.011591 -917900.000000 1 0 0
-3.355107 -15.469013 5.971195 16.917514 1.357212 1.210064 -0.005480 0.001611 -688889.000000 1 0 0
-17.413907 -5.451213 -6.475805 19.362230 0.303375 1.911824 0.005268 -0.007446 -294372.000000 1 0 0
18.960193 5.613587 -2.750405 19.964118 0.287849 1.709003 -0.002308 0.011387 -109126.000000 1 0 0
12.904993 -12.444113 -5.905305 18.875047 -0.767219 1.889002 0.029726 -0.000645 -800915.000000 1 0 0
10.957793 -13.559613 -1.686905 17.515193 -0.891124 1.667257 0.018162 -0.001274 3448670.000000 1 0 0
18.660393 -3.009213 4.586395 19.449952 -0.159886 1.332750 0.015991 -0.004071 -987895.000000 1 0 0
8.484593 -17.005813 4.893695 19.624837 -1.108011 1.318775 0.018896 -0.002797 588507.000000 1 0 0
18.139593 -1.181113 6.686195 19.368662 -0.065021 1.218337 0.039255 -0.005664 -550274.000000 1 0 0
18.048093 -4.170313 -4.889405 19.158065 -0.227081 1.828865 0.003329 0.002100 794595.000000 1 0 0
5.357393 -11.824013 14.860095 19.731482 -1.145372 0.718011 -0.002058 -0.001222 202913.000000 1 0 0
16.009193 -8.936213 -0.773805 18.350720 -0.509111 1.612976 0.008493 0.000594 194454.000000 1 0 0
13.798093 -12.570613 -1.372505 18.716074 -0.738881 1.644195 0.013590 0.000446 645087.000000 1 0 0
11.133793 -1.979913 13.863095 17.890411 -0.175989 0.684256 0.011410 -0.007107 -1402850.000000 1 0 0
16.953793 -6.201013 -1.358705 18.103307 -0.350645 1.645920 0.000795 -0.003186 -2482670.000000 1 0 0
17.796593 3.666387 -0.907505 18.192984 0.203174 1.620699 -0.002946 0.002778 355421.000000 1 0 0
9.711593 -11.239713 9.554795 17.661831 -0.858206 0.999188 0.014477 0.004401 1505240.000000 1 0 0
8.962793 -11.073913 4.258295 14.869307 -0.890373 1.280348 0.001693 -0.001364 -369532.000000 1 0 0
13.920393 -10.274713 6.854195 18.609864 -0.635845 1.193606 0.025259 -0.000958 756460.000000 1 0 0
16.290093 -0.486413 -4.724605 16.968371 -0.029851 1.852962 0.000831 0.003286 10446.000000 1 0 0
15.908693 -0.503213 -1.742505 16.011747 -0.031621 1.679839 0.005508 -0.001331 1731830.000000 1 0 0
12.995493 -5.229413 -0.263505 14.010675 -0.382575 1.589605 0.008181 -0.002865 1275390.000000 1 0 0
14.301893 -7.595413 1.042895 16.227201 -0.488199 1.506484 0.008815 0.000079 1788320.000000 1 0 0
15.534093 2.426787 3.738495 16.160869 0.154971 1.337352 0.013780 -0.001773 1698320.000000 1 0 0
15.869193 -7.106613 5.113395 18.124073 -0.421043 1.284780 0.025855 -0.007300 -987210.000000 1 0 0
13.506793 -12.045613 3.302395 18.396632 -0.728277 1.390307 0.014240 -0.002276 2245710.000000 1 0 0
14.048393 -1.029513 9.286095 16.871538 -0.073153 0.987953 0.021649 -0.004362 1271340.000000 1 0 0
14.313293 -2.867713 -1.638305 14.689390 -0.197735 1.682559 0.002406 0.003184 -206977.000000 1 0 0
15.012293 1.789187 9.225595 17.711062 0.118622 1.022898 0.025227 -0.005189 -2050260.000000 1 0 0
14.472693 -10.216413 -3.027505 17.972193 -0.614681 1.740058 0.010552 0.002301 1367820.000000 1 0 0
7.254893 -12.656213 6.059695 15.796617 -1.050295 1.177097 0.001885 -0.001388 758516.000000 1 0 0
12.323893 -4.622813 7.000395 14.908194 -0.358867 1.081996 0.011413 -0.003886 2870690.000000 1 0 0
15.059193 -9.035013 -5.661905 18.451773 -0.540395 1.882677 0.014240 0.003078 -1632270.000000 1 0 0
14.293293 -4.642013 4.676095 15.738881 -0.314023 1.269137 0.013124 -0.005782 1041420.000000 1 0 0
17.152793 -4.257613 0.986695 17.700823 -0.243300 1.515025 0.004518 -0.007390 -2550550.000000 1 0 0
10.040293 -14.488813 1.023395 17.657308 -0.964805 1.512805 0.017040 0.000017 616081.000000 1 0 0
16.397793 -2.648713 8.612395 18.710335 -0.160145 1.092462 0.033688 -0.008861 277416.000000 1 0 0
16.009393 -2.640913 3.259995 16.550004 -0.163488 1.372521 0.014430 -0.004258 760114.000000 1 0 0
7.733593 -15.270513 2.625795 17.317385 -1.102010 1.418582 0.008701 -0.002092 2417290.000000 1 0 0
16.563593 -7.117413 8.035295 19.737683 -0.405847 1.151515 0.031353 -0.001594 366828.000000 1 0 0
10.274293 -8.640313 5.147995 14.377689 -0.699225 1.204613 0.002169 -0.000733 1480950.000000 1 0 0
10.791393 -11.887913 2.122695 16.195137 -0.833709 1.439348 0.011426 -0.002126 -219156.000000 1 0 0
12.277893 -7.375013 12.101495 18.750564 -0.540915 0.869258 0.014882 -0.004838 -116559.000000 1 0 0
15.016493 -9.793013 4.326995 18.442371 -0.577886 1.333966 0.016840 -0.007321 940536.000000 1 0 0
7.301993 -10.414513 7.807795 14.924572 -0.959308 1.020253 -0.001835 0.005597 386622.000000 1 0 0
15.262993 -3.295813 -4.421805 16.228792 -0.212670 1.846752 0.003693 0.001855 11212.400000 1 0 0
11.777093 -9.101113 9.899895 17.875628 -0.657922 0.983850 0.010443 -0.000072 -530266.000000 1 0 0
16.890193 -6.740013 2.486795 18.354578 -0.379686 1.434892 0.013901 -0.005210 1167960.000000 1 0 0
17.654593 3.955587 2.175595 18.222638 0.220414 1.451121 0.011590 -0.001443 965653.000000 1 0 0
14.675793 -4.986213 8.871495 17.859021 -0.327521 1.050945 0.027738 -0.009351 385837.000000 1 0 0
12.700393 -12.736413 6.109495 18.995845 -0.786814 1.243354 0.018810 0.003760 23336.200000 1 0 0
18.259893 0.771687 -0.759905 18.291983 0.042236 1.612351 0.004231 -0.006598 -1450610.000000 1 0 0
11.702293 -2.190913 10.955995 16.179542 -0.185078 0.826912 0.015322 -0.006789 1864990.000000 1 0 0
5.739893 -12.547813 10.604495 17.402566 -1.141771 0.915538 -0.001194 0.000337 -2261960.000000 1 0 0
10.710093 -5.104913 10.967295 16.156973 -0.444790 0.824674 0.009572 -0.004291 886639.000000 1 0 0
17.879493 1.205787 5.122895 18.637978 0.067338 1.292349 0.025827 -0.005330 -483238.000000 1 0 0
12.247693 -7.755513 7.262595 16.214168 -0.564490 1.106363 0.014080 -0.003622 -540.815000 1 0 0
10.597393 -7.839513 14.369695 19.500021 -0.636914 0.742313 0.009626 -0.005057 -1182150.000000 1 0 0
14.202393 -0.254313 3.732895 14.686972 -0.017904 1.313813 0.011439 0.000047 1516940.000000 1 0 0
11.633093 -7.766813 2.541395 14.216572 -0.588682 1.391067 0.007151 -0.001959 730183.000000 1 0 0
9.270393 6.018187 3.464595 11.582840 0.575801 1.267032 0.005040 0.001178 1732180.000000 1 0 0
-3.854707 14.735287 -9.872205 18.150699 -1.314933 2.145877 0.002878 0.003077 303200.000000 1 0 0
8.859693 -6.594213 9.260395 14.412936 -0.639839 0.873032 0.000775 -0.000107 -1055560.000000 1 0 0
5.790493 -10.526513 -8.482105 14.706576 -1.067887 2.185548 0.005141 -0.002553 165599.000000 1 0 0
5.369593 0.950787 0.514395 5.477328 0.175252 1.476744 0.000909 0.001489 5110550.000000 1 0 0
-0.512407 9.903087 11.013195 14.819722 -1.519100 0.733039 0.002397 0.000992 1030370.000000 1 0 0
-6.291307 -5.181013 1.093195 8.223048 0.688918 1.437459 0.005633 -0.001425 1257360.000000 1 0 0
-0.932707 4.056387 -10.924605 11.690646 -1.344789 2.777575 0.008754 -0.006581 1653980.000000 1 0 0
10.963693 5.704687 1.229695 12.420071 0.479775 1.471625 0.008652 0.001372 930214.000000 1 0 0
-10.085707 -1.770413 -13.659805 17.071793 0.173766 2.498323 -0.000809 0.001159 1515770.000000 1 0 0
7.464293 10.849887 -5.986705 14.466387 0.968196 1.997460 0.006238 -0.002262 1454850.000000 1 0 0
-12.379907 -2.987413 -9.627605 15.964884 0.236785 2.218114 0.011113 -0.004300 -679780.000000 1 0 0
-3.899207 -8.646013 2.459095 9.798189 1.147125 1.317110 0.004003 -0.000615 -157376.000000 1 0 0
8.123293 -6.630213 -6.008405 12.085054 -0.684540 2.091138 0.007354 -0.004513 3107390.000000 1 0 0
14.448793 3.240787 -4.233205 15.400985 0.220643 1.849247 0.011944 0.001171 217247.000000 1 0 0
-2.439007 -4.960513 9.808895 11.259213 1.113823 0.513179 -0.001148 0.000918 1690550.000000 1 0 0
3.539193 -1.933413 -4.626205 6.137242 -0.499988 2.424610 0.001196 -0.004192 -1980460.000000 1 0 0
-3.906207 8.374387 -3.458705 9.866684 -1.134350 1.928948 0.000259 0.001440 -783249.000000 1 0 0
5.768493 0.123687 11.689495 13.035916 0.021439 0.458507 -0.002707 -0.002313 1212970.000000 1 0 0
7.151193 4.664687 12.392495 15.049013 0.577987 0.603286 -0.002850 0.004207 1211930.000000 1 0 0
1.145393 -14.549813 12.348695 19.118035 -1.492236 0.868570 -0.002379 -0.004207 436181.000000 1 0 0
3.009393 8.722587 -9.062505 12.933250 1.238573 2.347194 0.003967 -0.000895 92826.100000 1 0 0
-4.496007 -8.877213 -4.589205 10.958093 1.101989 2.002915 0.009041 -0.004186 2560330.000000 1 0 0
5.707593 -6.595313 -4.137705 9.653775 -0.857429 2.013750 0.005962 -0.006776 2759790.000000 1 0 0
-3.043707 3.415187 8.680295 9.811992 -0.842849 0.485028 -0.001149 0.002840 833915.000000 1 0 0
-3.725107 3.186187 -11.210205 12.235069 -0.707579 2.729377 0.004183 -0.006203 1394560.000000 1 0 0
3.043393 -6.135313 8.525495 10.935647 -1.110318 0.676760 -0.007004 0.004432 461453.000000 1 0 0
-5.142307 -8.686713 10.409395 14.500269 1.036299 0.770050 0.001249 -0.001831 1629720.000000 1 0 0
-13.249107 -2.450013 6.612795 15.009013 0.182854 1.114542 0.008613 -0.002735 -134448.000000 1 0 0
4.015093 -5.965613 -8.400505 11.057938 -0.978395 2.433619 0.004594 -0.004989 2809420.000000 1 0 0
2.917293 -0.522613 12.329895 12.681090 -0.177263 0.235895 -0.005993 0.000762 316095.000000 1 0 0
1.478093 -1.434613 -7.557805 7.833472 -0.770472 2.875513 0.000810 -0.005888 45017.900000 1 0 0
3.639593 -3.595013 3.513795 6.206248 -0.779236 0.968944 0.000324 0.001387 2268940.000000 1 0 0
1.452293 0.475887 -11.774805 11.873570 0.316654 3.012522 0.007592 -0.006059 1067000.000000 1 0 0
4.058393 3.546987 -10.626205 11.915028 0.718257 2.672176 -0.000952 0.001786 1668150.000000 1 0 0
2.906093 3.239287 3.391095 5.517054 0.839564 0.908845 -0.008307 0.005686 1130380.000000 1 0 0
-5.274807 0.916787 2.600495 5.952030 -0.172086 1.118637 0.001807 -0.004325 1019950.000000 1 0 0
-9.478607 -9.225713 5.710695 14.407283 0.771878 1.163231 0.010233 -0.001830 -794536.000000 1 0 0
-3.008107 3.751987 -0.599805 4.846223 -0.894997 1.694882 0.000337 -0.005932 -1654.550000 1 0 0
-16.013107 -6.449813 5.035195 17.982572 0.382904 1.286998 0.013314 -0.002046 1416240.000000 1 0 0
0.989193 6.710187 -8.128305 10.586522 1.424434 2.446193 0.004202 -0.002868 1410250.000000 1 0 0
-1.690407 6.518287 -9.481305 11.629303 -1.317053 2.524034 0.005634 -0.002897 985570.000000 1 0 0
2.090893 -0.350613 5.292395 5.701246 -0.166140 0.381016 -0.002737 0.001067 2903580.000000 1 0 0
-3.370007 -0.456613 -6.374605 7.225028 0.134673 2.651512 0.007789 -0.008507 -972344.000000 1 0 0
1.843493 -1.252213 -2.523205 3.366462 -0.596671 2.418122 0.004581 -0.001780 828220.000000 1 0 0
2.458193 -8.675013 -7.702805 11.858826 -1.294670 2.277778 -0.000261 -0.001755 2551000.000000 1 0 0
-2.417007 14.029987 -5.506005 15.264290 -1.400197 1.939827 0.000660 0.006949 1447900.000000 1 0 0
6.906693 -5.089213 -8.212505 11.876352 -0.635033 2.334361 0.004324 -0.004967 3141190.000000 1 0 0
-14.180807 -4.999413 -2.148005 15.188922 0.338943 1.712691 0.007183 -0.002194 345130.000000 1 0 0
-2.757707 6.865187 -6.818005 10.060861 -1.188830 2.315394 0.004410 -0.001929 -2320230.000000 1 0 0
-5.517707 -1.059613 -8.153105 9.901565 0.189729 2.538201 0.014325 -0.008211 -297461.000000 1 0 0
-5.738907 -10.559713 3.438995 12.500771 1.072979 1.292100 0.001721 -0.000714 -3563150.000000 1 0 0
8.101993 -7.693613 6.691395 13.023392 -0.759550 1.031190 -0.004270 0.000856 194307.000000 1 0 0
8.784993 -5.936013 13.133895 16.879323 -0.594230 0.679152 0.000988 -0.001465 -62881.400000 1 0 0
-4.746607 9.526687 -0.795805 10.673395 -1.108555 1.645425 -0.000987 0.005632 541602.000000 1 0 0
2.868493 6.668587 12.168795 14.169611 1.164572 0.537883 -0.004935 0.001612 657021.000000 1 0 0
6.056993 -2.795913 10.959795 12.830487 -0.432459 0.546787 -0.002322 -0.001230 473246.000000 1 0 0
-9.676107 -6.479813 -1.064005 11.693893 0.590080 1.661910 0.007378 -0.004144 -14509.300000 1 0 0
0.771093 -13.388513 6.207395 14.777639 -1.513266 1.137292 -0.001803 0.000591 2079760.000000 1 0 0
-0.549107 -3.105513 8.692895 9.247278 1.395788 0.348022 -0.003085 0.000644 761849.000000 1 0 0
4.202493 0.710987 3.368295 5.432482 0.167595 0.902017 -0.004401 0.004413 2485650.000000 1 0 0
-10.149507 5.554887 8.248095 14.209164 -0.500773 0.951482 0.000780 -0.008187 718848.000000 1 0 0
9.430293 7.960787 -0.015405 12.341183 0.701101 1.572045 0.006498 0.002227 2587000.000000 1 0 0
4.253093 2.844587 8.244795 9.703459 0.589497 0.555426 -0.006781 0.001956 2737460.000000 1 0 0
1.350193 2.638087 -9.693205 10.136111 1.097747 2.844885 0.006443 -0.005359 1826570.000000 1 0 0
-1.430607 -10.167413 3.069795 10.716649 1.431009 1.280276 0.003827 -0.001714 -1938450.000000 1 0 0
-9.934407 9.487987 9.038695 16.444219 -0.762417 0.988842 0.002996 -0.011624 538309.000000 1 0 0
9.841793 -1.978013 -7.709805 12.657587 -0.198339 2.225728 0.008391 -0.000867 -118113.000000 1 0 0
-5.209807 -1.877813 6.715195 8.704144 0.345943 0.689610 0.000592 -0.003456 1161170.000000 1 0 0
3.144993 -7.808413 -5.013405 9.797781 -1.187905 2.107944 0.000102 -0.005254 2667700.000000 1 0 0
-5.157007 4.928687 -13.159005 14.968169 -0.762764 2.644835 0.002746 -0.007396 2826570.000000 1 0 0
-5.554307 9.690287 5.522995 12.460155 -1.050329 1.111572 0.001777 0.003529 2524090.000000 1 0 0
-0.426807 -1.770113 -9.425205 9.599477 1.334194 2.950755 0.005375 -0.007632 -724592.000000 1 0 0
-16.787907 0.222887 6.460595 17.989519 -0.013276 1.203460 0.005798 0.003381 -361305.000000 1 0 0
-5.944807 -2.914813 4.066995 7.770284 0.455868 1.019956 -0.000439 -0.001656 2307150.000000 1 0 0
1.006393 -5.649113 -5.262205 7.785635 -1.394495 2.312963 0.002795 -0.004600 745599.000000 1 0 0
-6.993807 1.420987 -8.529805 11.121606 -0.200449 2.444883 0.006148 -0.003353 149158.000000 1 0 0
7.961193 1.896587 4.707195 9.441150 0.233870 1.048833 -0.000318 0.002817 1154690.000000 1 0 0
0.481393 -8.049713 -0.606005 8.086833 -1.511065 1.645804 0.003373 -0.000711 1090120.000000 1 0 0
5.407793 5.468087 -3.464805 8.434991 0.790942 1.994090 0.000795 -0.000095 147472.000000 1 0 0
-0.729707 -0.412913 -1.220805 1.480991 0.514939 2.539790 0.003418 -0.004206 470939.000000 1 0 0
9.118593 6.337987 -6.354105 12.794275 0.607404 2.090516 0.001944 -0.002553 -235046.000000 1 0 0
-15.019507 -7.029613 2.524295 16.774180 0.437748 1.419736 0.000163 -0.002115 617208.000000 1 0 0
-6.425007 6.854987 8.860995 12.914674 -0.817765 0.814656 0.001499 -0.000001 668781.000000 1 0 0
-9.418607 -3.220613 -9.724105 13.915485 0.329478 2.344511 0.005565 -0.001489 791782.000000 1 0 0
14.959393 3.481287 -1.228105 15.408148 0.228646 1.650586 0.003239 0.000534 635849.000000 1 0 0
12.167593 1.722487 -5.774705 13.578089 0.140629 2.010085 0.013915 -0.001141 -498423.000000 1 0 0
1.639393 -9.556513 12.736995 16.007673 -1.400903 0.650666 -0.008004 0.003122 -379069.000000 1 0 0
-3.616507 6.334887 7.904495 10.755973 -1.052058 0.745287 0.000595 0.003275 1446730.000000 1 0 0
-4.032107 13.157287 -12.351105 18.491130 -1.273429 2.302244 0.002355 0.002191 217031.000000 1 0 0
-10.225907 7.790687 6.417495 14.368306 -0.651047 1.107787 -0.000586 -0.004913 255089.000000 1 0 0
8.069793 -9.297313 -7.256205 14.290350 -0.855962 2.103390 0.014302 -0.002090 1454320.000000 1 0 0
5.885393 -3.871913 -0.371905 7.054635 -0.581898 1.623539 0.006382 -0.002728 -1486510.000000 1 0 0
-1.669807 -4.424113 4.117995 6.270480 1.209894 0.854326 0.002027 0.000013 1662570.000000 1 0 0
9.958993 -2.037213 -2.597305 10.491795 -0.201776 1.820953 0.011115 -0.002184 -2598340.000000 1 0 0
13.608193 6.909487 1.488795 15.334289 0.469824 1.473554 0.008862 0.005321 -745025.000000 1 0 0
5.480293 -3.746413 -3.294205 7.410871 -0.599645 2.031423 0.007412 -0.007339 -1888520.000000 1 0 0
-12.313707 -5.936013 2.050495 13.822741 0.449197 1.421905 0.008540 -0.001330 2015180.000000 1 0 0
3.747393 -5.781413 -0.299205 6.896174 -0.995702 1.614197 0.004117 -0.002814 354026.000000 1 0 0
-5.278607 3.803987 -8.786505 10.933283 -0.624446 2.504195 0.005581 -0.006762 737004.000000 1 0 0
-1.718007 -9.272613 7.217095 11.875157 1.387596 0.917575 -0.003449 -0.000455 1524170.000000 1 0 0
-7.453507 -7.416413 2.555795 10.820815 0.782904 1.332351 0.009761 -0.002223 -2314090.000000 1 0 0
-5.725607 13.028087 -8.513205 16.582771 -1.156724 2.109911 0.003262 0.002397 -179181.000000 1 0 0
9.152393 -13.796513 -4.225205 17.086908 -0.985069 1.820666 0.017191 0.001649 73757.000000 1 0 0
-6.457307 -5.119713 -6.717405 10.631642 0.670369 2.254710 0.008694 -0.003299 1231890.000000 1 0 0
3.427693 0.362287 -6.204505 7.097620 0.105303 2.634514 0.001585 -0.007002 975332.000000 1 0 0
-3.636507 5.708487 4.979295 8.402642 -1.003589 0.936530 0.000643 0.004084 1010750.000000 1 0 0
-2.701107 -10.753213 -2.835505 11.444110 1.324697 1.821174 0.006542 -0.000475 2009980.000000 1 0 0
-12.547307 -0.359613 1.815795 12.683113 0.028653 1.427136 0.004466 -0.001676 1148900.000000 1 0 0
8.320793 -12.032613 -6.211405 15.893424 -0.965784 1.972314 0.016509 -0.001052 -455556.000000 1 0 0
6.148493 3.837787 0.945695 7.309371 0.558012 1.441051 0.000027 0.003743 -995222.000000 1 0 0
3.465393 -4.825913 -10.977805 12.482411 -0.948039 2.645527 0.002549 -0.002849 -99423.500000 1 0 0
-7.637407 4.195887 8.536995 12.199006 -0.502372 0.795664 0.004422 -0.002863 1111460.000000 1 0 0
8.171393 8.698087 4.071195 12.609639 0.816610 1.242043 0.001310 0.001158 1545980.000000 1 0 0
0.262793 10.518987 -6.264905 12.246109 1.545819 2.107823 0.001575 0.001797 1871080.000000 1 0 0
5.387393 8.073287 3.271595 10.242329 0.982348 1.245680 0.000713 0.002838 2624420.000000 1 0 0
8.052093 6.640287 -3.748605 11.089709 0.689601 1.915614 0.004907 -0.001383 -126331.000000 1 0 0
10.512993 2.538987 -8.206405 13.576250 0.236972 2.219894 0.003119 -0.002621 -52092.900000 1 0 0
3.260193 -12.435513 -0.311405 12.859542 -1.314399 1.595015 -0.002272 -0.002206 -1607390.000000 1 0 0
0.610493 2.141987 5.188495 5.646352 1.293146 0.405485 -0.003111 0.001999 1237390.000000 1 0 0
-4.829307 13.420087 1.451395 14.336230 -1.225368 1.469383 -0.000967 0.002954 825009.000000 1 0 0
8.213493 4.037887 -8.031505 12.176661 0.456918 2.291059 -0.002889 -0.000074 380380.000000 1 0 0
-13.855807 -0.615313 -3.564505 14.320185 0.044379 1.822356 0.000265 -0.000486 -599195.000000 1 0 0
-8.541307 0.035687 -0.437705 8.552590 -0.004178 1.621997 0.001460 -0.004043 224658.000000 1 0 0
1.855793 -3.896213 -1.193705 4.477653 -1.126282 1.840651 0.002470 -0.000666 -2020830.000000 1 0 0
8.114193 -5.700113 -0.318405 9.921330 -0.612393 1.602895 0.006566 -0.002792 3415290.000000 1 0 0
-2.321707 -1.140913 7.373995 7.814590 0.456753 0.337399 -0.000547 0.000256 1786960.000000 1 0 0
-5.910207 8.858887 -11.715005 15.831986 -0.982459 2.403804 0.003995 -0.002338 405145.000000 1 0 0
-6.200507 9.132587 -8.877505 14.165470 -0.974343 2.248108 0.003014 -0.003121 906693.000000 1 0 0
-1.422807 13.950787 -8.304305 16.297556 -1.469160 2.105450 0.009852 0.005308 -703101.000000 1 0 0
-1.468507 7.245987 9.762095 12.245789 -1.370840 0.648187 0.001183 -0.000967 78804.300000 1 0 0
10.044893 2.302687 -4.111505 11.095346 0.225346 1.950409 0.007769 -0.001918 -524779.000000 1 0 0
-2.993607 -7.515013 -6.967505 10.676293 1.191713 2.281826 0.007529 -0.003190 1396190.000000 1 0 0
-5.495607 -4.950113 -1.587505 7.564753 0.733224 1.782223 0.008741 -0.001661 1121800.000000 1 0 0
5.655593 7.429587 -8.814105 12.840286 0.920149 2.327380 -0.000663 0.001571 1669770.000000 1 0 0
-9.612607 5.150487 -7.442705 13.203166 -0.491880 2.169662 0.001819 0.001729 23181.100000 1 0 0
-0.459107 6.072487 -5.350605 8.106470 -1.495335 2.291670 0.003244 -0.003201 -1849950.000000 1 0 0
-8.222007 2.742487 -6.327405 10.731202 -0.321950 2.201393 0.007183 -0.000720 1926910.000000 1 0 0
3.627193 1.307787 -2.044105 4.364081 0.346043 2.058267 -0.000969 -0.001143 1527680.000000 1 0 0
-6.704707 12.524987 -3.445505 14.618478 -1.079304 1.808730 0.004007 0.004081 206797.000000 1 0 0
-6.647307 3.117087 -2.314805 7.698133 -0.438480 1.876220 0.003518 -0.002549 -2689320.000000 1 0 0
12.145493 3.989187 -0.870105 12.813418 0.317349 1.638754 0.009880 -0.001075 -393883.000000 1 0 0
2.252993 12.339187 -5.482505 13.689024 1.390197 1.982863 0.005404 0.000575 -54951.100000 1 0 0
-9.181307 -1.402113 -4.214305 10.199151 0.151543 1.996763 0.000230 -0.001030 37796.200000 1 0 0
-1.144907 5.756187 3.439895 6.802748 -1.374458 1.040647 -0.002224 0.004502 1179270.000000 1 0 0
11.553793 2.607887 12.058995 16.902975 0.221997 0.776423 0.014538 -0.000943 808988.000000 1 0 0
-6.953007 -2.302813 -5.849605 9.373640 0.319826 2.244709 0.008903 -0.003976 542509.000000 1 0 0
7.470693 -7.467513 10.845195 15.139130 -0.785185 0.772213 -0.004702 0.002924 -390602.000000 1 0 0
-5.467707 -1.938713 -11.031105 12.463535 0.340745 2.657441 0.006864 -0.003699 -1679440.000000 1 0 0
0.744793 -6.194213 4.500595 7.692746 -1.451131 0.945862 0.000041 0.000616 871252.000000 1 0 0
-4.800307 -9.326813 7.357095 12.812464 1.095475 0.959153 -0.000017 0.000485 907884.000000 1 0 0
-8.782307 9.427287 1.655695 12.990150 -0.820803 1.442991 0.004260 0.000162 1713350.000000 1 0 0
-8.168507 7.145687 -9.108305 14.168506 -0.718708 2.269017 0.003622 0.000944 17590.600000 1 0 0
-1.225707 -10.610813 -0.067605 10.681586 1.455791 1.577125 0.003462 -0.001165 -353027.000000 1 0 0
-3.895207 10.282587 7.905095 13.542332 -1.208684 0.947479 0.001648 0.003063 1817160.000000 1 0 0
-7.405707 12.082187 2.001895 14.311930 -1.020913 1.430460 0.001597 -0.001839 1162000.000000 1 0 0
-8.180207 -8.212013 -2.865905 11.940116 0.787338 1.813186 0.011348 -0.004058 -799159.000000 1 0 0
5.403393 4.679787 -8.132105 10.827197 0.713757 2.420495 0.000196 -0.000159 1370390.000000 1 0 0
-8.879707 -0.235713 -10.227805 13.546688 0.026539 2.426457 0.002195 -0.002112 -1424310.000000 1 0 0
-15.110707 -2.347413 -1.443905 15.359970 0.154116 1.664940 0.000099 -0.000961 438415.000000 1 0 0
-7.088807 -5.761013 8.779395 12.669579 0.682432 0.805223 0.004049 0.000100 -1336200.000000 1 0 0
8.119593 3.413887 -1.109805 8.877729 0.398011 1.696134 0.004197 0.001901 763239.000000 1 0 0
11.877993 7.167787 -5.868105 15.063152 0.542953 1.970958 0.004394 -0.000193 -144775.000000 1 0 0
3.790993 13.361787 -9.497205 16.825750 1.294342 2.170557 0.003063 -0.002595 1380690.000000 1 0 0
-9.729007 5.404487 -0.430305 11.137649 -0.507058 1.609441 0.001866 0.000405 1369850.000000 1 0 0
11.346393 -1.306513 -5.209205 12.553223 -0.114643 1.998706 0.017086 -0.002274 -1509800.000000 1 0 0
10.614293 1.707687 -1.326905 10.832363 0.159519 1.693599 0.009165 0.001469 857206.000000 1 0 0
14.619093 5.014987 4.899895 16.213480 0.330464 1.263785 0.009963 -0.003600 1794320.000000 1 0 0
0.843893 -0.830913 10.359295 10.426772 -0.777648 0.113828 -0.003014 0.001158 1692020.000000 1 0 0
-7.905707 1.374687 -12.611105 14.947573 -0.172164 2.574915 -0.004110 -0.001875 -633727.000000 1 0 0
3.057993 -11.651813 -7.846505 14.376498 -1.314137 2.148124 -0.003760 0.001780 1532800.000000 1 0 0
2.903993 5.016787 -6.783805 8.923079 1.046070 2.434500 0.000344 -0.001518 -938097.000000 1 0 0
6.498293 8.020887 0.538995 10.336970 0.889884 1.518630 0.004887 -0.000791 612021.000000 1 0 0
-9.018007 -5.312313 6.756095 12.457526 0.532350 0.997588 0.006375 -0.001042 -1404750.000000 1 0 0
-0.296307 -6.849213 -11.814305 13.659331 1.527562 2.615798 0.002835 0.001932 2682850.000000 1 0 0
6.337593 -13.359213 -4.676505 15.508170 -1.127839 1.877115 0.005683 -0.000249 3422840.000000 1 0 0
-3.208107 -0.359413 10.070895 10.575635 0.111568 0.310197 -0.001161 0.001680 -1279370.000000 1 0 0
8.605693 8.453887 6.959295 13.926878 0.776500 1.047541 -0.006015 0.002428 -1049500.000000 1 0 0
-7.936807 5.629487 -2.615805 10.076034 -0.616933 1.833411 0.005386 -0.001668 1398350.000000 1 0 0
-5.392407 5.799587 -6.426905 10.198940 -0.821763 2.252548 0.005593 -0.001563 -1467440.000000 1 0 0
3.241893 -13.640213 2.509795 14.243046 -1.337454 1.393659 -0.001030 -0.004757 -1513450.000000 1 0 0
-11.243807 -6.978613 6.529295 14.756556 0.555474 1.112448 0.013459 -0.003051 -1229220.000000 1 0 0
-12.916707 -3.759713 -6.764005 15.057507 0.283247 2.036679 0.013685 -0.004018 413778.000000 1 0 0
6.041193 0.291287 -7.284005 9.467713 0.048179 2.448623 0.003646 -0.001707 -2290.460000 1 0 0
-1.374507 2.155387 -2.548405 3.609616 -1.003111 2.354637 0.003003 -0.006082 2404540.000000 1 0 0
7.538293 0.939387 -4.990805 9.089359 0.123976 2.152062 0.004724 -0.000652 -427690.000000 1 0 0
3.696993 -4.507113 10.864795 12.329866 -0.883825 0.492450 -0.007387 0.002361 -188614.000000 1 0 0
6.004193 -2.677013 2.096495 6.900146 -0.419403 1.262083 0.004566 -0.001194 -1078980.000000 1 0 0
-6.293807 7.766187 1.117595 10.058563 -0.889739 1.459458 0.001894 0.002548 1757120.000000 1 0 0
6.124793 -3.473013 8.019695 10.671945 -0.515833 0.720502 -0.001109 -0.002940 1052470.000000 1 0 0
6.785193 -2.341413 -7.803505 10.602629 -0.332282 2.397935 0.002067 -0.004031 1299570.000000 1 0 0
12.247393 -8.170813 -5.863005 15.847260 -0.588335 1.949773 0.021795 -0.001877 1891020.000000 1 0 0
5.584093 -9.752913 9.999595 15.043048 -1.050800 0.843661 -0.007335 0.005839 1478320.000000 1 0 0
-6.594607 7.474887 -4.499305 10.936477 -0.847883 1.994790 0.003996 0.000895 2344120.000000 1 0 0
-1.230707 -7.584513 9.673295 12.353628 1.409933 0.671269 0.001953 0.000731 -1071180.000000 1 0 0
10.052793 -9.264813 0.759095 13.692028 -0.744630 1.515327 0.006521 -0.004812 25084.900000 1 0 0
11.079693 6.070287 9.757595 15.963040 0.501210 0.913142 0.005019 0.001914 2473620.000000 1 0 0
-15.268107 -4.229513 -4.915005 16.587982 0.270240 1.871612 0.002293 -0.004372 1883110.000000 1 0 0
-4.627007 -4.683313 7.846495 10.242563 0.791446 0.698096 0.003787 -0.002338 -1481180.000000 1 0 0
2.913093 10.896587 -11.052605 15.791827 1.309565 2.346045 0.001621 -0.002700 -907182.000000 1 0 0
9.968993 -1.474913 1.450195 10.181319 -0.146885 1.427873 0.006799 0.001520 264419.000000 1 0 0
-1.617407 -2.557113 0.693295 3.104109 1.006813 1.345549 0.003128 -0.002942 638971.000000 1 0 0
1.635193 3.079687 0.887395 3.598027 1.082688 1.321591 -0.006567 0.001155 -350359.000000 1 0 0
-8.937907 -2.282713 4.396195 10.218782 0.250052 1.126074 0.005467 -0.002756 4431260.000000 1 0 0
9.921693 4.887887 -2.741205 11.394983 0.457748 1.813742 0.005855 -0.001289 2067400.000000 1 0 0
2.574893 8.426387 2.526495 9.166092 1.274233 1.291546 -0.002140 0.001785 903462.000000 1 0 0
-8.040307 -0.013513 2.537795 8.431318 0.001681 1.265059 -0.000774 -0.004582 1936880.000000 1 0 0
6.807593 2.033587 13.771895 15.496577 0.290285 0.476282 -0.004401 -0.001396 -547933.000000 1 0 0
6.837593 4.340987 3.707895 8.907599 0.565666 1.141466 -0.003642 0.003550 994690.000000 1 0 0
-0.291007 3.356487 7.753495 8.453838 -1.484313 0.409910 -0.003590 0.003227 1013300.000000 1 0 0
2.744993 -10.351113 9.184595 14.108058 -1.311575 0.861872 -0.007700 -0.000329 886105.000000 1 0 0
1.376893 -4.557713 6.863395 8.353130 -1.277413 0.606487 -0.004440 0.000826 775700.000000 1 0 0
-0.137207 10.784587 -1.967005 10.963359 -1.558074 1.751189 0.000841 0.002200 2850410.000000 1 0 0
8.770693 5.511287 8.027795 13.105145 0.561023 0.911491 -0.002205 0.002492 -1663660.000000 1 0 0
2.611093 11.326487 -2.848905 11.967597 1.344225 1.811156 0.005915 -0.002822 627055.000000 1 0 0
1.531893 2.401587 -6.649505 7.233964 1.002998 2.736856 0.001787 -0.004175 2742670.000000 1 0 0
-13.548107 -2.182213 3.657295 14.201728 0.159700 1.310337 0.010635 0.000380 2353760.000000 1 0 0
-0.979607 -10.648813 -5.312705 11.940757 1.479062 2.031883 0.003401 -0.000955 669809.000000 1 0 0
-5.668207 2.806987 0.370595 6.336015 -0.459813 1.512273 0.004339 -0.003597 -171582.000000 1 0 0
3.778493 7.257687 -5.036705 9.608300 1.090790 2.122576 0.003050 -0.002285 -1432010.000000 1 0 0
2.972793 9.734287 -6.471005 12.061001 1.274398 2.137108 0.004561 -0.000647 1190350.000000 1 0 0
-12.148007 1.656887 -2.526505 12.518090 -0.135555 1.774021 -0.000538 -0.001660 828315.000000 1 0 0
-2.471607 9.543687 -5.743605 11.409636 -1.317386 2.098325 -0.001182 0.000997 504735.000000 1 0 0
-1.274007 3.396787 1.680695 3.998249 -1.211971 1.136957 -0.003338 -0.000760 432021.000000 1 0 0
12.845593 3.698487 9.666395 16.496280 0.280337 0.944715 0.017753 0.000169 307519.000000 1 0 0
-2.526907 -9.581913 11.514395 15.191432 1.312950 0.710627 -0.006680 0.001008 1421140.000000 1 0 0
-0.478707 -8.872413 -7.556405 11.663967 1.516894 2.275544 0.005210 -0.000038 3644330.000000 1 0 0
2.370993 7.582887 -0.498005 7.960514 1.267750 1.633397 -0.001758 0.000529 1764990.000000 1 0 0
-11.802207 -1.380313 -5.547105 13.113647 0.116425 2.007553 0.005480 0.001086 107757.000000 1 0 0
-6.268407 -7.177213 -10.946805 14.513368 0.852887 2.425318 0.007110 0.000052 450870.000000 1 0 0
-4.646407 -2.165613 -1.496705 5.340328 0.436148 1.854866 0.004337 -0.003548 -2011900.000000 1 0 0
-10.467507 3.740687 4.492095 11.989177 -0.343218 1.186746 0.002825 -0.006606 3779930.000000 1 0 0
6.765293 9.327887 -3.615905 12.076979 0.943307 1.874865 0.007326 -0.000980 1022780.000000 1 0 0
1.270893 -2.656113 -11.498205 11.869238 -1.124514 2.890896 0.005652 -0.004597 -1171890.000000 1 0 0
1.287793 8.785987 7.622695 11.702882 1.425259 0.861432 -0.003543 0.004628 1565520.000000 1 0 0
10.349393 0.364187 10.462895 14.721234 0.035175 0.780254 0.009406 -0.002929 2489560.000000 1 0 0
-5.227407 -0.726913 -4.023205 6.636292 0.138172 2.222124 0.006498 -0.006345 1305240.000000 1 0 0
11.643693 5.656087 5.441395 14.041926 0.452194 1.172867 0.006745 0.000187 3698830.000000 1 0 0
9.955893 -3.468013 3.644295 11.154721 -0.335193 1.237982 0.007270 -0.003191 -1168470.000000 1 0 0
7.384693 -1.733213 -3.444205 8.330682 -0.230531 1.997021 0.007072 -0.001038 -3447670.000000 1 0 0
2.380493 9.320787 10.558595 14.283828 1.320745 0.738916 -0.000489 0.005766 1975960.000000 1 0 0
2.408693 -10.875113 6.298895 12.796326 -1.352828 1.056132 -0.008373 0.000043 2504370.000000 1 0 0
5.923793 -7.567513 -1.306005 9.698671 -0.906636 1.705865 0.002103 -0.004741 1208640.000000 1 0 0
-0.252107 -5.617513 -2.462505 6.138725 1.525948 1.983560 0.004517 -0.000311 1408370.000000 1 0 0
7.792993 -5.128813 2.681195 9.706918 -0.582070 1.290943 0.003295 -0.003625 1529140.000000 1 0 0
-2.758607 -12.512313 4.645395 13.628925 1.353796 1.222977 -0.001123 -0.001836 -438892.000000 1 0 0
4.830093 -10.260213 -1.151305 11.398564 -1.130814 1.671973 -0.001050 -0.004490 445692.000000 1 0 0
1.013993 0.164387 0.997395 1.431783 0.160720 0.800134 -0.004350 0.000485 -1444260.000000 1 0 0
-1.633107 8.574287 2.449095 9.065512 -1.382585 1.297242 -0.003236 0.005742 277179.000000 1 0 0
-7.615907 0.650187 -3.072805 8.238138 -0.085166 1.953034 0.002721 -0.003306 -231362.000000 1 0 0
4.440893 -6.377113 12.901395 15.061046 -0.962504 0.542139 -0.006774 0.001600 -1247840.000000 1 0 0
-5.023207 12.976587 8.537195 16.325076 -1.201462 1.020488 -0.000270 -0.001134 2350470.000000 1 0 0
0.676693 6.099587 8.310895 10.331208 1.460307 0.636055 -0.003367 0.005319 707927.000000 1 0 0
7.981793 -0.631413 -0.744505 8.041268 -0.078942 1.663515 0.007895 -0.000096 3190050.000000 1 0 0
2.406693 -9.192913 -2.482305 9.821591 -1.314744 1.826307 0.001197 -0.002160 3025480.000000 1 0 0
-7.056707 12.229787 4.908295 14.948450 -1.047453 1.236242 0.001677 0.000325 317582.000000 1 0 0
-14.941307 0.236487 0.202895 14.944556 -0.015826 1.557219 0.004305 -0.002080 361481.000000 1 0 0
6.824793 -0.595913 3.907395 7.886739 -0.087095 1.052457 -0.001582 0.002439 910238.000000 1 0 0
-4.178607 -5.024913 5.069995 8.271358 0.877095 0.910997 -0.000422 -0.000623 229544.000000 1 0 0
2.947493 5.090587 6.940795 9.098155 1.045955 0.703041 -0.007455 0.004795 -794086.000000 1 0 0
2.051593 -7.117513 1.774895 7.616973 -1.290158 1.335616 0.000656 -0.000441 2198800.000000 1 0 0
-2.450507 6.400787 -1.725805 7.067776 -1.205166 1.817470 0.000413 0.000890 1791680.000000 1 0 0
2.801393 -3.859713 -6.643705 8.178264 -0.942962 2.518986 0.002050 -0.007976 -236216.000000 1 0 0
-5.111507 0.926987 -12.279705 13.333340 -0.179403 2.741378 0.004819 -0.002492 -1113260.000000 1 0 0
-7.558807 6.345987 -12.003005 15.539602 -0.698395 2.453429 0.003865 -0.003925 3042500.000000 1 0 0
-1.072407 11.129487 -8.986605 14.344846 -1.474736 2.247811 0.001688 0.001605 128508.000000 1 0 0
4.688593 5.882587 -0.654505 7.550901 0.897870 1.657584 0.000693 0.000217 1060660.000000 1 0 0
-2.584007 13.509587 3.561895 14.208206 -1.381807 1.317400 -0.002547 0.006454 2363390.000000 1 0 0
1.523793 -7.940313 10.202595 13.017813 -1.381196 0.670130 -0.007006 0.002783 -181243.000000 1 0 0
13.066893 -0.297413 -1.127805 13.118845 -0.022757 1.656871 0.013834 -0.003439 1055370.000000 1 0 0
-0.985707 3.054187 -5.406205 6.287029 -1.258610 2.605867 0.003737 -0.008017 1303010.000000 1 0 0
6.462493 1.013887 7.242495 9.759381 0.155619 0.734589 -0.001724 0.001168 3084540.000000 1 0 0
5.529293 -6.210213 6.831495 10.761466 -0.843336 0.883033 -0.005909 0.001394 1378370.000000 1 0 0
12.241693 -4.958913 2.641895 13.469576 -0.384881 1.373379 0.003920 -0.002036 -255533.000000 1 0 0
4.363393 -9.263313 13.880895 17.248983 -1.130584 0.635564 -0.010321 0.000888 376846.000000 1 0 0
-2.713707 -4.215513 -1.464005 5.222841 0.998832 1.854911 0.005923 -0.003259 1879360.000000 1 0 0
-9.287007 -5.180913 -7.528405 13.029476 0.508863 2.186824 0.010379 -0.002833 1673660.000000 1 0 0
-10.565707 -3.082913 7.897495 13.546548 0.283903 0.948393 0.010053 -0.003262 45857.700000 1 0 0
12.153493 -0.694713 1.620695 12.280744 -0.057099 1.438440 0.007709 0.001142 496830.000000 1 0 0
-7.599307 4.706587 4.472395 9.995186 -0.554522 1.106879 0.002832 -0.004384 1383520.000000 1 0 0
-1.051507 10.621687 7.048695 12.791013 -1.472122 0.987155 -0.000890 0.006569 1532690.000000 1 0 0
7.357293 -9.978713 1.872095 12.538310 -0.935474 1.420926 -0.000934 -0.004301 4125810.000000 1 0 0
-4.255607 -1.706013 1.619595 4.862485 0.381270 1.231228 0.001171 -0.000276 1043650.000000 1 0 0
6.604193 -15.002513 -1.019105 16.423439 -1.156117 1.632888 0.005008 0.003093 -1620290.000000 1 0 0
-10.392207 1.709087 2.429895 10.808485 -0.162999 1.344045 -0.001458 -0.002062 1274520.000000 1 0 0
-3.093207 8.368387 -11.364905 14.448491 -1.216742 2.476048 0.002350 -0.001971 -2249650.000000 1 0 0
-1.357607 -5.102313 -6.885305 8.676642 1.310745 2.487409 0.003075 -0.003827 -193338.000000 1 0 0
12.848693 -0.459413 6.470095 14.393127 -0.035740 1.104561 0.014049 -0.004010 2251180.000000 1 0 0
5.875593 -13.257413 3.622995 14.946829 -1.153617 1.325965 0.002197 -0.001752 325052.000000 1 0 0
-5.576407 3.477287 -4.943505 8.223508 -0.557571 2.215727 0.004384 -0.004215 2418350.000000 1 0 0
-4.405307 8.059087 3.420995 9.800960 -1.070547 1.214242 0.001515 0.004083 614593.000000 1 0 0
13.948593 6.166687 -3.941105 15.751939 0.416266 1.823681 0.011999 0.004388 1133800.000000 1 0 0
-6.760707 -8.457213 5.258795 12.036883 0.896421 1.118658 0.008594 -0.000861 20824.000000 1 0 0
1.657793 11.318687 2.712095 11.756548 1.425365 1.338012 -0.001312 0.002440 1406120.000000 1 0 0
-7.405407 7.312187 5.977495 12.001608 -0.779064 1.049439 0.004032 -0.002457 -155068.000000 1 0 0
-17.534707 -3.979113 5.318095 18.750505 0.223149 1.283225 0.008802 -0.003192 -1051740.000000 1 0 0
7.355693 -13.089513 -8.656405 17.331327 -1.058822 2.093778 0.020335 0.005691 -739572.000000 1 0 0
-2.341707 12.842887 -2.687505 13.328392 -1.390443 1.773826 -0.005215 0.006900 323371.000000 1 0 0
-5.411407 13.990387 -5.762405 16.069212 -1.201725 1.937563 0.005814 0.008164 2238330.000000 1 0 0
-5.613007 2.401487 7.460895 9.640433 -0.404276 0.685793 0.000777 -0.001029 1742850.000000 1 0 0
-7.400007 5.012687 1.438495 9.052978 -0.595389 1.411223 0.004792 0.000200 2333140.000000 1 0 0
10.865993 -5.706813 -5.045505 13.270065 -0.483603 1.960827 0.013817 -0.003312 2539240.000000 1 0 0
-9.558307 -0.639813 6.846195 11.774591 0.066838 0.950301 0.004526 -0.003604 665696.000000 1 0 0
-11.262807 -4.565113 -2.508605 12.409036 0.385090 1.774359 0.005274 -0.002056 469687.000000 1 0 0
6.507893 -4.288613 13.513695 15.600155 -0.582667 0.523142 -0.003776 -0.002648 767073.000000 1 0 0
0.207393 10.152487 -11.654005 15.457420 1.550371 2.424839 0.002366 -0.002425 -978134.000000 1 0 0
-11.722607 -3.162913 1.487295 12.232563 0.263538 1.448910 0.006694 -0.002186 4714790.000000 1 0 0
5.234393 5.897687 5.419995 9.568591 0.844912 0.968622 -0.004417 0.005087 -4256720.000000 1 0 0
-7.137007 -0.030613 8.187095 10.861231 0.004289 0.716984 0.001481 -0.002772 766945.000000 1 0 0
1.731593 2.095787 9.703195 10.076841 0.880268 0.273171 -0.004332 0.000525 2956070.000000 1 0 0
10.589493 -4.983513 -2.101705 11.890749 -0.439860 1.748481 0.009404 -0.002014 2382870.000000 1 0 0
-9.626507 -2.402013 -1.638505 10.056043 0.244528 1.734463 0.001680 -0.002431 -359192.000000 1 0 0
-2.035807 -5.195213 -9.903505 11.367241 1.197325 2.628503 0.008108 -0.004459 1023630.000000 1 0 0
7.576593 -1.591413 6.537495 10.132926 -0.207034 0.869546 -0.000770 -0.001280 2005340.000000 1 0 0
1.469693 -11.797613 -2.645905 12.179675 -1.446859 1.789782 -0.001674 -0.001117 -3474770.000000 1 0 0
-0.757707 -1.446113 4.812295 5.081687 1.088164 0.327070 -0.000031 -0.000072 3121250.000000 1 0 0
7.592493 1.429687 9.862195 12.528082 0.186123 0.664529 -0.001098 -0.000722 2014290.000000 1 0 0
-3.833807 10.693187 -7.995105 13.891149 -1.226544 2.184078 0.000483 0.002788 1911500.000000 1 0 0
-9.550307 12.681287 6.333795 17.092114 -0.925313 1.191176 0.005829 -0.003935 917774.000000 1 0 0
-2.522907 -2.403913 -11.053805 11.590102 0.761251 2.836197 0.010867 -0.005250 -1865680.000000 1 0 0
1.199593 -12.017913 11.024295 16.352502 -1.471309 0.830962 -0.008591 0.000266 1104080.000000 1 0 0
1.420793 3.471787 -1.923905 4.215847 1.182350 2.044686 -0.000788 -0.002285 4432530.000000 1 0 0
-1.920307 -9.349113 -12.058305 15.378433 1.368214 2.472049 -0.000188 0.002904 1361580.000000 1 0 0
1.386793 -2.672313 1.456695 3.344609 -1.092105 1.120164 0.002927 -0.000364 4412990.000000 1 0 0
-1.043907 -2.160613 -6.634505 7.055115 1.120717 2.794549 0.003758 -0.009095 331454.000000 1 0 0
1.831393 5.856187 4.113995 7.387414 1.267704 0.980157 -0.007696 0.005494 -308093.000000 1 0 0
-11.077307 8.603587 3.563395 14.471566 -0.660362 1.322003 -0.003977 -0.004268 2031550.000000 1 0 0
-16.420707 -1.463913 4.006495 16.965691 0.088915 1.332392 0.004892 0.002576 1772420.000000 1 0 0
-12.299607 0.305087 6.798895 14.056970 -0.024800 1.065957 0.007329 -0.005154 934435.000000 1 0 0
-5.094807 2.970487 4.708495 7.546574 -0.527857 0.897041 0.001172 -0.001276 2046330.000000 1 0 0
5.257693 -6.027913 3.989995 8.938631 -0.853541 1.108084 -0.005280 -0.001188 272325.000000 1 0 0
9.858493 3.384587 6.354395 12.207524 0.330709 1.023324 0.002758 0.004558 234301.000000 1 0 0
-12.165907 5.869387 3.191795 13.879718 -0.449506 1.338759 0.001916 -0.004853 1558570.000000 1 0 0
-4.926207 12.333087 -1.213605 13.335869 -1.190781 1.661925 -0.003869 0.007385 72875.700000 1 0 0
-1.744107 -12.193113 10.300695 16.056719 1.428720 0.874319 -0.003154 -0.002362 2197790.000000 1 0 0
5.265193 6.269787 13.872495 16.108340 0.872270 0.533171 -0.006871 0.003682 864632.000000 1 0 0
13.008193 -3.721213 -6.013905 14.806335 -0.278626 1.989056 0.009883 0.001107 1769980.000000 1 0 0
3.623993 -2.553013 6.421395 7.802917 -0.613723 0.604216 -0.004194 0.001332 1107960.000000 1 0 0
7.205593 -11.866913 -0.639405 13.897951 -1.025099 1.616820 0.003182 -0.000275 201258.000000 1 0 0
-6.127007 -6.510213 -4.025405 9.804437 0.815712 1.993875 0.010193 -0.004463 -46320.400000 1 0 0
0.280793 -8.890713 5.047195 10.227307 -1.539224 1.054685 -0.000916 -0.001103 3380380.000000 1 0 0
-10.217707 2.488887 -0.353305 10.522401 -0.238933 1.604379 -0.000355 0.000349 -3462170.000000 1 0 0
-1.825507 8.952187 -0.355105 9.143316 -1.369637 1.609644 -0.000146 0.003991 1777940.000000 1 0 0
-3.520907 2.414687 -6.742405 7.980446 -0.601141 2.577110 0.008947 -0.011358 -336535.000000 1 0 0
-12.740207 3.092987 6.343495 14.564319 -0.238166 1.120147 0.001515 -0.007995 -962615.000000 1 0 0
11.365193 1.587087 7.966695 13.969777 0.138747 0.963949 0.011809 -0.001664 -2516580.000000 1 0 0
5.920993 2.609287 -3.216105 7.225639 0.415080 2.032078 -0.000983 0.000020 913172.000000 1 0 0
10.454393 -2.307913 6.439695 12.493617 -0.217275 1.029277 0.007873 -0.001686 4731780.000000 1 0 0
-0.966207 11.019087 4.102995 11.797813 -1.483335 1.215598 -0.002587 0.005683 1380710.000000 1 0 0
-1.673207 -12.222713 7.372795 14.371932 1.434749 1.032121 -0.007921 0.000601 -826363.000000 1 0 0
8.053693 8.628187 -7.795405 14.144819 0.819823 2.154495 0.002526 -0.002521 2372350.000000 1 0 0
-4.732107 -5.972213 -8.779805 11.625194 0.900735 2.426816 0.009659 -0.004086 -84756.600000 1 0 0
-8.529807 -5.385813 -11.758105 15.492502 0.563196 2.432502 0.012385 0.000145 2303920.000000 1 0 0
6.054593 -0.768713 -9.920605 11.647636 -0.126288 2.590069 -0.000173 -0.001115 1160670.000000 1 0 0
-11.171407 -5.459513 -5.357205 13.539065 0.454570 1.977610 0.006218 -0.005565 -630468.000000 1 0 0
3.893993 8.834887 -2.724905 10.032124 1.155660 1.845870 0.007091 -0.002796 1734200.000000 1 0 0
11.657093 -10.412113 -4.068005 16.150807 -0.729045 1.825415 0.021838 -0.002019 2320250.000000 1 0 0
3.940693 -11.278313 3.916395 12.572492 -1.234652 1.254020 -0.004226 -0.001431 516946.000000 1 0 0
-1.001307 0.850287 3.115295 3.380927 -0.704016 0.399046 -0.001635 0.000868 -1436790.000000 1 0 0
-10.615807 -5.020513 4.568495 12.600479 0.441756 1.199777 0.013309 -0.003310 2624000.000000 1 0 0
4.521393 -8.596013 2.741995 10.092223 -1.086576 1.295644 -0.003915 -0.000917 4860160.000000 1 0 0
-3.648807 -5.738713 2.569795 7.269833 1.004452 1.209500 0.003172 0.000121 1801910.000000 1 0 0
9.988793 5.081787 12.262095 16.612029 0.470622 0.740479 0.007023 0.003277 -816379.000000 1 0 0
1.584293 -12.349813 -5.352805 13.552874 -1.443208 1.976818 -0.002215 -0.000629 1798260.000000 1 0 0
9.816493 -10.694913 -1.712505 14.617707 -0.828198 1.688219 0.015404 -0.007309 1094140.000000 1 0 0
9.642893 -4.448713 -9.246605 14.081056 -0.432249 2.287191 0.007920 -0.001296 2480730.000000 1 0 0
-7.381107 -3.044313 -13.172105 15.403017 0.391190 2.596663 0.001268 0.004464 1463190.000000 1 0 0
0.462893 6.165287 -2.478205 6.660821 1.495856 1.952020 -0.000667 -0.001288 2644980.000000 1 0 0
-5.967707 -9.429513 0.964595 11.200879 1.006554 1.484572 0.006737 -0.001119 497698.000000 1 0 0
-8.877007 -4.061813 0.624995 9.782137 0.429128 1.506861 0.001157 -0.002330 3338420.000000 1 0 0
1.854893 3.872687 12.101995 12.841208 1.124116 0.340959 -0.003950 -0.001695 1333720.000000 1 0 0
6.655093 4.235387 9.665995 12.476387 0.566764 0.684488 -0.008458 0.002271 1948790.000000 1 0 0
-8.197307 9.902687 -3.720805 13.382954 -0.879341 1.852534 0.003524 0.001300 2334710.000000 1 0 0
16.475893 2.239587 -5.977605 17.669254 0.135103 1.915912 0.006334 0.000669 -2051730.000000 1 0 0
-10.935707 2.617587 -5.059105 12.330288 -0.234941 1.993578 0.003308 0.001565 700652.000000 1 0 0
-13.736707 4.073387 1.440595 14.400171 -0.288273 1.470589 -0.001501 0.001672 318843.000000 1 0 0
-17.481007 10.495787 3.251095 20.647440 -0.540722 1.412681 0.032438 -0.006745 -231284.000000 1 0 0
-14.309807 2.887987 -1.146905 14.643307 -0.199144 1.649199 -0.001848 0.000477 1127000.000000 1 0 0
-14.341007 5.277187 5.170795 16.132276 -0.352601 1.244513 -0.002839 -0.002417 166683.000000 1 0 0
-17.436507 7.631287 3.052695 19.276599 -0.412546 1.411764 0.015177 -0.001040 -1657270.000000 1 0 0
-15.019907 12.863387 -3.414805 20.068015 -0.708211 1.741790 0.029221 -0.004654 479904.000000 1 0 0
-8.511607 12.483187 -9.543005 17.870265 -0.972359 2.134140 0.000673 -0.004962 1166470.000000 1 0 0
-12.401107 8.742787 -9.784205 18.054209 -0.614074 2.143534 -0.000441 -0.000963 -1773600.000000 1 0 0
-13.817307 -3.557813 -12.268705 18.817469 0.252015 2.280996 0.004192 0.003705 -1118230.000000 1 0 0
-14.876207 5.764487 -7.597805 17.670809 -0.369682 2.015249 0.009951 0.008390 -479948.000000 1 0 0
-10.865207 13.535887 -8.435205 19.298333 -0.894413 2.023163 0.003698 -0.007997 -590762.000000 1 0 0
-10.973607 13.543987 3.869695 17.855928 -0.889855 1.352345 0.008292 -0.008592 638159.000000 1 0 0
-15.188207 3.391387 3.016395 15.851870 -0.219687 1.379342 -0.000067 0.001175 -638525.000000 1 0 0
-11.165307 9.368187 -12.450905 19.169039 -0.698099 2.277765 -0.004575 -0.004505 352751.000000 1 0 0
-12.962207 11.585987 -9.270905 19.702883 -0.729395 2.060694 -0.003503 -0.003223 248323.000000 1 0 0
-8.848507 14.580087 -3.490605 17.408600 -1.025326 1.772675 0.008845 -0.003998 1047130.000000 1 0 0
-16.755907 8.316087 -4.060405 19.141698 -0.460689 1.784544 0.016973 0.002425 -173646.000000 1 0 0
-16.896507 6.763987 0.275695 18.202184 -0.380781 1.555649 0.007855 0.004148 431316.000000 1 0 0
-10.446707 2.760587 -12.511605 16.531630 -0.258349 2.429243 0.001242 -0.003151 1105070.000000 1 0 0
-16.833607 0.984487 2.366795 17.027662 -0.058417 1.431348 0.001931 -0.001827 557146.000000 1 0 0
-12.581107 1.175387 -6.947505 14.419904 -0.093154 2.073504 0.000166 -0.001545 2122280.000000 1 0 0
-12.382307 9.035187 -5.403205 16.252715 -0.630372 1.909696 0.007998 -0.000194 -588151.000000 1 0 0
-9.631107 13.951987 1.163295 16.993217 -0.966608 1.502286 0.015374 -0.011369 -68201.700000 1 0 0
-12.359707 11.159687 2.633895 16.859371 -0.734420 1.413926 0.009618 -0.006601 -228550.000000 1 0 0
-12.648707 6.886187 -3.686705 14.866108 -0.498548 1.821405 0.004419 0.003634 -626157.000000 1 0 0
-15.889207 3.630787 -9.354905 18.792652 -0.224649 2.091852 0.014476 -0.002834 -1090030.000000 1 0 0
-15.169407 5.839287 -4.702205 16.920961 -0.367455 1.852396 0.009374 0.007232 1144560.000000 1 0 0
-17.813107 5.294187 7.522395 20.047983 -0.288893 1.186163 0.007324 -0.001023 -895714.000000 1 0 0
-15.835707 10.280887 -2.144905 19.001760 -0.575828 1.683917 0.022929 -0.001694 -1260020.000000 1 0 0
-8.789807 9.909087 -8.435005 15.703504 -0.845185 2.137841 0.003508 -0.002797 198506.000000 1 0 0
-16.968407 4.261587 -1.261005 17.540755 -0.246059 1.642748 -0.000239 0.004634 -67991.000000 1 0 0
-10.257007 5.319887 -4.524405 12.408773 -0.478463 1.944014 0.001117 0.000769 -36995.000000 1 0 0
-18.239507 2.786987 6.157495 19.451521 -0.151627 1.248700 0.004822 0.005005 -557346.000000 1 0 0
-10.386707 10.130387 -5.778605 15.617321 -0.772906 1.949819 0.004897 0.000626 1293070.000000 1 0 0
-15.275607 0.444887 -5.825305 16.354702 -0.029116 1.934979 0.000989 0.000316 641265.000000 1 0 0
-16.365807 -4.198113 -8.884005 19.088985 0.251103 2.054882 0.002608 -0.010932 -380231.000000 1 0 0
-9.965507 9.671587 -1.184305 13.937486 -0.770432 1.655872 0.005142 0.001556 2759940.000000 1 0 0
-17.331507 -2.996713 -3.146605 17.867920 0.171213 1.747823 0.004053 -0.004797 -1013160.000000 1 0 0
-12.015107 4.993987 -11.504405 17.368191 -0.393918 2.294792 0.003027 -0.002291 572559.000000 1 0 0
-16.348907 7.127987 5.862595 18.774051 -0.411144 1.253213 0.009882 -0.001013 -1574700.000000 1 0 0
-12.222407 5.965587 -8.764105 16.179771 -0.454071 2.143219 0.006115 0.001053 1601810.000000 1 0 0
-14.506907 8.521287 -0.169805 16.825324 -0.531100 1.580889 0.010627 -0.002799 1291370.000000 1 0 0
-14.936407 11.827487 3.819195 19.431211 -0.669755 1.372959 0.012628 -0.011826 394790.000000 1 0 0
-17.293207 4.013287 -4.129705 18.226792 -0.228036 1.799354 0.001935 0.004226 -204442.000000 1 0 0
-13.819807 13.488387 -0.803805 19.327953 -0.773262 1.612396 0.023885 -0.008078 -696887.000000 1 0 0
-10.215907 6.832887 -13.141905 17.993409 -0.589511 2.389665 -0.006193 -0.002457 2972070.000000 1 0 0
-15.757907 -1.227013 -8.307305 17.855770 0.077710 2.054708 0.003545 -0.008925 847848.000000 1 0 0
-11.455307 12.005287 -0.242905 16.595481 -0.808837 1.585434 0.015405 -0.008728 668159.000000 1 0 0
-11.948107 7.376987 -0.972205 14.075595 -0.553129 1.639922 0.003781 0.003356 2442460.000000 1 0 0
-11.453807 0.084387 -11.699605 16.373075 -0.007367 2.366797 0.006306 -0.005629 861459.000000 1 0 0
-18.997207 -1.296613 -4.753405 19.625747 0.068147 1.815432 0.004382 -0.007342 -1044470.000000 1 0 0
-17.909507 1.380187 -5.157405 18.688344 -0.076912 1.850394 -0.002395 0.000464 -2533810.000000 1 0 0
-13.285307 -0.187013 -9.469105 16.315585 0.014076 2.189981 0.008693 -0.007363 -264662.000000 1 0 0
-6.179307 11.373787 -13.121905 18.431800 -1.073116 2.363020 -0.006281 -0.004346 556329.000000 1 0 0
16.363693 5.747787 7.127195 18.751117 0.337790 1.180898 0.024552 -0.002296 -52474.200000 1 0 0
14.892893 10.131587 -5.547605 18.847367 0.597380 1.869565 0.026575 0.005916 1189680.000000 1 0 0
2.508893 16.830487 4.416095 17.580152 1.422818 1.316879 0.012331 -0.005402 1821930.000000 1 0 0
-3.832207 18.382987 -5.808705 19.656070 -1.365275 1.870793 0.006279 0.001073 901192.000000 1 0 0
5.474093 14.423387 5.596795 16.411091 1.208061 1.222776 -0.001078 0.000326 -611736.000000 1 0 0
9.892593 5.911087 15.132195 19.020717 0.538599 0.650859 0.011281 -0.000436 -1332520.000000 1 0 0
4.658593 12.665387 -1.124905 13.541784 1.218335 1.653961 0.007923 -0.005696 2009540.000000 1 0 0
3.578493 13.849387 12.981295 19.316448 1.317940 0.833845 0.002341 0.001778 156765.000000 1 0 0
-0.722007 12.370887 9.277895 15.480293 -1.512499 0.928125 -0.002184 0.001550 1151960.000000 1 0 0
-7.726407 13.926487 8.404895 18.007961 -1.064276 1.085204 0.006842 -0.007894 3938890.000000 1 0 0
11.552193 12.850987 -4.193605 17.781658 0.838570 1.808878 0.024119 0.003420 829262.000000 1 0 0
-5.778907 16.146987 0.828095 17.169936 -1.227107 1.522548 0.005375 -0.004120 631518.000000 1 0 0
3.302393 10.538487 6.840595 12.990737 1.267124 1.016230 -0.002154 0.008873 883732.000000 1 0 0
-1.140807 15.663987 2.522795 15.906804 -1.498095 1.411525 -0.002853 0.000917 -1762390.000000 1 0 0
9.937193 8.839587 9.532295 16.363091 0.727009 0.948936 -0.000851 0.006186 1250010.000000 1 0 0
7.329493 12.163787 6.193595 15.493218 1.028492 1.159539 -0.006664 0.002432 -651411.000000 1 0 0
11.916593 13.998687 -1.516205 18.446336 0.865568 1.653085 0.022968 0.000557 -37152.500000 1 0 0
9.717493 15.985587 -1.181205 18.744703 1.024595 1.633854 0.015631 -0.001277 210171.000000 1 0 0
10.093293 13.625787 2.924295 17.207212 0.933242 1.400022 0.007315 -0.004363 1651310.000000 1 0 0
-5.900907 14.637087 6.348595 17.010870 -1.187579 1.188332 -0.006063 -0.000838 470173.000000 1 0 0
-0.906007 18.257087 -6.159105 19.289288 -1.521212 1.895789 0.018370 0.003686 412901.000000 1 0 0
-3.424707 15.777387 5.500595 17.056116 -1.357048 1.242427 -0.009849 0.001486 1671590.000000 1 0 0
7.226993 12.273287 10.628695 17.771667 1.038624 0.929706 -0.005350 0.005543 2018130.000000 1 0 0
1.572993 14.586487 6.231595 15.939658 1.463372 1.169134 0.000810 0.003672 800287.000000 1 0 0
17.450993 7.650487 -1.274505 19.096897 0.413164 1.637585 0.004758 0.015448 1184070.000000 1 0 0
2.107593 16.289187 -3.347305 16.762578 1.442125 1.771837 0.001671 -0.003224 696615.000000 1 0 0
6.751993 11.210087 0.587395 13.099637 1.028677 1.525941 0.010773 -0.002498 1989880.000000 1 0 0
12.689293 9.191287 3.206795 15.993169 0.626872 1.368918 0.006638 0.004492 -1710240.000000 1 0 0
6.090793 14.211587 -3.434405 15.838627 1.165898 1.789370 0.007677 -0.002028 2543440.000000 1 0 0
3.123393 16.529087 1.564995 16.894245 1.384035 1.478029 0.006899 -0.007139 -886529.000000 1 0 0
2.801793 18.974487 -2.486005 19.340667 1.424195 1.699691 0.003762 -0.006539 -704133.000000 1 0 0
4.072193 11.976287 10.752795 16.602313 1.243039 0.866276 -0.001780 0.002346 4280440.000000 1 0 0
8.092293 11.490087 3.320995 14.440786 0.957200 1.338746 -0.003042 0.002185 1108240.000000 1 0 0
0.742793 12.586887 0.190695 12.610227 1.511851 1.555673 0.004042 -0.000615 -1567160.000000 1 0 0
12.019093 9.894387 -4.668005 16.252623 0.688741 1.862115 0.013002 0.006621 -511808.000000 1 0 0
-1.205307 16.478887 9.962595 19.294035 -1.497784 1.028206 -0.007603 -0.001492 -518069.000000 1 0 0
8.141393 14.717387 -8.039505 18.641818 1.065513 2.016687 0.015884 -0.001655 1484380.000000 1 0 0
14.467593 7.591987 -1.291105 16.389523 0.483257 1.649654 0.013370 0.009646 214655.000000 1 0 0
12.459693 8.336387 6.019395 16.154640 0.589664 1.188975 0.004536 0.000417 315943.000000 1 0 0
-3.000807 14.207287 10.306595 17.806677 -1.362640 0.953534 0.000644 -0.003838 1886170.000000 1 0 0
-4.573707 17.220087 -3.107405 18.086076 -1.311187 1.743465 0.010102 -0.002028 -23976.800000 1 0 0
-7.090407 16.490087 -1.816605 18.041533 -1.164715 1.671657 0.008240 -0.006151 259219.000000 1 0 0
8.375793 11.244087 -1.921405 14.151862 0.930563 1.706987 0.015427 -0.002484 1034430.000000 1 0 0
8.646493 12.909987 -4.227205 16.102759 0.980661 1.836423 0.024554 -0.001316 3220140.000000 1 0 0
2.612893 14.804887 -7.306505 16.715170 1.396107 2.023188 -0.003404 0.002770 -747564.000000 1 0 0
11.375293 11.295887 9.725195 18.750300 0.781896 1.025503 0.006884 0.002623 690303.000000 1 0 0
8.635493 15.666487 1.439895 17.946695 1.067026 1.490478 0.004017 -0.004531 382097.000000 1 0 0
6.123693 9.895487 7.771295 13.993331 1.016641 0.982004 -0.004138 0.009826 1304220.000000 1 0 0
14.470093 11.236187 2.667995 18.513608 0.660253 1.426183 0.018735 0.000451 1722660.000000 1 0 0
12.204193 12.632687 1.150895 17.602604 0.802649 1.505368 0.017119 0.003644 3448530.000000 1 0 0
5.272693 15.828687 8.158695 18.571832 1.249247 1.115972 0.008597 -0.000896 -1320170.000000 1 0 0
11.251193 15.017187 5.108995 19.447547 0.927794 1.304970 0.009687 -0.005154 -329600.000000 1 0 0
6.057093 16.829487 1.804395 17.977092 1.225321 1.470255 0.000119 -0.008893 1362310.000000 1 0 0
-0.610907 16.203187 -4.150405 16.737453 -1.533111 1.821382 0.005865 -0.001411 210164.000000 1 0 0
16.064693 6.296887 2.648795 17.456840 0.373565 1.418474 0.006395 0.002037 -811868.000000 1 0 0
7.734793 16.635787 -3.210005 18.624730 1.135581 1.744013 0.004375 -0.002640 -885335.000000 1 0 0
14.800693 8.153987 7.503395 18.489158 0.503549 1.152913 0.021761 -0.002107 375811.000000 1 0 0
2.162093 12.840087 8.614995 15.612835 1.403975 0.986288 0.001992 0.000906 1455270.000000 1 0 0
15.892393 7.313387 -5.856505 18.448643 0.431289 1.893835 0.002610 0.007914 -1375980.000000 1 0 0
-3.003707 17.080687 0.756795 17.359288 -1.396722 1.527187 -0.004980 -0.003920 736934.000000 1 0 0
-2.793207 18.590287 4.689695 19.375088 -1.421661 1.326321 -0.014555 -0.003960 653361.000000 1 0 0
-0.861807 19.110787 0.982395 19.155417 -1.525732 1.519488 -0.001198 -0.009865 810997.000000 1 0 0
6.978793 16.685487 -6.090805 19.084206 1.174652 1.895633 0.006414 -0.001291 1049020.000000 1 0 0
11.074493 10.035887 0.790195 14.966223 0.736239 1.517973 0.006209 0.002945 4059.910000 1 0 0
9.126693 8.626887 14.405895 19.111502 0.757253 0.716999 0.005134 0.004825 836534.000000 1 0 0
6.400293 12.334987 -8.340305 16.207293 1.092165 2.111340 0.013703 -0.004310 838042.000000 1 0 0
6.338693 8.946687 13.376795 17.296268 0.954391 0.686622 -0.004664 0.002853 1360460.000000 1 0 0
16.736293 9.312287 3.026995 19.390330 0.507753 1.414047 0.025108 0.004878 -834885.000000 1 0 0
2.633593 14.743787 -0.782005 14.997553 1.394037 1.622962 0.006301 -0.004809 242627.000000 1 0 0
9.246193 12.892687 8.300795 17.905772 0.948642 1.088763 -0.000082 0.000936 -533848.000000 1 0 0
7.301793 9.345887 10.619595 15.919723 0.907572 0.840525 -0.003136 0.005225 1145290.000000 1 0 0
4.329693 15.834787 -5.289105 17.247068 1.303891 1.882486 0.002748 0.000431 2333560.000000 1 0 0
0.241993 16.382187 -8.079305 18.267725 1.556026 2.028927 0.001113 0.005040 1568470.000000 1 0 0
-2.416907 15.702587 -1.938605 16.005339 -1.418077 1.692217 -0.005052 0.000853 -133356.000000 1 0 0
13.274693 10.502787 7.610195 18.559124 0.669345 1.148286 0.014662 -0.003297 1622460.000000 1 0 0
-0.888207 15.867487 7.111895 17.411063 -1.514878 1.150019 -0.003946 -0.002249 467180.000000 1 0 0
13.109693 13.329087 6.677995 19.852562 0.793696 1.227727 0.015684 -0.003931 -1261380.000000 1 0 0
5.454993 17.262987 4.577695 18.674125 1.264732 1.323137 0.006669 -0.008372 108621.000000 1 0 0
10.859393 9.440687 -1.897505 14.513907 0.715625 1.701909 0.008978 0.003550 1027920.000000 1 0 0
3.237393 12.639787 4.730895 13.878988 1.320059 1.222957 -0.000809 0.004540 1053570.000000 1 0 0
-0.075707 18.092187 3.666495 18.460123 -1.566612 1.370850 -0.002660 -0.003939 2140150.000000 1 0 0
-7.681307 15.940887 -5.828505 18.630240 -1.121764 1.888990 0.016242 -0.001349 537232.000000 1 0 0
-12.456207 -9.074513 8.296595 17.502496 0.629607 1.076942 0.012763 -0.005935 -1376180.000000 1 0 0
-13.265807 -11.699713 6.878595 18.978409 0.722750 1.199908 0.013389 -0.003696 -463001.000000 1 0 0
-6.498407 -12.322313 12.074195 18.435153 1.085494 0.856673 0.008491 -0.010139 -923808.000000 1 0 0
-1.829207 -10.696113 14.320595 17.967534 1.401419 0.648441 -0.004185 -0.001136 46575.300000 1 0 0
-8.780907 2.866887 10.998095 14.362502 -0.315580 0.698589 0.006589 -0.002236 771241.000000 1 0 0
0.762493 10.151887 15.055695 18.174602 1.495829 0.594565 0.003267 -0.006923 1135840.000000 1 0 0
1.052993 -6.817613 16.614895 17.990091 -1.417555 0.393538 -0.004781 -0.005422 433646.000000 1 0 0
5.959093 2.256587 17.920695 19.019839 0.361993 0.341628 -0.001040 0.001513 1130920.000000 1 0 0
-5.039507 -3.011713 17.616095 18.568626 0.538668 0.321691 0.010036 -0.011920 1215150.000000 1 0 0
-4.299807 8.165487 13.120795 16.041159 -1.086109 0.612966 0.001184 -0.003894 -174914.000000 1 0 0
0.096093 -5.047913 18.664995 19.335788 -1.551762 0.264175 0.002770 -0.010838 97224.200000 1 0 0
-11.619307 2.170687 11.162595 16.258035 -0.184688 0.814009 0.009577 -0.000888 -403850.000000 1 0 0
-3.361107 -6.163113 14.457595 16.071809 1.071523 0.452030 0.008372 -0.003784 2515950.000000 1 0 0
-7.410107 -2.305413 14.653095 16.581249 0.301625 0.487055 0.007491 -0.002408 1268050.000000 1 0 0
-6.034707 -1.121613 10.704595 12.339533 0.183764 0.520634 0.005558 -0.002805 1926570.000000 1 0 0
-3.910907 2.416787 11.153195 12.063574 -0.553521 0.390983 -0.000488 0.003300 1245760.000000 1 0 0
-6.460807 6.292987 13.655395 16.365009 -0.772240 0.583705 0.000047 -0.003517 1098400.000000 1 0 0
-8.960107 5.529087 12.528695 16.365284 -0.552882 0.698877 0.002455 -0.007218 -942096.000000 1 0 0
-12.116607 -2.043113 15.828895 20.038473 0.167049 0.660109 -0.002955 0.004119 1289840.000000 1 0 0
-3.422507 -7.648413 17.061495 19.008061 1.150041 0.456519 0.004351 -0.001188 -1493450.000000 1 0 0
-0.454907 -5.324213 14.428695 15.386404 1.485562 0.354684 0.000864 -0.000310 1984410.000000 1 0 0
-14.138707 -2.212813 13.806795 19.885351 0.155248 0.803322 0.004937 0.006001 710613.000000 1 0 0
-6.450707 1.494587 12.148595 13.835960 -0.227676 0.499035 0.005613 0.000700 1635000.000000 1 0 0
2.239093 -2.150713 14.571695 14.898772 -0.765268 0.209924 -0.003637 0.001515 -382509.000000 1 0 0
-12.561007 4.111887 9.088495 16.040176 -0.316359 0.968413 0.003332 -0.004550 -907732.000000 1 0 0
-8.985507 -2.991513 12.613995 15.773439 0.321384 0.644003 0.000184 0.003952 638009.000000 1 0 0
-7.126707 -7.289313 15.266095 18.356952 0.796677 0.588769 0.012070 -0.004702 -34074.400000 1 0 0
-3.162907 5.921587 19.527095 20.648889 -1.080218 0.331138 0.018147 -0.009741 71710.300000 1 0 0
0.683793 5.498887 16.263595 17.181672 1.447080 0.328379 0.002635 -0.001022 500255.000000 1 0 0
3.424193 1.449187 16.798595 17.205175 0.400362 0.217830 -0.008781 -0.002015 346208.000000 1 0 0
-11.701007 11.329187 7.804895 18.060466 -0.769255 1.123917 0.005622 -0.015944 -105959.000000 1 0 0
0.548293 -9.501313 15.475995 18.168159 -1.513153 0.551347 -0.013530 0.002796 -405965.000000 1 0 0
-2.461807 -3.739613 18.946195 19.468012 0.988605 0.232054 0.007452 -0.015007 1640840.000000 1 0 0
-12.870807 2.446387 13.765895 19.003746 -0.187832 0.760665 0.010023 -0.002591 184937.000000 1 0 0
-5.339907 -0.665813 15.851595 16.740101 0.124046 0.327270 0.006908 -0.002308 1161010.000000 1 0 0
-4.411707 -6.017113 11.697995 13.874866 0.938139 0.567761 0.006995 -0.000658 -1477350.000000 1 0 0
2.411993 1.787987 14.012695 14.330744 0.637904 0.211074 -0.008649 -0.001966 458260.000000 1 0 0
0.102593 3.401187 14.371395 14.768737 1.540642 0.232490 0.004231 -0.003533 -25113.200000 1 0 0
-12.973507 7.103887 12.151495 19.142516 -0.500975 0.883058 0.007014 -0.015155 692096.000000 1 0 0
0.905193 1.541687 18.298895 18.386020 1.039883 0.097390 0.003525 -0.001710 511724.000000 1 0 0
-1.964207 6.540187 12.518795 14.260168 -1.279038 0.499368 0.004270 -0.000988 1526850.000000 1 0 0
-13.583907 -2.636113 10.932195 17.634753 0.191679 0.902151 0.014884 0.001227 -158742.000000 1 0 0
-2.582707 3.696287 13.529995 14.261616 -0.960923 0.321698 0.004374 -0.000271 836931.000000 1 0 0
3.608693 6.066187 16.295195 17.758228 1.034145 0.408762 -0.005783 -0.002627 956687.000000 1 0 0
-3.781107 12.316687 12.401895 17.883080 -1.272939 0.804462 0.003506 -0.009932 1223340.000000 1 0 0
3.629393 -1.512213 17.206595 17.650105 -0.394783 0.224650 -0.003317 -0.002123 186228.000000 1 0 0
-15.866507 0.562587 9.240795 18.369944 -0.035443 1.043685 0.003454 0.003029 78028.400000 1 0 0
-4.749407 4.519287 15.287995 16.634411 -0.760576 0.405112 0.009626 -0.004918 2471980.000000 1 0 0
-7.995507 -8.066113 10.530695 15.488249 0.789794 0.823149 0.005378 -0.004030 2954420.000000 1 0 0
-2.657007 -0.547313 14.748495 14.995911 0.203147 0.181904 0.003836 0.000388 1292690.000000 1 0 0
-1.783407 0.942487 17.200095 17.317970 -0.486168 0.116741 0.005457 -0.007308 1101910.000000 1 0 0
-0.609807 -2.475113 14.464695 14.687595 1.329232 0.174440 0.001149 0.000816 -1926980.000000 1 0 0
5.182093 -8.313413 16.424595 19.124180 -1.013391 0.537797 -0.001406 -0.006425 1326710.000000 1 0 0
-4.511207 9.947687 10.715995 15.301634 -1.145041 0.794955 0.000996 -0.003822 -1873960.000000 1 0 0
-6.253107 2.008387 15.242395 16.597156 -0.310775 0.406845 0.011870 -0.001644 1821540.000000 1 0 0
-5.003307 6.686587 17.330895 19.238073 -0.928410 0.449040 0.016683 -0.008568 -98780.800000 1 0 0
-4.092307 9.056687 15.806395 18.671173 -1.146401 0.561294 0.003733 -0.006004 1496480.000000 1 0 0
-4.421307 -9.912113 18.610695 21.544278 1.151231 0.527964 -0.003642 0.005337 466863.000000 1 0 0
-6.700007 -4.111713 11.199895 13.683345 0.550423 0.611991 0.007000 0.001952 1480370.000000 1 0 0
-2.271807 -0.879813 19.537295 19.688603 0.369488 0.124056 0.006170 -0.012166 -489752.000000 1 0 0
-5.740407 -4.605913 15.249295 16.932446 0.676183 0.449657 0.007047 -0.004725 353869.000000 1 0 0
-13.008507 0.081287 9.756995 16.261206 -0.006249 0.927274 0.007234 0.000909 2302910.000000 1 0 0
-14.350807 9.062787 10.470595 19.942747 -0.563272 1.018043 -0.000744 -0.007027 -1760670.000000 1 0 0
-8.326807 10.394487 12.954595 18.579629 -0.895398 0.799246 0.002134 -0.014835 -656719.000000 1 0 0
-10.491407 7.075887 10.722795 16.586625 -0.593369 0.867845 0.008569 -0.010611 -1127130.000000 1 0 0
-9.864407 -6.506513 14.806695 18.944114 0.583091 0.673572 0.011019 -0.003653 -355890.000000 1 0 0
-0.816907 -13.488513 14.409795 19.754734 1.510307 0.753301 -0.011217 -0.006877 246001.000000 1 0 0
3.830593 -5.742613 16.974395 18.324332 -0.982530 0.386243 -0.002710 -0.005861 1514780.000000 1 0 0
-7.300907 9.207387 10.430795 15.712438 -0.900375 0.844833 -0.004923 -0.008013 1723980.000000 1 0 0
-10.192907 -6.656413 11.825795 16.972113 0.578512 0.799901 0.005554 -0.007220 177398.000000 1 0 0
-10.933207 -3.870913 10.793795 15.843769 0.340279 0.821308 0.004706 0.004462 -141636.000000 1 0 0
-10.102907 -10.167613 9.845395 17.389103 0.788590 0.968930 0.015404 -0.009526 927664.000000 1 0 0
-9.781507 -3.660813 15.278695 18.507241 0.358120 0.599616 0.006484 -0.004143 -91102.400000 1 0 0
5.556793 -3.373313 16.140395 17.400274 -0.545595 0.382875 -0.002256 0.000215 -220857.000000 1 0 0
-11.232607 0.703687 15.356095 19.038810 -0.062565 0.632473 0.010010 0.001068 -73435.800000 1 0 0
-3.063707 3.114487 18.771795 19.273469 -0.793617 0.228661 0.007484 -0.010972 -713276.000000 1 0 0
0.549693 7.406787 13.933395 15.789305 1.496717 0.489734 0.005981 -0.005516 1009210.000000 1 0 0
-13.027307 -7.416713 12.223695 19.342624 0.517556 0.886721 -0.009518 -0.006283 915012.000000 1 0 0
-1.520507 -1.218213 12.170295 12.325261 0.675465 0.158742 0.000256 0.000801 545227.000000 1 0 0
2.089493 -4.852413 13.123895 14.147385 -1.164184 0.382712 -0.002256 0.000072 283651.000000 1 0 0
-14.647007 -4.081913 8.690695 17.513567 0.271790 1.051549 0.007560 -0.006166 -754178.000000 1 0 0
7.892993 0.724387 16.137495 17.978955 0.091520 0.456554 0.003002 -0.005310 1070560.000000 1 0 0
-1.242407 11.393487 13.406995 17.638102 -1.462180 0.707305 -0.005094 -0.002767 2596190.000000 1 0 0
2.734293 -12.237813 -13.866905 18.695761 -1.350977 2.406418 -0.000979 0.011319 -427118.000000 1 0 0
0.715193 -10.531913 -13.940105 17.485972 -1.502993 2.493467 -0.006079 0.005634 -1466420.000000 1 0 0
2.937593 -14.358613 -12.323905 19.148834 -1.368994 2.269970 -0.005577 0.005344 -218946.000000 1 0 0
-5.112707 -10.286913 -16.137105 19.808243 1.109543 2.522950 0.010791 -0.004789 -265484.000000 1 0 0
-1.111107 -12.159013 -14.947205 19.300132 1.479668 2.456659 -0.007828 0.002315 -210111.000000 1 0 0
5.407193 -15.133613 -12.064005 20.094880 -1.227636 2.214738 0.006822 0.014785 314446.000000 1 0 0
1.846493 -11.672613 -16.123205 19.990427 -1.413906 2.509083 -0.003708 0.003846 -664339.000000 1 0 0
1.131893 -14.352313 -14.188005 20.213104 -1.492094 2.348888 0.005808 0.013840 -548123.000000 1 0 0
-1.160307 -10.526413 -15.879705 19.087082 1.461011 2.553429 -0.004184 -0.003533 -386357.000000 1 0 0
-6.098907 -5.816813 -15.163105 17.347961 0.761728 2.634288 0.014526 0.006754 -287739.000000 1 0 0
-6.199307 -7.775813 -16.935405 19.639313 0.897731 2.610633 0.009517 0.015501 435163.000000 1 0 0
4.911193 -12.613913 -11.535805 17.784977 -1.199507 2.276575 0.001995 0.010631 165007.000000 1 0 0
-1.868807 -15.511913 -13.300305 20.518528 1.450899 2.276027 0.001845 0.001431 -253180.000000 1 0 0
15.679593 -7.335613 -8.913905 19.470967 -0.437594 2.046321 -0.010331 0.012987 56767.800000 1 0 0
19.250593 -3.435813 -4.057405 19.971296 -0.176619 1.775382 -0.013936 -0.000019 1170110.000000 1 0 0
14.964793 -11.642113 -8.898005 20.944171 -0.661161 2.009586 0.014241 0.001786 335137.000000 1 0 0
17.984793 -3.541413 -6.374405 19.406891 -0.194424 1.905470 0.018400 0.006717 627446.000000 1 0 0
9.445993 -9.212913 -15.407505 20.285358 -0.772907 2.433399 0.027404 -0.006982 205677.000000 1 0 0
1.246093 1.919187 -15.371705 15.541085 0.994926 2.993818 0.013888 -0.004794 -343985.000000 1 0 0
4.862293 -4.300713 -13.931805 15.369880 -0.724187 2.705563 0.000700 0.001065 1556440.000000 1 0 0
13.180093 -5.505613 -8.819805 16.787364 -0.395690 2.123962 0.020891 0.005644 -1665500.000000 1 0 0
2.940493 0.901887 -12.148905 12.532190 0.297604 2.893636 0.005491 -0.003253 -1192220.000000 1 0 0
0.685493 6.264787 -13.078605 14.517829 1.461810 2.692554 0.012346 -0.004003 227501.000000 1 0 0
3.058793 -1.168513 -16.749105 17.066170 -0.364909 2.948531 0.017312 -0.007070 66249.100000 1 0 0
13.173993 4.211387 -11.341205 17.886106 0.309407 2.257613 0.008702 -0.007364 769087.000000 1 0 0
-3.927207 9.405987 -16.521205 19.412516 -1.175277 2.588796 0.003129 -0.007234 201086.000000 1 0 0
-0.275607 -5.021813 -17.724105 18.423856 1.515969 2.865102 0.011522 -0.003300 186882.000000 1 0 0
-0.586407 -8.535413 -17.669005 19.631375 1.502201 2.690656 0.002756 0.001089 -313853.000000 1 0 0
5.503993 -10.176213 -12.177105 16.796760 -1.074991 2.381784 0.001670 0.005486 503109.000000 1 0 0
1.732293 -9.633013 -18.093905 20.571465 -1.392869 2.645740 -0.005642 -0.005088 -214812.000000 1 0 0
10.984493 8.726187 -14.587105 20.238306 0.671323 2.375705 0.024245 -0.006645 -544416.000000 1 0 0
10.946993 -3.774613 -12.980105 17.394467 -0.332042 2.413162 0.011903 -0.002257 325873.000000 1 0 0
4.798793 7.590887 -12.245005 15.185194 1.007052 2.508798 -0.004829 0.001425 80643.400000 1 0 0
9.781193 -6.062713 -12.618605 17.077980 -0.554876 2.402205 0.019059 -0.003913 -946317.000000 1 0 0
-3.294407 0.472187 -16.005205 16.347558 -0.142360 2.936577 0.011038 -0.002341 -855021.000000 1 0 0
-0.802007 10.613987 -12.811405 16.656291 -1.495378 2.448327 0.000773 -0.005679 -2273690.000000 1 0 0
6.675293 -5.416813 -12.496905 15.168191 -0.681697 2.539035 -0.000739 -0.001599 -387436.000000 1 0 0
17.882593 -6.085213 -8.184205 20.586358 -0.327996 1.979647 -0.005761 0.010614 1719650.000000 1 0 0
12.946493 4.815287 -13.914705 19.606572 0.356083 2.359863 -0.001498 -0.005445 294292.000000 1 0 0
14.253893 0.881187 -11.523705 18.350633 0.061742 2.249742 0.018400 0.001125 -246332.000000 1 0 0
14.989093 6.128087 -11.344105 19.771572 0.388101 2.181884 0.007382 -0.004034 286666.000000 1 0 0
8.246393 1.466187 -11.829705 14.494641 0.175959 2.525501 -0.004014 0.003863 458139.000000 1 0 0
9.983293 1.286187 -9.013805 13.511813 0.128128 2.301113 0.002533 -0.000948 -85747.600000 1 0 0
-0.118807 -5.715413 -12.965705 14.170023 1.550012 2.726328 0.002320 -0.001071 325711.000000 1 0 0
10.594293 -5.702913 -9.045805 15.052868 -0.493817 2.215467 0.016310 -0.003696 253661.000000 1 0 0
10.213593 8.530287 -11.258405 17.430862 0.695833 2.272984 0.008369 -0.004269 739893.000000 1 0 0
8.325093 8.220387 -14.713005 18.797724 0.779070 2.469791 0.011821 0.004263 1160830.000000 1 0 0
8.676593 10.635487 -10.677405 17.389762 0.886486 2.231921 0.009172 -0.004188 -1221560.000000 1 0 0
7.147693 1.680387 -17.906205 19.353175 0.230902 2.752447 0.009093 0.007911 -2504200.000000 1 0 0
12.094893 2.539187 -12.950005 17.900741 0.206934 2.379560 0.005819 -0.002430 -1267650.000000 1 0 0
2.564393 -0.839513 -19.286505 19.474346 -0.316377 3.002588 0.024905 -0.012032 -468329.000000 1 0 0
10.278193 -2.453913 -15.541905 18.793982 -0.234362 2.544479 0.012114 -0.002698 297207.000000 1 0 0
8.322693 -0.874813 -13.022405 15.479520 -0.104727 2.570418 0.003014 -0.000602 602754.000000 1 0 0
0.504593 4.378887 -14.813505 15.455394 1.456069 2.852379 0.011878 -0.004975 359130.000000 1 0 0
4.008293 -7.591113 -15.717505 17.908975 -1.084981 2.641698 -0.001621 -0.003089 532399.000000 1 0 0
11.298293 -5.823813 -14.673105 19.413094 -0.475939 2.427725 0.020149 -0.000845 -579307.000000 1 0 0
-5.926007 4.477987 -16.911105 18.470393 -0.647107 2.727742 0.006088 -0.004685 108622.000000 1 0 0
11.304293 7.749287 -8.961605 16.375251 0.600940 2.149890 0.006578 -0.005394 -1988630.000000 1 0 0
9.468793 6.235587 -13.476005 17.610886 0.582356 2.442162 0.003702 0.005656 -212265.000000 1 0 0
12.143893 0.681187 -10.179805 15.860850 0.056034 2.267665 0.006472 0.001517 -952465.000000 1 0 0
5.536193 -7.232413 -13.818605 16.550259 -0.917468 2.558835 -0.002936 0.003379 -407684.000000 1 0 0
8.657993 -10.290313 -10.640205 17.148333 -0.871332 2.240151 0.024624 0.002848 382726.000000 1 0 0
9.994593 4.940387 -16.072705 19.560960 0.459082 2.535136 0.012369 0.009394 694883.000000 1 0 0
9.988393 -0.295813 -11.117805 14.948615 -0.029607 2.409437 0.002303 0.000135 -127771.000000 1 0 0
-1.761607 5.488787 -13.913505 15.060400 -1.260235 2.748808 0.008935 -0.006446 48053.600000 1 0 0
1.335293 -0.644013 -14.898105 14.971683 -0.449388 3.042411 0.011785 -0.005847 -670868.000000 1 0 0
11.576093 -10.349713 -14.349105 21.142831 -0.729523 2.316753 0.036601 -0.003098 522092.000000 1 0 0
9.385793 -7.792513 -10.858105 16.331406 -0.692913 2.298103 0.017589 0.000792 -165951.000000 1 0 0
14.036493 -0.937613 -9.766705 17.125734 -0.066699 2.177660 0.009135 0.005466 860263.000000 1 0 0
3.941393 11.175687 -12.243405 17.039117 1.231740 2.372507 0.007747 -0.004621 -213767.000000 1 0 0
-1.322307 2.993187 -17.038505 17.349879 -1.154806 2.951852 0.014758 -0.007410 -59064.400000 1 0 0
5.942093 -0.540013 -17.565205 18.550917 -0.090630 2.814139 0.002691 0.003200 -100355.000000 1 0 0
6.439293 -6.632213 -16.246305 18.692062 -0.800156 2.624288 0.008808 0.003140 238630.000000 1 0 0
-1.719807 -5.270513 -19.876505 20.635200 1.255382 2.869583 0.017107 -0.010134 -856883.000000 1 0 0
-0.005907 -4.282613 -15.193005 15.785063 1.569417 2.866841 0.006742 -0.003726 424407.000000 1 0 0
0.507493 0.867387 -13.015705 13.054443 1.041418 3.064536 0.010660 -0.007651 770872.000000 1 0 0
15.758493 0.748287 -13.629305 20.848213 0.047449 2.283312 0.008000 0.003877 409065.000000 1 0 0
-0.063307 7.118887 -16.427405 17.903692 -1.561904 2.732653 0.012217 -0.003776 -360901.000000 1 0 0
-5.357107 -0.360313 -18.321205 19.091751 0.067158 2.856515 0.010052 0.001704 -11389.600000 1 0 0
10.368193 -8.463713 -13.114205 18.738096 -0.684610 2.346010 0.021470 -0.006561 264541.000000 1 0 0
4.177793 8.585687 -17.379405 19.829566 1.117926 2.639213 0.021214 -0.009635 -142884.000000 1 0 0
9.141393 0.547587 -16.661205 19.012119 0.059830 2.639021 0.006468 -0.002617 -709052.000000 1 0 0
3.236393 4.786087 -18.623405 19.499028 0.976217 2.840773 0.022998 0.002304 -365403.000000 1 0 0
1.386793 -8.130313 -15.964905 17.969512 -1.401852 2.664740 -0.004955 -0.001437 173025.000000 1 0 0
4.440293 7.839987 -14.971805 17.473882 1.055476 2.599848 0.006921 0.004079 588711.000000 1 0 0
-5.688407 -0.347813 -15.209705 16.242354 0.061068 2.783088 -0.000986 -0.000561 -439728.000000 1 0 0
2.805493 3.341187 -13.866105 14.536271 0.872330 2.836759 0.007538 0.001109 1029690.000000 1 0 0
-2.557407 -10.128013 -18.089105 20.888578 1.323458 2.617904 0.011159 -0.006077 -152316.000000 1 0 0
6.101693 -9.149013 -15.509305 19.012460 -0.982616 2.524811 -0.002248 0.003999 204077.000000 1 0 0
-1.861807 5.520187 -17.346605 18.298729 -1.245505 2.817587 0.013988 -0.012337 1367470.000000 1 0 0
9.950993 -12.366913 -11.583305 19.650337 -0.893229 2.201200 0.029663 0.010579 -341509.000000 1 0 0
10.862693 3.671587 -9.315105 14.773281 0.325944 2.253042 -0.000315 -0.002031 -1820590.000000 1 0 0
4.917493 -0.504413 -11.032905 12.089713 -0.102218 2.720361 -0.002075 -0.003436 771367.000000 1 0 0
6.305393 9.597187 -11.378705 16.165980 0.989513 2.351624 -0.000889 -0.003971 276967.000000 1 0 0
10.923393 -9.539013 -9.453105 17.311108 -0.717846 2.148464 0.029560 0.002420 -486365.000000 1 0 0
3.225793 -2.374613 -14.424505 14.970333 -0.634567 2.870726 0.007851 -0.004635 -248064.000000 1 0 0
9.012393 -4.564613 -14.607905 17.760907 -0.468820 2.536545 0.006564 -0.008260 553705.000000 1 0 0
-4.019307 -6.480813 -16.488205 18.166361 1.015667 2.708383 0.002779 0.000009 -1959340.000000 1 0 0
5.895493 -7.764113 -11.282205 14.910615 -0.921353 2.428979 0.001732 0.002788 719076.000000 1 0 0
5.450993 6.403687 -16.874205 18.853629 0.865590 2.679252 0.014610 -0.003517 -532823.000000 1 0 0
9.266793 1.005887 -19.227905 21.368144 0.108124 2.690198 0.028514 -0.006577 215980.000000 1 0 0
13.042493 5.764287 -9.458105 17.111089 0.416150 2.156453 0.004187 -0.006968 872324.000000 1 0 0
-1.663007 -0.713313 -17.349505 17.443616 0.405194 3.037670 0.019532 -0.005118 555798.000000 1 0 0
-0.432807 -0.348713 -19.529205 19.537113 0.678207 3.113140 0.024539 -0.013787 -127965.000000 1 0 0
2.799993 6.465587 -16.650705 18.080093 1.162118 2.741286 0.012410 0.001264 312390.000000 1 0 0
7.599593 3.853987 -15.656805 17.825335 0.469336 2.643187 0.005416 0.007256 168636.000000 1 0 0
3.062893 -9.830013 -14.801605 18.030474 -1.268745 2.533819 -0.002751 0.002731 55396.000000 1 0 0
9.085593 -10.676813 -13.309605 19.331009 -0.865742 2.330230 0.033953 0.004382 232911.000000 1 0 0
3.789593 0.233087 -14.851005 15.328656 0.061430 2.891297 0.006919 -0.001840 -1267510.000000 1 0 0
-1.158107 -2.848413 -19.043905 19.290541 1.184631 2.981513 0.022691 -0.001911 669306.000000 1 0 0
9.268793 10.072987 -13.101205 18.947748 0.826952 2.334275 0.015590 -0.005261 327108.000000 1 0 0
4.716493 2.067287 -10.626405 11.808449 0.413090 2.690333 -0.004659 0.000603 497094.000000 1 0 0
-0.624707 7.047687 -18.975205 20.251384 -1.482387 2.784689 0.027854 -0.009229 303317.000000 1 0 0
0.759393 -1.722613 -17.615605 17.715914 -1.155588 3.035127 0.023144 -0.009249 -1561830.000000 1 0 0
-4.498407 -2.138013 -14.109105 14.962407 0.443679 2.802240 0.007779 -0.002442 -2568100.000000 1 0 0
10.032993 6.030987 -10.525205 15.742099 0.541239 2.303124 0.000858 0.003415 127433.000000 1 0 0
8.051993 5.205087 -17.881405 20.289706 0.573865 2.649412 0.012626 0.006142 182716.000000 1 0 0
11.190493 0.277187 -13.913805 17.857713 0.024765 2.464102 0.000633 0.012313 365460.000000 1 0 0
6.804893 12.125987 -11.714205 18.181549 1.059408 2.270892 0.011007 -0.005243 -21321.100000 1 0 0
-0.940307 0.602187 -15.127105 15.168260 -0.569608 3.067911 0.015653 -0.005619 -232610.000000 1 0 0
-4.565607 -2.666913 -19.202505 19.917163 0.528669 2.872899 0.003417 0.004869 415098.000000 1 0 0
5.644593 -12.125613 -13.943005 19.320955 -1.135120 2.376982 0.003949 0.009574 -96656.400000 1 0 0
2.141593 -4.717213 -13.955905 14.886430 -1.144625 2.786148 0.005050 -0.000440 -789369.000000 1 0 0
11.743593 2.184287 -15.443905 19.524274 0.183897 2.483255 0.009293 0.003891 242454.000000 1 0 0
9.635493 2.407787 -13.809305 17.009911 0.244873 2.518091 0.004527 0.001964 47438.100000 1 0 0
-2.250507 -4.011813 -16.494605 17.124001 1.059570 2.869627 0.002676 -0.001914 -1224620.000000 1 0 0
-2.959807 10.117487 -14.274105 17.744691 -1.286194 2.505487 0.002023 -0.008254 342645.000000 1 0 0
3.528893 5.750087 -13.690005 15.262137 1.020356 2.683712 0.003747 0.003288 -218131.000000 1 0 0
-5.080807 -2.423613 -16.644805 17.570943 0.445090 2.815470 0.002655 0.002748 339633.000000 1 0 0
-4.408707 6.260187 -13.626005 15.629928 -0.957227 2.629639 0.003810 -0.005683 264298.000000 1 0 0
5.909493 -1.040813 -14.103205 15.326636 -0.174338 2.739326 0.004301 -0.000954 -2054280.000000 1 0 0
6.748293 -2.947813 -12.755105 14.728264 -0.411843 2.618001 -0.000292 -0.001809 407322.000000 1 0 0
2.867493 -3.276113 -18.272905 18.784421 -0.851812 2.907689 0.015072 -0.011218 -241986.000000 1 0 0
7.396093 -11.956713 -11.977305 18.469461 -1.016832 2.276399 0.019578 0.006788 -541738.000000 1 0 0
-6.083307 -5.349613 -17.738905 19.501121 0.721312 2.713201 0.020064 0.004729 564985.000000 1 0 0
0.461893 8.607987 -11.942605 14.728768 1.517189 2.516374 0.004856 -0.001615 -8739.910000 1 0 0
0.392793 8.562487 -14.431705 16.785249 1.524955 2.605645 0.006021 -0.005249 -56465.200000 1 0 0
7.644893 -2.330313 -15.140805 17.120710 -0.295873 2.655909 0.004663 -0.003996 298879.000000 1 0 0
14.283493 1.597487 -8.986705 16.950841 0.111379 2.129589 0.008089 0.001257 537314.000000 1 0 0
2.671593 10.919887 -14.556205 18.391967 1.330856 2.483964 0.009962 0.001017 -312696.000000 1 0 0
6.156893 1.071087 -15.536405 16.746177 0.172242 2.759157 0.005662 0.005740 -30200.600000 1 0 0
16.601693 -5.420813 -10.394505 20.323561 -0.315608 2.107669 0.018566 0.003032 342617.000000 1 0 0
4.890693 -4.192213 -11.244205 12.958614 -0.708649 2.621355 0.000349 -0.001793 -883401.000000 1 0 0
8.646193 -3.674013 -17.075305 19.488998 -0.401810 2.638615 -0.000691 -0.008185 311826.000000 1 0 0
13.453493 -9.585913 -8.890605 18.759772 -0.619081 2.064532 0.024045 0.004736 -106912.000000 1 0 0
2.324893 -7.695913 -13.658205 15.848620 -1.277419 2.609587 0.001167 0.003048 303627.000000 1 0 0
-7.000807 -2.443613 -18.414605 19.851454 0.335826 2.758786 0.002906 0.004297 -1646100.000000 1 0 0
-1.508807 -6.350513 -15.745005 17.044374 1.337533 2.748596 0.002642 -0.001273 -444170.000000 1 0 0
1.535693 -7.114613 -18.438605 19.823174 -1.358207 2.765628 0.004847 -0.008220 -229513.000000 1 0 0
5.237693 10.905987 -14.483405 18.871751 1.123066 2.445674 0.013194 -0.007174 998805.000000 1 0 0
5.372693 -3.364113 -17.513305 18.625223 -0.559426 2.794308 0.010661 -0.003149 -659200.000000 1 0 0
3.876293 13.148187 -13.965705 19.568888 1.284102 2.365518 0.007539 -0.007209 77144.500000 1 0 0
9.264293 10.475587 -15.619005 20.964693 0.846684 2.411353 0.024965 -0.006421 348353.000000 1 0 0
2.474093 3.817287 -16.375305 16.995394 0.995738 2.870632 0.015565 0.001968 211947.000000 1 0 0
16.603393 1.920687 -11.484905 20.279663 0.115168 2.172838 0.003310 0.002905 -784497.000000 1 0 0
10.064793 -3.664213 -10.560005 15.041284 -0.349147 2.349094 0.010007 -0.002311 -963043.000000 1 0 0
14.635593 -2.111113 -12.047005 19.073219 -0.143257 2.254436 0.018292 0.003278 518623.000000 1 0 0
-2.684907 -8.588513 -16.016305 18.370991 1.267806 2.629714 0.005250 0.003766 -581041.000000 1 0 0
13.863693 8.206987 -8.949105 18.429408 0.534499 2.077832 0.014147 -0.001167 -125397.000000 1 0 0
-8.342107 0.087487 -16.719705 18.685474 -0.010487 2.678773 -0.008503 0.005252 -345854.000000 1 0 0
-3.541807 4.008287 -16.036705 16.905226 -0.847104 2.819655 0.013679 -0.005017 1366890.000000 1 0 0
15.139493 4.122587 -9.602105 18.395662 0.265861 2.119963 0.013857 -0.004177 602020.000000 1 0 0
5.411893 1.125587 -12.935605 14.067175 0.205061 2.737754 -0.001436 0.000591 399328.000000 1 0 0
7.872593 -7.710513 -12.981905 17.028200 -0.774998 2.437774 0.009211 0.002649 -1396490.000000 1 0 0
3.333393 -6.155313 -11.847705 13.761086 -1.074466 2.607945 0.003816 -0.000745 -783179.000000 1 0 0
-3.255007 3.771387 -18.635605 19.290003 -0.858758 2.880373 0.015935 -0.005130 -222681.000000 1 0 0
0.811693 5.199087 -17.795005 18.556712 1.415924 2.854081 0.020824 -0.009235 -1012880.000000 1 0 0
6.344393 7.264987 -10.228005 14.058572 0.852939 2.385508 -0.004449 0.005753 -261386.000000 1 0 0
9.755793 3.676087 -11.653605 15.636356 0.360357 2.411765 0.002283 -0.000307 466925.000000 1 0 0
4.754993 1.899187 -17.616205 18.345232 0.379997 2.858731 0.016624 0.006193 -438583.000000 1 0 0
2.581293 8.053387 -13.245005 15.714651 1.260619 2.573343 0.003835 -0.002112 -1546060.000000 1 0 0
14.386893 -3.510913 -9.938105 17.834661 -0.239357 2.161849 0.015960 0.007942 137110.000000 1 0 0
-1.309907 9.396587 -16.147805 18.728676 -1.432286 2.610387 0.009725 -0.005069 -928713.000000 1 0 0
-5.301207 2.142387 -15.835405 16.836053 -0.384063 2.795087 0.005843 -0.004063 647050.000000 1 0 0
4.450793 4.178587 -12.025505 13.486397 0.753865 2.671832 0.002404 0.002344 329130.000000 1 0 0
9.307593 3.001587 -17.506005 20.052457 0.311958 2.632138 0.013600 0.005019 753407.000000 1 0 0
-4.305707 14.452187 -13.299705 20.106889 -1.281242 2.293547 0.014745 0.002173 -211443.000000 1 0 0
15.539093 -4.849713 -8.059405 18.164172 -0.302518 2.030517 0.008165 0.006140 98885.800000 1 0 0
1.257793 9.408587 -16.828005 19.320593 1.437899 2.628006 0.014989 -0.002456 522736.000000 1 0 0
0.473393 -3.140613 -12.803005 13.191076 -1.421190 2.898428 0.010200 -0.001459 37780.400000 1 0 0
7.460993 3.634887 -12.932705 15.366642 0.453344 2.571052 -0.002078 0.005405 388002.000000 1 0 0
-2.852607 7.553887 -15.105205 17.127924 -1.209718 2.650685 0.002207 -0.006278 183342.000000 1 0 0
12.178293 -5.155813 -11.160605 17.304691 -0.400482 2.271750 0.025057 0.001778 -434323.000000 1 0 0
0.677093 -4.480513 -20.073505 20.578607 -1.420812 2.919574 0.023976 -0.009334 -597154.000000 1 0 0
3.390593 -4.441413 -16.115505 17.056722 -0.918772 2.807836 0.006791 -0.006208 839206.000000 1 0 0
-5.780107 4.216887 -14.429105 16.105615 -0.630285 2.681261 0.001531 -0.002564 601234.000000 1 0 0
12.269093 -7.487113 -9.961805 17.487854 -0.547916 2.176866 0.021817 0.003784 -129307.000000 1 0 0
-2.105107 -1.721413 -15.071305 15.314665 0.685460 2.963083 0.011711 -0.001295 19923.000000 1 0 0
7.034493 5.929387 -14.318805 17.019691 0.700359 2.570495 0.006399 0.005496 -267780.000000 1 0 0
4.255893 -5.499413 -18.366305 19.638669 -0.912186 2.779652 0.008351 -0.012040 -57052.600000 1 0 0
7.473693 7.447287 -12.350105 16.243253 0.783628 2.434605 -0.000552 0.000969 -237293.000000 1 0 0
12.289693 -2.507413 -11.025905 16.700127 -0.201263 2.291920 0.014439 -0.001448 -2435980.000000 1 0 0
7.537593 -0.774013 -10.538505 12.979772 -0.102328 2.518226 -0.001216 0.000254 -241836.000000 1 0 0
5.352293 3.972587 -14.424105 15.889723 0.638504 2.708717 0.002159 0.006364 -1197520.000000 1 0 0
14.644693 2.992387 -12.947705 19.775350 0.201558 2.284634 0.001053 -0.004781 -174958.000000 1 0 0
-6.312507 6.984687 -15.865105 18.448175 -0.835906 2.606031 -0.004513 0.003685 438539.000000 1 0 0
-11.489507 3.765787 -16.410205 20.383443 -0.316725 2.506599 0.020784 -0.008645 940658.000000 1 0 0
-5.140107 6.751787 -18.192105 20.073864 -0.920105 2.705143 0.005598 0.014785 503152.000000 1 0 0
-10.011107 1.651487 -15.651705 18.652762 -0.163493 2.566440 0.001456 -0.005435 -500637.000000 1 0 0
-7.638907 6.076787 -17.849605 20.344253 -0.671994 2.641167 -0.007882 -0.001991 -682683.000000 1 0 0
-8.838107 3.924787 -15.833805 18.553314 -0.417916 2.593312 -0.004401 0.010408 268961.000000 1 0 0
8.941493 13.499687 -12.103705 20.216120 0.985789 2.212693 0.020870 -0.005234 -1008320.000000 1 0 0
13.608293 8.999587 -11.451005 19.932479 0.584300 2.182777 0.003737 -0.006847 378906.000000 1 0 0
8.483293 15.863087 -9.179505 20.195720 1.079712 2.042638 0.030472 -0.005919 240968.000000 1 0 0
7.071093 13.525787 -13.843105 20.605310 1.089086 2.307462 0.016251 -0.008192 86666.400000 1 0 0
4.635893 16.107987 -12.347805 20.818910 1.290569 2.205707 0.024055 -0.009263 31112.400000 1 0 0
11.097093 11.012787 -11.554405 19.440453 0.781585 2.207252 0.016987 -0.003892 80431.900000 1 0 0
15.451993 10.027787 -9.866405 20.896568 0.575647 2.062529 0.014945 0.007444 873987.000000 1 0 0
12.933993 10.587287 -9.308905 19.132029 0.685958 2.078946 0.018757 -0.004493 438930.000000 1 0 0
10.449893 11.936087 -8.264705 17.887867 0.851690 2.051077 0.018781 0.007062 316097.000000 1 0 0
5.416193 16.207187 -9.868905 19.733305 1.248280 2.094527 0.013087 -0.007199 -132509.000000 1 0 0
6.715193 14.768187 -11.446005 19.854576 1.144035 2.185225 0.018669 0.001651 -1136040.000000 1 0 0
10.865393 14.029787 -9.826305 20.284180 0.911829 2.076510 0.029967 0.004044 -150005.000000 1 0 0
7.833193 -18.665313 -1.520905 20.299408 -1.173452 1.645790 0.008503 0.010029 -200968.000000 1 0 0
7.085693 -17.251613 -3.532005 18.981577 -1.181077 1.757963 0.016729 0.000774 -437232.000000 1 0 0
4.506593 -18.367813 5.614995 19.728510 -1.330196 1.282193 0.020634 0.008840 322198.000000 1 0 0
9.551793 -17.250713 -2.868505 19.926168 -1.065114 1.715255 0.015358 0.010649 -1185500.000000 1 0 0
-9.680207 -12.175813 -10.188905 18.594908 0.899090 2.150697 0.014741 -0.007864 -688572.000000 1 0 0
-5.236307 -6.963513 -12.133005 14.937176 0.926040 2.518828 0.003578 0.001000 251563.000000 1 0 0
-10.955807 -9.486113 -5.519205 15.507343 0.713626 1.934683 0.007624 -0.002310 -1216590.000000 1 0 0
-4.600107 -11.432913 -14.011205 18.659752 1.188260 2.420187 0.012811 -0.000871 622179.000000 1 0 0
-2.921507 -15.503913 7.522695 17.478486 1.384544 1.125863 -0.007597 0.001032 -158395.000000 1 0 0
-4.838207 -11.967713 -11.603905 17.357564 1.186613 2.303015 0.006907 -0.000713 6237.740000 1 0 0
-14.321507 -12.826913 -4.123105 19.663043 0.730401 1.782052 -0.006719 0.002182 -382592.000000 1 0 0
-3.276407 -12.252413 -3.163905 13.071601 1.309501 1.815268 0.005784 -0.003011 837439.000000 1 0 0
-2.498907 -17.397813 -1.579505 17.647189 1.428139 1.660421 -0.006040 -0.006733 -342852.000000 1 0 0
-5.795607 -12.091213 3.759795 13.925608 1.123826 1.297412 0.000452 -0.001280 -1129.950000 1 0 0
-8.922407 -10.687513 -12.040305 18.406554 0.875167 2.283830 0.013023 0.000543 375978.000000 1 0 0
-9.878007 -11.896713 -7.565505 17.214635 0.877843 2.025817 0.010701 -0.010501 -234790.000000 1 0 0
-10.816107 -15.021113 6.204695 19.522301 0.946734 1.247361 0.011913 -0.005014 -409578.000000 1 0 0
-9.520807 -15.657413 0.631495 18.335734 1.024464 1.536349 0.009292 0.000519 -1751250.000000 1 0 0
-14.935407 -7.674313 -8.015705 18.606800 0.474653 2.016169 -0.000520 -0.006571 -458361.000000 1 0 0
-2.440307 -16.505713 5.094995 17.445705 1.424013 1.274428 -0.004007 -0.000539 82656.300000 1 0 0
4.312293 -15.757713 5.703095 17.303950 -1.303674 1.234934 0.011002 -0.001359 -258855.000000 1 0 0
4.017693 -14.651313 -10.024805 18.201636 -1.303155 2.154076 -0.002275 0.005734 475658.000000 1 0 0
-7.671507 -13.927813 -0.352605 15.904727 1.067335 1.592968 0.003985 -0.000577 -218002.000000 1 0 0
2.893693 -14.920613 9.560295 17.955428 -1.379235 1.009309 0.006062 -0.006381 -273671.000000 1 0 0
2.248493 -17.358113 10.298295 20.307996 -1.441978 1.038973 0.024165 -0.004276 -113991.000000 1 0 0
-8.269207 -17.085213 -5.675805 19.811589 1.120032 1.861357 0.014249 -0.010389 -436131.000000 1 0 0
-6.563607 -9.016213 -7.808505 13.614176 0.941539 2.181638 0.009830 -0.005012 253742.000000 1 0 0
-6.012107 -13.008013 -4.874505 15.136533 1.137856 1.898675 -0.001100 -0.003764 543902.000000 1 0 0
2.066693 -19.316313 -4.863605 20.026128 -1.464210 1.816112 -0.002360 -0.012567 -212952.000000 1 0 0
-5.401707 -12.931813 8.091895 16.182985 1.175119 1.047169 0.001871 -0.002085 403429.000000 1 0 0
2.153593 -17.481913 3.385295 17.936428 -1.448224 1.380919 0.007617 -0.004179 125190.000000 1 0 0
-17.634207 -10.004213 -2.453305 20.422249 0.516042 1.691216 -0.005000 0.002029 283935.000000 1 0 0
-3.503707 -15.460713 2.626295 16.068822 1.347940 1.406619 -0.006050 -0.000269 -509985.000000 1 0 0
-10.315607 -10.489713 -14.226005 20.465216 0.793766 2.339398 0.018883 -0.006337 -111147.000000 1 0 0
6.012893 -14.626313 -5.629205 16.786061 -1.180757 1.912773 0.001662 -0.000578 305535.000000 1 0 0
-7.267807 -12.291513 -10.692405 17.838998 1.036808 2.213527 0.006984 -0.006435 -965243.000000 1 0 0
-7.236707 -14.246913 3.816395 16.428918 1.100810 1.336357 -0.000037 0.004733 627583.000000 1 0 0
3.163793 -14.971113 -3.219405 15.636764 -1.362534 1.778166 -0.000036 -0.001147 154138.000000 1 0 0
-7.537507 -11.433013 7.855295 15.787130 0.987928 1.049994 0.003364 -0.003271 -643627.000000 1 0 0
-12.867907 -12.179613 -1.011305 17.746795 0.757926 1.627812 0.001494 0.003168 -1101970.000000 1 0 0
-2.023007 -13.755013 4.025195 14.473947 1.424769 1.288982 -0.004749 -0.000316 -2366580.000000 1 0 0
-3.262607 -13.969313 5.329695 15.303332 1.341354 1.215071 -0.004886 0.000133 364777.000000 1 0 0
-14.429007 -10.196613 -4.578505 18.251846 0.615192 1.824356 -0.006068 0.001406 308475.000000 1 0 0
-6.271307 -8.649013 -10.498605 14.978499 0.943430 2.347471 0.006861 -0.000808 101784.000000 1 0 0
0.830593 -19.503013 2.376295 19.664795 -1.528234 1.449660 0.009552 -0.003608 124783.000000 1 0 0
6.190393 -14.019813 -8.186705 17.375220 -1.154995 2.061415 0.010998 0.003473 -2262150.000000 1 0 0
-3.970107 -16.718013 -5.914005 18.172209 1.337640 1.902276 -0.003333 -0.007780 -120046.000000 1 0 0
-3.786007 -13.803113 -13.211905 19.478558 1.303094 2.316215 0.014286 0.003517 -1148100.000000 1 0 0
-8.203007 -14.546413 -4.531105 17.303710 1.057329 1.835743 0.002704 -0.009053 -1618100.000000 1 0 0
-4.391607 -14.430313 9.949895 18.069880 1.275370 0.987672 -0.004049 -0.003822 -1897360.000000 1 0 0
-0.369107 -12.121313 -9.976205 15.703093 1.540355 2.259196 0.002868 0.002422 466032.000000 1 0 0
2.354993 -17.201713 6.728295 18.620281 -1.434738 1.201089 0.012687 -0.006931 -1510270.000000 1 0 0
-2.917807 -19.087813 -3.612205 19.644496 1.419108 1.755727 -0.004644 -0.010096 520118.000000 1 0 0
0.519693 -15.361413 -3.079505 15.675664 -1.536978 1.768534 0.002966 -0.004408 165508.000000 1 0 0
5.887193 -18.093213 0.627995 19.037273 -1.256220 1.537803 0.011726 0.005347 -419453.000000 1 0 0
-7.032607 -16.797613 3.825895 18.607924 1.174302 1.363714 -0.002472 0.007802 830417.000000 1 0 0
-5.283507 -13.474513 -9.499505 17.312381 1.197109 2.151619 0.004664 -0.004435 -21425.600000 1 0 0
5.525393 -15.107313 -2.134705 16.227071 -1.220166 1.702731 0.005876 0.002605 -2267960.000000 1 0 0
-8.866707 -10.285413 -0.600405 13.592965 0.859339 1.614981 0.004222 -0.000402 10578.700000 1 0 0
-7.450107 -18.049013 -3.119405 19.773762 1.179329 1.729213 0.006922 -0.021551 226445.000000 1 0 0
7.768593 -16.060413 -1.276405 17.886227 -1.120265 1.642219 0.008427 0.006755 -94751.300000 1 0 0
-8.112007 -10.065813 -9.650405 16.132438 0.892470 2.212048 0.009944 -0.005477 -605069.000000 1 0 0
-9.129407 -15.082413 -6.900105 18.932425 1.026488 1.943849 0.011079 -0.010344 -269716.000000 1 0 0
-11.536007 -10.530313 -12.026505 19.713036 0.739854 2.226956 0.016922 0.002660 223611.000000 1 0 0
6.467493 -16.269513 2.457495 17.679502 -1.192428 1.431342 0.013497 -0.000452 568682.000000 1 0 0
-2.282807 -11.201813 -6.041405 12.930213 1.369760 2.056953 0.005750 -0.000848 -494400.000000 1 0 0
-12.338507 -15.221813 -3.251405 19.862376 0.889637 1.735233 -0.001785 -0.008513 -467928.000000 1 0 0
-0.435707 -19.655413 -2.854905 19.866444 1.548633 1.715000 0.002905 -0.011623 -404669.000000 1 0 0
-5.861107 -15.500713 -4.759405 17.241712 1.209294 1.850468 -0.004712 -0.008601 -2083240.000000 1 0 0
1.877693 -15.961813 -1.037205 16.105310 -1.453698 1.635242 0.001035 -0.005228 -45974.900000 1 0 0
-13.197607 -11.889813 5.255895 18.524819 0.733316 1.283123 0.014186 -0.001751 44351.500000 1 0 0
1.860193 -15.519613 -8.750605 17.913453 -1.451505 2.081159 -0.000950 0.011379 -1299520.000000 1 0 0
-11.930107 -16.548613 0.106095 20.400865 0.946172 1.565596 0.008745 -0.009270 289065.000000 1 0 0
-7.649107 -16.552513 -1.010905 18.262433 1.137916 1.626179 0.007948 -0.007240 475489.000000 1 0 0
-3.167007 -14.524013 -1.761605 14.969307 1.356104 1.688751 -0.000263 -0.002385 298151.000000 1 0 0
-1.841807 -10.537613 -13.068005 16.888052 1.397760 2.455618 0.001168 0.000327 794058.000000 1 0 0
1.394893 -19.440713 4.874995 20.091108 -1.499168 1.325706 0.014797 -0.007414 -163380.000000 1 0 0
-17.427407 -9.361613 2.525095 19.943180 0.492945 1.443841 -0.004758 0.002343 -156767.000000 1 0 0
-2.802907 -15.794913 -8.106005 17.973394 1.395168 2.038682 -0.001850 0.001842 -940676.000000 1 0 0
-10.582307 -12.076313 0.231595 16.058524 0.851238 1.556374 0.002104 0.002155 -85801.600000 1 0 0
-7.010107 -11.328213 -6.460205 14.805548 1.016655 2.022320 0.001172 -0.004392 551047.000000 1 0 0
-2.345107 -13.627813 -6.740305 15.383385 1.400383 2.024341 -0.003755 -0.000973 490897.000000 1 0 0
-14.341707 -14.322913 -1.074605 20.297418 0.784743 1.623764 0.007326 -0.000841 -72541.100000 1 0 0
-9.641807 -11.251413 -4.331205 15.437554 0.862286 1.855177 0.010786 -0.006945 535422.000000 1 0 0
9.352393 -15.109513 -5.130105 18.495475 -1.016542 1.851853 0.020699 0.006269 339132.000000 1 0 0
-5.573607 -10.809913 -9.361105 15.347625 1.094746 2.226779 0.006147 -0.002497 -67782.700000 1 0 0
-10.405407 -15.927113 -4.747905 19.608366 0.992095 1.815364 0.009564 -0.007793 -2057870.000000 1 0 0
2.135093 -17.350113 -3.211605 17.773560 -1.448353 1.752490 0.004413 -0.004763 469832.000000 1 0 0
-0.441907 -14.499813 -8.265205 16.695912 1.540329 2.088681 -0.001529 0.000718 189210.000000 1 0 0
-0.513007 -18.257413 -7.075305 19.587145 1.542705 1.940374 0.001055 -0.006406 133238.000000 1 0 0
-1.819607 -9.938813 -10.559305 14.614715 1.389721 2.378225 0.003170 0.000461 432649.000000 1 0 0
-5.045007 -17.252313 2.148995 18.102834 1.286303 1.451805 -0.002436 -0.001021 -408953.000000 1 0 0
0.219093 -12.774613 -2.708705 13.060468 -1.553647 1.779710 0.001638 -0.001645 -1931710.000000 1 0 0
2.565893 -14.956213 3.072495 15.482646 -1.400890 1.371022 0.001816 -0.000406 -949471.000000 1 0 0
-9.340307 -13.113213 6.936795 17.530454 0.951875 1.163967 0.005739 -0.001584 -330828.000000 1 0 0
-0.995307 -17.809813 -4.610505 18.423812 1.514969 1.823732 -0.003230 -0.007855 -617781.000000 1 0 0
-9.805807 -17.576513 -2.171105 20.243551 1.061914 1.678252 0.013924 -0.013224 -359053.000000 1 0 0
1.195293 -16.212813 1.405995 16.317501 -1.497204 1.484524 0.001326 -0.007065 -1134780.000000 1 0 0
-0.450507 -17.901613 3.978295 18.343869 1.545636 1.352186 0.009504 -0.007530 -676624.000000 1 0 0
-17.288707 -9.155713 -0.044305 19.563447 0.487029 1.573061 -0.021788 0.003810 -38477.600000 1 0 0
-14.708007 -7.398913 -10.523205 19.539888 0.466087 2.139511 0.008524 -0.009158 235513.000000 1 0 0
2.612493 -12.888013 -8.775105 15.809126 -1.370799 2.159238 -0.006865 0.003139 314162.000000 1 0 0
-11.633607 -14.562813 1.805895 18.726388 0.896753 1.474210 -0.001245 0.000551 162699.000000 1 0 0
-2.270607 -15.644713 10.559395 19.010879 1.426667 0.981905 -0.002921 -0.002620 -122229.000000 1 0 0
-7.063407 -15.827313 1.300995 17.380683 1.151041 1.495873 0.003341 -0.003353 -781663.000000 1 0 0
-12.498307 -14.964913 -5.976705 20.393070 0.874973 1.868238 0.002385 -0.003813 561538.000000 1 0 0
0.902893 -13.732513 -5.001205 14.642718 -1.505142 1.919361 0.000436 -0.000471 -60441.000000 1 0 0
5.999093 -16.343413 -7.670805 19.024655 -1.219001 1.985811 0.009371 -0.002287 119167.000000 1 0 0
-6.575107 -12.845313 5.866295 15.577147 1.097699 1.184677 0.002268 -0.000710 -8212.480000 1 0 0
-2.644307 -13.564213 0.557895 13.830816 1.378264 1.530448 0.003005 -0.002400 621181.000000 1 0 0
-4.315407 -15.495513 0.200395 16.086448 1.299185 1.558339 -0.000236 -0.002667 -109390.000000 1 0 0
-17.695307 -7.442113 -2.005805 19.301093 0.398112 1.674906 -0.015065 0.003578 766612.000000 1 0 0
0.941993 -12.751813 -12.102005 17.605528 -1.497059 2.328697 -0.004577 0.007934 -1230460.000000 1 0 0
1.238093 -16.949013 -5.694305 17.922807 -1.497878 1.894113 0.002361 -0.008073 -941330.000000 1 0 0
-12.784207 -6.474513 -8.950405 16.895710 0.468791 2.129095 0.004065 -0.003807 2193110.000000 1 0 0
-11.403007 -13.594213 -8.830405 19.819366 0.872833 2.032578 0.007554 -0.012665 361811.000000 1 0 0
-4.346807 -9.813113 3.511995 11.292742 1.153813 1.254556 0.000219 -0.000321 -4290230.000000 1 0 0
-6.864607 -14.414513 9.505395 18.581000 1.126346 1.033791 -0.001235 -0.005436 -1578670.000000 1 0 0
-5.434307 -15.782813 -7.878105 18.457882 1.239192 2.011764 0.001023 -0.016295 -1367060.000000 1 0 0
-0.346107 -13.453313 2.104595 13.621334 1.545075 1.415668 0.001348 -0.004879 472123.000000 1 0 0
-10.954107 -13.450413 -4.641305 17.956831 0.887332 1.832235 0.010935 -0.003802 -1755640.000000 1 0 0
-9.717807 -10.523813 6.635695 15.786667 0.825196 1.136981 0.012544 -0.001512 -156760.000000 1 0 0
-15.471407 -7.917313 -4.833605 18.039180 0.472994 1.842061 0.002971 0.002569 633526.000000 1 0 0
-14.654407 -7.277113 5.474095 17.253224 0.460909 1.247937 0.015916 -0.002046 824830.000000 1 0 0
-1.746407 -19.388313 -0.173805 19.467584 1.480964 1.579724 0.000448 -0.004239 -843608.000000 1 0 0
-15.408007 -11.933813 -1.330205 19.534381 0.659010 1.638945 -0.007945 0.008072 145580.000000 1 0 0
-4.455107 -12.045213 -6.752005 14.509470 1.216535 2.054828 0.000333 -0.001088 1059950.000000 1 0 0
-7.369207 -18.457813 1.904795 19.965578 1.190940 1.475247 -0.000487 0.003143 351113.000000 1 0 0
-2.563107 -11.731313 -8.631805 14.788552 1.355692 2.194052 0.001318 0.002425 -92982.100000 1 0 0
-1.289307 -20.258413 -5.312105 20.982947 1.507239 1.826745 -0.007263 -0.005211 -394863.000000 1 0 0
-5.358707 -8.821313 -14.017205 17.407278 1.024900 2.506893 0.006282 0.005099 776495.000000 1 0 0
-8.189707 -19.185913 -0.965705 20.883083 1.167351 1.617056 -0.000076 0.003930 78049.600000 1 0 0
-17.249907 -7.329113 5.644495 19.573848 0.401768 1.278273 0.010837 -0.001399 112128.000000 1 0 0
-3.524407 -14.630513 -4.284405 15.647028 1.334406 1.848155 -0.001490 -0.003830 -1972980.000000 1 0 0
-3.089107 -15.038813 -11.054905 18.918758 1.368205 2.194857 0.004178 0.000741 8509.500000 1 0 0
-0.211807 -16.611813 6.198695 17.731921 1.558047 1.213675 0.008253 -0.008145 -1018210.000000 1 0 0
-11.164307 -11.614313 3.780395 16.547671 0.805151 1.340306 0.009076 0.002397 1375110.000000 1 0 0
-0.309507 -14.701313 -0.127305 14.705122 1.549746 1.579454 0.002919 -0.002992 445264.000000 1 0 0
-7.228307 -9.377113 -2.440705 12.088661 0.914087 1.774094 0.008533 -0.002014 -718803.000000 1 0 0
-11.193407 -14.226113 -0.784805 18.118791 0.904143 1.614124 0.004255 -0.008251 147341.000000 1 0 0
0.288193 -14.627613 -10.709005 18.130993 -1.551097 2.202656 0.000561 0.005099 -339978.000000 1 0 0
-1.435407 -13.907813 -3.938505 14.525821 1.467952 1.845372 -0.002141 -0.003294 -4508380.000000 1 0 0
-11.246107 -8.192713 -7.626805 15.867061 0.629594 2.072214 0.004703 -0.004104 385684.000000 1 0 0
-0.232107 -17.297113 -0.284505 17.301010 1.557378 1.587241 0.004871 -0.006860 -115472.000000 1 0 0
-12.895007 -9.431313 4.510395 16.600438 0.631486 1.295634 0.009715 0.000719 743139.000000 1 0 0
3.864093 -16.810913 1.583695 17.321839 -1.344865 1.479241 0.007623 -0.004902 1896340.000000 1 0 0
-4.041607 -17.936213 -8.163205 20.116666 1.349166 1.988643 0.004938 -0.005962 71207.100000 1 0 0
-13.436507 -11.189813 2.690995 17.691611 0.694419 1.418098 0.001484 0.001244 -163440.000000 1 0 0
-8.549507 -12.115513 4.165595 15.402335 0.956278 1.296934 0.007420 -0.001765 1757730.000000 1 0 0
-8.410107 -9.333113 -5.942205 13.897723 0.837372 2.012596 0.009737 -0.006274 -320050.000000 1 0 0
3.739493 -17.444713 -5.264305 18.601471 -1.359630 1.857722 -0.002387 0.001243 -531583.000000 1 0 0
-2.554507 -13.122213 11.326395 17.521564 1.378531 0.867905 -0.006403 -0.003206 -92867.200000 1 0 0
-0.203607 -16.820713 -9.551605 19.344534 1.558692 2.087207 -0.002039 0.004008 29210.000000 1 0 0
-7.117807 -10.675313 -14.564705 19.410207 0.982733 2.419408 0.014898 0.001303 -1173390.000000 1 0 0
-4.647807 -18.975113 -1.665505 19.606910 1.330584 1.655844 0.008912 -0.009464 -210647.000000 1 0 0
-2.525907 -17.182713 1.043495 17.398699 1.424839 1.510785 0.003455 -0.006940 465494.000000 1 0 0
3.886693 -14.767113 -7.353105 16.948220 -1.313434 2.019566 0.003175 0.002742 1774670.000000 1 0 0
-1.072607 -15.805313 -6.190105 17.008110 1.503037 1.943302 -0.003095 -0.003586 -343186.000000 1 0 0
-9.383207 -15.437313 8.367195 19.908922 1.024642 1.137049 0.004351 0.002949 -241957.000000 1 0 0
-7.164507 -11.949313 -1.943105 14.067406 1.030690 1.709368 0.002379 0.000277 562692.000000 1 0 0
-7.327407 -15.023413 -9.376805 19.165550 1.117011 2.082029 0.007344 -0.008657 -465381.000000 1 0 0
-5.220207 -13.182313 -0.623705 14.192003 1.193742 1.614758 -0.000981 0.001192 2630640.000000 1 0 0
-6.598107 -13.636613 -7.321405 16.825433 1.120150 2.020989 0.003582 -0.006563 29170.900000 1 0 0
5.667193 -15.449413 0.194595 16.457196 -1.219214 1.558972 0.003968 0.002373 433211.000000 1 0 0
-14.464607 -12.759013 0.988695 19.313073 0.722829 1.519581 -0.004946 -0.000284 782891.000000 1 0 0
0.789493 -15.324013 11.017595 18.890105 -1.519322 0.948076 0.008849 -0.010874 -242061.000000 1 0 0
-9.285807 -10.848313 1.967495 14.414685 0.862848 1.433877 0.006697 0.003379 -122522.000000 1 0 0
-9.466307 -8.820813 -3.525305 13.410648 0.750115 1.836796 0.008998 -0.003210 -1028660.000000 1 0 0
-12.377107 -7.076113 -12.107705 18.704563 0.519358 2.274850 0.012192 -0.008470 -198629.000000 1 0 0
-13.250407 -8.456713 -0.607505 15.730809 0.568051 1.609425 0.002456 0.000961 97212.100000 1 0 0
-11.170107 -9.601413 0.581795 14.740994 0.710020 1.531318 0.004258 0.002680 1318780.000000 1 0 0
-15.859507 -12.190313 3.039995 20.232876 0.655327 1.419975 0.006407 0.006418 -229505.000000 1 0 0
-10.548507 -12.419313 -2.290105 16.454632 0.866672 1.710427 0.008392 -0.003363 51417.100000 1 0 0
-3.426007 -8.830313 -12.148005 15.404090 1.200693 2.479361 0.002862 0.002064 -194983.000000 1 0 0
-0.349707 -15.497613 3.780395 15.955867 1.548235 1.331594 0.004493 -0.002748 -1076950.000000 1 0 0
-15.715407 -7.708413 1.253195 17.548908 0.456019 1.499324 -0.007719 0.000807 234727.000000 1 0 0
-6.258007 -13.391713 -13.262905 19.859639 1.133646 2.302089 0.013526 -0.003609 -376959.000000 1 0 0
-15.461107 -10.382413 1.188095 18.661509 0.591354 1.507088 0.000633 0.003074 -581673.000000 1 0 0
-10.052107 -8.387313 -12.522305 18.116291 0.695358 2.333969 0.018938 -0.002550 434380.000000 1 0 0
-13.103107 -11.794613 -6.172205 18.678877 0.732892 1.907564 -0.004377 0.002091 -195389.000000 1 0 0
-12.224507 -11.369813 -3.839505 17.130471 0.749189 1.796850 0.001359 0.004020 -3414600.000000 1 0 0
-11.843007 -10.980513 -9.101505 18.538228 0.747626 2.083986 0.008061 -0.008173 1508690.000000 1 0 0
-13.174707 -8.444713 -5.942705 16.739230 0.570008 1.933728 0.000937 -0.001274 -2754800.000000 1 0 0
-13.413707 -8.186513 -3.233305 16.043715 0.547966 1.773717 0.001635 -0.002796 123785.000000 1 0 0
-4.419207 -16.942013 -3.238605 17.805891 1.315639 1.753698 -0.001660 -0.013004 -87873.500000 1 0 0
-15.464507 -8.887313 -1.929705 17.940431 0.521602 1.678567 -0.002826 0.002240 -3474950.000000 1 0 0
-9.358707 -15.578213 3.618295 18.529927 1.029821 1.374266 0.002790 0.001447 -1096930.000000 1 0 0
4.629793 -17.087513 7.950095 19.406754 -1.306203 1.148719 0.024457 -0.020570 122394.000000 1 0 0
-8.327707 -15.452213 5.967295 18.539962 1.076490 1.243102 0.001598 0.006353 69922.200000 1 0 0
0.830093 -16.065213 8.430595 18.161912 -1.519172 1.088075 0.008329 -0.006286 342429.000000 1 0 0
-10.826507 -7.854113 -10.174905 16.805625 0.627605 2.221123 0.008574 -0.001176 953504.000000 1 0 0
-4.813807 -16.134313 5.934695 17.852434 1.280846 1.231917 -0.006662 0.004773 -487979.000000 1 0 0
-1.506107 -13.257013 -11.985705 17.935269 1.457673 2.302685 0.000749 0.001286 -1114270.000000 1 0 0
-6.480107 -14.366013 -2.592805 15.971749 1.147051 1.733855 0.002555 -0.002871 197006.000000 1 0 0
-17.743907 -6.881113 -7.096805 20.311588 0.369946 1.927724 0.007106 -0.008953 64145.500000 1 0 0
-17.232907 -4.095013 -10.237705 20.458564 0.233301 2.094871 0.002177 -0.010578 741822.000000 1 0 0
-15.225707 -5.363313 -8.952005 18.458756 0.338681 2.077129 -0.001235 -0.011639 436528.000000 1 0 0
-16.068907 -5.385913 -5.640105 17.861372 0.323408 1.892066 0.004182 -0.004138 -562702.000000 1 0 0
-15.106007 -4.489213 -12.398405 20.051557 0.288868 2.237408 0.004963 -0.004780 -448841.000000 1 0 0
-18.692807 -5.144613 -5.556005 20.168224 0.268570 1.849889 0.006109 -0.007451 -195612.000000 1 0 0
-17.371407 -4.436113 -7.677805 19.503681 0.250025 1.975405 -0.001771 -0.011144 592718.000000 1 0 0
12.061793 -7.943313 8.856895 16.941891 -0.582363 1.020687 0.015761 -0.001258 258909.000000 1 0 0
16.047693 -3.389313 1.814295 16.501744 -0.208144 1.460628 0.009132 -0.003660 480872.000000 1 0 0
11.940093 -2.212213 12.504795 17.430709 -0.183199 0.770733 0.013060 -0.007078 414333.000000 1 0 0
9.738993 -10.109613 5.253295 14.988308 -0.804068 1.212699 0.002618 0.000941 119047.000000 1 0 0
17.033893 -2.185413 7.198295 18.621090 -0.127601 1.173890 0.036910 -0.008559 -150095.000000 1 0 0
5.117493 -12.949813 9.181095 16.678696 -1.194453 0.987871 -0.001315 0.004338 -199718.000000 1 0 0
15.135093 -9.072213 -2.133905 17.774409 -0.539990 1.691142 0.001709 0.002412 523320.000000 1 0 0
11.158293 -8.652013 6.442095 15.519839 -0.659553 1.142757 0.010913 -0.000693 -1765310.000000 1 0 0
19.874193 -3.346113 3.618795 20.476222 -0.166800 1.393132 0.017865 -0.008660 41663.200000 1 0 0
13.531493 -8.685513 6.956695 17.519562 -0.570641 1.162462 0.021497 -0.003152 -911967.000000 1 0 0
8.285093 -11.175813 8.787595 16.454889 -0.932860 1.007423 0.000204 0.005346 -281672.000000 1 0 0
16.892993 0.041787 -0.623405 16.904543 0.002474 1.607683 0.003779 -0.003893 -1828890.000000 1 0 0
12.266393 -12.368013 2.305795 17.571250 -0.789523 1.439191 0.011426 -0.003171 -1524920.000000 1 0 0
10.138093 -11.797113 3.505495 15.944946 -0.860887 1.349136 0.008239 0.001011 -618697.000000 1 0 0
16.325093 3.072287 2.453195 16.791836 0.186018 1.424177 0.010284 -0.002891 825143.000000 1 0 0
18.229793 -3.216613 0.536395 18.519170 -0.174650 1.541828 -0.004348 -0.009390 -1081590.000000 1 0 0
13.354893 -11.615113 -0.134005 17.699773 -0.715836 1.578367 0.013497 -0.000943 -484110.000000 1 0 0
16.941393 -7.659913 -0.772305 18.608641 -0.424634 1.612311 0.008991 -0.002233 -458212.000000 1 0 0
10.202793 -5.830213 9.688695 15.230206 -0.519149 0.881298 0.008745 -0.003945 -168967.000000 1 0 0
11.216493 -13.362113 6.054295 18.466463 -0.872474 1.236766 0.019857 0.002277 -200473.000000 1 0 0
13.159593 -1.946313 10.283095 16.813835 -0.146836 0.912734 0.024307 -0.007845 1402550.000000 1 0 0
15.656693 -2.045213 -1.400205 15.851672 -0.129893 1.659243 0.001619 -0.002584 -612570.000000 1 0 0
10.377793 -12.605813 9.128695 18.706635 -0.882036 1.061008 0.024576 -0.002074 -12621.200000 1 0 0
14.565793 1.244387 3.338695 14.995256 0.085225 1.346264 0.014140 -0.000866 694731.000000 1 0 0
14.983993 -5.809013 5.443195 16.967411 -0.369842 1.244219 0.021884 -0.005944 -668676.000000 1 0 0
14.389093 -3.411113 -3.113405 15.112080 -0.232766 1.778303 0.002983 0.001691 675416.000000 1 0 0
14.050093 0.528987 9.682295 17.071373 0.037632 0.967736 0.022865 -0.004050 709499.000000 1 0 0
15.269593 -3.422513 4.438995 16.265876 -0.220495 1.294388 0.014759 -0.003067 -704987.000000 1 0 0
18.757593 4.751087 -4.117805 19.783236 0.248072 1.780476 -0.001647 0.003120 404897.000000 1 0 0
18.406593 -5.749113 -5.103905 19.947551 -0.302739 1.829540 0.027965 -0.000282 774889.000000 1 0 0
17.375493 -0.003413 5.979895 18.375715 -0.000196 1.239336 0.031968 -0.006254 474782.000000 1 0 0
17.018193 -6.824013 4.075295 18.782813 -0.381354 1.352088 0.023754 -0.004792 -52836.600000 1 0 0
9.743593 -6.540513 14.203695 18.424464 -0.591178 0.690520 0.003349 -0.004099 -1269860.000000 1 0 0
8.466293 -12.325213 5.089095 15.795185 -0.968911 1.242751 0.003493 -0.000735 -1818910.000000 1 0 0
16.897793 -10.240613 -0.552005 19.766392 -0.544843 1.598726 0.015870 0.005423 -283127.000000 1 0 0
15.004393 -8.870613 0.471295 17.436791 -0.533925 1.543764 0.019151 -0.004800 -296174.000000 1 0 0
9.794393 -12.969513 1.459595 16.317745 -0.923985 1.481228 0.010791 -0.005047 311210.000000 1 0 0
16.944693 -8.353213 8.964395 20.910743 -0.458007 1.127745 0.042217 -0.005451 617689.000000 1 0 0
19.241693 -0.009413 -1.753405 19.321420 -0.000489 1.661671 0.008347 -0.006679 -385738.000000 1 0 0
13.438793 -1.227113 7.791795 15.582651 -0.091059 1.047163 0.016943 -0.005033 380180.000000 1 0 0
12.883293 -9.918713 -3.108005 16.553543 -0.656109 1.759672 0.012659 0.001825 547784.000000 1 0 0
8.741693 -15.376413 1.348695 17.738947 -1.053851 1.494693 0.013906 0.008371 -177038.000000 1 0 0
11.363393 -8.377313 11.225695 18.036693 -0.635271 0.899015 0.014393 -0.003170 277649.000000 1 0 0
14.049993 -4.064813 -0.586905 14.637946 -0.281621 1.610902 0.004425 -0.004420 -782749.000000 1 0 0
7.068693 -13.378313 10.799795 18.589816 -1.084712 0.950898 0.010070 0.007379 -869873.000000 1 0 0
15.381493 -6.786413 1.887195 16.917660 -0.415517 1.459012 0.007391 -0.004434 -305755.000000 1 0 0
15.876593 -6.239013 -2.550705 17.248118 -0.374431 1.719224 0.000409 -0.002499 113895.000000 1 0 0
11.127393 -8.577413 3.780695 14.549383 -0.656704 1.307927 0.010585 -0.005349 274589.000000 1 0 0
10.549993 -14.588813 -0.501205 18.010747 -0.944698 1.598628 0.021651 0.000346 747530.000000 1 0 0
13.321793 -12.900613 4.669795 19.123362 -0.769338 1.324109 0.016482 0.002211 242220.000000 1 0 0
12.642993 -11.201113 6.543695 18.114363 -0.725001 1.201195 0.014360 0.000189 136642.000000 1 0 0
10.839393 -10.519013 1.359695 15.165449 -0.770399 1.481018 0.008147 -0.005532 152832.000000 1 0 0
13.870393 -7.583013 11.944295 19.813028 -0.500310 0.923727 0.024861 -0.008240 167117.000000 1 0 0
15.409393 -1.772613 -4.964405 16.286094 -0.114531 1.880551 0.009288 0.001550 -633696.000000 1 0 0
13.068393 -11.489413 -7.140405 18.808904 -0.721190 1.960192 0.023539 0.005227 -49704.600000 1 0 0
17.586293 -5.359113 2.038695 18.497407 -0.295793 1.460357 0.010616 -0.007357 115348.000000 1 0 0
10.671893 -10.027713 9.183395 17.285227 -0.754288 1.010679 0.008509 0.004249 -262517.000000 1 0 0
16.251793 1.764887 10.167195 19.251167 0.108173 1.014395 0.027094 -0.000962 -851110.000000 1 0 0
18.121693 3.828887 0.637195 18.532732 0.208225 1.536407 -0.006682 -0.001751 581729.000000 1 0 0
13.188693 -4.098213 5.724795 14.950259 -0.301278 1.177838 0.015224 -0.007685 -383975.000000 1 0 0
12.112093 -6.233513 6.677595 15.170687 -0.475300 1.115015 0.014611 -0.005206 -325320.000000 1 0 0
16.366593 -10.096713 3.443695 19.536325 -0.552761 1.393599 0.003232 -0.005268 835104.000000 1 0 0
16.411493 -8.257013 -5.433205 19.158159 -0.466144 1.858340 0.005093 0.002532 -483700.000000 1 0 0
13.977293 -0.362613 5.327195 14.962460 -0.025937 1.206772 0.016043 -0.003683 521249.000000 1 0 0
18.259393 -4.435213 5.195695 19.495430 -0.238286 1.301028 0.027433 -0.002432 330349.000000 1 0 0
13.567193 -13.684213 7.069595 20.525730 -0.789692 1.219169 0.027873 0.003708 79644.600000 1 0 0
14.875493 -13.578313 -0.722405 20.153728 -0.739841 1.606649 0.006377 0.004706 485092.000000 1 0 0
17.809093 -6.080013 8.033295 20.461285 -0.328992 1.167329 0.041868 -0.004163 446572.000000 1 0 0
14.290393 3.225987 9.180895 17.289047 0.222024 1.010988 0.017063 -0.004587 -433136.000000 1 0 0
18.896593 3.706187 3.154495 19.513274 0.193672 1.408425 0.024543 -0.006040 3567.820000 1 0 0
14.789993 -10.832513 8.098795 20.041899 -0.632156 1.154809 0.027845 -0.002639 287026.000000 1 0 0
14.706993 -4.852013 10.503695 18.712704 -0.318668 0.974824 0.025841 -0.011142 239439.000000 1 0 0
17.753693 -7.922013 1.876895 19.531376 -0.419704 1.474551 0.020245 -0.008850 -392692.000000 1 0 0
18.424293 -5.903813 -1.850605 19.435388 -0.310099 1.666159 -0.000482 -0.003594 -861126.000000 1 0 0
14.353793 -12.932113 -5.436505 20.070538 -0.733342 1.845093 0.015518 -0.000280 -678684.000000 1 0 0
15.558093 -1.536813 9.304395 18.193070 -0.098460 1.033954 0.034215 -0.009289 -1106410.000000 1 0 0
13.126693 -9.960313 10.183895 19.370844 -0.649099 1.017220 0.019622 -0.007636 -224973.000000 1 0 0
16.584193 2.104887 4.892995 17.418593 0.126246 1.286058 0.018844 -0.004535 -629987.000000 1 0 0
15.132593 2.359187 -0.072605 15.315561 0.154656 1.575537 0.006674 -0.000463 -1560100.000000 1 0 0
15.218393 -9.905013 -7.005305 19.462350 -0.576978 1.939001 0.018189 0.004642 1235360.000000 1 0 0
16.336993 -0.041813 -3.200305 16.647553 -0.002559 1.764239 0.007455 0.002597 138692.000000 1 0 0
12.031393 2.504987 13.565895 18.304723 0.205272 0.736068 0.021204 -0.004370 -294770.000000 1 0 0
17.544893 -3.011913 9.698795 20.272186 -0.170012 1.071932 0.024659 -0.007905 370788.000000 1 0 0
7.623193 -18.230913 4.297495 20.222456 -1.174745 1.356652 0.022445 -0.002464 -473185.000000 1 0 0
6.643993 -11.298713 6.666895 14.705477 -1.039224 1.100263 -0.000553 0.000539 555789.000000 1 0 0
17.969993 2.176087 -1.385205 18.154195 0.120509 1.647173 -0.003755 -0.001143 6661.800000 1 0 0
17.493493 -2.403413 3.701695 18.041653 -0.136534 1.364154 0.009878 -0.004258 -2251840.000000 1 0 0
12.566793 -13.459913 -1.964505 18.518985 -0.819700 1.677077 0.018451 0.002476 1815170.000000 1 0 0
14.881793 -8.190813 4.500395 17.573011 -0.503144 1.311814 0.020024 -0.006296 -402508.000000 1 0 0
11.676993 -3.085413 14.912495 19.189957 -0.258326 0.680753 0.012451 -0.007555 226383.000000 1 0 0
12.117293 -13.737613 -6.430705 19.414035 -0.847986 1.908414 0.031724 0.000258 206555.000000 1 0 0
10.595493 -12.013313 -1.304805 16.071300 -0.848027 1.652074 0.018083 -0.007072 -978273.000000 1 0 0
13.100093 -8.044413 2.018995 15.504882 -0.550703 1.440209 0.010462 -0.000072 -897420.000000 1 0 0
8.701693 -8.018013 9.958895 15.465690 -0.744530 0.871166 -0.001334 0.000487 -1029580.000000 1 0 0
15.576293 -3.906213 8.162495 18.014042 -0.245712 1.100536 0.031497 -0.011630 -1180690.000000 1 0 0
10.005893 -17.475513 5.232195 20.805944 -1.050793 1.316591 0.025793 -0.001311 479905.000000 1 0 0
15.156593 -6.462913 8.497695 18.539212 -0.403064 1.094643 0.029385 -0.000358 650326.000000 1 0 0
16.629493 -5.006813 -0.327705 17.369962 -0.292448 1.589664 -0.000296 -0.006429 -1062190.000000 1 0 0
13.800193 -10.533413 3.573195 17.724724 -0.651946 1.367811 0.015574 -0.002979 210377.000000 1 0 0
15.041393 -10.123613 -4.488305 18.678220 -0.592409 1.813467 0.014589 0.002270 330638.000000 1 0 0
13.727293 -6.632513 -0.128005 15.246153 -0.450087 1.579192 0.007410 -0.003646 -122013.000000 1 0 0
17.843793 -0.914713 -4.995005 18.552297 -0.051217 1.843399 -0.005353 0.003052 903493.000000 1 0 0
14.479893 0.235287 -1.620005 14.572133 0.016248 1.682198 0.009707 -0.001388 -770960.000000 1 0 0
4.713693 -12.904313 11.780395 18.097456 -1.220574 0.861972 -0.004799 0.000192 -587733.000000 1 0 0
11.979293 -7.573813 13.651895 19.678423 -0.563790 0.804114 0.017096 -0.003936 -419732.000000 1 0 0
11.961093 -5.888913 11.624595 17.688365 -0.457500 0.853713 0.012349 -0.004240 620709.000000 1 0 0
13.237093 -4.633413 8.304195 16.298736 -0.336704 1.036193 0.019853 -0.010265 -1446960.000000 1 0 0
15.380293 -1.153613 3.158895 15.743660 -0.074866 1.368780 0.014196 -0.000797 245555.000000 1 0 0
15.055093 -10.476313 5.752795 19.222476 -0.607945 1.266864 0.025649 -0.003671 310272.000000 1 0 0
13.857393 -8.037213 -5.688805 16.999607 -0.525580 1.912023 0.017174 0.002919 -550309.000000 1 0 0
9.603893 -2.254813 13.534495 16.748179 -0.230605 0.629847 0.006131 -0.007032 -1157480.000000 1 0 0
9.766093 -9.013513 13.727395 19.106579 -0.745345 0.769204 0.009590 -0.002248 -477500.000000 1 0 0
20.469493 6.199987 -2.696405 21.557147 0.294105 1.696207 0.015618 0.008705 290927.000000 1 0 0
11.217593 -3.653913 10.469595 15.773328 -0.314893 0.844971 0.014665 -0.005369 965185.000000 1 0 0
10.123893 -13.976213 -2.989605 17.514722 -0.943904 1.742327 0.015873 0.001214 258593.000000 1 0 0
14.782493 -12.647813 2.471495 19.611159 -0.707733 1.444435 0.010238 0.004284 494026.000000 1 0 0
11.427893 -0.494113 14.398395 18.388982 -0.043211 0.671338 0.027684 -0.007927 259936.000000 1 0 0
19.162593 -1.920813 5.678395 20.078313 -0.099904 1.284071 0.038611 -0.009871 1340730.000000 1 0 0
18.982693 -0.701713 7.946295 20.590741 -0.036949 1.174596 0.045581 -0.006813 71893.400000 1 0 0
18.986093 0.852587 0.634195 19.015805 0.044876 1.537439 0.004377 -0.010370 -77810.700000 1 0 0
18.487293 0.681187 3.711295 18.868432 0.036830 1.372812 0.016146 -0.007688 314900.000000 1 0 0
16.669893 -3.941113 -4.093305 17.611725 -0.232158 1.805361 -0.008427 0.002144 -879759.000000 1 0 0
10.731793 -8.246413 15.898695 20.879253 -0.655180 0.705235 0.011365 -0.002880 241212.000000 1 0 0
16.522293 -7.602513 6.489295 19.310497 -0.431252 1.228076 0.028760 -0.004158 709603.000000 1 0 0
18.926093 2.067987 5.969895 19.952774 0.108835 1.266941 0.036065 -0.009514 11165.600000 1 0 0
15.624693 1.593687 7.746395 17.512210 0.101646 1.112587 0.038879 -0.005402 398779.000000 1 0 0
8.573893 -15.799913 3.830595 18.379944 -1.073610 1.360846 0.014313 -0.004003 -22555.500000 1 0 0
11.219793 -15.113613 1.950695 18.923801 -0.932201 1.467531 0.015641 0.004209 274275.000000 1 0 0
7.766293 -16.347113 6.160795 19.118023 -1.127277 1.242690 0.018056 0.001357 -155026.000000 1 0 0
14.575893 -11.713913 -2.459705 18.860609 -0.676962 1.701584 0.010017 0.000896 661125.000000 1 0 0
13.728693 -4.908613 3.211895 14.929426 -0.343380 1.353963 0.008108 -0.000245 -1378340.000000 1 0 0
-1.061507 10.181687 -5.465805 11.604679 -1.466915 2.061220 -0.000918 0.004273 -1759220.000000 1 0 0
8.309093 -1.801813 -7.950805 11.640569 -0.213542 2.322693 0.001486 -0.002729 -2557340.000000 1 0 0
3.099393 -10.237613 7.594395 13.118300 -1.276823 0.953398 -0.009403 0.001551 1059040.000000 1 0 0
-6.233007 1.262187 8.362695 10.506101 -0.199799 0.650164 0.000598 -0.001012 -511304.000000 1 0 0
7.278493 -6.263713 -7.294005 12.058734 -0.710603 2.220403 0.004240 -0.003293 -145804.000000 1 0 0
-11.399207 -4.507113 -4.085905 12.920937 0.376524 1.892542 0.005631 -0.002903 32105.300000 1 0 0
2.171093 -3.278713 2.811795 4.834231 -0.985907 0.950050 0.001131 0.000467 2659510.000000 1 0 0
-3.548007 -4.318913 8.904795 10.513645 0.883080 0.560527 0.000165 -0.000798 -2743850.000000 1 0 0
-4.780107 -0.963513 -2.518605 5.488274 0.198902 2.047560 0.004244 -0.003365 50844.500000 1 0 0
5.009893 -5.197213 -3.710705 8.116611 -0.803748 2.045612 0.008072 -0.006068 509672.000000 1 0 0
2.742993 14.349587 -8.818305 17.064500 1.381920 2.113862 0.000905 0.000935 -177691.000000 1 0 0
5.502293 -5.532413 13.684995 15.753156 -0.788128 0.518195 -0.004642 -0.000602 -1248560.000000 1 0 0
-4.677107 -0.866313 9.919695 11.001190 0.183148 0.447127 0.003033 0.000084 -3796770.000000 1 0 0
-1.009507 11.982587 -2.636405 12.310651 -1.486747 1.786624 -0.004912 0.003348 373578.000000 1 0 0
3.090793 9.375687 -10.538005 14.439739 1.252355 2.388814 0.005397 -0.001409 -529012.000000 1 0 0
-10.608607 2.701487 1.168695 11.009379 -0.249351 1.464441 -0.002649 -0.000700 174486.000000 1 0 0
5.653993 -9.009713 -0.766705 10.664446 -1.010370 1.642752 -0.000428 -0.002928 168185.000000 1 0 0
-6.952207 5.378087 9.265395 12.771239 -0.658422 0.759052 0.005140 -0.002124 207473.000000 1 0 0
-5.494407 -1.921813 5.165695 7.782434 0.336475 0.844957 0.002660 -0.003136 557806.000000 1 0 0
6.664393 -3.838213 -7.333205 10.626472 -0.522532 2.332408 0.005132 -0.005443 197227.000000 1 0 0
6.182893 4.690587 11.135995 13.573509 0.649008 0.608649 -0.006649 0.001713 274861.000000 1 0 0
3.747893 -9.823613 3.389495 11.047115 -1.206323 1.258944 -0.005433 -0.001256 1097230.000000 1 0 0
-6.631607 6.588887 -5.825005 11.014642 -0.782167 2.128032 0.003800 -0.001633 -399523.000000 1 0 0
-11.107407 8.458387 5.195495 14.896710 -0.650826 1.214540 -0.003015 -0.004766 677211.000000 1 0 0
-9.158907 -5.415013 5.133695 11.813669 0.533945 1.121252 0.006026 -0.001112 -1013350.000000 1 0 0
3.286693 9.844287 -7.997705 13.102504 1.248565 2.227356 0.005330 -0.001954 564166.000000 1 0 0
-8.094807 -8.517313 6.079195 13.229782 0.810826 1.093355 0.008032 -0.000629 -1956040.000000 1 0 0
-7.788007 -5.767113 -7.350305 12.163044 0.637401 2.219702 0.010970 -0.001522 258576.000000 1 0 0
9.166893 -1.422313 6.919495 11.572999 -0.153930 0.929918 0.003595 -0.002909 2734770.000000 1 0 0
-4.042707 -0.211613 -4.929205 6.378505 0.052297 2.454012 0.008436 -0.008722 -671229.000000 1 0 0
9.038193 1.183487 -4.612205 10.215772 0.130202 2.039218 0.006317 -0.000233 -2821970.000000 1 0 0
-1.775807 -10.663013 10.693595 15.205470 1.405772 0.790805 -0.012212 0.001212 -400704.000000 1 0 0
-12.925207 0.254587 -2.661505 13.198841 -0.019694 1.773835 -0.000267 -0.001980 -663192.000000 1 0 0
-9.851007 -5.018313 -6.068805 12.611749 0.471156 2.072822 0.007037 -0.005075 -1838230.000000 1 0 0
-5.552307 8.320387 -0.187305 10.004601 -0.982346 1.589519 0.001660 0.003818 314110.000000 1 0 0
6.304293 9.618287 0.423595 11.508040 0.990600 1.533979 0.009498 -0.002768 663451.000000 1 0 0
-0.714707 -12.128013 -0.128905 12.149738 1.511934 1.581406 0.005658 -0.001718 -303137.000000 1 0 0
6.170393 4.678587 2.308595 8.080380 0.648749 1.281056 -0.000237 0.002533 396045.000000 1 0 0
3.541593 -7.538313 -8.277805 11.742704 -1.131589 2.353123 0.002876 -0.004892 1074290.000000 1 0 0
-6.651907 -9.819913 4.489395 12.682004 0.975407 1.208955 0.004872 0.000229 -3254340.000000 1 0 0
-0.127107 6.605487 -9.258305 11.373866 -1.551556 2.521799 0.005165 -0.001865 -1266700.000000 1 0 0
-17.331407 -2.724713 4.329595 18.070615 0.155936 1.328850 0.004600 0.002832 364295.000000 1 0 0
-8.335507 0.856487 -9.169505 12.421517 -0.102392 2.401187 0.003613 -0.001602 671717.000000 1 0 0
-10.059307 -5.851713 -11.965605 16.691552 0.526871 2.370093 0.013801 0.005050 74996.400000 1 0 0
2.307793 9.373387 6.493295 11.633966 1.329391 0.978663 -0.003276 0.006219 134138.000000 1 0 0
-11.293707 1.630187 -1.150705 11.468629 -0.143355 1.671300 0.000829 -0.002008 -1374430.000000 1 0 0
-5.975507 -5.233013 -3.112705 8.531122 0.719251 1.944284 0.011486 -0.001974 496563.000000 1 0 0
-6.973307 -8.230113 1.242695 10.858456 0.867877 1.456100 0.006772 -0.000065 -56467.700000 1 0 0
-0.088207 10.879887 -7.780105 13.375715 -1.562689 2.191563 0.004308 0.002065 356493.000000 1 0 0
-2.898207 9.202487 -4.274505 10.552571 -1.265692 1.987849 0.000370 0.001247 -1139250.000000 1 0 0
3.466193 -4.760513 9.298695 11.006485 -0.941450 0.564534 -0.003959 0.001650 -983567.000000 1 0 0
-8.993607 1.586387 -0.387205 9.140652 -0.174595 1.613170 -0.000565 -0.001483 -3768970.000000 1 0 0
2.477393 3.494587 -10.384805 11.233601 0.954107 2.750364 0.003559 -0.002762 -1164820.000000 1 0 0
-13.734807 0.524987 1.200595 13.797173 -0.038205 1.483669 0.004012 -0.000601 -519364.000000 1 0 0
9.374893 -12.555513 -5.191805 16.507100 -0.929426 1.890747 0.019741 0.001163 -1950860.000000 1 0 0
-4.720807 9.372787 -8.308905 13.385554 -1.104216 2.240478 0.002246 -0.000147 19600.100000 1 0 0
-2.290407 7.115587 8.391995 11.238466 -1.259384 0.727678 0.001140 0.003230 -769592.000000 1 0 0
-10.739107 -1.367813 -4.410305 11.689745 0.126685 1.957654 0.003429 -0.002581 -3338690.000000 1 0 0
2.772193 -7.158213 9.683895 12.357301 -1.201308 0.670264 -0.007381 0.004189 -1438140.000000 1 0 0
-16.217307 -6.526113 3.459795 17.820252 0.382588 1.375406 0.007120 -0.001034 -107715.000000 1 0 0
-10.847207 0.021687 6.200695 12.494439 -0.001999 1.051492 0.005385 -0.005097 -1045420.000000 1 0 0
-8.425507 9.751487 9.392095 15.946539 -0.858217 0.941008 -0.002578 -0.008130 -608133.000000 1 0 0
0.200893 -5.985513 -3.909005 7.151716 -1.537246 2.149074 0.001559 -0.001350 478074.000000 1 0 0
4.888593 1.417087 -2.965305 5.890629 0.282143 2.098318 -0.000514 -0.000405 -783864.000000 1 0 0
0.332893 5.359687 3.863395 6.615352 1.508766 0.947143 -0.004823 0.005598 -1222360.000000 1 0 0
5.967593 -11.308213 -1.527705 12.877179 -1.085218 1.689713 -0.001118 -0.003235 -1367380.000000 1 0 0
6.137493 -13.476413 5.214695 15.699540 -1.143440 1.232208 0.002670 -0.004029 356221.000000 1 0 0
8.279793 -8.218913 -6.068405 13.150325 -0.781708 2.050441 0.011368 -0.004726 815587.000000 1 0 0
-13.109407 -1.449813 -4.645405 13.983501 0.110146 1.909438 0.003101 -0.000025 -2602880.000000 1 0 0
-6.697007 -1.510713 -7.215705 9.959847 0.221867 2.381075 0.009337 -0.004756 -486563.000000 1 0 0
-5.612807 13.104287 -4.470105 14.940140 -1.166118 1.874652 0.001881 0.004689 302675.000000 1 0 0
-4.322407 6.860687 -6.840005 10.608388 -1.008591 2.271523 0.007118 -0.000435 -3085550.000000 1 0 0
-9.288007 -3.746513 -8.188105 12.936325 0.383409 2.256160 0.009090 -0.000861 625287.000000 1 0 0
-2.060607 -6.355213 9.164795 11.341442 1.257253 0.629910 0.001994 0.001318 -424650.000000 1 0 0
7.537993 -6.101513 10.008895 13.936563 -0.680467 0.769620 -0.002437 0.001239 -208568.000000 1 0 0
9.577893 -5.004113 12.093395 16.218119 -0.481458 0.729254 0.003957 -0.002461 -486107.000000 1 0 0
-6.518607 2.858087 -9.040405 11.506078 -0.413208 2.474634 0.004363 -0.004300 -535716.000000 1 0 0
7.457193 5.438487 8.911295 12.829577 0.630117 0.802947 -0.005548 0.002729 -29663.600000 1 0 0
12.714193 3.343087 11.199495 17.270079 0.257121 0.865196 0.018755 0.000224 351576.000000 1 0 0
-7.544307 -7.179013 -3.896505 11.119242 0.760593 1.928825 0.010176 -0.005559 -1462580.000000 1 0 0
2.315793 1.380887 -5.699705 6.305266 0.537688 2.699736 0.001405 -0.005269 84713.900000 1 0 0
12.701793 6.791987 -7.171605 16.090324 0.491041 2.032763 0.003409 -0.000386 186037.000000 1 0 0
0.798693 -7.447313 0.844595 7.537488 -1.463959 1.458508 0.003606 -0.000342 663409.000000 1 0 0
-10.135107 -6.139713 -8.493105 14.579071 0.544664 2.192664 0.009179 -0.000777 244891.000000 1 0 0
-6.618507 0.293587 3.235395 7.372829 -0.044329 1.116504 0.002266 -0.004924 -64727.900000 1 0 0
10.680093 -7.910413 1.262095 13.350352 -0.637502 1.476118 0.003005 -0.003267 -247518.000000 1 0 0
6.177993 1.059087 10.522895 12.248289 0.169779 0.537225 -0.000653 -0.001083 -301446.000000 1 0 0
-12.902507 5.369287 1.840595 14.095805 -0.394345 1.439845 0.001155 -0.000981 -314172.000000 1 0 0
1.988793 7.411187 3.678095 8.509370 1.308623 1.123820 -0.005655 0.004975 351569.000000 1 0 0
10.146793 -9.348913 -0.831605 13.822125 -0.744495 1.630997 0.009575 -0.005084 774594.000000 1 0 0
6.776893 -11.625413 -9.037105 16.209435 -1.043017 2.162193 0.010884 -0.000757 -1175420.000000 1 0 0
10.278793 3.570587 11.961495 16.170344 0.334334 0.738145 0.008151 -0.000614 -940706.000000 1 0 0
-11.036907 -3.101613 -1.914505 11.623195 0.273956 1.736265 0.002859 -0.002149 -125677.000000 1 0 0
12.395393 1.034587 6.872095 14.210624 0.083272 1.066046 0.013867 -0.002629 146196.000000 1 0 0
-9.678107 9.230087 3.042495 13.715577 -0.761708 1.347108 0.001719 -0.002799 1346630.000000 1 0 0
-6.667607 7.602387 -8.815305 13.415024 -0.850811 2.287790 0.004652 -0.002501 -887033.000000 1 0 0
8.498093 5.460087 12.057495 15.729378 0.571090 0.697331 0.000026 0.005536 -3259420.000000 1 0 0
1.364193 4.857087 -2.676705 5.711135 1.296984 2.058594 -0.001314 -0.003215 403422.000000 1 0 0
1.327893 0.504687 9.661595 9.765471 0.363205 0.145986 -0.002894 0.000814 557619.000000 1 0 0
2.542793 12.557087 -3.903605 13.393445 1.370999 1.866545 0.006938 -0.002147 538379.000000 1 0 0
2.085693 0.651087 12.969395 13.152157 0.302583 0.166903 -0.005950 -0.002951 -377151.000000 1 0 0
-12.173207 -1.723913 0.907695 12.328129 0.140680 1.497102 0.002019 -0.001317 152088.000000 1 0 0
3.257093 8.642987 -1.308205 9.328520 1.210406 1.711497 0.004179 -0.002410 -450769.000000 1 0 0
3.779393 -2.918113 -5.865105 7.562979 -0.657503 2.458306 0.002639 -0.005707 -1247430.000000 1 0 0
-7.752407 -7.079013 9.311995 14.033015 0.740026 0.845205 0.003051 -0.000144 -342608.000000 1 0 0
-6.978607 10.979787 -3.655505 13.513674 -1.004620 1.844713 0.005393 0.003083 1160260.000000 1 0 0
0.333093 0.426587 2.418195 2.478022 0.907853 0.220186 -0.002393 0.002452 -2661100.000000 1 0 0
-7.043107 4.570287 -1.831405 8.593423 -0.575603 1.785561 0.005002 -0.002595 -911759.000000 1 0 0
-6.819507 -3.849513 -5.831705 9.763873 0.513896 2.210894 0.006471 -0.003099 261164.000000 1 0 0
3.029393 -6.062813 13.536095 15.138058 -1.107414 0.464208 -0.008235 0.001429 -1466870.000000 1 0 0
-5.365307 -0.598213 -11.925305 13.090351 0.111038 2.716498 0.005755 -0.004410 -746952.000000 1 0 0
11.856793 2.438787 -0.671405 12.123613 0.202858 1.626205 0.008566 0.000440 -592163.000000 1 0 0
6.082893 -11.000713 10.790895 16.566855 -1.065688 0.861428 -0.001820 0.001443 150611.000000 1 0 0
-8.181407 6.353387 -10.518605 14.762859 -0.660286 2.363858 0.003174 -0.001219 729434.000000 1 0 0
2.906093 7.895487 11.152795 13.970287 1.218115 0.646292 -0.002064 0.004355 1029680.000000 1 0 0
-6.206007 -10.197513 -0.385305 11.943712 1.024092 1.603062 0.009363 -0.001256 -584177.000000 1 0 0
11.131693 4.266187 6.088295 13.385898 0.365981 1.098616 0.007961 0.000357 -903719.000000 1 0 0
-7.772007 10.618187 1.586495 13.253941 -0.938946 1.450809 0.000684 0.001237 306670.000000 1 0 0
4.382793 -2.708313 -3.594205 6.281890 -0.553508 2.179925 0.004828 -0.005697 -4483220.000000 1 0 0
6.521893 6.296787 6.203895 10.985123 0.767839 0.970661 -0.002731 0.004114 -5171070.000000 1 0 0
-0.414007 10.269487 -10.174605 14.462239 -1.530504 2.351148 0.000222 -0.000363 -31411.300000 1 0 0
14.027193 6.514087 -2.398705 15.650855 0.434756 1.724666 0.013762 0.004696 745575.000000 1 0 0
1.414393 9.408587 -6.149605 11.328709 1.421584 2.144604 0.003434 -0.000699 365226.000000 1 0 0
0.699093 7.313687 7.329895 10.378155 1.475499 0.786565 -0.003530 0.006546 -71750.600000 1 0 0
12.289293 6.141587 1.952295 13.876500 0.463448 1.429637 0.007958 -0.000395 -1193270.000000 1 0 0
-6.840207 6.642787 -3.145005 10.040225 -0.770757 1.889400 0.003660 -0.000500 543529.000000 1 0 0
1.083893 9.907487 11.257495 15.035435 1.461828 0.724651 0.002385 0.000782 -485187.000000 1 0 0
-3.422707 13.639387 -10.948105 17.821583 -1.324930 2.232317 0.000455 0.007583 401542.000000 1 0 0
-10.098807 -5.565613 -2.226705 11.743942 0.503700 1.761556 0.006142 -0.002397 -1168670.000000 1 0 0
-4.010107 3.966787 -12.562505 13.770726 -0.779967 2.719568 0.004357 -0.007733 135589.000000 1 0 0
-3.208907 8.388087 2.418295 9.300819 -1.205418 1.307765 -0.000493 0.005868 -2426870.000000 1 0 0
7.058093 8.803787 7.104895 13.334274 0.895013 1.008856 -0.003194 0.004992 -947307.000000 1 0 0
-1.331307 -2.208113 -8.189805 8.586096 1.028235 2.836586 0.005046 -0.008509 -1674050.000000 1 0 0
0.859993 -1.314813 4.835095 5.083942 -0.991558 0.314173 -0.001725 -0.000134 918780.000000 1 0 0
2.734593 -8.924513 -6.100405 11.150779 -1.273466 2.149672 -0.000358 -0.004156 559473.000000 1 0 0
5.346593 3.891087 8.826695 11.028924 0.629121 0.642964 -0.005808 0.002592 -12912.200000 1 0 0
6.116493 -7.547413 -2.886105 10.134324 -0.889740 1.859579 0.004055 -0.006238 994220.000000 1 0 0
1.921793 2.288887 -8.245305 8.770253 0.872360 2.793850 0.001309 -0.004585 194538.000000 1 0 0
-5.442207 10.941587 -0.670605 12.238695 -1.109241 1.625618 -0.000053 0.006723 615372.000000 1 0 0
-5.522107 3.165187 -3.364005 7.199209 -0.520469 2.057002 0.003305 -0.003392 -916007.000000 1 0 0
2.089693 13.564187 -6.488405 15.180691 1.417939 2.012424 -0.001386 0.001410 490984.000000 1 0 0
-5.248407 -2.542513 2.605395 6.387350 0.451118 1.150644 -0.001653 -0.001107 718605.000000 1 0 0
10.454793 -3.374313 -1.906305 11.150008 -0.312198 1.742609 0.006332 -0.000707 262529.000000 1 0 0
2.421993 -3.342913 6.999195 8.125875 -0.943806 0.532882 -0.004118 -0.000149 -1909620.000000 1 0 0
-2.914807 9.898587 -11.668705 15.576803 -1.284423 2.417511 0.001439 -0.001054 -2250440.000000 1 0 0
0.453593 -1.950713 9.205895 9.421228 -1.342330 0.214214 -0.003294 -0.000417 192202.000000 1 0 0
9.405893 2.488287 5.097995 10.984168 0.258621 1.088153 0.001659 0.002154 131318.000000 1 0 0
13.538893 2.180087 -5.052605 14.614486 0.159654 1.923808 0.012751 -0.002072 -1482360.000000 1 0 0
-6.431307 3.781687 7.545195 10.610977 -0.531558 0.779771 0.002103 -0.002499 442180.000000 1 0 0
10.679093 -0.066513 1.753695 10.822333 -0.006228 1.408035 0.006960 0.002819 1207490.000000 1 0 0
15.353293 6.732987 -4.502105 17.358734 0.413281 1.833152 0.009756 0.006657 670995.000000 1 0 0
8.086593 -4.919813 -9.303105 13.271974 -0.546567 2.347537 0.004039 -0.000813 1298080.000000 1 0 0
4.460093 5.664487 -2.198905 7.537508 0.903799 1.866830 0.000516 -0.001558 1917.090000 1 0 0
-1.664007 -10.550913 1.500195 10.786161 1.414373 1.431259 0.003155 -0.000895 -776780.000000 1 0 0
-2.833807 12.305087 -12.946905 18.085021 -1.344447 2.368696 -0.001027 0.000788 150026.000000 1 0 0
8.348993 4.204487 -9.610705 13.407052 0.466517 2.370055 -0.003456 0.001244 -2229290.000000 1 0 0
4.062493 7.590387 -9.062705 12.500018 1.079375 2.381853 0.003610 -0.000430 -1314650.000000 1 0 0
-1.733807 -4.995613 -2.486705 5.843453 1.236738 2.010370 0.005408 -0.002422 445771.000000 1 0 0
-3.283707 -9.038913 7.151995 11.984812 1.222335 0.931345 -0.000224 0.002345 -2711570.000000 1 0 0
1.023893 7.209487 -1.380205 7.411479 1.429720 1.758115 -0.000854 -0.000504 1517000.000000 1 0 0
0.301793 -1.053413 -2.253805 2.506072 -1.291779 2.689049 0.005861 -0.000562 -1369210.000000 1 0 0
4.147093 -6.723713 7.486195 10.883465 -1.018125 0.812273 -0.005058 0.003467 422809.000000 1 0 0
-13.923107 4.053287 6.069795 15.720193 -0.283290 1.174381 0.001145 -0.001989 -1350330.000000 1 0 0
4.357393 6.369987 12.599795 14.775603 0.970855 0.549581 -0.006288 0.004678 -2144580.000000 1 0 0
8.299693 10.098787 -7.195505 14.921317 0.882873 2.073995 0.006436 -0.002665 442865.000000 1 0 0
12.492993 5.247687 9.498495 16.547945 0.397671 0.959416 0.016337 0.001005 1541260.000000 1 0 0
7.552693 3.945487 0.277295 8.525663 0.481402 1.538266 0.003630 0.004511 -1697880.000000 1 0 0
-10.839207 -7.545713 -0.887205 13.236817 0.608137 1.637872 0.007883 -0.002162 -1033830.000000 1 0 0
10.525793 6.817887 0.237995 12.543227 0.574779 1.551821 0.009765 0.003139 -395813.000000 1 0 0
14.570493 3.516287 4.324295 15.600098 0.236802 1.289921 0.013899 -0.003542 357763.000000 1 0 0
2.204593 5.579687 8.292595 10.235246 1.194512 0.626303 -0.007716 0.005453 337509.000000 1 0 0
4.179493 0.094487 11.623995 12.352909 0.022603 0.345245 -0.004208 0.000025 -1957930.000000 1 0 0
-1.598807 -1.479313 -0.433405 2.220899 0.746597 1.767205 0.007100 -0.005442 -1349860.000000 1 0 0
3.140393 -5.228113 -9.497605 11.287149 -1.029881 2.570763 0.001811 -0.003563 340959.000000 1 0 0
-3.938007 -5.182713 -1.268605 6.631574 0.921030 1.763280 0.006044 -0.003805 -1486990.000000 1 0 0
-1.179707 -8.744313 8.583495 12.309797 1.436695 0.799187 -0.000813 0.002190 -325728.000000 1 0 0
3.924793 8.556787 -5.997105 11.161894 1.140751 2.138010 0.006223 -0.001415 -363630.000000 1 0 0
-14.154607 -1.827613 -2.581205 14.503644 0.128407 1.749719 -0.001720 -0.003487 -680874.000000 1 0 0
8.781593 -10.603713 -6.723805 15.322032 -0.879118 2.025095 0.012341 -0.002049 280464.000000 1 0 0
14.859693 6.019587 1.679395 16.120368 0.384891 1.466428 0.005269 0.003230 -2179170.000000 1 0 0
-5.737907 0.470187 -8.663305 10.401803 -0.081761 2.555062 0.007534 -0.008013 -550945.000000 1 0 0
-7.974807 -4.551513 -13.001305 15.916901 0.518624 2.526680 0.004996 0.002611 383794.000000 1 0 0
0.932693 -10.774913 11.985895 16.144050 -1.484450 0.734100 -0.007227 0.000579 -477201.000000 1 0 0
0.223793 11.707687 3.302595 12.166641 1.551684 1.295900 -0.002478 0.004698 -869365.000000 1 0 0
5.047893 -13.084913 -3.742005 14.515467 -1.202609 1.831535 0.000849 0.000004 629774.000000 1 0 0
-7.476807 1.521487 -7.025705 10.371986 -0.200753 2.314982 0.005513 -0.002438 932504.000000 1 0 0
1.498393 2.712787 4.005295 5.064265 1.066155 0.658528 -0.005849 0.002708 -606127.000000 1 0 0
17.400393 5.518987 2.381495 18.409356 0.307139 1.441069 0.011832 -0.003887 -117382.000000 1 0 0
2.550193 -8.147913 -3.609805 9.269448 -1.267468 1.970809 0.000588 -0.001510 427736.000000 1 0 0
-0.120907 -9.493313 -0.304405 9.498962 1.558061 1.602848 0.008437 0.001720 -1033400.000000 1 0 0
0.767593 11.812787 -5.500005 13.053015 1.505908 2.005740 0.003542 0.000916 -1406790.000000 1 0 0
6.029993 -5.046213 7.823495 11.091986 -0.696811 0.787910 -0.003558 0.000183 -971155.000000 1 0 0
-5.915907 -1.867013 -9.469705 11.320734 0.305699 2.561647 0.008314 -0.003658 -181317.000000 1 0 0
2.092493 -1.322413 11.201095 11.471348 -0.563603 0.217495 -0.007170 0.000797 -710538.000000 1 0 0
18.034593 2.198987 -5.769505 19.062247 0.121333 1.878286 -0.008013 0.007492 -1685670.000000 1 0 0
-8.869507 4.742187 7.705795 12.670271 -0.490991 0.917032 0.006316 -0.008068 -1132960.000000 1 0 0
11.589193 -7.093313 -4.905205 14.445951 -0.549242 1.917241 0.018126 -0.002271 48512.600000 1 0 0
10.889093 0.447987 8.959395 14.108288 0.041118 0.882730 0.010137 -0.002075 101759.000000 1 0 0
-8.426107 -7.316013 -1.579105 11.270178 0.714997 1.711372 0.009607 -0.004684 -831397.000000 1 0 0
10.264293 -10.444813 -3.240605 14.998378 -0.794115 1.788577 0.020705 -0.004615 1087440.000000 1 0 0
7.620693 -13.808713 -3.813705 16.226517 -1.066514 1.808045 0.010239 -0.001540 -1526420.000000 1 0 0
1.663893 -1.152413 -11.648305 11.822842 -0.605743 2.969551 0.006913 -0.005971 -140322.000000 1 0 0
-11.752607 -2.688513 -6.413705 13.656042 0.224889 2.059703 0.008339 -0.003109 721034.000000 1 0 0
2.738793 -12.213813 -6.420305 14.067641 -1.350208 2.044728 -0.004763 0.000084 313429.000000 1 0 0
-5.497807 1.435587 1.109595 5.789473 -0.255417 1.377946 0.001811 -0.004992 275838.000000 1 0 0
0.074993 6.761687 -3.989705 7.851355 1.559706 2.103837 0.003777 -0.002715 1256370.000000 1 0 0
5.428193 -11.743513 3.512295 13.405655 -1.137819 1.305701 -0.006872 -0.004435 -2172710.000000 1 0 0
-4.387207 -9.211813 1.055195 10.257608 1.126321 1.467745 0.006853 -0.000763 -609125.000000 1 0 0
7.157793 -6.310013 -4.755005 10.661160 -0.722532 2.033101 0.008316 -0.006350 742603.000000 1 0 0
-6.960907 -6.016813 2.209295 9.462413 0.712779 1.335140 0.004156 -0.001215 -322947.000000 1 0 0
-6.371107 -0.881913 7.097895 9.578564 0.137550 0.736210 0.001330 -0.002973 -1836540.000000 1 0 0
4.170693 -5.097913 3.286695 7.361098 -0.885105 1.107952 -0.003800 0.001135 -867329.000000 1 0 0
-2.510507 10.503887 -8.787605 13.923228 -1.336190 2.253827 -0.000768 0.000034 -2313720.000000 1 0 0
-2.284707 -4.910613 2.694695 6.049412 1.135326 1.109122 0.001677 0.001388 -261503.000000 1 0 0
15.099793 5.037887 6.406995 17.159068 0.322026 1.188138 0.017757 -0.003934 687991.000000 1 0 0
6.832993 0.254087 0.067395 6.838047 0.037168 1.560940 0.003365 0.000872 4914560.000000 1 0 0
-9.732607 9.419687 0.400495 13.550444 -0.769061 1.541236 0.001541 0.000843 -1276800.000000 1 0 0
7.136393 10.502187 -2.631505 12.967222 0.973951 1.775151 0.010530 -0.000290 68593.600000 1 0 0
1.681893 -4.283313 -5.529905 7.194121 -1.196632 2.447556 0.002787 -0.006117 -270797.000000 1 0 0
0.957693 -8.110413 -7.891405 11.356507 -1.453259 2.339049 0.001046 -0.001976 2125330.000000 1 0 0
-10.371607 0.112987 -10.534005 14.783378 -0.010893 2.363933 0.001365 -0.001737 -3652240.000000 1 0 0
5.968593 -2.615513 0.549595 6.539653 -0.413008 1.486657 0.006073 0.000302 -133785.000000 1 0 0
-3.290807 5.235387 -1.064605 6.274717 -1.009634 1.741287 0.002413 -0.003512 758188.000000 1 0 0
-0.355307 4.494287 -5.094105 6.802556 -1.491903 2.417124 0.003114 -0.005719 -1205930.000000 1 0 0
3.988993 -9.870013 10.041195 14.634029 -1.186715 0.814608 -0.006378 0.003082 -1889740.000000 1 0 0
7.304693 -13.516513 -0.781805 15.383949 -1.075332 1.621638 0.004954 0.000368 813557.000000 1 0 0
13.127093 -0.223713 0.438195 13.136309 -0.017040 1.537433 0.007219 0.000397 694240.000000 1 0 0
9.256393 2.348587 -0.806105 9.583657 0.248482 1.655008 0.007259 0.002454 -202034.000000 1 0 0
-0.789407 -5.728113 4.551995 7.359015 1.433846 0.903887 0.000020 0.002069 -61539.100000 1 0 0
11.440793 -3.780113 3.256095 12.481312 -0.319114 1.306865 0.007029 -0.001928 -2255980.000000 1 0 0
1.791893 -8.288413 11.787795 14.521046 -1.357881 0.623614 -0.009128 0.002297 373678.000000 1 0 0
9.560593 -5.908513 -5.976305 12.729166 -0.553555 2.059517 0.010264 -0.004744 422273.000000 1 0 0
3.206093 6.291387 -0.196705 7.063942 1.099498 1.598646 -0.002422 0.001411 -555474.000000 1 0 0
6.349693 -1.312113 11.485895 13.189618 -0.203774 0.513911 -0.000127 -0.001155 166215.000000 1 0 0
-4.956807 -7.582513 -3.818505 9.830840 0.991813 1.969714 0.009190 -0.003830 129424.000000 1 0 0
-3.455407 -8.501213 -5.762605 10.835962 1.184733 2.131525 0.010354 -0.003339 -87115.200000 1 0 0
9.752893 5.334387 2.171595 11.326536 0.500502 1.377876 0.007254 0.000297 -441233.000000 1 0 0
8.930493 -1.552513 0.207895 9.066820 -0.172124 1.547865 0.006606 0.002100 917459.000000 1 0 0
-3.840607 9.588487 9.327695 13.917444 -1.189821 0.836296 0.001018 0.001069 -281293.000000 1 0 0
-14.348607 -3.584613 -6.073505 15.988103 0.244812 1.960459 0.003814 -0.004517 -397338.000000 1 0 0
10.620393 6.183487 -5.941205 13.650134 0.527249 2.021111 0.006552 -0.002061 -2297540.000000 1 0 0
-1.818307 4.638187 2.515795 5.581061 -1.197180 1.103165 -0.001000 0.003448 525667.000000 1 0 0
6.932593 -3.825713 2.650095 8.349846 -0.504258 1.247828 0.003795 -0.003045 -1911680.000000 1 0 0
8.286293 -11.082213 -1.560605 13.925286 -0.928762 1.683102 0.009767 -0.006197 -1616220.000000 1 0 0
4.492393 0.389787 1.810295 4.859084 0.086549 1.189031 -0.000818 0.002764 595648.000000 1 0 0
-10.691507 2.264387 3.878395 11.596453 -0.208709 1.229778 -0.001218 -0.004059 284031.000000 1 0 0
-0.883507 -3.046513 4.383995 5.411214 1.288533 0.626357 0.001515 0.000659 307805.000000 1 0 0
8.641693 -8.719413 -8.610205 14.994754 -0.789875 2.182441 0.014734 -0.001431 -439906.000000 1 0 0
12.102393 -4.908713 1.029995 13.100544 -0.385323 1.492093 0.002702 -0.001562 551275.000000 1 0 0
2.916593 4.853087 3.452995 6.631903 1.029659 1.023168 -0.008226 0.003820 -257302.000000 1 0 0
6.014293 7.484187 1.991195 9.805592 0.893864 1.366307 0.000732 0.000955 -379436.000000 1 0 0
-1.629807 -1.278113 -10.324305 10.530010 0.665039 2.943607 0.009522 -0.005729 886219.000000 1 0 0
-0.995307 -8.612013 5.995695 10.540672 1.455735 0.965732 -0.003159 0.000160 58778.400000 1 0 0
-4.248107 -0.280913 2.368495 4.871868 0.066030 1.063109 0.001563 -0.002762 173975.000000 1 0 0
-8.527207 6.139387 -7.953005 13.177846 -0.624007 2.218696 0.000577 0.001003 -1225020.000000 1 0 0
6.453993 11.098787 -9.315605 15.862458 1.044088 2.198483 0.007570 -0.007050 367630.000000 1 0 0
-11.212607 -5.744413 3.264195 13.014446 0.473453 1.317276 0.010019 -0.001311 1112660.000000 1 0 0
1.420993 -6.307513 3.043995 7.146317 -1.349210 1.130781 0.001095 -0.000378 977319.000000 1 0 0
10.068693 2.155387 7.353995 12.653281 0.210885 0.950603 0.006403 0.000277 -1948400.000000 1 0 0
-4.057907 -2.503013 -10.700105 11.714262 0.552698 2.722419 0.007098 -0.004395 -3225930.000000 1 0 0
-8.247007 11.873987 5.889095 15.610450 -0.963741 1.183968 0.001485 0.001829 -332172.000000 1 0 0
6.848593 5.916887 -2.956405 9.521192 0.712541 1.886524 0.004126 -0.001034 -2443140.000000 1 0 0
3.891893 -9.873413 -2.368505 10.873864 -1.195318 1.790373 -0.001976 -0.004322 -344343.000000 1 0 0
8.460093 -12.918313 -7.502105 17.167922 -0.990990 2.023039 0.021163 0.001916 798915.000000 1 0 0
-1.278407 9.493887 3.662895 10.255975 -1.436946 1.205584 -0.006963 0.005615 -148807.000000 1 0 0
0.452793 -13.174013 4.658795 13.980844 -1.536440 1.231072 -0.000396 -0.000854 -1190370.000000 1 0 0
-11.095407 -7.016613 -5.175705 14.111302 0.563895 1.946339 0.006011 -0.005756 72475.700000 1 0 0
3.612093 10.241687 -3.393205 11.377750 1.231731 1.873636 0.007874 -0.002621 -538949.000000 1 0 0
11.849793 -8.059013 -7.405305 16.130834 -0.597243 2.047753 0.026550 -0.001349 295430.000000 1 0 0
11.806293 -4.765313 -5.889905 14.028105 -0.383627 2.004092 0.014394 -0.002643 -403180.000000 1 0 0
1.240393 -10.268313 -2.721505 10.695018 -1.450581 1.828090 0.000090 0.000521 -823227.000000 1 0 0
2.304493 -11.977613 -3.995805 12.835122 -1.380719 1.887376 -0.001393 -0.000627 -1737120.000000 1 0 0
-7.574307 -5.605813 7.303595 11.922155 0.637141 0.911442 0.005143 0.000840 -2311720.000000 1 0 0
-7.192507 -0.830513 9.563595 11.995177 0.114960 0.648010 0.003946 -0.003146 1092720.000000 1 0 0
16.189793 2.737987 -7.469505 18.038832 0.167533 1.997727 0.002618 0.004312 49387.000000 1 0 0
-2.006607 6.186187 -5.607505 8.587170 -1.257135 2.282348 0.004334 -0.001305 -1515630.000000 1 0 0
7.583793 0.970287 8.363795 11.331745 0.127251 0.740568 0.001250 -0.001463 -295529.000000 1 0 0
7.916893 8.196587 -3.738205 11.993140 0.802754 1.887773 0.007553 -0.000672 288489.000000 1 0 0
8.070093 0.456987 4.001795 9.019401 0.056567 1.111087 0.000467 0.001608 1452630.000000 1 0 0
-6.937907 5.915487 5.355395 10.573921 -0.706021 1.039708 0.006981 -0.005299 -39294.600000 1 0 0
-5.927307 -1.961513 -4.706205 7.818495 0.319584 2.216715 0.008341 -0.006118 -782888.000000 1 0 0
-15.090507 -2.014313 3.212595 15.559615 0.132698 1.362830 0.008225 -0.000066 934865.000000 1 0 0
1.017593 1.294887 -10.453005 10.581944 0.904740 2.985326 0.008008 -0.006829 605581.000000 1 0 0
1.581593 -9.296313 9.392695 13.309605 -1.402279 0.787374 -0.006149 0.001684 -944166.000000 1 0 0
-0.278507 -6.944013 -1.551505 7.120678 1.530710 1.790446 0.004105 -0.000453 531308.000000 1 0 0
-0.439307 -10.210013 -8.392505 13.223899 1.527796 2.258348 0.001223 0.000984 -315492.000000 1 0 0
-4.342807 6.496287 3.782695 8.681619 -0.981521 1.119966 0.000281 0.003307 -244076.000000 1 0 0
10.777093 -1.134813 -8.693305 13.892699 -0.104912 2.246884 0.011940 0.000798 443544.000000 1 0 0
3.169593 -1.001913 6.226595 7.058373 -0.306163 0.490373 -0.004768 0.000299 247812.000000 1 0 0
1.803993 -12.289513 6.767895 14.145350 -1.425046 1.071903 -0.004248 0.000706 463282.000000 1 0 0
2.926193 -5.003813 -1.454605 5.976339 -1.041634 1.816660 0.008575 -0.003487 -1810580.000000 1 0 0
-1.050307 9.530587 -1.668905 9.732445 -1.461035 1.743127 -0.001022 0.000856 291761.000000 1 0 0
4.529793 -2.685013 2.627395 5.884855 -0.535068 1.107983 0.002559 0.001813 -2585760.000000 1 0 0
17.879393 6.739187 -2.501105 19.270310 0.360457 1.700954 0.004905 0.014412 61277.600000 1 0 0
-7.116707 3.484687 -5.454505 9.619885 -0.455332 2.173659 0.005074 -0.003445 -307038.000000 1 0 0
-13.888407 -5.934713 2.358695 15.286338 0.403829 1.415877 0.006958 -0.001519 -49620.800000 1 0 0
6.659593 -6.088013 3.242995 9.588070 -0.740590 1.225758 -0.000829 -0.003492 -383672.000000 1 0 0
-4.584207 2.107687 3.459595 6.117687 -0.430950 0.969748 0.002874 -0.003812 920688.000000 1 0 0
6.825093 -12.087513 -5.579305 14.960565 -1.056783 1.952966 0.012019 -0.000992 392635.000000 1 0 0
2.887793 -12.295513 3.250995 13.041777 -1.340112 1.318864 -0.001611 -0.004134 -562207.000000 1 0 0
3.310393 11.230987 -5.983905 13.149178 1.284158 2.043256 0.006136 -0.002019 -444721.000000 1 0 0
-5.515007 -8.357513 6.283995 11.821672 0.987503 1.010348 0.004338 0.003622 323733.000000 1 0 0
-3.960707 6.444487 6.358495 9.881755 -1.019719 0.871789 0.002016 0.004099 348828.000000 1 0 0
4.345693 4.389887 -7.006405 9.340549 0.790457 2.419019 -0.000093 -0.000625 -1608180.000000 1 0 0
-0.242007 -2.613613 1.592795 3.070267 1.478465 1.025372 0.000068 -0.000454 1683090.000000 1 0 0
-13.359507 -0.870813 6.636295 14.942395 0.065091 1.110599 0.003567 -0.002018 78587.800000 1 0 0
-0.527707 -9.260013 -5.995705 11.044220 1.513870 2.144661 0.003253 -0.000019 244041.000000 1 0 0
2.070093 -1.758413 -4.043305 4.870895 -0.704167 2.550074 0.001691 -0.003400 -1110520.000000 1 0 0
11.440393 -2.057613 1.071595 11.673246 -0.177953 1.478868 0.006740 0.000190 1468620.000000 1 0 0
0.610293 -4.376413 -2.011905 4.855225 -1.432239 1.998057 0.003969 -0.001885 -1994050.000000 1 0 0
1.154293 -7.340413 -11.269305 13.498566 -1.414822 2.558660 0.000184 0.001260 1320710.000000 1 0 0
-4.446707 4.104687 -10.105705 11.779089 -0.745424 2.602035 0.005041 -0.006159 468744.000000 1 0 0
-1.052307 5.714287 -2.151105 6.195779 -1.388683 1.925368 0.001981 -0.002550 -99656.900000 1 0 0
-11.316007 1.655487 -3.862705 12.071170 -0.145266 1.896520 0.003274 0.000036 -736127.000000 1 0 0
-1.794107 -11.276213 4.188895 12.162181 1.413013 1.219176 0.002657 -0.002996 -280107.000000 1 0 0
-3.581607 -5.516613 -9.741405 11.753974 0.994955 2.547712 0.006100 -0.001348 -1536660.000000 1 0 0
-12.828007 -3.813413 -8.344905 15.771409 0.288953 2.128355 0.009513 -0.002661 13890.500000 1 0 0
11.407593 4.419187 0.486495 12.243327 0.369589 1.531050 0.010911 0.001288 588297.000000 1 0 0
-8.844807 -2.353513 -3.015805 9.636634 0.260064 1.889096 0.004031 -0.002545 73400.900000 1 0 0
-2.539907 -6.069313 -6.425405 9.196386 1.174458 2.344358 0.006401 -0.004134 -194748.000000 1 0 0
-0.046907 2.740787 -1.905205 3.338251 -1.553683 2.178178 0.001499 -0.004885 -129132.000000 1 0 0
8.131093 5.941087 -5.212005 11.339144 0.631010 2.048394 0.004299 -0.001160 -783393.000000 1 0 0
-9.748107 -0.991413 -0.856705 9.835773 0.101355 1.658008 0.000056 -0.003534 522660.000000 1 0 0
6.118393 0.449487 -8.876605 10.790314 0.073333 2.536845 -0.000993 -0.000826 420292.000000 1 0 0
-4.106407 2.476487 7.951295 9.285400 -0.542680 0.542691 -0.002247 0.003199 -950780.000000 1 0 0
-10.061107 -3.395413 1.544395 10.730325 0.325477 1.426367 0.003027 -0.002336 3916370.000000 1 0 0
-1.812607 -8.091013 -7.870505 11.432186 1.350408 2.330148 0.006779 -0.003119 -1157370.000000 1 0 0
-9.367907 -9.753913 4.209395 14.163881 0.805582 1.269046 0.009633 -0.001615 -1311190.000000 1 0 0
-1.140207 -10.749613 7.223295 13.001163 1.465122 0.981726 -0.005003 -0.000113 -144878.000000 1 0 0
9.546793 3.785487 -3.858905 10.970976 0.377502 1.930223 0.005390 -0.001448 -708401.000000 1 0 0
12.803293 -0.722813 3.090795 13.190898 -0.056395 1.334285 0.008795 -0.000753 134527.000000 1 0 0
6.545193 11.867287 -6.776805 15.152463 1.066777 2.034475 0.008225 -0.002673 -14187.300000 1 0 0
-11.778107 -0.111913 -6.483705 13.445251 0.009501 2.073995 0.003453 -0.000251 392078.000000 1 0 0
-7.713107 -6.730513 -11.385205 15.310608 0.717473 2.409258 0.014366 -0.002849 -2187200.000000 1 0 0
4.165593 6.011987 6.600595 9.852107 0.964864 0.836631 -0.006947 0.005929 -2232870.000000 1 0 0
-4.133207 -1.380813 -7.439105 8.621504 0.322420 2.611687 0.006496 -0.008741 -1417660.000000 1 0 0
9.620593 9.284787 0.824395 13.395622 0.767638 1.509215 0.007220 0.002375 -58901.500000 1 0 0
-8.922707 3.972087 4.974995 10.960965 -0.418827 1.099678 0.003651 -0.007647 817576.000000 1 0 0
-7.034507 7.837687 -12.232905 16.141796 -0.839351 2.430793 0.002567 -0.003857 -58611.400000 1 0 0
11.105093 -3.537113 7.257295 13.729624 -0.308353 1.013862 0.011839 -0.002999 916140.000000 1 0 0
11.842893 6.912187 6.434695 15.147202 0.528316 1.132043 0.006799 0.000717 -194057.000000 1 0 0
-9.964007 -0.701313 -14.792105 17.848800 0.070269 2.547658 -0.003342 0.000572 639326.000000 1 0 0
1.760493 -13.147513 11.953295 17.856027 -1.437685 0.837360 -0.003236 -0.002039 -191558.000000 1 0 0
2.886693 3.017887 13.011595 13.665367 0.807614 0.310573 -0.010448 -0.000946 -759923.000000 1 0 0
-2.596407 -1.475513 11.035195 11.432148 0.516777 0.264293 0.001836 0.000255 -456532.000000 1 0 0
2.512193 -10.190513 -8.393505 13.439070 -1.329093 2.245364 -0.003175 0.000382 -1014950.000000 1 0 0
13.911593 3.621687 -7.567305 16.245403 0.254683 2.055348 0.011208 -0.002335 -3522760.000000 1 0 0
7.224893 -1.687413 5.004195 8.949213 -0.229443 0.977403 -0.001746 0.000986 428885.000000 1 0 0
-1.178507 8.780587 10.059795 13.404740 -1.437376 0.722030 0.003596 -0.001526 -186651.000000 1 0 0
-12.214307 -4.641613 1.062095 13.109612 0.363160 1.489691 0.006854 -0.001566 178950.000000 1 0 0
-4.872807 4.865887 -5.265005 8.668413 -0.784688 2.223552 0.006594 -0.003664 -124312.000000 1 0 0
-11.165507 0.389387 1.963795 11.343574 -0.034860 1.396800 -0.003106 -0.001373 -1686160.000000 1 0 0
-1.345307 2.149687 -4.150105 4.863577 -1.011611 2.593084 0.004907 -0.007571 722653.000000 1 0 0
3.092193 -9.928913 13.216495 16.817274 -1.268884 0.666665 -0.006789 0.001887 -2469430.000000 1 0 0
8.931593 4.629087 -1.564005 10.180762 0.478166 1.725031 0.005893 -0.000034 -1822520.000000 1 0 0
4.122893 2.253087 3.838495 6.067017 0.500138 0.885784 -0.008772 0.007114 541172.000000 1 0 0
-5.336607 -3.280513 7.450495 9.734014 0.551172 0.699121 0.002377 -0.003105 -192264.000000 1 0 0
1.745993 -5.882613 7.685595 9.834734 -1.282273 0.673771 -0.005141 0.001586 -1185490.000000 1 0 0
-5.956707 -6.291913 -9.668305 12.982552 0.812758 2.410904 0.007321 -0.001761 -1280260.000000 1 0 0
-11.671107 -5.663113 5.631295 14.142032 0.451758 1.161247 0.011778 -0.002116 -2084320.000000 1 0 0
10.520493 6.207987 4.451595 13.001406 0.533097 1.221333 0.005136 0.000389 -411763.000000 1 0 0
1.441793 -3.768713 0.337595 4.049189 -1.205406 1.487326 0.007443 -0.000146 -525247.000000 1 0 0
8.691493 4.317187 6.990395 11.960174 0.461015 0.946566 0.000083 0.004769 383495.000000 1 0 0
-7.788507 12.243387 3.501895 14.927312 -1.004226 1.333993 0.003076 -0.001533 369314.000000 1 0 0
-6.080407 13.195287 -6.973605 16.115772 -1.138996 2.018303 0.005216 0.002523 660058.000000 1 0 0
4.465293 -7.000313 -0.960205 8.358541 -1.002995 1.685928 0.006064 -0.005032 -232718.000000 1 0 0
-1.925807 -8.161513 10.951595 13.793349 1.339073 0.653474 -0.002154 0.000775 -723886.000000 1 0 0
11.594393 8.791487 -5.790205 15.660353 0.648762 1.949522 0.010931 0.002000 568920.000000 1 0 0
-3.283107 -2.814913 -2.035605 4.779772 0.708770 2.010730 0.007731 -0.003822 -1495660.000000 1 0 0
-2.035107 5.850787 4.741695 7.801092 -1.236052 0.917478 -0.001979 0.003075 483682.000000 1 0 0
0.318793 -11.440213 -5.754505 12.809935 -1.542938 2.036691 -0.000558 -0.002768 70768.600000 1 0 0
-8.918207 6.225787 -1.529905 10.983417 -0.609449 1.710543 0.004950 0.001010 -849675.000000 1 0 0
2.863093 -0.049713 3.922695 4.856677 -0.017362 0.630571 -0.002752 0.002049 686818.000000 1 0 0
-10.031607 3.941587 -0.993805 10.823904 -0.374385 1.662742 0.004551 -0.000469 -366814.000000 1 0 0
6.576793 5.396487 13.675995 16.106183 0.687137 0.556489 -0.002398 0.007421 -734063.000000 1 0 0
-8.739507 -1.442613 5.720395 10.544337 0.163593 0.997376 0.003704 -0.004074 -443593.000000 1 0 0
13.061093 -1.862813 -1.586305 13.288287 -0.141668 1.690458 0.010131 -0.001371 -1220160.000000 1 0 0
5.350293 -5.513513 5.450995 9.420075 -0.800421 0.953715 -0.005014 -0.001010 55131.200000 1 0 0
-8.982407 -1.133113 3.302895 9.637256 0.125485 1.220984 0.000238 -0.002783 994168.000000 1 0 0
2.065993 5.410487 5.639395 8.083593 1.206034 0.798706 -0.007245 0.005295 -1451230.000000 1 0 0
9.230993 2.974587 -7.410805 12.205713 0.311733 2.223276 0.000321 -0.001792 -1555810.000000 1 0 0
2.337693 -2.455613 -1.647105 3.769323 -0.809994 2.023031 0.001316 -0.000839 -134698.000000 1 0 0
-6.363807 0.433187 -4.079905 7.571745 -0.067966 2.139847 -0.001712 -0.001719 -196152.000000 1 0 0
-4.015207 4.141087 5.016195 7.644129 -0.800830 0.855004 0.000983 0.000784 734442.000000 1 0 0
-6.400507 1.791187 -12.502505 14.159360 -0.272870 2.652981 0.000110 -0.002947 -3523440.000000 1 0 0
-0.061007 3.113387 6.208895 6.946026 -1.551204 0.464876 -0.003618 0.003111 965326.000000 1 0 0
-8.675007 9.499387 -2.176105 13.047204 -0.830726 1.738367 0.002637 0.002482 1309440.000000 1 0 0
-1.413907 -3.666813 -6.177205 7.321374 1.202769 2.574976 0.005268 -0.004405 512273.000000 1 0 0
-3.296307 7.038387 -2.931405 8.306483 -1.132802 1.931471 0.002635 0.001655 427778.000000 1 0 0
7.052993 -0.427213 -4.317705 8.280688 -0.060498 2.119309 0.005023 -0.000729 -78470.600000 1 0 0
-5.130707 -10.784213 6.889895 13.787460 1.126727 1.047519 0.001254 -0.001316 384389.000000 1 0 0
9.778993 8.365787 -1.504905 12.956845 0.707670 1.687207 0.009995 0.000884 -71119.600000 1 0 0
13.684993 4.636387 -4.318805 15.080689 0.326657 1.861243 0.006918 -0.001998 726663.000000 1 0 0
4.689993 1.069087 -6.865305 8.382803 0.224121 2.530419 0.000585 -0.002116 -478190.000000 1 0 0
8.999893 -4.765713 3.648595 10.817686 -0.486992 1.226770 0.002594 -0.002847 -133898.000000 1 0 0
-8.671807 -3.276713 -0.758105 9.301173 0.361274 1.652393 0.002237 -0.002105 101781.000000 1 0 0
-8.533307 -4.304813 -10.525605 14.217493 0.467219 2.404354 0.009027 -0.000678 212414.000000 1 0 0
10.474693 -1.205813 10.644795 14.982818 -0.114612 0.780635 0.009515 -0.004046 1131210.000000 1 0 0
2.254493 -11.699713 9.848595 15.458358 -1.380433 0.880060 -0.006302 -0.001706 335777.000000 1 0 0
-6.387207 -10.537913 1.998395 12.483494 1.025891 1.410022 0.005780 0.000507 -774736.000000 1 0 0
-3.802107 -1.151913 6.840295 7.910282 0.294177 0.526174 0.001973 0.002543 -1528640.000000 1 0 0
4.741393 -7.547913 3.912695 9.734525 -1.009919 1.157162 -0.005000 0.000188 270045.000000 1 0 0
11.568893 -9.503113 -5.339405 15.895209 -0.687676 1.913371 0.022025 0.000151 595736.000000 1 0 0
11.359593 1.130787 11.497895 16.202488 0.099218 0.781813 0.011779 -0.002987 694341.000000 1 0 0
-10.237507 -3.363613 4.491995 11.674693 0.317446 1.175845 0.012055 -0.001223 2014220.000000 1 0 0
2.081293 8.800687 9.076495 12.812753 1.338571 0.783574 -0.002410 0.003555 155981.000000 1 0 0
6.545193 8.832687 4.071895 11.723320 0.933068 1.216071 0.000751 0.002971 719092.000000 1 0 0
-4.258807 3.461287 0.364495 5.500073 -0.682459 1.504477 0.003504 -0.003613 -1498590.000000 1 0 0
4.897793 6.895987 4.224795 9.454729 0.953232 1.107561 -0.002167 0.003961 -1083560.000000 1 0 0
-8.273707 13.155487 1.200695 15.587262 -1.009385 1.493689 0.005022 -0.002296 -564778.000000 1 0 0
8.790593 8.110387 -9.168305 15.070193 0.745173 2.224806 -0.001560 -0.003210 -1069600.000000 1 0 0
6.984193 1.921387 5.991195 9.400271 0.268464 0.879751 -0.005435 0.002580 -220950.000000 1 0 0
11.552293 -6.305413 3.068795 13.514111 -0.499624 1.341717 0.005103 -0.002311 156493.000000 1 0 0
11.440893 4.739087 -2.127205 12.564950 0.392708 1.740912 0.010928 0.001926 1537790.000000 1 0 0
-3.876807 14.360687 -6.025905 16.049003 -1.307122 1.955699 0.002158 0.007986 -1416440.000000 1 0 0
7.218093 -3.029113 6.961695 10.475762 -0.397335 0.843901 0.001347 -0.002562 -671449.000000 1 0 0
-7.868807 -0.420113 0.972095 7.939748 0.053339 1.448054 0.003911 -0.003818 220621.000000 1 0 0
-3.212707 1.031887 10.776095 11.292055 -0.310781 0.303462 -0.000731 0.002993 -56720.300000 1 0 0
7.156993 -1.396613 -1.893305 7.533769 -0.192718 1.824829 0.007433 -0.000012 -2501590.000000 1 0 0
-7.743407 5.247887 3.008095 9.825951 -0.595618 1.259663 0.005248 -0.001683 860196.000000 1 0 0
9.467893 -2.187413 2.782295 10.107766 -0.227051 1.291933 0.004282 -0.000838 -1310430.000000 1 0 0
0.299393 3.545387 1.554095 3.882604 1.486550 1.158983 -0.004278 0.001881 -3410920.000000 1 0 0
-7.551507 -3.015413 4.043995 9.081403 0.379914 1.109281 0.001613 -0.002157 299915.000000 1 0 0
-2.235307 8.341787 -6.789405 10.985355 -1.308982 2.237045 0.000827 -0.000610 -599944.000000 1 0 0
4.594093 9.776487 7.417395 13.103554 1.131507 0.969078 -0.002469 0.009237 -995321.000000 1 0 0
-11.801407 -2.999713 6.914295 14.002820 0.248911 1.054366 0.010567 -0.003470 -1955170.000000 1 0 0
-4.699107 2.410687 -5.719205 7.784750 -0.474001 2.395973 0.006931 -0.008311 -1080000.000000 1 0 0
-2.700707 2.881487 -1.927005 4.394330 -0.817772 2.024748 0.003542 -0.003655 1548460.000000 1 0 0
2.449693 5.244887 11.511595 12.885133 1.133844 0.465936 -0.004002 -0.002274 247934.000000 1 0 0
-0.722607 1.650987 4.467395 4.817213 -1.158233 0.383444 -0.001274 0.000305 96984.900000 1 0 0
4.987093 1.476087 7.785695 9.363064 0.287766 0.588935 -0.007548 0.003425 1447620.000000 1 0 0
3.259793 -8.211013 1.842295 9.024469 -1.192877 1.365207 -0.000992 -0.001098 2100670.000000 1 0 0
5.141893 6.466187 -4.690405 9.500028 0.898991 2.087165 0.003418 -0.002781 -2016120.000000 1 0 0
-4.066307 3.026687 -8.068305 9.528548 -0.639864 2.580644 0.009240 -0.012534 655584.000000 1 0 0
-8.628407 -2.057613 -13.025905 15.759359 0.234097 2.543748 -0.000208 0.002074 80274.400000 1 0 0
-7.799207 8.253587 1.298795 11.429619 -0.813696 1.456916 0.003410 0.002748 -700142.000000 1 0 0
7.304593 0.931887 -6.574105 9.871390 0.126890 2.299597 0.002167 -0.001444 -238988.000000 1 0 0
8.923693 8.783487 5.420395 13.644142 0.777480 1.162257 -0.003233 0.002771 -88533.500000 1 0 0
9.430993 -1.057213 -1.404205 9.593389 -0.111634 1.717696 0.010185 -0.000237 282309.000000 1 0 0
5.405793 0.020787 4.209895 6.851733 0.003845 0.909136 -0.005517 0.003587 -1470630.000000 1 0 0
-4.185607 -7.260513 -7.995705 11.582990 1.047844 2.332696 0.012777 -0.005109 -509568.000000 1 0 0
-2.179507 7.387987 -0.505505 7.719335 -1.283927 1.636329 0.000739 0.001637 332418.000000 1 0 0
13.361993 -3.373713 -7.514105 15.696705 -0.247317 2.069976 0.010170 0.004586 729285.000000 1 0 0
-4.766507 -5.029713 1.600895 7.111995 0.812260 1.343753 0.006188 -0.001746 976253.000000 1 0 0
-8.827307 1.348987 2.525895 9.280154 -0.151647 1.295136 0.000220 -0.003969 -535771.000000 1 0 0
-1.059307 11.152487 10.189595 15.143578 -1.476096 0.832720 -0.000358 -0.001091 536622.000000 1 0 0
-8.571107 0.368687 7.598495 11.460233 -0.042989 0.845935 0.001864 -0.003766 -105698.000000 1 0 0
-6.145407 12.906887 -2.015205 14.436579 -1.126423 1.710844 0.001286 0.003708 -181446.000000 1 0 0
-12.913107 -0.746413 3.334395 13.357532 0.057738 1.318502 0.008990 -0.001976 636363.000000 1 0 0
-6.616807 12.723287 8.762195 16.805958 -1.091234 1.022336 0.001166 -0.004112 2401800.000000 1 0 0
-8.020207 1.006187 -14.146505 16.292935 -0.124804 2.622481 -0.006475 0.000317 -429792.000000 1 0 0
7.258993 2.836487 3.658495 8.609484 0.372511 1.131903 -0.001106 0.003127 -329652.000000 1 0 0
-1.590707 0.655187 -2.064405 2.687264 -0.390709 2.446849 0.003629 -0.006059 844122.000000 1 0 0
-6.329307 9.635987 -10.375305 15.509975 -0.989627 2.303584 0.003561 -0.000069 -731987.000000 1 0 0
-10.034807 13.686387 5.166995 17.740135 -0.938137 1.275252 0.002367 -0.007288 384914.000000 1 0 0
-5.581607 8.369887 2.384595 10.339035 -0.982655 1.338061 0.001421 0.003741 -1061120.000000 1 0 0
-2.370407 -10.514613 -1.238405 10.849404 1.349064 1.685191 0.005320 0.001192 801194.000000 1 0 0
-2.303607 -12.306913 8.817795 15.314053 1.385758 0.957217 -0.005923 0.000495 175001.000000 1 0 0
-14.640307 -6.466813 -1.678705 16.092741 0.415941 1.675301 0.008236 -0.001437 313233.000000 1 0 0
-2.763607 -9.369513 3.314395 10.315547 1.283972 1.243693 0.001894 -0.001149 -1213420.000000 1 0 0
4.745593 -2.692113 7.600595 9.356130 -0.516018 0.622600 -0.004265 0.001368 -23653.700000 1 0 0
-14.989507 -1.348613 -0.205105 15.051450 0.089729 1.584424 0.004217 -0.002461 188003.000000 1 0 0
5.523393 8.746387 -2.806805 10.718456 1.007532 1.835752 0.006442 -0.001300 148147.000000 1 0 0
-5.546607 -5.759613 8.499695 11.669739 0.804236 0.754880 0.004835 -0.000711 -3412390.000000 1 0 0
3.498393 3.589287 7.013095 8.620048 0.798222 0.620514 -0.008355 0.003711 193300.000000 1 0 0
3.300893 2.357387 9.415295 10.251875 0.620171 0.406786 -0.003404 -0.001028 -128489.000000 1 0 0
9.947093 -3.153213 5.199895 11.658744 -0.306978 1.108496 0.006659 -0.001107 -427533.000000 1 0 0
6.544793 9.923687 -5.089605 12.931278 0.987763 1.975328 0.008708 -0.003237 -12039.500000 1 0 0
-4.521507 12.020887 -8.581905 15.446516 -1.211029 2.159867 0.000244 0.004949 -670200.000000 1 0 0
-3.277707 -7.230313 2.156895 8.226359 1.145178 1.305502 0.005066 -0.002323 929587.000000 1 0 0
-7.339907 -4.019713 1.160995 8.448683 0.501039 1.432943 0.005589 -0.001702 1251750.000000 1 0 0
-1.996807 -3.926113 -10.938805 11.792330 1.100295 2.758787 0.007920 -0.003327 -1205090.000000 1 0 0
-5.138707 8.167687 -4.418905 10.613395 -1.009218 2.000225 0.004262 0.000545 -659445.000000 1 0 0
-10.942107 -3.328913 -10.164705 15.301392 0.295333 2.297352 0.008403 0.001104 -1787990.000000 1 0 0
4.649793 -11.437013 -7.815405 14.611858 -1.184651 2.135147 0.003702 -0.001569 -898331.000000 1 0 0
-9.319107 -3.897813 7.400195 12.522044 0.396148 0.938531 0.004910 -0.003408 -628723.000000 1 0 0
-5.860207 -9.545013 -5.193905 12.346091 1.020179 2.005005 0.006997 -0.004394 1055360.000000 1 0 0
4.814593 4.447387 -9.545505 11.579129 0.745772 2.539888 0.000044 0.002622 16236.400000 1 0 0
-3.371107 -7.061313 -14.047105 16.079417 1.125387 2.633364 -0.000465 0.004257 80274.200000 1 0 0
0.681793 -0.827813 -8.802505 8.867593 -0.881826 3.020357 0.004354 -0.008951 -460301.000000 1 0 0
-7.817707 2.229787 -2.860405 8.618028 -0.277845 1.909123 0.003737 -0.002928 -1230250.000000 1 0 0
-2.445207 7.593687 -12.569305 14.887261 -1.259275 2.576053 0.002949 -0.004304 5094.260000 1 0 0
-9.744607 8.831587 7.552595 15.165619 -0.736288 1.049497 -0.001413 -0.008258 -627057.000000 1 0 0
-10.477107 -3.069813 -14.556805 18.195991 0.285024 2.498093 0.000536 0.012309 -306437.000000 1 0 0
-3.249807 4.809187 7.961895 9.852984 -0.976532 0.629929 -0.000062 0.002207 -69879.800000 1 0 0
8.825393 -2.252913 -3.657505 9.815320 -0.249938 1.952640 0.009974 -0.001144 -5563830.000000 1 0 0
1.924493 -8.300313 -1.259005 8.613011 -1.342964 1.717497 0.003411 -0.000351 -806665.000000 1 0 0
-13.531007 -2.845213 5.088095 14.733367 0.207254 1.218190 0.010791 -0.002497 483548.000000 1 0 0
6.971893 2.759587 -2.013005 7.763685 0.376894 1.833078 0.005011 0.000079 510615.000000 1 0 0
-11.067307 4.337187 8.680295 14.718832 -0.373497 0.940059 0.001789 -0.006822 -2977580.000000 1 0 0
-1.802107 -2.467913 7.981995 8.546954 0.940078 0.365628 -0.001092 -0.001000 -1162820.000000 1 0 0
3.044193 11.982687 -9.858705 15.812842 1.322010 2.243959 0.002011 -0.003844 902214.000000 1 0 0
3.724793 -5.086913 -7.097405 9.493362 -0.938765 2.415264 0.002435 -0.007917 -242862.000000 1 0 0
7.990693 -13.892213 -9.892805 18.833808 -1.048818 2.123827 0.022567 0.011267 -16471.400000 1 0 0
-6.306307 -5.697513 -0.388405 8.507763 0.734725 1.616465 0.008274 -0.002255 -394342.000000 1 0 0
-1.147907 -4.016713 9.864995 10.713067 1.292433 0.400573 -0.001957 0.001964 548737.000000 1 0 0
2.901193 3.271187 1.824895 4.737914 0.845270 1.175406 -0.008011 0.003607 -225010.000000 1 0 0
-9.129507 13.371487 7.746395 17.948571 -0.971735 1.124543 0.005504 -0.013506 1601860.000000 1 0 0
4.072293 -11.066313 -0.016205 11.791824 -1.218186 1.572171 -0.003120 -0.003945 -581029.000000 1 0 0
-12.434507 -1.459013 -9.097205 15.475944 0.116802 2.199169 0.010263 -0.003972 -79335.700000 1 0 0
-4.262207 1.050387 -13.638505 14.327545 -0.241627 2.830201 0.006438 -0.004075 572614.000000 1 0 0
4.035793 -3.058413 4.951295 7.082149 -0.648489 0.796626 -0.001550 0.001286 -263992.000000 1 0 0
1.886893 -1.183913 1.080895 2.475954 -0.560352 1.119028 -0.002903 0.000011 686708.000000 1 0 0
8.143493 -9.165213 7.323995 14.281404 -0.844359 1.032313 0.000116 0.003955 -1168360.000000 1 0 0
-0.065207 2.196087 -6.445605 6.809763 -1.541113 2.813083 0.001575 -0.007171 659129.000000 1 0 0
-3.839307 -9.776213 -3.405705 11.041442 1.196582 1.884357 0.010338 -0.002324 655872.000000 1 0 0
-9.415907 2.312787 -5.357905 11.077700 -0.240857 2.075635 0.004430 -0.000190 -1275840.000000 1 0 0
8.888693 -7.789013 5.289795 12.948340 -0.719556 1.149953 -0.003597 -0.001313 1560530.000000 1 0 0
-5.526907 -4.269013 4.683995 8.408982 0.657687 0.980000 0.000388 -0.001728 -497339.000000 1 0 0
-0.165807 -12.538413 10.403295 16.293184 1.557573 0.878241 -0.004344 0.000963 -652268.000000 1 0 0
-14.299907 -8.261913 3.181095 16.818618 0.523906 1.380509 0.003406 -0.001944 -1726300.000000 1 0 0
10.989693 -1.376413 -3.638205 11.657804 -0.124597 1.888181 0.016456 -0.001683 -348969.000000 1 0 0
-13.645507 3.102087 2.715895 14.254785 -0.223535 1.379099 -0.001853 -0.001380 -1324020.000000 1 0 0
-6.273607 6.150787 1.043195 8.847519 -0.775513 1.452613 0.004152 0.001284 1419810.000000 1 0 0
7.155593 -6.943313 -0.545505 9.985473 -0.770343 1.625453 0.005144 -0.005668 -723938.000000 1 0 0
-6.918707 7.684587 10.106895 14.459278 -0.837796 0.796812 0.002582 -0.003244 317254.000000 1 0 0
-12.611007 -5.120513 -1.881805 13.740391 0.385698 1.708182 0.007245 -0.003986 -1873950.000000 1 0 0
-9.358507 -5.567913 0.240495 10.892252 0.536703 1.548715 0.006265 -0.002225 -766137.000000 1 0 0
-1.698307 1.899887 2.083995 3.291938 -0.841362 0.885296 0.002255 -0.001634 -161662.000000 1 0 0
-7.211307 7.302587 7.568795 12.752152 -0.791687 0.935357 0.001820 -0.003188 -633232.000000 1 0 0
5.657993 7.154187 -0.487905 9.134184 0.901651 1.624237 0.004222 -0.001864 -1419690.000000 1 0 0
0.031393 -4.031413 7.520095 8.532591 -1.563009 0.492110 -0.002122 0.000327 -822633.000000 1 0 0
6.386393 0.672487 13.046795 14.541565 0.104913 0.457392 -0.003371 -0.002637 278252.000000 1 0 0
5.787093 6.165987 -7.878405 11.557643 0.817086 2.320828 -0.001461 0.000118 -370750.000000 1 0 0
10.005993 5.236587 8.986495 14.432561 0.482149 0.898666 0.001933 0.003736 -2563300.000000 1 0 0
-1.335407 -4.869713 -8.501405 9.887937 1.303149 2.605626 0.007790 -0.004374 578661.000000 1 0 0
9.983193 -3.492613 -8.010005 13.267353 -0.336541 2.218978 0.010657 -0.005080 585050.000000 1 0 0
8.397793 -5.621613 1.264795 10.184555 -0.589903 1.446287 0.003422 -0.003252 1102800.000000 1 0 0
15.823093 3.378987 -4.976905 16.928006 0.210388 1.869210 0.007203 0.002593 -922057.000000 1 0 0
-6.927907 3.544887 1.042395 7.851669 -0.472950 1.437642 0.003613 -0.004183 549298.000000 1 0 0
-1.701607 3.790087 0.264195 4.162935 -1.148805 1.507290 0.001307 -0.004619 -1308980.000000 1 0 0
-2.544507 10.037187 7.038895 12.520610 -1.322519 0.973771 -0.000507 0.006018 372023.000000 1 0 0
5.571093 -5.780313 -8.790005 11.904339 -0.803827 2.401471 0.004130 -0.004703 -131639.000000 1 0 0
-1.207607 -0.874813 6.257995 6.433204 0.626927 0.233922 -0.000357 -0.001051 371659.000000 1 0 0
-5.649707 4.997787 -7.794005 10.846363 -0.724247 2.372558 0.005384 -0.004996 -266190.000000 1 0 0
6.727693 -1.332313 2.511095 7.303595 -0.195505 1.219818 -0.000013 0.002271 -980261.000000 1 0 0
8.687793 7.499987 3.193295 11.913215 0.712153 1.299432 0.003844 0.000370 -184251.000000 1 0 0
-5.260307 -4.889013 -7.739505 10.558088 0.748831 2.393578 0.009870 -0.005612 360069.000000 1 0 0
-2.330807 7.888887 -10.051905 12.988764 -1.283515 2.455761 0.001300 -0.002014 514366.000000 1 0 0
-2.803407 -2.340513 1.687195 4.022900 0.695651 1.138015 0.000036 0.001228 -1876150.000000 1 0 0
5.981893 -2.146013 -9.172805 11.159246 -0.344450 2.535695 -0.000014 -0.003571 1024550.000000 1 0 0
1.181793 -7.566113 5.146795 9.226711 -1.415853 0.979046 -0.002638 0.001479 652440.000000 1 0 0
1.753193 11.890987 1.208295 12.080117 1.424412 1.470605 0.004061 -0.000886 453213.000000 1 0 0
-1.041207 7.111087 2.582795 7.636917 -1.425409 1.225794 -0.002413 0.004792 357581.000000 1 0 0
8.689093 7.800087 -6.671905 13.448271 0.731536 2.089916 0.004659 -0.003499 -244680.000000 1 0 0
3.674593 -11.296213 5.440995 13.065661 -1.256298 1.141276 -0.005557 -0.000781 190672.000000 1 0 0
7.903093 -7.058513 12.346495 16.270139 -0.729008 0.709260 -0.003981 0.001610 279272.000000 1 0 0
-8.829007 0.072687 -3.875805 9.642537 -0.008233 1.984440 0.000905 -0.002796 -1535970.000000 1 0 0
-3.253807 -5.086113 11.233495 12.753322 1.001665 0.493186 0.003654 -0.002283 13061.000000 1 0 0
-8.146807 0.103287 -11.616505 14.188880 -0.012678 2.529948 -0.000645 -0.002663 -1456800.000000 1 0 0
1.431393 -5.012713 5.340395 7.462975 -1.292646 0.773335 -0.002223 0.001417 -475451.000000 1 0 0
6.672293 3.742487 -7.787005 10.916187 0.511173 2.365056 -0.001266 -0.000032 -211645.000000 1 0 0
16.313793 4.255387 -1.199805 16.902298 0.255160 1.641841 -0.001726 0.004536 -895610.000000 1 0 0
7.917493 7.401287 0.188495 10.839800 0.751713 1.553406 0.006699 -0.000837 -371181.000000 1 0 0
5.448193 -10.447713 13.979995 18.283265 -1.090119 0.700324 -0.003632 -0.000421 353518.000000 1 0 0
-5.306207 -9.016913 8.844695 13.699970 1.038896 0.868988 0.001235 -0.001922 349478.000000 1 0 0
-12.530707 -3.116813 2.844595 13.222136 0.243787 1.353962 0.008764 -0.000628 28635.400000 1 0 0
-2.021907 -1.100013 -5.978805 6.406578 0.498261 2.774094 0.007194 -0.009781 -1876510.000000 1 0 0
-2.509307 13.065187 -4.257405 13.968580 -1.381046 1.880508 0.000428 0.005419 524769.000000 1 0 0
3.990193 -0.446913 -5.003105 6.415016 -0.111538 2.465311 0.002629 -0.003570 -572774.000000 1 0 0
-8.923907 3.719787 -7.384705 12.165805 -0.394934 2.223083 0.003302 0.000316 246569.000000 1 0 0
-4.605207 7.981487 -11.373505 14.637919 -1.047471 2.460665 0.005860 -0.004389 -2659810.000000 1 0 0
-10.057807 -6.352413 7.399495 14.009467 0.563324 1.014343 0.007348 -0.002169 -1115580.000000 1 0 0
8.120693 5.203887 4.113495 10.485558 0.569893 1.167665 -0.001293 0.003493 -1861780.000000 1 0 0
-6.764807 -7.478913 4.020195 10.856276 0.835491 1.191453 0.007195 -0.000584 -483044.000000 1 0 0
-4.048307 11.804787 8.201195 14.933231 -1.240427 0.989401 -0.000452 0.002066 -679352.000000 1 0 0
-7.281307 9.824287 -7.901605 14.559169 -0.932981 2.144473 0.004451 -0.004645 -521662.000000 1 0 0
13.089393 5.442287 4.726295 14.942843 0.394034 1.248979 0.006866 -0.001260 826218.000000 1 0 0
5.247793 3.916487 -3.797005 7.569375 0.641136 2.096275 0.003617 -0.000726 416134.000000 1 0 0
-2.921107 -4.064513 5.053895 7.113015 0.947639 0.780568 0.000096 0.000205 -1728520.000000 1 0 0
12.516593 -2.325913 -5.396105 13.827253 -0.183731 1.971701 0.012679 -0.003770 -2135850.000000 1 0 0
-5.170307 9.776387 7.092995 13.138508 -1.084331 1.000522 0.001527 0.004414 -129309.000000 1 0 0
1.768293 3.869987 -0.458705 4.279494 1.142199 1.678189 -0.003154 0.000331 261221.000000 1 0 0
0.006493 9.715687 7.775395 12.443930 1.570128 0.895877 -0.000350 0.005116 -1297210.000000 1 0 0
-5.357107 1.993087 5.935695 8.240356 -0.356178 0.766532 0.001515 -0.001674 866196.000000 1 0 0
8.816993 0.813787 10.715195 13.900252 0.092037 0.690601 0.005920 0.000477 336844.000000 1 0 0
0.377293 -2.918613 -10.172005 10.589161 -1.442238 2.859969 0.004727 -0.004919 -2664080.000000 1 0 0
1.249593 10.523587 -2.733205 10.944303 1.452608 1.823206 0.003919 0.000936 -1265690.000000 1 0 0
2.307093 -4.357213 11.620695 12.623333 -1.083837 0.401252 -0.004093 0.002115 -420063.000000 1 0 0
6.645093 -3.042613 9.476895 11.967719 -0.429382 0.656929 -0.002533 -0.000501 566968.000000 1 0 0
-10.650307 -8.135913 5.654795 14.546437 0.652346 1.171532 0.011345 -0.001006 -822152.000000 1 0 0
-3.048507 0.931187 -7.014105 7.704426 -0.296455 2.715045 0.009738 -0.009026 522188.000000 1 0 0
11.154793 2.659287 -5.151705 12.571447 0.234030 1.993025 0.010125 -0.002731 -3057980.000000 1 0 0
-1.901307 -3.969813 -0.062205 4.402074 1.124137 1.584928 0.002435 -0.000569 1326330.000000 1 0 0
-1.221607 -6.415913 -10.583705 12.436683 1.382646 2.588696 0.005850 0.001166 783154.000000 1 0 0
0.279293 6.734287 -6.645805 9.465482 1.529347 2.349152 0.003947 -0.001068 -2696270.000000 1 0 0
2.051293 3.816987 -6.140605 7.515598 1.077669 2.527069 0.000003 -0.003356 -1412330.000000 1 0 0
1.520293 -14.761013 6.310795 16.125289 -1.468164 1.168687 0.001078 -0.001433 -392170.000000 1 0 0
-1.720507 5.442687 -10.622305 12.058870 -1.264623 2.648495 0.005425 -0.004376 248798.000000 1 0 0
13.665293 4.322087 -0.819005 14.355885 0.306327 1.627877 0.011100 -0.000656 -1969520.000000 1 0 0
-2.311707 3.336187 -6.249705 7.452043 -0.964839 2.565608 0.008529 -0.008269 -483248.000000 1 0 0
5.755493 7.754587 14.275995 17.235526 0.932303 0.594749 -0.004064 0.002897 229711.000000 1 0 0
15.895393 0.783587 -5.654705 16.889441 0.049257 1.912197 0.001418 -0.002391 -440889.000000 1 0 0
6.139193 -8.349113 10.589895 14.816992 -0.936763 0.774583 -0.008113 0.005251 796658.000000 1 0 0
0.045493 -5.737313 -6.508605 8.676449 -1.562867 2.419079 0.002573 -0.003105 -1401370.000000 1 0 0
8.697093 5.448087 -7.584905 12.761342 0.559624 2.207273 -0.001642 -0.000909 -391437.000000 1 0 0
-16.084807 -0.763313 5.392395 16.981802 0.047420 1.247663 0.006992 -0.000297 -54037.600000 1 0 0
-0.236807 4.094687 -12.331905 12.996092 -1.513028 2.820507 0.007215 -0.005951 472273.000000 1 0 0
-11.370907 3.699987 5.805795 13.292656 -0.314585 1.118795 0.002631 -0.007138 -811002.000000 1 0 0
5.122093 -9.598713 -9.616605 14.520682 -1.080614 2.294640 0.000206 0.000278 -93659.500000 1 0 0
1.494493 11.065587 -11.692905 16.168016 1.436551 2.379238 0.002196 -0.002464 -3015520.000000 1 0 0
5.863993 2.308187 1.159395 6.407678 0.374995 1.388856 -0.001070 0.003205 -154247.000000 1 0 0
5.655593 4.474087 4.810195 8.668400 0.669285 0.982540 -0.006599 0.004613 296582.000000 1 0 0
0.445893 -1.655113 -6.306405 6.535209 -1.307641 2.876198 0.000653 -0.008176 -467199.000000 1 0 0
12.624193 6.808287 -4.531605 15.041890 0.494595 1.876816 0.006806 0.001020 -374832.000000 1 0 0
7.439893 3.120187 12.803395 15.133225 0.397106 0.562273 -0.001449 0.000155 -322005.000000 1 0 0
-2.437907 -0.202213 8.685195 9.023131 0.082756 0.274548 -0.003027 0.001020 560660.000000 1 0 0
2.286593 -15.397813 13.159695 20.383786 -1.423373 0.868993 0.005454 -0.006431 726661.000000 1 0 0
18.954993 4.463787 -1.634605 19.541982 0.231280 1.654540 0.002914 0.007312 626825.000000 1 0 0
-0.570907 -13.307413 7.140195 15.112762 1.527921 1.078715 -0.006843 -0.000206 -976476.000000 1 0 0
4.291293 1.478887 -0.593905 4.577666 0.331878 1.700903 -0.000266 0.000540 741021.000000 1 0 0
2.739393 -0.487313 -7.336305 7.846217 -0.176049 2.779089 0.000620 -0.005046 -131736.000000 1 0 0
7.204893 -11.283413 0.886795 13.416866 -1.002521 1.504653 -0.002639 -0.001528 324183.000000 1 0 0
-11.942407 -7.342813 1.403295 14.089259 0.551269 1.471031 0.007508 0.000011 83776.200000 1 0 0
0.213893 -7.041013 9.994395 12.227410 -1.540428 0.613954 -0.004673 0.001514 -1968340.000000 1 0 0
-4.589707 -7.182513 10.635795 13.629895 1.002185 0.675605 0.005400 0.000712 -1193610.000000 1 0 0
11.903893 0.734787 -1.658605 12.041326 0.061648 1.708978 0.010742 -0.000901 1833480.000000 1 0 0
6.467493 -9.511613 -7.424905 13.690451 -0.973649 2.144018 0.004906 -0.003903 749052.000000 1 0 0
-10.929807 4.908687 3.533295 12.491600 -0.422114 1.284028 0.000794 -0.005216 273000.000000 1 0 0
5.924293 -9.110213 2.004195 11.050340 -0.994216 1.388417 -0.004994 -0.003565 4678460.000000 1 0 0
11.603593 -1.259913 5.846795 13.054339 -0.108156 1.106402 0.009648 -0.002694 912083.000000 1 0 0
-6.530907 3.559987 4.300795 8.592037 -0.499072 1.046555 0.001226 -0.004852 -750806.000000 1 0 0
9.466793 6.295587 -3.153005 11.798136 0.586860 1.841330 0.009290 0.000131 -795209.000000 1 0 0
-2.283507 6.653087 10.970895 13.032211 -1.240170 0.570133 0.000867 -0.002375 -280023.000000 1 0 0
1.711393 9.743987 2.797195 10.280975 1.396934 1.295248 -0.002618 0.002854 -24047.600000 1 0 0
2.911593 6.161787 -5.675505 8.868841 1.129370 2.265213 -0.000655 -0.001485 -2150200.000000 1 0 0
11.924193 0.156287 -5.648305 13.195232 0.013106 2.013138 0.014106 -0.003059 442762.000000 1 0 0
-2.802807 -12.477713 6.267195 14.241727 1.349839 1.115132 -0.004710 -0.000338 -149659.000000 1 0 0
10.913693 1.802987 -2.882805 11.431099 0.163725 1.825739 0.011899 -0.000650 762715.000000 1 0 0
-8.860807 5.334687 0.917895 10.383416 -0.541929 1.482281 0.003656 -0.000997 -504438.000000 1 0 0
1.160093 -10.226613 5.463595 11.652480 -1.457841 1.082776 -0.005610 -0.001476 1353460.000000 1 0 0
9.510993 -5.725213 -1.192805 11.165117 -0.541858 1.677834 0.009021 -0.004321 1401180.000000 1 0 0
-7.684907 8.650787 -4.610705 12.456023 -0.844456 1.949976 -0.000593 0.001189 300217.000000 1 0 0
-7.515007 0.004787 -1.622805 7.688228 -0.000637 1.783473 0.000351 -0.003474 -1851020.000000 1 0 0
4.078893 8.907687 2.811995 10.192721 1.141386 1.291288 0.001652 0.000239 72103.800000 1 0 0
-1.349207 -10.578713 -3.707305 11.290422 1.443941 1.905361 0.005482 -0.000768 -668093.000000 1 0 0
3.192593 7.779987 -3.649405 9.167279 1.181391 1.980230 0.004910 -0.003235 -568690.000000 1 0 0
-4.288407 1.660287 -11.201005 12.108241 -0.369386 2.752024 0.004860 -0.007010 -248905.000000 1 0 0
1.205793 2.890087 11.007395 11.444181 1.175537 0.277171 -0.001453 -0.000430 512408.000000 1 0 0
2.101493 5.550687 -8.054405 10.004991 1.208873 2.506537 0.001136 -0.001431 15791.200000 1 0 0
15.554593 6.008187 4.094295 17.169942 0.368610 1.330019 0.011643 -0.005474 -225737.000000 1 0 0
-4.342707 9.025387 4.695395 11.061801 -1.122329 1.132421 0.002760 0.004597 313167.000000 1 0 0
-0.983907 -8.099913 -12.480705 14.911226 1.449917 2.562575 -0.000868 0.001860 -211753.000000 1 0 0
14.387293 -4.279913 -5.380605 15.945619 -0.289142 1.914987 0.004043 0.004344 1404400.000000 1 0 0
-5.962307 -6.150613 -5.600705 10.234600 0.800943 2.149850 0.010587 -0.003765 438854.000000 1 0 0
-8.873307 2.581787 -12.243505 15.339642 -0.283144 2.495033 -0.000599 -0.002152 -40815.100000 1 0 0
10.479893 5.411987 13.760795 18.123941 0.476694 0.708620 0.009321 0.002868 452559.000000 1 0 0
-0.444407 10.971187 5.611895 12.331172 -1.530312 1.098314 -0.000321 0.007305 921780.000000 1 0 0
0.344393 11.247887 -0.562405 11.267203 1.540187 1.620732 0.001553 0.001054 -247489.000000 1 0 0
-1.531907 -0.551913 3.682995 4.026885 0.345802 0.416275 -0.000418 0.000817 215546.000000 1 0 0
-4.818307 6.829387 8.797895 12.135055 -0.956372 0.759764 0.001730 0.000863 -763105.000000 1 0 0
3.409893 -8.808913 -11.471005 14.859619 -1.201464 2.452712 -0.006498 0.004607 1412240.000000 1 0 0
6.732793 -3.804013 12.035995 14.306159 -0.514285 0.571084 -0.000610 0.001610 -364525.000000 1 0 0
-2.451707 -1.840813 -12.534005 12.903517 0.644031 2.901700 0.009364 -0.006797 789743.000000 1 0 0
-16.252907 -4.916413 5.372595 17.809910 0.293744 1.264360 0.014575 -0.002646 9741.740000 1 0 0
-8.957907 7.298587 5.659495 12.866365 -0.683679 1.115345 -0.003061 -0.001501 -3448560.000000 1 0 0
-12.976507 1.546087 6.072995 14.410461 -0.118586 1.135775 0.005382 -0.007877 363727.000000 1 0 0
-3.355307 3.535387 10.230095 11.331897 -0.811526 0.444630 0.000608 0.002868 369945.000000 1 0 0
1.975993 -12.171913 -1.171205 12.386756 -1.409860 1.665491 0.000752 -0.001298 -2710930.000000 1 0 0
10.356493 -5.204113 -3.659705 12.154554 -0.465644 1.876640 0.014900 -0.001640 515443.000000 1 0 0
2.987193 -13.403013 0.928995 13.763252 -1.351506 1.503247 -0.003321 -0.001180 512677.000000 1 0 0
10.137093 -1.634413 -6.199505 11.994408 -0.159855 2.113983 0.010729 -0.001095 -48320.200000 1 0 0
12.079793 -5.385513 -1.601905 13.322584 -0.419379 1.691328 0.010435 -0.002292 531518.000000 1 0 0
1.433493 0.959487 5.888195 6.135663 0.589848 0.284980 -0.002695 0.000464 308047.000000 1 0 0
-10.685907 11.670687 6.622395 17.153707 -0.829418 1.174437 0.003569 -0.007256 -1184810.000000 1 0 0
4.732993 -14.043513 2.885295 15.097894 -1.245728 1.378508 -0.000561 -0.002425 -3541180.000000 1 0 0
5.264393 -3.414813 -1.722105 6.506952 -0.575434 1.838644 0.007847 -0.004613 -1593550.000000 1 0 0
2.183593 -2.883213 -7.734105 8.537996 -0.922610 2.704168 -0.001533 -0.005997 429267.000000 1 0 0
-2.697207 14.825887 -8.772805 17.436856 -1.390839 2.098000 0.008118 0.002309 -552032.000000 1 0 0
-2.442807 6.059087 -8.171205 10.461760 -1.187565 2.467149 0.007237 -0.004927 -124287.000000 1 0 0
2.572293 -3.533813 -11.388105 12.198092 -0.941584 2.775120 0.004520 -0.002652 -1547710.000000 1 0 0
14.753393 2.867187 -2.716205 15.272889 0.191948 1.749592 0.010382 0.000109 730035.000000 1 0 0
-3.429207 13.242087 2.190195 13.853133 -1.317400 1.412029 -0.002561 0.005785 -303445.000000 1 0 0
7.883493 -4.965013 14.033095 16.844244 -0.562043 0.586091 -0.000327 -0.001114 -137945.000000 1 0 0
-11.505007 7.277287 2.823795 13.903162 -0.563997 1.366269 -0.001950 -0.002284 815041.000000 1 0 0
-2.229207 12.034887 4.087795 12.904183 -1.387643 1.248463 -0.001776 0.006266 529701.000000 1 0 0
1.857993 1.483187 0.696295 2.477258 0.673688 1.285882 -0.007026 0.000505 -1401420.000000 1 0 0
-6.820007 8.683187 5.378495 12.281630 -0.905005 1.117501 0.003315 0.001294 -185763.000000 1 0 0
-1.112107 9.226087 1.024595 9.349185 -1.450836 1.460984 -0.002350 0.005276 307050.000000 1 0 0
5.018993 13.066687 -8.506405 16.379485 1.204066 2.116866 0.008479 -0.006811 -1704500.000000 1 0 0
8.975093 6.856987 7.175895 13.381481 0.652402 1.004802 -0.004756 0.004054 -1709540.000000 1 0 0
7.189893 -13.739413 2.821795 15.761617 -1.088680 1.390796 0.006831 -0.003764 -53702.200000 1 0 0
4.066493 -13.400513 -1.283005 14.062582 -1.276170 1.662159 -0.004146 0.004099 -2603890.000000 1 0 0
12.101193 -11.820613 -4.677405 17.551179 -0.773670 1.840557 0.021764 -0.000393 -498029.000000 1 0 0
2.845093 -0.114013 -2.004005 3.481894 -0.040052 2.184073 0.001426 -0.000932 1112210.000000 1 0 0
-13.503807 -3.262613 -10.715705 17.544908 0.237064 2.227815 0.008320 -0.008183 167154.000000 1 0 0
-6.490107 13.712387 5.126595 16.013526 -1.128734 1.244917 0.004994 -0.001530 553008.000000 1 0 0
7.337393 -4.376013 -0.709505 8.572644 -0.537767 1.653655 0.006630 -0.002968 -1613210.000000 1 0 0
11.780493 2.080987 -7.336105 14.033138 0.174843 2.120894 0.013041 -0.003089 -899015.000000 1 0 0
-7.354807 -4.489013 9.770495 13.027164 0.547996 0.722720 0.008730 0.000215 767353.000000 1 0 0
0.990493 2.736287 8.439595 8.927212 1.223485 0.332042 -0.003611 0.002553 -1533880.000000 1 0 0
1.620093 8.046687 -8.659705 11.931654 1.372116 2.382958 0.003544 -0.001354 -811605.000000 1 0 0
-8.480007 -1.981713 -5.485505 10.292156 0.229572 2.132914 0.006543 -0.001134 -425957.000000 1 0 0
6.528093 -0.531113 7.069895 9.637504 -0.081179 0.747219 -0.002592 -0.000102 -232882.000000 1 0 0
-10.851007 6.476987 7.102195 14.496099 -0.538138 1.058777 0.001677 -0.005985 626321.000000 1 0 0
-5.893607 11.132987 4.967395 13.540791 -1.083920 1.195179 0.001279 0.002928 196081.000000 1 0 0
6.072693 -1.276713 -6.868305 9.256414 -0.207220 2.406852 0.003702 -0.003834 -828110.000000 1 0 0
4.546493 -5.740313 11.420995 13.566905 -0.900935 0.570136 -0.006501 0.003257 -1501950.000000 1 0 0
-9.044007 -7.304513 2.752795 11.946877 0.679396 1.338287 0.008648 -0.001850 -1373530.000000 1 0 0
-1.168807 12.680387 -9.234605 15.730107 -1.478882 2.198226 0.006882 0.001672 584133.000000 1 0 0
-4.569207 9.268487 -2.349305 10.597252 -1.112778 1.794344 -0.001722 0.002396 652757.000000 1 0 0
-3.272407 9.688687 -0.215305 10.228669 -1.245071 1.591847 -0.001250 0.004188 -154738.000000 1 0 0
-3.388307 10.687287 -6.456305 12.937643 -1.263780 2.093278 0.000205 0.003434 840626.000000 1 0 0
4.983493 -4.975413 0.287295 7.047870 -0.784587 1.530022 0.003977 -0.002946 -1566050.000000 1 0 0
-2.148407 3.049287 -10.969805 11.586649 -0.957016 2.813822 0.008230 -0.007069 -455378.000000 1 0 0
-3.665007 12.154287 -2.186505 12.881761 -1.277927 1.741359 -0.005277 0.006090 -1101100.000000 1 0 0
-0.030907 0.404487 -0.135305 0.427636 -1.494533 1.892731 -0.004261 -0.001385 -2318410.000000 1 0 0
-4.708807 -1.667513 0.056195 4.995660 0.340346 1.559547 0.002889 -0.001967 -147699.000000 1 0 0
2.616093 2.472887 -2.465605 4.363292 0.757265 2.171325 -0.006493 -0.001915 1429450.000000 1 0 0
6.068893 -9.748113 8.501995 14.287795 -1.013946 0.933465 -0.004750 0.005929 -962408.000000 1 0 0
-4.105507 -5.487913 6.568995 9.493370 0.928512 0.806601 0.004580 -0.001547 202231.000000 1 0 0
-6.307707 5.306087 -12.088205 14.631009 -0.699367 2.543133 0.002932 -0.004086 1051470.000000 1 0 0
-13.006607 3.147087 7.911595 15.545717 -0.237398 1.036862 0.005808 -0.003952 690635.000000 1 0 0
4.703893 -7.370813 -5.094305 10.119656 -1.002777 2.098334 0.003079 -0.005901 713462.000000 1 0 0
-5.946107 2.398087 -1.105405 6.506069 -0.383351 1.741528 0.002999 -0.003699 -601093.000000 1 0 0
-6.861807 -2.761013 -14.652605 16.413605 0.382551 2.674122 0.000971 0.004790 -662056.000000 1 0 0
2.856293 -6.069913 0.987895 6.780722 -1.130972 1.424584 0.001276 -0.002158 -657470.000000 1 0 0
4.802393 -7.980313 12.984795 15.979777 -1.029069 0.622237 -0.010943 0.001490 21950.000000 1 0 0
-9.971707 -1.605813 8.035095 12.906445 0.159666 0.898781 0.008807 -0.002116 -165630.000000 1 0 0
-4.521007 13.321987 -0.074105 14.068416 -1.243628 1.576064 -0.003303 0.004283 418873.000000 1 0 0
6.773193 2.169487 -4.457805 8.393738 0.309980 2.130679 0.001347 0.000870 -1369390.000000 1 0 0
5.086793 4.464087 -0.054505 6.768050 0.720292 1.578850 -0.002087 0.001455 -790408.000000 1 0 0
-5.834807 12.320487 1.922595 13.767198 -1.128503 1.430688 0.001213 0.004521 -1184410.000000 1 0 0
6.562793 -7.366613 6.533195 11.832999 -0.843041 0.985896 -0.008111 0.002585 -1824720.000000 1 0 0
-0.273407 4.967587 7.756995 9.215348 -1.515814 0.570285 -0.004023 0.003427 -1019300.000000 1 0 0
-5.722307 -3.322213 -1.550105 6.795934 0.526012 1.800915 0.006438 -0.003266 -1210490.000000 1 0 0
2.212093 -6.625113 -5.431305 8.847856 -1.248540 2.231732 0.003263 -0.005137 -1437710.000000 1 0 0
-14.401307 -4.758213 -3.705505 15.613104 0.319110 1.810416 0.003393 -0.004935 -699721.000000 1 0 0
-12.398807 -5.190413 -6.321305 14.853609 0.396456 2.010392 0.006133 -0.006371 -1187270.000000 1 0 0
-14.705507 -3.879013 -1.136505 15.250912 0.257905 1.645386 0.004898 -0.000772 384344.000000 1 0 0
11.844093 2.830687 8.807795 15.029058 0.234595 0.944620 0.013761 -0.000263 -1565330.000000 1 0 0
8.673393 -6.593713 7.679395 13.329587 -0.650012 0.956827 0.000529 -0.001742 -256938.000000 1 0 0
-8.741007 -1.773713 -9.767605 13.227145 0.200200 2.401567 0.001405 -0.001000 -173579.000000 1 0 0
-8.891907 5.025087 -3.766405 10.885923 -0.514385 1.924089 0.005301 -0.003451 -366803.000000 1 0 0
-4.088207 -6.258413 4.057395 8.505506 0.992151 1.073522 0.003767 -0.000159 -1271420.000000 1 0 0
-0.265307 -9.146813 3.489395 9.793388 1.541799 1.206490 0.000891 -0.002382 479395.000000 1 0 0
7.826093 -10.348713 3.399095 13.412585 -0.923315 1.314576 -0.003280 -0.001785 -234334.000000 1 0 0
-0.030707 6.510787 9.678895 11.665003 -1.566080 0.592158 -0.000621 -0.000565 369501.000000 1 0 0
0.039593 3.585487 -9.739105 10.378220 1.559754 2.788818 0.007599 -0.006027 366271.000000 1 0 0
4.499093 -3.128213 10.984395 12.275361 -0.607564 0.462740 -0.003265 0.000021 -1564280.000000 1 0 0
8.540693 -9.134113 1.181195 12.560680 -0.818960 1.476618 0.000584 -0.003503 -1153350.000000 1 0 0
-0.300207 -0.471813 11.448295 11.461945 1.004123 0.048809 0.000293 0.001544 -1379820.000000 1 0 0
10.807293 6.060687 11.315495 16.780046 0.511094 0.830723 0.010619 0.003508 -60913.600000 1 0 0
-6.332907 -2.910513 -11.922505 13.810247 0.430797 2.612586 0.005915 -0.001832 -111408.000000 1 0 0
-1.647907 2.772887 8.434095 9.029865 -1.034584 0.365284 0.000305 0.002377 -1132880.000000 1 0 0
-1.617407 13.494887 -6.759005 15.179332 -1.451512 2.032280 0.006839 0.007450 412746.000000 1 0 0
7.675393 3.019187 9.744995 12.766835 0.374769 0.702382 -0.001965 0.001257 433916.000000 1 0 0
6.435493 8.474587 -7.864705 13.232074 0.921314 2.207274 0.005033 -0.001850 1044380.000000 1 0 0
6.768693 -3.097313 -3.940905 8.422546 -0.429151 2.057709 0.007271 -0.003481 -1670590.000000 1 0 0
2.039593 8.132187 0.999295 8.443399 1.325060 1.452166 -0.002379 0.002585 1094120.000000 1 0 0
-17.524507 6.161487 6.181995 19.577777 -0.338093 1.249533 0.010314 -0.004274 -885165.000000 1 0 0
-14.774907 2.998787 -10.345805 18.284592 -0.200245 2.172225 0.019455 -0.000853 -147647.000000 1 0 0
-18.288107 0.054687 -4.442105 18.819940 -0.002990 1.809077 0.013149 -0.006325 -346674.000000 1 0 0
-13.011607 8.028387 0.045795 15.289180 -0.552838 1.567801 0.002489 0.001775 -477114.000000 1 0 0
-12.596407 -4.232613 -13.038705 18.616990 0.324164 2.346706 0.006092 0.009102 -218188.000000 1 0 0
-17.319807 -0.819713 -8.569505 19.341253 0.047293 2.029815 -0.005644 -0.011478 1159780.000000 1 0 0
-16.631807 -2.262713 -1.947205 16.897588 0.135217 1.686289 0.006085 -0.004912 7461.310000 1 0 0
-15.334807 4.223587 1.664395 15.992661 -0.268761 1.466535 0.000641 0.003644 -385198.000000 1 0 0
-13.162607 6.089487 4.466595 15.175195 -0.433312 1.272036 -0.003304 -0.001628 -222331.000000 1 0 0
-10.231607 14.236587 2.628095 17.727749 -0.947641 1.422000 0.020281 -0.010749 277714.000000 1 0 0
-11.760707 2.423887 -6.437405 13.624597 -0.203254 2.062903 0.001623 0.002780 -110731.000000 1 0 0
-15.956607 10.609987 3.729595 19.521655 -0.586798 1.378565 0.014446 -0.006964 -362452.000000 1 0 0
-12.748007 1.046487 -8.558405 15.390033 -0.081907 2.160483 0.005483 -0.002811 732359.000000 1 0 0
-12.417007 14.232587 4.152595 19.338890 -0.853421 1.354383 0.015148 -0.011263 648836.000000 1 0 0
-10.580107 11.143387 -1.242605 15.416154 -0.811322 1.651488 0.010187 -0.002450 25568.900000 1 0 0
-16.814707 5.688387 8.748595 19.789645 -0.326212 1.112881 -0.003799 -0.004100 623282.000000 1 0 0
-11.694507 12.534387 -9.352605 19.528020 -0.820049 2.070235 -0.002544 -0.003128 -1452040.000000 1 0 0
-17.232107 -0.356613 3.143095 17.520038 0.020692 1.390420 0.006834 -0.000578 999561.000000 1 0 0
-13.055407 14.869587 -0.531305 19.794710 -0.850273 1.597640 0.021421 -0.010477 -195922.000000 1 0 0
-16.742407 4.653187 -10.215705 20.157405 -0.271086 2.102261 0.025970 -0.004723 95777.000000 1 0 0
-11.861007 7.508887 -8.944505 16.645451 -0.564384 2.138093 0.003031 0.001181 -76286.200000 1 0 0
-14.812907 13.658787 -2.034705 20.251536 -0.744885 1.671438 0.027240 -0.010233 548057.000000 1 0 0
-11.874807 10.571687 -5.349705 16.774712 -0.727409 1.895381 0.007843 -0.004931 820619.000000 1 0 0
-17.618807 2.888187 -0.834505 17.873455 -0.162481 1.617503 -0.000216 0.004056 -519654.000000 1 0 0
-9.390607 15.432287 0.603495 18.074933 -1.024147 1.537402 0.015420 -0.011853 -114604.000000 1 0 0
-8.061307 13.233887 -3.745405 15.942036 -1.023682 1.807952 0.004545 0.000346 -1627130.000000 1 0 0
-17.842007 11.691687 2.241895 21.448983 -0.580085 1.466083 0.037346 0.006200 -126904.000000 1 0 0
-8.078707 15.727287 -7.385205 19.161271 -1.096269 1.966463 0.019187 -0.004970 239792.000000 1 0 0
-6.178607 15.387387 -5.590905 17.498717 -1.188966 1.896002 0.007430 0.007847 590349.000000 1 0 0
-17.318307 5.291487 -0.127205 18.109108 -0.296534 1.577821 0.007776 0.003063 311051.000000 1 0 0
-5.394207 12.371187 -12.193605 18.188671 -1.159620 2.305538 -0.007889 -0.001174 -1019680.000000 1 0 0
-11.111507 3.675787 -11.370405 16.317571 -0.319477 2.341750 0.001717 -0.003014 578614.000000 1 0 0
-11.957007 11.193287 1.067595 16.413393 -0.752420 1.505706 0.012402 -0.006515 581966.000000 1 0 0
-12.929807 0.078287 -11.013505 16.984797 -0.006055 2.276321 0.009064 -0.008223 1562780.000000 1 0 0
-14.278707 -2.176813 -12.931905 19.386959 0.151287 2.301027 0.016028 -0.003698 449523.000000 1 0 0
-18.700507 -2.327713 -3.557705 19.177708 0.123836 1.757390 0.003926 -0.003380 418197.000000 1 0 0
-18.312807 4.728187 -5.168705 19.606891 -0.252672 1.837566 0.015251 0.001902 286777.000000 1 0 0
-8.143007 15.423887 -2.334905 17.597063 -1.085041 1.703876 0.015078 -0.008690 -174793.000000 1 0 0
-16.162207 9.110387 -5.309205 19.297765 -0.513289 1.849511 0.017885 0.002094 -12754.300000 1 0 0
-18.169107 1.841787 2.086895 18.381071 -0.101024 1.457016 0.006843 -0.003988 76750.200000 1 0 0
-15.630607 -2.760813 -8.696805 18.098961 0.174825 2.072037 0.004697 -0.008819 -233930.000000 1 0 0
-9.759707 10.433587 -7.214605 16.005066 -0.818757 2.038424 0.005985 -0.004381 718905.000000 1 0 0
-13.871807 12.064587 -7.980405 20.041661 -0.715832 1.980340 0.004198 -0.006843 266046.000000 1 0 0
-11.137807 6.472287 -3.880205 13.453521 -0.526414 1.863368 0.000292 0.002036 -1158090.000000 1 0 0
-13.236707 4.848287 -12.572805 18.888931 -0.351100 2.299117 0.010647 -0.007123 1154920.000000 1 0 0
-17.757407 9.091387 2.510795 20.106788 -0.473183 1.445596 0.029858 -0.008502 921275.000000 1 0 0
-13.516007 8.885687 -6.543805 17.448761 -0.581573 1.955225 0.008049 0.003572 -151991.000000 1 0 0
-15.867707 6.987287 -3.796705 17.748839 -0.414797 1.786375 0.010973 0.006643 -368807.000000 1 0 0
-14.860107 -0.392613 -9.328705 17.549976 0.026414 2.131227 0.010201 -0.008679 -305605.000000 1 0 0
-10.012107 5.752087 -6.036905 13.029698 -0.521468 2.052533 0.002104 0.001124 376805.000000 1 0 0
-12.753907 12.323287 -1.118005 17.770073 -0.768228 1.633753 0.021702 -0.010858 -255433.000000 1 0 0
-10.653707 3.443187 -13.973205 17.905515 -0.312595 2.466078 -0.002122 -0.001289 600825.000000 1 0 0
-11.152507 6.273087 -11.932905 17.496407 -0.512376 2.321318 -0.000844 -0.001191 -47990.100000 1 0 0
-5.890207 11.637987 -14.696905 19.650351 -1.102265 2.415720 0.000400 -0.011082 -90378.200000 1 0 0
-15.654007 13.259087 3.540195 20.817884 -0.702755 1.399910 0.013193 -0.008913 155953.000000 1 0 0
-15.203907 11.274987 -3.188105 19.195003 -0.638094 1.737660 0.032826 -0.001304 703375.000000 1 0 0
-18.250307 7.790587 -4.406205 20.326869 -0.403457 1.789298 0.025245 0.003620 501243.000000 1 0 0
-3.951207 16.182987 -10.604305 19.747212 -1.331323 2.137676 0.012639 -0.000843 222094.000000 1 0 0
-15.772007 4.363287 -4.514705 16.975778 -0.269897 1.839985 0.005006 0.007364 219300.000000 1 0 0
-18.513407 -1.962113 -6.119105 19.596928 0.105589 1.888355 -0.003020 -0.007557 35867.800000 1 0 0
-10.906607 8.588487 -5.831905 15.057467 -0.667046 1.968508 0.006658 0.002849 394691.000000 1 0 0
-11.414107 13.488287 -6.924905 18.978146 -0.868499 1.944309 0.003881 -0.005195 -122173.000000 1 0 0
-9.425107 10.477087 -4.508005 14.796084 -0.838206 1.880394 0.000206 0.002768 -888223.000000 1 0 0
-11.069407 6.237787 -0.223605 12.707941 -0.513161 1.588393 0.000772 0.000675 -431643.000000 1 0 0
-14.655307 9.518887 -1.397905 17.531155 -0.576036 1.650619 0.017601 -0.000652 367387.000000 1 0 0
-18.658007 3.506887 4.802795 19.582807 -0.185789 1.323013 0.004775 0.005823 336157.000000 1 0 0
-14.717107 13.087587 0.449395 19.699750 -0.726859 1.547982 0.019596 -0.013201 -169532.000000 1 0 0
-16.891707 2.440787 -8.939805 19.266742 -0.143503 2.053304 0.008574 -0.006470 424194.000000 1 0 0
-9.159907 8.425387 -9.022205 15.371767 -0.743653 2.198062 0.006117 0.001021 -2211790.000000 1 0 0
-17.610207 4.623587 -2.682105 18.403550 -0.256757 1.717056 0.001637 0.004467 778131.000000 1 0 0
-13.605107 5.894387 -4.421505 15.472312 -0.408836 1.860605 0.003704 0.008934 -1604460.000000 1 0 0
-12.286407 9.649287 3.266695 15.960446 -0.665752 1.364665 -0.000457 -0.003046 1134760.000000 1 0 0
-17.483907 2.448387 -4.080205 18.119870 -0.139132 1.797923 0.003252 0.004088 806081.000000 1 0 0
-11.256207 1.382687 -12.563405 16.924927 -0.122225 2.407295 0.004821 -0.004522 209621.000000 1 0 0
-11.282607 12.035487 3.417695 16.847279 -0.817674 1.366515 0.007604 -0.009471 399293.000000 1 0 0
-16.382507 13.342387 -4.168205 21.535547 -0.683477 1.765576 0.023591 0.000002 832051.000000 1 0 0
-11.142507 4.070987 -4.528905 12.698007 -0.350289 1.935489 -0.000360 0.003328 -626721.000000 1 0 0
-11.236207 15.025187 -8.982205 20.801168 -0.928689 2.017298 0.011048 -0.010712 -1759.300000 1 0 0
-15.465207 7.231287 -0.333905 17.075586 -0.437380 1.590352 0.007062 0.003855 758594.000000 1 0 0
-12.908807 8.444087 -4.040405 15.945682 -0.579276 1.826975 0.003367 0.002842 579566.000000 1 0 0
-19.041807 1.936487 -6.074805 20.080928 -0.101348 1.878128 0.007891 -0.005430 -1085790.000000 1 0 0
-12.496207 10.114087 -8.968605 18.408852 -0.680430 2.079665 -0.001519 -0.004652 473854.000000 1 0 0
-16.720707 11.086187 -1.092305 20.091758 -0.585475 1.625189 0.025390 -0.002010 550186.000000 1 0 0
-10.898007 6.454187 -14.556705 19.295615 -0.534691 2.425543 -0.003134 -0.004776 68848.400000 1 0 0
-13.828807 13.138087 -4.513805 19.601522 -0.759790 1.803160 0.019906 -0.002548 653732.000000 1 0 0
-18.010107 7.782787 -0.229805 19.621125 -0.407898 1.582509 0.018627 0.001286 -243596.000000 1 0 0
-12.810507 6.693587 -2.124705 14.609161 -0.481491 1.716750 0.001039 0.005671 485235.000000 1 0 0
-13.810507 8.375987 -10.455205 19.240545 -0.545181 2.145272 0.002327 -0.005501 -706887.000000 1 0 0
-14.889907 1.391987 -0.868305 14.980017 -0.093214 1.628793 -0.002216 0.000729 -700928.000000 1 0 0
-13.332607 2.692387 -2.416305 13.814698 -0.199260 1.746609 -0.003937 0.001924 -3448.440000 1 0 0
-11.349507 9.053287 -10.909805 18.160318 -0.673325 2.215235 -0.002195 -0.008196 -693873.000000 1 0 0
-15.361807 4.352087 -8.034305 17.873887 -0.276071 2.037001 0.008452 0.002532 178707.000000 1 0 0
-18.408207 10.582787 4.596595 21.725243 -0.521755 1.357607 0.032930 -0.003074 805987.000000 1 0 0
-15.478107 6.177587 -6.202505 17.782167 -0.379746 1.927092 0.011889 0.009842 603050.000000 1 0 0
-7.787407 11.479187 -12.861805 18.916698 -0.974719 2.318447 -0.008068 -0.000083 660897.000000 1 0 0
-16.869507 9.247087 -2.787705 19.438626 -0.501425 1.714703 0.020586 -0.002718 929385.000000 1 0 0
-20.577707 -0.991613 -4.953105 21.188643 0.048151 1.806742 0.007398 -0.008325 821270.000000 1 0 0
-15.351807 4.507187 4.204395 16.542964 -0.285569 1.313828 0.000873 0.001375 -17463.000000 1 0 0
-6.917507 12.538787 -9.341105 17.097641 -1.066658 2.148783 0.002016 -0.000703 -1571850.000000 1 0 0
-17.289907 1.571087 5.780895 18.298305 -0.090618 1.249365 0.007512 0.000568 78022.900000 1 0 0
-10.382407 14.237987 -3.160205 17.902557 -0.940738 1.748249 0.014879 -0.009246 155805.000000 1 0 0
-10.059107 8.423687 -13.129405 18.561396 -0.697145 2.356539 -0.010710 -0.000896 273313.000000 1 0 0
-13.844407 11.730287 2.666495 18.340595 -0.702921 1.424892 0.018391 -0.009676 -754767.000000 1 0 0
-16.652507 6.870087 1.894095 18.113301 -0.391283 1.466036 -0.000864 0.001606 907835.000000 1 0 0
-9.327407 13.215687 -8.395105 18.224508 -0.956200 2.049523 0.009077 -0.008183 -1524620.000000 1 0 0
-5.630607 9.878587 -12.889405 17.187989 -1.052742 2.418719 0.002271 -0.004386 -494890.000000 1 0 0
-15.822607 1.949687 3.192795 16.258847 -0.122604 1.373139 0.000032 -0.001670 -143269.000000 1 0 0
-18.791307 -4.822213 4.736795 19.970083 0.251199 1.331319 0.010015 0.003843 331250.000000 1 0 0
-5.202207 14.381587 -9.136205 17.814692 -1.223713 2.109294 0.003299 0.000466 -711235.000000 1 0 0
-15.297707 -0.862013 -6.775205 16.753099 0.056290 1.987135 0.005063 -0.004823 759608.000000 1 0 0
-8.894107 10.981887 -9.602605 17.085579 -0.890055 2.167634 -0.002179 -0.002282 90390.700000 1 0 0
-16.674407 1.176287 -6.086405 17.789430 -0.070428 1.919985 -0.002649 -0.002320 -1220080.000000 1 0 0
-11.067507 8.559887 -1.570805 14.079375 -0.658325 1.682597 0.008518 -0.001516 -670129.000000 1 0 0
-10.790107 10.880487 -12.653005 19.872341 -0.789569 2.261026 -0.002170 -0.011238 -394219.000000 1 0 0
-13.831607 11.686087 -10.659205 21.011821 -0.701516 2.102840 -0.003871 -0.010151 402302.000000 1 0 0
-13.286407 5.774787 -7.623505 16.370541 -0.410006 2.055204 0.009676 0.006413 -1338880.000000 1 0 0
-8.801807 15.301787 -4.884405 18.315947 -1.048801 1.840738 0.010935 -0.005715 558186.000000 1 0 0
-8.777707 6.076387 -12.987905 16.812385 -0.605507 2.453597 0.002711 -0.005291 758970.000000 1 0 0
-16.475507 7.646187 4.351495 18.677313 -0.434513 1.335652 0.017104 0.003100 634014.000000 1 0 0
-12.769607 5.341087 -10.150505 17.164581 -0.396153 2.203545 0.006305 -0.000080 642770.000000 1 0 0
-12.582607 9.192387 -13.196305 20.419707 -0.630945 2.273461 0.006911 -0.008242 -673227.000000 1 0 0
-10.879807 5.158187 -8.384005 14.672036 -0.442719 2.179041 0.001841 0.003866 -522993.000000 1 0 0
-17.784507 -4.468913 -2.744105 18.541575 0.246184 1.719339 0.003710 -0.001874 602604.000000 1 0 0
-8.783307 13.303087 -10.883605 19.302110 -0.987252 2.169843 0.004825 -0.007811 -32280.100000 1 0 0
-14.993107 6.363687 6.122995 17.400599 -0.401397 1.211213 0.000247 -0.003138 -1344250.000000 1 0 0
-16.335607 -3.133613 -4.380705 17.200645 0.189525 1.828316 0.004543 -0.003893 -497691.000000 1 0 0
-11.196007 -1.236013 -12.597805 16.899201 0.109952 2.412032 0.002389 0.002210 860906.000000 1 0 0
-15.444407 6.851487 -8.608305 18.962476 -0.417538 2.042007 0.009710 0.006073 -16223.800000 1 0 0
-14.878807 9.392587 1.128995 17.631626 -0.563097 1.506720 0.012649 -0.005390 -167882.000000 1 0 0
-19.324907 5.435087 8.001595 21.610593 -0.274165 1.191505 0.011441 0.003343 -562487.000000 1 0 0
-16.297107 0.580187 0.915295 16.333098 -0.035586 1.514728 0.005608 -0.001494 -900118.000000 1 0 0
-17.493407 3.795187 7.130395 19.268245 -0.213639 1.191723 0.006131 0.005176 616554.000000 1 0 0
-15.399807 4.012387 -1.526305 15.986961 -0.254881 1.666414 -0.001106 0.004437 -440062.000000 1 0 0
-10.660807 13.347987 0.107095 17.083121 -0.896859 1.564527 0.015941 -0.015381 -796335.000000 1 0 0
-13.390807 3.411187 0.023695 13.818483 -0.249436 1.569082 -0.001159 0.001954 -492901.000000 1 0 0
-15.101307 0.083987 -4.253205 15.689050 -0.005562 1.845326 0.001220 0.000921 -525589.000000 1 0 0
-18.799207 6.854487 3.343895 20.287332 -0.349636 1.405214 0.017478 0.003351 154528.000000 1 0 0
-14.030907 1.360387 -6.214605 15.405789 -0.096654 1.986019 0.004950 0.001822 561383.000000 1 0 0
-14.186707 11.968487 5.215195 19.279668 -0.700791 1.296882 0.006269 -0.013763 138224.000000 1 0 0
17.715493 5.430887 6.358995 19.590049 0.297466 1.240204 0.023087 -0.004569 -558889.000000 1 0 0
18.480793 7.361287 -0.086205 19.893106 0.379058 1.575130 0.008956 0.007881 230647.000000 1 0 0
16.577693 5.148187 8.603095 19.373615 0.301107 1.110669 0.027063 0.001087 338163.000000 1 0 0
11.674393 12.363487 10.884095 20.189373 0.814057 1.001428 0.005710 -0.000760 307671.000000 1 0 0
-2.388407 16.408987 -0.553505 16.591134 -1.426257 1.604164 -0.005214 0.000396 253285.000000 1 0 0
15.118293 12.487387 3.478695 19.914792 0.690382 1.395217 0.026570 -0.003708 414047.000000 1 0 0
13.531393 11.779887 6.721895 19.158502 0.716310 1.212310 0.016702 0.001028 873983.000000 1 0 0
-0.605907 15.784987 8.653995 18.011790 -1.532430 1.069614 -0.005956 -0.000216 -181508.000000 1 0 0
0.807393 12.810787 9.443195 15.935560 1.507855 0.936530 -0.002105 0.000896 -826487.000000 1 0 0
0.829993 15.591687 -4.002905 16.118711 1.517613 1.821762 0.001259 -0.002068 -1339070.000000 1 0 0
5.376893 10.254487 13.484695 17.773646 1.087863 0.709496 -0.001701 -0.003065 562875.000000 1 0 0
-1.187007 16.408987 -2.709905 16.673555 -1.498583 1.734048 -0.001408 -0.003623 319276.000000 1 0 0
8.652793 9.995187 3.277495 13.620446 0.857260 1.327781 0.001107 0.000337 609125.000000 1 0 0
12.736793 13.741487 -4.798905 19.341247 0.823324 1.821533 0.038414 -0.001796 135775.000000 1 0 0
2.472393 11.514087 7.814995 14.133686 1.359281 0.984915 0.002874 0.001850 169062.000000 1 0 0
-0.255107 14.924987 -8.587405 17.221029 -1.553705 2.092846 0.004384 0.005386 -2440510.000000 1 0 0
2.440593 15.905187 0.288695 16.093937 1.418538 1.552857 0.005645 -0.005947 -453201.000000 1 0 0
1.928193 13.326587 5.335195 14.483789 1.427106 1.193556 0.001970 0.004873 171695.000000 1 0 0
17.603393 9.201787 -1.645205 19.931358 0.481664 1.653434 0.003619 0.015014 684971.000000 1 0 0
-7.096807 14.999187 7.329295 18.139979 -1.128862 1.154866 0.004414 -0.006172 -443320.000000 1 0 0
8.600993 15.813587 -0.116605 18.001672 1.072649 1.577274 0.007579 -0.005555 -846101.000000 1 0 0
15.688293 10.234587 2.200295 18.860292 0.578040 1.453867 0.021127 0.002406 996707.000000 1 0 0
14.090393 7.512487 8.797195 18.230943 0.489825 1.067242 0.015508 0.002110 -887364.000000 1 0 0
4.195593 18.499587 -1.827705 19.057235 1.347775 1.666850 0.009333 -0.010110 -428577.000000 1 0 0
-0.448107 17.644587 -4.755105 18.279586 -1.545405 1.833955 0.009864 0.003713 456182.000000 1 0 0
1.397093 13.742587 -0.724705 13.832417 1.469483 1.623212 0.005245 -0.002324 -405851.000000 1 0 0
10.069993 14.582987 4.162595 18.204270 0.966454 1.340095 -0.000942 -0.010798 -283678.000000 1 0 0
-1.645107 15.382687 -5.076205 16.281931 -1.464256 1.887851 0.003576 0.002891 805903.000000 1 0 0
15.209393 8.727887 -6.250205 18.616302 0.520968 1.913185 0.017172 0.004014 619727.000000 1 0 0
-2.357007 18.490087 1.003495 18.666703 -1.444006 1.517012 -0.005137 -0.008789 230536.000000 1 0 0
-3.532707 19.381687 3.497295 20.009020 -1.390505 1.395108 -0.018475 -0.009964 25364.100000 1 0 0
1.842593 17.737587 -2.596305 18.021042 1.467287 1.715370 0.000422 -0.004647 -674007.000000 1 0 0
2.926393 11.988387 3.383795 12.795908 1.331376 1.303169 0.000742 0.002418 -181077.000000 1 0 0
-2.549007 16.176787 1.966895 16.494076 -1.414509 1.451263 -0.005987 -0.004156 -592564.000000 1 0 0
11.839693 12.826787 -2.593205 17.647365 0.825394 1.718276 0.013014 0.006064 548826.000000 1 0 0
7.273093 11.604287 4.720595 14.485903 1.010933 1.238859 -0.006447 0.000706 213343.000000 1 0 0
7.155393 15.709687 1.971795 17.374749 1.143398 1.457065 0.002102 -0.006665 -1922430.000000 1 0 0
5.660493 12.181687 10.368295 16.968683 1.135808 0.913441 0.000410 0.007985 824752.000000 1 0 0
-1.204407 14.251387 3.184095 14.652341 -1.486485 1.351739 -0.004248 0.004099 318653.000000 1 0 0
4.653593 16.121587 1.519695 16.848471 1.289779 1.480476 0.005658 -0.006944 -1655840.000000 1 0 0
7.474593 13.334087 11.850395 19.341646 1.059880 0.911339 0.001987 0.006767 436848.000000 1 0 0
0.464893 17.207787 -9.453505 19.639063 1.543786 2.073005 -0.004162 0.005091 117293.000000 1 0 0
9.806993 9.459387 15.589995 20.705194 0.767358 0.718261 0.011228 0.002507 -396336.000000 1 0 0
13.518593 7.481087 0.004595 15.450535 0.505444 1.570499 0.006117 0.007173 62374.600000 1 0 0
12.509393 13.546787 -0.098705 18.439362 0.825191 1.576149 0.022891 0.001173 754093.000000 1 0 0
9.450293 12.303187 3.390595 15.879943 0.915801 1.355626 0.002183 0.003568 -343790.000000 1 0 0
-0.653707 13.081887 0.741895 13.119204 -1.520867 1.514216 -0.001075 -0.000162 -875697.000000 1 0 0
15.949493 7.363387 -0.774805 17.584257 0.432515 1.614873 0.006543 0.011528 -1189380.000000 1 0 0
-4.261207 18.520487 -2.218305 19.133405 -1.344651 1.686996 0.011313 -0.006417 94173.500000 1 0 0
11.650693 9.235787 -3.263805 15.221394 0.670289 1.786897 0.013493 0.003738 229579.000000 1 0 0
14.699293 9.730787 7.692795 19.233734 0.584758 1.159319 0.019577 -0.005398 349390.000000 1 0 0
4.527193 13.550887 4.598095 15.008814 1.248366 1.259430 0.001534 0.004011 -125948.000000 1 0 0
2.332693 15.847987 5.646195 16.984689 1.424654 1.231919 0.005723 0.002041 -91132.500000 1 0 0
6.188193 18.141887 5.690795 19.995173 1.242072 1.282198 0.012277 -0.019697 -533545.000000 1 0 0
10.790793 17.118487 -0.792005 20.251199 1.008353 1.609915 0.026602 -0.011306 -372931.000000 1 0 0
10.116993 13.569887 -4.466405 17.505546 0.930151 1.828791 0.028352 -0.002071 1958760.000000 1 0 0
16.630993 7.810687 2.494395 18.542350 0.439071 1.435863 0.013312 0.005700 629928.000000 1 0 0
3.990693 13.952887 -0.512205 14.521399 1.292221 1.606076 0.005298 -0.006113 -65431.200000 1 0 0
5.569093 13.035887 -2.395205 14.376583 1.167053 1.738181 0.009803 -0.005861 47127.700000 1 0 0
-6.125507 16.925487 -3.009705 18.249720 -1.223551 1.736471 0.013182 -0.007154 -1362890.000000 1 0 0
18.184793 9.935987 2.747695 20.903597 0.500067 1.438969 0.026806 0.002560 -122947.000000 1 0 0
8.012093 12.765887 9.308995 17.714934 1.010317 1.017507 -0.003172 0.001634 231489.000000 1 0 0
-2.407707 15.780487 6.738695 17.327170 -1.419389 1.171349 -0.009436 0.000715 -1549420.000000 1 0 0
10.740393 16.101287 6.170495 20.314588 0.982527 1.262173 0.001512 -0.005115 18577.100000 1 0 0
13.636893 11.846087 1.425195 18.119763 0.715239 1.492061 0.024631 0.001093 1747620.000000 1 0 0
17.434793 7.646587 -5.643905 19.856887 0.413318 1.858999 -0.005464 0.017348 -701533.000000 1 0 0
9.434393 9.258787 8.047195 15.475473 0.776004 1.023949 -0.004993 0.003363 -568484.000000 1 0 0
-2.046707 14.131887 -1.831705 14.396332 -1.426967 1.698376 -0.005372 0.004520 814152.000000 1 0 0
11.037993 11.612687 0.804295 16.041779 0.810765 1.520638 0.009438 0.006179 -147311.000000 1 0 0
11.829093 9.695887 -0.580005 15.306014 0.686617 1.608699 0.008918 0.008551 -1071250.000000 1 0 0
-0.154907 16.389387 11.129695 19.811767 -1.561345 0.974270 -0.003602 -0.001717 -830073.000000 1 0 0
2.151293 20.045487 -1.477905 20.214693 1.463885 1.643972 0.008750 -0.015562 -383260.000000 1 0 0
9.218793 14.221987 1.740795 17.037647 0.995683 1.468444 0.003075 -0.003488 -184949.000000 1 0 0
8.624693 11.565987 -5.089805 15.299134 0.930056 1.909947 0.019218 -0.002788 261211.000000 1 0 0
10.570893 10.070087 10.276395 17.853703 0.761140 0.957472 -0.004997 0.005745 -660300.000000 1 0 0
-4.971907 15.874987 5.922095 17.658037 -1.267282 1.228791 -0.011081 0.000713 312592.000000 1 0 0
14.389293 9.117087 -1.806005 17.129935 0.564761 1.676422 0.022234 0.012660 -427357.000000 1 0 0
12.127393 9.578387 6.938195 16.939826 0.668499 1.148804 0.001661 0.000845 -811979.000000 1 0 0
3.309193 12.932087 9.718395 16.511718 1.320282 0.941500 0.000877 -0.000286 -391052.000000 1 0 0
8.627393 12.580787 -2.662805 15.485433 0.969692 1.743611 0.018928 -0.000607 -525184.000000 1 0 0
9.535693 16.815987 2.212795 19.457732 1.054949 1.456827 0.005918 -0.010937 485773.000000 1 0 0
9.629093 14.353887 -7.557305 18.864420 0.979913 1.982981 0.023770 -0.004763 615047.000000 1 0 0
6.478893 11.399487 7.318995 15.016392 1.053974 1.061686 -0.006315 0.007157 -820796.000000 1 0 0
5.494793 16.909087 -5.516105 18.615515 1.256600 1.871631 0.005946 0.001882 -818459.000000 1 0 0
-4.016107 17.359987 -4.574205 18.396239 -1.343453 1.822081 0.005243 0.002608 366945.000000 1 0 0
-0.234207 18.569887 -0.423605 18.576194 -1.558185 1.593602 0.000205 -0.006878 -304803.000000 1 0 0
6.689093 15.508587 -2.726505 17.108304 1.163589 1.730846 0.008111 -0.002445 386373.000000 1 0 0
-1.030307 20.706187 1.054995 20.758630 -1.521079 1.519952 -0.001203 -0.008156 -58613.900000 1 0 0
-1.209907 18.867587 4.507795 19.436304 -1.506758 1.336739 -0.008683 -0.003407 395722.000000 1 0 0
7.279393 13.700487 -4.450705 16.140064 1.082405 1.850171 0.015013 -0.000866 852233.000000 1 0 0
-0.997807 12.055287 7.749195 14.365778 -1.488215 1.001048 0.000556 0.007192 441630.000000 1 0 0
7.776193 10.831387 11.078495 17.335546 0.948137 0.877518 -0.005652 0.008478 161837.000000 1 0 0
1.557193 16.031587 -7.220405 17.651370 1.473967 1.992216 -0.002015 0.002925 44517.700000 1 0 0
8.922993 7.149887 14.861295 18.750967 0.675526 0.655798 0.007630 0.005649 395514.000000 1 0 0
11.480393 11.360087 -4.828405 16.857179 0.780131 1.861295 0.015989 0.006638 -514376.000000 1 0 0
-3.281907 17.068787 4.614695 17.983599 -1.380839 1.311288 -0.012581 -0.002082 -191994.000000 1 0 0
3.984393 15.346387 -6.747605 17.231284 1.316774 1.973156 0.002540 -0.001760 -1097050.000000 1 0 0
-4.357907 14.115187 9.464795 17.544578 -1.271342 1.000987 0.001949 -0.003568 -141642.000000 1 0 0
6.330293 17.829887 0.529495 18.927700 1.229640 1.542818 0.000913 -0.008021 90881.700000 1 0 0
9.836193 10.614087 -2.151005 14.629981 0.823418 1.718358 0.014100 0.002095 161261.000000 1 0 0
7.282893 18.048187 -2.618305 19.637543 1.187255 1.704526 0.002393 -0.000803 -80511.300000 1 0 0
3.580493 10.410987 10.585495 15.272894 1.239553 0.805029 -0.002213 0.005930 1212420.000000 1 0 0
0.070893 18.658187 2.186595 18.786010 1.566997 1.454137 0.000664 -0.008219 -42334.300000 1 0 0
-0.943507 17.140987 -7.243405 18.632513 -1.515808 1.970072 0.015368 0.001586 1028320.000000 1 0 0
10.118493 8.738187 13.119295 18.731143 0.712329 0.794838 0.008832 0.002614 266446.000000 1 0 0
3.686993 11.420387 5.567795 13.229493 1.258517 1.136401 -0.001627 0.004326 499059.000000 1 0 0
12.940793 13.913287 8.169395 20.682908 0.821596 1.164747 0.014286 -0.005365 -238773.000000 1 0 0
-0.388207 17.358387 6.848595 18.664607 -1.548436 1.195090 -0.007287 -0.003330 -477740.000000 1 0 0
11.894993 13.705487 5.762595 19.040450 0.856002 1.263324 0.004662 -0.001656 -1086990.000000 1 0 0
4.901493 14.650887 -4.431405 16.072040 1.247949 1.850136 0.006526 -0.001502 -161184.000000 1 0 0
3.894993 17.575387 4.638695 18.589854 1.352705 1.318603 0.012873 -0.007238 -1644560.000000 1 0 0
7.049793 11.718987 2.092995 13.835276 1.029223 1.418934 0.005909 -0.000064 1063200.000000 1 0 0
6.535493 8.553087 11.815595 15.983624 0.918326 0.738868 -0.002122 0.002672 625275.000000 1 0 0
-5.421007 14.857587 1.738795 15.910959 -1.220941 1.461295 0.003712 -0.000789 90256.600000 1 0 0
6.830693 13.651787 5.863195 16.352575 1.106868 1.204084 -0.005887 0.001329 -586072.000000 1 0 0
5.770193 15.753087 4.796295 17.448763 1.219684 1.292333 -0.004354 -0.010103 338401.000000 1 0 0
1.320293 17.940187 4.437595 18.527972 1.497335 1.328937 0.009694 -0.006665 179119.000000 1 0 0
7.395393 17.988987 -6.992705 20.668658 1.180752 1.915932 0.009598 0.001993 624592.000000 1 0 0
-2.329807 18.916187 -5.953505 19.967332 -1.448249 1.873563 0.011251 0.003315 -1468250.000000 1 0 0
13.586993 9.948187 -4.615405 17.460663 0.632001 1.838307 0.019890 0.008327 -1592620.000000 1 0 0
-1.591407 18.027987 9.778195 20.570707 -1.482750 1.075440 0.001685 -0.012477 -509342.000000 1 0 0
3.424493 11.702887 -1.519305 12.287921 1.286124 1.694756 0.009323 -0.003120 523271.000000 1 0 0
4.347393 14.002987 -10.818905 18.221750 1.269769 2.206490 0.002994 -0.009146 -660681.000000 1 0 0
11.602293 13.411287 2.420295 17.897867 0.857593 1.435153 0.014056 0.000293 321651.000000 1 0 0
15.762593 6.190587 -7.009405 18.327969 0.374231 1.963235 -0.006890 -0.002812 18177.800000 1 0 0
2.453493 16.109487 2.972695 16.564182 1.419657 1.390353 0.004499 -0.003328 -63080.300000 1 0 0
13.523693 10.483587 3.609595 17.487854 0.659436 1.362896 0.013209 0.004772 -1555760.000000 1 0 0
-4.745107 19.701987 -5.602405 21.025491 -1.334453 1.840512 0.004121 -0.002609 84881.900000 1 0 0
5.479293 11.967087 0.099895 13.162211 1.141422 1.563207 0.009840 -0.004064 -640137.000000 1 0 0
4.978093 15.261387 9.602195 18.705440 1.255490 1.031728 0.007788 -0.002980 -116204.000000 1 0 0
7.755393 9.326387 14.012895 18.533452 0.877109 0.713483 -0.007382 0.002702 -1252000.000000 1 0 0
-4.926807 13.610287 7.081095 16.113822 -1.223479 1.115819 -0.002455 0.002124 -1049550.000000 1 0 0
-4.586207 17.187887 0.684095 17.802380 -1.310043 1.532360 0.003887 -0.004135 -1490020.000000 1 0 0
-0.577907 16.583587 3.631995 16.986486 -1.535962 1.355316 -0.002403 -0.002070 -1760850.000000 1 0 0
7.951593 16.697187 -4.802105 19.107174 1.126350 1.824845 0.009252 0.001129 873582.000000 1 0 0
3.072293 16.582487 -4.607205 17.482683 1.387600 1.837476 -0.001232 0.001308 418476.000000 1 0 0
9.679393 14.430087 8.236195 19.228962 0.979952 1.128161 0.011298 0.002954 336964.000000 1 0 0
12.771093 10.803487 9.074395 19.030522 0.702128 1.073747 0.014260 -0.005656 663543.000000 1 0 0
3.731793 12.433887 12.254795 17.852390 1.279220 0.814199 0.001759 0.005333 592068.000000 1 0 0
-3.312907 19.208887 6.072495 20.416461 -1.400009 1.268795 -0.008410 -0.009655 145624.000000 1 0 0
-2.565807 15.753887 10.380095 19.039819 -1.409346 0.994195 0.000601 -0.003778 -158664.000000 1 0 0
2.102893 14.174987 7.710895 16.272993 1.423518 1.077143 0.004138 0.004448 -41017.400000 1 0 0
4.516193 17.242387 7.912095 19.501209 1.314627 1.153026 0.016196 -0.005061 -75736.900000 1 0 0
-1.788707 13.500487 9.568395 16.643822 -1.439071 0.958325 -0.000069 0.000490 -984087.000000 1 0 0
5.964793 17.690287 3.132295 18.929772 1.245589 1.404563 0.004034 -0.011869 560396.000000 1 0 0
7.169693 15.286587 -6.909105 18.243354 1.132240 1.959208 0.011145 -0.002302 -176720.000000 1 0 0
10.960293 7.601787 9.331995 16.278861 0.606401 0.960319 0.003378 0.000109 -134427.000000 1 0 0
9.147393 16.247587 -2.640005 18.831583 1.058027 1.711450 0.016060 -0.007516 -890321.000000 1 0 0
14.636693 11.329687 -6.556505 19.636251 0.658723 1.911232 0.033497 0.005961 691644.000000 1 0 0
11.032293 6.256787 16.178995 20.557693 0.515903 0.664858 0.020618 -0.006389 -574653.000000 1 0 0
8.557793 8.402787 10.209995 15.750766 0.776259 0.865549 -0.001376 0.004502 -314827.000000 1 0 0
16.487393 9.325887 4.589995 19.490365 0.514770 1.333063 0.029972 0.001845 137333.000000 1 0 0
-3.305007 14.434187 4.669295 15.526466 -1.345706 1.265337 -0.007053 0.005988 -1175090.000000 1 0 0
4.650393 14.944287 12.512095 20.037724 1.269113 0.896399 -0.000458 0.008073 -292385.000000 1 0 0
16.159293 10.580287 -4.661505 19.869445 0.579707 1.807610 0.032789 0.006771 514866.000000 1 0 0
14.388293 14.094787 6.083095 21.040200 0.775094 1.277491 0.012161 -0.001916 -470542.000000 1 0 0
6.342193 9.499587 9.355795 14.764703 0.982128 0.884522 -0.000795 0.006538 232254.000000 1 0 0
10.496693 12.075687 8.651695 18.189409 0.855237 1.075100 0.003012 0.000608 -1843690.000000 1 0 0
8.046493 11.563287 -0.385405 14.092700 0.962851 1.598148 0.011154 -0.001768 1612810.000000 1 0 0
7.522093 13.427387 -8.693705 17.676456 1.060152 2.084980 0.015949 -0.004444 -779159.000000 1 0 0
2.790493 15.327487 -2.289205 15.746719 1.390711 1.716690 0.002144 -0.003395 375018.000000 1 0 0
12.212893 13.801387 -7.581805 19.927790 0.846385 1.961094 0.021898 -0.005632 443863.000000 1 0 0
-7.951007 14.724887 9.790895 19.388204 -1.075686 1.041423 0.007235 -0.010375 127152.000000 1 0 0
11.571693 9.481187 2.169795 15.116381 0.686425 1.426759 0.011025 0.006282 -2154350.000000 1 0 0
12.061393 8.652287 4.538495 15.522152 0.622278 1.274073 0.003330 0.001803 -21399.800000 1 0 0
14.039493 7.939587 6.100395 17.244107 0.514679 1.209201 0.010168 -0.001860 -759774.000000 1 0 0
16.178193 7.344387 7.299595 19.208280 0.426149 1.180975 0.028843 -0.001835 241192.000000 1 0 0
13.627193 8.112787 2.533395 16.060379 0.536985 1.412393 0.005646 0.007633 -2138090.000000 1 0 0
-4.255907 17.609787 -7.135805 19.471442 -1.333665 1.946014 0.008373 -0.000133 91619.100000 1 0 0
3.096993 19.739487 -3.851105 20.348703 1.415172 1.761200 -0.006608 0.000241 404616.000000 1 0 0
-0.019007 14.807987 6.338495 16.107556 -1.569513 1.166349 -0.000407 0.002846 -108458.000000 1 0 0
6.827493 16.160087 8.119195 19.330918 1.171053 1.137339 0.010115 0.001533 -1108160.000000 1 0 0
12.939493 15.200187 -1.971805 20.059017 0.865564 1.669256 0.041115 -0.006669 579900.000000 1 0 0
12.391993 15.801687 4.307695 20.538039 0.905752 1.359485 0.020050 -0.011015 -376594.000000 1 0 0
2.919593 18.116887 1.419695 18.405465 1.411017 1.493585 0.009866 -0.008769 -135570.000000 1 0 0
10.482493 14.591987 -1.255805 18.010713 0.947845 1.640578 0.020104 0.006595 -1412040.000000 1 0 0
-6.328307 15.801387 -0.608705 17.032376 -1.189867 1.606542 0.005471 -0.004957 -148812.000000 1 0 0
-3.807007 15.908187 -2.639005 16.568888 -1.335903 1.730752 -0.000532 0.001004 -1198750.000000 1 0 0
-6.909107 16.998487 1.589395 18.417668 -1.184738 1.484392 0.010244 -0.007345 -206530.000000 1 0 0
0.180993 19.339687 -6.541805 20.416941 1.561438 1.896959 0.011564 -0.002606 -452869.000000 1 0 0
4.876893 14.748087 7.043695 17.055902 1.251436 1.145076 0.005519 0.001161 -734550.000000 1 0 0
8.725293 12.369387 6.853995 16.616549 0.956459 1.145622 -0.003148 0.002386 -1469550.000000 1 0 0
-7.633007 17.506887 -5.577505 19.896292 -1.159645 1.854933 0.022321 -0.006628 346042.000000 1 0 0
-7.829707 17.836087 -1.309005 19.522905 -1.157143 1.637896 0.018098 -0.010869 327810.000000 1 0 0
-13.768907 -8.978213 9.152895 18.814000 0.577825 1.062724 0.008578 -0.014445 -885752.000000 1 0 0
-12.736107 -12.943813 7.746395 19.742273 0.793486 1.167583 0.023144 -0.003885 168392.000000 1 0 0
-3.999307 -14.950913 12.450195 19.862820 1.309420 0.893345 -0.003466 -0.009094 243474.000000 1 0 0
-2.160407 -14.278213 14.791795 20.672008 1.420627 0.773389 -0.009099 -0.004436 -896896.000000 1 0 0
-7.100307 -13.769313 12.538395 19.930371 1.094698 0.890389 0.010337 -0.012053 478881.000000 1 0 0
-9.863307 -11.474613 8.976895 17.593641 0.860769 1.035338 0.007612 -0.007227 142156.000000 1 0 0
-10.735607 -10.572513 11.236595 18.796073 0.777744 0.930022 0.020844 -0.010882 156636.000000 1 0 0
-5.804207 -12.345813 10.642495 17.302330 1.131324 0.908296 0.004448 -0.005663 319781.000000 1 0 0
-12.474007 -10.359513 7.346495 17.801443 0.693057 1.145390 0.009686 -0.003991 -391214.000000 1 0 0
-7.802207 -11.396913 12.092795 18.357553 0.970488 0.851658 0.011058 -0.011547 -345106.000000 1 0 0
-14.797707 -11.371213 7.252395 20.021835 0.655201 1.200143 0.007521 -0.006241 -33165.100000 1 0 0
-11.132107 -9.159713 9.164895 17.082724 0.688501 1.004511 0.014366 -0.008309 -495710.000000 1 0 0
-5.458107 -11.755213 13.148995 18.462720 1.136103 0.778181 0.004679 -0.009577 -137220.000000 1 0 0
3.840693 -12.344013 14.978395 19.785800 -1.269153 0.712045 -0.007908 -0.008939 -380684.000000 1 0 0
6.290893 -12.940413 14.165395 20.191286 -1.118296 0.793212 -0.001060 0.000748 135732.000000 1 0 0
6.715293 -8.533713 15.916095 19.267628 -0.904086 0.598727 0.003445 -0.008702 629032.000000 1 0 0
0.720693 -1.713213 14.479595 14.598396 -1.172601 0.127664 -0.002654 -0.000286 -3835490.000000 1 0 0
-0.042307 -6.350813 15.565595 16.811376 1.564135 0.387394 0.000346 -0.003420 -409871.000000 1 0 0
-1.456607 -4.842013 18.409695 19.091455 1.278581 0.268048 0.002298 -0.014495 -1721110.000000 1 0 0
-5.253507 12.416787 13.055795 18.767784 -1.170539 0.801473 0.006720 -0.013952 96393.500000 1 0 0
-4.012707 8.842187 11.730595 15.228032 -1.144775 0.691439 0.000462 -0.000766 -286500.000000 1 0 0
-0.568107 -3.915213 15.101295 15.610918 1.426699 0.256220 0.000360 -0.000447 138762.000000 1 0 0
-4.426207 9.199587 14.312295 17.580259 -1.122357 0.619598 0.004608 -0.006988 232113.000000 1 0 0
-13.259807 -2.297813 16.921695 21.620504 0.171588 0.671854 -0.002674 0.009754 -484349.000000 1 0 0
-0.183307 0.946787 17.299495 17.326354 -1.379553 0.055688 0.005949 -0.003588 -588298.000000 1 0 0
-3.188307 -7.325913 15.527795 17.462724 1.160310 0.475210 0.003058 -0.003314 591867.000000 1 0 0
-7.402707 5.653587 12.581095 15.653980 -0.652224 0.637310 0.000960 -0.002704 -2562330.000000 1 0 0
-9.789007 10.057487 13.546095 19.505753 -0.798925 0.803118 0.007449 -0.013465 250508.000000 1 0 0
-5.514607 2.290287 11.137995 12.637691 -0.393637 0.492124 0.001726 0.001293 -865680.000000 1 0 0
-7.182307 -7.309113 16.875495 19.743126 0.794148 0.545722 -0.000308 -0.006843 -160111.000000 1 0 0
-4.650607 2.930087 18.650195 19.443337 -0.562218 0.286611 0.007814 -0.009623 -623133.000000 1 0 0
1.009893 -8.405613 16.527195 18.569394 -1.451224 0.473400 -0.005310 -0.001352 580472.000000 1 0 0
-14.761607 -3.651013 14.100895 20.738134 0.242466 0.823102 -0.000850 0.003538 319200.000000 1 0 0
-14.325607 2.331087 13.082695 19.540059 -0.161308 0.837218 0.008009 0.002642 -175551.000000 1 0 0
-5.487807 0.884787 16.046995 16.982489 -0.159852 0.333464 0.008075 -0.005702 326647.000000 1 0 0
4.418193 5.602987 15.028295 16.636212 0.903081 0.443283 -0.009400 0.000370 -299521.000000 1 0 0
-1.094407 -12.034213 13.803795 18.345702 1.480104 0.719058 -0.007139 -0.002854 -132984.000000 1 0 0
-5.874307 -4.118813 16.767995 18.238360 0.611502 0.404293 0.008822 -0.007122 419004.000000 1 0 0
-13.143507 -1.528913 9.907095 16.529970 0.115804 0.928118 0.012946 -0.000239 -792962.000000 1 0 0
-14.240507 10.676087 10.376895 20.602205 -0.643308 1.042944 -0.008815 0.000743 299375.000000 1 0 0
-3.504407 -3.468513 17.774695 18.445900 0.780251 0.270594 0.006553 -0.010729 -665953.000000 1 0 0
-7.854407 9.294087 11.907395 17.025211 -0.869155 0.796242 -0.003995 -0.010657 53265.100000 1 0 0
-4.338607 10.454487 16.496495 20.006353 -1.177427 0.601367 0.005768 -0.007472 197257.000000 1 0 0
-12.517107 12.674887 8.209495 19.614447 -0.791661 1.138956 0.004224 -0.012697 299172.000000 1 0 0
-12.489507 3.275687 10.403195 16.581447 -0.256498 0.892587 0.007060 -0.001925 371993.000000 1 0 0
-10.046307 -3.494413 13.726395 17.365285 0.334741 0.659253 0.004233 0.000729 -874255.000000 1 0 0
-4.376607 -6.592413 17.831695 19.508561 0.984722 0.417650 0.001681 -0.002797 -230476.000000 1 0 0
0.849293 -3.827213 17.956895 18.379851 -1.352426 0.214945 0.000399 -0.010045 -888479.000000 1 0 0
-5.958407 1.870787 13.639895 15.001640 -0.304227 0.429373 0.005359 0.000733 -554170.000000 1 0 0
-10.561407 8.575687 10.240795 17.028201 -0.682005 0.925541 0.009375 -0.016633 96546.700000 1 0 0
4.506093 2.494387 17.345395 18.093910 0.505571 0.288641 -0.006366 -0.002096 -1578410.000000 1 0 0
0.569693 -5.254013 13.249795 14.264861 -1.462788 0.379523 -0.001215 -0.000004 -1869300.000000 1 0 0
-3.868107 5.516687 20.928395 21.986219 -0.959289 0.311461 0.013448 -0.007572 -109545.000000 1 0 0
-10.777107 10.850187 8.986495 17.737804 -0.788777 1.039525 0.008915 -0.014750 107970.000000 1 0 0
0.730693 4.301387 13.186895 13.889926 1.402529 0.319522 0.004170 -0.002611 -1473060.000000 1 0 0
-3.076707 7.215187 13.457695 15.576733 -1.167723 0.527712 0.004603 -0.000667 -473503.000000 1 0 0
0.837793 8.923987 14.050095 16.665672 1.477190 0.567856 0.004726 -0.003252 229462.000000 1 0 0
-4.104707 -6.724213 13.120995 15.304384 1.022738 0.540725 0.007323 -0.002426 418102.000000 1 0 0
-5.112707 8.057487 16.553195 19.106835 -1.005374 0.522950 0.014160 -0.005830 176372.000000 1 0 0
1.396293 -10.803813 15.848595 19.231484 -1.442268 0.602191 -0.015246 0.001467 -352284.000000 1 0 0
-15.168807 -1.152613 14.538195 21.042347 0.075840 0.808061 0.018072 0.008470 1190420.000000 1 0 0
-13.550507 -5.198613 8.423995 16.781106 0.366330 1.044895 0.007530 -0.003629 -763969.000000 1 0 0
-14.198607 -1.964113 12.235695 18.845966 0.137459 0.864202 0.013220 0.005572 440803.000000 1 0 0
9.229493 1.216887 16.920895 19.312717 0.131092 0.502974 0.017185 -0.008602 -19493.200000 1 0 0
5.042593 -6.760913 16.706195 18.714557 -0.929960 0.467529 -0.003369 -0.012206 558395.000000 1 0 0
-6.049307 -2.632313 11.226795 13.021679 0.410430 0.531275 0.004974 -0.001223 -135667.000000 1 0 0
0.631493 -6.411113 18.054995 19.169872 -1.472613 0.342726 -0.000835 -0.007424 -484450.000000 1 0 0
-8.378407 11.793787 12.227195 18.941896 -0.953119 0.869105 0.000950 -0.013266 -100347.000000 1 0 0
-6.592107 -5.869913 14.807495 17.238726 0.727511 0.537548 0.009842 -0.003597 -1138280.000000 1 0 0
-4.018607 -9.116813 17.270795 19.938552 1.155627 0.523247 -0.002206 0.000644 461246.000000 1 0 0
2.494293 -6.236913 16.279795 17.611142 -1.190355 0.391328 -0.004265 -0.004755 -1499970.000000 1 0 0
2.227793 5.233887 16.136295 17.109549 1.168377 0.338914 -0.003242 -0.001189 -1901300.000000 1 0 0
0.806993 -9.008713 13.996795 16.664886 -1.481456 0.573702 -0.004761 0.000854 -705628.000000 1 0 0
-9.862007 -2.778013 11.298795 15.252518 0.274574 0.736562 -0.002281 0.000398 314282.000000 1 0 0
-1.249507 10.118087 12.410695 16.061205 -1.447926 0.687693 0.002353 -0.003324 -471796.000000 1 0 0
-12.382607 -3.579613 11.360695 17.181618 0.281412 0.848363 0.008356 -0.000780 -1744950.000000 1 0 0
-1.887907 6.819487 19.880495 21.102220 -1.300720 0.341944 0.008584 -0.003224 -464449.000000 1 0 0
0.132793 -13.487713 15.680295 20.683513 -1.560951 0.710392 -0.013886 -0.006273 -705204.000000 1 0 0
4.065593 -8.804313 15.389495 18.190149 -1.138195 0.562294 -0.010080 -0.000303 152192.000000 1 0 0
4.366393 -4.415813 16.234295 17.381517 -0.791025 0.365353 -0.004403 -0.001428 -445003.000000 1 0 0
7.913293 1.658687 14.835595 16.895749 0.206616 0.498989 -0.002094 0.001133 56528.300000 1 0 0
-6.250607 -0.103213 11.918995 13.458945 0.016511 0.483051 0.004811 -0.000194 86581.100000 1 0 0
-3.202407 -10.959013 18.965295 22.136797 1.286495 0.541897 -0.006799 0.008672 815107.000000 1 0 0
3.206193 -1.412713 13.563595 14.008802 -0.415026 0.252786 -0.003167 -0.000174 -13895.500000 1 0 0
-2.519107 8.584787 15.993395 18.325751 -1.285370 0.510034 0.005841 -0.003251 1237270.000000 1 0 0
-3.259307 4.030287 14.915895 15.790827 -0.890771 0.334446 0.008671 -0.001042 35154.000000 1 0 0
-4.642907 -8.956613 19.902795 22.313645 1.092555 0.469143 0.009961 -0.002613 93159.200000 1 0 0
-5.719607 -2.983413 19.080495 20.141498 0.480787 0.326026 0.004847 -0.015435 -835886.000000 1 0 0
-6.593707 -8.608313 11.076895 15.500891 0.917153 0.774748 0.002034 -0.003511 -889258.000000 1 0 0
-11.726507 2.562387 12.656195 17.442938 -0.215131 0.758924 0.013261 -0.004960 -146957.000000 1 0 0
-11.468707 -7.578113 11.759595 18.089973 0.583905 0.863131 0.002862 -0.004896 272581.000000 1 0 0
-11.061207 -7.250213 15.589995 20.444164 0.580206 0.703528 0.019787 -0.011640 103690.000000 1 0 0
0.345493 5.903087 17.774295 18.732095 1.512336 0.321164 0.003133 0.002415 -163613.000000 1 0 0
-2.280407 -0.282813 13.200895 13.399398 0.123389 0.172343 -0.000752 0.002311 21525.200000 1 0 0
-5.769907 -10.768013 18.441795 22.121070 1.078891 0.585066 -0.013361 0.014759 -174700.000000 1 0 0
0.334193 2.754687 19.159595 19.359496 1.450068 0.143830 0.008256 -0.007560 -734467.000000 1 0 0
-0.639307 10.947287 14.854895 18.464011 -1.512464 0.635909 0.000395 0.000106 780541.000000 1 0 0
-12.626307 -1.998913 14.313795 19.191248 0.157010 0.728986 0.002978 0.002293 -208897.000000 1 0 0
-13.443507 8.595287 11.711395 19.793020 -0.568861 0.937639 -0.006675 -0.013362 182703.000000 1 0 0
-18.102207 -0.476913 7.048795 19.432006 0.026339 1.199588 0.009377 0.000167 -431065.000000 1 0 0
-1.999507 -7.670013 17.722795 19.414546 1.315781 0.420557 0.000235 -0.006090 -2901090.000000 1 0 0
5.586293 2.716187 14.563095 15.832501 0.452566 0.403168 -0.002393 -0.001459 -2182230.000000 1 0 0
-13.895807 -6.788613 11.002195 18.979648 0.454435 0.952456 -0.007694 -0.008435 729408.000000 1 0 0
3.411593 7.667187 16.284995 18.320092 1.152141 0.475826 -0.001374 -0.005782 -331990.000000 1 0 0
0.997093 2.137887 14.644195 14.832977 1.134395 0.159714 -0.000826 -0.004210 -1826850.000000 1 0 0
-14.441307 0.815787 9.897395 17.526417 -0.056430 0.970711 0.007449 0.002835 -1195970.000000 1 0 0
-9.495207 -5.165713 15.564695 18.950021 0.498251 0.607014 0.003498 0.000827 -243423.000000 1 0 0
-2.467007 -0.139913 18.132695 18.300282 0.056653 0.135437 0.005494 -0.009840 136283.000000 1 0 0
6.875093 3.597587 17.678895 19.306809 0.482096 0.413595 0.009209 0.003345 36003.800000 1 0 0
-4.183707 -0.967513 14.782295 15.393367 0.227262 0.282710 0.007381 -0.000943 -1064280.000000 1 0 0
4.818393 -9.081613 17.786895 20.544251 -1.082996 0.524080 -0.004363 -0.004732 -203891.000000 1 0 0
2.004393 6.967787 13.464695 15.292667 1.290694 0.493949 0.005777 0.000303 -1153620.000000 1 0 0
-3.664307 -0.903213 20.317995 20.665524 0.241672 0.183653 0.004829 -0.015528 -1153790.000000 1 0 0
-10.581607 1.852387 16.316295 19.535179 -0.173301 0.582252 0.009904 -0.005126 -314811.000000 1 0 0
-4.128607 6.851387 18.659795 20.302090 -1.028471 0.404988 0.022417 -0.006951 -655748.000000 1 0 0
-12.600007 1.218287 14.710095 19.406991 -0.096390 0.710587 0.011308 0.000798 -65781.500000 1 0 0
-16.059107 -4.825013 8.451695 18.777828 0.291873 1.103931 0.004504 -0.005836 -781519.000000 1 0 0
-2.284407 0.686087 15.695595 15.875797 -0.291764 0.150813 0.007503 -0.001660 218195.000000 1 0 0
-13.528507 -8.896013 12.616995 20.526766 0.581682 0.908841 -0.018748 -0.008625 369927.000000 1 0 0
5.949293 -3.166213 14.579095 16.061413 -0.489074 0.433004 -0.006146 -0.000532 1080890.000000 1 0 0
-15.779007 0.517187 7.679295 17.556085 -0.032765 1.118074 0.005424 0.002688 332843.000000 1 0 0
-14.211707 6.110787 12.446195 19.855027 -0.406083 0.893288 0.012932 -0.008887 -223097.000000 1 0 0
0.801993 9.425487 16.520795 19.037323 1.485913 0.520017 0.002168 -0.008878 -388115.000000 1 0 0
-10.375407 -5.391413 10.818695 15.929864 0.479231 0.824199 0.004708 -0.004392 347539.000000 1 0 0
-3.210007 -11.092313 15.030095 18.953821 1.289101 0.655103 -0.002644 -0.002019 -800206.000000 1 0 0
-3.465707 2.755287 12.645795 13.398465 -0.671694 0.336778 0.003362 0.000816 -1454970.000000 1 0 0
-12.342107 -7.687113 7.415395 16.321991 0.557042 1.099188 0.009422 -0.004699 -338940.000000 1 0 0
-8.140807 -1.806713 13.290995 15.690363 0.218393 0.560329 0.005412 -0.000636 -291194.000000 1 0 0
-9.774007 6.354487 9.549695 15.070083 -0.576475 0.884488 0.001188 -0.007006 -1135600.000000 1 0 0
-17.959907 -3.395613 6.697595 19.466541 0.186861 1.219562 -0.004436 -0.005021 245893.000000 1 0 0
-1.212907 -0.028813 20.409795 20.445824 0.023751 0.059375 0.005947 -0.012600 -1295220.000000 1 0 0
-2.734407 2.449287 20.179295 20.510484 -0.730450 0.179950 0.009649 -0.009926 -724891.000000 1 0 0
-3.835207 11.304487 11.196495 16.366482 -1.243718 0.817412 0.001628 -0.006654 -339380.000000 1 0 0
-4.191207 -4.853013 14.949795 16.266970 0.858442 0.405190 0.008931 -0.003472 144609.000000 1 0 0
-0.153307 -14.430213 13.279495 19.611210 1.560173 0.826930 -0.009576 -0.009472 -111643.000000 1 0 0
-12.287207 0.478287 8.378695 14.879743 -0.038906 0.972671 0.009210 -0.003408 -236170.000000 1 0 0
-7.879007 2.087587 15.476795 17.491940 -0.259004 0.484741 0.007327 -0.000599 604400.000000 1 0 0
3.311193 -2.303213 18.613495 19.045498 -0.607756 0.213396 -0.001452 0.001252 -91396.300000 1 0 0
-2.069607 4.966587 12.711195 13.803070 -1.175972 0.400423 0.004621 -0.000136 -239166.000000 1 0 0
-10.332707 -6.123513 13.299095 17.920050 0.534986 0.734546 0.002794 -0.007767 -667404.000000 1 0 0
2.448193 -3.685013 14.142295 14.818147 -0.984389 0.303186 -0.005062 -0.001368 -244132.000000 1 0 0
6.621993 1.041787 17.067195 18.336446 0.156043 0.374256 -0.002594 0.000374 -711577.000000 1 0 0
-1.902507 -5.747013 13.925095 15.184069 1.251109 0.410088 0.001332 -0.000831 -717506.000000 1 0 0
-12.907107 3.774487 14.676995 19.906139 -0.284502 0.741717 0.005892 0.002205 7601.220000 1 0 0
-13.220807 -6.439613 13.463795 19.938208 0.453260 0.829457 -0.004950 -0.006124 -403804.000000 1 0 0
-9.556507 6.928087 12.022495 16.848312 -0.627282 0.776212 0.002818 -0.005490 -425782.000000 1 0 0
-1.028507 -2.547913 12.906795 13.196024 1.187133 0.209754 -0.002007 0.001900 375380.000000 1 0 0
0.191993 6.701687 15.329195 16.731219 1.542156 0.412296 0.005851 -0.003139 388079.000000 1 0 0
-16.421807 -0.854813 9.738995 19.111632 0.052007 1.036094 0.002282 0.005461 -282695.000000 1 0 0
-1.287607 2.845587 13.931195 14.277027 -1.145871 0.220551 0.003358 -0.000997 -2008610.000000 1 0 0
-11.068807 -3.246013 16.139095 19.837477 0.285260 0.620538 0.002430 -0.005222 169057.000000 1 0 0
-5.077607 -1.479613 17.185795 17.981182 0.283548 0.298545 0.011168 -0.005149 292520.000000 1 0 0
-11.910607 6.512387 11.127895 17.552886 -0.500362 0.884128 0.008709 -0.009741 -1627300.000000 1 0 0
-2.658307 4.661187 18.712995 19.467138 -1.052496 0.279256 0.014042 -0.007185 201807.000000 1 0 0
5.050193 -1.965313 16.676995 17.535366 -0.371123 0.314183 -0.004430 0.001633 -836440.000000 1 0 0
-7.999507 -4.126213 12.126495 15.101974 0.476214 0.638528 0.007370 0.001052 -1895540.000000 1 0 0
-11.463507 -0.640913 16.205895 19.860861 0.055851 0.616389 0.011710 0.002930 180463.000000 1 0 0
2.110093 2.077387 17.402195 17.652321 0.777588 0.168542 -0.003383 -0.005126 -1884670.000000 1 0 0
-8.779407 -7.337713 11.728795 16.385501 0.696184 0.773023 0.004591 -0.007331 -604327.000000 1 0 0
-7.318207 6.874387 14.926695 17.989430 -0.754137 0.592140 0.006122 -0.008668 -304931.000000 1 0 0
-5.729307 3.383587 15.866595 17.205303 -0.533461 0.397085 0.008553 -0.006074 411655.000000 1 0 0
-9.300607 4.265087 11.598995 15.467028 -0.429967 0.722859 0.003318 -0.004586 -39189.500000 1 0 0
-10.196007 0.456887 14.136495 17.435820 -0.044780 0.625325 0.007671 0.000584 -98303.800000 1 0 0
7.900993 -0.818913 15.693595 17.589350 -0.103278 0.468556 -0.002829 -0.004379 4439.090000 1 0 0
-8.620907 -7.475313 14.685295 18.597264 0.714346 0.660561 0.011129 -0.004631 -909753.000000 1 0 0
-0.090207 4.221887 15.738895 16.295560 -1.549433 0.262133 0.002470 -0.002889 -13580.300000 1 0 0
-8.015507 3.132087 9.641995 12.923869 -0.372510 0.728669 0.001757 -0.003555 -782954.000000 1 0 0
-2.215807 -9.727613 13.112695 16.476621 1.346832 0.650409 -0.006866 -0.000248 587639.000000 1 0 0
-6.030707 10.172887 10.470195 15.795001 -1.035672 0.846137 -0.001678 -0.008580 -2870440.000000 1 0 0
-8.556907 -2.806313 15.703595 18.102457 0.316906 0.520674 0.007780 -0.003542 -893954.000000 1 0 0
4.347193 5.609887 17.623395 18.998762 0.911539 0.382840 -0.004066 -0.001531 -287617.000000 1 0 0
-6.760707 -1.019113 15.255095 16.717167 0.149614 0.421343 0.004653 -0.001526 -895252.000000 1 0 0
-0.993707 -9.857913 15.411395 18.321490 1.470333 0.571363 -0.004859 -0.001708 -1298670.000000 1 0 0
-4.427307 5.633387 16.301595 17.806687 -0.904709 0.414107 0.010750 -0.007686 -176676.000000 1 0 0
3.662093 0.041687 17.472895 17.852583 0.011383 0.206610 -0.006615 -0.002273 -809213.000000 1 0 0
1.388193 0.438687 19.370095 19.424729 0.306082 0.075019 -0.002769 0.000568 -680666.000000 1 0 0
-6.472407 6.282687 17.819795 19.972714 -0.770525 0.468588 0.023039 -0.015186 -1220590.000000 1 0 0
-12.193807 0.686587 10.998395 16.435481 -0.056247 0.837683 0.013080 0.000072 -193614.000000 1 0 0
-5.460307 5.121487 14.021595 15.894959 -0.753390 0.490407 0.005393 -0.002394 -1051050.000000 1 0 0
-8.729807 -9.405513 10.072595 16.313503 0.822640 0.905313 0.013046 -0.004807 -776682.000000 1 0 0
6.868093 -3.793713 16.971995 18.697903 -0.504659 0.433038 -0.001242 -0.001591 -222910.000000 1 0 0
-16.831107 1.741887 9.743995 19.526028 -0.103125 1.048322 0.006570 0.005075 164592.000000 1 0 0
-4.109307 -9.652313 11.174995 15.327559 1.168305 0.753822 -0.000881 0.001086 702693.000000 1 0 0
-11.105307 -3.665713 9.246195 14.908301 0.318826 0.901793 0.006807 -0.001171 -347965.000000 1 0 0
3.749493 -5.514213 18.610895 19.769437 -0.973641 0.344047 -0.003519 -0.002954 4183.810000 1 0 0
2.517393 -2.017313 16.135095 16.454425 -0.675564 0.197332 -0.001927 -0.003230 -9973.680000 1 0 0
-3.149707 -4.375213 20.244695 20.950199 0.946840 0.260254 0.002954 -0.012340 -954364.000000 1 0 0
-6.291707 -3.438913 14.384495 16.072505 0.500213 0.462420 0.007079 -0.001814 -81663.200000 1 0 0
-9.598107 5.259287 13.979695 17.754313 -0.501268 0.664221 0.012648 -0.006685 -27229.100000 1 0 0
-5.766707 -5.242913 11.870095 14.200078 0.737858 0.580994 0.005727 0.000656 -1010780.000000 1 0 0
5.987593 1.766787 19.435295 20.413317 0.286932 0.310801 0.003691 -0.005136 90258.300000 1 0 0
-2.801207 11.849387 13.581395 18.240313 -1.338657 0.730889 -0.000014 -0.009833 797595.000000 1 0 0
3.368293 1.297887 15.201095 15.623802 0.367792 0.233145 -0.004856 -0.001599 -923819.000000 1 0 0
-5.676707 7.451287 12.921895 15.960014 -0.919759 0.627255 -0.001851 -0.007656 -1553420.000000 1 0 0
-1.748407 -1.755913 15.264995 15.464806 0.787540 0.160924 0.003535 -0.001488 -409460.000000 1 0 0
-7.315007 10.441787 14.221695 19.099656 -0.959700 0.730854 0.015180 -0.014559 181251.000000 1 0 0
-10.129407 2.143987 10.671595 14.868911 -0.208581 0.770285 0.007801 -0.002209 -2540250.000000 1 0 0
-13.528307 5.390487 9.015695 17.127615 -0.379178 1.016455 0.000973 -0.008017 -70752.600000 1 0 0
0.482093 -5.020213 20.235095 20.854113 -1.475060 0.244259 0.001143 -0.009334 -122969.000000 1 0 0
-14.399907 -2.949713 7.586195 16.541115 0.202047 1.094347 0.008852 -0.004597 379973.000000 1 0 0
-2.260807 2.366387 17.615495 17.916939 -0.808211 0.183695 0.004747 -0.007852 -360816.000000 1 0 0
-6.251707 -8.532313 14.805395 18.195712 0.938453 0.620350 0.005618 0.000334 -187914.000000 1 0 0
-7.978907 1.951887 12.035095 14.571079 -0.239919 0.598897 0.003230 -0.000537 -241845.000000 1 0 0
-14.639607 -3.601313 10.220795 18.214066 0.241208 0.975024 0.016385 0.000144 208667.000000 1 0 0
-0.485707 7.076087 12.812095 14.644340 -1.502263 0.505601 0.007904 -0.003517 -1196910.000000 1 0 0
-1.715007 -2.369513 19.302395 19.522764 0.944288 0.150393 0.006087 -0.015806 76795.900000 1 0 0
-12.658707 10.170587 7.276895 17.794294 -0.676839 1.149498 0.001222 -0.017933 -480803.000000 1 0 0
-19.532907 2.177287 6.928395 20.839331 -0.111009 1.231878 0.002486 0.003582 679782.000000 1 0 0
-16.359607 8.347387 6.901195 19.619942 -0.471809 1.211363 0.020048 -0.000578 190514.000000 1 0 0
-12.225407 7.317687 13.552795 19.664368 -0.539363 0.810404 0.014147 -0.013260 190684.000000 1 0 0
-15.836107 8.677387 10.855595 21.069487 -0.501268 1.029522 0.001894 0.011963 -1441200.000000 1 0 0
2.002593 11.106087 14.674095 18.511743 1.392398 0.655585 0.004983 -0.015170 -312336.000000 1 0 0
2.082993 14.452987 12.746395 19.382938 1.427660 0.853156 -0.000617 0.002549 484198.000000 1 0 0
-3.223007 13.745387 11.828895 18.418637 -1.340478 0.873400 -0.003766 -0.005156 509054.000000 1 0 0
8.897493 4.785487 15.711695 18.679497 0.493465 0.571446 0.009115 -0.001924 283714.000000 1 0 0
-0.341707 12.572787 12.803395 17.947665 -1.543625 0.776495 -0.004581 -0.006387 -193473.000000 1 0 0
3.817093 13.614487 14.569195 20.302362 1.297445 0.770431 -0.001617 0.003559 230154.000000 1 0 0
-2.931507 -3.983713 -13.752305 14.614705 0.936398 2.796343 0.002392 -0.001819 79363.100000 1 0 0
6.039893 -11.584813 16.304795 20.893409 -1.090205 0.675523 0.005513 -0.006130 155841.000000 1 0 0
7.851193 -13.611713 7.212795 17.290008 -1.047613 1.140472 0.002990 -0.000544 -162179.000000 1 0 0
-0.110707 15.750087 1.345095 15.807807 -1.563767 1.485603 -0.001422 0.001083 -2772340.000000 1 0 0
-13.889007 8.313987 9.110495 18.574930 -0.539391 1.058164 0.007610 -0.002587 633879.000000 1 0 0
-15.513307 -9.697213 4.878995 18.934182 0.558664 1.310174 0.011288 -0.003127 -1467410.000000 1 0 0
9.351593 -11.294713 11.144895 18.418239 -0.879236 0.920904 0.002749 0.002797 264917.000000 1 0 0
-5.690007 -10.670513 -16.786805 20.688955 1.080907 2.517322 0.020725 -0.001844 42058.500000 1 0 0
-1.961207 -12.568113 -15.058905 19.712291 1.415998 2.440185 -0.000490 0.007252 -171246.000000 1 0 0
5.144493 -15.987713 -11.741505 20.492333 -1.259481 2.180922 -0.001801 0.009552 322136.000000 1 0 0
2.540193 -11.492613 -16.746805 20.469201 -1.353265 2.528976 0.002294 0.004233 205204.000000 1 0 0
0.239593 -14.051313 -14.313105 20.058957 -1.553747 2.365351 0.005545 0.008430 124073.000000 1 0 0
-6.961607 -6.093413 -14.877505 17.519527 0.718993 2.585256 0.022550 0.010095 -73665.800000 1 0 0
-5.612807 -8.197113 -17.552705 20.169128 0.970393 2.626558 -0.004519 0.007689 42826.000000 1 0 0
-2.327207 -16.342113 -13.244205 21.163400 1.429342 2.246962 0.006558 0.000230 292964.000000 1 0 0
16.013893 -7.797713 -9.673705 20.268933 -0.453140 2.068339 -0.012397 0.012818 77802.300000 1 0 0
19.126493 -3.428613 -3.115605 19.679561 -0.177376 1.729782 -0.009836 -0.008302 115186.000000 1 0 0
15.902993 -11.511913 -8.971305 21.585033 -0.626576 1.999427 0.014820 0.006309 294139.000000 1 0 0
18.412193 -2.693013 -6.385305 19.673161 -0.145233 1.901353 0.094163 0.006442 -314031.000000 1 0 0
8.795893 -9.759313 -15.833305 20.574389 -0.837273 2.448954 0.027536 0.004556 292548.000000 1 0 0
-4.654107 9.823387 -16.074205 19.404631 -1.128345 2.546987 0.001274 -0.005867 370852.000000 1 0 0
2.405093 -9.596913 -18.763605 21.212215 -1.325243 2.656359 -0.003480 0.010171 222072.000000 1 0 0
11.115593 8.158387 -15.337405 20.624056 0.633155 2.409333 0.019824 -0.017113 515738.000000 1 0 0
18.497193 -5.435913 -8.505705 21.072311 -0.285831 1.986292 -0.008320 0.006117 316577.000000 1 0 0
12.080093 5.204287 -13.891005 19.130428 0.406786 2.383460 -0.005106 -0.003086 149556.000000 1 0 0
15.800493 6.385387 -10.922305 20.241677 0.384058 2.140752 -0.002289 -0.006351 66606.600000 1 0 0
2.898793 0.002587 -19.000905 19.220754 0.000892 2.990199 0.022923 -0.012607 164224.000000 1 0 0
10.245293 -1.772413 -14.880805 18.153397 -0.171302 2.531728 0.007726 -0.001078 158962.000000 1 0 0
12.133293 -5.968313 -14.243805 19.639845 -0.457143 2.382194 0.023444 0.005812 121453.000000 1 0 0
10.084693 6.656987 -12.888105 17.666911 0.583448 2.388395 0.007722 -0.002663 541444.000000 1 0 0
10.356293 5.675387 -16.553605 20.334322 0.501317 2.521926 0.000453 0.005745 388989.000000 1 0 0
11.933393 -9.976113 -15.146105 21.710209 -0.696300 2.342907 0.051614 -0.008541 388202.000000 1 0 0
-1.612407 2.253187 -17.558905 17.776160 -0.949669 2.985089 0.010503 -0.008750 400530.000000 1 0 0
6.642193 -1.084613 -17.224805 18.492945 -0.161863 2.769107 0.011421 0.012449 51490.900000 1 0 0
7.062793 -6.160113 -15.706905 18.290350 -0.717238 2.603629 0.001147 -0.002677 247636.000000 1 0 0
-2.053007 -4.820713 -20.644005 21.298569 1.168187 2.893031 0.018952 -0.011954 342470.000000 1 0 0
15.992793 -0.085513 -13.238805 20.761568 -0.005347 2.262252 0.004417 0.007668 57552.600000 1 0 0
-4.457107 -0.072713 -18.420205 18.951914 0.016313 2.904157 0.013387 -0.008252 204134.000000 1 0 0
3.921393 9.379587 -16.924905 19.743515 1.174804 2.600679 0.023516 -0.031647 97224.100000 1 0 0
9.843293 -0.030013 -16.937505 19.590058 -0.003049 2.615144 0.016147 -0.008883 -57695.000000 1 0 0
4.041493 4.359787 -18.354105 19.292863 0.823266 2.828358 0.023932 -0.000248 230201.000000 1 0 0
-3.322307 -10.581013 -17.754105 20.933318 1.266557 2.583236 0.015351 -0.025554 133800.000000 1 0 0
5.405893 -9.687013 -15.868405 19.361513 -1.061789 2.531483 -0.010958 0.001275 -71646.400000 1 0 0
9.638393 -13.252113 -11.437905 19.983563 -0.941976 2.180184 0.005411 0.048995 52243.600000 1 0 0
6.116593 6.945987 -17.280905 19.603294 0.848807 2.649891 0.018354 0.001366 347151.000000 1 0 0
8.893793 1.462687 -19.972705 21.912278 0.163002 2.717675 0.033750 -0.008841 133843.000000 1 0 0
-1.191307 -0.482613 -20.085405 20.126490 0.384906 3.077685 0.024415 -0.014362 287471.000000 1 0 0
-1.024107 6.702387 -19.765005 20.895603 -1.419172 2.811132 0.024472 -0.014658 98823.000000 1 0 0
8.725793 5.722387 -18.306705 21.071797 0.580443 2.623525 0.021839 -0.000472 209809.000000 1 0 0
11.484293 0.033487 -13.043905 17.379113 0.002916 2.419691 -0.033958 0.000495 -91483.300000 1 0 0
-4.201507 -2.029913 -19.806005 20.348244 0.450068 2.910218 -0.010401 -0.004412 371460.000000 1 0 0
5.996793 -11.557613 -14.618205 19.576309 -1.092174 2.413927 0.002500 0.010719 102539.000000 1 0 0
11.533093 3.081687 -15.673805 19.702213 0.261104 2.490687 0.020934 0.002535 -55502.600000 1 0 0
-2.758807 -4.122613 -17.289505 17.987049 0.981050 2.862187 -0.003467 0.002032 90675.200000 1 0 0
-7.015107 -5.164313 -17.742605 19.765675 0.634591 2.685198 0.018868 0.007439 107608.000000 1 0 0
2.717293 11.095687 -15.488605 19.245644 1.330627 2.506109 0.007398 0.003027 239960.000000 1 0 0
16.925693 -6.128613 -10.939005 21.064207 -0.347404 2.116848 0.010767 0.004956 -98848.000000 1 0 0
9.380093 -3.648013 -17.678005 20.342222 -0.370910 2.624035 -0.005431 -0.009442 36591.700000 1 0 0
-7.742407 -1.870713 -18.258805 19.920552 0.237075 2.730241 0.013591 0.000439 452008.000000 1 0 0
1.635993 -7.273913 -19.369805 20.755135 -1.349565 2.774163 0.003001 -0.013258 240688.000000 1 0 0
6.011293 11.033087 -13.946805 18.771734 1.071922 2.408291 0.015367 0.003949 356799.000000 1 0 0
6.119493 -3.640613 -18.031405 19.386434 -0.536676 2.765493 0.012985 -0.009932 534300.000000 1 0 0
4.540293 13.423687 -14.586705 20.336705 1.244645 2.370658 0.012192 -0.009450 79959.300000 1 0 0
9.045893 11.338687 -15.287505 21.073723 0.897404 2.382455 0.023630 -0.012988 -57777.300000 1 0 0
17.196693 1.178887 -11.471405 20.705293 0.068446 2.157997 0.014692 0.010916 158366.000000 1 0 0
15.050493 -2.871313 -12.437605 19.734634 -0.188513 2.252662 0.011722 0.009323 70881.800000 1 0 0
-8.967307 0.184087 -17.428405 19.600913 -0.020526 2.666309 0.005583 -0.001110 424375.000000 1 0 0
-3.479607 4.597287 -19.047905 19.901392 -0.922905 2.847668 0.023833 -0.009140 69542.500000 1 0 0
4.735593 2.733487 -17.162205 18.012192 0.523502 2.833160 0.020045 0.001352 358625.000000 1 0 0
-4.969907 14.309287 -13.963705 20.601959 -1.236511 2.315543 0.009090 -0.001087 319781.000000 1 0 0
1.153493 9.371887 -17.771505 20.124343 1.448332 2.653193 0.022379 -0.012983 397946.000000 1 0 0
1.205793 -5.233613 -19.837305 20.551479 -1.344354 2.877193 0.014669 0.000376 368540.000000 1 0 0
3.765393 -6.262813 -18.084905 19.505507 -1.029473 2.757581 0.007731 -0.013752 -80851.700000 1 0 0
-6.694807 7.843587 -16.001705 19.036724 -0.864251 2.569131 -0.010053 0.003683 127935.000000 1 0 0
-11.666507 3.202787 -17.154705 20.991644 -0.267928 2.527360 0.007889 -0.009857 312440.000000 1 0 0
-4.225307 6.866087 -17.962605 19.688869 -1.019139 2.719718 0.008354 0.023932 472814.000000 1 0 0
-8.211707 5.467887 -17.398405 20.000860 -0.587447 2.625761 -0.003955 -0.010138 144033.000000 1 0 0
-8.458807 4.577187 -15.256705 18.035219 -0.495996 2.579121 -0.018717 -0.005868 490626.000000 1 0 0
9.453193 14.281087 -12.277405 21.072422 0.986075 2.192756 0.016060 -0.005873 508321.000000 1 0 0
13.526293 9.659787 -12.129205 20.576435 0.620159 2.201200 -0.000225 -0.007856 88624.400000 1 0 0
8.808093 15.489687 -9.990405 20.428438 1.053753 2.081790 0.013690 -0.009034 -66230.600000 1 0 0
7.810893 13.523387 -14.439005 21.269154 1.047022 2.317020 0.023117 -0.013350 90095.000000 1 0 0
4.189993 15.504887 -12.930805 20.619488 1.306864 2.248641 0.012768 -0.011208 150917.000000 1 0 0
10.859793 11.931787 -11.514605 19.821422 0.832398 2.190651 0.017441 -0.000464 237008.000000 1 0 0
15.610393 10.432087 -10.711305 21.615847 0.589118 2.089241 0.011579 0.005191 86182.100000 1 0 0
13.082193 11.484487 -9.583705 19.871704 0.720454 2.074051 0.021423 -0.004547 49930.400000 1 0 0
11.184193 11.566987 -7.788105 17.875568 0.802222 2.021595 0.022230 0.001737 57386.900000 1 0 0
6.089193 16.873587 -9.943805 20.510374 1.224470 2.076952 0.034025 0.000253 201315.000000 1 0 0
11.738693 14.326387 -10.054205 21.074376 0.884352 2.068128 0.034782 -0.003894 -163418.000000 1 0 0
7.960793 -19.440813 -2.054505 21.107828 -1.182137 1.668284 0.009112 0.004752 150598.000000 1 0 0
6.886793 -16.357513 -3.783905 18.147013 -1.172304 1.780852 0.011201 -0.019354 424984.000000 1 0 0
3.781593 -18.900913 5.310395 19.993630 -1.373329 1.301966 0.026065 -0.005822 92320.300000 1 0 0
10.165093 -17.623713 -2.246205 20.468752 -1.047622 1.680756 0.013141 -0.004734 275548.000000 1 0 0
-2.001507 -15.371813 7.719095 17.317133 1.441318 1.108785 -0.006223 -0.013485 109999.000000 1 0 0
-15.199707 -13.039613 -4.416605 20.507779 0.709054 1.787859 -0.015484 0.012117 -47708.000000 1 0 0
-9.958407 -12.579213 -6.909505 17.468478 0.901164 1.977453 0.020627 -0.013271 250541.000000 1 0 0
-11.485607 -15.287113 6.823995 20.302264 0.926447 1.228002 0.011441 -0.004391 294025.000000 1 0 0
-15.791507 -8.034513 -8.215405 19.529925 0.470652 2.004966 0.072485 -0.004746 70737.100000 1 0 0
4.563493 -15.060013 6.296795 16.949309 -1.276571 1.190164 0.008187 -0.011131 130473.000000 1 0 0
2.635193 -14.173113 9.033995 17.012773 -1.386966 1.011001 -0.000022 -0.002882 408188.000000 1 0 0
3.118393 -17.273913 10.670595 20.542007 -1.392194 1.024586 0.017194 -0.005346 230637.000000 1 0 0
-7.393207 -16.893613 -5.989605 19.388890 1.158274 1.884853 -0.032667 -0.010194 -135735.000000 1 0 0
2.151593 -19.815213 -4.059605 20.340905 -1.462637 1.771724 0.007082 -0.008429 89108.500000 1 0 0
-18.373607 -10.396613 -2.004105 21.206024 0.514927 1.665444 -0.007479 0.001975 -649.277000 1 0 0
-4.101307 -14.734813 2.761795 15.542295 1.299326 1.392152 -0.006144 0.000466 92026.900000 1 0 0
-10.941907 -10.044413 -14.784505 20.957031 0.742659 2.353879 0.019506 0.005984 171666.000000 1 0 0
0.997993 -20.433013 2.474095 20.606435 -1.521993 1.450442 0.015577 -0.001239 218536.000000 1 0 0
6.785193 -18.360413 0.470395 19.579706 -1.216807 1.546769 0.012927 0.004604 -52529.800000 1 0 0
-7.593807 -18.909513 -3.495505 20.674964 1.188923 1.740682 -0.001605 -0.020976 -27796.700000 1 0 0
-9.135507 -15.719213 -7.605105 19.707582 1.044339 1.966977 0.015110 -0.007893 -17903.700000 1 0 0
-11.787907 -11.431513 -12.190105 20.450743 0.770050 2.209396 0.007013 0.004058 295147.000000 1 0 0
-13.286907 -15.181813 -3.214805 20.429496 0.851861 1.728814 -0.003887 -0.002529 223904.000000 1 0 0
-0.604107 -20.582913 -2.736605 20.772825 1.541455 1.702920 0.000892 -0.006756 485507.000000 1 0 0
-12.044607 -16.695813 -0.825405 20.603496 0.945842 1.610868 0.004534 -0.005615 210312.000000 1 0 0
0.649993 -19.979313 5.114895 20.633894 -1.538275 1.320297 0.017260 -0.011202 206734.000000 1 0 0
-18.199807 -9.889113 2.358695 20.846846 0.497734 1.457410 0.002134 0.014613 62008.300000 1 0 0
-15.059907 -14.825613 -0.708405 21.144774 0.777559 1.604305 0.000411 0.000759 -45704.400000 1 0 0
10.142793 -15.109313 -5.657205 19.057060 -0.979597 1.872195 0.023079 0.003868 -88363.000000 1 0 0
0.128293 -18.958113 -7.094605 20.242528 -1.564029 1.928880 0.003139 -0.007953 127377.000000 1 0 0
-10.108207 -17.998313 -2.966805 20.854665 1.059076 1.713542 0.009929 0.026057 539390.000000 1 0 0
-14.968707 -6.828913 -11.237005 19.924019 0.428008 2.170009 0.029072 -0.011461 33966.400000 1 0 0
-12.121307 -15.163113 2.357495 19.555149 0.896425 1.449946 0.001183 -0.003628 182782.000000 1 0 0
-2.740807 -16.405213 10.238395 19.531200 1.405256 1.019012 -0.000920 -0.007883 358673.000000 1 0 0
-12.113907 -14.396913 -6.634105 19.950669 0.871302 1.909776 -0.010072 -0.001652 228622.000000 1 0 0
5.596493 -17.090913 -7.244405 19.388178 -1.254346 1.953738 0.017177 0.000593 65159.300000 1 0 0
-17.553007 -7.263313 -2.928005 19.220744 0.392340 1.723727 -0.019805 0.001938 19023.300000 1 0 0
-12.263707 -13.581213 -9.232305 20.495934 0.836331 2.038061 0.018803 -0.023461 193063.000000 1 0 0
-6.772007 -15.132913 8.890695 18.812485 1.150022 1.078563 -0.001017 -0.000290 471344.000000 1 0 0
-15.935207 -7.974513 -5.660805 18.696748 0.463994 1.878394 0.017759 0.001322 445602.000000 1 0 0
-0.849407 -19.701013 -0.176205 19.720103 1.527708 1.579732 0.005351 -0.002274 255451.000000 1 0 0
-15.064107 -11.409713 -2.044005 19.007547 0.648227 1.678541 -0.001791 0.010127 153213.000000 1 0 0
-6.860807 -19.246013 2.055795 20.535481 1.228361 1.470519 -0.008169 0.001428 49646.600000 1 0 0
-2.111107 -20.359613 -5.777705 21.268580 1.467475 1.845908 -0.007144 -0.003357 203790.000000 1 0 0
-8.900007 -19.796813 -1.123405 21.734442 1.148302 1.622507 -0.004048 0.006195 -67391.000000 1 0 0
-17.942707 -7.230213 5.001995 19.980908 0.383056 1.317766 0.012301 -0.000122 -77709.000000 1 0 0
-2.931707 -15.974313 -11.105605 19.675061 1.389290 2.170564 0.005344 0.009810 97930.100000 1 0 0
-3.181707 -18.200013 -8.469105 20.324603 1.397726 2.000600 -0.002706 -0.000291 175022.000000 1 0 0
3.980093 -17.996013 -5.999605 19.382799 -1.353135 1.885498 -0.003224 0.032177 472608.000000 1 0 0
0.492493 -17.408613 -9.820505 19.993616 -1.542514 2.084243 0.000754 0.007943 68825.900000 1 0 0
-7.502007 -11.245813 -13.909405 19.396391 0.982498 2.370448 0.006599 -0.032446 162180.000000 1 0 0
-5.204207 -19.606213 -2.106705 20.394253 1.311343 1.674280 0.010365 -0.010628 480691.000000 1 0 0
-10.254307 -15.344013 8.734595 20.417706 0.981668 1.128744 0.015781 -0.023854 238060.000000 1 0 0
-7.432607 -14.879313 -10.309905 19.568642 1.107528 2.125697 0.017063 -0.014802 202819.000000 1 0 0
-12.843607 -7.901813 -12.164205 19.374333 0.551545 2.249586 0.012844 -0.010457 326609.000000 1 0 0
-15.663007 -13.097613 3.241995 20.673360 0.696435 1.413326 0.005019 0.004061 179250.000000 1 0 0
-6.275007 -14.320213 -13.062905 20.373603 1.157805 2.266816 -0.001595 0.003279 383762.000000 1 0 0
-13.757507 -11.612913 -6.836505 19.257896 0.701067 1.933708 -0.009967 -0.002866 224505.000000 1 0 0
-11.530407 -10.244313 -9.614105 18.174907 0.726403 2.128191 0.010277 0.002150 104039.000000 1 0 0
-9.997107 -14.893013 3.778095 18.330794 0.979619 1.363202 0.007353 0.007649 561848.000000 1 0 0
5.050593 -17.893413 8.225595 20.330842 -1.295693 1.154269 0.035906 -0.021996 292167.000000 1 0 0
-4.845907 -16.859913 5.322295 18.332111 1.290919 1.276228 -0.008138 0.015955 251319.000000 1 0 0
-18.648807 -7.126013 -7.250605 21.239806 0.364995 1.919169 0.008277 0.000126 51679.100000 1 0 0
-16.859507 -3.417013 -10.788505 20.305438 0.199967 2.130944 0.006966 -0.015285 -180732.000000 1 0 0
-15.759707 -4.232113 -13.038105 20.887109 0.262351 2.244926 0.004498 -0.005804 343583.000000 1 0 0
-19.503907 -5.311413 -6.021605 21.092018 0.265878 1.860316 0.023423 -0.003697 -108207.000000 1 0 0
5.356693 -13.823113 8.893795 17.287921 -1.201097 1.030429 0.010317 0.004830 234360.000000 1 0 0
19.746393 -3.462313 2.684595 20.226584 -0.173575 1.437677 0.004906 -0.009590 -197838.000000 1 0 0
17.949593 -2.358913 0.238995 18.105509 -0.130670 1.557596 -0.003743 -0.013621 157875.000000 1 0 0
14.103993 -11.320413 0.370395 18.088990 -0.676348 1.550319 0.013076 0.000099 113705.000000 1 0 0
10.894293 -13.710513 5.231295 18.276494 -0.899360 1.280506 0.010589 0.003780 534599.000000 1 0 0
9.750093 -13.202013 8.737395 18.592997 -0.934676 1.081586 0.016631 -0.004125 121910.000000 1 0 0
19.336293 4.035087 -4.352205 20.226612 0.205727 1.787665 0.059381 0.009589 -19845.200000 1 0 0
19.153293 -6.113713 -4.643305 20.634592 -0.308976 1.797765 0.016694 -0.000582 -66675.200000 1 0 0
17.781593 -10.082213 -0.241505 20.442465 -0.515803 1.582610 0.027048 0.001654 161059.000000 1 0 0
17.769993 -8.775013 8.755695 21.666465 -0.458684 1.154788 0.075640 -0.007100 -167668.000000 1 0 0
19.990293 0.534287 -1.969005 20.094135 0.026721 1.668943 0.010969 -0.007692 47446.800000 1 0 0
7.136093 -13.463213 11.743595 19.237826 -1.083404 0.914177 0.001317 0.006060 266980.000000 1 0 0
16.233693 -6.380713 -3.419605 17.774700 -0.374504 1.764389 0.006314 0.001803 251265.000000 1 0 0
14.288093 -6.761313 12.174095 19.951780 -0.441989 0.914514 0.028239 -0.017161 188111.000000 1 0 0
16.381793 0.925487 10.592595 19.530047 0.056435 0.997536 0.031080 -0.014688 -106140.000000 1 0 0
16.257093 -10.175613 2.503395 19.341746 -0.559259 1.441003 -0.010976 -0.000290 189206.000000 1 0 0
16.753993 -7.785513 -6.183405 19.481914 -0.435008 1.893774 0.016848 0.014082 304613.000000 1 0 0
18.210493 -4.576513 6.133895 19.753258 -0.246213 1.255050 0.074575 -0.008229 -46228.500000 1 0 0
13.142193 -13.713613 7.918695 20.578779 -0.806672 1.175806 0.028453 -0.003404 383055.000000 1 0 0
15.084093 -14.146213 -1.454805 20.730694 -0.753323 1.641030 0.005509 0.002760 101193.000000 1 0 0
18.655693 -6.453313 8.248795 21.394456 -0.333032 1.174984 0.042917 -0.009571 263154.000000 1 0 0
19.691493 3.443087 2.705595 20.172505 0.173102 1.436268 0.016017 -0.007034 309803.000000 1 0 0
15.318793 -10.160313 8.512295 20.257259 -0.585639 1.137120 0.035344 -0.023093 168263.000000 1 0 0
14.076993 -4.247713 10.878495 18.290611 -0.293060 0.933831 0.024869 -0.008665 -171467.000000 1 0 0
18.648493 -7.900513 2.195295 20.371640 -0.400730 1.462824 0.020060 -0.006436 5832.610000 1 0 0
18.889793 -5.214013 -1.392405 19.645585 -0.269317 1.641732 -0.004037 -0.006091 175991.000000 1 0 0
14.723593 -13.727413 -5.801605 20.949574 -0.750399 1.851396 0.012604 0.002014 429375.000000 1 0 0
13.920993 -9.463813 10.341695 19.756226 -0.597056 1.019884 0.023392 -0.011548 472641.000000 1 0 0
14.394293 2.229387 0.510995 14.574874 0.153659 1.535729 0.007627 -0.003816 -54952.500000 1 0 0
12.949693 2.744387 13.521595 18.922466 0.208837 0.774774 0.021068 -0.010924 84449.800000 1 0 0
18.407493 -3.140213 9.321995 20.870944 -0.168968 1.107779 0.038383 -0.011575 138617.000000 1 0 0
6.920293 -18.341513 4.926895 20.213259 -1.210009 1.324570 0.011920 -0.010033 171185.000000 1 0 0
12.624193 -3.140913 14.864795 19.753423 -0.243850 0.718920 0.016667 -0.003463 124009.000000 1 0 0
11.904993 -13.737113 -7.356705 19.610156 -0.856727 1.955352 0.032823 0.010545 170763.000000 1 0 0
10.476793 -17.536713 4.409395 20.898379 -1.032276 1.358206 0.020084 -0.004482 531749.000000 1 0 0
18.427093 -0.734213 -4.267305 18.928991 -0.039823 1.798188 0.010389 -0.006504 144971.000000 1 0 0
4.262293 -13.738713 11.730695 18.561481 -1.269972 0.886676 -0.001433 -0.003169 159949.000000 1 0 0
9.272093 -2.923613 14.121895 17.144887 -0.305446 0.602926 0.010422 -0.005753 209632.000000 1 0 0
8.962693 -9.266413 14.166895 19.154560 -0.802058 0.738306 0.004814 -0.000441 391493.000000 1 0 0
21.193693 5.603187 -2.548605 22.069520 0.258466 1.686535 0.019103 0.009662 360237.000000 1 0 0
14.598093 -13.253913 1.763695 19.795988 -0.737174 1.481584 0.010369 0.000855 183771.000000 1 0 0
11.001093 -0.352013 15.235095 18.795108 -0.031987 0.625640 0.016508 -0.009399 -42927.900000 1 0 0
19.360493 0.168787 7.900995 20.911310 0.008718 1.183341 0.048669 -0.009507 111371.000000 1 0 0
19.887593 1.148187 0.584495 19.929283 0.057670 1.541464 0.012047 -0.011777 253622.000000 1 0 0
17.875193 0.224587 3.146195 18.151350 0.012564 1.396585 0.011269 -0.006369 20724.600000 1 0 0
9.952093 -8.495213 16.380995 20.965443 -0.706587 0.673997 0.002964 0.000025 59668.600000 1 0 0
19.323093 2.836287 5.576795 20.310763 0.145742 1.292650 0.046011 -0.009521 167372.000000 1 0 0
15.568793 2.288887 7.101295 17.264261 0.145972 1.146884 0.031014 -0.007148 32685.200000 1 0 0
11.333593 -16.053413 1.870395 19.739827 -0.956060 1.475902 0.003530 0.012349 348888.000000 1 0 0
8.253593 -16.541213 6.952895 19.750349 -1.107972 1.211048 0.018436 0.006652 485922.000000 1 0 0
6.282293 6.630887 7.060395 11.544914 0.812387 0.912767 -0.004001 0.003850 -957374.000000 1 0 0
18.493893 2.408587 -6.574305 19.774904 0.129508 1.909704 -0.015357 0.011015 175707.000000 1 0 0
14.134793 4.513387 -7.327505 16.548576 0.309077 2.029502 0.011715 -0.002750 170337.000000 1 0 0
-10.278407 -3.858813 -14.066305 17.843683 0.359147 2.478849 -0.000836 0.007068 -147315.000000 1 0 0
7.465293 -14.592213 -10.262105 19.338409 -1.097916 2.130174 0.010957 0.020555 -89388.700000 1 0 0
1.971293 -15.721013 13.995495 21.140249 -1.446055 0.847271 -0.000945 -0.010500 379508.000000 1 0 0
-9.523507 -7.856213 2.145995 12.530865 0.689758 1.398691 0.009849 0.001368 313038.000000 1 0 0
-13.862307 3.007087 -10.081905 17.402613 -0.213616 2.188706 0.011891 -0.000255 254761.000000 1 0 0
-13.008107 -4.899513 -13.575605 19.429697 0.360217 2.344381 0.013517 0.008937 258368.000000 1 0 0
-17.821607 -0.369113 -7.900405 19.497752 0.020709 1.987989 0.023355 -0.027525 479627.000000 1 0 0
-12.435407 15.069487 4.601895 20.072524 -0.880875 1.339475 0.014620 -0.015450 277704.000000 1 0 0
-17.117207 6.484387 9.169795 20.472694 -0.362118 1.106377 -0.003248 -0.002708 278477.000000 1 0 0
-13.440407 15.405187 0.152395 20.444744 -0.853407 1.563342 0.025819 -0.019369 166285.000000 1 0 0
-16.220007 5.283487 -10.697705 20.135659 -0.314900 2.130909 0.025865 -0.000392 59122.300000 1 0 0
-18.285407 2.970387 -0.162605 18.525813 -0.161039 1.579574 0.029864 -0.000773 -226811.000000 1 0 0
-9.737807 15.578787 -0.268505 18.373775 -1.012148 1.585410 0.010597 -0.012855 9976.920000 1 0 0
-18.287207 12.425987 2.648195 22.267466 -0.596828 1.451588 0.037689 -0.001102 98385.400000 1 0 0
-8.700107 16.382587 -7.680205 20.076518 -1.082612 1.963347 0.034667 -0.016461 106769.000000 1 0 0
-15.027707 -1.719613 -12.567905 19.665739 0.113934 2.264093 0.009072 -0.022736 -77378.500000 1 0 0
-19.019107 5.214987 -4.760505 20.287556 -0.267620 1.807656 0.028549 -0.001074 -34969.400000 1 0 0
-16.709207 9.255387 -6.072305 20.043270 -0.505840 1.878593 0.017433 0.007381 -199586.000000 1 0 0
-18.840007 1.694087 2.742995 19.113865 -0.089678 1.426791 0.004071 -0.010523 301167.000000 1 0 0
-13.447207 12.046287 -7.130805 19.411048 -0.730501 1.946963 0.003209 -0.000841 -67683.100000 1 0 0
-13.029107 4.632887 -13.474505 19.307604 -0.341637 2.343238 0.008346 -0.011618 -131155.000000 1 0 0
-14.102107 9.610287 -6.728005 18.343748 -0.598187 1.946335 0.008727 0.001526 360363.000000 1 0 0
-6.643707 11.328887 -15.185905 20.077207 -1.040407 2.428550 0.001281 -0.032268 48780.400000 1 0 0
-15.093507 13.988587 3.303295 20.842416 -0.747423 1.411636 0.017891 -0.010101 -30079.200000 1 0 0
-18.809407 8.504987 -4.688305 21.168581 -0.424654 1.794123 0.029414 -0.003168 234351.000000 1 0 0
-3.790807 16.869387 -9.967405 19.957344 -1.349753 2.093743 0.012748 -0.001389 86458.200000 1 0 0
-19.165307 -2.331113 -6.703405 20.437190 0.121037 1.904982 -0.004382 -0.010124 -223416.000000 1 0 0
-10.810607 13.580087 -6.197005 18.430704 -0.898460 1.913710 0.007839 -0.016869 105740.000000 1 0 0
-19.494207 3.237987 4.440795 20.254119 -0.164597 1.349747 0.023948 0.008079 125556.000000 1 0 0
-14.944907 12.169187 0.534095 19.280161 -0.683382 1.543091 0.010171 -0.015865 20865.900000 1 0 0
-17.550207 2.244287 -9.595805 20.127744 -0.127188 2.067745 0.008000 0.004257 157100.000000 1 0 0
-16.542507 14.262487 -3.993905 22.204152 -0.711518 1.751653 0.014325 0.043781 243273.000000 1 0 0
-10.894307 15.627487 -8.331805 20.792385 -0.962003 1.983093 0.023634 -0.012432 179476.000000 1 0 0
-18.937007 2.021387 -7.015205 20.295550 -0.106340 1.923730 0.004529 -0.007613 161766.000000 1 0 0
-17.376307 10.601787 -0.604505 20.364169 -0.547834 1.600485 0.033440 0.001200 19505.800000 1 0 0
-11.845407 6.513887 -14.592805 19.892068 -0.502773 2.394399 0.001878 -0.009832 434973.000000 1 0 0
-13.278607 12.411787 -4.782705 18.794896 -0.751670 1.828094 0.020806 -0.012803 280394.000000 1 0 0
-18.820107 7.346287 -0.466305 20.208459 -0.372153 1.593873 0.014991 0.001910 -41444.600000 1 0 0
-14.554107 8.924687 -10.235105 19.905513 -0.550074 2.110853 0.005627 -0.004968 549381.000000 1 0 0
-18.540007 11.440687 4.982795 22.348365 -0.552885 1.345946 0.023515 -0.007001 170887.000000 1 0 0
-8.048107 12.311987 -13.237105 19.788330 -0.991838 2.303571 -0.013723 0.001096 431874.000000 1 0 0
-20.995907 -1.758613 -5.326405 21.732267 0.083565 1.818411 0.000959 -0.016222 241178.000000 1 0 0
-10.456307 13.425587 -2.673305 17.225775 -0.909095 1.726618 0.013693 -0.008357 459293.000000 1 0 0
-18.714507 -5.011213 3.808995 19.744708 0.261634 1.376667 0.001059 0.003618 -55806.300000 1 0 0
-11.480507 11.517187 -12.509305 20.516587 -0.786993 2.226499 0.003017 -0.017191 218668.000000 1 0 0
-14.751407 11.815987 -10.460605 21.601986 -0.675355 2.076294 0.007157 0.003480 261472.000000 1 0 0
-12.652807 9.786087 -13.934605 21.214011 -0.658330 2.287441 0.008156 -0.006974 324485.000000 1 0 0
-18.531007 -4.866913 -3.176505 19.421000 0.256836 1.735095 0.007127 -0.005607 -383565.000000 1 0 0
-9.514307 12.895787 -11.333405 19.628281 -0.935159 2.186339 0.009941 -0.005497 87547.800000 1 0 0
-15.397607 7.718087 -8.221805 19.085420 -0.464649 2.016164 -0.010994 0.004966 -75920.300000 1 0 0
-14.410807 9.128787 1.912495 17.165773 -0.564666 1.459151 0.011508 -0.002021 -227238.000000 1 0 0
-19.719707 6.292187 7.891995 22.152699 -0.308869 1.206540 0.022179 0.003360 319354.000000 1 0 0
-18.675907 5.936287 3.554295 19.916376 -0.307759 1.391374 0.002343 0.003630 178451.000000 1 0 0
-14.456607 12.746987 5.688095 20.095611 -0.722635 1.283822 0.008750 -0.012305 -3887.460000 1 0 0
17.976493 6.148587 5.793895 19.862745 0.329561 1.274796 0.014311 -0.003126 236445.000000 1 0 0
18.524393 7.835887 0.735595 20.126981 0.400179 1.534240 0.025137 0.014533 -37856.600000 1 0 0
16.878793 4.249987 8.673595 19.447038 0.246667 1.108493 0.027804 -0.001382 -19585.000000 1 0 0
12.434193 12.868787 10.619995 20.808631 0.802572 1.035187 0.024924 -0.008577 177691.000000 1 0 0
15.168593 12.307487 4.410195 20.025241 0.681641 1.348744 0.023640 -0.007919 206593.000000 1 0 0
5.424493 10.368387 14.426595 18.575662 1.088780 0.681483 -0.002840 0.000235 267918.000000 1 0 0
13.400793 13.257187 -5.275405 19.574579 0.780011 1.843673 0.037817 0.004876 248365.000000 1 0 0
17.295593 9.297587 -2.538805 19.799702 0.493250 1.699375 -0.022635 0.012460 -34788.400000 1 0 0
14.664393 7.387187 9.543695 18.992026 0.466643 1.044296 0.023216 0.001085 147191.000000 1 0 0
4.651293 19.137587 -1.291105 19.736988 1.332374 1.636259 -0.002210 -0.004990 597451.000000 1 0 0
-4.423307 19.627487 3.718195 20.460422 -1.349137 1.388055 -0.010138 0.006434 159087.000000 1 0 0
7.003993 14.125187 11.615395 19.583009 1.110473 0.935847 0.009273 0.022777 32966.700000 1 0 0
0.095393 16.809687 -10.232905 19.679609 1.565122 2.117618 -0.003204 0.007506 30533.400000 1 0 0
10.747593 9.339587 15.648495 21.156891 0.715418 0.738260 0.018921 -0.003690 -62526.000000 1 0 0
-1.187607 12.318087 0.926495 12.409838 -1.474682 1.496069 -0.004421 0.004553 323134.000000 1 0 0
-4.788307 19.289387 -2.401105 20.019332 -1.327479 1.691025 0.010149 0.000844 -45517.400000 1 0 0
5.685893 18.651287 6.315795 20.496076 1.274894 1.257552 0.014556 -0.005707 74260.900000 1 0 0
11.578593 17.225687 -1.312005 20.796862 0.978993 1.633925 0.040970 -0.013721 421752.000000 1 0 0
18.520293 10.380287 3.517395 21.520308 0.510855 1.406614 0.029774 0.003935 237343.000000 1 0 0
11.483093 16.351587 6.707295 21.076613 0.958554 1.246930 0.013268 -0.001208 77376.800000 1 0 0
18.071193 6.943387 -5.587505 20.149413 0.366833 1.851783 -0.005727 0.012004 399791.000000 1 0 0
-0.006507 15.529487 11.505195 19.327041 -1.570377 0.933170 -0.002283 0.017483 426749.000000 1 0 0
1.235193 20.124887 -1.716505 20.235690 1.509497 1.655724 0.003335 -0.013050 198389.000000 1 0 0
14.832893 9.707987 -1.208805 17.768538 0.579525 1.638880 0.033265 0.006755 27205.100000 1 0 0
10.046193 17.301487 1.575495 20.068623 1.044723 1.492210 0.025010 -0.016656 86213.100000 1 0 0
0.272393 17.766687 -0.395505 17.773176 1.555466 1.593051 -0.005428 -0.001054 46688.000000 1 0 0
-0.339207 21.110487 1.566295 21.171231 -1.554730 1.496746 0.007677 -0.001811 253578.000000 1 0 0
5.933593 17.453087 -0.247105 18.435803 1.243081 1.584200 0.004052 -0.013489 -52491.500000 1 0 0
6.346393 18.174087 -2.716005 19.440957 1.234834 1.710960 -0.016959 -0.009027 -376486.000000 1 0 0
10.084093 9.658087 12.884795 18.999619 0.763823 0.825539 0.002763 0.006428 179355.000000 1 0 0
12.304093 14.604487 8.308395 20.825733 0.870680 1.160426 0.007003 -0.006386 116170.000000 1 0 0
0.481793 17.584087 7.156095 18.990575 1.543404 1.184432 -0.006224 -0.005033 247643.000000 1 0 0
6.691993 18.313087 -7.542905 20.905677 1.220450 1.939929 -0.000227 0.007039 3927.950000 1 0 0
-1.265007 18.497987 9.019895 20.618784 -1.502516 1.118024 0.022106 -0.024014 168285.000000 1 0 0
16.044293 6.433087 -7.883705 18.998862 0.381332 1.998692 0.024193 -0.001662 -316259.000000 1 0 0
-5.177407 19.931187 -6.416705 21.569234 -1.316649 1.872862 0.011037 -0.005312 326800.000000 1 0 0
4.197993 15.651887 9.978395 19.030845 1.308754 1.018871 0.006058 -0.001446 208377.000000 1 0 0
9.113993 14.935687 7.663995 19.101739 1.022899 1.157948 0.006136 0.006431 16869.300000 1 0 0
-2.844407 19.958287 6.420895 21.157783 -1.429232 1.262457 -0.000644 -0.001599 -21503.700000 1 0 0
4.912993 17.937687 8.423495 20.416988 1.303460 1.145520 0.018956 -0.010770 253245.000000 1 0 0
14.624593 11.059387 -7.467205 19.797674 0.647469 1.957541 -0.006027 -0.025200 -86364.100000 1 0 0
11.758693 6.779787 15.860495 20.875528 0.523018 0.707845 0.028179 -0.003987 334349.000000 1 0 0
17.362893 9.242487 4.949295 20.282730 0.489162 1.324292 0.034670 -0.002736 218007.000000 1 0 0
4.869093 15.529787 13.227595 20.972640 1.266971 0.888332 -0.012746 0.042150 296772.000000 1 0 0
16.591893 11.410187 -4.824605 20.706523 0.602421 1.805957 0.068506 0.043239 178498.000000 1 0 0
15.029693 14.261387 6.763795 21.795131 0.759174 1.255251 0.024715 0.017711 95540.900000 1 0 0
12.732893 14.528287 -7.903805 20.872657 0.851162 1.959153 0.038008 -0.009238 328574.000000 1 0 0
-8.431907 15.516187 9.578595 20.089764 -1.073014 1.073797 0.018426 -0.011635 176008.000000 1 0 0
-4.573507 16.726587 -6.988905 18.696002 -1.303893 1.953919 0.005394 0.002507 -26697.400000 1 0 0
2.351993 20.254487 -4.137905 20.806210 1.455192 1.771010 -0.009089 0.002773 139379.000000 1 0 0
7.012193 16.742887 8.846295 20.192871 1.174175 1.117323 0.007040 0.004420 414248.000000 1 0 0
13.437493 15.657387 -1.304405 20.674173 0.861549 1.633932 0.050880 -0.010794 209181.000000 1 0 0
12.202593 16.696487 4.050995 21.073360 0.939666 1.377359 0.024023 -0.021286 352571.000000 1 0 0
2.483993 18.484787 0.659895 18.662611 1.437216 1.535430 0.004134 -0.008815 -6600.200000 1 0 0
-6.757007 17.935487 1.627695 19.235078 -1.210501 1.486074 -0.022006 0.014252 106742.000000 1 0 0
0.861593 19.452687 -5.888705 20.342719 1.526534 1.864474 0.008984 -0.006498 283888.000000 1 0 0
-7.924807 17.985087 -6.344805 20.652421 -1.155760 1.883065 0.046598 -0.014212 113963.000000 1 0 0
-7.248507 18.544287 -1.057805 19.938666 -1.198181 1.623874 0.007352 -0.008710 42680.800000 1 0 0
-14.230207 -8.172413 8.952295 18.693066 0.521308 1.071384 0.007903 -0.011702 271873.000000 1 0 0
-13.441507 -13.506813 8.043095 20.683314 0.787822 1.171393 0.025183 -0.004162 -167815.000000 1 0 0
-3.415507 -15.549413 12.901295 20.491299 1.354575 0.889760 -0.004703 -0.002869 132418.000000 1 0 0
-2.312307 -14.226113 15.728095 21.333121 1.409666 0.741788 -0.006023 -0.009437 312536.000000 1 0 0
-6.966507 -14.105213 13.416795 20.676065 1.112044 0.864652 -0.024526 0.005431 -123899.000000 1 0 0
-10.318307 -11.364913 11.553595 19.212347 0.833629 0.925590 0.030115 -0.000131 83951.700000 1 0 0
-8.235707 -11.382113 12.937995 19.098981 0.944429 0.826549 0.022601 0.013422 417491.000000 1 0 0
-15.228707 -12.033413 7.779695 20.910290 0.668724 1.189579 0.004343 0.003327 204808.000000 1 0 0
-4.666907 -12.277113 13.213895 18.631010 1.207535 0.782374 0.004081 -0.010314 267243.000000 1 0 0
3.583393 -12.579113 14.094595 19.228427 -1.293279 0.748062 -0.007116 0.001579 552637.000000 1 0 0
6.884693 -13.317713 14.803795 21.069239 -1.093675 0.791715 0.025276 -0.005448 183713.000000 1 0 0
7.305693 -8.936613 16.541995 20.171113 -0.885475 0.609240 0.006309 -0.010517 487539.000000 1 0 0
-5.138107 13.140787 13.659895 19.638563 -1.198069 0.801590 -0.000218 -0.010854 564233.000000 1 0 0
-13.032307 -1.793813 17.694095 22.048578 0.136784 0.639314 0.000262 0.001117 412893.000000 1 0 0
-10.085707 9.160887 13.443195 19.140607 -0.737384 0.792118 0.002073 -0.014986 424355.000000 1 0 0
-7.515407 -8.177913 17.067095 20.362842 0.827589 0.576916 -0.004477 -0.004616 12485.000000 1 0 0
-4.862807 2.017487 18.492695 19.227504 -0.393269 0.277354 0.007704 -0.005918 654085.000000 1 0 0
-15.492807 -3.686813 14.706395 21.677124 0.233624 0.825174 0.014758 0.004228 -2196.970000 1 0 0
-14.439007 2.736887 12.231195 19.120084 -0.187326 0.876683 0.006265 -0.002631 187699.000000 1 0 0
-13.376507 11.050487 10.502795 20.281837 -0.690461 1.026469 -0.063938 0.040857 -78090.000000 1 0 0
-4.809307 11.048887 15.923995 19.969501 -1.160255 0.647796 0.022692 -0.011862 243780.000000 1 0 0
-12.746407 13.290587 7.523195 19.892437 -0.806295 1.182952 -0.001538 -0.024888 114584.000000 1 0 0
-3.923007 -6.270413 18.601795 20.018363 1.011739 0.378455 0.005989 -0.007988 299848.000000 1 0 0
0.327893 -3.088313 17.665895 17.936807 -1.465020 0.174022 -0.005562 -0.020308 20822.700000 1 0 0
-4.263207 6.229187 21.416995 22.708267 -0.970622 0.338853 0.017606 -0.001021 183961.000000 1 0 0
2.132193 -10.635713 16.425495 19.684042 -1.372944 0.583649 -0.011398 -0.007553 276278.000000 1 0 0
-14.986707 -0.238013 14.356995 20.755273 0.015880 0.806918 -0.005537 0.018423 129136.000000 1 0 0
-13.858707 -5.865313 7.821395 16.959949 0.400364 1.091485 0.006917 -0.002531 -15576.500000 1 0 0
9.920493 1.438187 16.307595 19.142158 0.143968 0.551155 0.016264 -0.004846 346088.000000 1 0 0
-7.540507 12.074787 11.878595 18.540786 -1.012568 0.875421 0.005789 -0.017538 14023.500000 1 0 0
-2.096207 7.746387 19.886695 21.444842 -1.306521 0.383551 0.012112 -0.009557 499257.000000 1 0 0
0.983893 -13.884713 15.537095 20.860360 -1.500053 0.730540 -0.016516 -0.002524 449480.000000 1 0 0
-3.167607 -11.679413 18.346995 21.978504 1.305954 0.583081 -0.013138 0.009374 502898.000000 1 0 0
-2.072807 9.030587 16.703695 19.101347 -1.345173 0.506439 0.003400 -0.003684 687115.000000 1 0 0
-5.227507 -9.380413 20.520295 23.160343 1.062382 0.482129 0.035643 -0.008529 186461.000000 1 0 0
-6.616007 -2.684713 18.981795 20.280231 0.385488 0.359777 0.002392 -0.019105 -293734.000000 1 0 0
-10.865707 -8.089013 15.990595 20.956976 0.639942 0.702824 0.043035 -0.008060 124601.000000 1 0 0
-0.182207 6.686487 17.876095 19.086568 -1.543553 0.358056 0.005379 0.001717 191079.000000 1 0 0
-6.260007 -11.186513 19.139795 23.036005 1.060610 0.590137 0.000989 0.012639 388847.000000 1 0 0
0.062193 3.400887 18.518495 18.828291 1.552511 0.181654 0.004470 -0.012890 15162.800000 1 0 0
-18.264407 -0.586813 7.978395 19.939602 0.032118 1.159140 -0.010374 0.008467 -19943.600000 1 0 0
-1.391307 -8.259013 17.291895 19.213450 1.403904 0.451052 -0.000420 -0.013485 -68408.900000 1 0 0
5.843493 3.379187 15.192995 16.625054 0.524297 0.418102 -0.003305 -0.000496 412072.000000 1 0 0
-13.930007 -5.844113 11.098295 18.744890 0.397232 0.937171 0.015418 -0.004162 54498.100000 1 0 0
4.036393 8.056987 16.885195 19.139418 1.106365 0.490238 -0.007237 0.001198 84507.600000 1 0 0
6.370893 4.319387 17.321995 18.955128 0.595799 0.418149 0.005663 -0.022847 152805.000000 1 0 0
5.603793 -9.404213 18.212995 21.249821 -1.033411 0.541203 0.008230 0.002236 106692.000000 1 0 0
-4.376507 -0.563413 19.789095 20.275096 0.128032 0.219393 0.003294 -0.017167 697122.000000 1 0 0
-10.790307 1.765987 17.239095 20.414109 -0.162226 0.565222 0.019902 -0.005646 135931.000000 1 0 0
-16.711807 -4.205813 8.756695 19.330108 0.246547 1.100660 0.004529 -0.008701 229116.000000 1 0 0
-13.260907 -9.588913 12.024695 20.307442 0.626059 0.937094 0.003946 -0.015537 52892.700000 1 0 0
-14.918507 6.688887 12.708395 20.707640 -0.421491 0.910051 0.014010 -0.016762 211987.000000 1 0 0
1.690293 9.304087 16.834995 19.309070 1.391084 0.511789 0.009666 -0.010822 226808.000000 1 0 0
-3.778207 -10.332713 15.082595 18.668810 1.220244 0.630211 -0.000219 -0.003342 567922.000000 1 0 0
-18.779607 -2.918213 6.645195 20.133262 0.154160 1.234429 0.075592 -0.009591 -283975.000000 1 0 0
-0.625307 -0.618313 20.867695 20.886216 0.779774 0.042116 0.005213 -0.012147 360348.000000 1 0 0
-1.798607 2.559887 20.299795 20.539467 -0.958319 0.152916 0.003321 -0.012404 -100467.000000 1 0 0
-8.037907 1.927787 16.399695 18.365030 -0.235391 0.466862 0.006355 0.004251 506331.000000 1 0 0
2.481693 -2.096213 19.027695 19.303007 -0.701392 0.169096 -0.008173 -0.000478 115555.000000 1 0 0
-13.033407 4.613187 14.249195 19.854238 -0.340190 0.770316 0.027216 -0.003053 239736.000000 1 0 0
-12.752807 -5.614213 13.511495 19.409121 0.414702 0.800788 -0.034459 0.003023 -294910.000000 1 0 0
-17.354507 -0.863913 9.919395 20.007990 0.049739 1.052073 0.002899 -0.000579 143226.000000 1 0 0
-7.484607 7.807487 14.862995 18.381644 -0.806509 0.629065 0.008500 -0.011002 96512.700000 1 0 0
-9.559907 1.132887 13.933995 16.936100 -0.117954 0.604583 0.011092 -0.005078 129796.000000 1 0 0
7.452993 -0.967013 14.869095 16.660498 -0.129027 0.467992 -0.001917 -0.004871 154906.000000 1 0 0
3.963593 5.625587 18.492295 19.731251 0.957013 0.356258 -0.002711 -0.010865 -108706.000000 1 0 0
1.561893 0.820287 20.222495 20.299303 0.483594 0.087019 -0.004402 0.005342 205546.000000 1 0 0
-7.126107 6.913687 17.541995 20.156936 -0.770269 0.515044 0.021064 -0.019870 657875.000000 1 0 0
7.644593 -3.400713 16.590995 18.581328 -0.418565 0.467084 0.000888 0.001651 405579.000000 1 0 0
-16.675507 2.617387 9.409595 19.325210 -0.155690 1.062250 0.021782 0.002174 176996.000000 1 0 0
4.263193 -6.099113 19.155395 20.550016 -0.960751 0.370531 0.007355 -0.009085 15023.200000 1 0 0
-3.806007 -3.865413 20.704895 21.403733 0.793142 0.256240 0.001947 -0.009076 418127.000000 1 0 0
-9.802007 6.049487 14.465895 18.491559 -0.552948 0.672451 0.012417 -0.008074 824.215000 1 0 0
6.622493 2.202887 19.991295 21.174560 0.321124 0.335886 0.016277 0.000719 36615.600000 1 0 0
-7.096707 11.258187 14.655695 19.796450 -1.008352 0.737251 0.008477 -0.019106 198914.000000 1 0 0
-14.323707 5.210187 8.528495 17.465677 -0.348868 1.060655 -0.000311 -0.015207 58887.100000 1 0 0
0.918193 -5.814513 20.520395 21.348027 -1.414176 0.279362 -0.002102 -0.004684 296816.000000 1 0 0
-6.059607 -8.548013 13.875095 17.386939 0.954128 0.646797 0.005041 0.003726 334004.000000 1 0 0
-12.745007 10.110587 6.332695 17.457440 -0.670641 1.199579 -0.010268 -0.017454 66147.500000 1 0 0
-19.314707 2.036387 7.842195 20.945281 -0.105044 1.187032 -0.030881 0.007436 180580.000000 1 0 0
-15.926107 9.130387 6.582795 19.502258 -0.520553 1.226494 0.012125 -0.006628 97627.400000 1 0 0
-12.897207 7.539687 14.186695 20.602115 -0.529018 0.811234 0.018341 -0.015382 338926.000000 1 0 0
-16.371107 9.461287 10.812795 21.781773 -0.524030 1.051332 -0.001466 -0.002573 224219.000000 1 0 0
2.130293 11.162587 13.734395 17.826248 1.382222 0.691235 -0.005653 -0.052224 196200.000000 1 0 0
1.615293 14.687587 13.539295 20.041130 1.461260 0.829051 -0.001506 -0.005269 556656.000000 1 0 0
8.390593 5.146187 16.429595 19.152464 0.550162 0.539760 -0.001048 -0.006878 108072.000000 1 0 0
-0.438307 13.350587 13.340295 18.878394 -1.537978 0.786053 -0.006754 0.006160 213318.000000 1 0 0
3.787093 12.710987 14.861295 19.919070 1.281232 0.728635 -0.002599 0.006953 -125362.000000 1 0 0
-3.797107 -4.357213 -13.869605 15.025620 0.853979 2.746767 0.003184 -0.002187 63634.200000 1 0 0
5.366393 -11.738613 16.956995 21.310394 -1.142006 0.650610 -0.036657 0.009306 451539.000000 1 0 0
8.529593 -14.195613 6.894495 17.938881 -1.029744 1.176312 0.007946 0.003796 357164.000000 1 0 0
-0.394407 15.455987 0.487495 15.468702 -1.545284 1.539276 -0.002022 0.000567 -355204.000000 1 0 0
-14.561007 7.774287 8.710895 18.663927 -0.490407 1.085214 0.022900 -0.002999 -33597.500000 1 0 0
-16.056207 -9.576013 5.649095 19.529826 0.537772 1.277348 0.009904 0.000728 229988.000000 1 0 0
8.631593 -10.732013 11.404595 17.881423 -0.893448 0.879171 -0.019563 0.008855 59515.000000 1 0 0
-24.836907 6.501987 31.386808 40.549716 -0.256041 0.685610 0.024327 -0.000896 -274617.000000 0 0 1
-23.961807 5.426687 31.601478 40.028372 -0.222715 0.660840 0.018683 -0.001604 -4985.650000 0 0 1
-22.947507 5.715387 32.527598 40.215648 -0.244097 0.628638 0.008485 0.001542 -75351.400000 0 0 1
-21.598607 5.030687 32.233178 39.125253 -0.228837 0.602633 0.003291 0.004105 -183424.000000 0 0 1
-21.524607 3.630987 32.465758 39.121838 -0.167117 0.591935 0.001765 0.004476 145803.000000 0 0 1
-20.307907 3.036587 32.017528 38.036220 -0.148428 0.570253 -0.001429 0.003516 245656.000000 0 0 1
-19.888507 1.822687 32.849628 38.444414 -0.091390 0.546265 0.001501 0.003083 -218646.000000 0 0 1
-20.333107 0.601587 32.369898 38.230975 -0.029578 0.561057 -0.000928 0.007629 74025.700000 0 0 1
-20.114407 -0.378813 33.362932 38.959185 0.018831 0.542625 -0.006381 0.006930 81411.200000 0 0 1
-20.840607 -1.704513 33.004606 39.070965 0.081606 0.564727 -0.002167 -0.008136 -185157.000000 0 0 1
-20.015007 -2.574913 32.251288 38.044399 0.127946 0.559110 -0.006872 -0.008827 61632.600000 0 0 1
-20.142307 -3.991113 32.610648 38.536942 0.195612 0.561950 0.002026 -0.016553 647571.000000 0 0 1
-21.517907 -4.739213 32.314748 39.111679 0.216784 0.598437 0.005351 -0.013096 1691950.000000 0 0 1
-22.679807 -4.439513 33.110699 40.378228 0.193303 0.609361 0.009919 -0.013021 906174.000000 0 0 1
-22.597007 -4.829013 34.478471 41.505530 0.210535 0.590440 0.005361 -0.009350 -1243900.000000 0 0 1
-23.930507 -4.546413 -33.889375 41.735222 0.187746 2.518382 -0.003458 -0.004116 -513371.000000 0 0 1
-23.977007 -4.870713 -32.538425 40.710807 0.200414 2.496855 -0.003386 -0.002037 -55599.100000 0 0 1
-25.140037 -4.421113 -31.890495 40.848150 0.174079 2.466595 -0.007535 -0.001766 -534789.000000 0 0 1
-25.204937 -5.000013 -30.468805 39.857710 0.195832 2.440968 -0.019678 0.010425 -1561430.000000 0 0 1
-25.496957 -6.345913 -30.331675 40.129490 0.243933 2.427740 -0.014592 -0.000175 501509.000000 0 0 1
-25.442637 -6.724013 -28.981025 39.146391 0.258374 2.404349 -0.031025 0.002047 -489650.000000 0 0 1
-25.706837 -8.248813 -28.787965 39.466838 0.310501 2.388272 -0.024221 0.000441 87974.400000 0 0 1
-27.073307 -8.585013 -28.968705 40.569105 0.307072 2.366074 0.004729 -0.003783 114108.000000 0 0 1
-27.294397 -9.890913 -28.555865 40.721637 0.347660 2.347939 -0.009548 -0.002555 77246.200000 0 0 1
-28.767267 -10.211713 -28.221395 41.572610 0.341102 2.316986 0.022567 -0.003536 179554.000000 0 0 1
-28.872587 -11.373813 -27.467755 41.442339 0.375264 2.295341 0.021985 0.001326 -755741.000000 0 0 1
-30.198707 -11.532613 -27.083645 42.172111 0.364798 2.268183 0.024393 0.011444 -518401.000000 0 0 1
-30.320247 -12.491513 -25.846605 41.754069 0.390796 2.238291 0.021662 0.013342 115548.000000 0 0 1
-29.691007 -11.779913 -24.785205 40.430541 0.377702 2.230689 0.026524 0.008798 402945.000000 0 0 1
-29.660337 -12.475713 -23.554105 39.876997 0.398154 2.202684 0.028415 0.010120 -240789.000000 0 0 1
-29.323847 -11.628013 -22.307905 38.636011 0.377518 2.186320 0.030778 0.006384 99945.200000 0 0 1
-29.031717 -12.238313 -21.064305 37.898837 0.398945 2.160125 0.023130 0.004542 809557.000000 0 0 1
-28.009557 -13.262213 -21.005205 37.438486 0.442215 2.166461 0.018691 0.003794 110549.000000 0 0 1
-27.626167 -13.640713 -19.588305 36.509942 0.458644 2.137104 0.028548 -0.006297 -124671.000000 0 0 1
-26.924497 -12.593813 -18.930905 35.240770 0.437513 2.137896 0.017658 -0.006763 200316.000000 0 0 1
-26.775187 -12.866113 -17.571405 34.513791 0.447946 2.104950 0.003244 -0.007355 -59666.300000 0 0 1
-26.627847 -11.514813 -16.850405 33.549505 0.408151 2.097001 0.003254 -0.015532 340790.000000 0 0 1
-25.336997 -10.933013 -17.016605 32.420041 0.407367 2.123370 0.023300 -0.019541 432600.000000 0 0 1
-25.353757 -9.688513 -16.319705 31.670381 0.365010 2.112152 0.035069 -0.015802 334867.000000 0 0 1
-23.993007 -8.921813 -16.167605 30.276304 0.356007 2.134123 0.049419 -0.017888 589288.000000 0 0 1
-22.973107 -9.600913 -15.437405 29.295984 0.395858 2.125800 0.028371 -0.023687 826883.000000 0 0 1
-21.866107 -8.669813 -15.329905 28.076650 0.377482 2.148381 0.036530 -0.039317 223655.000000 0 0 1
-20.904507 -9.249713 -14.298605 26.963044 0.416578 2.129755 0.022047 -0.009814 -560820.000000 0 0 1
-20.040907 -10.286513 -14.679405 26.887455 0.474212 2.148328 0.011853 -0.003280 768196.000000 0 0 1
-18.854707 -10.276913 -13.872205 25.564683 0.499041 2.144363 0.009347 0.005426 602856.000000 0 0 1
-17.872807 -11.459213 -14.109105 25.491521 0.570131 2.157336 0.009235 0.004970 -38961.700000 0 0 1
-17.139807 -11.346913 -15.354505 25.657090 0.584779 2.212362 0.009159 -0.004622 -272832.000000 0 0 1
-17.848507 -11.414113 -16.543205 26.879896 0.568958 2.233752 0.008802 -0.011134 -843729.000000 0 0 1
-16.991207 -10.986713 -17.737705 26.907902 0.573990 2.290552 -0.002610 -0.010135 -17378.600000 0 0 1
-17.612707 -11.189513 -19.023005 28.236278 0.565978 2.310011 -0.004559 -0.007041 334809.000000 0 0 1
-16.938207 -10.558913 -20.089005 28.318927 0.557432 2.359421 -0.004030 -0.008281 106395.000000 0 0 1
-17.798507 -10.761113 -21.386605 29.832454 0.543801 2.370128 -0.003098 -0.004890 -351056.000000 0 0 1
-19.041907 -10.146613 -21.293005 30.314024 0.489586 2.349580 0.008247 -0.019056 -558060.000000 0 0 1
-19.873907 -10.668613 -22.311905 31.727159 0.492664 2.350745 0.010805 -0.011091 407793.000000 0 0 1
-21.242107 -9.937213 -22.472905 32.480868 0.437563 2.334888 0.009833 -0.016090 456535.000000 0 0 1
-21.031807 -8.625413 -23.045105 32.369917 0.389194 2.363039 0.008089 -0.018356 81695.800000 0 0 1
-22.061407 -8.392013 -23.945705 33.623331 0.363491 2.363388 0.009318 -0.023552 -660427.000000 0 0 1
-21.595707 -7.565213 -25.126045 33.984190 0.336952 2.402894 0.002365 -0.025795 -313987.000000 0 0 1
-20.852207 -8.348013 -26.003105 34.360811 0.380801 2.429148 0.013770 -0.024550 1665.500000 0 0 1
-20.270507 -7.617513 -27.063355 34.660426 0.359466 2.466764 0.010151 -0.029562 -50823.700000 0 0 1
-19.121707 -8.344913 -27.813315 34.768632 0.411496 2.498015 0.039794 -0.027880 -204374.000000 0 0 1
-19.380507 -9.510613 -28.524065 35.772589 0.456205 2.493724 0.040070 -0.020837 -275152.000000 0 0 1
-18.173807 -10.006013 -29.034955 35.685237 0.503283 2.521183 0.002999 -0.012195 -308352.000000 0 0 1
-18.348907 -11.199313 -30.007945 36.913192 0.547997 2.519967 0.014046 -0.010235 -308958.000000 0 0 1
-18.724407 -10.895313 -31.344515 38.102361 0.526988 2.536835 0.020620 -0.006731 290066.000000 0 0 1
-18.742707 -12.072313 -32.212835 39.175203 0.572222 2.536195 0.005173 -0.002844 -211661.000000 0 0 1
-19.114707 -11.841813 -33.659345 40.479032 0.554644 2.552645 -0.000778 -0.002580 -280664.000000 0 0 1
-18.108007 -11.223813 -34.425832 40.484711 0.554870 2.587430 0.003502 -0.005029 -335598.000000 0 0 1
-18.487807 -11.012113 33.263391 39.617153 0.537209 0.574211 -0.000199 -0.011803 -36129.200000 0 0 1
-18.071707 -12.028713 32.150858 38.793739 0.587271 0.593901 0.015653 -0.006357 -192468.000000 0 0 1
-16.712507 -11.865213 31.800888 37.833684 0.617379 0.572509 0.013288 -0.011722 326821.000000 0 0 1
-16.216007 -12.832913 30.791428 37.091166 0.669458 0.591410 0.019736 -0.017351 329901.000000 0 0 1
-16.175507 -14.317513 31.170488 37.924102 0.724542 0.606027 0.012109 -0.009509 -910264.000000 0 0 1
-17.388207 -14.987713 30.823428 38.432603 0.711389 0.640139 0.013846 -0.006332 328060.000000 0 0 1
-17.529707 -16.306813 31.359348 39.453916 0.749273 0.652061 0.021594 -0.005963 -9206.170000 0 0 1
-17.898507 -16.365913 32.881108 40.857887 0.740700 0.635512 0.010002 -0.007654 200929.000000 0 0 1
-16.754807 -16.055813 33.666654 40.889562 0.764097 0.603498 0.006322 -0.004747 334714.000000 0 0 1
-17.221507 -15.711913 -34.090884 41.299309 0.739592 2.541811 0.008877 -0.001147 339658.000000 0 0 1
-16.092107 -15.183913 -33.186925 39.885826 0.756368 2.553586 0.003982 -0.004590 -53802.500000 0 0 1
-15.772507 -13.829013 -33.522575 39.544616 0.719837 2.582460 0.006513 -0.001911 -706890.000000 0 0 1
-14.833607 -13.232513 -32.678225 38.249205 0.728413 2.595096 0.016026 -0.002463 -511029.000000 0 0 1
-15.214207 -12.831013 -31.211595 37.017167 0.700625 2.573940 0.016813 -0.007289 -516809.000000 0 0 1
-15.312907 -13.997513 -30.442375 36.839567 0.740550 2.543391 0.021237 -0.017552 -175382.000000 0 0 1
-15.781007 -13.859713 -29.136335 35.917375 0.720669 2.517005 0.021921 -0.013954 -237470.000000 0 0 1
-15.863207 -15.215713 -28.447775 35.950454 0.764567 2.483737 0.016034 -0.002827 1397960.000000 0 0 1
-14.628107 -15.925313 -28.085735 35.445812 0.827830 2.485459 0.027098 -0.016245 1164570.000000 0 0 1
-13.912507 -16.531013 -29.149885 36.284267 0.871199 2.503738 0.020773 -0.019243 -252774.000000 0 0 1
-12.477607 -16.955113 -28.791035 35.666374 0.936367 2.510243 0.028419 -0.017178 -207224.000000 0 0 1
-11.631107 -15.831613 -28.728505 34.803012 0.937175 2.541814 0.023424 -0.019659 256907.000000 0 0 1
-10.295107 -16.259413 -28.430405 34.331409 1.006338 2.546535 0.033763 -0.023467 1108430.000000 0 0 1
-9.195607 -15.169213 -28.349015 33.441454 1.025829 2.582470 0.024260 -0.023380 103388.000000 0 0 1
-9.428707 -14.254813 -27.326795 32.231257 0.986421 2.582686 0.020520 -0.023565 -311643.000000 0 0 1
-8.316507 -13.419713 -27.044235 31.315230 1.016001 2.613189 0.020110 -0.019342 -35920.600000 0 0 1
-8.143307 -11.963613 -27.658065 31.215542 0.973160 2.659518 0.021532 -0.021791 -206743.000000 0 0 1
-7.586107 -11.959213 -28.989345 32.263817 1.005515 2.687158 0.030418 -0.021111 267224.000000 0 0 1
-7.526407 -10.588213 -29.330255 32.078356 0.952840 2.724651 0.022417 -0.014049 -235802.000000 0 0 1
-6.651007 -10.345713 -30.557075 32.939407 0.999446 2.758934 0.018033 -0.002205 42735.500000 0 0 1
-5.277507 -10.716713 -30.375195 32.639738 1.113202 2.766900 0.028230 -0.009132 789419.000000 0 0 1
-4.376607 -10.491513 -31.415555 33.409035 1.175588 2.794398 0.037200 -0.010842 -208689.000000 0 0 1
-4.097107 -9.010613 -31.687105 33.197139 1.144042 2.838819 0.031781 -0.009327 -741212.000000 0 0 1
-2.914107 -8.732113 -32.426345 33.707709 1.248695 2.864980 0.032832 -0.015284 332597.000000 0 0 1
-3.013407 -7.385213 -32.946045 33.897845 1.183385 2.904060 0.018542 -0.017760 678079.000000 0 0 1
-1.612307 -6.828213 -33.382655 34.111958 1.338919 2.934439 0.029960 -0.020735 568595.000000 0 0 1
-1.076507 -7.329013 34.468070 35.255087 1.424956 0.211693 0.030135 -0.028500 121266.000000 0 0 1
0.093893 -6.572513 34.110337 34.737902 -1.556512 0.190370 0.016053 -0.014887 365168.000000 0 0 1
0.720693 -7.294713 32.903388 33.710016 -1.472319 0.219201 -0.001034 -0.005920 -565369.000000 0 0 1
0.016993 -7.174413 31.700348 32.502070 -1.568428 0.222571 -0.013210 0.002451 -143380.000000 0 0 1
0.633993 -7.762813 30.563798 31.540592 -1.489307 0.249522 -0.013420 0.000012 -57227.900000 0 0 1
0.360893 -7.090413 29.195648 30.046465 -1.519942 0.238543 -0.009675 0.000402 327585.000000 0 0 1
1.150793 -5.898213 28.985688 29.602083 -1.378108 0.204428 -0.011650 0.009183 333919.000000 0 0 1
0.900793 -5.376313 27.637528 28.170004 -1.404790 0.194741 -0.016441 0.010686 23752.200000 0 0 1
-0.318907 -4.462413 27.328968 27.692730 1.499452 0.162262 -0.003866 0.017829 223569.000000 0 0 1
-1.568907 -5.061413 27.538808 28.043989 1.270214 0.190096 -0.007024 0.014895 -1066150.000000 0 0 1
-2.595507 -4.152113 27.281858 27.717801 1.012121 0.177591 -0.009589 0.007653 -380952.000000 0 0 1
-3.933807 -4.750213 27.754748 28.431767 0.879135 0.218665 -0.006964 0.006930 -277726.000000 0 0 1
-4.508407 -5.661113 26.830858 27.789726 0.898266 0.263457 -0.010638 0.008178 405852.000000 0 0 1
-5.840507 -6.021713 27.213378 28.477017 0.800673 0.299019 -0.009370 0.001132 914761.000000 0 0 1
-6.008607 -7.544413 27.176248 28.836955 0.898235 0.341031 0.000380 0.003223 -54870.100000 0 0 1
-5.394707 -8.245013 28.206288 29.877714 0.991405 0.336071 0.002508 0.001211 -326132.000000 0 0 1
-5.518107 -9.650613 28.072608 30.193628 1.051379 0.377056 0.004962 -0.002550 -244040.000000 0 0 1
-4.663207 -10.349313 29.105428 31.240674 1.147459 0.371864 0.006178 -0.007393 -320048.000000 0 0 1
-4.954207 -11.737713 29.203468 31.861585 1.171405 0.411372 0.015336 -0.017165 126273.000000 0 0 1
-4.309207 -12.326513 30.331788 33.023167 1.234488 0.406525 0.020216 -0.019957 -261809.000000 0 0 1
-4.460307 -13.851213 30.432028 33.732162 1.259266 0.446031 0.023554 -0.019547 658816.000000 0 0 1
-5.829007 -14.268113 30.438278 34.118106 1.182955 0.468726 0.040061 -0.024501 179167.000000 0 0 1
-5.862507 -15.698213 30.516738 34.814856 1.213385 0.502163 0.033522 -0.025328 90951.300000 0 0 1
-5.891207 -16.430213 31.862258 36.329901 1.226517 0.501160 0.054936 -0.025953 -733921.000000 0 0 1
-7.173207 -16.573713 32.357678 37.056203 1.162332 0.509055 0.048821 -0.023158 -991649.000000 0 0 1
-7.219607 -17.048113 33.646083 38.403382 1.170210 0.503036 0.051258 -0.023839 802796.000000 0 0 1
-8.687807 -17.466013 34.045040 39.237793 1.109221 0.520321 0.053727 -0.018908 1216530.000000 0 0 1
-9.306307 -18.539413 33.320078 39.249774 1.105571 0.556850 0.045436 -0.022365 666609.000000 0 0 1
-9.933407 -18.355913 32.009528 38.212851 1.074769 0.577804 0.032140 -0.016381 79076.800000 0 0 1
-10.711907 -19.618013 31.611928 38.715958 1.071011 0.615458 0.023339 -0.018730 117997.000000 0 0 1
-11.851707 -19.971513 32.391998 39.856817 1.035221 0.622010 0.033075 -0.018468 52382.100000 0 0 1
-12.085107 -21.354613 32.506998 40.728052 1.055809 0.646582 0.027476 -0.017471 -530483.000000 0 0 1
-11.432507 -22.090213 33.702375 41.887108 1.093218 0.635794 0.033458 -0.015156 -907094.000000 0 0 1
-10.084107 -22.307013 33.396803 41.408194 1.146231 0.632543 0.017439 -0.014361 -444895.000000 0 0 1
-9.335907 -23.009213 34.401375 42.426850 1.185346 0.625211 0.026616 -0.019030 334588.000000 0 0 1
-9.663107 -24.449313 -34.319062 43.231268 1.194409 2.487907 0.028664 -0.001963 -437802.000000 0 0 1
-9.424907 -25.220513 33.580099 43.040983 1.213166 0.675829 0.023985 -0.007007 -92505.700000 0 0 1
-9.561707 -26.603993 33.869804 44.117596 1.225764 0.695526 0.039059 -0.009260 -827272.000000 0 0 1
-8.941907 -27.500563 32.791978 43.721305 1.256426 0.722700 0.026221 0.001298 786313.000000 0 0 1
-7.509107 -27.456573 32.732178 43.377939 1.303834 0.715781 0.027055 -0.004454 469263.000000 0 0 1
-6.876607 -28.223403 33.752300 44.531629 1.331804 0.710647 0.020867 -0.001398 226824.000000 0 0 1
-5.362207 -27.796073 33.806612 44.093786 1.380225 0.697115 0.009093 -0.005085 738794.000000 0 0 1
-5.252407 -26.513523 34.395502 43.744774 1.375226 0.666036 0.007483 0.001597 18206.300000 0 0 1
-4.763407 -25.611853 33.403068 42.360619 1.386913 0.662364 0.045343 -0.005033 -22049.700000 0 0 1
-4.303607 -24.307513 34.045212 42.052975 1.395564 0.627361 0.045301 -0.005193 -298700.000000 0 0 1
-3.165807 -24.311013 -34.178389 42.061978 1.441304 2.519348 0.036358 -0.004909 -462871.000000 0 0 1
-2.548907 -23.071113 -34.336473 41.445947 1.460762 2.547156 0.040676 -0.006981 -43589.100000 0 0 1
33.658646 -15.798113 2.314695 37.253760 -0.438839 1.508623 0.071074 -0.037421 -800240.000000 0 0 1
34.567016 -16.073813 3.313295 38.265180 -0.435261 1.484100 0.066467 -0.030432 -526016.000000 0 0 1
34.045026 -16.579613 4.498295 38.133739 -0.453186 1.452560 0.066675 -0.038229 -179599.000000 0 0 1
35.085919 -16.576513 5.629695 39.210917 -0.441370 1.426724 0.056907 -0.014125 179133.000000 0 0 1
-34.372874 -17.527013 5.576495 38.984458 0.471543 1.427260 0.069999 -0.016068 -96105.400000 0 0 1
-33.859387 -17.668513 6.878295 38.806512 0.480951 1.392609 0.054218 -0.007980 508282.000000 0 0 1
-32.634697 -18.664313 6.896295 38.222231 0.519514 1.389376 0.035783 -0.011291 403191.000000 0 0 1
-32.885817 -20.060013 6.904695 39.135098 0.547733 1.393436 0.062043 -0.016306 214087.000000 0 0 1
-31.699497 -20.813713 7.143495 38.588836 0.580997 1.384604 0.033264 -0.000639 -12700.400000 0 0 1
-31.900437 -22.375813 7.236895 39.631901 0.611683 1.387163 0.010006 0.002088 -471351.000000 0 0 1
-31.807417 -23.031013 6.011595 39.727555 0.626703 1.418892 0.027564 0.005950 41761.500000 0 0 1
-32.087947 -24.409713 6.121095 40.779140 0.650322 1.420123 0.035017 -0.001266 -216974.000000 0 0 1
-31.597497 -25.249403 4.964995 40.750281 0.674189 1.448653 0.028107 -0.002742 -318572.000000 0 0 1
-32.245487 -24.981513 3.748895 40.962198 0.659141 1.479147 0.034646 -0.002067 110847.000000 0 0 1
-31.674027 -25.625583 2.651495 40.828237 0.680229 1.505808 0.026314 0.001867 -606263.000000 0 0 1
-32.415487 -25.199033 1.413595 41.082275 0.660793 1.536381 0.027346 0.000993 -322904.000000 0 0 1
-33.537817 -26.037093 1.111795 42.472950 0.660153 1.544617 0.042863 -0.000334 667160.000000 0 0 1
-34.466709 -25.465673 0.217395 42.854426 0.636326 1.565723 0.044543 -0.001822 33019.700000 0 0 1
35.132747 -24.325813 0.701195 42.738119 -0.605605 1.554389 0.063081 -0.004021 -1384420.000000 0 0 1
33.860226 -24.417513 0.125495 41.746205 -0.624765 1.567790 0.038901 0.000945 -647349.000000 0 0 1
33.091056 -23.435313 0.818495 40.557389 -0.616213 1.550614 0.057711 -0.014346 164934.000000 0 0 1
31.602146 -23.526013 0.389395 39.399500 -0.639935 1.560913 0.025072 -0.008438 87881.700000 0 0 1
31.303316 -23.395913 -1.002205 39.093104 -0.641831 1.596435 0.026919 -0.018041 211267.000000 0 0 1
29.932586 -23.517313 -1.379205 38.091022 -0.665946 1.607012 0.030476 -0.012335 587605.000000 0 0 1
29.753186 -23.208013 -2.905605 37.845825 -0.662437 1.647647 0.014984 0.003198 -80265.900000 0 0 1
29.841476 -21.840813 -3.241805 37.122017 -0.631813 1.658236 0.031835 -0.014769 -22767.800000 0 0 1
29.849436 -21.614013 -4.610605 37.140437 -0.626719 1.695257 0.030827 -0.029362 30343.900000 0 0 1
29.832766 -20.084613 -4.876105 36.292727 -0.592540 1.705559 0.035461 -0.029205 757735.000000 0 0 1
28.575746 -19.605113 -4.389305 34.931357 -0.601319 1.696785 0.034689 -0.028311 810096.000000 0 0 1
28.719896 -18.200213 -4.306505 34.272820 -0.564841 1.696783 0.034427 -0.032759 95636.000000 0 0 1
27.880476 -17.666413 -3.132705 33.154742 -0.564794 1.665425 0.043506 -0.030347 -135916.000000 0 0 1
28.558226 -17.674513 -1.877305 33.637553 -0.554196 1.626635 0.049168 -0.023996 227850.000000 0 0 1
29.070966 -18.823113 -1.263205 34.655827 -0.574608 1.607254 0.045141 -0.020907 -759016.000000 0 0 1
28.083256 -19.956513 -1.017505 34.466897 -0.617818 1.600322 0.032867 -0.007645 -303812.000000 0 0 1
27.091026 -19.641913 -0.062605 33.462402 -0.627330 1.572667 0.030957 -0.002087 -28352.800000 0 0 1
26.363896 -20.764813 0.361595 33.561335 -0.667148 1.560022 0.017800 -0.002363 475445.000000 0 0 1
25.278036 -20.439913 1.471295 32.541264 -0.679965 1.525568 0.023267 0.003301 -176475.000000 0 0 1
24.527336 -21.516513 2.006995 32.689120 -0.720101 1.509361 0.017281 0.016262 494668.000000 0 0 1
23.555436 -21.121913 2.979195 31.778442 -0.730983 1.476910 0.007572 0.015427 4219.670000 0 0 1
22.260936 -20.478413 2.504795 30.351090 -0.743715 1.488175 -0.002575 0.006420 -1246670.000000 0 0 1
22.309836 -19.119513 2.094595 29.456271 -0.708543 1.499628 0.010838 0.001559 51394.100000 0 0 1
22.440636 -18.175213 3.135795 29.047439 -0.680763 1.462631 0.009621 0.014796 -188264.000000 0 0 1
22.321036 -16.702813 2.696495 28.008636 -0.642412 1.474373 0.015768 0.015980 213870.000000 0 0 1
20.988736 -16.484013 2.287595 26.785870 -0.665759 1.485289 0.001461 0.022849 -212661.000000 0 0 1
20.938336 -15.269013 1.603595 25.963979 -0.630080 1.508995 0.006183 0.009589 391753.000000 0 0 1
19.559636 -14.965513 0.928295 24.645642 -0.653109 1.533122 0.000383 0.012936 32433.100000 0 1 0
18.590936 -14.706213 1.906195 23.780858 -0.669255 1.490554 0.002915 0.004897 -420964.000000 0 1 0
17.858136 -13.548413 1.611595 22.473757 -0.649026 1.499025 0.015363 -0.000788 -554011.000000 0 1 0
18.506036 -12.225213 2.082595 22.277038 -0.583796 1.477173 0.029797 0.000418 -149041.000000 0 1 0
19.526536 -11.730813 1.228095 22.812405 -0.540980 1.516936 0.026897 0.002161 474203.000000 0 1 0
20.055436 -10.489713 1.695195 22.696438 -0.481906 1.496037 0.033290 -0.004900 -27856.900000 0 1 0
20.819536 -9.748013 0.576095 22.995842 -0.437898 1.545742 0.032058 -0.003743 -255614.000000 0 1 0
20.003936 -9.491313 -0.529605 22.147753 -0.443018 1.594711 0.018890 0.003340 158563.000000 0 1 0
20.692336 -8.747113 -1.515105 22.516223 -0.399940 1.638137 0.006489 0.000962 -310055.000000 0 1 0
19.954236 -8.601513 -2.861505 21.916792 -0.406994 1.701732 -0.003995 0.000179 -285356.000000 0 1 0
20.711336 -7.809813 -3.770605 22.453732 -0.360592 1.739524 -0.010944 0.002274 2149700.000000 0 1 0
21.951536 -8.471513 -4.260305 23.912061 -0.368309 1.749918 -0.003699 -0.000324 907304.000000 0 1 0
21.803236 -9.793513 -5.165705 24.453599 -0.422169 1.783645 0.008403 -0.000921 -659392.000000 0 1 0
21.313736 -9.678413 -6.485505 24.290097 -0.426252 1.841077 0.001483 -0.002184 480001.000000 0 1 0
19.915036 -9.438213 -6.493305 22.975020 -0.442570 1.857325 -0.009974 0.005537 -206898.000000 0 1 0
19.102936 -9.473313 -7.784505 22.699435 -0.460369 1.920839 -0.018888 0.009550 -264872.000000 0 1 0
18.911536 -10.720913 -8.406705 23.307871 -0.515724 1.939794 -0.024576 0.008953 299380.000000 0 1 0
20.034836 -11.040013 -9.179905 24.648473 -0.503642 1.952426 -0.027444 0.005026 -388682.000000 0 1 0
19.939636 -12.414313 -9.843405 25.467565 -0.556868 1.967638 -0.032277 0.002459 -410339.000000 0 0 1
18.791736 -12.540413 -10.632305 24.968725 -0.588466 2.010670 -0.023687 0.006946 -112288.000000 0 1 0
18.539236 -13.851113 -11.061605 25.649868 -0.641658 2.016678 -0.025401 0.011182 -486869.000000 0 0 1
17.506636 -14.055313 -12.139605 25.522620 -0.676480 2.066489 -0.011603 0.008806 -589591.000000 0 0 1
17.430336 -15.406513 -12.570005 26.442055 -0.723843 2.066191 -0.007407 0.010236 -14026.500000 0 0 1
16.454436 -15.620613 -13.556505 26.429734 -0.759408 2.109387 0.003257 0.010620 -322263.000000 0 0 1
16.424636 -17.094813 -14.042705 27.553564 -0.805389 2.105576 0.002246 0.004418 -330410.000000 0 0 1
15.782836 -17.991013 -13.144605 27.304855 -0.850686 2.073050 -0.004550 0.001621 273835.000000 0 0 1
15.743136 -19.345713 -13.571905 28.395414 -0.887710 2.069128 -0.001047 -0.001738 -212065.000000 0 0 1
14.813536 -20.273713 -12.725505 28.149650 -0.939777 2.039877 0.001330 -0.004845 1001310.000000 0 0 1
13.428536 -19.915013 -12.772705 27.204325 -0.977533 2.059532 -0.000412 -0.008199 596124.000000 0 0 1
12.593736 -20.661513 -11.891805 26.961367 -1.023402 2.027585 0.002540 -0.006661 873807.000000 0 0 1
11.082736 -20.278913 -12.011705 26.045007 -1.070632 2.050133 0.007552 -0.007684 62958.300000 0 0 1
10.283636 -21.089713 -11.226705 26.010922 -1.117107 2.017079 0.004477 -0.007280 365844.000000 0 0 1
8.896336 -20.817113 -11.517005 25.399575 -1.166931 2.041410 0.010683 0.000983 971698.000000 0 0 1
7.861436 -21.547613 -10.632705 25.281539 -1.220962 2.004872 0.018808 -0.003847 -107797.000000 0 0 1
7.812736 -22.920813 -10.843405 26.532658 -1.242289 1.991805 0.019714 -0.005177 -77111.700000 0 0 1
6.984936 -23.489913 -9.855005 26.413755 -1.281764 1.953146 0.023242 -0.013960 160647.000000 0 0 1
6.947536 -24.997443 -9.803805 27.735447 -1.299708 1.932080 0.016709 -0.010243 -64974.200000 0 0 1
8.205936 -25.473903 -9.435105 28.377426 -1.259161 1.909735 0.014286 -0.001080 -693420.000000 0 0 1
8.532936 -26.763103 -9.854805 29.768975 -1.262153 1.908205 0.008976 -0.002876 -962664.000000 0 0 1
9.985836 -27.073463 -9.620605 30.417846 -1.217435 1.892604 0.018618 -0.005413 -1038800.000000 0 0 1
10.315836 -27.212423 -8.246205 30.247849 -1.208449 1.846913 0.019821 -0.013362 -927677.000000 0 0 1
11.627736 -27.662583 -8.194905 31.105935 -1.172878 1.837395 0.020641 -0.008255 -884804.000000 0 0 1
12.052936 -28.063563 -6.688905 31.266248 -1.165131 1.786396 0.017501 -0.007040 -5782.400000 0 0 1
11.542336 -29.262003 -6.093705 32.040967 -1.195085 1.762147 0.022784 -0.009154 -385511.000000 0 0 1
10.161036 -29.254653 -5.888505 31.523894 -1.236502 1.758695 0.026213 -0.008156 -568596.000000 0 0 1
9.771436 -30.412973 -4.901905 32.318084 -1.259922 1.723061 0.036529 -0.011879 -50434.000000 0 0 1
9.912436 -31.755893 -5.285505 33.684265 -1.268235 1.728361 0.043182 -0.012851 96402.200000 0 0 1
9.064736 -32.204993 -6.355405 34.054694 -1.296425 1.758520 0.046661 -0.010210 294366.000000 0 0 1
9.315736 -33.705123 -6.534805 35.574175 -1.301139 1.755541 0.042403 -0.013337 -243708.000000 0 0 1
8.797436 -34.487472 -5.528205 36.018629 -1.321032 1.724887 0.039205 -0.011151 -172370.000000 0 0 1
9.186736 33.295439 -5.778105 35.019550 1.301579 1.736551 0.038592 -0.011233 26259.600000 0 0 1
8.930436 32.338281 -4.577405 33.859559 1.301355 1.706399 0.038436 -0.002775 -515524.000000 0 0 1
7.568036 32.100171 -4.486105 33.283949 1.339261 1.705991 0.039459 -0.002443 -1036100.000000 0 0 1
7.233436 31.079791 -3.521005 32.104104 1.342129 1.680692 0.025314 -0.003613 301982.000000 0 0 1
5.825636 30.450851 -3.665005 31.218979 1.381768 1.688464 0.021782 -0.006678 275982.000000 0 0 1
5.762836 29.722951 -4.899705 30.670364 1.379287 1.731237 0.018104 -0.008013 -223576.000000 0 0 1
5.050536 30.376201 -5.882405 31.350027 1.406037 1.759552 0.029225 -0.013696 -670961.000000 0 0 1
5.144436 29.709821 -7.258905 31.013391 1.399340 1.807045 0.029998 -0.017285 -93220.300000 0 0 1
4.400736 28.519921 -7.466705 29.807785 1.417700 1.823988 0.026698 -0.015763 -74127.100000 0 0 1
4.875036 27.308491 -6.834805 28.569813 1.394140 1.812371 0.021765 -0.011128 -608314.000000 0 0 1
4.132936 26.050451 -7.277905 27.361927 1.413456 1.840024 0.014470 -0.007328 -179397.000000 0 0 1
2.825236 25.952631 -6.727805 26.958939 1.462362 1.823020 0.011853 -0.007838 147409.000000 0 0 1
1.751036 26.540681 -7.453805 27.623054 1.504916 1.844023 0.017219 -0.012561 36647.700000 0 0 1
1.371036 25.867201 -8.823905 27.365181 1.517843 1.899113 0.013274 -0.013459 342654.000000 0 0 1
2.424736 25.981071 -9.837905 27.886910 1.477739 1.931335 0.013038 -0.016917 983292.000000 0 0 1
2.016436 25.179041 -10.974705 27.540775 1.490883 1.980665 0.021495 -0.011897 142246.000000 0 0 1
2.232636 23.664751 -10.836005 26.123248 1.476730 1.998523 0.026616 -0.004641 -230877.000000 0 0 1
1.127736 23.102851 -10.168305 25.266736 1.522021 1.984975 0.026248 -0.008576 -170236.000000 0 0 1
1.173336 21.722051 -10.043305 23.960221 1.516833 2.003323 0.001932 -0.005845 -190104.000000 0 1 0
0.003536 21.108951 -9.244305 23.044414 1.570629 1.983570 0.012273 -0.004393 650416.000000 0 1 0
-1.251664 21.174851 -9.940305 23.425427 -1.511754 2.009027 0.025268 -0.005198 55184.900000 0 1 0
-2.234064 20.532751 -9.162305 22.594972 -1.462418 1.988324 0.025348 -0.004991 -286043.000000 0 1 0
-3.628064 20.717051 -9.778005 23.194146 -1.397430 2.005975 0.024181 -0.001713 -339650.000000 0 1 0
-4.623164 19.977851 -9.140805 22.450891 -1.343385 1.990124 0.024958 -0.007302 -472851.000000 0 1 0
-5.693964 19.634451 -9.968005 22.744098 -1.288540 2.024467 0.033074 0.000911 -498322.000000 0 1 0
-6.680164 18.630851 -9.318005 21.875978 -1.226522 2.010805 0.029619 -0.004433 469220.000000 0 1 0
-7.684364 19.192851 -8.459105 22.337668 -1.189966 1.959179 0.042096 -0.003460 293890.000000 0 1 0
-8.965964 19.174051 -9.053705 23.021779 -1.133395 1.974978 0.046321 -0.010511 -461897.000000 0 1 0
-10.053664 19.408751 -8.039805 23.289788 -1.092855 1.923256 0.049972 -0.008066 -406912.000000 0 1 0
-10.180164 18.271051 -7.148405 22.103546 -1.062462 1.900122 0.032302 -0.004220 -448051.000000 0 1 0
-11.318964 18.453051 -6.339405 22.557085 -1.020588 1.855672 0.034527 -0.003943 -303354.000000 0 1 0
-11.683564 17.284951 -5.432105 21.558826 -0.976402 1.825508 0.019243 -0.008447 -135285.000000 0 1 0
-12.651364 17.693151 -4.488605 22.209281 -0.950046 1.774303 0.027373 -0.004528 -21182.400000 0 1 0
-12.957264 16.552551 -3.695405 21.343234 -0.906634 1.744815 0.023708 -0.005901 937699.000000 0 1 0
-14.327164 16.835651 -2.933605 22.300511 -0.865721 1.702727 0.017914 -0.005983 304575.000000 0 1 0
-15.462364 16.717651 -3.714405 23.072957 -0.824387 1.732485 0.031639 -0.010720 -375148.000000 0 1 0
-16.541364 17.380551 -3.058205 24.187867 -0.810132 1.697571 0.027485 -0.002492 472677.000000 0 1 0
-17.765264 17.498351 -4.030905 25.259554 -0.777829 1.731061 0.029315 -0.011090 153063.000000 0 0 1
-17.556064 18.321551 -5.139105 25.890249 -0.806731 1.770619 0.021408 -0.012263 94159.500000 0 0 1
-18.773864 18.645251 -5.787405 27.085003 -0.781961 1.786132 0.016416 -0.010505 134237.000000 0 0 1
-18.651764 19.664851 -6.908005 27.969898 -0.811832 1.820359 0.016585 -0.000065 -124842.000000 0 0 1
-18.260864 20.975351 -6.511505 28.562636 -0.854471 1.800792 0.009224 0.012010 213151.000000 0 0 1
-18.466264 21.883751 -7.553605 29.613483 -0.869893 1.828720 0.006310 0.017750 92296.900000 0 0 1
-18.551864 23.338851 -6.990605 30.622576 -0.899178 1.801110 0.005790 0.014272 296175.000000 0 0 1
-17.278764 23.745551 -6.500905 30.077710 -0.941745 1.788652 0.007628 0.017310 601300.000000 0 0 1
-17.445664 24.915971 -5.678705 30.941953 -0.959950 1.755370 0.009867 0.012519 -443874.000000 0 0 1
-16.115864 25.307621 -5.066205 30.428000 -1.003757 1.738073 0.011398 0.012533 -1099830.000000 0 0 1
-16.217864 26.194761 -3.971605 31.063777 -1.016432 1.699000 0.010347 0.006253 688469.000000 0 0 1
-14.935764 26.556711 -3.416105 30.659513 -1.058475 1.682449 0.011918 0.006715 1354870.000000 0 0 1
-14.094364 27.493121 -4.350505 31.200155 -1.097080 1.710691 0.023788 0.000224 -94617.400000 0 0 1
-14.823864 28.726921 -4.414405 32.626215 -1.094410 1.706515 0.023639 -0.014445 -13606.700000 0 0 1
-14.278964 29.746961 -5.245005 33.410785 -1.123265 1.728434 0.021613 -0.014140 -624332.000000 0 0 1
-14.763764 31.177521 -4.892305 34.841659 -1.128541 1.711677 0.018306 -0.021875 -1016260.000000 0 0 1
-16.065664 31.459291 -5.228105 35.708901 -1.098640 1.717734 0.019482 -0.012852 -1227090.000000 0 0 1
-16.389564 32.641701 -4.562005 36.809107 -1.105466 1.695053 0.017757 -0.019759 -218252.000000 0 0 1
12.378893 -8.814513 18.867658 24.226455 -0.618774 0.678040 0.020073 0.001914 19364.700000 0 1 0
12.823393 -10.073013 19.365558 25.316592 -0.665848 0.699855 0.030152 -0.005729 -191784.000000 0 0 1
13.163293 -11.003113 18.355658 25.125106 -0.696247 0.751639 0.032181 -0.002550 -1886.020000 0 0 1
13.741093 -12.292013 18.979758 26.460204 -0.729793 0.770885 0.048669 -0.012439 -132109.000000 0 0 1
15.087693 -12.155713 19.406258 27.422667 -0.678189 0.784598 0.042208 -0.006993 316237.000000 0 0 1
15.495993 -13.361913 20.087958 28.673900 -0.711581 0.794606 0.040955 -0.009236 -120833.000000 0 0 1
15.980893 -14.604413 19.285858 28.993484 -0.740424 0.843063 0.043008 -0.013513 -327407.000000 0 0 1
15.124093 -15.016713 18.215858 28.036714 -0.781836 0.863588 0.041297 -0.020705 478773.000000 0 0 1
15.638493 -16.187913 17.623258 28.586539 -0.802659 0.906522 0.050547 -0.024306 -465135.000000 0 0 1
14.892193 -16.593113 16.337258 27.640818 -0.839368 0.938430 0.048777 -0.031420 -302264.000000 0 0 1
13.511193 -16.810213 16.480958 27.143278 -0.893774 0.918285 0.070338 -0.029676 22101.900000 0 0 1
12.742393 -16.476513 15.308958 25.849724 -0.912507 0.936974 0.077565 -0.032075 241837.000000 0 0 1
12.120393 -17.741013 14.682558 26.023546 -0.971445 0.971329 0.058811 -0.021756 399951.000000 0 0 1
13.155993 -18.594013 14.175858 26.828575 -0.955028 1.014097 0.054667 -0.022232 671255.000000 0 0 1
12.582393 -19.725613 13.584458 27.054647 -1.002995 1.044757 0.048533 -0.019756 103628.000000 0 0 1
13.639493 -20.717913 13.005158 28.007174 -0.988578 1.087895 0.048971 -0.020259 304072.000000 0 0 1
14.483593 -21.330513 13.964358 29.321810 -0.974298 1.074417 0.043766 -0.023718 30158.900000 0 0 1
14.946293 -22.591713 13.494958 30.263692 -0.986321 1.108603 0.035188 -0.016802 91482.700000 0 0 1
15.852593 -23.309513 14.526858 31.712264 -0.973557 1.094959 0.039528 -0.015956 -107574.000000 0 0 1
17.158193 -22.836413 14.689658 32.119953 -0.926430 1.095797 0.028466 -0.023811 -511552.000000 0 0 1
17.718493 -23.442813 15.845958 33.385698 -0.923582 1.076249 0.036580 -0.020929 41700.200000 0 0 1
19.169593 -22.999513 16.125958 34.007314 -0.875973 1.076752 0.020578 -0.024035 834952.000000 0 0 1
20.129793 -23.412013 15.106758 34.373610 -0.860637 1.115769 0.020353 -0.027122 -426149.000000 0 0 1
21.356393 -22.824313 15.383258 34.838045 -0.818611 1.113454 0.014841 -0.022647 -374297.000000 0 0 1
22.515593 -23.650213 14.759058 35.834540 -0.809970 1.146295 -0.002062 -0.020363 152680.000000 0 0 1
22.854893 -24.767413 15.574158 37.125803 -0.825537 1.137905 0.005620 -0.015731 -304412.000000 0 0 1
23.937793 -25.543583 15.182958 38.157761 -0.817839 1.161570 0.005538 -0.012245 -781651.000000 0 0 1
24.306693 -26.711323 16.094058 39.538953 -0.832496 1.151582 0.003414 -0.011170 -232202.000000 0 0 1
24.801693 -26.190343 17.317758 40.012033 -0.812624 1.123185 -0.002823 -0.001934 69991.600000 0 0 1
25.101293 -27.255003 18.224158 41.292009 -0.826511 1.113696 0.011100 0.000974 74711.100000 0 0 1
25.327393 -26.693433 19.659458 41.719426 -0.811652 1.080111 -0.002084 0.004213 818883.000000 0 0 1
24.175693 -26.063873 20.265958 40.920638 -0.822964 1.052673 0.006928 0.003955 799148.000000 0 0 1
24.483293 -25.753133 21.620058 41.594259 -0.810670 1.024197 0.007404 0.014096 882617.000000 0 0 1
23.182193 -25.828693 22.516358 41.370543 -0.839344 0.995289 0.017178 0.013831 739643.000000 0 0 1
22.746193 -27.132213 22.740558 42.079440 -0.873107 0.999860 0.019075 0.014685 -467146.000000 0 0 1
21.621193 -27.205053 23.571158 41.990360 -0.899265 0.974784 0.020774 0.016789 -597683.000000 0 0 1
21.032993 -28.585843 23.485958 42.557343 -0.936456 0.986196 0.034614 0.015700 -491978.000000 0 0 1
21.876293 -29.585283 24.019968 43.941097 -0.934093 0.992450 0.025854 0.015949 413194.000000 0 0 1
21.603993 -30.908863 23.548058 44.458985 -0.960770 1.012599 0.033665 0.010615 -102965.000000 0 0 1
22.734893 -31.864663 23.999218 45.915080 -0.951079 1.020797 0.023993 0.020899 125722.000000 0 0 1
22.656793 -32.026203 25.386478 46.727735 -0.955091 0.996451 0.022363 0.012728 275146.000000 0 0 1
23.834193 -32.626463 25.872328 47.978455 -0.939881 1.001251 0.025755 0.004398 -770203.000000 0 0 1
23.811393 -32.936803 27.358898 48.993109 -0.944839 0.978312 0.031730 -0.012543 148419.000000 0 0 1
23.047893 -34.043635 27.782358 49.618886 -0.975667 0.976513 0.019448 -0.001904 293508.000000 0 0 1
21.664693 -34.093878 27.512428 48.874176 -1.004723 0.972877 0.020067 0.002736 -333991.000000 0 0 1
20.907993 33.726697 27.987038 48.558300 1.015855 0.956530 0.042464 -0.017514 -87437.600000 0 0 1
20.563193 33.655405 29.339138 49.156039 1.022333 0.931218 0.044382 -0.014870 20722.200000 0 0 1
20.009893 32.434961 29.692158 48.311973 1.018026 0.908928 0.048029 -0.019980 -449547.000000 0 0 1
19.551393 32.541291 31.165028 49.116713 1.029776 0.883422 0.038978 -0.018696 1091630.000000 0 0 1
20.698193 32.656361 32.082278 50.240677 1.005881 0.878155 0.031270 -0.005127 1180810.000000 0 0 1
20.321793 32.950321 33.424164 51.145612 1.018159 0.858584 0.017409 -0.006252 293273.000000 0 0 1
21.563393 32.860131 34.354520 52.201544 0.990063 0.852486 0.003203 0.004099 379403.000000 0 0 1
21.972093 31.555811 -34.425242 51.610458 0.962563 2.300999 0.015662 0.000222 -269705.000000 0 0 1
23.062393 31.446681 -33.548685 51.442025 0.938017 2.281233 0.013949 0.006213 -103402.000000 0 0 1
23.420993 29.971611 -33.308995 50.560157 0.907476 2.290018 0.022596 0.005337 56327.200000 0 0 1
24.092093 29.300781 -34.359957 51.181748 0.882644 2.306801 0.024919 -0.000605 239323.000000 0 0 1
23.306593 28.252261 34.131627 50.063514 0.881028 0.820622 0.042737 -0.011165 66290.000000 0 0 1
23.928393 27.737781 32.763558 49.146752 0.858996 0.841094 0.059119 -0.021347 365674.000000 0 0 1
25.153493 27.032901 32.751758 49.357406 0.821396 0.845225 0.043974 -0.021748 554487.000000 0 0 1
25.110093 26.191371 31.635478 48.138427 0.806472 0.853729 0.067017 -0.029062 631502.000000 0 0 1
26.322793 25.160381 31.645108 48.242585 0.762824 0.855345 0.038864 -0.019135 490106.000000 0 0 1
26.280993 24.311831 32.776148 48.538970 0.746496 0.829487 0.043058 -0.027710 345916.000000 0 0 1
27.274693 24.729161 33.680705 49.898198 0.736488 0.829847 0.036960 -0.028528 -1204900.000000 0 0 1
27.119993 23.906151 -34.055365 49.666548 0.722497 2.326334 0.025920 -0.035027 204105.000000 0 0 1
25.985193 24.145171 -33.232435 48.606731 0.748710 2.323618 0.037641 -0.037816 730134.000000 0 0 1
24.678093 23.937551 -33.725825 48.160626 0.770167 2.346583 0.036937 -0.029872 -210522.000000 0 0 1
24.079193 22.479651 -33.754615 47.164778 0.751056 2.368385 0.023872 -0.030600 -251810.000000 0 0 1
23.801293 21.987951 -32.474535 45.875559 0.745817 2.357293 0.011104 -0.036870 319358.000000 0 0 1
23.540293 20.571251 -32.486305 45.085272 0.718192 2.375395 0.003514 -0.023708 -219945.000000 0 0 1
23.462893 19.881851 -31.160155 43.780710 0.702968 2.362758 0.008338 -0.025370 206713.000000 0 0 1
22.305093 20.280251 -30.421875 42.828685 0.737886 2.360743 0.000131 -0.021984 417196.000000 0 0 1
22.334993 19.582951 -29.164945 41.628571 0.719839 2.347033 0.001791 -0.020041 1186120.000000 0 0 1
21.040093 19.849751 -28.248945 40.431436 0.756295 2.344358 0.020879 -0.023119 1085450.000000 0 0 1
20.958693 19.081451 -27.053685 39.182527 0.738548 2.332911 0.018014 -0.014911 130500.000000 0 0 1
21.638893 19.778451 -26.004115 39.187278 0.740509 2.296398 0.011497 -0.012493 112819.000000 0 0 1
21.784493 19.066951 -24.639805 38.016217 0.718973 2.275935 0.016597 -0.005163 -245435.000000 0 0 1
22.602593 17.953951 -24.827205 38.073766 0.671275 2.281123 0.020026 -0.012012 53959.300000 0 0 1
22.556893 17.053451 -23.737005 36.919900 0.647342 2.269117 0.013057 -0.003668 -407282.000000 0 0 1
23.606093 15.926951 -23.824705 37.128587 0.593541 2.267484 0.035959 -0.009924 -809851.000000 0 0 1
24.921993 16.321851 -23.616205 38.016229 0.579824 2.241087 0.065199 -0.018915 -864.512000 0 0 1
25.943493 15.316851 -23.694905 38.329092 0.533325 2.237242 0.064649 -0.025204 601483.000000 0 0 1
26.044993 14.369951 -22.467805 37.277867 0.504175 2.217691 0.060283 -0.010231 -629959.000000 0 0 1
24.934093 13.512851 -22.420005 36.151940 0.496636 2.239744 0.031933 -0.003088 -94205.600000 0 0 1
24.820393 12.925151 -21.157205 35.081886 0.480107 2.218154 0.024744 -0.010306 333454.000000 0 0 1
23.385793 12.524951 -20.673605 33.632836 0.491704 2.232783 0.020667 -0.000294 1130780.000000 0 0 1
22.439993 13.616651 -20.618405 33.377913 0.545407 2.236644 0.042143 -0.005050 538834.000000 0 0 1
21.224293 13.281151 -21.268305 32.851185 0.559140 2.274982 0.025737 -0.009651 336377.000000 0 0 1
20.103393 14.322151 -21.099905 32.472702 0.619016 2.278083 0.028387 -0.008189 -765253.000000 0 0 1
20.457193 15.549851 -21.829605 33.716854 0.649944 2.275016 0.021159 -0.003761 511613.000000 0 0 1
19.418493 16.510651 -21.924705 33.621007 0.704642 2.281165 0.011242 -0.003515 250544.000000 0 0 1
18.100293 16.187151 -22.680105 33.226971 0.729659 2.322085 0.020667 0.004813 -311138.000000 0 0 1
17.267893 15.269851 -22.040205 31.892305 0.724068 2.333782 0.013991 0.000781 316237.000000 0 0 1
16.177293 15.072351 -22.985405 31.893720 0.750054 2.375590 0.009253 -0.005315 565111.000000 0 0 1
15.050193 14.175851 -22.422305 30.499554 0.755491 2.396711 0.011773 -0.006049 293073.000000 0 0 1
13.889193 14.325251 -23.210405 30.607930 0.800852 2.431518 0.022538 -0.008054 603481.000000 0 0 1
12.692793 13.683751 -22.726805 29.408497 0.822950 2.454033 0.032518 -0.007403 1235500.000000 0 0 1
11.401893 13.968451 -23.548305 29.658784 0.886219 2.488115 0.034901 -0.002280 -22418.900000 0 0 1
11.074993 15.327751 -23.469105 30.139580 0.945099 2.463356 0.016642 -0.004618 -55315.100000 0 0 1
10.375293 15.705651 -24.646405 31.012247 0.986999 2.489361 0.020337 -0.005335 -662537.000000 0 0 1
10.245593 17.207751 -24.848705 31.914527 1.033762 2.463231 0.013215 -0.003126 122316.000000 0 0 1
11.431793 17.991151 -24.789805 32.694064 1.004745 2.431399 0.012910 -0.002913 862959.000000 0 0 1
12.578793 17.712551 -25.632235 33.600178 0.953282 2.438522 0.008066 -0.014047 628197.000000 0 0 1
12.316493 17.754151 -27.191725 34.731769 0.964294 2.470120 0.025313 -0.022100 -860192.000000 0 0 1
13.391693 17.404151 -28.003005 35.586657 0.914961 2.476559 0.011970 -0.022315 -591899.000000 0 0 1
12.956193 17.216451 -29.321135 36.386784 0.925667 2.507852 0.014804 -0.032399 -653115.000000 0 0 1
13.923593 17.661851 -30.402175 37.816658 0.903204 2.504681 0.019944 -0.025622 -1004900.000000 0 0 1
15.150593 17.019651 -30.315265 37.923927 0.843432 2.497043 0.003333 -0.019786 -870844.000000 0 0 1
15.906993 17.416951 -31.448385 39.311366 0.830679 2.498062 0.006613 -0.020717 -77500.900000 0 0 1
17.165993 16.526651 -31.633275 39.603858 0.766425 2.495998 0.013097 -0.017718 -836269.000000 0 0 1
18.031993 16.757851 -30.506485 39.199795 0.748791 2.462640 0.017262 -0.013830 -66539.500000 0 0 1
19.241293 16.050951 -30.674185 39.607651 0.695245 2.456643 0.015610 -0.006948 -643569.000000 0 0 1
20.260293 16.936151 -31.311115 40.959719 0.696268 2.440964 0.007793 -0.008389 -1660210.000000 0 0 1
20.056993 17.058251 -32.700095 41.982890 0.704778 2.463692 0.006446 -0.012813 82859.400000 0 0 1
21.217393 17.638151 -33.252155 43.208656 0.693541 2.448966 0.004485 -0.005439 -321405.000000 0 0 1
21.201593 17.943651 34.247893 44.095355 0.702363 0.681422 0.007786 0.002878 270548.000000 0 0 1
22.426893 18.624451 33.897272 44.708620 0.693035 0.710276 0.013408 -0.006956 901884.000000 0 0 1
22.459793 19.032951 32.573768 43.906103 0.702996 0.734903 0.026421 -0.008814 -276081.000000 0 0 1
23.260893 20.327851 32.339078 44.722552 0.718210 0.762510 0.039778 -0.009881 475617.000000 0 0 1
24.668693 20.121151 32.319448 45.364654 0.684214 0.777832 0.021793 -0.013549 90658.600000 0 0 1
25.353293 21.292551 31.949268 46.009976 0.698562 0.803212 0.034241 -0.025218 170275.000000 0 0 1
26.883293 21.043251 31.923518 46.740142 0.664142 0.818934 0.029389 -0.025052 -37738.800000 0 0 1
27.418393 20.649251 33.148457 47.717712 0.645493 0.802824 0.017208 -0.026053 -591802.000000 0 0 1
28.766593 20.321251 33.007068 48.269417 0.615021 0.817826 0.008961 -0.028677 -318622.000000 0 0 1
29.401493 19.466051 34.147613 49.085990 0.584818 0.801445 -0.004396 -0.024864 -195442.000000 0 0 1
29.487693 20.000251 -33.552945 48.942151 0.595984 2.326174 -0.003246 -0.028384 1171990.000000 0 0 1
28.208093 20.265751 -32.905725 47.845417 0.622993 2.329183 -0.000552 -0.033843 923118.000000 0 0 1
28.454393 20.721451 -31.414475 47.179447 0.629425 2.299430 0.006231 -0.026538 -278875.000000 0 0 1
29.036693 19.650851 -30.751145 46.636020 0.594957 2.290798 0.005311 -0.021149 -73337.000000 0 0 1
29.640893 20.025451 -29.535695 46.389207 0.594163 2.260999 -0.001258 -0.023850 791963.000000 0 0 1
31.086993 19.452651 -29.270915 46.921138 0.559138 2.244433 0.038064 -0.021061 650944.000000 0 0 1
32.029693 20.057851 -30.096845 48.311890 0.559481 2.243330 -0.001757 -0.021238 -168738.000000 0 0 1
33.347293 19.805551 -29.624165 48.804640 0.535935 2.223070 0.027243 -0.017412 444543.000000 0 0 1
34.455393 20.766951 -30.117755 50.254547 0.542417 2.213428 0.033923 -0.018492 62468.600000 0 0 1
35.031793 20.243251 -31.302085 51.155022 0.523976 2.229265 0.026774 -0.022424 483496.000000 0 0 1
-34.305051 21.056551 -31.586125 51.165400 -0.550507 2.236145 0.035739 -0.029998 872744.000000 0 0 1
-33.476251 20.583851 -32.847945 51.218569 -0.551288 2.267025 0.048368 -0.036718 -76778.100000 0 0 1
-32.583851 19.534851 -32.583945 50.050287 -0.540071 2.279729 0.060267 -0.028152 -250664.000000 0 0 1
-31.989051 19.201951 -33.790115 50.336728 -0.540615 2.306733 0.051526 -0.015837 -640249.000000 0 0 1
-30.927351 18.102151 -33.542205 49.084299 -0.529550 2.323150 0.032047 -0.008491 -295509.000000 0 0 1
-31.582851 16.941551 -33.090935 48.780145 -0.492354 2.316337 0.035244 -0.007968 162389.000000 0 0 1
-30.889451 15.732351 -33.263875 48.043214 -0.471069 2.335570 0.031933 -0.000087 -33164.900000 0 0 1
-31.889051 14.567851 -33.084225 48.204769 -0.428519 2.327223 0.031620 -0.004084 -131815.000000 0 0 1
-31.294751 13.294851 -33.341095 47.620826 -0.401724 2.346385 0.033912 -0.003285 -329885.000000 0 0 1
-32.241151 12.310551 -33.578855 48.151646 -0.364743 2.342499 0.030544 -0.003173 -686459.000000 0 0 1
-31.753851 10.875551 -33.721215 47.578409 -0.329974 2.358522 0.029524 0.001911 21824.700000 0 0 1
-30.951551 10.534451 34.180930 47.300202 -0.328055 0.763185 0.008048 0.004953 178047.000000 0 0 1
-31.203651 9.206251 33.831192 46.935833 -0.286898 0.765845 0.020156 0.001857 -354372.000000 0 0 1
-30.250351 8.457651 32.887638 45.477602 -0.272627 0.762428 0.029736 0.003241 264083.000000 0 0 1
-29.028351 8.139651 33.565468 45.116956 -0.273383 0.731811 0.023224 0.014449 433618.000000 0 0 1
-28.069751 7.660151 32.621458 43.712107 -0.266410 0.728341 0.023088 0.011629 45892.700000 0 0 1
20.177493 -4.133013 -31.675125 37.782622 -0.202038 2.565049 0.029346 -0.024936 -308469.000000 0 0 1
21.336993 -4.287613 -32.462805 39.083047 -0.198306 2.551000 0.038708 -0.026455 38972.400000 0 0 1
22.345093 -3.307613 -32.190345 39.325078 -0.146957 2.529714 0.047689 -0.027564 104956.000000 0 0 1
22.009793 -1.757113 -32.364195 39.178560 -0.079664 2.542893 0.046022 -0.022943 -688664.000000 0 0 1
23.100493 -0.971313 -31.940305 39.430436 -0.042023 2.515020 0.050560 -0.019613 197803.000000 0 0 1
22.927893 0.370987 -32.350755 39.653464 0.016179 2.524971 0.039269 -0.015401 135705.000000 0 0 1
24.118593 1.298887 -32.014445 40.103844 0.053802 2.495245 0.039200 -0.014904 974066.000000 0 0 1
25.398493 1.077687 -32.628805 41.362831 0.042406 2.479722 0.042064 -0.018348 500938.000000 0 0 1
26.418693 1.771687 -31.955445 41.499839 0.066962 2.449659 0.039756 -0.010330 -294899.000000 0 0 1
27.812693 1.583287 -32.552595 42.845351 0.056865 2.433755 0.043666 -0.018541 -459262.000000 0 0 1
27.982893 2.315387 -33.743085 43.897598 0.082555 2.447567 0.049348 -0.023987 130454.000000 0 0 1
28.909793 1.647887 34.437155 44.993436 0.056939 0.699162 0.031752 -0.019688 -322009.000000 0 0 1
29.608493 2.564387 33.451494 44.746412 0.086394 0.726386 0.049296 -0.011554 -341259.000000 0 0 1
28.776293 3.393387 32.632218 43.640025 0.117381 0.726116 0.054956 -0.008255 191632.000000 0 0 1
28.367893 4.594787 33.186539 43.899838 0.160577 0.713676 0.035268 0.003252 -1035950.000000 0 0 1
27.277493 5.238587 32.412648 42.685878 0.189738 0.708514 0.034120 -0.001514 -948588.000000 0 0 1
27.348193 6.646887 32.776238 43.201696 0.238424 0.709513 0.032352 0.000740 235462.000000 0 0 1
26.682993 7.512287 31.852948 42.225902 0.274435 0.716139 0.033027 0.001611 -206833.000000 0 0 1
26.963193 8.982087 32.193468 42.943114 0.321562 0.723222 0.033654 0.004207 598870.000000 0 0 1
28.288093 9.420187 31.884748 43.653101 0.321459 0.751871 0.034845 0.001168 367370.000000 0 0 1
28.468493 10.819487 31.949788 44.139612 0.363192 0.761452 0.031008 0.005025 -400714.000000 0 0 1
29.753193 11.251187 31.236918 44.582359 0.361530 0.794479 0.022062 0.008925 -1463170.000000 0 0 1
30.828193 10.714787 31.940928 45.666257 0.334504 0.796179 0.033933 0.003694 490597.000000 0 0 1
32.120493 11.003487 31.344898 46.209365 0.330040 0.825318 0.031408 0.002788 1081370.000000 0 0 1
32.604793 12.472287 31.483778 47.009134 0.365355 0.836941 0.039754 -0.001003 -840941.000000 0 0 1
33.130893 12.698287 32.846748 48.350919 0.366007 0.823932 0.035963 -0.006747 271118.000000 0 0 1
33.699793 13.970387 32.979756 49.178370 0.392990 0.835759 0.027408 -0.005619 185760.000000 0 0 1
32.702893 15.181587 32.964878 48.853280 0.434622 0.830139 0.028985 -0.009014 -130634.000000 0 0 1
32.260993 15.541187 31.642748 47.786647 0.448928 0.847089 0.029422 -0.017224 767844.000000 0 0 1
31.199293 16.500587 31.667018 47.417985 0.486481 0.839511 0.025178 -0.019651 1718180.000000 0 0 1
29.699793 16.006987 31.793828 46.358913 0.494327 0.815068 0.021662 -0.011405 1035250.000000 0 0 1
28.999393 15.609987 30.612598 44.964070 0.493806 0.821910 0.018422 -0.005922 322077.000000 0 0 1
27.764193 15.025987 30.975428 44.227908 0.496062 0.794896 0.013846 -0.008356 -1909.210000 0 0 1
27.035493 14.395087 29.739088 42.691331 0.489270 0.800139 0.013534 0.005169 98543.200000 0 0 1
27.467593 13.117187 29.255328 42.218520 0.445528 0.805224 0.018642 0.004607 515762.000000 0 0 1
26.526493 12.750587 28.243558 40.791308 0.448067 0.805998 0.012563 0.003748 585418.000000 0 0 1
26.122793 11.244687 28.170298 40.030101 0.406482 0.790165 0.011213 0.014417 -282054.000000 0 0 1
27.123193 10.487687 27.534728 40.047727 0.368961 0.812690 0.016583 0.014550 -82321.400000 0 0 1
26.692393 9.172187 27.203108 39.199769 0.330985 0.803821 0.020884 0.017824 -48843.600000 0 0 1
27.825593 8.139587 26.897258 39.547174 0.284582 0.822855 0.034608 0.010985 238494.000000 0 0 1
28.324493 8.382787 25.601458 39.089419 0.287742 0.856685 0.018847 0.012822 497186.000000 0 0 1
29.469793 7.573387 25.314708 39.581047 0.251545 0.876862 0.018515 0.023720 838427.000000 0 0 1
30.245893 7.812587 23.961558 39.370126 0.252777 0.916473 0.022081 0.019708 333234.000000 0 0 1
30.957993 9.046387 23.825258 40.098346 0.284299 0.934562 0.013658 0.009210 809424.000000 0 0 1
30.094493 10.128887 23.410058 39.450015 0.324660 0.935507 0.015120 0.004756 301931.000000 0 0 1
29.531893 10.050187 22.009658 38.178056 0.328022 0.956357 0.016104 0.009572 144809.000000 0 0 1
30.569893 10.267887 21.066458 38.519391 0.324043 0.992133 0.014861 -0.002273 232577.000000 0 0 1
30.053193 10.290587 19.769758 37.415691 0.329899 1.014103 0.018085 -0.010388 -1143840.000000 0 0 1
30.951793 10.868887 18.678658 37.749681 0.337704 1.053188 0.022178 -0.024357 -555672.000000 0 0 1
32.201193 10.362087 18.360358 38.488861 0.311328 1.073524 0.022349 -0.018914 -114698.000000 0 0 1
33.190693 10.528587 19.384958 39.852852 0.307175 1.062816 0.007036 -0.014193 -128283.000000 0 0 1
34.583893 9.975487 18.958058 40.681248 0.280821 1.086015 0.006173 -0.014936 53713.500000 0 0 1
34.573793 8.565287 18.790758 40.271626 0.242850 1.085353 0.010438 -0.008672 278350.000000 0 0 1
-34.903751 8.128687 17.915458 40.066333 -0.228810 1.107225 0.012824 -0.005789 -245515.000000 0 0 1
-34.873251 6.622787 17.741958 39.683523 -0.187675 1.107291 0.015011 -0.004635 -745986.000000 0 0 1
34.447193 6.166887 17.166658 38.978632 0.177148 1.114739 0.005817 -0.003362 -288404.000000 0 0 1
34.640493 4.901987 16.505358 38.683589 0.140577 1.129982 0.018030 -0.003032 -798994.000000 0 0 1
33.385293 4.068187 16.454458 37.441649 0.121258 1.115788 0.016603 -0.001815 -677003.000000 0 0 1
33.244293 3.423287 17.687158 37.811869 0.102612 1.084033 0.016706 0.002867 206411.000000 0 0 1
32.102993 2.589387 17.565358 36.685813 0.080485 1.071503 0.004278 0.002852 206145.000000 0 0 1
31.950193 1.785087 18.882958 37.155988 0.055813 1.037694 -0.001902 -0.003600 310356.000000 0 0 1
32.692893 0.538587 18.807058 37.720296 0.016473 1.048822 0.009830 -0.003205 321999.000000 0 0 1
32.596793 -0.259713 19.967258 38.227081 -0.007967 1.021212 0.005500 -0.003099 119096.000000 0 0 1
33.172393 -1.694913 19.875658 38.708166 -0.051050 1.031567 0.015783 -0.000440 165465.000000 0 0 1
32.861593 -2.355213 21.102158 39.124575 -0.071548 1.001122 0.019891 -0.001867 57559.900000 0 0 1
33.113493 -3.736913 21.056958 39.419074 -0.112376 1.007257 0.013612 -0.000623 -317505.000000 0 0 1
32.699693 -4.575713 22.276958 39.830515 -0.139029 0.977263 0.005633 0.005307 -171999.000000 0 0 1
33.310193 -4.105713 23.456658 40.946802 -0.122638 0.960809 0.015365 0.000282 254247.000000 0 0 1
32.644293 -4.598013 24.615628 41.142687 -0.139931 0.929420 0.015489 -0.003444 170496.000000 0 0 1
33.192993 -3.945013 25.886618 42.278303 -0.118296 0.911841 0.007001 -0.003810 -263781.000000 0 0 1
32.393793 -4.258513 26.990698 42.379128 -0.130711 0.880343 0.020738 -0.001770 -110098.000000 0 0 1
32.957793 -3.905313 28.273438 43.598794 -0.117944 0.865196 0.021375 -0.003901 287471.000000 0 0 1
32.021593 -4.228313 29.490328 43.737175 -0.131286 0.830831 0.033108 -0.010102 203255.000000 0 0 1
31.977193 -5.607213 29.785258 44.058408 -0.173586 0.828421 0.031788 -0.015945 -76544.500000 0 0 1
31.018293 -5.852613 30.820968 44.117113 -0.186490 0.797333 0.042455 -0.022204 281981.000000 0 0 1
31.118593 -7.320913 31.261118 44.712639 -0.231057 0.796580 0.042567 -0.022632 324196.000000 0 0 1
32.360693 -7.667613 31.857308 46.053173 -0.232652 0.806886 0.052186 -0.025630 10797.200000 0 0 1
32.578893 -9.101813 31.732098 46.380527 -0.272431 0.817333 0.037117 -0.020340 84149.900000 0 0 1
33.874093 -9.565113 32.441508 47.868538 -0.275207 0.826138 0.027407 -0.016837 160345.000000 0 0 1
33.944093 -9.523113 33.863588 48.883880 -0.273521 0.805521 0.027389 -0.027871 173395.000000 0 0 1
35.243693 -9.887213 34.279811 50.149579 -0.273508 0.818179 0.004093 -0.030132 -262899.000000 0 0 1
35.123093 -10.387713 -33.275145 49.485063 -0.287555 2.308281 0.032146 -0.025771 -141398.000000 0 0 1
34.751893 -9.359813 -32.326865 48.376920 -0.263090 2.302622 0.014148 -0.017983 861805.000000 0 0 1
-34.779451 -8.298413 -32.134235 48.073724 0.234222 2.302901 0.026908 -0.005029 516926.000000 0 0 1
35.084793 -6.975513 -31.583635 47.719246 -0.196259 2.294098 0.026291 -0.004325 -43499.300000 0 0 1
34.936993 -6.825813 -30.195725 46.679406 -0.192944 2.274275 0.014793 0.004209 264912.000000 0 0 1
34.158593 -5.685213 -29.897205 45.749032 -0.164924 2.283002 0.023000 0.002490 -6510.660000 0 0 1
34.121793 -5.441213 -28.371905 44.708707 -0.158133 2.258280 0.012550 0.008342 661627.000000 0 0 1
-35.067751 -4.997813 -27.971855 45.134798 0.141565 2.239208 0.007113 0.012971 736223.000000 0 0 1
-35.004351 -4.842413 -26.546055 44.197812 0.137465 2.215072 0.002227 0.015315 121505.000000 0 0 1
-33.551151 -4.804013 -26.033305 42.737469 0.142218 2.225778 0.004029 0.021071 -528757.000000 0 0 1
-33.442351 -4.220713 -24.740205 41.812474 0.125545 2.203955 0.008748 0.026479 600432.000000 0 0 1
-32.089951 -4.248413 -24.268305 40.456947 0.131625 2.214116 0.013443 0.022203 1080650.000000 0 0 1
-30.998951 -3.303913 -24.869705 39.879230 0.106181 2.244168 0.019274 0.017163 -55930.600000 0 0 1
-30.442451 -3.660913 -26.128785 40.284718 0.119682 2.276544 0.022774 0.012005 402306.000000 0 0 1
-29.389951 -2.760913 -26.480125 39.655881 0.093666 2.301975 0.020585 0.004246 109840.000000 0 0 1
-28.497251 -3.377313 -27.544355 39.776765 0.117963 2.335708 0.015547 0.015078 -689038.000000 0 0 1
-29.155751 -3.577113 -28.740455 41.095831 0.122080 2.345287 0.009677 0.020991 138420.000000 0 0 1
-28.421551 -4.457413 -29.611525 41.285536 0.155565 2.370626 0.028288 0.003925 -961341.000000 0 0 1
-29.237451 -4.690313 -30.924855 42.815584 0.159066 2.377890 0.014441 0.004487 611231.000000 0 0 1
-30.462951 -5.426313 -30.913325 43.738655 0.176279 2.355723 -0.003990 0.005464 1864980.000000 0 0 1
-31.597751 -4.751213 -30.256625 44.005173 0.149247 2.328933 0.012771 0.010653 867380.000000 0 0 1
-32.510751 -3.864413 -31.149255 45.190250 0.118311 2.331307 0.040604 0.002127 -303476.000000 0 0 1
-31.886251 -2.738913 -31.732445 45.068644 0.085686 2.351939 0.035979 0.008501 113287.000000 0 0 1
-31.645351 -1.694813 -30.790705 44.185610 0.053505 2.341791 0.016574 0.013091 -7135.980000 0 0 1
-31.140551 -0.428113 -31.406525 44.229933 0.013747 2.360400 0.038333 0.016196 583752.000000 0 0 1
-32.251051 0.234187 -32.040705 45.461983 -0.007261 2.352910 0.029625 0.014398 782128.000000 0 0 1
-31.868951 1.415987 -32.730675 45.704837 -0.044402 2.369040 0.018452 0.020864 258668.000000 0 0 1
-33.098251 2.317887 -33.029705 46.816965 -0.069916 2.353935 0.035838 0.011261 201989.000000 0 0 1
-33.954051 1.765087 -34.023115 48.099537 -0.051938 2.356536 0.023476 0.006965 921340.000000 0 0 1
-35.159451 2.601787 -33.968635 48.957374 -0.073865 2.337606 0.023300 0.008891 1163890.000000 0 0 1
34.281093 2.057387 34.056364 48.365919 0.059943 0.789585 0.013080 0.006653 23034.300000 0 0 1
34.590493 2.329787 32.684048 47.646375 0.067252 0.814859 0.010625 0.006779 443129.000000 0 0 1
-35.074051 1.333687 32.082818 47.552865 -0.038007 0.830269 -0.000281 0.010094 -51092.600000 0 0 1
-34.880651 1.694087 30.575348 46.415317 -0.048530 0.851661 0.008266 0.004108 -461022.000000 0 0 1
-34.163951 2.885487 30.348658 45.788018 -0.084260 0.846234 0.018623 0.000728 225813.000000 0 0 1
-34.153151 3.187287 28.974598 44.901268 -0.093054 0.869386 0.017022 0.000287 -101696.000000 0 0 1
-33.427951 4.505687 28.725368 44.304355 -0.133981 0.865362 0.012326 0.005479 -345466.000000 0 0 1
-33.062851 4.659387 27.390798 43.187010 -0.140003 0.883775 0.015067 0.006567 304582.000000 0 0 1
-32.442351 5.937087 27.201018 42.751029 -0.181001 0.881148 0.016798 0.001845 -47191.700000 0 0 1
-31.672751 5.991887 25.810598 41.294707 -0.186971 0.895621 0.019362 -0.002512 -152050.000000 0 0 1
-30.470951 5.259487 25.854228 40.306106 -0.170922 0.874413 0.023203 -0.002640 603461.000000 0 0 1
-29.569551 5.416987 24.742288 38.934341 -0.181186 0.882157 0.023881 -0.007351 347274.000000 0 0 1
-30.107051 4.931987 23.369058 38.430091 -0.162373 0.917140 0.024964 -0.008488 -292516.000000 0 0 1
-30.264751 3.527787 23.249058 38.326481 -0.116041 0.919012 0.016038 -0.000191 -65422.900000 0 0 1
-30.836951 3.213087 21.996558 38.014340 -0.103821 0.953738 0.027133 0.000273 -579826.000000 0 0 1
-30.725351 1.799887 21.544458 37.569275 -0.058513 0.960074 0.019979 0.003135 -1268.430000 0 0 1
-29.513951 1.332487 20.978758 36.234750 -0.045117 0.953334 0.010876 0.008501 140728.000000 0 0 1
-29.234151 1.836787 19.693158 35.296315 -0.062748 0.978897 0.010404 0.006571 -891744.000000 0 0 1
-28.121751 1.059187 19.055158 33.986082 -0.037647 0.975595 0.014025 0.010365 -690046.000000 0 0 1
-28.491751 -0.243813 18.665658 34.062385 0.008557 0.990844 0.014825 0.010041 590674.000000 0 0 1
-27.441251 -0.874513 17.924258 32.788200 0.031858 0.992417 0.023145 0.010341 254141.000000 0 0 1
-27.323551 -0.569513 16.396458 31.870748 0.020840 1.030410 0.028581 0.001377 154501.000000 0 0 1
-26.789551 0.748187 16.161858 31.296093 -0.027921 1.028134 0.023981 0.007686 396713.000000 0 0 1
-27.047851 1.012887 14.811758 30.854503 -0.037430 1.070083 0.033159 0.002891 -121970.000000 0 0 1
-26.572251 2.368487 14.379558 30.306203 -0.088899 1.076428 0.029999 0.004478 -386378.000000 0 0 1
-25.176651 2.359387 14.202758 29.002565 -0.093440 1.059043 0.018097 -0.002683 -239621.000000 0 0 1
-24.830751 3.594887 13.618958 28.547599 -0.143777 1.073488 0.020393 -0.001396 -472631.000000 0 0 1
-23.327351 3.836687 13.446558 27.197341 -0.163012 1.053644 0.009186 0.001535 -379365.000000 0 0 1
-22.765851 4.376587 14.625058 27.410414 -0.189926 1.007994 -0.000385 0.005225 -196348.000000 0 0 1
-21.379851 4.568287 14.500958 26.234425 -0.210507 0.985141 -0.002530 0.005933 -95751.700000 0 0 1
-20.745451 5.262587 15.755958 26.576658 -0.248434 0.936204 -0.008022 0.002938 -340062.000000 0 0 1
-20.951251 6.690587 15.798858 27.079933 -0.309105 0.947868 -0.007769 -0.002106 598091.000000 0 0 1
-20.281651 7.237087 16.938758 27.397852 -0.342746 0.904280 -0.014997 -0.002347 -164744.000000 0 0 1
-20.452051 8.756787 17.030858 28.018169 -0.404546 0.917446 -0.013170 -0.005650 -822341.000000 0 0 1
-19.536151 9.509787 16.268958 27.143622 -0.453015 0.928088 -0.004429 -0.011381 -86411.300000 0 0 1
-19.564351 10.924587 16.284258 27.699954 -0.509264 0.942360 0.006262 -0.016227 -461719.000000 0 0 1
-19.262351 11.640587 17.615558 28.580576 -0.543589 0.906701 0.007197 -0.012724 -462968.000000 0 0 1
-20.213351 11.391187 18.586058 29.728442 -0.513185 0.895416 0.015939 -0.010120 346690.000000 0 0 1
-19.538351 11.628987 19.818558 30.162157 -0.536874 0.853875 0.015074 -0.002659 196311.000000 0 0 1
-12.339507 -32.958477 -21.388805 41.182589 1.212556 2.116904 0.043236 -0.015849 -478032.000000 0 0 1
-13.191007 -33.736377 -20.633705 41.688075 1.198070 2.088579 0.063753 -0.018309 -61749.300000 0 0 1
-14.278307 -32.929377 -20.149905 41.161057 1.161661 2.082356 0.051917 -0.032235 -171829.000000 0 0 1
-15.216607 -33.671077 -19.261305 41.668747 1.146348 2.051325 0.044231 -0.023563 -1171580.000000 0 0 1
-15.841207 34.323287 -19.892505 42.717018 -1.138396 2.055200 0.035713 -0.029621 203870.000000 0 0 1
-16.584607 33.386587 -19.113405 41.893145 -1.109756 2.044564 0.036939 -0.022144 -548525.000000 0 0 1
-17.931607 33.763787 -18.569605 42.501366 -1.082587 2.022966 0.037003 -0.025212 -1596390.000000 0 0 1
-17.889107 -34.331177 -17.551905 42.505520 1.090431 1.996468 0.034475 -0.023519 49418.800000 0 0 1
-19.197707 -34.082077 -17.081205 42.683808 1.057816 1.982510 0.015642 -0.012460 47079.500000 0 0 1
-19.482107 34.357087 -15.682105 42.495769 -1.054959 1.948759 0.011589 -0.010984 -935792.000000 0 0 1
-19.316007 32.977687 -15.629305 41.290570 -1.040936 1.958993 0.012103 -0.019083 -111782.000000 0 0 1
-19.639607 32.402187 -14.406505 40.535950 -1.025889 1.934139 0.022905 -0.011884 -512792.000000 0 0 1
-19.786207 30.886687 -14.524605 39.451813 -1.001053 1.947826 0.014728 -0.011475 -434452.000000 0 0 1
-18.652007 30.165187 -14.123005 38.174535 -1.017009 1.949761 0.002959 -0.012047 -323412.000000 0 0 1
-18.810707 28.754787 -14.094305 37.139331 -0.991491 1.960050 0.012276 -0.013865 -751787.000000 0 0 1
-17.669807 27.931787 -13.515705 35.708278 -1.006746 1.958975 0.002711 -0.007322 -698171.000000 0 0 1
-16.474407 28.212587 -14.180105 35.615046 -1.042271 1.980295 0.011968 -0.003056 -921407.000000 0 0 1
-15.490807 27.230787 -14.071305 34.343595 -1.053580 1.992945 0.020400 -0.007541 -303700.000000 0 0 1
-14.137907 27.799687 -14.509805 34.398219 -1.100321 2.006246 0.022023 -0.006987 -506507.000000 0 0 1
-14.148907 27.969187 -15.914605 35.153117 -1.102460 2.040613 0.008996 -0.007226 593491.000000 0 0 1
-12.929907 28.561487 -16.411005 35.387316 -1.145696 2.053024 0.029361 -0.010104 482519.000000 0 0 1
-12.969607 28.798487 -17.958805 36.332936 -1.147645 2.087808 0.040647 -0.019566 33663.800000 0 0 1
-12.818007 27.581987 -18.681005 35.693799 -1.135766 2.121595 0.016524 -0.015947 95018.400000 0 0 1
-13.261107 27.758987 -19.988305 36.687200 -1.125129 2.146983 0.016955 -0.021232 -73411.100000 0 0 1
-12.717107 26.651487 -20.912805 36.185245 -1.125585 2.186995 0.001799 -0.005532 -770973.000000 0 0 1
-11.406807 26.827187 -21.339505 36.127381 -1.168760 2.202690 0.007259 -0.011679 -807442.000000 0 0 1
-10.922207 25.594587 -21.836605 35.372515 -1.167454 2.236144 0.007178 -0.010673 -574476.000000 0 0 1
-9.560507 25.796387 -22.448805 35.507826 -1.215876 2.255213 0.018984 -0.016749 -796089.000000 0 0 1
-9.744907 26.439387 -23.679505 36.806567 -1.217670 2.269662 0.014288 -0.017321 1220660.000000 0 0 1
-8.476307 26.632587 -24.345205 37.065233 -1.262665 2.287391 0.005007 -0.020344 907950.000000 0 0 1
-8.779307 27.384287 -25.648285 38.533231 -1.260552 2.299113 0.008028 -0.017005 -660869.000000 0 0 1
-9.780107 26.766487 -26.359065 38.818754 -1.220481 2.317236 0.003164 -0.013477 -707484.000000 0 0 1
-10.025107 27.363487 -27.582095 40.125243 -1.219615 2.328699 0.018157 -0.010600 209043.000000 0 0 1
-11.350607 26.949287 -28.282785 40.681891 -1.172162 2.339520 0.007244 -0.002788 50073.800000 0 0 1
-11.531707 27.256887 -29.620145 41.872081 -1.170557 2.356604 0.012749 -0.001921 1733440.000000 0 0 1
-12.893407 26.804987 -29.995145 42.242822 -1.122458 2.360387 0.007997 0.001147 1850130.000000 0 0 1
-13.172607 26.934687 -31.539035 43.516729 -1.115941 2.381477 0.005617 -0.004449 -352879.000000 0 0 1
-12.382707 26.291987 -32.487675 43.589552 -1.130642 2.411794 0.002444 -0.004097 -332961.000000 0 0 1
-12.524507 24.909387 -32.500445 42.820787 -1.104909 2.432553 -0.010051 -0.008023 -203344.000000 0 0 1
-11.649007 24.314187 -33.590405 43.071967 -1.124005 2.465250 -0.009792 0.003782 -129734.000000 0 0 1
-12.044407 24.639487 34.085397 43.749130 -1.116128 0.677551 -0.008218 0.009575 -110068.000000 0 0 1
-11.452907 23.731487 33.183615 42.373398 -1.121162 0.671123 -0.014387 0.010950 -496102.000000 0 0 1
-12.073307 23.641787 31.774408 41.404249 -1.098644 0.695991 -0.010922 0.025870 -934392.000000 0 0 1
-13.331607 23.072187 31.771388 41.466597 -1.046844 0.697902 -0.007056 0.011620 -867129.000000 0 0 1
-14.000407 23.083587 30.562348 40.778922 -1.025604 0.723544 0.004349 0.022796 371013.000000 0 0 1
-15.093007 21.984487 30.411888 40.447490 -0.969168 0.719879 0.001237 0.016201 662986.000000 0 0 1
-14.540407 20.672387 30.146088 39.339009 -0.957810 0.697710 -0.020195 0.010704 -763209.000000 0 0 1
-15.542907 19.756887 30.151658 39.256070 -0.904213 0.694965 -0.017065 0.009514 -854467.000000 0 0 1
-15.079707 18.275887 30.048808 38.266650 -0.880928 0.667700 -0.033503 0.007380 -425761.000000 0 0 1
-14.770607 17.908887 28.707738 36.919281 -0.881137 0.679987 -0.022031 -0.001634 44769.200000 0 0 1
-14.199207 16.627987 28.693148 36.074980 -0.864023 0.651170 -0.036699 -0.003935 -110068.000000 0 0 1
-13.887207 16.233487 27.226738 34.607454 -0.863137 0.665302 -0.021792 -0.013965 85181.900000 0 0 1
-12.997907 17.058887 26.474728 34.071431 -0.919695 0.680853 -0.039509 -0.005076 101695.000000 0 0 1
-12.262107 16.237087 25.582268 32.687225 -0.923981 0.671904 -0.038451 -0.008164 -217210.000000 0 0 1
-11.075807 16.959687 24.928218 32.120407 -0.992268 0.682360 -0.026311 -0.003353 -219689.000000 0 0 1
-11.357907 17.927987 23.882858 31.950050 -1.006087 0.726497 -0.017524 -0.004217 -106799.000000 0 0 1
-11.906407 19.172487 24.373858 33.217943 -1.015068 0.746963 -0.016970 -0.009731 523210.000000 0 0 1
-10.845007 20.084287 25.078728 33.910697 -1.075683 0.738392 -0.037709 -0.001715 379354.000000 0 0 1
-10.673807 19.864387 26.488898 34.787724 -1.077730 0.705259 -0.039949 0.004783 -268941.000000 0 0 1
-11.759907 20.220287 27.303398 35.953177 -1.044024 0.708382 -0.017280 0.013585 -468076.000000 0 0 1
-11.624607 19.622987 28.729668 36.682243 -1.035986 0.670995 -0.023286 0.012077 98549.100000 0 0 1
-10.639407 20.260187 29.550878 37.375481 -1.087241 0.658928 -0.037664 0.010105 192105.000000 0 0 1
-10.629207 19.783887 30.894048 38.194560 -1.077782 0.628586 -0.033184 0.005752 -157212.000000 0 0 1
-9.687407 20.597487 31.807928 39.113254 -1.131173 0.621121 -0.030744 0.004739 1473830.000000 0 0 1
-8.341607 20.023687 31.897308 38.574197 -1.176073 0.597210 -0.025988 -0.002265 1316290.000000 0 0 1
-7.541307 20.957487 32.588908 39.473086 -1.225384 0.599535 -0.008914 -0.007270 -273814.000000 0 0 1
-6.257007 20.409787 33.228944 39.495218 -1.273324 0.571037 -0.013906 -0.004499 -571501.000000 0 0 1
-6.395007 19.574987 34.364343 40.062255 -1.255034 0.539874 -0.015796 -0.008160 1038610.000000 0 0 1
-5.125207 19.130187 -34.104626 39.438019 -1.309032 2.615479 -0.020987 -0.005115 1271030.000000 0 0 1
-4.361207 18.050487 34.133739 38.858105 -1.333728 0.498250 -0.031598 -0.005418 -291615.000000 0 0 1
-4.969007 16.784087 34.217427 38.434736 -1.282963 0.472851 -0.026826 -0.004023 -37386.800000 0 0 1
-4.721607 15.966187 33.074182 37.028559 -1.283266 0.466368 -0.018058 -0.001386 -191585.000000 0 0 1
-5.458107 14.632687 33.077338 36.578911 -1.213773 0.441121 -0.010938 -0.004866 -443405.000000 0 0 1
-4.756507 13.728887 33.894785 36.877679 -1.237279 0.404971 -0.006725 -0.002949 -165259.000000 0 0 1
-5.298507 12.466987 33.774491 36.389781 -1.168923 0.381436 -0.004496 -0.001606 -232526.000000 0 0 1
-4.289807 11.424987 34.302479 36.408692 -1.211608 0.341806 0.000775 -0.009171 -23035.100000 0 0 1
-4.270807 11.118087 -33.374555 35.436035 -1.204044 2.798817 0.018864 -0.016425 176683.000000 0 0 1
-3.199007 10.223187 -33.050865 34.743444 -1.267532 2.828169 0.026396 -0.014329 524611.000000 0 0 1
-3.371107 9.631887 -31.643325 33.248122 -1.234126 2.829629 0.033360 -0.015904 399196.000000 0 0 1
-4.468207 8.721687 -31.521235 33.009407 -1.097349 2.840175 0.029952 -0.010377 260113.000000 0 0 1
-4.639507 8.526387 -30.181575 31.704129 -1.072467 2.830423 0.041735 -0.010121 -135753.000000 0 0 1
-5.730407 7.555087 -29.727665 31.203381 -0.921888 2.832818 0.037232 -0.011663 -167142.000000 0 0 1
-5.605607 7.003587 -28.368195 29.752774 -0.895817 2.835320 0.040486 -0.010434 -132545.000000 0 0 1
-6.765307 6.284087 -28.052245 29.532822 -0.748538 2.823606 0.047042 -0.020430 -493918.000000 0 0 1
-6.702807 5.450987 -26.756375 28.116623 -0.682762 2.829266 0.042166 -0.020556 -466879.000000 0 0 1
-6.847707 6.149987 -25.499965 27.110176 -0.731769 2.795204 0.024207 -0.015275 371020.000000 0 0 1
-5.831507 7.058687 -25.046405 26.667470 -0.880315 2.791124 0.028191 -0.013587 -588765.000000 0 0 1
-6.336407 8.074387 -24.093105 26.188232 -0.905421 2.738870 0.011559 -0.008543 -472485.000000 0 0 1
-6.439707 7.530087 -22.811605 24.870492 -0.863293 2.731831 0.004924 -0.008993 -73521.700000 0 1 0
-7.741807 7.617187 -22.262005 24.770022 -0.777285 2.687702 -0.000667 -0.006260 22047.700000 0 1 0
-7.651007 7.882687 -20.707905 23.441246 -0.800312 2.653857 -0.001894 -0.008371 7063.970000 0 1 0
-7.313507 9.246887 -20.316505 23.489416 -0.901619 2.615791 -0.014247 -0.001950 217671.000000 0 1 0
-7.001207 9.417387 -18.958405 22.296305 -0.931511 2.587339 -0.005432 -0.001390 -151442.000000 0 1 0
-8.272007 9.637387 -18.093105 22.105786 -0.861489 2.529554 -0.012385 0.003487 -354524.000000 0 1 0
-8.048807 9.713387 -16.649105 20.888415 -0.878840 2.493190 -0.011466 0.002178 675498.000000 0 1 0
-9.230807 10.145987 -15.941305 21.030313 -0.832594 2.431062 -0.001944 -0.000139 639478.000000 0 1 0
-9.585007 11.610487 -16.247505 22.150783 -0.880671 2.394247 -0.008611 0.001347 -1203350.000000 0 1 0
-8.666507 12.491587 -15.656305 21.823565 -0.964252 2.370865 -0.014111 -0.003268 -76467.100000 0 1 0
-8.996907 13.820287 -16.071705 23.027036 -0.993723 2.343326 -0.000492 -0.005414 107588.000000 0 1 0
-7.860507 14.881887 -15.907405 23.158231 -1.084850 2.328012 0.018284 -0.002950 140200.000000 0 1 0
-7.348107 14.993187 -14.593805 22.175876 -1.115103 2.289080 0.016934 -0.002902 151200.000000 0 1 0
-8.221307 15.627887 -13.676205 22.335159 -1.086514 2.229785 0.009541 -0.009998 -427794.000000 0 1 0
-7.479307 16.295887 -12.438505 21.822291 -1.140509 2.177291 0.008986 -0.012766 491277.000000 0 1 0
-6.842607 17.515987 -12.740005 22.714286 -1.198377 2.166246 0.021376 -0.013466 -95402.700000 0 1 0
-5.601507 17.425487 -13.405305 22.687589 -1.259774 2.202927 0.012555 -0.010938 -578987.000000 0 1 0
-5.206007 18.813087 -13.962205 23.999540 -1.300829 2.191699 0.028993 -0.003467 -123235.000000 0 1 0
-4.874807 19.815787 -13.018605 24.205645 -1.329580 2.138661 0.035390 -0.011245 -62330.200000 0 1 0
-4.753107 20.984187 -13.758605 25.538742 -1.348046 2.139731 0.050657 -0.004906 -122071.000000 0 0 1
-4.303107 22.208287 -12.914005 26.047961 -1.379407 2.089527 0.044946 -0.006220 -582308.000000 0 0 1
-4.699207 23.488587 -13.272105 27.385124 -1.373340 2.076755 0.048967 -0.007809 -211753.000000 0 0 1
-6.052207 23.843487 -13.134305 27.886395 -1.322216 2.061213 0.053986 -0.011581 -166589.000000 0 0 1
-6.735207 23.870287 -11.759605 27.448897 -1.295787 2.013538 0.037353 -0.008694 -475918.000000 0 0 1
-7.110707 22.583187 -11.354005 26.257873 -1.265756 2.017953 0.043818 -0.007955 -222934.000000 0 0 1
-7.831907 22.551687 -10.154805 25.942965 -1.236540 1.972979 0.046979 -0.008668 -104221.000000 0 0 1
-7.088107 22.988687 -8.850405 25.632999 -1.271715 1.923327 0.041818 -0.009496 97057.600000 0 0 1
-6.891807 24.412687 -8.826005 26.858419 -1.295652 1.905630 0.033370 -0.004375 -430901.000000 0 0 1
-6.180807 24.767887 -7.703905 26.664597 -1.326242 1.863894 0.029458 -0.008068 -283213.000000 0 0 1
-6.151207 26.325887 -7.524805 28.062651 -1.341258 1.842261 -0.003158 0.001912 -284350.000000 0 0 1
-5.451507 27.091687 -8.465205 28.902217 -1.372224 1.868046 0.002481 -0.000246 -341896.000000 0 0 1
-6.006007 27.203587 -9.761805 29.519487 -1.353502 1.907831 0.006248 0.001979 47782.200000 0 0 1
-5.321007 28.336287 -10.598505 30.717854 -1.385177 1.923064 -0.004315 0.008181 211263.000000 0 0 1
-5.852307 29.678087 -10.477705 32.012820 -1.376101 1.904238 -0.006065 0.008707 285157.000000 0 0 1
-6.968407 29.928387 -11.327405 32.750224 -1.342036 1.923965 0.005877 0.002356 149353.000000 0 0 1
-7.894507 31.070487 -10.877105 33.852767 -1.321978 1.897905 0.003811 0.008133 -548650.000000 0 0 1
-8.916807 30.700587 -10.012505 33.500534 -1.288129 1.874311 0.012039 0.004747 -526499.000000 0 0 1
-9.837107 31.769487 -9.942605 34.712021 -1.270519 1.861296 0.009373 0.004926 650109.000000 0 0 1
-11.108707 31.423087 -9.063605 34.539292 -1.230989 1.836320 0.017521 -0.000344 863458.000000 0 0 1
-11.958807 30.485787 -9.697905 34.153267 -1.196967 1.858710 0.029950 -0.008012 -442573.000000 0 0 1
-12.984507 30.068587 -8.859105 33.929354 -1.163155 1.834962 0.039563 -0.007609 224356.000000 0 0 1
-13.966007 28.908887 -9.257005 33.413549 -1.120756 1.851512 0.033714 -0.008464 372325.000000 0 0 1
-13.514007 27.570687 -9.169805 32.044602 -1.115053 1.861011 0.031586 0.000440 110375.000000 0 0 1
-14.607507 26.738687 -9.535405 31.925861 -1.070794 1.874099 0.039438 0.000534 68011.400000 0 0 1
-14.607107 25.304387 -8.912105 30.546771 -1.047268 1.866855 0.036772 0.004558 -592961.000000 0 0 1
-13.633007 24.401487 -9.345805 29.472623 -1.061301 1.893468 0.039953 0.001159 -177279.000000 0 0 1
-13.912607 23.097687 -8.828705 28.372695 -1.028660 1.887219 0.041560 0.002608 207374.000000 0 0 1
-12.864907 22.039387 -9.281205 27.154764 -1.042431 1.919616 0.037466 0.000784 -4446.390000 0 0 1
-12.907507 21.759687 -10.651505 27.450725 -1.035403 1.969282 0.041130 -0.005338 47042.600000 0 0 1
-12.315607 20.534587 -10.939305 26.325118 -1.030561 1.999340 0.044459 -0.012943 -374927.000000 0 0 1
-12.353107 20.022387 -12.402805 26.595579 -1.017996 2.055955 0.040159 -0.016269 -365761.000000 0 0 1
-13.668807 19.700587 -12.755705 27.159850 -0.964225 2.059694 0.039308 -0.012254 -571028.000000 0 0 1
-13.736807 19.336987 -14.122305 27.605406 -0.953131 2.107816 0.033986 -0.006841 -40520.500000 0 0 1
-15.126707 18.943287 -14.664705 28.332295 -0.896955 2.114836 0.019256 -0.004429 309063.000000 0 0 1
-15.999107 20.050887 -14.766105 29.598097 -0.897322 2.093110 0.003129 -0.000162 36551.400000 0 0 1
-17.356607 19.728487 -14.981505 30.247488 -0.849269 2.088974 0.004041 0.006263 231710.000000 0 0 1
-18.121607 20.798787 -15.811805 31.796153 -0.854076 2.091265 -0.008440 0.018272 -19311.400000 0 0 1
-18.160807 22.042187 -15.171105 32.339378 -0.881644 2.059092 -0.000160 0.003397 229059.000000 0 0 1
-18.692207 22.998287 -16.024905 33.691503 -0.888320 2.066484 0.002693 0.004765 -188096.000000 0 0 1
-19.080907 24.318287 -15.333305 34.504642 -0.905497 2.031283 -0.001046 0.005789 -724820.000000 0 0 1
-20.244307 24.174187 -14.611405 34.752215 -0.873642 2.004732 -0.001785 0.007968 -779329.000000 0 0 1
-20.715007 25.337487 -14.005605 35.598550 -0.885437 1.975158 0.005834 -0.001074 -71072.000000 0 0 1
-25.463797 -1.049013 3.893195 25.781047 0.041173 1.419206 0.027704 -0.002954 6586.110000 0 0 1
-25.731097 -0.062313 4.877795 26.189428 0.002422 1.383452 0.030792 -0.003328 -166939.000000 0 0 1
-26.872447 -0.389813 5.609195 27.454388 0.014505 1.365038 0.038655 -0.000265 -420493.000000 0 0 1
-27.131147 0.572587 6.813095 27.979372 -0.021101 1.324819 0.037082 0.002410 -464346.000000 0 0 1
-27.385827 1.917287 6.491695 28.209956 -0.069896 1.338595 0.035880 0.000375 16337.800000 0 0 1
-27.456797 2.752587 7.625195 28.628588 -0.099918 1.301193 0.041719 0.003675 -198676.000000 0 0 1
-26.218697 2.974187 8.523695 27.729393 -0.112955 1.258349 0.029134 0.002955 -237626.000000 0 0 1
-25.870177 1.892887 9.351995 27.573700 -0.073039 1.224769 0.036389 -0.002857 -783436.000000 0 0 1
-24.840507 2.157887 10.191195 26.936365 -0.086652 1.182790 0.030991 -0.010865 -1080210.000000 0 0 1
-24.161107 0.916987 10.816695 26.487749 -0.037935 1.150133 0.011650 -0.006952 -280830.000000 0 0 1
-23.445507 0.083987 9.912095 25.454832 -0.003582 1.170817 0.005824 -0.011708 247704.000000 0 0 1
-24.210107 -0.861313 9.172195 25.903674 0.035562 1.208857 0.013222 -0.004741 26941.100000 0 0 1
-23.253407 -1.812413 8.405895 24.792436 0.077785 1.224889 0.015664 -0.006050 403803.000000 0 1 0
-22.377407 -2.597713 9.208195 24.336954 0.115569 1.182769 0.007048 -0.000213 639068.000000 0 1 0
-21.129207 -2.919713 8.620795 23.006222 0.137314 1.186706 0.002194 0.000864 1189350.000000 0 1 0
-19.880807 -2.743213 9.592595 22.243866 0.137117 1.124922 -0.007871 0.003186 704107.000000 0 1 0
-19.602807 -1.388313 10.044395 22.070055 0.070704 1.098296 0.002363 0.007469 100752.000000 0 1 0
-20.540807 -0.873713 10.943095 23.290330 0.042510 1.081669 0.007076 0.001165 -1242000.000000 0 1 0
-20.266807 0.620687 11.276595 23.201085 -0.030616 1.063246 0.020325 0.008601 -277045.000000 0 1 0
-20.585907 1.523787 10.235995 23.040770 -0.073886 1.110453 0.004191 0.010489 416621.000000 0 1 0
-20.613607 2.847687 10.767695 23.430181 -0.137277 1.093291 -0.003325 0.009051 -448594.000000 0 1 0
-21.358907 3.928087 9.961895 23.892931 -0.181876 1.140721 -0.002238 0.008940 -561798.000000 0 1 0
-21.671607 4.981287 10.820195 24.729505 -0.225929 1.117933 0.002616 0.005680 410246.000000 0 1 0
-22.246607 6.041387 10.118795 25.175383 -0.265169 1.157170 0.005708 0.011519 -314247.000000 0 0 1
-22.470107 7.252187 11.089495 26.085951 -0.312194 1.131709 0.011722 0.008243 178818.000000 0 0 1
-23.325107 7.000487 12.229895 27.251381 -0.291573 1.105396 0.018791 0.009015 646572.000000 0 0 1
-23.302307 7.997887 13.179395 27.940297 -0.330625 1.079580 0.024448 0.001074 -29028.500000 0 0 1
-24.135907 7.615487 14.438895 29.137937 -0.305639 1.052345 0.028231 -0.003742 -286536.000000 0 0 1
-25.502777 7.603187 14.169695 30.149301 -0.289742 1.081523 0.046794 -0.003231 -445529.000000 0 0 1
-26.275187 7.113487 15.261295 31.207279 -0.264392 1.059819 0.042837 -0.004258 518173.000000 0 0 1
-27.644907 6.485087 14.876095 32.056130 -0.230419 1.088219 0.035198 -0.001021 209074.000000 0 0 1
-27.635867 5.314187 14.050295 31.454611 -0.189974 1.107740 0.037773 0.003789 -388485.000000 0 0 1
-28.526907 5.490587 12.995895 31.824900 -0.190145 1.150144 0.036763 -0.000230 -462131.000000 0 0 1
-28.822297 4.219987 12.215095 31.587049 -0.145381 1.173733 0.049644 0.002897 51726.500000 0 0 1
-29.777907 3.332987 12.802195 32.584180 -0.111464 1.167018 0.039137 -0.001095 308955.000000 0 0 1
-30.158117 2.393387 11.818295 32.479416 -0.079195 1.198377 0.049858 -0.003396 214902.000000 0 0 1
-31.196707 1.417687 12.460795 33.623144 -0.045412 1.191140 0.054563 0.000930 287172.000000 0 0 1
-30.554017 0.392687 13.171695 33.274551 -0.012852 1.163804 0.053616 -0.005354 -105973.000000 0 0 1
-31.521887 -0.179113 14.001095 34.491914 0.005682 1.152807 0.059558 -0.000756 -131274.000000 0 0 1
-31.134797 -1.440513 14.774395 34.492513 0.046234 1.128146 0.049982 -0.008984 -450355.000000 0 0 1
-31.065097 -2.680813 14.062895 34.205146 0.086083 1.147099 0.034182 -0.011232 178459.000000 0 0 1
-31.119657 -3.774213 15.016295 34.758695 0.120691 1.124070 0.024341 -0.005105 -266873.000000 0 0 1
-31.167457 -5.141813 14.253195 34.655479 0.163501 1.146936 0.026749 -0.008970 -610755.000000 0 0 1
-32.372137 -5.358613 13.599995 35.519430 0.164044 1.177875 0.015315 -0.018442 -432771.000000 0 0 1
-32.339027 -6.642413 12.975095 35.472347 0.202582 1.196325 0.022064 -0.015865 -581078.000000 0 0 1
-33.416347 -6.794213 11.855395 36.102133 0.200586 1.236203 0.027670 0.002399 1532630.000000 0 0 1
-34.810858 -6.831513 12.249695 37.530261 0.193784 1.238309 0.006382 0.007400 1277680.000000 0 0 1
35.200614 -5.648913 12.835895 37.891340 -0.159121 1.225203 0.013268 -0.003603 -411856.000000 0 0 1
33.643686 -5.523813 12.831995 36.428975 -0.162734 1.210825 0.014355 -0.003637 845071.000000 0 0 1
32.867156 -6.334113 13.701095 36.167540 -0.190385 1.182272 0.009547 -0.001880 1108830.000000 0 0 1
31.477496 -6.293313 13.300795 34.746938 -0.197329 1.177981 0.002081 0.003164 1048860.000000 0 0 1
30.607586 -7.462513 13.775295 34.384185 -0.239147 1.158593 -0.011386 -0.001954 -269744.000000 0 0 1
30.237716 -7.292213 15.130095 34.589242 -0.236644 1.118066 0.007365 -0.000023 433283.000000 0 0 1
29.324156 -8.279613 15.637595 34.248978 -0.275185 1.096643 0.017971 0.009840 162403.000000 0 0 1
28.953946 -8.086713 17.126295 34.598207 -0.272355 1.052955 -0.001549 -0.002621 -588110.000000 0 0 1
29.914866 -8.432513 18.054395 35.943952 -0.274755 1.044548 -0.013831 0.004081 -514823.000000 0 0 1
29.385906 -8.377613 19.365895 36.176702 -0.277722 1.005917 -0.004414 -0.003214 -820033.000000 0 0 1
30.410496 -8.887813 20.334095 37.646606 -0.284342 1.000204 -0.000231 -0.003697 -173366.000000 0 0 1
31.483306 -7.992013 20.522495 38.421916 -0.248598 1.007312 0.006046 -0.000486 -665618.000000 0 0 1
32.644246 -8.320813 19.824695 39.088378 -0.249579 1.038891 -0.009327 0.016715 -612179.000000 0 0 1
33.861156 -7.760713 20.620595 40.398212 -0.225301 1.035108 0.001010 0.002078 28509.200000 0 0 1
34.032036 -8.359813 21.842995 41.293854 -0.240876 1.013416 0.006457 0.006725 -464733.000000 0 0 1
-35.182490 -8.103213 22.320195 42.445975 0.226372 1.017083 0.005381 0.007474 -441635.000000 0 0 1
-34.983049 -8.744613 23.679895 43.139534 0.244948 0.989732 -0.001555 0.011202 259373.000000 0 0 1
34.756884 -8.122113 24.771095 43.446713 -0.229564 0.964109 0.003821 0.005466 624756.000000 0 0 1
34.754985 -8.994813 25.941395 44.291891 -0.253250 0.945063 -0.008181 0.003590 -467989.000000 0 0 1
34.230366 -8.375513 27.265795 44.556602 -0.239966 0.912290 0.007105 0.003061 -351749.000000 0 0 1
35.116430 -7.550213 27.924495 45.496668 -0.211781 0.909969 -0.009651 -0.004014 -571646.000000 0 0 1
34.515010 -6.997913 29.093295 45.680155 -0.200038 0.880337 -0.001105 -0.011605 -695265.000000 0 0 1
-35.051897 -6.430013 30.165095 46.689544 0.181426 0.868361 -0.001295 -0.006452 352482.000000 0 0 1
-34.340979 -7.486413 30.868795 46.778539 0.214644 0.850121 -0.008702 -0.000200 804351.000000 0 0 1
-32.935557 -7.234813 31.018395 45.817402 0.216231 0.827117 -0.001679 -0.013751 737063.000000 0 0 1
-32.369807 -8.042113 32.161795 46.334232 0.243514 0.803591 -0.006111 -0.010342 -250055.000000 0 0 1
-32.435867 -9.465213 32.143695 46.635747 0.283929 0.810343 -0.003406 -0.013122 190000.000000 0 0 1
-31.722227 -10.009913 33.223995 47.014167 0.305660 0.786001 0.002791 -0.019211 -384626.000000 0 0 1
-31.719877 -11.505813 33.160195 47.308909 0.347972 0.794097 0.009096 -0.025514 119085.000000 0 0 1
-33.021887 -11.888113 33.586995 48.578375 0.345562 0.807374 0.013665 -0.028407 272802.000000 0 0 1
-33.203677 -13.318113 33.678895 49.133739 0.381457 0.815570 0.018716 -0.031437 931441.000000 0 0 1
-34.751949 -13.602913 33.668595 50.262426 0.373096 0.836781 0.010409 -0.031801 892650.000000 0 0 1
-35.018289 -14.959613 33.705595 50.854082 0.403728 0.846257 0.011860 -0.028934 250360.000000 0 0 1
34.095176 -15.161113 33.968695 50.460010 -0.418413 0.832295 0.006302 -0.026294 211660.000000 0 0 1
33.712376 -16.608813 34.242495 50.842162 -0.457760 0.831855 0.003622 -0.016620 -300144.000000 0 0 1
34.065526 -17.082213 -33.522468 50.754487 -0.464808 2.292258 0.008714 -0.020107 92193.800000 0 0 1
33.896776 -18.493013 -33.497368 51.118065 -0.499435 2.285368 -0.000598 -0.020423 -561637.000000 0 0 1
34.476373 -19.160113 -32.214368 50.926376 -0.507244 2.255660 0.010593 -0.013442 88253.400000 0 0 1
33.694766 -18.969513 -31.058868 49.596703 -0.512755 2.247503 0.016376 -0.012830 -165453.000000 0 0 1
34.292556 -19.693413 -29.941568 49.601486 -0.521290 2.218858 0.011094 -0.003992 -556419.000000 0 0 1
33.354366 -19.700313 -28.702568 48.212586 -0.533506 2.208477 0.029796 0.001544 849530.000000 0 0 1
32.100136 -20.369913 -28.844868 47.721887 -0.565454 2.219855 0.017753 0.001638 748352.000000 0 0 1
31.174566 -19.629713 -29.660268 47.295990 -0.561951 2.248647 0.012266 0.006026 -312282.000000 0 0 1
29.821136 -20.402513 -29.880268 46.887025 -0.600018 2.261763 0.012716 0.009237 203966.000000 0 0 1
28.902046 -19.681713 -30.622068 46.480202 -0.597846 2.290045 0.001000 0.012735 -107955.000000 0 0 1
27.762316 -20.485713 -30.911668 46.324312 -0.635710 2.301358 -0.001317 0.012221 771518.000000 0 0 1
26.669976 -19.810313 -31.800268 45.989055 -0.638874 2.334325 0.000543 0.014296 639656.000000 0 0 1
26.981956 -20.020113 -33.177168 47.218168 -0.638350 2.349891 -0.005288 0.007005 314092.000000 0 0 1
25.909006 -19.560213 -33.987468 47.000282 -0.646667 2.379124 0.018393 0.003582 313814.000000 0 0 1
26.264456 -19.748313 33.566095 46.973400 -0.644718 0.774778 0.015279 -0.002162 79053.200000 0 0 1
27.194536 -18.765513 33.101295 46.769467 -0.604015 0.784482 0.003840 -0.009698 160483.000000 0 0 1
27.422156 -18.678413 31.710795 45.895885 -0.597958 0.808023 0.005933 -0.006304 -286837.000000 0 0 1
26.292846 -18.129413 30.803695 44.371804 -0.603657 0.803464 0.005232 -0.004593 -222122.000000 0 0 1
26.210856 -16.702913 31.032795 43.920732 -0.567361 0.786166 0.012831 -0.007133 688618.000000 0 0 1
25.428336 -16.004013 30.017895 42.471199 -0.561741 0.785857 0.026064 -0.003558 305192.000000 0 0 1
25.175636 -14.522913 30.391995 42.052361 -0.523234 0.763070 0.034224 -0.005634 -62609.100000 0 0 1
26.308306 -13.692413 30.510895 42.550251 -0.479881 0.771228 0.037310 -0.001585 124530.000000 0 0 1
25.968026 -12.487213 31.216295 42.482066 -0.448226 0.745408 0.060220 -0.011534 142197.000000 0 0 1
27.244236 -11.672413 31.505195 43.255878 -0.404777 0.754893 0.062321 -0.023897 313803.000000 0 0 1
27.957026 -11.292213 30.333395 42.769431 -0.383875 0.782390 0.050303 -0.024099 -288784.000000 0 0 1
29.246956 -10.823413 30.557995 43.661445 -0.354441 0.795560 0.038585 -0.026644 -48756.600000 0 0 1
30.016466 -10.332513 29.251195 43.166903 -0.331524 0.826261 0.034961 -0.017988 200213.000000 0 0 1
29.569616 -9.030213 28.831695 42.274976 -0.296393 0.820297 0.036636 -0.021428 287853.000000 0 0 1
30.177186 -8.711713 27.585995 41.803632 -0.281044 0.850118 0.028780 -0.008220 112778.000000 0 0 1
30.075746 -7.207413 27.495495 41.382358 -0.235206 0.844071 0.037697 -0.007039 -88459.300000 0 0 1
28.769216 -6.753313 27.273395 40.213345 -0.230566 0.825462 0.041525 -0.008504 -478150.000000 0 0 1
28.734616 -5.338813 27.366395 40.038740 -0.183703 0.818252 0.041654 -0.008084 44342.500000 0 0 1
27.296726 -4.854213 27.141695 38.798792 -0.175992 0.796029 0.046468 -0.007289 11152.300000 0 0 1
26.731166 -5.135013 25.890495 37.566492 -0.189786 0.810424 0.047434 -0.002571 -303218.000000 0 0 1
25.413236 -4.695613 25.694895 36.443230 -0.182710 0.788280 0.052686 -0.000773 -181507.000000 0 0 1
24.751236 -5.216113 24.405995 35.149454 -0.207702 0.803281 0.046712 0.006211 -139041.000000 0 0 1
25.232836 -4.443513 23.295395 34.628258 -0.174313 0.832907 0.047224 0.006105 339704.000000 0 0 1
24.743436 -4.918213 22.061195 33.513024 -0.196211 0.852255 0.047775 0.005223 145483.000000 0 0 1
25.204636 -3.987713 20.977295 33.033656 -0.156913 0.882752 0.041216 0.000516 -74668.000000 0 0 1
24.267236 -2.948513 20.899395 32.161735 -0.120909 0.863446 0.036551 0.004826 52342.500000 0 0 1
24.753536 -1.850613 20.141695 31.966392 -0.074623 0.889128 0.031710 0.003921 -167592.000000 0 0 1
23.617736 -0.889313 19.728695 30.786519 -0.037637 0.875227 0.027872 0.001872 -135209.000000 0 0 1
22.894736 -1.487913 18.693695 29.594545 -0.064898 0.887104 0.032904 -0.000466 -566172.000000 0 0 1
21.750636 -0.761513 18.314095 28.444264 -0.034997 0.871265 0.036134 0.004271 122652.000000 0 0 1
20.671636 -1.657413 17.707395 27.269312 -0.080007 0.864064 0.039558 -0.012392 -175785.000000 0 0 1
21.117836 -2.137113 16.435295 26.844910 -0.100856 0.911917 0.054655 -0.015037 622058.000000 0 0 1
20.079036 -2.911613 15.808495 25.720686 -0.144004 0.908890 0.057227 -0.025261 416879.000000 0 0 1
20.370036 -3.312713 14.368895 25.147119 -0.161215 0.962594 0.058887 -0.027685 217682.000000 0 0 1
19.337936 -4.168813 13.839495 24.142626 -0.212328 0.960343 0.057785 -0.027654 1078590.000000 0 1 0
19.573936 -4.586313 12.479095 23.662229 -0.230155 1.015277 0.048975 -0.022114 -510992.000000 0 1 0
18.387836 -5.460913 12.097895 22.678033 -0.288689 1.008107 0.030523 -0.019752 -399627.000000 0 1 0
18.533536 -6.778113 12.545495 23.384273 -0.350611 1.004521 0.050725 -0.020372 341426.000000 0 1 0
17.324536 -7.419413 12.269395 22.488337 -0.404629 0.993704 0.035413 -0.009048 -593005.000000 0 1 0
17.384036 -8.923513 12.362695 23.122933 -0.474244 1.006702 0.049674 -0.019708 -256974.000000 0 1 0
18.345036 -9.474613 11.498395 23.633064 -0.476735 1.062673 0.044480 -0.031093 521682.000000 0 1 0
18.178436 -10.876513 11.608195 24.155833 -0.539183 1.069509 0.059790 -0.033294 -39631.600000 0 1 0
18.782536 -11.712013 10.441695 24.474148 -0.557562 1.130020 0.064573 -0.030949 26084.300000 0 1 0
18.151336 -11.374513 9.236995 23.327508 -0.559784 1.163672 0.051141 -0.019789 446081.000000 0 1 0
18.741736 -12.029013 8.109295 23.700432 -0.570611 1.221584 0.043822 -0.021057 102583.000000 0 1 0
18.376936 -11.267213 6.853895 22.619411 -0.550009 1.262947 0.035620 -0.013495 -83542.500000 0 1 0
18.800736 -9.920213 6.904695 22.350685 -0.485522 1.256733 0.035296 -0.008341 624496.000000 0 1 0
19.348636 -9.597713 5.592695 22.310627 -0.460475 1.317420 0.021683 -0.009919 -383287.000000 0 1 0
20.015636 -8.274613 5.569195 22.363158 -0.392011 1.319113 0.053308 -0.007717 -559733.000000 0 1 0
20.536636 -8.027913 4.258695 22.457455 -0.372643 1.380007 0.046447 -0.009274 606624.000000 0 1 0
20.915636 -6.669713 4.140595 22.340399 -0.308693 1.384377 0.056017 -0.011870 -378754.000000 0 1 0
21.462636 -6.190013 2.800995 22.512365 -0.280789 1.446053 0.035238 -0.011170 313748.000000 0 1 0
20.479936 -5.975813 1.775495 21.407721 -0.283907 1.487764 0.011373 -0.020112 847985.000000 0 1 0
21.055236 -5.092713 0.821295 21.677943 -0.237316 1.532901 0.012655 -0.011609 -163835.000000 0 1 0
-25.174657 -16.038013 0.142295 29.849648 0.567232 1.566029 -0.008505 0.009168 -520224.000000 0 0 1
-24.243607 -15.300713 -0.655605 28.675671 0.562991 1.593661 -0.019625 0.011589 958391.000000 0 0 1
-22.858007 -15.494713 -0.334405 27.616779 0.595717 1.582905 -0.015559 0.007993 1141220.000000 0 0 1
-22.398007 -14.910513 1.091195 26.929256 0.587338 1.530264 -0.013251 0.001188 -619050.000000 0 0 1
-22.938707 -15.583313 2.239295 27.821545 0.596729 1.490221 -0.009405 0.013919 448796.000000 0 0 1
-22.257807 -15.103113 3.428995 27.115900 0.596187 1.444000 0.011851 0.017500 372819.000000 0 0 1
-22.599507 -15.836813 4.700895 27.993585 0.611235 1.402069 0.008746 0.017436 -911508.000000 0 0 1
-22.198307 -17.187813 4.622795 28.452698 0.658863 1.407600 0.016010 0.007566 314461.000000 0 0 1
-22.704007 -17.957913 5.709395 29.505182 0.669203 1.376063 0.018862 0.001706 -11555.400000 0 0 1
-22.487407 -19.474213 5.563695 30.263562 0.713713 1.385903 0.001177 0.005655 79335.000000 0 0 1
-23.044407 -20.166613 6.658495 31.338037 0.718898 1.356691 0.000967 0.005074 -10023.100000 0 0 1
-23.380307 -21.523513 6.385795 32.414175 0.744071 1.372493 0.008645 0.006488 -37986.200000 0 0 1
-24.061407 -22.304513 7.530295 33.662263 0.747524 1.345186 0.004730 0.009178 145442.000000 0 0 1
-23.190807 -22.462613 8.635695 33.420918 0.769449 1.309439 0.007549 0.008301 -47616.900000 0 0 1
-23.734107 -23.367513 9.582195 34.657856 0.777615 1.290667 0.008235 0.004727 -117825.000000 0 0 1
-22.796207 -23.697013 10.738195 34.590813 0.804771 1.255146 -0.002599 -0.000314 -103375.000000 0 0 1
-22.684207 -22.842613 11.827095 34.296332 0.788878 1.218717 0.014747 0.003562 64772.000000 0 0 1
-21.761507 -23.221813 12.840395 34.317511 0.817850 1.187301 0.028910 0.001343 -26449.700000 0 0 1
-21.924107 -22.425213 14.179695 34.418315 0.796697 1.146169 0.027786 0.006026 -832070.000000 0 0 1
-23.145907 -22.718613 14.755695 35.631432 0.776082 1.143820 0.025178 0.003561 -1080380.000000 0 0 1
-23.512807 -22.010413 15.902695 35.919439 0.752407 1.112153 0.020654 0.007849 -47630.400000 0 0 1
-25.013307 -22.162313 16.304095 37.184098 0.725038 1.116901 -0.001597 0.011003 19547.600000 0 0 1
-25.994957 -21.736513 15.377095 37.211139 0.696417 1.144788 -0.008536 0.011234 147609.000000 0 0 1
-26.225887 -22.750113 14.431395 37.598271 0.714548 1.176854 -0.020360 0.011801 -308805.000000 0 0 1
-27.357947 -23.748313 14.881895 39.165169 0.714885 1.181024 -0.029077 0.008857 -86758.900000 0 0 1
-27.059997 -24.485713 16.041895 39.863969 0.735498 1.156642 -0.016604 0.009380 222746.000000 0 0 1
-28.081987 -25.442373 16.358895 41.273791 0.736122 1.163258 -0.030045 0.011030 326043.000000 0 0 1
-27.771307 -26.830723 15.742695 41.700907 0.768174 1.183686 -0.020259 0.005416 -54606.500000 0 0 1
-28.358397 -26.998573 14.458795 41.739411 0.760838 1.217059 -0.032096 -0.001302 -30171.800000 0 0 1
-29.594377 -27.658073 14.670095 43.081410 0.751591 1.223326 -0.029534 -0.001551 -428185.000000 0 0 1
-30.339057 -28.154723 13.447095 43.519779 0.748072 1.256667 -0.023029 -0.007484 -55837.000000 0 0 1
-29.619357 -29.215543 12.772195 43.519918 0.778535 1.272932 -0.016474 -0.019170 125379.000000 0 0 1
-30.210107 -29.675513 11.602495 43.907910 0.776471 1.303374 -0.007460 -0.016649 -441381.000000 0 0 1
-29.437487 -30.802163 10.829695 43.961588 0.808048 1.321890 -0.010408 -0.028704 -300131.000000 0 0 1
-29.595147 -32.112793 11.389595 45.131221 0.826175 1.315671 -0.018044 -0.023783 -77262.800000 0 0 1
-29.030417 -33.152433 10.645395 45.334020 0.851590 1.333762 0.004819 -0.023076 -474548.000000 0 0 1
-29.247017 -34.521424 11.291495 46.632763 0.867922 1.326229 0.001483 -0.017082 -364244.000000 0 0 1
-30.566717 34.166334 11.483795 47.260345 -0.840948 1.325349 -0.007506 -0.014268 -739365.000000 0 0 1
-30.583537 32.813671 11.831195 46.390375 -0.820561 1.312912 -0.001112 -0.016784 -69924.200000 0 0 1
-31.905267 32.339081 12.521195 47.122633 -0.792151 1.301851 0.002832 -0.014944 775992.000000 0 0 1
-33.095247 32.292001 11.756395 47.710392 -0.773114 1.321820 -0.004508 -0.014600 296171.000000 0 0 1
-33.593607 33.538988 11.230595 48.780328 -0.784585 1.338484 0.000772 -0.007024 -498356.000000 0 0 1
-34.995051 33.421039 10.570895 49.531437 -0.762396 1.355724 0.003690 0.007915 158774.000000 0 0 1
-35.010568 32.647481 9.362495 48.777599 -0.750485 1.377655 -0.006783 0.006586 -348299.000000 0 0 1
34.223776 32.650561 8.764895 48.105607 0.761878 1.387572 -0.004882 0.004417 -351166.000000 0 0 1
34.056356 32.060711 7.280995 47.336429 0.755224 1.416369 -0.003732 0.003862 -158558.000000 0 0 1
34.142756 30.685911 7.175395 46.463311 0.732126 1.415744 -0.000637 0.003213 4544.850000 0 0 1
33.957906 30.326521 5.791895 45.895352 0.728969 1.444261 0.020161 0.000416 -7624.780000 0 0 1
34.104846 28.809901 5.548595 44.988197 0.701435 1.447147 0.019981 0.004738 -57192.300000 0 0 1
33.105666 28.002571 6.110495 43.788894 0.702082 1.430795 0.017669 0.004848 15515.300000 0 0 1
33.631006 27.393491 7.298895 43.985473 0.683539 1.404086 0.000653 0.001044 -115091.000000 0 0 1
32.716266 26.356561 7.916095 42.751456 0.678153 1.384556 0.002808 -0.002423 -341557.000000 0 0 1
32.829646 25.156741 7.233195 41.987693 0.653840 1.397663 0.000448 -0.001942 -373690.000000 0 0 1
31.798936 24.271521 7.544595 40.708721 0.651947 1.384387 0.000754 0.003447 -761458.000000 0 0 1
31.877686 22.923451 6.774095 39.844195 0.623434 1.399952 -0.003338 0.004800 -69000.600000 0 0 1
32.835256 21.962451 7.136995 40.142745 0.589525 1.392056 0.006077 0.003179 -673438.000000 0 0 1
34.132996 22.266251 6.717995 41.303497 0.578017 1.407421 0.016931 -0.000988 -474475.000000 0 0 1
35.069436 21.022951 6.828095 41.454224 0.540027 1.405328 0.006771 0.001131 -92631.800000 0 0 1
34.845747 20.165151 5.694695 40.660656 0.524609 1.430280 0.018606 -0.002224 476407.000000 0 0 1
-34.945181 18.942651 5.966295 40.194358 -0.496733 1.421810 0.010425 0.000981 212663.000000 0 0 1
-35.245281 17.718851 4.991395 39.763068 -0.465829 1.444936 0.007742 -0.004971 -6725.070000 0 0 1
-34.630899 17.800851 3.701695 39.113579 -0.474798 1.476015 0.015030 -0.006426 652653.000000 0 0 1
-35.244944 16.754351 2.920495 39.133664 -0.443749 1.496098 0.005209 -0.004169 371947.000000 0 0 1
-34.239757 16.162051 1.803895 37.905500 -0.441019 1.523189 0.014479 0.006458 1326440.000000 0 0 1
-33.126677 15.372851 2.241795 36.588618 -0.434487 1.509488 0.021544 -0.003347 547641.000000 0 0 1
-31.985437 16.140751 2.535695 35.916873 -0.467343 1.500139 0.024941 -0.004902 -656972.000000 0 0 1
-30.715517 15.358551 2.872495 34.461273 -0.463668 1.487345 -0.001958 -0.005581 -469027.000000 0 0 1
-30.871187 14.467351 3.957995 34.322007 -0.438243 1.455220 -0.001100 0.003180 150768.000000 0 0 1
-29.654007 13.868551 4.349995 33.024526 -0.437458 1.438692 0.004118 0.008607 -190599.000000 0 0 1
-29.643507 13.361651 5.791695 33.027488 -0.423473 1.394525 -0.002020 0.013496 -632594.000000 0 0 1
-29.859467 11.956951 5.810695 32.685175 -0.380886 1.392069 -0.008163 0.026640 468696.000000 0 0 1
-29.704647 11.545751 7.153795 32.662627 -0.370714 1.349986 -0.013873 0.021033 -217913.000000 0 0 1
-29.660287 9.974251 7.181295 32.105908 -0.324403 1.345213 -0.002593 0.018738 -178978.000000 0 0 1
-30.905937 9.358751 6.973795 33.036298 -0.294036 1.358101 -0.009575 0.025490 -265852.000000 0 0 1
-30.861197 7.937951 7.049395 32.636154 -0.251757 1.353081 -0.000549 0.018840 -836304.000000 0 0 1
-32.183367 7.235651 6.897395 33.700116 -0.221149 1.364670 0.012526 0.009905 -445982.000000 0 0 1
-33.004737 7.282251 8.070795 34.748836 -0.217163 1.336395 0.017948 0.003068 291647.000000 0 0 1
-34.291193 6.735951 7.863295 35.820251 -0.193964 1.349473 0.006519 0.010674 57674.400000 0 0 1
-34.955290 6.128151 9.064195 36.627670 -0.173550 1.320730 0.004935 0.004789 -390824.000000 0 0 1
35.049836 6.984951 10.100195 37.138854 0.196709 1.295370 0.003206 0.001842 -20335.900000 0 0 1
-34.516112 7.785351 10.796995 36.993902 -0.221845 1.274627 0.008934 -0.001096 -375211.000000 0 0 1
-35.133139 8.839151 11.795995 38.100046 -0.246475 1.256018 -0.001388 -0.008512 -485970.000000 0 0 1
34.761548 8.213551 12.903795 37.978093 0.232027 1.224125 -0.002979 -0.013516 526352.000000 0 0 1
34.135256 9.220251 13.712295 37.924343 0.263814 1.200845 0.015271 -0.016369 -513184.000000 0 0 1
33.544376 8.647851 15.003895 37.750859 0.252309 1.162065 0.016258 -0.017186 18674.600000 0 0 1
32.254396 8.063151 14.831695 36.405215 0.244966 1.151185 0.018411 -0.019029 576457.000000 0 0 1
31.765796 7.652651 16.093695 36.423013 0.236404 1.113131 0.004071 -0.014359 -162741.000000 0 0 1
30.253746 7.357651 16.104195 35.053806 0.238567 1.093461 0.011306 -0.005274 -328966.000000 0 0 1
29.403156 8.502351 16.090795 34.579608 0.281487 1.086793 0.002985 -0.002596 712959.000000 0 0 1
28.005796 8.244851 16.086395 33.332781 0.286309 1.067176 0.003753 0.004091 689354.000000 0 0 1
27.337616 7.518951 17.298795 33.213374 0.268404 1.022964 0.008788 0.006957 -620373.000000 0 0 1
27.322246 8.384051 18.432495 34.008151 0.297737 0.997978 0.023803 -0.000051 233795.000000 0 0 1
26.634206 7.871851 19.560195 33.969813 0.287373 0.957200 0.028963 -0.000361 95777.100000 0 0 1
27.522696 7.031451 20.471795 35.014776 0.250128 0.946333 0.028798 -0.000877 -50410.500000 0 0 1
26.756636 6.751051 21.636895 35.066359 0.247155 0.905837 0.007091 0.008240 83100.500000 0 0 1
27.174786 5.649751 22.355495 35.639260 0.204984 0.892751 0.020859 0.012717 -702554.000000 0 0 1
26.449066 5.494051 23.719895 35.949564 0.204809 0.850230 0.022059 0.013925 1036060.000000 0 0 1
25.028636 5.314851 23.656795 34.847155 0.209243 0.824570 0.016665 0.005374 372317.000000 0 0 1
24.290736 6.491751 23.565595 34.460412 0.261149 0.817776 0.016636 0.011640 190085.000000 0 0 1
22.763436 6.377951 23.911395 33.624502 0.273179 0.779692 0.017002 0.001318 720886.000000 0 0 1
22.133036 5.566151 23.005995 32.405696 0.246377 0.781388 0.026603 0.022328 -1928400.000000 0 0 1
20.775436 5.628951 23.044795 31.533576 0.264590 0.751300 0.038067 0.005057 -2016490.000000 0 0 1
20.064636 4.711551 22.065195 30.193727 0.230640 0.751322 0.037546 0.006578 654107.000000 0 0 1
18.680836 4.985551 21.819595 29.153458 0.260802 0.725091 0.045424 -0.003190 742872.000000 0 0 1
17.762036 4.284151 22.630395 29.085712 0.236677 0.679227 0.048661 -0.008682 -533404.000000 0 0 1
16.459036 4.157251 21.837795 27.659933 0.247407 0.660786 0.059990 -0.009019 -1009960.000000 0 0 1
16.500336 3.256251 20.800895 26.749608 0.194841 0.679933 0.047674 -0.006158 -433794.000000 0 0 1
15.295136 2.972051 20.177595 25.493325 0.191922 0.657561 0.051416 -0.017877 -627827.000000 0 0 1
14.285636 2.059551 20.883795 25.386100 0.143183 0.604745 0.054149 -0.016185 -415192.000000 0 0 1
14.665936 0.690851 20.858795 25.507965 0.047071 0.613329 0.031301 -0.007877 500598.000000 0 0 1
13.611036 -0.089349 21.386895 25.350889 -0.006564 0.566779 0.032859 -0.015728 150119.000000 0 0 1
13.998536 -1.586449 21.354295 25.582841 -0.112848 0.583187 0.023003 -0.011223 -26875.700000 0 0 1
13.621036 -2.245449 20.184095 24.453473 -0.163382 0.599872 0.032935 -0.015795 91383.700000 0 1 0
13.858936 -3.637249 20.369895 24.904464 -0.256660 0.613007 0.016748 -0.002415 -259291.000000 0 1 0
13.446936 -4.487549 19.155095 23.830146 -0.322101 0.637111 0.018503 0.001002 -441653.000000 0 1 0
12.065836 -4.408049 18.975995 22.915141 -0.350269 0.595089 0.020675 0.000792 -764826.000000 0 1 0
11.687236 -5.215549 17.886995 21.994045 -0.419740 0.621054 0.016145 0.000654 1094090.000000 0 1 0
10.120536 -5.230249 17.691195 21.041843 -0.476994 0.572106 0.013319 0.001501 1150010.000000 0 1 0
9.519536 -6.127149 18.599295 21.773776 -0.571891 0.546774 0.012177 0.006738 -1146120.000000 0 1 0
8.159436 -6.269649 18.409295 21.089975 -0.655169 0.509695 0.008005 -0.001473 -905804.000000 0 1 0
7.481936 -7.314749 19.321795 21.973090 -0.774100 0.496324 0.003494 -0.005065 -497268.000000 0 1 0
7.551936 -8.692249 18.975095 22.195521 -0.855481 0.545426 0.003386 -0.007100 44084.600000 0 1 0
8.710336 -9.376849 19.456595 23.288502 -0.822231 0.581828 0.019222 -0.006600 413282.000000 0 1 0
8.687436 -10.765849 18.781695 23.326533 -0.891836 0.634844 0.033583 -0.015565 194878.000000 0 1 0
8.945236 -10.634349 17.372595 22.246656 -0.871454 0.674678 0.026088 -0.018884 143750.000000 0 1 0
9.413336 -11.904449 16.838195 22.668295 -0.901727 0.733541 0.025887 -0.021568 248324.000000 0 1 0
9.611636 -11.954649 15.285095 21.654822 -0.893616 0.787171 0.031719 -0.023692 84123.100000 0 1 0
10.165236 -13.194349 14.875495 22.331664 -0.914352 0.841806 0.021552 -0.015959 -270.116000 0 1 0
10.027536 -13.420549 13.532995 21.536123 -0.929104 0.891320 0.024263 -0.005715 -286076.000000 0 1 0
10.847336 -14.631249 12.957195 22.352339 -0.932834 0.952461 0.044675 -0.005761 420676.000000 0 1 0
12.208936 -14.463849 12.626395 22.752734 -0.869737 0.982506 0.037775 -0.002677 -141408.000000 0 1 0
12.387736 -13.682849 11.485495 21.739203 -0.835035 1.014163 0.019689 0.000691 578067.000000 0 1 0
13.899836 -13.522949 11.022295 22.306201 -0.771655 1.053956 0.031421 -0.009642 1253600.000000 0 1 0
14.474336 -14.668749 10.431295 23.097414 -0.792069 1.102214 0.045948 -0.006691 585346.000000 0 1 0
15.751436 -14.278349 9.887795 23.446695 -0.736383 1.135462 0.040280 -0.017615 413695.000000 0 1 0
16.526836 -15.499349 9.436895 24.544269 -0.753326 1.176147 0.038373 -0.018853 -356654.000000 0 1 0
17.005136 -16.433349 10.428095 25.845208 -0.768300 1.155476 0.041075 -0.016959 548911.000000 0 0 1
16.007536 -17.315049 10.978695 26.011226 -0.824616 1.135063 0.063993 -0.015475 392581.000000 0 0 1
16.432636 -17.970749 12.321095 27.290818 -0.830077 1.102380 0.050734 -0.016155 -626451.000000 0 0 1
17.429136 -18.910349 12.188395 28.459323 -0.826136 1.128214 0.066696 -0.024304 -792482.000000 0 0 1
17.583436 -19.721749 13.293995 29.577946 -0.842655 1.104640 0.043594 -0.025589 120147.000000 0 0 1
19.024536 -20.310249 13.215295 30.807194 -0.818073 1.127447 0.019532 -0.025679 523231.000000 0 0 1
19.961536 -19.231849 13.142795 30.676701 -0.766783 1.128043 0.012030 -0.029629 -1538620.000000 0 0 1
21.247836 -19.710449 13.286495 31.882649 -0.747880 1.140950 0.006255 -0.030433 -627973.000000 0 0 1
22.184036 -18.785249 12.464495 31.628795 -0.702628 1.165722 -0.005559 -0.029542 -693653.000000 0 0 1
22.072536 -19.032949 11.076495 31.179140 -0.711586 1.207611 -0.010131 -0.010768 -179654.000000 0 0 1
20.866236 -18.771349 10.379395 29.924826 -0.732596 1.216587 -0.000800 -0.013443 180671.000000 0 0 1
20.433236 -17.303249 10.203195 28.653530 -0.702644 1.206718 0.029004 -0.015911 -187074.000000 0 0 1
21.120136 -16.696749 9.146995 28.434294 -0.668959 1.243284 0.020188 -0.009575 -269729.000000 0 0 1
20.840236 -15.330149 9.128695 27.434686 -0.634223 1.231586 0.035853 -0.020473 30199.700000 0 0 1
-34.028827 25.279487 8.187595 43.174648 -0.638932 1.380002 0.012107 0.003800 260653.000000 0 0 1
-33.104407 24.507887 8.981195 42.156852 -0.637278 1.356109 0.009091 -0.008470 642365.000000 0 0 1
-32.073457 25.327787 9.503595 41.958572 -0.668417 1.342314 0.019070 -0.007682 -489609.000000 0 0 1
-30.942047 24.538187 10.165795 40.778380 -0.670481 1.318845 0.026704 -0.024204 -127731.000000 0 0 1
-30.107117 23.873987 9.215295 39.513636 -0.670439 1.335411 0.025198 -0.016715 539026.000000 0 0 1
-29.233207 22.940787 9.860695 38.445981 -0.665373 1.311416 0.028000 -0.019432 135899.000000 0 0 1
-28.494627 21.940087 8.971895 37.064890 -0.656162 1.326309 0.024601 -0.018951 -694156.000000 0 0 1
-29.228737 20.951687 8.354995 36.920160 -0.621924 1.342520 0.018713 -0.015098 -494290.000000 0 0 1
-28.474377 20.250787 7.414795 35.719235 -0.618199 1.361690 0.016256 -0.011860 -228678.000000 0 0 1
-29.383547 19.573987 6.363695 35.875206 -0.587648 1.392468 0.013409 -0.011124 61203.600000 0 0 1
-30.026697 18.412587 6.903595 35.892695 -0.550074 1.377250 0.009218 -0.003791 654072.000000 0 0 1
-30.974057 17.932587 5.935795 36.279520 -0.524802 1.406445 0.001304 -0.004061 232492.000000 0 0 1
-31.517637 16.520587 6.286195 36.135959 -0.482796 1.395947 0.008562 -0.005087 -41644.600000 0 0 1
-32.362207 16.582487 7.424895 37.113615 -0.473521 1.369379 0.002507 0.000717 59844.300000 0 0 1
-33.332537 15.573787 7.513895 37.550759 -0.437085 1.369337 0.005485 0.001727 -292750.000000 0 0 1
-34.238387 15.860787 8.736595 38.731897 -0.433814 1.343272 -0.001005 0.001691 -457125.000000 0 0 1
-35.159056 16.874087 8.468995 39.907617 -0.447468 1.356955 0.006648 -0.001483 -130734.000000 0 0 1
34.851064 17.413087 9.707195 40.150242 0.463362 1.326605 0.016784 0.003046 107356.000000 0 0 1
33.989266 18.693087 9.573995 39.954513 0.502820 1.328819 0.021862 -0.000777 -394642.000000 0 0 1
32.718396 18.445687 9.054495 38.635744 0.513355 1.334241 0.013984 0.003148 -458530.000000 0 0 1
32.016386 19.668187 8.969695 38.630843 0.550880 1.336468 0.001989 0.007302 -401209.000000 0 0 1
30.583346 19.557887 8.451895 37.273134 0.568955 1.342051 -0.012958 0.004858 -501290.000000 0 0 1
29.842146 20.787687 8.580695 37.367231 0.608432 1.339097 -0.024033 0.005281 630137.000000 0 0 1
28.507776 20.684687 8.070595 36.134251 0.627689 1.345546 -0.025706 0.004710 559225.000000 0 0 1
28.249096 20.522787 6.562595 35.528353 0.628286 1.385015 -0.039201 0.020082 -714554.000000 0 0 1
28.427706 19.139387 6.220295 34.830198 0.592557 1.391244 -0.031200 0.018858 -63829.200000 0 0 1
28.373506 18.773587 4.854895 34.366749 0.584528 1.429055 -0.030241 0.019191 972981.000000 0 0 1
27.006256 19.043687 4.057695 33.293615 0.614180 1.448616 -0.005095 0.015739 412338.000000 0 0 1
25.928096 18.328687 4.627795 32.087746 0.615345 1.426068 0.002051 0.006803 606256.000000 0 0 1
24.659936 18.735187 4.088195 31.238326 0.649707 1.439549 0.024119 0.002511 573616.000000 0 0 1
24.012436 19.926487 4.775995 31.566946 0.692673 1.418916 0.032650 0.006052 -836559.000000 0 0 1
24.630536 21.086487 4.326095 32.711135 0.708031 1.438156 0.010766 0.008472 54328.000000 0 0 1
23.893436 22.249287 4.637795 32.976298 0.749781 1.429688 -0.009435 0.023042 -9288.840000 0 0 1
24.716236 23.504487 4.339295 34.382884 0.760274 1.444254 -0.020679 0.027872 503279.000000 0 0 1
25.680946 23.880487 5.354295 35.474739 0.749086 1.419285 -0.035279 0.024925 714670.000000 0 0 1
26.335176 25.097987 4.954795 36.715126 0.761348 1.435431 -0.015049 0.024936 366081.000000 0 0 1
27.792976 25.261587 5.513895 37.960510 0.737721 1.425027 -0.016960 0.016042 420085.000000 0 0 1
28.758086 24.243887 5.278795 37.982355 0.700433 1.431365 -0.023653 0.008863 437450.000000 0 0 1
29.153266 24.051687 3.900795 37.994905 0.689805 1.467949 -0.025084 0.007721 -555869.000000 0 0 1
30.043696 25.175887 3.347895 39.340277 0.697472 1.485592 -0.010124 0.000440 -1034930.000000 0 0 1
29.387996 26.396487 3.038295 39.618936 0.731823 1.494033 -0.012086 0.007204 -526542.000000 0 0 1
30.147456 27.342187 2.332895 40.766490 0.736641 1.513539 0.029863 0.004438 -879889.000000 0 0 1
29.568256 28.783787 2.217595 41.324398 0.771955 1.517107 0.023533 0.007896 574177.000000 0 0 1
28.359606 29.045387 1.519495 40.622785 0.797344 1.533383 0.057721 0.006114 -106783.000000 0 0 1
27.202716 28.498587 2.076895 39.452132 0.808659 1.518129 0.027677 0.016976 -1404640.000000 0 0 1
25.967986 29.309087 1.757895 39.197565 0.845768 1.525934 -0.014604 0.011278 -702443.000000 0 0 1
26.019436 30.553387 2.355395 40.200353 0.865371 1.512171 -0.002089 -0.001453 332501.000000 0 0 1
24.730536 31.143087 2.281895 39.833382 0.899667 1.513479 -0.019062 0.012937 272410.000000 0 0 1
24.716836 32.551387 2.920595 40.976148 0.921359 1.499460 -0.003674 -0.000909 -517686.000000 0 0 1
24.474336 32.624087 4.312795 41.011271 0.927172 1.465440 0.000837 -0.026782 -44366.200000 0 0 1
25.639646 32.327487 5.063595 41.570397 0.900263 1.448685 0.008365 -0.025932 -28621.700000 0 0 1
25.481866 32.121087 6.570295 41.524192 0.900150 1.411900 0.019372 -0.039836 -58120.300000 0 0 1
24.753636 31.025387 7.112195 40.322456 0.897367 1.393486 0.007449 -0.034033 234844.000000 0 0 1
25.415236 29.760087 7.003695 39.757374 0.863982 1.393711 0.017105 -0.026965 -105738.000000 0 0 1
24.585236 28.565987 7.525895 38.432910 0.860153 1.373704 0.012949 -0.014366 -733517.000000 0 0 1
23.519936 28.339787 6.675795 37.428561 0.878072 1.391476 -0.019874 -0.019873 -925709.000000 0 0 1
22.828136 27.200287 7.131895 36.219378 0.872570 1.372593 -0.021283 0.004417 102149.000000 0 0 1
21.710136 26.863787 6.085195 35.071679 0.891102 1.396406 -0.007905 0.003736 -8974.850000 0 0 1
22.168536 26.362387 4.805895 34.778098 0.871600 1.432165 -0.007306 0.006255 347646.000000 0 0 1
22.762436 27.375287 4.005495 35.827068 0.877143 1.458761 -0.013738 0.003811 -104285.000000 0 0 1
22.964836 27.196787 2.530895 35.685492 0.869565 1.499814 -0.012611 0.016535 89958.600000 0 0 1
24.086936 26.391087 2.169995 35.796352 0.831013 1.510139 -0.043341 0.035802 277146.000000 0 0 1
23.952036 25.880487 0.908095 35.274981 0.824077 1.545050 -0.034830 0.041702 -802461.000000 0 0 1
25.157036 25.196587 0.293595 35.606610 0.786184 1.562551 -0.014759 0.031779 -1974930.000000 0 0 1
26.123936 26.138887 -0.176905 36.955822 0.785684 1.575583 -0.008124 0.033823 519098.000000 0 0 1
27.166916 25.499987 -0.904505 37.270750 0.753758 1.595067 -0.010187 0.029904 43690.100000 0 0 1
28.060226 24.479987 -0.208005 37.238278 0.717361 1.576382 -0.018486 0.023443 -1743560.000000 0 0 1
27.479496 23.181687 -0.128005 35.951769 0.700766 1.574357 -0.024088 0.017579 46636.400000 0 0 1
28.243296 22.188287 0.467895 35.919671 0.665906 1.557770 -0.023381 0.018968 -129574.000000 0 0 1
27.297486 21.086087 1.059795 34.509404 0.657718 1.540081 -0.013708 0.020820 45874.400000 0 0 1
26.450466 20.607387 0.062495 33.530515 0.661862 1.568932 0.001918 -0.003937 -781311.000000 0 0 1
25.356536 20.019087 0.647795 32.313115 0.668308 1.550748 0.012321 0.006068 -1096020.000000 0 0 1
25.035636 18.648487 0.043195 31.217800 0.640215 1.569413 0.027897 -0.015533 -379510.000000 0 0 1
23.859736 18.119887 0.637095 29.967035 0.649511 1.549535 0.048668 -0.016722 421573.000000 0 0 1
23.334836 17.089387 -0.240705 28.924378 0.632112 1.579118 0.064228 -0.036193 -784115.000000 0 0 1
21.927336 16.667787 0.064095 27.543190 0.649957 1.568469 0.081481 -0.023973 -1026810.000000 0 0 1
21.328036 15.690287 -0.835805 26.490919 0.634263 1.602352 0.078387 -0.024221 279066.000000 0 0 1
20.021336 15.312187 -0.523205 25.210925 0.652902 1.591551 0.090560 -0.025042 92167.300000 0 0 1
18.794336 16.185587 -0.906305 24.819784 0.710957 1.607320 0.080058 -0.036185 -128950.000000 0 1 0
18.772636 17.425587 -0.213805 25.614618 0.748202 1.579143 0.061754 -0.030825 -10275.300000 0 0 1
17.819736 18.260687 -0.819705 25.527781 0.797619 1.602912 0.052191 -0.035374 -81914.100000 0 0 1
17.821336 19.726387 -0.309305 26.586200 0.836091 1.582431 0.048453 -0.029118 -197286.000000 0 0 1
17.460236 19.845787 1.068195 26.454794 0.849257 1.530407 0.054050 -0.027368 40150.600000 0 0 1
17.421836 21.188887 1.498595 27.472443 0.882655 1.516220 0.054615 -0.025102 -342176.000000 0 0 1
16.490036 22.215787 0.881095 27.681019 0.932263 1.538961 0.053997 -0.033353 -201918.000000 0 0 1
15.163336 22.187187 1.364995 26.908386 0.971280 1.520047 0.045325 -0.032783 531686.000000 0 0 1
14.320336 23.272887 0.909895 27.340944 1.019186 1.537511 0.033528 -0.026807 649509.000000 0 0 1
12.858536 23.238187 1.395695 26.595173 1.065395 1.518293 0.030582 -0.024109 78101.800000 0 0 1
12.745836 23.518387 2.804095 26.896725 1.074153 1.466352 0.023065 -0.011609 1458180.000000 0 0 1
11.360136 23.614587 3.259895 26.406975 1.122412 1.447032 0.016892 -0.012215 1574930.000000 0 0 1
11.259336 24.017287 4.774295 26.951746 1.132418 1.392714 0.026672 -0.010561 -164565.000000 0 0 1
11.754136 22.999087 5.576795 26.423822 1.098332 1.358145 0.028278 -0.024976 104873.000000 0 0 1
11.168536 23.007687 6.901795 26.490086 1.118876 1.307212 0.018628 -0.010998 -533002.000000 0 0 1
11.675036 21.956687 7.885495 26.087997 1.082088 1.263728 0.023003 -0.006728 638266.000000 0 0 1
12.979736 22.119187 8.451395 27.002927 1.040133 1.252467 0.031476 -0.000948 158005.000000 0 0 1
14.022336 21.713187 7.623995 26.948353 0.997381 1.283968 0.019964 -0.006199 -1146850.000000 0 0 1
15.366136 21.755087 8.335095 27.908346 0.955839 1.267508 0.027873 -0.003688 -664120.000000 0 0 1
15.542536 20.505587 8.969195 27.248780 0.922216 1.235383 0.032829 -0.001820 33633.300000 0 0 1
16.681236 20.373987 9.800695 28.096559 0.884726 1.214483 0.035970 -0.006107 56161.500000 0 0 1
16.918236 21.358487 11.037795 29.398037 0.900886 1.185903 0.023962 -0.004385 51870.200000 0 0 1
15.994736 21.137487 12.134495 29.152546 0.923021 1.141489 0.023303 -0.004525 420202.000000 0 0 1
16.236236 21.938087 13.211995 30.322464 0.933666 1.119962 0.015059 0.006712 116112.000000 0 0 1
17.361436 21.565987 14.239895 31.133356 0.892991 1.095745 0.021512 -0.000133 1076360.000000 0 0 1
18.681736 21.762987 13.723795 31.795871 0.861436 1.124506 0.036670 -0.002605 228747.000000 0 0 1
19.636136 21.478587 14.734995 32.619436 0.830181 1.102099 0.021397 -0.007303 1194960.000000 0 0 1
21.116936 21.901587 14.394295 33.657098 0.803636 1.128877 0.029043 -0.008603 1343990.000000 0 0 1
21.787436 21.108587 13.361795 33.148188 0.769574 1.155902 0.041264 -0.001505 494082.000000 0 0 1
23.129636 21.563587 13.260295 34.289995 0.750373 1.173735 0.021022 0.006095 618745.000000 0 0 1
23.962236 20.982687 12.071595 34.061493 0.719202 1.208518 0.031618 0.008393 386358.000000 0 0 1
23.553736 21.684287 10.908595 33.822836 0.744097 1.242404 0.032907 0.013163 981027.000000 0 0 1
24.540536 21.505587 9.865395 34.088916 0.719582 1.277194 0.038364 0.004387 388176.000000 0 0 1
24.279036 22.383087 8.603895 34.124789 0.744789 1.315915 0.010418 0.005952 -93847.300000 0 0 1
24.461236 23.732987 8.755495 35.188996 0.770289 1.319341 0.016637 0.004000 -112164.000000 0 0 1
25.788096 24.160887 8.650095 36.381293 0.752832 1.330735 -0.004661 0.011564 -641856.000000 0 0 1
26.135786 25.565187 9.149095 37.687717 0.774362 1.325586 0.011062 0.010827 494801.000000 0 0 1
27.506456 25.909387 8.918495 38.825778 0.755508 1.339021 0.004227 0.009558 732977.000000 0 0 1
27.963766 26.976787 9.740195 40.057342 0.767436 1.325178 0.014292 0.000782 183542.000000 0 0 1
29.112876 27.703487 9.025795 41.188685 0.760597 1.349871 0.021609 -0.000104 -140354.000000 0 0 1
28.664126 28.294687 7.854995 41.035623 0.778912 1.378189 0.026816 -0.006870 546376.000000 0 0 1
29.755486 28.484787 6.941995 41.772758 0.763583 1.403837 0.022891 -0.001407 425127.000000 0 0 1
29.512396 29.588287 5.889795 42.203530 0.786682 1.430782 0.056402 -0.006577 49561.200000 0 0 1
29.712796 30.898687 6.376295 43.338623 0.804961 1.423133 0.051102 -0.021117 61963.300000 0 0 1
29.760896 31.794087 5.287795 43.869530 0.818417 1.449968 0.052825 -0.019457 37329.000000 0 0 1
29.890156 33.260487 5.759395 45.087161 0.838717 1.442707 0.025769 -0.015736 -97634.300000 0 0 1
28.769186 33.689987 6.484795 44.774255 0.864020 1.425452 0.024074 -0.024501 -86025.900000 0 0 1
28.814886 -34.025977 6.696495 45.087779 -0.868134 1.421724 0.022589 -0.020522 65068.100000 0 0 1
27.437086 -33.567277 7.255295 43.956741 -0.885550 1.404982 0.044221 -0.029067 467810.000000 0 0 1
26.448276 -33.703477 6.227195 43.292189 -0.905433 1.426455 0.033907 -0.027316 -435210.000000 0 0 1
25.283536 -33.055177 6.670395 42.147314 -0.917834 1.411864 0.021912 -0.028574 -207718.000000 0 0 1
24.090036 -33.186277 5.705595 41.403051 -0.942896 1.432550 0.021215 -0.017869 -25521.900000 0 0 1
24.368136 -32.548677 4.437095 40.901226 -0.928149 1.462099 0.006970 0.008705 28043.000000 0 0 1
23.290336 -32.697577 3.533295 40.299572 -0.951866 1.483008 0.010423 -0.000376 -75821.100000 0 0 1
23.622136 -32.037077 2.171895 39.863476 -0.935449 1.516286 0.011615 0.010714 -33544.000000 0 0 1
23.674536 -30.611977 2.188595 38.760376 -0.912502 1.514302 0.019634 0.020123 134039.000000 0 0 1
24.142336 -30.124677 0.927795 38.616180 -0.895194 1.546768 0.000244 0.022254 -215656.000000 0 0 1
24.540336 -28.655777 0.974895 37.740324 -0.862608 1.544962 0.018171 0.013614 -420768.000000 0 0 1
23.530936 -27.693077 1.042295 36.355163 -0.866474 1.542123 0.012728 0.015971 -450526.000000 0 0 1
23.003936 -27.232477 -0.156705 35.648470 -0.869373 1.575192 0.016845 0.008579 430042.000000 0 0 1
21.821136 -26.190077 -0.057305 34.089374 -0.876147 1.572477 -0.001914 0.015313 430656.000000 0 0 1
22.201136 -24.873077 0.272795 33.341188 -0.842098 1.562614 0.008240 0.003039 -158207.000000 0 0 1
22.332836 -24.544877 1.662895 33.226071 -0.832551 1.520728 0.002178 0.005306 1099450.000000 0 0 1
20.955136 -24.306177 2.420895 32.183361 -0.859301 1.495503 0.001570 0.004616 975198.000000 0 0 1
21.083136 -23.702777 3.705495 31.938237 -0.843824 1.454514 -0.004553 0.003678 -27829.200000 0 0 1
19.808236 -23.466377 4.298895 31.008347 -0.869731 1.431712 0.004625 -0.000378 322996.000000 0 0 1
19.880236 -22.775777 5.676395 30.760060 -0.853175 1.385195 -0.008134 -0.001179 -441472.000000 0 0 1
19.939436 -21.401077 5.782795 29.816572 -0.820740 1.375614 -0.007911 0.008138 -350556.000000 0 0 1
18.766836 -20.688577 5.484395 28.465592 -0.834066 1.376916 -0.010857 0.005136 -768837.000000 0 0 1
18.944236 -19.119977 5.518995 27.475751 -0.790015 1.368553 -0.008207 0.006265 77549.400000 0 0 1
18.968036 -18.436677 6.780795 27.307080 -0.771193 1.319855 0.002156 -0.000891 -174140.000000 0 0 1
17.710636 -18.209577 7.377595 26.451545 -0.799288 1.288138 0.008698 0.017778 63856.900000 0 0 1
18.215993 -26.786293 -12.067105 34.567946 -0.973586 1.927389 0.046923 -0.016886 -234403.000000 0 0 1
18.349293 -25.526013 -12.648805 33.886076 -0.947533 1.953332 0.051012 -0.018045 975275.000000 0 0 1
17.089793 -24.918613 -13.053905 32.915084 -0.969648 1.978599 0.033683 -0.012661 1017080.000000 0 0 1
17.446993 -23.500413 -13.574005 32.263301 -0.932169 2.005042 0.034796 -0.019200 210162.000000 0 0 1
17.659193 -22.491013 -12.616805 31.255024 -0.905166 1.986324 0.036960 -0.019058 244438.000000 0 0 1
18.959293 -22.362413 -12.034105 31.691513 -0.867569 1.960297 0.027925 -0.019823 -381484.000000 0 0 1
19.094893 -23.118613 -10.675805 31.828572 -0.880429 1.912843 0.028339 -0.020382 100394.000000 0 0 1
18.179293 -22.750413 -9.637205 30.674806 -0.896619 1.890382 0.017347 -0.016445 853691.000000 0 0 1
16.794293 -22.939813 -9.954605 30.122707 -0.938848 1.907596 0.026465 -0.017554 541130.000000 0 0 1
15.836693 -22.601113 -8.745305 28.949810 -0.959598 1.877675 0.012838 -0.011622 -723229.000000 0 0 1
15.840893 -21.223113 -8.461805 27.802096 -0.929604 1.880061 0.005259 -0.010207 -100076.000000 0 0 1
14.870693 -20.858713 -7.525405 26.699347 -0.951449 1.856526 -0.005367 0.000288 -744554.000000 0 0 1
13.447893 -20.689513 -8.051805 25.956374 -0.994431 1.886205 0.008248 0.000831 -837164.000000 0 0 1
12.966193 -21.927113 -8.588905 26.882889 -1.036775 1.895991 -0.004921 -0.005640 87059.400000 0 0 1
11.538193 -21.745313 -8.697105 26.108010 -1.082965 1.910407 -0.001899 0.002010 753378.000000 0 0 1
10.846993 -23.051513 -8.182505 26.757857 -1.130981 1.881573 0.003346 0.000312 -169525.000000 0 0 1
11.061393 -23.245113 -6.818405 26.630440 -1.126647 1.829718 0.009313 -0.001770 240994.000000 0 0 1
10.129693 -24.179813 -6.316605 26.966155 -1.174077 1.807235 0.007216 -0.006630 -159577.000000 0 0 1
10.531493 -24.715013 -4.957405 27.318859 -1.167980 1.753272 0.017903 -0.011172 -613521.000000 0 0 1
9.704593 -25.595053 -4.258105 27.702298 -1.208384 1.725118 0.034413 -0.015611 -430851.000000 0 0 1
10.409193 -26.087553 -3.157505 28.264493 -1.191144 1.682743 0.022520 -0.012695 -185109.000000 0 0 1
9.540793 -27.001423 -2.302405 28.729856 -1.231145 1.651022 0.039701 -0.015412 242270.000000 0 0 1
8.767593 -26.316713 -1.323705 27.770349 -1.249205 1.618481 0.028683 -0.005802 407599.000000 0 0 1
7.864993 -27.237203 -0.651705 28.357504 -1.289684 1.593780 0.032689 -0.009624 862332.000000 0 0 1
6.988893 -26.562293 0.442495 27.469908 -1.313514 1.554687 0.031890 -0.005579 633790.000000 0 0 1
5.770593 -25.932563 0.037595 26.566877 -1.351841 1.569381 0.040783 -0.012506 316717.000000 0 0 1
5.075793 -25.543993 1.217195 26.071839 -1.374643 1.524093 0.037136 -0.007308 -321485.000000 0 0 1
3.650493 -25.032443 1.052795 25.319117 -1.425987 1.529203 0.024979 -0.013981 -277968.000000 0 0 1
2.722693 -26.044523 0.767795 26.197705 -1.466635 1.541484 0.019015 -0.013022 -219498.000000 0 0 1
1.396493 -25.620393 0.995095 25.677713 -1.516343 1.532033 0.012524 -0.010101 7950.990000 0 0 1
0.278193 -26.493833 0.440995 26.498963 -1.560296 1.554154 0.018136 -0.008516 -222023.000000 0 0 1
-0.080807 -27.659683 1.196395 27.685663 1.567875 1.527569 0.021463 -0.008438 145470.000000 0 0 1
0.802593 -28.786163 1.084895 28.817778 -1.542922 1.533141 0.020409 -0.012307 -35272.700000 0 0 1
0.333893 -29.854773 2.072495 29.928485 -1.559613 1.501493 0.028600 -0.016606 243667.000000 0 0 1
0.735493 -29.610333 3.428595 29.817244 -1.545962 1.455554 0.019674 -0.016122 64587.900000 0 0 1
0.287493 -30.663473 4.296495 30.964352 -1.561421 1.431591 0.027727 -0.012074 -764.520000 0 0 1
0.607793 -30.554833 5.799295 31.106254 -1.550907 1.383264 0.017879 -0.020604 -648981.000000 0 0 1
1.976393 -30.682853 6.043495 31.334764 -1.506472 1.376711 0.007437 -0.004118 -716017.000000 0 0 1
2.215993 -30.698533 7.395395 31.654422 -1.498736 1.334988 0.014084 -0.001260 598980.000000 0 0 1
3.644593 -31.308103 7.554595 32.412224 -1.454907 1.335554 0.010571 -0.002625 377107.000000 0 0 1
3.726593 -32.672873 7.236395 33.671494 -1.457229 1.354195 0.018599 -0.003376 -1489740.000000 0 0 1
4.895493 -33.225493 7.633995 34.440922 -1.424507 1.347285 0.014519 -0.000269 -1261550.000000 0 0 1
4.845593 34.368253 7.279095 35.463246 1.430729 1.364070 -0.001991 0.000439 -72926.500000 0 0 1
5.058593 34.013308 5.922895 34.893770 1.423155 1.400230 -0.005479 0.002287 -20820.800000 0 0 1
4.865093 32.622471 5.754895 33.481541 1.422754 1.398056 -0.011581 0.000427 -346338.000000 0 0 1
5.085193 32.287771 4.217595 32.956751 1.414584 1.442471 0.001218 0.000864 -1255120.000000 0 0 1
6.377993 32.278601 3.809695 33.122510 1.375717 1.455523 -0.004060 0.003454 -1260310.000000 0 0 1
7.151893 31.105471 4.081495 32.176987 1.344800 1.443609 0.000610 -0.002137 783278.000000 0 0 1
8.608893 31.158111 3.508895 32.515431 1.301225 1.462671 -0.005481 -0.001864 1166350.000000 0 0 1
9.573493 31.890711 4.266295 33.568892 1.279159 1.443361 0.002123 -0.006432 -806841.000000 0 0 1
10.833393 31.902111 3.723695 33.896504 1.243432 1.460719 0.009074 -0.005821 -1050640.000000 0 0 1
11.967993 32.297301 4.668295 34.758330 1.215927 1.436082 0.022327 -0.015543 -354808.000000 0 0 1
12.191393 31.262191 5.569495 34.014319 1.198964 1.406316 0.018111 -0.009745 257752.000000 0 0 1
13.349493 31.654771 6.310695 34.929334 1.171706 1.389128 0.035529 -0.013428 251050.000000 0 0 1
14.089893 30.595341 7.088395 34.421582 1.139225 1.363384 0.029658 -0.011892 -498880.000000 0 0 1
13.579193 30.466591 8.452995 34.410184 1.151518 1.322602 0.015791 -0.002484 502530.000000 0 0 1
14.298593 29.460081 9.139795 33.998264 1.118933 1.298617 0.014029 -0.005539 145624.000000 0 0 1
13.907593 29.353811 10.611895 34.171328 1.128334 1.255025 0.004504 0.011160 -89094.600000 0 0 1
14.488193 30.418161 11.377595 35.561523 1.126287 1.245129 0.008510 0.003639 43622.900000 0 0 1
13.850693 30.831301 12.548295 36.053717 1.148574 1.215312 -0.001263 0.014004 -462687.000000 0 0 1
14.819093 31.677671 13.349695 37.433871 1.133232 1.206148 -0.005581 0.013782 228409.000000 0 0 1
16.028293 31.105511 13.812195 37.619619 1.094993 1.194849 -0.018086 0.016563 104485.000000 0 0 1
16.632393 32.046351 14.653295 38.965679 1.092056 1.185260 0.001344 0.007819 -299252.000000 0 0 1
17.759093 31.539461 15.555795 39.396773 1.057970 1.164892 0.009465 0.007946 -235722.000000 0 0 1
18.908993 31.077631 14.895895 39.309755 1.024191 1.182150 0.005200 0.002627 -246715.000000 0 0 1
19.079393 29.659491 15.021295 38.332075 0.999159 1.168130 0.003768 0.004559 -365805.000000 0 0 1
20.447293 29.337411 14.387995 38.545945 0.962107 1.188266 0.022559 0.004595 -282834.000000 0 0 1
21.494793 29.568801 15.271295 39.617579 0.942217 1.175082 0.036574 -0.001815 -410659.000000 0 0 1
22.753393 29.227051 14.727195 39.860101 0.909300 1.192355 0.047059 -0.005067 439379.000000 0 0 1
23.966993 29.300071 15.693895 40.978156 0.885185 1.177774 0.054288 -0.007573 144369.000000 0 0 1
24.142493 28.176161 16.570495 40.636650 0.862344 1.150783 0.050241 -0.004789 -584110.000000 0 0 1
25.027893 28.370321 17.590095 41.721481 0.847911 1.135579 0.047533 -0.005104 -826315.000000 0 0 1
25.827593 27.113341 18.082895 41.583517 0.809680 1.120917 0.015153 -0.005456 -117458.000000 0 0 1
25.118393 26.051481 18.649795 40.711524 0.803631 1.094944 0.016762 -0.004922 -236420.000000 0 0 1
24.921693 26.074241 20.075495 41.279321 0.807995 1.062908 0.036775 -0.005009 58951.200000 0 0 1
24.289493 24.708781 20.499495 40.258324 0.793955 1.036543 0.033196 -0.010480 -9697.960000 0 0 1
25.142693 23.620051 20.265495 40.009400 0.754183 1.039654 0.007458 -0.009236 44803.400000 0 0 1
24.506193 22.437851 20.704695 39.149649 0.741367 1.013539 0.017525 -0.010370 -281913.000000 0 0 1
25.398493 21.167451 20.575195 38.942048 0.694786 1.014135 -0.001610 -0.009649 -544864.000000 0 0 1
24.808393 19.906751 20.663695 37.930507 0.676215 0.994672 0.000875 -0.010612 -358706.000000 0 0 1
25.653793 18.761951 20.777695 37.971575 0.631459 0.991792 -0.000090 -0.010800 151658.000000 0 0 1
26.338493 18.477451 22.154295 39.063348 0.611757 0.967770 0.013991 -0.004498 301735.000000 0 0 1
25.432693 17.926751 23.106895 38.757178 0.613987 0.932041 0.006012 -0.001265 241664.000000 0 0 1
26.071693 17.773451 24.340095 39.850583 0.598348 0.913746 0.027186 0.001017 -76126.000000 0 0 1
25.212593 17.135951 25.463595 39.720402 0.596943 0.874903 0.011210 0.006614 -6882.780000 0 0 1
24.985293 15.745351 25.169795 38.803344 0.562319 0.864987 0.015068 0.002228 -72267.300000 0 0 1
23.791193 15.280451 25.745195 38.240399 0.570924 0.832206 0.014698 0.003290 -130162.000000 0 0 1
23.398193 13.886351 25.172295 37.066840 0.535611 0.824253 0.016159 0.003450 -536450.000000 0 0 1
22.117793 13.433951 25.488495 36.322599 0.545830 0.792980 0.005716 -0.000099 -268267.000000 0 0 1
21.547793 12.703351 24.460295 34.985547 0.532695 0.796582 0.012498 0.002282 32005.100000 0 0 1
20.220593 11.980851 24.802895 34.170115 0.534892 0.758505 0.012231 -0.002090 654139.000000 0 0 1
19.097193 12.856551 24.976295 33.967764 0.592524 0.744696 0.023963 -0.004470 174768.000000 0 0 1
17.913593 12.086051 25.008695 33.051539 0.593534 0.712611 0.030246 -0.004595 769836.000000 0 0 1
16.641193 12.990451 25.274095 32.931155 0.662812 0.695891 0.023896 -0.008062 567865.000000 0 0 1
16.579293 13.443051 26.636095 34.133124 0.681312 0.675556 0.027834 -0.005387 71859.200000 0 0 1
15.546393 14.353151 26.940295 34.256135 0.745511 0.665777 0.034239 -0.006396 -353964.000000 0 0 1
15.360193 14.592351 28.469195 35.487565 0.759769 0.639775 0.017375 -0.000661 -498659.000000 0 0 1
14.862893 13.527151 29.267695 35.503343 0.738383 0.601718 0.033302 0.004807 110452.000000 0 0 1
14.959193 13.724551 30.692195 36.798799 0.742381 0.584380 0.020488 0.011174 -47076.600000 0 0 1
16.413693 13.547551 31.219995 37.784038 0.690027 0.598335 0.010090 0.007673 -183951.000000 0 0 1
17.273993 14.541651 30.819795 38.206154 0.699728 0.632299 0.018773 0.000174 -314626.000000 0 0 1
18.438693 14.003551 30.206295 38.059231 0.649532 0.653986 0.010683 0.017521 -518457.000000 0 0 1
19.471493 15.096551 29.913995 38.754251 0.659507 0.688989 0.010139 0.011633 -553134.000000 0 0 1
19.134693 15.966151 28.830195 38.108196 0.695372 0.712798 0.023326 0.000930 321198.000000 0 0 1
19.210293 15.239951 27.590395 36.912347 0.670656 0.726570 0.028803 -0.004168 -522135.000000 0 0 1
19.066893 16.087751 26.319695 36.264149 0.700856 0.758633 0.025746 -0.008212 -260654.000000 0 0 1
20.151493 16.979051 26.169795 37.137973 0.700165 0.788847 0.019859 -0.006111 270183.000000 0 0 1
20.027793 17.597151 24.903995 36.482615 0.720886 0.819446 0.018909 -0.016317 -761475.000000 0 0 1
21.315993 18.251851 24.455395 37.223218 0.708112 0.853973 0.022794 -0.011821 -732395.000000 0 0 1
21.234593 18.840551 23.195995 36.659630 0.725730 0.885711 0.016560 -0.020529 822741.000000 0 0 1
22.461593 19.534751 22.870795 37.539352 0.715818 0.915684 0.015006 -0.014613 577955.000000 0 0 1
22.507193 21.010951 23.393595 38.669033 0.751030 0.921068 0.022834 -0.022117 -493651.000000 0 0 1
21.575193 21.842451 22.736395 38.203734 0.791554 0.933362 0.029583 -0.018118 288757.000000 0 0 1
21.532793 23.083851 23.408995 39.300209 0.820148 0.932727 0.039695 -0.016303 264135.000000 0 0 1
20.497893 24.068951 22.776695 38.964803 0.865355 0.946477 0.054541 -0.028966 395321.000000 0 0 1
21.068493 24.734101 21.643095 39.039476 0.865259 0.983166 0.062934 -0.026266 2338.280000 0 0 1
20.273193 25.798311 21.343595 39.142103 0.904753 0.994067 0.061817 -0.027534 -623025.000000 0 0 1
20.802393 26.659771 20.155595 39.366622 0.908189 1.033288 0.063000 -0.022091 -35259.900000 0 0 1
20.721893 25.973441 18.908895 38.230391 0.897392 1.053417 0.046386 -0.017987 111266.000000 0 0 1
21.198393 26.862311 17.904695 38.620380 0.902706 1.088734 0.046233 -0.023696 18134.100000 0 0 1
21.139193 26.253091 16.489095 37.523066 0.892888 1.115822 0.027521 -0.004437 523891.000000 0 0 1
19.824993 26.309901 15.894895 36.577164 0.925047 1.121249 0.022935 -0.006804 658641.000000 0 0 1
19.774693 25.744531 14.592295 35.591494 0.915804 1.148349 0.030245 0.006438 -847495.000000 0 0 1
18.353693 25.479181 14.115295 34.428016 0.946549 1.148348 0.027029 0.012262 -620396.000000 0 0 1
17.689493 26.732361 13.749795 34.879710 0.986222 1.165592 0.010587 0.019222 368133.000000 0 0 1
16.548493 26.969711 14.554495 34.828885 1.020440 1.139679 0.022520 0.021383 -429271.000000 0 0 1
15.217993 26.331651 14.166895 33.550619 1.046759 1.134866 0.010150 0.009715 -1118680.000000 0 0 1
15.015293 24.908141 14.371095 32.440760 1.028301 1.111860 0.006211 0.020377 -41833.200000 0 0 1
15.013293 24.433781 15.731095 32.708959 1.019821 1.069068 0.006744 0.021032 -755871.000000 0 0 1
13.880193 24.914021 16.604295 33.001073 1.062500 1.043563 0.027714 0.011034 -779439.000000 0 0 1
14.114193 26.168731 17.227695 34.362864 1.076164 1.045642 0.019161 0.006333 275857.000000 0 0 1
12.974693 26.618731 17.959095 34.632768 1.117257 1.025633 0.013209 0.000303 311291.000000 0 0 1
13.242793 27.913891 18.796395 36.164366 1.127825 1.024239 0.021724 -0.006154 -239095.000000 0 0 1
13.430593 29.093991 17.961295 36.734851 1.138315 1.059917 0.015557 0.000057 -43598.000000 0 0 1
13.814693 30.155711 18.729495 38.092081 1.141217 1.056767 0.022984 0.000223 -455669.000000 0 0 1
13.949193 31.458741 17.873295 38.777404 1.153434 1.091764 0.003313 -0.003032 -320190.000000 0 0 1
12.710793 32.078961 17.650295 38.757669 1.193540 1.097973 -0.004946 0.002936 -255014.000000 0 0 1
12.741993 33.157964 16.737395 39.267663 1.203913 1.130466 0.002381 0.000069 -483087.000000 0 0 1
11.387393 33.846453 16.660495 39.405928 1.246250 1.134273 0.002742 -0.002497 -686785.000000 0 0 1
11.443093 -33.988588 16.006295 39.273018 -1.246042 1.151011 0.008809 -0.011132 99122.300000 0 0 1
12.216893 -32.842663 16.469495 38.718694 -1.214674 1.131434 0.008661 -0.010960 -154945.000000 0 0 1
11.871493 -32.277213 17.880395 38.761570 -1.218355 1.091346 0.008457 -0.001002 -244899.000000 0 0 1
12.356293 -33.118373 18.911395 40.089219 -1.213697 1.079542 0.028168 -0.004041 152569.000000 0 0 1
12.041293 -32.712893 20.223995 40.300572 -1.218097 1.045084 0.019486 -0.006156 -458385.000000 0 0 1
12.854393 -33.441903 21.308795 41.685262 -1.203828 1.034236 0.052713 0.000957 -952140.000000 0 0 1
14.160893 -33.006963 21.234695 41.724127 -1.165519 1.036854 0.058247 0.002553 -1312480.000000 0 0 1
14.952593 -33.489483 22.257595 42.901352 -1.150868 1.025339 0.048500 0.002067 -56456.000000 0 0 1
16.399893 -32.950173 22.294295 43.031453 -1.108976 1.026176 0.070123 -0.001901 211518.000000 0 0 1
16.546793 -31.618483 22.678495 42.282845 -1.088662 1.004687 0.068498 0.002266 -682738.000000 0 0 1
17.781193 -31.107303 22.328695 42.218547 -1.051515 1.013512 0.055030 0.006463 -729810.000000 0 0 1
-4.337207 13.436087 17.932358 22.823437 -1.258553 0.666971 -0.008084 0.004789 -314685.000000 0 1 0
-4.128107 14.829687 17.996258 23.681769 -1.299302 0.707606 -0.014144 0.009667 -898120.000000 0 1 0
-5.187707 15.535987 17.501658 23.970549 -1.248522 0.752282 -0.012865 0.002265 -769989.000000 0 1 0
-4.949307 17.061487 17.541558 24.965901 -1.288459 0.791723 -0.007245 0.007241 -100670.000000 0 1 0
-4.672007 17.599287 18.822158 26.188474 -1.311315 0.768838 -0.020835 0.015836 216395.000000 0 0 1
-4.432707 19.003587 18.700958 27.027968 -1.341637 0.806663 -0.015956 0.008877 -68722.800000 0 0 1
-3.823507 19.574387 20.043158 28.275502 -1.377893 0.782926 -0.014993 0.009082 -87111.100000 0 0 1
-4.822107 19.658387 21.009258 29.173512 -1.330251 0.766780 -0.019847 0.013571 -371847.000000 0 0 1
-4.383807 20.411987 22.106058 30.406328 -1.359244 0.756822 -0.011299 0.019212 -679035.000000 0 0 1
-5.398807 20.502287 23.204358 31.431403 -1.313314 0.740318 -0.025949 0.016521 -519090.000000 0 0 1
-5.664407 19.281887 23.908758 31.233081 -1.285066 0.698987 -0.033662 0.016125 -238667.000000 0 0 1
-6.290907 19.360887 25.174598 32.375606 -1.256629 0.679990 -0.042214 0.010382 46245.900000 0 0 1
-5.505307 20.052187 26.320488 33.543504 -1.302849 0.668637 -0.042987 0.005504 -643659.000000 0 0 1
-5.270807 21.418687 26.173768 34.228755 -1.329506 0.700264 -0.034192 0.004561 -97317.200000 0 0 1
-4.182907 21.937187 26.906088 34.966762 -1.382381 0.692776 -0.017125 0.006365 978993.000000 0 0 1
-2.741807 21.534587 26.428968 34.201554 -1.444157 0.687647 -0.002413 0.013780 -30020.000000 0 0 1
-2.245307 20.336087 26.921708 33.813846 -1.460832 0.649851 0.004887 0.005681 -869205.000000 0 0 1
-0.991207 20.075387 26.404138 33.184065 -1.521462 0.650655 0.007323 0.011468 -295384.000000 0 0 1
-0.238007 18.803887 27.004478 32.907213 -1.558140 0.608293 0.009878 0.007235 138856.000000 0 0 1
-0.741307 17.597287 26.415398 31.748816 -1.528695 0.588072 0.007826 0.009118 166025.000000 0 0 1
-0.104307 16.374587 26.822888 31.426188 -1.564426 0.548092 0.010166 0.008401 1214010.000000 0 0 1
1.405093 16.108287 26.394878 30.953849 1.483789 0.549631 0.012015 0.010435 790847.000000 0 0 1
1.676293 15.742587 25.050698 29.634042 1.464715 0.563604 0.000346 0.020571 -230152.000000 0 0 1
1.058393 14.503287 24.746708 28.703050 1.497949 0.531273 0.011096 0.015029 -189658.000000 0 0 1
1.085193 14.262287 23.236058 27.285616 1.494854 0.551792 0.004438 0.013232 478279.000000 0 0 1
2.383793 14.262187 22.642158 26.865587 1.405186 0.568343 0.001704 0.008672 150514.000000 0 0 1
2.382493 13.888287 21.253758 25.500647 1.400903 0.585457 -0.002907 0.008335 -377164.000000 0 0 1
3.783993 14.008787 20.683058 25.265660 1.306977 0.611787 -0.014176 0.008378 -315027.000000 0 0 1
4.297093 15.096887 19.937558 25.374933 1.293495 0.666939 -0.004127 -0.007001 -107251.000000 0 0 1
5.708093 15.078887 19.950458 25.651041 1.208918 0.679696 0.005986 -0.004259 -85794.000000 0 0 1
6.285093 16.139587 18.998558 25.708634 1.199443 0.739219 0.017275 -0.008152 -249489.000000 0 0 1
6.188093 15.759387 17.620058 24.435982 1.196633 0.765451 0.021126 -0.013561 135926.000000 0 1 0
6.779993 16.718587 16.778258 24.637155 1.185526 0.821649 0.017847 -0.007710 -122425.000000 0 1 0
6.717593 16.220787 15.289158 23.280858 1.178164 0.854326 0.012511 -0.006432 85041.900000 0 1 0
7.755793 15.324487 14.847258 22.703156 1.102277 0.857972 0.008666 -0.006204 597026.000000 0 1 0
7.636293 14.001687 15.442558 22.199838 1.071504 0.801520 0.011262 -0.008612 -335689.000000 0 1 0
8.672593 13.039387 14.890558 21.609447 0.983874 0.810583 0.004566 -0.007879 -155706.000000 0 1 0
10.005793 13.437887 15.116958 22.565795 0.930763 0.836714 0.010636 -0.008906 81151.600000 0 1 0
10.928093 12.710687 14.303358 22.035672 0.860665 0.864395 0.008506 -0.004523 237052.000000 0 1 0
12.320293 13.349087 14.172258 23.039979 0.825455 0.908263 0.011241 -0.002914 -1036960.000000 0 1 0
12.932793 13.385087 15.428158 24.175313 0.802582 0.878667 0.009819 -0.002697 -116259.000000 0 1 0
14.204693 13.959887 15.605558 25.301881 0.776706 0.906158 0.017735 -0.002117 487685.000000 0 0 1
15.363793 13.353287 14.735758 25.129643 0.715501 0.944202 0.019628 -0.002594 -1051210.000000 0 0 1
16.609093 13.892187 15.082058 26.387938 0.696557 0.962401 0.020507 -0.009091 -622790.000000 0 0 1
17.522093 13.519387 14.085358 26.233468 0.657159 1.004011 0.018478 -0.000497 122280.000000 0 0 1
18.901993 14.224887 14.301658 27.643628 0.645138 1.027035 0.017742 -0.000112 676377.000000 0 0 1
19.608993 13.716287 15.444858 28.481446 0.610383 0.997650 0.005988 -0.006789 -339383.000000 0 0 1
20.899993 14.240287 15.552258 29.689530 0.598102 1.019456 -0.000886 -0.001943 -291027.000000 0 0 1
21.610393 13.652187 16.805358 30.591034 0.563433 0.989203 0.008752 -0.006715 -49137.100000 0 0 1
21.758293 12.245587 16.832858 30.111838 0.512618 0.977603 0.014569 -0.003409 721684.000000 0 0 1
22.655793 11.752687 17.858058 31.149973 0.478535 0.960277 0.009774 -0.012240 164052.000000 0 0 1
22.834293 10.201787 17.867558 30.736477 0.420169 0.950453 0.014625 -0.001795 -517464.000000 0 0 1
21.808093 9.429987 18.414558 30.060165 0.408128 0.911463 0.018053 -0.003143 -249637.000000 0 0 1
21.912893 8.051687 18.132658 29.560071 0.352127 0.910416 0.012798 0.012368 -197946.000000 0 0 1
20.651393 7.275587 18.524758 28.680670 0.338727 0.868599 0.028522 0.014277 -236762.000000 0 0 1
20.815493 5.932487 18.153158 28.249182 0.277642 0.872899 0.034638 0.000953 -22705.500000 0 0 1
19.839893 5.142287 18.763558 27.787327 0.253608 0.829485 0.026522 -0.004497 -362335.000000 0 0 1
19.641493 3.745587 18.107258 26.975738 0.188435 0.834913 0.048034 0.010118 -826116.000000 0 0 1
18.821593 3.850287 16.977058 25.637815 0.201784 0.847061 0.036902 -0.000358 60046.500000 0 0 1
18.662793 2.621887 16.331558 24.937801 0.139574 0.856757 0.036305 -0.005179 623613.000000 0 1 0
17.699993 1.515587 17.020858 24.602771 0.085418 0.806780 0.043059 -0.010255 647196.000000 0 1 0
18.296993 0.826387 18.086158 25.740473 0.045135 0.791702 0.044457 -0.014635 392895.000000 0 0 1
17.234593 0.132887 18.714358 25.441620 0.007710 0.744273 0.048164 -0.016243 364007.000000 0 0 1
17.723693 -0.495213 20.067058 26.778001 -0.027933 0.723662 0.046006 -0.009021 10526.100000 0 0 1
18.348293 -1.753613 19.926558 27.144110 -0.095284 0.746452 0.044338 0.001020 311178.000000 0 0 1
17.546493 -2.874913 20.392558 27.055516 -0.162402 0.717077 0.028265 0.000954 150247.000000 0 0 1
17.734093 -4.122113 19.565258 26.726189 -0.228385 0.749451 0.022475 0.003730 -195419.000000 0 0 1
17.158093 -3.934113 18.311458 25.400529 -0.225390 0.765684 0.015344 -0.001665 199961.000000 0 0 1
17.229093 -5.171013 17.583758 25.154911 -0.291578 0.796772 0.037251 -0.007075 -313098.000000 0 0 1
16.902993 -5.121913 16.087958 23.890742 -0.294223 0.832002 0.030581 -0.011047 254743.000000 0 1 0
15.546293 -4.742913 15.838858 22.694754 -0.296114 0.798324 0.020072 -0.010695 635465.000000 0 1 0
15.141993 -4.627213 14.506258 21.473764 -0.296576 0.829108 0.018691 -0.016623 4181.880000 0 1 0
15.725593 -3.447113 13.678758 21.125465 -0.215791 0.866496 0.025288 -0.012764 -454375.000000 0 1 0
15.021293 -2.260613 13.861858 20.564550 -0.149373 0.831097 0.023730 -0.006574 472916.000000 0 1 0
15.614793 -1.126713 13.172858 20.460093 -0.072032 0.871301 0.025902 -0.008908 166724.000000 0 1 0
14.581293 0.007487 13.146858 19.632983 0.000513 0.837084 0.025307 -0.005905 -421420.000000 0 1 0
15.042393 1.309287 12.840958 19.821151 0.086821 0.866049 0.029695 -0.001184 176931.000000 0 1 0
15.735693 1.918687 13.948258 21.115096 0.121333 0.849202 0.030427 -0.001586 62909.900000 0 1 0
16.209293 3.312787 13.503058 21.355287 0.201599 0.886271 0.035019 0.004420 -42218.900000 0 1 0
15.154593 4.218487 13.742258 20.887962 0.271491 0.852765 0.036517 0.005877 511135.000000 0 1 0
15.383093 5.401987 12.978258 20.838814 0.337711 0.898489 0.034740 0.005260 427669.000000 0 1 0
14.206693 6.435287 13.084958 20.358270 0.425326 0.872734 0.035030 0.000976 330825.000000 0 1 0
14.339293 7.572787 12.242658 20.318590 0.485885 0.924123 0.017740 -0.006966 156696.000000 0 1 0
13.317493 8.547687 12.340158 20.067338 0.570617 0.908490 0.007172 -0.004033 -247432.000000 0 1 0
13.489593 9.464087 13.581558 21.354081 0.611788 0.881471 0.019655 -0.008952 -176829.000000 0 1 0
13.175993 8.892187 14.792058 21.713654 0.593666 0.821351 0.030072 -0.007072 307997.000000 0 1 0
13.669993 9.680187 15.840558 23.054240 0.616164 0.813307 0.039599 -0.010637 -334198.000000 0 1 0
13.207893 9.246087 17.233858 23.599670 0.610755 0.752096 0.048394 -0.015419 567030.000000 0 1 0
11.893093 9.700887 17.598158 23.350546 0.684225 0.717197 0.026483 -0.012224 683116.000000 0 1 0
11.183793 8.919787 18.571658 23.442404 0.673254 0.656350 0.025676 -0.008759 10298.000000 0 1 0
11.540993 9.153087 20.053058 24.881693 0.670515 0.633541 0.037527 -0.009881 10835.500000 0 1 0
12.892593 8.745687 20.191658 25.503118 0.596047 0.657156 0.049105 -0.015361 65635.100000 0 0 1
13.430693 8.603387 21.497858 26.768632 0.569722 0.638318 0.048049 -0.013747 1219410.000000 0 0 1
14.959493 8.165287 21.395258 27.353526 0.499633 0.672646 0.048812 -0.013662 1361260.000000 0 0 1
15.694193 9.348687 21.050458 27.871624 0.537236 0.714738 0.049728 -0.009440 -35850.500000 0 0 1
16.677593 8.976187 20.093558 27.612771 0.493753 0.755847 0.041161 -0.006586 214401.000000 0 0 1
17.447393 10.163587 19.466358 28.047265 0.527473 0.803689 0.030784 -0.004508 19754.900000 0 0 1
18.195893 10.943487 20.352658 29.412261 0.541468 0.806570 0.025087 -0.003436 228976.000000 0 0 1
19.091893 11.770287 19.614458 29.795419 0.552469 0.852232 0.014162 -0.004718 451903.000000 0 0 1
20.022593 12.730187 20.430058 31.310528 0.566322 0.859920 0.012958 -0.007986 -179445.000000 0 0 1
19.337993 13.870287 20.922358 31.687346 0.622213 0.849612 0.014509 -0.003376 30218.300000 0 0 1
19.941293 14.651687 21.929958 33.064333 0.633664 0.845642 0.010070 -0.006825 -494070.000000 0 0 1
21.237393 15.413387 21.549658 33.955664 0.627810 0.883252 0.008202 -0.008874 -871469.000000 0 0 1
22.355993 14.628587 21.675058 34.403402 0.579425 0.889209 0.004137 -0.006269 -586454.000000 0 0 1
23.502093 15.460187 21.379358 35.333308 0.581854 0.920934 0.003277 -0.008552 953627.000000 0 0 1
24.810393 14.597587 21.296758 35.807779 0.531821 0.933839 -0.003951 -0.011226 314869.000000 0 0 1
24.992893 13.822087 20.142758 34.948898 0.505175 0.956543 -0.008564 -0.014036 775296.000000 0 0 1
26.102793 12.916387 20.374158 35.542864 0.459501 0.960357 0.002320 -0.017845 742009.000000 0 0 1
26.558693 11.975887 19.229258 34.907741 0.423620 0.987403 0.022765 -0.014332 182645.000000 0 0 1
27.430193 12.647187 18.296658 35.314792 0.432020 1.026166 0.024581 -0.014219 429345.000000 0 0 1
27.511693 11.886787 17.051758 34.481174 0.407838 1.053510 0.031513 -0.017508 -186607.000000 0 0 1
26.276793 11.656587 16.136258 32.965507 0.417525 1.059293 0.022972 -0.015715 16708.300000 0 0 1
25.946993 12.799987 15.410458 32.780609 0.458284 1.081382 0.026469 -0.004095 -52096.400000 0 0 1
24.875493 12.595087 14.508758 31.431360 0.468695 1.090997 0.017970 0.001201 240381.000000 0 0 1
24.441293 13.775787 13.530858 31.148567 0.513246 1.121427 0.005126 0.004234 127435.000000 0 0 1
23.795293 14.847987 14.213158 31.443481 0.557872 1.101765 -0.001815 -0.005281 160471.000000 0 0 1
23.641593 15.865387 13.262558 31.409089 0.591051 1.134868 -0.011378 0.000175 -80143.200000 0 0 1
22.712693 17.058287 13.612058 31.498249 0.644170 1.123918 -0.002984 -0.003104 -848597.000000 0 0 1
21.357893 16.721287 13.619658 30.352201 0.664232 1.105463 0.016259 -0.002904 -371187.000000 0 0 1
20.537893 17.866387 13.766958 30.504786 0.715947 1.102569 0.026628 -0.009094 -795475.000000 0 0 1
20.021093 18.440387 12.440558 29.927571 0.744323 1.142096 0.030692 0.000843 38124.800000 0 0 1
18.962193 17.739187 11.783358 28.514751 0.752087 1.144790 0.037970 0.002765 1670860.000000 0 0 1
17.682693 17.728587 12.489658 27.981636 0.786694 1.108112 0.023353 0.000570 986870.000000 0 0 1
16.512993 17.119887 11.658958 26.489635 0.803441 1.115050 0.032648 0.002049 54008.800000 0 0 1
16.450393 15.712287 11.652958 25.559398 0.762453 1.097394 0.028573 0.004236 360896.000000 0 0 1
15.335393 15.232887 10.910658 24.212756 0.782045 1.103341 0.027688 -0.003886 265403.000000 0 1 0
15.560493 13.900187 10.230658 23.238126 0.729101 1.114916 0.038157 -0.008573 -213248.000000 0 1 0
15.649593 12.765287 11.077758 23.034301 0.684238 1.069088 0.031297 -0.001259 321096.000000 0 1 0
16.370193 11.715387 10.497858 22.703271 0.621155 1.090103 0.047507 0.003932 -289784.000000 0 1 0
16.569393 10.476787 11.386858 22.670871 0.563830 1.044576 0.037857 0.000512 -1004390.000000 0 1 0
17.180593 9.393487 10.740558 22.333158 0.500344 1.069088 0.034522 0.004142 561980.000000 0 1 0
17.900093 8.449887 11.542458 22.913800 0.441045 1.042881 0.047227 0.011332 906091.000000 0 1 0
19.081993 8.976387 12.431358 24.479310 0.439698 1.038131 0.024157 0.005933 -322472.000000 0 1 0
18.656193 9.773987 13.507558 25.020761 0.482585 1.000533 0.014890 0.005369 350648.000000 0 0 1
19.748793 10.034687 14.384358 26.412488 0.470120 0.994879 0.022195 0.012746 -119184.000000 0 0 1
19.239693 10.238587 15.857658 26.952917 0.489043 0.941784 0.021448 0.005356 202112.000000 0 0 1
18.661093 9.081487 16.423758 26.466009 0.452914 0.901339 0.033365 0.003723 -562005.000000 0 0 1
17.391593 8.676687 16.065958 25.216411 0.462768 0.880036 0.034623 -0.005128 -1335010.000000 0 0 1
17.163493 7.237287 16.488458 24.876355 0.399045 0.846222 0.036319 0.003460 389747.000000 0 1 0
15.861993 7.141187 17.076258 24.376176 0.423026 0.794656 0.036769 -0.006058 407472.000000 0 1 0
15.504993 5.833287 17.145858 23.841403 0.359840 0.768199 0.049114 -0.000539 -176100.000000 0 1 0
14.153893 5.593487 17.875358 23.476546 0.376354 0.705306 0.041943 -0.006665 310008.000000 0 1 0
13.611693 4.288587 17.948358 22.930628 0.305221 0.671765 0.045334 -0.007231 115179.000000 0 1 0
13.227893 3.698687 16.722258 21.640040 0.272650 0.687640 0.043273 -0.007988 -455520.000000 0 1 0
12.880693 2.165487 16.812858 21.290227 0.166561 0.660479 0.027671 -0.009822 785108.000000 0 1 0
14.078393 1.356387 16.955458 22.080047 0.096049 0.695227 0.033383 -0.006923 1011120.000000 0 1 0
13.957393 -0.031113 16.684758 21.752952 -0.002229 0.696626 0.031993 -0.009631 -41877.400000 0 1 0
13.032293 -0.951313 17.616558 21.933736 -0.072867 0.638196 0.025265 -0.008143 352557.000000 0 1 0
11.685093 -0.614913 17.365558 20.939964 -0.052575 0.592939 0.023602 -0.012410 -564806.000000 0 1 0
10.909293 -1.402913 18.250458 21.308685 -0.127896 0.542385 0.024333 -0.010256 -29237.400000 0 1 0
-25.066087 14.325487 29.028698 40.941343 -0.519207 0.782673 0.040286 -0.001159 -246758.000000 0 0 1
-24.148607 14.416887 30.114998 41.205764 -0.538216 0.751238 0.035970 -0.006488 500089.000000 0 0 1
-23.470707 13.177487 30.210848 40.462521 -0.511587 0.727803 0.026954 0.000558 -24442.100000 0 0 1
-22.302707 13.221787 31.244258 40.600863 -0.535133 0.692665 0.034351 -0.013879 -82121.900000 0 0 1
-22.674407 13.378687 32.580318 41.887888 -0.533060 0.679642 0.031470 -0.014767 123534.000000 0 0 1
-21.511607 13.482287 33.371800 41.930876 -0.559853 0.650342 0.017598 -0.014535 -185038.000000 0 0 1
-21.878407 13.658287 -34.164190 42.806604 -0.558083 2.494941 0.012918 -0.008284 79351.800000 0 0 1
-22.424507 12.488787 -33.564825 42.254299 -0.508145 2.488738 0.011221 -0.007959 124526.000000 0 0 1
-22.835207 12.792087 -32.262965 41.544953 -0.510634 2.460015 -0.002440 -0.009569 -220178.000000 0 0 1
-23.797007 11.793087 -31.574585 41.259288 -0.460097 2.442260 -0.007533 -0.010757 -131962.000000 0 0 1
-23.267507 10.660687 -30.850645 40.084778 -0.429635 2.449065 -0.000041 -0.016834 163513.000000 0 0 1
-22.881107 9.593987 -31.699475 40.254768 -0.397031 2.477492 -0.000776 -0.010449 -191523.000000 0 0 1
-22.251507 8.437887 -30.903305 39.004381 -0.362452 2.485371 0.014204 -0.007936 -159805.000000 0 0 1
-23.095407 7.782187 -29.989725 38.643808 -0.325009 2.459183 0.014952 -0.009026 107651.000000 0 0 1
-22.339907 6.825087 -29.275055 37.452398 -0.296505 2.468120 0.010275 -0.002664 201534.000000 0 0 1
-23.089907 5.951687 -28.180135 36.914582 -0.252270 2.439338 0.011219 0.007624 72390.300000 0 0 1
-24.009907 4.969387 -28.582845 37.658325 -0.204091 2.432579 0.023755 0.003304 118971.000000 0 0 1
-24.214007 4.108987 -27.507295 36.876187 -0.168093 2.412736 0.029414 0.005485 -399138.000000 0 0 1
-24.921207 2.756887 -27.898585 37.509973 -0.110176 2.409481 0.029297 0.005720 2181020.000000 0 0 1
-26.334737 2.862487 -28.297815 38.761818 -0.108271 2.389182 0.006901 0.007612 2016940.000000 0 0 1
-26.578367 3.500287 -29.534215 39.886482 -0.130943 2.404546 0.001760 0.007398 204315.000000 0 0 1
-28.050577 3.294787 -30.077165 41.259258 -0.116923 2.387627 0.002497 0.005794 912566.000000 0 0 1
-29.023247 3.990987 -29.325755 41.452102 -0.136653 2.356696 0.007499 0.005685 -883607.000000 0 0 1
-30.269467 4.192787 -29.849995 42.718173 -0.137640 2.344467 0.004590 0.005348 -760681.000000 0 0 1
-30.332627 5.489387 -30.714745 43.515482 -0.179035 2.354397 0.010636 -0.009132 -210671.000000 0 0 1
-29.411567 5.490887 -31.830575 43.684959 -0.184567 2.387129 0.020271 -0.005000 587019.000000 0 0 1
-29.437107 6.669187 -32.580565 44.413000 -0.222796 2.394374 0.017643 -0.005287 -544712.000000 0 0 1
-29.031127 8.083087 -32.006485 43.960866 -0.271551 2.386295 0.017510 -0.005898 1606520.000000 0 0 1
-27.624777 8.271987 -31.608815 42.786344 -0.290944 2.402024 -0.007378 -0.010857 2029200.000000 0 0 1
-27.226957 7.677987 -30.357955 41.495351 -0.274862 2.391461 -0.018918 -0.008205 -484497.000000 0 0 1
-27.480927 8.577387 -29.118135 40.946779 -0.302540 2.361888 -0.028263 -0.007396 -796127.000000 0 0 1
-28.789277 8.839487 -28.747385 41.633774 -0.297904 2.332952 -0.014529 -0.010337 -485531.000000 0 0 1
-29.259017 7.886887 -27.810725 41.130639 -0.263296 2.313329 -0.007114 0.000410 12994.300000 0 0 1
-30.526897 8.175287 -26.964045 41.542587 -0.261666 2.277158 -0.017270 -0.002336 -32955.800000 0 0 1
-30.318737 9.082587 -25.851285 40.865733 -0.291062 2.255690 -0.036850 0.007693 -204687.000000 0 0 1
-29.804767 8.481187 -24.714305 39.636493 -0.277230 2.244039 -0.032124 0.014160 -209003.000000 0 0 1
-29.287627 9.506287 -23.665405 38.835370 -0.313855 2.226072 -0.039167 0.014397 236929.000000 0 0 1
-30.299727 10.415787 -23.199205 39.557113 -0.331104 2.197495 -0.032420 0.016012 1027650.000000 0 0 1
-29.576617 11.235187 -22.268805 38.689862 -0.363031 2.184100 -0.022368 0.006062 261152.000000 0 0 1
-30.456267 12.170587 -21.442605 39.185363 -0.380169 2.149823 -0.022088 0.007457 -34066.600000 0 0 1
-31.248367 11.571187 -20.414805 39.078345 -0.354641 2.120468 -0.032863 0.006390 631902.000000 0 0 1
-31.845487 12.446487 -19.462405 39.342538 -0.372585 2.088276 -0.039514 0.004562 266882.000000 0 0 1
-30.807187 13.007887 -18.445305 38.190538 -0.399527 2.074852 -0.030050 0.011627 135907.000000 0 0 1
-30.264707 12.086887 -17.459805 36.971477 -0.379965 2.062639 -0.015817 0.010028 321071.000000 0 0 1
-31.186327 11.706387 -16.444805 37.149133 -0.359094 2.029370 -0.014446 0.008246 -249181.000000 0 0 1
-31.418927 12.852587 -15.419405 37.283992 -0.388302 1.997164 -0.008416 0.007232 -327205.000000 0 0 1
-32.073197 13.907387 -16.053505 38.468434 -0.409144 2.001287 -0.011454 0.008953 3111.570000 0 0 1
-33.005917 14.515287 -15.187805 39.124846 -0.414321 1.969461 -0.013429 0.005961 -23248.100000 0 0 1
-33.613747 15.853687 -15.713405 40.350149 -0.440706 1.970805 -0.013097 0.008905 50631.500000 0 0 1
-34.567513 15.671787 -16.734605 41.479692 -0.425651 1.986071 -0.015497 0.001155 225583.000000 0 0 1
-34.960746 16.929187 -17.243805 42.499411 -0.450956 1.988587 -0.018374 -0.002468 -478329.000000 0 0 1
35.060333 16.813287 -18.741705 43.164396 0.447157 2.019939 -0.017040 -0.006075 -382186.000000 0 0 1
33.892006 16.086387 -18.842905 41.982080 0.443152 2.036254 0.020127 -0.016730 -529456.000000 0 0 1
32.688486 16.818987 -18.772805 41.277520 0.475199 2.042938 0.059956 -0.021034 -188865.000000 0 0 1
31.475016 15.868587 -19.022105 40.054078 0.466974 2.065659 0.066405 -0.031400 -20259.300000 0 0 1
31.441336 15.454487 -20.376905 40.529212 0.456852 2.097598 0.072232 -0.029911 9902.220000 0 0 1
30.433006 14.518387 -20.648105 39.538534 0.445128 2.120257 0.036342 -0.022834 -357508.000000 0 0 1
30.806886 12.995987 -20.600105 39.272436 0.399202 2.122975 0.036127 0.005041 -156478.000000 0 0 1
30.987246 12.579187 -19.257205 38.591260 0.385623 2.093246 0.049854 0.000101 43324.300000 0 0 1
31.448366 11.248287 -19.193605 38.521658 0.343496 2.092381 0.043243 0.003827 -441813.000000 0 0 1
31.631846 10.879787 -17.727805 37.857873 0.331275 2.058131 0.034992 0.001543 -498800.000000 0 0 1
30.531276 11.132687 -16.882205 36.621092 0.349650 2.049914 0.037436 0.001493 51479.400000 0 0 1
30.764086 10.542187 -15.644805 36.087763 0.330137 2.019193 0.002746 0.002317 33850.400000 0 0 1
30.098106 11.216587 -14.390605 35.196553 0.356724 1.992005 0.024312 0.001028 -362749.000000 0 0 1
28.712576 11.378887 -14.439405 34.093805 0.377315 2.008124 0.013702 0.007378 -231572.000000 0 0 1
28.313196 12.460087 -13.610005 33.795312 0.414574 1.985281 0.018435 0.004633 -731917.000000 0 0 1
26.852566 12.888787 -13.700605 32.785480 0.447507 2.001914 0.033271 0.004438 -348934.000000 0 0 1
26.017436 11.960287 -12.996505 31.446217 0.430893 1.996864 0.018329 0.013440 367204.000000 0 0 1
24.719036 11.742987 -13.527705 30.527484 0.443496 2.029886 0.013395 0.007686 -177050.000000 0 0 1
24.642636 10.774087 -14.688705 30.644714 0.412170 2.070679 0.002912 0.010458 -718636.000000 0 0 1
24.852236 9.443687 -14.411405 30.240791 0.363141 2.067528 -0.006061 0.014174 43825.900000 0 0 1
26.223546 9.172687 -14.512905 31.343851 0.336486 2.052198 0.003555 0.003549 -607206.000000 0 0 1
26.630526 7.866687 -13.760305 30.990574 0.287232 2.030872 -0.001246 0.011303 -223249.000000 0 0 1
25.972236 6.696487 -14.283505 30.387802 0.252337 2.060133 0.004430 0.011613 723742.000000 0 0 1
25.486806 5.956087 -13.159705 29.295564 0.229573 2.036671 -0.000818 0.009450 -173967.000000 0 0 1
24.865736 4.566787 -13.402805 28.614604 0.181634 2.058264 -0.007090 0.016406 -60103.000000 0 0 1
24.455636 3.994087 -12.183305 27.612747 0.161890 2.027754 -0.014351 0.013978 58958.700000 0 0 1
23.962136 2.693187 -12.302405 27.070028 0.111924 2.042569 -0.020965 0.010508 268572.000000 0 0 1
23.120936 2.235187 -11.019805 25.710112 0.096374 2.013758 -0.031167 0.016151 21072.400000 0 0 1
23.894336 1.763087 -9.950205 25.943291 0.073653 1.964419 -0.030054 0.023977 274314.000000 0 0 1
23.189936 1.729887 -8.725305 24.837403 0.074459 1.929752 -0.033833 0.030449 -643550.000000 0 1 0
23.975236 1.098287 -7.523205 25.151875 0.045777 1.874557 -0.027790 0.030126 -168733.000000 0 0 1
23.898936 -0.295013 -7.177905 24.955330 -0.012344 1.862548 -0.038228 0.026368 709327.000000 0 1 0
24.596036 -1.158413 -8.109105 25.924207 -0.047063 1.888936 -0.025785 0.024640 -175823.000000 0 0 1
24.734936 -2.616013 -7.612205 26.011656 -0.105370 1.867789 -0.004323 0.020884 -852410.000000 0 0 1
25.773556 -2.774613 -6.694105 26.772854 -0.107240 1.823511 0.005987 0.011563 294244.000000 0 0 1
25.720386 -4.084313 -6.242305 26.780333 -0.157482 1.806053 0.004259 0.002949 -894255.000000 0 0 1
27.031156 -4.397013 -5.556405 27.944423 -0.161252 1.770968 0.029815 -0.004686 -683659.000000 0 0 1
28.100846 -4.576913 -6.467505 29.196478 -0.161457 1.794166 0.034090 -0.003023 866518.000000 0 0 1
29.298416 -4.935613 -5.764005 30.265182 -0.166893 1.762417 0.045912 -0.001419 1325650.000000 0 0 1
30.607306 -5.028113 -6.665805 31.725732 -0.162824 1.782481 0.051290 -0.011545 731410.000000 0 0 1
30.755856 -6.278413 -7.268705 32.220727 -0.201370 1.798346 0.042570 -0.016754 96709.500000 0 0 1
31.500376 -6.195113 -8.442205 33.195240 -0.194190 1.827941 0.040773 -0.013920 -639242.000000 0 0 1
30.925466 -7.178013 -9.546705 33.151891 -0.228068 1.862901 0.033136 -0.010051 989059.000000 0 0 1
29.614836 -6.915213 -10.098805 32.044415 -0.229395 1.891411 0.039760 -0.009016 1388570.000000 0 0 1
28.574366 -7.410013 -9.231605 30.929359 -0.253735 1.873890 0.041642 -0.009246 -130242.000000 0 0 1
27.398266 -6.399613 -9.264405 29.621770 -0.229463 1.888890 0.025829 -0.007768 -680256.000000 0 0 1
26.578456 -6.500013 -10.417505 29.277789 -0.239852 1.934583 -0.000286 -0.000463 1476590.000000 0 0 1
25.394236 -5.655013 -10.213105 27.949131 -0.219114 1.944878 -0.002882 0.011302 1289560.000000 0 0 1
24.128336 -6.392313 -9.719405 26.786286 -0.258980 1.942121 0.009523 0.012060 -1038420.000000 0 0 1
24.182236 -6.990913 -8.429605 26.546406 -0.281420 1.893933 0.012779 0.005175 819276.000000 0 0 1
22.897036 -7.303813 -7.878505 25.292109 -0.308782 1.887568 -0.000636 -0.006998 -10116.700000 0 0 1
22.106336 -6.121913 -7.256305 24.058717 -0.270160 1.877175 -0.005253 0.005063 -409096.000000 0 1 0
21.483236 -5.378613 -8.259305 23.636308 -0.245321 1.927762 -0.016197 0.010698 268839.000000 0 1 0
21.387036 -4.026813 -7.846305 23.134067 -0.186104 1.916827 -0.017397 0.012540 -377566.000000 0 1 0
21.034436 -3.064213 -8.961705 23.068356 -0.144658 1.969783 -0.031281 0.019282 889884.000000 0 1 0
22.181536 -2.895413 -9.865105 24.448400 -0.129799 1.986143 -0.031696 0.022828 1882350.000000 0 1 0
21.873136 -2.049213 -10.957105 24.549776 -0.093414 2.033447 -0.036931 0.026541 384623.000000 0 1 0
23.126836 -1.919013 -11.911705 26.084898 -0.082788 2.045024 -0.020400 0.022108 592185.000000 0 0 1
24.139036 -1.098413 -11.377605 26.708603 -0.045472 2.010852 -0.030458 0.022425 874069.000000 0 0 1
25.340536 -1.192913 -12.150205 28.128158 -0.047041 2.017460 -0.020813 0.021176 1081460.000000 0 0 1
26.503096 -0.231313 -11.690205 28.967715 -0.008728 1.986201 -0.010426 0.025482 415003.000000 0 0 1
27.804856 -0.501313 -12.175305 30.357856 -0.018028 1.983469 -0.001090 0.016324 520486.000000 0 0 1
28.720716 0.561987 -11.963005 31.117662 0.019565 1.965402 0.015756 0.013659 -8360.210000 0 0 1
28.595796 1.772187 -12.960305 31.445663 0.061895 1.995608 0.015204 0.008849 -507851.000000 0 0 1
28.926146 1.516487 -14.330505 32.316947 0.052378 2.030225 0.002521 0.008380 272680.000000 0 0 1
28.998306 2.741887 -15.132305 32.823869 0.094273 2.049935 0.003753 0.010531 -345894.000000 0 0 1
29.408096 2.446487 -16.583205 33.850024 0.083000 2.082774 0.002707 0.005089 -150699.000000 0 0 1
28.357676 1.849587 -17.337805 33.289311 0.065131 2.118610 0.001186 0.007470 280847.000000 0 0 1
28.672256 1.788187 -18.723405 34.290841 0.062286 2.148400 -0.009154 0.009846 -399094.000000 0 0 1
27.647516 1.000287 -19.563905 33.884098 0.036164 2.186309 -0.011239 0.010991 -217474.000000 0 0 1
27.770056 -0.386913 -19.398905 33.876884 -0.013932 2.180506 -0.002832 0.010098 173004.000000 0 0 1
27.182266 -1.025413 -20.518205 34.072332 -0.037706 2.217045 -0.003976 0.001803 -138826.000000 0 0 1
27.016086 -2.563513 -20.426305 33.965783 -0.094605 2.216022 -0.002699 0.004779 -52668.000000 0 0 1
25.860926 -2.868613 -19.671905 32.619017 -0.110473 2.218154 -0.002399 0.001257 131845.000000 0 0 1
25.618466 -4.295713 -19.657505 32.575704 -0.166135 2.218605 0.003783 -0.004847 -16701.200000 0 0 1
26.361726 -5.106913 -18.556405 32.639873 -0.191354 2.175501 -0.002692 -0.000168 -471166.000000 0 0 1
27.742726 -5.202513 -18.741405 33.881636 -0.185374 2.156929 -0.017725 -0.003364 -572334.000000 0 0 1
28.322796 -5.592113 -17.512805 33.766120 -0.194935 2.116068 -0.018631 0.008367 497912.000000 0 0 1
29.879746 -5.460113 -17.484705 35.047496 -0.180742 2.093109 -0.014520 0.009788 587122.000000 0 0 1
30.509836 -6.239913 -18.499405 36.221742 -0.201739 2.106826 -0.012049 0.002127 248570.000000 0 0 1
31.863076 -5.869113 -18.713405 37.415153 -0.182156 2.094575 -0.012195 0.006070 464572.000000 0 0 1
32.689256 -6.995213 -19.446205 38.673962 -0.210812 2.097659 -0.010049 0.009584 -92410.200000 0 0 1
33.027806 -8.020513 -18.582505 38.735954 -0.238230 2.071135 -0.004875 0.003215 108987.000000 0 0 1
33.447886 -9.207613 -19.312305 39.705243 -0.268629 2.078752 -0.005413 0.009538 -141782.000000 0 0 1
34.174956 -10.235113 -18.404605 40.142430 -0.290990 2.047083 0.000134 0.004936 -429743.000000 0 0 1
33.331326 -10.755413 -17.388405 39.102594 -0.312134 2.031621 -0.000339 0.002253 552686.000000 0 0 1
34.002816 -11.515213 -16.366205 39.454332 -0.326532 1.998535 0.021396 -0.009088 -258178.000000 0 0 1
35.060246 -10.928613 -15.399005 39.821914 -0.302165 1.967843 0.021744 -0.008731 -434007.000000 0 0 1
-35.050990 -11.679313 -14.244505 39.596517 0.321639 1.938787 0.018742 -0.011060 446444.000000 0 0 1
-34.398730 -12.940713 -14.567005 39.533939 0.359820 1.948157 0.019469 -0.015123 478140.000000 0 0 1
-32.960947 -12.895713 -15.211105 38.524034 0.372934 1.976698 0.012540 -0.015579 107846.000000 0 0 1
-32.863177 -12.342013 -16.527705 38.800499 0.359259 2.010826 0.006788 -0.002922 14325.600000 0 0 1
-31.547907 -12.575613 -16.995505 37.977147 0.379316 2.034786 0.014905 -0.003685 75874.500000 0 0 1
-31.143717 -11.589313 -18.080805 37.830660 0.356247 2.069105 0.012096 0.004378 31822.500000 0 0 1
-31.401297 -10.258213 -17.697505 37.476314 0.315752 2.062617 0.021885 -0.003372 674319.000000 0 0 1
-32.479047 -9.684413 -18.460605 38.593656 0.289781 2.069551 0.012520 0.002493 283477.000000 0 0 1
-33.005347 -8.451913 -17.675605 38.382480 0.250690 2.049369 0.014801 0.002724 -1713410.000000 0 0 1
-34.060857 -7.859713 -18.220905 39.419773 0.226785 2.051302 0.008516 -0.001004 -1627680.000000 0 0 1
-34.525538 -6.708113 -17.560305 39.311269 0.191903 2.033869 0.012650 -0.001097 -144229.000000 0 0 1
23.479393 27.722487 -27.737315 45.707514 0.868079 2.222880 -0.005391 0.017347 -88286.800000 0 0 1
23.922593 26.763587 -26.776505 44.783493 0.841390 2.211688 0.005134 0.009665 1003960.000000 0 0 1
25.268593 26.402887 -27.175995 45.542825 0.807347 2.210195 0.017267 0.000722 688252.000000 0 0 1
25.974893 25.513287 -26.143325 44.822944 0.776433 2.193530 0.008885 -0.005621 -584144.000000 0 0 1
26.225093 26.182587 -24.947205 44.672658 0.784587 2.163306 0.015379 0.000262 122280.000000 0 0 1
26.723593 25.266887 -24.002805 43.916974 0.757387 2.149035 0.011063 -0.003652 -138967.000000 0 0 1
27.634393 25.875487 -22.933405 44.262191 0.752539 2.115455 -0.004611 0.005244 12164.500000 0 0 1
26.900893 26.742287 -22.071505 43.885752 0.782441 2.097783 -0.002766 0.010135 394817.000000 0 0 1
27.762193 27.535287 -21.290905 44.522287 0.781295 2.069409 -0.009027 0.011598 307828.000000 0 0 1
26.878293 28.575887 -20.520405 44.273140 0.816001 2.052732 -0.003477 0.012283 42022.000000 0 0 1
26.061293 27.939087 -19.581105 42.932543 0.820158 2.044393 -0.003734 0.007387 -145655.000000 0 0 1
25.126593 28.870787 -19.098605 42.774113 0.854628 2.033645 0.006918 0.004890 -32980.300000 0 0 1
24.312393 28.607987 -17.809705 41.553519 0.866391 2.013735 0.022441 -0.000426 -25618.600000 0 0 1
23.318493 27.634987 -18.004905 40.393331 0.869911 2.032797 0.021344 -0.005665 -338817.000000 0 0 1
22.223893 27.814187 -17.149505 39.517539 0.896658 2.019693 0.029311 -0.003748 -424129.000000 0 0 1
21.114793 26.835587 -17.492205 38.366137 0.904143 2.044211 0.032635 0.002233 -309040.000000 0 0 1
20.417593 26.981987 -18.723205 38.671231 0.923013 2.076203 0.021899 -0.001235 159346.000000 0 0 1
19.411693 25.987987 -18.886905 37.535376 0.929251 2.098066 0.015048 0.002482 497044.000000 0 0 1
18.734793 26.060987 -20.315305 37.985249 0.947510 2.135092 0.007759 0.008819 190625.000000 0 0 1
17.950793 27.200387 -20.484805 38.493106 0.987461 2.131956 -0.002454 0.008005 -472513.000000 0 0 1
17.012493 27.102787 -21.539205 38.573609 1.010256 2.163243 -0.001602 0.017794 -639022.000000 0 0 1
15.896993 28.103887 -21.412405 38.743179 1.056016 2.156367 -0.013111 0.015373 -915156.000000 0 0 1
15.141493 27.796587 -20.262605 37.583084 1.072012 2.140214 -0.011131 0.013584 -298378.000000 0 0 1
14.018993 28.658187 -20.202005 37.761685 1.115843 2.135289 -0.013213 0.006503 185264.000000 0 0 1
13.457193 28.721987 -18.758105 36.849899 1.132638 2.104866 -0.014011 0.003452 100508.000000 0 0 1
12.713693 27.548987 -18.382105 35.475153 1.138425 2.115504 -0.014262 0.004474 315962.000000 0 0 1
11.981493 27.697487 -17.136305 34.703889 1.162519 2.087235 -0.015064 0.005688 407922.000000 0 0 1
11.100493 26.492587 -16.782605 33.267611 1.174016 2.099568 0.000652 0.006799 -209765.000000 0 0 1
11.942093 25.387887 -16.518505 32.557939 1.131120 2.102912 -0.010218 0.008285 -274894.000000 0 0 1
11.172793 24.226687 -16.380805 31.306460 1.138687 2.121445 0.002996 0.001641 -23378.200000 0 0 1
12.011793 22.943887 -16.579605 30.750421 1.088503 2.140244 -0.006000 0.003565 -423744.000000 0 0 1
12.577293 22.930287 -17.851605 31.664904 1.069104 2.169735 0.000400 0.005394 -201885.000000 0 0 1
13.444193 21.801387 -18.129905 31.380571 1.018212 2.186757 0.003956 0.006499 -126465.000000 0 0 1
12.875793 20.411887 -18.405705 30.351296 1.008038 2.222350 0.010812 0.007198 -322489.000000 0 0 1
12.287693 19.865887 -17.250205 29.038086 1.016861 2.206886 0.016586 0.007391 -39509.700000 0 0 1
11.688293 18.594887 -17.407105 28.024869 1.009630 2.240981 0.015446 0.004482 -488186.000000 0 0 1
12.665393 17.444687 -17.481605 27.754924 0.942812 2.252164 0.004595 0.004931 -288412.000000 0 0 1
13.222093 17.166987 -16.207205 27.059244 0.914489 2.212989 -0.005724 0.006123 -76386.400000 0 0 1
14.305693 16.283487 -16.289205 27.113520 0.849965 2.215270 0.006123 0.007185 -516155.000000 0 0 1
14.821093 15.645287 -14.956005 26.232077 0.812444 2.177475 0.023683 0.015612 -562340.000000 0 0 1
15.510693 16.441287 -13.965405 26.569344 0.814515 2.124241 0.009462 0.013957 1718850.000000 0 0 1
16.852393 16.899487 -14.282105 27.813204 0.786793 2.110056 -0.003729 0.013269 1025680.000000 0 0 1
17.907293 15.780487 -14.634505 27.997565 0.722349 2.120819 -0.001799 0.005994 -765061.000000 0 0 1
18.220993 14.869087 -13.596605 27.165456 0.684446 2.094985 0.009346 0.003735 366101.000000 0 0 1
18.739493 15.431187 -12.415405 27.265957 0.688882 2.043556 -0.001104 0.007572 -599068.000000 0 0 1
19.500693 14.386787 -11.544205 26.842603 0.635620 2.015367 0.009165 0.006302 -72190.400000 0 0 1
18.661493 13.453887 -10.851705 25.436546 0.624644 2.011547 0.020919 0.005053 359124.000000 0 0 1
19.359993 12.430387 -10.197105 25.165548 0.570777 1.987995 0.032382 0.002021 -306692.000000 0 0 1
19.757993 11.249987 -11.054205 25.281138 0.517607 2.023336 0.027028 0.003155 -526348.000000 0 0 1
20.803493 11.485387 -12.006005 26.624116 0.504446 2.038620 0.020881 0.009067 733703.000000 0 0 1
21.205293 10.406987 -12.815105 26.873718 0.456239 2.067880 0.008382 0.014763 107608.000000 0 0 1
21.874193 9.202487 -11.959605 26.574390 0.398223 2.037609 0.003620 0.016248 -531788.000000 0 0 1
20.948693 8.447187 -11.206705 25.214935 0.383290 2.031353 0.002428 0.010207 385820.000000 0 0 1
21.503493 7.468687 -10.349205 25.005750 0.334289 1.997501 -0.008779 0.017924 -926844.000000 0 0 1
22.082993 6.166487 -10.979505 25.421126 0.272305 2.017400 -0.005231 0.012891 -158836.000000 0 0 1
21.207993 5.175487 -11.545005 24.695177 0.239356 2.057257 0.011355 0.007462 249802.000000 0 1 0
20.562193 5.636687 -12.698005 24.815627 0.267556 2.107952 -0.004919 0.000285 -684214.000000 0 1 0
19.430093 4.731787 -13.116605 23.915761 0.238879 2.151306 -0.005601 -0.009553 -699965.000000 0 1 0
19.919093 3.685587 -13.860305 24.545098 0.182959 2.170851 -0.016903 0.000078 193338.000000 0 1 0
19.033893 2.593187 -13.931505 23.729739 0.135407 2.198256 -0.003658 0.003088 -586240.000000 0 1 0
19.603693 1.449687 -14.816105 24.615510 0.073815 2.216676 0.001336 0.008391 -519310.000000 0 1 0
20.650893 0.942287 -14.035605 24.986906 0.045598 2.167258 0.000216 0.012838 153066.000000 0 1 0
21.803193 0.588187 -14.800905 26.358907 0.026971 2.167011 -0.012165 0.010626 128503.000000 0 0 1
21.796993 -0.894813 -15.358005 26.679166 -0.041029 2.184202 -0.002025 0.012682 -19121.000000 0 0 1
20.806793 -1.196013 -16.364805 26.498300 -0.057419 2.236458 -0.006538 0.011990 555745.000000 0 0 1
21.277493 -2.287313 -17.175405 27.440081 -0.107088 2.247112 0.008656 0.006968 183769.000000 0 0 1
20.165293 -2.860813 -18.122605 27.262650 -0.140928 2.297944 0.003790 -0.000961 152037.000000 0 0 1
19.564493 -3.940813 -17.426705 26.495083 -0.198767 2.288602 0.014319 0.002646 21494.000000 0 0 1
18.750493 -4.784813 -18.183505 26.554007 -0.249851 2.325090 0.017460 -0.003422 41224.500000 0 0 1
17.937793 -5.883313 -17.416805 25.685071 -0.316929 2.315958 0.026636 -0.008142 -190103.000000 0 0 1
18.806393 -6.798813 -16.789005 26.110821 -0.346897 2.269193 0.022360 -0.006061 152389.000000 0 0 1
18.201993 -7.906013 -16.181005 25.605517 -0.409762 2.254843 0.026073 -0.001350 -364267.000000 0 0 1
19.182693 -8.967013 -15.583205 26.291050 -0.437273 2.205227 0.031106 0.000972 171668.000000 0 0 1
19.861793 -9.654613 -16.652305 27.658663 -0.452458 2.216881 0.036758 -0.007681 542127.000000 0 0 1
20.604293 -10.726713 -16.091405 28.258318 -0.479996 2.176620 0.023119 -0.010882 -246759.000000 0 0 1
21.342393 -11.581013 -17.135905 29.719637 -0.497167 2.185339 0.020296 -0.007360 244490.000000 0 0 1
22.391793 -10.935813 -17.860405 30.659068 -0.454312 2.192657 0.018543 -0.004419 306962.000000 0 0 1
22.725893 -11.488113 -19.096405 31.829477 -0.468044 2.214247 0.024351 -0.008081 -1286530.000000 0 0 1
21.774893 -11.242913 -20.284405 31.812044 -0.476622 2.262218 0.036728 -0.007454 -98538.600000 0 0 1
20.510293 -11.856313 -20.180105 31.120426 -0.524136 2.276346 0.036131 -0.022523 126129.000000 0 0 1
20.577493 -13.226013 -20.469005 31.895780 -0.571256 2.267570 0.030630 -0.015259 275549.000000 0 0 1
19.176493 -13.909513 -20.198505 31.131849 -0.627532 2.276810 0.026037 -0.004244 1192330.000000 0 0 1
18.210893 -13.415313 -21.111605 30.940380 -0.634911 2.321744 0.028572 0.000996 -705751.000000 0 0 1
16.881193 -13.650713 -20.787205 30.057021 -0.679984 2.334488 0.033599 0.008885 268695.000000 0 0 1
15.866493 -13.112813 -21.886105 30.044851 -0.690660 2.386850 0.033993 0.002580 246209.000000 0 0 1
16.068993 -13.757713 -23.176605 31.379009 -0.708062 2.401791 0.018833 0.010275 337838.000000 0 0 1
15.635293 -13.094013 -24.396005 31.797494 -0.697172 2.445308 0.029092 -0.000522 -181260.000000 0 0 1
15.730093 -13.826413 -25.704375 33.156001 -0.721079 2.457916 0.018113 0.004276 42917.100000 0 0 1
14.769893 -14.904313 -25.851005 33.295086 -0.789928 2.459763 0.024418 0.002763 616732.000000 0 0 1
14.803293 -15.473513 -27.173145 34.596920 -0.807531 2.474172 0.020872 0.004746 -119458.000000 0 0 1
15.733793 -16.731813 -27.392795 35.747322 -0.816129 2.443842 0.019474 0.000203 -400375.000000 0 0 1
17.079593 -16.405513 -27.303465 36.143223 -0.765270 2.427098 0.020179 0.002295 -712828.000000 0 0 1
17.858593 -17.602613 -27.420925 37.157616 -0.778180 2.400842 0.017803 0.001925 903082.000000 0 0 1
19.401193 -17.344713 -27.455765 37.829412 -0.729492 2.382961 0.006522 0.007152 718855.000000 0 0 1
19.923093 -17.020713 -26.168225 37.032557 -0.706997 2.355517 0.012866 0.004239 -71320.200000 0 0 1
21.290193 -16.670513 -26.167255 37.628494 -0.664297 2.339788 0.014764 0.010187 -148938.000000 0 0 1
21.747393 -16.117213 -24.807505 36.716835 -0.637787 2.312634 0.011402 0.012568 -134311.000000 0 0 1
21.418093 -14.777613 -24.422205 35.686925 -0.603955 2.324503 0.027866 0.004308 911003.000000 0 0 1
20.021793 -14.410813 -24.545605 34.799863 -0.623863 2.353694 0.035784 0.003709 947146.000000 0 0 1
19.694393 -13.044613 -23.924505 33.621615 -0.585009 2.362542 0.040296 0.002003 138788.000000 0 0 1
20.366893 -11.987713 -24.582505 34.100075 -0.531986 2.375886 0.038038 -0.013455 181738.000000 0 0 1
19.832293 -10.852413 -24.043005 33.002436 -0.500698 2.386958 0.047362 -0.018001 30587.400000 0 0 1
20.061193 -9.598813 -24.957405 33.428442 -0.446281 2.413721 0.057608 -0.025866 -136458.000000 0 0 1
19.585093 -8.427413 -24.294305 32.323527 -0.406349 2.421278 0.063029 -0.025573 168991.000000 0 0 1
19.291593 -7.306013 -25.120915 32.505442 -0.362024 2.454072 0.048267 -0.023539 -362296.000000 0 0 1
18.688693 -6.144313 -24.398205 31.341541 -0.317639 2.463008 0.049948 -0.027484 392857.000000 0 0 1
17.404093 -6.412513 -23.813005 30.184134 -0.353015 2.479853 0.050798 -0.025766 361462.000000 0 0 1
17.033993 -5.477713 -22.836005 29.011125 -0.311131 2.476965 0.032004 -0.022940 -44671.700000 0 0 1
17.872893 -5.544313 -21.525205 28.522169 -0.300795 2.425968 0.037821 -0.024304 -145554.000000 0 0 1
17.703893 -6.721913 -20.719305 28.069584 -0.362872 2.401107 0.046703 -0.031729 127482.000000 0 0 1
18.285093 -7.928413 -21.146005 29.057837 -0.409132 2.385790 0.055193 -0.030350 -468664.000000 0 0 1
17.995893 -9.052513 -20.134105 28.481263 -0.466070 2.355937 0.058992 -0.030454 430626.000000 0 0 1
16.579793 -9.146813 -20.010305 27.549338 -0.504135 2.383785 0.059717 -0.023942 220489.000000 0 0 1
16.267693 -10.217613 -19.111405 27.097661 -0.560820 2.353613 0.050649 -0.014689 439203.000000 0 0 1
14.736593 -10.436213 -18.841105 26.097298 -0.616197 2.377422 0.044185 -0.008627 498326.000000 0 0 1
14.111593 -9.665513 -17.828805 24.706790 -0.600543 2.376929 0.053292 -0.011105 155965.000000 0 1 0
14.035293 -8.291013 -18.127205 24.378800 -0.533573 2.409181 0.061636 -0.025966 -1022480.000000 0 1 0
12.804393 -7.661113 -17.492905 22.992321 -0.539183 2.435364 0.051314 -0.007711 -252101.000000 0 1 0
11.599293 -7.775613 -18.235705 22.968341 -0.590550 2.488074 0.038131 -0.014485 236701.000000 0 1 0
10.649193 -6.894013 -17.653505 21.738881 -0.574527 2.518488 0.024868 -0.014722 98436.400000 0 1 0
9.181393 -7.077013 -18.086505 21.482638 -0.656680 2.571614 0.017114 -0.011057 15244.000000 0 1 0
8.910593 -6.450413 -19.344405 22.253370 -0.626589 2.624540 0.013271 -0.018323 -34206.600000 0 1 0
7.514393 -6.243913 -19.439905 21.756894 -0.693317 2.675888 0.008991 -0.023702 40886.200000 0 1 0
6.954893 -5.868613 -20.821005 22.722795 -0.700890 2.729550 0.004385 -0.028109 -117147.000000 0 1 0
7.002693 -6.883113 -21.694505 23.813158 -0.776787 2.716572 0.007682 -0.022939 100924.000000 0 1 0
6.363693 -6.550813 -22.909105 24.662458 -0.799886 2.762244 0.011506 -0.023867 -414785.000000 0 1 0
6.461493 -7.674713 -23.922905 25.941424 -0.871012 2.744500 0.012953 -0.019876 -275277.000000 0 0 1
5.706093 -8.869213 -23.699705 25.940286 -0.999103 2.722910 0.009558 -0.012477 191407.000000 0 0 1
5.753793 -9.710513 -24.831605 27.276525 -1.035886 2.714963 0.013925 -0.003184 58779.200000 0 0 1
4.794493 -10.937313 -24.751205 27.481523 -1.157663 2.692057 0.016087 -0.003059 191782.000000 0 0 1
5.202393 -11.876213 -23.748105 27.057010 -1.157923 2.641851 0.018298 -0.008384 175395.000000 0 0 1
4.343293 -13.014213 -23.682505 27.369599 -1.248685 2.616515 0.028406 -0.008240 69236.000000 0 0 1
4.960993 -14.206613 -22.833605 27.346166 -1.234832 2.558900 0.037982 -0.009947 829146.000000 0 0 1
5.961593 -15.136913 -23.312905 28.428124 -1.195607 2.532321 0.059716 -0.005000 2255640.000000 0 0 1
7.260193 -14.551313 -23.727305 28.765189 -1.107999 2.540754 0.042501 -0.003694 2804630.000000 0 0 1
8.301193 -13.987113 -22.646305 27.881970 -1.035178 2.518745 0.043929 0.003213 842445.000000 0 0 1
8.924393 -14.946113 -21.771205 27.875015 -1.032509 2.467109 0.046267 0.009975 760803.000000 0 0 1
7.976893 -15.649313 -20.922405 27.318105 -1.099397 2.443206 0.036401 0.007102 529685.000000 0 0 1
8.518993 -15.881813 -19.475505 26.534892 -1.078455 2.394928 0.040643 0.005676 1041540.000000 0 0 1
9.572093 -16.894313 -19.454405 27.486663 -1.055308 2.357142 0.043404 0.004872 450527.000000 0 0 1
10.129993 -17.166413 -18.189805 26.984653 -1.037684 2.310514 0.020316 0.009999 -239032.000000 0 0 1
9.145393 -17.915813 -17.247805 26.497195 -1.098812 2.279604 0.024684 0.003082 -165124.000000 0 0 1
8.822793 -19.224513 -17.644405 27.545392 -1.140537 2.266020 0.014830 -0.001154 220342.000000 0 0 1
8.011593 -19.393913 -18.811305 28.181105 -1.179050 2.301662 0.031974 0.005809 -891922.000000 0 0 1
6.506793 -19.204713 -18.739305 27.610159 -1.244123 2.316802 0.039374 0.001342 -671005.000000 0 0 1
6.100193 -17.867013 -18.379205 26.348390 -1.241784 2.342763 0.033341 0.003776 1710.040000 0 0 1
4.709693 -17.859013 -18.088305 25.851737 -1.312951 2.345765 0.029824 0.003245 274777.000000 0 0 1
4.164593 -16.481313 -17.746905 24.574990 -1.323292 2.377706 0.004773 0.017116 65393.100000 0 1 0
4.606693 -15.926113 -16.508805 23.396652 -1.289227 2.354074 -0.001979 0.012837 -80290.100000 0 1 0
3.996793 -14.710713 -16.360105 22.361406 -1.305508 2.391495 -0.009533 0.023055 -97474.200000 0 1 0
10.687093 30.820087 -18.271705 37.389128 1.237013 2.081384 -0.005032 0.002994 -379381.000000 0 0 1
9.845493 30.124887 -19.192905 37.051453 1.254917 2.115315 0.004733 0.002083 -191560.000000 0 0 1
8.869793 29.458987 -18.427605 35.861982 1.278340 2.110460 0.011061 0.005398 -788924.000000 0 0 1
7.803393 28.870787 -19.308305 35.598117 1.306817 2.144084 0.023790 -0.004303 -792854.000000 0 0 1
6.825093 29.751187 -19.782705 36.374035 1.345292 2.145837 0.028243 -0.015270 -534762.000000 0 0 1
6.160193 29.149687 -20.846305 36.362352 1.362531 2.181316 0.040586 -0.029405 -933070.000000 0 0 1
5.113493 29.989787 -21.518605 37.263729 1.401913 2.186420 0.049690 -0.028784 -244613.000000 0 0 1
3.904193 29.783487 -20.809205 36.542056 1.440454 2.176644 0.053666 -0.024195 -76726.300000 0 0 1
2.816193 30.609687 -21.192205 37.336221 1.479051 2.174390 0.053798 -0.023347 484648.000000 0 0 1
1.451493 30.250887 -20.479705 36.560105 1.522851 2.165382 0.068154 -0.020064 752868.000000 0 0 1
0.948593 29.004087 -20.865005 35.741927 1.538102 2.194159 0.063000 -0.036471 -63143.700000 0 0 1
0.546893 28.837487 -22.219905 36.409119 1.551834 2.227215 0.063204 -0.032872 -741959.000000 0 0 1
-0.092107 27.469187 -22.491705 35.502697 -1.567443 2.256892 0.057260 -0.030203 20576.700000 0 0 1
-1.230607 27.210987 -21.694605 34.822523 -1.525602 2.243375 0.054978 -0.031189 -243082.000000 0 0 1
-1.764007 26.014487 -22.093605 34.175907 -1.503091 2.273741 0.060752 -0.037704 207491.000000 0 0 1
-2.997307 25.569787 -21.220405 33.363205 -1.454108 2.260155 0.049512 -0.032392 -77577.300000 0 0 1
-4.106807 26.392887 -21.315505 34.173105 -1.416431 2.244329 0.037215 -0.026060 -748379.000000 0 0 1
-5.188507 25.816087 -20.643005 33.459298 -1.372459 2.235669 0.040108 -0.027322 -419620.000000 0 0 1
-6.264307 26.852987 -20.256805 34.214947 -1.341613 2.204391 0.033127 -0.030907 -339145.000000 0 0 1
-7.404207 26.185087 -19.791905 33.648188 -1.295226 2.199629 0.041622 -0.025203 -423954.000000 0 0 1
-8.195307 27.064387 -18.994605 34.065219 -1.276766 2.162282 0.035923 -0.023945 653803.000000 0 0 1
-9.449307 26.435087 -18.323005 33.523659 -1.227497 2.149058 0.032989 -0.015498 331157.000000 0 0 1
-9.136207 25.563887 -17.257805 32.168532 -1.227556 2.137058 0.043705 -0.013261 185296.000000 0 0 1
-10.314307 25.173187 -16.530205 31.832718 -1.181927 2.116809 0.023916 -0.007307 577066.000000 0 0 1
-10.045007 24.476087 -15.179005 30.502183 -1.181356 2.091668 0.036093 0.000588 -28595.900000 0 0 1
-9.602807 23.174287 -15.449705 29.461074 -1.177961 2.122819 0.042995 -0.002205 -216996.000000 0 0 1
-9.571507 22.442887 -14.254205 28.257376 -1.167670 2.099532 0.057045 -0.006101 -32846.400000 0 0 1
-9.061707 20.955187 -14.278905 26.928081 -1.162647 2.129704 0.071853 -0.002520 370804.000000 0 0 1
-10.017507 19.950787 -14.634305 26.693580 -1.105461 2.151046 0.045209 -0.008059 -152255.000000 0 0 1
-10.521307 19.951287 -15.971305 27.637553 -1.085509 2.186930 0.061003 0.001152 -431544.000000 0 0 1
-9.583407 19.909587 -17.170905 27.983447 -1.122183 2.231420 0.057610 0.000427 -313370.000000 0 0 1
-9.048507 18.623087 -17.476105 27.094448 -1.118512 2.271829 0.036138 0.001335 71152.400000 0 0 1
-8.090207 18.663487 -18.524605 27.512510 -1.161767 2.309481 0.051958 -0.000268 360758.000000 0 0 1
-7.264607 17.304987 -18.538605 26.380238 -1.173340 2.350046 0.055745 -0.005230 196892.000000 0 0 1
-8.033907 16.241087 -19.006505 26.259547 -1.111425 2.380081 0.036626 -0.008108 -154457.000000 0 0 1
-7.422507 15.579987 -20.095605 26.488921 -1.126196 2.432022 0.025792 -0.005358 643991.000000 0 0 1
-6.270207 14.552187 -19.782305 25.346030 -1.163958 2.466244 0.022139 -0.007387 106170.000000 0 0 1
-6.637807 13.402887 -18.985005 24.168746 -1.110954 2.474330 0.009552 -0.007963 -271692.000000 0 1 0
-5.572007 12.602387 -18.543705 23.102736 -1.154499 2.502543 0.016079 -0.007773 133681.000000 0 1 0
-4.748307 13.201187 -17.336005 22.301453 -1.225517 2.461236 0.020982 -0.002022 -111325.000000 0 1 0
-3.951707 14.283287 -17.645205 23.043037 -1.300881 2.443003 0.023760 -0.006192 -761692.000000 0 1 0
-3.547207 14.887087 -16.495305 22.501180 -1.336884 2.393645 0.020587 0.005353 -103560.000000 0 1 0
-2.578207 16.064087 -16.616805 23.255542 -1.411658 2.366750 0.026868 0.003697 -229791.000000 0 1 0
-3.239807 17.278587 -16.838905 24.343267 -1.385444 2.334675 0.036888 0.001770 -52324.300000 0 1 0
-2.361007 18.401387 -16.893905 25.091621 -1.443188 2.309444 0.046022 -0.003733 81584.200000 0 0 1
-3.014307 19.705187 -17.424605 26.476354 -1.419003 2.289115 0.052441 -0.012048 158347.000000 0 0 1
-3.174207 19.615087 -18.809005 27.360663 -1.410362 2.328764 0.072808 -0.017202 -56875.600000 0 0 1
-3.778007 20.742687 -19.431205 28.672358 -1.390634 2.315424 0.077640 -0.012715 483566.000000 0 0 1
-2.824207 22.000187 -19.552105 29.568043 -1.443123 2.293291 0.060610 -0.015630 124925.000000 0 0 1
-1.844007 21.885687 -20.594005 30.108084 -1.486739 2.324032 0.075912 -0.013585 667886.000000 0 0 1
-0.682207 22.691187 -20.429205 30.540265 -1.540741 2.303561 0.065789 -0.018773 586667.000000 0 0 1
0.300493 22.278487 -19.301805 29.478483 1.557309 2.284683 0.057717 -0.014923 -793272.000000 0 0 1
-0.099207 22.577887 -17.946405 28.841711 -1.566402 2.242395 0.053110 -0.012836 324394.000000 0 0 1
0.826393 22.038487 -16.956405 27.819013 1.533316 2.226259 0.046320 -0.009087 324894.000000 0 0 1
0.293993 22.179487 -15.524905 27.074688 1.557542 2.181459 0.045958 -0.006684 321190.000000 0 0 1
-0.518907 21.077687 -15.050805 25.904920 -1.546183 2.190755 0.040606 0.000998 373495.000000 0 0 1
-0.126007 20.748987 -13.754605 24.894286 -1.564723 2.156182 0.039143 -0.001498 7925.320000 0 1 0
-1.099807 19.789287 -13.045705 23.727956 -1.515278 2.152925 0.026703 0.000669 -67525.000000 0 1 0
-0.843007 18.519487 -13.507705 22.937745 -1.525308 2.200475 0.020391 0.003650 -156537.000000 0 1 0
-1.794907 17.602887 -13.059405 21.991621 -1.469181 2.206614 0.018410 0.006734 -640199.000000 0 1 0
-1.437707 16.109887 -13.180905 20.864604 -1.481788 2.254586 0.005441 0.007591 -1325090.000000 0 1 0
-0.376707 15.822387 -12.343705 20.071295 -1.546992 2.233173 0.000386 0.007031 -451364.000000 0 1 0
-0.077807 14.420887 -12.257005 18.926231 -1.565401 2.275253 0.002471 0.004463 227353.000000 0 1 0
0.544393 13.692787 -13.530505 19.257812 1.531060 2.349839 0.009436 -0.007879 -317945.000000 0 1 0
-0.294807 13.752787 -14.653605 20.098612 -1.549363 2.387781 0.007825 -0.005463 -27916.400000 0 1 0
0.320093 12.928287 -15.588005 20.254110 1.546042 2.449045 0.011219 -0.003730 -480228.000000 0 1 0
-0.271007 12.811587 -16.981005 21.273569 -1.549646 2.495132 0.013281 -0.000735 -351475.000000 0 1 0
-0.205707 14.037587 -17.687005 22.581548 -1.556143 2.470673 0.022311 -0.000904 -71788.300000 0 1 0
-0.498607 13.747487 -19.066505 23.511138 -1.534543 2.516581 0.034019 -0.008886 -126150.000000 0 1 0
-1.139607 14.934887 -19.825705 24.847699 -1.494639 2.494581 0.033878 0.002220 427301.000000 0 1 0
-0.217807 16.055587 -19.902205 25.571998 -1.557231 2.462720 0.037071 -0.007998 395755.000000 0 0 1
-0.872007 17.282887 -20.120605 26.538601 -1.520384 2.431289 0.050901 -0.007458 -84916.500000 0 0 1
0.070593 18.509487 -20.285005 27.460654 1.566982 2.401926 0.062644 -0.008017 100241.000000 0 0 1
0.618493 18.450987 -21.565005 28.387865 1.537288 2.433580 0.046798 -0.005597 97908.700000 0 0 1
1.727193 19.334087 -21.697305 29.112938 1.481699 2.411752 0.047139 -0.005646 428698.000000 0 0 1
2.343393 19.377887 -23.152505 30.282544 1.450449 2.441138 0.058091 -0.008530 -135239.000000 0 0 1
2.988593 18.181987 -23.463105 29.833431 1.407882 2.475869 0.036161 -0.006581 -259741.000000 0 0 1
3.229693 18.068587 -24.854305 30.897269 1.393918 2.505491 0.039221 -0.017039 73684.200000 0 0 1
4.022393 16.826587 -25.270085 30.625004 1.336150 2.541256 0.026071 -0.006822 769033.000000 0 0 1
5.346993 16.716987 -24.672205 30.278139 1.261226 2.523270 0.017866 -0.005642 1628180.000000 0 0 1
6.257193 15.806387 -25.327165 30.503436 1.193860 2.550452 0.024428 -0.009848 670423.000000 0 0 1
6.676593 16.211387 -26.777065 32.006205 1.180120 2.561882 0.014625 -0.013153 -1503790.000000 0 0 1
7.585893 17.274187 -26.910105 32.864830 1.157005 2.530134 0.007952 -0.009794 242638.000000 0 0 1
8.111893 17.341887 -28.241515 34.119306 1.133269 2.545843 0.004850 -0.016369 340064.000000 0 0 1
8.846493 16.127387 -28.962455 34.310011 1.069076 2.575755 0.008331 -0.022074 -265090.000000 0 0 1
10.012493 15.805787 -28.230225 33.867662 1.006129 2.556290 0.011540 -0.019126 -136287.000000 0 0 1
10.647593 14.618087 -28.652105 33.882190 0.941273 2.578558 0.015258 -0.018724 -260960.000000 0 0 1
10.226393 13.324287 -27.886445 32.554102 0.916189 2.599476 0.011816 -0.020685 -386270.000000 0 0 1
8.860293 12.996687 -27.886845 32.017101 0.972434 2.628027 0.004179 -0.019669 -450974.000000 0 0 1
8.454693 12.523287 -26.650515 30.636000 0.976966 2.625813 0.015958 -0.018760 -97454.300000 0 0 1
7.044993 11.900087 -26.666025 30.038656 1.036271 2.663173 0.031867 -0.024248 113881.000000 0 0 1
6.056793 12.868287 -26.976475 30.496028 1.130882 2.656410 0.040931 -0.021797 -58741.500000 0 0 1
4.769993 12.280187 -26.862115 29.918707 1.200304 2.685628 0.043466 -0.019190 -132944.000000 0 0 1
3.548593 13.165187 -26.978145 30.228049 1.307510 2.673626 0.059646 -0.020824 -552353.000000 0 0 1
3.197793 13.410587 -28.317385 31.495143 1.336715 2.688513 0.059949 -0.026885 235162.000000 0 0 1
3.716293 14.660787 -28.763225 32.497271 1.322540 2.657498 0.053162 -0.031077 36556.000000 0 0 1
3.682393 14.831287 -30.274205 33.912455 1.327432 2.674134 0.066630 -0.031241 39819.600000 0 0 1
4.576593 13.881187 -30.852305 34.139380 1.252322 2.699167 0.063373 -0.030190 72167.700000 0 0 1
4.492593 13.788687 -32.279075 35.387144 1.255825 2.719344 0.058255 -0.029152 621260.000000 0 0 1
5.678493 12.861587 -32.883245 35.762739 1.155027 2.737561 0.059755 -0.030319 1524620.000000 0 0 1
7.011393 13.272187 -32.639225 35.925333 1.084784 2.710547 0.061385 -0.026238 296421.000000 0 0 1
7.546593 13.193187 -31.308935 34.803170 1.051214 2.689649 0.049688 -0.025545 -449090.000000 0 0 1
7.534293 11.883787 -30.463455 33.556103 1.005753 2.708892 0.049873 -0.020586 -42020.000000 0 0 1
8.596793 10.994387 -30.763845 33.781586 0.907174 2.715697 0.036233 -0.013108 60518.500000 0 0 1
8.339493 9.754387 -30.135265 32.754074 0.863437 2.738995 0.041556 -0.009941 734533.000000 0 0 1
9.494693 8.686787 -30.284595 32.905412 0.740992 2.739778 0.026371 -0.006556 1115400.000000 0 0 1
10.746293 8.937587 -29.650315 32.779635 0.693768 2.701083 0.022501 -0.015262 189813.000000 0 0 1
11.480593 7.762387 -29.544105 32.633002 0.594526 2.702986 0.001114 0.003794 -410053.000000 0 0 1
12.928093 7.952687 -29.035165 32.763114 0.551483 2.659907 0.002728 -0.003921 173626.000000 0 0 1
13.631093 6.763387 -28.777095 32.552593 0.460582 2.655187 -0.008894 -0.002277 353341.000000 0 0 1
14.301793 6.130987 -29.904065 33.710286 0.404989 2.661799 -0.013742 -0.000317 -228698.000000 0 0 1
15.142493 4.902887 -29.499945 33.519847 0.313131 2.646814 -0.013919 -0.004067 158052.000000 0 0 1
16.131293 5.147987 -28.509245 33.158670 0.308914 2.605640 -0.012300 -0.006902 356021.000000 0 0 1
16.753393 3.960787 -28.102215 32.956008 0.232154 2.591965 -0.008165 -0.002985 -131810.000000 0 0 1
17.574193 4.160087 -26.807295 32.323206 0.232437 2.548742 -0.010165 -0.001320 -70504.700000 0 0 1
18.662693 5.054387 -26.887745 33.117877 0.264484 2.518162 0.008010 -0.012079 351371.000000 0 0 1
19.376593 5.140087 -25.646665 32.551870 0.259301 2.478140 0.008412 -0.006617 -338231.000000 0 0 1
20.220093 6.394587 -25.607355 33.248752 0.306297 2.449912 -0.004115 -0.001623 -777096.000000 0 0 1
19.581993 7.653987 -25.643785 33.160845 0.372610 2.454850 0.008799 -0.002385 273893.000000 0 0 1
20.436093 8.660087 -26.179095 34.321655 0.400824 2.438363 0.018530 -0.011131 -303895.000000 0 0 1
20.603193 8.618887 -27.762465 35.630482 0.396206 2.464149 0.016313 -0.010814 3211.400000 0 0 1
19.448293 8.865887 -28.577495 35.686318 0.427724 2.499421 0.019732 -0.011269 408417.000000 0 0 1
18.520893 7.803487 -28.676635 35.018099 0.398762 2.530304 0.010526 -0.006235 -1079780.000000 0 0 1
17.278793 8.369187 -29.321325 35.047683 0.451059 2.561866 0.006509 -0.000985 -1162060.000000 0 0 1
17.264793 8.605787 -30.728285 36.281678 0.462414 2.580994 0.000511 0.003249 339107.000000 0 0 1
16.070593 9.281387 -31.088415 36.206320 0.523740 2.603419 -0.007175 0.002861 -110685.000000 0 0 1
15.634993 9.158087 -32.543585 37.247932 0.529870 2.633557 -0.009646 0.007150 -333317.000000 0 0 1
14.946893 7.960587 -32.684745 36.811318 0.489380 2.663555 -0.003841 0.007110 -126406.000000 0 0 1
13.773193 8.207687 -33.436385 37.081785 0.537412 2.694465 -0.010020 0.010822 151791.000000 0 0 1
13.116893 6.932887 -34.035815 37.128890 0.486223 2.730522 -0.013401 0.013604 137923.000000 0 0 1
12.707993 6.034787 -32.987695 35.862233 0.443351 2.738481 0.004955 0.005934 354485.000000 0 0 1
11.967493 4.912787 -33.492965 35.904527 0.389535 2.772996 0.009229 0.002104 36281.900000 0 0 1
11.756193 3.878087 -32.371645 34.657914 0.318636 2.776339 0.014360 0.001609 -764752.000000 0 0 1
12.896393 3.248487 -31.874565 34.537769 0.246758 2.746316 0.001123 -0.007148 -444756.000000 0 0 1
12.629793 2.204987 -30.898435 33.452756 0.172844 2.748278 0.006945 -0.007346 121128.000000 0 0 1
11.900893 0.901587 -31.272415 33.472497 0.075613 2.777008 0.007774 -0.000774 425576.000000 0 0 1
12.765493 -0.005613 -31.978415 34.432207 -0.000440 2.761784 0.005537 -0.002774 326568.000000 0 0 1
13.485593 -0.868213 -31.143735 33.949186 -0.064292 2.732201 -0.010861 -0.006026 1669.650000 0 0 1
14.041793 -2.173913 -31.751575 34.785922 -0.153598 2.720813 0.002800 -0.009044 283211.000000 0 0 1
13.094393 -3.202713 -32.019515 34.741471 -0.239877 2.743111 0.010279 -0.010720 74698.600000 0 0 1
13.716393 -4.222213 -32.715375 35.724813 -0.298618 2.728193 0.008618 -0.014388 -247896.000000 0 0 1
12.934393 -5.532213 -32.726785 35.622273 -0.404167 2.735615 0.024562 -0.012533 -50798.300000 0 0 1
12.988993 -6.122913 -31.403945 34.531316 -0.440501 2.712717 0.009206 -0.012633 78662.700000 0 0 1
12.248693 -7.327013 -31.370775 34.465071 -0.539086 2.714610 0.016735 -0.015971 -107332.000000 0 0 1
12.505893 -8.224013 -30.177145 33.685187 -0.581707 2.681155 0.006021 -0.012413 -560657.000000 0 0 1
13.796293 -8.763913 -30.112305 34.262148 -0.565927 2.644305 0.018523 -0.016931 -235761.000000 0 0 1
13.988993 -9.390013 -28.884515 33.439191 -0.591164 2.613545 0.022275 -0.014606 -103313.000000 0 0 1
13.878193 -10.909413 -28.904595 33.868793 -0.666197 2.593325 0.010665 -0.008413 1038950.000000 0 0 1
12.585093 -11.405413 -29.355695 33.914965 -0.736265 2.617079 0.002339 -0.001031 1180730.000000 0 0 1
12.524993 -12.820213 -29.439045 34.465790 -0.797046 2.594715 0.002098 0.001211 -51056.500000 0 0 1
-10.181107 -3.089413 -17.882905 20.808597 0.294615 2.604891 0.005777 0.011034 -176553.000000 0 1 0
-10.860507 -2.457713 -18.977405 22.003020 0.222550 2.610968 0.002468 0.006085 96892.000000 0 1 0
-11.645307 -3.408113 -19.669305 23.110819 0.284709 2.588847 -0.000770 0.015985 -740138.000000 0 1 0
-12.410007 -2.710213 -20.804505 24.375827 0.215013 2.593441 0.000911 -0.004848 -103313.000000 0 1 0
-13.510107 -1.989713 -20.266505 24.437945 0.146225 2.548659 -0.002420 0.001627 498094.000000 0 1 0
-14.415107 -1.463313 -21.248405 25.718307 0.101166 2.543121 0.003934 -0.006158 688666.000000 0 0 1
-15.130507 -0.153013 -20.847105 25.759609 0.010113 2.513746 0.013641 -0.000905 83473.600000 0 0 1
-14.348707 0.998487 -21.092105 25.529576 -0.069475 2.543095 0.008896 -0.006917 -152793.000000 0 0 1
-15.023607 2.161187 -20.734905 25.696610 -0.142873 2.509702 0.010271 0.004665 -288582.000000 0 0 1
-14.629907 3.454987 -21.464105 26.204559 -0.231910 2.530633 0.014508 -0.001856 250130.000000 0 0 1
-13.324007 3.929287 -21.152905 25.306399 -0.286774 2.560515 0.018983 -0.007284 484922.000000 0 0 1
-12.935007 5.105387 -21.838005 25.889725 -0.375925 2.574564 0.019870 -0.009881 -38474.100000 0 0 1
-11.740807 5.770887 -21.112205 24.836966 -0.456844 2.586842 0.004261 -0.009273 -275799.000000 0 1 0
-12.027507 6.236587 -19.863805 24.044265 -0.478359 2.543010 0.011366 -0.015305 873294.000000 0 1 0
-10.863207 6.539187 -19.060305 22.892476 -0.541857 2.554584 -0.000754 -0.012097 398077.000000 0 1 0
-11.190507 7.025787 -17.639405 22.039459 -0.560635 2.498684 0.005641 -0.011064 -223357.000000 0 1 0
-11.715407 8.318387 -17.595205 22.716460 -0.617431 2.456812 -0.002121 -0.012811 -313006.000000 0 1 0
-12.795607 8.294787 -16.709505 22.621640 -0.575146 2.401864 0.012445 -0.010617 -523749.000000 0 1 0
-13.507807 9.694387 -16.755405 23.604779 -0.622499 2.360055 0.014337 -0.009294 -330285.000000 0 1 0
-12.774807 10.709187 -16.090605 23.168728 -0.697665 2.338516 -0.008525 -0.003248 118909.000000 0 1 0
-13.334807 11.952887 -16.321605 24.229804 -0.730805 2.309888 -0.005191 -0.004896 -835542.000000 0 1 0
-12.567207 13.084887 -15.727105 24.010223 -0.805576 2.285001 0.001605 -0.004041 -1378360.000000 0 1 0
-12.706307 13.264187 -14.322805 23.292309 -0.806876 2.233075 0.020751 -0.005747 -58806.700000 0 1 0
-12.139207 14.461787 -13.838705 23.409686 -0.872489 2.203284 0.015920 -0.013891 -1163840.000000 0 1 0
-12.565007 14.873687 -12.419605 23.094427 -0.869340 2.138592 0.010258 -0.007786 2014040.000000 0 1 0
-13.979707 15.230387 -12.246505 24.028604 -0.828189 2.105590 0.008280 -0.011532 2276390.000000 0 1 0
-14.958907 14.221887 -12.534905 24.148599 -0.760146 2.116563 0.011862 -0.017243 194327.000000 0 1 0
-16.329507 14.524987 -11.820305 24.846482 -0.726980 2.066594 0.003799 -0.017656 1000470.000000 0 1 0
-17.366907 13.557187 -12.037305 25.105846 -0.662820 2.070838 0.007928 -0.022490 1466740.000000 0 0 1
-18.648007 14.108787 -11.648005 26.124358 -0.647702 2.032940 0.040890 -0.015490 468278.000000 0 0 1
-19.849507 13.618687 -12.436505 27.094985 -0.601334 2.047662 0.031846 -0.016286 -642351.000000 0 0 1
-20.261307 12.297787 -12.174105 26.645168 -0.545521 2.045300 0.041454 -0.021316 -88327.100000 0 0 1
-21.345607 11.952587 -12.978305 27.693604 -0.510454 2.058546 0.046954 -0.020423 -745857.000000 0 0 1
-22.032607 10.665587 -12.522305 27.495430 -0.450832 2.043654 0.039788 -0.013905 -918788.000000 0 0 1
-21.233807 9.579787 -12.582405 26.475721 -0.423816 2.066037 0.045402 -0.022879 -282216.000000 0 0 1
-21.814407 8.596487 -11.806405 26.251841 -0.375387 2.037266 0.043315 -0.023468 -199496.000000 0 0 1
-20.870207 7.377987 -11.633705 25.006866 -0.339805 2.054680 0.051553 -0.016390 -83583.500000 0 0 1
-20.688607 6.634087 -12.780205 25.206412 -0.310305 2.102523 0.060133 -0.019381 914363.000000 0 0 1
-19.375707 6.072087 -12.720905 23.960586 -0.303692 2.130470 0.044908 -0.022780 320148.000000 0 1 0
-19.232507 4.821387 -13.571605 24.027559 -0.245627 2.171030 0.049813 -0.024209 -43667.800000 0 1 0
-20.027007 3.711287 -13.168505 24.254158 -0.183235 2.144728 0.043079 -0.030713 576429.000000 0 1 0
-19.789207 2.652387 -14.064005 24.422205 -0.133238 2.184464 0.041385 -0.034513 -401501.000000 0 1 0
-20.532607 1.350787 -13.767505 24.757964 -0.065693 2.160463 0.025104 -0.029702 45257.200000 0 1 0
-21.907907 1.244787 -14.084905 26.074709 -0.056758 2.141441 0.035815 -0.032866 553530.000000 0 0 1
-22.287607 -0.052813 -14.447305 26.560588 0.002370 2.145919 0.029709 -0.027814 14256.700000 0 0 1
-23.685507 -0.242913 -15.076505 28.077807 0.010255 2.137619 0.042345 -0.028396 302927.000000 0 0 1
-24.820507 -0.035813 -14.245105 28.617859 0.001443 2.091822 0.062839 -0.033197 483326.000000 0 0 1
-25.996297 -0.410413 -14.948205 29.990411 0.015786 2.092586 0.062082 -0.023764 576506.000000 0 0 1
-27.308937 0.071187 -14.247705 30.802276 -0.002607 2.051670 0.060357 -0.024359 91937.100000 0 0 1
-27.472297 -0.457013 -12.979505 30.387555 0.016634 2.012115 0.071473 -0.027963 223199.000000 0 0 1
-28.717547 -0.058613 -12.430405 31.292426 0.002041 1.979297 0.080561 -0.028639 256111.000000 0 0 1
-28.984417 -0.792713 -11.058705 31.032560 0.027343 1.935164 0.075566 -0.031745 -286358.000000 0 0 1
-29.278277 -2.185713 -11.050205 31.370398 0.074515 1.930770 0.077052 -0.028989 463958.000000 0 0 1
-28.262937 -3.030013 -11.554505 30.683565 0.106800 1.956887 0.084556 -0.032635 -267181.000000 0 0 1
-28.540127 -4.491613 -11.143105 30.965824 0.156099 1.938905 0.067804 -0.029937 -217417.000000 0 0 1
-29.619667 -5.157213 -11.802805 32.299036 0.172386 1.944883 0.069462 -0.029064 692046.000000 0 0 1
-30.022797 -6.386313 -11.157705 32.659573 0.209592 1.919454 0.058061 -0.026380 -168083.000000 0 0 1
-29.313297 -7.640613 -11.681305 32.466925 0.254980 1.938840 0.042562 -0.025179 -293317.000000 0 0 1
-27.932767 -7.657813 -11.390405 31.122707 0.267577 1.945486 0.039906 -0.022514 -161129.000000 0 0 1
-27.293547 -8.574813 -12.207505 31.104474 0.304406 1.974109 0.048882 -0.022664 -581849.000000 0 0 1
-25.796027 -8.806413 -12.029605 29.794283 0.328981 1.986414 0.038599 -0.018579 -643968.000000 0 0 1
-24.951607 -7.752113 -12.497405 28.963133 0.301231 2.016944 0.030757 -0.018141 567429.000000 0 0 1
-23.641007 -7.762113 -11.974005 27.613845 0.317243 2.019306 0.028206 -0.016743 -229606.000000 0 0 1
-23.372707 -7.587113 -10.434705 26.697018 0.313883 1.972358 0.025177 -0.016345 -823519.000000 0 0 1
-23.738707 -6.353513 -9.852905 26.475896 0.261514 1.952117 0.028023 -0.016530 1796780.000000 0 0 1
-25.176837 -6.180813 -9.690905 27.676510 0.240735 1.928527 0.033323 -0.022943 1111460.000000 0 0 1
-25.613587 -4.753013 -9.181405 27.621462 0.183479 1.909645 0.044770 -0.029162 -423063.000000 0 0 1
-25.266127 -4.530513 -7.783705 26.823288 0.177426 1.865216 0.029748 -0.027860 483131.000000 0 0 1
-25.438557 -3.149313 -7.429005 26.687609 0.123174 1.852892 0.050730 -0.021864 -179712.000000 0 0 1
-25.306687 -2.834213 -5.918205 26.143572 0.111530 1.799149 0.040809 -0.017640 -468683.000000 0 0 1
-24.034507 -2.967613 -5.358705 24.802822 0.122851 1.788566 0.012935 -0.014552 -231601.000000 0 1 0
-24.090307 -2.775613 -3.964005 24.571534 0.114711 1.732830 0.005264 -0.006213 -872905.000000 0 1 0
-22.838807 -3.183113 -3.244005 23.286625 0.138481 1.710559 0.002326 -0.002535 -840168.000000 0 1 0
-22.484907 -4.554613 -3.445605 23.198874 0.199859 1.719873 -0.000887 -0.004819 397330.000000 0 1 0
-21.398307 -4.997913 -2.660005 22.134641 0.229452 1.691261 0.000596 -0.004737 -211980.000000 0 1 0
-21.241007 -6.502013 -2.736905 22.381850 0.297050 1.693385 0.000674 -0.000515 124851.000000 0 1 0
-22.032307 -7.203513 -1.772905 23.247717 0.315997 1.647132 0.008714 0.002488 595493.000000 0 1 0
-22.321507 -8.517413 -2.154505 23.988287 0.364526 1.660732 -0.009225 0.001685 148297.000000 0 1 0
-22.850807 -9.304213 -0.937205 24.690203 0.386674 1.608764 -0.014524 0.001398 -60786.100000 0 1 0
-21.779707 -9.737113 -0.143605 23.857654 0.420417 1.576816 -0.027384 0.012043 -40409.700000 0 1 0
-22.165707 -10.523713 0.964095 24.555989 0.443264 1.531525 -0.035851 0.014893 130794.000000 0 1 0
-21.003807 -11.042513 1.863095 23.802692 0.484026 1.492444 -0.025745 0.010061 572558.000000 0 1 0
-20.233007 -12.062913 1.202995 23.586769 0.537620 1.519771 -0.020561 0.014641 312115.000000 0 1 0
-19.143207 -12.570313 1.926595 22.982318 0.581033 1.486868 -0.025879 0.012036 202794.000000 0 1 0
-18.303707 -13.619413 1.154795 22.843985 0.639701 1.520223 -0.020117 0.008056 -111557.000000 0 1 0
-19.116907 -14.803413 1.098795 24.203399 0.658912 1.525382 -0.010824 0.009413 524721.000000 0 1 0
-18.591407 -16.000913 0.518795 24.534441 0.710651 1.549649 -0.011889 0.006308 -280943.000000 0 1 0
-17.349607 -16.637213 1.187695 24.066914 0.764440 1.521427 -0.006690 0.004284 -341107.000000 0 1 0
-16.201607 -15.815213 1.083095 22.666851 0.773330 1.522995 0.000110 -0.004631 -379525.000000 0 1 0
-15.090307 -16.417813 1.698595 22.363971 0.827505 1.494771 0.006507 -0.012274 -216689.000000 0 1 0
-14.933607 -16.465213 3.277995 22.469115 0.834139 1.424385 0.010564 -0.007719 -495551.000000 0 1 0
-14.780307 -15.168813 3.837195 21.523811 0.798370 1.391561 0.007324 -0.007918 261869.000000 0 1 0
-13.990607 -15.116913 5.015995 21.199490 0.824074 1.331922 0.003549 -0.003215 80090.100000 0 1 0
-14.737407 -15.562913 6.319895 22.345839 0.812636 1.284061 0.014276 -0.005367 -315172.000000 0 1 0
-15.494507 -14.590813 7.078495 22.429371 0.755369 1.249717 0.010705 -0.003387 437856.000000 0 1 0
-15.742207 -14.998513 8.437395 23.322995 0.761210 1.200638 0.013477 -0.003361 -253064.000000 0 1 0
-16.684807 -16.200313 8.735095 24.842198 0.770666 1.211492 0.005087 -0.002698 -432810.000000 0 1 0
-16.220607 -17.440713 8.238595 25.202401 0.821629 1.237778 0.005299 -0.000921 -169483.000000 0 0 1
-16.942507 -18.566213 8.672795 26.588911 0.831093 1.238536 0.009510 -0.000792 -379826.000000 0 0 1
-16.676907 -18.997413 10.123195 27.230498 0.850354 1.189893 -0.000691 -0.003885 -137645.000000 0 0 1
-15.340507 -19.334713 10.405695 26.785085 0.900082 1.171806 0.012796 -0.001682 -169145.000000 0 0 1
-15.159407 -19.579213 11.765595 27.415004 0.911949 1.127227 0.013663 -0.000113 -526094.000000 0 0 1
-13.820407 -20.192713 12.126195 27.309228 0.970600 1.110702 0.010384 0.005195 -708604.000000 0 0 1
-12.686607 -19.376413 12.154895 26.156010 0.991093 1.087492 0.013868 -0.002176 -879620.000000 0 0 1
-11.598207 -20.162813 12.491795 26.402697 1.048791 1.077961 -0.008922 0.005471 -62294.400000 0 0 1
-10.255107 -19.431813 12.748795 25.402645 1.085197 1.045038 -0.001169 0.003382 463621.000000 0 0 1
-9.674907 -18.805913 11.657295 24.148680 1.095647 1.067027 0.001269 0.001406 -580243.000000 0 1 0
-8.483307 -18.163513 12.018395 23.373522 1.133853 1.030735 0.003546 0.003140 93694.400000 0 1 0
-7.683807 -17.467213 10.852695 21.952800 1.156374 1.053692 0.001488 -0.001347 498825.000000 0 1 0
-6.749707 -18.380713 10.272595 22.111883 1.218867 1.087643 0.007488 0.001337 136056.000000 0 1 0
-6.044407 -17.669213 9.241295 20.835966 1.241188 1.111267 0.006113 0.002129 -14795.200000 0 1 0
-4.928407 -18.446213 8.543495 20.917535 1.309717 1.150055 0.000951 0.001962 114142.000000 0 1 0
-3.708507 -18.606713 9.240495 21.103306 1.374064 1.117569 0.006721 0.006896 -19261.100000 0 1 0
-2.733207 -19.257513 8.454395 21.208466 1.429809 1.160770 0.010321 0.003493 -1535340.000000 0 1 0
-1.396307 -19.217513 9.053195 21.289031 1.498266 1.131556 0.006235 -0.005749 -1550990.000000 0 1 0
-0.432907 -19.945613 8.299795 21.607903 1.549095 1.176553 0.019764 0.007936 -142618.000000 0 1 0
0.697693 -20.156513 9.128895 22.138395 -1.536196 1.145758 0.029130 0.002338 377766.000000 0 1 0
1.954993 -20.693413 8.380095 22.411277 -1.476602 1.187561 0.034364 -0.009778 273200.000000 0 1 0
1.950993 -22.033213 7.868095 23.477133 -1.482479 1.229044 0.027071 -0.001383 -261108.000000 0 1 0
2.157493 -23.005513 8.831195 24.736580 -1.477288 1.205732 0.035075 0.001090 -160983.000000 0 1 0
1.611793 -24.350613 8.353195 25.793916 -1.504702 1.241007 0.021423 -0.006493 -39211.100000 0 0 1
1.736993 -25.359833 9.342595 27.081772 -1.502409 1.218582 0.026043 -0.009163 -171259.000000 0 0 1
1.289293 -26.610753 8.918395 28.095057 -1.522384 1.247771 0.030503 -0.009428 -690229.000000 0 0 1
1.528993 -27.749703 9.962495 29.523468 -1.515753 1.226597 0.032048 -0.012733 358176.000000 0 0 1
0.819393 -27.694013 11.229795 29.895452 -1.541218 1.185714 0.024963 -0.015615 422753.000000 0 0 1
-0.584307 -27.859593 11.022995 29.966728 1.549826 1.194110 0.014176 -0.011041 358086.000000 0 0 1
-1.309107 -27.914593 12.409095 30.576525 1.523934 1.152902 0.011562 -0.014182 110971.000000 0 0 1
-0.847007 -29.085103 13.079295 31.901859 1.541683 1.148358 0.006181 -0.013250 -101540.000000 0 0 1
-1.216107 -29.048873 14.414395 32.451359 1.528957 1.110532 -0.002455 -0.006693 -241763.000000 0 0 1
-0.838407 -30.251453 15.271395 33.897918 1.543089 1.103458 -0.005364 0.000988 166847.000000 0 0 1
-0.894007 -29.912453 16.633395 34.237756 1.540918 1.063495 -0.002270 0.001495 -108014.000000 0 0 1
-0.271407 -30.866003 17.455595 35.460987 1.562003 1.056126 -0.003729 0.002737 8550.910000 0 0 1
-0.552907 -30.586713 18.949695 35.985326 1.552722 1.016206 -0.009303 -0.000986 1217380.000000 0 0 1
-1.973207 -30.757593 19.163495 36.292735 1.506731 1.014522 -0.025625 0.004641 915483.000000 0 0 1
-2.301807 -30.464973 20.529295 36.808489 1.495384 0.979145 -0.009541 -0.001299 279930.000000 0 0 1
-3.839307 -30.499733 20.733495 37.078994 1.445575 0.977411 0.003465 -0.011097 91399.900000 0 0 1
-4.528407 -29.357673 20.281795 35.968467 1.417753 0.971723 0.009032 -0.008480 289445.000000 0 0 1
-5.861807 -29.217243 20.754295 36.314582 1.372797 0.962447 0.011128 -0.014781 578741.000000 0 0 1
-5.978907 -28.264543 21.990995 36.307514 1.362336 0.920167 0.019978 -0.026487 -313539.000000 0 0 1
-5.308807 -28.841373 23.081295 37.319625 1.388765 0.903994 0.017854 -0.025111 -39838.600000 0 0 1
-5.319507 -27.959693 24.164595 37.335898 1.382787 0.866862 0.025278 -0.026205 -390702.000000 0 0 1
-4.112407 -28.275153 25.061495 38.006246 1.426367 0.850770 0.032748 -0.024032 -131633.000000 0 0 1
-4.239707 -29.545163 25.700595 39.387972 1.428270 0.859919 0.029756 -0.025944 207847.000000 0 0 1
-3.476907 -30.583233 25.107095 39.721395 1.457596 0.886562 0.029094 -0.025898 -24321.200000 0 0 1
-3.581507 -31.817613 26.013595 41.254028 1.458704 0.888508 0.029378 -0.017097 46095.000000 0 0 1
-3.136107 -31.717013 27.314795 41.975018 1.472239 0.862239 0.021696 -0.019554 4641.300000 0 0 1
-3.992507 -32.448113 28.143095 43.137616 1.448369 0.860046 0.029494 -0.013179 -307379.000000 0 0 1
-3.560207 -32.313433 29.595795 43.962986 1.461062 0.832271 0.026553 -0.010495 828114.000000 0 0 1
-2.265207 -32.898523 29.870295 44.493578 1.502050 0.834782 0.014548 -0.013577 1078200.000000 0 0 1
-1.869207 -32.887963 31.241695 45.399951 1.514022 0.811869 0.026587 -0.017883 -220357.000000 0 0 1
-28.200417 3.381787 -10.350405 30.229636 -0.119350 1.920259 0.049669 -0.023708 332059.000000 0 0 1
-28.953057 3.141187 -11.566605 31.335809 -0.108070 1.948856 0.041981 -0.035883 321449.000000 0 0 1
-29.841667 4.187387 -11.832805 32.373980 -0.139410 1.944970 0.011144 -0.020198 -408120.000000 0 0 1
-30.763987 3.904987 -13.028205 33.636379 -0.126258 1.968524 0.027540 -0.012645 -1019170.000000 0 0 1
-31.727577 2.979887 -12.768205 34.329957 -0.093646 1.951879 0.048517 -0.017425 -659087.000000 0 0 1
-32.450247 2.689987 -13.935505 35.418256 -0.082707 1.975183 0.060488 -0.017940 -312198.000000 0 0 1
-33.440287 1.567987 -13.706605 36.174334 -0.046855 1.959408 0.057492 -0.011714 97980.200000 0 0 1
-32.774497 0.303087 -13.717705 35.530761 -0.009247 1.967174 0.064472 -0.012106 461928.000000 0 0 1
-33.507607 -0.520313 -12.854005 35.892282 0.015527 1.937058 0.053953 -0.008898 273427.000000 0 0 1
-32.806307 -1.893613 -12.639605 35.207942 0.057657 1.937991 0.042942 -0.012334 80291.100000 0 0 1
-33.051007 -2.726913 -13.771005 35.908853 0.082320 1.964378 0.051039 -0.006210 173817.000000 0 0 1
-32.697327 -3.986813 -13.317105 35.529638 0.121332 1.954995 0.058014 -0.015918 123107.000000 0 0 1
-33.473457 -5.153713 -13.980105 36.639820 0.152765 1.962274 0.038351 -0.011137 51086.500000 0 0 1
-33.024237 -6.293013 -13.329105 36.164448 0.188300 1.948266 0.036581 -0.021226 441957.000000 0 0 1
-33.599137 -7.545913 -13.821105 37.106142 0.220921 1.952471 0.036042 -0.015888 -621681.000000 0 0 1
-33.072627 -8.727413 -12.968005 36.580535 0.258005 1.933182 0.026908 -0.023158 32702.300000 0 0 1
-31.708187 -9.104813 -13.057205 35.479534 0.279621 1.947676 0.021009 -0.021302 426595.000000 0 0 1
-31.323117 -9.493213 -14.342105 35.734504 0.294274 1.983789 0.011436 -0.013315 -1021490.000000 0 0 1
-30.021247 -10.283313 -14.517405 34.896660 0.330009 1.999851 0.008825 -0.013722 -80753.900000 0 0 1
-30.218817 -11.673913 -14.153805 35.352332 0.368652 1.982710 0.004090 -0.013952 991959.000000 0 0 1
-28.915647 -12.250313 -13.970305 34.370834 0.400732 1.989370 0.002528 -0.016962 569263.000000 0 0 1
-29.004807 -13.812513 -14.023805 35.053266 0.444439 1.982391 0.005824 -0.024898 -422111.000000 0 0 1
-29.375427 -14.317813 -15.248705 36.061593 0.453523 2.007386 0.010580 -0.017844 92004.700000 0 0 1
-29.353917 -15.685713 -15.382105 36.664741 0.490760 2.003728 0.015334 -0.020012 161225.000000 0 0 1
-27.949947 -16.373213 -15.330905 35.837387 0.529916 2.012844 -0.009539 -0.020190 825845.000000 0 0 1
-27.140847 -16.123213 -16.513105 35.626763 0.536038 2.052741 -0.001178 -0.019646 520631.000000 0 0 1
-26.064937 -17.033213 -16.712605 35.338682 0.578826 2.063406 -0.004959 -0.019189 1260.130000 0 0 1
-24.766007 -16.420013 -17.187505 34.327573 0.585464 2.095193 -0.017910 -0.018153 -482273.000000 0 0 1
-24.830507 -16.080713 -18.533105 34.908730 0.574700 2.130461 -0.001476 -0.023431 -462433.000000 0 0 1
-23.622107 -15.643713 -19.078905 34.157493 0.584938 2.163441 0.000433 -0.017059 -795458.000000 0 0 1
-23.791207 -15.127213 -20.555305 34.890897 0.566351 2.200779 0.017014 -0.017287 -48131.600000 0 0 1
-24.167407 -16.151713 -21.499405 36.154748 0.589151 2.207626 0.015075 -0.016431 1014570.000000 0 0 1
-25.594987 -16.220113 -21.603805 37.214511 0.564847 2.190165 0.021252 -0.017899 238549.000000 0 0 1
-26.096017 -17.486313 -22.300305 38.523718 0.590359 2.188141 0.020634 -0.016430 -317429.000000 0 0 1
-25.673307 -17.701813 -23.597505 39.106459 0.603646 2.218576 0.024539 -0.008766 91830.300000 0 0 1
-26.237117 -18.880313 -24.085505 40.310843 0.623762 2.211169 0.019754 -0.002872 -523438.000000 0 0 1
-25.605457 -19.122613 -25.468155 40.864908 0.641461 2.243660 0.015301 -0.001013 -292620.000000 0 0 1
-24.326107 -19.665713 -25.446235 40.323822 0.679854 2.253699 0.018550 -0.010921 -672735.000000 0 0 1
-24.288707 -21.055313 -25.058875 40.758002 0.714211 2.232955 0.020927 -0.009440 -16352.400000 0 0 1
-22.876307 -21.724413 -24.886705 40.182380 0.759577 2.238703 0.014494 -0.000817 856283.000000 0 0 1
-22.176307 -21.552113 -26.130085 40.485349 0.771125 2.272370 0.007878 -0.009261 -1465950.000000 0 0 1
-20.834407 -21.735813 -25.904235 39.718352 0.806570 2.281277 0.016731 -0.016085 -1161160.000000 0 0 1
-20.048107 -21.580813 -27.246085 40.124896 0.822200 2.317239 0.018167 -0.018149 -300921.000000 0 0 1
-20.173007 -22.507913 -28.317185 41.417621 0.840050 2.323616 0.040337 -0.017048 -208781.000000 0 0 1
-20.830407 -22.034413 -29.446005 42.266872 0.813479 2.341540 0.037226 -0.016948 -685796.000000 0 0 1
-19.909707 -22.142613 -30.627525 42.716941 0.838447 2.370268 0.043776 -0.015938 -148101.000000 0 0 1
-19.583107 -23.475313 -31.024905 43.556092 0.875547 2.363563 0.043856 -0.024788 -208297.000000 0 0 1
-18.686407 -23.381713 -32.090445 43.882604 0.896550 2.390992 0.046391 -0.025938 -85804.700000 0 0 1
-18.130007 -24.696713 -32.774275 44.863993 0.937545 2.389887 0.041220 -0.025616 195779.000000 0 0 1
-17.527207 -24.639113 -34.048045 45.536340 0.952489 2.415405 0.040868 -0.023203 344248.000000 0 0 1
-18.481107 -24.542513 33.907217 45.755717 0.925363 0.736165 0.039978 -0.014487 425394.000000 0 0 1
-17.734707 -24.649613 32.550958 44.516156 0.947121 0.750692 0.030891 -0.008718 242951.000000 0 0 1
-16.886607 -23.531713 32.279078 43.368628 0.948349 0.731317 0.023002 -0.011974 -29985.400000 0 0 1
-16.287607 -23.551413 30.995948 42.198388 0.965746 0.745824 0.022642 -0.006283 665177.000000 0 0 1
-15.408707 -22.283913 30.628738 40.891572 0.965817 0.724210 0.011572 -0.002384 28179.100000 0 0 1
-16.220907 -21.166413 30.472398 40.493233 0.916912 0.718900 0.020530 -0.007459 -458715.000000 0 0 1
-15.616107 -19.928313 30.256898 39.452254 0.906127 0.696762 0.020510 -0.008535 -261221.000000 0 0 1
-14.830907 -19.314413 31.446718 39.773087 0.915958 0.658921 0.019316 -0.014262 68026.000000 0 0 1
-14.144907 -18.102113 31.199658 38.745110 0.907503 0.634692 0.022401 -0.017217 42473.700000 0 0 1
-13.762207 -17.306713 32.330748 39.168839 0.898992 0.599850 0.022855 -0.016709 -98282.700000 0 0 1
-13.302207 -15.858313 31.963018 38.079776 0.872831 0.574673 0.017658 -0.020710 -245837.000000 0 0 1
-12.026107 -15.889913 31.338668 37.137968 0.922933 0.566388 0.021045 -0.017106 137499.000000 0 0 1
-11.671207 -14.645713 30.742638 35.997552 0.897947 0.547132 0.019629 -0.017682 175205.000000 0 0 1
-10.249007 -14.630013 30.127308 35.024764 0.959704 0.535190 0.034645 -0.017851 508817.000000 0 0 1
-9.756007 -13.306013 29.836818 34.094946 0.938132 0.505134 0.057928 -0.015660 -61518.700000 0 0 1
-8.672507 -12.919313 30.654198 34.377331 0.979605 0.469713 0.033191 -0.021472 -94400.400000 0 0 1
-8.207007 -11.426613 30.688228 33.759292 0.947936 0.429845 0.029468 -0.018639 -275534.000000 0 0 1
-9.076307 -10.631913 31.423748 34.392861 0.864167 0.418571 0.029591 -0.019808 -59443.300000 0 0 1
-8.699507 -9.272613 31.336988 33.818184 0.817276 0.385445 0.023047 -0.010556 24951.600000 0 0 1
-9.423407 -8.494213 32.510138 34.897870 0.733585 0.372063 -0.001345 -0.011142 -455013.000000 0 0 1
-10.761207 -8.221913 32.262918 34.989989 0.652422 0.397423 0.008570 -0.013471 -627009.000000 0 0 1
-11.458407 -7.545713 33.316661 36.030997 0.582349 0.390637 -0.003328 -0.006677 138045.000000 0 0 1
-11.187007 -6.029713 33.549189 35.875544 0.494353 0.362100 -0.019852 0.010804 -603143.000000 0 0 1
-11.529507 -5.132813 32.478458 34.844304 0.418846 0.370622 0.001319 0.002461 248922.000000 0 0 1
-11.706007 -3.818113 32.961298 35.186016 0.315287 0.357506 -0.011102 0.003162 -634679.000000 0 0 1
-11.400007 -2.682613 31.910458 33.991674 0.231112 0.351745 -0.013646 0.009933 675360.000000 0 0 1
-9.993807 -2.411013 31.937298 33.551157 0.236727 0.311423 -0.011054 0.006835 701238.000000 0 0 1
-9.693907 -1.346813 31.104698 32.608097 0.138050 0.304840 -0.012046 0.006768 -59834.400000 0 0 1
-8.225307 -0.880613 31.228368 32.305450 0.106655 0.258950 -0.007050 0.012107 117536.000000 0 0 1
-7.890207 -0.263313 32.475928 33.421708 0.033360 0.238465 -0.003743 0.000102 1030550.000000 0 0 1
-6.530107 0.234187 32.508858 33.159056 -0.035847 0.198358 -0.000413 0.005033 1048500.000000 0 0 1
-6.237407 0.924187 33.861309 34.443397 -0.147098 0.184107 0.013182 -0.002777 -616212.000000 0 0 1
-6.867207 2.165487 34.049937 34.802961 -0.305468 0.208400 0.026732 -0.016106 -478522.000000 0 0 1
-6.394307 3.275387 33.315325 34.081171 -0.473388 0.212395 0.037821 -0.012884 129259.000000 0 0 1
-7.377007 4.492287 33.265010 34.368034 -0.546980 0.254038 0.046001 -0.019052 324260.000000 0 0 1
-8.613507 4.267987 32.628358 34.014967 -0.460041 0.286512 0.013181 -0.005101 120646.000000 0 0 1
-9.518707 5.307687 32.974648 34.729019 -0.508664 0.319209 0.007542 -0.004111 -202677.000000 0 0 1
-10.842907 5.309987 32.207468 34.396011 -0.455390 0.358648 -0.014989 0.002313 -326649.000000 0 0 1
-11.553007 6.493087 32.390318 34.996640 -0.512029 0.388373 -0.022149 0.004582 303978.000000 0 0 1
-12.766307 6.531287 31.601068 34.702504 -0.472887 0.425995 -0.036271 0.011451 569508.000000 0 0 1
-13.511307 7.792587 32.056948 35.650074 -0.523145 0.452833 -0.033229 0.009246 -374513.000000 0 0 1
-13.910307 7.873687 33.413235 37.039653 -0.515069 0.446200 -0.026105 0.009821 52246.300000 0 0 1
-14.304307 9.197987 33.709649 37.756544 -0.571454 0.467237 -0.027475 0.010462 25553.400000 0 0 1
-15.092107 9.516087 -34.017835 38.412767 -0.562569 2.658552 -0.020646 0.020067 145635.000000 0 0 1
-14.333807 9.633487 -32.841435 37.105551 -0.591742 2.657465 -0.017078 0.013084 -385790.000000 0 0 1
-15.154907 10.118887 -31.846125 36.691126 -0.588716 2.621859 -0.010857 0.006810 -897659.000000 0 0 1
-14.414207 10.282787 -30.502465 35.269044 -0.619649 2.615650 -0.005080 -0.000132 840684.000000 0 0 1
-13.460307 11.364887 -30.359725 35.100619 -0.701191 2.615816 0.006334 -0.000295 1169190.000000 0 0 1
-12.141507 11.051987 -30.849475 34.946426 -0.738457 2.652511 0.008589 -0.009098 342714.000000 0 0 1
-11.466707 12.317387 -31.340105 35.572540 -0.821150 2.648809 0.004876 -0.007741 -303642.000000 0 0 1
-12.257207 13.020787 -32.297335 36.917447 -0.815596 2.635928 -0.003737 -0.011928 706873.000000 0 0 1
-11.547607 14.253987 -32.617465 37.422218 -0.889908 2.629267 -0.001889 -0.012326 577874.000000 0 0 1
-11.626507 15.490487 -31.616055 37.077025 -0.926938 2.591953 -0.008097 -0.010146 -577547.000000 0 0 1
-12.841307 16.144187 -31.725885 37.842644 -0.898858 2.565070 -0.004607 -0.014402 -914048.000000 0 0 1
-13.031907 16.908087 -30.581755 37.295546 -0.914147 2.532180 -0.013809 -0.014463 172426.000000 0 0 1
-14.401507 17.642687 -30.644555 38.180578 -0.886203 2.502474 -0.021631 -0.018173 151047.000000 0 0 1
-14.483007 18.516587 -31.793395 39.540378 -0.907026 2.504913 -0.019282 -0.015168 -2282.390000 0 0 1
-15.753007 19.107487 -31.994365 40.458530 -0.881329 2.482902 -0.021151 -0.016581 227392.000000 0 0 1
-16.157107 20.307687 -31.097875 40.503482 -0.898735 2.446170 -0.036963 -0.013172 -559467.000000 0 0 1
-15.552307 21.524887 -31.437275 41.152124 -0.945111 2.440175 -0.033857 -0.003493 38396.000000 0 0 1
-16.207707 22.714087 -30.944425 41.667457 -0.951032 2.407818 -0.040197 -0.005696 -521943.000000 0 0 1
-17.490607 23.116187 -31.656355 42.923237 -0.923060 2.400174 -0.018332 -0.003436 -819296.000000 0 0 1
-18.591007 22.401287 -31.177675 42.655488 -0.878083 2.390463 -0.018044 -0.008665 -605915.000000 0 0 1
-19.618707 22.431887 -32.144735 43.833403 -0.852199 2.394016 0.005693 -0.011732 -627516.000000 0 0 1
-20.913107 21.695887 -31.754035 43.776573 -0.803767 2.382362 0.018222 -0.021722 -747100.000000 0 0 1
-21.682007 22.355287 -30.768785 43.778835 -0.800686 2.350155 0.038400 -0.022543 678534.000000 0 0 1
-22.582807 23.411287 -31.225865 45.090201 -0.803409 2.335773 0.051084 -0.015571 -589748.000000 0 0 1
-23.785307 23.015387 -32.014905 46.047834 -0.768949 2.339568 0.052740 -0.030041 -1802430.000000 0 0 1
-23.557407 22.293587 -33.206305 46.417821 -0.757842 2.367962 0.066087 -0.027179 -656517.000000 0 0 1
-24.712607 21.928287 -33.896115 47.334019 -0.725772 2.369002 0.081817 -0.032432 -496937.000000 0 0 1
-24.415507 21.031687 33.896120 46.769603 -0.711079 0.760130 0.083040 -0.027657 -257813.000000 0 0 1
-23.950607 19.769887 34.225947 46.215749 -0.690064 0.736880 0.082820 -0.030008 122752.000000 0 0 1
-23.641107 19.028387 33.033482 44.857467 -0.677713 0.743048 0.071943 -0.032675 -476877.000000 0 0 1
-23.281607 17.581587 33.413871 44.358000 -0.646802 0.717766 0.047864 -0.019094 -308401.000000 0 0 1
-24.274207 16.676687 33.868873 44.882620 -0.601956 0.715737 0.055992 -0.015979 384967.000000 0 0 1
-24.903007 16.010587 32.784998 44.174141 -0.571380 0.734485 0.060144 -0.013486 -204417.000000 0 0 1
-25.755587 14.758287 33.174466 44.516317 -0.520340 0.729931 0.040570 -0.005625 1494080.000000 0 0 1
-27.080567 15.019587 33.738059 45.795215 -0.506388 0.742596 0.044603 -0.004340 1991150.000000 0 0 1
-28.065277 13.964487 33.563857 45.926018 -0.461703 0.751267 0.040832 0.005808 698394.000000 0 0 1
-28.026917 12.727087 34.468753 46.212355 -0.426260 0.728945 0.023615 0.008049 -148610.000000 0 0 1
-26.829067 11.979687 34.348282 45.200843 -0.419955 0.707632 0.012614 0.011436 -218959.000000 0 0 1
-27.050977 10.620687 -34.278893 44.939925 -0.374126 2.438384 0.021007 0.010134 -1077520.000000 0 0 1
-25.877247 9.633287 -34.060629 43.846991 -0.356374 2.460375 0.009838 0.005151 31893.200000 0 0 1
-25.036507 9.190187 33.906154 43.138307 -0.351802 0.666505 0.007288 0.011722 233637.000000 0 0 1
-24.375207 10.295287 33.362029 42.581318 -0.399638 0.670534 0.000881 0.008929 -1507030.000000 0 0 1
-23.031407 10.006987 32.661128 41.198723 -0.409884 0.655455 0.008533 0.007215 -208764.000000 0 0 1
-23.050607 9.408687 31.392078 40.066400 -0.387534 0.670516 0.010568 0.006959 -366819.000000 0 0 1
-21.790007 9.486587 30.795908 38.899713 -0.410616 0.657251 0.005784 0.008759 -196671.000000 0 0 1
-21.872507 9.328687 29.263088 37.706223 -0.403143 0.682369 0.011969 0.002046 24660.900000 0 0 1
-22.459507 10.429187 28.590998 37.823836 -0.434727 0.713770 0.019327 -0.000720 262075.000000 0 0 1
-22.390407 10.399387 27.138658 36.687659 -0.434811 0.738140 0.017736 -0.004888 -549130.000000 0 0 1
-22.674007 11.815387 26.527718 36.843368 -0.480383 0.766975 0.016800 -0.005628 377418.000000 0 0 1
-24.009707 12.241387 26.684388 37.925903 -0.471498 0.790356 0.036293 -0.009592 307487.000000 0 0 1
-24.973107 11.765887 25.726278 37.735044 -0.440296 0.820629 0.037422 -0.006296 850186.000000 0 0 1
-26.345947 12.469587 26.023938 39.074862 -0.442062 0.841960 0.039165 -0.008567 381749.000000 0 0 1
-26.323957 13.852287 25.611388 39.252768 -0.484406 0.859953 0.048316 -0.015289 -499164.000000 0 0 1
-27.453337 14.589587 25.953038 40.498172 -0.488476 0.875198 0.035079 -0.012031 -459949.000000 0 0 1
-27.550727 15.956587 25.231828 40.623889 -0.524963 0.900640 0.034927 -0.015554 319901.000000 0 0 1
-26.628257 16.928587 25.742308 40.722323 -0.566284 0.886481 0.046706 -0.016496 524298.000000 0 0 1
-26.848577 18.065587 24.921398 40.844677 -0.592285 0.914546 0.033925 -0.020460 -29113.100000 0 0 1
-21.943107 -9.520913 32.195168 40.108311 0.409377 0.638978 0.010900 -0.008411 -597708.000000 0 0 1
-21.180107 -8.968113 31.207578 38.767730 0.400533 0.635140 0.005889 -0.006069 -409501.000000 0 0 1
-21.702107 -9.250513 29.917698 38.100159 0.402929 0.667716 0.018067 -0.003686 -108727.000000 0 0 1
-20.702607 -8.893113 28.790388 36.559155 0.405731 0.664052 0.021316 -0.006545 -607972.000000 0 0 1
-20.443407 -7.532413 28.608988 35.960316 0.353018 0.650847 0.022352 -0.006088 363317.000000 0 0 1
-19.312807 -7.040213 29.347128 35.830197 0.349565 0.611023 0.016553 -0.009076 696404.000000 0 0 1
-17.910807 -7.379013 28.722428 34.644259 0.390797 0.593359 0.028488 -0.009488 -271277.000000 0 0 1
-17.557407 -8.747313 28.787458 34.835266 0.462216 0.598133 0.024204 -0.009967 -282224.000000 0 0 1
-17.035607 -9.133113 30.027428 35.710952 0.492124 0.571951 0.029597 -0.012795 504842.000000 0 0 1
-15.605707 -8.676013 30.549358 35.384666 0.507401 0.528925 0.029283 -0.012666 1303220.000000 0 0 1
-14.506907 -9.370413 29.896548 34.526201 0.573507 0.523832 0.022451 -0.016303 -370453.000000 0 0 1
-13.314307 -8.903713 30.425958 34.384383 0.589432 0.484566 0.016198 -0.014657 -737028.000000 0 0 1
-12.125307 -9.730613 29.923898 33.721619 0.676266 0.479165 0.024182 -0.020482 -487336.000000 0 0 1
-11.855807 -9.554813 28.564298 32.369333 0.678339 0.489752 0.033895 -0.020304 -191008.000000 0 0 1
-10.671407 -10.254313 28.236408 31.879846 0.765469 0.482768 0.039159 -0.014015 -26224.900000 0 0 1
-10.191007 -9.853113 26.800838 30.318730 0.768542 0.486511 0.031983 -0.009419 -182789.000000 0 0 1
-11.035807 -10.336413 25.804338 29.908098 0.752685 0.530038 0.027580 -0.004093 -308290.000000 0 0 1
-10.537807 -10.048113 24.515638 28.513619 0.761615 0.535944 0.005132 0.004474 138958.000000 0 0 1
-11.467507 -10.487913 23.340458 28.040632 0.740810 0.587408 0.002489 0.010337 -499438.000000 0 0 1
-11.493207 -11.903713 23.221058 28.513325 0.802942 0.619114 0.011941 0.008526 233178.000000 0 0 1
-12.628607 -12.454313 22.566058 28.702240 0.778450 0.666141 0.013307 0.012655 385324.000000 0 0 1
-13.897507 -12.422013 23.464858 29.967427 0.729396 0.671303 0.018646 0.009135 -623789.000000 0 0 1
-14.985107 -13.134813 22.930758 30.379210 0.719693 0.715421 0.015353 0.013574 -665341.000000 0 0 1
-16.024407 -13.149113 23.838358 31.590317 0.687157 0.715737 0.010183 0.012395 -958505.000000 0 0 1
-17.282707 -13.858213 23.375558 32.204949 0.675871 0.758545 0.026912 0.004437 -771211.000000 0 0 1
-17.178807 -15.226113 23.449158 32.814767 0.725212 0.774756 0.026444 0.004735 726335.000000 0 0 1
-18.426007 -15.889213 23.187558 33.610232 0.711606 0.809451 0.038869 0.003417 1436930.000000 0 0 1
-19.535207 -15.957613 24.316678 35.036703 0.684940 0.803718 0.030142 0.001477 114614.000000 0 0 1
-19.067707 -16.749513 25.389168 35.898934 0.720765 0.785210 0.030867 0.004113 -72880.300000 0 0 1
-19.863307 -16.510713 26.499638 37.005208 0.693488 0.772589 0.030712 0.002371 -211685.000000 0 0 1
-19.289607 -17.222513 27.743668 37.926442 0.728845 0.750259 0.033859 0.003100 51980.900000 0 0 1
-19.383607 -18.606713 27.687978 38.581837 0.764951 0.770385 0.033469 0.005543 82587.000000 0 0 1
-19.168107 -19.253213 28.943448 39.696671 0.787613 0.753768 0.032381 0.000325 -440451.000000 0 0 1
-19.133507 -20.759313 28.785768 40.319482 0.826130 0.775685 0.034038 0.002052 -170107.000000 0 0 1
-20.330107 -21.379913 28.389348 40.943486 0.810562 0.804629 0.039066 0.001054 -168320.000000 0 0 1
-20.047107 -22.692213 28.009518 41.247498 0.847209 0.824315 0.042154 -0.000858 -604067.000000 0 0 1
-21.311507 -23.341313 27.539448 41.921575 0.830824 0.854060 0.043396 0.007261 -372837.000000 0 0 1
-22.134707 -23.877713 28.589858 43.329787 0.823261 0.850217 0.041974 0.006623 677671.000000 0 0 1
-23.286607 -24.510613 28.001008 43.898664 0.811001 0.879086 0.020215 0.008750 652038.000000 0 0 1
-24.015307 -25.449743 28.997128 45.445108 0.814389 0.878808 0.009343 0.007277 75104.300000 0 0 1
-24.846207 -24.850113 29.986488 46.195796 0.785477 0.864373 0.010734 0.009248 89814.800000 0 0 1
-25.507417 -25.822503 30.750328 47.571133 0.791537 0.867930 0.006041 0.009792 189144.000000 0 0 1
-26.564467 -25.215233 31.725168 48.455806 0.759347 0.856979 0.019276 0.001831 -241.717000 0 0 1
-27.573787 -24.592913 30.997118 48.228067 0.728319 0.872754 0.015703 0.002300 150340.000000 0 0 1
-28.780667 -24.356013 31.752978 49.292938 0.702321 0.870860 0.021594 -0.006536 6752.550000 0 0 1
-29.737857 -23.680113 30.820628 48.938727 0.672478 0.889526 0.023418 -0.006198 -1165390.000000 0 0 1
-30.248547 -24.645413 29.917248 49.167191 0.683678 0.916653 0.013166 0.001813 1507490.000000 0 0 1
-31.571347 -24.548513 29.304918 49.579811 0.660905 0.938417 0.008553 -0.002168 1365580.000000 0 0 1
-32.781537 -24.812113 30.208308 51.017762 0.647898 0.937117 0.007083 -0.001384 -616588.000000 0 0 1
-32.793087 -26.202503 30.556858 51.919932 0.674146 0.941547 0.014804 -0.011147 -620038.000000 0 0 1
-33.778537 -26.561073 31.438818 53.243586 0.666350 0.939153 0.012470 -0.011430 -594726.000000 0 0 1
-33.819797 -28.100793 31.614038 54.156077 0.693299 0.947447 0.018649 -0.014520 -102947.000000 0 0 1
-32.791867 -28.578663 32.451928 54.269459 0.716854 0.929821 0.014531 -0.003397 -157449.000000 0 0 1
-32.745597 -29.970043 32.618698 55.085906 0.741171 0.937082 0.010935 -0.002307 -221278.000000 0 0 1
-31.801017 -30.402183 33.725358 55.434621 0.762914 0.916778 0.019659 -0.008406 46403.500000 0 0 1
-32.348187 -30.336503 -33.978195 55.867937 0.753317 2.224572 0.022003 -0.008319 -477157.000000 0 0 1
-31.309897 -30.515373 -33.065515 54.816293 0.772548 2.218311 0.015996 -0.007541 -212046.000000 0 0 1
-31.654007 -30.074453 -31.645525 53.924838 0.759815 2.197953 0.018660 -0.012654 -47532.800000 0 0 1
-31.835337 -28.688833 -31.424965 53.141944 0.733457 2.203516 0.011700 -0.009768 -835389.000000 0 0 1
-30.626357 -28.017983 -31.307995 51.992035 0.740950 2.217012 0.022349 -0.005057 -769946.000000 0 0 1
-30.653207 -26.493663 -31.088045 51.068580 0.712739 2.225282 0.016140 -0.002400 -429383.000000 0 0 1
-31.326447 -26.101443 -29.913975 50.571509 0.694664 2.203737 0.010208 -0.009333 -123294.000000 0 0 1
-31.309487 -24.700113 -29.807095 49.787975 0.667937 2.212649 0.003310 -0.001978 342511.000000 0 0 1
-29.996847 -24.068113 -29.244495 48.314857 0.676175 2.220926 0.008468 -0.003631 307855.000000 0 0 1
-30.048917 -22.673813 -29.248905 47.671141 0.646415 2.231352 0.003347 0.000863 -189665.000000 0 0 1
-28.957807 -22.233313 -28.497255 46.313803 0.654785 2.233573 0.019227 -0.000651 -263844.000000 0 0 1
-28.601567 -20.736113 -28.720345 45.529048 0.627308 2.253398 0.020260 -0.007646 -293312.000000 0 0 1
-28.035587 -20.512213 -29.956725 45.871019 0.631653 2.282420 0.017207 -0.000841 158685.000000 0 0 1
-27.672207 -19.127913 -29.953205 45.042453 0.604817 2.298289 0.013571 -0.002349 -315687.000000 0 0 1
-27.219937 -18.557313 -31.346965 45.474510 0.598375 2.331361 0.012503 -0.000779 -166617.000000 0 0 1
-28.193717 -18.407313 -32.344545 46.689233 0.578402 2.336109 0.015277 -0.005557 -266409.000000 0 0 1
-29.037607 -17.309913 -32.064685 46.593559 0.537562 2.329772 0.009932 -0.006708 -595466.000000 0 0 1
-29.514727 -16.573013 -33.388455 47.545481 0.511642 2.349339 0.009446 -0.012283 444456.000000 0 0 1
-30.456457 -17.362813 -34.116673 48.918406 0.518134 2.342587 0.008557 -0.016986 1063930.000000 0 0 1
-31.836387 -17.007813 -33.994025 49.582406 0.490652 2.326233 0.005094 -0.010389 671525.000000 0 0 1
-32.800647 -17.697213 34.074924 50.499250 0.494776 0.830156 0.011143 -0.017553 -133001.000000 0 0 1
-32.988127 -19.078513 34.298824 51.270026 0.524344 0.837955 0.002639 -0.014026 516123.000000 0 0 1
-34.021907 -19.554813 33.413275 51.539575 0.521662 0.865443 0.009690 -0.015903 293600.000000 0 0 1
-34.389500 -21.061513 33.640611 52.515862 0.549517 0.875543 0.012799 -0.017676 255160.000000 0 0 1
-33.495487 -22.008113 33.082139 51.968573 0.581313 0.880741 0.017601 -0.016632 131299.000000 0 0 1
-33.885087 -23.206813 33.702512 53.128285 0.600498 0.883615 0.015155 -0.015929 -137329.000000 0 0 1
-32.695017 -24.176713 33.931770 52.960765 0.636722 0.875391 0.006489 -0.010555 537716.000000 0 0 1
-31.695387 -24.003113 -34.121259 52.392817 0.648161 2.280038 -0.001789 -0.010918 -58317.100000 0 0 1
-30.876617 -22.896213 -34.286564 51.508936 0.638064 2.299151 0.005229 -0.010305 -1429390.000000 0 0 1
-29.608117 -22.993013 -33.431845 50.229548 0.660295 2.299069 0.011320 -0.005078 -1044530.000000 0 0 1
-28.850737 -24.081013 -33.877445 50.595864 0.695530 2.304425 0.011189 -0.003284 336198.000000 0 0 1
-27.494937 -24.089213 -33.424375 49.532319 0.719471 2.311489 0.019484 -0.001780 717232.000000 0 0 1
-27.284547 -24.427113 -31.905455 48.570448 0.730197 2.287483 0.025161 0.005866 -803534.000000 0 0 1
-27.278837 -25.836253 -31.639715 49.119431 0.758245 2.270693 0.021255 -0.003856 -53977.500000 0 0 1
-26.927467 -26.036593 -30.315585 48.187419 0.768579 2.251215 0.017438 -0.006224 -257499.000000 0 0 1
-26.525897 -27.485183 -30.021015 48.583123 0.803157 2.236905 0.020789 -0.014352 306934.000000 0 0 1
-27.603077 -28.419303 -30.049205 49.724656 0.799967 2.219698 0.022507 -0.007432 182646.000000 0 0 1
-27.113087 -29.706173 -29.811835 50.063177 0.831004 2.208665 0.018962 -0.013622 117178.000000 0 0 1
-28.057187 -30.898913 -30.207275 51.521142 0.833562 2.197290 0.029968 0.002242 92714.900000 0 0 1
-27.991447 -31.162183 -31.579585 52.458297 0.838949 2.216792 0.037623 -0.014981 222135.000000 0 0 1
-28.343647 -32.505513 -31.804315 53.586240 0.853688 2.206217 0.065804 -0.004114 -484547.000000 0 0 1
-27.815547 -32.974713 -33.187745 54.428511 0.870064 2.226541 0.028204 -0.012422 961753.000000 0 0 1
-26.375907 -32.848973 -33.205305 53.640803 0.894262 2.238304 0.042522 -0.018512 832868.000000 0 0 1
-25.921087 -33.373283 -34.450754 54.520943 0.910424 2.254774 0.047360 -0.023314 -537754.000000 0 0 1
-24.416107 -33.557473 34.473182 53.950445 0.941792 0.877627 0.047505 -0.022661 -284549.000000 0 0 1
-23.853807 -33.960633 33.216686 53.157097 0.958464 0.895821 0.037572 -0.014325 278596.000000 0 0 1
-22.945607 34.052994 33.418272 52.942310 -0.977857 0.887670 0.023143 -0.000097 69315.400000 0 0 1
-22.823507 33.163655 32.151458 51.521420 -0.968028 0.896893 0.035627 -0.003147 360215.000000 0 0 1
-24.080307 32.565491 31.808598 51.499119 -0.934086 0.905041 0.051593 -0.017964 476821.000000 0 0 1
-23.857607 31.780331 30.667298 50.196195 -0.926845 0.913538 0.043329 -0.009155 -195287.000000 0 0 1
-25.068027 30.991081 30.136748 49.970758 -0.890665 0.923430 0.043048 -0.006901 -95063.500000 0 0 1
-25.571947 29.929201 30.953808 50.078137 -0.863745 0.904460 0.041543 -0.009128 606150.000000 0 0 1
-26.721117 29.275771 30.412098 49.959830 -0.830988 0.916336 0.033226 -0.009655 642921.000000 0 0 1
-27.208087 28.152451 31.360868 50.163179 -0.802455 0.895438 0.033654 -0.028858 -217804.000000 0 0 1
-26.486697 26.998211 31.027018 48.919570 -0.794962 0.883764 0.043324 -0.022589 -32958.900000 0 0 1
-26.974167 25.789491 31.550648 48.868670 -0.762949 0.868960 0.046415 -0.022491 -423834.000000 0 0 1
-28.127287 25.262081 30.750308 48.732930 -0.731783 0.887959 0.049811 -0.018530 -434579.000000 0 0 1
-27.591347 24.800031 29.511808 47.405388 -0.732170 0.898811 0.048213 -0.017691 10964.000000 0 0 1
-28.515487 24.169781 28.650208 47.097195 -0.703100 0.916853 0.041029 -0.008475 -230120.000000 0 0 1
-27.922987 23.894051 27.255798 45.754753 -0.707801 0.932668 0.049459 -0.016891 -415891.000000 0 0 1
-26.834317 23.045751 27.492508 44.799835 -0.709590 0.910090 0.052725 -0.022580 -526817.000000 0 0 1
-26.133847 22.813851 26.309828 43.539141 -0.717674 0.921935 0.042532 -0.017351 -407324.000000 0 0 1
-24.753207 22.212351 26.616248 42.597353 -0.731350 0.895878 0.031983 -0.023432 -337661.000000 0 0 1
-24.900507 20.890951 27.138488 42.343413 -0.698060 0.875108 0.055910 -0.032909 1145910.000000 0 0 1
-23.641907 20.422851 27.666778 41.731082 -0.712475 0.846007 0.045777 -0.034012 768644.000000 0 0 1
-23.725607 19.006051 28.331798 41.555086 -0.675398 0.820591 0.059671 -0.028660 -261224.000000 0 0 1
-22.441007 18.536251 28.628778 40.826442 -0.690394 0.793673 0.046908 -0.025459 -165466.000000 0 0 1
-22.515507 17.340851 29.307288 40.823649 -0.656288 0.770016 0.047380 -0.022921 -378062.000000 0 0 1
-21.307607 16.378651 29.245438 39.718635 -0.655347 0.743188 0.048432 -0.021908 415525.000000 0 0 1
-20.264607 16.941551 30.080308 40.031180 -0.696320 0.720582 0.057339 -0.020494 663856.000000 0 0 1
-19.115207 16.107251 30.095528 39.122570 -0.700206 0.693110 0.041156 -0.021432 467705.000000 0 0 1
-17.971207 16.576851 31.041638 39.513790 -0.745060 0.667147 0.027711 -0.021911 -217290.000000 0 0 1
-18.111407 16.174051 32.379308 40.472739 -0.728952 0.643455 0.009218 -0.013968 1279180.000000 0 0 1
-16.944307 16.620151 33.124399 40.750028 -0.775741 0.621737 -0.000486 -0.012180 265906.000000 0 0 1
-17.071307 16.177551 -34.415691 41.684319 -0.758524 2.542109 -0.010859 -0.020944 796793.000000 0 0 1
-18.058407 16.870851 -33.606555 41.714892 -0.751412 2.507526 0.007877 -0.022315 1149630.000000 0 0 1
-19.408907 16.606751 -33.953465 42.489147 -0.707751 2.496608 0.014756 -0.019827 644969.000000 0 0 1
-20.583107 17.313751 -33.131105 42.674353 -0.699341 2.459683 0.013949 -0.035913 918259.000000 0 0 1
-20.654307 16.930751 -31.777205 41.509535 -0.686650 2.442676 0.011547 -0.033368 292349.000000 0 0 1
-21.547807 17.830051 -31.110985 41.834341 -0.691265 2.409341 0.007800 -0.025233 -147509.000000 0 0 1
-21.687107 17.570451 -29.553245 40.650285 -0.680917 2.384756 0.003380 -0.018499 75882.100000 0 0 1
-22.405107 16.390751 -29.137435 40.244697 -0.631597 2.380390 0.006097 -0.020951 608071.000000 0 0 1
-23.816907 16.473451 -29.376155 41.250190 -0.605114 2.363347 0.029721 -0.021657 446983.000000 0 0 1
-24.600207 15.590051 -28.392905 40.674033 -0.564857 2.343481 0.028201 -0.013249 -213466.000000 0 0 1
-24.410307 14.215251 -28.697965 40.267973 -0.527338 2.364100 -0.003730 -0.005276 198870.000000 0 0 1
-25.229017 13.395951 -27.852455 39.896291 -0.488119 2.343567 -0.016991 -0.005240 39956.900000 0 0 1
-25.026507 11.889251 -27.808155 39.255240 -0.443502 2.358016 -0.007781 -0.006867 27998.400000 0 0 1
-23.886607 11.395151 -27.128415 37.899477 -0.445121 2.368564 -0.006317 -0.004234 -155801.000000 0 0 1
-23.401307 10.247251 -27.704275 37.684933 -0.412740 2.396692 -0.012493 -0.000975 111470.000000 0 0 1
-22.236407 9.595151 -26.898065 36.194345 -0.407369 2.408572 0.017035 -0.004721 118367.000000 0 0 1
-22.650807 8.843351 -25.753955 35.419347 -0.372221 2.384907 0.012338 -0.002864 -196358.000000 0 0 1
-21.605207 8.242051 -25.019405 34.068857 -0.364444 2.395546 0.041895 -0.001386 -240648.000000 0 0 1
-22.082007 7.107151 -24.147405 33.484680 -0.311383 2.376254 0.043447 -0.000081 -88284.900000 0 0 1
-22.688907 6.055851 -24.886105 34.216634 -0.260828 2.385191 0.038470 -0.001891 291520.000000 0 0 1
-22.504607 4.782551 -24.328205 33.484201 -0.209399 2.384095 0.038046 0.014175 -443937.000000 0 0 1
34.048166 24.963587 -10.762605 43.569393 0.632652 1.820402 -0.028431 -0.004663 120083.000000 0 0 1
34.809535 24.271287 -9.762305 43.544250 0.608884 1.796911 -0.013126 -0.006433 450705.000000 0 0 1
-34.916620 23.225987 -10.362105 43.197107 -0.586976 1.813038 -0.003212 -0.004650 520958.000000 0 0 1
-33.858097 22.597787 -9.385105 41.774525 -0.588528 1.797391 0.008083 -0.004427 189902.000000 0 0 1
-34.414056 21.769687 -8.405405 41.580012 -0.564032 1.774349 0.007426 -0.006144 -31110.100000 0 0 1
-33.403687 21.217787 -7.575005 40.291209 -0.565896 1.759928 0.012836 -0.008428 -56727.700000 0 0 1
-33.918457 20.186787 -6.534805 40.008396 -0.536850 1.734867 0.008354 -0.009951 -271416.000000 0 0 1
-34.487317 19.025787 -7.050005 40.013225 -0.504128 1.747913 0.005405 -0.022787 407076.000000 0 0 1
-34.929287 18.132387 -5.974805 39.806241 -0.478824 1.721463 -0.004215 -0.033172 -235544.000000 0 0 1
34.749951 17.001887 -6.570205 39.240169 0.455022 1.739024 0.003256 -0.020726 -704473.000000 0 0 1
33.482346 17.335287 -7.044505 38.356287 0.477742 1.755505 0.014762 -0.023769 -557142.000000 0 0 1
32.994006 16.273687 -7.802505 37.607398 0.458218 1.779787 0.026977 -0.013729 -593502.000000 0 0 1
31.759956 16.604587 -8.613405 36.859163 0.481733 1.806661 0.041604 -0.024443 -456869.000000 0 0 1
31.239826 15.529687 -9.392105 36.129068 0.461334 1.833777 0.046521 -0.024733 -29278.600000 0 0 1
30.861946 15.962987 -10.692105 36.353786 0.477343 1.869323 0.041507 -0.019091 -577297.000000 0 0 1
30.234526 14.739787 -11.489405 35.544259 0.453610 1.899950 0.037693 -0.014436 330908.000000 0 0 1
28.955956 14.255787 -11.095605 34.128981 0.457490 1.901922 0.026840 -0.003450 620165.000000 0 0 1
28.870456 13.838687 -9.765005 33.471896 0.446981 1.866839 0.043704 -0.008798 -600993.000000 0 0 1
27.792696 12.717687 -9.508105 32.009024 0.429149 1.872392 0.040126 -0.006141 370145.000000 0 0 1
28.166746 11.562287 -10.178305 32.103738 0.389520 1.893408 0.033873 -0.001416 545977.000000 0 0 1
27.311586 10.480187 -9.859105 30.870034 0.366400 1.895866 0.027386 0.009788 -345350.000000 0 0 1
27.767626 9.185687 -10.495905 31.073814 0.319474 1.915346 0.022076 0.013492 429681.000000 0 0 1
28.942396 8.651887 -9.850205 31.773322 0.290479 1.886005 0.027222 0.008203 1012580.000000 0 0 1
28.809996 7.294987 -9.589705 31.228115 0.247998 1.882925 0.030417 0.007773 -27092.600000 0 0 1
29.976646 6.868187 -8.637205 31.943272 0.225230 1.844596 0.049872 0.003745 -67495.900000 0 0 1
31.255376 7.047987 -9.163805 33.324885 0.221787 1.849369 0.044247 0.000607 -766006.000000 0 0 1
32.191306 6.641787 -8.190905 33.874540 0.203467 1.815018 0.045750 -0.007592 -79365.900000 0 0 1
33.608176 7.041787 -8.687605 35.419920 0.206538 1.818599 0.033678 -0.006961 -27859.700000 0 0 1
34.128716 6.171087 -9.654205 36.000767 0.178885 1.842286 0.031286 -0.003719 -216100.000000 0 0 1
-35.061578 6.499087 -10.010605 37.037340 -0.183282 1.844484 0.027021 -0.005322 -1082150.000000 0 0 1
-34.452275 5.569187 -11.107605 36.624500 -0.160263 1.878933 0.035252 -0.012432 448294.000000 0 0 1
-33.114297 5.875487 -11.504305 35.544719 -0.175603 1.900389 0.036865 -0.009525 833761.000000 0 0 1
-32.932737 7.007987 -12.322905 35.854303 -0.209670 1.921644 0.015545 -0.007520 -263382.000000 0 0 1
-32.044457 8.109287 -11.612905 35.035230 -0.247860 1.908651 0.012883 0.007125 -140566.000000 0 0 1
-32.671427 8.904787 -10.586805 35.479541 -0.266092 1.873804 0.021196 -0.000630 124800.000000 0 0 1
-33.388667 9.998487 -11.132205 36.588234 -0.290959 1.879954 0.025225 -0.004936 360222.000000 0 0 1
-34.226471 10.718487 -10.038105 37.243803 -0.303489 1.843695 0.033526 -0.000155 1016570.000000 0 0 1
-33.303907 11.389687 -9.132205 36.363063 -0.329523 1.824654 0.021556 -0.004753 1037590.000000 0 0 1
-34.013357 12.340187 -8.362705 37.136552 -0.348036 1.797932 0.033932 -0.008178 205986.000000 0 0 1
-33.038087 13.243787 -7.567205 36.389225 -0.381251 1.780277 0.041282 -0.005521 118138.000000 0 0 1
-32.333687 14.107787 -8.418105 36.267913 -0.411418 1.805042 0.029908 -0.014614 85280.200000 0 0 1
-31.331397 14.807587 -7.690105 35.497307 -0.441498 1.789167 0.032293 -0.011720 486156.000000 0 0 1
-30.547607 15.926287 -8.418505 35.463702 -0.480589 1.810468 0.019178 -0.009800 -19613.300000 0 0 1
-31.460867 16.883987 -8.826905 36.780014 -0.492549 1.813154 0.026198 -0.009998 -176309.000000 0 0 1
-30.764487 18.007887 -9.375505 36.859704 -0.529575 1.827979 0.020178 -0.003595 -56904.100000 0 0 1
-31.498457 19.058187 -10.217105 38.206760 -0.544126 1.841507 0.004055 -0.005021 -227198.000000 0 0 1
-31.444207 18.665687 -11.583205 38.357746 -0.535710 1.877563 -0.002999 -0.001263 129371.000000 0 0 1
-32.471027 19.312287 -12.315005 39.736525 -0.536554 1.885902 -0.006347 -0.007041 -133765.000000 0 0 1
-32.206467 19.331787 -13.850505 40.035122 -0.540600 1.924057 -0.016787 0.008191 217457.000000 0 0 1
-31.328997 20.421987 -14.165705 39.990384 -0.577679 1.932885 -0.013517 0.010068 431426.000000 0 0 1
-31.281887 20.679987 -15.545005 40.593910 -0.584128 1.963772 -0.027779 0.013517 -155745.000000 0 0 1
-30.318237 21.864987 -15.930805 40.633283 -0.624802 1.973669 0.001896 0.002793 684178.000000 0 0 1
-28.951347 21.605187 -15.603705 39.350225 -0.641102 1.978535 -0.010794 0.007479 846951.000000 0 0 1
-28.113327 22.761587 -15.454005 39.335420 -0.680590 1.974555 -0.006140 0.006149 435150.000000 0 0 1
-27.612997 23.510887 -16.757105 39.950469 -0.705331 2.003632 -0.008476 0.005579 -78751.400000 0 0 1
-28.664117 24.110187 -17.521405 41.351328 -0.699321 2.008345 0.000125 0.012161 387888.000000 0 0 1
-28.156617 24.833387 -18.640305 41.916025 -0.722766 2.031642 -0.006209 0.014000 228744.000000 0 0 1
-27.248477 26.065687 -18.332305 41.928188 -0.763217 2.023314 0.001022 0.018192 376589.000000 0 0 1
-28.025117 27.108887 -17.765605 42.847587 -0.768781 1.998325 0.003521 0.024674 216164.000000 0 0 1
-27.313767 28.355087 -17.712805 43.171707 -0.804102 1.993565 0.012693 0.014688 -88096.100000 0 0 1
-28.084827 29.575287 -17.237305 44.278435 -0.811241 1.970661 0.012263 0.017154 -255453.000000 0 0 1
-28.375857 29.877287 -15.850105 44.148243 -0.811167 1.938014 0.010714 0.009851 -518230.000000 0 0 1
-27.229917 29.862387 -15.072305 43.132412 -0.831475 1.927773 0.018718 0.006118 -679416.000000 0 0 1
-27.340937 30.471987 -13.702805 43.172164 -0.839504 1.893782 0.019829 0.000157 -283915.000000 0 0 1
-27.152807 31.884287 -13.799205 44.094226 -0.865371 1.889092 0.033620 0.000987 133470.000000 0 0 1
-27.241557 32.492087 -12.524105 44.211892 -0.873072 1.858003 0.034113 -0.003714 -36877.000000 0 0 1
-26.635847 33.932387 -12.541705 44.924043 -0.905289 1.853732 0.015370 -0.004149 -59302.400000 0 0 1
-27.218507 -34.266077 -13.474605 45.788384 0.899523 1.869498 0.003410 -0.010581 75110.000000 0 0 1
-26.397417 -33.114777 -13.674105 44.501609 0.897796 1.883121 0.008775 -0.008110 -33166.000000 0 0 1
-26.676017 -32.307777 -14.917305 44.473906 0.880589 1.912844 0.003160 -0.002773 -123641.000000 0 0 1
-26.299777 -33.007777 -16.069405 45.159909 0.898025 1.934602 0.005418 -0.001509 -46143.700000 0 0 1
-26.820327 -32.306477 -17.189005 45.370699 0.877919 1.959357 0.019708 0.008084 136444.000000 0 0 1
-26.071947 -32.594377 -18.564905 45.681457 0.896122 1.989306 0.005150 0.004158 110949.000000 0 0 1
-26.214337 -33.893677 -19.148905 46.932434 0.912469 1.991070 0.005445 0.005325 -65831.600000 0 0 1
-25.384617 34.183687 -18.613205 46.468857 -0.932052 1.982916 -0.001399 0.001716 -537420.000000 0 0 1
-25.543817 32.782887 -19.283505 45.815476 -0.908879 2.005228 0.010827 -0.007721 1198960.000000 0 0 1
-26.884807 32.247187 -19.187305 46.160877 -0.875836 1.999466 0.012118 -0.003609 1214800.000000 0 0 1
-27.793497 32.812887 -20.135605 47.482698 -0.868029 2.008722 0.008010 0.009327 -439407.000000 0 0 1
-29.221777 32.284187 -20.245805 48.021595 -0.835148 2.006003 0.003963 0.009627 -205792.000000 0 0 1
-29.416817 30.986087 -20.696205 47.474410 -0.811372 2.021884 -0.001196 0.006773 273090.000000 0 0 1
-30.794267 30.730887 -20.933805 48.279380 -0.784368 2.019277 0.003113 0.006844 150545.000000 0 0 1
-31.107847 29.333087 -21.482605 47.850083 -0.756043 2.036393 0.004102 0.008699 -1160580.000000 0 0 1
-32.410047 29.347787 -21.949705 48.923341 -0.735854 2.036056 0.001424 0.007161 -661228.000000 0 0 1
-32.608437 28.068987 -22.583905 48.592293 -0.710724 2.054163 0.004557 0.006186 -102091.000000 0 0 1
-34.050097 27.532687 -22.702705 49.324140 -0.679959 2.049102 0.004557 0.001801 301828.000000 0 0 1
-34.956180 28.276087 -23.524805 50.743355 -0.680145 2.052854 -0.003157 0.007431 -252829.000000 0 0 1
34.453852 27.444487 -23.811405 50.072456 0.672639 2.066373 -0.005210 0.010834 -102649.000000 0 0 1
33.730076 27.960687 -25.116025 50.500819 0.692148 2.091325 0.001331 0.005303 -142773.000000 0 0 1
34.398506 27.653387 -26.341795 51.399000 0.677122 2.108886 0.013288 -0.009109 -324500.000000 0 0 1
33.635776 27.973087 -27.506815 51.676725 0.693742 2.132095 0.016401 -0.000438 14585.800000 0 0 1
34.417016 28.053487 -28.873085 52.963989 0.683884 2.147359 0.017694 -0.005457 -246502.000000 0 0 1
34.806974 26.797987 -29.366685 52.839945 0.656118 2.160081 0.012442 -0.003231 -173343.000000 0 0 1
-34.949102 27.009187 -30.551165 53.705769 -0.657943 2.175918 0.000200 -0.000476 -920261.000000 0 0 1
-34.475473 25.675087 -31.082425 53.046069 -0.640123 2.196850 0.002496 -0.003470 662423.000000 0 0 1
-33.465577 24.979387 -30.352035 51.625194 -0.641206 2.199295 0.024925 -0.004203 279321.000000 0 0 1
-32.197077 25.544987 -30.157895 50.977414 -0.670700 2.203830 0.025818 -0.006742 -297770.000000 0 0 1
-31.227597 24.810087 -29.206535 49.434046 -0.671374 2.202869 0.020750 -0.005685 -118039.000000 0 0 1
-30.648247 23.592587 -29.733735 48.785451 -0.656044 2.226200 0.047913 -0.017188 451093.000000 0 0 1
-31.338847 22.442987 -29.265345 48.397019 -0.621476 2.220177 0.043990 -0.007827 57338.700000 0 0 1
-30.815517 21.234587 -30.061005 48.001748 -0.603365 2.247528 0.047820 -0.015224 24236.300000 0 0 1
-29.453877 20.951887 -29.794085 46.842288 -0.618300 2.260166 0.054795 -0.020606 30912.700000 0 0 1
-29.147187 19.652187 -30.363065 46.450863 -0.593227 2.283207 0.048766 -0.026081 -489471.000000 0 0 1
-27.684347 19.236587 -30.242285 45.288687 -0.607264 2.302001 0.066638 -0.027160 -360116.000000 0 0 1
-26.824097 19.834787 -31.218775 45.689855 -0.636708 2.323036 0.075917 -0.028910 604400.000000 0 0 1
-25.661407 19.073887 -31.575775 44.937184 -0.639193 2.349932 0.066135 -0.035356 364524.000000 0 0 1
-25.821697 17.793787 -32.404985 45.093924 -0.603374 2.372599 0.054729 -0.028938 -337143.000000 0 0 1
-26.413457 16.735787 -31.635875 44.481298 -0.564766 2.362025 0.036380 -0.021078 281947.000000 0 0 1
-26.449247 15.523687 -32.361655 44.585023 -0.530749 2.383053 0.017470 -0.007779 44708.100000 0 0 1
-27.038907 14.411387 -31.426065 43.890638 -0.489688 2.368864 0.019108 -0.006543 -618501.000000 0 0 1
-28.345127 14.560187 -30.965115 44.432912 -0.474528 2.341856 0.022515 -0.004507 -483283.000000 0 0 1
-28.976717 13.293587 -30.915035 44.408434 -0.430121 2.340820 0.017935 -0.000975 -151538.000000 0 0 1
-28.625997 12.399987 -29.654575 43.041854 -0.408772 2.330864 -0.007311 -0.012861 -478423.000000 0 0 1
-29.041467 12.860287 -28.409355 42.613205 -0.416871 2.300541 -0.012098 -0.010252 216070.000000 0 0 1
-29.151367 11.807987 -27.427875 41.731512 -0.384859 2.287955 -0.010251 -0.009059 -122206.000000 0 0 1
-29.161407 12.383587 -26.018835 40.996593 -0.401580 2.258363 -0.021233 -0.002441 916924.000000 0 0 1
-27.846227 12.824787 -25.601135 39.941277 -0.431599 2.266557 -0.020286 0.000817 915005.000000 0 0 1
-27.834027 13.790887 -24.607105 39.628667 -0.460016 2.240740 -0.025701 0.004730 557723.000000 0 0 1
-26.402907 13.992687 -24.000505 38.326662 -0.487333 2.247478 -0.016356 0.013358 731879.000000 0 0 1
-25.473647 14.745887 -24.815705 38.498923 -0.524737 2.271272 0.002720 0.005402 844794.000000 0 0 1
-24.101107 14.630687 -24.493205 37.347523 -0.545591 2.286063 -0.005980 0.007220 448626.000000 0 0 1
-23.610507 15.249687 -23.165305 36.423075 -0.573477 2.260108 -0.009581 0.020676 -970934.000000 0 0 1
-23.967107 16.649887 -23.156605 37.254118 -0.607158 2.241561 0.004200 0.015285 337075.000000 0 0 1
-23.980707 17.225387 -21.871805 36.744580 -0.622904 2.208359 -0.002806 0.023009 -349369.000000 0 0 1
-25.389577 17.432687 -21.286805 37.438714 -0.601681 2.175572 -0.006704 0.019212 94779.600000 0 0 1
-26.186637 16.264287 -21.222105 37.425189 -0.555783 2.173721 -0.000996 0.018825 1505760.000000 0 0 1
-27.515877 16.516587 -20.697005 38.187526 -0.540608 2.143592 -0.000705 0.020246 1035080.000000 0 0 1
-28.686057 15.475587 -20.932705 38.737086 -0.494731 2.141684 -0.017471 0.016258 881405.000000 0 0 1
-29.275677 15.440387 -22.262505 39.888469 -0.485337 2.162913 -0.017351 0.013816 132642.000000 0 0 1
-30.007917 16.601887 -22.474105 41.002233 -0.505335 2.150910 -0.017986 0.010982 -1153830.000000 0 0 1
-30.643737 16.650287 -23.868905 42.261038 -0.497724 2.170983 -0.016928 0.005508 -65021.300000 0 0 1
-31.700287 15.756987 -24.161205 42.859709 -0.461294 2.169688 -0.004658 0.000621 74638.100000 0 0 1
-32.161847 15.894387 -25.458905 43.990588 -0.458997 2.187973 0.012564 -0.013031 933586.000000 0 0 1
-33.368807 14.957987 -25.947395 44.838443 -0.421408 2.187913 0.003958 -0.008729 876791.000000 0 0 1
-33.136817 13.545087 -25.936935 44.206817 -0.388037 2.197796 -0.002855 -0.014596 -34259.300000 0 0 1
-32.941787 12.856787 -24.714105 43.142152 -0.372106 2.180779 -0.016489 -0.003807 -231497.000000 0 0 1
-32.870597 11.337887 -24.934205 42.787129 -0.332146 2.192905 -0.007281 -0.010776 123830.000000 0 0 1
-34.057447 10.739587 -25.449175 43.850986 -0.305468 2.189962 0.012817 -0.016535 469192.000000 0 0 1
-33.759017 9.529587 -26.075725 43.708440 -0.275124 2.210033 0.002708 -0.009048 -374296.000000 0 0 1
-35.051584 9.021887 -26.722555 44.990031 -0.251921 2.206776 0.015810 -0.006298 -59265.800000 0 0 1
34.609641 8.306087 -25.844865 43.986082 0.235539 2.198848 0.010641 -0.001945 -1731.740000 0 0 1
33.536156 7.651287 -26.501395 43.422804 0.224311 2.227249 0.012306 -0.001971 102504.000000 0 0 1
32.509936 7.019287 -25.547665 41.938640 0.212648 2.225807 0.016263 -0.004995 -240338.000000 0 0 1
33.021826 5.823487 -25.015505 41.834549 0.174558 2.211753 0.019008 -0.007735 -300336.000000 0 0 1
32.070866 4.934687 -24.495605 40.656196 0.152671 2.217434 0.020358 -0.001284 -438567.000000 0 0 1
32.615436 3.803687 -23.608805 40.442680 0.116098 2.194148 0.013343 0.002037 -153039.000000 0 0 1
33.432386 2.829587 -24.217605 41.379021 0.084435 2.196001 0.005146 -0.001295 15113.400000 0 0 1
34.340536 2.293487 -23.290605 41.557007 0.066688 2.165725 0.017857 0.003684 -686845.000000 0 0 1
-35.157559 1.381587 -23.909105 42.539488 -0.039277 2.167652 0.033213 0.000318 -831493.000000 0 0 1
34.770117 0.128987 -24.246105 42.389283 0.003710 2.179722 0.017632 0.004436 -426033.000000 0 0 1
-34.874260 -0.964613 -24.322005 42.528866 0.027653 2.179609 0.027505 -0.004390 -315814.000000 0 0 1
-21.997307 29.789387 28.021098 46.437819 -0.934743 0.923024 0.034235 -0.001044 358606.000000 0 0 1
-23.370707 30.115787 27.724918 47.136203 -0.910844 0.941981 0.018402 -0.001369 1164380.000000 0 0 1
-23.834907 29.915887 26.374618 46.461635 -0.898052 0.967130 0.010808 -0.008006 -52880.000000 0 0 1
-24.084707 28.416987 25.879128 45.357773 -0.867729 0.963614 0.011055 -0.005148 -226776.000000 0 0 1
-25.225767 27.682487 26.262298 45.742406 -0.831798 0.959250 0.016614 -0.004624 -70318.900000 0 0 1
-25.251537 27.213587 27.600018 46.259923 -0.822778 0.931502 0.026979 -0.006472 -665533.000000 0 0 1
-24.403807 25.948187 27.936858 45.269441 -0.816060 0.905714 0.026901 -0.006821 1135420.000000 0 0 1
-23.009507 26.065587 28.251438 44.799509 -0.847591 0.888445 0.013850 -0.002726 615897.000000 0 0 1
-22.855707 26.635587 29.505948 45.852359 -0.861625 0.871736 0.014425 -0.008366 -646797.000000 0 0 1
-21.562907 26.363987 30.291168 45.580408 -0.885240 0.843884 0.018209 -0.003110 -1027680.000000 0 0 1
-20.423507 26.882987 29.675828 44.949632 -0.921104 0.849709 0.019432 -0.007802 80781.100000 0 0 1
-19.250507 26.515887 30.428748 44.716697 -0.942834 0.822381 0.022213 -0.000242 585731.000000 0 0 1
-18.615307 25.142187 30.182308 43.469885 -0.933467 0.803312 0.017507 0.005185 -633207.000000 0 0 1
-18.139307 25.049787 28.845548 42.291748 -0.944058 0.820219 0.020267 0.006688 -191638.000000 0 0 1
-18.987707 24.354887 27.970308 41.665713 -0.908602 0.834831 0.021759 0.001831 -290415.000000 0 0 1
-18.886007 22.785487 28.021908 40.756435 -0.878703 0.812693 0.019949 0.003273 -125001.000000 0 0 1
-19.429707 22.121987 29.100828 41.397512 -0.850101 0.791244 0.017057 -0.005391 -66419.000000 0 0 1
-19.073207 20.794187 28.939178 40.418578 -0.828539 0.772759 0.019322 -0.005826 199984.000000 0 0 1
-19.750807 19.958987 30.029868 41.112632 -0.790641 0.751846 0.031597 -0.015117 377406.000000 0 0 1
-19.015307 20.254487 31.259908 41.821143 -0.816943 0.726556 0.020722 -0.012325 598166.000000 0 0 1
-19.645007 19.796987 32.428558 42.772168 -0.789251 0.710295 0.019592 -0.013046 -283497.000000 0 0 1
-18.992007 20.237087 33.774687 43.714591 -0.817126 0.687842 0.006614 -0.007951 -306713.000000 0 0 1
-19.018607 21.670787 34.055344 44.621708 -0.850487 0.702543 0.002778 -0.004516 -189809.000000 0 0 1
-18.063707 22.450887 33.395405 44.108876 -0.893264 0.711914 0.018089 0.005883 1354120.000000 0 0 1
-16.562307 22.451887 33.984050 43.969454 -0.935227 0.687395 0.003575 0.024615 1812510.000000 0 0 1
-15.957507 21.178387 33.987797 43.108427 -0.925071 0.662551 -0.009177 0.012949 -313883.000000 0 0 1
-14.573607 21.251787 34.228551 42.844161 -0.969692 0.645319 -0.017765 0.010537 -787063.000000 0 0 1
-13.786207 19.974787 33.902454 41.694460 -0.966691 0.621310 -0.022930 0.010493 -718680.000000 0 0 1
-12.411807 20.047287 34.089374 41.449151 -1.016432 0.605112 -0.027510 -0.005849 -567193.000000 0 0 1
-12.060707 19.880987 -33.590055 40.853471 -1.025505 2.536076 -0.016411 -0.008259 -71632.900000 0 0 1
-10.532307 19.948187 -33.277485 40.202620 -1.085014 2.545872 -0.020777 -0.010869 466679.000000 0 0 1
-9.990607 21.230487 -33.307125 40.741998 -1.130962 2.527876 -0.012832 -0.012778 170105.000000 0 0 1
-8.633807 21.185087 -32.870425 40.047664 -1.183805 2.533576 -0.015887 -0.006085 313694.000000 0 0 1
-7.886707 22.523387 -32.788805 40.553777 -1.233982 2.512440 -0.013082 -0.008875 -114238.000000 0 0 1
-8.081207 23.366687 -31.641745 40.156046 -1.237830 2.478301 -0.009306 -0.009554 133450.000000 0 0 1
-7.411807 22.906887 -30.461225 38.827137 -1.257865 2.472741 -0.005778 -0.013543 -142600.000000 0 0 1
-7.109107 24.098387 -29.525275 38.768718 -1.283930 2.436536 0.001988 -0.009949 -138962.000000 0 0 1
-6.254407 25.041787 -30.104255 39.654443 -1.326045 2.432825 -0.006078 -0.007330 -247445.000000 0 0 1
-5.855707 26.118387 -29.314355 39.696232 -1.350245 2.401590 -0.000090 0.000553 -837879.000000 0 0 1
-4.627407 26.846087 -29.822555 40.391955 -1.400106 2.401386 -0.015587 0.003475 -1470490.000000 0 0 1
-3.528807 26.021387 -29.468785 39.471184 -1.436007 2.413718 -0.002279 0.005996 589769.000000 0 0 1
-2.228007 26.464987 -29.901825 39.993483 -1.486807 2.415339 0.002213 0.003918 952326.000000 0 0 1
-1.745907 27.854087 -29.529595 40.631211 -1.508198 2.384406 -0.001347 -0.009105 -1230090.000000 0 0 1
-1.372007 27.939687 -28.148995 39.684688 -1.521730 2.359324 0.009855 -0.019352 295093.000000 0 0 1
-0.868907 29.229287 -27.817885 40.360140 -1.541078 2.331238 0.007113 -0.021869 -1271860.000000 0 0 1
-0.585107 29.236587 -26.291845 39.324057 -1.550786 2.303113 0.031089 -0.034374 436260.000000 0 0 1
0.649693 28.656887 -25.890905 38.626134 1.548129 2.305403 0.056916 -0.041759 725701.000000 0 0 1
1.823793 29.240987 -26.445995 39.468369 1.508506 2.305080 0.065725 -0.041914 -478447.000000 0 0 1
3.126093 29.255987 -25.619295 39.013248 1.464347 2.287207 0.056662 -0.044917 202573.000000 0 0 1
3.775093 28.009387 -25.478405 38.051625 1.436824 2.304432 0.067615 -0.035676 -182026.000000 0 0 1
4.948193 28.165487 -24.741505 37.814301 1.396888 2.284039 0.049771 -0.030382 -398189.000000 0 0 1
5.535793 26.868087 -24.111305 36.522515 1.367604 2.291850 0.051653 -0.033565 269383.000000 0 0 1
6.735993 27.129087 -23.400105 36.454436 1.327424 2.267770 0.035199 -0.031988 59289.600000 0 0 1
7.321893 25.900887 -22.886705 35.330827 1.295296 2.275467 0.029406 -0.022045 -69357.600000 0 0 1
8.781593 26.017387 -22.477405 35.485976 1.245275 2.256757 0.025235 -0.002918 -1176070.000000 0 0 1
9.068893 26.710187 -21.276505 35.332260 1.243480 2.217030 0.019129 0.007778 -320631.000000 0 0 1
10.427493 26.764487 -20.928205 35.539557 1.199286 2.200457 0.017919 0.005974 -201656.000000 0 0 1
11.104793 25.479587 -20.466305 34.516596 1.159788 2.205503 0.000363 0.009447 -740790.000000 0 0 1
11.263393 24.499587 -21.478105 34.473218 1.139874 2.243416 -0.000724 0.007796 -304918.000000 0 0 1
11.716193 23.273087 -21.047205 33.494635 1.104415 2.250259 -0.001491 0.017646 -525737.000000 0 0 1
11.967193 22.252087 -22.207205 33.638208 1.077367 2.291852 0.002217 0.008067 -187326.000000 0 0 1
10.867793 22.076587 -23.064205 33.725986 1.113346 2.323851 0.002884 0.001531 -12500.900000 0 0 1
11.248793 21.326087 -24.207405 34.166296 1.085418 2.358191 -0.003991 -0.004219 137034.000000 0 0 1
10.149793 21.320587 -25.271165 34.586377 1.126487 2.390096 0.019274 -0.001381 1509550.000000 0 0 1
8.830593 20.765787 -24.959405 33.647722 1.168716 2.406526 0.010782 0.001598 1558400.000000 0 0 1
8.005293 20.826287 -26.137805 34.365736 1.203824 2.434998 0.006104 0.001884 1009110.000000 0 0 1
6.512193 20.394787 -25.848495 33.563383 1.261722 2.449857 0.004993 -0.003472 836251.000000 0 0 1
5.632193 21.337287 -25.264285 33.545275 1.312722 2.423618 0.030890 -0.000077 -190670.000000 0 0 1
5.922593 21.974087 -24.044605 33.107108 1.307526 2.383672 0.025903 0.002246 -187258.000000 0 0 1
4.651593 22.524387 -23.305905 32.743710 1.367146 2.362808 0.038040 -0.003628 846794.000000 0 0 1
4.013893 23.671287 -23.864105 33.851686 1.402826 2.353164 0.040808 -0.012737 623951.000000 0 0 1
2.626293 23.851087 -23.592505 33.650825 1.461126 2.347732 0.052935 -0.012087 569288.000000 0 0 1
1.998793 24.948287 -24.477705 35.008145 1.490850 2.345075 0.050647 -0.015355 -25896.000000 0 0 1
0.682393 24.638187 -24.899005 35.035216 1.543107 2.361268 0.064398 -0.033214 187403.000000 0 0 1
0.156893 25.466387 -25.900005 36.323157 1.564636 2.364626 0.039861 -0.020551 -237369.000000 0 0 1
-1.305207 25.328987 -26.308455 36.543070 -1.519312 2.374498 0.042364 -0.016888 -368462.000000 0 0 1
-1.462107 24.028987 -26.959835 36.143639 -1.510024 2.412694 0.055568 -0.028981 413539.000000 0 0 1
-2.832107 23.834187 -27.323485 36.368422 -1.452525 2.420821 0.051532 -0.018343 580899.000000 0 0 1
-3.246807 22.398087 -27.584595 35.680890 -1.426840 2.454497 0.043366 -0.018956 -157307.000000 0 0 1
-2.727707 21.867887 -28.816435 36.277152 -1.446702 2.488719 0.059462 -0.020462 -79792.500000 0 0 1
-3.219107 20.593287 -29.124815 35.814815 -1.415733 2.520436 0.044661 -0.017626 -288754.000000 0 0 1
-4.412407 20.675787 -30.093815 36.777645 -1.360541 2.529180 0.007057 -0.015797 -384938.000000 0 0 1
-4.140307 21.080887 -31.447155 38.085030 -1.376864 2.542254 0.014993 -0.012859 -262155.000000 0 0 1
-3.676107 22.344287 -31.643315 38.911185 -1.407736 2.520459 0.033075 -0.019983 -381710.000000 0 0 1
-3.513707 22.500387 -33.156725 40.224146 -1.415885 2.539759 0.024132 -0.016314 346197.000000 0 0 1
-2.372407 21.803987 -33.659305 40.174506 -1.462417 2.564088 0.018163 -0.012862 388909.000000 0 0 1
-2.097607 22.144087 34.050590 40.671897 -1.476353 0.578650 0.015221 -0.003087 14680.100000 0 0 1
-0.882907 21.359087 33.519033 39.755700 -1.529483 0.567727 0.024225 0.003931 26058.500000 0 0 1
-1.204207 20.031487 33.225286 38.815335 -1.510753 0.543346 0.013479 0.007172 -26649.900000 0 0 1
-0.121007 19.381387 32.595818 37.922818 -1.564553 0.536446 0.021068 0.000716 -100455.000000 0 0 1
-0.334507 17.957487 32.057698 36.746146 -1.552171 0.510685 0.013772 0.001626 -519801.000000 0 0 1
-1.096107 17.887887 30.909538 35.729224 -1.509596 0.525436 0.000870 0.003696 -223253.000000 0 0 1
-1.329107 16.541187 30.602318 34.812056 -1.490617 0.496884 -0.000472 0.003264 -231009.000000 0 0 1
-2.542507 16.501287 29.662658 34.038656 -1.417919 0.512665 -0.003526 0.006775 -298577.000000 0 0 1
-3.838907 16.738287 30.139838 34.688864 -1.345346 0.517897 -0.013662 0.000344 -124376.000000 0 0 1
-4.229207 18.024387 29.682918 34.983429 -1.340327 0.557680 -0.008730 0.005363 -624669.000000 0 0 1
-5.705307 18.374387 29.844358 35.508511 -1.269732 0.572619 -0.024953 0.002584 26707.200000 0 0 1
-6.592107 17.646587 29.005668 34.585932 -1.213286 0.575987 -0.030754 0.005948 -147205.000000 0 0 1
-7.926007 18.069087 29.068778 35.132710 -1.157421 0.596335 -0.037242 0.009746 -724891.000000 0 0 1
-8.890607 17.209987 28.244828 34.249042 -1.093960 0.601143 -0.036612 0.008084 -298563.000000 0 0 1
-9.215007 15.880387 28.632658 34.013705 -1.045006 0.570191 -0.034225 0.004582 182112.000000 0 0 1
-9.818907 15.709887 29.905458 35.178799 -1.012187 0.554623 -0.040068 0.000125 -658639.000000 0 0 1
-10.376007 14.319387 30.160828 34.962579 -0.943742 0.530290 -0.034068 -0.004279 385054.000000 0 0 1
-9.455207 13.193687 30.355728 34.423023 -0.948985 0.491038 -0.016067 -0.002213 726162.000000 0 0 1
-8.501507 13.182587 31.409358 35.108460 -0.998012 0.463176 -0.021501 0.005331 -55180.500000 0 0 1
-9.025207 12.834987 32.817518 36.375551 -0.957944 0.445985 -0.004415 -0.008437 -595063.000000 0 0 1
-9.341207 11.475887 32.871648 36.048570 -0.887586 0.422977 0.002295 -0.007887 365423.000000 0 0 1
-9.812007 11.035887 34.136255 37.193416 -0.844036 0.408283 -0.001459 -0.007836 -349295.000000 0 0 1
-10.140507 9.502687 34.268714 36.979396 -0.752939 0.385269 0.002838 0.001897 524813.000000 0 0 1
-8.979907 8.619487 34.325979 36.513109 -0.764922 0.347872 0.010443 0.004126 917516.000000 0 0 1
-8.614907 8.208887 -33.370025 35.428252 -0.761269 2.799052 0.027716 -0.010375 -6647.750000 0 0 1
-7.983507 9.209187 -32.375555 34.593671 -0.856568 2.781547 0.023073 -0.010114 -237372.000000 0 0 1
-8.856407 10.188787 -31.790185 34.537852 -0.855243 2.740013 0.011457 -0.002977 232986.000000 0 0 1
-8.221007 11.065987 -30.857475 33.796816 -0.931850 2.721446 0.006466 -0.002254 -602100.000000 0 0 1
-7.226007 12.048987 -31.495015 34.486653 -1.030583 2.721993 -0.006346 0.000520 -450620.000000 0 0 1
-7.760107 13.192087 -32.128585 35.587869 -1.039069 2.697023 -0.001447 0.000883 -614969.000000 0 0 1
-6.816707 14.132587 -32.479385 36.070874 -1.121377 2.691559 -0.012272 -0.000371 -704829.000000 0 0 1
-7.410207 15.490087 -32.888235 37.101078 -1.124591 2.660413 -0.013955 -0.003308 -54208.600000 0 0 1
-8.037707 15.487987 -34.167548 38.365399 -1.092093 2.669420 -0.016270 -0.006366 -12361.500000 0 0 1
-8.398107 16.817787 -34.419865 39.218532 -1.107662 2.641718 -0.008528 -0.007548 -1108180.000000 0 0 1
-8.956307 16.967987 33.152600 38.304346 -1.085129 0.524639 -0.009903 -0.000712 1231850.000000 0 0 1
-10.186607 16.233787 32.936258 38.106428 -1.010405 0.526994 -0.037147 0.005261 896729.000000 0 0 1
-11.353807 16.678287 33.598268 39.190787 -0.973104 0.540794 -0.032506 -0.006658 -607777.000000 0 0 1
-12.590607 16.367787 32.713768 38.686153 -0.915101 0.563072 -0.021025 -0.012229 -187019.000000 0 0 1
-12.902507 15.013187 32.300918 37.884295 -0.860864 0.549817 -0.029620 -0.009875 330701.000000 0 0 1
-13.267807 14.003887 33.214828 38.410524 -0.812382 0.526179 -0.026280 -0.009444 -16462.900000 0 0 1
-12.811407 12.573787 32.708088 37.310204 -0.776038 0.501936 -0.035210 0.001483 164633.000000 0 0 1
-13.502507 12.212687 31.512728 36.393948 -0.735282 0.523893 -0.045076 0.000887 710497.000000 0 0 1
-12.566707 11.447587 30.730368 35.118726 -0.738830 0.505273 -0.035868 0.002140 459233.000000 0 0 1
-13.034507 10.961087 29.312698 33.901004 -0.699204 0.526332 -0.034339 0.001804 -282619.000000 0 0 1
-13.780007 9.754287 29.414208 33.915046 -0.615980 0.521062 -0.036248 0.002018 42697.000000 0 0 1
-13.972907 9.152687 28.135598 32.720417 -0.579904 0.535764 -0.040789 0.008449 165266.000000 0 0 1
-14.775207 7.813787 28.024108 32.629935 -0.486456 0.537783 -0.031974 0.013114 165553.000000 0 0 1
-14.235507 6.753387 28.780918 32.811570 -0.442962 0.500886 -0.038868 0.013096 216548.000000 0 0 1
-14.914307 5.526787 28.450918 32.595040 -0.354881 0.509763 -0.035377 0.016952 824884.000000 0 0 1
-13.859007 4.327687 28.320928 31.825711 -0.302671 0.473724 -0.033963 0.015695 602707.000000 0 0 1
-12.943707 4.294387 27.256438 30.477774 -0.320347 0.463920 -0.031483 0.011394 -89138.200000 0 0 1
-13.508707 4.256287 25.956308 29.569090 -0.305231 0.499507 -0.013047 0.006508 -509391.000000 0 0 1
-12.429707 4.060487 24.894868 28.120093 -0.315747 0.483646 -0.008236 0.006842 -245937.000000 0 0 1
-11.584507 2.933287 25.106888 27.805769 -0.247995 0.444239 -0.020160 0.006714 228467.000000 0 0 1
-11.135707 2.410387 23.867258 26.447305 -0.213167 0.445383 -0.004957 -0.004702 -588309.000000 0 0 1
-10.134707 1.259187 24.104198 26.178430 -0.123612 0.400758 -0.004033 -0.003609 -1819590.000000 0 0 1
-8.891107 1.803287 24.198978 25.843648 -0.200105 0.358681 -0.004278 -0.015026 -1773310.000000 0 0 1
-8.043807 0.772287 24.654068 25.944601 -0.095717 0.316733 -0.011143 -0.010629 -471005.000000 0 0 1
-6.559107 1.112787 24.470828 25.359054 -0.168055 0.265452 -0.000337 -0.013249 -856544.000000 0 0 1
-6.232107 1.156987 23.131258 23.984013 -0.183560 0.267462 -0.000873 -0.009954 1249530.000000 0 1 0
-4.873707 1.575287 22.793058 23.361465 -0.312622 0.221044 0.000838 -0.017091 1507950.000000 0 1 0
-4.428807 3.033287 23.285858 23.896576 -0.600519 0.226567 0.017674 -0.014199 -511446.000000 0 1 0
-4.002407 3.136987 24.649518 25.168605 -0.664769 0.203449 0.010846 -0.014515 40062.100000 0 0 1
-3.918207 4.435287 25.222248 25.907256 -0.847219 0.230470 0.020775 -0.010451 8073.110000 0 0 1
3.652993 -23.379113 12.747595 26.878029 -1.415799 1.076655 0.043625 -0.005798 300934.000000 0 0 1
3.755993 -24.599613 13.413995 28.269837 -1.419281 1.076402 0.034954 -0.007311 781802.000000 0 0 1
2.634693 -25.477823 13.046095 28.744768 -1.467751 1.099704 0.030398 -0.003318 1342350.000000 0 0 1
2.464293 -26.818093 13.807595 30.264377 -1.479164 1.097039 0.023802 -0.000141 8559.420000 0 0 1
2.227493 -26.573873 15.166895 30.678448 -1.487169 1.053672 0.021048 -0.000479 -29501.300000 0 0 1
2.420193 -27.810183 15.848395 32.100393 -1.483990 1.054442 0.015703 -0.000744 -167497.000000 0 0 1
1.987293 -27.779213 17.335495 32.804777 -1.499379 1.014029 0.005031 0.000120 415075.000000 0 0 1
2.832193 -27.064283 18.281795 32.782934 -1.466529 0.979230 0.014186 -0.002010 582358.000000 0 0 1
2.357293 -27.269613 19.627295 33.681142 -1.484567 0.948702 0.006272 0.000238 179120.000000 0 0 1
3.147693 -26.457333 20.654895 33.712359 -1.452381 0.911349 0.007950 -0.001423 -160845.000000 0 0 1
2.652393 -25.152623 20.773195 32.729425 -1.465733 0.883183 0.007370 0.002238 -312865.000000 0 0 1
3.304693 -24.406813 21.752795 32.860274 -1.436214 0.847341 0.023935 -0.011957 60891.100000 0 0 1
2.404693 -23.290813 22.372395 32.384697 -1.467914 0.808157 0.024276 -0.012815 406574.000000 0 0 1
1.947693 -22.212313 21.582795 31.032199 -1.483335 0.801685 0.019332 -0.012989 -623225.000000 0 0 1
3.033193 -21.497813 21.133495 30.298199 -1.430628 0.798870 0.023674 -0.008924 -633918.000000 0 0 1
2.648093 -20.385413 20.135895 28.775540 -1.441618 0.795739 0.011793 -0.008953 -342348.000000 0 0 1
1.938693 -19.370213 20.778895 28.473253 -1.471042 0.752812 0.004076 -0.011639 -106121.000000 0 0 1
1.337893 -18.515713 19.825695 27.160261 -1.498665 0.752544 -0.000621 -0.016101 -40434.400000 0 0 1
1.008093 -17.142913 20.441495 26.697386 -1.512059 0.698708 -0.006624 -0.018981 -233558.000000 0 0 1
2.055893 -16.242013 20.723295 26.409935 -1.444887 0.668620 -0.007558 -0.003538 -5540.010000 0 0 1
1.503793 -14.998413 21.124695 25.951234 -1.470867 0.619765 -0.006380 -0.002484 458014.000000 0 0 1
2.517693 -13.838813 20.832495 25.136515 -1.390835 0.593883 -0.012835 -0.002589 -230165.000000 0 0 1
2.681493 -13.425413 19.428495 23.767594 -1.373658 0.613850 -0.013678 -0.005932 255109.000000 0 1 0
1.615293 -12.920013 18.586795 22.693718 -1.446419 0.611081 -0.010144 -0.006262 391886.000000 0 1 0
0.859993 -11.692113 19.134695 22.440625 -1.497375 0.549701 -0.021291 -0.005671 -497181.000000 0 1 0
1.487393 -10.475913 18.911395 21.670209 -1.429757 0.510110 -0.019767 -0.006504 -463965.000000 0 1 0
1.140393 -9.566013 19.919695 22.126982 -1.452143 0.450465 -0.015741 -0.012467 348591.000000 0 1 0
-0.324507 -9.182613 20.257795 22.244189 1.535472 0.425819 -0.012364 -0.006328 79903.100000 0 1 0
-0.488107 -8.324313 21.381495 22.949962 1.512227 0.371849 -0.015909 -0.007500 -526157.000000 0 1 0
-1.701007 -7.622013 21.421195 22.800353 1.351224 0.349595 -0.011624 -0.005086 -213537.000000 0 1 0
-1.897807 -6.906113 22.793195 23.891961 1.302615 0.304453 -0.009282 0.000547 -443526.000000 0 1 0
-1.968507 -7.929313 23.726795 25.094020 1.327459 0.331621 -0.008785 -0.000320 95011.900000 0 0 1
-1.978207 -7.365613 25.067395 26.201906 1.308415 0.295347 -0.005256 0.010038 -228602.000000 0 0 1
-2.103807 -8.402213 26.218195 27.611899 1.325453 0.319077 0.005635 0.007438 383981.000000 0 0 1
-0.950407 -9.236113 26.398395 27.983644 1.468256 0.338208 0.001092 0.007127 434612.000000 0 0 1
-1.137207 -10.193813 27.366995 29.226007 1.459697 0.358592 0.017543 -0.004975 7104.300000 0 0 1
0.043393 -11.194513 27.540895 29.729109 -1.566920 0.386073 0.012568 -0.006160 21497.000000 0 0 1
1.182393 -10.666813 28.151995 30.128289 -1.460399 0.364214 -0.006425 -0.001625 -704584.000000 0 0 1
2.158293 -11.662013 28.334095 30.716148 -1.387797 0.396419 -0.000327 -0.008745 15749.700000 0 0 1
3.187793 -11.112113 29.363695 31.557371 -1.291423 0.375059 0.001294 -0.009149 -98657.500000 0 0 1
2.739493 -11.063113 30.676295 32.725103 -1.328055 0.355727 0.005061 -0.013810 -34486.900000 0 0 1
3.729393 -10.441613 31.466395 33.362699 -1.227752 0.338780 0.000419 -0.004268 -156232.000000 0 0 1
3.235493 -10.201913 32.891495 34.588985 -1.263685 0.314588 -0.000802 -0.006378 -147224.000000 0 0 1
3.112493 -11.355313 33.684695 35.683181 -1.303267 0.336265 0.007194 -0.011104 -45619.600000 0 0 1
2.562193 -11.254813 -34.050068 35.953341 -1.346958 2.814756 0.010026 -0.012361 -287268.000000 0 0 1
3.368393 -10.472013 -32.963368 34.750435 -1.259591 2.819497 -0.002720 0.002759 -11356.400000 0 0 1
3.295493 -9.078013 -33.185668 34.562395 -1.222571 2.858395 -0.004288 -0.007443 93558.700000 0 0 1
3.959293 -8.403613 -32.131868 33.447775 -1.130501 2.860158 -0.002884 -0.005577 -365761.000000 0 0 1
3.377793 -7.072913 -31.648468 32.604618 -1.125255 2.898817 -0.007302 0.002657 -214714.000000 0 0 1
3.606693 -6.007213 -32.475268 33.222550 -1.030087 2.929093 0.008748 0.001268 95497.700000 0 0 1
2.988793 -4.861913 -31.945468 32.451256 -1.019612 2.964806 0.011292 -0.002699 -70339.700000 0 0 1
3.099293 -3.692013 -32.927568 33.278541 -0.872454 2.996230 0.015630 -0.000033 30073.900000 0 0 1
2.267593 -3.940413 -34.051568 34.353720 -1.048608 3.008865 0.009066 0.000046 137685.000000 0 0 1
2.171093 -2.834413 34.080995 34.267503 -0.917149 0.104381 0.022492 0.005853 -138559.000000 0 0 1
1.711593 -3.292413 32.722895 32.932619 -1.091388 0.112916 0.012848 0.005474 938162.000000 0 0 1
0.292993 -3.496413 32.606895 32.795127 -1.487194 0.107193 0.009298 0.001516 465284.000000 0 0 1
-0.020007 -3.900513 31.325895 31.567802 1.565667 0.123878 0.007224 0.002501 1195240.000000 0 0 1
-1.593807 -3.939213 31.177595 31.465855 1.186330 0.135463 0.003024 -0.000194 765951.000000 0 0 1
-2.210507 -2.747513 30.973195 31.173290 0.893288 0.113364 0.006596 0.003988 -822975.000000 0 0 1
-3.594707 -2.957813 30.882795 31.231676 0.688504 0.149610 -0.005123 0.007249 -273631.000000 0 0 1
-4.388907 -1.838513 30.229695 30.601913 0.396693 0.156128 -0.000497 0.005096 -347510.000000 0 0 1
-4.297607 -1.791213 28.826295 29.199883 0.394899 0.160135 -0.004207 0.004606 328507.000000 0 0 1
-5.370107 -1.147513 28.111495 28.642817 0.210519 0.192912 -0.009686 -0.005674 471061.000000 0 0 1
-5.466007 0.406887 28.163995 28.692393 -0.074302 0.192212 0.001814 -0.003124 -383221.000000 0 0 1
-6.513907 0.898487 28.926495 29.664463 -0.137069 0.223522 0.002047 0.000539 -693262.000000 0 0 1
-6.476307 2.332387 28.882095 29.691042 -0.345681 0.233966 0.010944 -0.001507 -882072.000000 0 0 1
-7.721007 2.730487 29.628495 30.739506 -0.339917 0.269676 -0.001861 -0.006214 -780090.000000 0 0 1
-8.833107 2.316287 28.897595 30.306105 -0.256454 0.306074 -0.018157 0.002961 -546348.000000 0 0 1
-10.110507 2.667387 29.379495 31.184805 -0.257946 0.341930 -0.022648 0.005114 -172199.000000 0 0 1
-11.205307 2.004887 28.553795 30.739188 -0.177050 0.379351 -0.025851 0.007665 -710839.000000 0 0 1
-11.288407 0.613687 28.826095 30.963664 -0.054311 0.373749 -0.021425 0.009901 -123610.000000 0 0 1
-11.711407 0.043787 27.597395 29.979580 -0.003739 0.401336 -0.016020 0.006612 -646495.000000 0 0 1
-11.641707 -1.538313 27.720295 30.104992 0.131377 0.400702 -0.004274 0.000324 659562.000000 0 0 1
-10.339407 -1.992513 28.123795 30.030340 0.190377 0.358248 -0.002695 -0.001104 1346240.000000 0 0 1
-9.206307 -1.886113 27.260495 28.834842 0.202076 0.331973 0.010270 -0.006210 -11891.700000 0 0 1
-9.231807 -2.657913 25.908195 27.631962 0.280327 0.355085 -0.002983 -0.001039 -669932.000000 0 0 1
-10.246207 -2.250913 25.005695 27.117082 0.216247 0.397225 -0.016516 -0.000452 315504.000000 0 0 1
-10.168907 -2.827713 23.731695 25.972986 0.271222 0.418482 -0.008256 -0.001547 156089.000000 0 0 1
-9.044007 -2.370413 22.745095 24.591712 0.256332 0.390000 -0.003498 -0.005273 740945.000000 0 1 0
-7.703507 -2.576213 23.152795 24.536357 0.322729 0.337420 -0.012289 -0.005967 -823194.000000 0 1 0
-6.826707 -2.054113 22.213995 23.329914 0.292276 0.310543 -0.012705 -0.010325 -295482.000000 0 1 0
-5.371307 -2.149513 22.750695 23.474784 0.380665 0.249019 -0.014023 -0.004635 -126142.000000 0 1 0
-4.832407 -3.468613 22.872195 23.633043 0.622561 0.254435 -0.011675 -0.003336 -37398.000000 0 1 0
-5.503007 -4.366713 23.741095 24.758652 0.670773 0.287693 -0.005146 -0.001582 -689312.000000 0 1 0
-5.263807 -5.827713 23.275295 24.564390 0.836196 0.325404 0.000040 -0.000259 -265032.000000 0 1 0
-6.136407 -6.437813 22.313595 24.020771 0.809364 0.379286 -0.001223 -0.006572 66977.100000 0 1 0
-5.893407 -6.050413 20.974195 22.610984 0.798543 0.382831 0.007215 -0.011666 -432956.000000 0 1 0
-7.108207 -6.116613 20.027295 22.114070 0.710558 0.437920 0.005655 -0.008643 -304610.000000 0 1 0
-7.930507 -5.000013 20.079195 22.160035 0.562529 0.436825 0.007152 -0.015150 -717721.000000 0 1 0
-8.971607 -5.020413 19.143695 21.729596 0.510175 0.492832 0.008802 -0.005855 -9485.210000 0 1 0
-9.637007 -3.600213 19.220895 21.800831 0.357527 0.491430 0.005905 -0.009819 -194811.000000 0 1 0
-8.772507 -2.616713 18.737795 20.854473 0.289883 0.454450 0.006856 -0.015718 -734936.000000 0 1 0
-9.362107 -1.379613 18.723595 20.979166 0.146308 0.467971 0.003819 -0.014469 -725511.000000 0 1 0
-8.446107 -0.234413 18.273095 20.132006 0.027747 0.433112 0.004087 -0.010005 373981.000000 0 1 0
-7.360507 0.139387 19.139995 20.506972 -0.018935 0.367187 0.005019 -0.006339 933855.000000 0 1 0
-7.864307 0.728187 20.331895 21.812005 -0.092331 0.370511 0.023684 -0.005657 -222057.000000 0 1 0
-7.879207 2.247987 20.273495 21.866640 -0.277922 0.384082 0.021254 -0.008937 -60151.300000 0 1 0
-8.738507 2.742687 19.281795 21.346463 -0.304125 0.443447 0.012622 -0.016637 53559.900000 0 1 0
-8.406507 4.061187 18.948395 21.123548 -0.450037 0.457800 0.012086 -0.016936 -229880.000000 0 1 0
-9.317007 4.644187 17.844495 20.659165 -0.462418 0.528118 0.015281 -0.011892 -1150530.000000 0 1 0
-10.599007 4.847387 18.353495 21.741364 -0.428944 0.565774 0.013354 -0.000873 -430951.000000 0 1 0
-11.433107 5.189687 17.228395 21.318217 -0.426107 0.629786 0.020117 0.005839 107931.000000 0 1 0
-11.621107 6.721487 17.010695 21.670078 -0.524375 0.668124 0.022529 0.001290 -1076970.000000 0 1 0
-10.428707 7.322587 16.654795 20.970465 -0.612172 0.653102 0.021395 -0.010759 -362341.000000 0 1 0
-10.650907 8.725787 16.634195 21.593463 -0.686371 0.691430 0.025189 -0.017916 -661825.000000 0 1 0
-9.365807 9.487787 16.724795 21.388203 -0.791868 0.672987 0.018675 -0.014586 -1127350.000000 0 1 0
-8.625307 9.463887 17.900695 22.008997 -0.831723 0.620934 0.023675 -0.009001 46961.600000 0 1 0
-7.528607 10.368087 17.946995 22.051571 -0.942746 0.620024 0.016770 -0.012664 206738.000000 0 1 0
-7.847807 11.909787 17.917395 22.901182 -0.988164 0.672320 0.002317 -0.007267 -257507.000000 0 1 0
-7.638807 12.462887 16.661695 22.164995 -1.020928 0.720142 -0.011240 -0.011303 149014.000000 0 1 0
-8.566607 13.510587 16.448595 22.945130 -1.005704 0.771499 0.007621 -0.017722 99838.200000 0 1 0
-8.561207 14.031687 14.995695 22.249795 -1.022959 0.831227 0.012302 -0.014174 1479930.000000 0 1 0
-7.297807 14.736287 14.800895 22.124255 -1.110974 0.837948 0.013824 -0.009876 1212800.000000 0 1 0
-7.272607 15.183787 13.494895 21.576617 -1.124112 0.895100 0.007053 -0.014479 154182.000000 0 1 0
-6.315307 16.396187 13.311295 22.043335 -1.203140 0.922450 -0.018307 -0.004630 199263.000000 0 1 0
-4.945607 16.205087 13.521395 21.676992 -1.274586 0.897243 -0.023129 -0.006348 -520522.000000 0 1 0
-4.248707 17.422087 13.739495 22.591024 -1.331596 0.917026 -0.019357 -0.005264 191859.000000 0 1 0
-2.702607 17.310887 13.773095 22.286073 -1.415925 0.904583 -0.015909 -0.000662 436598.000000 0 1 0
-2.091507 16.780887 14.955895 22.575459 -1.446799 0.846665 -0.014735 -0.001327 -26613.100000 0 1 0
-2.238507 15.393987 15.006195 21.614154 -1.426394 0.803382 -0.006833 -0.002093 -647117.000000 0 1 0
-1.308507 14.676387 16.008295 21.757161 -1.481874 0.743991 -0.013893 -0.001066 -666993.000000 0 1 0
-0.054907 14.420187 15.409795 21.104658 -1.566989 0.752239 -0.013484 -0.009729 -141740.000000 0 1 0
0.863093 13.856987 16.356695 21.454661 1.508591 0.703807 -0.005075 -0.000107 789814.000000 0 1 0
1.712393 14.973887 17.108995 22.800599 1.456932 0.722167 -0.010231 0.002771 589228.000000 0 1 0
0.841493 15.777287 17.942795 23.907630 1.517511 0.721970 -0.021143 0.001198 301252.000000 0 1 0
1.631393 16.728787 18.658795 25.113032 1.473584 0.733266 -0.016914 0.001774 483824.000000 0 0 1
0.792493 17.981487 19.211595 26.325792 1.526752 0.752821 -0.005270 0.001979 523017.000000 0 0 1
0.392593 18.879687 18.216095 26.237813 1.550005 0.803393 -0.011281 0.004073 642546.000000 0 0 1
-0.784507 18.497587 17.459995 25.448529 -1.528410 0.814695 -0.012114 0.003183 438955.000000 0 0 1
-1.280507 19.666287 16.530995 25.723070 -1.505776 0.872841 -0.021170 0.006242 -207458.000000 0 0 1
-1.741407 20.735887 17.299995 27.061030 -1.487013 0.877215 -0.015948 0.005298 112222.000000 0 0 1
-2.533107 21.612687 16.507695 27.313529 -1.454124 0.921811 0.004581 -0.010156 -597277.000000 0 0 1
-3.145207 22.772487 17.283395 28.760985 -1.433550 0.926130 0.008682 -0.002994 17295.000000 0 0 1
-4.230107 22.259687 18.087195 28.991966 -1.383001 0.897113 0.012901 0.001556 439236.000000 0 0 1
-4.814407 23.322987 18.841795 30.366980 -1.367232 0.901455 0.017898 0.004757 564714.000000 0 0 1
-6.088707 22.807987 19.597495 30.681239 -1.309925 0.877930 -0.004138 0.001943 -88278.400000 0 0 1
-7.229507 22.583787 18.851595 30.293165 -1.260985 0.899112 -0.005720 -0.003609 -430804.000000 0 0 1
-8.279607 22.082487 19.690895 30.723273 -1.212078 0.875111 -0.031508 -0.005278 717907.000000 0 0 1
-9.660107 22.605287 19.184395 31.182650 -1.166947 0.908123 -0.017976 -0.021347 296568.000000 0 0 1
-10.053407 23.873187 19.702995 32.545477 -1.172219 0.920529 -0.010184 -0.010749 -202374.000000 0 0 1
-11.243107 24.366687 19.158495 32.972577 -1.138492 0.950786 -0.014514 -0.009628 -394162.000000 0 0 1
-11.607707 25.733587 19.763695 34.460993 -1.147051 0.960013 -0.016632 0.005802 -223735.000000 0 0 1
-12.165507 25.822587 21.031695 35.456139 -1.130519 0.935799 -0.020654 -0.001506 -6690.230000 0 0 1
-12.705907 27.102387 21.210295 36.685911 -1.132409 0.954326 -0.013821 0.000700 -734024.000000 0 0 1
-13.570107 27.237487 22.485895 37.837072 -1.108578 0.934424 0.003563 -0.006591 -229257.000000 0 0 1
-14.841507 26.633487 22.360895 37.810350 -1.062404 0.938007 0.002016 -0.008967 -156406.000000 0 0 1
-15.622007 26.894887 23.491295 38.977211 -1.044574 0.923925 -0.003006 0.000249 339692.000000 0 0 1
-17.065507 26.329787 23.422795 39.155032 -0.995727 0.929535 0.013434 0.001645 194326.000000 0 0 1
-17.052807 24.869487 23.555195 38.264041 -0.969738 0.907654 0.026486 0.001820 80960.200000 0 0 1
-18.334607 24.275487 23.410595 38.386365 -0.923929 0.914903 0.035800 0.012846 -269482.000000 0 0 1
26.668893 24.630787 23.633858 43.318180 0.745690 0.993706 0.042850 -0.016848 -107839.000000 0 0 1
26.383393 23.802087 24.718588 43.285463 0.734008 0.963000 0.046932 -0.023112 322503.000000 0 0 1
25.982193 22.478887 24.388438 42.132773 0.713233 0.953482 0.046946 -0.011604 -550970.000000 0 0 1
25.594593 21.665087 25.616828 42.198117 0.702442 0.918440 0.049963 -0.011385 974607.000000 0 0 1
24.327593 22.037787 26.229238 42.017481 0.736052 0.896631 0.051814 -0.014263 1191040.000000 0 0 1
24.220493 21.463287 27.512558 42.476415 0.725117 0.866217 0.055156 -0.015703 -341556.000000 0 0 1
22.925793 21.842487 28.219258 42.414770 0.761205 0.842878 0.054750 -0.015681 -524264.000000 0 0 1
22.763993 23.124787 28.813678 43.395658 0.793260 0.844673 0.064683 -0.027289 -4536.980000 0 0 1
21.570793 23.180287 29.568638 43.323540 0.821348 0.819608 0.074112 -0.025020 -74734.400000 0 0 1
21.333793 24.567487 30.111418 44.332715 0.855731 0.824105 0.074535 -0.017987 -277552.000000 0 0 1
20.845193 25.504687 29.150508 43.985943 0.885590 0.846347 0.069175 -0.024149 198346.000000 0 0 1
20.222893 26.632787 29.739048 44.751332 0.921355 0.843918 0.052598 -0.026810 633291.000000 0 0 1
18.863793 26.606787 30.507828 44.659728 0.954066 0.818774 0.055174 -0.024973 419608.000000 0 0 1
17.678893 26.560687 29.704758 43.593417 0.983530 0.821116 0.070447 -0.026974 1404730.000000 0 0 1
16.426493 26.732487 30.388448 43.679667 1.019800 0.801386 0.061387 -0.020854 1043220.000000 0 0 1
15.884593 25.578587 31.309088 43.437810 1.015070 0.765870 0.030434 -0.020143 -471553.000000 0 0 1
16.400693 25.526687 32.635318 44.560728 0.999717 0.748988 0.035527 -0.016661 10166.200000 0 0 1
15.722393 24.601487 33.417333 44.375048 1.002134 0.718087 0.007633 -0.016799 208322.000000 0 0 1
16.504793 24.457587 -34.259145 45.213612 0.977161 2.430605 0.025223 -0.016034 367676.000000 0 0 1
16.409593 25.624787 -33.512525 45.265812 1.001214 2.404387 0.013484 -0.010458 10178.500000 0 0 1
16.863993 25.484487 -32.208465 44.398632 0.986215 2.382467 0.005144 0.000651 -352774.000000 0 0 1
17.343693 26.843787 -31.653365 44.981419 0.997170 2.351386 -0.006724 0.008058 -73220.400000 0 0 1
16.346193 27.883787 -31.456845 45.102513 1.040567 2.342632 -0.000664 0.009488 775293.000000 0 0 1
16.964993 29.075787 -30.959305 45.735008 1.042616 2.314377 0.009648 0.010974 128105.000000 0 0 1
16.540393 29.461287 -29.488955 44.845852 1.059222 2.288375 0.017530 0.009033 -92997.200000 0 0 1
16.996693 28.522287 -28.604335 43.824838 1.033390 2.281935 -0.020033 0.016698 -232278.000000 0 0 1
16.387893 28.779687 -27.361255 42.958953 1.053161 2.261288 -0.015254 0.022410 -262303.000000 0 0 1
16.776693 27.854087 -26.235185 41.780289 1.028683 2.249690 -0.014520 0.033350 -1195990.000000 0 0 1
18.083193 28.104787 -25.917605 42.291880 0.999060 2.230429 -0.021472 0.029716 -1680700.000000 0 0 1
18.621993 27.295087 -24.909005 41.379450 0.972085 2.216757 -0.014168 0.025233 358136.000000 0 0 1
20.168493 27.422287 -24.867305 42.156053 0.936654 2.201715 -0.011086 0.019351 125229.000000 0 0 1
20.692993 27.018587 -23.652805 41.444652 0.917209 2.178164 -0.002757 0.018025 -31159.200000 0 0 1
22.114193 27.067587 -23.767305 42.267914 0.885776 2.167962 -0.000001 0.016606 442728.000000 0 0 1
22.709493 26.842787 -22.372905 41.674970 0.868618 2.137487 0.007222 0.014634 -133450.000000 0 0 1
22.392593 25.621787 -21.804305 40.414501 0.852552 2.140660 0.006436 0.010175 14154.100000 0 0 1
22.962293 25.475987 -20.496005 39.954712 0.837246 2.109450 0.005834 0.008291 -182668.000000 0 0 1
22.640193 24.159287 -19.738305 38.546727 0.817846 2.108380 0.012306 0.007496 -472216.000000 0 0 1
23.196893 22.956687 -20.218805 38.391475 0.780194 2.125449 0.013248 0.009883 180635.000000 0 0 1
22.967193 21.947587 -19.192205 37.115081 0.762701 2.114256 0.024214 0.007869 -787389.000000 0 0 1
22.855493 20.392487 -19.514605 36.318685 0.728509 2.138048 0.014197 0.004864 752669.000000 0 0 1
21.789193 19.892287 -20.347905 35.840051 0.739920 2.174557 0.005796 0.006346 1234780.000000 0 0 1
20.470093 20.324187 -19.984205 35.092246 0.781822 2.176665 0.002027 0.002149 45808.400000 0 0 1
19.426993 20.157987 -21.120105 35.068666 0.803863 2.217113 -0.006272 0.003833 12413.500000 0 0 1
19.770493 20.875287 -22.314205 36.394694 0.812573 2.230796 -0.004785 0.009610 71550.100000 0 0 1
19.779493 22.294287 -22.250405 37.193334 0.845098 2.212095 -0.007101 0.015643 -170549.000000 0 0 1
19.475093 22.959487 -23.578805 38.241042 0.867327 2.235192 -0.011262 0.018264 412331.000000 0 0 1
18.086993 22.818787 -23.846705 37.636441 0.900562 2.257003 -0.000815 0.018552 -127947.000000 0 0 1
17.822593 23.281887 -25.133865 38.618677 0.917440 2.279462 -0.006151 0.021752 -338974.000000 0 0 1
16.299893 23.243587 -25.305545 38.030533 0.959222 2.298827 -0.007418 0.024246 -150063.000000 0 0 1
15.703293 24.244887 -24.441105 37.838810 0.996043 2.273033 -0.006562 0.020727 -328211.000000 0 0 1
14.324993 24.344587 -24.681105 37.510282 1.038930 2.288933 0.001976 0.017351 -133702.000000 0 0 1
13.769193 25.584187 -23.877805 37.607059 1.077064 2.258713 0.000520 0.012713 129857.000000 0 0 1
13.956793 26.889587 -24.515005 38.972136 1.092032 2.251113 -0.001685 0.015362 225072.000000 0 0 1
12.846793 27.737987 -24.255205 39.022442 1.137062 2.241542 0.015261 0.014213 416229.000000 0 0 1
12.916793 29.156887 -24.927205 40.476328 1.153770 2.234256 0.017356 0.007663 38068.100000 0 0 1
13.127393 29.098887 -26.318355 41.373052 1.147003 2.260260 0.023958 -0.007750 -195863.000000 0 0 1
12.548893 30.121187 -27.087215 42.408464 1.176051 2.263632 0.043590 -0.017193 -14442.900000 0 0 1
13.235593 31.551887 -27.057585 43.621272 1.173605 2.239901 0.040136 -0.016635 357526.000000 0 0 1
14.498393 31.485087 -27.701755 44.372304 1.139258 2.245035 0.011008 0.004146 90619.800000 0 0 1
15.192993 32.741887 -27.510435 45.383722 1.136342 2.222038 0.012878 -0.013061 135889.000000 0 0 1
16.698693 32.612687 -27.839615 46.016061 1.097571 2.220559 -0.007011 0.011075 -132336.000000 0 0 1
17.387293 32.150787 -26.680755 45.253218 1.075040 2.201345 -0.032217 0.017711 -121521.000000 0 0 1
18.709593 31.895487 -27.110925 45.851643 1.040295 2.203435 -0.024113 0.025192 -1155660.000000 0 0 1
19.645493 31.272287 -26.095385 45.220244 1.009894 2.185937 -0.024761 0.028915 -1150170.000000 0 0 1
20.075193 32.081387 -25.016905 45.366004 1.011652 2.154893 -0.020540 0.028705 215567.000000 0 0 1
20.855993 33.228887 -25.295675 46.679787 1.010296 2.143490 -0.018564 0.016058 655427.000000 0 0 1
22.202093 33.045187 -26.110195 47.609448 0.979200 2.151275 -0.015759 0.019497 99227.900000 0 0 1
21.951093 32.656987 -27.489815 48.000200 0.978992 2.180595 -0.035446 0.031629 -278430.000000 0 0 1
23.093293 32.291087 -28.228105 48.711809 0.949968 2.188902 -0.020464 0.030532 -664197.000000 0 0 1
22.782593 31.336787 -29.384975 48.626305 0.942163 2.219686 -0.023136 0.023862 696817.000000 0 0 1
21.848293 31.815087 -30.389875 49.123234 0.969034 2.237814 -0.010157 0.018670 1846990.000000 0 0 1
20.454593 31.512487 -30.111245 48.146799 0.995058 2.246447 -0.012142 0.016171 1038720.000000 0 0 1
19.465193 32.196687 -31.078815 48.799725 1.027022 2.261221 -0.031289 0.008827 -1025420.000000 0 0 1
19.368593 33.615787 -30.836255 49.558432 1.048079 2.242372 -0.020826 0.006710 238755.000000 0 0 1
18.462093 34.274587 -31.726075 50.220912 1.076707 2.254580 -0.013401 0.001956 914108.000000 0 0 1
16.922493 34.021787 -31.505985 49.360711 1.109230 2.263059 -0.000187 -0.004501 282814.000000 0 0 1
16.491893 32.712787 -31.923915 48.592647 1.103841 2.287589 0.009106 -0.005719 -189296.000000 0 0 1
16.692293 32.211687 -33.227975 49.196786 1.092690 2.312316 0.010560 -0.006311 -735613.000000 0 0 1
16.165393 33.034787 -34.497695 50.425272 1.115709 2.324213 0.025569 -0.014001 -184785.000000 0 0 1
16.719093 34.344787 34.406838 51.409366 1.117763 0.837568 0.016452 -0.004819 -58789.400000 0 0 1
16.543093 -34.094077 33.134091 50.338335 -1.119043 0.852334 0.027334 -0.011742 47491.300000 0 0 1
15.089093 -33.636577 32.859808 49.384886 -1.149114 0.842791 0.037944 -0.012491 -189061.000000 0 0 1
14.205393 34.368487 32.654938 49.490717 1.178855 0.850218 0.038034 -0.012928 707839.000000 0 0 1
12.816393 -34.510477 32.375168 49.024325 -1.215206 0.849458 0.029194 -0.007739 1006650.000000 0 0 1
12.582693 -33.938777 30.957188 47.628901 -1.215760 0.863256 0.019159 -0.001551 -680718.000000 0 0 1
13.189393 -32.648277 30.814948 46.791357 -1.186860 0.851892 0.023471 -0.003732 252266.000000 0 0 1
12.701193 -32.003477 29.667888 45.450263 -1.192992 0.859581 0.016872 -0.002221 -317703.000000 0 0 1
13.101293 -30.573477 29.543738 44.488356 -1.165949 0.844536 0.016398 -0.005838 -304736.000000 0 0 1
12.654793 -29.789577 30.647748 44.574063 -1.169090 0.812660 0.005667 0.006521 268543.000000 0 0 1
12.880093 -28.406377 30.414418 43.564388 -1.145100 0.797988 0.021980 -0.003140 -605516.000000 0 0 1
12.512593 -27.516977 31.648888 43.765296 -1.144022 0.762444 -0.007721 0.003147 1089960.000000 0 0 1
11.083193 -27.345677 31.853468 43.419657 -1.185730 0.747165 -0.040031 0.015910 1464890.000000 0 0 1
10.384793 -26.463977 30.945308 42.021400 -1.196848 0.743036 -0.051441 0.014251 6879.890000 0 0 1
10.699593 -24.979777 31.058148 41.268379 -1.166108 0.718811 -0.061257 0.019397 41366.500000 0 0 1
10.030993 -24.355477 32.151038 41.563197 -1.180110 0.686379 -0.031194 0.010258 497910.000000 0 0 1
10.697993 -23.106977 32.357298 41.174922 -1.137204 0.666727 -0.037327 0.006685 392334.000000 0 0 1
10.035293 -22.301077 33.511334 41.485596 -1.147950 0.630416 -0.033863 0.001657 -185384.000000 0 0 1
10.052893 -22.940077 -34.233394 42.417367 -1.157778 2.509954 -0.034938 -0.000204 612099.000000 0 0 1
11.315493 -23.325877 -33.664915 42.490745 -1.119136 2.485346 -0.022962 -0.009224 599704.000000 0 0 1
12.041393 -22.195677 -32.912015 41.483056 -1.073721 2.487145 -0.013087 -0.016825 -280966.000000 0 0 1
12.548393 -21.210477 -33.752015 41.791686 -1.036567 2.510910 -0.022996 -0.007016 -209044.000000 0 0 1
13.639493 -20.607177 -33.093475 41.302174 -0.986114 2.500182 -0.022249 -0.005144 -216063.000000 0 0 1
13.956593 -19.182577 -33.585415 41.118583 -0.941808 2.526628 -0.027098 0.000184 -763820.000000 0 0 1
14.683293 -19.177977 34.222462 41.887597 -0.917365 0.614595 -0.028636 0.012303 84244.300000 0 0 1
14.137693 -18.473077 33.117566 40.471003 -0.917566 0.612343 -0.037616 0.017949 -379861.000000 0 0 1
14.779893 -17.080877 32.959098 39.956273 -0.857493 0.600808 -0.014605 0.019083 -548132.000000 0 0 1
14.624793 -16.273177 34.098506 40.514306 -0.838697 0.570481 -0.027180 0.014727 663414.000000 0 0 1
15.374493 -15.029377 33.995638 40.223881 -0.774048 0.563931 -0.007929 0.009470 1328200.000000 0 0 1
16.936993 -15.117177 34.163627 41.018827 -0.728686 0.586511 0.006901 0.012453 672136.000000 0 0 1
17.603693 -15.730777 33.072900 40.634518 -0.729272 0.619943 0.011448 0.011895 442108.000000 0 0 1
19.008393 -15.846877 33.303787 41.491984 -0.694942 0.639061 0.033142 0.009320 766553.000000 0 0 1
19.728193 -16.572677 32.080788 41.146472 -0.698689 0.676653 0.040074 0.001974 -52796.800000 0 0 1
19.685893 -15.841877 30.923598 39.934551 -0.677620 0.685098 0.032661 0.011458 202331.000000 0 0 1
20.385193 -16.527177 29.942748 39.815472 -0.681258 0.719648 0.032185 0.002772 -484629.000000 0 0 1
20.679593 -15.629477 28.710768 38.681188 -0.647198 0.734388 0.043138 0.006816 -57351.200000 0 0 1
21.592993 -14.574977 28.969418 38.960422 -0.593740 0.732417 0.032283 0.007514 399028.000000 0 0 1
21.914793 -13.883377 27.761408 37.996080 -0.564700 0.751539 0.035064 0.011668 20393.800000 0 0 1
22.636193 -12.551177 27.969878 38.108311 -0.506272 0.746666 0.036208 0.011769 91002.800000 0 0 1
21.767493 -11.536077 28.429948 37.618702 -0.487334 0.714013 0.031120 0.010680 34070.100000 0 0 1
22.463493 -10.531077 29.124608 38.259050 -0.438385 0.705562 0.036697 0.001030 120527.000000 0 0 1
21.639793 -9.222477 29.275088 37.554833 -0.402871 0.676883 0.034239 -0.002051 939043.000000 0 0 1
20.510393 -9.272977 30.165578 37.638098 -0.424608 0.641057 0.033435 -0.008535 573624.000000 0 0 1
19.667193 -8.150977 30.003908 36.789555 -0.392897 0.617109 0.031996 -0.006776 -360269.000000 0 0 1
18.475193 -8.056777 30.922338 36.911182 -0.411223 0.577647 0.021021 0.000370 -661342.000000 0 0 1
18.713593 -7.544677 32.201448 38.000710 -0.383232 0.559745 0.020308 -0.002031 146114.000000 0 0 1
18.987093 -8.518577 33.132432 39.125872 -0.421731 0.560825 0.023156 -0.005701 -553505.000000 0 0 1
19.073093 -7.909777 -34.457768 40.170701 -0.393122 2.601738 0.027259 -0.009998 -237584.000000 0 0 1
17.870493 -7.628477 -33.781605 38.971079 -0.403458 2.619621 0.022187 -0.018600 -168935.000000 0 0 1
18.096993 -6.968677 -32.514015 37.857955 -0.367573 2.603802 0.022109 -0.021330 113510.000000 0 0 1
16.801993 -6.791977 -31.700045 36.514802 -0.384153 2.622243 0.017585 -0.024078 300577.000000 0 0 1
17.126193 -6.037677 -30.541075 35.531919 -0.338936 2.605164 0.014599 -0.022914 1140910.000000 0 0 1
15.882193 -5.778477 -29.859005 34.310276 -0.348945 2.626535 0.005402 -0.015804 800221.000000 0 0 1
16.012493 -4.689577 -28.818835 33.300410 -0.284903 2.616784 -0.000695 -0.010351 -296104.000000 0 0 1
16.602493 -4.996477 -27.556535 32.557183 -0.292326 2.579993 0.003846 -0.015919 202775.000000 0 0 1
15.964193 -5.997777 -26.753615 31.726719 -0.359386 2.574101 0.027720 -0.020622 142843.000000 0 0 1
14.554893 -5.671477 -26.187945 30.492934 -0.371562 2.603758 0.014943 -0.014316 113152.000000 0 0 1
14.601693 -4.584477 -25.304565 29.572755 -0.304223 2.597643 0.010149 -0.005296 696689.000000 0 0 1
13.381493 -4.414677 -24.531305 28.290257 -0.318666 2.620205 -0.010316 -0.010811 972011.000000 0 0 1
13.284093 -3.043277 -23.805605 27.430557 -0.225206 2.621654 -0.006621 -0.009572 -137170.000000 0 0 1
13.254493 -1.883277 -24.637105 28.039530 -0.141141 2.643837 -0.025046 -0.007262 199302.000000 0 0 1
12.885493 -0.759277 -23.840005 27.110114 -0.058857 2.645348 -0.025794 0.002121 45192.500000 0 0 1
13.498693 0.579723 -24.360605 27.856594 0.042920 2.635201 -0.022039 -0.000648 -466828.000000 0 0 1
12.887193 1.142723 -25.480455 28.576899 0.088440 2.671763 -0.017951 -0.001712 -47563.900000 0 0 1
13.432193 2.417723 -25.814285 29.200111 0.178088 2.655248 -0.025738 0.017125 -190110.000000 0 0 1
12.792793 3.082723 -27.086335 30.113589 0.236465 2.689356 -0.022197 0.002210 755075.000000 0 0 1
11.539093 3.701723 -26.734835 29.353106 0.310427 2.716016 -0.000575 -0.011917 782395.000000 0 0 1
10.916693 4.409723 -27.814945 30.204155 0.383901 2.741174 0.017714 -0.006664 701488.000000 0 0 1
9.535693 5.074723 -27.496655 29.542313 0.489060 2.767269 0.033540 -0.007792 466648.000000 0 0 1
9.608093 6.235723 -26.668435 29.024216 0.575677 2.735912 0.038467 -0.028381 -164767.000000 0 0 1
8.413093 6.959723 -26.766015 28.907394 0.691137 2.754268 0.051490 -0.027839 -170338.000000 0 0 1
8.544593 5.576487 -31.691425 33.293448 0.578224 2.830115 0.043839 -0.006015 -119633.000000 0 0 1
8.402493 4.670787 -30.631395 32.104524 0.507347 2.837485 0.035257 0.002408 279169.000000 0 0 1
8.092593 3.389787 -31.101875 32.315744 0.396672 2.866637 0.030580 0.007444 -134729.000000 0 0 1
7.907193 2.304187 -29.998885 31.108939 0.283552 2.873648 0.037191 0.000372 1197560.000000 0 0 1
9.167993 1.885787 -29.398715 30.852759 0.202863 2.833361 0.030114 -0.007884 1683700.000000 0 0 1
8.789793 1.093887 -28.229325 29.586345 0.123813 2.837549 0.031294 -0.011424 -109625.000000 0 0 1
9.977193 0.431787 -27.548085 29.302351 0.043250 2.793814 0.020529 -0.014488 -377462.000000 0 0 1
10.604993 -0.541513 -28.336975 30.261250 -0.051018 2.783056 -0.000654 -0.007051 220950.000000 0 0 1
11.670493 -1.151213 -27.610975 29.998194 -0.098325 2.739953 -0.003840 -0.011803 374095.000000 0 0 1
12.182593 -2.501113 -28.240155 30.857373 -0.202489 2.726759 -0.013791 -0.010148 -352914.000000 0 0 1
11.391893 -3.555213 -27.855085 30.303804 -0.302505 2.736826 -0.000263 -0.003720 -355083.000000 0 0 1
11.770993 -4.778813 -28.437075 31.145795 -0.385653 2.721450 -0.004510 -0.005038 -63768.500000 0 0 1
10.888393 -5.946513 -27.842095 30.481148 -0.499870 2.722406 -0.012370 -0.009330 93788.100000 0 0 1
10.973293 -6.037813 -26.449805 29.265347 -0.503018 2.699346 -0.000081 -0.007417 -43163.300000 0 0 1
10.286693 -7.132013 -25.883785 28.751556 -0.606231 2.691155 0.010568 -0.012684 -270475.000000 0 0 1
10.009593 -6.894713 -24.387605 27.248565 -0.603177 2.679239 0.010612 -0.015160 -360346.000000 0 0 1
11.190593 -6.796113 -23.639205 27.022741 -0.545774 2.635797 0.017391 -0.014123 -73301.200000 0 0 1
10.854093 -6.348313 -22.319105 25.617472 -0.529226 2.628530 0.017843 -0.015955 1810470.000000 0 0 1
12.145893 -6.428913 -21.341305 25.383162 -0.486818 2.569493 0.019693 -0.022032 1714700.000000 0 0 1
12.931693 -5.289413 -21.143905 25.343072 -0.388264 2.557671 0.014331 -0.024594 370693.000000 0 0 1
14.012793 -5.535013 -20.221705 25.217297 -0.376186 2.501262 0.019846 -0.022574 695574.000000 0 0 1
14.568693 -4.234313 -19.590305 24.778141 -0.282852 2.482631 0.023123 -0.018257 -217712.000000 0 1 0
15.356593 -3.480613 -20.468005 25.823997 -0.222887 2.485852 0.016475 -0.016115 -175030.000000 0 0 1
15.872193 -2.378313 -19.862905 25.536599 -0.148735 2.461988 0.012080 -0.005066 -16376.600000 0 0 1
16.841593 -1.496013 -20.747705 26.764614 -0.088596 2.457815 0.001021 -0.000638 588252.000000 0 0 1
18.081093 -2.163413 -20.876805 27.702838 -0.119084 2.424315 0.015700 -0.005768 381307.000000 0 0 1
18.987993 -1.469413 -21.769405 28.924212 -0.077233 2.422853 0.017077 -0.005286 336022.000000 0 0 1
20.258293 -2.269613 -22.081605 30.052402 -0.111569 2.396124 0.018237 -0.005976 -1108950.000000 0 0 1
21.157393 -2.297313 -20.996405 29.895851 -0.108158 2.349445 0.006969 0.000338 87511.300000 0 0 1
22.465793 -2.704813 -21.310805 31.083408 -0.119820 2.326225 0.008115 -0.005598 595224.000000 0 0 1
23.391293 -1.815213 -22.213805 32.309452 -0.077447 2.328882 0.013299 -0.010184 -830528.000000 0 0 1
22.908493 -1.860413 -23.541405 32.900728 -0.081033 2.368177 0.023689 -0.016160 106123.000000 0 0 1
23.711293 -1.158313 -24.477005 34.098253 -0.048812 2.371488 0.021823 -0.006789 67067.500000 0 0 1
24.892793 -1.972913 -25.067965 35.382854 -0.079091 2.358135 0.025947 -0.018123 -746880.000000 0 0 1
25.770893 -2.304613 -23.999805 35.290803 -0.089190 2.318639 0.014631 -0.009571 -70399.600000 0 0 1
27.036493 -2.862913 -24.289105 36.457219 -0.105498 2.299946 0.005912 -0.006958 426487.000000 0 0 1
28.022893 -1.978213 -25.068755 37.651538 -0.070476 2.299375 0.003499 -0.013486 -1409210.000000 0 0 1
27.667393 -1.836313 -26.426235 38.304080 -0.066274 2.332156 0.021932 -0.013186 -282645.000000 0 0 1
28.373993 -0.868913 -27.078275 39.231001 -0.030614 2.332598 0.021590 -0.009524 -919187.000000 0 0 1
27.797793 -0.580213 -28.511385 39.824025 -0.020870 2.368758 0.031546 -0.018941 462725.000000 0 0 1
26.474493 -0.116113 -28.732375 39.069958 -0.004386 2.397065 0.027152 -0.014874 324289.000000 0 0 1
26.112193 1.117087 -28.077285 38.359203 0.042754 2.391986 0.016581 -0.009288 -862725.000000 0 0 1
24.713793 1.686387 -28.320995 37.625712 0.068131 2.422955 0.017692 -0.008350 -879313.000000 0 0 1
23.749993 1.063787 -27.539205 36.381336 0.044761 2.429444 0.020516 -0.008721 -882948.000000 0 0 1
22.523793 1.659487 -27.862495 35.866332 0.073544 2.460432 0.010790 -0.004335 -296497.000000 0 0 1
21.477993 1.314187 -26.740245 34.323053 0.061111 2.463986 0.011549 -0.001341 40393.200000 0 0 1
21.713493 2.003187 -25.474835 33.532905 0.091995 2.433643 0.009029 -0.001600 -66451.600000 0 0 1
20.860893 1.582487 -24.473305 32.196642 0.075714 2.434294 -0.000655 -0.000376 -607123.000000 0 0 1
21.041893 2.247987 -23.069305 31.305072 0.106430 2.399298 0.001035 0.002419 -239559.000000 0 0 1
20.704493 3.649887 -22.928205 31.107881 0.174492 2.399498 -0.003486 0.002137 421596.000000 0 0 1
20.857793 4.003587 -21.595405 30.289235 0.189640 2.364525 -0.016287 0.003468 -249303.000000 0 0 1
20.475593 5.450387 -21.289505 30.036638 0.260157 2.358570 -0.014536 0.016212 289211.000000 0 0 1
21.465293 6.418887 -21.734105 31.214295 0.290572 2.341008 -0.013539 0.011877 788023.000000 0 0 1
21.283093 7.777287 -21.352305 31.134822 0.350346 2.326501 -0.025144 0.002083 -699968.000000 0 0 1
21.537293 8.032687 -19.862805 30.379435 0.356987 2.283424 -0.023600 0.011636 116030.000000 0 0 1
22.904993 7.975787 -19.435805 31.080579 0.335081 2.246358 -0.023810 0.011855 906317.000000 0 0 1
23.203193 8.442487 -18.135505 30.635931 0.348960 2.204295 -0.019349 0.011021 -160024.000000 0 0 1
23.123693 9.968787 -17.831905 30.855449 0.407032 2.186971 -0.011220 0.000696 -405052.000000 0 0 1
21.782293 10.338687 -17.641605 29.876127 0.443152 2.202464 -0.008605 0.000699 -199586.000000 0 0 1
21.704693 11.725287 -17.207605 30.077861 0.495303 2.179863 -0.000500 -0.000695 -629004.000000 0 0 1
20.275493 12.247887 -16.933305 29.117746 0.543409 2.191424 -0.001055 -0.006370 261050.000000 0 0 1
19.397193 12.240987 -18.049405 29.186878 0.562952 2.237512 -0.002684 -0.005910 363858.000000 0 0 1
18.796693 10.936487 -18.198005 28.356477 0.526952 2.267585 0.002145 -0.007947 -1240780.000000 0 0 1
17.995293 10.706287 -19.433205 28.567544 0.536697 2.318906 0.012438 0.001346 -575295.000000 0 0 1
18.746993 10.772087 -20.609205 29.870168 0.521536 2.332229 0.020747 0.004437 190747.000000 0 0 1
18.080993 10.097787 -21.670705 29.975107 0.509327 2.378869 0.009673 -0.004957 -176920.000000 0 0 1
18.829793 10.217687 -23.007105 31.437066 0.497170 2.391824 0.025131 -0.007149 -121368.000000 0 0 1
18.704293 11.535887 -23.461705 32.146211 0.552645 2.388889 0.023348 -0.008763 -40910.500000 0 0 1
19.623393 11.804187 -24.455605 33.503626 0.541549 2.389029 0.022405 -0.010231 -493272.000000 0 0 1
19.617093 13.277487 -24.880405 34.353406 0.595008 2.380740 0.035203 -0.008297 -601873.000000 0 0 1
20.513793 13.632087 -25.865625 35.716663 0.586524 2.380654 0.022017 -0.007861 -350745.000000 0 0 1
20.527093 14.983187 -26.352965 36.610602 0.630527 2.374336 0.023005 -0.010654 278673.000000 0 0 1
19.270093 15.494987 -27.147165 36.720562 0.677233 2.402813 0.036241 -0.016219 1132820.000000 0 0 1
18.087293 15.575487 -26.333855 35.541776 0.710919 2.405246 0.033980 -0.017494 514596.000000 0 0 1
16.968893 15.859587 -27.157325 35.734998 0.751620 2.434055 0.026981 -0.019434 755557.000000 0 0 1
15.551793 15.517787 -26.600995 34.500332 0.784304 2.451263 0.014685 -0.014932 348171.000000 0 0 1
15.313193 14.154887 -26.635755 33.827772 0.746111 2.477365 0.018238 -0.013926 719326.000000 0 0 1
13.936193 13.805687 -26.449235 32.929872 0.780694 2.503442 0.016869 -0.013191 259449.000000 0 0 1
13.833993 12.285087 -26.358535 32.203650 0.726166 2.529583 0.010944 -0.017216 -281226.000000 0 0 1
12.535493 11.769387 -26.247985 31.378556 0.753888 2.561651 0.023320 -0.021948 -405107.000000 0 0 1
12.611993 10.420887 -25.836345 30.580614 0.690554 2.577100 0.030302 -0.023056 491355.000000 0 0 1
11.230293 9.723587 -25.590725 29.589742 0.713616 2.615650 0.022774 -0.026299 364611.000000 0 0 1
10.571493 10.247087 -24.454505 28.544388 0.769817 2.599670 0.022427 -0.027240 -177526.000000 0 0 1
9.505693 9.346687 -24.207105 27.635171 0.776964 2.638204 0.034577 -0.031771 -291191.000000 0 0 1
8.598893 9.842887 -23.059905 26.506275 0.852751 2.625956 0.039584 -0.031810 154903.000000 0 0 1
7.629993 10.817087 -23.506705 26.977608 0.956479 2.628726 0.028187 -0.028405 522834.000000 0 0 1
7.075393 11.703087 -22.480905 26.313770 1.027020 2.595076 0.030138 -0.005628 392443.000000 0 0 1
8.023393 12.629287 -21.664305 26.328992 1.004824 2.537171 0.027490 -0.005399 477814.000000 0 0 1
8.999293 11.997387 -20.833205 25.669963 0.927228 2.517646 0.036985 -0.014926 -308781.000000 0 0 1
9.822393 12.871287 -20.173405 25.867271 0.918948 2.465273 0.034390 -0.006369 -661963.000000 0 0 1
10.862193 12.184987 -19.230605 25.224538 0.842730 2.437775 0.041828 -0.014863 460757.000000 0 0 1
11.951593 11.512187 -19.920405 25.926696 0.766673 2.447033 0.047396 -0.020556 690801.000000 0 0 1
11.624893 10.487187 -20.873505 26.092574 0.733992 2.498056 0.045266 -0.022536 -1513100.000000 0 0 1
12.823593 9.995987 -21.636705 27.064946 0.662115 2.497153 0.050031 -0.026375 -318124.000000 0 0 1
13.635393 8.995987 -21.014305 26.616775 0.583201 2.480812 0.058345 -0.024895 795813.000000 0 0 1
14.666093 8.508087 -21.896305 27.693501 0.525673 2.482692 0.050608 -0.023810 212094.000000 0 0 1
15.434393 7.331187 -21.278405 27.289875 0.443440 2.465012 0.061247 -0.019514 -390064.000000 0 0 1
16.006993 7.629387 -20.061105 26.774602 0.444776 2.417738 0.030325 -0.012827 -315763.000000 0 0 1
16.576393 6.489487 -19.567805 26.453530 0.373148 2.403428 0.011627 -0.009499 -91033.800000 0 0 1
17.283793 6.741287 -18.193705 25.984329 0.371887 2.346446 0.022599 -0.009624 -749066.000000 0 0 1
18.552193 7.385687 -18.229205 27.037680 0.378870 2.310697 0.009851 -0.007057 690665.000000 0 0 1
19.185793 7.385687 -16.921605 26.626748 0.367471 2.259467 0.001655 -0.012388 309668.000000 0 0 1
19.679393 5.935087 -16.553405 26.391646 0.292914 2.248777 -0.013158 -0.010213 -1247090.000000 0 0 1
20.748593 5.499787 -17.354105 27.602839 0.259109 2.250686 -0.026482 0.001350 121707.000000 0 0 1
21.308993 4.346287 -16.808805 27.486348 0.201205 2.228793 -0.021547 -0.002968 -109320.000000 0 0 1
22.739593 3.987287 -17.278505 28.836336 0.173581 2.213288 -0.020585 0.012176 -50813.400000 0 0 1
23.395093 3.101087 -16.422505 28.751448 0.131785 2.178750 -0.025627 0.012123 619392.000000 0 0 1
24.655793 2.635687 -16.909405 30.013046 0.106495 2.169294 -0.023020 0.008502 981584.000000 0 0 1
25.479293 1.635087 -15.973405 30.116732 0.064085 2.129849 -0.013038 0.002147 101598.000000 0 0 1
24.920393 0.326387 -15.820805 29.519999 0.013096 2.136411 0.002607 0.008266 489835.000000 0 0 1
25.902193 -0.735413 -15.984805 30.446320 -0.028384 2.123530 -0.006095 0.017758 -60463.400000 0 0 1
25.379393 -2.140213 -16.376705 30.280201 -0.084130 2.142230 -0.005931 0.006715 -336253.000000 0 0 1
24.782693 -2.718413 -15.222905 29.211444 -0.109253 2.118969 -0.000734 0.013075 420489.000000 0 0 1
24.722693 -4.133613 -15.345405 29.390130 -0.165667 2.120140 -0.004190 0.015207 -1357110.000000 0 0 1
24.182893 -4.793313 -14.107605 28.404448 -0.195675 2.090553 -0.005550 0.012290 545656.000000 0 0 1
22.780993 -4.662513 -13.841505 27.061041 -0.201879 2.107717 0.000090 0.018235 1076920.000000 0 0 1
21.960393 -5.385513 -14.787705 27.017380 -0.240491 2.149979 0.009985 0.020267 -57389.700000 0 0 1
20.523893 -5.623513 -14.223105 25.595913 -0.267435 2.159975 0.011227 0.015259 180719.000000 0 0 1
20.585093 -6.569813 -13.149605 25.294675 -0.308935 2.117479 0.014451 0.014471 408631.000000 0 0 1
20.553993 -5.936513 -11.870505 24.466665 -0.281174 2.077355 0.013788 0.015687 -398878.000000 0 1 0
20.246893 -7.043313 -10.810405 24.008536 -0.334777 2.037868 0.011129 0.009394 293379.000000 0 1 0
18.923093 -7.572513 -10.904205 23.115538 -0.380656 2.062044 0.012273 0.010278 962260.000000 0 1 0
18.769593 -8.643113 -11.893705 23.842425 -0.431539 2.093063 0.013635 0.001960 -895280.000000 0 1 0
17.394993 -9.282813 -11.665605 22.909446 -0.490203 2.105057 0.034580 0.003819 -158600.000000 0 1 0
16.409093 -8.276013 -11.905005 21.897029 -0.467126 2.145613 0.032814 0.001933 163889.000000 0 1 0
15.170493 -8.861113 -12.277105 21.433396 -0.528648 2.180717 0.039491 0.000342 330604.000000 0 1 0
14.054293 -7.848113 -12.616805 20.452379 -0.509280 2.235578 0.032762 -0.004054 -249577.000000 0 1 0
14.155093 -7.250913 -13.924605 21.138520 -0.473398 2.289928 0.031881 0.001114 919618.000000 0 1 0
15.268393 -6.352513 -14.092605 21.727396 -0.394271 2.276553 0.029539 0.006656 416707.000000 0 1 0
14.855693 -5.261813 -15.029105 21.777334 -0.340407 2.332460 0.007241 0.000365 -415768.000000 0 1 0
13.956193 -4.362113 -14.460305 20.564624 -0.302937 2.350634 0.020590 -0.004965 -174836.000000 0 1 0
13.624593 -3.312213 -15.350105 20.790046 -0.238479 2.401401 0.011806 -0.013790 -362918.000000 0 1 0
14.667793 -2.194013 -15.525905 21.471180 -0.148479 2.379082 0.011802 -0.011027 272554.000000 0 1 0
15.806093 -2.534313 -16.336005 22.871825 -0.158985 2.366336 0.010947 -0.004399 591341.000000 0 1 0
16.830193 -1.563013 -16.261805 23.455164 -0.092604 2.336875 0.008914 0.006559 236463.000000 0 1 0
17.993493 -1.910313 -15.321105 23.709731 -0.105771 2.273384 0.011410 0.006547 -1002820.000000 0 1 0
17.598093 -1.714913 -13.984305 22.543171 -0.097142 2.239965 0.009428 0.009383 286609.000000 0 1 0
18.553993 -2.209813 -13.054505 22.793728 -0.118543 2.180621 0.000382 0.014440 -135444.000000 0 1 0
18.067193 -2.319613 -11.617505 21.604872 -0.127690 2.138534 -0.005082 0.021324 -532303.000000 0 1 0
18.032993 -1.180213 -10.826705 21.066544 -0.065354 2.110555 0.006521 0.013804 518214.000000 0 1 0
17.550293 -1.497513 -9.524005 20.024035 -0.085121 2.066475 0.007613 0.012050 -886961.000000 0 1 0
17.468293 -0.282613 -8.514905 19.435142 -0.016177 2.024301 0.002654 0.009109 -187081.000000 0 1 0
18.659393 0.189187 -7.894305 20.261510 0.010139 1.971016 -0.012727 0.007837 901764.000000 0 1 0
19.688193 0.758387 -8.696905 21.536858 0.038501 1.986479 -0.022802 0.020181 -320565.000000 0 1 0
19.359093 2.014087 -9.550505 21.680479 0.103665 2.026965 -0.025063 0.018798 -870453.000000 0 1 0
19.243293 3.164487 -8.829005 21.407233 0.162987 1.995917 -0.019437 0.023908 580515.000000 0 1 0
18.583393 4.161387 -9.571105 21.313509 0.220296 2.036513 -0.023045 0.012149 -396224.000000 0 1 0
18.586993 5.586587 -8.921905 21.360867 0.291974 2.001681 0.007115 0.011718 -608696.000000 0 1 0
17.830993 6.392387 -9.762405 21.309891 0.344226 2.046671 0.005048 0.004085 319862.000000 0 1 0
18.017893 7.782287 -9.425505 21.772657 0.407717 2.018510 0.005237 0.004206 -401877.000000 0 1 0
-24.686207 -29.439633 5.839695 38.861329 0.872995 1.419955 -0.006910 -0.010786 -411899.000000 0 0 1
-25.088757 -28.630183 6.886595 38.685376 0.851228 1.391827 -0.002136 -0.005343 -358325.000000 0 0 1
-24.257307 -27.497653 7.072195 37.343725 0.847926 1.380265 0.005477 -0.009899 -874378.000000 0 0 1
-24.807707 -26.408423 8.036695 37.113550 0.816642 1.352524 -0.005461 -0.000017 197326.000000 0 0 1
-26.013427 -25.720953 7.587495 37.360887 0.779745 1.366287 -0.024033 0.004682 1886650.000000 0 0 1
-27.201617 -26.552343 7.637795 38.772294 0.773320 1.372508 -0.014111 0.005743 88132.900000 0 0 1
-27.773377 -26.830493 9.047295 39.662191 0.768132 1.340661 -0.027529 0.004368 -1498340.000000 0 0 1
-26.975997 -27.637823 9.764895 39.836000 0.797516 1.323145 -0.021184 0.000120 -839771.000000 0 0 1
-27.262257 -27.592203 11.150395 40.359530 0.791413 1.290879 -0.014601 0.002033 -1379240.000000 0 0 1
-26.221157 -28.286943 11.961195 40.382799 0.823279 1.270090 -0.009104 -0.007054 815102.000000 0 0 1
-24.982107 -27.562443 12.251895 39.165072 0.834466 1.252628 -0.009976 -0.003460 1136320.000000 0 0 1
-25.184827 -26.604353 13.249695 38.956662 0.812801 1.223759 -0.009454 0.001919 -318419.000000 0 0 1
-23.899607 -25.991573 13.892595 37.944134 0.827304 1.195946 0.010524 -0.001103 91752.400000 0 0 1
-23.206607 -26.945723 14.665395 38.466770 0.859816 1.179650 0.032519 -0.002750 -186756.000000 0 0 1
-22.216007 -26.275563 15.439295 37.713764 0.868920 1.149021 0.033570 -0.002363 26661.500000 0 0 1
-21.225907 -27.261143 16.032895 38.088880 0.909232 1.136322 0.026267 -0.009451 -51763.000000 0 0 1
-21.918307 -28.121203 16.940195 39.473845 0.908729 1.127245 0.023461 -0.003713 345003.000000 0 0 1
-21.021507 -29.113403 17.363995 39.887371 0.945421 1.120396 0.025260 -0.000459 -163822.000000 0 0 1
-21.673907 -30.192703 18.222895 41.393616 0.948189 1.114937 0.028399 -0.001007 78722.300000 0 0 1
-22.702907 -30.858983 17.488695 42.113576 0.936511 1.142552 0.022514 -0.000654 268924.000000 0 0 1
-23.200607 -31.874353 18.311095 43.468825 0.941605 1.135977 0.019023 0.007049 -670522.000000 0 0 1
-24.333807 -32.719233 17.752395 44.472800 0.931329 1.160180 0.014655 0.000756 -340896.000000 0 0 1
-23.925507 -33.599543 16.741395 44.515542 0.952010 1.185235 0.019207 0.002288 -158826.000000 0 0 1
-24.880407 34.496398 16.575795 45.648583 -0.945953 1.199185 0.018545 -0.003971 -645169.000000 0 0 1
-24.586707 33.665936 15.291395 44.404146 -0.940014 1.219230 0.017349 -0.009996 601355.000000 0 0 1
-23.356307 32.953611 15.290995 43.188796 -0.954213 1.208898 0.011985 -0.013867 532412.000000 0 0 1
-22.193707 33.635435 14.886595 42.959444 -0.987541 1.216930 0.012344 -0.001072 -146319.000000 0 0 1
-20.912507 32.792371 14.734995 41.590776 -1.003099 1.208647 0.022385 -0.007873 36071.900000 0 0 1
-20.883007 31.958651 13.560095 40.513350 -0.992008 1.229502 0.028872 -0.007688 -436478.000000 0 0 1
-19.704607 31.230651 13.492095 39.314905 -1.007938 1.220496 0.022944 -0.006082 -477361.000000 0 0 1
-19.586407 30.496001 12.110295 38.213776 -0.999880 1.248327 0.020034 -0.000125 244709.000000 0 0 1
-19.091307 31.346021 11.069795 38.335250 -1.023749 1.277862 0.013523 -0.005385 -1885.470000 0 0 1
-19.356507 30.691141 9.880995 37.606576 -1.008118 1.304929 0.013347 -0.002812 -21570.600000 0 0 1
-18.753007 31.399481 8.649695 37.582176 -1.032409 1.338560 0.002043 -0.009062 -208205.000000 0 0 1
-17.343807 31.295181 8.606695 36.800424 -1.064734 1.334735 0.000049 -0.013804 -300593.000000 0 0 1
-16.780007 31.717031 7.372995 36.631950 -1.084177 1.368140 0.003928 -0.015861 -25966.300000 0 0 1
-16.457107 30.500501 6.492395 35.260008 -1.075997 1.385611 0.000556 -0.016831 -577428.000000 0 0 1
-17.533907 29.661531 6.143995 34.999900 -1.036922 1.394339 -0.002848 -0.011606 -363508.000000 0 0 1
-17.673907 28.506581 6.941495 34.251664 -1.015805 1.366721 -0.008509 -0.005538 -73387.300000 0 0 1
-18.739507 27.580151 6.325795 33.938909 -0.973992 1.383312 0.003049 -0.002699 124585.000000 0 0 1
-18.284707 26.854051 5.202095 32.901860 -0.973010 1.412021 0.013115 -0.006964 254511.000000 0 0 1
-19.337207 26.028381 4.769795 32.774306 -0.931837 1.424743 0.032455 -0.007925 -409624.000000 0 0 1
-18.993007 25.287681 3.439095 31.812396 -0.926606 1.462479 0.041516 -0.010357 -1496700.000000 0 0 1
-18.822007 26.110731 2.252195 32.266246 -0.946212 1.500939 0.042392 -0.011975 780132.000000 0 0 1
-17.623907 26.917371 2.136795 32.244579 -0.991095 1.504479 0.035883 -0.011605 1063590.000000 0 0 1
-16.262007 26.166891 2.396495 30.901493 -1.014738 1.493166 0.025108 -0.013775 -612220.000000 0 0 1
-16.040507 24.920991 1.765895 29.689595 -0.998895 1.511283 0.036267 -0.010889 249913.000000 0 0 1
-15.465107 25.172291 0.468195 29.547132 -1.019877 1.554950 0.034568 -0.007996 -175485.000000 0 0 1
-15.204807 23.848051 -0.302605 28.284400 -1.003209 1.581495 0.028589 -0.003963 -190771.000000 0 0 1
-16.305307 23.000751 -0.521105 28.198744 -0.954120 1.589277 0.032861 -0.002887 -118506.000000 0 0 1
-16.044307 21.975651 -1.483405 27.249762 -0.940157 1.625261 0.023000 -0.000377 -110635.000000 0 0 1
-15.113507 20.851351 -0.992205 25.771717 -0.943605 1.609306 0.028980 -0.009515 -35279.000000 0 0 1
-15.817607 19.883751 -0.234205 25.408957 -0.898803 1.580014 0.033705 -0.009533 143029.000000 0 0 1
-14.938807 18.901151 0.249595 24.093231 -0.901958 1.560437 0.059610 -0.023139 -579705.000000 0 1 0
-15.576707 17.769951 1.063495 23.654513 -0.851075 1.525822 0.048636 -0.025536 -17464.300000 0 1 0
-16.164807 16.706051 0.320995 23.248574 -0.801862 1.556989 0.033413 -0.023958 320659.000000 0 1 0
-16.860507 15.817551 1.132895 23.146384 -0.753493 1.521832 0.028814 -0.032877 -171918.000000 0 1 0
-17.543707 14.619851 0.430095 22.840900 -0.694741 1.551965 0.038731 -0.030060 -166483.000000 0 1 0
-18.739507 14.984351 -0.230605 23.994855 -0.674505 1.580407 0.057288 -0.033664 484209.000000 0 1 0
-19.580107 13.899951 -0.559205 24.018783 -0.617341 1.594080 0.049950 -0.022447 -150392.000000 0 1 0
-20.639107 14.173051 -1.656205 25.091655 -0.601750 1.636851 0.061383 -0.014886 -534894.000000 0 0 1
-21.627407 13.193251 -1.879005 25.403489 -0.547758 1.644830 0.047954 -0.012974 1192790.000000 0 0 1
-22.681907 12.992551 -0.916405 26.155594 -0.520191 1.605840 0.040614 -0.003121 200813.000000 0 0 1
-23.647007 14.183151 -0.671305 27.582483 -0.540262 1.595137 0.009787 -0.001370 -994007.000000 0 0 1
-23.038907 15.273651 -0.037005 27.641943 -0.585425 1.572135 -0.002102 -0.006528 159708.000000 0 0 1
-23.996207 16.227351 0.353695 28.970157 -0.594606 1.558587 -0.017590 -0.005227 -177545.000000 0 0 1
-23.272907 17.448851 0.992295 29.104557 -0.643341 1.536696 -0.019260 -0.010281 123773.000000 0 0 1
-22.564307 17.055451 2.137595 28.365572 -0.647241 1.495366 -0.014169 -0.007897 15575.300000 0 0 1
-22.188507 18.112951 3.007395 28.800230 -0.684614 1.466183 -0.003482 -0.013864 -327112.000000 0 0 1
-23.250307 19.114351 3.532195 30.305307 -0.688079 1.453977 -0.004712 -0.015096 248328.000000 0 0 1
-24.219407 18.460151 4.395795 30.768163 -0.651267 1.427437 -0.000261 -0.020078 1012850.000000 0 0 1
-25.524147 19.014051 4.444495 32.136735 -0.640257 1.432052 -0.009676 -0.017708 796570.000000 0 0 1
-26.491767 18.574051 3.280395 32.520303 -0.611481 1.469752 0.015417 -0.007772 515486.000000 0 0 1
-27.847197 18.988051 3.482095 33.884177 -0.598451 1.467850 0.013527 -0.007665 1003790.000000 0 0 1
-28.632537 18.610051 2.342495 34.229278 -0.576348 1.502307 0.032634 -0.000610 866881.000000 0 0 1
-29.898417 19.484751 1.997295 35.742972 -0.577568 1.514888 0.048168 -0.011029 594080.000000 0 0 1
-30.972927 19.345951 2.886495 36.632225 -0.558318 1.491918 0.051788 -0.007010 795346.000000 0 0 1
-32.102337 20.185551 2.516095 38.004569 -0.561318 1.504543 0.035288 -0.009805 691639.000000 0 0 1
-32.693927 20.987551 3.676495 39.024182 -0.570689 1.476446 0.023665 -0.002790 -410681.000000 0 0 1
-31.801077 21.901251 4.267395 38.848217 -0.603099 1.460726 0.033645 -0.010403 156060.000000 0 0 1
-32.233157 22.361551 5.522995 39.617154 -0.606515 1.430932 0.011176 -0.006997 -330623.000000 0 0 1
-31.386137 23.490251 6.165695 39.684976 -0.642494 1.414798 0.021826 -0.010640 -127974.000000 0 0 1
-31.419547 24.711601 5.432495 40.340590 -0.666457 1.435720 0.012405 -0.002130 607909.000000 0 0 1
-30.432407 25.573811 5.967695 40.196575 -0.698864 1.421783 -0.001015 -0.003101 -176259.000000 0 0 1
-30.840797 27.013821 5.684395 41.390985 -0.719346 1.433027 -0.009351 0.003887 -221550.000000 0 0 1
-31.859327 27.361911 6.596695 42.511261 -0.709601 1.414991 0.008875 0.004529 98153.400000 0 0 1
-32.199217 28.748621 6.460595 43.646444 -0.728843 1.422229 -0.002528 0.009802 535424.000000 0 0 1
-33.152977 29.380431 7.551895 44.937298 -0.725143 1.401941 0.000399 0.008395 -168301.000000 0 0 1
-32.515597 29.382561 8.805595 44.700531 -0.734825 1.372509 0.001610 -0.007803 120282.000000 0 0 1
-33.243037 29.829321 9.951595 45.759394 -0.731327 1.351568 0.008298 -0.007822 722228.000000 0 0 1
-34.548101 29.021111 10.367995 46.295696 -0.698672 1.344929 -0.000042 0.001438 1345270.000000 0 0 1
-34.061817 27.736531 10.817095 45.238613 -0.683400 1.329345 0.002514 -0.009883 506171.000000 0 0 1
-35.087586 27.108991 11.540495 45.817236 -0.657815 1.316173 0.006618 -0.009406 -294395.000000 0 0 1
-34.604680 25.744381 12.076795 44.789575 -0.639622 1.297783 0.016187 -0.015087 304128.000000 0 0 1
-33.627107 25.918441 13.147995 44.445671 -0.656656 1.270481 0.026367 -0.025347 622954.000000 0 0 1
-33.139437 24.696941 13.694495 43.539642 -0.640450 1.250836 0.033638 -0.024347 134026.000000 0 0 1
-31.882897 25.116461 14.503795 43.101228 -0.667240 1.227593 0.040100 -0.030510 -10589.600000 0 0 1
-32.279067 26.119711 15.384095 44.281462 -0.680316 1.215982 0.034627 -0.024270 396369.000000 0 0 1
-31.196937 26.640701 16.165295 44.094134 -0.706784 1.195435 0.054646 -0.025832 256189.000000 0 0 1
-31.555247 27.885591 17.041295 45.428466 -0.723740 1.186266 0.043199 -0.021539 -321967.000000 0 0 1
-31.846947 29.029101 16.318795 46.078410 -0.739143 1.208788 0.046972 -0.027188 -2806.810000 0 0 1
-32.105547 30.174571 17.133395 47.273927 -0.754403 1.199925 0.036593 -0.023591 -81246.100000 0 0 1
-31.697177 31.502891 16.417595 47.609669 -0.782324 1.218731 0.026239 -0.017750 -955663.000000 0 0 1
-30.327047 31.553361 16.320395 46.708668 -0.805213 1.213857 0.023253 -0.019680 -1339050.000000 0 0 1
-29.904087 32.727551 15.670395 47.020297 -0.830448 1.231028 0.011223 -0.009244 627210.000000 0 0 1
-28.367307 32.799471 15.333595 45.995962 -0.857732 1.230922 0.025366 -0.013165 710744.000000 0 0 1
-27.932767 32.041301 14.216295 44.821730 -0.853796 1.248048 0.021491 -0.017978 232087.000000 0 0 1
-27.523877 30.672221 14.460595 43.674452 -0.839444 1.233328 0.030131 -0.016175 -52506.400000 0 0 1
-28.624077 29.608901 14.262195 43.582508 -0.802308 1.237409 0.042196 -0.023279 64266.000000 0 0 1
-28.959667 29.460401 12.907295 43.280201 -0.793969 1.267962 0.045983 -0.032734 367048.000000 0 0 1
-30.120177 28.671991 12.610195 43.454864 -0.760771 1.276370 0.048436 -0.031079 628363.000000 0 0 1
-30.190297 28.547691 11.093395 43.005676 -0.757440 1.309895 0.035832 -0.022154 -398169.000000 0 0 1
-29.159147 27.801051 10.491495 41.632028 -0.761560 1.316044 0.030839 -0.016505 -160967.000000 0 0 1
-29.072367 28.054681 9.112795 41.416310 -0.767586 1.348952 0.025009 -0.015039 -77993.100000 0 0 1
-27.991437 27.216441 8.409695 39.937178 -0.771361 1.358635 0.019975 -0.011642 70517.300000 0 0 1
-27.870437 27.522071 7.049595 39.798523 -0.779109 1.392725 0.009496 -0.007925 -547677.000000 0 0 1
-26.807467 26.786541 6.525195 38.454353 -0.785008 1.400285 0.015589 -0.002368 -584663.000000 0 0 1
-26.501307 27.124041 5.041995 38.255125 -0.797010 1.438613 0.007994 -0.004853 -331287.000000 0 0 1
-25.804237 28.334481 4.867095 38.631465 -0.832100 1.444473 0.009524 -0.003557 167372.000000 0 0 1
-25.517507 28.482391 3.493495 38.400446 -0.840248 1.479695 -0.000359 -0.000049 -17058.900000 0 0 1
-24.501607 29.648561 3.267895 38.601102 -0.880163 1.486037 -0.002356 -0.003632 1040280.000000 0 0 1
-23.113707 29.285321 3.337895 37.456842 -0.902639 1.481565 0.003806 -0.006634 737986.000000 0 0 1
-22.238507 30.412951 3.233695 37.814753 -0.939424 1.485178 0.004118 -0.012927 1081510.000000 0 0 1
-20.740807 29.935391 3.208395 36.559575 -0.964884 1.482925 0.005459 -0.018681 501147.000000 0 0 1
-19.830007 30.949571 2.963095 36.876620 -1.000973 1.490358 0.005507 -0.019601 -170973.000000 0 0 1
-18.492007 30.455301 3.074695 35.762179 -1.025110 1.484714 0.010108 -0.019850 429898.000000 0 0 1
-17.433807 31.435901 2.580195 36.039019 -1.064442 1.499141 0.007162 -0.020407 -416358.000000 0 0 1
-17.245607 32.618601 3.338895 37.047703 -1.084450 1.480550 0.009401 -0.024422 -53827.300000 0 0 1
-16.286207 33.468195 2.755195 37.322269 -1.117912 1.496907 0.009599 -0.014434 -304064.000000 0 0 1
-15.973807 -34.306360 3.484495 38.003034 1.135027 1.478977 0.004554 -0.018143 3443.710000 0 0 1
-16.957607 -33.269113 3.462395 37.501767 1.099411 1.478338 0.004310 -0.023408 21364.100000 0 0 1
-16.698407 -32.296143 4.385295 36.621148 1.093610 1.450761 0.005133 -0.020881 862898.000000 0 0 1
-17.910707 -31.308153 4.737995 36.379149 1.051161 1.440186 0.005000 -0.013631 837337.000000 0 0 1
-18.214507 -30.301583 3.759495 35.554015 1.029563 1.464858 0.008663 -0.011295 342353.000000 0 0 1
-19.197107 -29.386343 4.228595 35.354874 0.992128 1.450905 0.011710 -0.008547 -234355.000000 0 0 1
-19.723107 -28.418073 3.151295 34.734975 0.964086 1.479947 0.020484 -0.014601 -152388.000000 0 0 1
-18.794507 -27.419033 2.834995 33.362765 0.969899 1.485719 0.019594 -0.008428 -44302.500000 0 0 1
-19.096707 -26.749143 1.580695 32.904399 0.950790 1.522739 0.020123 -0.007442 -2537.580000 0 0 1
-18.236307 -25.483363 1.415695 31.368278 0.949666 1.525650 0.025772 -0.008075 962312.000000 0 0 1
-16.861207 -25.801533 1.145395 30.843660 0.991967 1.533652 0.021841 -0.005030 39884.100000 0 0 1
-16.027907 -24.700813 1.373995 29.477311 0.995208 1.524167 0.019186 -0.005806 114497.000000 0 0 1
-14.624607 -24.975313 0.770195 28.952350 1.041060 1.544191 0.018372 -0.011735 -224866.000000 0 0 1
-14.646707 -24.997873 -0.679205 28.980701 1.040795 1.594235 0.012454 -0.005276 -19682.400000 0 0 1
-14.533807 -23.697713 -1.243905 27.827333 1.020655 1.615512 0.011143 -0.008466 -284951.000000 0 0 1
-14.881307 -23.638713 -2.744305 28.067299 1.008945 1.668729 -0.002234 0.004616 -285501.000000 0 0 1
-13.869007 -24.214513 -3.519205 28.126088 1.050650 1.696248 0.013239 0.002813 -241069.000000 0 0 1
-14.159507 -24.096613 -4.884105 28.372397 1.039534 1.743801 0.008671 0.011329 -177134.000000 0 0 1
-13.009807 -24.551413 -5.776705 28.379522 1.083515 1.775781 0.021355 0.007185 -211288.000000 0 0 1
-12.793307 -25.903933 -5.734305 29.454451 1.112061 1.766731 -0.003000 0.014417 -824620.000000 0 0 1
-11.789807 -26.390003 -6.567805 29.640646 1.150646 1.794232 0.014978 0.013889 -185624.000000 0 0 1
21.870693 12.696687 28.483618 38.090019 0.525983 0.726058 -0.004416 0.010864 -324297.000000 0 0 1
23.047393 12.011687 28.883998 38.855479 0.480442 0.732702 0.004104 0.009395 382713.000000 0 0 1
22.874593 11.079087 29.942948 39.275607 0.451042 0.703813 0.008989 0.010315 -383804.000000 0 0 1
22.901893 11.658787 31.362308 40.546496 0.470881 0.686467 0.011495 0.001266 43451.400000 0 0 1
21.801893 12.478687 31.660498 40.415681 0.519853 0.670724 0.001873 0.008001 139032.000000 0 0 1
22.166593 13.125287 32.813768 41.717794 0.534605 0.665569 0.006243 0.008699 -67175.200000 0 0 1
21.046693 14.080887 33.290262 41.826740 0.589638 0.650289 -0.004293 0.010817 1035730.000000 0 0 1
19.883493 13.326387 33.756773 41.381948 0.590461 0.616795 -0.001742 0.013672 810658.000000 0 0 1
19.127093 14.172487 -34.419358 41.849698 0.637693 2.536504 0.001549 0.010730 7526.780000 0 0 1
17.937293 13.419487 -33.759425 40.515773 0.642305 2.555741 -0.000775 0.010928 -299854.000000 0 0 1
16.830793 13.184687 34.465056 40.558003 0.664516 0.555244 -0.002943 0.011481 -593181.000000 0 0 1
15.909093 12.436687 -33.828325 39.397030 0.663504 2.603430 -0.004286 0.005938 337207.000000 0 0 1
14.556393 12.136187 34.477633 39.343141 0.694976 0.502603 0.003996 0.006367 503035.000000 0 0 1
14.710993 11.282587 33.342438 38.150075 0.654261 0.507462 0.001118 0.014772 -221062.000000 0 0 1
13.499193 10.915187 32.722328 37.042142 0.679951 0.487768 0.013088 0.013283 -152353.000000 0 0 1
13.753293 9.907187 31.545838 35.811245 0.624254 0.493053 0.012257 0.019941 4644.580000 0 0 1
14.026193 8.639187 32.087298 36.068883 0.552052 0.474302 0.000997 0.016860 -71059.100000 0 0 1
14.821993 7.815187 31.253848 35.462256 0.485225 0.492133 0.003962 0.001335 2930.990000 0 0 1
15.044193 6.405187 31.818968 35.774305 0.402513 0.474686 0.020690 -0.003962 -424204.000000 0 0 1
14.014593 5.462287 31.812318 35.189046 0.371645 0.441667 0.005047 0.004198 -574412.000000 0 0 1
14.418493 4.226187 32.416438 35.729246 0.285123 0.434026 0.012163 -0.004087 601657.000000 0 0 1
13.278993 3.148287 32.431978 35.186312 0.232790 0.398301 -0.003291 0.003265 594451.000000 0 0 1
13.811993 1.914787 32.829568 35.668166 0.137754 0.401652 0.002331 -0.005109 423162.000000 0 0 1
12.795993 1.222087 33.539657 35.918512 0.095217 0.365988 -0.006734 -0.002406 363981.000000 0 0 1
13.331993 -0.216913 33.873962 36.403769 -0.016269 0.375002 -0.016331 -0.006800 222406.000000 0 0 1
13.347893 -1.080913 32.771538 35.402095 -0.080804 0.387928 -0.031164 -0.006494 -30465.500000 0 0 1
13.753593 -2.386313 33.143022 35.962699 -0.171794 0.398628 0.005393 -0.012231 -416114.000000 0 0 1
13.907293 -3.349213 31.995538 35.047745 -0.236324 0.420432 0.006354 -0.015795 -1055400.000000 0 0 1
14.126793 -4.678113 32.431718 35.682872 -0.319786 0.430188 0.010917 -0.013831 1058720.000000 0 0 1
15.413093 -5.097913 32.956358 36.737905 -0.319426 0.457710 -0.000132 -0.014808 2023540.000000 0 0 1
16.766993 -4.683313 32.233078 36.633820 -0.272376 0.495203 0.016317 -0.018089 387900.000000 0 0 1
17.041493 -3.325913 32.449048 36.802376 -0.192743 0.491320 0.028543 -0.021777 112047.000000 0 0 1
18.136993 -2.907813 31.655098 36.598512 -0.158972 0.525788 0.054265 -0.029235 -55200.200000 0 0 1
18.160493 -1.357713 31.448708 36.340998 -0.074623 0.524892 0.068264 -0.031217 -233163.000000 0 0 1
18.269193 -0.566313 32.606718 37.380238 -0.030988 0.510913 0.066932 -0.027520 272680.000000 0 0 1
17.998493 0.854387 32.469588 37.134214 0.047434 0.506630 0.063215 -0.020052 -230600.000000 0 0 1
19.222793 1.624687 31.978708 37.346929 0.084318 0.542810 0.074455 -0.025210 -492271.000000 0 0 1
19.568193 1.436887 30.647678 36.390369 0.073298 0.569460 0.066977 -0.026499 -60582.500000 0 0 1
20.634493 2.256787 30.212228 36.655887 0.108937 0.601987 0.063021 -0.021315 -75750.000000 0 0 1
20.334893 3.799587 30.005618 36.445601 0.184721 0.603598 0.052205 -0.007413 -307956.000000 0 0 1
20.117793 4.456587 31.251828 37.433454 0.218004 0.582911 0.048090 -0.013537 245772.000000 0 0 1
19.456793 5.679787 31.127328 37.144815 0.284026 0.577190 0.034593 -0.006321 -252824.000000 0 0 1
19.170193 6.362087 32.496828 38.262465 0.320437 0.556113 0.035338 -0.004574 -211140.000000 0 0 1
18.222393 5.665387 33.272561 38.356427 0.301429 0.520728 0.029777 -0.009092 182220.000000 0 0 1
18.112193 6.304787 34.512832 39.483382 0.334978 0.507195 0.022675 -0.001597 -94013.500000 0 0 1
16.978093 5.691087 -33.676835 38.141491 0.323431 2.652895 0.016167 -0.000276 -231585.000000 0 0 1
17.108793 4.295187 -33.421035 37.790541 0.245968 2.655951 0.012336 -0.005728 -428904.000000 0 0 1
15.866593 3.680487 -33.217805 36.996180 0.227933 2.685706 0.012462 -0.011569 -387542.000000 0 0 1
15.921993 2.154487 -33.473205 37.129599 0.134498 2.694074 0.005027 -0.015051 -286721.000000 0 0 1
16.794193 1.472887 -32.604045 36.704742 0.087478 2.664380 0.000328 -0.006472 -68328.600000 0 0 1
16.860593 0.192387 -33.143755 37.186356 0.011410 2.670974 0.005751 -0.009252 -252100.000000 0 0 1
17.896493 -0.699413 -32.439245 37.055070 -0.039061 2.637128 0.009821 -0.009932 -225864.000000 0 0 1
17.615493 -0.915013 -31.061015 35.720155 -0.051897 2.625118 0.008383 -0.008019 320545.000000 0 0 1
17.820793 0.174287 -30.129655 35.005816 0.009780 2.607448 0.006571 -0.005013 -256556.000000 0 0 1
17.444993 -0.200313 -28.681975 33.571172 -0.011482 2.595121 -0.001413 0.002136 440708.000000 0 0 1
16.065193 -0.544313 -28.516785 32.735206 -0.033869 2.628305 0.004024 -0.001936 706258.000000 0 0 1
15.700793 -0.669913 -27.119455 31.343716 -0.042642 2.616401 -0.003793 0.000056 33994.400000 0 0 1
16.378893 -1.802213 -26.274495 31.013951 -0.109592 2.581457 0.014480 -0.003797 -483155.000000 0 0 1
17.638693 -1.473113 -25.701125 31.206431 -0.083323 2.538498 0.022729 -0.004583 -20500.800000 0 0 1
18.357393 -2.650113 -25.399415 31.450711 -0.143372 2.510858 0.028278 -0.008743 4964.210000 0 0 1
19.177993 -3.161313 -26.585865 32.933228 -0.163371 2.510301 0.042172 -0.018574 -473664.000000 0 0 1
20.315393 -2.332013 -26.858715 33.757133 -0.114290 2.490869 0.054617 -0.012704 104309.000000 0 0 1
20.651693 -2.549513 -28.208585 35.053055 -0.122831 2.506033 0.060474 -0.019624 1124140.000000 0 0 1
22.143593 -2.114013 -28.526385 36.174057 -0.095180 2.479304 0.038759 -0.019473 1350630.000000 0 0 1
23.129893 -3.067713 -28.173915 36.581037 -0.131860 2.449917 0.034834 -0.023908 362472.000000 0 0 1
24.444093 -2.623113 -28.503465 37.640960 -0.106902 2.429882 0.015322 -0.024569 708397.000000 0 0 1
25.548193 -3.655913 -28.114145 38.163870 -0.142134 2.398928 0.019130 -0.023845 -157295.000000 0 0 1
25.607793 -4.771013 -28.938195 38.935084 -0.184199 2.408700 0.023775 -0.031347 772949.000000 0 0 1
26.730293 -5.664713 -28.776455 39.682262 -0.208831 2.382080 0.017183 -0.029410 504244.000000 0 0 1
26.787493 -6.551413 -27.477755 38.929652 -0.239861 2.354392 0.011823 -0.018433 -256319.000000 0 0 1
26.924593 -5.974113 -26.202935 38.042312 -0.218346 2.330607 0.007568 -0.012514 291374.000000 0 0 1
26.538793 -6.931813 -25.226425 37.265669 -0.255488 2.314386 -0.011653 -0.009512 -414571.000000 0 0 1
26.687293 -6.610613 -23.703805 36.301269 -0.242819 2.282302 -0.018809 -0.000866 -1350770.000000 0 0 1
27.963493 -6.532713 -23.198705 36.916300 -0.229500 2.250308 -0.034173 0.001926 -926545.000000 0 0 1
28.087793 -6.152713 -21.818505 36.094697 -0.215647 2.219909 -0.030684 -0.002490 -750303.000000 0 0 1
29.434793 -5.554513 -21.454505 36.845019 -0.186512 2.192340 -0.020163 -0.001501 -838332.000000 0 0 1
29.702193 -4.310513 -22.149305 37.301374 -0.144118 2.206561 -0.014966 -0.002893 -167255.000000 0 0 1
30.911993 -3.770413 -21.695805 37.953593 -0.121373 2.179300 -0.021919 0.002413 -194428.000000 0 0 1
31.427593 -2.650213 -22.603205 38.802346 -0.084129 2.192624 -0.011789 -0.005650 -143788.000000 0 0 1
30.568193 -1.576013 -22.306405 37.874449 -0.051512 2.200563 -0.020398 -0.010651 430376.000000 0 0 1
31.028093 -0.344113 -22.851705 38.536494 -0.011090 2.205562 -0.004319 -0.008969 388173.000000 0 0 1
30.011293 0.858487 -22.696005 37.636728 0.028598 2.218088 -0.002536 -0.006330 882150.000000 0 0 1
28.810193 0.682087 -23.470205 37.166423 0.023671 2.254269 -0.010724 -0.004992 727480.000000 0 0 1
27.835293 1.610487 -23.042705 36.171307 0.057793 2.261453 -0.010782 0.006893 42145.200000 0 0 1
26.706893 1.758687 -24.110205 36.022952 0.065756 2.304064 -0.010482 0.006302 -669227.000000 0 0 1
25.840893 2.753587 -23.773705 35.221059 0.106159 2.311741 -0.012375 0.008009 -547686.000000 0 0 1
25.029893 3.026787 -24.913205 35.444672 0.120343 2.350229 -0.000423 0.002885 -345941.000000 0 0 1
24.061193 4.186487 -24.718705 34.748842 0.172269 2.362218 0.000924 0.009519 -224502.000000 0 0 1
24.668193 5.418687 -24.249805 35.013354 0.216229 2.335866 -0.012007 0.010679 675997.000000 0 0 1
23.635793 6.320887 -23.870705 34.182084 0.261314 2.343872 -0.007222 0.001970 -93449.900000 0 0 1
24.200193 7.668787 -23.434705 34.549168 0.306879 2.316243 -0.005128 0.003948 -223841.000000 0 0 1
24.815693 8.442787 -24.460505 35.852692 0.327935 2.321632 -0.006314 0.006348 354939.000000 0 0 1
25.136793 9.691387 -23.914405 36.023327 0.367984 2.296763 0.002999 0.004407 -569175.000000 0 0 1
25.939893 10.603087 -24.844305 37.450540 0.388032 2.296136 0.027785 0.005537 -375448.000000 0 0 1
25.298893 10.925687 -26.093615 37.951039 0.407670 2.328920 0.025219 -0.001609 403576.000000 0 0 1
24.066493 11.607387 -25.998385 37.280605 0.449392 2.342518 0.023096 -0.009466 -150490.000000 0 0 1
23.370693 11.816187 -27.336955 37.856580 0.468116 2.377657 0.016432 -0.016752 -445981.000000 0 0 1
22.966193 10.589987 -28.015095 37.741746 0.432056 2.407269 0.011540 -0.008262 158097.000000 0 0 1
23.955793 9.726087 -28.557525 38.522837 0.385669 2.405823 0.007708 -0.015728 -169931.000000 0 0 1
24.953993 10.236587 -29.629585 40.067465 0.389284 2.403112 0.012279 -0.007903 -528174.000000 0 0 1
25.917893 11.201587 -29.145315 40.579084 0.407949 2.372059 0.014566 -0.005461 774748.000000 0 0 1
26.755793 11.728287 -30.142955 41.976456 0.413120 2.371853 0.011180 0.003159 549339.000000 0 0 1
27.825793 10.692587 -30.680065 42.777009 0.366872 2.370586 0.017558 -0.001548 -595816.000000 0 0 1
27.287493 9.862987 -31.676175 42.956557 0.346836 2.400010 0.007241 -0.003558 128931.000000 0 0 1
28.213293 8.904287 -32.131145 43.677073 0.305712 2.397426 0.014142 -0.006923 17454.600000 0 0 1
27.541393 7.811487 -33.030555 43.710013 0.276369 2.427480 0.015914 0.001536 614260.000000 0 0 1
26.480593 7.060887 -32.438385 42.465595 0.260581 2.440092 0.028164 -0.004798 483578.000000 0 0 1
25.797893 6.226087 -33.359605 42.628144 0.236812 2.469583 0.018546 -0.005341 344600.000000 0 0 1
24.558093 5.444487 -32.767735 41.309403 0.218170 2.486887 0.030704 -0.008691 899410.000000 0 0 1
23.372793 6.230587 -32.879105 40.818417 0.260516 2.507310 0.030806 -0.007963 176128.000000 0 0 1
23.030993 6.989287 -31.682455 39.787620 0.294640 2.491932 0.022456 -0.005161 -991357.000000 0 0 1
21.600493 7.459287 -31.797755 39.157623 0.332508 2.518444 0.021384 -0.007858 -822954.000000 0 0 1
21.385393 8.516287 -32.718245 40.004321 0.378979 2.528492 0.024382 -0.004811 411869.000000 0 0 1
20.050493 9.030687 -32.668835 39.380558 0.423184 2.549129 0.013887 0.002878 438628.000000 0 0 1
19.746793 10.055187 -33.807105 40.422308 0.470985 2.561383 0.006970 0.009990 -296711.000000 0 0 1
19.333393 9.405387 34.047372 40.267417 0.452776 0.563236 0.012472 0.006875 -3018.670000 0 0 1
19.156993 10.414787 33.086217 39.625193 0.497958 0.582701 0.005261 0.013878 293665.000000 0 0 1
17.973193 10.198587 32.083388 38.162686 0.516129 0.572221 0.007041 0.013193 263047.000000 0 0 1
18.134893 9.137287 31.177568 37.207594 0.466724 0.577307 0.004991 0.006021 919263.000000 0 0 1
19.178593 9.283887 30.149838 36.919124 0.450827 0.615222 0.010361 0.009024 195762.000000 0 0 1
18.869793 10.276287 28.972088 36.070113 0.498680 0.638122 0.019608 0.002101 -286623.000000 0 0 1
17.965193 9.727287 28.050958 34.701938 0.496257 0.629470 0.018891 0.004639 760647.000000 0 0 1
16.608993 9.966587 28.472998 34.436944 0.540472 0.597374 0.021720 0.002604 32225.600000 0 0 1
15.524093 9.337687 27.586118 33.002784 0.541519 0.581076 0.033291 0.001036 -433038.000000 0 0 1
15.338393 9.934887 26.267998 31.999625 0.574766 0.607838 0.037210 -0.004331 303904.000000 0 0 1
14.176893 9.516487 25.570178 30.747062 0.591181 0.588760 0.040182 -0.003271 224216.000000 0 0 1
14.244593 8.059787 24.998278 29.879466 0.514903 0.579681 0.036087 -0.004813 -98169.100000 0 0 1
14.347893 7.082487 25.995938 30.525603 0.458535 0.551745 0.022819 0.000522 -8397.410000 0 0 1
13.978193 5.805587 25.591988 29.732887 0.393653 0.534094 0.027604 -0.007135 -74721.700000 0 0 1
13.750893 4.848387 26.755478 30.470469 0.338978 0.498964 0.034339 -0.001626 -630566.000000 0 0 1
14.973393 4.372187 27.206198 31.360735 0.284099 0.520593 0.029172 -0.003417 -515741.000000 0 0 1
14.846293 3.737887 28.472028 32.327087 0.246646 0.493356 0.010119 0.000207 3291.700000 0 0 1
15.996293 2.854887 29.017108 33.256944 0.176612 0.510475 0.032588 -0.006252 78731.400000 0 0 1
15.769593 1.471687 28.818538 32.883948 0.093055 0.502521 0.020153 -0.009929 -25561.900000 0 0 1
14.968093 0.968387 29.860868 33.416358 0.064607 0.465493 0.008552 -0.007302 -153740.000000 0 0 1
14.795593 -0.569613 29.890828 33.357092 -0.038480 0.459924 0.005741 -0.008525 -139428.000000 0 0 1
14.049393 -1.099513 28.783318 32.047991 -0.078101 0.455294 0.000705 -0.007585 481132.000000 0 0 1
14.683993 -1.109013 27.461608 31.160704 -0.075382 0.492212 0.007588 -0.002805 -241531.000000 0 0 1
15.863693 -2.112113 27.229938 31.584605 -0.132363 0.531344 0.019147 -0.010347 1842830.000000 0 0 1
17.138893 -1.826513 27.911968 32.804813 -0.106171 0.553196 0.033029 -0.018919 1481290.000000 0 0 1
17.882093 -0.764513 27.381248 32.712176 -0.042727 0.578954 0.033698 -0.016236 -1518130.000000 0 0 1
19.266993 -0.607113 27.943328 33.947241 -0.031500 0.603878 0.068963 -0.015575 -246079.000000 0 0 1
20.263593 -1.403813 27.314578 34.039243 -0.069167 0.639417 0.050465 -0.014016 760513.000000 0 0 1
21.620293 -0.981913 27.438478 34.946692 -0.045385 0.667854 0.062125 -0.016914 1035380.000000 0 0 1
22.642093 -1.867713 26.643908 35.015004 -0.082302 0.706054 0.051434 -0.008213 -90301.100000 0 0 1
22.811993 -1.446913 25.260558 34.067233 -0.063343 0.735506 0.046379 0.005520 -25057.100000 0 0 1
21.791693 -1.897213 24.411238 32.777825 -0.086842 0.730638 0.042662 0.017802 -302447.000000 0 0 1
21.693293 -1.217113 23.044458 31.672186 -0.056047 0.755990 0.039352 0.004185 168296.000000 0 0 1
20.920693 -0.007113 23.172958 31.219568 -0.000340 0.734363 0.030824 0.007740 500318.000000 0 0 1
21.039493 0.654887 21.898158 30.374635 0.031117 0.765645 0.028510 0.006438 -65480.200000 0 0 1
-29.355127 -28.007177 -10.369705 41.876679 0.761904 1.821024 -0.011209 0.011804 -124840.000000 0 0 1
-29.238047 -26.717477 -9.683305 40.773194 0.740383 1.810579 -0.005619 0.017089 -35536.700000 0 0 1
-29.832377 -26.986677 -8.425305 41.100331 0.735356 1.777253 0.013193 0.002695 -543349.000000 0 0 1
-30.166677 -25.680377 -7.633305 40.345725 0.705238 1.761141 0.025548 -0.002017 626052.000000 0 0 1
-29.078827 -24.920277 -7.049305 38.939583 0.708538 1.752832 0.012421 -0.000878 139074.000000 0 0 1
-28.346397 -25.611477 -6.061305 38.680815 0.734755 1.728145 0.011050 -0.002775 537440.000000 0 0 1
-27.114807 -24.843877 -5.454205 37.177673 0.741720 1.718034 -0.000967 0.007202 449733.000000 0 0 1
-27.469907 -23.714177 -4.691905 36.591966 0.712153 1.699373 0.012300 0.000313 -194860.000000 0 0 1
-28.064607 -22.581877 -5.256705 36.403246 0.677563 1.715705 0.027949 -0.004901 -191435.000000 0 0 1
-28.172367 -21.489877 -4.216505 35.682993 0.651643 1.689239 0.029522 -0.009428 224879.000000 0 0 1
-26.994727 -20.707177 -4.090105 34.267061 0.654344 1.690441 0.025741 -0.012580 197484.000000 0 0 1
-27.265287 -19.689477 -3.172205 33.780679 0.625434 1.664841 0.029786 -0.009312 256031.000000 0 0 1
-26.172187 -18.574177 -2.933805 32.227173 0.617201 1.661958 0.018106 -0.009292 236169.000000 0 0 1
-26.105047 -17.740677 -4.072605 31.824381 0.596895 1.699119 0.024625 -0.014240 453247.000000 0 0 1
-25.090037 -16.739877 -3.933205 30.417159 0.588366 1.700468 0.021613 -0.015961 244196.000000 0 0 1
-25.064007 -15.704277 -5.063305 30.007763 0.559725 1.740341 0.020182 -0.023792 456660.000000 0 0 1
-26.310287 -14.966077 -5.042805 30.686228 0.517185 1.735880 0.028303 -0.025667 846981.000000 0 0 1
-26.391777 -14.099477 -6.073905 30.532171 0.490661 1.771067 0.031878 -0.033165 -106805.000000 0 0 1
-27.671747 -13.239177 -6.136305 31.283472 0.446249 1.768228 0.029195 -0.027903 446571.000000 0 0 1
-28.829527 -13.896777 -6.658405 32.689393 0.449171 1.775919 0.030461 -0.025378 487174.000000 0 0 1
-29.967547 -13.073377 -6.428605 33.321075 0.411362 1.764943 0.019507 -0.022357 239003.000000 0 0 1
-31.213097 -13.617277 -7.182505 34.803391 0.411376 1.778664 0.015238 -0.021168 -39859.000000 0 0 1
-31.914647 -14.690977 -6.585105 35.745393 0.431404 1.756077 0.025530 -0.021434 299699.000000 0 0 1
-32.128457 -15.745977 -7.525305 36.562327 0.455692 1.778099 0.026868 -0.025140 -965182.000000 0 0 1
-32.982687 -16.917977 -7.073905 37.737458 0.473942 1.759362 0.030785 -0.026066 -20371.900000 0 0 1
-34.351919 -16.729077 -6.796105 38.808548 0.453186 1.746823 0.041806 -0.026293 25327.800000 0 0 1
-34.766863 -15.813077 -5.793005 38.630909 0.426865 1.721322 0.028937 -0.032526 -993619.000000 0 0 1
34.227286 -15.988077 -5.620605 38.193153 -0.436995 1.718495 0.043699 -0.027824 -1405390.000000 0 0 1
33.398886 -15.425177 -6.623405 37.380358 -0.432662 1.748926 0.051552 -0.031344 794819.000000 0 0 1
31.995546 -15.557577 -6.382005 36.145306 -0.452581 1.748292 0.062554 -0.036777 712231.000000 0 0 1
31.454186 -14.741977 -5.181405 35.121769 -0.438280 1.718864 0.066661 -0.037771 -1252790.000000 0 0 1
31.664076 -15.405277 -3.930505 35.431415 -0.452807 1.681958 0.059371 -0.040314 401706.000000 0 0 1
30.915866 -14.777577 -2.897705 34.388432 -0.445888 1.655160 0.065167 -0.040185 -993823.000000 0 0 1
30.957846 -15.446077 -1.516505 34.630468 -0.462798 1.614601 0.061407 -0.036517 -326149.000000 0 0 1
32.200996 -15.708577 -0.904105 35.839656 -0.453863 1.596025 0.070877 -0.033536 -328187.000000 0 0 1
33.092916 -16.588977 -1.529505 37.049624 -0.464675 1.612091 0.058511 -0.037165 -998253.000000 0 0 1
32.681526 -18.019177 -1.924005 37.369435 -0.503884 1.622305 0.058115 -0.034762 -1032180.000000 0 0 1
32.845776 -19.094177 -1.008105 38.005906 -0.526577 1.597324 0.064996 -0.034383 269140.000000 0 0 1
32.374626 -20.352577 -1.418305 38.266897 -0.561226 1.607868 0.058140 -0.027442 -580143.000000 0 0 1
33.289646 -21.033377 -2.417805 39.451860 -0.563495 1.632120 0.046989 -0.026135 -176577.000000 0 0 1
33.333496 -20.412277 -3.672805 39.259044 -0.549462 1.664486 0.046469 -0.031828 519497.000000 0 0 1
34.492168 -20.821177 -4.416205 40.530654 -0.543099 1.679973 0.040081 -0.028536 389443.000000 0 0 1
34.631923 -19.888377 -5.666805 40.336464 -0.521292 1.711751 0.054230 -0.030628 -335019.000000 0 0 1
33.579556 -20.129077 -6.562605 39.696777 -0.540011 1.736877 0.043347 -0.033563 47420.300000 0 0 1
33.450616 -19.109377 -7.534105 39.253978 -0.519028 1.763927 0.047471 -0.033966 626165.000000 0 0 1
32.294506 -19.445777 -8.567605 38.658469 -0.541991 1.794275 0.051555 -0.035077 863846.000000 0 0 1
32.629426 -20.514677 -9.422805 39.677710 -0.561268 1.810571 0.052160 -0.030126 451304.000000 0 0 1
31.450286 -20.787577 -10.157505 39.043806 -0.584046 1.833981 0.068016 -0.038428 256348.000000 0 0 1
31.487016 -22.208077 -10.770805 40.008013 -0.614280 1.843375 0.061328 -0.017575 6340.600000 0 0 1
31.091236 -23.191177 -9.833205 40.014842 -0.640877 1.819078 0.052628 -0.016437 -17913.500000 0 0 1
30.784586 -24.415677 -10.435305 40.653556 -0.670528 1.830391 0.039706 -0.006044 -333717.000000 0 0 1
30.077066 -25.364377 -9.456505 40.464886 -0.700599 1.806674 0.034991 -0.006128 -103544.000000 0 0 1
28.767176 -24.939677 -9.155905 39.158250 -0.714252 1.806799 0.034334 -0.007410 -454428.000000 0 0 1
27.967836 -26.032977 -8.756105 39.199300 -0.749583 1.796071 0.019232 -0.006241 -83991.600000 0 0 1
26.519706 -25.528877 -8.696305 37.823856 -0.766364 1.802788 0.016534 -0.019324 -52057.300000 0 0 1
25.833776 -25.095677 -9.868205 37.343788 -0.770907 1.838226 0.006562 -0.012099 1593170.000000 0 0 1
24.421136 -24.819077 -9.668105 36.136557 -0.793480 1.841639 0.015829 -0.027582 1401750.000000 0 0 1
23.558136 -24.349777 -10.865605 35.580315 -0.801921 1.881136 0.034856 -0.031905 -128294.000000 0 0 1
23.294036 -25.441977 -11.689405 36.421814 -0.829443 1.897524 0.041819 -0.028172 243951.000000 0 0 1
22.443036 -25.095177 -12.765705 36.005847 -0.841130 1.933224 0.055094 -0.016018 -282731.000000 0 0 1
21.669136 -26.288377 -13.240005 36.550348 -0.881421 1.941467 0.062780 -0.019305 -663249.000000 0 0 1
22.459536 -27.151977 -14.014505 37.921854 -0.879701 1.949335 0.054858 -0.014901 197681.000000 0 0 1
22.047836 -28.499777 -13.888205 38.616403 -0.912353 1.938684 0.056146 -0.013413 -187630.000000 0 0 1
22.945636 -29.465477 -14.688805 40.130756 -0.909160 1.945529 0.054069 -0.019591 -137478.000000 0 0 1
22.902436 -29.331277 -16.097205 40.545843 -0.907861 1.979056 0.058851 -0.016503 315044.000000 0 0 1
23.365936 -30.573777 -16.623905 41.917503 -0.918239 1.978591 0.051471 -0.012709 -294493.000000 0 0 1
23.340836 -30.671777 -18.169405 42.610795 -0.920300 2.011310 0.048353 -0.006298 -86514.600000 0 0 1
22.034736 -30.568777 -18.691405 42.063623 -0.946230 2.031256 0.049547 -0.004521 15547.900000 0 0 1
22.053436 -30.645577 -20.116705 42.780688 -0.947018 2.060346 0.041081 -0.000647 210796.000000 0 0 1
20.600736 -30.467777 -20.627405 42.168301 -0.976258 2.081932 0.027110 0.003660 123056.000000 0 0 1
20.482436 -30.357577 -21.995305 42.718920 -0.977249 2.111669 0.014054 0.006442 227760.000000 0 0 1
19.130736 -30.060777 -22.304805 42.037361 -1.004040 2.130098 0.005284 0.005286 -40080.200000 0 0 1
18.747436 -30.297377 -23.827205 42.861791 -1.016682 2.160251 0.002095 0.006353 -112585.000000 0 0 1
19.325336 -29.313177 -24.691705 42.923318 -0.987931 2.183708 0.005384 0.008196 371600.000000 0 0 1
19.097636 -29.656277 -26.022625 43.833680 -0.998675 2.206405 0.003876 0.006286 -110562.000000 0 0 1
19.719036 -28.668877 -27.060915 44.079905 -0.968292 2.231796 -0.003003 0.004049 71806.000000 0 0 1
19.049936 -27.437577 -27.098345 43.012103 -0.963905 2.252371 0.002515 -0.003801 -113553.000000 0 0 1
17.981236 -27.401477 -28.020225 43.119587 -0.990065 2.278152 0.020195 -0.009365 -127493.000000 0 0 1
17.378536 -26.005677 -28.236655 42.138076 -0.981692 2.305138 0.011467 -0.008605 13673.900000 0 0 1
16.645336 -25.494777 -27.104895 40.764276 -0.992391 2.298180 0.006555 -0.002825 -2389.520000 0 0 1
16.171036 -24.202577 -27.401995 39.976699 -0.981765 2.326017 -0.000857 0.005835 -436987.000000 0 0 1
15.079536 -23.900277 -26.395405 38.669537 -1.007940 2.322096 0.015620 0.000521 1017690.000000 0 0 1
13.778236 -24.540177 -26.645945 38.756502 -1.059200 2.328867 0.047252 -0.012653 1730710.000000 0 0 1
12.706936 -24.396777 -25.704235 37.648063 -1.090612 2.322317 0.044710 -0.010758 669088.000000 0 0 1
12.977636 -24.858377 -24.272305 37.087771 -1.089655 2.284259 0.042633 -0.005757 -276047.000000 0 0 1
13.935936 -24.014477 -23.653005 36.474238 -1.044978 2.276389 0.008132 -0.001881 -91743.200000 0 0 1
14.342336 -24.477177 -22.386905 36.138737 -1.040774 2.238865 0.009641 -0.003333 804764.000000 0 0 1
15.433236 -23.499777 -21.764405 35.554376 -0.989698 2.229566 0.012170 -0.006927 507659.000000 0 0 1
14.939936 -22.379077 -21.156405 34.228910 -0.982158 2.237102 0.005558 -0.014063 -95238.100000 0 0 1
15.992636 -21.445677 -21.017905 34.021079 -0.930035 2.236726 0.002508 -0.003855 -129923.000000 0 0 1
15.582136 -20.074877 -20.412905 32.595864 -0.910736 2.247520 0.006859 0.003461 45017.600000 0 0 1
15.139936 -20.179977 -19.063505 31.620664 -0.927138 2.217904 0.012052 -0.006449 770069.000000 0 0 1
13.703236 -20.223977 -19.077305 30.995669 -0.975281 2.233795 0.009072 -0.005112 275403.000000 0 0 1
13.130736 -20.143577 -17.649505 29.827587 -0.993117 2.203984 0.010882 -0.004423 -416442.000000 0 0 1
13.013936 -18.879177 -17.096205 28.601855 -0.967269 2.211464 0.013847 -0.003730 217510.000000 0 0 1
12.723836 -18.923277 -15.701605 27.686221 -0.978841 2.173810 0.002161 -0.003017 -330560.000000 0 0 1
12.816136 -17.586177 -14.976205 26.416163 -0.941027 2.173575 0.003957 0.002352 -443440.000000 0 0 1
11.697336 -16.743577 -15.139305 25.423879 -0.961000 2.208654 0.003569 -0.003031 329417.000000 0 0 1
12.105336 -15.383877 -14.961905 24.638617 -0.904104 2.223396 0.011263 -0.003367 -354043.000000 0 1 0
10.899936 -14.490877 -14.705205 23.346031 -0.925893 2.252195 0.023700 -0.001466 -415498.000000 0 1 0
10.088936 -14.298377 -15.814305 23.586489 -0.956322 2.305654 0.030171 0.015404 -1464270.000000 0 1 0
8.772036 -14.134077 -15.451705 22.704095 -1.015345 2.319335 0.025561 0.020267 -1123830.000000 0 1 0
8.031436 -13.488777 -16.611305 22.855777 -1.033754 2.384430 0.028032 0.021221 -358412.000000 0 1 0
8.446836 -12.158877 -17.029005 22.564892 -0.963633 2.425944 0.027627 0.012342 373117.000000 0 1 0
9.569636 -12.017877 -17.907405 23.594119 -0.898326 2.432538 0.034562 0.008890 285128.000000 0 1 0
9.550836 -10.724177 -18.755205 23.621688 -0.843205 2.488128 0.033631 -0.000439 -32545.300000 0 1 0
8.682736 -10.860277 -19.860105 24.243748 -0.896363 2.530784 0.033497 0.002921 76327.600000 0 1 0
8.852436 -9.866977 -20.863905 24.718928 -0.839542 2.575579 0.020287 0.002011 -55963.000000 0 1 0
8.470536 -10.285477 -22.284605 25.964295 -0.881864 2.602703 0.030693 0.007632 487674.000000 0 0 1
9.608536 -10.904577 -22.901905 27.124362 -0.848495 2.576109 0.039043 -0.003794 117982.000000 0 0 1
9.690736 -10.714977 -24.309205 28.278235 -0.835550 2.605368 0.014690 0.006567 216785.000000 0 0 1
10.876136 -11.467377 -24.956205 29.539859 -0.811853 2.577047 0.047357 0.003036 253735.000000 0 0 1
10.576436 -12.843277 -24.965105 30.001121 -0.881890 2.553750 0.040127 0.005127 651241.000000 0 0 1
11.739636 -13.558577 -25.413055 31.104299 -0.857175 2.527032 0.029517 -0.008657 224496.000000 0 0 1
11.695436 -15.087277 -25.216545 31.627256 -0.911370 2.493612 0.024441 0.001060 -345984.000000 0 0 1
10.724536 -15.839977 -25.916715 32.211747 -0.975636 2.505753 0.029620 0.004563 -138665.000000 0 0 1
10.482036 -17.066777 -25.319785 32.283734 -1.020017 2.472346 0.027445 0.002063 43001.900000 0 0 1
9.339236 -17.915677 -25.916105 32.860878 -1.090263 2.479425 0.044408 -0.004698 -6321.570000 0 0 1
9.648036 -18.849477 -26.925485 34.254476 -1.097717 2.475178 0.043028 -0.025161 -227301.000000 0 0 1
8.498636 -19.531577 -27.375245 34.685924 -1.160383 2.480354 0.051578 -0.020830 -227142.000000 0 0 1
8.729636 -20.247777 -28.720275 36.208193 -1.163736 2.486839 0.040545 -0.028981 -433886.000000 0 0 1
9.512636 -21.393577 -28.495985 36.880843 -1.152401 2.453801 0.037263 -0.030906 -125223.000000 0 0 1
9.487036 -22.258077 -29.632315 38.255718 -1.167885 2.456855 0.039902 -0.030925 -369084.000000 0 0 1
10.147936 -23.579077 -29.342885 38.986644 -1.164379 2.422858 0.025592 -0.023368 -93826.600000 0 0 1
10.061636 -24.477177 -30.421175 40.321416 -1.180790 2.425638 0.023585 -0.022083 225810.000000 0 0 1
10.715236 -25.746977 -30.171015 41.085439 -1.176425 2.395502 0.028472 -0.009344 -39655.800000 0 0 1
10.052336 -26.595377 -29.062335 40.656892 -1.209422 2.367162 0.034335 -0.008804 -139315.000000 0 0 1
10.633136 -26.505077 -27.786105 39.845330 -1.189279 2.342489 0.045524 -0.015582 -319475.000000 0 0 1
9.771236 -26.873177 -26.706025 39.126161 -1.222053 2.322059 0.042438 -0.008485 884688.000000 0 0 1
8.738636 -25.773377 -26.313085 37.855108 -1.243904 2.339355 0.039359 -0.009426 555118.000000 0 0 1
9.389836 -24.791177 -25.507675 36.788761 -1.208736 2.336931 0.043730 -0.005349 -152481.000000 0 0 1
8.493636 -23.787377 -25.138385 35.635931 -1.227842 2.353815 0.045679 -0.005105 110158.000000 0 0 1
9.290936 -22.470577 -25.030505 34.896626 -1.178731 2.370681 0.052923 -0.006239 271438.000000 0 0 1
10.108336 -22.329277 -23.910305 34.241463 -1.145704 2.343795 0.048388 -0.003996 -496392.000000 0 0 1
10.985236 -21.272577 -24.034205 33.924047 -1.094112 2.358126 0.046447 -0.009002 -671308.000000 0 0 1
11.703036 -20.905777 -22.729905 33.025159 -1.060461 2.329885 0.029417 0.001965 -105695.000000 0 0 1
10.943936 -20.221677 -21.729905 31.636604 -1.074736 2.327956 0.023399 0.003317 -3192.240000 0 0 1
10.644236 -18.854877 -21.921505 30.811662 -1.056862 2.362381 0.025980 0.004934 -229819.000000 0 0 1
11.748836 -17.829777 -21.615405 30.383578 -0.988159 2.362309 0.028160 0.002044 -707909.000000 0 0 1
12.792236 -17.782977 -22.524405 31.420127 -0.947200 2.370111 0.023764 0.005127 -691275.000000 0 0 1
13.734336 -16.903077 -21.954305 30.924707 -0.888459 2.360192 0.024473 0.004581 -369731.000000 0 0 1
14.993136 -16.645277 -22.787605 31.955192 -0.837570 2.364722 0.007121 0.015331 -167654.000000 0 0 1
16.023536 -17.615277 -22.590805 32.823713 -0.832681 2.329866 0.006917 0.019448 304034.000000 0 0 1
17.197336 -17.130777 -23.218505 33.590339 -0.783459 2.333980 0.010842 0.015708 106468.000000 0 0 1
18.506436 -17.473777 -22.476905 33.956330 -0.756705 2.294195 0.007765 0.011409 -33447.900000 0 0 1
18.749436 -18.864877 -22.428005 34.791383 -0.788467 2.271352 0.006830 0.008379 -596397.000000 0 0 1
19.976036 -19.086477 -21.823805 35.208154 -0.762629 2.239349 0.004690 0.009018 -601427.000000 0 0 1
20.386136 -20.508877 -21.540005 36.058014 -0.788400 2.211015 -0.009442 0.007457 -5819.140000 0 0 1
19.704136 -21.064177 -20.398805 35.327946 -0.818746 2.186353 0.002847 0.010768 363229.000000 0 0 1
20.087136 -22.382877 -20.186705 36.221393 -0.839401 2.161944 0.003274 0.012215 -127859.000000 0 0 1
-15.552307 13.429587 28.954478 35.504786 -0.712286 0.617188 -0.007090 -0.003524 -290635.000000 0 0 1
-16.925407 13.650887 28.718008 36.021384 -0.678711 0.648072 0.005127 -0.012242 132543.000000 0 0 1
-17.172007 13.543287 27.310158 34.987758 -0.667803 0.675230 0.004245 -0.012147 281895.000000 0 0 1
-18.482107 14.198287 26.801918 35.517917 -0.655059 0.715748 0.013218 -0.013221 215599.000000 0 0 1
-18.340407 15.597687 26.851978 36.065040 -0.704758 0.730946 0.023238 -0.018134 567972.000000 0 0 1
-19.310407 16.176187 25.955228 36.169527 -0.697306 0.770447 0.043292 -0.020220 -455861.000000 0 0 1
-19.540807 17.655887 26.110298 37.085323 -0.734767 0.789698 0.053226 -0.018994 156599.000000 0 0 1
-18.434907 18.471687 25.741028 36.655825 -0.786395 0.792263 0.024683 -0.017714 728805.000000 0 0 1
-17.273407 18.321087 26.574498 36.609244 -0.814823 0.758460 0.014293 -0.001162 -336762.000000 0 0 1
-16.132707 19.276287 26.197578 36.306371 -0.873945 0.764729 0.009576 -0.008316 -380488.000000 0 0 1
-16.355707 20.677987 26.415408 37.321067 -0.901585 0.784434 0.022593 -0.007391 -90556.700000 0 0 1
-15.148007 21.399487 26.347148 37.169509 -0.954809 0.782947 0.032823 -0.016976 -165570.000000 0 0 1
-15.264507 22.899287 26.062368 37.902896 -0.982845 0.812606 0.027911 -0.008155 86095.500000 0 0 1
-14.940707 23.739787 27.168338 39.050234 -1.009073 0.801364 0.018211 0.001909 80470.300000 0 0 1
-15.328807 25.054587 26.841748 39.789246 -1.021734 0.830376 0.013736 0.000783 -85187.700000 0 0 1
-14.762507 25.992787 27.891748 40.884058 -1.054279 0.820007 0.001719 0.008256 1176960.000000 0 0 1
-13.328707 26.151987 27.895778 40.493892 -1.099448 0.810842 -0.004340 0.003120 685655.000000 0 0 1
-12.820207 26.981487 28.900688 41.564505 -1.127227 0.801929 0.009469 0.008386 -1072710.000000 0 0 1
-11.332307 27.114887 28.951998 41.253563 -1.174924 0.792867 0.015317 0.000778 -1116130.000000 0 0 1
-10.767907 27.882287 27.957548 40.926693 -1.202250 0.818780 0.015142 0.000512 46223.400000 0 0 1
-9.344207 27.841887 27.972018 40.557597 -1.246992 0.809741 -0.000242 0.004266 214632.000000 0 0 1
-8.804607 28.656387 26.750048 40.178037 -1.272704 0.842247 0.006289 -0.009144 -788990.000000 0 0 1
-7.418007 28.494387 26.756778 39.785451 -1.316117 0.833179 -0.006951 -0.002144 -466998.000000 0 0 1
-6.954907 28.972087 25.467008 39.195932 -1.335199 0.863559 0.007724 -0.008420 -427667.000000 0 0 1
-5.450707 28.676987 25.293568 38.624401 -1.382964 0.856799 0.005532 0.001471 -902105.000000 0 0 1
-4.713607 29.515487 26.076838 39.665899 -1.412434 0.853417 0.009134 0.005818 -143554.000000 0 0 1
-3.326707 29.182687 26.091198 39.286726 -1.457290 0.844477 0.000926 0.007434 470383.000000 0 0 1
-2.454407 29.908587 25.080668 39.109942 -1.488916 0.874623 -0.002747 0.003984 -808844.000000 0 0 1
-2.599307 29.523387 23.739758 37.973186 -1.482980 0.895445 -0.000018 0.004761 -225769.000000 0 0 1
-2.353007 30.620387 22.942358 38.334013 -1.494103 0.929187 -0.001864 0.007191 -257216.000000 0 0 1
-2.770207 30.304287 21.468958 37.241643 -1.479637 0.956386 -0.002155 0.006245 47619.100000 0 0 1
-4.147507 30.170887 21.210458 37.112906 -1.434185 0.962450 -0.000914 0.010405 -260323.000000 0 0 1
-4.628107 28.879287 21.526858 36.315812 -1.411891 0.936305 0.010207 0.012218 -985022.000000 0 0 1
-6.127507 28.604387 21.576858 36.349939 -1.359770 0.935287 0.005158 0.011439 -691261.000000 0 0 1
-6.712107 28.800187 20.295258 35.866428 -1.341826 0.969324 0.006186 0.012743 522985.000000 0 0 1
-7.487007 27.736887 19.681458 34.824560 -1.307150 0.970169 -0.004397 0.007204 -391607.000000 0 0 1
-6.765507 26.441987 19.168958 33.352657 -1.320308 0.958515 -0.007310 0.004135 385193.000000 0 0 1
-5.859907 26.539387 18.052358 32.627675 -1.353483 0.984495 0.009885 0.000178 877773.000000 0 0 1
-4.549807 26.977087 18.415458 32.978676 -1.403714 0.978334 0.016161 0.000202 171868.000000 0 0 1
-3.670907 27.304687 17.176558 32.466223 -1.437155 1.013305 0.015224 -0.003082 -184245.000000 0 0 1
-3.321707 26.207187 16.399158 31.093131 -1.444721 1.015235 0.029841 -0.009553 15662.000000 0 0 1
-2.556907 26.606987 15.239758 30.768811 -1.474991 1.052617 0.026102 -0.014033 291879.000000 0 0 1
-1.956107 25.284387 14.670158 29.297442 -1.493586 1.046352 0.022147 -0.022842 -11479.100000 0 0 1
-0.866307 24.695887 15.337158 29.083771 -1.535732 1.015325 0.021710 -0.024171 -189388.000000 0 0 1
-0.273407 23.684387 14.557358 27.801827 -1.559253 1.019712 0.018582 -0.029777 23784.300000 0 0 1
1.034793 23.154187 15.228158 27.732363 1.526135 0.989496 0.005571 -0.026803 448993.000000 0 0 1
2.040693 24.166187 15.289058 28.669222 1.486552 1.008309 0.011108 -0.031123 -306617.000000 0 0 1
3.223193 23.578987 15.753358 28.539900 1.434941 0.986063 0.010009 -0.021460 -462550.000000 0 0 1
4.413693 24.562387 15.712258 29.490110 1.393001 1.008893 0.015554 -0.022799 -598426.000000 0 0 1
5.625593 23.888287 15.735358 29.153028 1.339515 1.000656 0.011610 -0.014814 -1033040.000000 0 0 1
6.706293 24.764887 15.885458 30.176510 1.306340 1.016414 0.010916 -0.014012 -315786.000000 0 0 1
8.056493 24.023387 15.764358 29.842004 1.247223 1.014246 0.012096 -0.005633 -299819.000000 0 0 1
8.405293 23.652787 14.450758 28.964248 1.229353 1.048448 0.018413 -0.008562 199707.000000 0 0 1
9.371793 24.463387 13.796058 29.607753 1.204948 1.086076 0.016720 -0.007271 139938.000000 0 0 1
10.135693 23.778687 12.628058 28.768491 1.167866 1.116362 0.024344 -0.002020 -228717.000000 0 0 1
10.960993 22.711587 12.944358 28.346357 1.121152 1.096571 0.017908 -0.002174 -348671.000000 0 0 1
11.624293 22.181487 11.821758 27.692896 1.088091 1.129748 0.039367 -0.001935 465400.000000 0 0 1
12.685693 21.101087 12.125358 27.444616 1.029505 1.113179 0.018782 0.001429 698280.000000 0 0 1
11.962393 19.951887 12.631558 26.471360 1.030699 1.073355 0.016206 0.004556 751105.000000 0 0 1
12.915093 18.933887 12.891058 26.295837 0.972175 1.058441 0.026149 0.002423 238003.000000 0 0 1
13.439693 18.922087 14.349458 27.286950 0.953214 1.017056 0.015895 0.004621 -48457.700000 0 0 1
14.538193 18.042887 14.530158 27.350143 0.892555 1.010704 0.028784 0.002258 135774.000000 0 0 1
15.182893 18.272487 15.743458 28.500184 0.877487 0.985558 0.021754 -0.002111 212960.000000 0 0 1
16.287993 17.205187 16.070058 28.628027 0.812776 0.974792 0.010823 -0.003640 228819.000000 0 0 1
16.858793 17.303287 17.325358 29.728617 0.798409 0.948646 0.022561 -0.011585 -777839.000000 0 0 1
17.841293 16.334287 17.367158 29.778160 0.741331 0.948112 0.017483 -0.012649 -339264.000000 0 0 1
18.354693 16.123687 18.848058 30.856398 0.720781 0.913686 0.017476 -0.018576 -218081.000000 0 0 1
18.977193 17.166387 19.522958 32.186403 0.735340 0.919071 0.018216 -0.009910 86162.600000 0 0 1
18.058493 18.048187 20.152858 32.526664 0.785113 0.902589 0.020795 -0.009257 -321828.000000 0 0 1
18.623093 19.152687 21.048158 34.009851 0.799417 0.903475 0.012587 -0.010558 -677415.000000 0 0 1
17.639193 19.993687 21.621458 34.327483 0.847882 0.889425 0.034776 -0.020375 -2954.110000 0 0 1
18.180293 21.030287 22.420558 35.713827 0.857955 0.892094 0.026164 -0.014368 97286.000000 0 0 1
17.133893 22.051887 22.959758 36.152545 0.910250 0.882684 0.045936 -0.021393 181617.000000 0 0 1
16.316393 21.589287 24.021618 36.185081 0.923617 0.844836 0.045704 -0.022553 -115467.000000 0 0 1
15.384593 22.587387 24.366198 36.614032 0.972858 0.842649 0.055070 -0.033774 12228.100000 0 0 1
14.573093 22.161587 25.606518 36.867394 0.989108 0.802992 0.051475 -0.029379 -164247.000000 0 0 1
13.640193 21.136587 25.389168 35.741013 0.997707 0.780780 0.044660 -0.023147 -316807.000000 0 0 1
12.969293 20.819887 26.581158 36.169437 1.013688 0.745267 0.035992 -0.024628 17769.800000 0 0 1
12.056093 19.537687 26.558218 35.105691 1.017921 0.712818 0.034964 -0.021174 241899.000000 0 0 1
12.686893 18.243787 26.495128 34.580122 0.963158 0.697897 0.036862 -0.023174 211434.000000 0 0 1
13.375093 17.893087 25.273588 33.731438 0.928897 0.723854 0.048112 -0.024458 426126.000000 0 0 1
12.477193 17.605087 23.979738 32.259065 0.954238 0.732733 0.053090 -0.019977 143275.000000 0 0 1
11.977293 18.730987 23.236758 32.159794 1.001882 0.763326 0.048750 -0.021580 686312.000000 0 0 1
12.987393 19.519187 22.563458 32.538910 0.983695 0.804558 0.048552 -0.020516 1025600.000000 0 0 1
13.972493 18.858387 21.521158 31.843831 0.933134 0.828700 0.057406 -0.017679 277329.000000 0 0 1
13.245493 18.324487 20.440558 30.480261 0.944912 0.835757 0.052592 -0.012548 235230.000000 0 0 1
13.971293 17.346887 19.703858 29.738082 0.892768 0.846538 0.047401 -0.010965 378094.000000 0 0 1
12.979693 16.486987 18.862958 28.215321 0.903867 0.838558 0.041119 -0.005592 296068.000000 0 0 1
12.611993 16.995987 17.607158 27.530673 0.932398 0.876888 0.035663 0.002473 604048.000000 0 0 1
11.481493 16.259687 17.088458 26.233900 0.955966 0.861383 0.022968 -0.001677 751971.000000 0 0 1
10.824193 16.848787 15.811258 25.515498 0.999760 0.902471 0.016582 0.004851 -19686.300000 0 0 1
10.061193 18.027187 15.994858 26.115944 1.061746 0.911633 0.022660 -0.005328 180466.000000 0 0 1
9.738793 18.482387 14.701058 25.545329 1.085843 0.957594 0.013051 0.001192 -697907.000000 0 0 1
8.884593 19.778087 14.603558 26.141397 1.148596 0.978054 0.020974 -0.003990 876832.000000 0 0 1
7.517993 19.520787 14.984958 25.731893 1.203176 0.949180 0.015635 -0.008948 310775.000000 0 0 1
6.764493 20.666087 14.711958 26.254280 1.254464 0.975971 0.017077 -0.013863 -747712.000000 0 0 1
5.454493 20.560187 15.476958 26.306064 1.311476 0.941790 0.016024 -0.010537 -860246.000000 0 0 1
4.504493 19.754587 14.844258 25.117447 1.346607 0.938506 0.018001 -0.017943 -555775.000000 0 0 1
3.291093 19.756587 15.537758 25.349082 1.405730 0.911006 0.000447 -0.007495 192323.000000 0 0 1
2.020893 19.122087 14.917358 24.336511 1.465503 0.910992 -0.008330 -0.007436 172726.000000 0 1 0
1.481893 20.013087 13.927258 24.427201 1.496885 0.964103 -0.003711 -0.019618 62159.300000 0 1 0
0.515893 19.243087 13.211258 23.347374 1.543993 0.969325 -0.006554 -0.022246 77191.500000 0 1 0
-0.379507 20.063787 12.225658 23.498219 -1.551884 1.023617 -0.000574 -0.027868 -224094.000000 0 1 0
-1.325407 20.799687 12.941458 24.532937 -1.507160 1.015125 0.002407 -0.019358 -545335.000000 0 1 0
-2.485007 20.919187 12.150358 24.319104 -1.452560 1.047634 0.009159 -0.028769 -226015.000000 0 1 0
-3.681107 21.612287 12.801658 25.387476 -1.402091 1.042282 0.014178 -0.022199 -304358.000000 0 0 1
-4.324307 20.750287 13.697358 25.236712 -1.365339 0.997082 0.009644 -0.027144 -733282.000000 0 0 1
-5.374107 21.433187 14.283158 26.311046 -1.325124 0.996960 0.015037 -0.018805 -1156940.000000 0 0 1
-6.086307 20.764487 15.418858 26.569686 -1.285671 0.951678 0.004192 -0.009858 -860874.000000 0 0 1
-6.978307 19.767887 14.954258 25.750650 -1.231440 0.951167 0.009568 -0.014689 160292.000000 0 0 1
-7.647807 18.996987 15.950358 25.957434 -1.188068 0.909068 0.008321 -0.004473 271663.000000 0 0 1
-8.821907 19.688387 16.697458 27.281197 -1.149543 0.912146 0.004802 0.003459 -141135.000000 0 0 1
-9.979507 19.889587 15.908758 27.354612 -1.105753 0.950133 -0.000554 -0.003774 222656.000000 0 0 1
-11.134607 19.566687 16.686658 28.022835 -1.053438 0.932950 -0.006201 0.000161 236482.000000 0 0 1
-12.445407 19.627487 15.887858 28.152272 -1.005694 0.971145 -0.004390 -0.002790 -436233.000000 0 0 1
-13.042807 20.882287 15.742058 29.223229 -1.012494 1.001923 -0.012295 0.001513 475462.000000 0 0 1
-14.045307 20.714187 14.697658 29.023600 -0.974953 1.039787 -0.010593 -0.002715 128518.000000 0 0 1
-14.927707 21.959587 14.511158 30.259438 -0.973770 1.070645 -0.012409 -0.000337 -343130.000000 0 0 1
-16.010607 21.932587 15.420658 31.227786 -0.940224 1.054328 -0.015770 -0.001308 -125870.000000 0 0 1
-16.899607 23.013387 15.222158 32.356248 -0.937394 1.080990 -0.000884 -0.003809 447064.000000 0 0 1
-18.247507 22.841587 15.981358 33.318365 -0.896743 1.070534 0.031166 -0.014953 102708.000000 0 0 1
-19.005307 21.657187 15.564258 32.748764 -0.850523 1.075534 0.031459 -0.017000 592476.000000 0 0 1
-20.261107 21.444887 16.159358 33.638081 -0.813774 1.069698 0.037049 -0.017317 126507.000000 0 0 1
-21.354107 22.511687 16.226158 35.015170 -0.811781 1.088964 0.031928 -0.014027 -1468440.000000 0 0 1
-22.053407 22.651487 15.058958 35.017351 -0.798776 1.126256 0.037801 -0.016712 -292143.000000 0 0 1
-22.823907 23.820387 15.076758 36.271893 -0.806758 1.142129 0.051620 -0.020136 -676792.000000 0 0 1
-22.267907 24.961587 14.176758 36.330717 -0.842370 1.169932 0.037869 -0.014461 160750.000000 0 0 1
-21.076507 25.554187 14.659858 36.223571 -0.881129 1.154140 0.027827 -0.007236 151559.000000 0 0 1
-20.772607 26.690587 13.848858 36.546949 -0.909444 1.182153 0.019924 -0.002106 -916335.000000 0 0 1
-19.384807 27.250687 14.076158 36.283728 -0.952493 1.172393 0.006585 0.005193 46610.600000 0 0 1
-18.358107 26.447987 13.451858 34.892243 -0.964027 1.175019 0.000826 0.013032 -11383.300000 0 0 1
-17.080207 27.007487 13.534858 34.703461 -1.006876 1.170149 -0.014477 0.013763 -747007.000000 0 0 1
-16.056307 26.160787 12.808358 33.260274 -1.020324 1.175486 -0.010411 0.013861 -868187.000000 0 0 1
-14.818707 26.795487 12.759158 33.172101 -1.065630 1.175984 -0.014438 0.018098 -841483.000000 0 0 1
-13.829607 26.026087 12.143758 31.876105 -1.082365 1.179954 -0.015433 0.018861 -206478.000000 0 0 1
-12.468707 26.750687 12.161358 31.921255 -1.134628 1.179940 -0.011226 0.015769 -893129.000000 0 0 1
-11.416707 25.985487 11.591858 30.658733 -1.156835 1.183061 -0.008245 0.013542 1274110.000000 0 0 1
-10.088907 26.424987 11.954458 30.707899 -1.206082 1.170929 0.009740 0.008565 988452.000000 0 0 1
-9.632707 27.697787 11.261058 31.412862 -1.236102 1.204151 0.006701 0.002655 -603646.000000 0 0 1
-8.293207 28.057587 11.562558 31.459469 -1.283401 1.194436 0.030397 -0.005828 467609.000000 0 0 1
-7.903007 29.313387 11.031358 32.302059 -1.307454 1.222277 0.035087 -0.011643 -416134.000000 0 0 1
-6.683407 29.940087 11.703358 32.833601 -1.351171 1.206337 0.037054 -0.011385 -832226.000000 0 0 1
-5.503007 29.285287 11.388658 31.900042 -1.385052 1.205731 0.056500 -0.014392 -1021080.000000 0 0 1
-4.441307 29.903387 12.091158 32.559697 -1.423352 1.190330 0.044871 -0.017050 -53575.600000 0 0 1
-3.119407 29.503787 11.380358 31.776040 -1.465459 1.204518 0.049833 -0.021337 -193726.000000 0 0 1
-2.876407 30.197587 10.180658 31.997090 -1.475830 1.246993 0.061998 -0.026611 -221408.000000 0 0 1
-1.735307 29.754387 9.508758 31.285001 -1.512541 1.261971 0.048159 -0.024719 -17362.000000 0 0 1
-1.385507 30.484087 8.190258 31.595562 -1.525377 1.308580 0.050168 -0.026478 318501.000000 0 0 1
-2.351007 30.152387 7.216158 31.092871 -1.492983 1.336577 0.060455 -0.021178 262396.000000 0 0 1
-2.173007 31.084687 6.200958 31.771553 -1.501004 1.374362 0.052967 -0.014726 221430.000000 0 0 1
11.117893 -34.196677 -27.383975 45.198477 -1.256459 2.221643 0.074064 -0.031151 159893.000000 0 0 1
11.271393 -33.786677 -26.069305 44.138334 -1.248802 2.202632 0.064820 -0.029431 -71831.900000 0 0 1
12.637393 -33.679177 -25.747535 44.237159 -1.211825 2.192024 0.059630 -0.026523 -139181.000000 0 0 1
12.836093 -33.809577 -24.238605 43.535764 -1.207948 2.161266 0.037191 -0.003279 -374233.000000 0 0 1
12.538293 -32.585677 -23.514905 42.094963 -1.203480 2.163512 0.031250 -0.004693 277314.000000 0 0 1
12.832893 -32.564877 -22.133005 41.412851 -1.195411 2.134651 0.009788 -0.000004 -1664460.000000 0 0 1
14.252293 -32.286977 -21.814005 41.490090 -1.155096 2.124410 -0.011901 0.010887 -1238550.000000 0 0 1
15.166893 -33.244377 -22.363505 42.840980 -1.142778 2.120004 0.003857 0.010669 417807.000000 0 0 1
16.496393 -32.960677 -21.937305 42.892686 -1.106759 2.107663 0.000077 0.003156 727034.000000 0 0 1
17.513093 -34.149977 -21.997605 44.236003 -1.096938 2.091255 -0.012597 0.015900 419966.000000 0 0 1
18.866693 -33.822977 -21.710205 44.399086 -1.061979 2.081715 0.000582 0.014113 287585.000000 0 0 1
19.575293 34.056987 -21.694705 44.874611 1.049127 2.075390 -0.002950 0.016278 1621.550000 0 0 1
21.074493 34.294687 -21.380205 45.578207 1.019775 2.059055 0.015252 0.011786 83468.300000 0 0 1
21.827793 -34.245577 -22.443705 46.399698 -1.003337 2.075678 0.005406 0.010467 -434817.000000 0 0 1
23.190793 -34.398877 -22.137805 47.023165 -0.977615 2.060977 0.007998 0.007576 31039.000000 0 0 1
24.106893 -33.935177 -23.319405 47.713029 -0.953137 2.081445 0.018973 0.003370 166311.000000 0 0 1
24.182293 -32.545077 -23.619305 46.923735 -0.931765 2.098274 0.018784 0.003678 807717.000000 0 0 1
22.960993 -32.051577 -24.245105 46.285374 -0.949164 2.122123 0.003046 0.004214 1145300.000000 0 0 1
22.771193 -30.546677 -24.170705 45.120391 -0.930210 2.136125 0.004939 -0.001019 -306610.000000 0 0 1
23.592993 -29.820777 -25.017005 45.516575 -0.901469 2.152710 0.006070 -0.006162 -481824.000000 0 0 1
23.360193 -28.445077 -24.786105 44.375354 -0.883239 2.163440 0.003194 0.002518 376096.000000 0 0 1
23.972793 -27.466377 -25.807135 44.666597 -0.853211 2.186793 -0.009463 0.005638 220332.000000 0 0 1
23.253193 -27.528577 -27.036725 45.050172 -0.869391 2.214481 -0.016732 0.000452 -130272.000000 0 0 1
23.873593 -26.771777 -28.071065 45.548449 -0.842561 2.234820 -0.012726 0.001875 -194935.000000 0 0 1
22.887693 -26.371277 -29.219875 45.531218 -0.856000 2.267580 -0.016194 0.002697 492630.000000 0 0 1
22.088593 -25.240377 -29.132505 44.426179 -0.851893 2.285973 -0.004528 -0.001503 -277734.000000 0 0 1
21.105593 -25.185377 -28.134085 43.258248 -0.873305 2.278874 -0.017211 0.004411 -716981.000000 0 0 1
20.607793 -23.754577 -27.910315 42.046959 -0.856213 2.296670 -0.016029 0.009930 -61318.600000 0 0 1
20.007193 -23.124677 -29.023715 42.159394 -0.857551 2.330116 -0.006839 0.004341 61736.300000 0 0 1
19.548893 -21.866177 -28.638435 40.993278 -0.841293 2.344253 -0.015637 0.013133 214840.000000 0 0 1
18.561493 -21.299277 -29.756605 41.032228 -0.853974 2.382122 -0.001099 0.002970 960680.000000 0 0 1
17.370793 -22.065677 -29.896605 41.017625 -0.903890 2.387470 -0.000026 -0.003137 357397.000000 0 0 1
16.230993 -21.306677 -30.278625 40.425422 -0.919799 2.417347 -0.003215 -0.006594 1605.410000 0 0 1
15.003593 -22.226277 -30.163105 40.359981 -0.977020 2.414864 0.001111 -0.011968 -556776.000000 0 0 1
15.007693 -23.216877 -31.183015 41.672949 -0.996947 2.416261 0.000524 -0.011724 9875.020000 0 0 1
14.298693 -24.357377 -30.728875 41.737252 -1.039963 2.398302 0.011947 -0.011632 -88807.500000 0 0 1
14.431993 -25.680377 -31.517905 43.140961 -1.058798 2.389967 0.024864 -0.011838 16993.700000 0 0 1
13.761893 -26.738277 -30.862245 43.090641 -1.095467 2.369163 0.031145 -0.012908 -62679.100000 0 0 1
14.170293 -28.025477 -31.358465 44.379927 -1.102661 2.355466 0.048716 -0.014073 260780.000000 0 0 1
13.555793 -29.177777 -30.545565 44.363653 -1.135873 2.330252 0.040906 -0.025530 -58927.400000 0 0 1
13.978193 -29.340377 -29.199965 43.690795 -1.126194 2.302761 0.065699 -0.031512 -362850.000000 0 0 1
13.614093 -28.389977 -28.216535 42.278921 -1.123651 2.301495 0.054753 -0.025053 -395904.000000 0 0 1
14.385493 -28.441377 -26.925585 41.723392 -1.102524 2.272259 0.047189 -0.015182 -218191.000000 0 0 1
14.027093 -29.591577 -26.126685 41.893012 -1.128145 2.244203 0.055119 -0.011749 256469.000000 0 0 1
14.865393 -29.768877 -24.990505 41.613595 -1.107661 2.214969 0.042503 -0.006875 -651441.000000 0 0 1
14.650393 -28.730877 -23.804005 40.084011 -1.099246 2.206635 0.036509 -0.006057 -133619.000000 0 0 1
13.571493 -28.828277 -22.931105 39.256726 -1.130805 2.194606 0.035036 -0.008184 311799.000000 0 0 1
12.276393 -28.743677 -23.541705 39.129537 -1.167149 2.216343 0.038037 -0.010143 -24115.300000 0 0 1
11.108793 -28.355777 -22.642405 37.949096 -1.197409 2.210119 0.026931 -0.003531 -155761.000000 0 0 1
11.084193 -27.003777 -22.357605 36.768544 -1.181298 2.224415 0.019791 -0.000532 -92479.700000 0 0 1
9.824493 -26.631677 -21.866705 35.831825 -1.217382 2.227184 0.022702 0.001962 -551054.000000 0 0 1
9.552393 -25.122077 -21.676705 34.528923 -1.207441 2.249499 0.030078 0.000125 69125.900000 0 0 1
10.275793 -24.542077 -20.588405 33.642055 -1.174273 2.229363 0.023224 -0.004266 269551.000000 0 0 1
10.010793 -23.128877 -20.492405 32.482296 -1.162315 2.253482 0.022070 -0.005666 -167182.000000 0 0 1
10.491493 -22.408577 -19.183305 31.308384 -1.132918 2.230295 0.014255 -0.002851 -202436.000000 0 0 1
10.001093 -22.965777 -17.973505 30.830109 -1.160084 2.193195 0.017072 -0.009299 71258.600000 0 0 1
9.992493 -21.972177 -16.952505 29.495998 -1.143975 2.183082 0.010453 -0.006203 -323481.000000 0 0 1
9.197093 -22.369777 -15.676905 28.822887 -1.180724 2.145880 0.003577 -0.004211 113026.000000 0 0 1
9.667093 -23.521777 -14.968705 29.509131 -1.180856 2.102795 0.012876 -0.006253 339226.000000 0 0 1
8.886593 -23.728477 -13.766005 28.836003 -1.212454 2.068478 0.022277 -0.002131 394378.000000 0 0 1
8.587693 -25.254777 -13.639205 29.959642 -1.243020 2.043452 0.023363 -0.000398 444304.000000 0 0 1
9.756693 -25.919177 -13.141205 30.654332 -1.210775 2.013839 0.020209 -0.003958 495401.000000 0 0 1
9.827093 -27.302177 -13.468805 31.990457 -1.225296 2.005372 0.011420 -0.011564 -289239.000000 0 0 1
11.039293 -28.095377 -12.896805 32.825962 -1.196406 1.974562 0.023147 -0.011586 1350380.000000 0 0 1
12.367193 -27.841877 -13.401305 33.282316 -1.152781 1.985212 0.012352 -0.001233 1036550.000000 0 0 1
12.647893 -27.871977 -14.783905 33.990883 -1.144799 2.020765 0.013239 0.000001 -259516.000000 0 0 1
14.022393 -27.222777 -15.173405 34.175127 -1.095144 2.030843 -0.007161 0.002812 741828.000000 0 0 1
15.101793 -28.129977 -15.004005 35.277187 -1.078099 2.010109 0.024069 0.004907 -1162970.000000 0 0 1
16.228993 -27.609777 -15.562005 35.606965 -1.039397 2.023112 0.032551 0.000965 -648682.000000 0 0 1
17.497993 -28.487277 -15.359705 36.791646 -1.019973 2.001464 0.023614 -0.003955 363476.000000 0 0 1
17.645793 -29.666077 -16.149105 38.108316 -1.034199 2.008398 0.017869 0.004026 94059.100000 0 0 1
18.878693 -30.322277 -15.889505 39.093758 -1.013924 1.989357 0.030408 0.004240 503960.000000 0 0 1
19.383493 -31.359777 -16.923005 40.565299 -1.017174 2.001136 0.022226 -0.002242 -66361.200000 0 0 1
18.952693 -32.681377 -16.658305 41.288934 -1.045270 1.986088 0.006409 0.011222 64339.000000 0 0 1
19.445293 -33.602277 -17.603005 42.627435 -1.046194 1.996487 0.009853 0.003307 -66907.400000 0 0 1
19.087693 33.999487 -17.281905 42.649377 1.059234 1.988004 -0.005221 0.007730 42862.400000 0 0 1
19.819093 33.451287 -16.170805 42.110331 1.035927 1.964932 0.023537 -0.006639 296724.000000 0 0 1
19.660893 32.047387 -16.066305 40.886573 1.020514 1.974632 0.019152 -0.011970 -398857.000000 0 0 1
20.696893 31.454587 -15.050705 40.549675 0.988823 1.951062 0.036617 -0.014196 -52767.700000 0 0 1
21.997093 31.327987 -15.629605 41.347302 0.958626 1.958440 0.035163 -0.011884 473724.000000 0 0 1
23.039293 31.152687 -14.674105 41.432213 0.934010 1.932824 0.026976 -0.016069 300085.000000 0 0 1
22.996993 30.027187 -13.627305 40.201954 0.917214 1.916619 0.020891 -0.009215 -1523720.000000 0 0 1
23.217193 28.691087 -14.108105 39.512721 0.890463 1.935907 0.015074 0.001400 153108.000000 0 0 1
22.837193 27.534587 -13.355705 38.184627 0.878384 1.928118 0.019502 0.004085 -341505.000000 0 0 1
21.350493 27.350787 -13.033705 37.064627 0.907986 1.930127 0.026332 -0.004948 -461754.000000 0 0 1
20.553793 26.961087 -14.187305 36.751030 0.919438 1.967129 0.036925 -0.009291 1175830.000000 0 0 1
19.125893 26.960487 -13.991205 35.894588 0.953786 1.971195 0.035169 -0.013322 1077950.000000 0 0 1
18.553793 28.410887 -14.076805 36.736605 0.992278 1.964035 0.034966 -0.019460 -545554.000000 0 0 1
18.323693 29.116287 -15.273105 37.640186 1.009091 1.988613 0.030888 -0.010946 41949.300000 0 0 1
17.584393 28.528887 -16.331705 37.280462 1.018426 2.024254 0.005502 -0.003138 -325888.000000 0 0 1
17.631393 29.315087 -17.665805 38.500922 1.029315 2.047487 0.003453 -0.005185 -19140.200000 0 0 1
16.840793 30.501387 -17.656305 39.060108 1.066318 2.039835 -0.001988 -0.004586 128189.000000 0 0 1
16.919093 31.023687 -18.999505 40.121142 1.071522 2.064117 -0.010065 0.002224 291965.000000 0 0 1
15.903093 32.168887 -19.318705 40.754853 1.111669 2.064650 -0.026369 0.010710 441082.000000 0 0 1
16.387693 33.422987 -18.910105 41.752181 1.114929 2.040826 -0.010094 0.012322 637537.000000 0 0 1
15.325793 34.395687 -19.040705 42.195872 1.151630 2.038957 -0.019628 0.016673 406703.000000 0 0 1
15.522493 -33.421777 -18.223705 41.110417 -1.135997 2.030058 -0.018676 0.012263 -349978.000000 0 0 1
14.450593 -32.539877 -18.373005 40.065328 -1.152869 2.047189 -0.028223 0.018199 -292698.000000 0 0 1
14.272493 -31.677177 -17.253605 38.792196 -1.147476 2.031714 -0.012982 0.013975 271280.000000 0 0 1
13.165893 -30.591577 -17.436005 37.592547 -1.164381 2.053093 0.007211 0.010506 1245320.000000 0 0 1
11.848993 -31.150577 -17.652605 37.714341 -1.207319 2.057891 -0.008750 0.011744 151972.000000 0 0 1
10.937893 -30.114077 -17.579805 36.545105 -1.222397 2.072642 -0.023854 0.021039 104560.000000 0 0 1
9.504893 -30.533577 -18.039705 36.716117 -1.269011 2.084412 0.011135 0.005463 -169529.000000 0 0 1
8.767493 -31.382277 -17.179705 36.835560 -1.298365 2.056001 0.015490 0.006009 559318.000000 0 0 1
7.876793 -32.341877 -17.789105 37.742458 -1.331899 2.061593 0.038914 0.003906 631480.000000 0 0 1
6.555793 -31.756077 -18.359305 37.262460 -1.367214 2.085989 0.032280 0.013923 -480171.000000 0 0 1
6.628593 -31.166677 -19.679905 37.451284 -1.361237 2.124076 0.018346 0.017279 -20549.000000 0 0 1
6.440493 -32.076077 -20.747405 38.740282 -1.372643 2.135957 0.026325 0.004299 -1196750.000000 0 0 1
6.571593 -31.403677 -22.131105 38.976436 -1.364511 2.174636 0.019191 0.014118 -76056.400000 0 0 1
7.829293 -30.856977 -22.550305 39.012397 -1.322312 2.187108 0.021862 -0.004875 181645.000000 0 0 1
8.874993 -31.786777 -22.589405 39.993073 -1.298526 2.171027 0.023077 -0.011307 -1036890.000000 0 0 1
8.824893 -32.995777 -23.569005 41.498169 -1.309458 2.174813 0.027158 -0.007951 -679550.000000 0 0 1
7.955193 -34.040277 -23.165705 41.936564 -1.341217 2.156035 0.045093 -0.018996 -72703.700000 0 0 1
7.864093 34.057187 -24.157605 42.489126 1.343865 2.175550 0.057120 -0.030566 -361449.000000 0 0 1
6.698893 33.120587 -23.865905 41.369432 1.371231 2.185721 0.056803 -0.037194 62305.400000 0 0 1
5.367493 33.586387 -24.008405 41.632426 1.412325 2.185450 0.052772 -0.032239 244938.000000 0 0 1
4.832293 33.974987 -22.733405 41.163801 1.429513 2.155877 0.043161 -0.023664 730281.000000 0 0 1
3.372093 -34.516377 -22.816005 41.512906 -1.473410 2.152696 0.025646 -0.008072 912048.000000 0 0 1
2.365593 33.609187 -22.635405 40.589839 1.500527 2.162363 0.033212 -0.019161 -425433.000000 0 0 1
1.143693 34.136287 -23.073805 41.218862 1.537305 2.164926 0.026178 0.003783 -775692.000000 0 0 1
-0.096807 33.381887 -22.672505 40.353466 -1.567896 2.167414 0.024140 -0.010350 -683649.000000 0 0 1
-0.206807 33.556087 -21.266005 39.727783 -1.564633 2.135651 0.024308 -0.003689 785772.000000 0 0 1
-1.476207 33.174587 -20.671705 39.115876 -1.526328 2.127598 0.024556 -0.000184 1145820.000000 0 0 1
-1.646807 33.571187 -19.190605 38.704210 -1.521781 2.089584 0.031064 -0.000658 -4447.660000 0 0 1
-0.802007 32.775687 -18.400905 37.596305 -1.546332 2.082237 0.045122 -0.011898 -136555.000000 0 0 1
-1.272907 32.759287 -17.053805 36.954343 -1.531959 2.050463 0.024199 -0.012653 110153.000000 0 0 1
-0.497907 31.869287 -16.068405 35.694439 -1.555174 2.037747 0.011244 -0.012030 63782.500000 0 0 1
0.702493 32.406987 -15.579905 35.964423 1.549123 2.018840 0.030155 -0.010202 -331370.000000 0 0 1
1.240993 31.502587 -14.596805 34.742190 1.531423 2.004403 0.050270 -0.004254 1186650.000000 0 0 1
2.347393 32.129587 -13.619205 34.975754 1.497866 1.970765 0.052719 -0.014519 1892360.000000 0 0 1
3.442193 32.796087 -14.327305 35.954189 1.466222 1.980664 0.047782 -0.014333 1195220.000000 0 0 1
4.445993 33.373687 -13.484005 36.268281 1.438358 1.951727 0.046299 -0.015358 678768.000000 0 0 1
5.744793 33.714687 -14.259705 37.054311 1.402023 1.965823 0.050831 -0.023040 516015.000000 0 0 1
6.502293 32.561287 -14.632205 36.285240 1.373695 1.985867 0.034748 -0.006475 282633.000000 0 0 1
7.689493 32.862787 -15.377605 37.088567 1.340944 1.998320 0.016204 0.008947 869537.000000 0 0 1
8.671793 31.670587 -15.536205 36.326295 1.303535 2.012726 -0.003412 0.005140 235139.000000 0 0 1
9.354893 31.352387 -14.316605 35.713462 1.280827 1.983267 -0.003649 0.000286 -112197.000000 0 0 1
10.164493 30.195587 -14.407105 34.966485 1.246089 1.995473 -0.008027 0.001472 -94300.400000 0 0 1
9.453393 28.847187 -14.345405 33.575549 1.254119 2.012254 0.000276 -0.003935 -207698.000000 0 0 1
8.711793 28.401487 -15.465305 33.492021 1.273170 2.050776 0.005793 -0.013640 118477.000000 0 0 1
8.000093 27.194487 -15.134905 32.134202 1.284687 2.061210 0.010215 -0.006454 -124738.000000 0 0 1
7.217793 26.660987 -16.351605 32.097971 1.306409 2.105316 0.004716 -0.002348 -196153.000000 0 0 1
8.011793 25.996587 -17.304605 32.240669 1.271846 2.137356 0.008874 0.003591 -235397.000000 0 0 1
7.273993 25.294787 -18.312605 32.063823 1.290783 2.178678 0.009900 0.008797 522699.000000 0 0 1
8.180493 24.118187 -18.784505 31.645932 1.243790 2.206301 0.007090 0.011815 195554.000000 0 0 1
7.490993 23.214487 -19.627405 31.309142 1.258659 2.248352 0.013727 0.010093 -336122.000000 0 0 1
8.327493 22.214987 -20.127305 31.112075 1.212149 2.274347 0.009366 0.013712 -993512.000000 0 0 1
7.608693 21.311387 -21.040905 30.899629 1.227877 2.319847 0.014664 -0.000638 -388825.000000 0 0 1
6.775893 20.497787 -20.216005 29.576322 1.251538 2.323370 0.006747 0.006526 121780.000000 0 0 1
6.032193 19.494787 -20.920205 29.224802 1.270714 2.368619 0.008634 -0.002946 -155703.000000 0 0 1
24.069093 -12.791213 -9.669805 28.921298 -0.488480 1.911711 0.034109 -0.020889 121860.000000 0 0 1
24.877493 -12.175113 -8.684505 29.026602 -0.455134 1.874641 0.049639 -0.026740 179876.000000 0 0 1
24.095593 -12.167713 -7.547405 28.028809 -0.467621 1.843435 0.041799 -0.025968 -1021680.000000 0 0 1
24.797293 -11.855413 -6.227605 28.182257 -0.445969 1.793612 0.030031 -0.015808 -585650.000000 0 0 1
24.838293 -10.518613 -5.801805 27.590631 -0.400586 1.782659 0.036612 -0.016106 539016.000000 0 0 1
25.614393 -9.701413 -6.700705 28.197765 -0.362053 1.810724 0.026310 -0.018925 -1066770.000000 0 0 1
25.790693 -8.283613 -6.152405 27.778232 -0.310779 1.794131 0.034601 -0.009718 -365277.000000 0 0 1
26.452493 -8.226213 -4.899805 28.132064 -0.301500 1.745861 0.042522 -0.020526 1546670.000000 0 0 1
27.826693 -8.683313 -4.837805 29.548758 -0.302475 1.735260 0.053864 -0.017816 535391.000000 0 0 1
28.449493 -8.431213 -3.468905 29.874609 -0.288111 1.687174 0.057853 -0.019394 -527522.000000 0 0 1
28.532793 -7.079213 -3.063305 29.557053 -0.243197 1.674623 0.056979 -0.010375 275122.000000 0 0 1
29.256493 -6.946213 -1.869405 30.127843 -0.233108 1.632885 0.064045 -0.012609 -564601.000000 0 0 1
29.523093 -5.495413 -1.409405 30.063250 -0.184033 1.617695 0.059395 -0.021419 -134786.000000 0 0 1
28.374893 -4.688113 -1.138005 28.782078 -0.163741 1.610345 0.047642 -0.010609 314081.000000 0 0 1
28.658093 -3.382313 -0.552705 28.862290 -0.117480 1.589947 0.051451 -0.009398 -187751.000000 0 0 1
29.371093 -3.189713 0.792895 29.554425 -0.108176 1.543965 0.046566 -0.011488 -475296.000000 0 0 1
28.565493 -3.474013 1.895695 28.838339 -0.121021 1.505014 0.030026 -0.012377 326363.000000 0 0 1
29.317593 -3.269413 3.078295 29.659504 -0.111058 1.466821 0.026795 -0.006772 -217992.000000 0 0 1
28.670093 -3.905013 4.343695 29.259033 -0.135372 1.421789 0.028792 -0.011406 -422414.000000 0 0 1
28.842193 -5.279713 4.412895 29.651663 -0.181051 1.421417 0.042066 -0.020355 241530.000000 0 0 1
28.874593 -5.926613 5.702095 30.023003 -0.202442 1.379711 0.034354 -0.016816 96734.200000 0 0 1
29.717393 -7.264113 5.565995 31.094550 -0.239739 1.390824 0.020288 -0.017123 3507.330000 0 0 1
31.101593 -7.074113 5.499895 32.366665 -0.223647 1.400043 0.015410 -0.013264 -703493.000000 0 0 1
31.786293 -8.264013 5.607495 33.318258 -0.254356 1.401691 0.018145 -0.011949 420466.000000 0 0 1
33.335793 -8.125813 5.449995 34.741997 -0.239094 1.413275 0.035198 -0.009955 383525.000000 0 0 1
33.802393 -7.672213 4.231995 34.919542 -0.223191 1.449305 0.041131 -0.007732 -1061830.000000 0 0 1
35.176193 -7.571713 4.371695 36.246477 -0.212016 1.449892 0.056478 -0.005751 -929581.000000 0 0 1
-34.552351 -7.471513 3.063195 35.483399 0.212959 1.484361 0.060647 -0.001567 -371891.000000 0 0 1
-34.450751 -8.606013 2.256595 35.581033 0.244796 1.507332 0.073914 -0.012424 258332.000000 0 0 1
-33.496251 -8.416813 1.213795 34.558861 0.246179 1.535667 0.083597 -0.020777 127075.000000 0 0 1
-33.074651 -9.716613 0.533795 34.476514 0.285739 1.555313 0.075136 -0.019411 -178067.000000 0 0 1
-32.525151 -10.653013 1.461295 34.256496 0.316520 1.528126 0.072115 -0.013329 459418.000000 0 0 1
-32.656351 -11.986313 1.016395 34.801466 0.351777 1.541587 0.067203 -0.021729 -1101340.000000 0 0 1
-32.317051 -13.089513 2.101495 34.930551 0.384839 1.510598 0.062754 -0.029471 1150900.000000 0 0 1
-30.927151 -13.209313 2.427695 33.717478 0.403657 1.498733 0.046034 -0.019566 1006280.000000 0 0 1
-29.983651 -13.530313 1.417495 32.925643 0.423898 1.527732 0.041409 -0.007615 7888.890000 0 0 1
-28.587751 -13.909713 2.015195 31.855935 0.452840 1.507494 0.022915 -0.002244 377781.000000 0 0 1
-27.904251 -12.794213 2.536295 30.802141 0.429903 1.488361 0.012650 0.001792 386707.000000 0 0 1
-26.516951 -13.110013 2.669595 29.700974 0.459159 1.480792 -0.001259 0.008859 416280.000000 0 0 1
-25.815951 -12.102013 3.593895 28.737399 0.438362 1.445408 -0.017631 0.015528 -885530.000000 0 0 1
-24.534551 -12.420313 4.019995 27.791522 0.468625 1.425639 -0.028569 0.023407 -423999.000000 0 0 1
-24.017551 -11.457013 4.898595 27.057386 0.445101 1.388748 -0.026176 0.024214 627803.000000 0 0 1
-22.738051 -11.955213 5.693495 26.312772 0.484058 1.352694 -0.020739 0.029311 647769.000000 0 0 1
-22.906351 -12.988713 6.678295 27.166288 0.515828 1.322420 -0.008606 0.015483 -33121.600000 0 0 1
-21.656051 -13.268013 7.270695 26.417564 0.549684 1.291976 -0.004213 0.016010 -36481.700000 0 0 1
-21.401551 -12.561013 8.652395 26.280589 0.530747 1.235307 0.012075 0.011919 -575216.000000 0 0 1
-21.251151 -11.158913 8.519595 25.469909 0.483523 1.229725 0.017093 0.009195 593691.000000 0 0 1
-22.304651 -10.324013 9.013195 26.178624 0.433500 1.219308 0.009843 0.008362 -331423.000000 0 0 1
-22.497151 -10.301913 10.559295 26.902601 0.429421 1.167447 0.028374 0.006873 -448527.000000 0 0 1
-22.998951 -11.482613 11.221395 28.048562 0.463061 1.159203 0.030928 -0.002131 326064.000000 0 0 1
-24.385051 -11.691913 11.053895 29.215067 0.447090 1.182769 0.028725 -0.001597 -170528.000000 0 0 1
-25.266151 -11.041313 12.133995 30.125119 0.411991 1.156237 0.034018 -0.008315 -534666.000000 0 0 1
-25.329751 -11.900913 13.257695 30.967636 0.439229 1.128391 0.043725 -0.006793 112648.000000 0 0 1
-26.406751 -11.720513 14.150695 32.170314 0.417724 1.115345 0.028623 -0.007817 -67733.300000 0 0 1
-26.292351 -12.665613 15.332295 32.966418 0.448919 1.087062 0.031190 -0.009091 -801.204000 0 0 1
-26.591451 -14.063413 15.057595 33.639501 0.486476 1.106698 0.027857 -0.008406 265572.000000 0 0 1
-25.995051 -14.881413 16.031295 33.973542 0.519932 1.079379 0.012159 -0.003445 -637667.000000 0 0 1
-26.050351 -16.376913 15.647695 34.520638 0.561230 1.100349 0.012408 -0.005305 -1096390.000000 0 0 1
-27.180751 -17.104613 15.972395 35.867512 0.561679 1.109269 0.006390 -0.001626 -661972.000000 0 0 1
-26.941951 -18.504213 15.832195 36.317117 0.601824 1.119710 -0.001740 0.006365 -23059.100000 0 0 1
-28.176951 -19.228113 16.396595 37.848504 0.598820 1.122738 -0.021297 0.014026 -23896.900000 0 0 1
-28.206651 -19.059913 17.815295 38.422392 0.594247 1.088664 -0.000361 0.013845 -53313.500000 0 0 1
-28.666751 -20.218113 18.553295 39.683491 0.614261 1.084300 -0.002700 0.016380 -165332.000000 0 0 1
-27.742051 -21.441113 18.734295 39.753195 0.657981 1.080072 -0.011710 0.021076 165366.000000 0 0 1
-26.557651 -21.221813 19.503995 39.192856 0.674183 1.049919 0.002707 0.019306 791605.000000 0 0 1
-25.898051 -22.475813 19.798095 39.595906 0.714770 1.047193 -0.000148 0.021284 -333210.000000 0 0 1
-24.516551 -22.310013 20.427195 38.936721 0.738311 1.018521 0.020006 0.017144 65588.600000 0 0 1
-23.512651 -22.095613 19.421895 37.659937 0.754338 1.028951 0.023373 0.005691 609581.000000 0 0 1
-22.225351 -21.831113 19.983595 37.012265 0.776450 1.000456 0.038371 0.009579 751300.000000 0 0 1
-21.153151 -21.568713 18.893495 35.631858 0.795125 1.011911 0.043460 -0.001312 55674.900000 0 0 1
-20.705351 -22.725813 18.224995 35.739678 0.831886 1.035684 0.041180 -0.000606 221911.000000 0 0 1
-19.474451 -22.561813 17.544595 34.584714 0.858712 1.038755 0.035579 -0.005408 148454.000000 0 0 1
-19.204851 -23.633513 16.455395 34.614293 0.888413 1.075386 0.026005 0.004582 -672291.000000 0 0 1
-19.054351 -24.915513 17.071795 35.711304 0.917916 1.072363 0.032934 -0.001799 -85612.300000 0 0 1
-17.884851 -25.325383 17.756195 35.728495 0.955920 1.050686 0.037782 -0.005267 619740.000000 0 0 1
-16.550151 -25.369153 16.927595 34.699350 0.992755 1.061187 0.040736 -0.002393 377373.000000 0 0 1
-16.035951 -24.124813 16.562695 33.368866 0.984151 1.051405 0.038614 -0.002180 82024.800000 0 0 1
-14.766151 -24.216313 15.917195 32.524239 1.023231 1.059401 0.028758 0.001776 441842.000000 0 0 1
-13.982451 -22.871613 15.839595 31.136994 1.022077 1.037114 0.031062 0.000512 -522882.000000 0 0 1
-14.450051 -21.866713 15.016195 30.206675 0.986849 1.050526 0.013714 0.006310 -280681.000000 0 0 1
-15.560051 -21.150013 15.519595 30.500755 0.936511 1.036975 0.029250 0.007244 -19231.300000 0 0 1
-15.256251 -19.955513 16.490295 30.048386 0.918071 0.989879 0.031046 -0.003966 -108180.000000 0 0 1
-14.627551 -18.861113 15.811895 28.630803 0.911149 0.985713 0.021227 -0.002876 156528.000000 0 0 1
-14.493651 -17.741813 16.649995 28.320667 0.885823 0.942324 0.008884 0.001790 -135742.000000 0 0 1
-13.813951 -16.509413 15.966295 26.801279 0.874056 0.932624 0.014874 -0.001261 148387.000000 0 0 1
-14.601451 -15.859613 14.990795 26.257449 0.826679 0.963175 0.008205 -0.007968 40471.200000 0 0 1
-14.735451 -16.576613 13.737095 26.088798 0.844131 1.016257 0.006872 -0.006065 -479848.000000 0 0 1
-15.631351 -15.834513 12.772095 25.655357 0.791855 1.049697 0.006900 -0.007066 -720115.000000 0 0 1
-16.950751 -15.669813 13.213295 26.598161 0.746151 1.050918 -0.001191 -0.015801 -490176.000000 0 0 1
-17.599651 -14.744113 12.378695 26.083878 0.697339 1.076318 0.000185 -0.013310 -295524.000000 0 0 1
-19.140351 -14.680113 12.496995 27.166774 0.654275 1.092790 0.008260 -0.015159 -202101.000000 0 0 1
-19.907251 -15.670913 11.965095 28.018559 0.666885 1.129578 0.023015 -0.015591 -295423.000000 0 0 1
-20.086251 -15.517713 10.555095 27.489397 0.657780 1.176705 0.012862 -0.007454 -23984.000000 0 0 1
-20.963051 -16.603113 9.780495 28.474040 0.669855 1.220168 0.013991 -0.005216 645377.000000 0 0 1
-20.335851 -17.867113 9.826095 28.798137 0.720866 1.222597 0.013944 -0.001871 153167.000000 0 0 1
-21.189451 -18.826313 9.233295 29.810680 0.726412 1.255886 0.013114 -0.001814 80862.900000 0 0 1
-20.653151 -20.275613 9.375595 30.422934 0.776174 1.257522 0.020030 0.003445 344246.000000 0 0 1
-19.609651 -20.634413 8.474395 29.700720 0.810856 1.281450 0.027415 0.002361 -125480.000000 0 0 1
-19.395851 -22.005313 8.471495 30.531935 0.848344 1.289643 0.022421 0.001016 866971.000000 0 0 1
-18.029051 -22.491913 7.841895 29.873536 0.895093 1.305181 0.024189 0.003598 1188620.000000 0 0 1
-16.878751 -21.983013 8.530695 28.998584 0.915995 1.272203 0.013410 -0.001014 128896.000000 0 0 1
-15.745651 -22.200313 7.728695 28.293323 0.953887 1.294117 0.015576 0.002653 -722279.000000 0 0 1
-14.430151 -21.753013 8.307095 27.393989 0.985084 1.262700 -0.018853 0.003624 -782664.000000 0 0 1
-13.264651 -22.086413 7.619695 26.866715 1.029951 1.283239 -0.005274 0.005431 -690232.000000 0 0 1
-12.096751 -21.585113 8.199995 26.066998 1.059988 1.250789 0.003056 0.005326 -223409.000000 0 0 1
-10.877751 -22.141713 7.436795 25.766002 1.114150 1.278003 0.013124 0.004714 -323417.000000 0 0 1
-10.753551 -23.514413 7.548595 26.935994 1.141874 1.286750 0.010701 0.009274 -887659.000000 0 0 1
-9.560451 -23.954213 7.006595 26.726371 1.191054 1.305536 0.010600 0.001237 -645817.000000 0 0 1
-9.244151 -25.413983 7.200695 27.985262 1.221931 1.310566 0.005702 -0.000187 -337875.000000 0 0 1
-10.101051 -26.289523 6.498295 28.903254 1.203964 1.344029 0.008457 -0.015894 -262378.000000 0 0 1
-9.761451 -27.674493 6.518395 30.060821 1.231697 1.352220 0.002483 -0.011166 -227462.000000 0 0 1
-8.602351 -28.241653 5.713495 30.070508 1.275127 1.379631 -0.006852 -0.013663 62986.900000 0 0 1
-7.271951 -28.040713 6.196195 29.623566 1.317051 1.360076 0.001436 -0.012294 560774.000000 0 0 1
-6.313451 -28.995143 5.699995 30.217014 1.356401 1.381024 0.005526 -0.006911 578164.000000 0 0 1
-6.513551 -30.468283 6.123495 31.752792 1.360185 1.376731 0.010915 -0.013526 -776449.000000 0 0 1
-6.470251 -30.582883 7.506095 32.148380 1.362306 1.335138 0.008435 -0.004620 3101.300000 0 0 1
-6.574451 -31.942923 7.790495 33.530069 1.367812 1.336310 0.031553 -0.009233 -115602.000000 0 0 1
-6.814951 -32.176393 9.287595 34.176355 1.362081 1.295580 0.012027 -0.007272 -143631.000000 0 0 1
-5.845251 -31.520043 10.082195 33.605516 1.387434 1.266087 0.006699 -0.005863 126479.000000 0 0 1
-6.094551 -31.811743 11.436995 34.350188 1.381508 1.231363 -0.003540 -0.005265 -342220.000000 0 0 1
-5.195851 -31.158053 12.486495 33.966656 1.405559 1.194358 -0.006881 0.003961 -153886.000000 0 0 1
-5.562851 -29.820913 12.593695 32.845598 1.386374 1.177299 -0.007127 0.000831 459146.000000 0 0 1
-4.708851 -29.061813 13.486495 32.382832 1.410164 1.141237 -0.013850 -0.000014 24471.200000 0 0 1
-5.430851 -28.376973 14.707095 32.419830 1.381701 1.099945 -0.005589 0.000718 28913.500000 0 0 1
-5.900151 -29.408953 15.626895 33.821563 1.372801 1.090503 -0.001318 -0.004522 170084.000000 0 0 1
-5.022851 -29.840203 16.666695 34.546280 1.404035 1.067352 -0.008856 -0.003637 137135.000000 0 0 1
-5.362851 -31.262663 17.251995 36.107418 1.400908 1.072652 0.000073 -0.002752 53275.200000 0 0 1
-5.417851 -32.250763 16.234495 36.510596 1.404359 1.110011 -0.005771 0.003026 -142317.000000 0 0 1
-6.108751 -33.397843 16.619295 37.801240 1.389888 1.115588 -0.005015 0.003918 -192162.000000 0 0 1
-5.787951 34.401140 15.885095 38.331124 -1.404109 1.143493 -0.009129 0.003037 -310878.000000 0 0 1
-6.275351 34.317489 14.542895 37.796374 -1.389933 1.175838 -0.010800 0.006350 -37328.100000 0 0 1
-5.653951 33.295031 13.844595 36.499302 -1.402587 1.181745 -0.005233 -0.003016 317238.000000 0 0 1
-4.356851 33.742138 13.068895 36.445988 -1.442385 1.204047 0.026984 -0.015867 137140.000000 0 0 1
-4.603851 34.250876 11.773795 36.509454 -1.437182 1.242441 0.021864 -0.021826 -187207.000000 0 0 1
-3.432851 34.543553 11.075995 36.437881 -1.471744 1.261940 0.031679 -0.027022 -1288790.000000 0 0 1
-3.755851 -34.238880 9.597495 35.756387 1.461538 1.299051 0.028887 -0.030502 -742809.000000 0 0 1
-3.899851 33.834143 8.582595 35.122913 -1.456039 1.323938 0.047577 -0.037096 873321.000000 0 0 1
-4.898851 32.810991 8.834095 34.330760 -1.422586 1.310545 0.053346 -0.036646 1544450.000000 0 0 1
-6.387451 33.177327 9.166895 35.008092 -1.380599 1.305857 0.031084 -0.024154 590078.000000 0 0 1
-7.231451 33.604758 8.100095 35.315509 -1.358837 1.339372 0.031624 -0.019893 -167156.000000 0 0 1
-8.567651 33.763895 8.544895 35.866704 -1.322290 1.330243 0.020875 -0.015913 -405400.000000 0 0 1
-9.394451 34.024669 7.335295 36.051912 -1.301401 1.365901 0.026564 -0.020328 -1015780.000000 0 0 1
-9.097451 -33.821663 6.756095 35.669501 1.308033 1.380237 0.027627 -0.016972 239862.000000 0 0 1
-9.690051 -33.560363 5.460195 35.355463 1.289706 1.415739 0.024012 -0.010814 -326461.000000 0 0 1
-9.595951 -32.093643 4.959695 33.862705 1.280259 1.423803 0.019391 -0.008005 -157893.000000 0 0 1
-10.497851 -31.154773 5.501695 33.333068 1.245787 1.404985 0.026659 -0.011566 403998.000000 0 0 1
-11.776151 -31.180213 4.846795 33.680482 1.209678 1.426390 0.019664 -0.006685 -13850.400000 0 0 1
-12.775951 -30.210433 5.423295 33.246162 1.170707 1.406939 0.026185 -0.019281 -659496.000000 0 0 1
-13.378251 -30.758113 6.566295 34.178288 1.160528 1.377476 0.021363 -0.005432 -372082.000000 0 0 1
-14.120451 -29.903983 7.345395 33.876100 1.129641 1.352229 0.019206 -0.009559 -250389.000000 0 0 1
32.583926 -12.859613 -12.717505 37.266833 -0.375896 1.919048 0.037428 -0.021697 -424172.000000 0 0 1
31.504076 -13.210213 -11.883605 36.169554 -0.397048 1.905567 0.063483 -0.025855 24826.600000 0 0 1
31.361296 -14.596813 -11.496705 36.452326 -0.435620 1.891664 0.068285 -0.031598 515712.000000 0 0 1
32.412176 -15.152713 -10.449805 37.274016 -0.437312 1.854956 0.052782 -0.033380 1340820.000000 0 0 1
33.797906 -15.119813 -10.786105 38.564845 -0.420656 1.854265 0.063404 -0.030127 279592.000000 0 0 1
34.625311 -15.610813 -9.746205 39.212220 -0.423560 1.821980 0.042196 -0.025151 783215.000000 0 0 1
-34.428289 -15.806413 -10.328305 39.266063 0.430405 1.836962 0.019669 -0.030953 374622.000000 0 0 1
-33.745187 -14.645713 -10.699405 38.310727 0.409476 1.853840 0.021279 -0.031204 290418.000000 0 0 1
-32.374787 -14.900813 -11.007805 37.300574 0.431353 1.870368 0.022269 -0.033502 423001.000000 0 0 1
-31.756157 -13.576013 -11.427005 36.377714 0.403993 1.890327 0.014537 -0.035160 -496519.000000 0 0 1
-31.703307 -12.669613 -10.407205 35.692138 0.380188 1.866677 0.022815 -0.031458 332735.000000 0 0 1
-31.300927 -11.413613 -10.896505 35.053565 0.349658 1.886887 0.017370 -0.020912 -289676.000000 0 0 1
-31.843357 -10.218713 -9.999705 34.905810 0.310524 1.861344 0.016603 -0.021336 -19450.000000 0 0 1
-31.273517 -10.103313 -8.716405 34.001258 0.312479 1.830046 0.024038 -0.021125 316302.000000 0 0 1
-32.136017 -9.338613 -7.904205 34.386186 0.282808 1.802736 0.026872 -0.017588 -608119.000000 0 0 1
-31.678237 -9.299813 -6.445605 33.638416 0.285548 1.763603 0.029621 -0.015683 -232325.000000 0 0 1
-30.466697 -8.571213 -6.246005 32.259850 0.274242 1.765642 0.036959 -0.026243 591291.000000 0 0 1
-30.023477 -8.612713 -4.854605 31.609416 0.279364 1.724988 0.041599 -0.027726 218996.000000 0 0 1
-29.129927 -9.818813 -4.383005 31.051127 0.325109 1.712424 0.032117 -0.022183 16183.200000 0 0 1
-29.856457 -11.015813 -4.114205 32.088672 0.353464 1.699364 0.052752 -0.023502 354623.000000 0 0 1
-30.360177 -11.064113 -2.826005 32.436727 0.349470 1.658031 0.039133 -0.026534 -222132.000000 0 0 1
-30.849667 -12.476613 -2.431505 33.365852 0.384322 1.643735 0.044730 -0.021581 169414.000000 0 0 1
-32.096317 -12.822313 -3.035205 34.695789 0.380071 1.658389 0.054674 -0.031530 338491.000000 0 0 1
-32.559487 -13.960213 -2.398205 35.507170 0.405051 1.638389 0.067262 -0.032375 -731120.000000 0 0 1
-34.076695 -14.128013 -2.347805 36.963957 0.393024 1.634355 0.039147 -0.028422 -393780.000000 0 0 1
-34.614347 -13.135013 -1.481605 37.052352 0.362681 1.610794 0.058086 -0.027852 -421175.000000 0 0 1
34.501944 -13.172113 -1.318105 36.954379 -0.364700 1.606472 0.059669 -0.031642 -509254.000000 0 0 1
33.991036 -11.988813 -0.447905 36.046120 -0.339083 1.583223 0.067988 -0.033303 -237773.000000 0 0 1
34.157226 -12.361913 0.857095 36.335487 -0.347247 1.547206 0.078258 -0.025824 251190.000000 0 0 1
34.150796 -11.156513 1.608195 35.962911 -0.315754 1.526063 0.071987 -0.022112 -470054.000000 0 0 1
34.613302 -11.374213 3.050495 36.561714 -0.317492 1.487265 0.070507 -0.020838 -365498.000000 0 0 1
33.656766 -12.004313 3.826995 35.937826 -0.342603 1.464105 0.060421 -0.020911 -200735.000000 0 0 1
34.259346 -12.318913 5.053195 36.755859 -0.345182 1.432880 0.057484 -0.019543 49272.300000 0 0 1
33.241166 -12.674913 6.171095 36.106938 -0.364284 1.399042 0.039630 -0.010487 45701.200000 0 0 1
32.657426 -11.509013 6.709095 35.270056 -0.338826 1.379409 0.037396 -0.012451 -26644.800000 0 0 1
32.366916 -11.724713 8.065395 35.357273 -0.347540 1.340659 -0.006457 0.003582 -654723.000000 0 0 1
31.839916 -10.485313 8.747595 34.644516 -0.318128 1.315538 -0.012975 -0.002785 -1765250.000000 0 0 1
30.547736 -10.216913 8.401795 33.288732 -0.322762 1.315645 -0.003914 0.000255 -1219400.000000 0 0 1
30.088016 -9.135213 9.183795 32.757945 -0.294771 1.286634 -0.004382 0.000981 -725199.000000 0 0 1
28.569796 -9.004713 9.302695 31.366515 -0.305327 1.269686 0.006059 -0.001260 -17363.400000 0 0 1
27.835176 -8.470913 8.175895 30.222486 -0.295419 1.296859 0.017306 -0.010471 463531.000000 0 0 1
27.322786 -9.541113 7.375695 29.865839 -0.335962 1.321254 0.039543 -0.022167 -590944.000000 0 0 1
26.137826 -9.140113 6.469995 28.435690 -0.336398 1.341255 0.052973 -0.020557 5823.080000 0 0 1
25.107236 -8.576313 7.324995 27.524208 -0.329161 1.301421 0.055338 -0.018650 440997.000000 0 0 1
24.038336 -8.051813 6.579995 26.191022 -0.323211 1.316845 0.055709 -0.016668 -269353.000000 0 0 1
24.342136 -6.695813 5.821395 25.908727 -0.268432 1.344173 0.050074 -0.012207 -816625.000000 0 0 1
24.900636 -6.894713 4.568495 26.238329 -0.270122 1.395789 0.032898 -0.015834 81762.400000 0 0 1
25.129936 -5.613613 3.975895 26.054445 -0.219775 1.417598 0.036098 -0.023970 -227734.000000 0 0 1
25.871346 -5.747513 2.616295 26.630912 -0.218607 1.472395 0.050299 -0.020840 104477.000000 0 0 1
25.144336 -6.257513 1.523595 25.956029 -0.243909 1.512063 0.039699 -0.012848 603425.000000 0 0 1
25.862746 -5.724213 0.376095 26.491314 -0.217819 1.556599 0.034013 -0.014064 260996.000000 0 0 1
25.066236 -6.031113 -0.886805 25.796840 -0.236119 1.605180 0.034623 -0.017246 373280.000000 0 0 1
23.793336 -5.397913 -0.953105 24.416567 -0.223090 1.609841 0.023746 -0.014922 262287.000000 0 1 0
23.397136 -5.419613 -2.315105 24.127949 -0.227621 1.666895 0.013332 -0.012004 555749.000000 0 1 0
22.097536 -4.588513 -2.608405 22.719140 -0.204739 1.685861 -0.014997 -0.003731 258924.000000 0 1 0
22.332036 -3.153213 -2.457505 22.687043 -0.140270 1.679331 -0.016421 -0.006840 687872.000000 0 1 0
23.115436 -2.686913 -3.545405 23.539600 -0.115720 1.721986 -0.006820 -0.002475 -28478.200000 0 1 0
22.283236 -1.774813 -4.468805 22.796114 -0.079480 1.768108 -0.013829 0.005013 -67197.700000 0 1 0
22.123836 -0.494213 -3.911105 22.472319 -0.022335 1.745728 -0.008402 0.006726 434683.000000 0 1 0
21.368536 0.211887 -4.867405 21.916908 0.009916 1.794748 0.005411 0.014059 -359121.000000 0 1 0
20.830836 1.582087 -4.372305 21.343472 0.075804 1.777111 -0.004671 0.015727 -531857.000000 0 1 0
21.754736 2.644687 -4.214305 22.316435 0.120975 1.760780 -0.004373 0.013882 579696.000000 0 1 0
22.457836 2.683687 -2.963505 22.810939 0.118935 1.701081 0.009264 0.002979 -790364.000000 0 1 0
23.658536 3.579087 -2.949205 24.108795 0.150143 1.693433 0.002305 0.003854 -837906.000000 0 1 0
23.290636 4.916787 -3.021605 23.994971 0.208051 1.697058 0.003369 0.006152 522515.000000 0 1 0
24.466336 5.689087 -2.890405 25.284813 0.228467 1.685361 0.009530 0.001278 796.363000 0 0 1
24.114536 7.170887 -3.022505 25.339061 0.289040 1.690363 0.015394 -0.002590 18156.500000 0 0 1
23.153836 7.611287 -2.084405 24.461737 0.317599 1.656111 0.029605 -0.005506 201340.000000 0 1 0
22.733836 8.915987 -2.303305 24.528093 0.373756 1.664840 0.027266 0.005297 -81635.400000 0 1 0
21.579736 9.318287 -1.363005 23.545133 0.407622 1.628718 0.021445 0.011413 47607.700000 0 1 0
22.112436 9.708287 -0.090305 24.149924 0.413704 1.574536 0.020777 0.004461 381554.000000 0 1 0
21.099036 10.092687 0.789295 23.402022 0.446177 1.537062 0.024669 0.004626 -234877.000000 0 1 0
21.660236 10.555787 2.158595 24.191941 0.453464 1.481450 0.050597 0.000966 -758733.000000 0 1 0
22.468036 11.685087 2.202495 25.420560 0.479579 1.484045 0.057811 -0.014427 14509.700000 0 0 1
21.888436 12.979787 2.034995 25.528802 0.535255 1.490998 0.057807 -0.010507 -347440.000000 0 0 1
20.791836 13.490387 2.991395 24.964764 0.575553 1.450683 0.051454 -0.008622 -292383.000000 0 1 0
19.503636 12.936387 2.823195 23.573552 0.585655 1.450747 0.095936 -0.007736 532148.000000 0 1 0
18.436036 13.724987 3.333995 23.224518 0.639949 1.426744 0.073584 -0.008297 224512.000000 0 1 0
18.266336 13.683687 4.830995 23.328970 0.642938 1.362206 0.045922 -0.006745 -738537.000000 0 1 0
17.777236 12.491287 5.363895 22.379315 0.612506 1.328759 0.028177 0.000126 172136.000000 0 1 0
18.013936 12.435587 6.728795 22.900271 0.604207 1.272565 0.023969 -0.009540 2422.040000 0 1 0
18.078036 10.980887 7.313595 22.380437 0.545855 1.237896 -0.000828 -0.015050 -317803.000000 0 1 0
19.168236 10.302687 6.767295 22.789535 0.493186 1.269302 -0.004842 -0.014871 -82756.300000 0 1 0
19.320736 9.072387 7.441795 22.604853 0.439006 1.235327 0.000989 -0.006142 -248093.000000 0 1 0
20.277536 8.076187 6.843295 22.874308 0.379025 1.266974 0.007169 -0.003374 -342667.000000 0 1 0
19.854336 7.799487 5.526995 22.035751 0.374315 1.317270 -0.000049 -0.009838 605824.000000 0 1 0
20.729136 6.934087 4.810195 22.381167 0.322808 1.354185 -0.000648 -0.014661 -130575.000000 0 1 0
20.528036 6.808587 3.316995 21.880576 0.320255 1.418614 0.008203 -0.006634 -492691.000000 0 1 0
21.408936 5.902387 2.740295 22.376102 0.269014 1.448023 0.001720 -0.013229 91331.400000 0 1 0
21.137936 5.788187 1.346395 21.957419 0.267278 1.509439 0.001893 -0.003209 80448.900000 0 1 0
22.213936 4.928787 0.613995 22.762445 0.218341 1.543819 0.015808 -0.007200 412173.000000 0 1 0
22.051436 3.592887 0.902895 22.360454 0.161513 1.530406 0.010202 -0.006207 923401.000000 0 1 0
23.278536 2.925187 0.605595 23.469421 0.125005 1.544990 0.021033 -0.005215 504718.000000 0 1 0
23.148936 1.411387 0.747495 23.203965 0.060894 1.538577 0.030529 -0.013613 -71718.300000 0 1 0
22.258636 0.870587 -0.233905 22.276883 0.039092 1.581296 0.016017 -0.016986 717244.000000 0 1 0
22.424936 -0.444913 -0.649305 22.438746 -0.019837 1.599737 0.013897 -0.015911 -1208220.000000 0 1 0
22.114036 -1.633413 0.312195 22.176476 -0.073729 1.556718 0.028146 -0.015976 -80680.300000 0 1 0
23.014136 -1.797413 1.383095 23.125616 -0.077942 1.510953 0.035357 -0.015014 1556590.000000 0 1 0
24.361936 -2.169113 0.989195 24.478307 -0.088803 1.530374 0.041916 -0.013101 799295.000000 0 1 0
25.483746 -1.882113 2.005395 25.631724 -0.073722 1.492477 0.055687 -0.014747 -212616.000000 0 0 1
25.522206 -0.478113 2.240895 25.624855 -0.018731 1.483234 0.050175 -0.019507 305574.000000 0 0 1
26.459956 -0.193113 3.246095 26.659027 -0.007298 1.448730 0.048500 -0.008795 5678.460000 0 0 1
26.193046 1.235387 3.750395 26.489004 0.047130 1.428736 0.058034 -0.006817 -54069.000000 0 0 1
26.171226 2.251687 2.765995 26.413139 0.085825 1.465884 0.057170 -0.008605 132455.000000 0 0 1
27.387506 2.888587 2.431195 27.646521 0.105082 1.482744 0.059221 -0.015979 -71798.900000 0 0 1
27.223406 3.995887 1.383295 27.549854 0.145741 1.520565 0.052442 -0.021877 -165403.000000 0 0 1
26.765656 3.498387 0.166295 26.993827 0.129968 1.564636 0.045398 -0.013883 541674.000000 0 0 1
27.297696 4.216987 -0.984405 27.639035 0.153270 1.606420 0.051368 -0.011160 377574.000000 0 0 1
28.705866 3.883287 -1.551105 29.008837 0.134462 1.624292 0.049516 -0.007834 1209120.000000 0 0 1
29.836276 4.125787 -0.658005 30.127371 0.137409 1.592639 0.069892 -0.020870 703561.000000 0 0 1
31.046096 3.945887 -1.341805 31.324600 0.126420 1.613645 0.049197 -0.017169 -431060.000000 0 0 1
32.261946 4.112287 -0.416105 32.525639 0.126782 1.583590 0.020080 -0.017515 -402612.000000 0 0 1
32.272746 3.291087 0.721795 32.448149 0.101626 1.548550 0.013586 -0.015010 206602.000000 0 0 1
31.729576 3.923187 1.868795 32.025768 0.123020 1.512410 0.021244 0.001394 -56500.600000 0 0 1
31.624526 2.931087 3.056095 31.906765 0.092420 1.474867 0.011264 0.008107 -725771.000000 0 0 1
30.621616 1.980187 2.925495 30.824715 0.064576 1.475746 0.020948 -0.003134 -389192.000000 0 0 1
30.694976 0.776887 3.716195 30.928874 0.025305 1.450352 0.013802 0.000516 81769.500000 0 0 1
31.934356 -0.164513 3.543095 32.130728 -0.005152 1.460300 0.024122 0.002324 300973.000000 0 0 1
33.103486 0.360087 4.137095 33.362944 0.010877 1.446474 0.016615 0.008244 -234232.000000 0 0 1
34.211596 -0.466313 3.866195 34.432517 -0.013629 1.458276 0.017348 0.004047 -772393.000000 0 0 1
-35.020809 0.297387 4.310695 35.286366 -0.008492 1.448327 0.035634 -0.000476 -349275.000000 0 0 1
-34.567095 1.333787 3.517395 34.771183 -0.038566 1.469465 0.021650 -0.004284 272245.000000 0 0 1
-34.073337 1.033587 2.214595 34.160870 -0.030325 1.505922 0.013799 -0.006846 -743724.000000 0 0 1
-34.095270 2.217187 1.265595 34.190717 -0.064938 1.533772 0.007543 -0.010901 329359.000000 0 0 1
-33.080687 3.209287 1.399995 33.265468 -0.096711 1.528698 0.008940 -0.014505 1172460.000000 0 0 1
-31.833957 2.883087 0.761095 31.973306 -0.090320 1.546990 0.013917 -0.001954 53708.100000 0 0 1
-30.609527 3.627487 1.295395 30.850930 -0.117958 1.528795 0.005889 -0.005976 -340863.000000 0 0 1
-30.345217 3.246287 2.646495 30.632899 -0.106573 1.484295 0.015840 -0.006685 348721.000000 0 0 1
-29.542427 4.220287 3.324695 30.026978 -0.141895 1.459845 0.016421 -0.003904 -439660.000000 0 0 1
-29.580797 4.099987 4.918295 30.265873 -0.137726 1.407569 0.022983 -0.007505 -3067.630000 0 0 1
-30.743297 4.578087 5.571095 31.577624 -0.147827 1.393443 0.022625 -0.000271 538270.000000 0 0 1
-31.869457 3.677887 5.529195 32.553973 -0.114896 1.400122 0.027333 -0.001838 284202.000000 0 0 1
-32.088247 2.800087 6.769895 32.913942 -0.087042 1.363633 0.041152 0.001942 -477880.000000 0 0 1
-32.608007 3.572087 7.867695 33.733404 -0.109111 1.335397 0.037292 0.003143 337615.000000 0 0 1
-32.724957 2.741287 9.022895 34.056572 -0.083572 1.302656 0.047101 0.003107 -226879.000000 0 0 1
-34.008617 1.906587 9.148595 35.269221 -0.056003 1.308403 0.039297 0.007834 -612689.000000 0 0 1
-33.855577 0.705287 8.469295 34.905967 -0.020829 1.325719 0.044534 0.005656 -561810.000000 0 0 1
-34.782309 -0.256713 8.742395 35.865086 0.007380 1.324558 0.042390 0.007357 -933678.000000 0 0 1
-34.605013 -1.082413 10.027095 36.044711 0.031269 1.288892 0.030040 0.005725 267669.000000 0 0 1
-33.403517 -1.855013 9.881195 34.883722 0.055476 1.283604 0.045437 -0.000711 758659.000000 0 0 1
-33.229387 -2.668613 10.991795 35.101755 0.080137 1.252298 0.033715 0.002454 509313.000000 0 0 1
-31.808977 -3.330113 11.031495 33.831857 0.104311 1.238655 0.035291 -0.000867 354459.000000 0 0 1
-31.672407 -4.391313 10.068895 33.523241 0.137770 1.265731 0.039343 0.005282 159882.000000 0 0 1
-30.439477 -5.084613 10.084795 32.467186 0.165512 1.254956 0.036108 -0.005253 -63151.600000 0 0 1
-30.416967 -6.247513 9.039995 32.341070 0.202578 1.287502 0.034305 0.003848 272316.000000 0 0 1
-31.230587 -7.382013 9.361495 33.428749 0.232111 1.286957 0.032737 0.003227 60185.200000 0 0 1
-31.235507 -8.296013 8.288095 33.364251 0.259602 1.319755 0.035920 0.007072 233407.000000 0 0 1
-32.399787 -9.326913 8.390895 34.743987 0.280291 1.326878 0.032421 0.000840 508600.000000 0 0 1
-33.674377 -8.724913 8.442695 35.796185 0.253522 1.332698 0.037246 -0.004295 349117.000000 0 0 1
-34.755067 -9.651813 8.546095 37.068962 0.270883 1.338158 0.028480 -0.012663 384606.000000 0 0 1
7.452793 -23.933513 10.844895 27.312431 -1.268918 1.162476 0.046649 -0.007490 -65967.900000 0 0 1
7.040993 -24.761113 9.795095 27.543278 -1.293752 1.207213 0.036348 -0.001633 -539488.000000 0 0 1
5.645293 -24.894813 9.759995 27.329079 -1.347802 1.205604 0.039052 -0.015957 -82198.800000 0 0 1
5.218093 -25.967703 8.749595 27.894543 -1.372492 1.251744 0.032112 -0.005905 -129086.000000 0 0 1
4.865893 -25.473183 7.504995 26.997869 -1.382050 1.289101 0.035745 -0.007212 -278819.000000 0 0 1
4.738093 -26.455243 6.483595 27.647177 -1.393577 1.334080 0.033064 -0.005959 -583592.000000 0 0 1
4.062193 -25.934343 5.195095 26.759682 -1.415425 1.375417 0.026043 -0.006477 275278.000000 0 0 1
2.652193 -25.870963 5.173795 26.516203 -1.468637 1.374418 0.022142 -0.012114 -281262.000000 0 0 1
2.028993 -27.121813 4.970295 27.648027 -1.496125 1.390043 0.016893 -0.011996 -764990.000000 0 0 1
0.499693 -27.017883 4.952695 27.472621 -1.552304 1.389528 0.013938 -0.009915 -261341.000000 0 0 1
-0.038107 -26.758883 6.271795 27.484081 1.569372 1.340571 0.015443 -0.014400 645076.000000 0 0 1
-1.477507 -26.811243 6.279695 27.576446 1.515744 1.341061 0.004003 -0.012385 1116100.000000 0 0 1
-2.214907 -28.164053 6.469795 28.982373 1.492315 1.345667 0.005989 -0.012149 -487143.000000 0 0 1
-2.050807 -28.799393 7.721995 29.887122 1.499706 1.309460 0.016490 -0.016980 15269.500000 0 0 1
-2.662307 -30.074743 7.699995 31.158754 1.482503 1.321088 0.010635 -0.014618 -14622.800000 0 0 1
-2.361007 -30.810653 9.063495 32.202758 1.494316 1.285491 0.017290 -0.014669 -802207.000000 0 0 1
-1.101907 -31.189573 9.446395 32.607331 1.535482 1.276881 0.022063 -0.017965 -1251140.000000 0 0 1
-1.080107 -31.613413 10.787195 33.420624 1.536644 1.242141 0.018069 -0.009309 770823.000000 0 0 1
0.384393 -31.877033 11.285195 33.817874 -1.558738 1.230565 0.022433 -0.008879 616797.000000 0 0 1
1.040893 -32.953523 10.575895 34.624669 -1.539220 1.260392 0.018652 -0.014822 713384.000000 0 0 1
2.454993 -32.996243 10.753495 34.791043 -1.496531 1.256562 0.020027 -0.004264 826695.000000 0 0 1
3.058693 -33.580523 12.095195 35.823189 -1.479962 1.226392 0.019086 -0.005922 -132778.000000 0 0 1
2.659193 -32.803243 13.239895 35.474200 -1.489908 1.188312 0.013551 -0.000070 -3188.010000 0 0 1
3.202593 -33.257423 14.420495 36.390431 -1.474795 1.163344 0.004880 0.002118 -378401.000000 0 0 1
2.977293 -32.288893 15.636095 35.998949 -1.478848 1.121481 0.007500 0.001138 405992.000000 0 0 1
3.599193 -30.981013 15.368895 34.770394 -1.455141 1.112957 0.011186 -0.004259 545991.000000 0 0 1
4.957493 -30.849863 15.752295 34.991793 -1.411461 1.103839 0.014869 0.000919 260454.000000 0 0 1
5.695593 -29.699673 14.946795 33.733026 -1.381324 1.111753 0.021879 -0.002159 -103590.000000 0 0 1
5.757393 -29.782173 13.521595 33.210826 -1.379835 1.151471 0.024033 -0.000678 -198071.000000 0 0 1
4.559993 -29.775533 12.753695 32.711353 -1.418831 1.170289 0.010805 0.005283 -503009.000000 0 0 1
4.693793 -29.861553 11.245095 32.252073 -1.414887 1.214652 0.015250 -0.001772 -106060.000000 0 0 1
5.125393 -31.057443 10.668395 33.236261 -1.407241 1.244025 0.018902 -0.003459 380227.000000 0 0 1
6.518093 -31.281593 10.905795 33.763293 -1.365367 1.241891 0.018107 -0.001171 40845.400000 0 0 1
7.006493 -32.713173 10.599695 35.094104 -1.359804 1.263968 0.010036 0.005201 -298021.000000 0 0 1
6.554693 -33.730383 11.477495 36.227553 -1.378862 1.248425 0.003835 -0.002300 160570.000000 0 0 1
6.654193 34.152860 10.712495 36.406781 1.378371 1.272131 0.002143 -0.000868 -110322.000000 0 0 1
6.370593 32.850921 11.485695 35.379212 1.379250 1.240160 0.003510 -0.000371 -312942.000000 0 0 1
5.094493 32.782801 12.050995 35.297201 1.416628 1.222374 0.007489 0.002748 -245238.000000 0 0 1
5.020093 31.497041 12.624695 34.302301 1.412743 1.193894 0.007843 0.002706 905386.000000 0 0 1
3.805293 31.385491 13.650195 34.436276 1.450142 1.163215 0.014265 0.001089 765571.000000 0 0 1
4.076493 31.973361 14.881395 35.501683 1.443984 1.138261 0.018675 -0.003381 559924.000000 0 0 1
2.991393 31.763521 15.796995 35.600769 1.476896 1.111044 0.020930 -0.001586 340275.000000 0 0 1
3.337493 32.097781 17.212395 36.574212 1.467190 1.080808 0.009170 0.003838 -183518.000000 0 0 1
3.373293 33.448547 17.514495 37.907017 1.470286 1.090504 0.002230 0.003359 167734.000000 0 0 1
4.124893 33.659811 18.684895 38.718509 1.448858 1.067195 0.001206 0.009338 -242933.000000 0 0 1
4.445193 -33.957253 19.036295 39.182079 -1.440631 1.063470 0.004214 0.002155 90154.200000 0 0 1
3.339393 -33.257703 19.611195 38.753391 -1.470722 1.040196 -0.005349 -0.000232 52020.700000 0 0 1
3.719493 -32.387253 20.657995 38.594320 -1.456453 1.005981 -0.004065 0.000239 -232519.000000 0 0 1
2.561493 -31.648223 21.323095 38.247165 -1.490036 0.979416 -0.016551 0.004423 -341809.000000 0 0 1
1.711093 -32.508153 22.051795 39.319073 -1.518209 0.975394 -0.016487 0.001886 -368241.000000 0 0 1
0.710193 -31.729543 22.692895 39.015840 -1.548417 0.950062 -0.006461 -0.004297 -347671.000000 0 0 1
-0.464307 -32.667413 23.022795 39.967794 1.556584 0.956928 -0.010264 -0.001612 -1371220.000000 0 0 1
-1.095107 -33.177323 21.851795 39.742106 1.537801 0.988624 -0.008474 -0.001863 -232150.000000 0 0 1
-1.939307 -34.272903 22.042595 40.795451 1.514272 0.999979 -0.005777 -0.001933 172452.000000 0 0 1
-3.215207 -34.014366 22.942995 41.154534 1.476551 0.979444 0.004222 -0.005995 -50655.800000 0 0 1
-4.194907 -33.284143 22.191995 40.223327 1.445424 0.986372 0.005147 -0.006312 -222213.000000 0 0 1
-5.330707 -33.160263 23.047295 40.733246 1.411404 0.969381 0.010701 -0.005169 47694.000000 0 0 1
-6.547107 -32.662073 22.230495 40.048353 1.372968 0.982324 0.008370 -0.002906 18437.700000 0 0 1
-7.178207 -33.754093 21.547195 40.683499 1.361256 1.012632 0.001407 0.001424 -283902.000000 0 0 1
-8.363207 -33.334833 20.938995 40.244203 1.324985 1.023596 0.003323 0.004874 -276746.000000 0 0 1
-9.487507 -34.394319 20.972095 41.386118 1.301645 1.039395 0.008118 0.004974 323634.000000 0 0 1
-10.036307 -34.488201 22.307495 42.282240 1.287610 1.015041 0.015461 -0.002044 -725433.000000 0 0 1
-11.231107 33.939742 22.417795 42.197173 -1.251226 1.010706 0.016339 0.002847 -903886.000000 0 0 1
-11.637707 33.646433 23.911195 42.886641 -1.237794 0.979372 0.016450 -0.002583 -215116.000000 0 0 1
-12.044607 -34.349903 24.733295 44.008230 1.233547 0.973976 0.015525 -0.002060 137743.000000 0 0 1
-11.081207 -33.321423 24.966595 43.086439 1.249746 0.952738 0.012864 0.000092 45254.000000 0 0 1
-11.566707 -32.038903 25.754895 42.703567 1.224337 0.923404 0.008239 -0.006581 -199315.000000 0 0 1
-11.960607 -32.236203 27.105895 43.783084 1.215510 0.903206 0.002567 0.003388 92962.900000 0 0 1
-12.642107 -31.123963 27.611195 43.484503 1.184969 0.882831 0.001885 -0.003136 143380.000000 0 0 1
-13.368907 -31.303153 28.969895 44.697538 1.167166 0.865668 0.002337 -0.001055 -30956.500000 0 0 1
-12.542807 -30.818723 30.018795 44.813433 1.184282 0.836774 -0.005598 0.011465 431800.000000 0 0 1
-13.365807 -30.452953 31.095495 45.529737 1.157211 0.818974 -0.000921 0.011269 -461814.000000 0 0 1
-12.662407 -29.740423 32.225795 45.643523 1.168279 0.786917 0.001893 0.010274 -826814.000000 0 0 1
-13.554807 -29.276803 33.187395 46.284632 1.137194 0.771267 0.003867 0.007961 56274.900000 0 0 1
-13.004807 -28.972673 34.469295 46.868679 1.148887 0.744474 0.002955 0.011454 -563070.000000 0 0 1
-12.235707 -30.012803 -33.765168 46.803498 1.183684 2.376653 0.006333 0.018277 -615353.000000 0 0 1
-10.963907 -30.234233 -34.295968 47.016269 1.222912 2.388312 0.010543 0.013033 -710488.000000 0 0 1
-10.499307 -31.488633 -33.788368 47.364789 1.248957 2.365084 0.009863 0.019474 9496.700000 0 0 1
-9.010207 -31.738123 -34.120568 47.462674 1.294182 2.373004 0.009030 0.014041 15509.800000 0 0 1
-8.213607 -30.817703 -33.419468 46.195833 1.310329 2.379554 0.019600 0.008079 84323.800000 0 0 1
-6.854807 -31.263013 -33.324268 46.204666 1.354950 2.376375 0.017964 0.006258 558413.000000 0 0 1
-6.122207 -30.442213 -32.252868 44.771165 1.372335 2.375166 0.002946 0.015672 -283259.000000 0 0 1
-6.435707 -30.777183 -30.925068 44.102303 1.364660 2.347892 0.011537 0.005252 -17692.900000 0 0 1
-5.955407 -29.761943 -30.020168 42.690170 1.373303 2.350699 -0.001505 0.008766 -78864.500000 0 0 1
-6.514207 -29.933173 -28.619068 41.922318 1.356512 2.322205 0.003700 0.007841 -212304.000000 0 0 1
-6.053407 -31.022713 -27.874268 42.142938 1.378090 2.293510 -0.007341 0.010264 -257393.000000 0 0 1
-6.946007 -31.308303 -26.829568 41.812469 1.352474 2.267463 0.001378 0.008031 40486.500000 0 0 1
-6.707507 -32.690383 -26.183968 42.417590 1.368422 2.236090 0.000495 0.005247 -278274.000000 0 0 1
-5.743507 -32.622353 -25.197068 41.618482 1.396522 2.221102 -0.005109 0.004523 -608181.000000 0 0 1
-5.489407 -33.883573 -24.621068 42.242480 1.410184 2.193029 -0.009162 0.000999 -667.167000 0 0 1
-4.452207 -33.759333 -23.474968 41.359265 1.439672 2.174368 0.008578 -0.006329 252394.000000 0 0 1
-5.047607 -33.328053 -22.252268 40.390604 1.420486 2.154271 0.009976 -0.003393 134436.000000 0 0 1
-5.095207 -31.914123 -22.116868 39.161566 1.412479 2.170938 0.002297 0.002660 -158067.000000 0 0 1
-5.514807 -31.253013 -20.799768 37.944621 1.396137 2.150960 0.014926 0.000662 -429539.000000 0 0 1
-6.889007 -31.265783 -20.499468 38.016257 1.353925 2.140318 0.022951 -0.007087 -191489.000000 0 0 1
-7.311907 -29.970873 -20.054968 36.795638 1.331504 2.147229 0.028769 -0.008786 -246186.000000 0 0 1
-7.687907 -28.914133 -21.099668 36.610476 1.310921 2.185025 0.027197 -0.014922 -267195.000000 0 0 1
-6.607507 -28.416653 -21.885868 36.471311 1.342334 2.214403 0.025749 -0.009221 -451206.000000 0 0 1
-6.995807 -27.598443 -22.907668 36.542805 1.322540 2.248328 0.032978 -0.013501 -1572560.000000 0 0 1
-5.978407 -27.490613 -24.049268 37.011382 1.356660 2.278092 0.023226 -0.010683 298221.000000 0 0 1
-4.716907 -26.883863 -23.844968 36.243259 1.397109 2.288843 0.023586 -0.004085 87514.500000 0 0 1
-3.939807 -27.350283 -22.772268 35.806930 1.427731 2.260066 0.012732 -0.001573 -1142450.000000 0 0 1
-2.422707 -27.051753 -23.017968 35.601878 1.481476 2.273834 0.018900 -0.000019 403965.000000 0 0 1
-2.019307 -25.705983 -23.225168 34.702789 1.492403 2.304008 0.017757 -0.002410 -165529.000000 0 0 1
-2.085707 -24.847813 -22.105368 33.322834 1.487053 2.296110 0.022229 0.000075 -997209.000000 0 0 1
-2.262607 -23.335513 -22.458568 32.466180 1.474139 2.334710 0.026041 0.003333 -247914.000000 0 0 1
-3.165707 -23.001213 -23.461568 33.007918 1.434023 2.361411 0.023758 -0.002236 -576220.000000 0 0 1
-4.521907 -23.255113 -23.192168 33.153048 1.378745 2.345562 0.017888 -0.007463 -832769.000000 0 0 1
-5.315507 -23.334313 -24.489168 34.241263 1.346820 2.367699 0.012896 -0.001332 -197401.000000 0 0 1
-5.351007 -22.121113 -25.185768 33.945542 1.333459 2.406765 0.023006 -0.001691 -41186.500000 0 0 1
-5.693307 -22.312913 -26.547268 35.143097 1.320969 2.427068 0.029195 -0.004217 40082.700000 0 0 1
-5.715807 -20.936313 -27.286868 34.865066 1.304282 2.469695 0.037949 0.004797 -39843.800000 0 0 1
-5.830807 -21.043913 -28.673468 36.041814 1.300499 2.490730 0.034284 -0.005943 597396.000000 0 0 1
-4.607507 -21.316613 -29.377968 36.588142 1.357925 2.503002 0.029144 -0.013209 403135.000000 0 0 1
-4.762107 -21.737813 -30.884268 38.066365 1.355133 2.517215 0.048897 -0.015562 -93231.600000 0 0 1
-5.322807 -20.744613 -31.674168 38.235117 1.319627 2.547051 0.074575 -0.020067 -1029270.000000 0 0 1
-6.138007 -21.248013 -32.599868 39.394220 1.289577 2.545489 0.061055 -0.023135 -956176.000000 0 0 1
-6.166207 -20.479813 -33.957668 40.131883 1.278343 2.579519 0.046226 -0.017379 575346.000000 0 0 1
-5.134107 -20.887913 34.174795 40.380448 1.329781 0.561757 0.063294 -0.015119 192968.000000 0 0 1
-5.397107 -20.267913 32.943395 39.053609 1.310547 0.566950 0.057004 -0.018045 607883.000000 0 0 1
-4.160707 -20.479913 32.029095 38.243970 1.370364 0.578115 0.043832 -0.013957 -572646.000000 0 0 1
-4.073507 -21.805213 31.493095 38.521109 1.386112 0.613645 0.048206 -0.010427 200521.000000 0 0 1
-3.031807 -22.124213 30.579895 37.865586 1.434609 0.630741 0.030252 -0.003927 254434.000000 0 0 1
-1.557907 -21.868813 30.924695 37.907899 1.499678 0.616711 0.022863 -0.006597 -582933.000000 0 0 1
-1.143507 -20.518113 30.808395 37.033198 1.515122 0.588250 0.015813 -0.009479 27763.100000 0 0 1
-0.059707 -20.175013 31.656495 37.538892 1.567837 0.567405 0.017547 -0.007388 30869.600000 0 0 1
-0.471907 -19.837813 33.113895 38.604295 1.547013 0.539866 0.008764 -0.010318 57550.700000 0 0 1
-1.438207 -18.794513 33.260695 38.230564 1.494422 0.515588 0.011647 -0.014552 127676.000000 0 0 1
-1.736807 -18.546713 -34.450968 39.164604 1.477424 2.645913 0.014280 -0.018974 -214674.000000 0 0 1
-2.836007 -17.484113 -34.339968 38.638977 1.409992 2.665383 0.017637 -0.022736 -225671.000000 0 0 1
-2.450507 -16.168513 -34.496068 38.175967 1.420381 2.698913 0.024790 -0.025482 -326805.000000 0 0 1
-3.513507 -15.276713 -34.274168 37.688742 1.344736 2.712637 0.032421 -0.031446 120908.000000 0 0 1
-3.051207 -13.746113 -34.360668 37.133825 1.352369 2.752675 0.029915 -0.033401 -719922.000000 0 0 1
-2.118107 -13.395513 -33.383668 36.033254 1.413974 2.755715 0.029827 -0.031688 -419337.000000 0 0 1
-1.855207 -11.993213 -33.413268 35.548916 1.417325 2.793203 0.027511 -0.029519 -53488.300000 0 0 1
-1.154407 -11.427013 34.375095 36.243019 1.470114 0.322452 0.024456 -0.031566 -755955.000000 0 0 1
-2.013307 -11.387513 33.241295 35.195349 1.395805 0.334789 0.022613 -0.025210 126130.000000 0 0 1
-1.393507 -10.963013 32.008695 33.862754 1.444364 0.332443 0.013961 -0.018092 -345160.000000 0 0 1
-0.454507 -11.922813 31.299495 33.496544 1.532694 0.364198 0.004077 -0.020741 -60324.600000 0 0 1
-1.084207 -13.170813 31.010695 33.709183 1.488663 0.402849 0.020271 -0.018790 142354.000000 0 0 1
-0.191607 -14.027013 30.312795 33.401487 1.557137 0.433435 0.027629 -0.025033 21145.800000 0 0 1
-0.351407 -15.544513 30.599595 34.323324 1.548194 0.470128 0.032627 -0.019585 451495.000000 0 0 1
-1.513107 -16.044213 29.931195 33.993863 1.476766 0.493905 0.034005 -0.015498 656926.000000 0 0 1
-2.107007 -17.154713 30.656495 35.192959 1.448585 0.513364 0.028317 -0.010928 -79429.700000 0 0 1
-2.804407 -18.059713 29.661895 34.840292 1.416741 0.552209 0.018122 -0.008153 -686514.000000 0 0 1
-3.862007 -17.582113 28.909995 34.056330 1.354575 0.556919 0.021423 -0.008454 -1099300.000000 0 0 1
-4.421807 -18.438013 27.979795 33.799137 1.335421 0.595576 0.023863 -0.002889 -496810.000000 0 0 1
-3.660107 -19.051713 26.812195 33.094682 1.380995 0.626361 0.018523 -0.008948 -873009.000000 0 0 1
-4.446607 -19.866813 26.018395 33.036638 1.350604 0.663954 0.025722 -0.012359 -514798.000000 0 0 1
-4.424407 -21.246313 26.408295 34.181563 1.365487 0.687888 0.015374 -0.009678 56430.100000 0 0 1
-28.399857 -34.164877 -0.690305 44.432727 0.877284 1.586333 -0.006118 -0.004557 -243936.000000 0 0 1
-27.514717 -33.180577 -0.231805 43.105268 0.878478 1.576174 -0.000008 -0.000363 -283104.000000 0 0 1
-27.997127 -32.553977 0.913795 42.946893 0.860513 1.549517 -0.014587 0.008177 -404798.000000 0 0 1
-27.278087 -31.288377 1.402895 41.533417 0.853766 1.537012 -0.002573 -0.001021 -1028720.000000 0 0 1
-25.963437 -31.507377 1.778595 40.865368 0.881566 1.527259 0.002028 -0.004971 -1153290.000000 0 0 1
-25.353337 -30.269177 2.104795 39.540422 0.873548 1.517540 0.002464 -0.011648 -821783.000000 0 0 1
-23.872607 -30.479877 2.303495 38.784409 0.906368 1.511369 0.000029 -0.010380 -1054320.000000 0 0 1
-23.535507 -31.283777 3.436295 39.298892 0.925810 1.483245 0.001739 -0.012816 -381669.000000 0 0 1
-22.140707 -31.239077 3.610995 38.459461 0.954222 1.476767 0.003921 -0.010877 -524975.000000 0 0 1
-21.753307 -31.937777 4.925495 38.954955 0.972857 1.444016 0.014172 -0.014557 -345611.000000 0 0 1
-22.194907 -31.163277 6.060195 38.736155 0.951920 1.413703 0.019634 -0.017731 -127620.000000 0 0 1
-21.795007 -31.838077 7.246995 39.258177 0.970510 1.385133 0.021680 -0.024714 -318866.000000 0 0 1
-22.349907 -31.127977 8.460995 39.243570 0.948091 1.353488 0.021734 -0.010635 -598960.000000 0 0 1
-21.700607 -29.921477 8.730795 37.979441 0.943323 1.338840 0.029765 -0.010104 -410353.000000 0 0 1
-22.127507 -29.299877 9.922995 38.033869 0.923970 1.306843 0.016079 -0.011574 -268151.000000 0 0 1
-21.423107 -28.068577 10.495095 36.836688 0.918874 1.281885 0.031961 -0.007197 -760387.000000 0 0 1
-20.320807 -28.314177 11.278995 36.631183 0.948296 1.257804 0.032168 -0.010781 -975809.000000 0 0 1
-19.983607 -27.233077 12.115495 35.885516 0.937745 1.226414 0.046160 -0.004844 -648560.000000 0 0 1
-18.707807 -27.470577 12.864795 35.638709 0.972928 1.201480 0.035457 -0.004377 -677684.000000 0 0 1
-18.896207 -28.501377 13.773595 36.866069 0.985341 1.187897 0.031677 -0.003536 387433.000000 0 0 1
-17.620607 -28.766477 14.367195 36.666228 1.021207 1.168169 0.023902 -0.002304 593242.000000 0 0 1
-17.563407 -29.883477 15.455995 37.952382 1.039448 1.151359 0.032637 -0.011598 -98959.600000 0 0 1
-17.562907 -31.185777 14.916995 38.775316 1.057898 1.175910 0.033365 -0.008662 -169387.000000 0 0 1
-17.311607 -32.223477 15.812095 39.850553 1.077806 1.162785 0.046081 -0.007144 168258.000000 0 0 1
-16.932507 -33.593777 15.146995 40.554693 1.103924 1.188022 0.037557 -0.007581 142857.000000 0 0 1
-16.956407 34.480287 16.087295 41.655864 -1.113754 1.174293 0.049848 0.002819 -31820.000000 0 0 1
-17.032107 33.222587 15.439895 40.400784 -1.097067 1.178655 0.024921 0.000549 -224211.000000 0 0 1
-16.885407 32.039087 16.372195 39.745048 -1.085763 1.146225 0.032180 -0.002549 -192903.000000 0 0 1
-17.874807 32.009687 17.356695 40.563329 -1.061513 1.128638 0.036388 -0.005626 -10502.800000 0 0 1
-17.634507 30.903887 18.227295 39.978249 -1.052257 1.097379 0.021107 0.002579 -68719.800000 0 0 1
-18.415207 31.010487 19.498395 40.999483 -1.034920 1.075177 0.024284 0.001095 -276951.000000 0 0 1
-17.837907 32.031287 20.254095 41.885829 -1.062679 1.066085 0.024890 0.003431 156442.000000 0 0 1
-18.655307 32.471987 21.358095 43.111700 -1.049334 1.052486 0.024591 0.003016 -65773.000000 0 0 1
-18.043207 33.457487 22.369895 44.106382 -1.076215 1.038886 0.009832 0.015136 -459959.000000 0 0 1
-17.160007 32.727687 23.166495 43.614835 -1.087877 1.010826 0.002262 0.007255 -332208.000000 0 0 1
-16.862907 33.496587 24.344895 44.710769 -1.104415 0.995007 -0.000238 0.003606 -126001.000000 0 0 1
-17.601207 33.069987 25.667395 45.411912 -1.081690 0.970105 -0.001170 0.006858 -105466.000000 0 0 1
-18.974807 33.234787 25.454295 45.962110 -1.052025 0.983863 0.004061 0.001518 -721237.000000 0 0 1
-19.824407 32.785987 26.464895 46.565210 -1.026957 0.966309 0.009591 -0.001074 -682372.000000 0 0 1
-21.259807 33.140087 26.102795 47.239821 -1.000410 0.985365 0.032070 -0.002817 -810762.000000 0 0 1
-21.605307 32.309887 24.985295 46.205877 -0.981394 0.999482 0.031051 0.000101 576895.000000 0 0 1
-22.859907 32.725287 24.436495 46.804509 -0.961051 1.021488 0.021579 -0.000740 457292.000000 0 0 1
-23.141507 32.202887 23.008995 45.847237 -0.947685 1.045046 0.011898 -0.003137 42392.300000 0 0 1
-22.518507 32.990087 21.996395 45.599018 -0.971855 1.067418 0.019255 -0.002470 247228.000000 0 0 1
-22.867707 32.526087 20.731095 44.840347 -0.958021 1.090174 0.004672 0.002664 16017.300000 0 0 1
-22.495807 33.519987 19.588795 44.870611 -0.979720 1.119023 0.013318 0.005369 -445462.000000 0 0 1
-21.110907 33.653087 19.460095 44.236817 -1.010538 1.115301 0.029150 0.011181 -495272.000000 0 0 1
-20.833907 34.461787 18.330395 44.245563 -1.027037 1.143636 0.033918 0.013894 18877.500000 0 0 1
-19.479307 -33.916577 18.563995 43.294336 1.049466 1.127648 0.028740 0.006580 246376.000000 0 0 1
-19.627907 -32.867977 19.491895 42.959197 1.032457 1.099849 0.025194 0.000661 1102260.000000 0 0 1
-18.332707 -32.282677 19.727395 42.040808 1.054329 1.082362 0.026030 0.001738 653374.000000 0 0 1
-18.243607 -31.225377 20.835595 41.736979 1.042034 1.048107 0.025913 0.000830 -117294.000000 0 0 1
-18.837107 -29.959277 20.572395 40.934317 1.009500 1.044226 0.039502 -0.000455 202026.000000 0 0 1
-19.266707 -29.390477 21.791395 41.350587 0.990535 1.015740 0.042100 -0.004544 -241814.000000 0 0 1
-20.115207 -28.112177 21.594095 40.758079 0.949721 1.012418 0.037113 -0.007029 -576125.000000 0 0 1
-19.419707 -26.976277 21.161195 39.403562 0.946852 1.003875 0.035809 -0.006976 35421.400000 0 0 1
-20.221007 -25.820277 21.034095 38.961635 0.906418 1.000517 0.030902 -0.001951 -353211.000000 0 0 1
-21.261707 -25.750877 19.910795 38.879399 0.880598 1.033149 0.024527 0.002530 -857886.000000 0 0 1
-22.570107 -26.043077 20.285995 39.989664 0.856718 1.038770 0.016455 0.006584 -312906.000000 0 0 1
-23.329707 -26.001177 19.063095 39.796206 0.839499 1.071261 0.016319 0.008455 -436396.000000 0 0 1
-24.850307 -26.125477 19.048995 40.779192 0.810408 1.084760 0.007132 0.011666 -186286.000000 0 0 1
-25.406957 -27.315477 19.584495 42.133137 0.821582 1.087360 0.003997 0.008623 79880.200000 0 0 1
-25.507707 -28.385277 18.677295 42.487745 0.838742 1.115651 0.006667 0.004117 -964023.000000 0 0 1
-26.294047 -29.546277 19.239095 43.982976 0.843574 1.118067 0.006742 0.003573 212743.000000 0 0 1
-27.712917 -29.479777 19.268495 44.814484 0.816281 1.126346 -0.009612 0.008718 205538.000000 0 0 1
-28.314317 -29.790777 18.044295 44.886385 0.810803 1.157097 -0.009780 0.008657 -377268.000000 0 0 1
-29.803147 -29.363777 18.038595 45.561496 0.777972 1.163730 -0.008084 0.007895 211431.000000 0 0 1
-30.018087 -27.971777 17.926395 44.775680 0.750125 1.158887 -0.010304 0.010298 -186298.000000 0 0 1
-31.380137 -27.729177 18.202495 45.661265 0.723710 1.160761 -0.004440 0.024482 95900.300000 0 0 1
-31.883787 -26.351477 17.602595 44.953616 0.690683 1.168457 -0.010868 0.015773 -162325.000000 0 0 1
-32.063267 -26.403177 16.186095 44.577691 0.688890 1.199205 0.002809 0.000830 486635.000000 0 0 1
-32.890057 -25.404477 15.603295 44.391510 0.657687 1.211631 0.008620 0.002198 70585.300000 0 0 1
-32.022967 -24.223477 15.179395 42.926231 0.647610 1.209362 -0.016423 0.004868 379125.000000 0 0 1
-31.321897 -23.561477 16.260595 42.433612 0.644931 1.177537 -0.026617 0.010462 57841.100000 0 0 1
-30.813527 -22.366077 15.905495 41.263781 0.627867 1.175091 -0.021274 0.007815 -86409.700000 0 0 1
-31.812277 -21.158177 16.080495 41.452042 0.586914 1.172412 -0.012433 0.003604 365201.000000 0 0 1
-32.202457 -20.997177 17.446695 42.216903 0.577806 1.144762 -0.010221 0.006060 170023.000000 0 0 1
-32.875307 -19.782177 17.669895 42.241515 0.541693 1.139216 -0.005164 0.003679 -100782.000000 0 0 1
-33.316877 -19.522877 19.155795 43.105702 0.530044 1.110302 0.003914 0.004751 -96468.300000 0 0 1
-34.447292 -20.256177 19.598295 44.508671 0.531574 1.114835 0.013713 0.007768 130464.000000 0 0 1
-34.796289 -19.680077 20.811395 45.068851 0.514726 1.090808 0.018978 0.017331 472300.000000 0 0 1
34.257996 -20.091077 21.303995 45.067970 -0.530407 1.078435 0.010130 0.025119 452793.000000 0 0 1
33.867796 -21.414277 21.675995 45.557081 -0.563825 1.074925 0.006451 0.019804 -221890.000000 0 0 1
34.627329 -22.017777 22.698895 46.894288 -0.566363 1.065526 0.009758 0.028320 -585770.000000 0 0 1
34.147176 -23.300377 23.241695 47.424821 -0.598783 1.058621 0.010652 0.028230 966605.000000 0 0 1
32.918876 -23.125877 24.019295 46.854937 -0.612409 1.032550 0.010022 0.014306 1245530.000000 0 0 1
32.558946 -24.342677 24.619195 47.526368 -0.641995 1.026272 0.021392 0.005005 -483424.000000 0 0 1
31.927056 -24.220177 25.977295 47.757447 -0.648989 0.995668 0.024754 -0.000636 -1241520.000000 0 0 1
30.572956 -24.030377 25.832395 46.684872 -0.666147 0.984433 0.010637 0.003507 -1226710.000000 0 0 1
29.886746 -24.117377 27.082395 46.992782 -0.678970 0.956591 0.006866 0.009938 -91456.500000 0 0 1
28.475106 -24.716777 27.030495 46.393948 -0.714859 0.948836 0.009380 0.007439 -312788.000000 0 0 1
27.613596 -23.872277 26.322595 45.003059 -0.712859 0.946031 0.003791 0.009926 -780060.000000 0 0 1
26.417206 -24.494377 25.947395 44.397191 -0.747648 0.946609 0.002400 0.016610 -244390.000000 0 0 1
25.439756 -23.451077 25.363195 42.900185 -0.744745 0.938233 -0.005873 0.013793 -364587.000000 0 0 1
25.558026 -23.076577 23.991895 41.968466 -0.734420 0.962263 0.002245 0.004379 -305510.000000 0 0 1
26.622816 -22.236877 23.640495 41.977685 -0.695872 0.972582 0.010277 0.007431 -365943.000000 0 0 1
26.504026 -21.690377 22.222795 40.826321 -0.685848 0.995212 0.005532 0.006135 -342948.000000 0 0 1
25.686656 -20.568077 22.076295 39.625912 -0.675186 0.979885 0.007244 0.005367 -249011.000000 0 0 1
25.788206 -20.035577 20.743295 38.687727 -0.660513 1.004900 0.007914 0.001280 -271975.000000 0 0 1
24.737936 -18.933977 20.509595 37.297513 -0.653273 0.988562 0.016673 0.003042 -300731.000000 0 0 1
24.893936 -17.698577 21.248395 37.208090 -0.618043 0.962989 0.009247 -0.004817 -28221.900000 0 0 1
24.685136 -17.793377 22.647395 37.932370 -0.624559 0.930982 0.009980 -0.001387 -100016.000000 0 0 1
25.018336 -16.493777 23.315395 37.968006 -0.582863 0.909576 0.008406 0.004085 84546.500000 0 0 1
23.880736 -15.691377 23.126295 36.760501 -0.581331 0.890392 0.011937 0.001123 -225825.000000 0 0 1
24.064236 -14.425977 23.716295 36.737705 -0.540035 0.869043 0.014742 0.009594 254646.000000 0 0 1
22.875336 -13.406177 23.673595 35.544981 -0.530102 0.841939 0.026014 0.007140 4552.650000 0 0 1
21.798836 -13.973577 24.370795 35.558203 -0.570039 0.815674 0.032427 0.005516 -870879.000000 0 0 1
20.690136 -13.131277 24.151795 34.406705 -0.565518 0.792664 0.027469 0.008155 -26150.200000 0 0 1
19.392336 -13.664477 24.822495 34.335651 -0.613828 0.762753 0.028274 0.007376 155261.000000 0 0 1
18.888136 -14.750777 24.043395 33.947488 -0.663020 0.783776 0.033270 -0.000120 -675045.000000 0 0 1
17.605336 -15.127377 24.405395 33.680984 -0.709839 0.760336 0.022403 -0.000219 -785354.000000 0 0 1
17.140436 -16.277477 23.530795 33.353398 -0.759581 0.787669 0.021971 0.000918 867.689000 0 0 1
17.776336 -17.523877 23.819495 34.502938 -0.778247 0.808808 0.016053 -0.001746 276970.000000 0 0 1
17.150636 -18.494977 23.031895 34.156649 -0.823094 0.830777 0.021747 0.002213 -53531.700000 0 0 1
17.732036 -19.885677 23.238295 35.353693 -0.842586 0.853554 0.015571 0.003590 -46204.800000 0 0 1
17.179836 -20.605977 24.374895 36.247601 -0.875824 0.833275 0.015848 0.004960 251935.000000 0 0 1
17.573036 -21.932577 24.566295 37.327636 -0.895306 0.852469 0.020957 0.003204 -412265.000000 0 0 1
17.062636 -22.964877 23.504795 37.026943 -0.931798 0.883043 0.019616 0.003275 64663.200000 0 0 1
17.851036 -23.192577 22.325795 36.810274 -0.914814 0.919133 0.027698 -0.002572 -236186.000000 0 0 1
18.849536 -24.139377 22.620795 38.075122 -0.907834 0.934638 0.031980 -0.000143 -406850.000000 0 0 1
19.829436 -24.256177 21.449095 37.968834 -0.885475 0.970468 0.033296 0.005537 -369267.000000 0 0 1
19.280536 -24.995977 20.371795 37.570573 -0.913773 0.997711 0.039757 -0.000403 105971.000000 0 0 1
20.256336 -25.435677 19.457895 37.893304 -0.898270 1.031547 0.039629 -0.001267 152361.000000 0 0 1
19.567236 -26.069977 18.224895 37.345244 -0.926933 1.060987 0.040850 -0.009144 236759.000000 0 0 1
19.015236 -27.318377 18.559095 38.109224 -0.962719 1.062148 0.043555 -0.015117 90019.600000 0 0 1
18.214536 -27.853777 17.501895 37.602108 -0.991660 1.086654 0.038878 -0.018152 147942.000000 0 0 1
17.341936 -29.025577 17.986495 38.298053 -1.032239 1.081908 0.046705 -0.017351 595728.000000 0 0 1
16.310536 -28.757177 18.965095 38.114087 -1.054858 1.049981 0.048855 -0.016698 388810.000000 0 0 1
15.761136 -30.001277 19.370195 39.034530 -1.087076 1.051543 0.053761 -0.011985 -147914.000000 0 0 1
14.413436 -29.719277 20.068395 38.648714 -1.119232 1.024822 0.046144 -0.001927 360550.000000 0 0 1
13.445536 -29.049777 19.252795 37.354278 -1.137312 1.029309 0.046891 -0.009585 -234725.000000 0 0 1
12.190236 -28.903077 19.850695 37.121959 -1.171671 1.006593 0.018345 -0.004328 -121854.000000 0 0 1
11.172236 -28.373477 18.813695 35.830548 -1.195684 1.017994 0.011676 -0.008566 -285358.000000 0 0 1
10.870736 -29.305177 17.811595 35.975259 -1.215582 1.052839 0.001296 -0.008611 -20065.000000 0 0 1
10.276836 -28.764877 16.660895 34.793921 -1.227659 1.071458 0.018838 -0.008392 -64203.300000 0 0 1
10.060936 -29.747377 15.498095 35.018850 -1.244661 1.112340 0.016560 -0.013273 -491431.000000 0 0 1
9.132936 -30.755977 15.712595 35.724310 -1.282142 1.115388 0.012609 -0.010175 -303252.000000 0 0 1
9.140936 -31.658977 14.590395 36.037858 -1.289710 1.153967 0.017016 -0.008800 -142424.000000 0 0 1
7.901436 -32.588677 14.559095 36.557104 -1.332927 1.161181 0.008461 -0.008645 -210548.000000 0 0 1
7.792036 -33.571577 15.580495 37.822195 -1.342732 1.146214 0.004601 -0.006581 -98216.200000 0 0 1
6.926736 34.494487 15.135495 38.300555 1.372625 1.164536 0.006483 -0.001203 89112.400000 0 0 1
6.941336 33.288487 16.116595 37.630442 1.365221 1.128201 0.009931 0.002561 -756135.000000 0 0 1
8.204236 32.736687 16.150795 37.414547 1.325241 1.124451 -0.004363 -0.001460 -845277.000000 0 0 1
8.141836 31.828187 17.136895 37.053963 1.320361 1.090001 0.004790 -0.002308 388130.000000 0 0 1
9.441436 30.972287 17.118095 36.625844 1.274910 1.084474 -0.006580 -0.003885 -2700.600000 0 0 1
9.721236 30.309987 15.929795 35.594327 1.260434 1.106787 0.016308 -0.007259 -33741.500000 0 0 1
10.851936 29.486387 16.123995 35.315645 1.218148 1.096662 0.002370 -0.002530 -122704.000000 0 0 1
11.580736 28.887587 14.908495 34.508975 1.189523 1.124067 0.007157 0.001668 468163.000000 0 0 1
10.834936 27.901787 14.161095 33.112568 1.200396 1.128888 0.005486 0.000643 553286.000000 0 0 1
11.693636 27.561987 13.084295 32.674195 1.169547 1.158791 0.011778 0.001821 274416.000000 0 0 1
-8.949907 -9.302613 19.393358 23.296819 0.804719 0.587288 -0.008008 0.008913 15668.500000 0 1 0
-9.416407 -9.434613 18.036958 22.427940 0.786364 0.636437 0.004787 0.001369 247169.000000 0 1 0
-8.939707 -10.624413 17.409258 22.268336 0.871298 0.673258 -0.003982 -0.008734 -190419.000000 0 1 0
-9.232807 -10.623013 15.883858 21.222396 0.855299 0.725078 -0.002988 -0.017184 -517052.000000 0 1 0
-10.613807 -10.478413 15.713458 21.664783 0.778979 0.759327 0.003953 -0.016184 -272721.000000 0 1 0
-11.162707 -10.999013 14.500158 21.350384 0.778012 0.824190 0.005890 -0.020202 233841.000000 0 1 0
-11.322507 -12.520213 14.357758 22.160779 0.835590 0.865985 -0.000555 -0.019930 -603691.000000 0 1 0
-10.196407 -13.104513 13.755758 21.561908 0.909563 0.878943 0.009159 -0.017946 -121933.000000 0 1 0
-10.189507 -14.527513 13.782558 22.468502 0.959136 0.910417 0.017570 -0.012740 -33063.500000 0 1 0
-9.576707 -15.121213 15.121058 23.430979 1.006230 0.869322 0.004120 -0.010775 323056.000000 0 1 0
-10.470107 -15.150813 16.239658 24.553956 0.966096 0.848130 0.010259 0.003871 137808.000000 0 1 0
-9.749307 -15.340413 17.455358 25.200531 1.004660 0.805628 0.001500 0.006833 146697.000000 0 0 1
-10.713807 -15.327413 18.704458 26.449423 0.960744 0.785297 0.012519 0.013358 307005.000000 0 0 1
-11.274007 -14.097913 19.093958 26.276104 0.896242 0.757340 0.011066 0.009475 -127267.000000 0 0 1
-12.343307 -13.691113 18.275458 25.957584 0.837122 0.789711 0.007284 0.001101 -240420.000000 0 0 1
-13.718207 -13.888313 18.983958 27.229857 0.791560 0.799348 0.006241 0.005332 5809.000000 0 0 1
-14.083507 -15.227813 19.284658 28.321891 0.824418 0.821792 0.015729 0.007841 212768.000000 0 0 1
-15.231907 -15.202213 20.129758 29.467362 0.784422 0.818769 0.024476 0.009791 222680.000000 0 0 1
-15.756407 -16.644613 20.378258 30.668891 0.812804 0.844025 0.036112 -0.000849 186224.000000 0 0 1
-16.675507 -17.115213 19.386458 30.770730 0.798410 0.889206 0.037940 0.002287 160033.000000 0 0 1
-17.116907 -18.424713 19.711658 31.953216 0.822178 0.906010 0.037660 -0.004268 807660.000000 0 0 1
-18.432507 -18.925713 18.969858 32.523767 0.798599 0.948058 0.048243 -0.002056 786566.000000 0 0 1
-18.314107 -18.956813 17.517458 31.648517 0.802641 0.984235 0.042295 0.000905 -23157.500000 0 0 1
-18.548907 -17.697313 16.889558 30.700391 0.761908 0.988263 0.040864 0.000323 -334865.000000 0 0 1
-18.448207 -17.647013 15.320158 29.773489 0.763205 1.030305 0.029392 -0.001591 -584071.000000 0 0 1
-19.324607 -18.472513 14.691658 30.504409 0.762858 1.068289 0.029272 -0.005311 -636375.000000 0 0 1
-18.893507 -18.547913 13.356158 29.654285 0.776168 1.103588 0.021427 -0.007204 147784.000000 0 0 1
-19.280307 -19.913913 12.775858 30.520759 0.801563 1.138898 0.018521 -0.002610 137122.000000 0 0 1
-18.388007 -20.915913 13.231258 30.832781 0.849627 1.127267 0.015848 0.005500 180646.000000 0 0 1
-18.169207 -21.977213 12.367158 31.081579 0.879968 1.161577 0.015810 0.001060 47130.100000 0 0 1
-17.235907 -23.134413 12.899158 31.601675 0.930482 1.150337 0.018960 0.000674 302404.000000 0 0 1
-17.334607 -24.363213 12.216258 32.300027 0.952389 1.182932 0.016532 0.002195 43299.400000 0 0 1
-16.401307 -24.492313 11.159558 31.518439 0.980730 1.208883 0.010228 0.002777 -87466.300000 0 0 1
-16.634707 -25.725263 10.260658 32.307642 0.996794 1.247607 0.015568 0.002462 521332.000000 0 0 1
-17.828607 -25.500433 9.503458 32.533783 0.960642 1.274364 0.028619 0.003251 227522.000000 0 0 1
-17.921407 -26.513153 8.487758 33.108400 0.976398 1.311539 0.022305 0.002303 871233.000000 0 0 1
-19.199907 -26.408013 7.564358 33.514759 0.942147 1.343132 0.029437 -0.003321 755753.000000 0 0 1
-19.122607 -25.250953 6.766658 32.389387 0.922638 1.360330 0.028573 -0.002736 -211395.000000 0 0 1
-19.999507 -25.244833 5.667758 32.701764 0.900816 1.396600 0.033281 -0.001330 -120840.000000 0 0 1
-20.213307 -23.904413 4.954558 31.694580 0.868869 1.413831 0.035378 -0.001120 -163227.000000 0 0 1
-20.985807 -24.022613 3.795658 32.123155 0.852768 1.452360 0.029039 -0.002391 -127212.000000 0 0 1
-21.161607 -22.776913 3.174358 31.251847 0.822144 1.469047 0.039230 -0.004173 90165.400000 0 0 1
-21.799007 -22.877213 1.781258 31.650221 0.809527 1.514487 0.012995 -0.003111 118796.000000 0 0 1
-21.041507 -23.676013 0.899858 31.687669 0.844245 1.542395 0.022719 -0.010129 93031.300000 0 0 1
-21.483307 -23.353413 -0.390042 31.734311 0.827083 1.583088 0.011769 -0.001839 -316980.000000 0 0 1
-20.796207 -24.109813 -1.515742 31.875740 0.859054 1.618366 0.021163 -0.001633 -837176.000000 0 0 1
-19.512207 -23.581713 -1.745742 30.657316 0.879552 1.627771 0.024820 0.003277 84487.000000 0 0 1
-18.709507 -24.251213 -2.723842 30.750387 0.913684 1.659492 0.014718 0.004775 298558.000000 0 0 1
-18.447707 -25.793263 -2.711942 31.827110 0.949932 1.656108 0.020923 0.000467 -190385.000000 0 0 1
-19.574407 -26.611193 -3.009042 33.171785 0.936594 1.661632 0.026237 -0.003447 -9580.170000 0 0 1
-19.121907 -27.845213 -3.521742 33.961830 0.969038 1.674680 0.029166 -0.002034 -313871.000000 0 0 1
-20.194207 -28.747043 -4.100642 35.369673 0.958408 1.686994 0.030276 0.001614 -262786.000000 0 0 1
-20.894007 -28.174893 -5.197242 35.459772 0.932704 1.717893 0.022200 0.000523 72912.000000 0 0 1
-21.463207 -29.196873 -6.002242 36.730826 0.936887 1.734944 0.019124 0.000070 8641.230000 0 0 1
-22.021707 -28.761613 -7.405642 36.973362 0.917346 1.772457 0.007653 0.021226 72177.200000 0 0 1
-20.999907 -28.401053 -8.312542 36.286558 0.934110 1.801929 0.030182 0.019525 93897.300000 0 0 1
-21.423307 -28.496953 -9.700542 36.947733 0.926160 1.836458 0.024912 0.022230 -108967.000000 0 0 1
-22.331407 -27.395483 -10.256642 36.802214 0.886886 1.853233 0.012952 0.027292 -370595.000000 0 0 1
-21.783907 -26.113243 -10.476242 35.583588 0.875541 1.869637 0.010410 0.022672 -51549.000000 0 0 1
-21.498507 -25.351073 -9.313542 34.519629 0.867446 1.843986 0.001275 0.020979 -79212.500000 0 0 1
-21.124807 -23.875813 -9.656842 33.310157 0.846455 1.864926 -0.001523 0.020949 264069.000000 0 0 1
-22.208907 -23.133613 -10.206042 33.653572 0.805789 1.878916 -0.015637 0.027886 399177.000000 0 0 1
-21.814707 -21.793113 -10.464742 32.562740 0.784903 1.897974 -0.015327 0.024194 176008.000000 0 0 1
-23.032707 -20.925013 -10.844342 32.953930 0.737487 1.906121 -0.021653 0.022256 116360.000000 0 0 1
-23.651807 -21.187613 -12.165042 34.004576 0.730497 1.936651 -0.036164 0.027181 1816270.000000 0 0 1
-24.981907 -20.607413 -12.304242 34.643261 0.689737 1.933892 -0.031334 0.015675 1142360.000000 0 0 1
-25.059107 -19.089613 -12.277242 33.809804 0.651000 1.942418 -0.024098 0.002375 -1049070.000000 0 0 1
-24.591207 -18.432713 -13.453842 33.548446 0.643223 1.983434 -0.024920 0.009166 326462.000000 0 0 1
-24.398507 -17.016313 -13.411442 32.629877 0.609001 1.994366 -0.013814 0.003454 204838.000000 0 0 1
-23.280707 -16.392213 -12.497642 31.094807 0.613480 1.984410 -0.032975 0.010569 58383.100000 0 0 1
-23.715607 -16.116913 -11.188642 30.779386 0.596897 1.942830 -0.016801 0.003298 318409.000000 0 0 1
-22.638507 -16.172913 -10.275442 29.658891 0.620324 1.924585 -0.028147 0.015336 62916.800000 0 0 1
-23.017307 -16.681813 -8.808142 29.760085 0.627145 1.871269 -0.035855 0.004606 22360.700000 0 0 1
-23.403707 -18.072513 -8.829742 30.859579 0.657563 1.860978 -0.033274 0.015405 113339.000000 0 0 1
-23.725607 -18.583213 -7.551242 31.068658 0.664447 1.816305 -0.011166 0.010067 -165103.000000 0 0 1
-24.253107 -20.018413 -7.488842 32.326968 0.690036 1.804579 -0.003678 0.005042 170500.000000 0 0 1
-25.443127 -20.368613 -8.189642 33.605109 0.675079 1.816978 -0.011938 0.002490 510542.000000 0 0 1
-25.916617 -21.719613 -7.911142 34.727494 0.697520 1.800620 -0.006032 0.010692 -160449.000000 0 0 1
-25.037607 -22.908513 -8.352242 34.949130 0.741021 1.812115 -0.022008 0.024078 -365274.000000 0 0 1
-25.550867 -24.180013 -8.063542 36.090727 0.757840 1.796122 -0.007626 0.019348 -503921.000000 0 0 1
-25.288337 -25.171243 -9.023642 36.803771 0.783078 1.818504 -0.016722 0.023197 86688.900000 0 0 1
-25.863607 -26.604733 -8.667842 38.103405 0.799522 1.800288 -0.004485 0.012052 351130.000000 0 0 1
-25.359817 -27.111793 -7.389342 37.851975 0.818775 1.767275 0.006461 -0.004290 -32229.100000 0 0 1
-26.032297 -28.262553 -7.107142 39.076385 0.826452 1.753692 0.013770 -0.009915 -441217.000000 0 0 1
-25.678057 -28.883643 -5.745642 39.072239 0.844082 1.718383 0.018558 -0.016117 238533.000000 0 0 1
-26.306897 -28.331733 -4.552442 38.928970 0.822440 1.688007 0.002011 -0.013268 86798.800000 0 0 1
-25.418797 -28.487523 -3.486142 38.338067 0.842264 1.661854 0.000999 -0.012943 -152767.000000 0 0 1
-25.521017 -29.772653 -2.625942 39.301765 0.862139 1.637661 0.009670 -0.008408 -576469.000000 0 0 1
-25.111047 -30.982503 -3.260942 40.013922 0.889691 1.652382 0.024150 -0.014276 -34260.500000 0 0 1
-25.292667 -32.095803 -2.384042 40.933400 0.903393 1.629071 0.018129 -0.017555 -76924.100000 0 0 1
-24.340707 -32.216573 -1.151342 40.394346 0.923763 1.599303 0.021302 -0.014503 447205.000000 0 0 1
-22.989807 -32.378823 -1.603842 39.742820 0.953373 1.611163 0.017955 -0.022005 603402.000000 0 0 1
-22.057007 -32.399693 -0.506142 39.198314 0.973088 1.583709 0.007086 -0.016227 67266.700000 0 0 1
-21.089507 -31.246763 -0.309242 37.699113 0.977092 1.578999 0.016197 -0.013493 -741986.000000 0 0 1
-21.620207 -30.034953 0.051158 37.007221 0.946882 1.569414 0.012403 -0.012425 -465074.000000 0 0 1
-22.084407 -29.257373 -1.054942 36.671894 0.924210 1.599567 0.026294 -0.018535 53932.500000 0 0 1
-22.787207 -27.912063 -0.588342 36.037289 0.886139 1.587123 -0.002247 -0.011982 567298.000000 0 0 1
-24.157007 -28.055473 -0.207142 37.023148 0.859925 1.576391 0.006193 -0.011466 480356.000000 0 0 1
-24.832507 -26.802193 -0.012542 36.537804 0.823526 1.571140 -0.003659 -0.005499 246164.000000 0 0 1
-24.377607 -26.011663 1.258658 35.671537 0.817815 1.535504 -0.007370 0.000918 -441704.000000 0 0 1
-24.578807 -26.613453 2.520058 36.314520 0.825122 1.501345 -0.016243 -0.000651 -178244.000000 0 0 1
-23.961707 -26.014593 3.652658 35.556496 0.826452 1.467886 -0.000146 -0.002993 34147.500000 0 0 1
-24.745607 -24.827913 4.243258 35.309709 0.787058 1.450333 -0.002741 0.004171 -132848.000000 0 0 1
-24.889307 -23.745413 3.335858 34.560819 0.761882 1.474124 -0.004138 0.007457 138166.000000 0 0 1
-25.697867 -22.761713 3.971958 34.557957 0.724882 1.455606 -0.023349 0.010032 -465872.000000 0 0 1
-25.883267 -21.564013 3.044358 33.826296 0.694616 1.480675 -0.024788 0.007570 -838315.000000 0 0 1
-24.768107 -20.745713 2.937858 32.441867 0.697250 1.480114 -0.009706 0.009101 -564363.000000 0 0 1
-24.825707 -19.864213 1.841358 31.847972 0.674831 1.512947 -0.017332 0.007138 -81235.400000 0 0 1
-23.691907 -18.824613 1.817258 30.314600 0.671414 1.510814 -0.010272 0.006549 -234173.000000 0 0 1
-22.448807 -19.429613 1.609758 29.732981 0.713428 1.516629 -0.001703 0.002900 -173403.000000 0 0 1
-21.331607 -18.583213 1.661558 28.339620 0.716650 1.512132 0.005350 0.005002 -234333.000000 0 0 1
-19.918107 -19.142913 1.648758 27.674908 0.765555 1.511185 0.013824 -0.001006 -376885.000000 0 0 1
-19.559907 -19.551113 0.334758 27.657694 0.785173 1.558692 -0.005402 0.002225 294772.000000 0 0 1
-18.214007 -19.998113 0.249758 27.050637 0.832054 1.561563 0.000503 -0.000113 445288.000000 0 0 1
-17.789507 -20.736413 -1.078742 27.342807 0.861741 1.610259 -0.004288 0.002244 87793.200000 0 0 1
-17.701207 -19.907113 -2.195042 26.729087 0.843986 1.653011 0.000088 -0.000924 -71380.400000 0 0 1
-17.186407 -20.643013 -3.268442 27.058997 0.876519 1.691881 -0.007807 0.002567 35737.400000 0 0 1
-16.729807 -19.695313 -4.429342 26.218522 0.866633 1.740550 0.002661 0.006064 789731.000000 0 0 1
-15.402707 -19.181113 -4.251742 24.964691 0.894220 1.741941 0.025792 -0.005220 552509.000000 0 1 0
-14.923407 -18.627713 -5.447242 24.482080 0.895361 1.795173 0.031264 -0.000525 -452876.000000 0 1 0
-13.438407 -18.248113 -5.493142 23.318641 0.936039 1.808600 0.049117 -0.015067 -398171.000000 0 1 0
-12.604407 -19.396913 -5.483042 23.773411 0.994551 1.803529 0.040188 -0.020887 -447581.000000 0 1 0
-11.359407 -18.972413 -6.000142 22.912667 1.031309 1.835756 0.039150 -0.027102 -659339.000000 0 1 0
-10.383007 -20.114513 -5.946242 23.404236 1.094277 1.827679 0.032410 -0.028618 -663429.000000 0 1 0
-10.789707 -21.231613 -6.723242 24.746740 1.100618 1.845937 0.029396 -0.019185 -117466.000000 0 1 0
-9.739907 -22.127713 -7.043542 25.181600 1.156149 1.854288 0.034978 -0.010272 67099.000000 0 0 1
-10.225407 -23.260913 -7.928442 26.617461 1.156628 1.873253 0.023760 0.007615 -148260.000000 0 0 1
-10.611607 -22.905013 -9.234642 26.879815 1.136948 1.921494 0.028923 0.006229 -145503.000000 0 0 1
-10.393307 -23.919713 -10.166542 27.991643 1.160900 1.942496 0.040205 0.010305 140498.000000 0 0 1
-11.126407 -23.756513 -11.543942 28.660625 1.132786 1.985349 0.059303 -0.003563 -20390.500000 0 0 1
-10.593107 -22.650713 -12.273342 27.855047 1.133344 2.027080 0.034359 -0.001042 -186688.000000 0 0 1
-11.413807 -22.262913 -13.328742 28.347269 1.097054 2.060308 0.038853 -0.008585 -838143.000000 0 0 1
-10.868507 -21.155113 -14.191442 27.695853 1.096207 2.108777 0.033353 -0.005288 -340081.000000 0 0 1
-10.674607 -19.972913 -13.519942 26.375241 1.079967 2.109006 0.045371 -0.006814 -232257.000000 0 0 1
-10.659507 -18.800513 -14.352942 25.944004 1.055010 2.157030 0.038493 0.001092 -153259.000000 0 0 1
-10.354307 -17.477513 -13.619142 24.457232 1.035957 2.161391 0.053534 -0.006695 -173504.000000 0 1 0
-11.352007 -17.070113 -12.683642 24.106671 0.983933 2.124859 0.051655 -0.011391 94552.700000 0 1 0
-10.856707 -16.215313 -11.640042 22.722127 0.980811 2.108631 0.041853 -0.017362 70633.500000 0 1 0
-10.640707 -14.742113 -12.066042 21.820722 0.945596 2.156712 0.047559 -0.009444 1091770.000000 0 1 0
-11.804007 -14.091613 -12.671342 22.326465 0.873509 2.174321 0.041493 0.000530 849300.000000 0 1 0
-11.600407 -13.893513 -14.072942 22.926990 0.875104 2.231681 0.038920 -0.009153 386003.000000 0 1 0
-12.827907 -13.248813 -14.821642 23.659403 0.801538 2.247798 0.030831 -0.005984 410360.000000 0 1 0
-12.928007 -11.899313 -14.526642 22.798034 0.743988 2.261641 0.025110 0.006221 -1153520.000000 0 1 0
-14.093907 -11.326613 -14.947942 23.459995 0.676965 2.261614 0.005740 0.000242 -1492470.000000 0 1 0
-14.327907 -9.922013 -14.279042 22.530564 0.605672 2.257205 0.009174 -0.006134 168689.000000 0 1 0
-13.327907 -8.901713 -14.467642 21.591347 0.588856 2.305095 0.020489 -0.003870 604180.000000 0 1 0
-13.273707 -8.302313 -15.741442 22.201638 0.558938 2.358906 0.017165 -0.004205 -262302.000000 0 1 0
-12.108907 -7.344613 -16.005542 21.371625 0.545219 2.417220 0.010200 0.007232 762748.000000 0 1 0
-10.790507 -7.900313 -16.095942 20.926762 0.631981 2.448316 0.010039 0.010196 553966.000000 0 1 0
-9.766607 -7.070113 -15.636842 19.745479 0.626591 2.484743 0.005953 0.011234 23170.400000 0 1 0
11.279993 22.374987 16.070458 29.768068 1.103847 1.000531 0.030460 0.003910 -324564.000000 0 0 1
12.062793 22.261387 17.248358 30.636354 1.074216 0.972781 0.040377 -0.002196 -42937.100000 0 0 1
12.515393 20.925187 17.404558 29.956921 1.031774 0.950856 0.037190 0.001309 236174.000000 0 0 1
13.839393 20.834887 18.203458 30.935209 0.984475 0.941671 0.047480 -0.011734 114722.000000 0 0 1
15.015993 21.347087 17.614858 31.487480 0.957778 0.977105 0.034479 -0.001129 -268695.000000 0 0 1
16.066993 21.015287 18.496058 32.278394 0.918055 0.960614 0.033466 -0.000946 953339.000000 0 0 1
17.511093 21.526087 18.103658 33.132359 0.887888 0.992732 0.025250 -0.000158 -22764.000000 0 0 1
17.679093 22.863987 18.430258 34.278078 0.912594 1.003126 0.028885 -0.008328 800462.000000 0 0 1
18.924493 23.448387 17.984658 35.091469 0.891759 1.032693 0.021822 -0.007198 1125140.000000 0 0 1
20.236393 23.003587 18.680758 35.883803 0.849307 1.023254 0.027787 -0.011269 -447349.000000 0 0 1
20.507193 21.659487 18.352058 35.021084 0.812718 1.019222 0.028777 -0.011432 327986.000000 0 0 1
21.453293 21.103787 19.307058 35.754385 0.777186 1.000370 0.034116 -0.018309 133218.000000 0 0 1
21.474693 19.601687 19.047058 34.758869 0.739832 0.990853 0.024225 -0.019211 -632798.000000 0 0 1
22.092893 19.220687 17.868558 34.304753 0.715988 1.022918 0.012054 -0.015390 -157177.000000 0 0 1
21.831493 17.868387 17.434658 33.164147 0.685901 1.017249 0.004467 -0.012353 -494220.000000 0 0 1
22.797393 16.807987 17.924158 33.518726 0.635308 1.006584 -0.013311 -0.001025 -1028590.000000 0 0 1
24.015093 16.859587 17.256058 34.040298 0.612095 1.039176 0.000377 -0.011716 -392339.000000 0 0 1
24.820193 15.785387 17.789658 34.375752 0.566463 1.026863 0.001772 -0.007452 -280075.000000 0 0 1
26.192693 15.654487 17.131358 34.994336 0.538702 1.059227 0.023370 -0.016978 -718956.000000 0 0 1
27.075893 16.785287 17.423058 36.309954 0.554949 1.070321 0.015926 -0.018410 2331210.000000 0 0 1
28.522093 16.616887 17.415758 37.322102 0.527525 1.085315 0.030324 -0.022405 1900770.000000 0 0 1
29.139593 15.682287 16.324358 36.898979 0.493722 1.112516 0.022305 -0.021047 -1162840.000000 0 0 1
28.857593 16.045587 14.987158 36.260673 0.507458 1.144702 0.028618 -0.013878 -60223.200000 0 0 1
28.914493 14.914487 14.190858 35.494651 0.476218 1.159495 0.061587 -0.013841 269089.000000 0 0 1
28.188293 15.223187 12.838758 34.513171 0.495175 1.189638 0.044235 0.006007 46676.300000 0 0 1
28.954093 16.146487 12.046658 35.272801 0.508704 1.222254 0.031686 0.010680 174077.000000 0 0 1
28.291193 16.767387 11.002958 34.678551 0.535014 1.247932 0.013071 0.020206 -144828.000000 0 0 1
27.067193 17.682087 11.295058 34.247152 0.578668 1.234694 0.009194 0.015913 34169.800000 0 0 1
27.331593 18.940187 11.862158 35.305204 0.605998 1.228141 -0.005819 0.013984 169573.000000 0 0 1
27.875493 19.066887 13.206858 36.263072 0.599908 1.198027 0.002703 0.015531 402371.000000 0 0 1
26.903293 18.675087 14.435958 35.790263 0.606793 1.155623 -0.003760 0.008337 923661.000000 0 0 1
25.738193 19.509187 14.445558 35.379897 0.648593 1.150207 -0.008394 0.007499 445185.000000 0 0 1
25.029293 19.435887 15.685358 35.358869 0.660263 1.111180 -0.005352 -0.001175 92406.200000 0 0 1
25.729893 20.164587 16.875258 36.788752 0.664724 1.094257 -0.004048 -0.016362 -132964.000000 0 0 1
25.699993 21.540087 16.652358 37.440166 0.697566 1.109876 -0.009220 -0.010636 575188.000000 0 0 1
24.498993 22.111187 17.196158 37.213077 0.734214 1.090435 0.001176 -0.012442 483521.000000 0 0 1
24.343293 23.603887 16.759258 37.823433 0.769978 1.111752 0.010735 0.001346 -11702.200000 0 0 1
24.100293 23.749787 15.361758 37.159926 0.778073 1.144616 0.022118 -0.005918 263272.000000 0 0 1
24.276493 25.140887 15.145558 38.089371 0.802888 1.161862 0.034744 -0.004388 -440331.000000 0 0 1
24.087993 25.607387 13.651658 37.713889 0.815963 1.200406 0.023089 -0.002927 -1195340.000000 0 0 1
22.746593 25.772287 13.382158 36.887673 0.847679 1.199546 0.027531 -0.004870 -1013330.000000 0 0 1
22.528393 25.928187 12.007858 36.386646 0.855445 1.234485 0.016960 -0.014568 -199752.000000 0 0 1
22.027793 24.651287 11.281658 34.931152 0.841542 1.241932 0.027720 -0.009546 -311289.000000 0 0 1
20.646593 24.384687 11.451558 33.941611 0.868219 1.226653 0.027027 -0.007058 254380.000000 0 0 1
20.188793 23.100187 10.943858 32.572596 0.852552 1.228147 0.032006 -0.000172 84533.200000 0 0 1
20.315093 22.759887 9.434358 31.933095 0.842094 1.270879 0.035254 0.006976 -452361.000000 0 0 1
19.194693 23.189587 8.712458 31.338476 0.879375 1.289073 0.040004 -0.003024 7912.410000 0 0 1
19.596893 23.882687 7.529458 31.798014 0.883651 1.331736 0.028951 -0.006985 -210719.000000 0 0 1
18.386393 24.294187 6.687758 31.192837 0.922943 1.354718 0.015831 0.000759 -953683.000000 0 0 1
17.893393 23.102087 6.064958 29.843988 0.911776 1.366149 0.025816 0.003576 -265126.000000 0 0 1
16.996193 23.242087 5.030858 29.229689 0.939392 1.397820 0.045240 -0.014165 -211215.000000 0 0 1
15.653993 24.021487 5.194558 29.138681 0.993251 1.391568 0.039056 -0.014609 -252474.000000 0 0 1
15.793093 25.434187 5.125858 30.374234 1.015122 1.401228 0.040991 -0.020252 354724.000000 0 0 1
14.555693 26.112387 5.299158 30.361259 1.062271 1.395361 0.023639 -0.016963 63512.300000 0 0 1
14.454093 27.493187 4.661158 31.408956 1.086774 1.421844 0.025834 -0.016413 -641991.000000 0 0 1
13.963793 27.408587 3.335258 30.940945 1.099603 1.462792 0.032091 -0.012867 390689.000000 0 0 1
13.583493 28.735487 2.927058 31.918759 1.129220 1.478964 0.031397 -0.005523 -552364.000000 0 0 1
12.962993 28.616987 1.546258 31.454126 1.145465 1.521617 0.047625 -0.008975 -629278.000000 0 0 1
13.774893 28.348687 0.451158 31.521410 1.118485 1.556483 0.073517 -0.012130 -147186.000000 0 0 1
14.296993 26.971387 0.310158 30.527953 1.083375 1.560636 0.054280 -0.007085 -14585.600000 0 0 1
15.158893 26.779587 -0.918242 30.786060 1.055706 1.600627 0.065853 -0.010538 -136434.000000 0 0 1
14.561993 27.048187 -2.172642 30.795721 1.076924 1.641405 0.053910 -0.011507 -1020110.000000 0 0 1
15.543993 27.331487 -3.090642 31.593954 1.053694 1.668777 0.042557 -0.001486 -687557.000000 0 0 1
15.125693 27.847687 -4.484342 32.006087 1.073221 1.711368 0.050901 0.002071 -681103.000000 0 0 1
14.234493 26.980787 -5.164042 30.939473 1.085330 1.738489 0.061130 -0.010560 -228488.000000 0 0 1
14.072693 27.414187 -6.476942 31.488555 1.096537 1.777967 0.048503 -0.009867 -262900.000000 0 0 1
12.908693 26.801287 -7.227342 30.613360 1.121941 1.809131 0.044622 -0.013786 -500168.000000 0 0 1
13.057793 25.502087 -7.657042 29.656242 1.097572 1.831948 0.041055 -0.015774 -509409.000000 0 0 1
11.812993 24.993087 -8.050442 28.792548 1.129267 1.854175 0.029420 -0.002728 -139396.000000 0 0 1
11.948893 23.529487 -8.430042 27.703401 1.100907 1.879996 0.027717 -0.010351 -225991.000000 0 0 1
12.639893 23.296787 -9.596142 28.188528 1.073684 1.918168 0.019825 -0.009390 -283830.000000 0 0 1
12.372393 22.000987 -10.055542 27.170452 1.058516 1.949903 0.019523 -0.006044 12322.100000 0 0 1
12.340993 21.738587 -11.571642 27.545765 1.054466 2.004338 0.016548 -0.000430 39773.300000 0 0 1
12.180693 20.331687 -11.795542 26.474168 1.031040 2.032584 0.026927 -0.003232 -261354.000000 0 0 1
12.242093 19.996487 -13.200342 26.906827 1.021446 2.083568 0.024850 0.001058 316257.000000 0 0 1
13.648093 19.783787 -13.831542 27.730493 0.966907 2.092992 -0.009606 0.001836 -284076.000000 0 0 1
14.479493 20.860887 -13.733142 28.869214 0.964043 2.066558 -0.004706 0.005722 -1245520.000000 0 0 1
15.792293 20.438987 -13.979042 29.369411 0.912953 2.066866 0.003410 0.016008 -415168.000000 0 0 1
16.781493 21.599287 -13.791142 30.632390 0.910271 2.037802 -0.003623 0.016025 -276734.000000 0 0 1
16.709293 22.656287 -14.709542 31.762847 0.935335 2.052292 0.004394 0.009972 -556032.000000 0 0 1
15.692893 23.567887 -14.417542 31.773852 0.983353 2.041771 0.000184 0.005007 -384505.000000 0 0 1
15.881193 25.037187 -14.904242 33.184476 1.005534 2.036591 0.017696 0.008055 7560.940000 0 0 1
16.124993 25.235987 -16.288442 34.090817 1.002215 2.068940 0.013616 0.003591 -228159.000000 0 0 1
14.998293 24.976687 -17.094942 33.778998 1.030015 2.101432 -0.005903 0.006939 -540085.000000 0 0 1
15.214693 24.961887 -18.623742 34.661599 1.023408 2.138031 0.001046 0.010863 -111390.000000 0 0 1
15.837693 23.817987 -19.151042 34.422252 0.983985 2.160791 -0.004187 0.013527 -158419.000000 0 0 1
15.694793 23.819787 -20.564642 35.165513 0.988192 2.195425 -0.003484 0.020178 -24674.300000 0 0 1
16.155193 22.456987 -21.199442 34.852875 0.947179 2.224657 -0.000476 0.019790 -181634.000000 0 0 1
15.145593 21.479987 -21.202642 33.768785 0.956654 2.249619 0.013498 0.015540 66804.600000 0 0 1
15.577493 20.392887 -21.972642 33.783504 0.918478 2.278901 0.000877 0.013394 4091.850000 0 0 1
14.468993 19.327687 -22.101042 32.731748 0.928182 2.312056 0.003688 0.008806 -475187.000000 0 0 1
14.231593 18.536587 -20.942142 31.380194 0.916027 2.301466 0.000027 0.009984 -60030.100000 0 0 1
13.366693 17.454187 -21.115742 30.482646 0.917250 2.336041 0.008826 0.004608 709040.000000 0 0 1
11.844793 17.736787 -21.336142 30.168256 0.982003 2.356380 0.021907 0.006785 455508.000000 0 0 1
10.948093 17.850487 -20.220942 29.109914 1.020639 2.338717 0.021992 0.003258 125489.000000 0 0 1
9.636393 17.995487 -20.716542 29.083891 1.079162 2.363570 0.021090 0.006538 -207354.000000 0 0 1
8.605193 17.431487 -19.723842 27.693610 1.112235 2.363447 0.018204 0.003125 -608453.000000 0 0 1
8.494593 15.996687 -19.608142 26.693283 1.082640 2.395832 0.016489 0.005869 -75022.100000 0 0 1
7.354893 15.483387 -18.956342 25.557242 1.127333 2.406429 0.021909 -0.000131 92104.700000 0 0 1
7.314993 15.676787 -17.394642 24.532516 1.134213 2.358938 0.021697 -0.005929 -10509.400000 0 1 0
7.367793 17.049587 -16.933342 25.133859 1.162894 2.310036 0.026988 -0.004671 -164020.000000 0 0 1
6.694893 17.208487 -15.712842 24.245557 1.199769 2.275845 0.026498 -0.011020 -211843.000000 0 1 0
6.453893 18.688187 -15.355842 25.034036 1.238274 2.231153 0.022554 -0.006240 -634117.000000 0 0 1
7.573893 19.498487 -15.146142 25.825578 1.200299 2.197500 0.022178 -0.003514 -603541.000000 0 0 1
8.012493 20.108087 -16.339642 27.120456 1.191609 2.217406 0.025913 0.001211 51662.200000 0 0 1
9.177793 21.090087 -16.013342 28.025895 1.160342 2.178979 0.016820 0.002937 -313546.000000 0 0 1
8.906393 22.287387 -15.212442 28.416014 1.190621 2.135715 0.023409 -0.003013 -205689.000000 0 0 1
8.628693 22.037587 -13.831742 27.412163 1.197600 2.099697 0.023238 -0.000700 -199453.000000 0 0 1
8.366093 23.288287 -13.037742 27.969958 1.225913 2.055712 0.028514 -0.005747 158081.000000 0 0 1
7.054993 23.801687 -13.267542 28.148195 1.282639 2.061613 0.026085 -0.002232 272153.000000 0 0 1
6.592193 24.918187 -12.512542 28.651994 1.312168 2.022732 0.015660 -0.002171 89080.900000 0 0 1
5.806093 24.598687 -11.232842 27.658323 1.339006 1.989010 0.007626 0.000079 -626182.000000 0 0 1
6.615493 24.023587 -10.244542 26.941569 1.302082 1.960863 0.002089 -0.004135 -178497.000000 0 0 1
5.894593 23.439887 -9.168542 25.850274 1.324428 1.933367 0.004791 -0.004892 -208748.000000 0 0 1
6.765893 23.324087 -7.944142 25.551903 1.288463 1.886938 -0.002722 -0.000532 -185394.000000 0 0 1
7.041393 24.525087 -7.295042 26.538251 1.291207 1.849269 -0.009668 0.001253 -499070.000000 0 0 1
8.017393 24.414487 -6.327142 26.464665 1.253504 1.812213 0.010189 0.001116 -531886.000000 0 0 1
8.415793 25.700087 -5.653442 27.627549 1.254340 1.776883 0.004220 0.000857 -7143.560000 0 0 1
9.004193 26.573887 -6.599542 28.823617 1.244101 1.801809 0.021729 -0.010952 55483.600000 0 0 1
9.286993 27.826587 -6.003742 29.943482 1.248675 1.772667 0.022886 -0.005701 147370.000000 0 0 1
9.547293 29.048487 -6.893442 31.344616 1.253251 1.792533 0.021697 0.000356 692597.000000 0 0 1
10.819293 29.046287 -7.546342 31.901272 1.214233 1.809613 0.023101 -0.005841 161480.000000 0 0 1
10.911093 30.195787 -8.363042 33.177974 1.224051 1.825611 0.023716 -0.007439 196847.000000 0 0 1
12.270593 30.421087 -9.078342 34.035662 1.187398 1.840795 0.029226 -0.009390 667137.000000 0 0 1
13.357493 30.594087 -8.176742 34.369752 1.159138 1.811005 0.019944 -0.005149 -557878.000000 0 0 1
14.553293 30.852187 -8.839142 35.238987 1.130036 1.824338 0.017760 -0.008567 -616.266000 0 0 1
15.753993 31.299187 -7.943242 35.929410 1.104484 1.793717 0.020322 -0.010570 237353.000000 0 0 1
16.462993 30.164887 -7.480842 35.169782 1.071209 1.785140 0.024571 -0.005705 -491280.000000 0 0 1
17.457393 30.530787 -6.563442 35.776644 1.051373 1.755297 0.017269 0.000685 -389086.000000 0 0 1
18.432193 29.406887 -6.229442 35.260696 1.010905 1.748397 0.011524 0.005295 -406160.000000 0 0 1
17.935793 28.416187 -5.332442 34.023628 1.007764 1.728173 0.033101 -0.006178 -612956.000000 0 0 1
18.884493 27.413887 -5.176542 33.688898 0.967582 1.725065 0.020437 -0.000347 -694759.000000 0 0 1
18.866993 26.281087 -6.250742 32.950428 0.948163 1.761654 0.019917 0.001027 -194101.000000 0 0 1
19.427893 26.777987 -7.426142 33.906507 0.943149 1.791604 0.013853 0.011089 89395.100000 0 0 1
19.510493 25.841687 -8.442842 33.462422 0.924102 1.825861 0.011041 0.004992 -1158510.000000 0 0 1
20.159093 26.337187 -9.734242 34.565762 0.917497 1.856273 0.019633 -0.003394 706289.000000 0 0 1
21.586593 26.399487 -9.694042 35.452621 0.885362 1.847760 0.015420 0.001589 525606.000000 0 0 1
22.230393 25.139687 -9.702442 34.933245 0.846737 1.852240 0.025774 0.004479 70366.700000 0 0 1
23.795993 25.268587 -9.586642 36.009089 0.815403 1.840274 0.018517 0.005572 1052660.000000 0 0 1
24.400293 25.653887 -10.844142 37.028254 0.810438 1.868014 0.018122 0.004005 752096.000000 0 0 1
25.826993 25.652087 -10.747942 37.954992 0.782001 1.857900 0.014229 0.015325 823711.000000 0 0 1
26.696493 25.946587 -11.988342 39.110720 0.771154 1.882335 0.002681 0.007066 127240.000000 0 0 1
26.568493 27.276087 -12.478642 40.069767 0.798539 1.887486 0.009327 0.010146 -286605.000000 0 0 1
27.289393 27.376387 -13.663442 40.998380 0.786990 1.910564 -0.004650 0.012846 -260279.000000 0 0 1
26.767393 28.367487 -14.723942 41.689352 0.814411 1.931767 -0.007573 0.006307 -90813.100000 0 0 1
27.245493 29.689587 -14.556342 42.844784 0.828300 1.917443 -0.005529 0.005932 6097.690000 0 0 1
26.968293 30.451487 -15.720242 43.608576 0.845986 1.939584 -0.005961 0.008708 -222457.000000 0 0 1
27.362093 31.928987 -15.533542 44.826725 0.862271 1.924659 -0.007497 0.007535 -373305.000000 0 0 1
28.693093 32.228887 -15.238642 45.762550 0.843371 1.910273 -0.016760 0.009591 -269197.000000 0 0 1
28.840893 33.603187 -15.134542 46.797710 0.861516 1.900120 -0.019558 0.000275 -110080.000000 0 0 1
14.579693 -32.514977 -29.006565 45.947492 -1.149274 2.254022 0.039768 -0.028433 -296489.000000 0 0 1
15.557693 -33.102377 -28.216605 46.195086 -1.131446 2.227885 0.032104 -0.019012 -279305.000000 0 0 1
15.979693 -32.240177 -27.150825 45.077122 -1.110639 2.217200 0.031982 -0.021081 5940.390000 0 0 1
17.194793 -32.851077 -26.352485 45.489643 -1.088592 2.188675 -0.004792 -0.009753 1241150.000000 0 0 1
18.528293 -32.665377 -26.826945 46.152026 -1.054832 2.191089 -0.007146 -0.006036 636767.000000 0 0 1
18.787993 -33.340077 -28.057275 47.452714 -1.057628 2.203427 -0.016948 -0.004942 -337201.000000 0 0 1
20.277093 -33.026477 -28.394705 48.043396 -1.020172 2.203122 -0.006157 0.004284 420487.000000 0 0 1
20.614693 -31.660077 -28.663565 47.422842 -0.993630 2.219841 -0.001832 -0.013785 -23886.200000 0 0 1
21.989793 -31.444377 -28.415445 47.746595 -0.960525 2.208224 -0.013422 -0.002710 -360841.000000 0 0 1
22.556693 -30.219577 -29.121845 47.645662 -0.929586 2.228394 -0.017951 0.003679 -280494.000000 0 0 1
22.718593 -30.442877 -30.508215 48.720164 -0.929687 2.247457 -0.014473 -0.003391 330191.000000 0 0 1
23.372993 -29.363377 -31.269925 48.849902 -0.898504 2.265454 -0.010324 -0.005160 683568.000000 0 0 1
23.854693 -29.761877 -32.717835 50.252089 -0.895130 2.279795 -0.000757 0.013929 467583.000000 0 0 1
24.942293 -30.676577 -32.803445 51.373498 -0.888135 2.263381 0.009614 -0.001761 -119229.000000 0 0 1
25.099493 -30.993477 -34.235609 52.560984 -0.890089 2.280159 0.006898 -0.002397 697662.000000 0 0 1
26.449293 -31.733577 34.461858 53.797813 -0.875972 0.875542 0.015717 -0.015677 1241370.000000 0 0 1
27.600093 -30.926177 -34.334476 53.824249 -0.842168 2.262564 0.017986 -0.021037 96907.200000 0 0 1
28.766493 -31.522577 34.168114 54.668492 -0.831081 0.895658 0.013168 -0.008435 702281.000000 0 0 1
30.038793 -30.625877 34.094294 54.796846 -0.795075 0.899254 0.016064 -0.015886 273180.000000 0 0 1
29.896793 -29.555677 33.200630 53.569003 -0.779661 0.902343 0.015486 -0.008770 -110617.000000 0 0 1
31.098093 -28.829677 33.111503 53.801610 -0.747564 0.907856 0.012805 -0.012021 -115385.000000 0 0 1
31.219793 -27.908977 31.875108 52.627074 -0.729463 0.920178 0.022616 -0.012350 144464.000000 0 0 1
32.471593 -27.215777 31.821828 52.988032 -0.697569 0.926611 -0.000288 -0.016343 676274.000000 0 0 1
32.574293 -26.393777 30.692228 51.958915 -0.680968 0.938868 0.028586 -0.007681 98566.800000 0 0 1
33.237193 -27.079677 29.422448 51.997118 -0.683664 0.969335 0.018711 -0.005759 -19226.300000 0 0 1
32.423993 -28.064077 28.803428 51.657963 -0.713444 0.979329 0.011910 -0.007137 609971.000000 0 0 1
31.498293 -27.489277 27.867558 50.243443 -0.717539 0.982853 0.021366 -0.007670 322881.000000 0 0 1
30.753893 -28.535277 26.992718 49.886579 -0.747995 0.999073 0.014443 0.004897 851920.000000 0 0 1
29.652493 -27.983177 26.228168 48.479329 -0.756443 0.999150 0.010449 0.011537 681757.000000 0 0 1
28.997493 -28.967377 25.474538 48.258840 -0.784879 1.014702 0.009527 0.015062 -755107.000000 0 0 1
27.721893 -28.540477 24.779088 46.872864 -0.799947 1.013793 0.010918 0.023049 -981711.000000 0 0 1
26.690893 -28.510977 25.717188 46.761665 -0.818358 0.988476 0.012306 0.023252 -537504.000000 0 0 1
25.489193 -28.064677 25.097858 45.466774 -0.833453 0.986030 0.005821 0.025718 1151080.000000 0 0 1
24.275793 -28.079177 26.131908 45.394173 -0.857917 0.957377 0.013021 0.026121 647094.000000 0 0 1
24.239193 -27.028077 27.051288 45.275022 -0.839744 0.930431 0.005690 0.025155 38986.900000 0 0 1
23.020693 -26.902677 27.753728 44.988618 -0.863001 0.905991 0.013431 0.012425 45842.300000 0 0 1
23.124693 -25.726977 28.766818 44.990650 -0.838617 0.877085 0.011877 0.021583 -574665.000000 0 0 1
21.998093 -25.695977 29.589338 44.941387 -0.862777 0.852107 0.034010 0.012817 -258447.000000 0 0 1
22.003893 -24.667077 30.578348 45.029672 -0.842399 0.824300 0.038350 0.006169 -687183.000000 0 0 1
21.413493 -23.322777 30.128918 43.706307 -0.828051 0.810206 0.027354 -0.001375 -607926.000000 0 0 1
21.977693 -22.707977 28.967748 42.869588 -0.801739 0.828858 0.013973 0.002556 163745.000000 0 0 1
21.569893 -21.323877 28.732158 41.779240 -0.779663 0.812461 0.031263 -0.000799 -193842.000000 0 0 1
22.235493 -20.226577 29.554038 42.154154 -0.738123 0.793865 0.027555 -0.004196 18538.800000 0 0 1
21.807393 -20.069577 30.895198 42.811956 -0.743924 0.764615 0.025759 -0.000650 -109828.000000 0 0 1
22.808893 -19.308177 31.477118 43.403459 -0.702470 0.759440 0.022026 -0.000235 -327299.000000 0 0 1
22.575693 -19.022277 32.976118 44.259838 -0.700182 0.730176 0.048367 -0.000786 -177600.000000 0 0 1
22.601193 -20.113577 33.877194 45.420636 -0.727226 0.728979 0.027036 0.001606 84791.800000 0 0 1
21.911093 -19.682777 -34.011875 44.992392 -0.731876 2.427896 0.024013 0.001742 -121809.000000 0 0 1
21.608293 -20.724777 -32.956125 44.525733 -0.764531 2.404103 0.007345 0.009653 -92742.200000 0 0 1
22.730093 -21.083277 -32.181735 44.685856 -0.747829 2.374854 0.008521 0.009610 -9258.500000 0 0 1
22.394893 -22.136477 -31.326545 44.417421 -0.779595 2.353609 -0.011747 0.009903 -187757.000000 0 0 1
23.549693 -22.458277 -30.374705 44.514997 -0.761680 2.321766 -0.013985 0.015914 -310356.000000 0 0 1
24.637593 -23.085977 -30.972725 45.817933 -0.752897 2.313111 0.004292 0.015141 -422768.000000 0 0 1
25.567393 -23.521077 -29.978615 45.887362 -0.743736 2.282743 -0.003008 0.009742 137650.000000 0 0 1
26.772793 -24.317477 -30.461815 47.286830 -0.737377 2.270763 0.005235 0.013821 -352490.000000 0 0 1
27.710693 -23.683777 -31.282875 48.035633 -0.707205 2.280018 0.014898 0.008828 -143545.000000 0 0 1
27.449893 -23.786677 -32.684105 48.862596 -0.714023 2.303522 0.015193 0.007367 -7597.760000 0 0 1
27.885393 -25.113477 -33.344435 50.200928 -0.733144 2.297246 0.013073 0.001461 138536.000000 0 0 1
26.960193 -26.171277 -33.133295 50.095938 -0.770551 2.293476 0.022960 0.001590 -128518.000000 0 0 1
27.353093 -27.395477 -33.715495 51.336522 -0.786172 2.287303 0.020779 -0.012365 42916.500000 0 0 1
27.112793 -27.550977 33.806523 51.352126 -0.793414 0.852201 0.023731 -0.000098 -3427.280000 0 0 1
27.818593 -26.674577 32.960558 50.712972 -0.764408 0.863286 0.001979 0.002587 -116700.000000 0 0 1
27.336893 -26.735977 31.634858 49.627436 -0.774286 0.879616 0.011137 0.007106 -79115.800000 0 0 1
28.117393 -25.808477 30.670448 48.962655 -0.742608 0.893864 0.008524 -0.006170 -178438.000000 0 0 1
27.958093 -24.401277 30.822628 48.240146 -0.717572 0.877675 -0.015701 -0.000613 -157780.000000 0 0 1
28.418493 -23.797677 32.001098 48.969485 -0.697134 0.858610 -0.015079 0.000951 -1226280.000000 0 0 1
29.059693 -22.365777 31.766858 48.516255 -0.655959 0.856922 -0.005432 -0.007951 1434150.000000 0 0 1
30.347693 -22.305677 31.115278 48.853722 -0.633834 0.880317 -0.009799 -0.008488 998636.000000 0 0 1
31.422793 -22.945677 31.798678 50.249895 -0.630724 0.885618 -0.004069 -0.008362 554117.000000 0 0 1
32.829093 -22.394077 31.301898 50.587082 -0.598639 0.903617 0.015923 -0.018487 1102720.000000 0 0 1
33.218893 -22.877877 29.965998 50.247917 -0.603102 0.931834 0.017701 -0.018068 -141176.000000 0 0 1
34.528893 -22.425277 29.737798 50.788523 -0.575998 0.945272 0.020998 -0.019216 -204361.000000 0 0 1
35.092993 -22.770277 28.375378 50.548647 -0.575570 0.974783 0.033365 -0.013772 -253808.000000 0 0 1
-35.075151 -24.115177 28.118048 51.014043 0.602307 0.987016 0.031563 -0.013635 87865.700000 0 0 1
-34.667851 -24.259077 26.782178 50.076419 0.610563 1.006494 0.018871 0.001352 -262727.000000 0 0 1
-34.530451 -25.722277 26.374178 50.493414 0.640239 1.021216 0.010192 -0.007059 -830117.000000 0 0 1
34.829793 -26.504577 26.404488 51.115595 -0.650488 1.027963 0.015604 0.000872 -806510.000000 0 0 1
34.944593 -27.825277 25.953948 51.662153 -0.672461 1.044449 0.003589 0.006716 231307.000000 0 0 1
-34.624351 -28.750777 26.821168 52.391105 0.692983 1.033353 0.003310 -0.000422 -482911.000000 0 0 1
-34.418251 -30.034677 26.276858 52.698872 0.717491 1.048787 0.001895 0.003848 221132.000000 0 0 1
-33.356351 -30.760977 26.879248 52.738770 0.744942 1.035998 -0.001839 -0.002292 697691.000000 0 0 1
-31.918051 -30.212077 26.618378 51.381608 0.757947 1.026224 0.006897 -0.000341 -673443.000000 0 0 1
-31.524751 -30.135077 25.281608 50.409250 0.762864 1.045433 0.006660 0.001607 233988.000000 0 0 1
-30.321451 -29.392377 25.126848 49.139197 0.769841 1.034053 -0.000141 0.002568 268213.000000 0 0 1
-29.809051 -29.431077 23.678958 48.119236 0.779018 1.056308 -0.004770 0.004300 -557940.000000 0 0 1
-29.584751 -30.701677 23.152258 48.516775 0.803923 1.073329 0.004608 0.003375 420084.000000 0 0 1
-29.084251 -30.669777 21.835258 47.574230 0.811926 1.093958 0.006711 0.002165 -526242.000000 0 0 1
-29.035751 -32.059377 21.138658 48.142718 0.834848 1.116218 0.012548 0.003626 -156294.000000 0 0 1
-28.176951 -33.032677 21.688858 48.533544 0.864562 1.107517 0.016596 -0.008650 701201.000000 0 0 1
-26.851551 -32.906177 21.145858 47.444384 0.886373 1.108843 0.023474 -0.003515 422667.000000 0 0 1
-26.053751 -34.234077 21.122858 47.926455 0.920262 1.114379 0.023631 -0.002239 -280438.000000 0 0 1
-26.434851 33.857887 20.173058 47.456402 -0.907898 1.131739 0.012158 -0.000868 213482.000000 0 0 1
-27.617051 33.116287 20.411958 47.707840 -0.875699 1.128680 0.021356 -0.007968 28647.900000 0 0 1
-27.563751 32.053687 21.537758 47.445487 -0.860569 1.099606 0.024011 -0.006663 -670438.000000 0 0 1
-26.625751 31.086787 21.254558 46.120225 -0.862542 1.091842 0.013504 -0.002669 -418989.000000 0 0 1
-26.664951 30.027687 22.170658 45.871774 -0.844644 1.066355 0.020655 -0.006027 -222186.000000 0 0 1
-25.649751 28.924587 21.805558 44.384950 -0.845333 1.057235 0.017632 -0.001462 -733672.000000 0 0 1
-24.371451 29.392587 22.078758 44.106273 -0.878520 1.046527 0.021408 -0.001942 -1069630.000000 0 0 1
-23.446351 28.659387 21.288058 42.711512 -0.885114 1.049027 0.010210 -0.000327 -1099080.000000 0 0 1
-22.031951 29.091587 21.520558 42.365808 -0.922620 1.037970 0.003997 0.003851 -1304110.000000 0 0 1
-21.617551 28.701487 22.827958 42.570054 -0.925259 1.004815 0.007526 0.000814 318624.000000 0 0 1
-20.317351 29.176087 23.136958 42.418836 -0.962511 0.993882 0.022742 0.002091 133164.000000 0 0 1
-19.959651 29.079087 24.620118 43.013151 -0.969262 0.961384 0.018063 0.003782 -576863.000000 0 0 1
-19.678651 27.784287 25.078608 42.286552 -0.954545 0.935938 0.024139 -0.000786 193918.000000 0 0 1
-19.414551 27.738787 26.475978 42.980722 -0.960133 0.907146 0.015891 -0.000628 138114.000000 0 0 1
-18.029351 28.209987 27.004298 43.012707 -1.002113 0.892045 0.022765 0.003180 -270433.000000 0 0 1
-17.580251 29.506587 26.618938 43.454249 -1.033465 0.911483 0.004745 0.001244 1708060.000000 0 0 1
-16.209951 29.871087 27.008758 43.411028 -1.073603 0.899293 0.008454 0.003654 1692950.000000 0 0 1
-15.971651 30.122087 28.498278 44.436309 -1.083258 0.874568 0.001898 0.011671 -408977.000000 0 0 1
-16.058251 28.940187 29.315208 44.212931 -1.064216 0.845916 0.000746 0.012061 28419.300000 0 0 1
-16.046851 29.232787 30.711858 45.335146 -1.068772 0.826519 -0.004848 0.018105 -73102.600000 0 0 1
-15.974651 27.978187 31.620928 45.142569 -1.051997 0.794743 -0.014666 0.020286 -74477.800000 0 0 1
-14.680551 27.412987 31.669238 44.383905 -1.079128 0.776273 -0.004581 0.022623 68371.600000 0 0 1
-14.642151 26.193187 32.324768 44.106306 -1.061065 0.748246 0.001331 0.018605 -176933.000000 0 0 1
-14.868351 26.108387 33.886393 45.288004 -1.053116 0.725388 0.009973 0.016723 1112510.000000 0 0 1
-16.256951 26.046187 34.325967 46.053928 -1.012802 0.729747 0.016362 0.013308 969225.000000 0 0 1
-16.619051 27.221487 -34.006525 46.622376 -1.022683 2.388246 0.019789 0.004433 -612109.000000 0 0 1
-17.885951 26.938887 -33.219105 46.358600 -0.984680 2.369666 0.005366 0.005569 -213139.000000 0 0 1
-19.000751 26.942287 -34.102905 47.433358 -0.956563 2.373108 0.000672 0.009910 -769343.000000 0 0 1
-20.085251 26.272087 -33.587515 47.135560 -0.918074 2.363955 0.008762 0.004484 67157.500000 0 0 1
-21.307451 26.170287 34.433123 48.213394 -0.887466 0.775342 0.033165 -0.010817 561234.000000 0 0 1
-21.118751 25.355487 33.273572 46.861850 -0.876310 0.781248 0.030938 -0.004242 8614.750000 0 0 1
-21.471851 23.984187 33.546507 46.493545 -0.840612 0.764786 0.029818 -0.012425 -233215.000000 0 0 1
-21.828451 23.133587 32.342248 45.361494 -0.814418 0.777044 0.025890 -0.017626 70151.900000 0 0 1
-23.190751 23.229787 31.963128 45.815668 -0.786239 0.798689 0.033714 -0.023944 -103254.000000 0 0 1
-23.358251 22.855087 30.647168 44.801917 -0.774511 0.817483 0.044873 -0.021217 -486041.000000 0 0 1
-24.826451 22.710887 30.286378 45.270318 -0.740924 0.837918 0.050796 -0.028367 -464801.000000 0 0 1
-25.439351 21.626487 31.004378 45.564646 -0.704563 0.822422 0.065092 -0.034664 213097.000000 0 0 1
-26.654951 21.242587 30.371038 45.652315 -0.672877 0.842943 0.058049 -0.032669 20058.000000 0 0 1
-26.995151 19.855287 30.970288 45.630355 -0.634165 0.824776 0.073488 -0.034766 -398301.000000 0 0 1
-27.361751 19.904287 32.365138 46.822518 -0.628912 0.807606 0.074077 -0.026814 91812.100000 0 0 1
-27.521151 18.599587 33.028510 46.842725 -0.594319 0.788241 0.063632 -0.018703 -157614.000000 0 0 1
-28.354551 17.466987 32.349588 46.428138 -0.552116 0.799916 0.049067 -0.015468 -163647.000000 0 0 1
-29.708451 17.848187 32.190298 47.300794 -0.540991 0.822291 0.037265 -0.017418 424471.000000 0 0 1
-30.518551 16.703087 31.822048 47.148890 -0.500775 0.829931 0.027396 -0.000588 -38307.600000 0 0 1
-32.020451 16.932287 31.668658 48.113569 -0.486418 0.852363 0.024449 -0.002510 -616915.000000 0 0 1
-32.590151 17.094587 32.934658 49.386582 -0.483080 0.840790 0.024669 -0.002816 520882.000000 0 0 1
-34.011051 16.975987 32.863058 50.248545 -0.462953 0.857923 0.029633 -0.009749 358785.000000 0 0 1
-34.599051 17.271687 34.305545 51.694061 -0.463004 0.845140 0.036908 -0.005397 229675.000000 0 0 1
34.469693 17.383587 34.296893 51.639381 0.467094 0.844425 0.027787 -0.015123 780711.000000 0 0 1
33.980293 18.121887 -33.592755 51.103192 0.489936 2.288095 0.020528 -0.020824 455668.000000 0 0 1
32.466093 18.104887 -33.269965 49.887119 0.508702 2.300844 0.014070 -0.018173 238667.000000 0 0 1
31.939393 16.833687 -32.965925 48.890183 0.485053 2.310793 0.014631 -0.008912 -298688.000000 0 0 1
30.661693 16.925587 -32.392285 47.706132 0.504386 2.317191 0.013892 -0.008571 -312377.000000 0 0 1
29.885693 15.598987 -32.481335 46.813675 0.481057 2.337608 0.013713 -0.003568 -264422.000000 0 0 1
29.570593 15.321587 -33.842265 47.481258 0.478051 2.364207 0.014652 -0.010799 -481568.000000 0 0 1
28.848893 14.188887 -34.125120 46.883973 0.457094 2.385997 0.011319 -0.003149 -677759.000000 0 0 1
29.566193 12.809187 -34.295093 47.057289 0.408827 2.387356 0.015444 -0.000365 -24421.000000 0 0 1
30.161893 12.379887 -33.093335 46.456110 0.389481 2.363647 0.021963 0.007757 -407476.000000 0 0 1
31.095793 11.409687 -33.360365 47.011097 0.351669 2.359766 0.036204 -0.001965 -1035220.000000 0 0 1
18.393793 -21.933013 9.457095 30.146730 -0.872937 1.251707 0.022552 -0.016189 -94283.700000 0 0 1
17.579493 -22.902713 10.101895 30.587924 -0.916143 1.234220 0.014056 -0.018553 213152.000000 0 0 1
18.292693 -23.968413 10.766795 32.016110 -0.918901 1.227818 0.014076 -0.016871 35744.300000 0 0 1
17.359593 -24.966813 11.478595 32.503159 -0.963227 1.209857 0.017382 -0.007626 409713.000000 0 0 1
16.616593 -25.765653 10.527895 32.416302 -0.998006 1.240026 0.018046 -0.015129 264565.000000 0 0 1
15.392593 -26.232763 11.074795 32.368825 -1.040162 1.221599 0.028915 -0.012029 284643.000000 0 0 1
14.597693 -27.001453 9.973895 32.274598 -1.075178 1.256621 0.027192 -0.015239 -24594.400000 0 0 1
14.248793 -26.171213 8.848695 31.084721 -1.072228 1.282141 0.023138 -0.013509 -14765.300000 0 0 1
13.683593 -26.992533 7.884095 31.272936 -1.101612 1.315940 0.032406 -0.005559 -202148.000000 0 0 1
13.457293 -26.334663 6.528395 30.285857 -1.098379 1.353532 0.025093 -0.006458 -73691.100000 0 0 1
12.608293 -25.222623 6.646595 28.971141 -1.107244 1.339313 0.032646 -0.011579 -220592.000000 0 0 1
12.391693 -24.551413 5.403395 28.027176 -1.103376 1.376790 0.033177 -0.004579 -26397.600000 0 0 1
11.699293 -23.203513 5.614595 26.585713 -1.103792 1.358006 0.031188 -0.008937 -298618.000000 0 0 1
11.303193 -22.542313 4.473995 25.611222 -1.106012 1.395207 0.029855 -0.006180 -278831.000000 0 0 1
10.736593 -21.312813 4.853495 24.352964 -1.104143 1.370155 0.042426 0.000510 -258255.000000 0 1 0
10.108693 -20.617813 3.655595 23.251737 -1.114947 1.412923 0.035922 -0.006810 -133798.000000 0 1 0
10.983393 -20.071613 2.692695 23.038124 -1.070097 1.453649 0.027612 0.001337 -468881.000000 0 1 0
10.227893 -19.435913 1.695595 22.028154 -1.086380 1.493746 0.024978 0.001826 100614.000000 0 1 0
10.935093 -19.094113 0.350695 22.006462 -1.050696 1.554860 0.006548 0.006834 -273378.000000 0 1 0
11.773993 -18.000613 0.520595 21.515576 -0.991552 1.546598 0.009850 0.008380 -831946.000000 0 1 0
12.392693 -17.742613 -0.665705 21.652305 -0.961098 1.601546 0.012463 0.007410 -290147.000000 0 1 0
13.686593 -16.860413 -0.539605 21.722972 -0.888926 1.595639 0.019170 0.007500 124533.000000 0 1 0
14.632193 -17.582813 0.183795 22.875536 -0.876735 1.562762 0.012796 0.014867 -293699.000000 0 1 0
15.895093 -16.920213 0.138295 23.215656 -0.816627 1.564839 0.015948 0.011587 -153649.000000 0 1 0
16.904293 -17.569413 1.042095 24.403388 -0.804689 1.528080 0.002793 0.012448 -481628.000000 0 1 0
17.486993 -18.745113 0.413295 25.638740 -0.820108 1.554676 0.004592 0.013575 633907.000000 0 0 1
18.391093 -19.427813 1.307695 26.783993 -0.812804 1.521953 0.000915 0.016528 869207.000000 0 0 1
18.854393 -20.862813 0.951995 28.136300 -0.835923 1.536955 -0.008016 0.015399 585645.000000 0 0 1
17.689793 -21.674013 1.073995 27.997233 -0.886270 1.532426 -0.012167 0.014893 669888.000000 0 0 1
17.869193 -22.835813 0.352895 28.998395 -0.906813 1.558627 -0.002603 0.013208 -233340.000000 0 0 1
16.790193 -23.860113 0.717295 29.184415 -0.957596 1.546216 0.003201 0.006981 -226449.000000 0 0 1
16.843393 -24.355813 2.026795 29.681870 -0.965760 1.502459 -0.001699 0.010931 -174059.000000 0 0 1
15.735593 -25.200823 2.190895 29.790777 -1.012623 1.497187 -0.003160 0.007470 -522680.000000 0 0 1
15.762593 -26.177823 3.414495 30.747301 -1.028808 1.459517 0.005759 -0.008170 386842.000000 0 0 1
16.825293 -27.123843 3.491095 32.108894 -1.015574 1.461854 -0.001133 0.000990 319484.000000 0 0 1
18.069293 -26.604053 3.907295 32.396635 -0.974172 1.449894 -0.002188 -0.001058 97112.100000 0 0 1
19.270093 -27.604823 3.958295 33.897357 -0.961367 1.453756 0.009912 0.002517 168503.000000 0 0 1
19.677893 -27.946383 2.680095 34.284146 -0.957304 1.492543 0.001637 0.011906 -545546.000000 0 0 1
20.679393 -28.906163 2.665595 35.641394 -0.949811 1.495937 0.017031 0.016375 -820375.000000 0 0 1
20.133893 -30.321673 2.788495 36.504153 -0.984635 1.494333 0.015792 0.015287 -189847.000000 0 0 1
19.874293 -30.796083 4.117495 36.882787 -0.997696 1.458926 0.030475 0.004019 -27153.500000 0 0 1
19.695193 -32.218323 4.190495 37.993173 -1.022106 1.460275 0.011802 -0.008551 -256668.000000 0 0 1
19.122993 -32.662183 5.569595 38.256077 -1.041123 1.424690 0.019415 -0.011529 467184.000000 0 0 1
20.168893 -33.159053 6.437995 39.341515 -1.024335 1.406413 0.014337 -0.013195 899441.000000 0 0 1
19.629293 -33.718063 7.642295 39.757032 -1.043598 1.377367 0.011133 -0.010760 618270.000000 0 0 1
20.714993 -34.426017 8.530095 41.073399 -1.029109 1.361594 0.007490 -0.015795 507285.000000 0 0 1
21.565793 -33.642593 9.305895 41.030564 -1.000755 1.342001 0.019966 -0.016777 215022.000000 0 0 1
22.650393 -34.345856 9.905395 42.317785 -0.987786 1.334533 0.024686 -0.020952 564683.000000 0 0 1
23.650393 -33.390143 10.618995 42.272991 -0.954519 1.316876 0.031660 -0.023519 -459364.000000 0 0 1
24.633693 -32.804423 9.824395 42.183738 -0.926703 1.335743 0.034285 -0.020738 -579670.000000 0 0 1
25.443393 -32.053923 10.661595 42.290541 -0.899867 1.315943 0.037417 -0.010961 -150516.000000 0 0 1
26.177593 -30.964933 9.805595 41.716221 -0.868982 1.333521 0.039601 -0.010915 -187384.000000 0 0 1
25.290293 -29.929683 9.473795 40.312996 -0.869218 1.333572 0.028429 -0.010112 103349.000000 0 0 1
25.695193 -29.143423 8.347495 39.739938 -0.848195 1.359167 0.036034 -0.011064 -123354.000000 0 0 1
25.265993 -27.670653 8.461795 38.414026 -0.830792 1.348696 0.036291 -0.006356 5219.420000 0 0 1
25.940293 -27.003813 9.519595 38.635830 -0.805483 1.321840 0.018067 -0.008237 273808.000000 0 0 1
25.332593 -25.751073 9.848695 37.441352 -0.793590 1.304621 0.016358 -0.009644 357396.000000 0 0 1
26.291993 -24.963213 10.834595 37.839389 -0.759479 1.280401 0.022236 -0.019382 337144.000000 0 0 1
27.495893 -24.735213 10.148195 38.351542 -0.732592 1.302997 0.037392 -0.017869 -792453.000000 0 0 1
28.418993 -24.014913 10.962595 38.788319 -0.701602 1.284265 0.027603 -0.020596 603805.000000 0 0 1
29.743793 -23.896513 10.147795 39.480556 -0.676818 1.310846 0.049937 -0.023033 385916.000000 0 0 1
29.578293 -23.052413 9.059295 38.579269 -0.662034 1.333760 0.058947 -0.022776 -435482.000000 0 0 1
30.800793 -22.774213 8.422595 39.221088 -0.636685 1.354364 0.065428 -0.025521 -184061.000000 0 0 1
30.568993 -21.901413 7.156295 38.279861 -0.621687 1.382743 0.064209 -0.001364 -155421.000000 0 0 1
30.295993 -20.517113 7.311495 37.312961 -0.595275 1.373570 0.047203 0.003117 -50287.700000 0 0 1
30.397593 -19.842913 6.062295 36.803618 -0.578326 1.405322 0.028675 0.004016 32618.600000 0 0 1
30.085893 -18.335513 6.147495 35.765118 -0.547331 1.398053 0.028854 0.003920 461167.000000 0 0 1
31.016893 -17.774413 7.051895 36.437709 -0.520372 1.376034 0.029864 0.011187 388319.000000 0 0 1
30.534293 -16.449513 7.223795 35.427570 -0.494144 1.365453 0.022701 0.008713 233418.000000 0 0 1
30.933193 -15.679813 8.487895 35.703828 -0.469147 1.330767 0.014190 -0.009577 -286840.000000 0 0 1
32.299693 -15.338213 8.506495 36.754474 -0.443344 1.337238 0.020928 -0.001297 -293260.000000 0 0 1
32.630893 -14.835413 9.795795 37.159417 -0.426708 1.304028 0.017378 -0.012187 -272776.000000 0 0 1
34.150993 -14.807713 9.936495 38.526518 -0.409128 1.309935 0.007730 -0.016742 -399629.000000 0 0 1
34.849893 -13.881713 9.110595 38.603367 -0.379065 1.332543 0.024258 -0.005898 807872.000000 0 0 1
-34.269951 -14.295413 9.160795 38.245373 0.395196 1.328918 0.026601 -0.011594 1062790.000000 0 0 1
-33.243251 -13.479013 8.343795 36.829559 0.385210 1.342261 0.035270 -0.009099 -108700.000000 0 0 1
-33.576551 -13.567513 6.974095 36.879536 0.384016 1.380546 0.045161 -0.010783 728812.000000 0 0 1
-32.615751 -12.998113 6.027295 35.623959 0.379232 1.400786 0.034884 -0.007593 -86774.700000 0 0 1
-31.487851 -13.919813 5.678795 34.892616 0.416239 1.407319 0.014810 0.001959 -1123930.000000 0 0 1
-30.604951 -14.166813 6.728595 34.389469 0.433524 1.373867 0.023435 -0.001863 -625676.000000 0 0 1
-29.731451 -15.174513 6.337395 33.976280 0.471922 1.383173 0.009344 0.011737 -603722.000000 0 0 1
-29.143451 -16.013313 7.508595 34.090261 0.502433 1.348719 -0.011735 -0.005101 73768.500000 0 0 1
-30.104751 -16.864413 8.182195 35.463400 0.510634 1.337976 0.015314 -0.007460 361495.000000 0 0 1
-30.265451 -16.242613 9.470595 35.630214 0.492553 1.301760 -0.007821 -0.011147 -60027.600000 0 0 1
-31.299551 -16.974113 10.307295 37.067813 0.496921 1.289016 -0.019434 -0.009983 44240.500000 0 0 1
-32.692951 -16.862513 10.022595 38.126445 0.476195 1.304793 0.015306 -0.012625 674937.000000 0 0 1
-33.553151 -17.551313 10.924995 39.410887 0.481948 1.289910 0.034899 -0.012189 -268001.000000 0 0 1
-33.816351 -18.963013 10.478195 40.161350 0.511070 1.306839 0.031475 -0.011150 -1025280.000000 0 0 1
-32.755251 -19.883213 10.350595 39.691100 0.545568 1.306968 0.032929 -0.010891 -628869.000000 0 0 1
-32.043551 -20.300213 11.476895 39.630883 0.564702 1.276993 0.006502 -0.019311 -935402.000000 0 0 1
-32.784651 -21.009913 12.647295 40.941469 0.569913 1.256748 0.056738 -0.022253 -121821.000000 0 0 1
-33.114651 -22.359413 12.399595 41.836269 0.593895 1.269892 0.025179 -0.021908 1296200.000000 0 0 1
-34.485651 -22.415413 11.883695 42.812768 0.576370 1.289529 0.042164 -0.022111 1276770.000000 0 0 1
-34.873051 -23.834013 11.495195 43.775899 0.599533 1.305089 0.036617 -0.015766 -45386.000000 0 0 1
-34.968551 -24.695813 12.609895 44.628379 0.614894 1.284342 0.051822 -0.010228 -19433.900000 0 0 1
34.887693 -25.851773 12.160395 45.092577 -0.637716 1.297740 0.038841 -0.000183 232943.000000 0 0 1
33.633393 -26.236093 13.019195 44.598622 -0.662464 1.274563 0.049087 -0.023954 446903.000000 0 0 1
32.655193 -25.221953 12.984195 43.256189 -0.657666 1.265926 0.038765 -0.013772 -119251.000000 0 0 1
31.781693 -25.204483 14.097395 42.942735 -0.670489 1.236310 0.025027 0.010257 -102419.000000 0 0 1
31.468493 -23.758013 14.629295 42.056218 -0.646679 1.215518 0.024493 0.000748 184281.000000 0 0 1
32.501993 -23.304213 15.485995 42.886850 -0.622050 1.201360 0.031367 -0.006642 134754.000000 0 0 1
33.549993 -22.739913 14.715995 43.119209 -0.595665 1.222511 0.037055 -0.011407 276841.000000 0 0 1
34.702993 -21.997213 15.506695 43.916201 -0.564953 1.209917 0.036870 -0.014222 567655.000000 0 0 1
34.482893 -20.696913 16.088195 43.315841 -0.540573 1.190263 0.029902 -0.002187 -356314.000000 0 0 1
33.693593 -20.646313 17.235895 43.111536 -0.549754 1.159500 0.014662 0.001497 -153031.000000 0 0 1
33.631793 -19.234113 17.871095 42.666434 -0.519503 1.138611 0.005009 0.012498 -332787.000000 0 0 1
33.057893 -18.213613 17.015895 41.401699 -0.503581 1.147251 0.013035 0.001977 372064.000000 0 0 1
32.937293 -16.883413 17.531195 40.954337 -0.473671 1.128444 -0.001733 0.006453 811855.000000 0 0 1
34.277393 -16.240613 18.085095 42.021040 -0.442468 1.125881 -0.001038 0.001368 746009.000000 0 0 1
34.549593 -16.528313 19.425495 42.944259 -0.446214 1.101407 -0.011357 0.021880 265922.000000 0 0 1
-34.786551 -15.824113 19.847895 43.063274 0.426914 1.091786 -0.003507 0.020159 211547.000000 0 0 1
-34.501951 -15.725013 21.373395 43.525655 0.427643 1.057498 -0.003365 0.019685 -465357.000000 0 0 1
-33.948151 -16.874813 21.825995 43.744832 0.461306 1.048422 0.009552 0.017163 -183008.000000 0 0 1
-33.638151 -16.799213 23.221995 44.192757 0.463175 1.017528 0.012309 0.017358 115162.000000 0 0 1
-32.651951 -17.963713 23.586995 44.104322 0.502964 1.006525 0.019974 0.014439 -709170.000000 0 0 1
-33.121851 -19.277913 23.559595 44.986103 0.527102 1.019598 0.019781 0.014146 15616.500000 0 0 1
-32.275051 -20.273813 24.124295 45.107516 0.560867 1.006504 0.025967 0.010039 825628.000000 0 0 1
-30.974451 -20.606313 23.269595 43.880643 0.587034 1.011850 0.011574 0.018099 750654.000000 0 0 1
-29.948551 -19.618613 23.373595 42.756644 0.579936 0.992419 0.017353 0.023575 8826.730000 0 0 1
-28.827751 -20.163813 22.683695 41.858913 0.610362 0.998090 0.012993 0.014057 -630587.000000 0 0 1
-27.676251 -19.200313 22.765295 40.655695 0.606517 0.976467 0.014279 0.026069 -920620.000000 0 0 1
-27.076451 -19.118113 24.024095 40.936458 0.614794 0.943617 0.023990 0.017700 -90257.300000 0 0 1
-25.915351 -18.326313 23.962695 39.770214 0.615516 0.924131 0.030428 0.010813 -396804.000000 0 0 1
-25.576351 -17.951813 25.435495 40.291211 0.611994 0.887579 0.033676 -0.007501 -884591.000000 0 0 1
-24.562651 -16.967813 25.538195 39.286510 0.604523 0.863146 0.034655 -0.009129 162602.000000 0 0 1
-24.304751 -16.583913 26.904895 39.870045 0.598770 0.830083 0.032082 -0.016702 7425.190000 0 0 1
-23.396551 -17.540613 27.712395 40.287077 0.643315 0.812242 0.021510 -0.009512 -349127.000000 0 0 1
-23.941551 -18.745113 28.183395 41.459388 0.664260 0.823329 0.027657 -0.008488 -311790.000000 0 0 1
-22.955651 -19.318513 29.004495 41.730416 0.699573 0.802315 0.026884 -0.008730 -168673.000000 0 0 1
-23.457951 -20.550613 29.729695 43.086633 0.719431 0.809310 0.028526 0.001833 -23326.100000 0 0 1
-24.578351 -20.314413 30.562195 44.168071 0.690702 0.806607 0.018453 -0.001868 -91394.900000 0 0 1
-24.973051 -21.434413 31.241795 45.377716 0.709294 0.811401 0.007652 0.002514 -20498.500000 0 0 1
-26.393051 -21.268813 31.858995 46.518288 0.678297 0.816371 0.017606 -0.003750 -268849.000000 0 0 1
-26.332951 -20.318713 32.941395 46.812497 0.657187 0.790221 0.011688 -0.010150 405154.000000 0 0 1
-27.320651 -20.491213 33.960895 48.162747 0.643518 0.788193 0.016938 -0.007620 -458096.000000 0 0 1
-28.654751 -19.823413 33.671195 48.454224 0.605203 0.802505 0.027605 -0.008685 -526715.000000 0 0 1
-29.372051 -20.512813 32.617695 48.450045 0.609637 0.832237 0.034950 -0.012156 -115823.000000 0 0 1
-30.198351 -19.656113 31.911295 48.131423 0.577008 0.845973 0.020999 -0.021468 -346575.000000 0 0 1
-31.095051 -20.314313 30.824195 48.267013 0.578690 0.878095 0.030736 -0.010191 -93438.600000 0 0 1
-31.762951 -19.377213 30.028195 47.812696 0.547782 0.891767 0.030949 -0.019511 -126989.000000 0 0 1
-32.418651 -20.026013 28.993295 47.881325 0.553355 0.920372 0.032808 -0.012144 -518432.000000 0 0 1
-33.234851 -19.051213 28.155195 47.541761 0.520503 0.936985 0.029110 -0.004975 -808411.000000 0 0 1
-34.283351 -19.740813 27.566695 48.217948 0.522445 0.962207 0.039890 -0.003644 -518726.000000 0 0 1
-34.945051 -18.936913 26.597995 47.824853 0.496607 0.981045 0.022539 0.003915 -589239.000000 0 0 1
34.342693 -19.691413 26.072395 47.401921 -0.520616 0.988398 0.017181 0.014867 -217536.000000 0 0 1
33.283293 -19.836113 27.018495 47.236088 -0.537457 0.961868 -0.003030 0.012254 276029.000000 0 0 1
32.214593 -20.522113 26.362395 46.410268 -0.567213 0.966687 -0.005024 0.015679 -99707.000000 0 0 1
31.077793 -20.784413 27.358695 46.328385 -0.589469 0.939070 -0.014371 0.010977 -384670.000000 0 0 1
30.531893 -19.564313 27.780195 45.680390 -0.569868 0.917078 -0.017552 0.005566 -959180.000000 0 0 1
29.517493 -19.798913 28.652395 45.653467 -0.590825 0.892322 -0.016921 0.003982 -1203600.000000 0 0 1
-29.397067 -5.792813 -34.506371 45.699386 0.194561 2.426562 -0.002463 -0.012419 97585.400000 0 0 1
-30.051347 -5.749113 33.278629 45.206226 0.189026 0.743430 0.005332 -0.005383 368354.000000 0 0 1
-29.633587 -4.580813 32.595468 44.289930 0.153368 0.743718 0.019489 -0.004421 -10303.700000 0 0 1
-30.373227 -4.505613 31.245228 43.807508 0.147268 0.776688 0.029301 -0.009386 26157.900000 0 0 1
-30.149537 -5.509813 30.251518 43.063987 0.180755 0.791923 0.020240 -0.005428 -317012.000000 0 0 1
-28.802357 -5.530413 29.844428 41.843173 0.189704 0.776679 0.024552 -0.005368 22857.800000 0 0 1
-28.428997 -6.559613 28.719898 40.939821 0.226768 0.793275 0.022304 -0.004090 -131252.000000 0 0 1
-29.014487 -6.299713 27.489108 40.462055 0.213804 0.823879 0.015455 -0.007755 -397175.000000 0 0 1
-28.502427 -7.030113 26.389968 39.474565 0.241823 0.838565 0.040877 -0.010601 -277348.000000 0 0 1
-29.105217 -6.748113 25.005598 38.960629 0.227827 0.873931 0.019983 -0.003454 -258235.000000 0 0 1
-28.734297 -5.522113 24.418168 38.110373 0.189864 0.875358 0.024377 -0.006304 -553093.000000 0 0 1
-29.554477 -5.212313 23.353258 38.026438 0.174568 0.909510 0.026427 -0.005294 -398824.000000 0 0 1
-29.167587 -3.999513 22.577358 37.100961 0.136272 0.916579 0.021947 -0.003516 1191910.000000 0 0 1
-27.846487 -4.111313 21.981858 35.714588 0.146583 0.907793 0.022461 -0.000190 927346.000000 0 0 1
-27.407537 -2.883213 21.451358 34.923442 0.104812 0.909374 0.022848 0.003771 -380907.000000 0 0 1
-25.987357 -2.946413 20.899658 33.478647 0.112897 0.896602 0.020928 0.012690 -610401.000000 0 0 1
-25.893337 -3.780113 19.788358 32.807519 0.144964 0.923333 0.025739 0.005135 92849.800000 0 0 1
-24.798007 -3.402613 18.959958 31.400620 0.136362 0.922526 0.034299 0.002829 68531.300000 0 0 1
-24.544307 -4.168213 17.687458 30.539207 0.168219 0.953084 0.033699 0.004239 115977.000000 0 0 1
-25.447887 -3.763513 16.661058 30.648815 0.146827 0.996062 0.026513 0.006964 633110.000000 0 0 1
-24.929707 -4.273013 15.454058 29.640797 0.169753 1.022331 0.034622 -0.005455 179368.000000 0 0 1
-26.035797 -4.405713 14.375758 30.065519 0.167630 1.072252 0.042515 -0.016551 -60193.900000 0 0 1
-26.460227 -3.169813 13.953358 30.081349 0.119227 1.088456 0.043749 -0.018091 561408.000000 0 0 1
-27.734817 -3.258013 13.297558 30.929917 0.116934 1.126386 0.047292 -0.025947 494098.000000 0 0 1
-28.199397 -1.957913 12.615258 30.954550 0.069320 1.151036 0.050134 -0.015041 -425180.000000 0 0 1
-27.501147 -1.661913 11.428058 29.827430 0.060357 1.177604 0.049244 -0.014193 11216.800000 0 0 1
-27.976787 -0.512213 10.829158 30.003894 0.018306 1.201537 0.049416 -0.007843 243951.000000 0 0 1
-29.287657 -0.714113 9.982358 30.950352 0.024378 1.242397 0.047460 -0.003803 471213.000000 0 0 1
-29.187157 -1.273213 8.685158 30.478569 0.043595 1.281832 0.039483 0.000998 -317036.000000 0 0 1
-30.480427 -1.430413 8.164158 31.587276 0.046894 1.309365 0.048616 -0.002674 -306045.000000 0 0 1
-30.610817 -2.259013 6.868258 31.453112 0.073664 1.350658 0.044488 -0.000934 -415060.000000 0 0 1
-30.097757 -1.708513 5.653558 30.671758 0.056705 1.385412 0.048295 0.002654 440568.000000 0 0 1
-30.819597 -0.598913 5.143158 31.251534 0.019430 1.405471 0.041870 0.009562 -261419.000000 0 0 1
-30.301177 -0.051213 3.819558 30.541005 0.001690 1.445405 0.029320 0.005483 -201192.000000 0 0 1
-30.532517 -0.877013 2.685158 30.662907 0.028716 1.483114 0.022444 0.001394 455769.000000 0 0 1
-29.922617 -0.299113 1.534358 29.963424 0.009996 1.519566 0.010582 -0.004956 -123050.000000 0 0 1
-30.431307 -0.824513 0.181358 30.443015 0.027088 1.564839 0.005890 -0.005071 -894221.000000 0 0 1
-31.693537 -0.418013 -0.205742 31.696962 0.013188 1.577287 0.020897 -0.005985 -532526.000000 0 0 1
-32.215047 -1.165913 -1.287042 32.261821 0.036176 1.610701 0.028504 -0.006830 -553926.000000 0 0 1
-33.711097 -0.918513 -1.414942 33.753278 0.027240 1.612729 0.035120 -0.012609 -232096.000000 0 0 1
-34.535157 -1.495613 -0.363242 34.569436 0.043280 1.581304 0.034029 -0.010470 130105.000000 0 0 1
34.598955 -1.336113 -0.575142 34.629521 -0.038598 1.587406 0.046874 -0.017915 -569419.000000 0 0 1
33.763886 -2.607213 -0.234142 33.865209 -0.077066 1.577710 0.051174 -0.020626 -284602.000000 0 0 1
33.806056 -2.948013 1.140658 33.953517 -0.086984 1.537195 0.042274 -0.018678 149539.000000 0 0 1
32.823966 -3.881413 1.499158 33.086638 -0.117703 1.525471 0.048498 -0.015924 -548809.000000 0 0 1
32.970226 -4.321413 3.009158 33.388104 -0.130327 1.480547 0.053489 -0.004735 -89239.400000 0 0 1
32.602276 -3.319413 3.951958 33.008255 -0.101466 1.450782 0.033384 -0.005609 265555.000000 0 0 1
32.440666 -4.005913 5.146458 33.089729 -0.122862 1.414632 0.025033 -0.000121 -298974.000000 0 0 1
32.127676 -2.994013 6.296158 32.875421 -0.092923 1.378090 0.010089 0.001985 -105191.000000 0 0 1
30.771966 -2.609213 6.206458 31.499873 -0.084590 1.372467 0.013780 -0.000100 -7436.920000 0 0 1
30.549716 -1.670213 7.258058 31.444462 -0.054618 1.337874 0.006200 0.008484 -612647.000000 0 0 1
29.158476 -1.660813 7.851958 30.242822 -0.056897 1.308157 0.012789 0.001447 -1429680.000000 0 0 1
28.156006 -1.002113 7.109558 29.057026 -0.035576 1.323611 0.017877 -0.000699 1391470.000000 0 0 1
26.803776 -1.100113 7.625058 27.888962 -0.041020 1.293862 0.016738 0.003861 1291630.000000 0 0 1
26.121896 -2.460813 7.535858 27.298319 -0.093928 1.291108 0.041780 -0.007688 -1178630.000000 0 0 1
26.633836 -3.330813 8.468058 28.145400 -0.124414 1.265193 0.023525 -0.012645 189035.000000 0 0 1
25.917696 -4.491313 8.305458 27.584044 -0.171587 1.264954 0.042497 -0.021493 -621464.000000 0 0 1
26.159416 -5.571513 9.418558 28.356058 -0.209848 1.232211 0.026188 -0.012339 -511306.000000 0 0 1
25.481926 -5.371013 10.640058 28.131605 -0.207737 1.182919 0.027364 -0.008183 630879.000000 0 0 1
25.969656 -6.290513 11.609058 29.133552 -0.237648 1.160940 0.017771 -0.003496 -170592.000000 0 0 1
25.042036 -6.337513 12.842158 28.847680 -0.247871 1.109431 0.023303 -0.010116 599155.000000 0 0 1
23.855236 -7.055413 12.507258 27.843898 -0.287562 1.104936 0.038941 -0.017039 -152294.000000 0 0 1
22.693636 -6.673213 13.191558 27.084130 -0.285995 1.062078 0.046823 -0.019481 -144489.000000 0 0 1
21.668336 -7.799313 12.992458 26.441445 -0.345503 1.057138 0.057769 -0.021944 -355499.000000 0 0 1
21.956436 -8.890213 13.844558 27.437069 -0.384725 1.041886 0.050525 -0.023236 452559.000000 0 0 1
21.095236 -10.007813 13.572358 27.006929 -0.442968 1.044249 0.071683 -0.037401 -100783.000000 0 0 1
21.477936 -11.209113 14.425258 28.196348 -0.481006 1.033750 0.068955 -0.039455 -294842.000000 0 0 1
21.325836 -11.058613 15.834158 28.771597 -0.478381 0.988025 0.056344 -0.035792 215014.000000 0 0 1
21.816736 -12.150513 16.560158 29.964041 -0.508152 0.985234 0.055404 -0.038487 -260452.000000 0 0 1
21.495536 -12.046513 18.067458 30.555026 -0.510807 0.938115 0.062524 -0.031812 25653.500000 0 0 1
20.136736 -12.133113 18.448458 29.883878 -0.542282 0.905442 0.056306 -0.021683 -132408.000000 0 0 1
19.834836 -12.480513 19.773858 30.662508 -0.561630 0.869921 0.059913 -0.014276 174284.000000 0 0 1
20.116036 -11.430213 20.924258 31.195020 -0.516719 0.835568 0.040679 -0.012209 133023.000000 0 0 1
19.209636 -10.330813 20.939958 30.236032 -0.493423 0.805779 0.038346 -0.017112 36973.500000 0 0 1
19.526236 -9.285513 20.020858 29.467430 -0.443889 0.823820 0.050809 -0.011665 -997538.000000 0 0 1
20.507236 -8.213013 20.568058 30.183527 -0.380932 0.821077 0.044367 0.004031 347868.000000 0 0 1
21.826636 -8.637413 20.855458 31.399953 -0.376818 0.844390 0.045811 0.002380 367449.000000 0 0 1
22.575936 -8.736013 19.608858 31.152819 -0.369216 0.889963 0.043262 -0.003360 -358201.000000 0 0 1
24.028836 -9.262213 19.722558 32.436906 -0.367911 0.917222 0.036585 -0.006579 262631.000000 0 0 1
24.129936 -10.649813 20.133558 33.181810 -0.415640 0.918812 0.030902 -0.014032 391255.000000 0 0 1
25.480696 -11.105113 20.230758 34.378380 -0.411003 0.941627 0.020642 -0.014296 699336.000000 0 0 1
25.512166 -12.627413 20.376658 35.007576 -0.459605 0.949531 -0.003947 -0.014107 114859.000000 0 0 1
24.740536 -13.267113 19.348058 34.094835 -0.492225 0.967357 0.034980 -0.018969 308497.000000 0 0 1
24.386936 -14.589913 19.721458 34.590810 -0.539145 0.964125 0.023205 -0.019806 -189063.000000 0 0 1
23.220236 -15.097113 18.848258 33.501627 -0.576495 0.973260 0.048861 -0.030980 -410499.000000 0 0 1
23.557936 -15.291613 17.532858 33.109076 -0.575747 1.012728 0.041404 -0.036288 -121418.000000 0 0 1
22.580036 -15.915513 16.746558 32.304934 -0.613973 1.025829 0.016691 -0.034333 -341901.000000 0 0 1
22.434136 -17.459713 16.847558 33.045003 -0.661347 1.035801 0.019171 -0.038722 123755.000000 0 0 1
23.635036 -18.081213 16.391758 33.974033 -0.653043 1.067314 0.021989 -0.031237 544171.000000 0 0 1
23.599836 -19.440713 16.696558 34.837747 -0.689065 1.070978 0.020951 -0.025465 41363.500000 0 0 1
24.899436 -20.171613 16.298458 35.951573 -0.680883 1.100282 0.012823 -0.014908 -53094.900000 0 0 1
24.990936 -20.363313 14.929358 35.526006 -0.683717 1.137089 0.013977 -0.027254 727879.000000 0 0 1
26.073186 -21.255813 14.564258 36.657035 -0.683963 1.162211 -0.002436 -0.016210 581631.000000 0 0 1
26.276806 -21.358913 13.033458 36.284222 -0.682523 1.203381 -0.004256 -0.023988 -392149.000000 0 0 1
25.202936 -21.995613 12.388358 35.671647 -0.717549 1.216118 -0.011365 -0.015524 -70743.900000 0 0 1
25.148536 -21.442813 11.093458 34.861267 -0.706029 1.246948 -0.000231 -0.007328 -777882.000000 0 0 1
23.813236 -21.559313 10.400958 33.764688 -0.735763 1.257662 -0.005202 -0.018448 -748229.000000 0 0 1
23.497336 -22.911913 10.072858 34.329915 -0.772784 1.273001 -0.007197 -0.015313 -26321.600000 0 0 1
22.126936 -23.049213 9.746958 33.404651 -0.805810 1.274704 -0.015651 -0.008897 160979.000000 0 0 1
21.795536 -24.218213 8.767958 33.740841 -0.838001 1.307917 -0.007907 -0.004067 -540396.000000 0 0 1
21.857436 -25.511333 9.279358 34.852290 -0.862383 1.301298 -0.012111 -0.004657 95087.800000 0 0 1
21.425536 -26.485583 8.303858 35.064138 -0.890621 1.331706 -0.005104 -0.004009 619860.000000 0 0 1
19.890036 -26.609623 8.084458 34.191286 -0.928913 1.332088 0.000308 0.007035 526841.000000 0 0 1
19.186336 -25.513793 7.491858 32.790198 -0.926017 1.340282 -0.001410 0.007732 247298.000000 0 0 1
17.784836 -25.778253 7.432758 32.187958 -0.966870 1.337776 -0.001721 -0.010474 678446.000000 0 0 1
16.910336 -24.526013 7.183758 30.644594 -0.967162 1.334173 0.006480 -0.009357 -243327.000000 0 0 1
16.835936 -24.018913 5.875258 29.914471 -0.959436 1.373109 0.005143 -0.013208 94488.100000 0 0 1
16.062536 -22.834613 5.977158 28.550850 -0.957773 1.359885 0.018945 -0.007124 -492769.000000 0 0 1
15.486936 -22.194313 4.708158 27.469974 -0.961556 1.398553 0.011966 -0.001185 -320622.000000 0 0 1
15.043436 -20.898213 5.012158 26.232842 -0.946877 1.378550 0.042101 -0.003645 -104506.000000 0 0 1
14.557036 -20.379613 3.795358 25.330627 -0.950541 1.420397 0.027054 0.002125 48008.900000 0 0 1
14.036636 -18.944813 4.044658 23.922633 -0.933130 1.400908 0.038538 0.005137 134864.000000 0 1 0
15.066936 -18.021813 4.246158 23.871074 -0.874463 1.391966 0.033071 0.005805 276781.000000 0 1 0
14.432636 -16.735113 4.233758 22.500882 -0.859138 1.381508 0.020356 0.006162 1020870.000000 0 1 0
15.485136 -15.550113 4.370858 22.376324 -0.787492 1.374198 0.016993 0.003617 -112329.000000 0 1 0
16.087136 -15.663413 5.599858 23.140805 -0.772054 1.326379 0.035060 0.003508 -471916.000000 0 1 0
17.057236 -14.668613 5.735158 23.216579 -0.710250 1.321184 0.028331 -0.002016 -238523.000000 0 1 0
18.513036 -15.024213 5.432558 24.453470 -0.681743 1.346768 0.035943 -0.005616 -545511.000000 0 1 0
19.457236 -13.984613 5.425758 24.568115 -0.623190 1.348115 0.045368 -0.011767 -171627.000000 0 1 0
20.774936 -14.469913 5.332358 25.872967 -0.608379 1.363211 0.045107 -0.009228 104172.000000 0 0 1
21.794836 -13.285013 5.479058 26.106063 -0.547411 1.359347 0.049364 -0.014772 -33568.700000 0 0 1
21.764636 -12.622313 6.721958 26.042406 -0.525543 1.309725 0.068796 -0.025544 577072.000000 0 0 1
22.889036 -11.757913 6.916658 26.645762 -0.474541 1.308211 0.072520 -0.019689 442111.000000 0 0 1
22.954836 -11.167713 8.331358 26.852446 -0.452796 1.255325 0.071740 -0.017656 -197632.000000 0 0 1
23.442236 -12.064713 9.269458 27.946710 -0.475304 1.232709 0.061261 -0.021088 165108.000000 0 0 1
23.351036 -11.445913 10.529758 28.056294 -0.455751 1.186067 0.072335 -0.024437 40068.900000 0 0 1
23.748736 -12.258913 11.776558 29.205663 -0.476517 1.155754 0.051360 -0.017244 455542.000000 0 0 1
22.686336 -13.176013 12.132158 28.904436 -0.526175 1.137645 0.050337 -0.020116 1146960.000000 0 0 1
23.130036 -14.268613 12.976158 30.115985 -0.552744 1.125337 0.044455 -0.025683 -21758.200000 0 0 1
22.033136 -15.348313 12.965758 29.818462 -0.608441 1.120954 0.036084 -0.031413 169784.000000 0 0 1
20.851736 -14.945513 13.629158 29.050253 -0.621880 1.082459 0.037663 -0.036165 -262600.000000 0 0 1
19.960336 -16.040413 13.698358 29.040573 -0.676941 1.079582 0.021885 -0.038337 -204619.000000 0 0 1
18.556236 -15.747513 14.244558 28.199743 -0.703702 1.041263 0.035068 -0.040517 -462939.000000 0 0 1
18.666136 -15.300713 15.623158 28.750992 -0.686641 0.996320 0.033995 -0.039962 268258.000000 0 0 1
18.460736 -13.876613 15.831258 27.999784 -0.644577 0.969870 0.038832 -0.032667 1397030.000000 0 0 1
16.931536 -13.383813 15.816058 26.757262 -0.668901 0.938382 0.045433 -0.033057 1338760.000000 0 0 1
16.348036 -13.618113 14.497458 25.746603 -0.694549 0.972685 0.046470 -0.036551 326166.000000 0 0 1
14.940836 -13.444113 14.603558 24.844248 -0.732717 0.942454 0.070797 -0.033349 220830.000000 0 1 0
14.357836 -12.068513 14.297258 23.584063 -0.698984 0.919491 0.055392 -0.023688 -526950.000000 0 1 0
14.788036 -11.081313 15.191758 23.922187 -0.643081 0.882725 0.039149 -0.013955 197334.000000 0 1 0
14.462936 -9.718913 14.759458 22.835836 -0.591677 0.868033 0.036479 -0.012438 -1010950.000000 0 1 0
14.789736 -8.576813 15.763458 23.254776 -0.525521 0.825950 0.033877 -0.011806 1500520.000000 0 1 0
16.233536 -8.419813 15.824258 24.183219 -0.478470 0.857475 0.034660 -0.019833 1704500.000000 0 1 0
16.994336 -9.409013 16.546358 25.517033 -0.505646 0.865258 0.044355 -0.017200 -825451.000000 0 0 1
18.486136 -9.119313 16.410558 26.347780 -0.458278 0.898424 0.052906 -0.026409 -576327.000000 0 0 1
18.934736 -7.914313 16.924158 26.600521 -0.395908 0.881189 0.047190 -0.020477 81463.700000 0 0 1
20.277036 -7.656213 16.559758 27.276389 -0.361031 0.918378 0.047324 -0.016445 192165.000000 0 0 1
20.871636 -6.263213 16.996658 27.635836 -0.291532 0.908382 0.044404 -0.007023 -59660.100000 0 0 1
21.196836 -6.186613 18.377458 28.728227 -0.283977 0.876688 0.048405 -0.008917 662826.000000 0 0 1
21.979636 -5.001313 18.686858 29.279962 -0.223734 0.878621 0.041947 -0.008615 455687.000000 0 0 1
-5.446907 -33.011777 -5.893005 33.973132 1.407271 1.745139 -0.014667 0.001568 -443749.000000 0 0 1
-6.075207 -31.796177 -6.038205 32.929697 1.382005 1.755206 -0.013525 -0.002993 -147505.000000 0 0 1
-5.481707 -30.803377 -5.268905 31.727882 1.394682 1.737635 -0.003384 -0.003875 -744610.000000 0 0 1
-6.253807 -29.515877 -5.583105 30.683353 1.362005 1.753774 0.001704 -0.003943 1356910.000000 0 0 1
-7.603907 -29.517377 -5.060805 30.898328 1.318670 1.735327 -0.004155 -0.000705 1406750.000000 0 0 1
-8.585407 -29.990877 -6.002805 31.767839 1.291985 1.760898 -0.006873 0.001988 154945.000000 0 0 1
-10.057007 -29.858177 -5.518105 31.985991 1.245906 1.744180 0.011443 0.011240 307371.000000 0 0 1
-10.892307 -30.531577 -6.418105 33.045599 1.228116 1.766258 0.007251 0.005716 -756351.000000 0 0 1
-12.254907 -30.346677 -6.143605 33.299361 1.186992 1.756356 0.007038 0.010383 275099.000000 0 0 1
-13.185207 -31.102677 -7.168305 34.534198 1.169836 1.779888 0.019428 0.002988 454868.000000 0 0 1
-13.103707 -30.502577 -8.417505 34.248631 1.165041 1.819117 0.037755 0.004029 45274.600000 0 0 1
-14.115007 -30.990177 -9.279505 35.294953 1.143405 1.836837 0.033257 0.001530 123301.000000 0 0 1
-14.274607 -30.179877 -10.631805 35.037475 1.128994 1.879098 0.049859 0.007238 -300810.000000 0 0 1
-14.737407 -28.874677 -10.427805 34.054034 1.098870 1.882009 0.048970 -0.001326 29719.800000 0 0 1
-13.709707 -27.928977 -10.187205 32.737791 1.114473 1.887226 0.049411 -0.001379 -78322.100000 0 0 1
-14.138007 -26.479777 -9.724905 31.553694 1.080385 1.884099 0.038987 0.013529 -165396.000000 0 0 1
-14.539507 -25.639077 -10.743705 31.371751 1.054932 1.920335 0.053724 -0.001708 30313.500000 0 0 1
-14.900507 -24.412277 -10.201505 30.365360 1.022787 1.913419 0.048391 0.009049 -281743.000000 0 0 1
-15.530907 -23.468577 -11.244105 30.305331 0.986188 1.950911 0.039792 -0.000242 404538.000000 0 0 1
-16.903807 -23.786977 -11.487505 31.361150 0.952970 1.945823 0.039927 0.001608 193484.000000 0 0 1
-17.461707 -22.939177 -12.434005 31.396203 0.920154 1.977991 0.045448 0.002085 27671.600000 0 0 1
-18.935307 -23.339877 -12.717505 32.634807 0.889212 1.971093 0.036090 0.006847 138859.000000 0 0 1
-19.232807 -24.623177 -13.294005 33.954857 0.907695 1.973079 0.056023 0.004968 -131687.000000 0 0 1
-19.116707 -25.718077 -12.464005 34.383418 0.931585 1.941746 0.066927 0.000571 -1223370.000000 0 0 1
-19.406407 -27.095077 -13.142105 35.825504 0.949258 1.946403 0.057862 0.003104 -236415.000000 0 0 1
-18.496507 -27.733177 -13.993505 36.153396 0.982601 1.968236 0.068272 -0.003564 -238428.000000 0 0 1
-17.166407 -27.741677 -13.512305 35.311026 1.016672 1.963476 0.072210 -0.008304 -323200.000000 0 0 1
-16.358707 -28.979177 -13.967605 36.090082 1.056890 1.968195 0.056742 -0.009909 -122603.000000 0 0 1
-16.262207 -29.182777 -15.360105 36.769916 1.062401 2.001748 0.056341 -0.016037 -52581.300000 0 0 1
-15.599007 -30.394177 -15.745405 37.617188 1.096626 2.002666 0.071461 -0.019413 58687.500000 0 0 1
-16.384607 -31.732677 -15.554405 38.953275 1.094168 1.981560 0.055080 -0.019870 -110294.000000 0 0 1
-16.365807 -32.163977 -14.201005 38.781821 1.100114 1.945694 0.063727 -0.016458 138965.000000 0 0 1
-16.853107 -33.499177 -14.096305 40.061551 1.104680 1.930360 0.023242 -0.006683 -1311600.000000 0 0 1
-17.216307 -33.822977 -12.603905 39.990667 1.099965 1.891433 0.037349 -0.012741 611140.000000 0 0 1
-18.540507 -33.447977 -12.193605 40.139776 1.064651 1.879453 0.034487 -0.006656 825795.000000 0 0 1
-19.020507 -32.103077 -12.182705 39.253096 1.035923 1.886371 0.046423 -0.007643 -153023.000000 0 0 1
-18.173907 -31.091777 -11.361205 37.763295 1.041834 1.876383 0.056501 -0.002848 -153571.000000 0 0 1
-18.294507 -31.300277 -9.977405 37.602459 1.041864 1.839352 0.041234 -0.001624 74027.200000 0 0 1
-17.931707 -30.187877 -9.229505 36.304790 1.034798 1.827840 0.039762 0.011749 -256301.000000 0 0 1
-18.255507 -30.391277 -7.735505 36.286792 1.029875 1.785622 0.050567 0.005131 420449.000000 0 0 1
-17.410007 -31.341377 -7.056205 36.540119 1.063743 1.765126 0.036699 -0.002434 343159.000000 0 0 1
-17.959507 -31.604277 -5.812205 36.812443 1.054041 1.729347 0.042823 -0.014442 -282071.000000 0 0 1
-17.236807 -32.756577 -5.071405 37.360675 1.086402 1.706958 0.034151 -0.010879 911838.000000 0 0 1
-15.879807 -32.453277 -4.707505 36.435478 1.115735 1.700360 0.014377 -0.001644 822680.000000 0 0 1
-15.772007 -31.722577 -3.469205 35.596538 1.109403 1.668410 0.012555 -0.004823 -952862.000000 0 0 1
-14.439907 -31.118177 -3.091305 34.444274 1.136333 1.660665 0.012468 -0.007693 -695210.000000 0 0 1
-13.344507 -31.988477 -2.945405 34.785255 1.175580 1.655572 0.004005 0.001448 168691.000000 0 0 1
-12.193107 -31.243577 -2.505805 33.632009 1.198715 1.645372 0.000692 -0.000220 515681.000000 0 0 1
-10.882507 -32.023277 -2.681605 33.928016 1.243209 1.649917 -0.001583 -0.002873 -744850.000000 0 0 1
-10.781707 -33.298177 -2.036005 35.059366 1.257657 1.628902 0.001256 -0.001240 -163937.000000 0 0 1
-9.470807 -33.817677 -2.098505 35.181461 1.297737 1.630480 0.013193 0.000372 84491.500000 0 0 1
-8.442007 -33.238577 -1.132705 34.312585 1.322073 1.603814 0.013891 -0.003027 -633313.000000 0 0 1
-8.786207 -33.416477 0.256595 34.553209 1.313685 1.563370 0.017965 -0.008667 -147420.000000 0 0 1
-7.757607 -32.954077 1.081295 33.872125 1.339599 1.538868 0.019949 -0.015883 169207.000000 0 0 1
-6.908607 -34.010977 1.855695 34.755129 1.370394 1.517378 0.023386 -0.012651 555161.000000 0 0 1
-7.645707 34.420687 2.939995 35.381974 -1.352220 1.487607 0.028765 -0.019116 998668.000000 0 0 1
-6.875307 33.352787 3.589795 34.242735 -1.367505 1.465770 0.029267 -0.015950 95914.200000 0 0 1
-6.069607 33.799687 4.812195 34.675873 -1.393114 1.431571 0.033442 -0.019133 -408447.000000 0 0 1
-5.012707 -34.452477 4.455895 35.099222 1.426314 1.443501 0.034904 -0.017432 -661034.000000 0 0 1
-4.339507 -34.066477 5.635095 34.801013 1.444095 1.408157 0.024402 -0.020815 393245.000000 0 0 1
-3.153607 -33.066877 5.379495 33.649704 1.475713 1.410240 0.035540 -0.018482 431381.000000 0 0 1
-3.483407 -31.857377 4.711095 32.391681 1.461885 1.424837 0.024772 -0.017403 -80185.800000 0 0 1
-3.435007 -31.984477 3.294495 32.336663 1.463810 1.468738 0.026952 -0.017265 -130930.000000 0 0 1
-4.060907 -30.815077 2.539695 31.185093 1.439768 1.489267 0.009757 -0.012818 -218185.000000 0 0 1
-3.268107 -29.720077 2.783795 30.028537 1.461273 1.477958 0.009696 -0.010721 -316523.000000 0 0 1
-3.738207 -28.602677 2.083795 28.921091 1.440839 1.498683 0.008613 -0.010485 92833.000000 0 0 1
-3.096607 -27.278677 2.489295 27.566498 1.457763 1.480372 0.016651 -0.010429 -268131.000000 0 0 1
-3.556807 -26.206377 1.722295 26.502667 1.435898 1.505765 0.020935 -0.013191 -334004.000000 0 0 1
-3.169107 -24.938577 2.188595 25.234219 1.444397 1.483956 0.013419 -0.008065 -14548.500000 0 0 1
-4.108707 -24.388377 3.304095 24.951783 1.403894 1.437987 0.004968 -0.008256 -55012.800000 0 1 0
-4.052807 -25.116677 4.580195 25.850549 1.410816 1.392676 0.007388 -0.010666 -131032.000000 0 0 1
-4.822307 -24.475977 5.558795 25.558331 1.376266 1.351550 -0.004463 -0.005116 -277306.000000 0 0 1
-5.404907 -25.461677 6.574395 26.846465 1.361625 1.323391 -0.004296 -0.008159 -386621.000000 0 0 1
-4.527207 -25.963677 7.541495 27.413177 1.398165 1.292098 -0.006927 -0.010128 44559.800000 0 0 1
-5.221507 -27.001177 8.287295 28.722934 1.379773 1.278110 -0.011616 -0.004665 435122.000000 0 0 1
-4.444607 -27.382877 9.564395 29.343724 1.409886 1.238787 -0.006252 0.001579 135458.000000 0 0 1
-4.135007 -26.356977 10.495595 28.669601 1.415180 1.195995 -0.006833 -0.001944 499089.000000 0 0 1
-5.316707 -25.901877 11.175595 28.706594 1.368345 1.170920 -0.004620 -0.000894 648909.000000 0 0 1
-5.067807 -24.898677 12.301495 28.230366 1.370002 1.119920 -0.002731 0.004414 336762.000000 0 0 1
-4.422807 -25.590177 13.396795 29.221439 1.399655 1.094537 0.007927 0.009267 110907.000000 0 0 1
-3.554907 -24.700577 14.086395 28.656280 1.427858 1.056912 -0.011376 0.010083 37105.900000 0 0 1
-2.471207 -25.297477 14.987695 29.507630 1.473419 1.038021 -0.007980 0.007683 -14118.000000 0 0 1
-2.975807 -25.877477 16.172995 30.660480 1.456303 1.015157 -0.015750 0.013457 276077.000000 0 0 1
-1.915707 -26.275077 17.077095 31.395490 1.498015 0.995677 -0.022324 0.013173 475758.000000 0 0 1
-2.318307 -26.941077 18.401695 32.708081 1.484957 0.973264 -0.016295 0.004906 -193036.000000 0 0 1
-2.776807 -26.012377 19.335995 32.530526 1.464450 0.934283 -0.012406 0.007899 -323756.000000 0 0 1
-2.710907 -26.409777 20.683795 33.654788 1.468507 0.908934 0.001901 -0.000999 100364.000000 0 0 1
-3.153607 -25.357477 21.761595 33.563580 1.447066 0.865356 0.006983 0.000448 -110980.000000 0 0 1
-2.840607 -25.657977 23.089295 34.634035 1.460535 0.841071 0.016909 -0.006691 -109117.000000 0 0 1
-2.840607 -24.608977 23.973395 34.473098 1.455875 0.801788 0.012028 -0.011104 4404.860000 0 0 1
-1.866507 -23.392877 23.877295 33.478885 1.491175 0.776737 0.010697 -0.003857 67847.200000 0 0 1
-2.132907 -22.544377 22.791495 32.128655 1.476468 0.782175 0.011585 -0.002339 -296665.000000 0 0 1
-1.164507 -21.518477 22.751795 31.337599 1.516732 0.758277 0.009996 -0.008268 -308758.000000 0 0 1
-1.596307 -20.184777 22.031895 29.922865 1.491876 0.743226 0.010162 -0.008856 -558568.000000 0 0 1
-2.492407 -19.337477 22.718795 29.938166 1.442613 0.709240 0.017254 -0.014481 291321.000000 0 0 1
-3.859707 -19.753377 22.744395 30.371051 1.377833 0.724420 0.008891 -0.012559 156729.000000 0 0 1
-4.683907 -19.625877 21.451395 29.449557 1.336519 0.754796 -0.002290 -0.006252 -559792.000000 0 0 1
-4.221007 -20.535077 20.458895 29.292878 1.368069 0.797601 -0.009466 0.002123 -72558.600000 0 0 1
-5.008507 -21.701577 20.539195 30.296900 1.343978 0.825852 -0.001270 -0.000778 92929.600000 0 0 1
-4.880407 -22.555377 19.252395 30.053588 1.357707 0.875514 -0.013257 0.007962 275279.000000 0 0 1
-5.683507 -23.733777 19.195995 31.049648 1.335753 0.904301 -0.010074 -0.000803 -262818.000000 0 0 1
-5.574207 -24.415577 17.933595 30.802695 1.346338 0.949354 -0.008577 0.003392 -71669.000000 0 0 1
-6.085307 -25.856477 17.831795 31.993144 1.339653 0.979590 -0.005376 -0.007723 742336.000000 0 0 1
-7.495307 -25.795277 18.061995 32.369918 1.288014 0.978838 0.011800 -0.011008 -65884.500000 0 0 1
-8.148507 -27.051177 17.905695 33.448143 1.278216 1.005901 0.020494 -0.015107 -238211.000000 0 0 1
-9.597607 -27.002077 18.366095 34.037328 1.229284 1.000850 0.020566 -0.017895 -623879.000000 0 0 1
-10.466007 -26.519777 17.307995 33.352700 1.194911 1.025188 0.031099 -0.011720 246877.000000 0 0 1
-11.839407 -26.497777 17.625295 33.955188 1.150600 1.025028 0.037738 -0.012236 250779.000000 0 0 1
-12.339007 -25.476377 18.648795 33.898001 1.119762 0.988259 0.038035 -0.020012 -971543.000000 0 0 1
-12.261607 -24.162077 18.106495 32.588313 1.101188 0.981696 0.037901 -0.020034 -126062.000000 0 0 1
-12.343007 -23.133177 19.078195 32.426397 1.080660 0.941775 0.029080 -0.013675 191414.000000 0 0 1
-10.982707 -22.768977 19.742295 32.074981 1.121365 0.907770 0.027296 -0.017513 270857.000000 0 0 1
-10.435607 -23.782577 20.587995 33.141793 1.157302 0.900511 0.025181 -0.017436 -109924.000000 0 0 1
-9.040007 -23.669277 20.412295 32.536413 1.205964 0.892628 0.017678 -0.020997 -118403.000000 0 0 1
-8.076307 -24.475177 21.255295 33.407314 1.252067 0.881173 0.012178 -0.017150 -131345.000000 0 0 1
-8.042707 -24.036677 22.601795 33.960096 1.247905 0.842580 0.016077 -0.018312 43528.300000 0 0 1
-6.927207 -24.601977 23.266095 34.562330 1.296331 0.832318 0.011187 -0.015913 328157.000000 0 0 1
-7.127407 -24.273777 24.753695 35.394373 1.285198 0.796283 0.010082 -0.011838 336929.000000 0 0 1
-6.245707 -25.054177 25.566695 36.336986 1.326488 0.790346 0.018832 -0.011689 68903.000000 0 0 1
-6.312207 -24.655577 26.916595 37.043819 1.320164 0.757414 0.028046 -0.009153 77085.300000 0 0 1
-5.015907 -25.059177 27.660995 37.659691 1.373245 0.745869 0.039908 -0.008974 1469150.000000 0 0 1
-3.827507 -24.309077 27.216695 36.692363 1.414627 0.735115 0.037947 -0.012134 792471.000000 0 0 1
-2.714707 -24.724977 27.970395 37.430431 1.461438 0.726862 0.041035 -0.010115 -279425.000000 0 0 1
-1.414407 -24.064177 27.513595 36.579818 1.512087 0.719474 0.025047 -0.005260 -1100600.000000 0 0 1
-1.512107 -22.691377 27.645895 35.797773 1.504257 0.688374 0.024361 -0.008966 269811.000000 0 0 1
-0.419907 -22.029977 26.994295 34.845203 1.551738 0.684569 0.026258 -0.018793 397293.000000 0 0 1
0.777093 -21.745877 27.911595 35.391301 -1.535076 0.662175 0.022861 -0.010975 -607634.000000 0 0 1
1.308593 -22.885277 28.481195 36.559907 -1.513678 0.677682 0.020632 -0.005478 -109027.000000 0 0 1
2.325993 -22.518977 29.404495 37.109822 -1.467871 0.656122 0.022546 -0.009831 204501.000000 0 0 1
2.904793 -23.665577 30.228795 38.500356 -1.448664 0.667848 0.017975 -0.006322 -876242.000000 0 0 1
3.356193 -24.713677 29.384595 38.541981 -1.435819 0.703775 0.004794 -0.006075 -19666.600000 0 0 1
4.030693 -25.741077 30.037395 39.762981 -1.415472 0.714515 -0.016834 0.002718 -386302.000000 0 0 1
5.436693 -25.359877 30.610095 40.120555 -1.359611 0.702928 -0.031121 0.001583 195894.000000 0 0 1
6.412093 -24.790877 29.729295 39.236890 -1.317696 0.711034 -0.042590 0.010026 444407.000000 0 0 1
6.785593 -25.711377 28.686095 39.115358 -1.312766 0.747528 -0.043673 0.014494 -609192.000000 0 0 1
7.999593 -25.347977 27.791695 38.456362 -1.265098 0.763122 -0.037067 0.014008 466100.000000 0 0 1
7.646293 -24.258777 26.910995 37.029120 -1.265456 0.757214 -0.026111 0.016821 128924.000000 0 0 1
8.797193 -23.899277 26.171295 36.517157 -1.218093 0.771759 -0.027435 0.011121 163424.000000 0 0 1
8.634193 -22.687877 25.211395 34.998621 -1.207156 0.766484 -0.006493 0.003573 298662.000000 0 0 1
7.652993 -22.987377 24.215595 34.254676 -1.249416 0.785651 -0.002912 0.002471 171822.000000 0 0 1
7.387493 -21.773677 23.530995 32.899480 -1.243698 0.773830 0.002421 0.012232 132911.000000 0 0 1
6.666893 -22.041377 22.181595 31.973316 -1.277073 0.804109 0.027557 0.008645 -482245.000000 0 0 1
7.409093 -22.850577 21.370295 32.151719 -1.257251 0.843744 0.025164 0.006647 -529212.000000 0 0 1
6.807393 -23.106477 20.110295 31.379513 -1.284292 0.875161 0.035462 -0.003598 96644.300000 0 0 1
7.586893 -24.025377 19.104195 31.618823 -1.264920 0.922031 0.037858 -0.013028 1313960.000000 0 0 1
8.841493 -23.418977 18.679895 31.233939 -1.209805 0.929713 0.040735 -0.017361 782031.000000 0 0 1
9.676293 -24.434777 18.119795 31.922029 -1.193739 0.967176 0.051365 -0.020751 -242669.000000 0 0 1
11.008393 -23.957477 17.609595 31.705571 -1.140073 0.981940 0.042319 -0.023402 -626027.000000 0 0 1
10.710893 -23.252377 16.450395 30.430441 -1.139132 0.999658 0.051595 -0.016967 -615962.000000 0 0 1
11.847993 -22.767577 15.784395 30.131124 -1.090971 1.019424 0.045355 -0.025666 -228383.000000 0 0 1
-12.086907 22.411687 11.724195 28.032727 -1.076195 1.139298 -0.001716 -0.000423 -279490.000000 0 0 1
-12.907607 21.362387 11.292395 27.394819 -1.027279 1.145919 -0.018345 -0.002779 -117277.000000 0 0 1
-12.176007 20.451487 10.530895 26.027259 -1.033795 1.154244 -0.000798 -0.007311 -553439.000000 0 0 1
-13.085307 19.681787 9.534295 25.485305 -0.984057 1.187360 -0.001263 -0.005989 -362560.000000 0 0 1
-13.372807 20.553887 8.473895 25.944193 -0.993984 1.238071 0.003664 -0.003454 106707.000000 0 0 1
-14.140407 19.960587 7.425295 25.563864 -0.954444 1.276088 0.013535 -0.008153 -435109.000000 0 0 1
-15.646807 19.926387 7.594895 26.449308 -0.905126 1.279547 0.018593 -0.008884 -1082810.000000 0 0 1
-16.101507 19.231287 8.727695 26.556988 -0.873748 1.235933 0.019870 -0.011441 97431.400000 0 0 1
-17.504307 19.368687 8.912095 27.585725 -0.835917 1.241826 0.021924 -0.012035 156023.000000 0 0 1
-17.962607 18.224787 9.838095 27.415073 -0.792643 1.203753 0.022663 -0.012875 -265125.000000 0 0 1
-18.078407 16.936987 9.220695 26.433153 -0.752812 1.214473 0.021128 -0.015291 182879.000000 0 0 1
-18.662307 15.988087 10.127795 26.579557 -0.708374 1.179879 0.033792 -0.020606 -145174.000000 0 0 1
-17.726807 15.274987 11.138895 25.916016 -0.711241 1.126517 0.028184 -0.016379 -11175.000000 0 0 1
-16.912207 14.272087 10.528895 24.506588 -0.700938 1.126707 0.014013 -0.000461 238883.000000 0 1 0
-16.357307 13.269787 11.388495 23.944656 -0.681560 1.075131 0.002485 -0.003497 -168489.000000 0 1 0
-17.344007 12.305687 12.032195 24.433957 -0.617078 1.055908 0.020210 -0.009798 -403567.000000 0 1 0
-17.944207 11.362387 11.180695 24.002216 -0.564479 1.086236 0.003405 -0.007789 68039.400000 0 1 0
-18.890707 10.592087 11.927395 24.724763 -0.511024 1.067396 0.019247 -0.011224 -160890.000000 0 1 0
-19.817907 9.703987 11.118695 24.709152 -0.455339 1.104050 0.021299 -0.010238 -472683.000000 0 1 0
-19.144107 8.742687 10.282795 23.423648 -0.428393 1.116320 0.008068 -0.002105 325424.000000 0 1 0
-18.712507 9.240787 9.029495 22.739434 -0.458699 1.162457 0.024114 -0.000537 -183080.000000 0 1 0
-19.801607 9.587187 7.931095 23.386322 -0.450897 1.224800 0.038912 -0.000193 51251.100000 0 1 0
-20.490607 8.469187 7.517595 23.411671 -0.391937 1.243901 0.031894 0.006783 407001.000000 0 1 0
-21.238807 8.726887 6.315695 23.814565 -0.389862 1.302382 0.029597 0.013897 84746.700000 0 1 0
-21.378407 7.409587 5.534795 23.293180 -0.333636 1.330887 0.021855 0.015558 243843.000000 0 1 0
-22.169407 6.415087 6.249095 23.909980 -0.281673 1.306366 0.012666 0.023595 793924.000000 0 1 0
-22.179507 5.180187 5.529195 23.437937 -0.229444 1.332644 0.030681 0.013126 -202594.000000 0 1 0
-23.188307 4.012587 5.770195 24.230014 -0.171347 1.330343 0.053976 0.013591 -295043.000000 0 1 0
-24.350007 4.106387 5.003295 25.195599 -0.167068 1.370889 0.049111 0.014850 -137243.000000 0 0 1
-24.748807 2.769887 4.626995 25.329525 -0.111456 1.387093 0.033527 0.004590 67259.800000 0 0 1
-25.823077 2.679487 3.492595 26.195595 -0.103393 1.437071 0.035744 -0.006500 502028.000000 0 0 1
-25.289327 3.028687 2.196395 25.564569 -0.119194 1.484775 0.025713 0.002272 1435100.000000 0 0 1
-26.360847 2.839687 1.235695 26.542137 -0.107310 1.524224 0.027254 -0.007149 763411.000000 0 0 1
-25.890997 2.977187 -0.223305 26.062564 -0.114486 1.579364 0.043202 -0.011103 -263422.000000 0 0 1
-25.419697 4.236787 -0.673605 25.779161 -0.165155 1.596929 0.050276 -0.013804 495694.000000 0 0 1
-25.512387 4.422787 -2.094605 25.977496 -0.171652 1.651515 0.078117 -0.014843 9490.810000 0 0 1
-26.908177 4.888787 -2.564905 27.468691 -0.179724 1.664308 0.077200 -0.023740 -377207.000000 0 0 1
-27.938547 3.981887 -2.501405 28.331517 -0.141570 1.659202 0.042269 -0.021511 -189312.000000 0 0 1
-29.204937 4.599187 -2.663005 29.684549 -0.156197 1.660627 0.022477 -0.004202 377497.000000 0 0 1
-30.417367 3.631887 -2.708605 30.752941 -0.118839 1.658987 0.014056 -0.001423 -176032.000000 0 0 1
-30.460267 2.971887 -3.980505 30.862670 -0.097258 1.700131 0.005607 0.000299 134357.000000 0 0 1
-31.513497 2.049587 -4.007405 31.833325 -0.064947 1.697018 0.026470 -0.009607 -250701.000000 0 0 1
-31.439037 1.250187 -5.345105 31.914670 -0.039744 1.739070 0.020238 -0.011679 490288.000000 0 0 1
-30.187967 0.502587 -5.394305 30.670254 -0.016647 1.747597 0.031926 -0.015677 1431700.000000 0 0 1
-29.883737 -0.215013 -6.631505 30.611450 0.007195 1.789162 0.039177 -0.013004 -74151.400000 0 0 1
-30.019907 0.686987 -7.924705 31.055881 -0.022880 1.828826 0.044516 -0.014767 67373.200000 0 0 1
-31.379957 0.764887 -8.364405 32.484612 -0.024370 1.831218 0.030765 -0.009994 960654.000000 0 0 1
-31.740747 1.858187 -9.208305 33.101673 -0.058476 1.852698 0.061073 -0.012988 -377036.000000 0 0 1
-33.257277 2.051387 -9.371105 34.613181 -0.061604 1.844956 0.075818 -0.011746 -245867.000000 0 0 1
-33.719447 2.633087 -8.194305 34.800588 -0.077930 1.808493 0.035405 -0.007518 -14471.400000 0 0 1
-35.120176 2.782987 -8.130505 36.156285 -0.079077 1.797607 0.040467 -0.008377 -128563.000000 0 0 1
34.969370 3.634387 -6.892905 35.827053 0.103559 1.764397 0.041485 -0.001629 -712228.000000 0 0 1
33.588276 3.680387 -6.705205 34.448183 0.109138 1.766693 0.048553 -0.013351 -357553.000000 0 0 1
33.262286 4.321387 -5.498105 33.989458 0.129195 1.733269 0.038193 -0.017478 272652.000000 0 0 1
31.787856 3.936587 -5.178505 32.446594 0.123212 1.731083 0.035916 -0.020552 371229.000000 0 0 1
31.755976 2.636487 -4.658705 32.203985 0.082833 1.715968 0.056697 -0.020576 131276.000000 0 0 1
30.428076 2.159887 -4.578805 30.846368 0.070864 1.719786 0.073452 -0.022959 -205704.000000 0 0 1
30.379496 0.862287 -3.812705 30.629953 0.028376 1.695596 0.078167 -0.017257 -282993.000000 0 0 1
31.147536 -0.170813 -4.403205 31.457692 -0.005484 1.711230 0.069514 -0.026657 309337.000000 0 0 1
30.952566 -1.404013 -3.802605 31.216861 -0.045329 1.692912 0.073679 -0.020390 -193642.000000 0 0 1
32.069726 -2.410713 -4.131105 32.424449 -0.075030 1.698551 0.063257 -0.030108 -31681.600000 0 0 1
31.929986 -3.631013 -3.493905 32.325155 -0.113232 1.679094 0.055388 -0.022914 266063.000000 0 0 1
33.073696 -4.403613 -3.813905 33.582839 -0.132367 1.684609 0.059270 -0.025754 118946.000000 0 0 1
33.004556 -5.880213 -3.262705 33.682679 -0.176314 1.667814 0.061247 -0.020756 -7439.670000 0 0 1
32.869116 -6.008913 -1.862605 33.465731 -0.180817 1.626482 0.061880 -0.017930 69598.100000 0 0 1
32.843046 -7.347213 -1.474405 33.687106 -0.220083 1.614578 0.063035 -0.020288 -357045.000000 0 0 1
32.807716 -7.479113 0.099995 33.649567 -0.224138 1.567825 0.062726 -0.020927 154745.000000 0 0 1
31.556886 -7.012613 0.601795 32.332274 -0.218668 1.552182 0.051900 -0.030953 368129.000000 0 0 1
31.224916 -7.480813 1.895595 32.164441 -0.235146 1.511828 0.024298 -0.019787 -319352.000000 0 0 1
31.069626 -9.009013 2.171495 32.422205 -0.282222 1.503771 0.026821 -0.020283 -368729.000000 0 0 1
29.941496 -9.643113 1.643595 31.498956 -0.311575 1.518593 0.033567 -0.031144 381691.000000 0 0 1
28.692766 -9.495113 2.314495 30.311531 -0.319580 1.494365 0.035030 -0.031342 -406701.000000 0 0 1
27.688446 -10.631313 2.094795 29.733198 -0.366605 1.500285 0.043369 -0.028922 492100.000000 0 0 1
26.403646 -10.557413 2.783695 28.572022 -0.380374 1.473214 0.061791 -0.028654 1920940.000000 0 0 1
25.500146 -9.530913 2.309895 27.320896 -0.357682 1.486148 0.058346 -0.020541 -212808.000000 0 0 1
24.940836 -9.743913 0.826195 26.789396 -0.372447 1.539951 0.052843 -0.015382 -976674.000000 0 0 1
25.887446 -9.770413 -0.233105 27.670836 -0.360890 1.579221 0.046006 -0.016189 128311.000000 0 0 1
25.394936 -9.731213 -1.578805 27.241364 -0.365936 1.628785 0.050890 -0.006899 -329299.000000 0 0 1
24.680336 -10.989113 -2.122705 27.099548 -0.418903 1.649207 0.052991 -0.003167 244721.000000 0 0 1
23.384636 -11.217713 -1.593105 25.984924 -0.447280 1.632144 0.031400 0.004471 137095.000000 0 0 1
22.888736 -12.477513 -1.936105 26.140602 -0.499102 1.644929 0.023574 0.006045 -200606.000000 0 0 1
21.405036 -12.757913 -1.634905 24.972241 -0.537491 1.636312 0.017576 0.009777 5015.070000 0 1 0
20.549636 -12.228913 -2.652605 24.059721 -0.536802 1.681272 0.007134 0.007665 733192.000000 0 1 0
19.180836 -12.538213 -2.336305 23.034096 -0.578961 1.672399 0.008760 0.008390 908230.000000 0 1 0
18.209236 -12.058013 -3.461705 22.112335 -0.584898 1.727994 -0.001998 0.013489 -43481.400000 0 1 0
18.247336 -12.886513 -4.610405 22.809720 -0.614884 1.774323 -0.007655 0.009264 330102.000000 0 1 0
17.621436 -12.312313 -5.749105 22.252197 -0.609861 1.832122 0.001133 0.006599 -543136.000000 0 1 0
17.610136 -13.199313 -7.041105 23.106621 -0.643200 1.880443 -0.015005 0.012309 -831678.000000 0 1 0
16.761436 -14.292413 -6.952605 23.098864 -0.706057 1.876530 -0.011565 0.008383 41424.500000 0 1 0
16.893236 -15.132813 -8.115605 24.088306 -0.730485 1.914430 -0.009610 0.012037 260745.000000 0 1 0
15.903836 -16.399113 -8.212405 24.275636 -0.800729 1.915904 -0.007148 0.006794 441167.000000 0 1 0
14.536236 -16.040413 -8.276105 23.175222 -0.834552 1.935968 0.001972 0.007534 397477.000000 0 1 0
13.775336 -16.894313 -9.111005 23.626005 -0.886746 1.966692 0.003542 0.007772 -218076.000000 0 1 0
13.925436 -16.518313 -10.653805 24.088919 -0.870363 2.028924 0.006486 0.006603 -405857.000000 0 1 0
13.180036 -15.381413 -11.120505 23.107723 -0.862321 2.072872 0.016809 0.011165 430756.000000 0 1 0
13.685636 -14.146113 -10.715605 22.410563 -0.801942 2.069343 0.021925 0.011344 -121810.000000 0 1 0
13.435536 -13.046513 -11.802805 22.136652 -0.770709 2.133151 0.030736 0.014116 259895.000000 0 1 0
14.521336 -12.993413 -12.727205 23.274014 -0.729924 2.149384 0.031654 0.011238 216303.000000 0 1 0
14.279136 -12.193513 -13.831405 23.321305 -0.706776 2.205676 0.038696 0.000309 143439.000000 0 1 0
15.502236 -12.054313 -14.805005 24.592966 -0.660923 2.216802 0.045677 -0.002793 437680.000000 0 1 0
15.738036 -13.088313 -15.702205 25.798236 -0.693736 2.225160 0.035854 0.003648 287074.000000 0 0 1
16.835136 -12.741813 -16.553305 26.828856 -0.647876 2.235716 0.032291 -0.002609 41025.900000 0 0 1
17.893936 -13.839413 -16.569405 28.040462 -0.658318 2.202983 0.027253 -0.004388 -670712.000000 0 0 1
18.738836 -13.823813 -15.449105 27.944886 -0.635589 2.156567 0.004495 -0.002576 -223895.000000 0 0 1
19.715536 -14.856813 -15.583605 29.193767 -0.645775 2.133883 0.002566 -0.004924 -96319.100000 0 0 1
20.667736 -14.695213 -14.379405 29.152562 -0.618085 2.086614 -0.007228 -0.001565 -160215.000000 0 0 1
21.531436 -13.582613 -14.470505 29.282856 -0.562779 2.087668 -0.007402 -0.004294 -17826.600000 0 0 1
22.468336 -13.515813 -13.403405 29.447489 -0.541558 2.043352 -0.001166 -0.005135 -41421.300000 0 0 1
23.122736 -12.133513 -13.478905 29.386459 -0.483246 2.047303 0.014031 -0.009252 -658017.000000 0 0 1
22.322636 -11.091013 -13.006805 28.115612 -0.461125 2.051743 -0.002186 -0.001206 271191.000000 0 0 1
23.011736 -9.825513 -13.003905 28.198976 -0.403545 2.050085 0.008670 -0.005305 245588.000000 0 0 1
24.015036 -9.618913 -11.841005 28.450920 -0.380969 2.000048 0.020532 -0.006364 -705813.000000 0 0 1
25.188036 -10.319413 -11.998405 29.747087 -0.388836 1.985968 0.019894 -0.006257 -1157730.000000 0 0 1
26.070736 -10.033513 -10.972505 30.012506 -0.367385 1.945071 0.023484 -0.009357 -325282.000000 0 0 1
27.451856 -10.728213 -11.164805 31.517485 -0.372551 1.932899 0.045314 -0.011254 340833.000000 0 0 1
28.134556 -10.189813 -12.301005 32.352747 -0.347485 1.960825 0.032660 -0.008208 431528.000000 0 0 1
29.319716 -10.941613 -12.579805 33.728566 -0.357177 1.953006 0.037665 -0.014422 226577.000000 0 0 1
30.030766 -10.494613 -13.915705 34.722193 -0.336195 1.983156 0.014664 -0.008197 -176122.000000 0 0 1
29.327886 -10.618313 -15.142805 34.672439 -0.347374 2.022767 0.006381 -0.004875 126512.000000 0 0 1
30.078916 -10.066113 -16.205005 35.618394 -0.322941 2.043126 0.000108 -0.000641 -158337.000000 0 0 1
29.838416 -10.806713 -17.573005 36.275703 -0.347479 2.076507 -0.023849 0.004472 586643.000000 0 0 1
28.573986 -10.601513 -18.214305 35.505291 -0.355277 2.109475 -0.021111 0.003778 577725.000000 0 0 1
28.417416 -9.336613 -18.810505 35.334926 -0.317442 2.132169 -0.031067 0.003222 225232.000000 0 0 1
26.975946 -8.991113 -19.315605 34.374909 -0.321722 2.167489 -0.042891 -0.001041 494709.000000 0 0 1
26.668876 -9.631213 -20.544605 35.015283 -0.346565 2.197814 -0.039734 0.005723 -302079.000000 0 0 1
25.317536 -9.438913 -20.826405 34.114658 -0.356859 2.227466 -0.016773 0.009818 -622101.000000 0 0 1
24.858536 -9.799813 -22.249705 34.771145 -0.375517 2.265151 -0.003854 -0.002025 -180253.000000 0 0 1
25.035536 -11.161613 -22.495505 35.459941 -0.419381 2.258018 -0.010093 -0.000736 193520.000000 0 0 1
24.261436 -11.496813 -23.619005 35.758235 -0.442528 2.292307 0.004052 -0.007824 -962810.000000 0 0 1
24.323836 -12.995813 -23.974905 36.542253 -0.490696 2.286419 0.000493 0.006365 372498.000000 0 0 1
25.459736 -13.413313 -24.715005 37.933450 -0.484892 2.280404 -0.008220 0.011336 -266132.000000 0 0 1
26.685136 -13.267713 -24.067605 38.306374 -0.461401 2.250153 -0.032693 0.021676 -1823800.000000 0 0 1
27.864156 -13.731113 -24.877605 39.797612 -0.457861 2.246060 -0.029185 0.033845 -620431.000000 0 0 1
28.094376 -13.004313 -26.070485 40.473156 -0.433513 2.270698 -0.030607 0.026615 144222.000000 0 0 1
29.430906 -13.238013 -26.474885 41.741380 -0.422687 2.257847 -0.038268 0.031447 77746.500000 0 0 1
29.883556 -12.756013 -27.855955 42.798330 -0.403443 2.279520 -0.021796 0.009937 25831.300000 0 0 1
29.741766 -13.769413 -28.845955 43.660720 -0.433584 2.292526 -0.001778 0.004486 694065.000000 0 0 1
30.797326 -13.568113 -29.799675 44.950969 -0.414977 2.295532 -0.002552 -0.008215 588661.000000 0 0 1
30.637996 -14.399013 -31.046905 45.933960 -0.439338 2.312986 0.009861 -0.014994 -84664.000000 0 0 1
30.748726 -15.787913 -30.811175 46.304113 -0.474349 2.298838 0.016345 -0.007798 -36466.400000 0 0 1
30.976296 -16.554613 -32.018025 47.526204 -0.490810 2.309990 0.014147 -0.017683 478040.000000 0 0 1
29.701416 -16.823313 -32.890885 47.402619 -0.515358 2.337635 0.016030 -0.014130 290890.000000 0 0 1
29.243976 -15.762713 -33.669345 47.300085 -0.494364 2.362888 0.007066 -0.016109 -343779.000000 0 0 1
28.105746 -16.297013 -34.289719 47.236749 -0.525469 2.383156 0.002177 -0.015325 48883.700000 0 0 1
27.178666 -15.333313 33.914003 46.086332 -0.513655 0.743831 0.009252 -0.011605 515696.000000 0 0 1
26.428096 -14.300513 -34.392325 45.670351 -0.495992 2.423491 0.009276 -0.012113 380130.000000 0 0 1
27.184596 -13.164113 -33.980825 45.464190 -0.450968 2.414966 0.026798 -0.030236 -346501.000000 0 0 1
26.419936 -11.916413 -33.552025 44.336805 -0.423717 2.429128 0.040862 -0.026927 -4793.150000 0 0 1
25.806826 -11.170113 34.416452 44.443851 -0.408489 0.685061 0.050238 -0.019874 -13413.700000 0 0 1
24.991336 -10.187613 -34.041575 43.441722 -0.387080 2.471260 0.023955 -0.023401 -122816.000000 0 0 1
21.026093 -30.394577 9.377195 38.129499 -0.965614 1.322317 0.025264 -0.002622 79262.600000 0 0 1
21.081093 -29.947177 8.046395 37.496538 -0.957429 1.354524 0.027674 -0.004225 611960.000000 0 0 1
22.263893 -30.398077 7.374495 38.394104 -0.938647 1.377522 0.020720 0.002141 339873.000000 0 0 1
22.479693 -29.841777 5.969195 37.835163 -0.925189 1.412366 0.012905 0.000760 -59386.400000 0 0 1
22.727093 -28.441277 5.909195 36.882863 -0.896612 1.409888 0.019039 0.009074 106594.000000 0 0 1
23.328393 -28.055977 4.708795 36.790277 -0.877144 1.442454 0.015330 0.014141 -401453.000000 0 0 1
23.266393 -26.515477 4.518695 35.564226 -0.850572 1.443395 0.022553 0.006008 28361.900000 0 0 1
24.093093 -25.772077 5.401595 35.691096 -0.819056 1.418870 0.025829 0.003353 52284.100000 0 0 1
23.822693 -24.386077 5.362395 34.510241 -0.797084 1.414779 0.029797 0.001182 -308086.000000 0 0 1
24.762093 -23.496877 6.189895 34.692640 -0.759187 1.391415 0.013856 -0.002242 -1194170.000000 0 0 1
26.087593 -23.620177 5.765895 35.661195 -0.735800 1.408398 0.025226 0.002824 -364672.000000 0 0 1
27.034793 -22.850977 6.468795 35.984614 -0.701726 1.390048 0.030370 -0.006725 7814.290000 0 0 1
26.728293 -21.303477 6.534495 34.798554 -0.672933 1.381894 0.015531 -0.004829 -1005520.000000 0 0 1
26.777593 -20.672877 5.275295 34.237933 -0.657447 1.416103 0.021809 0.009591 44429.600000 0 0 1
26.203293 -19.409477 5.379595 33.049666 -0.637540 1.407296 0.020050 0.006326 -380526.000000 0 0 1
26.269493 -18.567177 4.106595 32.429777 -0.615273 1.443825 0.028755 0.004622 -153340.000000 0 0 1
27.529493 -17.989677 3.841695 33.109818 -0.578810 1.454506 0.050694 -0.001431 15098.700000 0 0 1
27.455493 -17.331977 2.616795 32.573749 -0.563099 1.490375 0.048505 0.003331 631922.000000 0 0 1
28.749793 -16.525577 2.240795 33.236523 -0.521689 1.503325 0.045824 -0.019848 523258.000000 0 0 1
28.763993 -15.281477 3.036695 32.712572 -0.488350 1.477833 0.051319 -0.024985 190340.000000 0 0 1
30.042693 -14.679777 3.163995 33.586755 -0.454511 1.476453 0.045475 -0.019505 279167.000000 0 0 1
30.023193 -13.447277 4.042495 33.144579 -0.421103 1.448526 0.045551 -0.017291 200665.000000 0 0 1
29.550793 -13.765677 5.340495 33.034287 -0.435941 1.408418 0.033808 0.000569 49766.100000 0 0 1
29.299993 -12.581577 6.088095 32.463064 -0.405596 1.382140 0.014176 -0.008357 -107492.000000 0 0 1
28.797593 -12.732077 7.531195 32.374775 -0.416284 1.336020 0.020634 0.002559 259796.000000 0 0 1
27.472093 -13.218177 7.774095 31.462241 -0.448454 1.321117 0.006416 -0.001346 392891.000000 0 0 1
27.092593 -13.184977 9.112295 31.478344 -0.452922 1.277115 0.012815 0.007148 94238.900000 0 0 1
27.362293 -14.452977 9.989595 32.517313 -0.485958 1.258538 0.007399 -0.001107 762779.000000 0 0 1
28.614893 -14.360177 10.704295 33.758091 -0.465121 1.248139 -0.004134 0.005638 861815.000000 0 0 1
28.693593 -15.461277 11.536495 34.575484 -0.494235 1.230612 -0.005992 0.003750 -27851.500000 0 0 1
29.335893 -15.251577 12.938995 35.505250 -0.479436 1.197781 -0.012234 0.005898 -338452.000000 0 0 1
30.719393 -15.000277 12.886095 36.534105 -0.454244 1.210326 -0.011963 0.007261 -121629.000000 0 0 1
31.157093 -14.911377 14.243195 37.362845 -0.446371 1.179689 0.001853 0.005111 -727550.000000 0 0 1
32.645193 -14.703577 14.426995 38.601062 -0.423191 1.187752 -0.000986 0.001337 -868433.000000 0 0 1
33.135293 -13.422577 14.152595 38.450086 -0.384881 1.193856 -0.005527 -0.001420 744405.000000 0 0 1
34.552293 -13.467377 14.359695 39.767223 -0.371655 1.201356 0.006636 -0.006592 593309.000000 0 0 1
-35.190451 -12.126077 14.240695 39.852314 0.331842 1.205382 0.009980 -0.008248 -380421.000000 0 0 1
-34.604551 -11.881477 13.010695 38.831979 0.330738 1.229137 0.017618 -0.016315 68341.100000 0 0 1
-33.805451 -10.704777 12.995595 37.766205 0.306669 1.219509 0.026276 -0.015263 -18807.000000 0 0 1
-32.596651 -10.828477 12.031995 36.394594 0.320727 1.233859 0.024441 -0.012104 -16677.100000 0 0 1
-31.594951 -11.735177 12.414195 35.917510 0.355633 1.217885 0.020318 -0.013520 38684.500000 0 0 1
-31.817151 -13.072077 12.028895 36.440425 0.389825 1.234389 0.005389 -0.014507 -107342.000000 0 0 1
-30.722751 -13.989577 12.659995 36.053726 0.427293 1.212005 0.000251 -0.007741 573839.000000 0 0 1
-29.454251 -13.845177 12.051195 34.705520 0.439408 1.216168 0.011381 -0.008567 185968.000000 0 0 1
-28.495251 -14.761577 12.582295 34.470243 0.477972 1.197143 0.007410 -0.011140 609996.000000 0 0 1
-27.081451 -14.575277 11.949295 32.994383 0.493740 1.200211 0.017665 -0.011752 234771.000000 0 0 1
-26.967551 -15.126177 10.603195 32.687578 0.511175 1.240440 -0.001835 0.004644 376299.000000 0 0 1
-25.633151 -15.123077 10.132195 31.439263 0.533020 1.242661 0.000645 0.004532 145458.000000 0 0 1
-25.580151 -14.580277 8.681195 30.696771 0.518056 1.284079 0.003077 0.015935 -157906.000000 0 0 1
-26.009751 -15.421377 7.664495 31.194078 0.535188 1.322551 0.002725 0.012695 -28355.400000 0 0 1
-25.854051 -14.788877 6.417695 30.468502 0.519587 1.358573 -0.000135 0.017542 -431734.000000 0 0 1
-25.941651 -15.769277 5.199595 30.800570 0.546190 1.401169 -0.014915 0.014489 -426923.000000 0 0 1
-27.195051 -16.455377 5.155195 32.201339 0.544152 1.410012 -0.022849 0.017386 127533.000000 0 0 1
-27.317651 -17.299777 4.007195 32.582111 0.564533 1.447497 -0.013336 0.010924 333337.000000 0 0 1
-28.646951 -18.091377 3.837895 34.098023 0.563280 1.458003 -0.008144 0.005299 34415.500000 0 0 1
-29.743551 -17.371777 3.382395 34.610664 0.528610 1.472913 0.002701 0.002832 -90690.700000 0 0 1
-30.963351 -18.071777 3.601195 36.031747 0.528311 1.470684 0.020241 -0.000910 503129.000000 0 0 1
-32.195951 -17.405977 2.947295 36.718304 0.495618 1.490442 0.040792 -0.007350 22189.300000 0 0 1
-32.299351 -17.547077 1.567495 36.791372 0.497657 1.528178 0.043650 -0.009742 142028.000000 0 0 1
-33.383151 -16.735077 1.138295 37.360317 0.464690 1.540324 0.065244 -0.016383 -173083.000000 0 0 1
-34.028151 -17.214877 -0.134005 38.135089 0.468357 1.574310 0.066400 -0.017526 -573534.000000 0 0 1
-33.213851 -17.157077 -1.267105 37.404956 0.476811 1.604678 0.065137 -0.017491 323865.000000 0 0 1
-33.775951 -18.078977 -2.219805 38.374364 0.491458 1.628675 0.067021 -0.011618 475594.000000 0 0 1
-32.718251 -18.444577 -3.314705 37.705088 0.513331 1.658821 0.050171 -0.013101 144953.000000 0 0 1
-33.021951 -19.555877 -4.079405 38.594340 0.534671 1.676694 0.042627 -0.016992 -198044.000000 0 0 1
-31.899151 -20.182877 -4.660305 38.034495 0.564124 1.693633 0.040433 -0.014743 -204247.000000 0 0 1
-32.330151 -21.214177 -5.703305 39.087180 0.580703 1.717232 0.051062 -0.011273 111989.000000 0 0 1
-32.954351 -22.430477 -5.185405 40.199552 0.597623 1.700148 0.064747 -0.016752 282282.000000 0 0 1
-33.046951 -23.411977 -6.218105 40.974217 0.616372 1.723141 0.054421 -0.008046 -60788.300000 0 0 1
-33.578151 -24.723377 -5.706305 42.086809 0.634671 1.706799 0.056080 -0.006503 -508468.000000 0 0 1
-32.658951 -25.354677 -4.900705 41.635125 0.660151 1.688776 0.060052 -0.011148 -556202.000000 0 0 1
-33.173851 -26.673177 -4.595005 42.814446 0.677201 1.678327 0.048937 -0.007872 111415.000000 0 0 1
-32.163951 -27.669277 -4.027305 42.618398 0.710419 1.665434 0.033902 -0.006107 -691288.000000 0 0 1
-31.222451 -28.072577 -5.003405 42.284100 0.732326 1.689402 0.033518 -0.005490 524532.000000 0 0 1
-30.386951 -29.207877 -4.676305 42.406776 0.765616 1.681294 0.033281 -0.006360 765189.000000 0 0 1
-29.331151 -29.047077 -3.534105 41.431136 0.780532 1.656201 0.029584 -0.010459 -602253.000000 0 0 1
-29.852051 -28.879177 -2.273605 41.597128 0.768835 1.625481 0.025205 -0.004567 -174617.000000 0 0 1
-28.761851 -28.790377 -1.399305 40.719626 0.785894 1.605167 0.012369 -0.000739 -188346.000000 0 0 1
-29.274951 -28.546577 0.046595 40.889265 0.772802 1.569657 0.017338 0.003240 119982.000000 0 0 1
-29.901951 -29.711477 0.493295 42.156161 0.782203 1.559094 0.017623 0.003946 -198914.000000 0 0 1
-30.740351 -29.544377 1.608595 42.666462 0.765562 1.533086 0.015396 0.005005 -298543.000000 0 0 1
-31.262251 -30.807477 2.264995 43.949507 0.778071 1.519237 0.020416 0.006286 -1369840.000000 0 0 1
-32.154651 -30.501777 3.292895 44.442357 0.759024 1.496635 0.018932 0.009161 227523.000000 0 0 1
-32.748151 -31.715677 3.885495 45.753936 0.769383 1.485772 0.005245 0.011069 237685.000000 0 0 1
-33.670951 -32.545477 2.980895 46.923627 0.768403 1.507227 0.010438 0.010225 -1049030.000000 0 0 1
-34.373651 -33.482477 3.762195 48.132923 0.772266 1.492554 0.005628 0.003939 -77437.000000 0 0 1
35.148193 -34.181577 3.027595 49.121706 -0.771457 1.509123 0.013434 0.007541 -343799.000000 0 0 1
33.971493 34.288187 3.834395 48.419466 0.790038 1.491522 0.013260 0.001359 93893.000000 0 0 1
33.158193 -33.965877 4.689595 47.698416 -0.797430 1.472320 0.004461 -0.001219 744572.000000 0 0 1
32.535993 -32.844377 4.084695 46.411514 -0.790115 1.482672 0.001246 0.001353 -609345.000000 0 0 1
31.411093 -33.089977 3.066095 45.727500 -0.811421 1.503695 0.021214 0.001382 -591536.000000 0 0 1
31.845793 -33.738377 1.882695 46.432501 -0.814247 1.530238 0.024222 -0.000140 69398.900000 0 0 1
30.984293 -33.314577 0.808195 45.503194 -0.821624 1.553034 0.027438 0.004721 -820492.000000 0 0 1
31.233993 -33.987477 -0.539405 46.162776 -0.827591 1.582481 0.033098 0.004372 776447.000000 0 0 1
32.448593 -33.836577 -1.291605 46.898756 -0.806335 1.598340 0.017316 0.014409 -128687.000000 0 0 1
33.653693 -33.861177 -0.601905 47.744242 -0.788471 1.583404 0.011893 0.015854 -1595130.000000 0 0 1
34.843093 -33.491577 -1.476205 48.351898 -0.765623 1.601332 0.006054 0.019053 -576700.000000 0 0 1
35.199193 34.515087 -2.303105 49.351582 0.775585 1.617481 0.004344 0.005942 -158182.000000 0 0 1
-34.555251 -34.195077 -3.401705 48.733359 0.780159 1.640656 0.009584 0.001870 -864756.000000 0 0 1
-33.931551 33.682687 -4.133705 47.989176 -0.781718 1.657041 -0.002650 0.000583 -753886.000000 0 0 1
-32.669151 33.320687 -3.679005 46.808938 -0.795271 1.649474 0.008996 0.004348 -709570.000000 0 0 1
-32.156251 32.329587 -4.536305 45.823626 -0.788086 1.669954 0.010476 -0.004533 -248711.000000 0 0 1
-30.844751 31.719287 -4.039405 44.427791 -0.799376 1.661843 0.014619 -0.001844 464055.000000 0 0 1
-29.644051 32.529787 -4.100605 44.201490 -0.831779 1.663701 0.014036 -0.003256 1529250.000000 0 0 1
-28.430451 31.783087 -3.861005 42.817783 -0.841020 1.661092 0.017398 -0.006226 1155490.000000 0 0 1
-28.043351 31.463987 -2.352605 42.213111 -0.842818 1.626557 -0.000254 -0.006857 -799517.000000 0 0 1
-29.023751 30.674987 -1.764305 42.266366 -0.813051 1.612551 -0.007108 0.002482 -451569.000000 0 0 1
-29.000651 30.673687 -0.335105 42.214039 -0.813427 1.578735 -0.013086 0.015644 666329.000000 0 0 1
-30.380651 30.184487 0.247395 42.826959 -0.782159 1.565020 -0.017170 0.012190 529759.000000 0 0 1
-30.680851 28.834887 -0.002405 42.104220 -0.754392 1.570853 -0.010554 0.005839 292928.000000 0 0 1
-31.766251 28.637587 -0.909705 42.778892 -0.733649 1.592063 0.004520 0.004477 341992.000000 0 0 1
-32.006351 27.151487 -1.282205 41.991116 -0.703515 1.601336 0.010255 0.001463 -147031.000000 0 0 1
-32.373451 26.249587 -0.262105 41.679129 -0.681314 1.577085 0.022428 0.006008 17469.700000 0 0 1
-32.767251 25.049787 -0.918005 41.255633 -0.652702 1.593050 0.020003 0.007653 -79119.000000 0 0 1
-33.051151 23.901587 0.052795 40.788077 -0.626107 1.569502 0.028193 0.009104 1118770.000000 0 0 1
-31.811651 23.446687 0.653795 39.524116 -0.635160 1.554254 0.033551 -0.002638 1171210.000000 0 0 1
-31.328551 24.081087 1.815395 39.555941 -0.655339 1.524886 0.026307 -0.004354 -743741.000000 0 0 1
-29.838851 23.874387 2.183095 38.276746 -0.674809 1.513731 0.030448 -0.014386 245295.000000 0 0 1
-28.924251 24.698687 1.476195 38.063323 -0.706759 1.532004 0.031676 -0.010132 124994.000000 0 0 1
-28.944951 26.070387 1.917395 39.001944 -0.733195 1.521615 -0.007734 -0.001940 -293414.000000 0 0 1
-28.094951 26.953787 0.925795 38.944704 -0.764671 1.547022 -0.013716 -0.003349 -606856.000000 0 0 1
-26.736851 26.746687 0.879995 37.828810 -0.785582 1.547532 -0.004534 -0.006894 -1227840.000000 0 0 1
-26.193851 27.468687 -0.194405 37.956348 -0.809150 1.575918 0.006628 -0.010548 -451183.000000 0 0 1
-25.078851 26.862287 -0.989605 36.762896 -0.819720 1.597718 0.004274 -0.009050 -1143550.000000 0 0 1
-25.495351 25.828287 -1.839505 36.338645 -0.791885 1.621439 0.029387 -0.017214 -854807.000000 0 0 1
-24.498551 25.314987 -2.632205 35.326422 -0.801787 1.645376 0.016093 -0.011980 -390035.000000 0 0 1
-23.535151 24.293487 -1.968905 33.881461 -0.801252 1.628941 0.006922 -0.012511 284785.000000 0 0 1
-24.128151 23.044287 -1.655705 33.405811 -0.762426 1.620380 0.002947 -0.012515 502394.000000 0 0 1
-23.150551 22.232487 -0.954605 32.111412 -0.765172 1.600529 -0.002285 -0.013111 -254222.000000 0 0 1
-23.610251 20.819587 -0.566605 31.483650 -0.722670 1.588794 -0.003518 -0.010438 -195116.000000 0 0 1
-24.545151 20.775387 0.540495 32.161674 -0.702409 1.553990 -0.017262 -0.008832 2267900.000000 0 0 1
-25.886651 21.335287 0.329395 33.547305 -0.689313 1.560977 -0.001673 -0.014292 845424.000000 0 0 1
-26.742151 20.728787 -0.741405 33.843388 -0.659395 1.592705 0.005869 -0.021689 -1402520.000000 0 0 1
-27.083751 19.404587 -0.599105 33.323062 -0.621692 1.588776 -0.003658 -0.014263 107247.000000 0 0 1
-27.907851 18.955887 -1.630805 33.776224 -0.596651 1.619098 0.023720 -0.015989 -264019.000000 0 0 1
-28.119751 17.412487 -1.612605 33.113677 -0.554437 1.619515 -0.008357 -0.002462 -140778.000000 0 0 1
-28.879451 16.981187 -0.509705 33.505868 -0.531551 1.586009 0.003714 -0.004055 290764.000000 0 0 1
-29.064651 15.556487 -0.368105 32.968071 -0.491439 1.581962 -0.000838 -0.008009 200254.000000 0 0 1
-27.865851 14.738387 0.223395 31.524207 -0.486503 1.563710 -0.013689 0.002127 -48719.800000 0 0 1
-27.704051 14.994587 1.604695 31.542465 -0.496094 1.519900 -0.012346 0.010671 -75802.500000 0 0 1
-26.502151 14.498787 2.122595 30.283399 -0.500598 1.500648 -0.018516 0.008986 -582032.000000 0 0 1
-26.192651 12.991387 2.189495 29.319362 -0.460437 1.496049 -0.010356 0.011057 -497054.000000 0 0 1
-25.846951 12.393887 0.969895 28.681248 -0.447122 1.536974 -0.014164 0.005403 431389.000000 0 0 1
-25.565051 10.996387 1.097395 27.851331 -0.406211 1.531384 0.003447 0.008006 -160733.000000 0 0 1
-25.349951 10.209687 -0.241405 27.329764 -0.382875 1.579629 0.007372 0.001320 -243252.000000 0 0 1
-26.560151 9.759687 -0.826405 28.308586 -0.352140 1.599993 0.006688 -0.010302 146685.000000 0 0 1
-26.468151 9.026387 -2.017305 28.037621 -0.328660 1.642808 0.022230 -0.017419 -523633.000000 0 0 1
-27.848051 8.702187 -2.581605 29.290044 -0.302874 1.659050 0.025150 -0.020561 -385170.000000 0 0 1
-27.922151 7.958887 -3.817105 29.284137 -0.277675 1.701515 0.050198 -0.019622 1380740.000000 0 0 1
-29.299151 7.946387 -4.292705 30.659625 -0.264844 1.711270 0.038183 -0.013836 1335480.000000 0 0 1
-11.485807 18.179687 -19.881005 29.286160 -1.007327 2.316996 0.044163 0.002357 -106155.000000 0 0 1
-11.843607 17.345087 -20.959005 29.671585 -0.971692 2.355148 0.007721 0.000722 -28488.600000 0 0 1
-10.848407 17.253687 -21.966505 29.965063 -1.009499 2.393622 0.018207 -0.004844 -24206.100000 0 0 1
-11.076807 16.159087 -22.939305 30.166595 -0.969879 2.434757 0.005724 0.001183 -263574.000000 0 0 1
-10.629507 14.892687 -22.587905 29.068746 -0.950908 2.460764 -0.001592 -0.001643 -135192.000000 0 0 1
-10.628807 13.942087 -23.601505 29.400414 -0.919435 2.502707 -0.003645 -0.000045 -229573.000000 0 0 1
-9.910307 12.641087 -23.234905 28.246629 -0.905903 2.536717 -0.014674 0.003533 484601.000000 0 0 1
-8.502507 12.678387 -23.474005 28.001126 -0.980055 2.564997 0.001023 -0.000933 809715.000000 0 0 1
-7.842407 11.521987 -22.888905 26.798535 -0.973177 2.594634 -0.005941 -0.002437 -845811.000000 0 0 1
-6.376807 11.620187 -22.615405 26.213526 -1.068898 2.611456 0.010111 -0.004855 -903131.000000 0 0 1
-5.618107 11.410687 -23.811605 26.995545 -1.113284 2.651006 0.006247 -0.009762 488387.000000 0 0 1
-4.217407 11.266487 -23.531605 26.428331 -1.212611 2.669004 0.026751 -0.012087 976022.000000 0 0 1
-3.456807 10.846887 -24.849005 27.332719 -1.262281 2.711988 0.040044 -0.014838 -191130.000000 0 0 1
-3.721707 9.521487 -25.300505 27.287825 -1.198181 2.757588 0.038007 -0.019692 -144084.000000 0 0 1
-3.097907 9.091187 -26.509615 28.195858 -1.242377 2.794000 0.029876 -0.021003 -179539.000000 0 0 1
-2.554907 7.649387 -26.430115 27.633162 -1.248444 2.845431 0.033315 -0.012141 -330205.000000 0 0 1
-1.303307 7.534787 -25.799375 26.908723 -1.399519 2.853451 0.039881 -0.010662 -216817.000000 0 0 1
-1.109907 6.145987 -25.555295 26.307378 -1.392131 2.901903 0.036920 -0.011372 1293780.000000 0 0 1
0.390993 5.867087 -25.078545 25.758668 1.504253 2.911285 0.025520 -0.009883 1364850.000000 0 0 1
0.663393 6.445287 -23.849405 24.713881 1.468231 2.876318 0.029618 -0.012833 -560047.000000 0 1 0
1.502893 5.632687 -23.132805 23.856079 1.310054 2.894721 0.033474 -0.011159 -655297.000000 0 1 0
1.744093 6.288587 -21.755205 22.712929 1.300254 2.850161 0.037439 -0.012991 158160.000000 0 1 0
2.641593 7.377387 -21.763405 23.131140 1.226954 2.795987 0.035793 -0.016088 79883.600000 0 1 0
2.478893 8.085287 -20.551805 22.223714 1.273302 2.751225 0.034594 -0.017924 36590.100000 0 1 0
3.016893 9.489687 -20.614405 22.893438 1.262988 2.691600 0.025410 -0.015934 -169389.000000 0 1 0
2.680193 10.235487 -19.466405 22.156027 1.314693 2.643730 0.024241 -0.021327 84179.600000 0 1 0
3.212493 11.526987 -19.647705 23.004866 1.299000 2.594552 0.032399 -0.011846 493330.000000 0 1 0
4.442193 11.863587 -18.719805 22.603293 1.212517 2.546665 0.023601 -0.010959 1115010.000000 0 1 0
5.545293 11.018187 -19.094905 22.732490 1.104524 2.568048 0.034510 -0.014273 323785.000000 0 1 0
6.499093 10.793287 -18.054405 22.015785 1.028803 2.532323 0.029901 -0.015504 805764.000000 0 1 0
7.734893 9.934087 -18.512105 22.387780 0.909228 2.544341 0.040449 -0.017968 402689.000000 0 1 0
7.432493 8.562387 -18.884605 22.026909 0.855922 2.600881 0.038247 -0.010978 -238687.000000 0 1 0
6.691293 8.403787 -20.042005 22.739371 0.898362 2.649570 0.037560 -0.008161 -348761.000000 0 1 0
6.445893 6.937287 -20.445005 22.531616 0.822099 2.707833 0.034795 -0.004391 1006860.000000 0 1 0
7.676893 6.284187 -20.879205 23.116377 0.685971 2.698013 0.036319 0.007447 1131750.000000 0 1 0
7.597293 4.876587 -21.059505 22.912937 0.570649 2.736611 0.036128 0.009997 -867868.000000 0 1 0
7.455893 4.499787 -22.547505 24.170817 0.543004 2.773013 0.037977 0.001128 574330.000000 0 1 0
6.237293 4.910287 -23.206505 24.526651 0.666916 2.812002 0.044572 -0.002467 647398.000000 0 1 0
6.229593 4.477887 -24.550205 25.721039 0.623238 2.838706 0.048061 -0.008304 137987.000000 0 0 1
5.080393 5.238787 -25.254795 26.288019 0.800746 2.860295 0.033491 -0.014197 89008.100000 0 0 1
5.309393 6.637187 -25.364405 26.750606 0.896088 2.818256 0.036527 -0.019146 191934.000000 0 0 1
5.071293 7.405987 -24.174105 25.786702 0.970375 2.786068 0.049820 -0.023859 -952895.000000 0 0 1
5.001193 8.888987 -24.626405 26.654940 1.058310 2.748938 0.054300 -0.025422 405268.000000 0 0 1
3.814293 9.324487 -25.305605 27.237264 1.182502 2.762715 0.057076 -0.020984 1053160.000000 0 0 1
2.717593 9.442687 -24.359505 26.266616 1.290571 2.758182 0.042159 -0.029453 1201870.000000 0 0 1
1.298893 9.718087 -25.003405 26.857003 1.437927 2.767892 0.044480 -0.019956 939589.000000 0 0 1
1.310693 10.906487 -25.813555 28.053681 1.451194 2.739256 0.051499 -0.017210 632758.000000 0 0 1
0.022593 11.182287 -26.377615 28.650002 1.568776 2.740627 0.062669 -0.024275 404263.000000 0 0 1
-0.333607 12.623487 -26.839145 29.661480 -1.544375 2.701820 0.054663 -0.022069 -96750.500000 0 0 1
-0.308807 13.562487 -25.794095 29.143983 -1.548031 2.657413 0.054768 -0.018177 245567.000000 0 0 1
-0.920707 14.783387 -26.205045 30.101505 -1.508597 2.627127 0.043651 -0.021546 97206.700000 0 0 1
-1.333007 15.636187 -24.966905 29.489211 -1.485751 2.580446 0.050187 -0.021050 -322723.000000 0 0 1
-2.446407 15.100487 -24.316505 28.728070 -1.410183 2.580055 0.043122 -0.017973 -1029430.000000 0 0 1
-2.621707 15.618787 -23.016105 27.938521 -1.404491 2.538901 0.046385 -0.019681 -29573.900000 0 0 1
-4.005607 15.143687 -22.445105 27.370767 -1.312212 2.532276 0.049255 -0.015901 847821.000000 0 0 1
-5.225207 15.553387 -23.032305 28.278927 -1.246690 2.522609 0.039898 -0.011490 64657.800000 0 0 1
-5.360107 15.064787 -24.343005 29.124911 -1.228961 2.560410 0.033267 -0.010697 -1540480.000000 0 0 1
-6.790807 15.189887 -24.892105 29.941019 -1.150389 2.552367 0.009252 -0.011623 29137.000000 0 0 1
-7.258307 16.533987 -25.053905 30.882906 -1.157133 2.517091 0.012308 -0.009925 824218.000000 0 0 1
-8.626407 16.552387 -25.492685 31.595465 -1.090366 2.509590 0.002641 -0.004074 571142.000000 0 0 1
-9.298307 17.830487 -25.983065 32.855813 -1.090110 2.482945 0.002479 -0.002788 -25474.600000 0 0 1
-9.657807 18.766187 -25.021705 32.734213 -1.095506 2.440891 0.005881 -0.002966 -40149.400000 0 0 1
-10.582107 19.693887 -25.532815 33.937513 -1.077733 2.422415 0.017060 -0.005921 8253.530000 0 0 1
-10.875007 20.889787 -24.609705 34.062979 -1.090813 2.378174 0.002580 -0.001506 551108.000000 0 0 1
-9.743207 21.773687 -24.611705 34.274766 -1.150043 2.371823 0.018904 0.004862 543819.000000 0 0 1
-10.109207 23.042787 -25.035005 35.495318 -1.157367 2.353649 0.026718 -0.011534 -291957.000000 0 0 1
-9.856507 23.362187 -26.511365 36.685079 -1.171554 2.378460 0.010364 -0.009723 168509.000000 0 0 1
-10.732107 22.614487 -27.378765 37.097034 -1.127701 2.400944 0.003405 -0.005072 443149.000000 0 0 1
-10.692307 23.175087 -28.697425 38.405108 -1.138527 2.414680 0.007864 -0.010363 71691.900000 0 0 1
-11.508007 22.387587 -29.826145 39.028672 -1.095984 2.440614 0.006977 -0.012116 302991.000000 0 0 1
-10.876707 21.191687 -30.194685 38.459191 -1.096602 2.473670 0.010497 -0.012000 -156361.000000 0 0 1
-10.889207 20.199187 -29.177225 37.119974 -1.076367 2.475149 0.010983 -0.005151 -272684.000000 0 0 1
-9.879007 19.131487 -29.614705 36.614742 -1.094135 2.512938 -0.003661 -0.008906 -1308970.000000 0 0 1
-8.575507 19.572587 -29.567015 36.480596 -1.157850 2.515778 -0.011202 -0.007712 -646585.000000 0 0 1
-7.612207 18.701687 -30.196035 36.324913 -1.184242 2.552196 -0.013833 -0.009163 792562.000000 0 0 1
-7.151807 17.411087 -29.439515 34.942515 -1.181047 2.572727 -0.000955 -0.018010 92034.300000 0 0 1
-8.172807 16.381087 -29.527035 34.741626 -1.108015 2.586599 -0.012045 -0.015094 809920.000000 0 0 1
-7.857907 15.246887 -28.808725 33.528449 -1.094922 2.604563 -0.012636 -0.007569 -672289.000000 0 0 1
-9.034107 14.272487 -28.852745 33.433514 -1.006484 2.611952 -0.009625 -0.002803 -388686.000000 0 0 1
-9.964307 14.778887 -27.931225 33.133914 -0.977579 2.573595 -0.005890 -0.005086 -306534.000000 0 0 1
-11.221007 14.133787 -27.938395 33.260019 -0.899778 2.568078 0.008747 -0.005947 438641.000000 0 0 1
-12.205807 14.624087 -26.830365 32.904622 -0.875289 2.524213 0.002901 -0.004670 270841.000000 0 0 1
-12.633707 15.948087 -27.057095 33.853189 -0.900844 2.496839 -0.000297 -0.001995 -438850.000000 0 0 1
-13.530007 16.405587 -26.078955 33.649907 -0.881163 2.457524 -0.011107 0.003172 40732.800000 0 0 1
-14.331007 17.650487 -26.540005 34.946950 -0.888822 2.433244 -0.021416 0.002021 326154.000000 0 0 1
-13.532007 18.821187 -26.772635 35.413645 -0.947447 2.427973 -0.019179 0.001406 653770.000000 0 0 1
-14.413507 19.876187 -27.222005 36.658554 -0.943380 2.407715 -0.030056 0.004743 417269.000000 0 0 1
-13.829707 21.316387 -27.217125 37.234675 -0.995277 2.390527 -0.021748 -0.000707 -65370.700000 0 0 1
-14.818307 22.179387 -27.759435 38.497970 -0.981794 2.376131 -0.031153 -0.000701 445812.000000 0 0 1
-14.411007 23.569687 -27.768665 39.170219 -1.022021 2.358766 -0.024295 0.000161 -46960.600000 0 0 1
-14.150007 24.299187 -26.388285 38.561831 -1.043475 2.324455 -0.037031 -0.000573 129437.000000 0 0 1
-13.758807 25.626087 -26.592495 39.410175 -1.078061 2.311439 -0.006888 -0.012741 -170571.000000 0 0 1
-13.358707 26.157387 -25.353195 38.800109 -1.098621 2.282904 0.012064 -0.018777 -103479.000000 0 0 1
-13.346507 27.696187 -25.290665 39.809870 -1.121742 2.259176 0.018489 -0.017984 -306069.000000 0 0 1
-14.595707 28.221187 -25.621505 40.815825 -1.093492 2.249436 0.027679 -0.023492 -613989.000000 0 0 1
-14.676307 29.470687 -24.963305 41.316849 -1.108753 2.219548 0.031062 -0.021205 -581878.000000 0 0 1
-16.032107 30.078887 -25.280805 42.436859 -1.081097 2.208967 0.035019 -0.026007 -835654.000000 0 0 1
-17.054707 29.259687 -24.856005 42.009681 -1.043065 2.203929 0.022466 -0.020415 -1358630.000000 0 0 1
-18.219507 29.419387 -25.606245 43.048003 -1.016304 2.207851 0.028936 -0.017515 364234.000000 0 0 1
-19.252307 28.216787 -25.385085 42.558676 -0.972049 2.209895 0.028794 -0.004292 708919.000000 0 0 1
-19.870207 28.221887 -24.096505 42.094437 -0.957343 2.180274 0.034846 -0.012006 -220435.000000 0 0 1
-20.757007 27.146887 -23.973105 41.743462 -0.918005 2.182540 0.040853 -0.027736 33484.100000 0 0 1
-21.581707 27.187087 -22.632305 41.438255 -0.899834 2.148581 0.036218 -0.017099 -82897.400000 0 0 1
-22.610407 28.122787 -22.526205 42.538824 -0.893628 2.128860 0.042207 -0.011359 -421739.000000 0 0 1
-22.935607 28.167687 -21.181205 42.048830 -0.887425 2.098706 0.024843 -0.006801 -854779.000000 0 0 1
-24.209207 28.953687 -20.895705 43.139682 -0.874407 2.076443 0.026420 -0.002643 -179223.000000 0 0 1
-25.318507 28.148087 -21.273505 43.426992 -0.838271 2.082735 0.015221 -0.003666 24338.000000 0 0 1
-26.511707 28.875387 -21.456605 44.688304 -0.828048 2.071610 0.025687 -0.000518 64594.800000 0 0 1
-27.713697 28.087287 -21.981905 45.168007 -0.792093 2.079070 0.010599 -0.000817 -311095.000000 0 0 1
-27.651787 27.720987 -23.325305 45.575699 -0.786648 2.108066 0.007932 -0.000620 204429.000000 0 0 1
-28.917687 27.202087 -23.712105 46.243379 -0.754837 2.109202 -0.000620 -0.003940 283347.000000 0 0 1
-28.990967 26.820487 -25.204225 46.851549 -0.746528 2.138811 0.003613 0.007209 -48639.000000 0 0 1
-28.580957 25.475687 -25.469415 45.984485 -0.728016 2.157801 0.007286 0.006520 13541.000000 0 0 1
-28.491937 25.175987 -26.865685 46.555191 -0.723690 2.185935 0.031290 -0.001022 -241423.000000 0 0 1
-28.428447 23.689687 -27.195915 45.923803 -0.694724 2.204578 0.037417 -0.003861 -273008.000000 0 0 1
-27.198077 23.038387 -26.968665 44.696885 -0.702784 2.218514 0.028746 -0.002875 -161228.000000 0 0 1
-27.113647 21.766987 -27.617775 44.403751 -0.676449 2.242052 0.058345 -0.018821 794398.000000 0 0 1
-25.908007 20.857487 -27.123165 42.917662 -0.677818 2.254904 0.049872 -0.017647 684839.000000 0 0 1
-26.049677 20.460987 -25.766105 41.965817 -0.665812 2.231887 0.050982 -0.007210 -35834.700000 0 0 1
-25.522167 19.160887 -25.423485 40.802870 -0.643984 2.243472 0.021690 -0.002250 -150073.000000 0 0 1
-26.436007 17.932887 -25.555435 40.908815 -0.596048 2.245534 0.023411 -0.001184 52277.000000 0 0 1
-27.095567 17.745587 -26.823885 42.054684 -0.579830 2.262478 0.032136 -0.010145 419883.000000 0 0 1
-27.859217 16.550287 -26.785205 42.041589 -0.536047 2.261542 0.021239 -0.013146 167368.000000 0 0 1
-28.699677 16.306287 -28.079755 43.336349 -0.516686 2.275685 0.028897 -0.019404 673872.000000 0 0 1
-29.897977 17.061387 -28.308395 44.568433 -0.518562 2.259021 0.028492 -0.024029 618492.000000 0 0 1
-30.634187 16.342687 -29.306675 45.435867 -0.490071 2.271835 0.033335 -0.019770 468779.000000 0 0 1
-31.984777 17.039687 -29.676725 46.841060 -0.489498 2.256945 0.035902 -0.019300 400749.000000 0 0 1
-32.947177 16.919387 -28.641335 46.819955 -0.474413 2.229046 0.020920 -0.014992 -440070.000000 0 0 1
-34.202403 17.196187 -29.191845 48.142258 -0.465867 2.222279 0.026001 -0.016015 74853.300000 0 0 1
35.050889 16.776687 -28.352265 48.102734 0.446412 2.201125 0.023189 -0.008872 278308.000000 0 0 1
34.927580 17.457787 -27.137165 47.551403 0.463510 2.178144 0.025579 -0.011365 993701.000000 0 0 1
33.714706 17.054787 -26.438455 46.114413 0.468321 2.181352 0.036241 -0.009986 949998.000000 0 0 1
33.149756 18.066987 -25.434875 45.522030 0.499005 2.163659 0.030184 -0.006287 103152.000000 0 0 1
32.523076 19.134087 -26.163665 45.917329 0.531790 2.177058 0.030644 -0.018835 395628.000000 0 0 1
31.940346 20.135987 -25.306655 45.454048 0.562491 2.161268 0.030972 -0.011844 -177816.000000 0 0 1
31.451856 21.391087 -26.048255 46.101079 0.597260 2.171260 0.026362 -0.013954 332365.000000 0 0 1
30.160356 21.266487 -26.628435 45.508066 0.614150 2.195845 0.024641 -0.018624 29790.200000 0 0 1
29.156826 21.839387 -25.806315 44.643535 0.642881 2.187137 0.037161 -0.017182 -376510.000000 0 0 1
27.755626 21.772187 -26.411245 44.067639 0.665171 2.213466 0.010149 -0.018166 -297125.000000 0 0 1
27.391006 20.469987 -26.596565 43.320490 0.641787 2.231850 0.020658 -0.026510 -120316.000000 0 0 1
26.063966 20.336887 -27.087425 42.739302 0.662593 2.257230 0.013853 -0.026441 328281.000000 0 0 1
25.534396 18.854887 -26.992465 41.666597 0.636043 2.275516 0.023730 -0.013455 -184291.000000 0 0 1
26.191156 17.916787 -27.800905 42.188603 0.599960 2.290241 0.029410 -0.013966 -397172.000000 0 0 1
27.254726 17.299987 -27.137215 42.172717 0.565581 2.269830 0.026985 -0.010551 -151595.000000 0 0 1
28.015156 16.266087 -28.059445 42.857520 0.526046 2.284601 0.021774 -0.005575 333995.000000 0 0 1
27.307246 15.047987 -28.400595 42.174891 0.503658 2.309595 0.030626 -0.010000 609651.000000 0 0 1
26.783516 14.173987 -27.352285 40.821638 0.486738 2.305064 0.040873 -0.010942 -38663.600000 0 0 1
27.845646 13.334287 -26.609335 40.758311 0.446597 2.282146 0.035334 -0.010499 -42752.400000 0 0 1
28.412016 13.957487 -25.472285 40.631163 0.456626 2.248383 0.045414 -0.014340 -134909.000000 0 0 1
29.269336 13.117387 -24.757105 40.517578 0.421324 2.228146 0.047735 -0.016315 -107257.000000 0 0 1
-14.079307 -31.272977 -24.656705 42.239544 1.147770 2.194118 0.060797 0.003384 214613.000000 0 0 1
-13.345807 -30.123677 -25.024005 41.373268 1.153751 2.220355 0.038933 -0.004488 70726.700000 0 0 1
-13.870307 -29.672177 -26.260105 41.981146 1.133525 2.246596 0.029274 -0.002768 13746.400000 0 0 1
-13.263007 -28.347177 -26.818685 41.215430 1.133175 2.279296 0.034258 -0.001083 -328397.000000 0 0 1
-13.678507 -27.145577 -26.309755 40.201830 1.104038 2.284240 0.045433 -0.004162 -298008.000000 0 0 1
-13.172507 -26.023877 -27.025855 39.763727 1.102225 2.318097 0.038195 -0.002812 -224036.000000 0 0 1
-13.481107 -24.656277 -26.357465 38.527759 1.070443 2.324188 0.029347 -0.016672 -166103.000000 0 0 1
-12.982807 -24.486577 -25.041505 37.352680 1.083281 2.305554 0.017260 -0.017033 29478.000000 0 0 1
-13.308907 -23.205777 -24.668305 36.389014 1.050077 2.315706 0.026167 -0.012555 -273696.000000 0 0 1
-12.897207 -22.737177 -23.273005 34.999285 1.054821 2.298232 0.006404 -0.003849 1076560.000000 0 0 1
-11.472307 -22.491277 -23.184205 34.277963 1.099119 2.313604 -0.000600 -0.009429 777457.000000 0 0 1
-11.057307 -21.925677 -21.984205 32.959136 1.103708 2.300990 -0.004306 -0.004990 908777.000000 0 0 1
-9.496707 -21.743177 -22.034805 32.380331 1.159001 2.319241 0.000585 -0.007689 793171.000000 0 0 1
-9.180007 -20.737777 -22.982805 32.288345 1.154054 2.362852 0.008184 -0.013220 892253.000000 0 0 1
-7.769207 -20.446177 -23.065605 31.787244 1.207664 2.382738 0.022382 -0.011659 1025810.000000 0 0 1
-7.598207 -19.223877 -23.993205 31.669608 1.194393 2.430440 0.027345 -0.002250 -175131.000000 0 0 1
-8.165107 -18.079577 -23.433505 30.702919 1.146596 2.439100 0.017052 -0.005128 -188675.000000 0 0 1
-8.553507 -17.174577 -24.412105 31.049629 1.108724 2.475478 0.022890 -0.008968 -498157.000000 0 0 1
-7.411707 -16.405877 -25.089295 30.879749 1.146470 2.519196 0.032090 -0.008735 -165740.000000 0 0 1
-6.700807 -17.195977 -26.038895 31.915929 1.199224 2.525009 0.023868 -0.010791 -154315.000000 0 0 1
-5.819807 -16.410577 -26.780095 31.942928 1.229996 2.565088 0.014032 -0.009881 -336514.000000 0 0 1
-5.345807 -17.086077 -28.056565 33.281865 1.267570 2.573630 0.011269 -0.004440 134325.000000 0 0 1
-6.462807 -17.095077 -28.914145 34.205808 1.209354 2.577921 0.032364 -0.012751 323919.000000 0 0 1
-6.168907 -17.852377 -30.054375 35.496876 1.238090 2.580505 0.034075 -0.013495 -169378.000000 0 0 1
-7.139907 -17.566077 -31.208785 36.517579 1.184733 2.595622 0.048774 -0.020747 -56820.800000 0 0 1
-6.996507 -16.369777 -32.059095 36.670237 1.166891 2.634693 0.044528 -0.024715 -188538.000000 0 0 1
-6.920507 -15.188477 -31.358435 35.523720 1.143260 2.652472 0.032673 -0.020932 -53189.500000 0 0 1
-7.242807 -13.908777 -32.166345 35.785277 1.090698 2.687982 0.028559 -0.018754 -136356.000000 0 0 1
-6.388307 -13.782977 -33.263345 36.568170 1.136779 2.713178 0.040198 -0.027633 -234679.000000 0 0 1
-6.985007 -13.048877 -34.335666 37.389858 1.079312 2.734599 0.042276 -0.031601 -96277.200000 0 0 1
-7.384407 -11.553177 -34.106008 36.759015 1.002074 2.759341 0.021470 -0.022190 110021.000000 0 0 1
-6.285907 -10.675877 -34.155549 36.333022 1.038656 2.793629 0.011509 -0.023373 -296301.000000 0 0 1
-5.775207 -10.466077 33.576548 35.640936 1.066570 0.342023 0.015565 -0.029000 -82734.500000 0 0 1
-4.609007 -9.454077 33.614990 35.222011 1.117186 0.303238 0.019315 -0.027555 -120970.000000 0 0 1
-4.194107 -9.045177 32.306698 33.810183 1.136621 0.299339 0.020691 -0.021462 -311875.000000 0 0 1
-3.380107 -7.924477 32.409648 33.535172 1.167622 0.259815 0.016357 -0.026737 -1112270.000000 0 0 1
-3.557307 -6.916977 31.200638 32.155541 1.095785 0.244313 0.013801 -0.014724 -15357.800000 0 0 1
-4.667307 -6.057277 31.157338 32.081990 0.914286 0.240670 -0.001056 -0.011360 56928.700000 0 0 1
-5.910407 -6.720577 30.912458 32.181969 0.849452 0.281816 0.008147 -0.013609 -723150.000000 0 0 1
-7.027907 -5.686877 30.754978 32.056212 0.680317 0.285902 -0.000172 -0.005190 -740675.000000 0 0 1
-8.116007 -6.310977 30.147098 31.851931 0.660930 0.328658 0.003480 -0.000583 -335688.000000 0 0 1
-9.259007 -5.441277 30.174248 32.028455 0.531307 0.341935 0.000823 0.000039 908122.000000 0 0 1
-10.431207 -5.939277 29.259778 31.626250 0.517597 0.389303 0.011751 -0.004023 265720.000000 0 0 1
-10.116907 -5.718377 27.923428 30.245156 0.514461 0.394376 0.002947 0.000002 715268.000000 0 0 1
-11.164507 -6.125877 27.032658 29.882055 0.501839 0.440250 0.018533 -0.003807 340012.000000 0 0 1
-10.756707 -5.977877 25.532938 28.343830 0.507235 0.449122 0.007447 -0.004055 481954.000000 0 0 1
-9.645207 -6.834477 25.200028 27.834897 0.616466 0.438618 0.006538 -0.001060 770979.000000 0 0 1
-9.003107 -6.485677 23.973158 26.416515 0.624275 0.433487 0.001085 0.001130 -150138.000000 0 0 1
-9.811607 -6.737577 22.659058 25.594833 0.601740 0.483662 -0.001714 0.000294 -388941.000000 0 0 1
-10.916607 -5.891077 22.565258 25.750106 0.494857 0.502633 -0.004297 0.000351 -565387.000000 0 0 1
-11.587507 -6.073877 21.339258 25.030506 0.482800 0.549989 0.001255 0.001343 -801567.000000 0 0 1
-12.713607 -5.075577 21.221758 25.253917 0.379837 0.572895 -0.002316 0.003476 -756788.000000 0 0 1
-12.372507 -3.736277 20.967358 24.630648 0.293274 0.552393 -0.014773 0.005747 -53875.900000 0 1 0
-13.558307 -2.947277 21.014658 25.181938 0.214048 0.583548 -0.001701 0.006919 480034.000000 0 0 1
-13.417307 -1.528277 20.495958 24.544736 0.113415 0.582582 0.000428 0.003127 -109567.000000 0 1 0
-12.511907 -0.708277 21.185258 24.614318 0.056548 0.534176 -0.001102 0.000187 -324737.000000 0 1 0
-12.744907 0.644723 20.956358 24.536040 -0.050544 0.546968 0.006409 -0.010856 -200184.000000 0 1 0
-12.245207 1.286723 19.548358 23.102793 -0.104696 0.562083 0.017239 -0.017731 233650.000000 0 1 0
-13.005907 0.939723 18.373258 22.530275 -0.072128 0.617218 0.022067 -0.010701 649785.000000 0 1 0
-14.278107 1.601723 18.420958 23.361540 -0.111713 0.662403 0.018440 -0.004899 354328.000000 0 1 0
-15.358907 0.940723 17.537458 23.331168 -0.061173 0.720198 0.022634 0.003109 -3489.220000 0 1 0
-15.618207 -0.374277 18.051258 23.872922 0.023960 0.713403 0.010233 0.003977 -83670.200000 0 1 0
-16.786407 -0.896277 17.498358 24.264775 0.053342 0.765346 0.013450 0.012851 -254976.000000 0 1 0
-16.784807 -2.443277 17.677858 24.499102 0.144550 0.764727 0.015966 0.011274 -27565.200000 0 1 0
-17.040907 -2.828277 18.963958 25.651966 0.164471 0.738797 0.013502 0.013886 64058.400000 0 0 1
-16.758607 -4.221877 19.115858 25.769967 0.246788 0.735063 0.012399 0.014697 -14090.600000 0 0 1
-17.380107 -4.856977 20.410758 27.244401 0.272504 0.723984 0.011752 0.019478 267009.000000 0 0 1
-16.704807 -4.447177 21.630258 27.689276 0.260187 0.674246 0.015509 0.015524 742289.000000 0 0 1
-17.545407 -4.599277 22.788858 29.126049 0.256367 0.672251 0.017749 0.006979 25866.500000 0 0 1
-17.738507 -6.055577 23.363258 29.952737 0.328975 0.676124 0.031111 0.006785 499433.000000 0 0 1
-16.595007 -6.704377 23.938958 29.890076 0.383950 0.642000 0.008916 -0.003010 -84636.300000 0 0 1
-15.659307 -7.189877 23.048758 28.777656 0.430432 0.641957 0.030007 0.001149 -1206020.000000 0 0 1
-14.483507 -7.804077 23.783758 28.919591 0.494223 0.605162 0.034969 0.004099 -452984.000000 0 0 1
-14.861607 -9.015577 24.465708 30.011979 0.545284 0.617725 0.024730 0.000472 74280.800000 0 0 1
-14.265207 -8.989477 25.717468 30.752154 0.562307 0.580330 0.028613 0.000755 -284100.000000 0 0 1
-14.874607 -9.957077 26.687708 32.134578 0.589893 0.590795 0.024058 -0.006066 -563588.000000 0 0 1
-14.759807 -11.358677 26.434278 32.336396 0.655908 0.613779 0.022765 -0.008235 -48552.100000 0 0 1
-13.989307 -12.037677 27.428238 33.059259 0.710553 0.592282 0.028035 -0.014152 73494.400000 0 0 1
-14.043207 -13.571277 27.291298 33.558995 0.768310 0.621109 0.015785 -0.011961 194117.000000 0 0 1
-15.264507 -14.181377 27.726238 34.682285 0.748631 0.644442 0.012174 -0.008335 516269.000000 0 0 1
-15.496707 -15.542577 27.304688 35.032351 0.786876 0.677067 0.019962 0.000255 -75169.200000 0 0 1
-14.563007 -16.523877 28.048768 35.663049 0.848392 0.665685 0.013043 -0.002711 -575666.000000 0 0 1
-13.293807 -16.534977 27.482168 34.718876 0.893633 0.657434 0.019625 -0.005979 -580048.000000 0 0 1
-12.479507 -17.462477 28.208058 35.445320 0.950308 0.650437 0.024722 -0.007158 412309.000000 0 0 1
-11.032007 -17.576077 27.653538 34.573716 1.010278 0.643763 0.027173 -0.010677 407043.000000 0 0 1
-10.162507 -18.428677 28.382968 35.333915 1.066840 0.638017 0.030703 -0.016036 539386.000000 0 0 1
-9.208707 -19.078577 27.514778 34.725429 1.121106 0.656141 0.023781 -0.016588 448948.000000 0 0 1
-8.072407 -19.804877 28.298308 35.470990 1.183758 0.647180 0.039146 -0.015815 193742.000000 0 0 1
-8.534607 -20.869177 29.142598 36.846344 1.182592 0.658481 0.032936 -0.010223 52556.800000 0 0 1
-7.473707 -21.453477 29.875558 37.532079 1.235576 0.650137 0.043744 -0.009301 68511.900000 0 0 1
-7.758807 -22.818177 30.582038 38.937505 1.243033 0.667433 0.037632 -0.010100 86730.300000 0 0 1
-7.682907 -23.929877 29.707588 38.912811 1.260133 0.702174 0.032524 -0.001985 -71582.800000 0 0 1
-8.165307 -25.055377 30.367068 40.207002 1.255759 0.714733 0.031780 -0.001483 -237150.000000 0 0 1
-8.317107 -26.355877 29.521988 40.439514 1.265118 0.752433 0.026424 0.000828 572010.000000 0 0 1
-9.505507 -26.374377 28.694398 40.116467 1.224881 0.773776 0.009120 0.003145 904491.000000 0 0 1
-9.576007 -27.534777 27.920818 40.366272 1.236102 0.806974 0.006086 0.008370 -149666.000000 0 0 1
-10.808207 -27.626177 26.994838 40.109154 1.197873 0.832493 0.001490 0.003278 -194677.000000 0 0 1
-10.866007 -26.799977 25.810408 38.761915 1.185602 0.842137 0.008883 -0.000157 106134.000000 0 0 1
-10.969107 -25.380477 25.953298 37.921809 1.162854 0.817030 0.008476 0.004079 -333137.000000 0 0 1
-11.204607 -24.800077 24.571928 36.665606 1.146449 0.836368 0.020870 -0.014290 364421.000000 0 0 1
-12.493707 -25.093877 24.037658 36.927014 1.108847 0.861960 0.018234 -0.013065 460572.000000 0 0 1
-12.460507 -24.992977 22.617458 35.936925 1.108301 0.890060 0.025519 -0.018563 -337575.000000 0 0 1
-13.857407 -24.869377 21.989358 35.972844 1.062436 0.913124 0.028521 -0.020910 -165780.000000 0 0 1
-14.358807 -26.208377 21.744458 36.957757 1.069589 0.941767 0.030634 -0.018690 -50695.700000 0 0 1
-15.623407 -26.166077 21.129158 37.083632 1.032522 0.964570 0.037685 -0.019752 -75694.000000 0 0 1
-16.057007 -27.547477 20.590558 37.956054 1.043057 0.997405 0.033409 -0.020305 -37674.800000 0 0 1
-15.221307 -27.943777 19.523758 37.332559 1.072022 1.020466 0.026870 -0.018555 -73842.000000 0 0 1
-15.369207 -29.302977 19.156258 38.234006 1.087747 1.046012 0.024649 -0.006585 801996.000000 0 0 1
-14.311507 -29.804477 18.064558 37.675647 1.123130 1.070739 0.025133 -0.004804 870983.000000 0 0 1
-14.595407 -29.282877 16.774958 36.768356 1.108407 1.097038 0.025353 -0.013155 510312.000000 0 0 1
-13.491507 -29.610177 15.912658 36.221486 1.143264 1.115960 0.028576 -0.014902 570742.000000 0 0 1
-13.715807 -29.053877 14.490958 35.245411 1.129732 1.147087 0.010348 -0.011907 -261522.000000 0 0 1
-13.683507 -27.680777 14.346458 34.048269 1.111693 1.135856 0.018156 -0.013113 -240814.000000 0 0 1
-14.044207 -27.297077 13.040458 33.353017 1.095620 1.169097 0.012404 0.003689 -277505.000000 0 0 1
-13.004807 -27.422077 11.920758 32.606745 1.127963 1.196528 0.008606 0.007134 -262615.000000 0 0 1
-13.262607 -26.668377 10.785558 31.676921 1.109298 1.223362 0.007236 0.007204 67600.800000 0 0 1
-12.309807 -26.899477 9.755858 31.149478 1.141622 1.252241 0.009473 -0.001143 105753.000000 0 0 1
-12.660507 -26.064777 8.552658 30.212729 1.118628 1.283791 0.004382 0.003251 652677.000000 0 0 1
-13.876507 -26.472577 7.881158 30.910636 1.087989 1.312984 0.026729 -0.008462 762749.000000 0 0 1
-14.102907 -25.709477 6.695258 30.078160 1.069068 1.346321 0.021249 -0.009919 5634.810000 0 0 1
-15.188607 -26.248077 5.747958 30.865747 1.046219 1.383478 0.014101 -0.002105 -45791.200000 0 0 1
-14.769507 -27.415777 5.062658 31.549860 1.076652 1.409634 0.030414 -0.017334 63529.500000 0 0 1
-15.587507 -27.686177 3.925558 32.014134 1.058022 1.447867 0.026760 -0.004622 45403.600000 0 0 1
-15.073607 -28.824877 3.004458 32.666710 1.088968 1.478693 0.022012 -0.006255 363347.000000 0 0 1
-13.764307 -28.731677 2.442558 31.952019 1.124037 1.494277 0.023661 -0.004174 201572.000000 0 0 1
-13.533307 -29.863377 1.606258 32.826084 1.145306 1.521844 0.021613 -0.005074 -602271.000000 0 0 1
-12.111007 -29.810877 1.038958 32.193855 1.184904 1.538519 0.006423 -0.007104 -272233.000000 0 0 1
-11.935907 -28.894877 -0.019742 31.263080 1.179065 1.571428 0.012887 -0.008065 -119193.000000 0 0 1
-12.041407 -27.492477 0.208558 30.014584 1.157975 1.563848 0.008612 -0.006043 -754434.000000 0 0 1
-11.764707 -26.567377 -1.009842 29.073246 1.153925 1.605538 0.008989 0.001498 150385.000000 0 0 1
-10.487407 -26.818477 -1.578642 28.839357 1.198028 1.625563 0.010590 -0.007309 -83235.200000 0 0 1
-10.129307 -25.936977 -2.622142 27.967933 1.198476 1.664690 0.021900 -0.008543 1076330.000000 0 0 1
-8.850607 -26.475477 -3.373842 28.118801 1.248181 1.691071 0.018153 -0.008948 1032840.000000 0 0 1
-8.290807 -25.600277 -4.370442 27.261923 1.257599 1.731804 0.023786 -0.006661 157315.000000 0 0 1
-7.032807 -26.045677 -4.858442 27.412445 1.307068 1.748972 0.026870 0.000812 895642.000000 0 0 1
-6.261607 -25.016377 -5.777342 26.427344 1.325535 1.791188 0.025625 -0.000673 248143.000000 0 0 1
-6.813707 -24.965177 -7.121642 26.840351 1.304357 1.839346 0.022339 0.007581 363113.000000 0 0 1
-6.134707 -23.929877 -7.825342 25.913503 1.319839 1.877565 0.014653 0.009199 -50289.800000 0 0 1
-6.482907 -23.862777 -9.332042 26.430044 1.305524 1.931662 0.019088 0.010233 145686.000000 0 0 1
-5.797507 -24.899977 -10.074342 27.479307 1.342040 1.946165 0.003996 0.008275 273003.000000 0 0 1
-5.995207 -24.926177 -11.477842 28.089102 1.334761 1.991741 -0.000878 0.013656 -746060.000000 0 0 1
-7.174507 -25.658977 -12.058442 29.244875 1.298149 1.995803 -0.002741 0.009099 -631856.000000 0 0 1
-7.398307 -25.482677 -13.405842 29.729083 1.288237 2.038607 -0.000712 0.006873 493990.000000 0 0 1
-8.642507 -26.058277 -13.817542 30.735179 1.250552 2.037078 0.009096 0.003330 -25365.800000 0 0 1
-8.743607 -26.009777 -15.354342 31.443839 1.246498 2.080948 0.014951 -0.002039 132950.000000 0 0 1
-8.063507 -26.939677 -16.222642 32.464449 1.279966 2.094054 0.004789 -0.005155 1059530.000000 0 0 1
-6.646707 -26.700177 -16.230042 31.945147 1.326817 2.103727 0.002495 -0.003337 887643.000000 0 0 1
-5.728707 -27.641877 -17.081142 32.994801 1.366442 2.114947 -0.002572 -0.005088 302037.000000 0 0 1
-5.849207 -27.394777 -18.481642 33.559770 1.360440 2.154009 0.014794 -0.003563 744810.000000 0 0 1
-4.615507 -27.642977 -19.175942 33.958119 1.405354 2.170859 0.018175 -0.005403 424909.000000 0 0 1
-24.482507 15.050987 -4.964705 29.164596 -0.551205 1.741860 -0.005097 -0.007277 -340644.000000 0 0 1
-24.674807 13.640387 -4.727105 28.587616 -0.504995 1.736914 -0.012888 -0.008666 347378.000000 0 0 1
-23.496607 12.862087 -4.777205 27.209291 -0.500846 1.747284 0.000825 -0.009681 -627588.000000 0 0 1
-23.722407 11.458087 -4.173205 26.673133 -0.449961 1.727899 0.010653 -0.013213 -135529.000000 0 0 1
-24.162507 10.452787 -5.054305 26.807341 -0.408293 1.760473 0.016923 -0.010328 79540.100000 0 0 1
-25.524477 10.554087 -5.382205 28.139933 -0.392080 1.763248 0.012660 -0.010018 -674512.000000 0 0 1
-25.822467 9.673387 -6.624505 28.359448 -0.358430 1.806565 0.025808 -0.012846 78792.800000 0 0 1
-25.116717 10.164987 -7.784205 28.191671 -0.384560 1.850548 0.031473 -0.010877 112649.000000 0 0 1
-25.514667 9.596387 -9.011605 28.710589 -0.359746 1.890070 0.046909 -0.017625 -331482.000000 0 0 1
-26.137327 10.471387 -10.068005 29.902751 -0.381049 1.914197 0.023686 -0.008808 -445098.000000 0 0 1
-25.247247 11.359387 -10.664505 29.668010 -0.422792 1.938487 0.025909 -0.005852 -251749.000000 0 0 1
-25.824887 12.008587 -11.744305 30.806812 -0.435258 1.961917 0.012196 -0.008122 186275.000000 0 0 1
-24.864307 13.123087 -12.334805 30.701736 -0.485630 1.984237 0.016118 -0.005479 248958.000000 0 0 1
-24.667507 14.237887 -11.477805 30.707383 -0.523480 1.953877 0.014005 -0.004679 397447.000000 0 0 1
-23.696707 15.080787 -12.074205 30.573690 -0.566761 1.976779 0.012469 -0.008259 78692.400000 0 0 1
-23.903707 16.530187 -11.609805 31.295717 -0.605020 1.950851 0.014487 -0.000593 -338596.000000 0 0 1
-23.172207 16.785587 -10.440405 30.458319 -0.626905 1.920668 0.025122 0.000258 1596.730000 0 0 1
-23.100107 18.166987 -10.178805 31.100843 -0.666421 1.904224 0.014972 0.006225 363248.000000 0 0 1
-21.846607 18.400487 -9.260605 30.026838 -0.699982 1.884318 0.006430 0.002408 322617.000000 0 0 1
-22.063007 17.977587 -7.940605 29.546965 -0.683718 1.842886 0.009903 0.001445 147458.000000 0 0 1
-22.750007 18.950687 -7.176505 30.466270 -0.694540 1.808587 -0.001254 0.003417 -238826.000000 0 0 1
-23.061307 18.383987 -5.761005 30.049693 -0.673018 1.763707 -0.008520 0.002716 100748.000000 0 0 1
-21.964507 18.322287 -4.858705 29.012976 -0.695236 1.739056 -0.002795 -0.009144 83430.400000 0 0 1
-22.419107 18.037387 -3.567205 28.994631 -0.677512 1.694139 -0.007549 -0.007303 -537142.000000 0 0 1
-21.411407 17.597587 -2.506805 27.828178 -0.687940 1.661000 -0.005455 -0.015465 -719793.000000 0 0 1
-20.796407 18.713487 -1.933905 28.043273 -0.732728 1.639813 -0.000101 -0.007694 456236.000000 0 0 1
-19.892607 18.372687 -0.878505 27.093232 -0.745698 1.603227 0.027942 -0.019797 389004.000000 0 0 1
-19.236507 19.612487 -0.139305 27.472027 -0.795076 1.575867 0.025287 -0.017447 312357.000000 0 0 1
-20.176007 20.364387 0.609295 28.673172 -0.790045 1.549545 0.027070 -0.014575 481744.000000 0 0 1
-19.622907 21.623287 0.931695 29.214604 -0.833859 1.538900 0.031743 -0.014641 175152.000000 0 0 1
-20.550607 22.364287 1.920995 30.433189 -0.827635 1.507633 0.016385 -0.018121 76696.900000 0 0 1
-20.504607 21.961787 3.272695 30.223659 -0.819698 1.462301 0.036421 -0.013067 295421.000000 0 0 1
-21.645907 22.421787 3.959895 31.415961 -0.803003 1.444413 0.015641 -0.019346 -44614.300000 0 0 1
-21.531707 21.877987 5.413595 31.169981 -0.793375 1.396231 0.023611 -0.015493 -10094.100000 0 0 1
-20.807207 22.696387 6.344295 31.437493 -0.828797 1.367594 0.034757 -0.006479 421422.000000 0 0 1
-20.080507 22.006387 7.341395 30.682306 -0.831126 1.329181 0.027245 -0.001393 -208998.000000 0 0 1
-20.832307 21.718787 8.613095 31.302973 -0.806228 1.292048 0.018607 -0.024315 -669816.000000 0 0 1
-21.851907 20.701287 8.534595 31.287193 -0.758365 1.294512 0.028827 -0.015970 815910.000000 0 0 1
-22.285407 20.281587 9.801195 31.686678 -0.738358 1.256323 0.039743 -0.014284 -147381.000000 0 0 1
-22.763307 21.332987 10.839795 33.026741 -0.752973 1.236386 0.039688 -0.021283 -292019.000000 0 0 1
-23.959207 22.005887 10.390595 34.150654 -0.742928 1.261637 0.043120 -0.023131 1025840.000000 0 0 1
-24.492707 22.742087 11.477695 35.338827 -0.748353 1.240007 0.044941 -0.020432 102471.000000 0 0 1
-25.342637 23.960887 10.994095 36.568340 -0.757380 1.265427 0.034301 -0.026864 225814.000000 0 0 1
-26.028837 24.492487 12.118295 37.739043 -0.754998 1.243897 0.033572 -0.024438 143622.000000 0 0 1
-26.608737 25.781187 11.975695 38.937280 -0.769603 1.258165 0.034780 -0.021530 91108.300000 0 0 1
-27.156637 26.274187 13.329295 40.068516 -0.768884 1.231671 0.038233 -0.031304 -187212.000000 0 0 1
-26.127597 26.442687 14.278895 39.821525 -0.791392 1.204058 0.030393 -0.021642 -133961.000000 0 0 1
-26.580457 26.762387 15.587795 40.813300 -0.788809 1.178913 0.025605 -0.019517 392410.000000 0 0 1
-25.478307 26.877687 16.724895 40.635899 -0.812120 1.146610 0.021327 -0.015810 719536.000000 0 0 1
-24.885107 25.638787 17.123195 39.620951 -0.800314 1.123893 0.028989 -0.012901 544220.000000 0 0 1
-23.862407 25.740587 18.112095 39.497345 -0.823244 1.094417 0.023559 -0.006041 116795.000000 0 0 1
-23.660107 24.426387 18.838995 38.876173 -0.801332 1.064902 0.025769 -0.002757 121734.000000 0 0 1
-22.460107 24.414787 19.610795 38.537275 -0.827074 1.036915 0.026477 -0.007882 689623.000000 0 0 1
-22.257907 23.132787 20.169395 37.912330 -0.804670 1.009834 0.024982 -0.011809 -216045.000000 0 0 1
-20.761607 22.866087 20.438995 37.035858 -0.833598 0.986191 0.032886 -0.010336 -401953.000000 0 0 1
-20.011207 22.626787 19.283195 35.836595 -0.846665 1.002631 0.037516 -0.009550 258330.000000 0 0 1
-18.652107 22.334587 19.603695 35.086176 -0.875003 0.977943 0.022660 -0.006703 393437.000000 0 0 1
-18.316807 20.815587 19.692195 34.008479 -0.849166 0.953248 0.035178 -0.018133 -350255.000000 0 0 1
-18.730507 20.176987 20.882695 34.554734 -0.822558 0.921863 0.052445 -0.024929 550857.000000 0 0 1
-17.838707 20.464887 21.998295 34.942182 -0.853853 0.889806 0.056170 -0.030131 380254.000000 0 0 1
-18.527707 20.341187 23.363995 36.095929 -0.832021 0.866792 0.037509 -0.023317 -156826.000000 0 0 1
-19.409307 21.430487 23.544095 37.286880 -0.834848 0.887399 0.022566 -0.012862 -95974.600000 0 0 1
-20.145907 21.292887 24.739695 38.357491 -0.813070 0.869803 0.026416 -0.014374 -112747.000000 0 0 1
-21.201907 22.388887 25.030995 39.715662 -0.812621 0.888915 0.026756 -0.011511 -314642.000000 0 0 1
-20.690707 23.744387 25.167095 40.314811 -0.854013 0.896607 0.022033 -0.009473 -225415.000000 0 0 1
-21.654107 24.754987 25.332195 41.514213 -0.852115 0.914477 0.017381 -0.007298 -28925.900000 0 0 1
-22.594507 25.212487 24.169895 41.597657 -0.840105 0.950791 0.011051 -0.012313 642960.000000 0 0 1
-23.595007 24.245787 23.849295 41.392891 -0.799000 0.956763 0.012040 -0.011536 845892.000000 0 0 1
-24.492907 24.811887 22.844395 41.682114 -0.791868 0.990750 0.009631 -0.009694 865277.000000 0 0 1
-25.561557 23.853387 22.239995 41.436634 -0.750844 1.004248 0.021184 -0.008258 360337.000000 0 0 1
-26.710097 23.664487 23.051495 42.483040 -0.725012 0.997261 0.022432 -0.013153 427696.000000 0 0 1
-27.507097 22.559087 22.524495 42.105887 -0.686889 1.006349 0.031356 -0.016709 975464.000000 0 0 1
-29.028887 22.772587 22.821995 43.383297 -0.665206 1.016841 0.040928 -0.012426 -264387.000000 0 0 1
-29.480207 23.809787 21.997495 43.816417 -0.679390 1.044843 0.030863 -0.010607 -178550.000000 0 0 1
-30.841417 24.136387 22.136995 44.986717 -0.664039 1.056321 0.025730 -0.009379 559257.000000 0 0 1
-31.866417 23.175487 21.392095 44.835181 -0.628794 1.073413 0.022747 -0.016048 -725213.000000 0 0 1
-31.902177 21.896387 21.962595 44.492205 -0.601513 1.054540 0.027544 -0.011198 225313.000000 0 0 1
-32.500807 20.882287 21.190595 44.061476 -0.571096 1.069078 0.013413 -0.000847 35362.000000 0 0 1
-33.990537 20.997187 20.784095 45.035731 -0.553359 1.091108 0.015116 -0.001887 -399572.000000 0 0 1
-34.334054 20.202787 19.705995 44.444416 -0.531860 1.111424 0.014597 0.002704 468922.000000 0 0 1
34.751493 20.260687 19.516695 44.710884 0.527838 1.119082 0.017998 0.006392 361725.000000 0 0 1
34.312736 19.456987 18.311095 43.488325 0.515838 1.136185 0.015603 0.016734 -235885.000000 0 0 1
34.556231 18.029087 18.438895 43.118139 0.480882 1.128920 0.025393 0.008155 86657.600000 0 0 1
33.793966 17.303687 17.541295 41.822802 0.473229 1.137991 0.026489 0.001511 -306075.000000 0 0 1
34.046486 15.795987 17.701395 41.497178 0.434397 1.130101 0.021346 -0.002030 -122293.000000 0 0 1
33.222926 15.036987 16.840995 40.168307 0.425021 1.138165 0.034281 -0.009666 163876.000000 0 0 1
33.590216 13.700287 16.889995 40.015902 0.387268 1.135056 0.023177 -0.014109 387126.000000 0 0 1
32.712516 12.799387 15.933195 38.572007 0.372957 1.144967 0.026654 -0.024031 292683.000000 0 0 1
32.950666 12.998087 14.556095 38.295908 0.375731 1.180897 0.023258 -0.015609 141943.000000 0 0 1
32.137146 12.185687 13.723495 37.008397 0.362428 1.190903 0.032106 -0.002995 -278680.000000 0 0 1
32.132056 12.450587 12.226795 36.564746 0.369668 1.229841 0.036633 -0.002895 -704005.000000 0 0 1
33.334296 12.165087 11.592195 37.330197 0.349924 1.255044 0.034569 -0.005239 -375325.000000 0 0 1
33.271586 12.562087 10.195595 36.996684 0.361015 1.291602 0.027267 0.004882 89804.800000 0 0 1
34.616114 12.423387 9.429595 37.967528 0.344573 1.319810 0.018367 0.004625 11204.500000 0 0 1
35.103033 11.153387 9.315795 37.992171 0.307645 1.323067 0.006893 0.006447 -260237.000000 0 0 1
-34.036017 11.077387 8.978595 36.902224 -0.314649 1.325022 -0.008291 0.014755 -91485.600000 0 0 1
-33.669857 10.897587 7.462495 36.167741 -0.313019 1.362973 0.006938 0.006795 -282356.000000 0 0 1
-33.980937 11.979987 6.644395 36.638398 -0.338945 1.388437 -0.005079 0.005618 10273.600000 0 0 1
-33.435057 11.703187 5.370695 35.828927 -0.336699 1.420331 -0.002598 -0.000800 -127884.000000 0 0 1
-34.029627 12.672487 4.346395 36.571828 -0.356485 1.451669 0.009788 0.011852 870166.000000 0 0 1
35.094946 12.323687 4.043995 37.415002 0.337701 1.462500 0.019262 0.001968 838551.000000 0 0 1
34.108016 13.299187 4.155295 36.844153 0.371781 1.457776 0.011233 -0.002617 3323.320000 0 0 1
33.885866 13.975887 5.553495 37.073153 0.391184 1.420432 0.036093 -0.000994 -1130020.000000 0 0 1
33.165786 15.220987 5.447095 36.896052 0.430261 1.422621 0.031116 0.004563 356138.000000 0 0 1
32.607586 15.704387 6.669895 36.801766 0.448834 1.388551 0.010236 0.013110 -242865.000000 0 0 1
31.360346 14.994987 7.207495 35.500267 0.446016 1.366349 0.028459 -0.000101 -794091.000000 0 0 1
31.504336 13.636687 7.551195 35.149722 0.408502 1.354279 0.047779 0.000277 -536362.000000 0 0 1
30.293936 12.952987 7.707895 33.836579 0.404051 1.340981 0.052365 0.009147 -387577.000000 0 0 1
30.314016 11.574887 6.991995 33.193457 0.364748 1.358563 0.060167 0.003963 -58470.700000 0 0 1
30.274406 11.738187 5.626895 32.954312 0.369881 1.399207 0.056375 -0.000964 195367.000000 0 0 1
30.833626 10.709287 4.812195 32.993311 0.334290 1.424421 0.062342 -0.010236 31541.100000 0 0 1
30.524486 10.958887 3.316095 32.601196 0.344687 1.468903 0.047046 -0.018646 1095320.000000 0 0 1
29.119946 10.833387 2.995995 31.213932 0.356161 1.474666 0.055121 -0.011872 1003610.000000 0 0 1
28.722466 11.372687 1.758795 30.942066 0.377011 1.513924 0.052891 -0.017374 31469.000000 0 0 1
27.178976 11.372287 1.629795 29.507319 0.396286 1.515535 0.059074 -0.010149 -53355.600000 0 0 1
26.692366 10.075587 1.410095 28.565508 0.360935 1.521413 0.049325 -0.010853 644323.000000 0 0 1
25.267236 9.963187 1.571295 27.206016 0.375594 1.513009 0.045372 -0.009163 627035.000000 0 0 1
24.868336 8.416687 1.606695 26.303160 0.326348 1.509675 0.048644 -0.014229 47197.600000 0 0 1
25.359436 7.699087 2.724995 26.642120 0.294755 1.468336 0.051380 -0.012470 501288.000000 0 0 1
26.753766 7.419287 2.709295 27.895342 0.270519 1.473519 0.073261 -0.017118 9432.050000 0 0 1
27.187676 6.626587 3.944195 28.260185 0.239074 1.430772 0.073172 -0.018731 -1365150.000000 0 0 1
28.554906 6.488087 3.960595 29.549353 0.223421 1.436359 0.080546 -0.009089 -1020610.000000 0 0 1
28.921816 5.679187 5.062995 29.905828 0.193896 1.400679 0.058491 -0.008693 507101.000000 0 0 1
30.421396 5.848387 5.474995 31.458553 0.189929 1.395867 0.048419 -0.004269 491891.000000 0 0 1
30.751026 7.068987 6.054195 32.128639 0.225953 1.381227 0.053371 -0.012185 -393129.000000 0 0 1
32.009006 7.012087 6.661495 33.438322 0.215659 1.370237 0.019071 -0.002406 -267085.000000 0 0 1
32.348976 8.146187 7.668995 34.229083 0.246693 1.344829 0.023814 -0.012986 -14834.500000 0 0 1
31.685056 7.983687 8.917495 33.870397 0.246832 1.304373 0.040594 -0.009646 153734.000000 0 0 1
32.157416 8.864787 9.908295 34.797388 0.268988 1.282059 0.033396 -0.001478 85765.100000 0 0 1
31.254356 8.756387 11.191695 34.333120 0.273162 1.238755 0.039997 -0.005314 38059.100000 0 0 1
30.020566 9.411387 11.131495 33.372426 0.303794 1.230726 0.040032 -0.002778 -168041.000000 0 0 1
29.313236 9.427187 12.338495 33.171918 0.311155 1.189681 0.026469 -0.003423 579712.000000 0 0 1
27.993696 10.287887 12.307595 32.263982 0.352186 1.179415 0.038580 -0.007438 360005.000000 0 0 1
28.194826 11.701687 12.291095 32.908186 0.393395 1.188021 0.037006 -0.007516 219898.000000 0 0 1
28.293526 12.244287 10.935495 32.711332 0.408424 1.229931 0.046620 -0.007854 -9423.980000 0 0 1
26.988326 12.318387 10.090895 31.335899 0.428191 1.242930 0.030286 -0.001638 48044.700000 0 0 1
27.145306 12.935987 8.816595 31.335918 0.444709 1.285588 0.017731 0.009396 268976.000000 0 0 1
25.892446 12.908387 8.142095 30.055597 0.462478 1.296467 0.024855 0.014588 105941.000000 0 0 1
25.713006 14.139987 7.193595 30.213337 0.502779 1.330394 0.019580 0.012236 -208331.000000 0 0 1
25.640296 15.346487 7.951495 30.921930 0.539338 1.310727 0.018148 0.018019 143477.000000 0 0 1
25.915616 16.443587 7.160695 31.516444 0.565405 1.341590 0.014863 0.017172 -725374.000000 0 0 1
25.855436 17.822487 7.867495 32.373478 0.603517 1.325315 0.021837 0.015852 246269.000000 0 0 1
24.638136 18.381687 8.351895 31.854016 0.640979 1.305502 0.020617 0.011343 878090.000000 0 0 1
23.682336 17.548687 9.087795 30.844732 0.637718 1.271728 0.029114 0.002218 618717.000000 0 0 1
22.369136 18.392587 9.195495 30.384579 0.688150 1.263338 0.031458 0.002136 59370.600000 0 0 1
21.701936 18.502987 7.961295 29.609404 0.705999 1.298569 0.042450 -0.008175 684534.000000 0 0 1
20.586736 19.418987 8.063895 29.426810 0.756217 1.293213 0.062051 -0.013414 1100290.000000 0 0 1
19.742536 19.716287 6.779695 28.713481 0.784733 1.332430 0.053405 -0.014917 560601.000000 0 0 1
20.450536 20.559187 5.843395 29.581242 0.788048 1.371951 0.034993 0.003983 646134.000000 0 0 1
19.641036 20.901687 4.698095 29.064117 0.816483 1.408438 0.030965 -0.004369 47790.200000 0 0 1
18.209693 17.242187 32.626968 41.151002 0.758114 0.655309 -0.000173 -0.014226 -411605.000000 0 0 1
17.359393 18.136787 31.943398 40.628466 0.807295 0.666109 0.014859 -0.014242 544328.000000 0 0 1
16.392193 17.462187 31.133998 39.280501 0.816993 0.655724 0.022785 -0.014901 633819.000000 0 0 1
15.715493 18.305287 29.945528 38.455102 0.861376 0.678183 0.023801 -0.018976 81567.300000 0 0 1
16.593393 18.539887 28.880878 38.120509 0.840745 0.711137 0.023879 -0.016149 -306653.000000 0 0 1
15.960393 19.069287 27.755608 37.265877 0.873917 0.730562 0.047179 -0.032387 -917971.000000 0 0 1
16.920993 19.289587 26.617418 36.971544 0.850717 0.767076 0.038911 -0.019126 -446742.000000 0 0 1
17.621593 20.498087 26.951758 38.171840 0.860715 0.786872 0.043445 -0.023590 8744.250000 0 0 1
18.608593 20.772187 25.995188 38.124969 0.840283 0.820519 0.042567 -0.018153 -95704.500000 0 0 1
19.477893 22.045087 26.291628 39.454073 0.847145 0.841446 0.054378 -0.019929 378002.000000 0 0 1
18.726693 23.234887 26.008168 39.585020 0.892424 0.853937 0.051725 -0.032156 487786.000000 0 0 1
19.443993 24.408787 26.399368 40.875229 0.898133 0.868657 0.059231 -0.029132 -126411.000000 0 0 1
18.726693 25.748687 26.257758 41.269283 0.941991 0.881163 0.068099 -0.027901 -140731.000000 0 0 1
18.668993 26.067887 24.894838 40.593337 0.949301 0.910597 0.077100 -0.030919 -264995.000000 0 0 1
17.697293 27.020787 24.659638 40.637604 0.990948 0.918745 0.077710 -0.037404 -646438.000000 0 0 1
17.780593 27.706687 23.299458 40.332056 1.000247 0.954899 0.071411 -0.038262 465239.000000 0 0 1
18.988693 28.486287 23.238258 41.376994 0.982846 0.974451 0.078944 -0.035931 493091.000000 0 0 1
19.052593 29.364087 22.189758 41.444375 0.995237 1.005803 0.069783 -0.034533 277449.000000 0 0 1
20.426293 30.080287 22.054458 42.525947 0.974263 1.025570 0.077287 -0.027674 656515.000000 0 0 1
21.462493 29.362287 21.393258 42.195426 0.939596 1.039091 0.077636 -0.030142 -1132.130000 0 0 1
22.535093 30.094987 20.871058 43.001624 0.928064 1.064027 0.075507 -0.032106 -26768.200000 0 0 1
22.355993 30.466887 19.373358 42.465852 0.937757 1.097065 0.053673 -0.028311 73171.600000 0 0 1
21.518993 31.607187 19.084158 42.735072 0.973055 1.107869 0.048803 -0.019009 588048.000000 0 0 1
21.241193 31.664087 17.710258 42.041122 0.979918 1.135962 0.043613 -0.010058 -198886.000000 0 0 1
20.833693 33.067487 17.338058 42.756399 1.008584 1.153262 0.050361 -0.000864 -147329.000000 0 0 1
21.961793 33.899487 17.559358 44.043463 0.995934 1.160717 0.041014 -0.006480 477890.000000 0 0 1
22.173093 -34.203577 16.528658 43.985535 -0.995639 1.185564 0.032090 -0.004286 -21709.700000 0 0 1
23.096293 34.491787 15.324858 44.248993 0.980754 1.217138 0.031837 -0.006710 1725.090000 0 0 1
22.680593 33.334587 14.572158 42.871340 0.973352 1.223981 0.044181 -0.007396 191897.000000 0 0 1
21.581193 33.599087 13.706358 42.219791 0.999843 1.240162 0.020238 -0.013122 32082.200000 0 0 1
21.305693 32.341687 12.834858 40.800133 0.988281 1.250783 0.017506 -0.020854 -466753.000000 0 0 1
22.408793 31.976087 12.055858 40.865240 0.959535 1.271325 0.037148 -0.030692 -175426.000000 0 0 1
22.079093 30.919087 11.160858 39.598498 0.950675 1.285074 0.037317 -0.032459 -17430.900000 0 0 1
23.259193 30.501487 10.169358 39.683077 0.919306 1.311641 0.036884 -0.027489 1277550.000000 0 0 1
24.386493 29.769987 10.625958 39.923228 0.884479 1.301389 0.038549 -0.018950 596195.000000 0 0 1
25.176893 30.493487 11.587658 41.206826 0.880611 1.285744 0.041905 -0.021679 -598957.000000 0 0 1
26.469693 29.764787 12.038858 41.611552 0.843927 1.277285 0.047118 -0.010079 302486.000000 0 0 1
26.338593 28.544987 12.812158 40.898522 0.825578 1.252165 0.045786 -0.004465 45244.100000 0 0 1
27.626193 28.213787 13.311658 41.670428 0.795921 1.245646 0.024979 0.004232 290920.000000 0 0 1
27.761693 26.940387 14.252658 41.226621 0.770385 1.217796 0.007556 -0.005400 -340076.000000 0 0 1
28.936293 27.187187 14.971058 42.433298 0.754243 1.210220 -0.002728 -0.000946 -313944.000000 0 0 1
29.245693 26.036087 15.770858 42.212656 0.727404 1.187904 0.001859 -0.003111 392701.000000 0 0 1
30.386093 26.326687 16.793858 43.571123 0.713942 1.175117 0.004722 -0.004380 498410.000000 0 0 1
31.680593 26.475587 16.234058 44.363964 0.696136 1.196166 0.005937 -0.002777 188666.000000 0 0 1
32.614993 26.698487 17.310158 45.565212 0.685977 1.181110 -0.005769 -0.002407 778547.000000 0 0 1
34.062393 26.944487 16.800858 46.567379 0.669249 1.201686 0.008132 -0.019511 183067.000000 0 0 1
34.221493 28.115587 16.078258 47.118013 0.687760 1.222567 0.013860 -0.009922 -360186.000000 0 0 1
-34.995051 28.238587 15.514058 47.568449 -0.678953 1.238577 0.022345 -0.017798 -128487.000000 0 0 1
-34.973751 29.448987 14.533158 47.975189 -0.699849 1.263030 0.013581 -0.017525 64952.800000 0 0 1
-35.160851 30.740787 15.146458 49.098845 -0.718428 1.257192 0.019406 -0.016692 34825.000000 0 0 1
35.185093 31.721087 14.166958 49.446140 0.733670 1.280211 0.010102 0.007030 44470.200000 0 0 1
34.550893 33.040587 14.728358 50.023685 0.763057 1.271940 0.003106 0.006870 -119652.000000 0 0 1
34.349393 33.955487 13.633858 50.187030 0.779631 1.295678 -0.013996 0.001355 298906.000000 0 0 1
33.416093 -34.106477 13.931558 49.739073 -0.795622 1.286906 -0.007818 0.011261 131955.000000 0 0 1
31.955493 -34.378377 13.547558 48.852458 -0.821908 1.289797 0.021870 0.009687 -180207.000000 0 0 1
31.417193 33.574487 14.190058 48.121138 0.818579 1.271464 0.012555 0.005482 -42955.100000 0 0 1
30.329593 32.960687 13.516358 46.786569 0.826946 1.277725 0.020799 0.007436 -85088.300000 0 0 1
29.806593 31.798287 14.341158 45.882816 0.817717 1.252909 0.035653 0.007468 -64689.400000 0 0 1
28.903893 32.164187 15.379058 45.896463 0.838735 1.229105 0.036235 0.011322 156546.000000 0 0 1
28.634793 31.123487 16.288758 45.320486 0.827020 1.203158 0.039080 0.001166 279368.000000 0 0 1
27.437593 31.187587 17.294858 44.995546 0.849277 1.176273 0.029374 0.000566 185597.000000 0 0 1
27.426093 30.166487 18.293258 44.686136 0.832945 1.149031 0.021900 0.007274 -287241.000000 0 0 1
28.351793 30.407887 19.324958 45.846676 0.820375 1.135683 0.020778 0.006041 -93460.300000 0 0 1
28.338593 29.336587 20.532758 45.665143 0.802700 1.104437 0.018168 0.000432 -574583.000000 0 0 1
27.068593 29.292587 21.098258 45.120958 0.824837 1.084230 0.030388 -0.010177 -346601.000000 0 0 1
27.097593 28.650287 22.385858 45.345839 0.813243 1.054492 0.018966 -0.010756 625402.000000 0 0 1
25.709893 28.880287 23.080058 45.030641 0.843409 1.032655 0.035638 -0.013810 784234.000000 0 0 1
24.757193 27.870187 22.839458 43.718494 0.844481 1.021109 0.064846 -0.023316 739906.000000 0 0 1
23.537293 27.977687 23.600558 43.517140 0.871382 0.997591 0.078324 -0.026746 869348.000000 0 0 1
23.237593 26.776387 24.531468 43.113264 0.856037 0.965506 0.054310 -0.030369 -33703.600000 0 0 1
24.000393 26.841287 25.747228 44.265034 0.841217 0.950028 0.040913 -0.023503 86581.700000 0 0 1
23.884293 25.659287 26.499298 43.943956 0.821210 0.923509 0.055262 -0.024629 -1172730.000000 0 0 1
25.070093 25.417387 27.392608 44.998979 0.792277 0.916327 0.054746 -0.028987 -680704.000000 0 0 1
25.469993 26.388687 28.335788 46.346523 0.803112 0.912981 0.066883 -0.026450 292723.000000 0 0 1
26.100593 27.514487 27.715098 46.972488 0.811763 0.939702 0.041276 -0.012154 -801291.000000 0 0 1
26.366093 28.763787 28.543828 48.345386 0.828863 0.939224 0.013301 -0.005422 -134493.000000 0 0 1
27.331893 28.495987 29.556828 49.322000 0.806247 0.928217 0.010050 -0.000578 -10196.400000 0 0 1
27.745193 29.669587 30.132088 50.576900 0.818903 0.932575 0.013255 -0.002723 -471269.000000 0 0 1
29.267393 29.713387 30.263698 51.530157 0.792960 0.943077 -0.004467 0.000441 -361876.000000 0 0 1
29.885493 29.821587 29.003568 51.221838 0.784328 0.968866 -0.013958 0.003072 -105611.000000 0 0 1
31.277193 30.065087 29.064568 52.219932 0.765641 0.980533 -0.010258 -0.001789 61471.600000 0 0 1
31.897193 30.743987 27.857578 52.332287 0.766991 1.009456 -0.013519 0.004732 -696935.000000 0 0 1
31.616393 32.107487 27.747608 52.918964 0.793105 1.018855 -0.010475 0.006293 72584.400000 0 0 1
32.050993 32.672187 26.541098 52.907162 0.794996 1.045286 -0.004623 0.005539 -310828.000000 0 0 1
31.746893 34.159287 26.285118 53.531575 0.821985 1.057535 0.002127 0.002312 5590.640000 0 0 1
32.521293 -34.068977 27.128828 54.353500 -0.808636 1.048215 0.003778 0.002955 418274.000000 0 0 1
32.216693 -32.723077 26.853938 53.196325 -0.793196 1.041637 0.002481 0.006186 148183.000000 0 0 1
33.210293 -31.784777 27.597188 53.617165 -0.763469 1.030129 0.002424 0.009271 247532.000000 0 0 1
32.929593 -31.574477 28.951058 54.032115 -0.764393 1.005327 0.002467 0.008581 401525.000000 0 0 1
33.982493 -30.784077 29.470328 54.506600 -0.736055 0.999558 0.000814 0.001605 74964.600000 0 0 1
33.942093 -30.692177 30.985108 55.264385 -0.735159 0.975601 0.004541 -0.004397 -92011.400000 0 0 1
33.871493 -31.866577 31.748848 56.309378 -0.754909 0.971782 -0.000081 -0.001484 -96302.300000 0 0 1
32.615093 -32.487277 31.812338 55.957057 -0.783435 0.966099 0.003363 -0.004785 -598552.000000 0 0 1
32.643993 -33.359377 33.037946 57.183775 -0.796236 0.954827 0.006029 -0.005381 -382539.000000 0 0 1
32.370793 -32.649077 34.245525 57.328757 -0.789678 0.930599 -0.005331 -0.015107 -79439.500000 0 0 1
32.718893 -33.375177 -33.624745 57.576487 -0.795327 2.194446 -0.005642 -0.012090 -255242.000000 0 0 1
31.923893 34.469787 -33.214815 57.537163 0.823725 2.186185 0.006221 -0.007130 64622.400000 0 0 1
32.173293 33.368387 -34.129317 57.561969 0.803630 2.205469 -0.005676 -0.007281 10245.900000 0 0 1
31.335893 32.332987 -33.677885 56.227753 0.801058 2.212992 -0.002624 -0.001700 44303.000000 0 0 1
31.278193 31.148387 34.306902 55.906269 0.783319 0.910121 0.006027 0.006048 -388929.000000 0 0 1
32.472193 30.438587 34.168728 56.111076 0.753084 0.916063 0.000825 -0.000114 -493142.000000 0 0 1
32.484693 29.597287 33.025807 54.972344 0.738922 0.926331 -0.006806 -0.003944 366269.000000 0 0 1
33.854493 28.883487 32.800648 55.283497 0.706329 0.935623 -0.005078 -0.004957 374656.000000 0 0 1
34.050193 27.859987 33.772253 55.463137 0.685743 0.916106 -0.009631 -0.000738 635533.000000 0 0 1
-35.116551 27.364687 33.628416 55.793087 -0.661962 0.923873 -0.008602 -0.007462 491286.000000 0 0 1
-34.971851 26.006687 34.285907 55.451795 -0.639422 0.904217 -0.004789 -0.004920 -4736.440000 0 0 1
34.931893 24.887787 33.662112 54.523177 0.619044 0.905375 -0.008190 -0.005672 34325.300000 0 0 1
34.877393 23.733787 34.440647 54.459924 0.597513 0.886144 0.004677 -0.016402 -105916.000000 0 0 1
34.434293 22.552087 33.545731 53.100218 0.579834 0.886996 -0.001490 -0.024151 -951858.000000 0 0 1
-35.067551 22.060187 32.769378 52.822506 -0.561526 0.901585 0.012480 -0.019958 -609465.000000 0 0 1
34.958093 20.948587 32.082788 51.867300 0.539867 0.903894 0.009398 -0.018064 358939.000000 0 0 1
-34.352251 20.262587 31.360968 50.736179 -0.532921 0.904449 0.003217 -0.024104 382985.000000 0 0 1
-33.663551 21.086287 30.430098 50.038555 -0.559593 0.917090 -0.001988 -0.023408 1266730.000000 0 0 1
-32.530151 20.499787 29.702678 48.587046 -0.562314 0.913057 0.016500 -0.021621 1112610.000000 0 0 1
-32.936551 19.491387 28.591278 47.772290 -0.534358 0.929180 0.021993 -0.020536 -537743.000000 0 0 1
-33.560151 18.285387 29.058898 48.011026 -0.498884 0.920711 0.011431 -0.017873 560720.000000 0 0 1
-34.109951 17.516087 28.004768 47.482303 -0.474404 0.939993 0.015145 -0.024406 -248116.000000 0 0 1
-34.919251 16.324387 28.524048 47.952695 -0.437303 0.933733 0.015301 -0.020415 -228003.000000 0 0 1
-34.103851 15.241187 28.939918 47.253415 -0.420277 0.911652 0.019861 -0.014536 108754.000000 0 0 1
-34.851551 14.156287 29.387048 47.734994 -0.385830 0.907612 0.032676 -0.012623 -386426.000000 0 0 1
-33.996751 12.968787 29.854358 47.066455 -0.364432 0.883691 0.034056 -0.002238 -205317.000000 0 0 1
-33.233851 13.304587 30.997668 47.353525 -0.380793 0.857142 0.028599 -0.001746 212031.000000 0 0 1
-32.346751 12.281587 31.331418 46.677697 -0.362872 0.834931 0.031890 0.003447 885257.000000 0 0 1
-30.804951 12.543487 31.097298 45.533790 -0.386690 0.819003 0.026292 0.005242 301430.000000 0 0 1
-30.330051 12.534987 29.790738 44.322973 -0.391907 0.833716 0.025917 0.010314 713980.000000 0 0 1
-28.959951 12.889087 29.636778 43.395229 -0.418743 0.819003 0.034531 0.010348 1364440.000000 0 0 1
-27.758951 11.972287 30.133568 42.684036 -0.407190 0.787007 0.035546 0.008404 467252.000000 0 0 1
-27.552951 10.830587 29.310698 41.660338 -0.374529 0.790396 0.029007 -0.000272 -244120.000000 0 0 1
-26.334751 10.201187 29.577678 40.895261 -0.369568 0.762293 0.025198 0.004320 -395065.000000 0 0 1
-26.091851 8.955487 28.663428 39.781623 -0.330630 0.766245 0.010069 0.005118 -46800.400000 0 0 1
-26.836851 7.750587 28.854188 40.160333 -0.281154 0.769189 0.014718 0.002605 258179.000000 0 0 1
-28.137551 7.733687 28.287898 40.641565 -0.268229 0.800938 0.029415 0.002235 385832.000000 0 0 1
-28.921751 6.380387 28.609158 41.178404 -0.217131 0.802708 0.027654 0.000944 53917.400000 0 0 1
-29.225151 6.225087 29.946988 42.304648 -0.209868 0.784292 0.028373 0.002316 192904.000000 0 0 1
-29.870351 4.977087 30.180158 42.753376 -0.165106 0.787085 0.031748 0.002316 278161.000000 0 0 1
-30.709951 4.841187 31.508948 44.264568 -0.156356 0.778693 0.014212 0.003228 1298910.000000 0 0 1
-31.985951 5.525787 31.503798 45.234109 -0.171068 0.800342 0.019078 0.004296 951513.000000 0 0 1
-32.865451 5.009487 32.504708 46.495041 -0.151260 0.796658 0.019040 0.002541 936587.000000 0 0 1
-34.250951 5.738187 32.432788 47.517788 -0.165992 0.819564 0.012974 0.008122 719943.000000 0 0 1
-34.061051 7.075687 32.935548 47.905854 -0.204822 0.812748 0.020589 -0.001152 436482.000000 0 0 1
35.165993 7.708787 32.929808 48.789801 0.215798 0.829924 0.020590 -0.003882 296526.000000 0 0 1
35.078493 9.116387 33.565906 49.399182 0.254261 0.823739 0.019022 0.007613 -81660.600000 0 0 1
35.095393 9.188987 -34.095595 49.785878 0.256080 2.325187 0.025488 0.005516 204804.000000 0 0 1
34.506393 10.378087 -33.594065 49.264156 0.292152 2.321177 0.025685 0.000553 -329262.000000 0 0 1
34.487793 10.514587 -32.087675 48.265757 0.295926 2.298039 0.027077 -0.007663 352282.000000 0 0 1
33.492493 9.618487 -31.517285 46.985121 0.279657 2.306074 0.034691 -0.006793 646360.000000 0 0 1
33.437193 9.737487 -30.140075 46.057449 0.283380 2.284187 0.033087 -0.004121 230912.000000 0 0 1
32.194293 9.140587 -29.419235 44.559109 0.276640 2.291921 0.029488 -0.008312 -52720.900000 0 0 1
32.154993 7.713587 -29.371305 44.228006 0.235439 2.297070 0.022864 -0.004505 476563.000000 0 0 1
30.871693 7.133587 -29.112225 43.028724 0.227086 2.313900 0.014353 0.000505 161212.000000 0 0 1
34.521766 6.085487 -19.463905 40.095250 0.174487 2.077665 0.020300 -0.002628 -407928.000000 0 0 1
33.924926 7.159287 -18.736205 39.410676 0.207982 2.066226 0.014649 0.006859 279479.000000 0 0 1
34.393436 8.432687 -19.016805 40.195243 0.240440 2.063615 0.003829 0.001909 1017200.000000 0 0 1
-34.600594 8.791287 -18.564905 40.238583 -0.248814 2.050336 0.008918 -0.003597 2288150.000000 0 0 1
-33.584377 8.117187 -19.356205 39.603810 -0.237147 2.081448 0.015255 -0.008877 813391.000000 0 0 1
-33.275857 8.788887 -20.621005 40.121728 -0.258225 2.110592 -0.008730 -0.002519 -490517.000000 0 0 1
-32.636127 7.861287 -21.672405 39.957600 -0.236374 2.144070 -0.009397 0.004275 -25894.100000 0 0 1
-33.463247 6.814187 -22.173905 40.717369 -0.200885 2.146686 -0.007098 0.007735 163251.000000 0 0 1
-34.258650 7.170187 -23.267305 42.028968 -0.206318 2.157479 -0.004144 0.002945 -163579.000000 0 0 1
-34.160069 6.058987 -24.347805 42.384399 -0.175545 2.182731 0.004523 -0.003141 496889.000000 0 0 1
-32.818857 5.906287 -24.819305 41.568732 -0.178060 2.210636 -0.000191 -0.001908 513889.000000 0 0 1
-32.567217 4.651187 -25.452415 41.594262 -0.141859 2.229284 0.002845 0.005866 -552056.000000 0 0 1
-31.273747 4.627487 -26.241365 41.086131 -0.146901 2.263593 0.008391 0.004339 -376633.000000 0 0 1
-30.080227 4.599987 -25.482535 39.690547 -0.151748 2.267940 0.008281 0.003457 -84629.700000 0 0 1
-28.998477 4.378187 -26.365215 39.436085 -0.149848 2.303061 0.012300 0.005013 -641438.000000 0 0 1
-27.651897 4.744287 -25.771625 38.096093 -0.169917 2.313782 0.007611 -0.000896 -790630.000000 0 0 1
-27.475837 6.175887 -25.626335 38.075875 -0.221100 2.309099 -0.004023 0.000102 -557355.000000 0 0 1
-26.239177 6.477987 -25.077455 36.869194 -0.242042 2.318796 0.008776 0.008139 -438341.000000 0 0 1
-25.718217 7.948687 -25.270685 36.921753 -0.299755 2.324630 -0.000859 0.004309 -328521.000000 0 0 1
-26.323037 8.900687 -24.423205 36.994830 -0.326064 2.291853 -0.003943 0.002270 -382517.000000 0 0 1
-25.874767 10.231387 -24.510305 37.080182 -0.376551 2.292958 -0.021768 0.006416 -730081.000000 0 0 1
-24.647207 10.611687 -23.691705 35.796503 -0.406556 2.294072 0.008161 -0.002208 -356655.000000 0 0 1
-24.807007 10.590687 -22.288005 34.990076 -0.403498 2.261372 -0.007591 0.007064 1022770.000000 0 0 1
-23.509807 10.766887 -21.682005 33.745314 -0.429466 2.268577 0.021311 -0.011719 412933.000000 0 0 1
-23.625207 11.299587 -20.207405 33.078245 -0.446125 2.227990 0.035739 -0.006776 -999220.000000 0 0 1
-24.037507 12.689387 -20.040605 33.770522 -0.485717 2.206116 0.018433 -0.007056 1353570.000000 0 0 1
-25.393647 13.054887 -20.377905 35.078860 -0.474864 2.190651 0.010464 0.008043 895692.000000 0 0 1
-26.501197 12.296487 -19.576305 35.167439 -0.434433 2.161156 0.007513 -0.000256 -845976.000000 0 0 1
-26.231497 12.302987 -18.199605 34.215209 -0.438554 2.131658 0.016335 -0.012123 716560.000000 0 0 1
-27.207147 11.503987 -17.518505 34.343392 -0.400031 2.106095 0.001033 -0.015494 -305525.000000 0 0 1
-26.690577 10.988487 -16.155105 33.077503 -0.390551 2.081053 0.017218 -0.018104 -110431.000000 0 0 1
-25.864187 9.845287 -16.233805 32.084611 -0.363718 2.101301 0.027161 -0.020805 1144370.000000 0 0 1
-24.477507 10.222687 -16.212905 31.088744 -0.395617 2.119409 0.040084 -0.023437 479257.000000 0 0 1
-23.465407 9.033387 -16.268105 29.947932 -0.367479 2.145056 0.048687 -0.027560 355970.000000 0 0 1
-22.159707 9.379387 -15.847205 28.812487 -0.400399 2.153175 0.052721 -0.022633 615927.000000 0 0 1
-21.252607 8.278487 -15.759005 27.722787 -0.371446 2.175416 0.052687 -0.023883 325843.000000 0 0 1
-19.785507 8.745787 -15.589505 26.664354 -0.416206 2.195254 0.057647 -0.024689 244533.000000 0 0 1
-19.163907 8.914887 -16.875205 27.046314 -0.435415 2.244567 0.062145 -0.032433 247508.000000 0 0 1
-17.778407 9.165487 -16.785705 26.112024 -0.476002 2.268989 0.047214 -0.029523 -568135.000000 0 0 1
-17.114807 9.729287 -18.027905 26.694213 -0.516914 2.312234 0.039760 -0.022124 -458824.000000 0 0 1
-16.843507 8.911587 -19.165205 27.026380 -0.486641 2.359059 0.056817 -0.030549 547790.000000 0 0 1
-16.030107 7.766787 -18.898805 25.970217 -0.451181 2.385775 0.049456 -0.023684 -440277.000000 0 0 1
-15.701607 6.851987 -20.155805 26.452725 -0.411476 2.437124 0.037724 -0.024475 1039880.000000 0 0 1
-16.828707 6.095687 -20.687705 27.355875 -0.347519 2.428349 0.046394 -0.013658 1045070.000000 0 0 1
-17.816107 6.801587 -21.421305 28.680090 -0.364689 2.414192 0.041894 -0.019838 -484565.000000 0 0 1
-18.729207 5.807287 -22.104005 29.548178 -0.300666 2.415940 0.037133 -0.012165 -634275.000000 0 0 1
-19.468407 5.067487 -21.169005 29.203169 -0.254642 2.381667 0.051655 -0.013735 134972.000000 0 0 1
-20.203707 4.006587 -21.720205 29.933423 -0.195770 2.382727 0.035733 0.004336 -417328.000000 0 0 1
-20.970607 3.237487 -20.651005 29.609318 -0.153173 2.342629 0.049389 -0.001334 -233740.000000 0 0 1
-21.767607 2.196387 -21.162405 30.438466 -0.100561 2.339567 0.048481 -0.000067 492124.000000 0 0 1
-22.458007 1.504087 -20.113605 30.185783 -0.066873 2.300068 0.057300 -0.005976 86772.700000 0 0 1
-23.239107 0.245387 -20.541905 31.017514 -0.010559 2.294638 0.046273 0.003721 9344.740000 0 0 1
-22.361607 -0.843913 -20.630505 30.436350 0.037721 2.315596 0.048860 -0.002181 290071.000000 0 0 1
-23.071507 -2.036213 -20.892205 31.191743 0.088029 2.304735 0.045730 -0.009406 55039.100000 0 0 1
-23.496707 -2.169813 -22.445405 32.566847 0.092084 2.331195 0.056085 -0.017488 370911.000000 0 0 1
-22.352207 -2.314813 -23.278105 32.355057 0.103193 2.373818 0.035087 -0.013791 347008.000000 0 0 1
-21.722707 -3.569313 -23.271905 32.034319 0.162857 2.383964 0.034910 -0.018289 -403045.000000 0 0 1
-20.620507 -3.607413 -24.323305 32.091150 0.173190 2.430952 0.025907 -0.004619 -311583.000000 0 0 1
-21.180707 -3.630813 -25.624365 33.442686 0.169771 2.443730 0.024282 -0.007784 -394670.000000 0 0 1
-20.231907 -3.459213 -26.612195 33.608111 0.169341 2.484610 0.022177 -0.014696 -634314.000000 0 0 1
-20.762407 -3.494513 -28.082075 35.098321 0.166747 2.498254 0.015505 -0.012910 -248515.000000 0 0 1
-21.140607 -4.813713 -28.427185 35.751950 0.223883 2.490006 0.020511 -0.009236 353158.000000 0 0 1
-21.811007 -4.765113 -29.685545 37.143747 0.215093 2.496771 -0.005858 -0.007482 -348597.000000 0 0 1
-21.365907 -6.053113 -30.503775 37.730922 0.276073 2.512320 0.002888 -0.005760 154437.000000 0 0 1
-20.011607 -5.915713 -30.888015 37.276394 0.287428 2.547437 0.006251 -0.003417 40879.300000 0 0 1
-19.524907 -7.219813 -31.198405 37.505842 0.354182 2.553189 0.001593 -0.004155 -488969.000000 0 0 1
-18.163407 -7.268413 -31.874565 37.399560 0.380651 2.591108 0.018027 -0.009861 -1242650.000000 0 0 1
-18.134507 -6.769613 -33.236175 38.462077 0.357279 2.614212 0.008395 -0.011453 347927.000000 0 0 1
-18.564507 -7.696113 -34.243185 39.704745 0.392995 2.610878 0.004089 -0.014007 -496241.000000 0 0 1
-18.356807 -7.236313 33.355520 38.754707 0.375499 0.534187 0.002758 -0.012859 1051410.000000 0 0 1
-17.000707 -7.116513 32.857778 37.673630 0.396438 0.511177 0.010056 -0.011453 1106880.000000 0 0 1
-16.390507 -5.896013 33.225824 37.514891 0.345309 0.482861 0.001293 -0.008531 621547.000000 0 0 1
-15.145207 -5.461413 32.340138 36.126014 0.346090 0.461908 0.002132 -0.008867 823562.000000 0 0 1
-15.519807 -5.393113 30.945688 35.036919 0.334445 0.488088 0.010706 -0.007314 -227115.000000 0 0 1
-14.532407 -4.786813 30.185998 33.842265 0.318196 0.469131 0.016170 -0.004308 -625570.000000 0 0 1
-14.764007 -4.867313 28.688718 32.629882 0.318454 0.496582 0.023315 -0.006609 -304327.000000 0 0 1
-15.752907 -4.020913 28.196558 32.547929 0.249913 0.523032 0.018617 -0.007268 -501313.000000 0 0 1
-16.117507 -4.304213 26.864608 31.622894 0.260962 0.555702 0.027295 -0.008784 66024.400000 0 0 1
-15.123707 -3.952213 25.707238 30.086685 0.255609 0.546326 0.031555 -0.006980 177743.000000 0 0 1
-14.984807 -2.549813 25.482388 29.671503 0.168546 0.537841 0.029479 -0.003224 284080.000000 0 0 1
-13.963007 -2.232413 24.526468 28.310720 0.158539 0.522986 0.017403 -0.001168 321939.000000 0 0 1
-13.774507 -0.730913 24.410938 28.038637 0.053013 0.514340 0.019111 -0.005842 -414721.000000 0 0 1
-14.827307 -0.083113 23.776658 28.021160 0.005605 0.557605 0.017907 -0.012100 -345439.000000 0 0 1
-14.772507 1.267187 24.172868 28.357720 -0.085571 0.550188 0.005510 -0.005816 -321144.000000 0 0 1
-15.650807 2.185487 23.319858 28.169840 -0.138743 0.595567 0.008260 -0.008614 -333172.000000 0 0 1
-15.026207 2.688887 22.207458 26.947879 -0.177072 0.602204 -0.001708 0.000823 211761.000000 0 0 1
-15.954907 3.509787 21.525858 27.022957 -0.216533 0.649185 -0.003480 0.004511 45078.600000 0 0 1
-15.251907 4.493887 20.554358 25.986483 -0.286536 0.658414 0.001131 0.001857 214646.000000 0 0 1
-14.454907 5.474887 21.236058 26.265736 -0.362060 0.629184 0.014219 0.005325 532828.000000 0 0 1
-13.384207 5.770787 20.333258 25.017601 -0.407080 0.621926 0.020582 0.004542 69242.200000 0 0 1
-12.348207 6.768487 20.826858 25.140578 -0.501410 0.594523 0.019094 0.001037 -150037.000000 0 0 1
-12.692007 8.099387 20.530358 25.459433 -0.567999 0.632766 0.018893 -0.002129 411807.000000 0 0 1
-11.608407 8.961187 20.826358 25.471458 -0.657406 0.613505 0.023578 -0.004469 255481.000000 0 0 1
-12.073807 10.429687 20.645458 26.091955 -0.712467 0.657933 0.027960 -0.001474 -59107.100000 0 0 1
-12.307607 10.921887 19.318658 25.376669 -0.725815 0.705517 0.026433 -0.006401 372389.000000 0 0 1
-12.900007 12.207887 19.412058 26.311037 -0.757839 0.741004 0.018523 -0.002806 -328632.000000 0 0 1
-13.163707 12.916687 18.059058 25.811888 -0.775927 0.795901 0.015870 -0.009684 -51102.300000 0 0 1
-12.076507 13.634187 17.453458 25.226103 -0.845909 0.806705 0.022149 -0.011024 582820.000000 0 0 1
-11.855907 15.017487 17.871258 26.181469 -0.902507 0.819493 0.018869 -0.008141 253713.000000 0 0 1
-12.945607 16.069587 17.406058 26.996133 -0.892652 0.870086 0.021730 -0.010283 438552.000000 0 0 1
-12.889107 16.484287 16.036958 26.363703 -0.907188 0.916883 0.018401 -0.017965 -184796.000000 0 0 1
-13.344407 15.539787 15.123058 25.461050 -0.861259 0.934814 0.017091 -0.015132 -509785.000000 0 0 1
-13.762507 16.234187 13.844658 25.389564 -0.867611 0.994062 0.012478 -0.017837 -128136.000000 0 0 1
-14.792307 17.169387 14.106358 26.694373 -0.859634 1.014035 0.013213 -0.017215 -129160.000000 0 0 1
-15.164507 17.727487 12.830758 26.624320 -0.863162 1.067953 0.000735 -0.014097 -163710.000000 0 0 1
-16.366607 18.675087 12.984458 28.021792 -0.851181 1.089002 0.012983 -0.016957 65072.100000 0 0 1
-17.574607 17.977387 13.287058 28.435878 -0.796727 1.084603 0.028035 -0.020600 -217997.000000 0 0 1
-18.599207 18.871787 13.586858 29.777132 -0.792672 1.096981 0.039875 -0.026385 1520120.000000 0 0 1
-20.063907 18.233687 13.777458 30.411282 -0.737645 1.100626 0.046671 -0.026950 1720810.000000 0 0 1
-20.522407 17.537387 12.680258 29.824790 -0.707129 1.131660 0.046659 -0.024817 354970.000000 0 0 1
-21.913907 17.253487 12.890758 30.725784 -0.666968 1.137856 0.064687 -0.027369 614199.000000 0 0 1
-22.533807 16.616787 11.645358 30.323332 -0.635398 1.176629 0.060153 -0.027269 -74251.900000 0 0 1
-22.055207 15.263987 11.436258 29.158351 -0.605391 1.167761 0.065061 -0.021214 346375.000000 0 0 1
-22.535707 14.689487 10.193258 28.767023 -0.577662 1.208590 0.055645 -0.013299 73696.400000 0 0 1
-21.825407 13.349087 9.739058 27.375094 -0.548928 1.207065 0.061521 -0.004699 -744958.000000 0 0 1
-22.176407 12.160187 10.423358 27.355248 -0.501567 1.179879 0.064181 -0.008990 60798.000000 0 0 1
-23.520007 11.734787 10.496758 28.303319 -0.462790 1.190854 0.061021 -0.000487 142706.000000 0 0 1
-24.276507 11.563387 9.163658 28.408332 -0.444525 1.242354 0.053462 0.005099 -658470.000000 0 0 1
-24.652507 12.755587 8.464658 29.018986 -0.477483 1.274799 0.060036 0.012263 485813.000000 0 0 1
-25.666837 12.469987 7.493958 29.503331 -0.452256 1.313979 0.037031 0.018448 90574.600000 0 0 1
-26.260977 13.630187 6.659758 30.327765 -0.478754 1.349399 0.019912 0.014979 -604010.000000 0 0 1
-25.518577 14.119787 5.536358 29.685307 -0.505384 1.383196 0.009372 0.027866 1892050.000000 0 0 1
-24.137907 14.584887 5.647858 28.762055 -0.543525 1.373147 0.019910 0.029214 979624.000000 0 0 1
-23.884507 15.852887 6.388658 29.370030 -0.585967 1.351520 0.026578 0.001932 -466003.000000 0 0 1
-22.502507 16.137587 6.507258 28.445192 -0.622141 1.339988 0.021259 -0.008801 458903.000000 0 0 1
-22.214307 17.453387 6.994158 29.103512 -0.665949 1.328101 0.020409 -0.017232 -216228.000000 0 0 1
-20.702407 17.741887 7.029258 28.156255 -0.708542 1.318476 0.017874 -0.017476 -236591.000000 0 0 1
-20.260507 17.975587 5.720658 27.682771 -0.725711 1.362646 0.014068 -0.013560 -222653.000000 0 0 1
-18.935007 18.425887 5.691358 27.026642 -0.771772 1.358625 0.006884 -0.012696 -468977.000000 0 0 1
-18.513507 19.278187 4.433558 27.093447 -0.805629 1.406418 0.022023 -0.014615 819950.000000 0 0 1
-17.135007 19.679787 4.604158 26.497184 -0.854412 1.396150 0.017681 -0.015104 1266940.000000 0 0 1
-16.689907 20.722587 3.687558 26.862180 -0.892773 1.433085 0.020991 -0.003384 175237.000000 0 0 1
-16.979607 22.183287 4.093458 28.234052 -0.917497 1.425301 0.025502 -0.007650 -219827.000000 0 0 1
-16.208707 22.537587 5.219858 28.247335 -0.947310 1.384937 0.021930 -0.004451 299468.000000 0 0 1
-16.431507 23.887287 5.690458 29.546205 -0.968253 1.376990 0.015614 -0.002068 -302609.000000 0 0 1
-15.740407 24.072087 7.048658 29.612656 -0.991694 1.330461 0.010079 0.007110 176784.000000 0 0 1
-16.387307 23.407687 8.109158 29.702224 -0.960015 1.294270 0.004245 0.006168 15034.900000 0 0 1
-15.460407 23.325187 9.135658 29.437201 -0.985461 1.255241 0.005879 0.007697 -180353.000000 0 0 1
-15.994307 22.659887 10.392358 29.619072 -0.956160 1.212299 -0.003682 0.003886 -56817.000000 0 0 1
-17.010207 23.374487 11.052258 30.949414 -0.941704 1.205627 -0.005421 0.009727 -292089.000000 0 0 1
-17.949007 22.507987 11.656358 31.058767 -0.897612 1.186076 0.000685 -0.002319 75763.800000 0 0 1
-19.280707 23.150087 12.136958 32.480424 -0.876339 1.187834 0.015788 -0.003004 149923.000000 0 0 1
-20.073607 23.651287 11.080658 32.941070 -0.867039 1.227728 0.028321 -0.008931 -61615.500000 0 0 1
-19.602807 24.826487 10.471858 33.320929 -0.902434 1.251106 0.002548 -0.001053 -295704.000000 0 0 1
-20.743707 25.599287 9.700458 34.347107 -0.889792 1.284476 0.016342 0.001811 549241.000000 0 0 1
-21.584707 26.223387 10.644758 35.593208 -0.882122 1.267081 0.025968 -0.003547 26617.100000 0 0 1
-22.456307 27.195187 10.089058 36.683144 -0.880553 1.292173 0.021504 -0.009904 127373.000000 0 0 1
-23.493207 27.768487 11.079558 38.023365 -0.868607 1.275119 0.020773 -0.009656 -371273.000000 0 0 1
-22.906407 28.601687 12.081358 38.583924 -0.895521 1.252321 0.028690 -0.012438 -177934.000000 0 0 1
-23.729707 29.020887 13.096258 39.709229 -0.885369 1.234701 0.023743 -0.017951 -629162.000000 0 0 1
8.450793 -32.586477 28.096528 43.848709 -1.317052 0.875308 -0.013916 -0.010674 -105793.000000 0 0 1
9.766293 -32.957577 27.766178 44.187589 -1.282711 0.891340 -0.006510 -0.006669 100938.000000 0 0 1
9.959793 -32.923777 26.378618 43.347480 -1.277038 0.916579 -0.001781 -0.000680 -392341.000000 0 0 1
11.440093 -33.132777 26.007188 43.646655 -1.238332 0.932463 -0.003714 0.010798 -230066.000000 0 0 1
11.935793 -34.430377 26.086598 44.815450 -1.237096 0.949500 0.011057 -0.005280 -392290.000000 0 0 1
13.338393 -34.363777 26.079778 45.154587 -1.200545 0.955052 0.030824 0.000042 -30569.700000 0 0 1
13.943893 33.286587 25.791068 44.357730 1.174100 0.950307 0.054786 0.001961 128330.000000 0 0 1
13.876893 32.800087 24.456988 43.203682 1.170557 0.969047 0.045931 -0.005568 251171.000000 0 0 1
14.915393 31.863587 24.183138 42.691700 1.132992 0.968593 0.060192 -0.013590 47914.700000 0 0 1
14.888093 31.169587 22.816758 41.398103 1.125190 0.987049 0.065434 -0.016976 700442.000000 0 0 1
13.685493 30.395587 22.589358 40.267400 1.147738 0.975223 0.052931 -0.009349 330935.000000 0 0 1
13.899793 29.008587 22.667158 39.351015 1.123958 0.956939 0.052146 -0.007534 -112930.000000 0 0 1
13.764893 28.380287 24.079468 39.682915 1.119208 0.918772 0.055734 -0.025341 -4200.520000 0 0 1
14.691593 28.813387 25.068498 40.920456 1.099270 0.911431 0.066963 -0.021500 268402.000000 0 0 1
14.407593 28.198887 26.333598 41.185123 1.098445 0.877084 0.058670 -0.022702 215317.000000 0 0 1
15.513593 28.598587 27.360368 42.510475 1.073760 0.871584 0.073034 -0.022852 327729.000000 0 0 1
15.434693 29.936087 27.706418 43.612437 1.094756 0.882416 0.069254 -0.013835 -274.918000 0 0 1
16.196893 30.243987 28.842398 44.820999 1.079122 0.871732 0.067589 -0.013499 -222452.000000 0 0 1
16.079893 31.759787 29.246578 46.071785 1.102124 0.883041 0.060190 -0.020188 8563.240000 0 0 1
16.561893 32.765087 28.305448 46.357800 1.102779 0.913995 0.064664 -0.016392 173506.000000 0 0 1
16.436493 33.997587 28.895948 47.549658 1.120468 0.917635 0.077029 -0.001793 -167210.000000 0 0 1
17.070193 -33.924777 28.111798 47.249922 -1.104610 0.933581 0.067032 -0.005208 -616970.000000 0 0 1
16.604193 -33.602977 26.817218 46.087118 -1.111857 0.949757 0.074212 -0.004585 -105072.000000 0 0 1
17.031693 -32.348877 26.254508 45.009194 -1.086174 0.947993 0.067655 -0.005989 -1093040.000000 0 0 1
18.475493 -31.902077 26.270948 45.268632 -1.045863 0.951657 0.053015 0.002267 -975956.000000 0 0 1
18.943793 -31.420077 27.515988 45.860856 -1.028233 0.927310 0.046248 0.001951 -566881.000000 0 0 1
19.979893 -30.533777 27.280788 45.560389 -0.991367 0.928816 0.048281 0.005276 -536177.000000 0 0 1
20.283093 -29.557577 28.471108 45.778359 -0.969377 0.899587 0.057696 0.001121 -267284.000000 0 0 1
19.188993 -28.714177 28.740818 44.930569 -0.981680 0.876725 0.047916 -0.002021 -142751.000000 0 0 1
19.398893 -27.777877 29.759128 45.094713 -0.961173 0.850077 0.053442 0.002039 -360420.000000 0 0 1
18.146393 -27.164577 30.404768 44.627970 -0.981860 0.821267 0.038139 0.002532 131872.000000 0 0 1
17.407593 -26.308877 29.526748 43.208913 -0.986266 0.818457 0.051063 0.001105 616091.000000 0 0 1
16.135693 -25.919177 30.051328 42.839779 -1.013969 0.793322 0.035307 0.001767 1443.880000 0 0 1
15.243493 -25.300977 29.024648 41.411758 -1.028551 0.794167 0.026301 0.013658 -710356.000000 0 0 1
14.747293 -26.196377 27.988518 41.074200 -1.058064 0.821104 0.025244 0.013405 471890.000000 0 0 1
14.154393 -25.615277 26.833448 39.705455 -1.065977 0.828730 0.032946 -0.004210 -1131060.000000 0 0 1
12.683993 -25.233077 26.841098 38.961986 -1.105012 0.810819 0.000427 0.014471 -690923.000000 0 0 1
11.733893 -26.202177 27.156348 39.518420 -1.149756 0.813193 -0.008844 0.018224 -101286.000000 0 0 1
11.553993 -27.124277 26.114318 39.385007 -1.168109 0.845907 0.001932 0.014089 -619471.000000 0 0 1
10.686593 -28.368577 26.479238 40.250832 -1.210531 0.852828 0.000085 0.019965 635471.000000 0 0 1
9.285293 -28.123777 26.543958 39.771160 -1.251906 0.840061 -0.025098 0.016677 385621.000000 0 0 1
8.538893 -29.339277 26.706208 40.582353 -1.287580 0.852538 -0.026150 0.007993 1451200.000000 0 0 1
6.986093 -29.053377 26.882218 40.194003 -1.334819 0.838187 -0.020138 0.010301 1224420.000000 0 0 1
6.137993 -28.797877 25.783618 39.138059 -1.360798 0.851592 -0.005688 0.004663 77693.500000 0 0 1
6.422693 -27.555677 25.074608 37.806114 -1.341804 0.845654 -0.001119 0.002230 -180819.000000 0 0 1
5.259893 -27.162977 24.098438 36.690987 -1.379522 0.854236 0.006059 0.003174 -123953.000000 0 0 1
4.845693 -28.016777 23.049258 36.601760 -1.399534 0.889590 0.004831 0.003598 260923.000000 0 0 1
4.140193 -29.207877 23.442858 37.680351 -1.429985 0.899309 0.005484 0.005578 -1456240.000000 0 0 1
2.743893 -29.021277 23.953958 37.730035 -1.476529 0.882946 -0.005005 -0.007971 -1796240.000000 0 0 1
1.888693 -28.579677 22.874958 36.655543 -1.504807 0.896879 -0.006125 -0.000055 382463.000000 0 0 1
0.640293 -28.042577 23.280058 36.452122 -1.547967 0.878057 -0.005692 -0.008378 279991.000000 0 0 1
0.603693 -26.667677 23.940058 35.842096 -1.548163 0.839371 0.001274 -0.009567 -325508.000000 0 0 1
1.427593 -26.593877 25.101768 36.597419 -1.517167 0.814972 -0.000074 -0.015069 102309.000000 0 0 1
1.286193 -25.418177 25.831158 36.262746 -1.520238 0.777979 0.006513 -0.010772 -846613.000000 0 0 1
2.594093 -24.815377 26.324248 36.269798 -1.466639 0.758615 0.006888 -0.008927 -695024.000000 0 0 1
3.459593 -24.339777 25.334718 35.302145 -1.429605 0.770369 0.009929 -0.010826 -247924.000000 0 0 1
4.601493 -23.650477 25.781548 35.287491 -1.378635 0.751575 0.011065 -0.009567 -52552.700000 0 0 1
4.405093 -22.191977 26.108848 34.547947 -1.374844 0.714031 0.014194 -0.007868 -494939.000000 0 0 1
4.127393 -21.454777 24.947208 33.161816 -1.380742 0.719270 0.019515 -0.011144 -41292.100000 0 0 1
3.558293 -20.213377 25.287788 32.568609 -1.396545 0.681789 0.023966 -0.012604 -45415.700000 0 0 1
3.618993 -19.179677 24.102468 31.014288 -1.384300 0.680687 0.021822 -0.011937 45724.300000 0 0 1
4.925193 -18.788277 23.757658 30.686857 -1.314423 0.685352 0.029128 -0.006417 -373860.000000 0 0 1
4.917893 -18.151777 22.486358 29.313972 -1.306216 0.696509 0.033464 -0.014156 -175503.000000 0 0 1
6.280293 -17.628177 22.013058 28.892376 -1.228552 0.704557 0.029766 -0.006181 -537812.000000 0 0 1
7.091193 -18.745377 21.742958 29.570769 -1.209144 0.744708 0.022373 -0.007684 469192.000000 0 0 1
8.469893 -18.449077 21.456658 29.538038 -1.140404 0.757716 0.016728 -0.003940 796755.000000 0 0 1
9.416693 -18.283977 22.645358 30.590687 -1.095202 0.737325 -0.001464 0.001931 -564030.000000 0 0 1
9.200293 -17.281577 23.633458 30.689389 -1.081585 0.691821 -0.015798 0.015977 -521888.000000 0 0 1
10.283293 -17.293477 24.509208 31.709805 -1.034332 0.687363 -0.019321 0.025551 -197007.000000 0 0 1
10.261893 -16.275177 25.641958 32.057727 -1.008234 0.643721 -0.015953 0.014881 -49029.900000 0 0 1
10.587693 -14.932277 25.243528 31.181851 -0.954024 0.627397 -0.007322 0.016146 64849.000000 0 0 1
10.479693 -14.208277 26.485538 31.830533 -0.935294 0.587950 -0.013282 0.012394 -45020.100000 0 0 1
10.807193 -12.713877 26.495658 31.312265 -0.866284 0.562030 -0.003657 0.009221 215082.000000 0 0 1
9.900293 -11.949077 25.696068 30.018064 -0.878893 0.543275 0.004113 0.002894 168815.000000 0 0 1
10.220393 -10.565577 25.819498 29.710845 -0.802003 0.517566 0.008733 0.001924 -371144.000000 0 0 1
9.226493 -9.678877 25.101128 28.440736 -0.809322 0.489482 0.004379 0.002768 389678.000000 0 0 1
7.920793 -9.723377 25.708028 28.603946 -0.887208 0.453868 -0.010879 0.005512 463663.000000 0 0 1
6.946593 -9.232577 24.774328 27.336111 -0.925761 0.436384 -0.007210 0.005895 810045.000000 0 0 1
5.514493 -9.459477 25.360858 27.623621 -1.043001 0.407572 -0.008652 0.000988 -492511.000000 0 0 1
5.264793 -8.531577 26.421018 28.259088 -1.017902 0.362660 -0.011908 0.005261 1673480.000000 0 0 1
3.878193 -8.466177 26.912588 28.478131 -1.141243 0.333121 -0.011553 0.005297 2214070.000000 0 0 1
2.701893 -8.307077 25.915748 27.348377 -1.256337 0.325110 -0.003655 0.003762 -647882.000000 0 0 1
2.748193 -7.152877 25.067028 26.212060 -1.203977 0.296666 -0.008982 0.006411 -278929.000000 0 0 1
1.650593 -7.127277 24.198548 25.280274 -1.343220 0.293592 0.000731 -0.001892 -229260.000000 0 0 1
1.758693 -5.825077 23.440158 24.217050 -1.277581 0.253982 -0.001132 -0.002715 -138371.000000 0 1 0
1.564093 -4.596977 24.128108 24.611871 -1.242839 0.198597 -0.001054 0.002499 -76030.300000 0 1 0
2.055393 -3.436277 23.464658 23.803840 -1.031742 0.169015 -0.000461 -0.002448 -800905.000000 0 1 0
1.170593 -2.787277 22.353258 22.556758 -1.173188 0.134427 0.000492 -0.009313 936787.000000 0 1 0
0.067893 -1.970277 22.786458 22.871582 -1.536351 0.086303 0.001233 -0.008468 1043930.000000 0 1 0
-0.990107 -2.613277 23.530258 23.695623 1.208632 0.118211 0.005990 -0.005150 -482981.000000 0 1 0
-1.958307 -1.622277 24.104598 24.238366 0.691824 0.105109 0.007307 -0.015721 -791687.000000 0 1 0
-1.413007 -0.811277 25.111368 25.164172 0.521195 0.064794 0.008057 -0.008158 72638.700000 0 0 1
-2.245107 0.295723 25.476478 25.576921 -0.130965 0.088653 0.012689 -0.010556 -17869.400000 0 0 1
-1.825507 1.097723 26.746578 26.831267 -0.541393 0.079474 0.021362 -0.006455 -302180.000000 0 0 1
-1.983707 0.491723 28.061788 28.136112 -0.242983 0.072702 0.034971 -0.002795 -201848.000000 0 0 1
-1.091707 -0.516277 28.434228 28.459861 0.441740 0.042445 0.025271 -0.001314 -1374160.000000 0 0 1
0.225193 -0.057277 29.039838 29.040767 -0.249066 0.008001 0.029922 -0.000070 -667794.000000 0 0 1
1.208893 0.395723 28.109998 28.138763 0.316350 0.045220 0.015609 0.006044 76379.300000 0 0 1
1.922193 -0.587277 27.422608 27.496166 -0.296517 0.073163 0.011306 0.004364 -700290.000000 0 0 1
3.115693 -1.157277 28.199388 28.394582 -0.355641 0.117322 0.011050 -0.002229 -856161.000000 0 0 1
2.729093 -2.102277 29.212868 29.415288 -0.656380 0.117383 0.009138 0.002893 671820.000000 0 0 1
3.740093 -3.081277 29.596178 29.990270 -0.689116 0.162293 0.001068 0.015250 685022.000000 0 0 1
4.163293 -4.170277 28.541908 29.143862 -0.786236 0.203598 0.003901 0.007679 -454776.000000 0 0 1
4.859393 -3.712277 27.429948 28.103323 -0.652362 0.219349 0.005933 0.007101 -203342.000000 0 0 1
5.307093 -4.831277 26.648178 27.597678 -0.738500 0.263075 0.005911 0.002561 -782643.000000 0 0 1
6.214293 -4.322577 25.525788 26.624574 -0.607758 0.288294 0.004830 0.007120 418057.000000 0 0 1
7.524293 -4.004277 26.025838 27.386008 -0.489059 0.316491 0.005587 0.005204 938329.000000 0 0 1
8.496293 -5.067177 26.080178 27.893350 -0.537767 0.362548 0.013778 0.007562 594887.000000 0 0 1
9.308993 -5.255977 24.744798 26.955290 -0.513993 0.407804 0.009962 0.012551 -176856.000000 0 0 1
8.480193 -5.826677 23.764958 25.896661 -0.602011 0.408584 0.007933 0.006845 -53554.200000 0 0 1
9.111393 -5.958277 22.508258 25.002804 -0.579138 0.450500 0.014075 0.002297 33892.100000 0 0 1
9.329893 -4.694877 21.620458 24.011101 -0.466211 0.450026 0.024313 -0.004182 1089490.000000 0 1 0
8.069493 -4.117177 21.207358 23.061220 -0.471786 0.403707 0.017547 -0.008294 643192.000000 0 1 0
8.260893 -2.981277 20.420558 22.229025 -0.346344 0.406162 0.020618 -0.006263 273672.000000 0 1 0
6.938993 -2.210277 20.185158 21.458694 -0.308369 0.346251 0.013392 -0.002311 270579.000000 0 1 0
6.483393 -1.547277 21.317458 22.335229 -0.234270 0.303046 0.012284 0.000989 599876.000000 0 1 0
5.201193 -0.922277 21.113258 21.764022 -0.175496 0.245158 -0.000126 0.001671 578564.000000 0 1 0
4.616093 -0.469277 22.446558 22.921093 -0.101313 0.203837 0.004098 0.002451 -778689.000000 0 1 0
3.355693 0.094723 22.314958 22.566058 0.028220 0.149319 0.001027 0.000658 -559171.000000 0 1 0
2.774693 0.505723 23.549458 23.717749 0.180284 0.119197 0.008260 -0.003028 -106211.000000 0 1 0
1.293293 0.879723 23.452758 23.504858 0.597327 0.066594 0.006001 -0.012842 -371309.000000 0 1 0
1.066493 2.213723 23.031458 23.162168 1.121843 0.106288 0.011538 -0.010879 421740.000000 0 1 0
-0.336607 2.419723 22.928458 23.058242 -1.432574 0.106149 0.006910 -0.011934 308926.000000 0 1 0
-0.627607 3.857723 22.538458 22.874833 -1.409521 0.171705 0.009209 -0.008158 -210579.000000 0 1 0
-0.534507 4.810723 23.555458 24.047627 -1.460143 0.202665 0.009131 -0.006049 -279509.000000 0 1 0
-1.217607 5.941723 23.165258 23.946102 -1.368670 0.256075 0.009101 -0.006912 -388692.000000 0 1 0
-1.274507 7.103723 24.171818 25.226257 -1.393271 0.290151 0.012940 0.004826 -1301000.000000 0 0 1
-0.125507 7.811723 24.200958 25.430791 -1.554731 0.312266 0.008524 0.009096 -1520140.000000 0 0 1
-0.368507 9.105723 24.627308 26.259366 -1.530349 0.354418 0.019335 0.006213 -2079950.000000 0 0 1
0.224093 10.224723 23.728458 25.838632 1.548883 0.406949 0.010075 0.005702 543270.000000 0 0 1
1.648193 10.285723 23.700258 25.888508 1.411906 0.414112 0.005539 0.008331 201701.000000 0 0 1
2.197993 10.425723 25.049528 27.221420 1.363015 0.402170 0.014792 0.007237 -1788510.000000 0 0 1
3.532893 11.196723 24.982898 27.604223 1.265154 0.439325 0.004487 0.006004 -220618.000000 0 0 1
4.657693 10.658723 24.355608 26.990704 1.158819 0.445558 0.000778 0.004563 -167639.000000 0 0 1
4.624293 10.342723 22.995658 25.635060 1.150352 0.457772 -0.006110 0.004553 -399861.000000 0 0 1
6.072693 9.987723 22.542858 25.393161 1.024504 0.478356 -0.002718 0.008326 445028.000000 0 0 1
6.916393 11.087723 22.397258 25.930894 1.013069 0.528174 -0.002070 0.006591 -562478.000000 0 0 1
8.084693 10.705723 21.729958 25.537538 0.923992 0.553095 0.005807 0.003906 -92799.700000 0 0 1
8.914793 11.786723 20.977058 25.660034 0.923249 0.613741 0.016512 -0.009466 -321143.000000 0 0 1
8.338193 12.147723 19.770258 24.656758 0.969257 0.640463 0.013591 -0.008902 215629.000000 0 1 0
9.040193 13.232723 19.111758 24.941719 0.971456 0.697801 0.018272 -0.013553 45235.200000 0 1 0
10.462593 13.075723 18.561458 24.999362 0.895961 0.734035 0.016245 -0.010723 -595415.000000 0 1 0
11.398493 12.927723 19.573758 26.080331 0.848179 0.721951 0.020659 -0.012932 501659.000000 0 0 1
12.737493 12.862723 19.013558 26.252785 0.790290 0.760851 0.021060 -0.013335 1453750.000000 0 0 1
13.884993 12.666723 20.053658 27.484324 0.739547 0.753001 0.040699 -0.011560 279295.000000 0 0 1
14.230693 13.838723 20.754458 28.718816 0.771435 0.763127 0.037945 -0.012797 214983.000000 0 0 1
15.315893 13.485723 21.615458 29.726576 0.721939 0.756646 0.037984 -0.008328 336796.000000 0 0 1
16.180493 14.661723 22.093358 31.062693 0.736195 0.779521 0.036129 -0.005874 -131824.000000 0 0 1
15.553693 15.521723 23.054658 31.848995 0.784369 0.761395 0.042025 -0.004335 113528.000000 0 0 1
16.353193 16.626723 23.340258 32.994582 0.793692 0.784988 0.036517 -0.000676 -425020.000000 0 0 1
-20.655707 12.577387 -25.352475 35.037079 -0.546942 2.379786 -0.004678 -0.009893 57393.100000 0 0 1
-20.421707 12.430087 -26.738855 35.868085 -0.546770 2.412047 -0.000375 -0.021955 185533.000000 0 0 1
-21.176107 13.416787 -27.461695 37.183093 -0.564746 2.401718 -0.008521 -0.010797 56496.600000 0 0 1
-20.831607 13.570687 -28.973715 38.178470 -0.577392 2.432422 -0.006758 -0.011763 -688915.000000 0 0 1
-19.534407 14.018587 -29.172865 37.804363 -0.622464 2.452274 -0.008096 -0.012551 -933250.000000 0 0 1
-19.382307 14.234387 -30.582065 38.904425 -0.633443 2.475241 -0.000111 -0.020354 176991.000000 0 0 1
-17.968907 14.658887 -31.037715 38.744088 -0.684296 2.499920 -0.002781 -0.019370 373676.000000 0 0 1
-16.968007 13.640287 -31.107455 37.968993 -0.677104 2.530961 -0.005401 -0.022475 1651590.000000 0 0 1
-15.590507 14.150087 -31.042385 37.508913 -0.737003 2.545615 -0.013559 -0.011038 1726900.000000 0 0 1
-15.004007 13.996687 -29.593135 36.010847 -0.750678 2.535331 -0.000341 -0.003698 -602213.000000 0 0 1
-15.736507 14.511587 -28.495285 35.639937 -0.744924 2.497313 -0.014132 -0.006510 -9562.480000 0 0 1
-16.420007 13.520487 -27.732525 34.950152 -0.688856 2.487315 0.007154 -0.004101 -40829.200000 0 0 1
-17.111707 13.988787 -26.477705 34.490079 -0.685320 2.446026 0.004171 -0.013076 -22299.800000 0 0 1
-16.197907 14.378987 -25.482545 33.443797 -0.725981 2.437117 0.022911 -0.003154 464889.000000 0 0 1
-17.027407 14.703487 -24.374605 33.169964 -0.712290 2.396227 0.009066 0.001162 289617.000000 0 0 1
-16.325407 15.334987 -23.134905 32.201003 -0.754126 2.372372 0.023204 0.005944 -202165.000000 0 0 1
-15.809707 16.564087 -23.499405 32.810636 -0.808696 2.369157 0.002480 0.008517 -234592.000000 0 0 1
-15.377507 17.271487 -22.362605 32.169210 -0.843344 2.339433 0.001868 0.011962 -190325.000000 0 0 1
-14.917907 18.669187 -22.828305 33.048661 -0.896625 2.333320 -0.004612 0.009211 179306.000000 0 0 1
-15.987107 19.596987 -22.964505 34.161352 -0.886499 2.308022 -0.017516 0.015310 594348.000000 0 0 1
-16.735207 19.433687 -24.192905 35.256659 -0.859868 2.327040 -0.022591 0.022524 196442.000000 0 0 1
-17.948407 20.394687 -24.254105 36.419091 -0.849112 2.299593 -0.026702 0.017327 195808.000000 0 0 1
-17.610407 21.781787 -24.507505 37.218147 -0.890899 2.289597 -0.018814 0.010939 249407.000000 0 0 1
-18.808707 22.530587 -24.587405 38.287535 -0.875189 2.268132 -0.008364 0.003734 221140.000000 0 0 1
-18.504307 24.037387 -24.598005 39.054669 -0.914735 2.252137 -0.000742 -0.005939 107770.000000 0 0 1
-17.885607 24.458787 -23.393505 38.280325 -0.939400 2.228259 -0.004871 0.000561 -356825.000000 0 0 1
-17.118207 25.584287 -23.675705 38.834621 -0.981117 2.226421 -0.006132 0.001516 -235270.000000 0 0 1
-15.925207 25.744387 -22.668205 37.818424 -1.016820 2.213542 -0.003647 -0.006887 904340.000000 0 0 1
-14.818607 24.801187 -22.772905 36.787161 -1.032220 2.238322 0.004174 -0.012988 630285.000000 0 0 1
-15.090307 23.475187 -22.509805 35.853774 -0.999486 2.249549 -0.011319 0.010129 -1134820.000000 0 0 1
-13.902407 22.611687 -22.100805 34.539990 -1.019542 2.265114 0.007911 0.007693 -114663.000000 0 0 1
-13.409407 22.955387 -20.799205 33.754539 -1.042112 2.234692 0.017290 -0.002563 -56471.000000 0 0 1
-12.224607 22.242887 -20.523605 32.640548 -1.068263 2.250775 0.022684 0.000780 54818.500000 0 0 1
-11.660107 22.573487 -19.074305 31.770262 -1.094005 2.214775 0.019683 -0.001366 192968.000000 0 0 1
-12.472107 22.101587 -18.022905 31.126495 -1.057034 2.188324 0.017582 0.003062 79675.000000 0 0 1
-13.518607 22.980087 -17.658405 31.978999 -1.039043 2.155782 0.010383 -0.004953 -157640.000000 0 0 1
-14.086607 22.794487 -16.227105 31.326348 -1.017259 2.115310 0.014824 -0.002313 -210191.000000 0 0 1
-13.312807 23.365587 -15.231505 30.905990 -1.052908 2.086139 0.027869 -0.012113 -116738.000000 0 0 1
-13.995907 23.372187 -13.964805 30.613074 -1.031239 2.044484 0.034135 -0.009516 413737.000000 0 0 1
-13.120407 23.884987 -12.750305 30.086674 -1.068478 2.008417 0.041028 -0.008628 100639.000000 0 0 1
-12.825807 25.242787 -12.813505 31.078699 -1.100691 1.995765 0.035816 -0.001100 -22338.100000 0 0 1
-11.974907 25.467587 -11.721805 30.486015 -1.131270 1.965460 0.035578 -0.004672 -417881.000000 0 0 1
-11.480207 26.935187 -11.759105 31.552750 -1.167896 1.952693 0.032955 0.005779 -73521.200000 0 0 1
-10.591307 27.396287 -12.752605 32.021263 -1.201898 1.980409 0.042679 0.002431 50236.100000 0 0 1
-10.600907 28.814787 -12.866505 33.289910 -1.218266 1.967629 0.028449 0.007323 -527198.000000 0 0 1
-10.141707 29.205687 -14.292005 34.060061 -1.236573 2.003814 0.046032 -0.005624 227580.000000 0 0 1
-8.732507 29.176287 -14.467305 33.716692 -1.279980 2.014275 0.031408 -0.005960 145309.000000 0 0 1
-8.111207 27.901087 -14.654805 32.542674 -1.287881 2.037926 0.034666 -0.005675 -591861.000000 0 0 1
-6.707707 28.102087 -15.217505 32.654143 -1.336490 2.055584 0.036627 -0.008296 28708.200000 0 0 1
-5.723907 28.520687 -14.265605 32.399077 -1.372734 2.026739 0.023916 -0.012391 -106444.000000 0 0 1
-4.466507 28.548887 -14.915305 32.518533 -1.415603 2.047295 0.029769 -0.014976 65166.500000 0 0 1
-3.480107 29.553687 -14.274805 33.004570 -1.453581 2.018071 0.016677 -0.012786 -179739.000000 0 0 1
-3.819307 30.918187 -14.472505 34.350761 -1.447889 2.005692 0.008239 -0.008127 -23059.900000 0 0 1
-4.480707 31.546987 -13.406005 34.568918 -1.429707 1.969046 -0.002345 -0.011060 -173517.000000 0 0 1
-4.714007 33.058187 -13.543905 36.034746 -1.429154 1.956118 0.004152 -0.018447 -7914.870000 0 0 1
-3.594207 33.876387 -13.277905 36.562695 -1.465094 1.942448 -0.013841 -0.016825 30484.500000 0 0 1
-3.932707 -33.869077 -13.557305 36.693066 1.455199 1.949244 0.003620 -0.012669 228881.000000 0 0 1
-3.070007 -32.879477 -12.778705 35.408760 1.477695 1.940019 -0.004045 -0.009402 -123302.000000 0 0 1
-3.402707 -32.842677 -11.399905 34.931042 1.467558 1.903241 -0.011067 -0.010454 764399.000000 0 0 1
-2.440507 -32.138377 -10.544605 33.911946 1.495004 1.886979 -0.022846 -0.006817 412907.000000 0 0 1
-2.853707 -32.227977 -9.063805 33.599683 1.482479 1.843939 -0.025750 -0.000761 -407068.000000 0 0 1
-2.081207 -31.384777 -8.229805 32.512541 1.504581 1.826708 -0.014965 -0.003799 -81319.800000 0 0 1
-2.336307 -31.619777 -6.864305 32.440520 1.497043 1.784005 -0.019613 -0.005066 129567.000000 0 0 1
-1.289907 -30.812377 -5.999705 31.417557 1.528957 1.762943 -0.002245 -0.004669 632124.000000 0 0 1
-1.449507 -31.044677 -4.606805 31.418079 1.524139 1.717956 0.006506 -0.002692 -515176.000000 0 0 1
-0.432907 -30.489077 -3.840705 30.733081 1.556599 1.696094 0.003625 -0.001322 -435601.000000 0 0 1
-0.465407 -30.747277 -2.345905 30.840151 1.555661 1.646936 0.014660 0.001843 -319038.000000 0 0 1
-0.235007 -32.021177 -1.738505 32.069197 1.563457 1.625034 0.018168 -0.002009 51298.200000 0 0 1
0.849893 -32.836377 -2.135905 32.916744 -1.544919 1.635730 0.017959 -0.000755 140046.000000 0 0 1
2.263393 -32.429577 -1.673805 32.551529 -1.501115 1.622239 0.029115 0.003126 -697049.000000 0 0 1
2.468693 -32.826077 -0.341905 32.920551 -1.495732 1.581182 0.024877 -0.001922 507980.000000 0 0 1
3.787993 -32.518577 0.113895 32.738658 -1.454832 1.567317 0.023798 -0.002464 627072.000000 0 0 1
4.181493 -31.014677 0.402595 31.297878 -1.436781 1.557933 0.015103 -0.004961 -619193.000000 0 0 1
4.098493 -30.245577 -0.811705 30.532793 -1.436110 1.597384 0.027616 -0.005839 45717.800000 0 0 1
3.948093 -28.868477 -0.531905 29.142054 -1.434878 1.589049 0.029590 -0.003280 -505111.000000 0 0 1
3.573393 -28.057477 -1.753805 28.338437 -1.444119 1.632724 0.031442 -0.008651 111183.000000 0 0 1
2.205393 -28.175077 -2.130305 28.341435 -1.492681 1.646033 0.022898 -0.004801 376282.000000 0 0 1
1.690393 -27.115277 -2.906505 27.322947 -1.508536 1.677374 0.013101 0.002439 -172596.000000 0 0 1
2.250993 -26.963677 -4.316805 27.399665 -1.487507 1.729005 0.003235 0.000088 -323987.000000 0 0 1
1.836493 -28.058977 -5.148605 28.586483 -1.505438 1.751891 0.000491 -0.002987 320840.000000 0 0 1
2.488993 -27.987977 -6.424605 28.823558 -1.482099 1.795579 0.010587 0.002763 -233375.000000 0 0 1
1.901193 -28.943377 -7.451905 29.947696 -1.505204 1.822269 -0.006961 0.002895 -471153.000000 0 0 1
0.674293 -28.452677 -7.912005 29.539961 -1.547102 1.841948 -0.017255 0.001411 -744965.000000 0 0 1
0.455693 -28.927077 -9.215705 30.363015 -1.555044 1.879178 -0.017979 0.009860 1212680.000000 0 0 1
-0.906607 -28.329677 -9.816405 29.995905 1.538805 1.904197 -0.025832 0.005653 665620.000000 0 0 1
-0.922207 -26.913877 -9.826005 28.666315 1.536545 1.920662 -0.033274 0.009201 166790.000000 0 0 1
-2.227807 -26.342577 -9.901105 28.229884 1.486426 1.929148 -0.017394 0.005609 1377870.000000 0 0 1
-3.250607 -26.667377 -8.704605 28.239787 1.449500 1.884138 -0.005121 0.000751 -56537.400000 0 0 1
-2.933007 -26.320277 -7.354905 27.485526 1.459819 1.841689 -0.004036 -0.002926 -55750.100000 0 0 1
-1.933507 -27.132877 -6.712705 28.017706 1.499656 1.812738 -0.020252 -0.003391 334930.000000 0 0 1
-1.730607 -26.797677 -5.238005 27.359591 1.506305 1.763436 -0.005156 -0.001926 436218.000000 0 0 1
-2.789707 -27.020477 -4.305505 27.503200 1.467917 1.727988 0.000579 -0.008981 212353.000000 0 0 1
-2.274507 -26.791277 -2.996305 27.054089 1.486102 1.681776 0.003784 -0.007540 248944.000000 0 0 1
-3.262707 -27.166877 -1.836205 27.423642 1.451270 1.637803 -0.001314 -0.007678 728074.000000 0 0 1
-4.398007 -26.295677 -1.960305 26.732899 1.405078 1.644192 0.006396 -0.004356 -18522.900000 0 0 1
-5.256107 -26.361677 -0.851605 26.894050 1.373993 1.602467 0.017448 -0.007241 407370.000000 0 0 1
-6.284507 -25.133077 -0.915005 25.923037 1.325771 1.606101 0.021367 -0.012957 564688.000000 0 0 1
-5.746007 -23.855577 -0.685905 24.547416 1.334432 1.598742 0.005403 -0.006371 -636720.000000 0 1 0
-6.585407 -23.108977 0.115695 24.029270 1.293183 1.565982 0.017970 -0.011061 -381490.000000 0 1 0
-6.097207 -21.651277 0.395795 22.496897 1.296296 1.553202 0.011051 -0.011789 252928.000000 0 1 0
-4.894207 -21.702577 1.149095 22.277243 1.348994 1.519192 0.006145 -0.014688 -88831.400000 0 1 0
-4.357707 -20.438177 1.297395 20.937811 1.360728 1.508792 -0.001047 -0.005311 -1026190.000000 0 1 0
-3.434807 -20.351177 2.467695 20.786001 1.403595 1.451797 -0.001912 -0.000970 -823007.000000 0 1 0
-4.061407 -20.191277 3.682395 20.922302 1.372298 1.393871 -0.005197 0.000008 752338.000000 0 1 0
-3.112507 -20.054977 4.822395 20.860137 1.416826 1.337508 0.008423 -0.002805 1580830.000000 0 1 0
-2.294507 -21.371577 5.268295 22.130612 1.463843 1.330434 0.004020 -0.005994 -234659.000000 0 1 0
-1.240507 -21.707777 4.478695 22.199666 1.513713 1.367656 0.011049 -0.006483 -1064280.000000 0 1 0
-0.803007 -22.999977 4.812895 23.511864 1.535897 1.364638 0.010542 -0.007545 -350872.000000 0 1 0
0.229093 -23.501177 3.768995 23.802587 -1.561048 1.411783 0.018194 -0.012573 1311790.000000 0 1 0
1.460393 -22.778277 3.606995 23.108290 -1.506771 1.414064 0.011954 -0.010833 1660180.000000 0 1 0
2.443293 -22.814377 4.710895 23.423450 -1.464109 1.368296 0.029631 -0.016724 1044350.000000 0 1 0
3.567793 -21.728177 4.634895 22.501668 -1.408047 1.363331 0.037379 -0.018221 805541.000000 0 1 0
4.552093 -22.003577 3.616595 22.758706 -1.366795 1.411209 0.019548 -0.002151 162460.000000 0 1 0
5.550993 -20.999177 3.595695 22.016085 -1.312364 1.406740 0.025805 -0.000737 316404.000000 0 1 0
6.141193 -20.862477 2.200395 21.858612 -1.284517 1.469961 0.022378 0.005518 60452.700000 0 1 0
6.746293 -22.010377 1.659695 23.080809 -1.273382 1.498826 0.023043 0.010300 -349644.000000 0 1 0
6.627393 -21.906777 0.241895 22.888594 -1.277023 1.560228 0.024042 -0.003617 214021.000000 0 1 0
7.659293 -22.794777 -0.511105 24.052606 -1.246638 1.592047 0.023430 0.001029 -201219.000000 0 1 0
8.872493 -22.161677 -0.766605 23.884069 -1.189986 1.602899 0.021820 0.005040 -1028790.000000 0 1 0
9.622193 -23.048477 -1.572605 25.025826 -1.175316 1.633677 0.016992 0.005160 -21530.700000 0 0 1
10.992593 -22.536877 -2.049405 25.158457 -1.116988 1.652347 0.008706 0.009403 -107241.000000 0 0 1
10.958793 -21.589077 -3.116605 24.410994 -1.101081 1.698818 0.009863 0.017453 -343378.000000 0 1 0
12.250693 -21.248777 -3.595505 24.789467 -1.047808 1.716351 0.002174 0.011046 95682.000000 0 1 0
12.223993 -20.057277 -4.593505 23.933672 -1.023454 1.763921 -0.000650 -0.002010 -445823.000000 0 1 0
12.299793 -18.813477 -3.914505 22.815678 -0.991771 1.743220 0.009225 0.007499 -3346.580000 0 1 0
12.429693 -17.779177 -4.779105 22.213425 -0.960664 1.787637 0.009355 -0.000346 -588583.000000 0 1 0
12.837993 -16.431377 -4.025005 21.236875 -0.907556 1.761479 0.024886 0.003151 763490.000000 0 1 0
14.163993 -16.316777 -3.508605 21.889866 -0.855909 1.731775 0.014807 0.006951 683710.000000 0 1 0
15.162693 -16.171077 -4.497605 22.619448 -0.817569 1.770968 0.004022 0.003222 253695.000000 0 1 0
16.616493 -15.777777 -4.091405 23.276290 -0.759513 1.747490 -0.000546 0.003578 821694.000000 0 1 0
17.207293 -16.735077 -3.213405 24.217343 -0.771487 1.703879 -0.001233 0.005755 883087.000000 0 1 0
18.629093 -16.835277 -3.306605 25.325941 -0.734860 1.701732 -0.006554 0.016081 493557.000000 0 0 1
19.318293 -17.713777 -2.220905 26.304120 -0.742098 1.655329 -0.003834 0.014176 580458.000000 0 0 1
20.725393 -17.489477 -2.363805 27.221522 -0.700923 1.657742 0.005453 0.013889 540620.000000 0 0 1
21.424993 -17.950277 -1.235005 27.977991 -0.697380 1.614953 0.003652 0.016783 -591041.000000 0 0 1
22.937593 -17.912477 -1.192805 29.127526 -0.662999 1.611759 0.014181 0.006867 -732990.000000 0 0 1
23.536693 -16.673977 -1.109505 28.865696 -0.616358 1.609243 0.012957 0.001819 204014.000000 0 0 1
24.913693 -16.764877 -0.778905 30.039306 -0.592318 1.596729 0.030776 -0.001199 563035.000000 0 0 1
25.598193 -15.491677 -0.166605 29.921352 -0.544224 1.576364 0.028837 -0.006015 276194.000000 0 0 1
25.009493 -15.150977 1.085895 29.260998 -0.544680 1.533677 0.025720 -0.000829 176920.000000 0 0 1
25.764593 -14.179677 1.754595 29.461094 -0.503116 1.511205 0.026230 -0.016404 -173877.000000 0 0 1
24.976093 -13.449477 2.852895 28.510220 -0.493967 1.470563 0.029570 -0.015546 168434.000000 0 0 1
24.537593 -14.279177 3.942295 28.662345 -0.527027 1.432816 0.036956 -0.010202 707785.000000 0 0 1
25.645393 -14.594377 4.787295 29.893146 -0.517377 1.409957 0.054019 -0.010699 761950.000000 0 0 1
25.054793 -15.309777 5.978595 29.964571 -0.548506 1.369926 0.041174 -0.000613 476799.000000 0 0 1
24.364793 -16.553877 5.828695 30.027448 -0.596779 1.375444 0.037374 -0.004759 -140107.000000 0 0 1
23.420693 -16.719077 6.847695 29.579508 -0.619967 1.337176 0.018553 0.002996 -502455.000000 0 0 1
22.643193 -18.023277 6.737995 29.714530 -0.672278 1.342049 0.011948 0.001404 -92967.700000 0 0 1
23.428993 -19.208177 6.920895 31.076849 -0.686726 1.346211 0.029203 -0.001186 -135192.000000 0 0 1
22.653593 -20.395977 6.907995 31.255424 -0.733004 1.347939 0.006588 0.003797 -92592.400000 0 0 1
1.800593 23.239287 -2.940705 23.493708 1.493470 1.696295 -0.003509 -0.004720 -125403.000000 0 1 0
2.516993 24.378687 -2.594305 24.645203 1.467915 1.676258 0.003626 -0.001794 -261779.000000 0 1 0
3.253993 24.823087 -3.730505 25.311870 1.440452 1.718717 0.013894 -0.002450 168821.000000 0 0 1
4.226393 25.976887 -3.296505 26.524102 1.409511 1.695402 0.011456 0.004833 983911.000000 0 0 1
5.369293 25.417987 -2.606205 26.109302 1.362617 1.670782 0.003592 0.004306 620942.000000 0 0 1
6.022593 26.371387 -1.749105 27.106845 1.346271 1.635368 0.008135 0.003278 -6920.550000 0 0 1
7.102293 25.814087 -0.799005 26.785221 1.302307 1.600631 0.008409 -0.003304 -545973.000000 0 0 1
8.184293 25.485987 -1.595605 26.815371 1.260069 1.630335 0.009457 -0.003986 -859414.000000 0 0 1
9.085493 24.581287 -0.958005 26.224104 1.216759 1.607336 0.006149 -0.005973 -253701.000000 0 0 1
10.230993 24.181287 -1.874005 26.323369 1.170540 1.642048 0.019166 -0.010717 -1362520.000000 0 0 1
11.012793 25.327887 -2.168105 27.703504 1.160647 1.649137 0.029444 -0.006574 192983.000000 0 0 1
11.849393 25.208987 -3.354005 28.056202 1.131397 1.690629 0.049617 -0.006460 865277.000000 0 0 1
13.007693 24.189787 -3.265005 27.658744 1.077418 1.689118 0.048852 -0.010705 -663189.000000 0 0 1
12.529593 22.817187 -3.393005 26.251232 1.068622 1.700410 0.046561 -0.014529 22129.800000 0 0 1
12.487993 22.319887 -4.760605 26.015201 1.060688 1.754827 0.048548 -0.017949 -178119.000000 0 0 1
11.518293 21.111087 -4.998405 24.562840 1.071334 1.775722 0.044199 -0.015354 204600.000000 0 1 0
10.194993 21.514387 -4.721805 24.271427 1.128272 1.766587 0.031140 -0.008420 159338.000000 0 1 0
9.283693 20.396887 -4.718905 22.901703 1.143666 1.778333 0.010014 -0.000825 940768.000000 0 1 0
7.783893 20.797887 -4.560305 22.670189 1.212671 1.773337 0.000448 0.001328 489333.000000 0 1 0
7.561793 21.354487 -3.258405 22.886940 1.230467 1.713651 0.000246 0.006751 1047770.000000 0 1 0
6.208193 21.866987 -3.208905 22.956564 1.294168 1.711037 -0.000010 0.016922 1167490.000000 0 1 0
5.943993 22.425487 -1.772905 23.267503 1.311699 1.647067 0.005629 0.007441 -114967.000000 0 1 0
5.566593 21.475387 -0.833405 22.200760 1.317170 1.608345 0.006433 0.003957 -7426.460000 0 1 0
5.004193 22.119987 0.327795 22.681341 1.348312 1.556344 0.014690 0.000849 171177.000000 0 1 0
4.287393 21.188087 1.307995 21.657045 1.371143 1.510364 0.011881 -0.008879 1111.930000 0 1 0
3.441393 21.836287 2.245195 22.219530 1.414482 1.469578 0.013657 -0.006033 332956.000000 0 1 0
2.982193 20.942087 3.241295 21.400245 1.429345 1.418751 0.017026 -0.006368 -203535.000000 0 1 0
2.079993 21.644887 4.284195 22.162622 1.474994 1.376264 0.016276 -0.007253 597630.000000 0 1 0
0.744493 21.683987 3.755295 22.019351 1.536476 1.399413 0.014523 -0.008976 756528.000000 0 1 0
-0.198007 22.267487 4.666595 22.752083 -1.561904 1.364224 0.015223 -0.010591 -227825.000000 0 1 0
-1.638307 22.279687 4.201295 22.731462 -1.497395 1.384905 -0.005417 -0.010959 -597586.000000 0 1 0
-2.527607 22.472387 5.294995 23.225717 -1.458791 1.340794 0.002758 -0.014389 1053150.000000 0 1 0
-3.870307 22.575287 4.753095 23.392622 -1.401007 1.366184 0.008041 -0.013935 812982.000000 0 1 0
-4.968007 23.054387 5.690895 24.260506 -1.358551 1.334016 0.021593 -0.013965 -454085.000000 0 1 0
-5.048907 24.454287 5.907395 25.659324 -1.367194 1.338488 0.025102 -0.006436 -56729.900000 0 0 1
-6.161907 24.714587 6.722695 26.343397 -1.326455 1.312747 0.040902 -0.007459 -17659.400000 0 0 1
-6.370307 26.242987 7.032195 27.905680 -1.332659 1.316051 0.041805 -0.008796 -572332.000000 0 0 1
-5.320407 26.798287 7.758095 28.401460 -1.374809 1.294122 0.038593 -0.015476 -436698.000000 0 0 1
-5.543407 28.043087 8.426195 29.801759 -1.375638 1.284145 0.064048 -0.019619 -134874.000000 0 0 1
-5.889107 29.297287 7.550495 30.822436 -1.372428 1.323310 0.059610 -0.020072 -63092.900000 0 0 1
-7.178107 29.353287 7.012995 31.021328 -1.330961 1.342755 0.044704 -0.020227 -1025710.000000 0 0 1
-7.204307 30.415987 6.115095 31.850097 -1.338223 1.377601 0.055512 -0.027854 -566230.000000 0 0 1
-8.645807 30.648987 5.667495 32.345493 -1.295850 1.394670 0.039175 -0.027208 22409.000000 0 0 1
-9.530307 31.056887 6.703995 33.170778 -1.273052 1.367289 0.033336 -0.020217 31378.000000 0 0 1
-10.117807 29.990487 7.484295 32.524053 -1.245420 1.338600 0.019501 -0.009571 -255574.000000 0 0 1
-11.100707 30.535187 8.549995 33.596514 -1.222112 1.313475 0.007208 -0.010551 263003.000000 0 0 1
-10.376107 31.191087 9.535695 34.226846 -1.249650 1.288457 0.007806 -0.012168 351397.000000 0 0 1
-11.323207 31.560287 10.541595 35.148143 -1.226321 1.266189 0.011259 -0.001639 419791.000000 0 0 1
-10.637707 32.089587 11.817595 35.812818 -1.250696 1.234512 0.012296 -0.004750 -100639.000000 0 0 1
-10.157107 33.418987 11.666695 36.825362 -1.275736 1.248430 0.002683 -0.002436 -10268.500000 0 0 1
-9.179807 33.701387 12.623195 37.140240 -1.304861 1.224008 -0.000219 -0.006297 -325093.000000 0 0 1
-8.850107 -33.882077 12.746695 37.266577 1.315302 1.221708 -0.009355 0.000652 -191819.000000 0 0 1
-9.859207 -33.118977 13.375895 37.053815 1.281460 1.201472 -0.010129 0.009750 -6452.170000 0 0 1
-9.666807 -31.706977 13.248995 35.697555 1.274869 1.190554 -0.015135 0.001556 -332642.000000 0 0 1
-10.659907 -30.918677 14.070495 35.603048 1.238786 1.164506 -0.007195 0.004973 -782969.000000 0 0 1
-10.429807 -30.931277 15.501695 36.136233 1.245576 1.127434 -0.000742 0.002621 501903.000000 0 0 1
-9.245707 -30.346577 16.065095 35.559600 1.275060 1.102037 0.002210 0.007561 523456.000000 0 0 1
-9.162507 -30.731477 17.603695 36.582309 1.281040 1.068764 -0.009265 -0.001838 140912.000000 0 0 1
-10.049807 -29.993577 18.458995 36.624415 1.247488 1.042563 0.020009 -0.005397 744475.000000 0 0 1
-10.796107 -30.900577 19.311395 38.004363 1.234672 1.037777 0.009708 -0.007476 345052.000000 0 0 1
-11.229407 -30.306377 20.700095 38.380594 1.215951 1.001146 0.031051 -0.015179 404543.000000 0 0 1
-10.103507 -30.112877 21.545495 38.380654 1.247078 0.974764 0.029255 -0.016393 319347.000000 0 0 1
-10.548407 -29.768577 22.800795 38.952706 1.230254 0.945490 0.024429 -0.021284 -777231.000000 0 0 1
-9.442507 -29.401277 23.719895 38.938791 1.260042 0.915797 0.022437 -0.016588 -659143.000000 0 0 1
-9.019307 -30.432777 24.608395 40.163104 1.282675 0.911309 0.020105 -0.009689 211980.000000 0 0 1
-7.823507 -30.163177 25.322895 40.153126 1.317016 0.888395 0.025089 -0.005176 71849.800000 0 0 1
-7.631007 -31.281977 26.357795 41.611630 1.331527 0.884827 0.029614 -0.004976 -140481.000000 0 0 1
-7.394207 -32.485777 25.686695 42.069066 1.346996 0.913999 0.034105 -0.007939 261272.000000 0 0 1
-7.412607 -33.555077 26.647995 43.485694 1.353379 0.911198 0.032565 -0.006072 -292823.000000 0 0 1
-7.197907 34.134487 26.032695 43.527856 -1.362972 0.929706 0.022899 -0.008231 -603438.000000 0 0 1
-5.883607 33.786287 25.717995 42.866599 -1.398383 0.927352 0.028358 -0.007040 -470853.000000 0 0 1
-5.617907 32.644687 24.898595 41.438829 -1.400373 0.926230 0.022825 0.002151 54938.700000 0 0 1
-6.483607 32.336287 23.580695 40.542839 -1.372915 0.950072 0.019270 0.004013 383208.000000 0 0 1
-7.691307 31.672287 23.861095 40.393586 -1.332567 0.938852 0.010743 0.001159 -252138.000000 0 0 1
-8.524907 31.509187 22.768395 39.798275 -1.306569 0.961738 0.007464 0.010559 -414565.000000 0 0 1
-9.480907 30.311787 22.965295 39.193071 -1.267657 0.944741 0.004930 -0.003826 -296604.000000 0 0 1
-8.902007 29.033587 22.906495 38.038171 -1.273286 0.924545 -0.001872 0.000244 -287863.000000 0 0 1
-9.819707 27.989387 23.147095 37.624732 -1.233376 0.908145 -0.009623 -0.003754 -472030.000000 0 0 1
-9.183907 26.585087 22.945395 36.298790 -1.238178 0.886503 -0.015651 -0.000763 -202402.000000 0 0 1
-8.046307 26.356887 23.747195 36.377985 -1.274500 0.859534 -0.013498 -0.001745 34108.600000 0 0 1
-7.707307 24.998287 23.550295 35.198485 -1.271730 0.837838 -0.006240 -0.006268 -391635.000000 0 0 1
-6.276207 24.576587 23.908695 34.857210 -1.320767 0.814951 -0.008698 0.000772 -205611.000000 0 0 1
-5.344207 25.228787 23.075895 34.605624 -1.362052 0.840856 -0.006289 0.000305 795144.000000 0 0 1
-3.999907 25.012187 23.559895 34.593025 -1.412221 0.821588 0.018713 0.010266 590950.000000 0 0 1
-2.855607 25.582687 22.771295 34.368012 -1.459634 0.846548 0.014961 0.008511 -597084.000000 0 0 1
-2.490007 24.939487 21.561295 33.061573 -1.471284 0.860372 0.017207 0.007149 192645.000000 0 0 1
-1.694607 25.725587 20.689395 33.056445 -1.505019 0.894536 0.024056 0.005473 195134.000000 0 0 1
-1.020207 24.961987 19.513295 31.700320 -1.529949 0.907706 0.019297 0.000370 -31988.400000 0 0 1
-0.101707 23.951487 19.897495 31.138311 -1.566550 0.877594 0.009829 0.006726 59096.700000 0 0 1
0.024893 23.004587 18.836495 29.732561 1.569714 0.884688 0.001721 0.006863 -651337.000000 0 0 1
1.040693 21.892687 19.143995 29.100951 1.523296 0.852839 0.003065 0.013969 586210.000000 0 0 1
2.376393 22.404387 19.238295 29.626269 1.465123 0.864046 -0.001016 0.000812 249600.000000 0 0 1
3.305693 21.344387 19.284895 28.955442 1.417143 0.841936 0.002771 0.007832 -968532.000000 0 0 1
4.714993 21.855487 19.439595 29.627543 1.358318 0.855114 0.003237 -0.004284 -1154590.000000 0 0 1
5.624393 20.874287 19.012295 28.789530 1.307605 0.849459 0.020331 -0.004047 -1544440.000000 0 0 1
6.863093 21.447887 18.876795 29.384474 1.261103 0.873161 0.025664 -0.005150 -1626730.000000 0 0 1
7.940493 20.450687 18.476895 28.682358 1.200438 0.870832 0.031809 -0.003148 -579066.000000 0 0 1
8.291493 19.644287 19.613495 28.971297 1.171400 0.827121 0.029130 -0.004459 19151.900000 0 0 1
9.252793 18.711687 19.164795 28.337798 1.111564 0.828071 0.025089 -0.008848 -246797.000000 0 0 1
9.834093 17.851387 20.278395 28.750560 1.067273 0.787919 0.038818 -0.011697 -337996.000000 0 0 1
8.978793 16.842287 20.785295 28.218962 1.081013 0.742809 0.032601 -0.008010 47345.000000 0 0 1
9.395493 16.431987 22.086095 29.087473 1.051385 0.708561 0.032316 -0.014466 349664.000000 0 0 1
8.378293 15.413987 22.709295 28.696670 1.072918 0.657772 0.018511 -0.008672 366596.000000 0 0 1
7.195693 15.980887 23.248395 29.114509 1.147719 0.645971 0.011575 0.002264 39580.500000 0 0 1
6.175693 15.105087 23.684295 28.761931 1.182685 0.603314 0.005824 0.008703 310705.000000 0 0 1
6.532793 13.952287 24.646695 29.065500 1.132891 0.558651 0.011830 0.007695 -542908.000000 0 0 1
7.126293 14.389987 25.853995 30.434928 1.110975 0.555789 0.023916 0.001117 -22770.400000 0 0 1
7.414293 13.280787 26.720595 30.746402 1.061624 0.517489 0.032628 -0.005128 -393464.000000 0 0 1
8.124293 13.777187 28.015295 32.259445 1.037991 0.518755 0.021300 -0.003883 217822.000000 0 0 1
9.498193 14.082887 27.871695 32.640079 0.977425 0.547343 0.043931 -0.000827 201243.000000 0 0 1
9.861393 15.254687 27.141695 32.659212 0.996921 0.589789 0.032657 -0.003512 -852149.000000 0 0 1
11.154793 15.117787 26.339995 32.353859 0.935111 0.619580 0.042504 -0.008388 -421080.000000 0 0 1
11.052893 14.077987 25.329195 31.014904 0.905195 0.615165 0.044435 -0.009449 -375992.000000 0 0 1
12.180893 13.853687 24.532995 30.694733 0.849563 0.644738 0.051625 -0.009456 -470800.000000 0 0 1
12.046793 12.643887 23.547495 29.316849 0.809576 0.638137 0.047637 -0.014296 -59454.500000 0 0 1
11.772893 11.371387 24.049395 29.090941 0.768052 0.597585 0.040362 -0.004439 425915.000000 0 0 1
10.402493 11.166787 24.379695 28.762450 0.820818 0.559308 0.037341 -0.001437 -7790.640000 0 0 1
9.927593 9.833987 24.912695 28.564082 0.780661 0.511178 0.031380 0.001436 -73528.800000 0 0 1
10.034293 8.815887 23.932795 27.407765 0.720852 0.509041 0.030230 0.004034 76550.300000 0 0 1
9.801793 7.573287 24.579995 27.524643 0.657836 0.466789 0.030427 -0.002946 -114700.000000 0 0 1
10.084393 6.339087 23.716295 26.539436 0.561187 0.465439 0.034828 -0.011535 -10475.000000 0 0 1
11.466993 6.238087 23.398495 26.793567 0.498228 0.508886 0.034514 -0.009691 319549.000000 0 0 1
11.798693 5.180887 22.510895 25.938218 0.413758 0.519906 0.039739 -0.016951 -67309.000000 0 0 1
11.622993 3.765687 23.065695 26.101736 0.313315 0.487121 0.026745 -0.013901 -384394.000000 0 0 1
12.693293 3.246087 23.830295 27.194480 0.250367 0.502686 0.028200 -0.011260 -19306.100000 0 0 1
12.448893 1.926287 24.303995 27.374618 0.153518 0.478189 0.023207 -0.006626 -934639.000000 0 0 1
13.603993 1.307587 25.062195 28.546314 0.095824 0.499236 0.017368 -0.001681 -663557.000000 0 0 1
14.588993 0.995487 24.090195 28.180972 0.068130 0.545556 0.024297 -0.007625 663784.000000 0 0 1
15.893293 1.152387 24.711195 29.403536 0.072381 0.572746 0.023805 -0.006415 892258.000000 0 0 1
16.959293 0.395487 23.868395 29.282662 0.023316 0.617889 0.036076 -0.011785 134826.000000 0 0 1
16.796393 -0.951713 24.232295 29.499639 -0.056601 0.606858 0.025947 -0.007034 509675.000000 0 0 1
17.885993 -1.709213 23.710895 29.749566 -0.095272 0.648457 0.038247 -0.000367 144743.000000 0 0 1
18.007293 -3.166613 24.105295 30.254839 -0.174072 0.648912 0.027604 0.006281 -409803.000000 0 0 1
17.012693 -3.951213 23.516195 29.292580 -0.228205 0.638813 0.015224 0.009289 -108937.000000 0 0 1
17.171893 -5.330613 23.740895 29.781193 -0.300995 0.648191 0.026806 0.008348 -211906.000000 0 0 1
16.176993 -6.206613 22.979895 28.780075 -0.366349 0.646054 0.017501 0.005366 -317171.000000 0 0 1
16.272793 -6.126013 21.583295 27.715888 -0.360048 0.678152 0.013437 0.002898 289436.000000 0 0 1
15.506693 -7.121213 20.861995 26.951661 -0.430507 0.685579 0.023255 0.004042 27042.100000 0 0 1
15.919193 -8.590313 21.010295 27.724478 -0.494839 0.710824 0.030659 -0.005012 -159721.000000 0 0 1
15.605393 -9.206513 22.268995 28.708819 -0.533002 0.682997 0.012875 -0.002248 17022.600000 0 0 1
16.379993 -10.360913 22.425295 29.640286 -0.563999 0.712727 0.017769 -0.004351 -4800.900000 0 0 1
15.865493 -11.125213 23.706595 30.618407 -0.611545 0.685252 0.023882 -0.001379 -206100.000000 0 0 1
14.842293 -11.997813 23.374795 30.176518 -0.679814 0.684711 0.027310 -0.006556 -538914.000000 0 0 1
14.566693 -12.923913 24.431395 31.242745 -0.725711 0.672950 0.024741 0.004847 166793.000000 0 0 1
13.539193 -13.993813 23.954295 30.869804 -0.801908 0.682532 0.009023 0.003819 1697.460000 0 0 1
14.000193 -14.760513 22.925495 30.650554 -0.811828 0.725808 0.022753 0.004061 -241117.000000 0 0 1
12.940093 -15.536613 22.445295 30.209661 -0.876327 0.733279 0.012161 0.012270 -323577.000000 0 0 1
13.190093 -16.463013 21.200695 29.907839 -0.895327 0.782905 0.022633 -0.004247 -290329.000000 0 0 1
14.230593 -17.396313 21.369795 31.013056 -0.885162 0.810608 0.028024 -0.002577 91267.500000 0 0 1
14.378793 -18.204713 20.253395 30.795475 -0.902282 0.853069 0.030932 -0.008807 -27601.200000 0 0 1
-22.844407 -32.370277 27.049318 47.972569 0.956241 0.971757 0.033954 -0.007797 -108080.000000 0 0 1
-23.492607 -33.424177 27.718248 49.369824 0.958152 0.974670 0.034781 -0.010522 -269977.000000 0 0 1
-24.659407 -33.790477 27.044368 49.812454 0.940366 0.996881 0.034584 -0.014254 322774.000000 0 0 1
-25.662107 34.323987 27.781658 51.073480 -0.928805 0.995653 0.029609 -0.013015 135352.000000 0 0 1
-26.372167 -34.218077 28.873338 51.961886 0.914173 0.981635 0.037699 -0.014315 311910.000000 0 0 1
-25.612077 -33.877077 30.034618 52.016470 0.923447 0.955248 0.042852 -0.018838 158281.000000 0 0 1
-26.579117 -33.150077 31.006078 52.599942 0.894970 0.940394 0.036100 -0.019264 263189.000000 0 0 1
-26.755107 -31.740777 30.829718 51.708647 0.870424 0.932012 0.029556 -0.011771 -236460.000000 0 0 1
-27.577307 -31.208877 31.819528 52.411680 0.847096 0.918381 0.014592 -0.000200 -367656.000000 0 0 1
-27.981917 -29.747377 31.573848 51.621720 0.815970 0.912666 0.013811 -0.011989 -194698.000000 0 0 1
-28.820087 -29.549177 30.461368 51.299573 0.797889 0.935031 0.005796 0.006624 176330.000000 0 0 1
-29.150687 -28.160877 30.425638 50.680539 0.768129 0.926868 0.009396 0.004977 224029.000000 0 0 1
-29.950277 -27.839977 29.096608 50.186612 0.748898 0.952352 0.009138 -0.007240 327103.000000 0 0 1
-29.158837 -27.748777 27.903998 48.978215 0.760625 0.964628 0.011469 0.001138 450044.000000 0 0 1
-28.584707 -26.461577 27.673268 47.781904 0.746847 0.953101 -0.001666 0.005877 118895.000000 0 0 1
-27.396387 -26.521877 26.679108 46.537585 0.769180 0.960292 0.003397 0.016516 223268.000000 0 0 1
-27.869987 -26.607577 25.304618 46.097972 0.762229 0.989711 -0.009720 0.010950 -75272.600000 0 0 1
-26.894607 -26.175177 24.434298 44.782750 0.771843 0.993669 -0.000343 0.025992 -636838.000000 0 0 1
-27.239687 -26.528077 22.971258 44.423171 0.772164 1.027336 -0.009741 0.027811 179840.000000 0 0 1
-28.081977 -25.642277 22.251058 44.059430 0.740018 1.041387 -0.012872 0.020378 167583.000000 0 0 1
-28.617207 -26.139977 21.068758 44.115026 0.740189 1.072890 -0.019887 0.027534 -91134.000000 0 0 1
-29.224827 -25.059677 20.154358 43.454299 0.708820 1.088510 -0.018905 0.020230 311696.000000 0 0 1
-30.501587 -24.588677 20.580958 44.255234 0.678476 1.087104 -0.005970 0.020632 189613.000000 0 0 1
-30.916437 -23.550877 19.718958 43.581042 0.650985 1.101267 -0.007351 0.020474 -1134940.000000 0 0 1
-32.358267 -23.180077 19.950058 44.523906 0.621620 1.106185 0.009260 0.027146 -1037260.000000 0 0 1
-33.232757 -24.139577 19.423858 45.435906 0.628211 1.129071 -0.000174 0.023763 104529.000000 0 0 1
-34.577127 -23.687277 19.335858 46.157775 0.600626 1.138554 0.000253 0.022037 442138.000000 0 0 1
34.952281 -24.607977 18.586058 46.611759 -0.613436 1.160652 0.014295 0.012337 15488.300000 0 0 1
34.834771 -25.881477 19.143458 47.431889 -0.638992 1.155349 0.011910 0.013305 -155690.000000 0 0 1
34.274906 -26.833777 18.250758 47.200752 -0.664226 1.173787 0.017151 0.016599 281538.000000 0 0 1
33.660886 -28.074277 18.985458 47.766808 -0.695151 1.162048 0.017113 0.020526 148584.000000 0 0 1
32.629866 -27.999877 19.955058 47.401536 -0.709181 1.136272 0.014889 0.015781 -66667.300000 0 0 1
32.901396 -27.268277 21.113758 47.663944 -0.692050 1.111886 0.012751 0.014014 -160292.000000 0 0 1
31.636936 -27.298577 22.018458 47.232621 -0.711919 1.085839 0.007426 0.008732 -560325.000000 0 0 1
30.564576 -26.663977 21.464358 45.889864 -0.717345 1.084068 0.001588 0.012745 -1581810.000000 0 0 1
29.667916 -26.324477 22.480858 45.591143 -0.725757 1.055150 0.006931 0.016350 -243172.000000 0 0 1
28.559996 -25.411077 21.863858 44.038898 -0.727120 1.051272 0.004289 0.013359 -77426.600000 0 0 1
28.955346 -24.152877 21.344558 43.328555 -0.695215 1.055697 0.004970 0.011472 29965.100000 0 0 1
29.755186 -23.343477 22.222358 43.864818 -0.665229 1.039548 0.012160 0.006817 -468405.000000 0 0 1
30.540246 -22.254177 21.556258 43.504336 -0.629718 1.052390 -0.009535 0.023923 -499329.000000 0 0 1
29.824956 -21.098077 21.237758 42.257535 -0.615673 1.044217 -0.010016 0.014434 -685035.000000 0 0 1
30.714726 -20.110077 20.882358 42.236033 -0.579698 1.053628 -0.021652 0.014650 -779316.000000 0 0 1
30.032526 -18.693477 20.685158 40.978952 -0.556757 1.041675 -0.037822 0.024188 302264.000000 0 0 1
29.741606 -18.003877 21.891458 41.084531 -0.544339 1.008844 -0.027510 0.019223 415868.000000 0 0 1
28.686416 -18.509477 22.737858 41.018549 -0.573018 0.983237 -0.018930 0.009010 96718.700000 0 0 1
28.806916 -18.178377 24.245718 41.810844 -0.562932 0.952202 -0.023454 0.013517 -68240.300000 0 0 1
28.597366 -16.836977 24.575288 41.294527 -0.532114 0.933379 -0.024674 0.015817 160942.000000 0 0 1
28.868666 -16.635477 25.950998 42.232609 -0.522771 0.909073 -0.018474 0.015541 -217083.000000 0 0 1
28.650576 -15.202477 26.420048 41.832879 -0.487840 0.887230 -0.004773 0.011988 820101.000000 0 0 1
27.238166 -14.938277 26.601278 40.898628 -0.501638 0.862659 0.001309 0.015197 1143960.000000 0 0 1
26.925526 -13.643277 27.145308 40.595452 -0.468997 0.838366 0.007165 0.005294 -81901.900000 0 0 1
27.254466 -12.356477 26.369818 39.885533 -0.425657 0.848463 0.010840 -0.002671 -360753.000000 0 0 1
26.562256 -12.200677 25.148108 38.559529 -0.430581 0.860328 0.016316 0.001725 -8853.330000 0 0 1
27.065296 -11.215877 24.289878 38.056856 -0.392859 0.878570 0.019746 -0.002268 237241.000000 0 0 1
28.291306 -11.582577 23.398058 38.497055 -0.388587 0.917524 0.012282 -0.002753 269776.000000 0 0 1
27.954276 -12.580477 22.479358 38.013570 -0.422885 0.938063 0.005574 -0.001415 43513.400000 0 0 1
28.537016 -13.830277 22.797158 39.055707 -0.451287 0.947507 -0.004608 -0.001775 -63423.000000 0 0 1
28.165836 -14.866577 21.744158 38.563426 -0.485657 0.971751 0.001485 0.001888 -257867.000000 0 0 1
28.358996 -14.450177 20.400958 37.805282 -0.471254 1.000796 -0.009800 -0.001326 -246650.000000 0 0 1
28.014466 -15.446677 19.430658 37.429408 -0.503904 1.024966 -0.010043 -0.012058 -272330.000000 0 0 1
28.581586 -15.183777 17.998858 37.032594 -0.488329 1.063258 -0.011820 -0.012513 -119755.000000 0 0 1
28.273376 -16.140277 16.993458 36.724242 -0.518721 1.089723 -0.012280 -0.020495 -530622.000000 0 0 1
26.942936 -16.408977 16.661958 35.676283 -0.547031 1.084865 0.017159 -0.024407 -424455.000000 0 0 1
26.371836 -15.520577 15.496858 34.300360 -0.531942 1.102016 0.004525 -0.024773 -77653.700000 0 0 1
26.630616 -16.104277 14.246358 34.227126 -0.543889 1.141501 -0.000310 -0.023532 428988.000000 0 0 1
25.614816 -17.072577 13.922158 33.784881 -0.587895 1.146058 0.006001 -0.028911 109641.000000 0 0 1
25.745446 -17.731277 12.560058 33.689483 -0.603112 1.188752 -0.004064 -0.004650 -309178.000000 0 0 1
25.332236 -16.835477 11.539158 32.531641 -0.586562 1.208197 -0.007956 -0.009121 -167024.000000 0 0 1
25.127436 -17.414477 10.303458 32.261638 -0.606044 1.245730 0.003762 -0.011278 581434.000000 0 0 1
26.358436 -18.057077 9.560758 33.350162 -0.600628 1.280039 0.003211 -0.002734 677597.000000 0 0 1
27.023606 -19.176377 10.063958 34.630795 -0.617150 1.275935 -0.006892 0.014023 -748238.000000 0 0 1
28.336756 -19.274077 9.590358 35.587031 -0.597299 1.297933 0.001028 0.017207 -640462.000000 0 0 1
29.276586 -19.863677 10.592158 36.930719 -0.596139 1.279899 0.022585 -0.007044 -723588.000000 0 0 1
29.382086 -19.086277 11.765558 36.959726 -0.576086 1.246824 0.018950 -0.020450 90123.300000 0 0 1
29.723796 -19.929977 12.848658 38.023625 -0.590656 1.226098 -0.003889 -0.013011 -235849.000000 0 0 1
29.363996 -19.112177 14.145458 37.783774 -0.576987 1.187069 0.003504 -0.005635 80070.100000 0 0 1
29.431606 -20.022577 15.271258 38.734150 -0.597388 1.165536 0.006604 -0.004956 -171516.000000 0 0 1
29.028046 -19.465477 16.482158 38.641866 -0.590703 1.130137 0.005143 -0.008702 -12675.700000 0 0 1
29.050056 -20.510477 17.572758 39.665946 -0.614768 1.111833 0.001770 0.002916 -674875.000000 0 0 1
27.930026 -21.297777 17.490158 39.237575 -0.651479 1.108784 -0.008537 0.001515 -880383.000000 0 0 1
27.857126 -22.173577 18.603658 40.171919 -0.672282 1.089305 -0.004204 0.006849 569922.000000 0 0 1
26.550946 -23.047377 18.567058 39.760156 -0.714876 1.084928 -0.003348 0.012748 318465.000000 0 0 1
25.386736 -22.395377 18.951458 38.796869 -0.722876 1.060450 0.001982 0.001740 -928597.000000 0 0 1
24.269736 -23.206277 18.723658 38.446414 -0.763002 1.062137 0.006471 -0.001359 290509.000000 0 0 1
22.904136 -22.692077 19.256958 37.554763 -0.780747 1.032388 0.020327 -0.006908 404430.000000 0 0 1
22.232236 -21.583877 18.621158 36.150845 -0.770602 1.029677 0.022373 -0.007681 993907.000000 0 0 1
21.093836 -21.053477 19.352858 35.534940 -0.784441 0.994866 0.032310 -0.005840 1005610.000000 0 0 1
21.428336 -20.379077 20.738158 36.118576 -0.760306 0.959208 0.020591 0.000230 -443853.000000 0 0 1
21.684936 -21.382877 21.681958 37.384103 -0.778385 0.952095 0.026687 -0.001723 -308814.000000 0 0 1
22.064736 -20.866477 22.937258 38.057591 -0.757494 0.923918 0.013122 0.003255 -76014.600000 0 0 1
22.218836 -22.009177 23.979618 39.409423 -0.780658 0.916660 0.011064 -0.001179 -363285.000000 0 0 1
21.077336 -22.557977 24.569688 39.456127 -0.819317 0.898596 0.025783 -0.000014 -522127.000000 0 0 1
21.421436 -23.455477 25.574928 40.781298 -0.830692 0.892941 0.027870 -0.000221 283335.000000 0 0 1
20.235436 -24.068177 26.409018 41.063198 -0.871694 0.872216 0.025546 0.001195 587144.000000 0 0 1
19.562336 -25.159377 25.761328 40.979571 -0.909903 0.890995 0.038119 0.009836 253545.000000 0 0 1
18.539036 -25.736277 26.534528 41.353754 -0.946545 0.874152 0.048236 0.000973 133628.000000 0 0 1
17.749236 -26.881977 25.831958 41.291235 -0.987239 0.894891 0.054751 0.005662 -5471.640000 0 0 1
17.065836 -26.483477 24.680158 40.021588 -0.998371 0.906289 0.045503 0.002587 -125944.000000 0 0 1
16.579236 -27.528377 23.939658 40.072308 -1.028717 0.930527 0.049374 0.001368 -478757.000000 0 0 1
15.632336 -27.057077 22.855658 38.714809 -1.046895 0.939292 0.039998 -0.001856 98312.400000 0 0 1
14.435336 -26.413377 23.285558 38.056046 -1.070632 0.912367 0.024436 0.005461 151799.000000 0 0 1
13.896536 -25.717377 22.198258 36.705039 -1.075388 0.921314 0.018069 0.000965 725658.000000 0 0 1
12.463536 -25.077477 22.330058 35.816910 -1.109551 0.897649 0.017982 0.001109 661062.000000 0 0 1
11.444736 -26.020977 22.441658 36.217416 -1.156434 0.902516 0.014999 0.001047 -1620670.000000 0 0 1
10.202136 -25.437177 22.370858 35.377802 -1.189366 0.886224 0.018919 -0.005852 -629286.000000 0 0 1
9.085836 -26.500977 22.419358 35.881497 -1.240506 0.895900 0.016007 -0.002510 -65773.500000 0 0 1
8.851036 -27.118977 21.198058 35.540645 -1.255319 0.931731 0.020921 -0.007341 -70912.400000 0 0 1
7.652736 -27.877977 21.236258 35.870944 -1.302887 0.937235 0.011852 0.002162 308902.000000 0 0 1
7.286536 -28.585277 19.887958 35.577276 -1.321206 0.977608 0.018862 0.001610 81671.100000 0 0 1
7.598636 -29.969577 19.910658 36.774300 -1.322484 0.998661 0.023082 -0.004243 70191.500000 0 0 1
7.400236 -30.590577 18.650358 36.583914 -1.333444 1.035848 0.002512 -0.004682 228373.000000 0 0 1
8.125836 -31.989077 18.460458 37.816911 -1.322039 1.060824 0.000910 0.000335 40938.900000 0 0 1
7.541836 -32.999877 19.214858 38.924054 -1.346114 1.054515 0.003900 0.001810 -56971.700000 0 0 1
8.336136 -34.153677 19.191158 40.053282 -1.331400 1.071121 -0.004501 -0.001758 -177792.000000 0 0 1
7.904736 33.989687 20.320158 40.381834 1.342295 1.043498 0.000781 -0.007575 752997.000000 0 0 1
6.919436 32.967387 19.997458 39.174297 1.363912 1.035060 -0.002928 -0.008587 415863.000000 0 0 1
7.011736 31.924987 20.968358 38.833507 1.354597 1.000412 -0.013339 -0.010788 -239446.000000 0 0 1
6.112436 30.690987 20.780658 37.565068 1.374208 0.984606 -0.011008 -0.013275 -972764.000000 0 0 1
4.829936 30.874487 21.243558 37.786915 1.415616 0.973761 -0.004391 -0.015279 -1420140.000000 0 0 1
4.025636 29.858187 20.733958 36.573407 1.436779 0.968042 0.000303 -0.007269 -786115.000000 0 0 1
2.659236 29.659287 21.341358 36.636026 1.481376 0.948966 -0.001005 -0.003187 -773250.000000 0 0 1
2.632036 29.210487 22.701358 37.088163 1.480933 0.912093 -0.006093 -0.010273 145082.000000 0 0 1
1.303936 28.814187 23.016958 36.901734 1.525574 0.897282 -0.000931 -0.002807 295153.000000 0 0 1
1.173236 28.341887 24.452418 37.450765 1.529424 0.859361 0.009130 0.002253 -238169.000000 0 0 1
1.321336 29.356187 25.415778 38.852200 1.525816 0.857717 0.004202 0.001035 71339.000000 0 0 1
1.231536 28.901987 26.778458 39.419885 1.528211 0.823970 0.002316 0.007088 -177774.000000 0 0 1
2.443736 28.210687 27.449878 39.437425 1.484388 0.800934 -0.007901 0.004097 -319002.000000 0 0 1
2.620036 26.861387 26.960458 38.147936 1.473565 0.785925 -0.000833 0.003304 198974.000000 0 0 1
3.649936 26.186887 27.661738 38.265478 1.432308 0.762820 -0.014199 0.006143 -59993.600000 0 0 1
4.005936 24.905587 26.962338 36.922939 1.411317 0.752134 -0.019158 0.011625 -16987.400000 0 0 1
2.956636 23.946687 27.014738 36.221286 1.447951 0.729024 -0.001331 0.015294 139729.000000 0 0 1
3.527336 22.654387 26.876898 35.327482 1.416334 0.706262 -0.005401 0.017347 -27533.100000 0 0 1
2.465636 21.541187 26.814308 34.483463 1.456831 0.679958 -0.005799 0.016572 -498579.000000 0 0 1
2.798436 20.189287 26.799358 33.669632 1.433064 0.650220 0.000541 0.013967 -354703.000000 0 0 1
3.351136 19.759187 25.587418 32.501870 1.402796 0.664444 -0.001712 0.017199 -237149.000000 0 0 1
3.932836 18.304887 25.631608 31.741383 1.359162 0.630871 0.003665 0.010764 -795846.000000 0 0 1
5.001836 18.150487 26.483648 32.493725 1.301895 0.618000 -0.005958 0.009930 -1051080.000000 0 0 1
6.208536 18.014287 25.797578 32.071412 1.238900 0.636166 -0.002915 0.008119 -1126400.000000 0 0 1
7.430036 17.926087 26.698028 33.005071 1.177868 0.628506 -0.003083 -0.000961 -293939.000000 0 0 1
7.976836 19.045387 27.414338 34.320586 1.174161 0.645544 -0.009815 -0.001512 334640.000000 0 0 1
8.122536 20.309087 26.730408 34.539098 1.190337 0.685793 -0.009248 -0.005770 -388763.000000 0 0 1
8.584536 21.427187 27.681868 36.043091 1.189740 0.695050 -0.019989 -0.007323 455353.000000 0 0 1
9.899136 21.263787 28.221238 36.695774 1.135095 0.693428 -0.001537 -0.021481 349207.000000 0 0 1
10.166836 22.338187 29.091768 38.061662 1.143682 0.700791 -0.002340 -0.023535 583686.000000 0 0 1
11.341036 22.006187 30.099358 38.972589 1.094939 0.688309 0.016570 -0.025505 1129820.000000 0 0 1
12.626936 21.833387 29.489278 38.804044 1.046462 0.707554 0.018221 -0.032909 -186834.000000 0 0 1
13.531936 21.633087 30.532628 39.791269 1.011823 0.696145 0.018110 -0.016356 -840184.000000 0 0 1
14.969636 21.724787 30.051798 39.989585 0.967452 0.720478 0.019440 -0.024755 -574303.000000 0 0 1
15.266836 22.990687 29.419258 40.337832 0.984611 0.753466 0.018822 -0.035293 -386262.000000 0 0 1
16.509636 23.026987 28.777998 40.385435 0.948772 0.777622 0.055192 -0.028489 -284371.000000 0 0 1
-8.740107 16.731187 4.133995 19.323871 -1.089402 1.355198 0.011220 -0.019734 -416857.000000 0 1 0
-8.504807 17.962487 4.695795 20.421390 -1.128592 1.338775 0.009976 -0.019416 -129877.000000 0 1 0
-7.154107 18.219187 4.983395 20.197877 -1.196626 1.321493 0.007203 -0.018242 -285961.000000 0 1 0
-6.927107 19.638487 5.714895 21.594328 -1.231690 1.302957 0.003823 -0.016885 -75347.100000 0 1 0
-7.093307 20.857287 4.998095 22.590316 -1.242979 1.347701 0.004554 -0.011634 -495526.000000 0 1 0
-8.385907 21.152587 4.566595 23.207955 -1.193355 1.372735 0.002921 -0.016047 -508193.000000 0 1 0
-8.455807 22.321687 3.534995 24.129952 -1.208685 1.423769 0.017710 -0.015470 -95548.600000 0 1 0
-7.804107 22.111587 2.295195 23.560439 -1.231503 1.473224 0.001488 -0.017129 -246623.000000 0 1 0
-8.198607 20.995987 1.554895 22.593502 -1.198520 1.501921 0.014956 -0.016947 -904162.000000 0 1 0
-7.624307 20.897287 0.126495 22.245059 -1.220957 1.565110 -0.001442 -0.015901 164173.000000 0 1 0
-6.294207 20.457587 -0.001505 21.403970 -1.272317 1.570867 -0.007280 -0.009430 -316514.000000 0 1 0
-5.322507 21.417487 0.298695 22.070955 -1.327218 1.557263 0.003952 -0.013232 -1423440.000000 0 1 0
-3.945107 21.163687 -0.248305 21.529681 -1.386502 1.582330 0.002582 -0.011294 -1269230.000000 0 1 0
-3.962807 21.436687 -1.604505 21.858862 -1.387999 1.644265 0.007443 -0.013319 -339296.000000 0 1 0
-2.668707 21.452887 -2.111705 21.721134 -1.447034 1.668169 0.008472 -0.003841 -712031.000000 0 1 0
-2.622907 21.523587 -3.625305 21.983796 -1.449532 1.736461 0.011694 -0.012660 605729.000000 0 1 0
-1.373507 22.015987 -4.151005 22.445958 -1.508490 1.756800 0.014100 -0.003855 860527.000000 0 1 0
-1.399607 22.264687 -5.538505 22.985870 -1.508017 1.814144 0.016976 -0.012535 -154343.000000 0 1 0
-0.061107 22.867187 -5.979305 23.636075 -1.568124 1.826549 0.002587 -0.008929 -46672.400000 0 1 0
1.025893 21.967887 -5.917505 22.774051 1.524131 1.833648 -0.002609 -0.008819 524363.000000 0 1 0
2.256193 22.630087 -6.294605 23.597315 1.471426 1.840817 -0.007556 -0.003096 924540.000000 0 1 0
3.436493 21.655987 -6.447405 22.855203 1.413423 1.856776 -0.004001 -0.000265 -144122.000000 0 1 0
3.223993 20.873287 -7.611705 22.450530 1.417552 1.916696 -0.003624 -0.001504 -319549.000000 0 1 0
3.951993 19.677887 -7.675505 21.488389 1.372599 1.936057 -0.002247 0.000124 -13954.900000 0 1 0
3.548493 18.725987 -8.840905 21.009902 1.383521 2.005120 -0.006423 0.000143 -144018.000000 0 1 0
3.871593 19.244587 -10.114405 22.082675 1.372268 2.046568 0.001497 -0.002459 85776.500000 0 1 0
2.942793 18.874087 -11.120605 22.103372 1.416125 2.097999 0.006907 -0.001717 -19946.600000 0 1 0
3.398293 19.259587 -12.540105 23.232183 1.396147 2.140964 0.009054 -0.002795 -38604.700000 0 1 0
3.402893 20.710187 -12.715205 24.539111 1.407941 2.115495 0.019484 -0.003421 -874.036000 0 1 0
3.842893 21.148787 -13.972605 25.637330 1.391050 2.147198 0.032276 -0.000678 14451.500000 0 0 1
4.190693 22.647887 -14.281405 27.100687 1.387829 2.125835 0.028707 -0.009174 587048.000000 0 0 1
3.061893 23.538887 -14.367505 27.746704 1.441445 2.115085 0.036423 -0.007289 366977.000000 0 0 1
3.438493 24.861787 -14.699405 29.086151 1.433364 2.100612 0.037409 -0.013031 337960.000000 0 0 1
2.224693 25.577887 -15.366605 29.921733 1.484037 2.110125 0.050113 -0.006427 109751.000000 0 0 1
1.177293 25.910587 -14.528205 29.728997 1.525391 2.081382 0.042670 -0.013097 -553698.000000 0 0 1
1.171193 27.339287 -14.334105 30.891340 1.527983 2.053321 0.038280 -0.014351 -289322.000000 0 0 1
0.214893 27.786887 -13.195505 30.761642 1.563063 2.014137 0.035485 -0.017388 2268580.000000 0 0 1
-1.233407 27.624387 -13.413605 30.733578 -1.526177 2.022443 0.030769 -0.023313 2099980.000000 0 0 1
-1.915507 26.363687 -13.560105 29.708410 -1.498267 2.044786 0.027655 -0.019487 -151400.000000 0 0 1
-1.541207 25.283487 -12.578105 28.281421 -1.509915 2.031689 0.030563 -0.015798 -469457.000000 0 0 1
-1.996307 25.538587 -11.260105 27.982041 -1.492787 1.984938 0.015430 -0.016715 -10668.600000 0 0 1
-2.007907 24.327787 -10.584205 26.606358 -1.488447 1.979922 0.024786 -0.013957 -299123.000000 0 0 1
-2.974007 24.354787 -9.378205 26.266920 -1.449286 1.935888 0.019191 -0.008065 -323769.000000 0 0 1
-2.539907 24.709987 -8.097905 26.126819 -1.468367 1.885933 0.015846 -0.010985 -238501.000000 0 0 1
-2.384007 26.121987 -7.899905 27.394346 -1.479784 1.863328 0.015697 -0.008514 -390859.000000 0 0 1
-2.250207 26.542187 -6.430005 27.402483 -1.486220 1.807655 0.012249 -0.005734 -274848.000000 0 0 1
-1.118207 25.945987 -5.852805 26.621419 -1.527725 1.792460 0.007195 -0.008789 -430349.000000 0 0 1
-0.934207 26.303087 -4.464005 26.695551 -1.535294 1.738805 0.010750 -0.004008 300856.000000 0 0 1
-1.848507 25.576987 -3.386405 25.866329 -1.498649 1.702093 0.018628 -0.006939 545846.000000 0 0 1
-3.235007 25.857287 -3.431405 26.283818 -1.446333 1.701722 0.006392 0.000803 -126633.000000 0 0 1
-3.839807 25.252287 -2.322005 25.647881 -1.419894 1.661454 0.003478 -0.000038 623043.000000 0 0 1
-5.217107 24.642187 -2.802205 25.343795 -1.362163 1.681591 0.004866 -0.001888 756693.000000 0 0 1
-6.159607 25.600787 -3.236905 26.529580 -1.334682 1.693112 0.000923 0.003158 429359.000000 0 0 1
-7.301507 25.026487 -3.909205 26.361315 -1.286924 1.719639 0.011686 0.004497 540112.000000 0 0 1
-8.494907 25.967687 -3.958605 27.607151 -1.254636 1.714683 0.012810 0.009489 -790844.000000 0 0 1
-9.149007 26.059387 -2.776305 27.757951 -1.233157 1.670982 0.014099 0.008558 -107641.000000 0 0 1
-10.429007 26.701987 -2.830605 28.805774 -1.198445 1.669220 0.027580 0.006591 928368.000000 0 0 1
-11.218807 26.632987 -1.479005 28.937261 -1.172117 1.621929 0.027965 0.005711 185954.000000 0 0 1
-11.597107 25.334387 -0.970005 27.879472 -1.141507 1.605596 0.025799 0.002411 639009.000000 0 0 1
-10.497407 24.527187 -0.543305 26.684708 -1.166395 1.591158 0.028999 -0.001828 207098.000000 0 0 1
-10.957007 23.087287 -0.205005 25.556229 -1.127682 1.578818 0.025897 -0.007800 -162360.000000 0 0 1
-11.743807 23.040987 0.956695 25.878937 -1.099425 1.533820 0.033711 -0.008271 -81199.800000 0 0 1
-12.165907 21.714987 1.146595 24.917156 -1.060115 1.524764 0.036074 -0.014198 -474375.000000 0 1 0
-13.052407 21.532387 2.369695 25.290798 -1.025848 1.476961 0.037745 -0.009694 -179583.000000 0 0 1
-12.367607 21.710587 3.610695 25.245681 -1.052986 1.427282 0.053679 -0.017481 251421.000000 0 0 1
-12.211707 23.030387 3.997995 26.372495 -1.083248 1.418612 0.035645 -0.012214 -62598.800000 0 0 1
-12.212007 23.156187 5.556195 26.762164 -1.085489 1.361661 0.028648 -0.010572 -13951.700000 0 0 1
-11.011107 22.675987 6.116295 25.939428 -1.118747 1.332763 0.015910 -0.004716 61981.200000 0 0 1
-11.170007 22.577387 7.509795 26.285062 -1.111363 1.281053 0.009121 0.001995 689119.000000 0 0 1
-9.870907 22.159787 8.302095 25.640120 -1.151739 1.241060 0.012432 -0.001874 498669.000000 0 0 1
-8.900107 23.150687 8.605195 26.252916 -1.203773 1.236843 0.012998 -0.009560 23379.000000 0 0 1
-7.805307 22.630487 9.297995 25.681014 -1.238670 1.200322 0.022224 -0.010275 -529989.000000 0 0 1
-8.026607 22.318987 10.805995 26.064020 -1.225567 1.143299 0.022926 -0.013653 -332423.000000 0 0 1
-8.919307 21.239987 11.071595 25.559173 -1.173228 1.122784 0.023427 -0.012699 87733.200000 0 0 1
-8.650807 20.623987 12.338295 25.542491 -1.173633 1.066662 0.018384 -0.016373 -21045.400000 0 0 1
-9.765707 19.635087 12.786695 25.385138 -1.109263 1.042911 0.022823 -0.017078 -225090.000000 0 0 1
-9.861207 18.507387 11.910095 24.116740 -1.081234 1.054282 0.025169 -0.023218 -188785.000000 0 1 0
-10.261507 17.378287 12.583795 23.783509 -1.037407 1.013260 0.021429 -0.023452 -325248.000000 0 1 0
-10.599307 16.185387 11.693095 22.606206 -0.991006 1.027160 0.021346 -0.027589 -203554.000000 0 1 0
-10.570407 14.999187 12.347295 22.117071 -0.956902 0.978497 0.010549 -0.023887 154283.000000 0 1 0
-11.141807 13.993787 11.515995 21.274024 -0.898379 0.998793 0.009328 -0.015651 182879.000000 0 1 0
-11.512707 12.665887 12.227795 21.035353 -0.833056 0.950474 0.008760 -0.026601 -163284.000000 0 1 0
-12.512107 12.840587 13.219795 22.275468 -0.798354 0.935434 0.009946 -0.011479 218356.000000 0 1 0
-13.057707 11.577587 13.638695 22.148549 -0.725389 0.907417 0.011570 -0.006573 -9475.880000 0 1 0
-14.014907 11.661787 14.819195 23.495179 -0.694009 0.888298 0.014744 -0.012152 420967.000000 0 1 0
-15.218307 12.396487 14.549295 24.432596 -0.683567 0.932925 0.018740 -0.016282 290410.000000 0 1 0
-15.780207 12.762887 15.777095 25.706477 -0.680078 0.910007 0.016695 -0.011526 -639359.000000 0 0 1
-16.883507 13.822387 15.705995 26.884744 -0.686035 0.946906 0.025270 -0.016552 -645986.000000 0 0 1
-18.023107 13.375987 15.036495 27.015655 -0.638463 0.980527 0.026553 -0.019041 -652837.000000 0 0 1
-18.811907 14.546887 14.782695 28.000497 -0.658235 1.014618 0.041966 -0.022432 8592.160000 0 0 1
-20.026907 14.154987 13.902895 28.190977 -0.615274 1.055068 0.055001 -0.023384 -301160.000000 0 0 1
-20.871507 13.321587 14.626195 28.757783 -0.568083 1.037239 0.052822 -0.019388 -656793.000000 0 0 1
-22.011407 12.899887 13.948395 29.076913 -0.530102 1.070476 0.046517 -0.020222 -222797.000000 0 0 1
-22.978507 12.002187 14.740895 29.822111 -0.481346 1.053774 0.041487 -0.012841 -163512.000000 0 0 1
-23.660407 12.668387 15.758095 31.122668 -0.491585 1.039882 0.049964 -0.013891 -452213.000000 0 0 1
-24.500907 11.743987 16.365095 31.718008 -0.446974 1.028673 0.046425 -0.011733 -356055.000000 0 0 1
-25.276747 12.322787 17.579495 33.163288 -0.453610 1.012091 0.047698 -0.016691 728309.000000 0 0 1
-26.414517 13.128787 17.186395 34.138892 -0.461268 1.043237 0.045141 -0.008742 1256340.000000 0 0 1
-27.112727 13.640287 18.365595 35.474674 -0.466121 1.026624 0.035097 0.003372 640679.000000 0 0 1
-28.269807 14.621587 18.137295 36.632421 -0.477325 1.052828 0.026197 0.004562 83995.900000 0 0 1
-27.704077 15.780687 17.634395 36.435119 -0.517779 1.065583 0.024016 0.008660 672420.000000 0 0 1
-28.719977 16.798987 17.547395 37.615876 -0.529260 1.085479 0.013198 0.013680 577441.000000 0 0 1
-28.102737 18.228187 17.346095 37.721581 -0.575409 1.092975 0.025459 0.005636 -109374.000000 0 0 1
-27.438867 18.831387 18.442395 38.047792 -0.601474 1.064757 0.022461 0.008779 135941.000000 0 0 1
-28.246017 19.237587 19.523995 39.358717 -0.597910 1.051750 0.020955 0.005722 -496372.000000 0 0 1
-27.381817 19.380187 20.796595 39.469658 -0.615926 1.015846 0.026824 -0.007636 415390.000000 0 0 1
-26.954777 18.246687 21.556295 39.040690 -0.595079 0.985856 0.031278 -0.006194 544436.000000 0 0 1
-26.052867 17.385687 20.803495 37.600524 -0.588457 0.984504 0.042896 -0.000943 56584.600000 0 0 1
-25.758607 16.135687 21.663595 37.325294 -0.559619 0.951577 0.039487 -0.008328 -326536.000000 0 0 1
-26.807487 15.227487 21.638395 37.666137 -0.516581 0.958829 0.009687 -0.000414 -93102.200000 0 0 1
-26.330727 13.894887 21.978395 37.005742 -0.485566 0.934876 0.010300 0.003223 -583922.000000 0 0 1
-27.368147 12.903787 22.462195 37.683861 -0.440580 0.932200 0.014396 -0.001128 -705794.000000 0 0 1
-28.355897 12.749987 21.469595 37.783099 -0.422556 0.966440 0.019879 -0.001593 -117802.000000 0 0 1
-29.299367 11.775687 21.876495 38.414851 -0.382151 0.964923 0.029301 -0.003889 -98323.700000 0 0 1
-30.400657 11.487787 20.820695 38.596251 -0.361293 1.001014 0.032461 -0.006390 -246681.000000 0 0 1
-29.972387 11.063387 19.531995 37.446513 -0.353605 1.022074 0.035374 -0.011169 21658.300000 0 0 1
-29.396257 9.784887 19.612295 36.667780 -0.321326 1.006449 0.037713 -0.011112 188969.000000 0 0 1
-28.409437 9.428287 18.421895 35.147616 -0.320434 1.019104 0.045109 -0.011975 448773.000000 0 0 1
-28.985627 8.924987 17.195095 34.863925 -0.298698 1.055025 0.039852 -0.010821 451001.000000 0 0 1
-29.800887 9.787987 16.414795 35.402586 -0.317346 1.088674 0.025409 -0.007589 -161542.000000 0 0 1
-29.058727 10.957287 15.721595 34.808624 -0.360588 1.102173 0.035967 -0.010503 -134965.000000 0 0 1
-28.599757 10.643387 14.423395 33.752957 -0.356269 1.129267 0.032511 -0.006652 -141004.000000 0 0 1
-27.686427 11.636187 14.081495 33.169679 -0.397870 1.132355 0.048897 -0.002742 -332962.000000 0 0 1
-27.278397 11.698187 12.581195 32.237323 -0.405122 1.169874 0.048584 -0.002063 -309141.000000 0 0 1
-26.589297 10.593687 12.010695 31.039873 -0.379143 1.173481 0.066197 0.000636 386685.000000 0 0 1
-27.283817 9.346787 11.914995 31.204747 -0.330046 1.179018 0.043087 0.009575 -436996.000000 0 0 1
-26.623437 8.227987 11.103795 29.996691 -0.299739 1.191607 0.039582 0.018915 -364470.000000 0 0 1
-26.492507 8.498487 9.720595 29.471464 -0.310418 1.234672 0.047260 0.016880 324360.000000 0 0 1
-25.967067 7.354687 9.079195 28.474757 -0.276003 1.246280 0.044707 0.017422 -100977.000000 0 0 1
-25.385537 7.608687 7.637295 27.579810 -0.291205 1.290213 0.039107 0.029531 -98268.300000 0 0 1
-26.345597 7.926187 6.681395 28.311764 -0.292240 1.332555 0.032330 0.028394 44956.900000 0 0 1
-25.685977 8.342387 5.468795 27.554901 -0.314036 1.371001 0.024194 0.030155 711064.000000 0 0 1
-26.609387 8.356387 4.190895 28.203764 -0.304286 1.421651 0.010697 0.020620 423228.000000 0 0 1
-27.166757 7.136987 3.610095 28.319641 -0.256905 1.442972 0.017397 0.020022 920155.000000 0 0 1
-26.206077 6.229887 3.019695 27.105139 -0.233394 1.459158 0.022596 0.013951 204367.000000 0 0 1
-25.406067 6.655087 1.789595 26.324154 -0.256193 1.502761 0.049821 0.005854 -821713.000000 0 0 1
-24.433907 7.596287 1.979295 25.663924 -0.301419 1.493596 0.047389 0.013422 80122.100000 0 0 1
-23.333707 7.447887 1.063995 24.516627 -0.308968 1.527384 0.051078 0.006621 1144500.000000 0 1 0
-22.052007 8.275287 1.466795 23.599214 -0.359001 1.508602 0.042760 0.006502 498929.000000 0 1 0
-22.408507 9.611787 1.570295 24.433450 -0.405199 1.506484 0.029341 0.007607 756573.000000 0 1 0
-21.335407 10.466187 1.979495 23.846574 -0.456063 1.487691 0.046815 0.006496 116895.000000 0 1 0
-21.806307 11.884587 2.417995 24.952057 -0.499002 1.473738 0.047208 0.004609 -1025820.000000 0 1 0
-20.809107 12.539787 3.040195 24.484852 -0.542337 1.446309 0.043118 -0.004755 -133903.000000 0 1 0
-21.340607 13.774187 3.528195 25.643672 -0.573166 1.432773 0.041911 -0.009774 -119744.000000 0 0 1
-20.289707 14.577687 4.319895 25.354342 -0.623019 1.399580 0.028904 -0.005021 -41340.500000 0 0 1
-19.890007 13.817187 5.447995 24.823531 -0.607146 1.349526 0.033412 -0.004349 451629.000000 0 1 0
-18.960407 14.370587 6.365095 24.627733 -0.648555 1.309377 0.029813 -0.009246 78491.700000 0 1 0
-18.331807 13.385087 7.375795 23.866673 -0.630680 1.256611 0.016830 -0.009056 916554.000000 0 1 0
-17.296607 12.539187 6.775495 22.412299 -0.627276 1.263680 0.021091 -0.005352 1484110.000000 0 1 0
-16.508107 11.838487 7.760895 21.746238 -0.622131 1.205866 0.003962 -0.003010 268805.000000 0 1 0
10.146893 -33.059277 -14.624605 37.546695 -1.272994 1.970890 -0.000593 0.014788 60543.700000 0 0 1
11.117693 -32.801877 -13.606905 37.211747 -1.244013 1.945140 -0.011844 0.016337 537604.000000 0 0 1
11.815393 -31.584177 -13.886605 36.469186 -1.212822 1.961432 -0.011695 -0.000945 102673.000000 0 0 1
13.264893 -31.573877 -13.358105 36.760115 -1.173064 1.942696 0.001999 -0.001345 109341.000000 0 0 1
14.043593 -32.700277 -13.738005 38.147915 -1.165151 1.939198 -0.006278 0.002738 -426571.000000 0 0 1
15.401693 -32.406777 -13.633205 38.383273 -1.127135 1.933909 0.006338 -0.001759 150770.000000 0 0 1
16.474393 -33.419977 -14.157205 39.858838 -1.112804 1.933907 0.012417 -0.011060 571703.000000 0 0 1
16.735693 -34.509477 -13.290905 40.591077 -1.119253 1.904383 0.014736 -0.011914 117188.000000 0 0 1
17.451393 33.513087 -13.972905 40.285483 1.090700 1.925004 0.014984 -0.006705 -123102.000000 0 0 1
17.423593 32.214687 -13.094505 38.895163 1.074998 1.914166 0.017522 -0.006373 88946.000000 0 0 1
18.240493 32.211787 -11.923305 38.890616 1.055549 1.882400 0.014287 -0.010875 47406.400000 0 0 1
18.022893 31.054287 -11.139705 37.593702 1.044938 1.871632 0.007169 -0.013981 59508.400000 0 0 1
19.051993 30.786787 -10.006305 37.562359 1.016641 1.840444 0.007285 -0.006968 1178610.000000 0 0 1
20.360893 30.360387 -10.468705 38.025161 0.980048 1.849708 0.015003 -0.006828 1337880.000000 0 0 1
21.268393 30.297587 -9.352005 38.180470 0.958741 1.818256 0.005612 -0.003002 386574.000000 0 0 1
22.599093 29.608587 -9.708705 38.492160 0.918862 1.825776 0.004142 0.003811 -100479.000000 0 0 1
23.501993 30.328087 -10.512805 39.782604 0.911533 1.838229 0.008995 -0.004604 -480788.000000 0 0 1
24.746793 29.687387 -10.517005 40.054364 0.875913 1.836479 0.006763 0.009617 -1227970.000000 0 0 1
25.682693 30.358387 -11.411705 41.369788 0.868639 1.850266 0.004859 0.003344 -1439900.000000 0 0 1
26.064493 31.642087 -11.006405 42.446677 0.881753 1.833093 0.000687 -0.007580 -3700.710000 0 0 1
26.986293 32.084887 -11.988405 43.605296 0.871497 1.849313 -0.004059 0.005410 5899.560000 0 0 1
27.562993 33.431687 -11.587005 44.851477 0.881319 1.832102 -0.000631 -0.005122 -266349.000000 0 0 1
26.750193 34.507787 -12.060705 45.297028 0.911366 1.840305 0.003784 -0.003637 306484.000000 0 0 1
27.188493 -33.355077 -11.601605 44.568739 -0.886902 1.834138 0.018522 -0.013081 -272516.000000 0 0 1
26.157693 -32.297177 -12.047105 43.271992 -0.890044 1.852929 0.019490 -0.017616 1484130.000000 0 0 1
24.858293 -32.436677 -11.376705 42.420539 -0.916904 1.842309 0.008267 -0.010168 903755.000000 0 0 1
23.938893 -31.407577 -11.583205 41.154309 -0.919532 1.856109 0.018275 -0.008941 -166360.000000 0 0 1
24.254493 -29.944077 -11.077305 40.095322 -0.889992 1.850712 0.017185 -0.027024 -400153.000000 0 0 1
25.227293 -29.358677 -11.939805 40.508112 -0.860940 1.869991 0.016646 -0.013910 91598.400000 0 0 1
25.532793 -28.080577 -11.501505 39.657621 -0.832884 1.865044 0.014897 -0.003173 -179631.000000 0 0 1
26.485793 -27.342677 -12.468305 40.057182 -0.801316 1.887318 0.024427 -0.006794 208857.000000 0 0 1
27.741493 -27.960377 -12.709705 41.387313 -0.789328 1.882932 0.016465 0.004498 266493.000000 0 0 1
27.723193 -28.764977 -13.835805 42.277994 -0.803839 1.904196 0.021301 -0.009894 -465816.000000 0 0 1
28.967793 -29.627577 -14.074505 43.760919 -0.796658 1.898239 0.015394 0.000278 -155476.000000 0 0 1
29.148693 -30.757177 -13.243305 44.396344 -0.812242 1.873704 0.006894 -0.006869 -746933.000000 0 0 1
30.250493 -31.465277 -13.644105 45.730926 -0.805079 1.873766 -0.005614 -0.002921 -989894.000000 0 0 1
30.638793 -32.620777 -12.714005 46.524151 -0.816719 1.847595 -0.001465 0.003018 -239432.000000 0 0 1
31.699193 -33.392577 -13.217105 47.901930 -0.811408 1.850343 0.001385 -0.001952 420912.000000 0 0 1
32.541493 -34.151077 -12.313705 48.753176 -0.809528 1.826134 0.004504 0.001706 589288.000000 0 0 1
31.865793 33.786687 -11.537505 47.854811 0.814648 1.814289 0.000818 -0.006408 -149824.000000 0 0 1
31.232993 34.153187 -10.353705 47.425091 0.830029 1.790886 -0.000148 -0.013461 -230411.000000 0 0 1
30.569893 33.094287 -9.726805 46.090790 0.825029 1.783431 0.000048 -0.007953 -111847.000000 0 0 1
29.885493 33.423287 -8.329105 45.602991 0.841222 1.754471 0.000822 -0.008219 874380.000000 0 0 1
28.753793 34.288587 -8.530505 45.554992 0.872968 1.759166 -0.010272 -0.010187 138363.000000 0 0 1
28.056493 -34.509777 -7.341705 45.077623 -0.888178 1.734393 -0.006434 -0.005519 -45489.300000 0 0 1
27.099993 -33.359377 -7.610505 43.648338 -0.888561 1.746052 -0.009593 -0.008951 -697498.000000 0 0 1
27.757793 -32.104977 -7.813805 43.154144 -0.857890 1.752868 -0.020679 -0.015037 188963.000000 0 0 1
26.981293 -31.042177 -8.351705 41.968535 -0.855271 1.771133 -0.008538 -0.009161 -354507.000000 0 0 1
26.046593 -30.374077 -7.363705 40.684563 -0.861949 1.752794 -0.001577 -0.004245 -377166.000000 0 0 1
25.256993 -29.411277 -7.994105 39.583388 -0.861243 1.774151 0.007265 -0.012616 -293922.000000 0 0 1
24.249793 -28.978377 -7.099905 38.447463 -0.874002 1.756527 0.007523 -0.016063 -144653.000000 0 0 1
23.146193 -28.241577 -7.889105 37.357340 -0.884231 1.783578 0.030275 -0.025765 -824108.000000 0 0 1
22.207093 -29.001777 -8.550205 37.514851 -0.917313 1.800732 0.038493 -0.027358 -489935.000000 0 0 1
21.342293 -28.284477 -9.377905 36.653106 -0.924384 1.829529 0.052404 -0.035633 -91388.300000 0 0 1
20.168893 -29.151277 -9.884505 36.800606 -0.965548 1.842732 0.047422 -0.028510 -113840.000000 0 0 1
20.448993 -29.710377 -11.185005 37.762046 -0.967981 1.871505 0.053091 -0.027125 189321.000000 0 0 1
19.352893 -30.387877 -11.758105 37.897369 -1.003712 1.886265 0.053867 -0.022980 334532.000000 0 0 1
18.972493 -31.807877 -11.125205 38.671265 -1.032975 1.862607 0.051277 -0.023676 524244.000000 0 0 1
20.061993 -32.676477 -11.423805 40.009237 -1.020177 1.860355 0.044213 -0.025313 439545.000000 0 0 1
19.767493 -34.018177 -11.036005 40.862985 -1.044400 1.844266 0.039701 -0.022166 574243.000000 0 0 1
21.087693 34.240987 -11.083905 41.713174 1.018796 1.839744 0.010503 -0.017655 395586.000000 0 0 1
21.857193 34.342687 -9.927105 41.901127 1.004010 1.809988 0.000895 -0.014287 -615811.000000 0 0 1
23.169593 33.963687 -10.280305 42.379792 0.972126 1.815816 0.011457 -0.014407 -302958.000000 0 0 1
24.210593 34.370087 -9.201505 43.036303 0.957118 1.786268 0.005782 -0.008483 -318341.000000 0 0 1
24.190893 33.733387 -7.943405 42.263913 0.948672 1.759869 -0.003205 -0.009942 169223.000000 0 0 1
24.722893 32.380787 -8.036405 41.524939 0.918708 1.765557 -0.003368 0.006469 -124330.000000 0 0 1
24.786793 31.801287 -6.548905 40.848441 0.908726 1.731813 -0.008557 0.001810 -489054.000000 0 0 1
25.756393 32.384787 -5.678705 41.766181 0.898913 1.707183 -0.008423 0.001257 220539.000000 0 0 1
26.715593 31.442887 -5.208505 41.587337 0.866503 1.696369 0.001302 -0.000976 97117.900000 0 0 1
26.301393 30.496687 -4.077005 40.477563 0.859128 1.671690 -0.004908 0.008461 -509481.000000 0 0 1
26.013593 31.152187 -2.878105 40.687212 0.875047 1.641593 -0.004433 0.006416 -19479.600000 0 0 1
25.984293 30.228687 -1.807505 39.902682 0.860761 1.616110 -0.006984 0.014734 774154.000000 0 0 1
24.694793 29.288387 -1.706605 38.347815 0.870287 1.615314 -0.009296 0.021357 915385.000000 0 0 1
23.562093 29.977387 -1.192305 38.147576 0.904653 1.602056 -0.019686 0.024292 -703381.000000 0 0 1
22.437093 29.193487 -1.453005 36.848257 0.915519 1.610239 -0.011355 0.024697 -669608.000000 0 0 1
21.219593 29.780687 -0.740905 36.574709 0.951711 1.591055 0.005104 0.012988 -317907.000000 0 0 1
21.272093 29.475087 0.679795 36.355808 0.945656 1.552097 0.020096 0.000672 105646.000000 0 0 1
20.120993 29.981887 1.304695 36.131290 0.979727 1.534679 0.018171 -0.005118 -142430.000000 0 0 1
19.466193 29.166687 2.439295 35.150796 0.982278 1.501345 0.022015 -0.014061 -354683.000000 0 0 1
18.893793 28.004687 1.970495 33.839633 0.977277 1.512533 0.040910 -0.008400 113480.000000 0 0 1
18.435993 27.169587 3.046795 32.975070 0.974610 1.478267 0.049302 -0.016748 -140167.000000 0 0 1
17.894593 25.809587 2.532295 31.508154 0.964560 1.490340 0.039830 -0.008416 -127800.000000 0 0 1
18.830393 24.899887 2.006795 31.282827 0.923311 1.506602 0.034680 -0.001810 52885.400000 0 0 1
19.719393 24.301587 2.936395 31.433167 0.889116 1.477243 0.031968 -0.000057 79208.800000 0 0 1
21.013193 23.763487 2.263795 31.802238 0.846744 1.499553 0.022390 0.010875 -47548.600000 0 0 1
20.749393 22.592187 1.495995 30.711272 0.827891 1.522065 0.037832 0.002364 112788.000000 0 0 1
21.847293 22.229987 0.708095 31.176560 0.794080 1.548082 0.021155 -0.005379 -387925.000000 0 0 1
21.641093 20.996087 -0.219505 30.153287 0.770272 1.578076 0.043163 -0.012149 -357942.000000 0 0 1
20.950693 21.367087 -1.367605 29.955872 0.795238 1.616466 0.040523 -0.005800 237909.000000 0 0 1
21.228193 20.502387 -2.460105 29.614796 0.768007 1.653962 0.072757 -0.020105 47282.700000 0 0 1
20.971293 21.220087 -3.817305 30.077550 0.791295 1.698055 0.047420 -0.015516 264738.000000 0 0 1
21.917293 22.310287 -3.964205 31.525094 0.794284 1.696878 0.020377 0.002959 807725.000000 0 0 1
21.782293 22.999787 -5.187505 32.099356 0.812579 1.733116 0.035500 -0.006687 -410845.000000 0 0 1
22.848493 24.087887 -5.396305 33.636290 0.811798 1.731924 0.020504 0.010284 -198480.000000 0 0 1
22.795993 25.296787 -4.595205 34.361325 0.837351 1.704930 -0.006575 0.015965 33855.700000 0 0 1
23.273493 25.212287 -3.260105 34.466551 0.825364 1.665525 0.004406 0.018062 -127370.000000 0 0 1
22.152593 25.002187 -2.231905 33.478771 0.845755 1.637512 0.009068 0.015015 -1146990.000000 0 0 1
21.367793 26.135187 -1.906305 33.812195 0.885423 1.627205 0.013617 0.022758 1710920.000000 0 0 1
20.275293 25.874687 -0.933605 32.885537 0.906138 1.599190 0.038978 0.010167 1310640.000000 0 0 1
19.268493 24.740987 -1.232105 31.383265 0.909111 1.610066 0.058307 -0.003739 -1390410.000000 0 0 1
18.270393 25.037487 -2.165205 31.070422 0.940400 1.640540 0.044974 0.002769 29743.300000 0 0 1
17.783693 23.865087 -2.799305 29.893782 0.930390 1.664575 0.053844 -0.006988 293427.000000 0 0 1
16.988393 24.075387 -4.130405 29.753823 0.956300 1.710065 0.047342 -0.025035 60491.500000 0 0 1
16.598393 22.956887 -4.887305 28.747366 0.944784 1.741635 0.046844 -0.028637 125579.000000 0 0 1
16.103093 23.470387 -6.117605 29.113463 0.969459 1.782504 0.038719 -0.030213 -215462.000000 0 0 1
15.317393 22.461387 -6.991105 28.071551 0.972292 1.822491 0.043241 -0.019661 -745170.000000 0 0 1
15.995693 21.339087 -7.419205 27.681463 0.927554 1.842134 0.024807 -0.017028 192355.000000 0 0 1
15.061393 20.396587 -7.914105 26.561238 0.934743 1.873348 0.029850 -0.010034 -163918.000000 0 0 1
15.782493 19.177487 -8.433605 26.229540 0.882205 1.898142 0.010545 -0.004427 -139655.000000 0 0 1
16.491093 19.401487 -9.639105 27.226571 0.866307 1.932676 0.013642 -0.004579 501172.000000 0 0 1
17.298793 18.309387 -10.078205 27.130280 0.813772 1.951393 -0.003425 -0.000284 -830744.000000 0 0 1
18.709893 18.743887 -10.365605 28.440098 0.786306 1.943862 -0.003783 0.000669 -1179500.000000 0 0 1
18.874793 19.278987 -11.617505 29.375220 0.795992 1.977394 -0.000970 0.001288 289063.000000 0 0 1
20.227593 19.161287 -12.028605 30.347945 0.758334 1.978341 0.009184 0.008998 138673.000000 0 0 1
20.442793 19.518187 -13.505305 31.325080 0.762265 2.016545 0.010722 0.006294 -279005.000000 0 0 1
20.285093 18.477887 -14.433505 31.003925 0.738810 2.055039 0.005866 0.011207 432233.000000 0 0 1
20.268493 18.971687 -15.778105 31.932512 0.752362 2.087605 0.004050 0.008128 -192390.000000 0 0 1
20.414693 17.954487 -16.904705 32.013940 0.721366 2.127090 0.002973 0.005926 536594.000000 0 0 1
21.710293 17.330487 -17.012205 32.574495 0.673680 2.120290 0.012470 -0.004880 836819.000000 0 0 1
21.750093 16.317887 -17.920705 32.565191 0.643658 2.153523 0.020028 -0.007749 -535681.000000 0 0 1
22.530293 16.612387 -19.231805 33.962447 0.635347 2.172766 0.023836 -0.007108 640197.000000 0 0 1
23.955493 16.600687 -19.039805 34.813253 0.605999 2.149468 0.043007 -0.010566 965779.000000 0 0 1
24.613693 17.171187 -20.159205 36.153521 0.609132 2.162288 0.058374 -0.010957 419758.000000 0 0 1
26.111993 17.508187 -19.911205 37.213289 0.590654 2.135371 0.059733 -0.018780 504189.000000 0 0 1
26.143993 18.593287 -18.970805 37.270768 0.618195 2.104818 0.048968 -0.014728 -44661.600000 0 0 1
27.436493 18.680287 -18.418805 37.960066 0.597761 2.077406 0.049860 -0.021673 -352962.000000 0 0 1
27.661593 19.812687 -17.346205 38.191584 0.621551 2.042258 0.042801 -0.014934 -261533.000000 0 0 1
27.027693 19.780487 -16.125905 37.172687 0.631790 2.019514 0.026873 -0.015609 304063.000000 0 0 1
25.630393 20.075087 -16.200805 36.364711 0.664446 2.032539 0.030103 -0.009750 301914.000000 0 0 1
24.862893 19.651787 -14.922405 35.029050 0.668864 2.010864 0.030539 -0.007174 -135141.000000 0 0 1
25.275893 20.154587 -13.698505 35.110215 0.673144 1.971599 0.027613 -0.002684 189073.000000 0 0 1
24.282293 19.833487 -12.739805 33.842275 0.684894 1.956754 0.031022 -0.005465 -34620.400000 0 0 1
24.634493 20.100487 -11.280405 33.736262 0.684391 1.911733 0.035043 -0.007473 -207622.000000 0 0 1
24.753293 21.467087 -11.071205 34.585154 0.714419 1.896647 0.031013 -0.009971 146294.000000 0 0 1
25.375593 21.875887 -9.857705 34.923480 0.711468 1.856951 0.023413 -0.006151 234027.000000 0 0 1
24.559193 21.696787 -8.536805 33.864163 0.723595 1.825635 0.026545 -0.009995 -262127.000000 0 0 1
24.760893 20.339887 -8.122705 33.057392 0.687685 1.819054 0.037689 -0.013832 672398.000000 0 0 1
23.939093 19.932887 -6.986705 31.925134 0.694335 1.791429 0.040071 -0.017947 871514.000000 0 0 1
22.434493 19.639487 -7.265805 30.688888 0.719065 1.809823 0.034843 -0.013733 466288.000000 0 0 1
21.650593 20.795187 -7.614205 30.970374 0.765248 1.819197 0.032313 -0.006538 1205030.000000 0 0 1
20.264593 20.402687 -7.767305 29.786816 0.788794 1.834609 0.038004 -0.012205 942026.000000 0 0 1
19.319093 21.636687 -7.617305 29.989947 0.841926 1.827605 0.031587 -0.012153 -614291.000000 0 0 1
19.528793 22.742787 -8.486605 31.154945 0.861284 1.846683 0.023943 -0.006573 91200.200000 0 0 1
19.212993 22.487187 -9.882805 31.184652 0.863755 1.893269 0.011796 -0.003493 -74504.400000 0 0 1
17.694293 22.558087 -10.151805 30.414050 0.905648 1.911114 0.018879 -0.005621 -325559.000000 0 0 1
17.291493 23.913887 -9.955105 31.144403 0.944752 1.896150 0.024744 -0.008496 272279.000000 0 0 1
15.901293 24.059987 -10.217105 30.596132 0.986795 1.911271 0.015180 0.000836 456084.000000 0 0 1
15.432293 25.515987 -9.904505 31.421656 1.026848 1.891477 0.036394 -0.008255 54425.800000 0 0 1
16.152993 26.408887 -10.742205 32.768025 1.021855 1.904798 0.022729 -0.002744 260090.000000 0 0 1
15.996693 27.768587 -10.388705 33.688482 1.048157 1.884281 0.034360 -0.013415 -358415.000000 0 0 1
19.065493 29.552087 33.715866 48.719385 0.997839 0.806482 0.013039 0.015901 -245796.000000 0 0 1
17.705493 29.845187 33.834226 48.466220 1.035359 0.798057 0.014744 0.000013 -779894.000000 0 0 1
16.933193 28.663887 33.787203 47.433390 1.037206 0.778015 0.016612 -0.001378 -592984.000000 0 0 1
15.444593 28.972287 33.710262 47.056462 1.081035 0.772198 0.025243 -0.010957 -522354.000000 0 0 1
15.061793 29.530887 32.451598 46.390054 1.099153 0.796046 0.044658 -0.011137 -250163.000000 0 0 1
13.737093 29.995787 32.428838 46.261047 1.141336 0.794002 0.035423 -0.004910 -458105.000000 0 0 1
13.070193 29.842087 31.051058 45.006092 1.157984 0.809404 0.035923 -0.004202 -219260.000000 0 0 1
12.893593 28.494587 30.735538 43.850422 1.145871 0.794113 0.029371 -0.010704 227856.000000 0 0 1
11.590393 28.066587 31.097188 43.463842 1.179167 0.773496 0.017276 -0.008285 -205013.000000 0 0 1
11.323593 26.536487 31.005168 42.352442 1.167472 0.749433 0.003383 -0.011966 3063.880000 0 0 1
11.321193 25.951087 29.692128 41.027439 1.159435 0.761627 0.001441 -0.007556 1355860.000000 0 0 1
12.666293 25.695987 29.196428 40.904158 1.112822 0.775921 0.010638 -0.008901 1035630.000000 0 0 1
12.747893 24.990287 27.840278 39.523465 1.099090 0.789221 0.020829 -0.020630 -431784.000000 0 0 1
12.122193 25.829987 26.863628 39.189160 1.132003 0.815525 0.018881 -0.016465 335978.000000 0 0 1
11.988393 25.184987 25.603128 37.861924 1.126521 0.828172 0.025039 -0.022029 24047.800000 0 0 1
11.061993 23.939687 25.543078 36.714100 1.137944 0.801362 0.015706 -0.016078 -945575.000000 0 0 1
11.107593 23.385087 24.196288 35.435875 1.127359 0.819182 0.030823 -0.018190 132004.000000 0 0 1
10.201593 22.328887 23.991128 34.325295 1.142237 0.796890 0.025102 -0.019002 -69466.000000 0 0 1
10.323393 21.915687 22.499358 33.061925 1.130575 0.822322 0.039822 -0.017022 -181916.000000 0 0 1
9.885693 22.916287 21.603458 33.008976 1.163532 0.857312 0.033115 -0.016806 172223.000000 0 0 1
10.386393 22.700387 20.311958 32.183231 1.141688 0.887781 0.033564 -0.003933 -560298.000000 0 0 1
10.084993 23.886987 19.390358 32.377171 1.171303 0.928682 0.022193 -0.001683 1179720.000000 0 0 1
8.696193 24.195087 19.126258 32.044340 1.225754 0.931204 0.019072 -0.003952 1140100.000000 0 0 1
7.971093 24.875087 20.128758 32.976888 1.260690 0.914244 0.009685 -0.002251 -223644.000000 0 0 1
6.672693 25.564687 19.679058 32.944550 1.315480 0.930618 0.004461 -0.001931 -561130.000000 0 0 1
6.976693 26.578487 18.768058 33.276571 1.314094 0.971572 0.005238 -0.009179 -100613.000000 0 0 1
5.865093 27.341287 18.345558 33.444054 1.359485 0.990174 0.005197 -0.012380 -338444.000000 0 0 1
6.108393 28.422987 17.218058 33.788166 1.359106 1.036090 0.002502 -0.012358 -51576.300000 0 0 1
6.239793 27.827987 15.922058 32.662575 1.350218 1.061605 0.005289 -0.013976 -110078.000000 0 0 1
6.736893 28.803187 15.062258 33.194592 1.341033 1.099820 -0.004512 -0.009862 -13973.600000 0 0 1
7.424893 28.242587 13.824158 32.309133 1.313717 1.128660 0.001923 -0.011443 -282002.000000 0 0 1
6.491793 27.725287 12.928558 31.272712 1.340793 1.144597 -0.000087 -0.016554 -206894.000000 0 0 1
7.056693 26.826687 12.000758 30.223935 1.313576 1.162484 0.004557 -0.021902 -366253.000000 0 0 1
6.313693 26.959387 10.686058 29.679338 1.340750 1.202474 -0.002153 -0.025174 -626359.000000 0 0 1
6.697493 27.877187 9.674658 30.258767 1.335015 1.245351 -0.003238 -0.017351 51985.300000 0 0 1
6.669593 29.257087 10.056158 31.647858 1.346662 1.247439 -0.010951 -0.009633 -278412.000000 0 0 1
7.004893 29.994287 8.697758 32.005886 1.341368 1.295580 -0.013183 -0.000898 145099.000000 0 0 1
5.970693 29.871787 7.693058 31.419038 1.373519 1.323428 -0.007871 -0.006336 576729.000000 0 0 1
6.165993 28.776987 6.785958 30.202379 1.359720 1.344179 0.004073 0.001534 -837556.000000 0 0 1
4.839793 28.229387 6.319558 29.330167 1.401002 1.353631 0.001456 0.004397 -437303.000000 0 0 1
4.093693 29.302887 5.692158 30.130021 1.431992 1.380734 -0.008108 -0.003372 530461.000000 0 0 1
2.739293 28.880987 5.527558 29.532508 1.476232 1.382517 0.024931 -0.011989 910479.000000 0 0 1
1.700993 29.894587 4.950358 30.349395 1.513958 1.406952 0.030455 -0.007923 -27502.900000 0 0 1
2.013093 30.334387 3.650158 30.619458 1.504530 1.451302 0.024279 -0.012228 1292520.000000 0 0 1
0.919893 31.072787 2.976658 31.228589 1.541201 1.475333 0.027177 -0.017683 1502990.000000 0 0 1
-0.293607 30.235487 2.502358 30.340281 -1.561086 1.488226 0.028733 -0.006488 -114768.000000 0 0 1
-0.063407 29.470587 1.346358 29.501393 -1.568645 1.525143 0.028548 0.002419 81769.000000 0 0 1
-0.926407 28.312787 1.324958 28.358908 -1.538088 1.524058 0.026079 0.001711 339278.000000 0 0 1
-1.307307 27.989787 -0.113442 28.020530 -1.524124 1.574845 0.019617 0.001829 -119991.000000 0 0 1
-2.256207 28.894787 -0.616542 28.989296 -1.492871 1.592066 0.022854 0.001646 37170.700000 0 0 1
-1.669207 29.836887 -1.502442 29.921287 -1.514910 1.621031 0.020178 0.004137 -111404.000000 0 0 1
-2.727507 30.803087 -2.109842 30.995498 -1.482480 1.638918 0.018538 0.001444 1087070.000000 0 0 1
-3.815907 30.265687 -2.914642 30.644218 -1.445378 1.666053 -0.005060 0.005771 788444.000000 0 0 1
-3.404107 29.733187 -4.137442 30.212064 -1.456804 1.708175 -0.000433 0.008145 -577852.000000 0 0 1
-4.520907 29.211187 -5.052342 29.987634 -1.417248 1.740085 0.000567 0.008384 -446157.000000 0 0 1
-5.291407 30.299587 -5.537642 31.252671 -1.397904 1.748926 -0.005203 0.009749 -385296.000000 0 0 1
-6.174207 29.786087 -6.496642 31.105276 -1.366406 1.781205 -0.007313 0.011650 -153080.000000 0 0 1
-7.026007 30.931387 -7.114142 32.507330 -1.347438 1.791429 -0.002439 0.002875 39543.400000 0 0 1
-7.921407 31.637487 -6.246842 33.206962 -1.325460 1.760042 0.000133 0.008666 319819.000000 0 0 1
-8.093407 32.940687 -6.772642 34.589894 -1.329872 1.767868 -0.003296 0.003093 476111.000000 0 0 1
-9.158607 33.768787 -5.946942 35.490522 -1.305952 1.739155 0.006762 -0.006417 1130230.000000 0 0 1
-10.529507 33.479187 -6.183342 35.636501 -1.266082 1.745190 0.008786 -0.005745 81709.200000 0 0 1
-11.407607 34.446387 -5.660542 36.725043 -1.250994 1.725546 0.007581 -0.002978 74633.900000 0 0 1
-12.875107 34.072087 -5.943142 36.905236 -1.209504 1.732539 0.015866 -0.006937 -125858.000000 0 0 1
-13.216607 34.142587 -7.306242 37.333311 -1.201460 1.767771 0.020650 -0.009359 -308506.000000 0 0 1
-14.599807 33.965687 -7.460942 37.715884 -1.164833 1.769929 0.021994 -0.015095 -1127630.000000 0 0 1
-15.083207 33.860987 -8.937542 38.130686 -1.151737 1.807390 0.036376 -0.014515 48055.500000 0 0 1
-16.467407 33.713087 -9.166042 38.623362 -1.116425 1.810401 0.040608 -0.007994 179070.000000 0 0 1
-17.295707 -34.285477 -8.765242 39.388639 1.103586 1.795207 0.045447 -0.003149 -582197.000000 0 0 1
-18.776707 34.375487 -8.969742 40.183269 -1.070857 1.795914 0.036561 -0.002286 216332.000000 0 0 1
-19.320307 33.282387 -8.210842 39.349835 -1.044841 1.781004 0.024596 -0.013607 264380.000000 0 0 1
-19.390507 33.530187 -6.819942 39.329084 -1.046486 1.745084 0.024187 -0.019504 -820136.000000 0 0 1
-19.930707 32.384487 -5.951242 38.489029 -1.019101 1.726041 0.014100 -0.016028 -285814.000000 0 0 1
-19.815007 32.469087 -4.550042 38.308994 -1.022857 1.689850 0.016631 -0.017075 1091220.000000 0 0 1
-21.083607 32.722287 -3.886142 39.119927 -0.998425 1.670300 0.023113 -0.020782 1220730.000000 0 0 1
-21.650807 34.215987 -3.761542 40.664978 -1.006630 1.663430 0.027065 -0.015279 76564.900000 0 0 1
-22.071607 -34.394977 -5.034742 41.176679 1.000271 1.693375 0.035133 -0.025149 176644.000000 0 0 1
-22.599407 -33.098577 -4.794042 40.363744 0.971714 1.689848 0.035447 -0.020095 150902.000000 0 0 1
-23.410807 -32.466977 -6.003242 40.474800 0.946072 1.719666 0.035738 0.001460 584473.000000 0 0 1
-22.626007 -31.918077 -7.125042 39.767651 0.954137 1.750936 0.046503 0.004817 508961.000000 0 0 1
-22.583807 -32.600577 -8.354242 40.529241 0.964958 1.778413 0.030910 0.010261 -39959.500000 0 0 1
-23.803407 -32.231177 -9.235842 41.118752 0.934682 1.797343 0.019563 0.013526 -1147900.000000 0 0 1
-24.963307 -32.904377 -8.804442 42.230119 0.921774 1.780824 0.015380 0.013392 91958.500000 0 0 1
-26.083177 -32.550877 -9.619642 42.806883 0.895260 1.797454 0.012504 0.006726 418645.000000 0 0 1
-26.651967 -31.094877 -9.408042 42.020590 0.862185 1.796602 0.002030 0.019293 -822304.000000 0 0 1
-25.979677 -29.985077 -10.050542 40.927520 0.856846 1.818903 -0.006162 0.017371 232576.000000 0 0 1
-26.282807 -30.016577 -11.474542 41.514407 0.851621 1.850841 -0.017309 0.025394 -259877.000000 0 0 1
-25.360207 -29.117377 -12.287342 40.520865 0.854256 1.878882 0.001323 0.031446 -414520.000000 0 0 1
-24.080707 -29.663477 -12.452642 40.185453 0.888904 1.885862 -0.004210 0.024870 -448965.000000 0 0 1
-23.314107 -28.903477 -13.337742 39.456989 0.892032 1.915622 -0.006793 0.018232 -14867.200000 0 0 1
-22.115507 -29.647277 -13.984042 39.542510 0.929890 1.932262 0.013297 0.006018 9160.600000 0 0 1
-22.446307 -30.754977 -14.813342 40.855115 0.940321 1.941834 0.018704 0.003302 -97261.700000 0 0 1
-22.768507 -31.880577 -14.092942 41.633966 0.950616 1.916115 0.003337 0.004261 -297099.000000 0 0 1
-22.831807 -33.164577 -14.976142 42.958881 0.967871 1.926890 0.001149 0.004302 -199973.000000 0 0 1
-23.143307 -34.300377 -14.194542 43.744869 0.977236 1.901263 0.003840 -0.003947 -20725.800000 0 0 1
-23.207807 33.573087 -14.892642 43.445889 -0.965959 1.920677 0.014233 -0.006687 -228215.000000 0 0 1
-23.453807 32.356187 -14.016542 42.349349 -0.943578 1.908132 -0.003596 -0.006029 -520720.000000 0 0 1
-22.501307 31.982087 -13.061642 41.228257 -0.957685 1.893164 -0.006702 -0.004577 -428695.000000 0 0 1
-22.603007 32.675387 -11.852342 41.461487 -0.965633 1.860704 0.023439 -0.000174 -280708.000000 0 0 1
-21.752207 32.205387 -10.704342 40.310401 -0.976757 1.839569 0.017060 -0.000552 88549.000000 0 0 1
-22.443907 31.188087 -9.965042 39.695438 -0.947016 1.824548 0.017710 -0.006025 773249.000000 0 0 1
-21.640607 30.844687 -8.836642 38.701380 -0.958998 1.801157 0.018520 -0.003196 206759.000000 0 0 1
-22.317607 29.759287 -7.969542 38.042139 -0.927335 1.781852 0.017954 -0.003689 52420.900000 0 0 1
-22.595507 28.541587 -8.633842 37.412864 -0.901156 1.803667 0.025760 -0.005197 99333.300000 0 0 1
-23.076307 27.504787 -7.759942 36.732084 -0.872728 1.783658 0.024017 -0.009509 228433.000000 0 0 1
-22.099307 27.008987 -6.630642 35.522249 -0.885044 1.758559 0.016198 -0.005991 172180.000000 0 0 1
-22.102307 27.999887 -5.575342 36.105264 -0.902570 1.725836 0.016871 -0.002871 -152810.000000 0 0 1
-21.170807 27.732187 -4.564542 35.186820 -0.918773 1.700886 0.012235 -0.004320 -519841.000000 0 0 1
-19.936007 28.635587 -4.677142 35.203933 -0.962627 1.704049 0.011541 0.004614 -163751.000000 0 0 1
-19.164407 28.311487 -5.836942 34.682628 -0.975734 1.739897 0.017107 -0.004632 937565.000000 0 0 1
-17.808907 28.799087 -5.667042 34.331617 -1.016968 1.736623 0.004657 -0.003585 597998.000000 0 0 1
-17.064607 28.491487 -7.026142 33.946021 -1.031159 1.779283 0.009004 -0.001821 -685058.000000 0 0 1
-17.512407 29.067887 -8.219242 34.916793 -1.028566 1.808421 0.013287 -0.007635 183980.000000 0 0 1
-17.375407 30.484587 -8.326742 36.063132 -1.052748 1.803792 0.013466 -0.011487 -272240.000000 0 0 1
-17.474507 30.879387 -9.832342 36.818065 -1.055831 1.841129 0.012950 -0.009391 183662.000000 0 0 1
-16.221607 30.718387 -10.491042 36.288039 -1.084942 1.864088 0.012805 -0.012222 210642.000000 0 0 1
-16.156007 31.466987 -11.683142 37.251626 -1.096465 1.889807 0.023456 -0.010709 149863.000000 0 0 1
-14.716907 31.635787 -12.230042 36.972751 -1.135376 1.907932 0.024034 -0.010144 304626.000000 0 0 1
-14.742707 32.331687 -13.464742 37.999798 -1.142978 1.933002 0.028993 -0.010557 -90292.200000 0 0 1
-15.056107 31.521787 -14.597842 37.860354 -1.125195 1.966623 0.023769 -0.010127 51245.200000 0 0 1
-14.715707 32.249787 -15.959742 38.875624 -1.142712 1.993835 0.050164 -0.011361 482920.000000 0 0 1
-13.319307 32.353187 -16.196342 38.554561 -1.180258 2.004340 0.056781 -0.011722 164760.000000 0 0 1
-13.039207 33.107887 -17.411542 39.614579 -1.195612 2.025865 0.039917 -0.015679 87803.200000 0 0 1
-11.581907 32.986987 -17.904042 39.278959 -1.233137 2.044087 0.051052 -0.019018 98067.200000 0 0 1
-11.251507 31.776487 -18.539042 38.471257 -1.230489 2.073611 0.046523 -0.017639 -241248.000000 0 0 1
-9.845607 31.787187 -18.679742 38.161420 -1.270432 2.082304 0.041173 -0.010731 134382.000000 0 0 1
-9.366207 31.273187 -20.074742 38.324057 -1.279802 2.122121 0.039160 -0.025477 -826367.000000 0 0 1
-9.496107 29.864487 -20.249242 37.310795 -1.262933 2.144466 0.042957 -0.029421 -20608.200000 0 0 1
-9.428707 29.496987 -21.618542 37.766839 -1.261411 2.180252 0.023894 -0.029767 -1214200.000000 0 0 1
-10.712307 29.471687 -22.413942 38.545021 -1.222165 2.191368 0.027784 -0.029524 -1028460.000000 0 0 1
-11.327007 30.708487 -22.645142 39.800939 -1.217423 2.176037 0.031747 -0.032863 629969.000000 0 0 1
-12.424707 30.865387 -21.704042 39.725444 -1.188098 2.148798 0.029437 -0.032121 -106273.000000 0 0 1
-13.169307 32.187987 -21.920942 41.109912 -1.182438 2.133208 0.045218 -0.035476 -98807.700000 0 0 1
-13.798607 32.289187 -23.160742 42.064393 -1.166942 2.153882 0.040514 -0.039008 -288946.000000 0 0 1
-14.558807 33.475387 -23.192142 43.248536 -1.160561 2.136787 0.049595 -0.032787 85688.500000 0 0 1
-15.217407 33.786187 -24.538742 44.443512 -1.147607 2.155717 0.051109 -0.017985 156397.000000 0 0 1
-14.290907 34.053287 -25.581742 44.925293 -1.173455 2.176607 0.048726 -0.016429 -164502.000000 0 0 1
-14.794507 33.844487 -26.873242 45.678199 -1.158695 2.199772 0.051967 -0.007173 -24594.300000 0 0 1
-15.298107 -34.030777 -27.626742 46.425885 1.148327 2.208152 0.048523 -0.004772 504789.000000 0 0 1
-16.576007 -33.571677 -27.201642 46.279054 1.112161 2.199101 0.042897 -0.007186 169335.000000 0 0 1
-17.171707 -32.677277 -28.146742 46.421020 1.086962 2.222241 0.021883 0.000655 165836.000000 0 0 1
-18.594707 -32.235777 -27.750342 46.421869 1.047584 2.211533 0.022587 -0.007867 -418814.000000 0 0 1
-19.540907 -33.198177 -28.068842 47.663675 1.038791 2.200486 0.023641 -0.008988 -837039.000000 0 0 1
-20.833907 -32.792277 -27.637242 47.678111 1.004803 2.189112 0.018776 -0.009220 739697.000000 0 0 1
-21.920207 -33.879877 -27.851542 49.031112 0.996534 2.174916 0.013575 -0.001786 -95007.400000 0 0 1
-21.784607 34.126487 -26.944242 48.633100 -1.002655 2.157995 0.034947 -0.012985 -670770.000000 0 0 1
-22.903507 33.288887 -26.985842 48.589673 -0.968154 2.159619 0.024416 -0.012401 -131748.000000 0 0 1
-22.669407 31.753687 -26.699942 47.276692 -0.950793 2.170938 0.034289 -0.015842 24697.300000 0 0 1
-22.319407 31.442787 -25.363942 46.153379 -0.953496 2.152631 0.055115 -0.019480 -510122.000000 0 0 1
-22.474207 30.064587 -25.126242 45.169652 -0.928877 2.160679 0.044211 -0.019016 -337864.000000 0 0 1
30.149356 10.177587 -26.689245 41.531708 0.325561 2.268714 0.020362 -0.008855 -121019.000000 0 0 1
29.881126 8.813187 -26.579205 40.951289 0.286810 2.277124 0.008143 -0.007714 115996.000000 0 0 1
28.490476 8.601287 -26.436245 39.806588 0.293199 2.297109 0.018803 -0.011540 43511.200000 0 0 1
28.141146 7.117287 -26.077865 39.020955 0.247719 2.302723 -0.001284 -0.004545 -160324.000000 0 0 1
28.624496 6.741687 -24.861705 38.508655 0.231306 2.272623 -0.002265 0.007326 -206202.000000 0 0 1
28.186276 5.496687 -24.514705 37.757787 0.192596 2.277410 -0.006578 0.007555 -202099.000000 0 0 1
28.175316 5.348187 -22.954905 36.733897 0.187586 2.245796 -0.009780 0.013786 -377267.000000 0 0 1
29.440076 5.166887 -22.393105 37.347904 0.173736 2.213774 -0.003289 0.010359 -125506.000000 0 0 1
29.322506 5.076687 -20.974805 36.407754 0.171433 2.184756 -0.004827 0.008265 -508244.000000 0 0 1
30.666356 4.721487 -20.367205 37.115238 0.152764 2.151672 -0.003089 0.007599 -498012.000000 0 0 1
31.041056 3.367387 -20.395105 37.294058 0.108059 2.149421 0.006638 0.006594 446120.000000 0 0 1
32.222986 3.046587 -19.674705 37.877388 0.094267 2.116982 0.017069 -0.000047 -24839.400000 0 0 1
32.551776 1.542087 -19.647805 38.053021 0.047338 2.113353 0.020432 0.001913 -447000.000000 0 0 1
31.655816 0.758687 -18.897405 36.875171 0.023962 2.108855 0.016780 0.003266 -132475.000000 0 0 1
31.972746 -0.619413 -19.091505 37.244137 -0.019371 2.109011 0.013591 0.005888 -16495.000000 0 0 1
30.840436 -1.553813 -18.630405 36.064371 -0.050340 2.113657 -0.006690 0.009300 -35669.100000 0 0 1
30.745026 -1.715813 -17.267205 35.303782 -0.055750 2.081858 0.002027 0.010118 -10426.100000 0 0 1
29.417376 -1.658313 -16.789405 33.911888 -0.056312 2.088734 -0.005384 0.006529 -282013.000000 0 0 1
29.221566 -2.015313 -15.270805 33.032694 -0.068858 2.051376 0.000712 0.008920 -351461.000000 0 0 1
29.339156 -3.430713 -14.993305 33.126350 -0.116404 2.040486 -0.007846 0.008245 445598.000000 0 0 1
28.499946 -3.674913 -13.895005 31.919008 -0.128237 2.021191 0.003417 0.010267 -281730.000000 0 0 1
28.411466 -5.111113 -13.365505 31.811501 -0.177992 2.004404 0.002273 0.012832 -251050.000000 0 0 1
27.767426 -5.959913 -14.275305 31.785765 -0.211429 2.036565 -0.011063 0.014666 534476.000000 0 0 1
27.315906 -7.148213 -13.608505 31.344012 -0.255947 2.019909 -0.005147 0.006841 -290262.000000 0 0 1
26.905686 -8.270513 -14.558205 31.690041 -0.298222 2.048109 -0.006307 0.006222 580014.000000 0 0 1
25.676096 -7.792613 -15.157905 30.817995 -0.294662 2.085012 0.008983 0.003193 824598.000000 0 0 1
25.043936 -8.730713 -15.965405 30.956716 -0.335441 2.112660 0.001509 -0.002174 -289196.000000 0 0 1
23.750336 -8.233613 -16.621105 30.135228 -0.333708 2.155018 -0.009047 -0.003254 -349760.000000 0 0 1
23.780636 -7.438313 -17.786405 30.613777 -0.303148 2.190745 -0.014984 -0.001112 -491915.000000 0 0 1
22.503936 -6.994613 -18.144805 29.741986 -0.301351 2.226950 0.022079 -0.006147 -231078.000000 0 0 1
22.009336 -7.310413 -19.540905 30.326556 -0.320686 2.270969 0.012638 -0.009714 -30788.700000 0 0 1
22.648936 -6.487613 -20.536705 31.254115 -0.278973 2.287746 0.014308 -0.015130 306774.000000 0 0 1
22.427636 -6.849613 -21.881805 32.073813 -0.296412 2.321608 0.024913 -0.021368 -351386.000000 0 0 1
23.156436 -6.013013 -22.897005 33.115702 -0.254058 2.334255 0.031208 -0.026578 -495340.000000 0 0 1
22.854336 -6.495113 -24.151905 33.879517 -0.276895 2.364387 0.040518 -0.034827 164894.000000 0 0 1
23.192136 -5.465813 -25.049405 34.571997 -0.231452 2.381189 0.037017 -0.030821 -357497.000000 0 0 1
22.968336 -5.796213 -26.545715 35.578301 -0.247195 2.413013 0.050770 -0.035396 950496.000000 0 0 1
21.601836 -6.121313 -26.902125 35.040464 -0.276131 2.446110 0.058164 -0.033998 983478.000000 0 0 1
21.590536 -6.289713 -28.285645 36.135709 -0.283473 2.469887 0.058208 -0.033766 586230.000000 0 0 1
20.258536 -6.877613 -28.852985 35.919418 -0.327283 2.503561 0.048041 -0.034276 560751.000000 0 0 1
20.253336 -8.297013 -28.622325 36.031591 -0.388807 2.488762 0.039832 -0.028189 270767.000000 0 0 1
19.184236 -8.863213 -29.354155 36.169848 -0.432792 2.517621 0.033326 -0.029828 -141848.000000 0 0 1
19.107436 -10.414113 -29.011635 36.266001 -0.499019 2.498038 0.044087 -0.017785 168439.000000 0 0 1
18.288936 -10.811913 -27.873065 35.046974 -0.533903 2.490308 0.054342 -0.017043 544745.000000 0 0 1
18.403636 -12.148913 -27.465195 35.222533 -0.583468 2.465082 0.051196 -0.015193 -403267.000000 0 0 1
18.309936 -13.343913 -28.467935 36.383198 -0.629781 2.469383 0.035654 0.001881 -170451.000000 0 0 1
17.065536 -13.468913 -29.123225 36.342900 -0.668149 2.500338 0.030556 0.003274 55977.400000 0 0 1
17.065836 -14.342013 -30.236115 37.565393 -0.698890 2.506291 0.015381 0.002863 561297.000000 0 0 1
15.721336 -14.582613 -31.034685 37.722204 -0.747839 2.536970 0.012676 0.000065 521105.000000 0 0 1
14.737736 -15.370913 -30.427845 37.139192 -0.806425 2.530972 0.000515 -0.005217 -282753.000000 0 0 1
14.085036 -16.103813 -31.393145 37.990138 -0.852170 2.543391 -0.003341 -0.007736 986209.000000 0 0 1
12.810336 -16.847513 -30.725525 37.309534 -0.920692 2.538403 0.005909 -0.019972 1354230.000000 0 0 1
13.205736 -18.009713 -30.062715 37.450074 -0.938098 2.502674 0.004397 -0.017959 688836.000000 0 0 1
12.115836 -18.473013 -29.264615 36.666925 -0.990308 2.494965 0.006882 -0.017128 344394.000000 0 0 1
12.510536 -19.783313 -28.549795 36.918610 -1.006909 2.454853 0.012865 -0.024622 233932.000000 0 0 1
13.570636 -19.581713 -27.612195 36.469699 -0.964766 2.429700 0.009007 -0.014718 295297.000000 0 0 1
13.538736 -20.580713 -26.623025 36.271870 -0.988932 2.394968 0.010672 -0.007798 -287118.000000 0 0 1
14.643636 -20.497913 -25.563255 35.889839 -0.950474 2.363523 0.008653 0.007056 -429329.000000 0 0 1
15.956836 -20.627213 -26.069065 36.874092 -0.912373 2.356008 0.014283 0.002812 -294378.000000 0 0 1
16.764536 -20.265413 -24.984305 36.276055 -0.879660 2.330528 0.014184 -0.004364 -1259330.000000 0 0 1
18.246836 -20.581413 -25.154375 37.273103 -0.845452 2.311580 -0.007699 0.002823 -552043.000000 0 0 1
18.695436 -21.930513 -25.200465 38.282244 -0.864861 2.289329 -0.014344 0.011207 193740.000000 0 0 1
18.314336 -22.688113 -24.131305 37.848187 -0.891667 2.262151 -0.012371 0.010023 -925093.000000 0 0 1
18.710236 -24.177713 -24.309905 39.059010 -0.912197 2.242588 -0.009738 0.001662 309059.000000 0 0 1
20.108436 -24.466513 -24.442305 40.004821 -0.882858 2.228099 -0.002820 0.001842 558915.000000 0 0 1
20.414836 -25.834293 -24.233205 40.883058 -0.902046 2.205258 0.003078 -0.007398 -38773.000000 0 0 1
20.339436 -26.366703 -22.810605 40.363590 -0.913735 2.171385 0.017793 -0.003738 234557.000000 0 0 1
19.026036 -26.434693 -22.232205 39.434173 -0.946946 2.169752 0.012977 -0.001769 600011.000000 0 0 1
19.020536 -26.262223 -20.812905 38.531314 -0.943977 2.141418 0.015880 0.002456 -469092.000000 0 0 1
17.795536 -26.763363 -20.072605 37.892851 -0.984003 2.129067 0.010611 0.001448 -1015750.000000 0 0 1
17.759036 -28.188253 -20.237005 38.980730 -1.008598 2.116657 0.010369 0.004121 27964.400000 0 0 1
16.757936 -28.876953 -19.512105 38.670778 -1.044971 2.099680 -0.001452 0.011711 -330837.000000 0 0 1
15.306536 -28.663343 -19.916805 38.112418 -1.080312 2.120671 0.000453 0.005158 -939962.000000 0 0 1
14.664936 -27.662683 -19.186305 36.720549 -1.083333 2.120571 0.009797 0.005035 -3121.010000 0 0 1
13.438036 -27.278563 -19.812505 36.293748 -1.113068 2.148251 0.005373 0.013737 755380.000000 0 0 1
12.517736 -26.320773 -18.967205 34.774009 -1.126872 2.147713 0.007993 0.005516 -77026.500000 0 0 1
11.617036 -27.010113 -18.158205 34.557519 -1.164614 2.124039 0.007161 0.003590 -666681.000000 0 0 1
10.830636 -26.108363 -17.449205 33.217827 -1.177568 2.123860 0.017708 -0.006440 199305.000000 0 0 1
9.296536 -26.327223 -17.596505 33.002807 -1.231349 2.133154 0.022791 -0.006302 -234316.000000 0 0 1
8.871036 -27.529463 -16.999505 33.549214 -1.259065 2.102153 0.027506 0.002938 496664.000000 0 0 1
7.435736 -27.488803 -16.927105 33.127803 -1.306618 2.107102 0.018729 0.013224 993933.000000 0 0 1
6.722236 -28.205693 -18.089505 34.175719 -1.336832 2.128582 0.020048 0.015707 -465438.000000 0 0 1
6.651536 -27.366073 -19.193805 34.081476 -1.332362 2.169018 0.032245 0.012482 -171138.000000 0 0 1
6.274836 -28.095823 -20.367205 35.264315 -1.351065 2.186531 0.026393 0.014209 3315.220000 0 0 1
6.319236 -27.329153 -21.693605 35.460229 -1.343563 2.229096 0.026827 0.006111 -888228.000000 0 0 1
5.359836 -26.357543 -21.875305 34.669538 -1.370181 2.253594 0.031304 -0.001012 -533907.000000 0 0 1
5.478436 -25.715573 -23.108405 35.004319 -1.360895 2.291826 0.025275 -0.000381 204720.000000 0 0 1
4.219336 -24.856213 -23.420305 34.411405 -1.402649 2.319374 0.000716 0.007599 844951.000000 0 0 1
3.053636 -25.628853 -23.731205 35.061844 -1.452207 2.314256 -0.010694 0.016224 -64964.900000 0 0 1
1.941936 -24.841513 -24.046205 34.627906 -1.492782 2.338406 -0.004274 0.011784 -244347.000000 0 0 1
0.871036 -25.728123 -24.680505 35.662618 -1.536954 2.335129 -0.018405 0.010272 -533240.000000 0 0 1
1.375436 -26.393513 -25.853715 36.971934 -1.518731 2.345185 -0.034031 0.019542 215125.000000 0 0 1
0.442436 -27.308633 -26.386865 37.976622 -1.554596 2.338964 -0.017262 0.013358 -158801.000000 0 0 1
1.119936 -28.288283 -27.334565 39.353013 -1.531227 2.338659 -0.030769 0.024678 -260273.000000 0 0 1
1.682736 -27.764083 -28.529695 39.844942 -1.510262 2.368878 -0.025434 0.018064 207830.000000 0 0 1
2.129736 -28.705393 -29.489135 41.208548 -1.496739 2.368289 -0.017675 0.013533 -28432.000000 0 0 1
3.527736 -29.357623 -29.437085 41.723578 -1.451206 2.353962 -0.000251 0.018141 -75453.700000 0 0 1
3.604936 -30.453883 -28.532905 41.887483 -1.452971 2.320169 -0.011834 0.013060 -102292.000000 0 0 1
4.743036 -31.196693 -28.930485 42.810081 -1.419915 2.312828 0.008585 0.002672 295304.000000 0 0 1
5.265436 -32.248773 -27.947675 42.997450 -1.408949 2.278360 0.030152 -0.001727 -136968.000000 0 0 1
4.265036 -33.170333 -27.630025 43.380639 -1.442918 2.261294 0.007258 -0.003255 -198323.000000 0 0 1
4.836836 -34.312131 -27.010505 43.935005 -1.430753 2.232907 0.027884 -0.015810 208767.000000 0 0 1
3.799036 33.677162 -26.648485 43.112941 1.458464 2.237131 0.040444 -0.016452 289251.000000 0 0 1
3.136136 33.084711 -27.768675 43.307422 1.476288 2.266856 0.017311 -0.011031 33846.600000 0 0 1
1.739136 33.199485 -27.579485 43.195583 1.518460 2.263317 -0.016648 -0.004099 62080.700000 0 0 1
0.923236 33.275730 -28.907295 44.088074 1.543058 2.285868 -0.025047 0.011228 60392.500000 0 0 1
0.837036 32.055841 -29.560525 43.613097 1.544690 2.315549 -0.013640 0.012743 600153.000000 0 0 1
-0.099364 32.220121 -30.667745 44.482094 -1.567712 2.331512 -0.017992 0.015868 835287.000000 0 0 1
-0.124664 30.967471 -31.612085 44.252952 -1.566771 2.366491 -0.012312 0.018807 -450235.000000 0 0 1
1.007236 30.900931 -32.421745 44.800130 1.538212 2.379942 -0.008041 0.012318 -394572.000000 0 0 1
0.727636 30.018721 -33.499935 44.987762 1.546562 2.410800 0.000114 0.011290 -787320.000000 0 0 1
1.902336 29.673091 -34.374152 45.449901 1.506774 2.428448 -0.004751 0.011260 -557732.000000 0 0 1
2.252836 30.709121 33.750249 45.685935 1.497567 0.739590 -0.006905 0.009812 515284.000000 0 0 1
3.258736 30.337971 32.773178 44.778265 1.463792 0.749691 -0.015147 0.007241 665050.000000 0 0 1
2.702036 29.501211 31.527568 43.262108 1.479460 0.754291 -0.017637 0.015310 125091.000000 0 0 1
2.429836 28.103041 31.720548 42.448536 1.484549 0.726851 -0.005492 0.006322 -252438.000000 0 0 1
3.573536 27.290621 31.553918 41.871206 1.440593 0.717283 -0.004559 0.004731 -400564.000000 0 0 1
3.475336 25.752701 31.776878 41.049355 1.436656 0.685482 0.025384 -0.006956 435945.000000 0 0 1
2.435836 25.009881 31.090588 39.975644 1.473708 0.679737 0.013961 0.006110 779484.000000 0 0 1
2.637736 23.589251 31.210898 39.211358 1.459439 0.650195 0.014398 0.005318 -5969.300000 0 0 1
1.792136 22.814551 30.159228 37.858876 1.492405 0.649110 0.008646 0.017206 732774.000000 0 0 1
0.422036 22.675051 30.526458 38.028945 1.552186 0.638960 -0.002119 0.010179 -44457.900000 0 0 1
-0.287264 22.058151 29.514858 36.847949 -1.557774 0.641848 0.014060 0.013453 640135.000000 0 0 1
-1.687164 21.520251 30.001528 36.960241 -1.492557 0.623698 0.013728 0.011670 564974.000000 0 0 1
-2.671764 22.475651 30.297108 37.818090 -1.452478 0.641620 0.027546 0.004919 -679362.000000 0 0 1
-3.894564 21.835151 30.500748 37.712558 -1.394290 0.628740 0.004438 0.000634 -448162.000000 0 0 1
-5.051864 22.820751 30.710488 38.593290 -1.352938 0.650557 -0.016818 0.001626 -508274.000000 0 0 1
-5.146964 23.465851 31.965838 39.986900 -1.354877 0.644488 -0.020259 -0.001702 105006.000000 0 0 1
-4.558064 24.762731 32.069188 40.772559 -1.388764 0.665613 -0.008681 -0.001667 4517.320000 0 0 1
-4.665564 25.260571 33.562633 42.264811 -1.388157 0.653265 -0.004530 -0.006794 -223334.000000 0 0 1
-5.960664 25.651111 33.916109 42.939626 -1.342474 0.660223 -0.009263 -0.007817 -487456.000000 0 0 1
-5.988364 25.999921 -33.726495 43.003870 -1.344422 2.472309 -0.000645 -0.007761 341578.000000 0 0 1
-7.387164 26.324621 -33.113505 42.942521 -1.297215 2.451383 0.001580 0.001808 43826.700000 0 0 1
-7.874864 27.531841 -33.627095 44.167831 -1.292207 2.436186 0.007133 0.002464 146577.000000 0 0 1
-9.128864 27.940221 -33.081935 44.253887 -1.255002 2.415160 0.010126 0.004946 510945.000000 0 0 1
-9.199764 28.282691 -31.544965 43.354712 -1.256312 2.385616 0.018982 0.000832 -287924.000000 0 0 1
-8.604664 29.583921 -31.373185 43.971870 -1.287749 2.365253 0.023384 0.002959 283292.000000 0 0 1
-8.727664 29.942371 -29.994775 43.271286 -1.287172 2.336688 0.023001 0.001675 -310069.000000 0 0 1
-8.252164 31.338061 -29.611695 43.897890 -1.313314 2.311163 0.013390 0.005667 -860414.000000 0 0 1
-6.883164 31.553391 -29.636105 43.832558 -1.356018 2.313281 -0.002149 0.005556 -953672.000000 0 0 1
-6.554164 32.882791 -29.297355 44.526060 -1.374056 2.288932 -0.002031 0.006440 401189.000000 0 0 1
-5.035264 33.057741 -28.987835 44.254522 -1.419641 2.285013 -0.009569 0.006474 175148.000000 0 0 1
-4.524264 34.284562 -28.390585 44.742882 -1.439592 2.258193 -0.010942 0.003766 -183497.000000 0 0 1
-4.505464 -33.679823 -29.298385 44.866748 1.437812 2.282347 -0.003012 0.002629 436926.000000 0 0 1
-3.259264 -33.682543 -30.270755 45.403250 1.474332 2.300581 -0.006182 0.013899 439151.000000 0 0 1
-3.342664 34.393372 -31.277565 46.608621 -1.473911 2.306445 -0.006418 0.007818 303919.000000 0 0 1
-4.099364 -34.370220 -32.485495 47.470245 1.452086 2.324486 0.005421 0.004920 595532.000000 0 0 1
-3.365964 -33.567663 -33.612615 47.622742 1.470856 2.354362 0.001998 0.007435 232129.000000 0 0 1
-3.686364 -32.172033 -33.503485 46.595198 1.456711 2.373206 -0.011579 0.008084 374168.000000 0 0 1
-2.694164 -31.385963 -34.159695 46.467429 1.485166 2.396658 -0.000389 -0.001339 359483.000000 0 0 1
31.335386 19.885687 12.439358 39.141852 0.565479 1.247386 0.032391 -0.002706 179567.000000 0 0 1
32.401196 19.091387 12.934558 39.769603 0.532454 1.239534 0.021873 -0.000566 311104.000000 0 0 1
31.961166 17.762787 12.885758 38.769518 0.507256 1.231983 0.022599 0.003346 63782.500000 0 0 1
32.965226 16.695987 13.322758 39.280504 0.468812 1.224762 0.030661 0.000662 186702.000000 0 0 1
34.110456 16.388887 12.547358 39.869224 0.447898 1.250642 0.017456 0.004852 720988.000000 0 0 1
34.970638 15.461487 13.262958 40.471091 0.416288 1.236913 0.015322 0.003569 354122.000000 0 0 1
-34.575016 14.727387 12.308558 39.545269 -0.402679 1.254286 0.005819 0.002048 -416793.000000 0 0 1
-33.802247 13.699587 12.906458 38.689110 -0.385055 1.230683 0.007612 0.003299 -333574.000000 0 0 1
-34.413725 12.449487 13.341758 38.952493 -0.347112 1.221205 0.008153 -0.002369 -747264.000000 0 0 1
-33.761977 11.700687 14.475558 38.552807 -0.333611 1.185889 -0.004812 -0.005772 -398237.000000 0 0 1
-33.940617 12.315287 15.750658 39.391814 -0.348075 1.159448 -0.000440 -0.006775 328450.000000 0 0 1
-33.145627 11.631187 16.736658 38.910575 -0.337487 1.126158 -0.010340 -0.012346 176456.000000 0 0 1
-32.906067 12.433487 18.028758 39.527673 -0.361265 1.097183 -0.000227 -0.005576 -99053.700000 0 0 1
-34.068551 12.634087 18.788358 40.905852 -0.355121 1.093581 0.002878 -0.001499 -111621.000000 0 0 1
-33.741267 13.393687 19.928258 41.412552 -0.377877 1.068758 0.008266 -0.006574 -773242.000000 0 0 1
-34.938611 13.683987 20.778258 42.891655 -0.373294 1.065078 0.020045 -0.008739 -752544.000000 0 0 1
34.895269 12.538887 21.254458 42.739390 0.344962 1.050308 0.018761 0.006191 -157705.000000 0 0 1
33.993326 12.898687 22.274958 42.639138 0.362664 1.021126 0.026831 -0.006163 -35703.000000 0 0 1
33.568056 11.598387 23.016458 42.321322 0.332677 0.995778 0.025140 -0.004916 -221047.000000 0 0 1
34.546125 11.159687 23.926358 43.479236 0.312456 0.988080 0.023168 0.000714 -254677.000000 0 0 1
34.158136 11.388787 25.314518 44.014856 0.321823 0.958026 0.025455 -0.000290 -992467.000000 0 0 1
-35.106899 11.463487 26.260478 45.315765 -0.315616 0.952682 0.019520 -0.003094 677468.000000 0 0 1
-34.277032 12.583787 25.879648 44.755143 -0.351844 0.954215 0.025765 -0.009488 192917.000000 0 0 1
-33.428477 12.350187 24.785288 43.408533 -0.353897 0.963101 0.021303 -0.010015 -1560930.000000 0 0 1
-32.461077 13.523187 24.510898 42.864697 -0.394732 0.962074 0.018590 -0.012768 524998.000000 0 0 1
-31.477817 13.890887 25.483128 42.815879 -0.415588 0.933307 0.024360 -0.017479 533009.000000 0 0 1
-32.039227 14.562187 26.567018 44.095077 -0.426599 0.924174 0.018258 -0.016287 -658008.000000 0 0 1
-30.988677 14.962587 27.627088 44.129730 -0.449826 0.894329 0.018930 -0.012242 169837.000000 0 0 1
-30.151057 16.043687 27.140248 43.624296 -0.489005 0.899328 0.030921 -0.021025 181780.000000 0 0 1
-29.913787 16.987087 28.150008 44.450183 -0.516458 0.884995 0.046372 -0.021636 -136600.000000 0 0 1
-29.174957 18.280087 27.866008 44.292822 -0.559726 0.890361 0.049659 -0.024550 -101872.000000 0 0 1
-29.987167 19.101787 27.042958 44.670237 -0.567181 0.920539 0.034340 -0.035048 175058.000000 0 0 1
-29.422207 20.355287 26.796998 44.699923 -0.605224 0.927937 0.033683 -0.035822 -246863.000000 0 0 1
-30.386887 21.278387 26.037688 45.322112 -0.610893 0.958800 0.039316 -0.023215 -772354.000000 0 0 1
-31.628277 21.553487 26.596928 46.607910 -0.598176 0.963496 0.027080 -0.029619 -222868.000000 0 0 1
-32.392617 22.402687 25.779048 47.071449 -0.605065 0.991234 0.024086 -0.020144 -745525.000000 0 0 1
-32.336567 23.882887 26.032268 47.892848 -0.636147 0.996133 0.023604 -0.021765 -690661.000000 0 0 1
-33.103887 24.507287 25.050448 48.207877 -0.637274 1.024374 0.017198 -0.023794 82634.100000 0 0 1
-33.001467 25.910587 25.105008 48.894957 -0.665611 1.031598 0.015247 -0.011367 217970.000000 0 0 1
-33.985947 26.620287 24.127898 49.455432 -0.664458 1.061147 0.012697 -0.008639 137705.000000 0 0 1
-33.623087 26.486787 22.773058 48.483750 -0.667230 1.081840 0.019773 -0.014325 -445659.000000 0 0 1
-34.518559 27.141987 21.966858 49.099503 -0.666332 1.106946 0.024486 -0.013979 -691021.000000 0 0 1
-34.349524 26.976487 20.428858 48.217828 -0.665746 1.133294 0.037826 -0.027904 -152268.000000 0 0 1
-34.432125 25.583887 20.062258 47.356105 -0.639021 1.133329 0.031042 -0.026502 273123.000000 0 0 1
-33.715297 25.316487 18.856358 46.186665 -0.644071 1.150245 0.037036 -0.025104 -161461.000000 0 0 1
-33.974927 24.012187 18.141958 45.387349 -0.615250 1.159592 0.032292 -0.015812 152503.000000 0 0 1
-35.196111 24.096387 17.421958 46.075229 -0.600337 1.183032 0.030025 -0.021936 -97745.500000 0 0 1
35.195535 23.142187 16.394558 45.200310 0.581652 1.199623 0.019587 -0.013554 -505213.000000 0 0 1
33.904506 23.037287 15.593458 43.856448 0.596818 1.207287 0.017052 -0.005624 -179905.000000 0 0 1
32.915556 22.238687 16.216958 42.906675 0.594181 1.183206 0.013128 -0.008879 323262.000000 0 0 1
31.663006 22.347287 15.540858 41.754826 0.614598 1.189426 0.020800 -0.010738 -108424.000000 0 0 1
30.702526 21.203087 15.918358 40.566120 0.604388 1.167551 0.006893 -0.012506 422832.000000 0 0 1
29.984656 21.289287 17.182458 40.590026 0.617410 1.133693 0.004788 -0.002310 -366313.000000 0 0 1
28.884196 22.110187 17.087358 40.188742 0.653333 1.131638 0.002869 -0.000279 -1279040.000000 0 0 1
28.396226 22.658887 18.434558 40.738234 0.673492 1.101216 0.000491 0.001914 -293379.000000 0 0 1
29.273916 23.572087 18.986258 42.107997 0.677919 1.103029 -0.016744 0.005578 -584988.000000 0 0 1
28.531006 24.446387 19.813158 42.475939 0.708449 1.085516 -0.004932 0.000814 212329.000000 0 0 1
29.316476 25.170387 20.958458 43.957492 0.709451 1.073798 -0.015617 0.000765 390526.000000 0 0 1
30.089566 26.280887 20.466658 44.888207 0.717936 1.097360 -0.010035 0.000836 -101234.000000 0 0 1
31.013886 26.743687 21.392258 46.202972 0.711599 1.089413 -0.004731 -0.004760 -535756.000000 0 0 1
32.028866 27.741087 20.720858 47.167469 0.713783 1.115973 0.002657 -0.007077 109434.000000 0 0 1
32.981256 28.310287 21.600358 48.536698 0.709336 1.109587 0.003351 -0.004891 495149.000000 0 0 1
32.396416 28.961487 22.773358 49.060385 0.729475 1.088076 -0.007093 0.003054 -737723.000000 0 0 1
33.339566 28.976787 23.958558 50.251302 0.715502 1.073814 -0.014597 -0.002246 354243.000000 0 0 1
34.488538 29.830887 23.790058 51.432557 0.713110 1.089929 0.004960 -0.006479 385446.000000 0 0 1
34.974927 30.204887 25.044158 52.562254 0.712346 1.074165 0.007152 -0.004382 -250600.000000 0 0 1
-34.236425 31.043687 25.006608 52.546872 -0.736529 1.074819 0.014930 -0.001386 546913.000000 0 0 1
-33.079047 30.360587 24.485638 51.142302 -0.742573 1.071538 0.014930 -0.003414 435772.000000 0 0 1
-32.015547 31.282587 24.473958 51.015391 -0.773819 1.070442 0.020938 -0.001678 136190.000000 0 0 1
-30.619697 30.778687 24.020348 49.617240 -0.787988 1.065447 0.037708 -0.005858 -52090.200000 0 0 1
-30.403997 30.452787 22.659758 48.633732 -0.786200 1.086115 0.029790 -0.007301 68648.100000 0 0 1
-30.902827 29.232587 22.116058 47.944227 -0.757631 1.091351 0.027943 -0.007406 -315699.000000 0 0 1
-30.390887 27.963087 22.749858 47.149722 -0.743817 1.067287 0.022180 -0.004072 -689462.000000 0 0 1
-29.049207 27.564287 22.576258 45.971010 -0.759175 1.057447 0.015353 -0.004428 71083.600000 0 0 1
-28.552147 26.706787 23.563858 45.647924 -0.752016 1.028378 0.024159 -0.004885 -8350.660000 0 0 1
-28.176957 27.336087 24.880648 46.478481 -0.770252 1.005915 0.038697 -0.007413 -661686.000000 0 0 1
-29.333917 27.677687 25.599948 47.769136 -0.756356 1.005211 0.030707 -0.001625 -16483.800000 0 0 1
-29.013227 28.050687 26.931388 48.517090 -0.768532 0.982324 0.041041 -0.007525 1022540.000000 0 0 1
-30.317097 28.278287 27.829258 49.932509 -0.750617 0.979621 0.037136 -0.006638 1014810.000000 0 0 1
-30.816587 27.105687 28.417268 49.919149 -0.721419 0.965184 0.027403 -0.005934 95740.700000 0 0 1
-31.916777 27.390087 29.258978 51.234611 -0.709219 0.962977 0.018126 0.000327 -233663.000000 0 0 1
-32.541777 26.127087 29.862558 51.316316 -0.676494 0.949695 0.009981 -0.003161 83259.200000 0 0 1
-31.830087 25.500387 30.935288 51.190001 -0.675436 0.921881 0.020094 -0.003178 711974.000000 0 0 1
-32.565897 24.290787 31.272838 51.269585 -0.640870 0.914775 0.009270 -0.016119 354975.000000 0 0 1
-31.764107 23.398487 32.217848 50.935620 -0.634891 0.885993 0.032717 -0.025718 -1588720.000000 0 0 1
-30.660157 22.834587 31.616998 49.609456 -0.640142 0.879784 0.034669 -0.025545 -816974.000000 0 0 1
-29.787567 22.033887 32.341118 49.180680 -0.636877 0.853170 0.044197 -0.028662 -208397.000000 0 0 1
-29.088187 22.733787 33.514463 49.861477 -0.663387 0.833686 0.042196 -0.029621 -1243660.000000 0 0 1
-29.944607 22.974687 -34.407907 51.072691 -0.654443 2.310007 0.061581 -0.036483 231150.000000 0 0 1
-29.506517 22.427987 -33.141435 49.719251 -0.649936 2.300396 0.048860 -0.030350 -68379.400000 0 0 1
-28.199477 22.904987 -32.472785 48.727104 -0.682165 2.300195 0.060039 -0.029724 -150735.000000 0 0 1
-28.250637 24.273187 -32.120925 49.183736 -0.709816 2.282441 0.053993 -0.028783 -31283.300000 0 0 1
-27.297907 24.600987 -31.141805 48.168416 -0.733480 2.273809 0.073127 -0.021195 -225369.000000 0 0 1
-27.682817 25.868987 -30.388985 48.569880 -0.751541 2.246794 0.045988 -0.016117 -57144.100000 0 0 1
-27.362757 27.036887 -31.107085 49.470845 -0.779408 2.250801 0.051715 -0.015200 473558.000000 0 0 1
-28.506387 27.578087 -31.785585 50.828028 -0.768848 2.246383 0.043762 -0.016756 350958.000000 0 0 1
-28.284507 28.988987 -32.357325 51.839861 -0.797698 2.244876 0.053895 -0.011922 -74994.100000 0 0 1
-28.503227 29.972487 -31.392945 51.925918 -0.810519 2.220025 0.045506 -0.017892 47253.800000 0 0 1
-28.200907 31.198987 -31.981125 52.834272 -0.835828 2.220952 0.054370 -0.030337 -177322.000000 0 0 1
-28.480747 32.384587 -31.064895 53.150185 -0.849449 2.195028 0.046682 -0.014547 511788.000000 0 0 1
-27.520797 32.486987 -30.015675 52.093563 -0.867969 2.184853 0.034257 -0.011511 386697.000000 0 0 1
-27.849397 33.713187 -29.428875 52.708885 -0.880361 2.163166 0.019845 -0.010534 244276.000000 0 0 1
-27.022527 34.042187 -28.137005 51.776235 -0.899850 2.145320 0.021578 -0.015381 -507391.000000 0 0 1
-25.733207 34.455187 -28.430025 51.552150 -0.929308 2.154935 0.008736 -0.022285 -883605.000000 0 0 1
-25.496137 -33.268177 -28.168055 50.500138 0.916893 2.162507 0.012252 0.002053 -641494.000000 0 0 1
-25.842557 -32.562977 -26.814305 49.469103 0.899959 2.143661 0.007844 0.006934 18835.600000 0 0 1
-27.207747 -32.180677 -26.803645 49.942896 0.868939 2.137301 -0.005036 0.002512 -161040.000000 0 0 1
-27.434927 -31.245977 -25.779355 48.924038 0.850252 2.125776 -0.013629 0.004211 477323.000000 0 0 1
-28.934187 -30.929077 -25.481675 49.427834 0.818710 2.112426 -0.033158 0.008360 532164.000000 0 0 1
-29.430287 -29.971877 -26.413505 49.619839 0.794515 2.132132 -0.021974 0.000208 -583640.000000 0 0 1
-30.810257 -30.116177 -26.536585 50.600854 0.774007 2.122841 -0.019955 -0.004298 -605600.000000 0 0 1
-31.489277 -29.169677 -27.523335 50.989985 0.747177 2.140971 -0.007665 -0.009802 -471591.000000 0 0 1
-32.862687 -28.951677 -27.393865 51.658297 0.722212 2.129739 -0.004215 -0.014364 -572961.000000 0 0 1
-33.318797 -28.033577 -28.386815 51.979178 0.699465 2.148521 0.000000 -0.015733 96438.300000 0 0 1
-34.788406 -28.290077 -28.818855 53.301858 0.682741 2.142033 -0.000739 -0.022321 769206.000000 0 0 1
34.832277 -27.900077 -27.759075 52.557284 -0.675340 2.127238 0.004885 -0.015397 257040.000000 0 0 1
33.450196 -27.853077 -28.114895 51.818499 -0.694348 2.144284 0.015308 -0.015577 731937.000000 0 0 1
32.551906 -27.264077 -27.006655 50.322121 -0.697226 2.137289 0.020691 -0.015959 75364.400000 0 0 1
32.669486 -28.143077 -25.866795 50.283389 -0.711103 2.111128 0.008674 -0.012468 703711.000000 0 0 1
31.697206 -27.598677 -24.941505 48.872063 -0.716388 2.106380 0.026794 -0.004487 715624.000000 0 0 1
31.581286 -28.438677 -23.643205 48.632676 -0.733087 2.078485 0.020381 -0.003114 -13347.300000 0 0 1
31.075186 -29.772477 -23.844905 49.200072 -0.763992 2.076761 0.025013 -0.005821 141887.000000 0 0 1
30.514556 -30.308277 -22.625505 48.596741 -0.782007 2.055082 0.024110 -0.007817 20695.400000 0 0 1
31.506736 -30.593777 -21.467305 48.882500 -0.770698 2.025461 -0.000152 -0.002433 -924461.000000 0 0 1
32.632686 -31.323877 -21.898205 50.255436 -0.764937 2.021654 -0.007147 -0.003884 918681.000000 0 0 1
33.781976 -31.150977 -21.012005 50.528305 -0.744902 1.999669 -0.011247 0.001983 1419440.000000 0 0 1
34.497811 -29.760377 -20.999305 50.167219 -0.711806 2.002684 -0.020493 0.000356 -950765.000000 0 0 1
33.725156 -28.771577 -20.350505 48.778406 -0.706302 2.001162 -0.016483 0.006148 -322650.000000 0 0 1
34.130716 -27.545377 -20.730905 48.512102 -0.679028 2.012339 -0.015400 0.002576 -204791.000000 0 0 1
33.167286 -26.417377 -20.306405 47.013793 -0.672596 2.017422 -0.005065 0.004112 501992.000000 0 0 1
31.995716 -26.284777 -21.104305 46.475876 -0.687719 2.042149 0.005493 0.002303 296781.000000 0 0 1
31.003286 -25.403977 -20.591405 45.061866 -0.686457 2.045369 0.012229 -0.005891 406813.000000 0 0 1
29.816676 -25.379477 -21.623005 44.729256 -0.705181 2.075353 0.024895 -0.009111 271317.000000 0 0 1
29.180696 -26.634777 -21.722705 45.086587 -0.739817 2.073504 0.030287 -0.006490 -134741.000000 0 0 1
28.083676 -26.541077 -22.613505 44.771556 -0.757166 2.100278 0.020529 -0.001110 11428.700000 0 0 1
27.600226 -27.914777 -22.952205 45.473190 -0.791064 2.099879 0.026683 -0.001901 -151719.000000 0 0 1
26.960576 -28.587277 -21.878305 44.975163 -0.814674 2.078822 0.034270 -0.011393 -125134.000000 0 0 1
26.575716 -29.850377 -22.289505 45.761728 -0.843368 2.079537 0.041611 -0.015417 -12592.700000 0 0 1
25.818266 -30.563077 -21.130105 45.245617 -0.869356 2.056701 0.041999 -0.010163 376189.000000 0 0 1
26.648576 -30.997477 -20.028105 45.520492 -0.860697 2.026373 0.044113 -0.016889 458473.000000 0 0 1
27.451246 -32.171577 -20.267805 46.897390 -0.864403 2.017698 0.039686 -0.011727 710702.000000 0 0 1
28.481346 -32.489877 -19.124405 47.249572 -0.851048 1.987505 0.022431 -0.008070 247499.000000 0 0 1
27.979706 -32.973477 -17.834005 46.777835 -0.867144 1.961943 0.024968 -0.009462 25112.600000 0 0 1
27.270006 -31.930777 -17.150005 45.358025 -0.863964 1.958543 0.018068 -0.017522 -52105.400000 0 0 1
26.664136 -32.461477 -15.882405 44.910739 -0.883137 1.932260 0.022370 -0.010383 -149091.000000 0 0 1
25.556646 -33.334277 -16.041505 44.962719 -0.916707 1.935608 0.043544 -0.017784 81958.300000 0 0 1
25.081436 -33.872577 -14.849605 44.687142 -0.933426 1.909539 0.040601 -0.016793 -320025.000000 0 0 1
23.557336 -34.054577 -14.889605 44.004121 -0.965627 1.915979 0.039472 -0.012041 101330.000000 0 0 1
22.771736 -32.915377 -14.602705 42.605317 -0.965577 1.920632 0.041981 -0.011639 77664.600000 0 0 1
21.433836 -33.169577 -14.243805 41.982332 -0.997104 1.916949 0.039756 -0.009976 26622.900000 0 0 1
-0.911807 -7.096913 -29.013255 29.882546 1.443017 2.899798 0.029904 -0.011073 -39509.100000 0 0 1
-0.461207 -8.401813 -29.090905 30.283394 1.515958 2.860030 0.036758 -0.012561 9602.090000 0 0 1
-0.240307 -8.827413 -30.432945 31.688249 1.543580 2.859180 0.030577 -0.015373 -119743.000000 0 0 1
0.038993 -10.315613 -30.529275 32.224991 -1.567016 2.815742 0.043456 -0.008869 -573118.000000 0 0 1
1.346993 -10.593313 -30.157525 31.992327 -1.444320 2.801275 0.001017 -0.008271 -762640.000000 0 0 1
1.434993 -11.807013 -29.521905 31.827781 -1.449852 2.758603 0.013688 -0.003557 -409928.000000 0 0 1
2.857193 -12.279513 -29.217675 31.821730 -1.342184 2.734226 0.012003 -0.005446 -587221.000000 0 0 1
3.567293 -12.575713 -30.419555 33.109265 -1.294392 2.735731 0.026618 -0.010723 1100470.000000 0 0 1
4.955293 -12.934313 -30.174795 33.201952 -1.204933 2.711257 0.025288 -0.004254 1482490.000000 0 0 1
5.271893 -14.335613 -29.558245 33.271497 -1.218399 2.664634 0.028382 -0.008333 -663601.000000 0 0 1
4.972493 -14.459413 -28.137685 32.023891 -1.239572 2.643817 0.038815 -0.009582 -212279.000000 0 0 1
5.588593 -15.532513 -27.459935 32.039653 -1.225418 2.600334 0.054926 -0.009469 -161409.000000 0 0 1
5.166093 -16.955813 -27.945125 33.092569 -1.275052 2.576340 0.044923 -0.015483 156794.000000 0 0 1
5.601993 -17.411513 -29.262595 34.508587 -1.259515 2.582959 0.044783 -0.029069 158660.000000 0 0 1
5.140093 -18.753013 -29.385355 35.236276 -1.303272 2.557027 0.035528 -0.024324 -22903.000000 0 0 1
5.388193 -19.339813 -30.777795 36.746886 -1.299081 2.563602 0.037180 -0.036671 172695.000000 0 0 1
6.752393 -19.639513 -31.016955 37.327694 -1.239641 2.551586 0.032469 -0.032663 -54113.100000 0 0 1
6.932293 -20.265213 -32.274955 38.735104 -1.241196 2.555706 0.038247 -0.036681 -384629.000000 0 0 1
8.394293 -20.217613 -32.723915 39.370936 -1.177258 2.552004 0.017068 -0.022204 -207107.000000 0 0 1
8.881593 -18.943213 -33.076625 39.138103 -1.132375 2.577597 0.008058 -0.016157 72057.000000 0 0 1
10.174193 -19.013713 -33.658805 39.974375 -1.079466 2.571794 -0.007336 -0.013281 -141428.000000 0 0 1
10.443593 -17.672213 -34.400001 40.059154 -1.037049 2.603583 -0.018184 -0.002086 -330177.000000 0 0 1
9.635993 -17.431613 33.511002 38.983339 -1.065815 0.536264 0.007383 -0.000515 -322125.000000 0 0 1
9.633493 -16.069813 33.120643 38.052859 -1.030761 0.514812 -0.018773 0.009843 -15545.300000 0 0 1
8.571393 -15.718113 32.056098 36.716771 -1.071554 0.509345 -0.004184 0.002773 35409.500000 0 0 1
8.829193 -16.253413 30.782248 35.912043 -1.073173 0.541073 -0.007772 0.007193 -142243.000000 0 0 1
7.811493 -15.763413 29.925628 34.713799 -1.110718 0.531462 -0.007268 0.003014 17796.500000 0 0 1
7.789393 -16.394313 28.484418 33.775882 -1.127244 0.567335 -0.009385 0.019898 -367969.000000 0 0 1
7.416093 -17.742613 28.556718 34.427967 -1.174885 0.592651 -0.008395 0.009865 161331.000000 0 0 1
7.432693 -18.313513 27.277538 33.685216 -1.185250 0.627023 -0.009277 0.009926 -252665.000000 0 0 1
6.998093 -19.792413 27.343718 34.473059 -1.230941 0.654765 -0.005055 0.003127 -616450.000000 0 0 1
7.750093 -20.646013 28.164628 35.771050 -1.211693 0.664284 -0.010151 0.011130 -46694.400000 0 0 1
7.034493 -21.651013 28.852918 36.752433 -1.256652 0.668001 -0.019744 0.012334 -434300.000000 0 0 1
7.685593 -21.884613 30.250568 38.119568 -1.233064 0.654142 -0.025007 0.009990 -154412.000000 0 0 1
7.171193 -21.074713 31.309238 38.416636 -1.242812 0.618082 0.005183 -0.001955 144870.000000 0 0 1
7.572493 -19.745613 31.363268 37.827060 -1.204592 0.593260 0.007783 -0.009869 -371016.000000 0 0 1
7.169893 -19.111113 32.715368 38.560826 -1.211878 0.557823 0.017377 -0.017903 677835.000000 0 0 1
5.773593 -18.879213 32.973558 38.431947 -1.274011 0.539486 0.032726 -0.021923 389831.000000 0 0 1
5.537893 -17.914513 33.966819 38.798748 -1.270986 0.504406 0.051389 -0.023492 118248.000000 0 0 1
4.095093 -17.673413 34.461410 38.944937 -1.343105 0.484570 0.042973 -0.027112 155585.000000 0 0 1
3.639893 -18.849713 -33.924395 38.979803 -1.380043 2.626622 0.037101 -0.021677 -1047050.000000 0 0 1
2.329893 -18.730213 -33.513225 38.462781 -1.447040 2.628673 0.034005 -0.036102 -898398.000000 0 0 1
1.804793 -19.739713 -32.491635 38.060739 -1.479620 2.593804 0.022316 -0.008711 -380600.000000 0 0 1
0.621093 -20.367213 -32.923755 38.719282 -1.540311 2.587388 0.002372 -0.001411 214082.000000 0 0 1
-0.143607 -21.189613 -32.030275 38.405193 1.564019 2.557130 0.003317 0.001373 555379.000000 0 0 1
-0.849107 -20.477813 -30.854805 37.041609 1.529355 2.555263 0.006656 -0.000335 -516996.000000 0 0 1
-1.715707 -19.482013 -31.353105 36.952803 1.482957 2.583872 0.011533 0.001627 -287547.000000 0 0 1
-2.034507 -18.577013 -30.327005 35.622631 1.461714 2.589332 0.017651 0.001275 52840.400000 0 0 1
-1.905707 -17.037713 -30.651045 35.119823 1.459407 2.631617 0.013881 -0.004038 -557943.000000 0 0 1
-2.451807 -16.149013 -29.712795 33.906521 1.420123 2.638955 0.023873 -0.005728 -294552.000000 0 0 1
-2.201507 -14.804613 -30.088035 33.605253 1.423174 2.679984 0.034498 -0.012101 -139764.000000 0 0 1
-3.269307 -13.800113 -29.625815 32.845401 1.338180 2.695124 0.036177 -0.010641 80025.200000 0 0 1
-3.228207 -13.633613 -28.229705 31.515281 1.338295 2.680904 0.031333 -0.012650 -22192.700000 0 0 1
-4.354507 -12.940313 -27.745625 30.923020 1.246192 2.684293 0.039850 -0.013607 -171523.000000 0 0 1
-4.211507 -12.665113 -26.247125 29.445771 1.249771 2.671159 0.029233 -0.018070 -445709.000000 0 0 1
-4.729607 -13.773613 -25.549555 29.408525 1.240030 2.623531 0.025621 -0.012001 268430.000000 0 0 1
-4.880107 -13.796613 -24.137505 28.227312 1.230813 2.596563 0.024072 -0.008830 -417461.000000 0 0 1
-5.846007 -12.766613 -23.507605 27.381923 1.141381 2.603150 0.033096 -0.016551 -509521.000000 0 0 1
-7.171507 -13.153513 -23.709005 28.045719 1.071633 2.578053 0.025792 -0.016832 -558105.000000 0 0 1
-8.136107 -12.225913 -23.282105 27.526816 0.983615 2.578854 0.022174 -0.018999 341572.000000 0 0 1
-9.617407 -12.613713 -23.521305 28.369915 0.919371 2.548280 0.023411 -0.020462 215870.000000 0 0 1
-10.029807 -13.530213 -22.536005 28.134236 0.932893 2.499789 0.018423 -0.016184 -69388.900000 0 0 1
-11.153607 -14.263513 -22.995705 29.268639 0.907148 2.474587 0.007046 -0.015068 -89547.700000 0 0 1
-11.575807 -15.337513 -22.000405 29.210554 0.924270 2.423659 0.005755 -0.015488 -106140.000000 0 0 1
-10.687907 -16.424913 -21.859105 29.356934 0.993920 2.410728 0.012889 -0.011857 -492968.000000 0 0 1
-11.382407 -17.629313 -21.678805 30.171550 0.997484 2.372466 0.002311 -0.004334 255800.000000 0 0 1
-11.899207 -18.376513 -23.001805 31.754848 0.996165 2.380896 -0.000215 -0.004009 947440.000000 0 0 1
-13.051107 -17.727013 -23.586505 32.263007 0.936168 2.390685 -0.004905 -0.006697 362325.000000 0 0 1
-13.430707 -18.327213 -24.814805 33.645879 0.938376 2.400200 -0.002083 -0.007954 -414820.000000 0 0 1
-14.713307 -17.767913 -25.399465 34.311994 0.879165 2.404239 0.004012 -0.014903 -1107550.000000 0 0 1
-15.878307 -18.188913 -24.728205 34.560690 0.853119 2.368137 0.005547 -0.013249 -224980.000000 0 0 1
-16.971607 -17.612713 -25.427945 35.282056 0.803934 2.375615 0.006473 -0.014484 54474.300000 0 0 1
-17.576507 -16.260813 -24.954005 34.583956 0.746535 2.376833 0.001071 -0.009870 -469302.000000 0 0 1
-18.381507 -16.335913 -23.797405 34.220730 0.726545 2.339785 0.001320 -0.010324 47019.300000 0 0 1
-19.178807 -15.171313 -23.685605 34.044137 0.669257 2.340235 0.001133 -0.010344 -5015.020000 0 0 1
-19.896607 -15.130313 -22.358705 33.536742 0.650154 2.300559 0.001072 -0.017732 -418123.000000 0 0 1
-18.934807 -14.995313 -21.361605 32.244449 0.669810 2.294934 -0.003508 -0.012486 49861.900000 0 0 1
-19.482407 -14.745213 -20.053905 31.609249 0.647869 2.258069 -0.002229 -0.013520 -213539.000000 0 0 1
-19.924407 -13.313513 -19.778205 31.071032 0.589064 2.260810 0.011189 -0.020522 -6213.240000 0 0 1
-21.262507 -12.952813 -20.080505 31.985876 0.547146 2.249511 0.013841 -0.021800 144450.000000 0 0 1
-21.671907 -11.938713 -19.188505 31.311390 0.503522 2.230431 0.024082 -0.015614 -226165.000000 0 0 1
-23.140607 -11.504213 -19.186805 32.186458 0.461360 2.209449 0.034618 -0.011539 -314773.000000 0 0 1
-23.493107 -10.709413 -20.325705 32.859578 0.427711 2.237708 0.039620 -0.018452 154168.000000 0 0 1
-24.906007 -10.555713 -20.331905 33.839602 0.400872 2.215337 0.033728 -0.017720 133344.000000 0 0 1
-25.292197 -9.598013 -21.498705 34.554470 0.362697 2.242306 0.048672 -0.017507 -245708.000000 0 0 1
-25.292397 -10.181313 -22.759105 35.515368 0.382698 2.266368 0.025127 -0.013502 197195.000000 0 0 1
-25.799257 -9.294413 -23.699705 36.244500 0.345785 2.283503 0.023167 -0.011122 -543815.000000 0 0 1
-26.263237 -9.938313 -25.026705 37.614673 0.361758 2.298751 0.014943 0.003154 52642.800000 0 0 1
-25.343757 -9.831913 -26.088235 37.677162 0.370069 2.335627 0.002749 -0.001981 931357.000000 0 0 1
-24.187607 -10.712013 -26.016175 37.102950 0.416910 2.347860 -0.005759 -0.002375 1135600.000000 0 0 1
-23.114307 -10.651013 -27.160155 37.220818 0.431797 2.388684 -0.018929 0.008856 566657.000000 0 0 1
-23.617407 -11.098113 -28.426205 38.587552 0.439289 2.398926 -0.017508 0.011178 58904.900000 0 0 1
-22.571907 -11.273313 -29.355085 38.707875 0.463199 2.431613 -0.023005 0.008339 10351.900000 0 0 1
-23.040007 -11.531213 -30.821235 40.171623 0.464037 2.445321 -0.023126 0.002036 -81365.800000 0 0 1
-23.708407 -10.429213 -31.345615 40.662079 0.414419 2.451019 -0.023247 0.006787 -222150.000000 0 0 1
-22.886307 -9.513013 -32.050215 40.515389 0.393936 2.483341 -0.018673 0.002779 -547539.000000 0 0 1
-23.660307 -8.323113 -32.680445 41.195823 0.338256 2.486999 -0.028793 0.003965 -1236550.000000 0 0 1
-24.477507 -8.645213 -33.815615 42.630786 0.339514 2.486876 0.006225 -0.001558 355939.000000 0 0 1
-25.717917 -9.243113 -33.567805 43.285609 0.345028 2.458296 0.009147 -0.002662 -1029330.000000 0 0 1
-26.669767 -8.362313 -32.739085 43.047096 0.303841 2.434942 0.005301 -0.000815 -2219770.000000 0 0 1
-28.004107 -8.730213 -32.976225 44.134771 0.302199 2.414592 -0.004009 -0.002217 -93853.400000 0 0 1
-28.784717 -8.593313 -31.787545 43.736175 0.290114 2.384451 -0.000982 0.001336 396357.000000 0 0 1
-30.280097 -8.930113 -32.056845 44.991916 0.286787 2.363854 0.006375 -0.005001 290526.000000 0 0 1
-30.432347 -10.351113 -32.019935 45.371241 0.327860 2.354252 -0.002982 -0.012257 136087.000000 0 0 1
-31.765657 -10.785913 -31.829385 46.243947 0.327332 2.329930 -0.009814 -0.011367 -211000.000000 0 0 1
-31.958257 -12.356813 -31.884075 46.804009 0.368949 2.320231 -0.002775 -0.016324 1134910.000000 0 0 1
-33.313837 -12.905413 -31.804315 47.831746 0.369588 2.298184 0.007223 -0.021956 1562250.000000 0 0 1
-33.171807 -14.267713 -31.890515 48.176149 0.406196 2.294222 0.008846 -0.022457 712440.000000 0 0 1
-34.439065 -15.011213 -31.350005 48.930650 0.411048 2.266210 0.001818 -0.029594 553303.000000 0 0 1
-34.490964 -14.967913 -29.936965 48.061283 0.409441 2.243230 0.011655 -0.023241 40772.500000 0 0 1
35.090625 -15.892913 -29.362615 48.436555 -0.425272 2.222080 0.011053 -0.014846 181451.000000 0 0 1
35.034137 -15.722413 -27.838575 47.429646 -0.421834 2.198076 0.016585 0.001656 -229340.000000 0 0 1
-34.204325 -15.940113 -27.274535 46.560964 0.436101 2.196640 0.011054 -0.008277 -149040.000000 0 0 1
-34.290875 -15.964513 -25.877745 45.829985 0.435719 2.170801 0.017406 -0.003233 -69228.500000 0 0 1
-32.914347 -15.682113 -25.262995 44.356531 0.444633 2.176747 0.028357 -0.003759 350925.000000 0 0 1
-31.913767 -16.684213 -25.513235 44.133623 0.481713 2.187183 0.028394 -0.005066 618486.000000 0 0 1
-30.644117 -16.240513 -25.058775 42.787362 0.487336 2.196488 0.026706 0.007932 415831.000000 0 0 1
-29.521287 -17.313513 -25.071585 42.424621 0.530416 2.203054 0.017990 0.005679 4204.900000 0 0 1
-29.647897 -18.428013 -24.237005 42.497316 0.556123 2.177690 0.032467 -0.004856 -11088.500000 0 0 1
-30.316657 -19.516613 -24.844105 43.786156 0.571975 2.174137 0.025234 -0.007685 -230645.000000 0 0 1
-30.120267 -20.865013 -24.129705 43.872793 0.605826 2.153152 0.025775 -0.009059 -1227530.000000 0 0 1
-28.893017 -21.431513 -24.293005 43.408136 0.638203 2.164750 0.017704 -0.000992 -1166070.000000 0 0 1
-28.681337 -22.514513 -23.392305 43.321153 0.665520 2.141203 0.022645 -0.007566 -1154460.000000 0 0 1
-27.423437 -23.371313 -23.614205 43.080087 0.705792 2.150943 0.025422 -0.007400 -70426.400000 0 0 1
-26.215077 -22.764813 -23.184205 41.748944 0.715072 2.159549 0.011920 -0.006793 24692.000000 0 0 1
-25.953697 -22.576413 -21.798105 40.724025 0.715919 2.135617 -0.001216 -0.009170 -541635.000000 0 0 1
-26.096247 -23.783013 -20.846005 41.002460 0.739055 2.104132 0.001946 -0.004879 -202515.000000 0 0 1
-25.734387 -23.284513 -19.590905 39.852613 0.735462 2.084704 -0.007402 -0.000626 102819.000000 0 0 1
-25.807167 -24.344413 -18.682905 40.096275 0.756240 2.055506 -0.012025 0.023857 -193053.000000 0 0 1
-25.690077 -23.831413 -17.213705 39.041362 0.747883 2.027408 -0.019415 0.025096 -149100.000000 0 0 1
-26.872257 -23.211913 -16.775005 39.272279 0.712444 2.012131 -0.011978 0.015319 -303409.000000 0 0 1
-26.677547 -22.371013 -15.658205 38.175033 0.697821 1.993435 -0.022762 0.010611 653462.000000 0 0 1
-27.996297 -21.691413 -15.139605 38.516460 0.659182 1.974763 -0.021242 0.009658 644204.000000 0 0 1
-28.761037 -20.909313 -16.012705 38.997479 0.628619 1.993918 -0.017073 0.005557 -262793.000000 0 0 1
-29.776077 -20.221813 -15.316905 39.117056 0.596581 1.973129 -0.006505 -0.001679 57740.600000 0 0 1
-30.792947 -19.601213 -16.328405 39.987873 0.566861 1.991424 0.030289 -0.028106 123876.000000 0 0 1
-31.758097 -20.516013 -16.847205 41.392171 0.573564 1.989979 0.021491 -0.010310 370665.000000 0 0 1
-32.543777 -19.793713 -17.822105 42.053727 0.546440 2.008426 0.029654 -0.017247 375039.000000 0 0 1
-33.189007 -20.802213 -18.835605 43.462884 0.559878 2.019028 0.030411 -0.012588 649165.000000 0 0 1
-34.318967 -21.592313 -18.456605 44.549588 0.561589 1.997963 0.027194 -0.012455 337271.000000 0 0 1
-34.102910 -22.641713 -17.545305 44.536428 0.586101 1.975726 0.018545 -0.010376 200447.000000 0 0 1
-35.178942 -23.791813 -17.576705 45.962473 0.594648 1.963204 0.014548 0.003604 255384.000000 0 0 1
33.996576 -23.417413 -17.305605 44.761885 -0.603181 1.967754 0.021904 -0.004705 -14282.500000 0 0 1
33.170216 -24.562513 -17.120505 44.684359 -0.637393 1.963993 0.008013 -0.003453 788499.000000 0 0 1
31.686736 -24.338213 -16.700905 43.304943 -0.654978 1.966717 0.012128 -0.005346 419444.000000 0 0 1
30.759786 -24.037013 -17.706105 42.865471 -0.663323 1.996610 0.003392 -0.011368 501050.000000 0 0 1
29.485616 -24.598013 -17.338105 42.131623 -0.695272 1.994920 0.008824 -0.008344 279737.000000 0 0 1
28.362946 -24.302113 -18.310805 41.597296 -0.708444 2.026609 0.021355 -0.008859 -724858.000000 0 0 1
27.962566 -22.939613 -18.435605 40.595597 -0.687038 2.042190 0.017365 -0.010847 -32090.500000 0 0 1
26.573636 -23.098413 -18.635405 39.836831 -0.715549 2.057589 0.016762 -0.011272 -309243.000000 0 0 1
33.586196 29.998387 -18.560905 48.707730 0.729032 1.961746 -0.007185 0.014047 -1006120.000000 0 0 1
32.612306 29.925087 -19.505205 48.368651 0.742455 1.985874 -0.018538 0.005386 -816521.000000 0 0 1
33.175146 29.986287 -20.810005 49.323666 0.734954 2.006344 -0.014085 0.015065 -326583.000000 0 0 1
32.161516 30.351887 -21.920305 49.356863 0.756458 2.030987 -0.010831 0.019737 -572726.000000 0 0 1
31.111826 29.369687 -21.958905 48.090724 0.756602 2.044982 -0.007337 0.000222 90278.500000 0 0 1
30.346506 29.467687 -23.109705 48.200762 0.770707 2.070821 -0.004596 0.013679 216765.000000 0 0 1
29.296026 30.653287 -23.173905 48.320917 0.808034 2.070976 -0.004420 0.010198 -631513.000000 0 0 1
29.828126 31.942187 -23.191805 49.476057 0.819609 2.058669 0.003704 -0.005842 -946904.000000 0 0 1
28.823786 32.877387 -23.168005 49.482216 0.851001 2.058059 0.009532 -0.002257 -812513.000000 0 0 1
29.403866 34.354987 -23.058005 50.759473 0.862896 2.042338 0.010920 -0.000014 119258.000000 0 0 1
29.903816 -34.397177 -21.800405 50.523872 -0.855165 2.016937 0.010600 -0.006493 -132487.000000 0 0 1
31.212586 34.234287 -21.552405 51.095187 0.831536 2.006236 0.008051 -0.003633 -329357.000000 0 0 1
31.590696 33.953087 -20.027305 50.516108 0.821426 1.978447 -0.003073 -0.000864 -303344.000000 0 0 1
31.548726 -34.026977 -19.171305 50.206536 -0.823172 1.962592 0.002902 -0.001287 176656.000000 0 0 1
31.684066 -34.427977 -17.817505 50.066248 -0.826878 1.934650 -0.013670 -0.005701 -58485.700000 0 0 1
31.404456 -33.247977 -16.862105 48.744214 -0.813905 1.924027 -0.010026 -0.002662 491567.000000 0 0 1
32.441726 -32.265077 -16.976105 48.802551 -0.782668 1.926076 -0.005180 0.010221 126859.000000 0 0 1
33.374086 -32.242177 -15.930505 49.062905 -0.768149 1.901486 -0.004688 0.012318 226233.000000 0 0 1
34.631454 -31.404477 -16.342305 49.524234 -0.736570 1.907085 0.003137 0.015565 248272.000000 0 0 1
-35.007127 -32.078477 -17.252505 50.519071 0.741770 1.919314 -0.011873 0.009741 -338174.000000 0 0 1
-34.067383 -31.186277 -17.817805 49.503986 0.741274 1.938986 -0.024909 0.018330 -211417.000000 0 0 1
-33.130657 -31.855077 -18.801305 49.657582 0.765772 1.959100 -0.021963 0.011275 -1081300.000000 0 0 1
-32.346697 -32.811077 -18.134705 49.515080 0.792525 1.945768 -0.014078 0.011414 74067.800000 0 0 1
-31.411637 -33.487077 -18.953405 49.671993 0.817367 1.962292 -0.002520 0.009645 -118088.000000 0 0 1
-30.132457 -32.772377 -19.391805 48.559611 0.827340 1.981593 -0.015019 0.012408 -1329840.000000 0 0 1
-30.231027 -31.890677 -20.523105 48.498744 0.812108 2.007735 -0.018570 0.010679 525728.000000 0 0 1
-29.025807 -31.626877 -21.259505 47.903271 0.828257 2.030632 -0.002351 0.004214 393072.000000 0 0 1
-28.347137 -32.820077 -21.978005 48.618416 0.858395 2.039860 0.000812 0.013869 -182357.000000 0 0 1
-28.931407 -33.285077 -23.203805 49.833114 0.855260 2.055143 -0.003751 0.023253 -36761.000000 0 0 1
-28.330267 -34.522377 -23.607405 50.514435 0.883599 2.057076 -0.007305 0.009128 381054.000000 0 0 1
-29.069147 33.781387 -24.758005 50.981921 -0.860233 2.077872 -0.012901 0.003078 483863.000000 0 0 1
-30.319127 33.136387 -24.441305 51.133619 -0.829766 2.069160 -0.019565 0.004323 612168.000000 0 0 1
-30.874497 32.431187 -25.544625 51.551376 -0.809983 2.089227 -0.002149 0.003823 -82173.400000 0 0 1
-31.617017 33.370087 -26.515685 53.068635 -0.812367 2.093990 0.008193 -0.007690 -605846.000000 0 0 1
-30.879327 34.218587 -27.394265 53.618004 -0.836649 2.107046 -0.000674 -0.009472 156418.000000 0 0 1
-31.787517 -33.925477 -27.992805 54.267683 0.817922 2.112771 0.001411 -0.012240 870165.000000 0 0 1
-31.168767 -33.142677 -29.191155 54.056014 0.816082 2.141253 0.010541 -0.014820 150797.000000 0 0 1
-30.876697 -33.874677 -30.373505 54.985580 0.831665 2.156025 0.018664 -0.010826 677100.000000 0 0 1
-32.046157 -34.120077 -31.193895 56.251177 0.816732 2.158614 0.015821 -0.009819 779147.000000 0 0 1
-31.777407 34.141987 -32.458125 56.824368 -0.821254 2.178764 0.029320 -0.010641 93072.800000 0 0 1
-30.900827 -34.393977 -33.418445 57.049095 0.838845 2.196643 0.039148 -0.020150 -138414.000000 0 0 1
-30.910247 33.965887 34.376921 57.366345 -0.832463 0.928229 0.018980 -0.026361 -237189.000000 0 0 1
-29.912107 34.461787 33.289950 56.485128 -0.855957 0.940533 0.036691 -0.020692 2079600.000000 0 0 1
-28.525777 33.958787 33.258709 55.435195 -0.872130 0.927350 0.051900 -0.015699 1820840.000000 0 0 1
-28.328317 32.613587 32.964948 54.339925 -0.855600 0.918965 0.052123 -0.020452 -182108.000000 0 0 1
-26.882347 32.173987 33.308804 53.547198 -0.874763 0.899444 0.051910 -0.021357 -437687.000000 0 0 1
-26.597757 31.981587 -34.364752 53.955526 -0.877047 2.261278 0.056507 -0.030889 652092.000000 0 0 1
-25.211457 31.649287 -34.200508 52.980843 -0.898139 2.272508 0.062678 -0.027942 318423.000000 0 0 1
-24.819107 30.200187 -34.510934 52.144453 -0.882892 2.294058 0.066686 -0.019100 -737068.000000 0 0 1
-25.352217 29.130687 -33.744035 51.283445 -0.854639 2.288944 0.055958 -0.018787 3180.050000 0 0 1
-24.887107 27.898887 -34.185358 50.659202 -0.842393 2.311504 0.045772 -0.017848 -242159.000000 0 0 1
-24.713007 26.751487 -33.157525 49.252373 -0.824987 2.309347 0.049149 -0.026246 -203716.000000 0 0 1
-23.678707 26.972487 -32.221355 48.232893 -0.850335 2.302364 0.047268 -0.017012 -76894.100000 0 0 1
-23.918207 28.044087 -31.248555 48.322082 -0.864633 2.274010 0.039176 -0.010868 -109626.000000 0 0 1
-22.695407 28.149087 -30.341385 47.202248 -0.892252 2.268938 0.053993 -0.008822 601151.000000 0 0 1
-21.492107 28.629687 -30.942885 47.318408 -0.926852 2.283563 0.044342 -0.007565 1052870.000000 0 0 1
-20.266007 28.523487 -30.196155 46.218050 -0.953056 2.282786 0.017033 -0.001733 1160670.000000 0 0 1
-19.929307 29.549787 -29.056565 45.985336 -0.977437 2.254755 0.016337 -0.001476 -326315.000000 0 0 1
-19.652707 30.807187 -29.566805 47.005400 -1.002956 2.251074 0.013893 0.001398 -88597.000000 0 0 1
-19.287407 31.736287 -28.543165 46.839174 -1.024705 2.226083 0.026186 -0.002791 -165825.000000 0 0 1
-18.778707 32.987187 -29.221755 47.903083 -1.053277 2.226880 0.022203 0.002159 99071.900000 0 0 1
-17.639707 32.732187 -30.032565 47.796551 -1.076507 2.250216 0.018104 -0.000242 -228382.000000 0 0 1
-17.529007 33.922187 -30.877215 49.105837 -1.093845 2.250791 0.010531 0.015482 520655.000000 0 0 1
-16.119107 34.123087 -31.505105 49.160780 -1.129487 2.266412 0.011275 0.016175 343183.000000 0 0 1
-15.090207 34.537587 -30.644835 48.576385 -1.158872 2.253456 0.023659 0.012463 234001.000000 0 0 1
-13.772807 -34.510377 -31.188395 48.511569 1.191073 2.269083 0.030153 0.017467 1170340.000000 0 0 1
-12.976607 33.209987 -31.129315 47.332122 -1.198295 2.288529 0.030347 0.011191 -95808.000000 0 0 1
-12.628307 32.804787 -29.816475 46.093930 -1.203328 2.274261 0.036206 -0.003626 99595.300000 0 0 1
-12.231507 31.409087 -29.732995 44.946540 -1.199439 2.293639 0.034556 -0.006495 -28440.300000 0 0 1
-12.152007 30.892987 -28.252355 43.591782 -1.196029 2.275899 0.029249 -0.019436 164233.000000 0 0 1
-10.990107 31.406287 -27.622855 43.245340 -1.234181 2.263666 0.022078 -0.012349 78015.400000 0 0 1
-10.992607 31.106287 -26.284035 42.181619 -1.231106 2.243517 0.013446 -0.018231 263312.000000 0 0 1
-9.575407 31.424487 -25.730925 41.728495 -1.275023 2.235248 0.010380 -0.016499 -27167.700000 0 0 1
-8.584207 30.632787 -26.337525 41.300381 -1.297575 2.262314 0.013659 -0.007536 -1521900.000000 0 0 1
-7.405707 31.049787 -25.749805 41.012025 -1.336660 2.249597 0.009273 -0.009498 -1470190.000000 0 0 1
-6.269607 30.239187 -26.348455 40.595043 -1.366359 2.277139 -0.004787 -0.003733 -804011.000000 0 0 1
-6.156407 28.986287 -25.775835 39.274672 -1.361516 2.286696 -0.004639 -0.016894 416013.000000 0 0 1
-4.894507 28.385487 -26.106465 38.874665 -1.400045 2.307101 -0.000532 -0.017484 962538.000000 0 0 1
-4.393907 27.194787 -25.128155 37.286553 -1.410609 2.310298 0.011828 -0.013899 -333321.000000 0 0 1
-5.207807 26.073187 -25.178125 36.617896 -1.373653 2.328962 0.018507 -0.012478 -211495.000000 0 0 1
-4.782007 24.976087 -24.380805 35.229195 -1.381622 2.335139 0.024326 -0.021290 -404215.000000 0 0 1
-5.757307 23.761187 -24.307505 34.476012 -1.333079 2.353298 0.038381 -0.017940 -33388.600000 0 0 1
-5.816307 22.883687 -25.410105 34.686683 -1.321898 2.392873 0.031123 -0.019800 -591888.000000 0 0 1
-6.612107 21.820287 -25.177175 33.966675 -1.276566 2.405700 0.020396 -0.019451 -1239530.000000 0 0 1
-6.775507 20.845487 -26.395355 34.309716 -1.256533 2.448582 0.004973 -0.006920 790117.000000 0 0 1
-5.609507 20.139087 -26.912385 34.078231 -1.299144 2.481155 0.017633 -0.015596 484063.000000 0 0 1
-5.453307 18.852387 -26.258375 32.781905 -1.289218 2.499764 0.021531 -0.013664 -38631.300000 0 0 1
-4.234907 18.002387 -26.674265 32.458231 -1.339756 2.535364 0.029524 -0.020959 -18438.200000 0 0 1
-4.293707 17.665187 -28.037115 33.415185 -1.332360 2.566337 0.018609 -0.020996 -1003810.000000 0 0 1
-3.284007 16.820187 -28.368455 33.143214 -1.377980 2.598154 0.023237 -0.017636 -1030380.000000 0 0 1
-2.898507 16.707487 -29.878415 34.354929 -1.399021 2.625387 0.013919 -0.015712 -115658.000000 0 0 1
-2.212007 17.825887 -30.366765 35.281661 -1.447338 2.607430 0.017470 -0.015579 -11097.600000 0 0 1
-2.074707 17.909087 -31.756115 36.516991 -1.455464 2.625240 0.012689 -0.013138 -255554.000000 0 0 1
-1.339107 19.163287 -32.196555 37.491905 -1.501031 2.603641 0.025451 -0.015511 -433256.000000 0 0 1
0.020093 19.233287 -31.827095 37.187144 1.569752 2.598013 0.041330 -0.019099 -316968.000000 0 0 1
0.555893 20.468287 -32.129455 38.099366 1.543644 2.574203 0.048759 -0.009890 56054.300000 0 0 1
0.231593 21.624887 -31.164095 37.932706 1.560087 2.534943 0.041145 -0.007860 -418593.000000 0 0 1
1.102793 21.590487 -30.082185 37.044610 1.519763 2.518458 0.049789 -0.029270 -369533.000000 0 0 1
0.853593 22.664387 -29.280555 37.037197 1.533152 2.482538 0.048650 -0.025212 103741.000000 0 0 1
1.837193 22.720787 -28.093725 36.178264 1.490112 2.459946 0.051260 -0.014455 1162510.000000 0 0 1
3.135793 23.195787 -28.516495 36.892658 1.436423 2.454287 0.046680 -0.017295 680881.000000 0 0 1
4.101093 23.220387 -27.480385 36.210177 1.395983 2.432439 0.041047 -0.015096 92708.100000 0 0 1
4.643793 24.613987 -27.216695 36.988669 1.384323 2.397661 0.048289 -0.017117 -385335.000000 0 0 1
5.334293 25.156587 -28.301245 38.239626 1.361848 2.404019 0.045254 -0.030780 -13398.400000 0 0 1
5.743193 26.498787 -28.112885 39.057704 1.357363 2.374279 0.046878 -0.030449 80888.400000 0 0 1
6.542593 27.015987 -29.358475 40.430052 1.333196 2.383509 0.039986 -0.024946 -303445.000000 0 0 1
7.836793 26.495887 -29.377345 40.329589 1.283221 2.386826 0.040080 -0.021813 -728532.000000 0 0 1
8.559793 26.983387 -30.490645 41.605921 1.263613 2.393289 0.061000 -0.028594 520765.000000 0 0 1
10.100893 26.955987 -30.275875 41.776571 1.212273 2.381409 0.057121 -0.027754 421837.000000 0 0 1
10.786393 27.986787 -30.925125 43.080969 1.202930 2.371487 0.062363 -0.024055 973785.000000 0 0 1
12.133293 28.234387 -30.432975 43.250010 1.164922 2.351321 0.044983 -0.030259 1542420.000000 0 0 1
12.912593 29.338587 -31.182975 44.719858 1.156186 2.342414 0.046308 -0.025342 19091.600000 0 0 1
12.409693 30.613987 -30.928485 45.252490 1.185678 2.323295 0.037688 -0.019522 -274919.000000 0 0 1
13.292193 31.574087 -31.418385 46.483548 1.172332 2.312986 0.070443 -0.026352 -385018.000000 0 0 1
12.902393 33.031387 -31.303155 47.301499 1.198411 2.293986 0.059835 -0.028448 -352066.000000 0 0 1
11.739393 33.268287 -32.049675 47.663130 1.231567 2.308271 0.046988 -0.023611 -258579.000000 0 0 1
11.204093 34.530887 -31.701435 48.196419 1.257048 2.288631 0.033199 -0.016699 207717.000000 0 0 1
9.887593 -34.219077 -32.445575 48.181169 -1.289508 2.309605 -0.002082 -0.005961 76908.700000 0 0 1
10.062193 -33.793077 -33.763915 48.818252 -1.281397 2.334533 -0.013830 0.003980 123787.000000 0 0 1
8.795593 -33.484177 -34.331809 48.756801 -1.313920 2.352013 -0.010387 0.001697 319965.000000 0 0 1
8.775393 -33.034777 33.248209 47.683827 -1.311152 0.799223 -0.003210 0.003686 -270139.000000 0 0 1
9.320793 -31.804277 33.050339 46.805065 -1.285712 0.786782 -0.022596 -0.001472 -283693.000000 0 0 1
9.541293 -31.621377 31.655968 45.749842 -1.277748 0.806629 -0.032544 0.012809 -519768.000000 0 0 1
9.291393 -30.179977 31.195398 44.388217 -1.272139 0.791491 -0.042860 -0.006241 -329041.000000 0 0 1
8.006693 -29.621677 31.241678 43.790334 -1.306806 0.776404 -0.033250 0.003744 -869311.000000 0 0 1
7.572093 -29.289577 32.517298 44.413856 -1.317810 0.749333 -0.026444 0.004820 -407405.000000 0 0 1
6.059993 -28.899677 32.505648 43.915054 -1.364100 0.737438 -0.032724 -0.008557 562154.000000 0 0 1
5.135493 -29.970677 32.329848 44.382810 -1.401094 0.754766 0.006004 -0.018147 164157.000000 0 0 1
5.188993 -30.835577 31.202778 44.174334 -1.404079 0.786460 -0.011753 -0.017785 -1094850.000000 0 0 1
4.917493 -30.174177 29.811578 42.701205 -1.409246 0.797995 -0.001549 -0.013748 306371.000000 0 0 1
3.558993 -29.888977 29.480148 42.131894 -1.452281 0.795803 0.015287 -0.023654 408733.000000 0 0 1
3.418793 -29.212477 28.240448 40.774745 -1.454294 0.805714 0.019482 -0.025293 -922695.000000 0 0 1
1.931193 -28.992477 27.898968 40.282076 -1.504284 0.805723 0.017020 -0.037905 -30017.200000 0 0 1
1.338193 -30.160977 27.384918 40.760385 -1.526457 0.834091 0.010954 -0.039091 -51253.500000 0 0 1
0.955593 -31.090977 28.336868 42.077786 -1.540071 0.831944 0.027099 -0.034753 -1236910.000000 0 0 1
0.827193 -32.541777 27.758288 42.780534 -1.545382 0.864720 0.014039 -0.025337 318415.000000 0 0 1
2.001793 -33.254177 27.349618 43.102773 -1.510672 0.883408 0.011306 -0.029770 550444.000000 0 0 1
2.583493 -32.712877 26.133948 41.949851 -1.491985 0.898249 0.008456 -0.022526 -183400.000000 0 0 1
4.085693 -32.994477 25.982788 42.195185 -1.447594 0.907426 0.000551 -0.011292 43560.300000 0 0 1
4.686893 -32.134977 24.998428 40.982254 -1.425967 0.914759 0.001722 -0.002827 878409.000000 0 0 1
6.117593 -32.186377 25.065038 41.250987 -1.382969 0.917732 -0.004351 -0.009502 545463.000000 0 0 1
6.856893 -31.913777 23.732458 40.357598 -1.359157 0.942145 -0.004566 -0.001582 -124314.000000 0 0 1
8.233393 -31.716077 23.942458 40.582503 -1.316806 0.939775 -0.002177 0.005460 -282372.000000 0 0 1
8.914993 -31.336377 22.802658 39.766906 -1.293626 0.960137 0.008033 0.006136 166012.000000 0 0 1
10.137093 -30.395777 22.959158 39.418103 -1.248893 0.949054 0.003719 0.007351 406525.000000 0 0 1
11.252993 -30.970577 23.612558 40.538369 -1.222283 0.949027 0.013957 0.004159 -600113.000000 0 0 1
12.384993 -30.197077 23.442758 40.184753 -1.181580 0.947919 0.015889 0.005532 -870568.000000 0 0 1
13.539293 -30.623877 24.324188 41.385993 -1.154518 0.942534 0.047751 0.005075 -440491.000000 0 0 1
13.320593 -30.107977 25.603978 41.707219 -1.154258 0.909807 0.025720 0.007842 -626175.000000 0 0 1
14.537393 -29.902377 26.197608 42.329689 -1.118280 0.903462 0.030110 0.007855 -1219880.000000 0 0 1
-10.495507 -13.931513 26.537438 31.756548 0.925145 0.581477 0.028741 -0.005468 -274689.000000 0 0 1
-9.230307 -13.946013 25.920678 30.847551 0.986129 0.572991 0.017324 -0.006530 -87378.000000 0 0 1
-8.219007 -14.240313 26.869738 31.501133 1.047337 0.549134 0.029420 -0.004620 317347.000000 0 0 1
-6.766007 -14.190813 26.343948 30.678357 1.125890 0.538041 0.027937 -0.007288 33210.100000 0 0 1
-6.385607 -15.384213 25.632978 30.569585 1.177362 0.576249 0.022262 -0.006918 46825.200000 0 0 1
-6.401307 -15.201013 24.198578 29.285128 1.172225 0.598273 0.019797 -0.004998 -12013.600000 0 0 1
-5.771407 -16.429413 23.500658 29.249200 1.232977 0.637707 0.014380 -0.000508 873969.000000 0 0 1
-6.647707 -17.621913 23.445758 30.073699 1.210062 0.676753 0.012990 -0.001491 49027.100000 0 0 1
-6.864007 -18.250213 24.688928 31.459943 1.211057 0.668466 0.022354 -0.004506 -250873.000000 0 0 1
-7.273207 -19.718613 24.459118 32.248592 1.217428 0.709857 0.023236 -0.007362 -928084.000000 0 0 1
-8.536707 -19.787913 23.913558 32.191538 1.163509 0.733475 0.016745 -0.011792 -916010.000000 0 0 1
-9.035507 -21.118113 23.563058 32.906425 1.166509 0.772651 0.006977 -0.015164 116736.000000 0 0 1
-10.563307 -21.232913 23.681058 33.514363 1.109153 0.786123 0.017548 -0.015464 -214611.000000 0 0 1
-10.953307 -21.149413 25.028778 34.550142 1.092930 0.760605 0.013247 -0.016249 -445912.000000 0 0 1
-12.339907 -21.037113 25.167118 35.045931 1.040304 0.769702 0.033441 -0.013565 -423753.000000 0 0 1
-12.811507 -20.764413 26.613158 36.104788 1.017975 0.742014 0.028718 -0.015055 -400493.000000 0 0 1
-12.741107 -21.857013 27.511548 37.375796 1.043023 0.743537 0.025748 -0.010801 129740.000000 0 0 1
-11.826107 -21.693213 28.587478 37.784867 1.071682 0.712721 0.014405 -0.011903 -87984.100000 0 0 1
-11.391807 -23.024613 29.165588 38.865635 1.111344 0.722098 0.011268 -0.005071 -372374.000000 0 0 1
-12.407407 -23.718813 29.876778 40.114183 1.088837 0.730571 0.006216 -0.002104 -401842.000000 0 0 1
-12.011807 -24.851813 30.627418 41.230266 1.120568 0.733496 -0.001143 0.003909 -446201.000000 0 0 1
-13.045107 -25.493563 31.592518 42.640166 1.097831 0.736372 -0.000041 -0.008604 40753.800000 0 0 1
-13.062007 -24.831113 32.812618 43.172539 1.086539 0.707430 0.019487 -0.010991 -142968.000000 0 0 1
-14.092607 -25.184153 33.720982 44.384094 1.060626 0.707862 0.017040 -0.011977 -30478.100000 0 0 1
-13.982407 -24.557413 -33.911365 44.142439 1.053199 2.446862 0.021944 -0.020436 2710.380000 0 0 1
-13.946507 -23.174113 -33.821215 43.306110 1.029044 2.467030 0.032008 -0.028179 -578790.000000 0 0 1
-15.161307 -22.549913 -34.117951 43.616492 0.978873 2.469027 0.024323 -0.022457 -820696.000000 0 0 1
-15.160607 -20.983713 -33.914825 42.665860 0.945133 2.489629 0.019089 -0.022714 -34713.800000 0 0 1
-15.268707 -20.608713 -32.547395 41.438936 0.933154 2.474187 0.025951 -0.022250 -118983.000000 0 0 1
-15.862607 -19.365813 -32.450665 40.984176 0.884515 2.484523 0.021244 -0.019954 -297849.000000 0 0 1
-16.177207 -18.978813 -30.980495 39.770447 0.864921 2.463838 0.010047 -0.014783 309347.000000 0 0 1
-17.195407 -19.769113 -30.360015 40.102748 0.854912 2.429591 0.022470 -0.011554 245398.000000 0 0 1
-17.324807 -19.616113 -28.944255 39.021926 0.847345 2.406462 0.025718 -0.007653 175216.000000 0 0 1
-16.273607 -20.351213 -28.064955 38.296787 0.896276 2.393265 0.018731 -0.013305 -96891.400000 0 0 1
-14.958907 -19.895813 -28.095775 37.536447 0.926105 2.416583 0.009356 -0.015452 -241420.000000 0 0 1
-14.024807 -20.902513 -27.755845 37.469951 0.979825 2.404982 0.012858 -0.007810 989723.000000 0 0 1
-12.521207 -20.708413 -28.115545 37.095861 1.026969 2.430909 0.023888 -0.016446 544535.000000 0 0 1
-11.755207 -19.731813 -27.392655 35.747544 1.033508 2.443829 0.017582 -0.021667 1066770.000000 0 0 1
-10.331007 -19.907113 -27.441675 35.441055 1.092096 2.456390 0.019557 -0.030091 988731.000000 0 0 1
-9.825207 -20.939413 -26.426885 35.119424 1.132074 2.422625 0.018496 -0.018365 -784658.000000 0 0 1
-9.928207 -22.264113 -26.863985 36.275801 1.151333 2.404682 0.012041 -0.016054 156873.000000 0 0 1
-9.642507 -23.020113 -25.706805 35.829365 1.174127 2.370972 0.024831 -0.011260 -206348.000000 0 0 1
-9.534907 -24.522513 -25.965845 36.966109 1.199963 2.349592 0.022373 -0.011036 -390857.000000 0 0 1
-8.341807 -24.809513 -26.635905 37.343930 1.246437 2.364934 0.010236 -0.006958 -254177.000000 0 0 1
-8.434307 -25.997033 -27.439175 38.728434 1.257077 2.358170 0.012763 -0.011405 -34243.600000 0 0 1
-8.456707 -27.403253 -26.717445 39.195357 1.271466 2.320809 0.015271 -0.002936 14157.500000 0 0 1
-9.600307 -27.605303 -25.906375 39.055844 1.236109 2.296038 0.014563 -0.004622 68062.800000 0 0 1
-9.465907 -28.879433 -25.375665 39.592290 1.254058 2.266498 0.033708 0.000633 213721.000000 0 0 1
-10.470507 -29.141323 -24.187705 39.292408 1.225860 2.233921 0.032103 -0.007239 229732.000000 0 0 1
-10.278707 -28.172513 -23.186405 37.907146 1.220955 2.228958 0.023006 -0.015549 -98027.100000 0 0 1
-11.029507 -26.989883 -23.406205 37.389226 1.182852 2.247228 0.025367 -0.016620 -341583.000000 0 0 1
-10.962607 -25.903723 -22.262705 35.872129 1.170446 2.240320 0.023368 -0.016962 -4802.640000 0 0 1
-11.573807 -26.233983 -21.037205 35.563167 1.155305 2.203770 0.025199 -0.017061 91850.400000 0 0 1
-11.487607 -25.105313 -20.173005 34.193450 1.141659 2.201814 0.020499 -0.004713 -437725.000000 0 0 1
-11.968507 -25.429393 -18.747505 33.784140 1.130898 2.159063 0.039807 -0.005729 300080.000000 0 0 1
-13.337907 -25.810083 -18.710205 34.556214 1.093822 2.142948 0.051627 -0.008659 86253.500000 0 0 1
-13.713407 -26.280473 -17.451605 34.398827 1.089854 2.102882 0.057592 -0.008916 853467.000000 0 0 1
-15.241607 -26.657203 -17.354505 35.271687 1.051398 2.085209 0.053528 -0.009321 707321.000000 0 0 1
-16.113907 -25.539233 -17.258605 34.781746 1.007932 2.090010 0.054175 -0.006830 199853.000000 0 0 1
-17.406207 -25.791673 -16.730805 35.328548 0.977131 2.064145 0.056279 0.003846 732732.000000 0 0 1
-18.446807 -26.293393 -17.807205 36.724975 0.959014 2.077022 0.040641 0.005095 -517911.000000 0 0 1
-18.330507 -27.668393 -18.231705 37.867434 0.985679 2.073118 0.043767 -0.006773 96259.700000 0 0 1
-18.682307 -28.621933 -17.181205 38.254901 0.992506 2.036581 0.044897 -0.005562 344476.000000 0 0 1
-20.183907 -29.067873 -17.064105 39.287594 0.963858 2.020100 0.031406 -0.001737 709616.000000 0 0 1
-20.539107 -30.030863 -17.995905 40.590150 0.970935 2.030136 0.023365 -0.003490 -860037.000000 0 0 1
-21.851007 -30.445083 -17.815605 41.494161 0.948277 2.014572 0.015770 0.000478 -602467.000000 0 0 1
-22.350007 -31.410373 -18.913405 42.940089 0.952362 2.026908 0.010646 -0.004822 -39911.800000 0 0 1
-21.712007 -32.678923 -18.938605 43.565973 0.984362 2.020514 0.013481 -0.010515 23271.500000 0 0 1
-21.896907 -33.247853 -20.179405 44.632977 0.988402 2.039936 0.019129 -0.007892 57316.400000 0 0 1
-21.324607 34.438473 -20.275405 45.297233 -1.016372 2.034885 0.017618 -0.009708 85183.400000 0 0 1
-22.064407 33.511841 -19.532405 44.625065 -0.988534 2.023836 0.019790 -0.010511 1786.500000 0 0 1
-21.177107 32.454751 -19.301205 43.293386 -0.992657 2.032890 0.018292 -0.021439 -38935.700000 0 0 1
-21.816807 31.198311 -18.630705 42.384087 -0.960544 2.025914 0.026661 -0.019918 138128.000000 0 0 1
-22.297907 31.385501 -17.307505 42.211326 -0.953090 1.993273 0.016035 -0.016043 -207758.000000 0 0 1
-23.019107 30.252381 -16.852005 41.582159 -0.920354 1.988071 0.013479 -0.012115 -24997.200000 0 0 1
-22.247707 28.908741 -16.518505 40.044186 -0.914879 1.996001 0.016417 -0.018377 -190045.000000 0 0 1
-21.594507 28.488891 -17.670305 39.877053 -0.922196 2.029872 0.013713 -0.015653 -132640.000000 0 0 1
-21.107207 27.151221 -17.590305 38.627993 -0.909992 2.043592 0.016864 -0.007630 44932.500000 0 0 1
-20.438807 26.575701 -18.842605 38.458503 -0.915196 2.082825 0.019072 -0.013408 -1127360.000000 0 0 1
-20.331507 25.150491 -18.695305 37.355479 -0.890958 2.094938 0.018393 -0.007746 -460406.000000 0 0 1
-19.706607 24.425221 -19.687305 37.047696 -0.891914 2.131054 0.003200 0.008258 -639225.000000 0 0 1
-18.227407 24.791151 -19.816405 36.599583 -0.936810 2.142943 -0.002927 0.002093 -1575430.000000 0 0 1
-17.347707 24.238751 -18.865105 35.275376 -0.949610 2.135062 0.004580 0.000070 -234203.000000 0 0 1
-16.168707 24.974891 -18.721505 35.152056 -0.996252 2.132450 0.020047 -0.007791 -618409.000000 0 0 1
-16.239307 26.264911 -17.778405 35.631901 -1.017037 2.093179 0.007638 -0.007553 -319664.000000 0 0 1
-17.121307 27.250791 -18.278405 37.011415 -1.009837 2.087318 0.010566 -0.010084 -38360.700000 0 0 1
-16.928407 28.419841 -17.523605 37.434410 -1.033578 2.057953 0.014901 -0.016973 -326329.000000 0 0 1
-17.842407 29.597861 -17.877305 38.909933 -1.028300 2.048176 0.017743 -0.022832 -290788.000000 0 0 1
-17.608707 30.182191 -19.126505 39.835341 -1.042662 2.071610 0.004486 -0.025854 30875.800000 0 0 1
-17.960507 29.449871 -20.300705 40.024909 -1.023153 2.102731 0.010963 -0.021419 -173250.000000 0 0 1
-18.027507 30.248071 -21.567205 41.292628 -1.033332 2.120344 0.027939 -0.025683 183123.000000 0 0 1
-19.042607 31.233311 -21.612705 42.488229 -1.023283 2.104442 0.035723 -0.024542 9170.090000 0 0 1
-19.481207 31.327141 -22.954505 43.449010 -1.014456 2.127404 0.035250 -0.024374 97220.900000 0 0 1
-20.260307 32.558181 -23.430905 44.939098 -1.014155 2.119278 0.031424 -0.024009 -32645.100000 0 0 1
-19.422407 33.685599 -23.467905 45.416870 -1.047776 2.113814 0.024768 -0.019525 -7774.340000 0 0 1
-20.074607 -34.360527 -24.132105 46.540242 1.042050 2.115917 0.018494 -0.014495 690957.000000 0 0 1
-19.084007 -33.107113 -24.189805 45.226396 1.047886 2.135139 0.025102 -0.013728 765165.000000 0 0 1
-18.844807 -32.335893 -23.026205 43.942495 1.043133 2.122346 0.026975 -0.013071 336627.000000 0 0 1
-18.029607 -32.964213 -22.011705 43.545622 1.070302 2.100742 0.031440 -0.016517 47083.300000 0 0 1
-17.966007 -31.940513 -20.886705 42.180899 1.058420 2.088827 0.042591 -0.020013 -338099.000000 0 0 1
-17.065107 -30.922083 -21.251405 41.219113 1.066515 2.112471 0.040023 -0.014174 -10708.500000 0 0 1
-16.829907 -30.038823 -20.208905 39.924635 1.060101 2.101542 0.043577 -0.014754 -294956.000000 0 0 1
-15.591107 -29.151483 -20.366505 38.828934 1.079674 2.122946 0.052706 -0.018971 -87268.200000 0 0 1
-14.360407 -29.829733 -20.401005 38.887469 1.122129 2.123061 0.062658 -0.023632 98056.700000 0 0 1
-13.276407 -28.900283 -20.402205 37.785438 1.140164 2.141173 0.044915 -0.023435 -196062.000000 0 0 1
-11.876807 -29.509213 -20.533705 37.861395 1.188156 2.144015 0.044280 -0.020781 -302623.000000 0 0 1
-11.301407 -30.233613 -19.490705 37.705182 1.213076 2.114050 0.045686 -0.018489 136173.000000 0 0 1
-10.788907 -29.455533 -18.433205 36.384227 1.219694 2.102063 0.038242 -0.018133 -725667.000000 0 0 1
-10.263807 -30.253973 -17.241105 36.302952 1.243726 2.065673 0.031527 -0.011530 -303725.000000 0 0 1
-11.151007 -30.897473 -16.336505 36.686240 1.224441 2.032309 0.045042 -0.018951 -40823.200000 0 0 1
-11.632507 -32.149593 -16.809505 38.098176 1.223627 2.027749 0.051103 -0.016978 81596.000000 0 0 1
-12.648707 -32.734773 -15.779205 38.477766 1.202069 1.993345 0.051594 -0.019078 -144772.000000 0 0 1
-12.124007 -33.114403 -14.545405 38.146088 1.219829 1.962007 0.046964 -0.014396 -148138.000000 0 0 1
-13.177907 -33.512333 -13.704605 38.529857 1.196144 1.934446 0.048966 -0.005858 -359810.000000 0 0 1
-12.750307 -34.179691 -12.423705 38.537904 1.213747 1.899035 0.029920 -0.003091 -290937.000000 0 0 1
-12.103607 -33.305233 -11.539405 37.267864 1.222221 1.885605 0.025497 0.003416 32658.100000 0 0 1
-11.806407 -33.890473 -10.322405 37.343105 1.235575 1.850864 0.024116 -0.000074 -604653.000000 0 0 1
-10.724607 -33.172943 -9.493705 36.132974 1.258108 1.836661 0.013629 -0.001777 -386400.000000 0 0 1
-9.481707 -33.427793 -10.103005 36.185506 1.294409 1.853758 -0.002011 0.001707 -314418.000000 0 0 1
-8.435507 -32.814983 -9.350305 35.148387 1.319182 1.840062 -0.011192 -0.000115 -113490.000000 0 0 1
-7.039607 -33.220963 -9.801505 35.344843 1.361983 1.851790 -0.013113 0.002593 -466343.000000 0 0 1
-6.682607 -34.525643 -9.382305 36.396496 1.379606 1.831521 -0.023811 0.006087 1082560.000000 0 0 1
-5.412907 34.125702 -9.947205 35.955667 -1.413490 1.851105 -0.017738 0.001275 1030610.000000 0 0 1
-4.810907 32.947161 -9.191405 34.541890 -1.425802 1.840135 -0.018978 -0.002079 -221925.000000 0 0 1
-4.322407 33.425453 -7.926005 34.623196 -1.442195 1.801766 -0.020392 0.000425 42244.100000 0 0 1
-3.579007 32.416081 -7.286405 33.417111 -1.460833 1.790606 -0.009629 -0.001638 -455269.000000 0 0 1
-2.960707 32.872801 -6.008005 33.548218 -1.480973 1.750853 -0.008641 0.005961 -361382.000000 0 0 1
-2.009007 33.929175 -6.128705 34.536735 -1.511654 1.749196 -0.008394 0.010013 100306.000000 0 0 1
-1.545607 34.413608 -4.886905 34.793206 -1.525914 1.711718 -0.001068 0.005752 156813.000000 0 0 1
-0.511207 33.583260 -4.071705 33.833053 -1.555575 1.691436 0.009229 0.000605 -821811.000000 0 0 1
0.772793 33.694158 -4.577405 34.012441 1.547865 1.705786 0.021488 0.000410 -1342320.000000 0 0 1
1.681093 33.048971 -3.774705 33.306290 1.519973 1.684373 0.024859 -0.001149 755533.000000 0 0 1
3.199893 33.090131 -4.240805 33.513885 1.474394 1.697675 0.026757 -0.000526 1357600.000000 0 0 1
3.824793 34.279147 -3.771805 34.697485 1.459678 1.679717 0.025728 0.001840 96991.200000 0 0 1
5.214193 34.311147 -4.054405 34.941105 1.419982 1.687094 0.037147 0.000639 395297.000000 0 0 1
5.913593 -33.424053 -3.844505 34.160183 -1.395682 1.683579 0.044767 -0.002158 -201229.000000 0 0 1
5.501193 -32.305303 -4.665905 33.100852 -1.402127 1.712228 0.038200 -0.004597 -254050.000000 0 0 1
5.915993 -31.063523 -4.264505 31.908109 -1.382602 1.704847 0.032482 -0.005170 -182356.000000 0 0 1
5.449693 -29.946743 -5.167405 30.874077 -1.390787 1.738958 0.027594 -0.004200 -425807.000000 0 0 1
6.324993 -29.872723 -6.240705 31.166192 -1.362146 1.772399 0.039162 -0.002856 -254681.000000 0 0 1
6.232593 -28.645333 -7.016305 30.143471 -1.356557 1.805715 0.025824 0.000255 52417.400000 0 0 1
6.647093 -27.260363 -6.381905 28.775683 -1.331626 1.794437 0.036782 -0.006633 419554.000000 0 0 1
5.826293 -26.849293 -5.286905 27.978234 -1.357109 1.760904 0.042504 -0.011692 135264.000000 0 0 1
6.479093 -25.773463 -4.648205 26.978804 -1.324513 1.743951 0.036461 -0.015585 274087.000000 0 0 1
5.596993 -25.220053 -3.495105 26.069008 -1.352409 1.705273 0.028310 -0.014511 -84881.800000 0 0 1
4.450993 -24.587913 -3.988705 25.303884 -1.391712 1.729089 0.020171 -0.016314 -611951.000000 0 0 1
3.716093 -24.085113 -2.889505 24.540808 -1.417713 1.688813 0.013507 -0.009638 69209.000000 0 1 0
2.578893 -23.125613 -3.324605 23.505269 -1.459738 1.712713 0.012472 -0.013547 107472.000000 0 1 0
1.613893 -23.761613 -4.092605 24.165436 -1.502980 1.740974 0.005098 -0.009633 232842.000000 0 1 0
0.398293 -22.993613 -4.289905 23.393763 -1.553476 1.755218 -0.002369 -0.010166 1055550.000000 0 1 0
-14.711207 23.273287 18.704858 33.285691 -1.007103 0.974056 -0.011700 0.004128 -150955.000000 0 0 1
-15.185007 22.745987 19.944758 33.849043 -0.982154 0.940695 0.001334 -0.005879 395453.000000 0 0 1
-14.844107 23.690887 20.950358 34.935986 -1.011066 0.927697 -0.002413 -0.006835 -728323.000000 0 0 1
-14.706307 22.955487 22.318058 35.232450 -1.001026 0.884790 0.006479 -0.011695 -354256.000000 0 0 1
-13.688107 21.970987 22.353058 34.201575 -1.013631 0.858507 -0.000359 -0.013115 664854.000000 0 0 1
-12.307907 22.310187 22.296658 33.858086 -1.066670 0.851929 -0.012092 -0.014489 502426.000000 0 0 1
-11.701207 23.546287 23.060858 34.973548 -1.109596 0.850803 -0.001704 0.008753 -816171.000000 0 0 1
-11.774507 23.395487 24.430148 35.816476 -1.104527 0.820176 -0.016557 0.012269 -61992.400000 0 0 1
-11.594107 24.558487 25.179158 37.034208 -1.129715 0.823185 -0.002631 0.010721 -87433.900000 0 0 1
-11.123207 24.259287 26.619528 37.694005 -1.140885 0.786679 -0.010647 0.006415 164742.000000 0 0 1
-9.832107 23.682687 26.665048 36.994118 -1.177290 0.765853 -0.040218 0.012526 -246745.000000 0 0 1
-9.664407 23.038987 27.915708 37.463081 -1.173610 0.730033 -0.045087 0.017756 -128353.000000 0 0 1
-8.189907 22.608787 28.185978 37.049712 -1.223255 0.706311 -0.039762 0.002637 1256620.000000 0 0 1
-7.240907 23.655887 28.529608 37.762021 -1.273759 0.714363 -0.026158 0.004179 464383.000000 0 0 1
-6.992707 24.703687 27.645068 37.728237 -1.294949 0.748454 -0.026139 0.012648 -1049680.000000 0 0 1
-5.921407 25.690387 28.082128 38.518372 -1.344261 0.753852 -0.024244 0.003998 229496.000000 0 0 1
-4.605607 25.179887 28.019338 37.951569 -1.389888 0.740262 -0.018884 -0.000170 39612.100000 0 0 1
-3.560207 25.976887 28.541028 38.756470 -1.434592 0.743034 -0.011582 0.008295 798492.000000 0 0 1
-2.135607 25.376487 28.395738 38.142428 -1.486837 0.731062 0.005465 0.006507 503241.000000 0 0 1
-1.633707 25.466887 27.062038 37.196575 -1.506734 0.756065 0.005783 0.007760 -656089.000000 0 0 1
-0.295707 25.087687 26.964668 36.831682 -1.559010 0.749389 0.015777 0.010915 -264589.000000 0 0 1
0.163493 24.827187 25.516428 35.602023 1.564211 0.771719 0.009129 0.010819 1462.180000 0 0 1
-0.325607 23.585587 24.989728 34.363824 -1.556992 0.756547 0.009698 0.014490 176687.000000 0 0 1
0.191593 23.349687 23.686858 33.261266 1.562591 0.778247 0.008840 0.013676 196256.000000 0 0 1
-0.526607 22.169287 22.954758 31.916696 -1.547047 0.768134 0.003599 0.015502 123358.000000 0 0 1
-0.163607 20.950087 23.550858 31.521038 -1.562987 0.727037 0.000250 0.013642 -65643.100000 0 0 1
-0.366707 19.870087 22.662158 30.141802 -1.552343 0.719931 -0.002705 0.013016 -473880.000000 0 0 1
0.510893 18.630287 22.876858 29.507613 1.543381 0.683628 -0.000088 0.021201 -378768.000000 0 0 1
1.822393 18.964787 22.478258 29.466190 1.474997 0.703088 0.008989 0.012719 -313497.000000 0 0 1
2.593593 17.762387 22.340258 28.658615 1.425805 0.676881 -0.007014 0.015796 -17928.900000 0 0 1
3.934393 18.093387 21.648558 28.487017 1.356680 0.707568 -0.006807 0.010111 87828.600000 0 0 1
4.958793 18.435687 22.592858 29.578732 1.308037 0.701584 -0.008100 0.015307 322485.000000 0 0 1
6.092893 18.922587 21.838258 29.531291 1.259289 0.738476 0.015820 -0.001704 -207779.000000 0 0 1
7.150693 19.490487 22.735358 30.788114 1.219162 0.740034 0.014898 -0.009013 -997558.000000 0 0 1
6.764793 20.592587 23.549958 32.006524 1.253396 0.743969 -0.006918 -0.004693 72265.500000 0 0 1
6.501993 21.799887 22.808958 32.214275 1.280938 0.784079 0.000040 -0.004632 -533025.000000 0 0 1
5.548893 22.788087 23.449058 33.165425 1.331945 0.785502 -0.018903 0.002448 -378452.000000 0 0 1
5.511693 24.036687 22.731958 33.539275 1.345390 0.826069 -0.024155 0.000060 -301413.000000 0 0 1
4.422493 24.783687 23.145858 34.198250 1.394211 0.827370 -0.035316 0.009386 -903046.000000 0 0 1
4.323493 26.168387 22.469758 34.761575 1.407057 0.867944 -0.024643 0.007871 -98496.000000 0 0 1
4.061293 26.216287 21.078558 33.883527 1.417103 0.899389 -0.014139 0.003191 -731663.000000 0 0 1
2.897293 25.587087 20.663858 33.016486 1.458044 0.894556 0.001733 0.001665 -983071.000000 0 0 1
2.602193 25.871787 19.141858 32.288256 1.470553 0.936212 0.010870 -0.007250 -515347.000000 0 0 1
2.157993 27.218287 18.965458 33.244258 1.491677 0.963696 0.011031 -0.008661 238282.000000 0 0 1
1.791293 27.525387 17.656058 32.750451 1.505810 1.001418 0.016214 -0.008698 -365899.000000 0 0 1
0.542593 28.400087 17.763758 33.502395 1.551693 1.011932 0.015228 0.001619 -365291.000000 0 0 1
0.839393 29.652987 18.322658 34.867234 1.542497 1.017496 0.011471 0.002657 234740.000000 0 0 1
-0.337407 30.340087 18.688958 35.635823 -1.559676 1.018736 0.010234 0.005668 -134783.000000 0 0 1
-0.113907 31.780787 19.078358 37.067710 -1.567212 1.030151 0.009960 0.005880 39200.700000 0 0 1
0.560993 31.876487 20.340358 37.817394 1.553199 1.002903 -0.001786 0.006819 75792.800000 0 0 1
0.857293 33.198587 20.595858 39.077749 1.544979 1.015673 -0.010838 0.007089 -258693.000000 0 0 1
1.540693 33.304587 21.989958 39.939047 1.524569 0.987728 -0.009095 -0.001181 -28517.200000 0 0 1
0.625293 32.956187 22.996258 40.191157 1.551825 0.961644 -0.009917 -0.002340 226530.000000 0 0 1
1.224693 33.035087 24.262778 41.006088 1.533741 0.937646 -0.004934 -0.012513 33854.700000 0 0 1
0.148393 32.769387 25.356028 41.434079 1.566268 0.912259 -0.000782 0.001507 210347.000000 0 0 1
-0.930007 33.682887 25.304658 42.139382 -1.543193 0.926671 -0.002857 0.002319 1160660.000000 0 0 1
-2.005407 33.486587 26.298798 42.626282 -1.510981 0.905920 0.000621 -0.000095 1209540.000000 0 0 1
-1.696407 33.784887 27.777928 43.771105 -1.520626 0.883282 0.008215 -0.007919 -549296.000000 0 0 1
-0.777607 32.840087 28.294918 43.355258 -1.547122 0.859747 0.004470 -0.011570 26350.800000 0 0 1
-0.483807 33.129687 29.612688 44.437839 -1.556194 0.841447 0.017014 -0.008351 -182064.000000 0 0 1
0.698093 32.340987 30.220618 44.268640 1.549214 0.819394 0.007322 -0.006618 1859820.000000 0 0 1
2.077293 32.474687 29.734468 44.080143 1.506917 0.830435 -0.001505 -0.011619 1916420.000000 0 0 1
2.309693 31.833987 28.515548 42.800396 1.498369 0.841634 -0.011169 -0.010018 -753750.000000 0 0 1
3.807093 31.700487 28.192778 42.593985 1.451273 0.847451 -0.027918 -0.007165 -431681.000000 0 0 1
4.407393 30.771487 29.012818 42.521208 1.428534 0.819873 -0.028010 -0.002202 -418138.000000 0 0 1
5.787493 30.765887 28.702668 42.472085 1.384855 0.828746 -0.018748 -0.004764 353137.000000 0 0 1
6.520493 29.531787 29.390068 42.171310 1.353487 0.799701 -0.016912 -0.001327 178962.000000 0 0 1
6.540693 29.647787 30.786738 43.238815 1.353661 0.778431 -0.013682 -0.002634 129929.000000 0 0 1
7.174693 28.578087 31.454298 43.099375 1.324824 0.752754 -0.014556 -0.000838 -104349.000000 0 0 1
7.013893 28.810887 33.018003 44.378490 1.331996 0.731746 0.008837 -0.003876 246496.000000 0 0 1
5.771293 28.442787 33.641855 44.430556 1.370605 0.711814 0.000623 -0.005736 305188.000000 0 0 1
5.767793 28.533687 -33.987835 44.750549 1.371344 2.433333 0.020982 -0.006199 -202123.000000 0 0 1
5.895993 27.163287 -33.366015 43.426925 1.357054 2.447017 0.017513 -0.008986 -235891.000000 0 0 1
7.090093 26.507287 -33.706925 43.463346 1.309437 2.458343 0.003138 -0.005824 -338837.000000 0 0 1
7.065393 25.084387 -33.631515 42.546739 1.296244 2.482357 0.012458 -0.008120 296870.000000 0 0 1
8.476093 24.574287 -34.056345 42.843603 1.238657 2.489638 0.004025 -0.009910 125839.000000 0 0 1
8.724293 24.558487 33.568048 42.497605 1.229456 0.660181 -0.007986 -0.003097 -58594.200000 0 0 1
9.917793 23.884087 33.219771 42.099470 1.177216 0.661489 -0.003821 -0.014068 -349744.000000 0 0 1
10.175093 22.374187 33.573358 41.608979 1.143983 0.631949 0.004199 -0.021386 -768454.000000 0 0 1
9.444493 21.499787 32.701108 40.259182 1.156890 0.622772 0.005559 -0.019588 275850.000000 0 0 1
9.202493 20.189687 33.247627 39.971415 1.143128 0.588481 0.010063 -0.022410 143785.000000 0 0 1
7.899593 20.203387 34.076377 40.395295 1.198070 0.566894 0.022630 -0.023255 -350642.000000 0 0 1
8.034293 20.806687 -33.721565 40.430335 1.202295 2.557234 0.018989 -0.019247 -94908.300000 0 0 1
6.795393 20.775487 -33.047085 39.622065 1.254678 2.557219 0.027031 -0.015823 -300725.000000 0 0 1
6.920593 21.260887 -31.581575 38.695165 1.256105 2.525536 0.033477 -0.022813 -239415.000000 0 0 1
7.100593 22.679987 -31.400355 39.379976 1.267385 2.493719 0.039047 -0.020034 80750.700000 0 0 1
7.182593 22.989587 -29.980615 38.457093 1.267977 2.464801 0.020767 -0.017868 1100240.000000 0 0 1
8.682893 23.186487 -29.498255 38.511724 1.212481 2.443322 0.016973 -0.019870 1239040.000000 0 0 1
9.375793 21.961787 -29.430815 37.899848 1.167306 2.459955 0.012128 -0.019888 -1902930.000000 0 0 1
10.713393 22.180587 -29.330555 38.301915 1.120835 2.443038 0.031729 -0.017476 -942478.000000 0 0 1
11.541793 20.800687 -29.380595 37.803451 1.064218 2.460990 0.029730 -0.025568 206413.000000 0 0 1
11.539993 20.080187 -30.612115 38.386025 1.049191 2.493904 0.023547 -0.028566 287148.000000 0 0 1
10.254693 19.589287 -30.968175 38.051633 1.088538 2.521537 0.026645 -0.027655 -40080.400000 0 0 1
10.314993 18.580687 -32.195405 38.577002 1.064011 2.558157 0.033673 -0.028561 -323490.000000 0 0 1
10.773993 17.260087 -31.770165 37.727084 1.012762 2.571971 0.028148 -0.024933 376876.000000 0 0 1
10.831293 16.275487 -32.765375 38.154661 0.983604 2.603625 0.030252 -0.018985 -675913.000000 0 0 1
12.036193 16.405687 -33.695905 39.362806 0.937835 2.598344 0.020727 -0.008410 -588587.000000 0 0 1
12.011193 17.459587 34.419205 40.420138 0.968209 0.551888 0.029621 -0.016640 210727.000000 0 0 1
13.019793 17.098887 33.476250 39.781230 0.920013 0.570727 0.029385 -0.017620 179514.000000 0 0 1
12.586693 16.846987 32.027918 38.314923 0.929142 0.581003 0.036500 -0.023213 -361073.000000 0 0 1
12.446693 17.987087 31.213658 38.114930 0.965474 0.611243 0.029781 -0.022932 281672.000000 0 0 1
11.799693 17.772487 29.952158 36.772623 0.984691 0.618889 0.031063 -0.023664 -312400.000000 0 0 1
10.320993 18.159087 29.910408 36.481609 1.053963 0.609601 0.024116 -0.016086 -385228.000000 0 0 1
9.552793 17.215087 30.650108 36.428618 1.064193 0.570975 0.031513 -0.014097 -536546.000000 0 0 1
8.196093 17.527387 30.608658 36.211534 1.133390 0.563719 0.023713 -0.015214 -549022.000000 0 0 1
7.356593 16.694387 31.574318 36.465868 1.155734 0.523931 0.029639 -0.012762 41146.800000 0 0 1
7.662593 17.045787 32.934118 37.867272 1.148333 0.516151 0.044676 -0.009999 75524.400000 0 0 1
7.028393 16.068387 33.706468 37.996281 1.158466 0.479774 0.055018 -0.014459 -59187.900000 0 0 1
7.293293 16.289887 -33.832745 38.251891 1.149841 2.656159 0.056718 -0.023059 -193496.000000 0 0 1
6.343393 17.160487 -33.241835 37.943913 1.216723 2.638464 0.050222 -0.024523 27939.000000 0 0 1
6.185293 17.003487 -31.862665 36.641586 1.221911 2.625141 0.048921 -0.025718 -609914.000000 0 0 1
5.163193 17.981587 -31.330705 36.491219 1.291181 2.603294 0.041524 -0.023752 -892565.000000 0 0 1
5.237393 17.918487 -29.904475 35.253086 1.286428 2.583524 0.036333 -0.030816 398162.000000 0 0 1
4.520493 18.885487 -29.091205 34.977059 1.335853 2.552999 0.038176 -0.029129 1732720.000000 0 0 1
2.931893 18.934387 -29.189875 34.916412 1.417172 2.560736 0.050469 -0.026496 662172.000000 0 0 1
2.276193 17.824687 -28.562385 33.744783 1.443785 2.580029 0.055195 -0.022139 99478.700000 0 0 1
0.875593 17.761087 -28.668995 33.736244 1.521538 2.586398 0.058565 -0.019472 229204.000000 0 0 1
0.089193 18.914887 -27.931165 33.733231 1.566081 2.546330 0.054140 -0.022921 -812025.000000 0 0 1
0.074993 18.863587 -26.547395 32.566927 1.566821 2.523809 0.057497 -0.029449 72138.300000 0 0 1
-0.497807 20.032487 -26.042745 32.859898 -1.545951 2.485757 0.066729 -0.024283 -118046.000000 0 0 1
-0.963307 20.096987 -24.581405 31.765741 -1.522900 2.455668 0.050880 -0.033846 -503216.000000 0 0 1
-2.197107 19.482887 -24.352105 31.263960 -1.458500 2.463737 0.047623 -0.018293 -476954.000000 0 0 1
-2.630207 19.854287 -23.068205 30.549186 -1.439088 2.426629 0.054405 -0.022396 369526.000000 0 0 1
-3.880707 19.093487 -22.558205 29.807612 -1.370280 2.429190 0.053809 -0.017780 -18631.200000 0 0 1
-5.155007 19.613887 -22.767705 30.490114 -1.313785 2.413920 0.049595 -0.014771 66382.200000 0 0 1
-6.178807 18.643787 -22.406905 29.796608 -1.250774 2.421880 0.046059 -0.011069 1634590.000000 0 0 1
-7.599307 19.344487 -22.358505 30.526405 -1.196477 2.392683 0.051031 -0.009165 719518.000000 0 0 1
-7.885307 20.240987 -21.293105 30.418283 -1.199312 2.346208 0.040879 -0.011551 152585.000000 0 0 1
-7.389407 21.537887 -21.544005 31.346899 -1.240292 2.328530 0.030946 -0.006490 -113786.000000 0 0 1
-7.637007 22.587687 -20.435705 31.402954 -1.244758 2.279378 0.040730 -0.014394 -130775.000000 0 0 1
-6.767807 22.382287 -19.357505 30.355938 -1.277164 2.262285 0.056281 -0.011303 20549.000000 0 0 1
-7.157807 23.179687 -18.286505 30.379736 -1.271289 2.216713 0.061354 -0.008217 -595054.000000 0 0 1
-6.191907 23.274187 -17.115905 29.546264 -1.310777 2.188656 0.073706 -0.015502 -92509.800000 0 0 1
-5.053707 24.048587 -17.487305 30.160907 -1.363665 2.189280 0.071795 -0.018037 -757893.000000 0 0 1
-4.093907 23.880887 -16.516305 29.323117 -1.401016 2.169113 0.067291 -0.013168 -988517.000000 0 0 1
-2.706207 24.402387 -16.853905 29.780097 -1.460348 2.172376 0.056547 -0.012556 -456555.000000 0 0 1
-2.642807 25.798587 -16.848205 30.925936 -1.468712 2.146937 0.042733 -0.013714 -513878.000000 0 0 1
-1.494207 26.321787 -17.451805 31.616999 -1.514090 2.155528 0.041381 -0.012898 -179821.000000 0 0 1
-1.371907 27.828687 -17.204205 32.746032 -1.521538 2.123961 0.042592 -0.027960 9795.970000 0 0 1
-2.409207 28.629387 -17.754205 33.773627 -1.486843 2.124314 0.033016 -0.026865 107629.000000 0 0 1
-2.111007 29.175387 -19.040305 34.902618 -1.498566 2.147814 0.035917 -0.026175 -418487.000000 0 0 1
-3.440207 29.526687 -19.715805 35.670341 -1.454807 2.156424 0.043165 -0.025214 95282.500000 0 0 1
-4.080407 30.683587 -19.239705 36.445829 -1.438589 2.126921 0.031269 -0.013808 -103727.000000 0 0 1
-5.000007 30.523387 -18.175605 35.875198 -1.408429 2.102073 0.020984 -0.012072 -126235.000000 0 0 1
-5.274807 31.862287 -17.525005 36.744452 -1.406734 2.067970 0.034312 -0.003390 -11373.000000 0 0 1
-5.998907 32.729787 -18.373505 38.010676 -1.389522 2.075305 0.044031 -0.009279 104828.000000 0 0 1
-6.263107 33.930687 -17.683505 38.771438 -1.388266 2.044400 0.039263 -0.020152 -138085.000000 0 0 1
-7.066807 -34.093877 -18.414005 39.387914 1.366415 2.057261 0.031126 -0.006224 714609.000000 0 0 1
-8.420707 -34.432477 -18.758605 40.104726 1.330947 2.057529 0.041973 -0.015482 991107.000000 0 0 1
-9.136707 -33.389677 -19.430905 39.697733 1.303696 2.082280 0.056565 -0.024579 222207.000000 0 0 1
27.113293 -20.666313 -27.185195 43.603463 -0.651277 2.243962 0.016372 0.011639 149204.000000 0 0 1
27.204393 -21.890313 -26.448535 43.803993 -0.677577 2.219047 0.027659 0.003769 637740.000000 0 0 1
25.914293 -22.394313 -26.024185 43.015277 -0.712662 2.220561 -0.003726 0.002917 625376.000000 0 0 1
25.776793 -23.836813 -25.378825 43.321143 -0.746316 2.196700 0.007121 0.010275 -91338.100000 0 0 1
26.103193 -24.961913 -26.102625 44.562549 -0.763052 2.196605 0.024581 0.023173 413519.000000 0 0 1
27.508193 -25.249363 -26.185505 45.606049 -0.742609 2.182383 0.019340 0.025959 823353.000000 0 0 1
27.905893 -26.531603 -27.012665 47.035613 -0.760158 2.182548 0.026816 0.013252 779.201000 0 0 1
27.660193 -27.729843 -26.285015 47.169190 -0.786656 2.161866 0.030388 -0.000539 -388213.000000 0 0 1
27.743193 -28.934913 -26.998225 48.330302 -0.806421 2.163516 0.025062 0.007648 -136824.000000 0 0 1
26.602693 -29.316783 -27.935515 48.451729 -0.833896 2.185313 0.038052 0.000952 -774731.000000 0 0 1
26.494993 -28.640593 -29.230985 48.751602 -0.824294 2.213785 0.011726 0.003031 -326960.000000 0 0 1
27.455593 -28.796773 -30.256445 49.985159 -0.809236 2.220950 0.009957 0.000621 -434911.000000 0 0 1
27.598493 -30.236313 -30.886655 51.282520 -0.830976 2.217156 0.021733 0.001660 100501.000000 0 0 1
28.194793 -31.290213 -30.052045 51.741175 -0.837388 2.190526 0.028139 -0.007788 1521800.000000 0 0 1
29.536993 -31.128433 -29.508615 52.078514 -0.811625 2.173192 0.023780 -0.008626 2556990.000000 0 0 1
30.812593 -30.769003 -30.399575 53.106323 -0.784690 2.180261 0.014448 -0.005372 806207.000000 0 0 1
30.743193 -29.434843 -30.840475 52.561286 -0.763660 2.197839 0.025448 -0.009998 -396964.000000 0 0 1
31.861993 -29.004313 -31.584515 53.423013 -0.738483 2.203361 0.016215 -0.010326 -349464.000000 0 0 1
31.712593 -27.584013 -32.194005 52.943557 -0.715884 2.224438 0.011048 -0.007493 -82536.800000 0 0 1
31.624293 -26.427903 -31.324635 51.766424 -0.696124 2.220707 0.012792 -0.000703 -636068.000000 0 0 1
30.586093 -26.386873 -30.411165 50.562981 -0.711826 2.216113 0.020512 0.005981 -651770.000000 0 0 1
30.622293 -25.010503 -29.703705 49.452605 -0.684866 2.215110 0.025463 0.003665 451288.000000 0 0 1
31.642093 -24.843513 -28.707535 49.422108 -0.665615 2.190586 0.030741 0.004404 577740.000000 0 0 1
31.515793 -23.512713 -28.138605 48.351566 -0.640976 2.191931 0.023080 0.009366 -15796.600000 0 0 1
32.179093 -23.422413 -26.730095 47.943732 -0.629191 2.162204 0.023708 0.005322 -489688.000000 0 0 1
31.517493 -24.080113 -25.649055 47.234291 -0.652416 2.144823 0.025539 0.002553 329576.000000 0 0 1
30.531393 -23.316613 -24.951905 45.808601 -0.652207 2.146827 0.016545 0.003200 80216.600000 0 0 1
31.019593 -22.176313 -24.043405 45.078701 -0.620665 2.133370 0.015163 0.005418 -11970.500000 0 0 1
31.709993 -21.047713 -24.667005 45.354063 -0.585985 2.145846 0.021422 0.007615 534604.000000 0 0 1
31.585193 -19.962713 -23.792405 44.296872 -0.563637 2.137807 0.001487 0.006330 -101174.000000 0 0 1
31.964393 -18.675613 -24.477405 44.380675 -0.528768 2.154997 0.001275 0.013130 44214.700000 0 0 1
30.932393 -18.262213 -25.345525 43.962677 -0.533324 2.185264 0.006932 0.014754 301022.000000 0 0 1
31.251293 -17.046913 -25.984905 44.073301 -0.499365 2.201340 -0.001670 0.009718 105385.000000 0 0 1
30.394393 -16.903113 -27.267525 44.193351 -0.507534 2.235728 -0.008898 0.026889 472868.000000 0 0 1
28.999293 -16.770613 -27.059605 43.063147 -0.524319 2.250253 -0.004467 0.030764 35531.900000 0 0 1
28.267693 -16.762013 -28.254755 43.340036 -0.535237 2.280926 0.002334 0.016711 -264519.000000 0 0 1
26.817593 -16.269413 -28.088535 42.105141 -0.545309 2.301112 -0.011169 0.023655 85701.200000 0 0 1
25.972393 -17.166713 -27.400265 41.473314 -0.584041 2.292510 -0.013273 0.029237 -78665.700000 0 0 1
25.957293 -16.920313 -25.960765 40.423253 -0.577676 2.268192 -0.018754 0.028591 -458125.000000 0 0 1
25.272793 -17.948113 -25.106855 39.889886 -0.617522 2.251582 -0.014907 0.017563 -273064.000000 0 0 1
24.875393 -17.563613 -23.777705 38.634763 -0.614784 2.233751 -0.021810 0.028067 187700.000000 0 0 1
24.373293 -18.632313 -22.971205 38.326189 -0.652689 2.213498 -0.015152 0.014597 -133588.000000 0 0 1
24.305093 -18.185613 -21.425405 37.155108 -0.642362 2.185416 -0.020671 0.016598 43679.000000 0 0 1
23.478293 -17.099513 -21.007405 35.845985 -0.629475 2.196967 -0.019990 0.012919 53239.300000 0 0 1
23.699493 -15.837113 -21.534605 35.724212 -0.589096 2.217804 -0.015965 0.016110 150657.000000 0 0 1
24.999193 -15.142713 -21.008805 35.994878 -0.544621 2.194026 -0.008400 0.008481 285878.000000 0 0 1
24.939893 -14.579413 -19.732605 34.984757 -0.529006 2.170060 -0.005552 0.002221 -193757.000000 0 0 1
25.935593 -13.608313 -19.566705 35.223530 -0.483209 2.159762 -0.016661 0.011451 -443980.000000 0 0 1
25.863693 -12.755513 -18.282805 34.145200 -0.458179 2.135828 -0.010972 0.005595 -505884.000000 0 0 1
26.106893 -13.456613 -17.101705 33.987036 -0.475925 2.098075 -0.004273 0.005439 158715.000000 0 0 1
26.276693 -12.510113 -16.060105 33.239953 -0.444339 2.075053 -0.013641 0.005365 1537.100000 0 0 1
26.855593 -13.110413 -14.729605 33.317669 -0.454148 2.028730 0.006211 -0.007849 29139.400000 0 0 1
25.999393 -14.088613 -14.136205 32.776359 -0.496590 2.016721 0.034686 -0.015152 581280.000000 0 0 1
26.442693 -14.423313 -12.803705 32.728929 -0.499347 1.972736 0.047838 -0.023683 587566.000000 0 0 1
25.597893 -15.658813 -12.249805 32.411545 -0.548995 1.958373 0.056571 -0.038110 76313.200000 0 0 1
24.271593 -15.409013 -11.886205 31.109962 -0.565657 1.962832 0.041762 -0.032259 -161165.000000 0 0 1
23.750793 -16.628813 -11.323805 31.126293 -0.610818 1.943143 0.017727 -0.033023 119827.000000 0 0 1
22.321393 -16.527713 -10.736705 29.777285 -0.637356 1.939672 0.021230 -0.029172 -243884.000000 0 0 1
22.233393 -15.921013 -9.468005 28.938651 -0.621440 1.904109 -0.000522 -0.029516 1442320.000000 0 0 1
20.838593 -15.912113 -9.093105 27.751159 -0.652141 1.904628 -0.018118 -0.019158 648513.000000 0 0 1
20.635093 -15.494813 -7.622705 26.907284 -0.644074 1.858025 -0.011854 -0.012905 -452070.000000 0 0 1
21.215693 -14.191513 -7.321705 26.553946 -0.589558 1.850145 0.002991 -0.011497 716635.000000 0 0 1
21.144193 -13.686213 -5.997705 25.891346 -0.574461 1.804569 -0.008938 -0.005766 -639656.000000 0 0 1
21.936393 -14.476813 -4.902505 26.736080 -0.583335 1.755206 0.003468 -0.007050 -275324.000000 0 0 1
23.325393 -14.270813 -4.917105 27.783232 -0.549061 1.748715 0.030131 -0.010347 -228489.000000 0 0 1
23.971093 -15.181913 -4.081705 28.666428 -0.564576 1.713668 0.025696 -0.007487 309420.000000 0 0 1
25.510793 -15.191313 -4.375705 30.012053 -0.537094 1.717116 0.053059 -0.013208 581104.000000 0 0 1
26.114893 -14.033213 -3.761905 29.884287 -0.493090 1.697014 0.048057 -0.012390 418518.000000 0 0 1
27.432193 -13.736313 -4.192505 30.964312 -0.464237 1.706611 0.056254 -0.028667 308752.000000 0 0 1
28.079993 -12.498813 -3.461805 30.930412 -0.418784 1.682954 0.058852 -0.025645 -528178.000000 0 0 1
28.508093 -12.732813 -2.110705 31.293625 -0.420055 1.638296 0.057991 -0.031276 398586.000000 0 0 1
28.972293 -11.528813 -1.477205 31.216813 -0.378717 1.618135 0.057035 -0.030697 -581023.000000 0 0 1
30.363293 -10.976813 -1.765005 32.334737 -0.346897 1.625409 0.055227 -0.024387 -972566.000000 0 0 1
30.564893 -10.590613 -3.070105 32.493065 -0.333550 1.665422 0.060274 -0.019010 509772.000000 0 0 1
31.773993 -11.127813 -3.625405 33.860868 -0.336869 1.678070 0.067600 -0.024321 358462.000000 0 0 1
31.985693 -10.853713 -5.117905 34.162561 -0.327138 1.721173 0.072761 -0.026762 -867761.000000 0 0 1
31.021593 -11.503313 -5.840605 33.597293 -0.355098 1.745526 0.061657 -0.037980 -385767.000000 0 0 1
31.286793 -11.680613 -7.211705 34.165901 -0.357315 1.783475 0.059997 -0.029329 708473.000000 0 0 1
29.981493 -12.124713 -7.994805 33.313893 -0.384299 1.813146 0.091160 -0.033124 1108890.000000 0 0 1
29.534893 -13.497013 -7.699405 33.373044 -0.428648 1.803601 0.081746 -0.034083 154307.000000 0 0 1
28.225393 -13.690013 -8.171005 32.416887 -0.451596 1.825605 0.074937 -0.034820 -30038.700000 0 0 1
27.871093 -15.199813 -8.413205 32.842262 -0.499275 1.829854 0.077503 -0.039018 -321474.000000 0 0 1
28.551593 -15.781213 -9.468305 33.968941 -0.504934 1.853272 0.086495 -0.041291 70842.700000 0 0 1
28.411893 -17.190213 -9.561305 34.556586 -0.544114 1.851140 0.078644 -0.041892 -397331.000000 0 0 1
28.759093 -17.757213 -10.921005 35.520028 -0.553149 1.883319 0.076140 -0.039089 -674960.000000 0 0 1
30.098393 -17.547413 -11.261405 36.614808 -0.527827 1.883428 0.081868 -0.034097 -323692.000000 0 0 1
30.476493 -18.160913 -12.485005 37.609982 -0.537399 1.909177 0.067852 -0.023838 -126017.000000 0 0 1
29.930093 -17.609613 -13.849005 37.385878 -0.531815 1.950273 0.057054 -0.023884 -279723.000000 0 0 1
30.242593 -16.287313 -14.168905 37.157083 -0.494014 1.962025 0.052693 -0.021664 155902.000000 0 0 1
29.642593 -15.869013 -15.372905 36.970733 -0.491522 1.999633 0.047582 -0.023586 -860020.000000 0 0 1
30.135893 -14.460913 -15.861205 36.998214 -0.447404 2.013852 0.033001 -0.008188 1399620.000000 0 0 1
31.405293 -14.423913 -16.569505 38.326103 -0.430547 2.017871 0.016419 -0.009918 1654940.000000 0 0 1
32.583593 -14.843313 -15.910405 39.181060 -0.427456 1.988950 0.033660 -0.019776 -446072.000000 0 0 1
33.711293 -15.269013 -16.870105 40.671789 -0.425292 1.998504 0.037196 -0.013413 -182094.000000 0 0 1
34.970693 -15.518313 -16.278705 41.578403 -0.417646 1.973077 0.037388 -0.019641 22156.800000 0 0 1
-34.741451 -16.089813 -17.301205 42.014071 0.433719 1.995220 0.042294 -0.019021 -701510.000000 0 0 1
-33.270151 -16.291613 -16.949305 40.738170 0.455355 1.999899 0.032207 -0.019020 -524138.000000 0 0 1
-32.845551 -17.240813 -15.938605 40.374682 0.483373 1.976611 0.031020 -0.024612 205982.000000 0 0 1
-32.994051 -16.775613 -14.598305 39.788680 0.470380 1.946466 0.033423 -0.031635 -464889.000000 0 0 1
-32.343851 -17.683613 -13.508205 39.259476 0.500335 1.922050 0.031463 -0.030444 836467.000000 0 0 1
-30.916151 -17.488913 -13.412605 37.967992 0.514808 1.931851 -0.002771 -0.025586 1020350.000000 0 0 1
-30.415351 -18.020913 -12.163805 37.387231 0.534882 1.902174 -0.007635 -0.017020 198886.000000 0 0 1
-28.888851 -17.917713 -11.938405 36.029650 0.555161 1.908530 0.017918 -0.020506 44433.000000 0 0 1
-28.473751 -16.570713 -11.907105 35.030304 0.527053 1.917616 0.021626 -0.026822 -327728.000000 0 0 1
-27.310451 -16.333613 -11.161705 33.722860 0.539001 1.908142 0.005747 -0.014746 -383365.000000 0 0 1
-27.402251 -16.203613 -9.601405 33.250976 0.534016 1.863723 0.016719 -0.013853 -84619.000000 0 0 1
-27.977151 -17.356213 -9.006405 34.133187 0.555264 1.837819 0.019131 -0.016129 -75806.100000 0 0 1
-28.211951 -17.170113 -7.621605 33.894186 0.546727 1.797600 0.026513 -0.011683 47827.600000 0 0 1
-28.748151 -18.489913 -6.936105 34.877537 0.571558 1.771001 0.022952 -0.012246 993546.000000 0 0 1
-29.963551 -19.092913 -7.427005 36.297577 0.567328 1.776866 0.021738 -0.011695 611737.000000 0 0 1
-29.862951 -19.771013 -8.675305 36.850369 0.584805 1.808447 0.014528 -0.008137 -847646.000000 0 0 1
-31.161851 -20.398913 -9.118805 38.344872 0.579610 1.810907 0.015122 -0.008336 -728987.000000 0 0 1
-32.144351 -19.571913 -9.677905 38.858473 0.546920 1.822501 0.022825 -0.007113 617168.000000 0 0 1
-33.354651 -20.355413 -9.809805 40.287813 0.547938 1.816762 0.023890 -0.014094 754145.000000 0 0 1
-34.573051 -19.598013 -10.386805 41.076315 0.515694 1.826438 0.036569 -0.027724 -49858.900000 0 0 1
-34.607651 -19.202513 -11.759805 41.288243 0.506569 1.859617 0.026147 -0.028882 -286806.000000 0 0 1
34.582293 -18.986413 -12.213105 41.298653 -0.502091 1.871012 0.045835 -0.030782 -228639.000000 0 0 1
34.430693 -18.768813 -13.750005 41.554826 -0.499088 1.908041 0.046976 -0.032738 -266478.000000 0 0 1
34.592793 -19.965813 -14.513605 42.496350 -0.523461 1.919336 0.036422 -0.027921 339308.000000 0 0 1
33.952093 -19.856213 -15.810505 42.390870 -0.529191 1.953004 0.038056 -0.023427 547701.000000 0 0 1
32.620793 -20.637513 -15.872905 41.736940 -0.564081 1.960926 0.043161 -0.024128 -273880.000000 0 0 1
31.545993 -20.165313 -15.090905 40.367374 -0.568771 1.953941 0.048698 -0.023489 837028.000000 0 0 1
30.437793 -21.118313 -15.002805 39.969070 -0.606565 1.955582 0.046463 -0.020349 1535150.000000 0 0 1
29.421093 -20.963013 -16.192205 39.588333 -0.619077 1.992170 0.028405 -0.020343 -376738.000000 0 0 1
28.607393 -19.831013 -16.104405 38.353668 -0.606156 2.004123 0.023712 -0.012642 160429.000000 0 0 1
27.610493 -19.750413 -17.095805 38.009008 -0.620936 2.037319 0.011095 -0.011495 -211276.000000 0 0 1
26.867093 -18.438013 -17.133105 36.815001 -0.601450 2.054865 0.012639 -0.016593 -283028.000000 0 0 1
25.798293 -18.243413 -16.230005 35.521642 -0.615512 2.045309 0.019260 -0.012489 106231.000000 0 0 1
25.319893 -16.939013 -16.334705 34.566598 -0.589616 2.062987 0.007171 -0.000255 -973682.000000 0 0 1
23.929793 -16.716313 -15.717005 33.152592 -0.609757 2.064716 0.001612 -0.000295 -171005.000000 0 0 1
22.832693 -17.124513 -16.494205 32.964217 -0.643501 2.094819 -0.003982 -0.001594 154798.000000 0 0 1
22.507693 -16.289213 -17.585005 32.881105 -0.626467 2.135074 -0.003323 0.002324 -1119040.000000 0 0 1
21.429093 -16.861013 -18.489805 32.944994 -0.666658 2.166671 0.006883 0.002801 319087.000000 0 0 1
20.145893 -16.966513 -17.875405 31.831583 -0.699938 2.167069 0.009948 0.004112 319201.000000 0 0 1
19.194193 -17.627813 -18.677505 32.062533 -0.742885 2.192639 0.008245 -0.001571 1285250.000000 0 0 1
17.725793 -17.765713 -18.110705 30.948698 -0.786523 2.195904 0.016630 0.000741 1208580.000000 0 0 1
16.983993 -16.562013 -18.014705 29.787344 -0.772820 2.220282 0.014805 0.001428 -804138.000000 0 0 1
15.645593 -16.870013 -17.893705 29.147326 -0.823037 2.231795 0.016521 0.002546 -403775.000000 0 0 1
14.620993 -15.683513 -17.729705 27.822445 -0.820445 2.261714 0.022548 0.006234 260189.000000 0 0 1
14.214293 -15.030413 -18.911105 28.028366 -0.813298 2.311372 0.023715 0.006868 219009.000000 0 0 1
13.149093 -14.150013 -18.604305 26.818681 -0.822047 2.337419 0.032944 0.004618 160911.000000 0 0 1
12.464693 -13.536313 -19.854605 27.070384 -0.826589 2.394171 0.043063 0.002223 -278324.000000 0 0 1
13.015493 -12.394913 -20.379005 27.172426 -0.760981 2.418841 0.047910 -0.000305 -151589.000000 0 0 1
12.161593 -11.822213 -21.356005 27.271744 -0.771249 2.470402 0.051059 -0.002160 -74893.000000 0 0 1
12.629593 -10.359013 -21.762105 27.210384 -0.686948 2.497712 0.044265 0.000330 -300013.000000 0 0 1
13.830993 -10.385713 -22.478605 28.362776 -0.644078 2.485758 0.037455 -0.001929 -382863.000000 0 0 1
14.346793 -9.105913 -22.724805 28.375427 -0.565544 2.499530 0.050747 -0.004808 646145.000000 0 0 1
15.583793 -8.996013 -23.665905 29.729748 -0.523537 2.491511 0.034201 -0.006811 790662.000000 0 0 1
15.122793 -9.436213 -24.934205 30.650539 -0.557860 2.520941 0.030489 -0.008315 -110099.000000 0 0 1
16.268893 -9.597913 -25.680685 31.879372 -0.533001 2.507413 0.037782 -0.016944 -715153.000000 0 0 1
21.968593 4.772887 -6.747705 23.471920 0.213935 1.862391 0.029669 0.022961 -99176.900000 0 1 0
21.899293 6.189087 -6.916205 23.784821 0.275433 1.865841 0.014671 0.024066 821992.000000 0 1 0
21.198293 6.804387 -5.832605 23.014921 0.310598 1.827018 0.011658 0.012119 -218468.000000 0 1 0
21.052293 8.376287 -5.879005 23.407775 0.378677 1.824671 0.012888 0.009936 -481868.000000 0 1 0
20.171793 8.725987 -6.911105 23.039259 0.408276 1.875458 0.014082 0.008642 269091.000000 0 1 0
20.055093 10.106187 -7.192205 23.581127 0.466780 1.880733 0.033269 0.011841 -80378.200000 0 1 0
19.576193 11.180287 -6.214805 23.384823 0.518911 1.839791 0.045463 0.010382 459872.000000 0 1 0
20.559793 11.334087 -5.155005 24.036237 0.503821 1.786944 0.044420 0.010782 896123.000000 0 1 0
20.221893 12.399687 -4.304705 24.108249 0.550055 1.750316 0.064026 0.011590 -30012.300000 0 1 0
21.259993 12.674687 -3.212305 24.959044 0.537603 1.699857 0.053353 -0.004292 -722398.000000 0 1 0
22.526693 13.098087 -3.613005 26.307139 0.526666 1.708571 0.060472 -0.015721 18000.200000 0 0 1
23.362393 13.504487 -2.547505 27.104655 0.524119 1.664923 0.069391 -0.019124 50604.000000 0 0 1
24.237593 12.417487 -1.844005 27.295700 0.473458 1.638404 0.052943 -0.014803 -959886.000000 0 0 1
25.338393 12.080187 -2.631205 28.193764 0.444879 1.664258 0.032423 -0.018011 -584618.000000 0 0 1
26.045893 11.124187 -1.900205 28.385680 0.403648 1.637789 0.051384 -0.018427 -850824.000000 0 0 1
27.461793 10.887187 -2.437105 29.641531 0.377441 1.653109 0.026737 -0.013177 -626064.000000 0 0 1
28.266993 11.991587 -2.091005 30.776506 0.401215 1.638790 0.022325 -0.021023 -420494.000000 0 0 1
29.600293 11.561987 -2.052805 31.844480 0.372380 1.635305 0.023270 -0.017311 -146645.000000 0 0 1
30.629493 12.670687 -1.669005 33.188819 0.392240 1.621106 0.005709 -0.013029 -463960.000000 0 0 1
30.437893 13.149187 -0.352605 33.158570 0.407785 1.581430 0.014121 -0.010976 731704.000000 0 0 1
31.265993 14.290287 -0.099905 34.377094 0.428706 1.573702 -0.005324 -0.009335 1486550.000000 0 0 1
32.852493 14.187887 -0.053605 35.785266 0.407672 1.572294 -0.007348 -0.018486 971474.000000 0 0 1
33.534993 15.415787 0.010495 36.908567 0.430885 1.570512 -0.007602 -0.004693 -154467.000000 0 0 1
34.172593 15.647087 -1.244805 37.605145 0.429391 1.603904 -0.000520 -0.016030 -561246.000000 0 0 1
33.478393 16.468587 -2.315805 37.381547 0.457160 1.632787 -0.015342 -0.007301 412471.000000 0 0 1
32.299293 15.851287 -2.869205 36.093489 0.456230 1.650374 -0.013507 -0.010791 345151.000000 0 0 1
31.778693 16.630887 -3.879005 36.076563 0.482140 1.678526 -0.012255 -0.001926 61047.300000 0 0 1
30.404293 16.121187 -4.413705 34.695741 0.487536 1.698354 -0.012867 -0.008015 -481183.000000 0 0 1
30.467993 14.879687 -5.123905 34.292245 0.454301 1.720777 -0.002398 -0.008180 439882.000000 0 0 1
29.314893 14.641587 -5.912305 33.297062 0.463215 1.749305 0.001007 -0.020369 -339192.000000 0 0 1
28.009093 14.277387 -5.191405 31.863831 0.471410 1.734451 -0.000471 -0.020240 -811456.000000 0 0 1
27.005593 13.962487 -6.136105 31.014591 0.477172 1.769956 0.004548 -0.016442 487420.000000 0 0 1
25.810693 13.569387 -5.455905 29.666261 0.484017 1.755759 0.017567 -0.010996 141580.000000 0 0 1
24.659793 13.188087 -6.398105 28.687397 0.491099 1.795716 0.017963 -0.007105 -260117.000000 0 0 1
25.038493 12.123687 -7.264305 28.752044 0.450929 1.826218 0.013006 0.000353 1730860.000000 0 0 1
23.892793 11.689787 -8.079005 27.799046 0.455019 1.865673 0.022384 0.003740 1281030.000000 0 0 1
23.331193 12.582687 -9.215805 28.064205 0.494597 1.905387 0.023574 0.005979 -36758.900000 0 0 1
22.704093 13.774787 -8.761505 27.963987 0.545338 1.889477 0.023958 -0.007385 382215.000000 0 0 1
22.692093 14.825987 -9.737205 28.801981 0.578730 1.915666 0.016862 -0.005533 -846656.000000 0 0 1
22.316193 16.139387 -9.062305 28.993407 0.626137 1.888688 0.019424 -0.017001 -815546.000000 0 0 1
20.942693 16.276387 -8.958805 27.996024 0.660675 1.896529 0.024840 -0.008284 -490997.000000 0 0 1
20.457593 15.759787 -7.662605 26.936954 0.656407 1.859244 0.027843 -0.015776 167198.000000 0 0 1
19.100393 15.002087 -7.789405 25.506126 0.665796 1.881148 0.041475 -0.005882 357503.000000 0 0 1
17.946793 15.813087 -7.975305 25.214015 0.722280 1.892628 0.036629 -0.014406 520436.000000 0 0 1
16.727293 15.103587 -7.862305 23.869154 0.734432 1.906456 0.045071 -0.017486 101678.000000 0 1 0
16.110293 15.253387 -6.428905 23.098445 0.758083 1.852847 0.054429 -0.008703 -547845.000000 0 1 0
16.827993 14.705587 -5.352605 22.980122 0.718193 1.805879 0.073399 0.000301 343374.000000 0 1 0
16.332793 15.256487 -4.134005 22.729068 0.751339 1.753696 0.072981 0.009256 -228844.000000 0 1 0
15.885293 14.133487 -3.187905 21.500249 0.727107 1.719618 0.053069 0.022346 -129240.000000 0 1 0
16.956093 13.330687 -2.695205 21.736615 0.666262 1.695110 0.052331 0.013728 616822.000000 0 1 0
16.531193 12.524887 -1.621605 20.803431 0.648380 1.648824 0.036859 0.004549 20998.100000 0 1 0
16.474093 13.256087 -0.249405 21.146673 0.677578 1.582591 0.036844 -0.004333 -667780.000000 0 1 0
15.598393 14.311787 -0.144205 21.169740 0.742409 1.577608 0.044109 -0.008176 -31385.700000 0 1 0
15.715593 14.972387 1.127595 21.735310 0.761185 1.518895 0.046638 -0.010995 -589537.000000 0 1 0
14.517193 15.854287 1.480495 21.547602 0.829394 1.502034 0.042074 -0.008899 -561141.000000 0 1 0
14.373893 17.025287 0.782495 22.295324 0.869640 1.535692 0.049337 -0.013310 1106690.000000 0 1 0
13.284093 17.823687 1.328695 22.269180 0.930306 1.511096 0.035964 -0.018667 646040.000000 0 1 0
13.332893 19.252787 0.766595 23.431251 0.965110 1.538074 0.038125 -0.020547 -179122.000000 0 1 0
12.928193 19.337787 -0.597105 23.268964 0.981494 1.596460 0.044373 -0.020586 -152412.000000 0 1 0
12.244293 20.514987 -0.905305 23.908303 1.032699 1.608671 0.034704 -0.029394 748045.000000 0 1 0
10.683593 20.422887 -0.790005 23.062038 1.088825 1.605059 0.026751 -0.026697 679757.000000 0 1 0
10.200093 20.554887 0.557295 22.953341 1.110164 1.546514 0.018622 -0.029726 988810.000000 0 1 0
8.761793 20.431687 0.544095 22.237781 1.165683 1.546327 0.012980 -0.021559 921402.000000 0 1 0
8.087893 20.586787 1.874095 22.197794 1.196453 1.486269 0.009386 -0.017185 -516906.000000 0 1 0
8.176593 21.907787 2.375995 23.504322 1.213580 1.469536 0.019526 -0.006830 297692.000000 0 1 0
7.245893 22.118687 3.426795 23.526202 1.254222 1.424618 0.019970 -0.002467 101279.000000 0 1 0
7.174993 23.591687 3.875195 24.961277 1.275553 1.414918 0.025711 -0.001084 89884.400000 0 1 0
7.807293 23.900487 5.122795 25.659893 1.255065 1.369804 0.019010 -0.008242 295293.000000 0 0 1
7.440393 25.113587 5.641995 26.793354 1.282765 1.358634 0.008977 -0.005264 -293779.000000 0 0 1
7.968993 25.244987 7.072595 27.401383 1.265029 1.309730 0.007006 -0.006929 -303586.000000 0 0 1
7.423693 24.286587 8.003595 26.627186 1.274145 1.265496 0.022828 -0.026392 220800.000000 0 0 1
8.131593 24.234987 9.207295 27.170419 1.247069 1.225079 0.013381 -0.034301 -191984.000000 0 0 1
7.457693 23.313387 10.291095 26.552548 1.261194 1.172797 0.014110 -0.031465 31532.900000 0 0 1
6.311493 23.812287 10.946495 26.957109 1.311702 1.152646 0.010592 -0.031517 -81947.300000 0 0 1
5.750593 22.824387 11.747195 26.306245 1.323984 1.107885 0.007674 -0.019335 -60699.900000 0 0 1
4.347293 23.208687 12.267295 26.608807 1.385629 1.091648 0.019649 -0.029442 -52394.100000 0 0 1
3.363393 23.253687 11.261495 26.055089 1.427153 1.123845 0.018339 -0.034220 -372380.000000 0 0 1
2.107593 23.432987 11.886995 26.359960 1.481096 1.102968 0.013253 -0.035670 -10234.200000 0 0 1
0.969693 23.592587 10.839995 25.981839 1.529718 1.140418 0.028466 -0.024420 -218796.000000 0 0 1
0.993393 24.817887 10.217195 26.857130 1.530790 1.180538 0.032020 -0.022121 -276891.000000 0 0 1
0.116693 24.904387 9.149795 26.532261 1.566111 1.218712 0.029463 -0.020380 -331771.000000 0 0 1
-1.212407 25.639087 9.435195 27.346949 -1.523544 1.218538 0.032081 -0.025902 405410.000000 0 0 1
-2.161807 24.827187 10.144695 26.906829 -1.483941 1.184208 0.024576 -0.022352 90180.600000 0 0 1
-3.327407 25.545787 10.424395 27.790770 -1.441273 1.186289 0.038303 -0.024948 419704.000000 0 0 1
-4.594207 24.758287 10.941895 27.455502 -1.387321 1.160881 0.046502 -0.018915 804100.000000 0 0 1
-4.772107 24.735787 12.382195 28.070463 -1.380215 1.113960 0.039519 -0.020418 102780.000000 0 0 1
-5.490207 25.860187 12.881595 29.407943 -1.361599 1.117389 0.046019 -0.012953 -186211.000000 0 0 1
-6.079207 25.471787 14.262995 29.819486 -1.336515 1.072066 0.030380 -0.017497 -627539.000000 0 0 1
-7.218907 24.684787 14.296395 29.425129 -1.286286 1.063453 0.015460 -0.011254 -423508.000000 0 0 1
-7.613807 24.262787 15.617595 29.842288 -1.266722 1.020033 0.008909 0.004090 254704.000000 0 0 1
-8.960907 23.513387 15.604295 29.608635 -1.206690 1.015708 -0.004496 0.004521 730127.000000 0 0 1
-10.149907 24.266287 15.364495 30.462124 -1.174638 1.042132 -0.004883 0.016652 836159.000000 0 0 1
-11.364607 23.523787 15.546995 30.401183 -1.120751 1.033990 -0.010209 0.004485 125986.000000 0 0 1
-12.563907 24.437387 15.362395 31.480801 -1.095912 1.061008 -0.009502 0.006936 -823172.000000 0 0 1
-12.825107 25.367787 16.389095 32.811742 -1.102705 1.047788 -0.017088 0.008447 -77400.200000 0 0 1
-13.684107 26.410087 15.994595 33.772393 -1.092743 1.077423 -0.016549 0.014422 -212399.000000 0 0 1
-14.092907 27.278387 17.196995 35.191719 -1.093931 1.060236 -0.008555 0.014946 -292162.000000 0 0 1
-15.047507 26.697287 18.037695 35.560245 -1.057546 1.038813 -0.000262 0.007201 -124281.000000 0 0 1
-15.504007 27.559287 19.075495 36.929163 -1.058354 1.027988 0.013171 0.007398 -243739.000000 0 0 1
-16.817807 27.091887 19.745395 37.505861 -1.015245 1.016363 0.015972 -0.006511 -466062.000000 0 0 1
-17.949607 27.505587 19.056295 37.972202 -0.992609 1.045062 0.019356 0.001333 -1650810.000000 0 0 1
-19.028407 26.757187 19.441895 38.157760 -0.952625 1.036177 0.013894 -0.000088 -933590.000000 0 0 1
-20.212507 26.949987 18.480295 38.423542 -0.927295 1.069044 0.009112 0.001190 -399353.000000 0 0 1
-20.805007 28.232587 18.517495 39.658857 -0.935723 1.084992 0.013260 -0.001229 -7544.740000 0 0 1
-21.491307 28.444787 17.336895 39.642782 -0.923756 1.118171 0.018538 -0.003421 -942169.000000 0 0 1
-22.280107 29.708687 17.247595 40.944948 -0.927326 1.135986 0.009945 -0.008908 -603490.000000 0 0 1
-23.584107 29.512187 17.731395 41.732262 -0.896585 1.131962 0.003399 -0.007809 -336436.000000 0 0 1
-24.414407 30.612187 17.484695 42.882209 -0.897558 1.150821 0.009506 -0.008204 1247530.000000 0 0 1
-25.840247 30.535787 18.210095 43.951794 -0.868496 1.143601 0.011091 -0.009513 1980550.000000 0 0 1
-26.834927 29.801787 17.435195 43.729233 -0.837734 1.160689 0.019643 -0.016079 1303130.000000 0 0 1
-28.140147 29.644687 18.011395 44.666382 -0.811429 1.155739 0.038449 -0.017186 749794.000000 0 0 1
-28.367787 28.553787 19.028195 44.521032 -0.788666 1.129184 0.032809 -0.016667 -581889.000000 0 0 1
-28.294917 27.258887 18.535395 43.442032 -0.766751 1.129989 0.032983 -0.018715 163228.000000 0 0 1
-28.692677 26.292687 19.457095 43.510386 -0.741778 1.107183 0.033973 -0.015278 -285265.000000 0 0 1
-28.734567 24.893487 18.753095 42.391504 -0.713896 1.112547 0.032407 -0.011842 634994.000000 0 0 1
-29.933247 24.375387 18.128695 42.647490 -0.683415 1.131743 0.038927 -0.014580 861251.000000 0 0 1
-29.602227 23.407287 17.127095 41.443097 -0.669061 1.144757 0.031231 -0.011488 -329512.000000 0 0 1
-30.252697 22.056487 17.385495 41.279168 -0.629974 1.136063 0.031730 0.000034 -1073140.000000 0 0 1
-31.531377 21.872787 16.928995 41.943265 -0.606474 1.155330 0.029644 0.001611 -1075640.000000 0 0 1
-31.808437 20.492787 16.799495 41.399928 -0.572327 1.152958 0.020158 0.006248 -108148.000000 0 0 1
-33.171417 20.158487 16.185695 42.055728 -0.546067 1.175737 0.016315 0.001957 -336881.000000 0 0 1
-33.122597 20.283287 14.792795 41.561340 -0.549466 1.206891 0.007928 -0.004549 642622.000000 0 0 1
-34.421858 20.002087 14.259495 42.288072 -0.526397 1.226856 0.025523 -0.002775 781181.000000 0 0 1
-34.548746 20.284387 12.749195 42.043004 -0.530898 1.262704 0.023707 -0.009044 82477.600000 0 0 1
-34.637125 21.671887 12.405895 42.700203 -0.559091 1.276011 0.012576 -0.014913 -235487.000000 0 0 1
-34.824287 21.912587 11.010495 42.592528 -0.561637 1.309319 0.012222 -0.018483 -642772.000000 0 0 1
-33.727267 21.624687 9.974395 41.287337 -0.570138 1.326798 0.008156 -0.017174 -255757.000000 0 0 1
-33.378727 20.226687 9.903795 40.265909 -0.544802 1.322287 0.003958 -0.005773 -97858.600000 0 0 1
-32.195667 19.926287 9.198395 38.964450 -0.554209 1.332475 0.015124 -0.003583 -177389.000000 0 0 1
-31.309887 18.902587 9.948395 37.902340 -0.543155 1.305211 0.007854 -0.004112 -276212.000000 0 0 1
-30.898857 19.474387 11.184795 38.198047 -0.562375 1.273631 0.010437 -0.003500 -161471.000000 0 0 1
-30.291767 18.451087 11.882895 37.406376 -0.547093 1.247525 -0.002007 -0.000835 -182063.000000 0 0 1
-30.034717 18.851687 13.385095 37.902917 -0.560512 1.209869 0.000687 0.003356 -543784.000000 0 0 1
-29.041427 19.798887 13.484195 37.646035 -0.598370 1.204475 0.015493 0.000763 -641946.000000 0 0 1
-29.497317 21.155287 13.416295 38.699288 -0.622172 1.216766 0.020111 0.002366 735083.000000 0 0 1
-28.295787 22.145287 13.672695 38.444868 -0.664063 1.207193 0.021923 -0.008666 703424.000000 0 0 1
-27.757377 21.970987 14.951395 38.428381 -0.669559 1.171173 0.021891 0.002494 -758226.000000 0 0 1
-26.606587 22.748787 15.024095 38.093848 -0.707393 1.165385 0.037510 -0.010023 -648155.000000 0 0 1
-25.829257 22.638487 16.366095 38.046034 -0.719660 1.126120 0.028985 -0.009208 -531494.000000 0 0 1
-25.259477 21.351387 16.608995 37.010561 -0.701749 1.105415 0.048403 -0.013055 106476.000000 0 0 1
-24.819707 21.223487 17.942895 37.261263 -0.707451 1.068382 0.041075 -0.004527 -133727.000000 0 0 1
-23.976007 19.963487 18.198295 36.118800 -0.694332 1.042751 0.047381 -0.013273 113088.000000 0 0 1
-23.291407 19.958587 19.446195 36.317893 -0.708491 1.005763 0.041912 -0.015652 -34693.300000 0 0 1
-22.584907 18.764887 19.629895 35.320416 -0.693277 0.981512 0.036602 -0.019445 -108848.000000 0 0 1
-21.969207 18.839287 21.043895 35.782822 -0.708850 0.942088 0.030804 -0.022163 -300982.000000 0 0 1
-22.914807 18.623787 22.046595 36.850864 -0.682461 0.929462 0.036157 -0.013221 -231380.000000 0 0 1
-22.407907 18.862887 23.340295 37.452532 -0.699712 0.897973 0.051598 -0.021164 52552.100000 0 0 1
-23.087407 17.994987 24.455795 38.143595 -0.662071 0.874799 0.045218 -0.019795 -234802.000000 0 0 1
-22.623207 16.680887 24.488095 37.279060 -0.635346 0.854115 0.053230 -0.022135 -364655.000000 0 0 1
-23.236707 15.794687 25.340595 37.835994 -0.596992 0.836926 0.056341 -0.023028 -287670.000000 0 0 1
20.673993 25.787387 33.787641 47.265294 0.895014 0.774385 0.033460 -0.004531 -41262.500000 0 0 1
20.134393 24.712787 33.059538 45.924380 0.887134 0.767183 0.032811 -0.016180 -87687.400000 0 0 1
20.381693 23.447887 33.683448 45.823482 0.855242 0.745027 0.037057 -0.020906 242277.000000 0 0 1
19.516993 22.287287 33.069775 44.398718 0.851570 0.730507 0.039191 -0.020267 177993.000000 0 0 1
19.970693 21.783287 31.829818 43.433598 0.828782 0.748312 0.034281 -0.019100 -62688.900000 0 0 1
19.133093 20.739787 31.416788 42.228291 0.825672 0.731797 0.030349 -0.021262 -363925.000000 0 0 1
19.418993 20.140887 30.023588 41.038621 0.803644 0.750140 0.029839 -0.010742 14143.400000 0 0 1
20.656693 19.454687 29.967648 41.270373 0.755440 0.758120 0.032991 -0.011445 -80592.900000 0 0 1
20.834193 18.894487 28.683088 40.171940 0.736613 0.775590 0.028965 -0.008108 -8277.610000 0 0 1
21.985193 17.858387 28.673588 40.304408 0.682191 0.779272 0.023725 0.002285 -1265020.000000 0 0 1
23.174193 18.423087 28.988298 41.433981 0.671674 0.795922 0.033718 -0.005235 -2001170.000000 0 0 1
24.129293 17.425187 29.154138 41.663217 0.625444 0.795739 0.025750 0.006104 -19001.600000 0 0 1
25.502393 17.925887 29.684518 43.045093 0.612676 0.809840 0.028492 -0.007263 329014.000000 0 0 1
26.287493 18.523787 28.672048 43.084212 0.613848 0.842648 0.026353 0.006063 -749321.000000 0 0 1
27.605893 18.779687 29.008088 44.229302 0.597367 0.855479 0.028443 0.000670 -688800.000000 0 0 1
28.578093 18.633687 27.845998 44.037726 0.577799 0.886250 0.034760 0.014298 -330285.000000 0 0 1
28.398093 19.503787 26.763058 43.624656 0.601811 0.910331 0.030578 0.005742 99424.300000 0 0 1
29.484793 19.334787 25.887358 43.741768 0.580410 0.937479 0.031732 0.001586 -173766.000000 0 0 1
29.726393 20.535187 24.973208 43.920535 0.604529 0.965994 0.027567 -0.001711 94621.400000 0 0 1
28.742693 20.665987 23.956158 42.744858 0.623364 0.975873 0.028783 -0.004851 412189.000000 0 0 1
29.136793 21.575387 22.960458 42.914247 0.637384 1.006252 0.011598 -0.007023 -326421.000000 0 0 1
29.856793 20.909187 21.754158 42.448387 0.610938 1.032720 0.020070 0.001347 9039.330000 0 0 1
29.039993 19.976887 21.019758 41.039340 0.602565 1.033069 0.018452 -0.005063 391045.000000 0 0 1
29.615793 19.489787 19.829758 40.622239 0.582040 1.060827 0.017309 -0.000728 131418.000000 0 0 1
30.830693 18.506787 19.908858 41.102255 0.540619 1.065149 0.032281 -0.005188 205531.000000 0 0 1
30.473793 17.170287 20.272158 40.428099 0.513107 1.045537 0.039399 -0.003601 556768.000000 0 0 1
31.581093 16.267787 20.413658 40.972231 0.475664 1.049238 0.034698 0.001895 -247962.000000 0 0 1
31.050293 14.802987 20.442058 40.014083 0.444869 1.034598 0.032400 -0.001386 730297.000000 0 0 1
30.411393 14.460787 21.741558 40.083195 0.443861 0.997492 0.024559 -0.010366 363576.000000 0 0 1
29.152293 15.031887 21.973158 39.479532 0.476076 0.980544 0.022756 -0.005250 -1026620.000000 0 0 1
28.565093 14.664887 23.328058 39.689063 0.474298 0.942496 0.023487 -0.011969 -219143.000000 0 0 1
28.050593 13.381187 23.293158 38.838938 0.445110 0.927624 0.019982 -0.007703 -24308.100000 0 0 1
27.158793 13.175487 24.379558 38.801499 0.451679 0.891411 0.013344 0.004997 -16591.900000 0 0 1
26.563693 11.773587 24.356878 37.914438 0.417202 0.873148 0.017204 -0.003878 -24047.100000 0 0 1
25.670293 11.517987 23.275858 36.515661 0.421763 0.879650 0.035652 -0.006731 -17548.000000 0 0 1
25.159493 10.235187 23.392058 35.846164 0.386365 0.859828 0.018980 -0.001950 -229951.000000 0 0 1
24.050993 9.922987 22.371158 34.313039 0.391305 0.860613 0.012459 -0.011205 -1017890.000000 0 0 1
22.738693 10.031887 22.736558 33.684388 0.415496 0.829848 0.011227 -0.001132 -1130240.000000 0 0 1
21.877093 9.367987 21.865258 32.318042 0.404586 0.827708 0.014223 0.011667 -440826.000000 0 0 1
20.382893 9.401487 22.185858 31.560459 0.432165 0.791240 0.021253 0.005023 -341309.000000 0 0 1
20.021693 8.755887 23.386158 32.006970 0.412259 0.751511 0.032127 0.001822 24404.900000 0 0 1
18.631493 8.775787 23.623258 31.340154 0.440195 0.717016 0.033360 -0.001365 -108078.000000 0 0 1
18.186293 8.209887 24.937858 31.938069 0.424045 0.674820 0.036600 0.001256 -320114.000000 0 0 1
18.379893 6.804187 25.000718 31.767173 0.354553 0.664868 0.036565 0.000272 123939.000000 0 0 1
18.034793 6.262287 26.258268 32.464852 0.334208 0.628651 0.029080 -0.003259 -38711.400000 0 0 1
18.075993 4.720187 26.236178 32.208053 0.255426 0.618784 0.031499 -0.009215 -757411.000000 0 0 1
19.384493 4.325087 26.021758 32.735253 0.219525 0.651928 0.045373 -0.007320 -964096.000000 0 0 1
19.606593 2.921687 25.770568 32.512719 0.147927 0.655685 0.041053 -0.003501 -570586.000000 0 0 1
21.045993 2.508187 25.494638 33.154206 0.118617 0.693566 0.053305 -0.006612 -787942.000000 0 0 1
21.823993 2.431187 26.632668 34.518058 0.110942 0.689510 0.061741 -0.018723 2403.720000 0 0 1
23.194393 2.228087 26.306688 35.142368 0.095768 0.724886 0.054397 -0.011528 396634.000000 0 0 1
24.128093 2.909287 27.335128 36.576468 0.119997 0.726744 0.044082 -0.012605 -750114.000000 0 0 1
24.095293 2.261587 28.569298 37.441991 0.093586 0.702811 0.059289 -0.015975 464055.000000 0 0 1
25.046993 2.555387 29.605118 38.863155 0.101672 0.704742 0.055913 -0.006789 2134330.000000 0 0 1
26.602693 2.639587 29.239598 39.618490 0.098899 0.740652 0.040002 -0.007361 803094.000000 0 0 1
27.029493 3.862487 28.605368 39.544650 0.141938 0.762127 0.040009 0.008527 732122.000000 0 0 1
28.424293 3.913087 28.298768 40.299788 0.136807 0.792305 0.025227 0.015380 864604.000000 0 0 1
29.021193 2.866287 27.252878 39.914466 0.098446 0.819233 0.030368 0.012597 -497617.000000 0 0 1
28.741593 3.090287 25.868428 38.791811 0.107108 0.840819 0.019172 0.028075 -44669.400000 0 0 1
29.142893 2.053687 25.024788 38.467725 0.070353 0.862501 0.019424 0.024364 -322336.000000 0 0 1
28.756793 2.128687 23.498258 37.197481 0.073889 0.887031 0.015535 0.015299 135258.000000 0 0 1
29.399293 3.186087 22.785858 37.331821 0.107952 0.914281 0.011374 0.017123 -127822.000000 0 0 1
30.735393 2.991387 22.385158 38.140635 0.097022 0.943558 0.001408 0.012497 -233206.000000 0 0 1
31.356693 4.287787 21.944458 38.512161 0.135899 0.964527 -0.012533 0.016839 -538162.000000 0 0 1
30.724693 4.775187 20.768658 37.391795 0.154185 0.981912 -0.014221 0.008457 228772.000000 0 0 1
31.204793 6.070887 20.324458 37.731662 0.192150 1.001953 0.000881 0.009746 319442.000000 0 0 1
32.705293 6.436487 20.042358 38.894224 0.194319 1.029434 -0.005462 0.017320 247490.000000 0 0 1
33.565393 6.369687 21.141358 40.176679 0.187539 1.016659 -0.001900 0.012523 24171.100000 0 0 1
33.432493 7.500087 21.999158 40.717881 0.220682 1.000024 0.005253 0.006046 -739249.000000 0 0 1
34.108093 7.386087 23.381858 42.007470 0.213257 0.980494 0.013708 0.006459 -486516.000000 0 0 1
33.478693 6.469387 24.227588 41.828840 0.190886 0.953040 0.013406 0.017518 238396.000000 0 0 1
34.230493 6.217087 25.433268 43.095590 0.179666 0.939540 0.013458 0.014034 300577.000000 0 0 1
33.632693 5.109787 26.343878 43.026362 0.150776 0.911864 0.013985 0.016849 141489.000000 0 0 1
33.790393 3.772987 25.849258 42.710774 0.111198 0.920759 0.015267 0.013013 -241871.000000 0 0 1
32.963093 2.876587 26.518348 42.403573 0.087046 0.895178 0.017834 0.016675 -174662.000000 0 0 1
33.166693 1.384687 26.056498 42.200568 0.041725 0.905307 0.009824 0.015747 421653.000000 0 0 1
32.247393 0.981687 25.015968 40.824707 0.030433 0.911241 0.015543 0.012244 463681.000000 0 0 1
32.615193 -0.328613 24.627358 40.870106 -0.010075 0.924071 0.020604 0.006475 -518157.000000 0 0 1
31.610793 -1.003213 23.731858 39.540482 -0.031726 0.927056 0.018752 0.010973 -967129.000000 0 0 1
30.365293 -1.183713 24.318628 38.921046 -0.038963 0.895896 0.023818 0.010187 -936338.000000 0 0 1
29.515093 -1.855913 23.427058 37.728135 -0.062797 0.900850 0.027251 -0.003884 168631.000000 0 0 1
28.058193 -1.984713 23.958258 36.948605 -0.070618 0.865288 0.036871 0.002890 281108.000000 0 0 1
27.398493 -0.729213 24.003608 36.433259 -0.026609 0.851524 0.021428 0.010434 -1486240.000000 0 0 1
26.065893 -0.983713 23.794558 35.306932 -0.037722 0.831275 0.028720 0.013253 -1308880.000000 0 0 1
25.300093 0.341287 23.641158 34.628247 0.013489 0.819327 0.035520 0.015123 -254265.000000 0 0 1
25.557893 1.104587 22.450258 34.035864 0.043192 0.850502 0.021425 0.006938 518393.000000 0 0 1
24.620993 2.193987 22.409158 33.364311 0.088876 0.834362 0.032565 0.009127 388806.000000 0 0 1
24.734993 3.038787 21.137658 32.678046 0.122241 0.867355 0.027660 0.006175 -217192.000000 0 0 1
24.390393 2.519187 19.856858 31.552058 0.102921 0.890097 0.032910 0.005083 299248.000000 0 0 1
23.756493 3.514287 19.057758 30.658103 0.146864 0.899984 0.029038 0.008507 76691.900000 0 0 1
23.404393 3.211187 17.590358 29.453319 0.136353 0.930755 0.026315 0.004592 18172.100000 0 0 1
24.422393 3.414287 16.606458 29.730205 0.138901 0.978133 0.019786 0.001945 66796.500000 0 0 1
24.086793 3.185887 15.223258 28.671781 0.131504 1.011076 0.017101 -0.011327 -523400.000000 0 0 1
23.492593 1.828487 14.792358 27.821918 0.077676 1.010213 0.020089 0.001911 695387.000000 0 0 1
22.079393 1.652087 14.939758 26.710023 0.074686 0.977217 0.024989 0.013349 662692.000000 0 0 1
21.647393 0.519287 14.274058 25.935073 0.023984 0.987981 0.022721 0.008019 -479540.000000 0 0 1
20.122993 0.321887 14.266258 24.669101 0.015995 0.954147 0.022721 -0.007294 -256266.000000 0 1 0
19.297693 1.201187 13.516358 23.591009 0.062165 0.960701 0.037554 -0.004223 392727.000000 0 1 0
19.322193 1.176887 12.092058 22.824330 0.060833 1.012446 0.042465 -0.006084 -894961.000000 0 1 0
19.222393 -0.182613 11.311458 22.304323 -0.009500 1.038931 0.046136 -0.008213 198894.000000 0 1 0
20.304793 -1.114813 11.438758 23.331794 -0.054849 1.058403 0.048864 -0.018432 183602.000000 0 1 0
21.409993 -0.793513 10.652858 23.926990 -0.037046 1.109372 0.050498 -0.017376 -788405.000000 0 1 0
22.599493 -1.746513 10.880158 25.142896 -0.077128 1.123274 0.061803 -0.027650 -201854.000000 0 0 1
23.206993 -1.441613 12.105558 26.214257 -0.062040 1.090781 0.059029 -0.027801 195591.000000 0 0 1
24.085293 -2.472613 12.547958 27.270247 -0.102302 1.092651 0.031225 -0.026723 135796.000000 0 0 1
24.426093 -2.464213 14.058858 28.290596 -0.100544 1.050722 0.024887 -0.015575 5259.810000 0 0 1
25.244493 -1.399713 14.501758 29.146948 -0.055390 1.050036 0.013337 -0.018113 136668.000000 0 0 1
25.275493 -1.333613 15.928658 29.905705 -0.052714 1.009092 0.012916 -0.016566 -15246.100000 0 0 1
26.397493 -0.333713 16.331258 31.042696 -0.012641 1.016800 0.015294 -0.014563 579576.000000 0 0 1
27.676493 -0.955113 16.184858 32.075693 -0.034496 1.041897 0.006655 -0.013703 258504.000000 0 0 1
28.694393 0.021787 16.326558 33.014014 0.000759 1.053498 -0.004922 -0.010044 182422.000000 0 0 1
30.111993 -0.596513 16.440558 34.312969 -0.019807 1.071127 0.007018 -0.009057 80019.600000 0 0 1
30.463793 -1.211413 15.222758 34.077009 -0.039745 1.107705 0.010943 -0.000397 42490.500000 0 0 1
31.799193 -1.677113 15.296958 35.327019 -0.052692 1.122967 0.016206 -0.003899 -261360.000000 0 0 1
32.130093 -2.343813 13.942958 35.103310 -0.072819 1.162335 0.016305 -0.002241 -415042.000000 0 0 1
32.511393 -1.399113 12.996858 35.040926 -0.043008 1.190813 0.013031 -0.002496 70612.500000 0 0 1
32.532593 -1.936713 11.675758 34.618547 -0.059461 1.226782 0.014264 0.000003 -490809.000000 0 0 1
31.855893 -1.032813 10.653358 33.605932 -0.032410 1.248223 0.002950 0.011629 -339020.000000 0 0 1
32.383393 0.309487 10.545258 34.058514 0.009557 1.256001 0.015364 0.010962 102164.000000 0 0 1
31.485093 1.149487 9.894058 33.023094 0.036493 1.266512 -0.004123 0.007084 -837606.000000 0 0 1
32.034893 2.493687 9.414758 33.482689 0.077686 1.285770 -0.005633 0.006748 283553.000000 0 0 1
32.931293 2.195187 8.293958 34.030554 0.066561 1.324596 0.006471 0.010413 786138.000000 0 0 1
33.359793 3.376387 7.643058 34.390291 0.100868 1.346680 0.003716 0.006280 -321567.000000 0 0 1
34.081693 3.157787 6.340058 34.809909 0.092390 1.387640 0.006497 0.003583 -343415.000000 0 0 1
34.666493 4.319387 5.841358 35.419547 0.123959 1.405120 0.011288 0.003236 112674.000000 0 0 1
34.927793 4.139087 4.462058 35.454093 0.117954 1.444607 0.011910 -0.005646 -321808.000000 0 0 1
-35.024551 5.393087 3.701058 35.630077 -0.152780 1.466734 0.008894 -0.010025 142915.000000 0 0 1
34.561293 6.469987 3.561758 35.341616 0.185061 1.469844 0.026580 -0.018667 367185.000000 0 0 1
35.207593 7.625187 3.032658 36.151280 0.213284 1.486810 0.015071 -0.011948 44492.300000 0 0 1
34.184793 8.792987 3.317358 35.453089 0.251762 1.477089 0.049793 -0.008205 1890590.000000 0 0 1
32.969793 8.883787 2.541958 34.240188 0.263201 1.496489 0.053726 -0.023985 1042530.000000 0 0 1
32.082093 7.788887 2.534158 33.111167 0.238172 1.494187 0.057617 -0.019236 -896822.000000 0 0 1
30.819893 7.901187 1.660758 31.859891 0.250962 1.518646 0.087561 -0.022734 -45059.300000 0 0 1
31.055793 7.961287 0.309458 32.061505 0.250950 1.561144 0.079360 -0.022398 -135131.000000 0 0 1
29.917193 7.548287 -0.384042 30.857131 0.247148 1.583242 0.088389 -0.030936 -432670.000000 0 0 1
30.097993 7.756187 -1.926942 31.140981 0.252210 1.632714 0.056862 -0.018371 -666749.000000 0 0 1
29.178593 7.064087 -2.728642 30.145266 0.237528 1.661437 0.063070 -0.017797 170455.000000 0 0 1
29.416693 6.873187 -4.104942 30.486605 0.229531 1.705854 0.053802 -0.012134 -1087810.000000 0 0 1
28.309893 6.147487 -4.829542 29.369476 0.213830 1.735987 0.042631 0.000155 -903367.000000 0 0 1
28.132493 4.781187 -4.583142 28.901593 0.168344 1.730046 0.047830 -0.004870 1103910.000000 0 0 1
26.994793 4.261187 -5.294842 27.837239 0.156560 1.762169 0.037774 -0.000624 234600.000000 0 0 1
26.862493 2.732587 -5.289042 27.514260 0.101376 1.764229 0.034606 0.006978 -527212.000000 0 0 1
26.540193 2.227887 -4.005342 26.933029 0.083748 1.720065 0.028192 -0.005828 537032.000000 0 0 1
26.377393 0.791687 -4.022142 26.694030 0.030005 1.722048 0.015084 -0.004275 -148607.000000 0 0 1
26.403293 0.292687 -2.566542 26.529355 0.011085 1.667691 0.008726 -0.005342 500474.000000 0 0 1
27.704593 0.442887 -1.991242 27.779591 0.015985 1.642538 0.041863 -0.012573 714600.000000 0 0 1
27.724593 0.241287 -0.617942 27.732528 0.008703 1.593080 0.044118 -0.006058 -258578.000000 0 0 1
29.104593 0.561887 0.007958 29.110017 0.019303 1.570523 0.064603 -0.007958 -235929.000000 0 0 1
30.002693 -0.361713 -0.543642 30.009798 -0.012055 1.588913 0.060644 -0.013180 -121868.000000 0 0 1
31.322893 0.109587 -0.303642 31.324556 0.003499 1.580490 0.036366 -0.013356 -422372.000000 0 0 1
-2.803607 -21.031313 -8.560605 22.879255 1.438271 1.954292 -0.003208 -0.001875 312656.000000 0 1 0
-3.251107 -21.671613 -7.387105 23.125696 1.421890 1.895927 0.001476 0.000124 -112389.000000 0 1 0
-2.459307 -22.793013 -7.084705 23.995055 1.463315 1.870521 0.000033 0.002578 196975.000000 0 1 0
-3.110907 -23.501013 -5.856305 24.418674 1.439188 1.812986 -0.006278 0.004677 -452029.000000 0 1 0
-3.069207 -22.619613 -4.737805 23.313381 1.435932 1.775444 -0.004100 -0.004243 6540.190000 0 1 0
-3.519707 -23.298813 -3.565905 23.831465 1.420862 1.720990 -0.000203 -0.007775 -217952.000000 0 1 0
-3.092007 -22.635513 -2.211605 22.952520 1.435037 1.667302 -0.000526 -0.013649 -67701.700000 0 1 0
-1.717907 -22.817013 -1.976005 22.966756 1.495647 1.656940 0.004146 -0.012306 -671667.000000 0 1 0
-1.328507 -22.456713 -0.644105 22.505194 1.511707 1.599421 0.004108 -0.014449 -422058.000000 0 1 0
0.124893 -22.529513 -0.214205 22.530877 -1.565253 1.580304 0.009207 -0.015352 -545147.000000 0 1 0
0.844793 -21.434613 -0.708705 21.462958 -1.531404 1.603822 0.003008 -0.014645 -504154.000000 0 1 0
2.071093 -21.197213 -0.059305 21.298234 -1.473400 1.573581 0.006946 -0.012967 -36661.400000 0 1 0
2.977293 -20.118713 -0.706805 20.350097 -1.423876 1.605536 0.012682 -0.011347 144897.000000 0 1 0
3.589493 -20.650713 -1.833805 21.040419 -1.398696 1.658063 0.008087 -0.005763 -464066.000000 0 1 0
4.577093 -19.709613 -2.242805 20.358016 -1.342614 1.681189 0.016856 -0.001641 128025.000000 0 1 0
5.414193 -20.199813 -3.466805 21.198223 -1.308920 1.735077 0.014749 0.000211 -82075.700000 0 1 0
6.164593 -21.412213 -3.231105 22.514997 -1.290476 1.714803 0.019041 0.002642 167031.000000 0 1 0
6.953793 -22.025513 -4.240305 23.483157 -1.264985 1.752360 0.022575 0.001836 570268.000000 0 1 0
8.298393 -21.285413 -4.492405 23.283338 -1.199059 1.764959 0.017237 0.002109 -609174.000000 0 1 0
8.015793 -20.097613 -5.249105 22.264772 -1.191288 1.808795 0.024395 0.001074 -719299.000000 0 1 0
9.076093 -19.612713 -5.991505 22.426148 -1.137377 1.841247 0.021821 0.003753 -1333920.000000 0 1 0
8.905293 -18.198613 -6.610805 21.311886 -1.115714 1.886193 0.024667 -0.001534 -441271.000000 0 1 0
9.807993 -17.946113 -7.642805 21.832823 -1.070625 1.928432 0.025389 0.006451 68663.700000 0 1 0
9.369693 -16.863613 -8.390905 21.037582 -1.063652 1.981062 0.019664 0.013319 280967.000000 0 1 0
10.237093 -16.641813 -9.654705 21.793608 -1.019317 2.029746 0.023283 0.007850 95134.900000 0 1 0
9.597893 -17.407713 -10.694705 22.572654 -1.066911 2.064386 0.025483 0.008428 544362.000000 0 1 0
9.359993 -16.661713 -11.879205 22.501948 -1.058964 2.126945 0.021278 0.014486 98651.700000 0 1 0
8.839593 -17.486913 -13.072305 23.554526 -1.102760 2.159136 0.018347 0.008082 395529.000000 0 1 0
7.557793 -18.072913 -12.865705 23.436655 -1.174714 2.151912 0.022658 0.010317 302873.000000 0 1 0
7.100793 -18.680513 -14.045505 24.426605 -1.207547 2.183411 0.015601 0.011738 -45231.200000 0 1 0
5.751893 -19.356913 -13.719605 24.413150 -1.281957 2.167569 0.011300 0.014418 -8485.670000 0 1 0
5.867293 -20.745713 -13.364705 25.365825 -1.295175 2.125720 0.022546 0.014319 -248517.000000 0 0 1
4.597193 -21.330613 -13.273205 25.540305 -1.358522 2.117292 0.031816 0.006059 -286868.000000 0 0 1
4.638993 -22.836413 -13.032605 26.699641 -1.370383 2.080730 0.011733 0.002711 -122292.000000 0 0 1
5.163193 -23.525113 -14.133905 27.925916 -1.354746 2.101478 0.023573 0.004312 -174412.000000 0 0 1
4.896893 -24.938413 -13.978905 29.005410 -1.376904 2.073665 0.002993 0.010612 -54543.300000 0 0 1
3.493593 -25.458773 -14.348305 29.431754 -1.434423 2.080033 0.002504 0.001568 488048.000000 0 0 1
2.441393 -25.026353 -13.476005 28.528608 -1.473551 2.062772 0.005319 0.002375 689993.000000 0 0 1
1.108293 -25.313313 -13.889705 28.894914 -1.527041 2.072246 -0.002849 -0.000863 1009100.000000 0 0 1
0.434193 -26.585863 -13.233605 29.700588 -1.554466 2.032604 -0.011727 -0.000958 -149458.000000 0 0 1
1.027693 -27.792783 -13.805005 31.049527 -1.533836 2.031538 -0.005859 0.003122 345695.000000 0 0 1
0.513593 -28.995373 -13.283705 31.897527 -1.553085 2.000333 -0.006506 0.009942 505499.000000 0 0 1
-0.925707 -29.422943 -13.756405 32.493156 1.539345 2.007951 -0.015826 0.005992 567401.000000 0 0 1
-1.934907 -28.553843 -13.318905 31.566740 1.503136 2.006368 -0.018429 0.000041 -666403.000000 0 0 1
-3.179507 -29.174153 -13.520905 32.311845 1.462241 2.002535 -0.018842 -0.000440 -275879.000000 0 0 1
-4.437407 -28.421333 -13.025905 31.577475 1.415917 1.996000 -0.013911 -0.001318 57789.300000 0 0 1
-4.709007 -28.530163 -11.637305 31.170047 1.407217 1.953413 -0.012213 -0.004421 -70767.700000 0 0 1
-5.077207 -29.788743 -11.162705 32.214177 1.401978 1.924650 -0.022287 -0.003711 -936154.000000 0 0 1
-5.323607 -29.776013 -9.588005 31.731397 1.393877 1.877756 -0.012462 -0.000349 -653350.000000 0 0 1
-6.621907 -29.372013 -9.267705 31.503256 1.349054 1.869396 -0.008145 0.007229 -640619.000000 0 0 1
-6.835907 -27.955753 -9.226805 30.222304 1.330976 1.881048 -0.002488 0.006536 -540489.000000 0 0 1
-8.351007 -27.652203 -9.253605 30.331714 1.277504 1.880819 -0.001502 0.009199 435504.000000 0 0 1
-9.128607 -27.985113 -10.409905 31.222814 1.255484 1.910711 0.015534 -0.001117 115042.000000 0 0 1
-9.216107 -29.339023 -10.818205 32.599823 1.266432 1.909059 0.010303 -0.002730 -705992.000000 0 0 1
-10.553107 -29.583273 -11.562605 33.469866 1.228143 1.923529 0.023487 -0.003909 -106210.000000 0 0 1
-10.726607 -28.764593 -12.710905 33.226932 1.213859 1.963349 0.032706 -0.004954 -414600.000000 0 0 1
-11.722107 -29.262393 -13.530605 34.304121 1.189785 1.976245 0.034595 -0.006330 -660285.000000 0 0 1
-12.024807 -28.278423 -14.664505 34.048684 1.168732 2.016056 0.038253 -0.009655 299055.000000 0 0 1
-12.963507 -27.177273 -14.527205 33.431966 1.125719 2.020313 0.035138 -0.012764 634277.000000 0 0 1
-12.714307 -26.175463 -13.544705 32.097780 1.118627 2.006427 0.038923 -0.008981 -164335.000000 0 0 1
-13.617807 -24.968013 -13.924405 31.665998 1.071484 2.026091 0.061011 -0.008514 -121696.000000 0 0 1
-13.272107 -24.119913 -15.027705 31.364804 1.067757 2.070455 0.052468 -0.011589 -165946.000000 0 0 1
-14.403507 -23.386813 -15.420305 31.499045 1.018781 2.082368 0.062185 -0.010815 -330332.000000 0 0 1
-14.192507 -22.437213 -16.634805 31.330058 1.006791 2.130522 0.058457 -0.012692 286119.000000 0 0 1
-13.569207 -21.139913 -16.339405 29.966572 1.000153 2.147489 0.046444 -0.013045 600495.000000 0 0 1
-13.655407 -20.357613 -17.546805 30.146192 0.979954 2.192053 0.039934 -0.006305 -91371.800000 0 0 1
-13.531607 -18.797213 -17.407305 28.973330 0.946857 2.215303 0.025329 -0.008175 115964.000000 0 0 1
-12.192707 -18.325413 -17.397605 28.056363 0.983710 2.239660 0.034413 -0.006560 311824.000000 0 0 1
-12.227407 -16.954713 -17.825905 27.472435 0.945996 2.276888 0.022719 -0.001701 847384.000000 0 0 1
-10.750907 -16.426513 -17.945505 26.597998 0.991275 2.311346 0.030333 -0.009086 504125.000000 0 0 1
-10.148507 -16.257513 -16.695105 25.417031 1.012747 2.287426 0.036287 -0.002298 -854891.000000 0 0 1
-8.965307 -15.580813 -16.930505 24.693733 1.048656 2.326251 0.038156 -0.006052 -1464970.000000 0 1 0
-8.363507 -14.862613 -15.739405 23.207205 1.058239 2.316123 0.037642 -0.008134 -43285.900000 0 1 0
-7.924107 -15.706213 -14.635905 22.884194 1.103539 2.264727 0.032128 -0.003857 1149780.000000 0 1 0
-6.881707 -16.699713 -14.935305 23.437185 1.179915 2.261719 0.035714 0.003481 418867.000000 0 1 0
-6.583707 -17.573613 -13.693605 23.231270 1.212345 2.201171 0.026703 0.005318 -573998.000000 0 1 0
-6.113507 -16.788613 -12.587205 21.855668 1.221575 2.184530 0.025895 -0.000044 324118.000000 0 1 0
-5.723507 -17.541713 -11.443705 21.712407 1.255407 2.125932 0.020800 -0.001844 508867.000000 0 1 0
-4.568407 -18.597313 -11.633705 22.406996 1.329917 2.116711 0.022865 -0.003185 651549.000000 0 1 0
-3.260207 -18.064613 -11.868805 21.859271 1.392244 2.144759 0.020599 0.002728 709646.000000 0 1 0
-2.261107 -19.095313 -11.767305 22.543581 1.452934 2.119967 0.009768 0.007230 264892.000000 0 1 0
-0.838107 -18.664913 -12.081405 22.249534 1.525924 2.144797 0.010124 0.011900 -1149670.000000 0 1 0
-0.671307 -18.252313 -13.410405 22.659138 1.534034 2.204126 0.017392 0.002095 -457566.000000 0 1 0
0.554893 -17.599913 -13.647505 22.278223 -1.539279 2.230135 0.019822 0.003266 -146429.000000 0 1 0
1.738393 -18.558813 -13.911605 23.259069 -1.477399 2.211944 0.020644 0.004360 -692269.000000 0 1 0
1.646793 -19.537913 -14.946005 24.654108 -1.486708 2.222105 0.022980 0.004277 32088.800000 0 1 0
1.077593 -20.767713 -14.504505 25.354285 -1.518955 2.179828 0.015161 0.002947 -868102.000000 0 0 1
0.758093 -21.841613 -15.600605 26.851623 -1.536102 2.190745 0.014747 0.002048 -21600.100000 0 0 1
1.807993 -22.555813 -16.222305 27.842355 -1.490811 2.192780 0.028422 0.001968 16430.000000 0 0 1
2.844493 -21.736113 -16.782505 27.608010 -1.440671 2.224191 0.029532 -0.001400 -711873.000000 0 0 1
4.069493 -22.579613 -17.024305 28.569681 -1.392482 2.209166 0.024077 -0.001898 -923875.000000 0 0 1
3.966893 -23.473513 -18.072305 29.888965 -1.403384 2.220120 0.020925 0.002359 -801580.000000 0 0 1
5.202593 -23.987613 -18.400605 30.676617 -1.357218 2.214079 0.032378 0.001871 -739210.000000 0 0 1
5.659193 -23.758513 -19.863705 31.481108 -1.336957 2.253602 0.033512 0.003938 -97257.800000 0 0 1
6.008293 -22.433513 -20.229605 30.799334 -1.309111 2.287389 0.046086 -0.007826 20719.100000 0 0 1
6.503593 -22.428713 -21.538205 31.768509 -1.288569 2.315799 0.062808 -0.003873 -183737.000000 0 0 1
6.767793 -21.028613 -22.054305 31.215348 -1.259428 2.355367 0.056496 -0.006991 283790.000000 0 0 1
5.585493 -20.257813 -22.185605 30.557778 -1.301760 2.383315 0.055569 -0.003932 126289.000000 0 0 1
5.891893 -18.972913 -22.654705 30.131735 -1.269696 2.421668 0.064569 -0.007038 150862.000000 0 0 1
4.595593 -18.146213 -22.827505 29.521170 -1.322758 2.454761 0.058864 -0.003415 -690790.000000 0 0 1
3.864993 -18.646613 -23.892005 30.552614 -1.366415 2.468657 0.056548 -0.001091 -566015.000000 0 0 1
3.087893 -17.728713 -24.583605 30.466309 -1.398352 2.509700 0.043237 0.008432 893343.000000 0 0 1
1.774093 -17.127313 -23.921105 29.473912 -1.467582 2.517686 0.030916 0.010472 478585.000000 0 0 1
1.983893 -16.433813 -22.719505 28.110175 -1.450658 2.511938 0.033016 0.005617 851441.000000 0 0 1
0.720693 -15.862913 -22.243205 27.329683 -1.525395 2.521603 0.025474 0.007898 1345300.000000 0 0 1
0.899993 -15.076013 -20.948905 25.825429 -1.511170 2.516952 0.017181 0.001059 -4888.830000 0 0 1
1.492193 -13.780313 -21.025405 25.183155 -1.462932 2.558747 0.014150 -0.001476 -106820.000000 0 0 1
1.667093 -13.264413 -19.733305 23.835418 -1.445770 2.546147 0.012544 -0.005487 -210084.000000 0 1 0
2.922193 -12.392313 -19.581105 23.356547 -1.339220 2.565057 0.009917 -0.007213 363517.000000 0 1 0
4.129193 -13.231613 -19.446405 23.880714 -1.268303 2.522343 0.012819 0.001218 1020520.000000 0 1 0
5.309393 -12.462513 -19.574305 23.804565 -1.168054 2.536223 0.017545 -0.002714 306269.000000 0 1 0
5.663093 -11.447913 -18.450705 22.440005 -1.111411 2.536103 0.019584 0.003986 -1309790.000000 0 1 0
4.909493 -10.254813 -18.387705 21.618788 -1.124293 2.587813 0.007285 0.009107 -325874.000000 0 1 0
5.334793 -9.148713 -19.165005 21.896492 -1.042881 2.636758 0.014596 -0.001900 -296405.000000 0 1 0
4.787093 -9.095113 -20.637405 23.055147 -1.086302 2.679524 0.017175 -0.009483 303349.000000 0 1 0
3.365493 -9.073713 -20.642905 22.798867 -1.215620 2.703201 0.007265 -0.015036 184339.000000 0 1 0
2.826693 -8.937913 -21.979405 23.894994 -1.264491 2.738451 0.011892 -0.023645 1220670.000000 0 1 0
1.258093 -8.890713 -22.095305 23.850159 -1.430223 2.755591 0.013316 -0.022237 958110.000000 0 1 0
0.719393 -7.647813 -21.668205 22.989512 -1.477007 2.800907 0.014184 -0.018463 -37514.100000 0 1 0
-0.689407 -7.619313 -21.807105 23.110150 1.480560 2.804185 0.015016 -0.015475 200457.000000 0 1 0
-1.145307 -6.633813 -22.894405 23.863633 1.399835 2.855609 0.033446 -0.015146 -341756.000000 0 1 0
-0.655007 -7.030313 -24.151305 25.162271 1.477896 2.857164 0.035317 -0.019477 -172418.000000 0 0 1
-1.054607 -6.282613 -25.269875 26.060507 1.404486 2.894639 0.027430 -0.020332 -136931.000000 0 0 1
-0.809007 -4.762713 -25.442295 25.896878 1.402540 2.953948 0.034980 -0.023813 -135428.000000 0 0 1
-1.140507 -4.190513 -26.733275 27.083743 1.305069 2.980545 0.026852 -0.019143 8382.090000 0 0 1
-0.598307 -2.931313 -27.133695 27.298131 1.369453 3.031777 0.019908 -0.014796 -1108880.000000 0 0 1
-1.086307 -1.680413 -26.452865 26.528436 0.996919 3.066094 0.019301 -0.015784 -51447.600000 0 0 1
-2.486007 -1.484113 -26.418175 26.576358 0.538201 3.032433 0.007249 -0.008000 -43004.000000 0 0 1
-3.087607 -1.170813 -27.657085 27.853518 0.362446 3.022759 0.012833 -0.006970 -1174870.000000 0 0 1
-4.594907 -1.152813 -27.430545 27.836612 0.245815 2.970577 0.010816 -0.004792 -565464.000000 0 0 1
-5.031607 0.000087 -26.698595 27.168586 -0.000017 2.955318 0.014298 -0.006451 -450338.000000 0 0 1
-6.406407 -0.206513 -26.509455 27.273355 0.032224 2.904355 0.014471 -0.017289 -805781.000000 0 0 1
-7.140007 0.966187 -25.781925 26.769775 -0.134503 2.869082 0.017830 -0.008634 -895441.000000 0 0 1
-7.364307 2.046487 -26.644375 27.719016 -0.271054 2.862228 0.026471 -0.014209 118506.000000 0 0 1
-8.362307 1.872687 -27.614205 28.913309 -0.220309 2.840689 0.039838 -0.011567 938175.000000 0 0 1
-9.848807 1.475787 -27.196495 28.962498 -0.148738 2.790579 0.031748 -0.008727 1081220.000000 0 0 1
-10.871107 1.821387 -28.157365 30.237983 -0.166002 2.768465 0.028159 -0.010483 164831.000000 0 0 1
-12.140207 1.529687 -27.669815 30.254640 -0.125341 2.725226 0.002040 -0.002620 -1203960.000000 0 0 1
-13.218907 2.149387 -28.514765 31.503193 -0.161189 2.702503 -0.013376 0.003380 -1083950.000000 0 0 1
-14.488107 1.553787 -28.249175 31.785773 -0.106837 2.665378 -0.007244 0.007337 624514.000000 0 0 1
-15.505807 2.140787 -29.073835 33.019705 -0.137196 2.647711 -0.006238 0.012284 307932.000000 0 0 1
-16.136107 3.422587 -28.390415 32.834490 -0.209010 2.615254 -0.007066 0.013595 -444158.000000 0 0 1
-15.339107 4.638487 -28.355395 32.570419 -0.293654 2.627191 -0.001631 0.004246 444930.000000 0 0 1
-14.942307 5.289787 -29.602695 33.579368 -0.340246 2.649982 -0.018438 0.006922 -234514.000000 0 0 1
-16.077607 5.814387 -30.517185 34.979925 -0.347011 2.630928 -0.010180 0.011096 -68804.400000 0 0 1
-16.648007 6.965587 -29.973045 34.986554 -0.396270 2.599638 -0.002651 0.008974 151645.000000 0 0 1
-17.578207 7.724387 -30.709445 36.217807 -0.414029 2.582827 -0.006275 0.002254 -77202.500000 0 0 1
-18.440407 8.701187 -29.864765 36.161630 -0.440879 2.542538 -0.005696 -0.003732 -143731.000000 0 0 1
-17.707007 9.698387 -29.240835 35.533410 -0.501087 2.537312 -0.010911 -0.006168 -34741.600000 0 0 1
-18.613207 10.693687 -28.906565 36.005499 -0.521475 2.502836 -0.001519 -0.002884 -238013.000000 0 0 1
-8.447307 24.759387 31.499168 40.946084 -1.242004 0.693077 -0.020122 0.008793 -609790.000000 0 0 1
-9.261707 25.845587 31.166218 41.534404 -1.226704 0.722173 -0.016029 0.004750 -266479.000000 0 0 1
-9.123507 26.908487 32.106008 42.873078 -1.243903 0.724453 0.001904 0.003148 230660.000000 0 0 1
-7.742907 27.637087 32.157808 43.103199 -1.297636 0.728663 -0.000320 -0.002667 322929.000000 0 0 1
-7.567307 28.504087 31.028058 42.807563 -1.311301 0.760014 0.008081 0.013976 432087.000000 0 0 1
-6.177907 28.627587 30.743238 42.460004 -1.358253 0.761138 0.004186 0.012279 451160.000000 0 0 1
-5.943707 29.719087 29.610558 42.371416 -1.373404 0.797031 0.017776 0.003665 -280753.000000 0 0 1
-6.079007 31.009787 30.196448 43.707970 -1.377216 0.808107 0.022331 0.004339 354104.000000 0 0 1
-5.763307 32.136687 29.342458 43.897178 -1.393345 0.838692 0.033706 0.008926 25261.200000 0 0 1
-6.152107 33.466487 29.978618 45.349440 -1.388997 0.848568 0.031935 0.007797 -69937.600000 0 0 1
-5.320807 33.644187 31.128418 46.143480 -1.413946 0.830373 0.023266 0.006437 -57890.300000 0 0 1
-5.607007 -34.400477 32.024688 47.332990 1.409225 0.827684 0.026268 0.005681 500820.000000 0 0 1
-6.873907 34.510987 32.944118 48.203462 -1.374189 0.818333 0.018788 0.010791 667457.000000 0 0 1
-6.698107 33.531687 34.014937 48.231262 -1.373637 0.788025 0.018860 0.012150 -57119.200000 0 0 1
-6.637607 32.144787 33.580369 46.957282 -1.367167 0.773992 0.019869 0.010577 -149675.000000 0 0 1
-6.662507 31.123887 -34.320944 46.808253 -1.359915 2.393848 0.018858 0.003284 169778.000000 0 0 1
-5.395207 31.078187 -33.693215 46.154032 -1.398908 2.389143 0.008830 0.006266 116774.000000 0 0 1
-5.469807 30.291987 -32.552575 44.801712 -1.392152 2.384145 0.010024 0.003179 -851751.000000 0 0 1
-4.120207 30.178487 -31.824655 44.051400 -1.435107 2.378126 -0.006397 0.002327 167288.000000 0 0 1
-3.327707 29.057887 -32.140875 43.456533 -1.456773 2.403287 -0.004582 0.005705 -29127.900000 0 0 1
-2.903507 28.888887 -33.497125 44.328947 -1.470627 2.427441 0.001159 0.010248 -967969.000000 0 0 1
-2.242607 27.497087 -33.557125 43.441912 -1.489418 2.453502 0.005712 -0.000080 -1612030.000000 0 0 1
-0.991607 27.411087 -32.965925 42.884766 -1.534637 2.447617 0.018889 0.003936 -738561.000000 0 0 1
-0.347607 26.155387 -33.066545 42.161849 -1.557507 2.472325 0.025166 -0.003260 315110.000000 0 0 1
0.132793 25.855687 34.503782 43.116646 1.565660 0.643096 0.022090 0.004059 -706508.000000 0 0 1
-0.976307 25.563887 33.669195 42.285697 -1.532624 0.649756 0.024788 -0.001839 64144.200000 0 0 1
-0.724507 25.404587 32.293708 41.095030 -1.542285 0.666759 0.031402 0.006268 -190991.000000 0 0 1
-0.446007 26.742887 31.481948 41.309732 -1.554120 0.704253 0.018021 0.008073 526582.000000 0 0 1
-1.640707 27.507787 31.327078 41.722369 -1.511222 0.721454 0.008279 0.007959 471352.000000 0 0 1
-1.223107 28.781087 30.860658 42.216432 -1.528325 0.750995 0.007034 0.011634 -226199.000000 0 0 1
-2.235207 29.880987 31.035948 43.140464 -1.496132 0.767835 0.013345 0.004182 -500229.000000 0 0 1
-2.269107 30.254187 32.401338 44.388190 -1.495935 0.752542 0.017057 0.019815 -99816.000000 0 0 1
-2.880207 31.530187 32.521688 45.388418 -1.479702 0.771996 0.017982 0.022206 -80087.100000 0 0 1
-2.225907 32.372387 33.622072 46.726543 -1.502145 0.767643 0.031144 0.016664 -289235.000000 0 0 1
-1.141007 33.069187 33.120177 46.816868 -1.536306 0.784925 -0.007276 0.009102 -1345250.000000 0 0 1
-0.175107 33.312387 34.078012 47.655605 -1.565540 0.774045 -0.014365 0.008839 -711758.000000 0 0 1
1.050193 34.007687 33.494589 47.744247 1.539925 0.793237 0.013304 -0.004522 -517335.000000 0 0 1
0.778793 -33.821577 33.047760 47.293340 -1.547774 0.797102 0.030476 -0.017192 166031.000000 0 0 1
1.932093 -33.097877 32.671578 46.547121 -1.512487 0.792730 0.018869 -0.022186 211859.000000 0 0 1
1.476193 -31.752677 32.004008 45.107296 -1.524339 0.781996 0.022632 -0.015547 -30988.100000 0 0 1
0.770293 -30.932877 32.890638 45.157838 -1.545899 0.754888 0.016742 -0.000263 -126160.000000 0 0 1
1.376793 -29.705377 32.904388 44.350916 -1.524481 0.734882 0.028772 -0.009632 -98235.700000 0 0 1
1.209093 -28.984777 34.265738 44.896770 -1.529106 0.702527 0.020020 -0.003313 713409.000000 0 0 1
-0.097607 -28.402477 34.356783 44.576886 1.567360 0.690809 0.021956 -0.000265 552919.000000 0 0 1
-0.360907 -27.900477 -33.371975 43.500064 1.557862 2.445215 0.009645 0.014442 -786926.000000 0 0 1
-1.686007 -27.212277 -33.195465 42.956833 1.508918 2.453980 -0.002909 0.021413 -836377.000000 0 0 1
-1.968807 -27.092077 -31.781575 41.808197 1.498253 2.434380 -0.006001 0.018704 110022.000000 0 0 1
-3.108007 -26.254177 -31.668975 41.253673 1.452963 2.445985 0.011943 0.007263 9835.520000 0 0 1
-3.448707 -25.716677 -30.267265 39.866633 1.437488 2.432899 0.013349 0.000630 -198338.000000 0 0 1
-4.047207 -26.699977 -29.467755 39.970204 1.420361 2.399777 0.001688 0.001945 -69391.300000 0 0 1
-4.392507 -26.316577 -28.154565 38.788347 1.405411 2.383067 0.003761 0.000571 716228.000000 0 0 1
-3.215007 -25.840177 -27.185705 37.644569 1.447013 2.377728 0.005318 -0.001076 701092.000000 0 0 1
-2.695607 -24.577977 -27.516175 36.993015 1.461557 2.409565 0.006637 -0.000254 -80305.500000 0 0 1
-1.472307 -24.348477 -26.851765 36.277173 1.510402 2.404140 0.007321 0.003093 -1863880.000000 0 0 1
-0.748907 -23.152777 -27.410735 35.888164 1.538461 2.439949 0.006589 0.004959 -274524.000000 0 0 1
-0.007407 -23.400777 -28.589645 36.945422 1.570480 2.455669 -0.013094 -0.001271 496982.000000 0 0 1
0.996893 -24.439177 -28.506975 37.562146 -1.530028 2.432462 -0.009425 0.007195 -518243.000000 0 0 1
1.754893 -24.808077 -29.811255 38.823076 -1.500175 2.446313 -0.026206 0.005698 339709.000000 0 0 1
2.761493 -23.868577 -30.164785 38.564868 -1.455613 2.468958 -0.007410 -0.005493 -89640.200000 0 0 1
3.360293 -24.208677 -31.357505 39.757323 -1.432872 2.479525 0.005116 -0.006676 -1048630.000000 0 0 1
4.316593 -23.071577 -31.824325 39.543878 -1.385839 2.506110 0.016720 -0.016237 -131737.000000 0 0 1
5.547493 -22.937877 -31.146155 39.076897 -1.333504 2.493187 0.018687 -0.019849 548068.000000 0 0 1
6.463293 -24.040377 -31.073365 39.815423 -1.308155 2.466158 0.008540 -0.016517 84083.900000 0 0 1
7.307793 -24.221177 -32.407615 41.113535 -1.277771 2.478751 -0.003831 -0.009300 -319073.000000 0 0 1
6.495293 -24.901077 -33.306775 42.090304 -1.315638 2.483756 -0.017854 -0.006431 -83787.500000 0 0 1
6.901493 -24.768377 34.373693 42.926144 -1.299048 0.642227 -0.010903 -0.003618 31698.000000 0 0 1
6.336893 -23.511477 33.695413 41.573148 -1.307529 0.625776 -0.018346 0.004283 -533999.000000 0 0 1
4.952893 -23.375077 33.603630 41.232624 -1.361997 0.618107 -0.000200 0.005375 -1063490.000000 0 0 1
4.563593 -22.137877 33.039677 40.031640 -1.367500 0.599994 0.015494 -0.005533 95681.500000 0 0 1
3.125693 -21.774477 33.537708 40.108299 -1.428222 0.580518 0.010980 -0.009644 709655.000000 0 0 1
2.094493 -22.666977 33.153693 40.216242 -1.478655 0.601680 0.017746 0.000214 -156241.000000 0 0 1
2.051693 -23.954177 33.791044 41.471034 -1.485354 0.618394 0.012763 0.004510 -863804.000000 0 0 1
0.850893 -24.889977 33.538024 41.773604 -1.536623 0.638733 0.019059 -0.000540 252212.000000 0 0 1
0.925793 -25.462877 32.269348 41.116007 -1.534454 0.668364 0.022256 -0.008007 692463.000000 0 0 1
-0.391307 -25.962877 32.001328 41.210546 1.555726 0.681653 0.036001 -0.020487 709446.000000 0 0 1
-0.490807 -26.995877 30.871728 41.013191 1.552618 0.718602 0.041070 -0.034609 207536.000000 0 0 1
-1.830207 -27.232577 30.469428 40.906588 1.503691 0.730481 0.048140 -0.031259 250325.000000 0 0 1
-1.901407 -28.419077 29.638178 41.105728 1.503990 0.765519 0.042763 -0.029788 -173098.000000 0 0 1
-3.253607 -28.632377 28.954648 40.850589 1.457648 0.783009 0.043395 -0.019775 -565591.000000 0 0 1
-4.338307 -28.866977 29.774298 41.696907 1.421627 0.775509 0.043156 -0.014238 -211284.000000 0 0 1
-5.522807 -29.230877 29.081948 41.601746 1.384060 0.796720 0.040416 -0.004039 381689.000000 0 0 1
-6.662507 -29.688577 30.029278 42.749949 1.350041 0.791976 0.031958 0.006753 1015970.000000 0 0 1
-7.870807 -30.162177 29.347288 42.813197 1.315539 0.815543 0.029126 0.009723 1682860.000000 0 0 1
-8.969207 -30.519577 30.192418 43.857421 1.284960 0.811485 0.014916 0.009916 407796.000000 0 0 1
-8.766507 -31.737977 31.118098 45.304380 1.301301 0.813626 0.011792 0.014719 -554761.000000 0 0 1
-8.751307 -33.038877 30.570678 45.855415 1.311864 0.841057 0.023694 0.010324 823093.000000 0 0 1
-10.036507 -33.486777 30.104018 46.134018 1.279601 0.859873 0.020846 0.010035 538892.000000 0 0 1
-9.933807 34.168887 29.527848 46.239455 -1.287869 0.878137 0.025648 0.007232 -348283.000000 0 0 1
-9.943507 33.158287 30.505738 46.140496 -1.279450 0.848447 0.024601 0.008743 222200.000000 0 0 1
-9.700107 31.893887 29.929988 44.800851 -1.275549 0.839188 0.016351 0.000738 -170370.000000 0 0 1
-10.126207 30.697487 30.796548 44.646424 -1.252165 0.809601 0.018039 0.014489 -408082.000000 0 0 1
-11.500907 30.480787 30.940628 44.929630 -1.209996 0.811176 0.006668 0.021428 -510354.000000 0 0 1
-11.808407 29.241787 31.526388 44.591857 -1.187002 0.785551 0.002886 0.019089 -158276.000000 0 0 1
-11.871607 29.324287 33.082561 45.774498 -1.186126 0.763053 0.008212 0.009458 -698617.000000 0 0 1
-12.887807 30.135787 33.567635 46.915321 -1.166677 0.773465 0.009212 0.013324 -241898.000000 0 0 1
-13.064407 29.911787 -34.084707 47.192806 -1.159003 2.377837 0.011019 0.008399 -305474.000000 0 0 1
-14.343807 30.537987 -33.539175 47.572994 -1.131678 2.353226 0.005966 0.008807 -298088.000000 0 0 1
-14.519307 30.152787 -32.190665 46.435329 -1.122038 2.336766 0.008227 0.003602 1029390.000000 0 0 1
-15.884607 30.373387 -31.747235 46.719913 -1.088936 2.317908 0.011944 -0.001845 1353360.000000 0 0 1
-15.990007 30.111087 -30.203775 45.548062 -1.082631 2.295774 0.028521 -0.007243 -51992.400000 0 0 1
-15.924207 28.721687 -29.926205 44.430771 -1.064557 2.309793 0.021803 -0.011638 49055.900000 0 0 1
-16.045507 28.550587 -28.517885 43.426537 -1.058785 2.287221 0.023367 -0.016702 -193809.000000 0 0 1
-16.386307 27.086987 -28.150245 42.363336 -1.026744 2.297615 0.009010 -0.013102 173198.000000 0 0 1
-17.726407 26.776787 -28.498215 42.934486 -0.986027 2.296632 0.002811 -0.007477 -75034.300000 0 0 1
-18.051307 25.528987 -28.041345 41.998761 -0.955327 2.301872 -0.004639 -0.004004 635590.000000 0 0 1
-19.471807 25.001987 -28.454915 42.590290 -0.909110 2.302459 -0.008195 0.000149 96517.000000 0 0 1
-20.503607 25.652887 -27.835285 43.049641 -0.896500 2.273897 -0.001272 -0.002514 -834121.000000 0 0 1
-21.764007 25.209487 -28.254245 43.674851 -0.858616 2.274338 0.020517 -0.009104 543404.000000 0 0 1
-22.978207 25.287087 -27.262045 43.711027 -0.833199 2.244248 0.045765 -0.023266 464538.000000 0 0 1
-23.464407 26.590887 -27.091215 44.627207 -0.847778 2.223147 0.031911 -0.009514 791317.000000 0 0 1
-24.684607 26.759787 -26.330445 44.930039 -0.825715 2.196950 0.026291 -0.013369 935274.000000 0 0 1
-24.564407 26.341387 -24.815905 43.739089 -0.820291 2.174095 0.034225 -0.000366 -585400.000000 0 0 1
-24.368807 24.978787 -24.502105 42.639556 -0.797758 2.182952 0.026088 0.000352 287014.000000 0 0 1
-25.533827 24.175987 -24.265705 42.723285 -0.758090 2.174838 0.023195 0.001384 544182.000000 0 0 1
-26.339377 24.283187 -22.898305 42.517859 -0.744802 2.139520 0.015374 0.001339 181487.000000 0 0 1
-25.672177 23.916487 -21.700605 41.255003 -0.750008 2.124700 0.008273 0.004488 -158678.000000 0 0 1
-24.843207 24.909187 -21.184305 41.066133 -0.786724 2.112806 0.019084 0.004398 -272932.000000 0 0 1
-23.855607 24.456587 -20.067105 39.622006 -0.797837 2.101875 0.018066 0.005052 118065.000000 0 0 1
-24.377107 24.287487 -18.760305 39.192785 -0.783557 2.069933 0.014412 0.007297 -128297.000000 0 0 1
-23.304907 24.241287 -17.864905 38.077730 -0.805090 2.059146 0.013901 -0.002472 -564001.000000 0 0 1
-23.635807 24.137587 -16.367305 37.538822 -0.795901 2.021957 -0.001354 -0.003017 18021.600000 0 0 1
-24.197807 25.369187 -15.841405 38.471803 -0.809026 1.995188 0.010908 -0.013252 267732.000000 0 0 1
-24.606707 25.190787 -14.497205 38.081948 -0.797127 1.961333 -0.021107 -0.002964 -24852.700000 0 0 1
-24.822507 26.487787 -13.738805 38.813844 -0.817842 1.932605 -0.018221 -0.001319 143934.000000 0 0 1
-23.635607 27.272587 -13.702805 38.603145 -0.856719 1.933674 0.006537 -0.005111 166220.000000 0 0 1
-23.584107 28.007287 -12.449805 38.673193 -0.870924 1.898557 0.005790 -0.009667 809882.000000 0 0 1
-22.152707 28.568187 -12.080705 38.115970 -0.911216 1.893304 0.007544 -0.009577 646322.000000 0 0 1
-21.295807 27.548887 -11.626305 36.709992 -0.912725 1.893052 0.005836 -0.011255 -453406.000000 0 0 1
-20.307007 28.031487 -10.779105 36.253661 -0.943858 1.872686 -0.006575 -0.006188 -824212.000000 0 0 1
-19.584507 26.914887 -10.103705 34.785757 -0.941756 1.865499 0.010315 -0.004722 -371251.000000 0 0 1
-18.718207 26.142087 -10.891205 33.946993 -0.949401 1.897402 0.002271 0.002948 242219.000000 0 0 1
-18.185707 24.983887 -10.289405 32.569716 -0.941592 1.892222 0.007009 0.006895 -257607.000000 0 0 1
-17.637707 23.941287 -11.256305 31.795886 -0.935857 1.932660 0.011786 0.002296 -126204.000000 0 0 1
-17.215307 22.731087 -10.697005 30.454803 -0.922610 1.929694 0.005235 0.003789 279039.000000 0 0 1
-16.635107 21.966887 -11.749605 29.955369 -0.922652 1.973859 0.019434 -0.001986 -83551.400000 0 0 1
-16.356207 20.484687 -11.397805 28.584224 -0.896995 1.980944 0.014645 0.002570 -450208.000000 0 0 1
-17.471407 19.621787 -11.334305 28.613477 -0.843306 1.978081 0.019504 0.003133 11707.900000 0 0 1
-17.148907 18.311387 -10.850505 27.333594 -0.818169 1.979005 0.029279 -0.003881 -1979880.000000 0 0 1
-18.376007 17.491587 -10.575205 27.485782 -0.760745 1.965735 0.030307 -0.004693 -456639.000000 0 0 1
-19.099407 17.011187 -11.742005 28.143250 -0.727634 2.001184 0.026565 -0.005125 552636.000000 0 0 1
-19.881107 18.005087 -12.384205 29.543360 -0.735921 2.003346 0.021873 0.007557 -931749.000000 0 0 1
-20.638607 17.393787 -13.564405 30.207433 -0.700287 2.036489 0.022636 0.005987 -211612.000000 0 0 1
-19.782607 17.215187 -14.684405 30.055714 -0.716115 2.081250 0.034845 0.004645 97973.800000 0 0 1
-20.503507 16.934087 -15.851605 30.958529 -0.690342 2.108339 0.012245 0.014947 323816.000000 0 0 1
-19.621807 16.565587 -17.142005 30.875270 -0.701143 2.159402 0.026752 0.008739 329065.000000 0 0 1
-18.921607 17.730987 -17.537205 31.304451 -0.752926 2.165441 0.001558 0.010968 113213.000000 0 0 1
-18.221707 17.503487 -18.745505 31.461033 -0.765297 2.209098 -0.001279 0.015495 -408214.000000 0 0 1
-17.450507 18.693287 -19.288105 32.031081 -0.819769 2.217011 -0.008541 0.023028 -103853.000000 0 0 1
-16.249907 18.957687 -18.585005 31.126448 -0.862156 2.210653 -0.012138 0.011012 475800.000000 0 0 1
-15.485907 20.011387 -19.150805 31.733614 -0.912202 2.218663 0.002258 0.014175 201311.000000 0 0 1
32.104606 31.778787 1.850595 45.210859 0.780298 1.529852 0.043365 -0.003366 -349371.000000 0 0 1
33.326016 31.363587 1.323695 45.782640 0.755071 1.541880 0.043366 -0.006659 -279112.000000 0 0 1
33.515236 31.822487 -0.003505 46.216250 0.759496 1.570872 0.040821 -0.003288 48310.200000 0 0 1
34.931527 31.567187 -0.600605 47.085663 0.734849 1.583552 0.020435 0.002488 455696.000000 0 0 1
-34.615533 32.418287 0.043295 47.425545 -0.752632 1.569883 0.006229 0.010021 -403110.000000 0 0 1
-33.382357 32.314687 -0.606605 46.464919 -0.769148 1.583852 0.009307 0.009746 -465155.000000 0 0 1
-32.435457 33.437787 -0.086705 46.584890 -0.800613 1.572658 -0.002149 0.007262 24729.600000 0 0 1
-31.947407 33.160987 1.228695 46.062974 -0.804035 1.544119 -0.014495 0.010287 28557.200000 0 0 1
-31.228267 34.227187 1.788095 46.367039 -0.831182 1.532223 -0.013462 0.007842 -284500.000000 0 0 1
-30.747307 34.124287 3.206995 46.045072 -0.837408 1.501091 -0.015188 0.013788 188572.000000 0 0 1
-30.008447 -33.785777 3.650995 45.335587 0.844540 1.490176 -0.001587 0.011419 442905.000000 0 0 1
-29.412897 -33.939177 4.892395 45.176562 0.856723 1.462289 0.001169 0.005011 -443924.000000 0 0 1
-29.215267 -32.580277 5.712795 44.132101 0.839798 1.440984 0.004404 0.001016 615404.000000 0 0 1
-30.404557 -32.075377 6.378795 44.653734 0.812133 1.427456 0.000019 -0.005606 900679.000000 0 0 1
-30.845227 -32.818177 7.496195 45.658008 0.816379 1.405868 -0.003855 -0.012407 -1484940.000000 0 0 1
-31.990627 -32.144477 8.183095 46.082868 0.787797 1.392276 -0.006128 -0.016090 -271947.000000 0 0 1
-33.271267 -32.039577 7.594995 46.810209 0.766542 1.407825 -0.004571 -0.004676 278001.000000 0 0 1
-33.981997 -33.247077 7.405895 48.114359 0.774467 1.416259 -0.003205 -0.007955 -616482.000000 0 0 1
34.994545 -33.106577 7.178195 48.705135 -0.757682 1.422877 -0.002924 0.001356 -23331.700000 0 0 1
34.272886 -33.161977 8.398895 48.424053 -0.768926 1.396470 0.001432 0.002306 91186.900000 0 0 1
32.985376 -32.643677 8.115395 47.111616 -0.780192 1.397674 0.008380 0.006350 315953.000000 0 0 1
31.875366 -32.983577 9.182695 46.779025 -0.802483 1.373214 0.009356 -0.005520 206541.000000 0 0 1
30.648436 -32.346077 8.851595 45.430673 -0.812341 1.374705 0.017475 -0.011663 104358.000000 0 0 1
29.829616 -32.395977 10.018495 45.162768 -0.826618 1.347105 0.025744 -0.009270 -271065.000000 0 0 1
30.038486 -31.298177 11.107795 44.780237 -0.805933 1.320128 0.024327 0.000882 -603453.000000 0 0 1
29.567986 -29.999077 10.807995 43.485896 -0.792635 1.319623 0.027442 -0.002615 113359.000000 0 0 1
30.148796 -29.325077 9.685595 43.159249 -0.771549 1.344453 0.032458 -0.010708 225689.000000 0 0 1
29.365646 -28.015477 9.208095 41.617270 -0.761873 1.347694 0.035242 -0.011543 451318.000000 0 0 1
29.708176 -27.620677 7.888895 41.324475 -0.749002 1.378716 0.038084 -0.017576 60194.600000 0 0 1
28.839706 -26.546877 7.600395 39.927827 -0.744025 1.379274 0.028823 -0.008504 147164.000000 0 0 1
29.027936 -25.998177 6.121795 39.446200 -0.730393 1.414973 0.024559 0.000313 -112764.000000 0 0 1
30.350096 -25.607377 5.886995 40.143777 -0.700844 1.423618 0.044263 -0.003828 -596012.000000 0 0 1
30.457266 -24.944877 4.620995 39.638940 -0.686227 1.453953 0.035498 -0.005511 1627620.000000 0 0 1
32.000786 -24.608077 4.371995 40.604459 -0.655540 1.462914 0.047775 -0.009388 1956380.000000 0 0 1
32.832326 -25.754677 4.277195 41.947103 -0.665175 1.468652 0.031667 -0.006397 365916.000000 0 0 1
34.212976 -25.515177 4.040695 42.870494 -0.640792 1.476403 0.034886 -0.008401 905693.000000 0 0 1
35.115755 -26.805677 3.976695 44.356225 -0.651992 1.481022 0.031643 -0.004334 349735.000000 0 0 1
35.128106 -27.519277 5.194495 44.925241 -0.664535 1.454912 0.023483 0.001160 -184796.000000 0 0 1
-34.989065 -28.874177 5.079995 45.648210 0.689939 1.459280 0.021536 -0.002350 -820343.000000 0 0 1
34.747462 -29.876077 6.032395 46.220730 -0.710159 1.439910 0.020662 -0.000699 326874.000000 0 0 1
33.490466 -30.268577 5.528295 45.479228 -0.734909 1.448938 0.016706 -0.000410 -548931.000000 0 0 1
32.489436 -29.347677 5.813995 44.166188 -0.734635 1.438774 0.022476 0.005298 -1663680.000000 0 0 1
31.070526 -29.637977 5.393195 43.276712 -0.761805 1.445850 0.021949 0.002755 -1604180.000000 0 0 1
30.978016 -29.566477 3.998795 43.009353 -0.762088 1.477687 0.015534 0.002682 685995.000000 0 0 1
29.705776 -29.137677 3.471895 41.755136 -0.775744 1.487551 0.017065 0.007660 1123060.000000 0 0 1
28.462416 -30.013977 3.822495 41.539853 -0.811925 1.478646 0.022401 0.003755 -406880.000000 0 0 1
28.506936 -31.341477 3.323895 42.496846 -0.832725 1.492501 0.024326 0.007364 -436397.000000 0 0 1
27.297336 -32.055277 3.421095 42.242032 -0.865391 1.489720 0.028802 0.002962 -335655.000000 0 0 1
27.356116 -33.513577 2.876195 43.356539 -0.886213 1.504409 0.028221 0.001228 -158449.000000 0 0 1
27.436136 -33.518177 1.485095 43.340688 -0.884849 1.536524 0.029508 0.002578 218591.000000 0 0 1
27.532726 34.242187 1.048495 43.950856 0.893585 1.546938 0.020087 0.007518 -396939.000000 0 0 1
27.226636 34.127187 -0.425505 43.659314 0.897399 1.580543 0.012695 -0.003136 -390033.000000 0 0 1
28.169796 -34.444077 -1.306805 44.515611 -0.885271 1.600157 0.007998 -0.000499 -429346.000000 0 0 1
27.661526 -34.539877 -2.582205 44.326413 -0.895533 1.629084 0.013322 0.000166 -351215.000000 0 0 1
28.590896 -34.050177 -3.701505 44.615637 -0.872330 1.653856 0.007187 0.004016 -59168.700000 0 0 1
28.684906 -32.645277 -3.826805 43.625479 -0.849883 1.658629 -0.001191 0.003523 40976.000000 0 0 1
29.575286 -32.233877 -4.838605 44.012867 -0.828385 1.680955 0.006702 -0.001049 -438970.000000 0 0 1
29.769176 -30.702477 -4.840605 43.038093 -0.800831 1.683507 0.008283 0.012065 -660931.000000 0 0 1
28.645996 -29.834477 -4.865005 41.645617 -0.805718 1.687883 -0.001654 -0.001978 -223413.000000 0 0 1
28.907206 -28.437177 -4.728805 40.824762 -0.777202 1.686889 0.007514 -0.005802 -377014.000000 0 0 1
29.892156 -27.752677 -5.698005 41.185184 -0.748300 1.709592 0.027831 -0.009241 1151770.000000 0 0 1
31.275596 -28.108677 -5.455805 42.403142 -0.732119 1.699819 0.028614 -0.003996 1334910.000000 0 0 1
32.244006 -27.680977 -6.442905 42.981664 -0.709399 1.721262 0.034251 -0.004873 721552.000000 0 0 1
32.385126 -28.559577 -7.730305 43.865744 -0.722710 1.747948 0.041074 -0.002455 -248342.000000 0 0 1
31.187186 -28.541677 -8.496405 43.121419 -0.741135 1.769128 0.034771 0.000019 198164.000000 0 0 1
31.145226 -29.445877 -9.591905 43.921401 -0.757359 1.790959 0.019064 0.005667 128807.000000 0 0 1
31.067286 -30.971177 -9.317005 44.846367 -0.783849 1.780074 0.007907 0.010390 -275296.000000 0 0 1
32.299486 -31.490677 -8.925605 45.984628 -0.772720 1.766136 0.018135 0.006908 -685736.000000 0 0 1
32.076956 -32.758777 -8.267405 46.587751 -0.795914 1.749200 0.015503 -0.004196 -538430.000000 0 0 1
33.333106 -33.416677 -7.754305 47.831993 -0.786650 1.733630 0.017093 -0.007930 -800404.000000 0 0 1
33.232886 34.426087 -7.070305 48.369096 0.803032 1.717496 0.009860 -0.007801 -288999.000000 0 0 1
32.891656 -34.505177 -5.730905 48.013660 -0.809334 1.690441 0.013604 -0.004465 -212746.000000 0 0 1
32.600566 33.267187 -5.023305 46.848012 0.795518 1.678228 0.005592 -0.001914 743054.000000 0 0 1
31.475766 32.581987 -5.645305 45.652812 0.802666 1.694771 0.025459 -0.011108 936421.000000 0 0 1
31.479936 31.234987 -5.253905 44.656627 0.781492 1.688721 0.027360 -0.002472 39754.200000 0 0 1
30.341666 30.415687 -5.905205 43.365910 0.786616 1.707392 0.041562 -0.006656 -28404.800000 0 0 1
30.517886 30.182987 -7.259705 43.532257 0.779881 1.738345 0.022775 -0.004240 -107309.000000 0 0 1
29.450176 29.471787 -7.868805 42.400675 0.785765 1.757461 0.015236 -0.006499 162172.000000 0 0 1
29.696096 29.060187 -9.289905 42.575285 0.774576 1.790765 0.004593 0.002510 -74380.300000 0 0 1
30.486906 27.872287 -9.440105 42.372531 0.740626 1.795470 -0.006469 0.005734 254163.000000 0 0 1
30.808926 27.578987 -10.807605 42.738680 0.730136 1.826448 -0.004573 0.014608 -31448.200000 0 0 1
31.870486 28.456287 -11.536805 44.255915 0.728863 1.834527 -0.002451 0.004870 -811634.000000 0 0 1
33.092806 28.362187 -10.838605 44.911277 0.708573 1.814536 0.011413 -0.006096 -46622.200000 0 0 1
33.910606 29.458287 -11.172205 46.287558 0.715253 1.814569 0.011568 -0.011032 -344388.000000 0 0 1
33.728116 30.673887 -10.250005 46.728319 0.738009 1.791948 0.012923 -0.012656 -597951.000000 0 0 1
34.426466 30.456987 -9.025405 46.843010 0.724296 1.764682 0.006294 -0.010455 124580.000000 0 0 1
34.266986 31.554887 -8.171405 47.293859 0.744218 1.744447 0.008782 -0.015279 -526946.000000 0 0 1
-35.085069 31.639187 -7.093105 47.773553 -0.733800 1.719821 -0.008714 -0.006210 984500.000000 0 0 1
-33.784027 31.948787 -7.586405 47.113045 -0.757486 1.732526 0.006675 -0.005979 158376.000000 0 0 1
-33.164337 31.004987 -8.403105 46.171362 -0.751760 1.753815 0.013772 -0.011615 -2139150.000000 0 0 1
-31.810317 31.501387 -8.835705 45.632262 -0.780519 1.765656 0.037489 -0.017442 -1339550.000000 0 0 1
-30.867337 31.635787 -7.802305 44.883087 -0.797692 1.745520 0.033002 -0.009651 344644.000000 0 0 1
-29.590847 32.198187 -8.078405 44.470239 -0.827571 1.753469 0.042117 -0.019090 338380.000000 0 0 1
-29.456607 33.515687 -8.829105 45.485669 -0.849767 1.766144 0.035951 -0.009987 -884509.000000 0 0 1
-29.616467 -34.420977 -8.071505 46.120364 0.860284 1.746712 0.021684 -0.013896 233678.000000 0 0 1
-28.601227 -34.164077 -7.111905 45.119769 0.873797 1.729079 0.032714 -0.013684 -124475.000000 0 0 1
-28.737097 -32.705477 -6.564405 44.029086 0.849895 1.720447 0.024836 -0.019487 8531.670000 0 0 1
-29.788767 -32.546377 -5.633305 44.478888 0.829608 1.697789 0.020654 -0.021421 -53661.100000 0 0 1
-29.653267 -33.234077 -4.438205 44.760673 0.842277 1.670114 0.014954 -0.016483 -935202.000000 0 0 1
-30.852037 -33.262877 -3.524405 45.504820 0.822982 1.648325 0.004086 -0.011671 -1064740.000000 0 0 1
-31.041937 -31.968877 -2.979605 44.659702 0.800108 1.637564 0.004543 -0.003705 400129.000000 0 0 1
-31.990067 -31.958277 -1.894905 45.258000 0.784901 1.612678 0.010313 0.000605 333971.000000 0 0 1
-32.481217 -30.583377 -1.461505 44.637523 0.755314 1.603544 0.020774 0.009193 -193938.000000 0 0 1
-33.428617 -30.632077 -0.419605 45.342835 0.741771 1.580051 0.013019 0.010099 -323917.000000 0 0 1
-33.997687 -29.348777 -0.277105 44.914032 0.712141 1.576966 0.026016 0.005744 -209889.000000 0 0 1
-34.934851 -29.234277 0.934295 45.562701 0.696794 1.550289 0.028119 0.008828 -840060.000000 0 0 1
34.393846 -29.987677 0.740695 45.637113 -0.717066 1.554566 0.016109 0.013260 -16575.300000 0 0 1
33.346036 -29.649377 1.650595 44.651631 -0.726784 1.533822 0.015823 0.011855 354016.000000 0 0 1
32.574926 -28.333477 1.300795 43.192636 -0.715874 1.540676 0.010803 0.011956 -697601.000000 0 0 1
31.468496 -28.604777 0.423895 42.528569 -0.737764 1.560829 0.002021 0.014343 249935.000000 0 0 1
30.850106 -27.348577 0.256795 41.227899 -0.725306 1.564568 0.000124 0.014670 -497965.000000 0 0 1
29.613296 -27.497777 -0.638905 40.416374 -0.748373 1.586605 -0.005152 0.011698 -485114.000000 0 0 1
28.396056 -27.959277 -0.130505 39.850649 -0.777648 1.574071 0.002105 0.019172 -67879.300000 0 0 1
28.292476 -29.380977 -0.027105 40.788562 -0.804269 1.571461 0.005531 0.020450 -351858.000000 0 0 1
27.881926 -30.058177 -1.389605 41.022272 -0.822941 1.604677 0.001819 0.006274 -351420.000000 0 0 1
26.534296 -29.782077 -1.678205 39.923143 -0.843005 1.612845 0.002024 0.014099 -162071.000000 0 0 1
26.158406 -30.035677 -3.027105 39.944555 -0.854287 1.646652 -0.004581 0.015626 -1078400.000000 0 0 1
24.704536 -30.426277 -3.156605 39.319672 -0.888813 1.651163 -0.006541 0.009804 -646013.000000 0 0 1
23.852536 -29.302677 -3.195505 37.918355 -0.887574 1.655170 0.005140 0.011810 -767721.000000 0 0 1
22.504336 -29.687277 -3.198605 37.389981 -0.922165 1.656448 -0.001049 0.006767 -104511.000000 0 0 1
21.690136 -28.346377 -3.348505 35.849569 -0.917649 1.664337 -0.000470 0.004540 -40744.300000 0 0 1
21.630036 -27.939077 -4.736205 35.649434 -0.911995 1.704045 0.005932 0.006554 155595.000000 0 0 1
21.105336 -26.613877 -4.837905 34.309459 -0.900326 1.712276 0.014835 -0.005092 -239407.000000 0 0 1
20.612636 -26.239877 -6.242005 33.946643 -0.904931 1.755726 0.015106 -0.023496 64569.600000 0 0 1
19.246236 -26.561777 -6.441405 33.428092 -0.943761 1.764704 0.011865 -0.022527 -138753.000000 0 0 1
18.729736 -25.934577 -7.605705 32.882397 -0.945331 1.804210 0.027364 -0.023588 1669430.000000 0 0 1
17.158836 -26.224577 -7.701305 32.271724 -0.991402 1.811761 0.017979 -0.019541 1576360.000000 0 0 1
16.453136 -25.517077 -6.714405 31.095179 -0.998093 1.788441 0.008735 -0.017061 905077.000000 0 0 1
15.043536 -25.853777 -6.714405 30.656304 -1.043814 1.791608 0.013900 -0.020188 984392.000000 0 0 1
14.221036 -25.077377 -5.704505 29.387992 -1.054930 1.766146 -0.002182 -0.012322 -457905.000000 0 0 1
14.582236 -25.440877 -4.404105 29.652588 -1.050330 1.719871 -0.010374 -0.005744 207851.000000 0 0 1
14.087936 -24.495977 -3.473905 28.470877 -1.048878 1.693117 -0.012378 0.001496 -174173.000000 0 0 1
14.138436 -24.984677 -2.035705 28.779742 -1.055840 1.641589 -0.005666 -0.000437 -169337.000000 0 0 1
13.423836 -26.179977 -1.921005 29.483569 -1.096999 1.635998 0.002960 0.002699 -218282.000000 0 0 1
14.284336 -27.238377 -1.720805 30.804750 -1.087805 1.626687 0.009936 -0.005480 -620332.000000 0 0 1
13.575936 -28.556377 -2.115005 31.689840 -1.127015 1.637587 0.014745 -0.000515 300998.000000 0 0 1
12.459936 -28.885977 -1.309405 31.485937 -1.163560 1.612395 0.032057 -0.009663 -26893.000000 0 0 1
11.800436 -30.091177 -1.592905 32.361498 -1.197070 1.620038 0.035987 -0.010313 125333.000000 0 0 1
12.526336 -31.408377 -1.055205 33.830588 -1.191306 1.601992 0.029266 -0.010370 621678.000000 0 0 1
13.725536 -31.713877 -1.776805 34.602274 -1.162344 1.622168 0.029832 -0.011681 136618.000000 0 0 1
14.304536 -32.960077 -1.443105 35.959268 -1.161331 1.610939 0.035663 -0.012251 -532837.000000 0 0 1
15.694136 -33.107277 -2.059805 36.696601 -1.128132 1.626957 0.023491 -0.004254 -171765.000000 0 0 1
16.573436 -32.188277 -1.388405 36.231087 -1.095307 1.609127 0.020919 0.006779 -709798.000000 0 0 1
17.808636 -32.044677 -1.997205 36.715088 -1.063554 1.625221 0.008908 0.008454 -942412.000000 0 0 1
18.567236 -30.988577 -1.216205 36.145723 -1.030992 1.604450 0.007994 0.007981 -369999.000000 0 0 1
17.967536 -29.704577 -1.381105 34.743369 -1.026800 1.610558 0.008060 0.003464 255280.000000 0 0 1
18.475736 -28.694677 -0.499905 34.131909 -0.998740 1.585443 0.001877 0.005899 -326762.000000 0 0 1
17.942836 -27.290277 -0.661105 32.667134 -0.989180 1.591035 0.002228 0.004448 -508350.000000 0 0 1
18.402936 -26.523677 -1.760105 32.330658 -0.964223 1.625264 0.000267 0.003679 447590.000000 0 0 1
17.694936 -26.801977 -2.976405 32.253926 -0.987277 1.663208 0.004707 0.003212 -149253.000000 0 0 1
31.558406 -29.246577 13.831895 45.195316 -0.747396 1.259758 0.007134 -0.005100 -254933.000000 0 0 1
32.267266 -29.900277 14.822295 46.420938 -0.747342 1.245804 0.022768 0.008362 -199470.000000 0 0 1
31.415596 -30.374577 15.836695 46.479625 -0.768552 1.223110 0.029590 0.011217 -278031.000000 0 0 1
32.177766 -30.748377 17.154495 47.698512 -0.762687 1.202910 0.023516 0.012796 -248797.000000 0 0 1
31.451456 -31.325277 18.212795 47.980965 -0.783388 1.181450 0.010428 0.013342 -86492.200000 0 0 1
32.207736 -31.484577 19.400895 49.040918 -0.774045 1.164068 0.005805 0.016157 -451025.000000 0 0 1
32.968686 -32.741777 19.641495 50.445481 -0.781945 1.170859 0.004475 0.013256 7333.840000 0 0 1
34.016696 -33.020777 18.687695 50.958192 -0.770543 1.195309 0.002064 0.015190 455223.000000 0 0 1
34.542683 -34.325377 18.928995 52.246869 -0.782243 1.200063 0.013380 0.004137 -634416.000000 0 0 1
-34.803655 34.513987 17.985595 52.211027 -0.781219 1.219113 0.009970 -0.000739 187880.000000 0 0 1
-33.588557 -33.864377 18.260495 51.072820 0.789487 1.205166 0.008397 0.002702 1295350.000000 0 0 1
-32.616967 -33.933077 17.194895 50.109727 0.805172 1.220533 0.021608 0.001431 230284.000000 0 0 1
-31.256477 -33.295877 17.591295 48.939110 0.816981 1.203115 0.005914 -0.007503 220831.000000 0 0 1
-30.254567 -33.377577 16.611595 48.014025 0.834438 1.217520 0.008424 -0.013395 30471.200000 0 0 1
-30.450907 -32.288877 15.681395 47.071600 0.814685 1.231165 0.012065 -0.006324 -761834.000000 0 0 1
-29.364477 -32.145077 14.580995 45.914964 0.830573 1.247636 -0.000183 -0.008666 877674.000000 0 0 1
-28.129877 -31.658077 15.158595 44.981183 0.844342 1.227069 -0.005972 -0.000924 633203.000000 0 0 1
-27.176217 -31.552977 14.112495 43.969304 0.859785 1.244051 0.000314 -0.002451 684445.000000 0 0 1
-25.814717 -30.904477 14.466095 42.787314 0.874895 1.225906 0.016700 -0.006029 1248060.000000 0 0 1
-24.714807 -30.874877 13.547395 41.804445 0.895761 1.240772 0.020649 -0.010562 506813.000000 0 0 1
-23.542107 -30.441777 14.203795 41.020488 0.912519 1.217214 0.019017 -0.003353 799559.000000 0 0 1
-22.193007 -30.524877 13.415995 40.053547 0.942148 1.229243 0.034380 -0.007834 860826.000000 0 0 1
-21.582207 -31.790377 13.198895 40.627953 0.974378 1.239920 0.038993 -0.014303 241854.000000 0 0 1
-20.309007 -31.596177 12.591695 39.614706 0.999522 1.247331 0.028309 -0.014642 561739.000000 0 0 1
-19.769907 -32.982277 12.105395 40.314023 1.030811 1.265813 0.036116 -0.013072 -48537.100000 0 0 1
-20.602607 -33.437277 11.072895 40.805979 1.018581 1.295996 0.036538 -0.017046 70093.500000 0 0 1
-20.418907 34.311087 10.886095 41.384653 -1.033979 1.304618 0.028794 -0.017104 -464139.000000 0 0 1
-21.554707 33.677787 10.114295 41.244366 -1.001464 1.323041 0.016310 -0.013761 -681821.000000 0 0 1
-21.397107 33.740987 8.695695 40.888941 -1.005639 1.356494 0.007004 -0.017609 -792654.000000 0 0 1
-22.508707 33.331687 8.002095 41.008253 -0.976844 1.374402 0.006111 -0.016850 -1212450.000000 0 0 1
-22.408807 33.469387 6.445095 40.790854 -0.980813 1.412128 0.001703 -0.014790 50890.500000 0 0 1
-21.522807 32.621387 5.700795 39.495382 -0.987579 1.425950 0.004571 -0.017739 75830.000000 0 0 1
-20.137207 32.819387 5.734395 38.929456 -1.020454 1.422956 0.005349 -0.017683 -352767.000000 0 0 1
-19.454507 34.150587 5.262395 39.653918 -1.052978 1.437696 0.007420 -0.023165 -832468.000000 0 0 1
-19.457307 -33.818277 6.152095 39.498240 1.048700 1.414403 0.007495 -0.019969 -123160.000000 0 0 1
-18.686607 -34.016477 7.310495 39.493713 1.068460 1.384617 0.010596 -0.020777 -556657.000000 0 0 1
-18.522207 -32.836677 8.313395 38.606114 1.057214 1.353758 0.013071 -0.016510 -832199.000000 0 0 1
-17.798807 -31.726277 7.904295 37.226766 1.059538 1.356839 0.007107 -0.020686 -551723.000000 0 0 1
-17.830507 -30.611277 8.764695 36.493796 1.043358 1.328256 0.015627 -0.020033 182436.000000 0 0 1
-17.226107 -30.598277 10.187995 36.562119 1.058045 1.288409 0.011654 -0.007436 1369130.000000 0 0 1
-15.810907 -30.879677 10.227695 36.168287 1.097582 1.284104 0.007407 -0.016631 664250.000000 0 0 1
-15.172307 -30.992677 11.468495 36.363049 1.115548 1.249930 0.009192 -0.010172 6851.940000 0 0 1
-13.815407 -31.711177 11.320395 36.395269 1.159928 1.254509 0.009747 -0.011338 -508651.000000 0 0 1
-12.977507 -30.931977 10.551995 35.164577 1.173551 1.266026 -0.006833 -0.008782 -1336090.000000 0 0 1
-11.970207 -31.714477 10.010295 35.345437 1.209891 1.283653 -0.010143 0.002640 -719393.000000 0 0 1
-10.854107 -30.851977 9.416395 34.034169 1.232508 1.290464 -0.008884 0.003914 -8671.210000 0 0 1
-10.126007 -30.166777 10.424195 33.484837 1.246946 1.254224 -0.009919 0.002802 -820556.000000 0 0 1
-9.156007 -29.299477 9.982495 32.279127 1.267914 1.256386 -0.003535 -0.003125 -454002.000000 0 0 1
-8.547207 -28.529077 11.160895 31.804537 1.279710 1.212241 -0.005625 0.010334 79919.500000 0 0 1
-9.392507 -27.640777 11.879995 31.517710 1.243232 1.184316 0.008381 -0.001553 -347933.000000 0 0 1
-8.727807 -27.115477 13.001895 31.312505 1.259393 1.142601 0.007381 0.006211 173682.000000 0 0 1
-9.278207 -25.732077 13.542595 30.522562 1.224737 1.111083 -0.003023 0.001852 247210.000000 0 0 1
-8.822507 -24.647777 12.809495 29.145029 1.227063 1.115745 -0.000524 0.004623 -17189.300000 0 0 1
-9.607907 -24.424477 11.650295 28.715786 1.196017 1.153040 0.006880 0.003895 131166.000000 0 0 1
-9.131607 -23.143677 10.979895 27.195112 1.194987 1.155190 -0.000369 0.005312 523372.000000 0 0 1
-7.869807 -23.281077 10.336995 26.660756 1.244821 1.172636 -0.000122 0.003236 46742.600000 0 0 1
-7.472607 -22.066777 9.738495 25.251154 1.244281 1.174867 -0.000206 0.002618 -302908.000000 0 0 1
-6.228707 -22.250077 8.874595 24.751185 1.297842 1.204080 0.001542 -0.002058 -281351.000000 0 1 0
-5.081707 -22.600977 9.622495 25.084264 1.349630 1.177098 0.000143 -0.000715 -896148.000000 0 0 1
-4.032407 -22.758377 8.713295 24.700720 1.395433 1.210283 -0.000175 -0.001547 -393990.000000 0 1 0
-2.803407 -23.402477 9.378795 25.367239 1.451573 1.192088 0.003140 -0.001282 -190764.000000 0 0 1
-2.127407 -22.592877 10.326395 24.931875 1.476910 1.143750 0.008739 -0.000194 -193657.000000 0 1 0
-1.127907 -23.456177 10.864495 25.874730 1.522748 1.137474 0.012604 -0.005889 -117504.000000 0 0 1
-0.248007 -22.781777 11.870395 25.690021 1.559911 1.090477 0.012392 -0.005850 -288399.000000 0 0 1
-1.018707 -22.491677 13.042495 26.019608 1.525535 1.045746 0.003623 -0.000872 182821.000000 0 0 1
-0.287207 -22.056177 14.202095 26.234652 1.557775 0.998756 0.011716 -0.001907 282438.000000 0 0 1
0.506893 -20.730977 14.167695 25.114815 -1.546350 0.971433 0.016027 -0.012463 -17370.700000 0 0 1
1.654393 -20.673677 13.368595 24.675033 -1.490942 0.998235 0.032841 -0.017621 -789199.000000 0 1 0
2.166993 -19.407677 13.238195 23.592448 -1.459600 0.975058 0.029180 -0.015999 -761517.000000 0 1 0
3.630393 -19.418577 12.844095 23.563354 -1.385975 0.994303 0.033866 -0.013671 -406876.000000 0 1 0
3.984793 -19.967377 11.534895 23.401464 -1.373819 1.055361 0.042986 -0.011588 -899726.000000 0 1 0
5.374893 -20.020877 11.430395 23.672324 -1.308516 1.066880 0.053794 -0.010618 -388728.000000 0 1 0
5.791093 -20.898877 10.221395 23.974502 -1.300478 1.130349 0.049714 -0.009472 -651057.000000 0 1 0
5.647393 -20.278177 8.969895 22.881358 -1.299183 1.167973 0.046488 -0.012260 -487606.000000 0 1 0
5.824193 -21.177777 7.869495 23.331275 -1.302417 1.226756 0.038607 -0.011723 -211840.000000 0 1 0
7.255793 -21.716677 7.640495 24.137890 -1.248346 1.248722 0.038186 -0.003305 57413.900000 0 1 0
8.191493 -20.826677 7.005795 23.450633 -1.196064 1.267417 0.036014 -0.008501 124465.000000 0 1 0
8.785893 -19.751477 7.698195 22.947221 -1.152257 1.228688 0.049169 -0.005077 106151.000000 0 1 0
9.600693 -20.142777 8.986195 24.055279 -1.126017 1.187948 0.052643 -0.000457 136701.000000 0 1 0
8.850493 -20.547977 10.152495 24.568755 -1.164088 1.144800 0.060916 -0.005732 -456897.000000 0 1 0
9.673793 -20.346977 11.281695 25.196396 -1.126988 1.106549 0.071289 -0.001873 218080.000000 0 0 1
8.882393 -20.430077 12.611295 25.599408 -1.160679 1.055675 0.065565 -0.008709 -197308.000000 0 0 1
8.802893 -21.716577 13.218095 26.903878 -1.185683 1.057205 0.059851 -0.018207 222677.000000 0 0 1
7.938993 -21.869777 14.384795 27.353923 -1.222577 1.017051 0.056101 -0.009149 769891.000000 0 0 1
8.056893 -23.253177 15.053495 28.848422 -1.237256 1.021821 0.044265 -0.014163 -170816.000000 0 0 1
7.705793 -24.235177 14.099495 29.077806 -1.262946 1.064561 0.046689 -0.006107 -388048.000000 0 0 1
7.648793 -25.525277 14.762995 30.462925 -1.279656 1.064866 0.045791 -0.009461 295050.000000 0 0 1
7.418093 -26.697877 13.789995 30.951070 -1.299779 1.109017 0.038363 -0.012726 293885.000000 0 0 1
8.610493 -27.184477 13.191595 31.419016 -1.264051 1.137505 0.038991 -0.004428 -141772.000000 0 0 1
8.413793 -28.063177 12.092695 31.694906 -1.279508 1.179341 0.029321 -0.012009 -227013.000000 0 0 1
9.682193 -28.546977 11.362195 32.214503 -1.243805 1.210337 0.036066 -0.009884 279153.000000 0 0 1
10.518993 -29.360477 12.193295 33.486763 -1.226773 1.198106 0.039037 -0.012765 844298.000000 0 0 1
11.789493 -29.634577 11.564095 33.925338 -1.192163 1.222955 0.039131 -0.009674 702070.000000 0 0 1
12.714693 -30.376877 12.540695 35.237581 -1.174389 1.206930 0.031001 -0.013368 -724393.000000 0 0 1
13.257793 -29.555377 13.555695 35.114758 -1.149128 1.174462 0.033238 -0.012270 431741.000000 0 0 1
14.275493 -30.123277 14.381295 36.304589 -1.128244 1.163499 0.035412 -0.011980 1052610.000000 0 0 1
15.700093 -30.268077 13.750595 36.765857 -1.092300 1.187473 0.032911 -0.005454 207730.000000 0 0 1
16.356793 -29.005277 13.592695 35.966820 -1.057325 1.183244 0.027100 -0.013396 370546.000000 0 0 1
17.742493 -29.206677 13.372495 36.696725 -1.024894 1.197802 0.017738 -0.002886 205967.000000 0 0 1
18.585193 -27.928577 13.075795 36.005433 -0.983633 1.199137 0.021128 -0.012493 548260.000000 0 0 1
19.979593 -28.227877 12.979295 36.938588 -0.954857 1.211757 -0.000269 -0.008275 402697.000000 0 0 1
20.708893 -27.013977 12.839695 36.379540 -0.916756 1.210088 -0.000938 -0.010460 -9848.150000 0 0 1
22.089893 -27.207777 12.197095 37.107892 -0.888844 1.235877 0.002036 -0.005151 125285.000000 0 0 1
23.071793 -27.865477 12.988795 38.438278 -0.879231 1.226098 0.017297 -0.010710 705334.000000 0 0 1
24.085693 -28.509577 12.208295 39.267786 -0.869312 1.254658 0.013874 -0.013269 79625.000000 0 0 1
25.212293 -29.219177 13.037395 40.735656 -0.858879 1.245015 0.016892 -0.009462 730405.000000 0 0 1
26.113593 -28.351677 13.764695 40.929258 -0.826467 1.227806 0.009611 -0.007836 1521300.000000 0 0 1
27.142293 -27.846177 12.853695 40.955233 -0.798198 1.251554 0.002198 -0.011058 60811.500000 0 0 1
28.379493 -27.115977 13.405395 41.477421 -0.762634 1.241690 0.022877 -0.008548 -229997.000000 0 0 1
28.287793 -25.702677 13.700395 40.602065 -0.737554 1.226610 0.025157 -0.010723 -208550.000000 0 0 1
27.479493 -25.307877 14.775095 40.173556 -0.744282 1.194174 0.021630 -0.007510 -773940.000000 0 0 1
28.197893 -25.196677 16.134295 41.113370 -0.729249 1.167520 0.005883 -0.001469 -18202.800000 0 0 1
28.599593 -26.490277 16.657995 42.392927 -0.747128 1.166967 0.009846 0.000029 92878.900000 0 0 1
29.314593 -26.447777 17.867595 43.336834 -0.734032 1.145824 0.013474 0.016679 19000.200000 0 0 1
29.633993 -27.844877 18.434995 44.647058 -0.754282 1.145155 0.009643 0.030359 95999.500000 0 0 1
28.510493 -28.587177 18.895795 44.577191 -0.786741 1.133061 -0.005082 0.025020 70912.700000 0 0 1
28.899693 -29.504977 19.840595 45.819048 -0.795761 1.122955 0.008390 0.014377 96443.800000 0 0 1
27.756893 -30.354977 20.461495 45.940641 -0.830077 1.109187 0.008807 0.018476 -573982.000000 0 0 1
26.755293 -29.634377 21.133395 45.173691 -0.836411 1.083968 0.003910 0.021176 486203.000000 0 0 1
25.703393 -30.378677 21.748295 45.348834 -0.868571 1.070623 0.003473 0.017591 567695.000000 0 0 1
24.654593 -31.020377 20.822995 44.762818 -0.899242 1.086953 0.026799 0.008739 -1423590.000000 0 0 1
25.148093 -32.107177 20.079895 45.458768 -0.906350 1.113285 0.024677 0.011256 -222034.000000 0 0 1
24.496693 -32.310677 18.865195 44.720950 -0.922093 1.135320 0.032986 0.011911 -625126.000000 0 0 1
24.845293 -31.353477 17.681295 43.737367 -0.900691 1.154626 0.017041 0.016574 246816.000000 0 0 1
26.149993 -31.578577 17.155095 44.444639 -0.879159 1.174518 0.018629 0.006701 646613.000000 0 0 1
26.615493 -30.529077 16.280395 43.651578 -0.853777 1.188597 0.020461 -0.002870 325448.000000 0 0 1
27.824793 -30.994277 15.435295 44.419732 -0.839231 1.215906 0.033225 -0.002508 -123252.000000 0 0 1
27.377593 -31.843377 14.352895 44.379487 -0.860665 1.241462 0.046604 0.004200 599522.000000 0 0 1
27.590993 -33.226677 14.574795 45.581790 -0.877800 1.245330 0.029597 0.000156 -253212.000000 0 0 1
26.884493 -34.171677 13.563095 45.545988 -0.904188 1.268421 0.048502 -0.003459 -67846.400000 0 0 1
27.377293 -34.342677 12.216395 45.587015 -0.897777 1.299501 0.064693 -0.010455 71483.200000 0 0 1
26.605693 33.767287 11.601395 44.527350 0.903469 1.307209 0.064779 -0.012269 -441984.000000 0 0 1
27.212693 33.129787 10.320095 44.097821 0.883144 1.334578 0.063043 -0.012436 872324.000000 0 0 1
28.439893 32.390687 10.595595 44.387507 0.850255 1.329762 0.044710 -0.018373 971932.000000 0 0 1
28.780493 31.641587 9.453495 43.804970 0.832715 1.353276 0.045063 -0.023464 -13221.200000 0 0 1
30.283193 31.305287 9.623395 44.606081 0.801992 1.353345 0.012733 -0.018464 53616.200000 0 0 1
30.525393 30.604787 10.824295 44.560273 0.786697 1.325428 0.000544 -0.003732 456254.000000 0 0 1
31.927793 30.383387 10.988795 45.423428 0.760618 1.326453 0.013400 -0.004561 573250.000000 0 0 1
32.210693 29.437787 12.174295 45.302599 0.740449 1.298719 0.002481 0.014063 -126863.000000 0 0 1
31.898793 28.108287 11.845795 44.135378 0.722314 1.299068 -0.003844 0.004168 218844.000000 0 0 1
32.078893 27.181987 12.961395 43.999017 0.702952 1.271776 -0.001502 -0.000313 -215249.000000 0 0 1
31.750693 25.771387 12.460095 42.749560 0.681822 1.275036 -0.011281 -0.006604 644325.000000 0 0 1
32.783593 25.250287 11.572895 42.968277 0.656311 1.298093 -0.005502 -0.009786 330935.000000 0 0 1
32.888593 23.863387 11.412495 42.206230 0.627690 1.296990 0.003397 -0.011944 -844739.000000 0 0 1
31.685793 23.127287 10.798395 40.687421 0.630509 1.302179 -0.005946 -0.005647 -2041.690000 0 0 1
30.549293 23.017687 11.616895 39.975311 0.645712 1.275941 -0.003152 -0.011464 152125.000000 0 0 1
29.340093 23.165287 10.870995 38.931351 0.668333 1.287799 -0.006657 -0.002441 -98629.800000 0 0 1
28.094793 22.700787 11.597495 37.936065 0.679604 1.260111 -0.005880 0.001303 -543332.000000 0 0 1
27.939793 23.482287 12.783595 38.671309 0.698930 1.233888 -0.004727 0.002552 -75989.500000 0 0 1
27.124893 22.845987 13.738195 38.032051 0.699979 1.201213 0.024322 -0.008090 -11601.400000 0 0 1
23.309193 9.854987 26.184428 36.415155 0.400001 0.768358 0.013313 0.005616 -661758.000000 0 0 1
23.254093 8.577887 26.709448 36.437996 0.353391 0.748059 0.016287 0.002724 149982.000000 0 0 1
21.894893 8.229987 26.886458 35.637068 0.359547 0.715978 0.021633 -0.003330 -85836.100000 0 0 1
21.672393 6.874487 27.511028 35.690445 0.307161 0.690664 0.037708 -0.006578 -209738.000000 0 0 1
21.893693 6.677087 28.871998 36.844396 0.296017 0.670325 0.032560 -0.001637 -524168.000000 0 0 1
23.220493 6.361587 29.153358 37.809778 0.267403 0.690303 0.033734 0.000572 -619164.000000 0 0 1
23.350193 6.135787 30.713998 39.066982 0.256963 0.666180 0.046665 -0.007034 -286471.000000 0 0 1
23.283693 7.385087 31.363948 39.753831 0.307141 0.661691 0.032371 0.001611 257594.000000 0 0 1
23.063993 7.189387 32.758748 40.703447 0.302169 0.635432 0.036249 -0.004521 -266509.000000 0 0 1
22.938793 8.545687 33.480248 41.474618 0.356615 0.631324 0.026879 0.002442 -821389.000000 0 0 1
24.133693 9.196987 33.682917 42.444771 0.364095 0.654142 0.022012 0.002651 -1006740.000000 0 0 1
24.155493 9.804587 -34.032375 42.869806 0.385578 2.487917 0.030058 0.007718 243060.000000 0 0 1
25.172293 10.977787 -33.828685 43.572194 0.411240 2.459702 0.016217 0.011918 1636.630000 0 0 1
24.849593 12.212087 -34.398054 44.157258 0.456776 2.463849 0.016125 0.000457 235200.000000 0 0 1
25.346993 13.343387 -33.645685 44.187647 0.484566 2.436309 0.014768 -0.000765 -440522.000000 0 0 1
24.829893 14.694587 -34.226267 44.764850 0.534376 2.441184 0.012849 -0.000674 -621029.000000 0 0 1
25.604193 15.300787 33.804541 45.082544 0.538645 0.722981 0.009664 -0.004264 -10838.600000 0 0 1
25.273393 16.645787 33.460425 45.115703 0.582417 0.735257 0.009033 -0.004019 -242644.000000 0 0 1
25.971293 17.815887 34.241566 46.523099 0.601257 0.743636 0.009342 -0.009123 -268330.000000 0 0 1
25.578593 18.009287 -33.447325 45.796532 0.613457 2.389625 0.005518 -0.020540 137358.000000 0 0 1
26.433593 17.367487 -32.495845 45.346933 0.581297 2.369719 0.004056 -0.013410 -488724.000000 0 0 1
25.780093 17.069087 -31.156255 43.893953 0.584837 2.360021 0.001646 -0.012385 -208785.000000 0 0 1
25.077293 15.832187 -31.223655 43.063272 0.563142 2.381925 0.007072 -0.002805 382091.000000 0 0 1
24.410493 15.459487 -30.003225 41.654068 0.564555 2.375024 0.013063 -0.006093 437285.000000 0 0 1
23.384793 14.293887 -30.142605 40.739911 0.548648 2.403687 0.013720 -0.002241 -327579.000000 0 0 1
22.321493 14.414787 -31.038695 40.858729 0.573403 2.433585 0.007970 -0.001515 -54690.100000 0 0 1
21.982593 13.232687 -31.758375 40.828088 0.541861 2.462043 0.009685 0.006080 188291.000000 0 0 1
21.119593 12.208587 -30.881495 39.354206 0.524138 2.473019 0.014671 0.003878 -448086.000000 0 0 1
19.823193 12.704787 -30.710285 38.697444 0.569955 2.487499 0.019633 -0.001949 -496083.000000 0 0 1
19.079793 11.870287 -29.859355 37.370085 0.556539 2.496456 0.018846 -0.002006 -977259.000000 0 0 1
17.855393 12.600187 -29.399965 36.632468 0.614528 2.502380 0.017557 0.002317 -1287580.000000 0 0 1
16.866493 12.731987 -30.370885 36.999631 0.646610 2.533682 0.004936 0.002524 836880.000000 0 0 1
15.625993 13.151687 -29.739355 36.077247 0.699629 2.539804 0.008565 -0.008955 1017060.000000 0 0 1
14.472093 13.712587 -30.637025 36.552754 0.758457 2.564696 0.007791 -0.008703 589117.000000 0 0 1
13.848193 12.743087 -31.472015 36.669421 0.743863 2.602672 0.001239 -0.005852 -367492.000000 0 0 1
12.735193 12.146187 -30.875225 35.538634 0.761730 2.623528 0.005012 -0.007369 -548777.000000 0 0 1
11.758393 11.505487 -31.867915 35.863631 0.774527 2.665049 0.010105 -0.004678 -54951.500000 0 0 1
11.411393 12.400687 -32.911615 36.975280 0.826920 2.668356 0.018464 -0.007892 -223742.000000 0 0 1
10.446193 11.903787 -33.792795 37.319915 0.850523 2.703328 0.033324 -0.008179 -129556.000000 0 0 1
10.016893 12.791287 34.075282 37.750232 0.906444 0.444906 0.045691 -0.008038 196527.000000 0 0 1
11.000993 12.926787 33.074700 37.176060 0.865709 0.474158 0.030359 0.004294 564216.000000 0 0 1
10.377393 13.615887 31.985208 36.278591 0.919562 0.491438 0.042928 -0.003646 635289.000000 0 0 1
11.287693 13.442887 30.694498 35.359234 0.872325 0.519483 0.034183 -0.000726 279440.000000 0 0 1
11.651193 12.117287 30.410978 34.747755 0.805005 0.504963 0.018003 0.000483 -50805.300000 0 0 1
11.586693 11.871587 29.052058 33.454568 0.797542 0.518823 0.030548 0.004328 -203268.000000 0 0 1
11.936693 10.468587 28.559748 32.676217 0.719967 0.507376 0.030545 0.002685 -173919.000000 0 0 1
11.114493 9.372287 28.944698 32.390851 0.700562 0.465478 0.024704 -0.000324 319205.000000 0 0 1
11.677493 8.125787 28.448728 31.807583 0.607936 0.463707 0.008589 -0.001343 -404611.000000 0 0 1
10.868093 6.864187 28.695078 31.442646 0.563325 0.421157 -0.001224 -0.003407 -7657.260000 0 0 1
9.620793 6.878687 28.001628 30.396828 0.620710 0.399637 -0.000290 -0.011904 -43608.900000 0 0 1
8.934493 5.613887 27.938618 29.864816 0.560997 0.361117 0.002872 -0.011178 -408558.000000 0 0 1
9.592493 4.424487 27.228158 29.205557 0.432166 0.370093 -0.006452 -0.004525 -612103.000000 0 0 1
10.455293 3.757887 28.081668 30.199585 0.345046 0.376739 -0.008986 -0.003404 -228300.000000 0 0 1
10.926793 2.513987 27.610568 29.800308 0.226140 0.385742 -0.017464 -0.001270 -70135.200000 0 0 1
11.401293 1.594087 28.758678 30.977284 0.138916 0.380768 -0.018305 -0.001867 228760.000000 0 0 1
10.272793 1.129687 29.485848 31.244546 0.109529 0.337118 -0.019553 0.005675 207031.000000 0 0 1
10.621093 0.020687 30.317168 32.123803 0.001948 0.336972 -0.017022 0.002300 345380.000000 0 0 1
9.604193 -0.163913 31.473138 32.906318 -0.017065 0.296220 0.000802 -0.001438 156517.000000 0 0 1
9.706093 0.861887 32.471838 33.902380 0.088566 0.291534 -0.009886 -0.001102 -327041.000000 0 0 1
8.568793 1.009487 33.279361 34.379632 0.117269 0.253676 0.007133 -0.002163 -312491.000000 0 0 1
8.636493 2.344587 34.085932 35.241124 0.265086 0.256750 0.023191 -0.003293 119655.000000 0 0 1
8.350593 3.617987 33.442859 34.659011 0.408847 0.265692 0.013785 -0.010462 288713.000000 0 0 1
9.476193 4.056787 32.707948 34.293813 0.404496 0.305301 -0.004377 -0.000161 -104909.000000 0 0 1
9.369793 5.445387 32.033648 33.817153 0.526454 0.326220 0.000705 -0.003247 -93272.500000 0 0 1
9.541793 6.522087 32.885828 34.857727 0.599585 0.337969 0.001883 0.000262 83669.900000 0 0 1
9.830393 7.697787 32.145728 34.485364 0.664326 0.370474 0.000201 0.001997 -242968.000000 0 0 1
9.927393 8.955087 33.056310 35.657627 0.733951 0.384337 0.029157 -0.007942 -129025.000000 0 0 1
8.758393 9.536987 33.582283 35.992128 0.827929 0.368010 0.032867 -0.011537 -175569.000000 0 0 1
8.179993 8.799687 -34.361562 36.401425 0.821878 2.805232 0.032472 -0.008107 -497154.000000 0 0 1
6.853793 9.367587 -33.864685 35.798646 0.939143 2.811390 0.036194 -0.008660 -378693.000000 0 0 1
6.306393 8.573387 -32.848955 34.530094 0.936590 2.828267 0.038471 -0.009947 242285.000000 0 0 1
4.992793 9.041887 -32.547525 34.147109 1.066277 2.834300 0.043046 -0.010231 421716.000000 0 0 1
4.455193 8.242087 -31.332995 32.703781 1.075244 2.851037 0.032274 -0.000320 -302138.000000 0 0 1
5.014293 8.807587 -30.144125 31.802280 1.053245 2.817250 0.038353 -0.008016 425193.000000 0 0 1
4.601093 8.179287 -28.904805 30.390106 1.058384 2.827657 0.033402 -0.009062 53890.300000 0 0 1
3.109693 8.344087 -28.513205 29.871338 1.214059 2.838889 0.031751 -0.011624 316391.000000 0 0 1
2.259093 7.473687 -29.284765 30.307705 1.277256 2.881042 0.022556 -0.006620 -579768.000000 0 0 1
0.940093 7.577387 -28.853665 29.846852 1.447362 2.882895 0.026213 0.006924 -772976.000000 0 0 1
-0.022307 6.948587 -29.872645 30.670153 -1.567586 2.913049 0.022969 0.001627 -285739.000000 0 0 1
-0.158207 7.780487 -30.991275 31.953406 -1.550465 2.895573 0.030776 0.003252 167027.000000 0 0 1
-0.383107 6.965987 -32.129635 32.878339 -1.515855 2.927775 0.019752 -0.001697 -605731.000000 0 0 1
-0.201707 7.750587 -33.461295 34.347788 -1.544777 2.913904 0.030785 -0.011155 -91987.100000 0 0 1
1.082893 8.124487 -33.934905 34.910711 1.438290 2.904600 0.022743 -0.007631 196246.000000 0 0 1
1.895793 7.046887 -34.344639 35.111350 1.307993 2.932229 0.034474 -0.009540 -448343.000000 0 0 1
1.698793 6.671387 33.181090 33.887727 1.321457 0.204574 0.033674 -0.020110 -189859.000000 0 0 1
0.436993 6.083087 32.859028 33.420213 1.499082 0.183516 0.036983 -0.021218 21662.500000 0 0 1
0.257993 5.740487 31.498668 32.018523 1.525884 0.180445 0.055436 -0.017270 -174737.000000 0 0 1
1.170093 4.709087 30.813748 31.193456 1.327253 0.156189 0.063166 -0.017982 -200689.000000 0 0 1
0.922093 4.705087 29.396258 29.784695 1.377271 0.161678 0.054290 -0.021447 -153839.000000 0 0 1
1.506293 3.674787 28.718328 28.991642 1.181785 0.137421 0.041701 -0.008780 -535346.000000 0 0 1
1.448793 3.982287 27.195648 27.523824 1.221873 0.154578 0.033616 -0.007765 -10875.300000 0 0 1
2.140593 5.137387 26.791688 27.363651 1.176003 0.204820 0.033623 -0.009298 -226587.000000 0 0 1
2.036993 5.475887 25.424518 26.087177 1.214664 0.225876 0.020951 -0.004078 -669545.000000 0 0 1
2.708193 6.854087 25.091938 26.151829 1.194503 0.285675 0.013684 0.007239 288901.000000 0 0 1
4.129893 6.831687 25.159598 26.395707 1.027060 0.307246 0.005732 0.016733 -57615.600000 0 0 1
4.637593 6.521487 23.922158 25.225120 0.952643 0.322813 0.006100 0.003634 -883026.000000 0 0 1
6.182393 6.526387 23.959558 25.590547 0.812459 0.358951 0.011325 0.002608 163505.000000 0 0 1
6.909393 5.453487 24.642588 26.167487 0.668174 0.343073 0.013776 -0.002741 534719.000000 0 0 1
6.542393 4.082187 24.434358 25.622353 0.557851 0.305707 0.013111 -0.002278 -795381.000000 0 0 1
6.804793 3.545987 22.948358 24.197239 0.480386 0.322685 0.016792 -0.003297 658844.000000 0 1 0
5.795093 3.924387 21.999158 23.085642 0.595254 0.308016 -0.001333 -0.003674 929187.000000 0 1 0
4.491793 3.343587 22.138458 22.835654 0.639893 0.247740 -0.001093 -0.006061 244646.000000 0 1 0
3.490293 3.771187 21.082058 21.699243 0.824062 0.239076 -0.010115 -0.007581 -216220.000000 0 1 0
3.280693 5.113987 21.234458 22.086602 1.000410 0.278685 -0.007778 -0.011646 893286.000000 0 1 0
2.032893 5.545987 20.631258 21.460182 1.219453 0.278846 -0.008498 -0.000678 714018.000000 0 1 0
1.675893 7.005487 20.703158 21.920452 1.335984 0.334826 -0.002765 0.009586 444331.000000 0 1 0
2.512193 7.955787 20.026858 21.695177 1.264936 0.394726 -0.005999 0.010957 466034.000000 0 1 0
1.710193 9.123487 19.972058 22.023757 1.385497 0.435068 -0.000892 0.004915 741489.000000 0 1 0
2.620193 10.338287 19.709158 22.409741 1.322577 0.496005 -0.007609 0.007841 -18091.600000 0 1 0
2.959493 10.513087 18.374858 21.375664 1.296392 0.536279 0.000207 0.006254 -248452.000000 0 1 0
3.861693 11.526487 18.004358 21.723938 1.247522 0.593873 -0.003964 0.007200 1401570.000000 0 1 0
5.403493 11.145587 18.084858 21.919944 1.119374 0.600521 -0.002256 0.001244 1023220.000000 0 1 0
5.717993 10.160887 17.173158 20.757081 1.058220 0.596441 -0.001269 0.000288 64045.100000 0 1 0
6.988993 9.585987 17.468358 21.115887 0.940816 0.596581 -0.005641 0.006160 306305.000000 0 1 0
6.902993 8.149387 18.076758 20.996023 0.868013 0.533640 -0.003953 0.007731 -239676.000000 0 1 0
6.677193 8.138587 19.465958 22.130183 0.883718 0.495752 0.001898 0.007714 -172825.000000 0 1 0
6.621193 6.802087 19.959858 22.102138 0.798874 0.443923 0.000504 -0.001008 640852.000000 0 1 0
7.994193 6.089487 20.240858 22.598259 0.650972 0.460833 0.020696 -0.005918 859959.000000 0 1 0
8.708193 5.845387 19.003058 21.705238 0.591170 0.504315 0.019654 -0.012051 -513852.000000 0 1 0
9.971293 5.278687 19.150258 22.226641 0.486881 0.532402 0.027000 -0.015663 -369430.000000 0 1 0
9.992693 3.701687 19.146858 21.912521 0.354766 0.507862 0.022708 -0.011853 -161582.000000 0 1 0
9.472493 3.116487 20.353358 22.664946 0.317849 0.455570 0.036156 -0.012474 129264.000000 0 1 0
9.725693 1.711687 20.358858 22.627463 0.174212 0.451620 0.038287 -0.015835 -23233.700000 0 1 0
8.922193 0.852287 21.360658 23.164836 0.095235 0.397283 0.040808 -0.014490 -316344.000000 0 1 0
9.246593 1.040687 22.715458 24.547394 0.112077 0.388782 0.034850 -0.007543 28809.600000 0 1 0
8.540293 0.091187 23.475558 24.980927 0.010677 0.348929 0.031173 -0.010722 -359918.000000 0 1 0
8.883393 0.191987 24.999508 26.531621 0.021609 0.341500 0.014742 -0.000167 300880.000000 0 0 1
10.200293 -0.208813 25.373008 27.347378 -0.020468 0.382313 0.017305 -0.000662 504526.000000 0 0 1
10.297493 -1.628513 25.498688 27.547659 -0.156848 0.388123 0.014876 0.000959 -428298.000000 0 0 1
11.771493 -2.039913 25.451958 28.116391 -0.171589 0.438862 0.005072 0.001004 -425047.000000 0 0 1
11.969893 -3.408213 25.721478 28.574266 -0.277391 0.450654 0.006251 -0.001400 98888.600000 0 0 1
13.308793 -3.804413 25.497948 29.012805 -0.278432 0.497347 0.006908 -0.001128 -151877.000000 0 0 1
13.394993 -5.322313 25.591868 29.371696 -0.378208 0.512930 0.004395 -0.005933 -219474.000000 0 0 1
12.971793 -5.971413 24.433468 28.300522 -0.431418 0.528910 0.020795 -0.003995 162756.000000 0 0 1
12.500693 -7.266013 24.682018 28.605319 -0.526518 0.529921 0.020423 -0.002710 -135154.000000 0 0 1
12.367193 -8.034113 23.345858 27.613828 -0.576116 0.563406 0.031510 -0.008202 -66186.800000 0 0 1
12.069793 -9.390613 23.532758 28.065178 -0.661198 0.576265 0.028300 -0.004814 -421385.000000 0 0 1
12.183693 -9.998113 22.277858 27.289331 -0.687185 0.615720 0.028198 -0.008313 119433.000000 0 0 1
11.617093 -11.456513 22.246358 27.588203 -0.778439 0.632804 0.031784 -0.002490 -712130.000000 0 0 1
10.260793 -11.536513 22.026658 26.898860 -0.843858 0.611358 0.015124 0.001943 -1538530.000000 0 0 1
9.698193 -12.842413 22.171258 27.396116 -0.923995 0.627863 0.014813 0.005614 825339.000000 0 0 1
8.162893 -12.747713 22.457058 27.082401 -1.001241 0.593100 0.001004 0.007487 971254.000000 0 0 1
7.376693 -12.270813 21.335658 25.694333 -1.029526 0.591035 -0.000240 -0.009523 -30396.800000 0 0 1
6.006693 -12.468913 21.627458 25.676859 -1.121868 0.569272 -0.004014 -0.003411 488346.000000 0 0 1
5.117893 -11.284613 21.109158 24.477170 -1.145012 0.530801 -0.004778 -0.003497 350518.000000 0 1 0
5.469393 -10.084413 21.807558 24.641007 -1.073837 0.484279 -0.006407 0.000977 -105118.000000 0 1 0
4.619193 -9.011613 21.434258 23.705981 -1.097134 0.441362 -0.007192 0.004641 90192.700000 0 1 0
5.093893 -7.655713 21.959558 23.807139 -0.983691 0.396563 -0.006139 -0.003072 163046.000000 0 1 0
4.399593 -6.508513 21.408658 22.804556 -0.976377 0.351699 -0.020182 0.002455 -4949.120000 0 1 0
5.049193 -5.349313 21.783358 22.991828 -0.814252 0.325662 0.004548 -0.001121 -141077.000000 0 1 0
-7.858107 -15.723513 -20.847605 27.269055 1.107334 2.441085 0.021903 0.003361 -267340.000000 0 0 1
-7.406407 -15.161213 -19.671005 25.916514 1.116383 2.432594 0.025073 0.000622 -186478.000000 0 0 1
-6.887007 -13.883513 -19.875105 25.203226 1.110308 2.479315 0.032116 -0.008788 -178012.000000 0 0 1
-6.268307 -13.313013 -18.592205 23.710716 1.130747 2.472084 0.035187 -0.010727 541089.000000 0 1 0
-5.130307 -14.071313 -18.163105 23.541884 1.221180 2.452028 0.020292 -0.001663 657877.000000 0 1 0
-4.385207 -13.534813 -17.054305 22.209694 1.257474 2.446316 0.020168 -0.005998 852387.000000 0 1 0
-3.238407 -14.469013 -16.571305 22.236181 1.350608 2.411692 0.011632 0.003617 517527.000000 0 1 0
-1.996407 -14.484113 -17.264705 22.623996 1.433825 2.438915 0.006040 0.000172 79133.000000 0 1 0
-1.234907 -15.501013 -16.671105 22.797635 1.491298 2.390971 0.009686 0.010933 -590018.000000 0 1 0
0.201993 -15.741613 -17.136805 23.270352 -1.557965 2.398563 0.013751 0.008105 -237875.000000 0 1 0
0.293993 -16.724413 -18.182405 24.706118 -1.553219 2.397861 0.016292 0.012114 -154824.000000 0 1 0
-0.064607 -18.099513 -17.900005 25.455976 1.567227 2.350649 0.017288 0.010979 -186718.000000 0 0 1
-0.686307 -18.793113 -19.136905 26.830454 1.534293 2.364925 0.009691 0.012735 -208030.000000 0 0 1
-1.808207 -18.129313 -19.642005 26.790856 1.471386 2.393755 0.028232 0.005420 -409569.000000 0 0 1
-1.975707 -18.359613 -21.055305 28.005440 1.463597 2.421628 0.029386 0.005306 352319.000000 0 0 1
-3.080607 -17.432513 -21.656305 27.971024 1.395886 2.456311 0.023454 0.009348 162596.000000 0 0 1
-2.718607 -16.087013 -21.663205 27.119684 1.403384 2.496094 0.019970 0.022155 -232070.000000 0 0 1
-3.342707 -15.268513 -20.719205 25.953548 1.355269 2.495295 0.019097 0.009975 -315516.000000 0 0 1
-2.546907 -13.993913 -20.514705 24.963362 1.390766 2.535346 0.020428 -0.005822 -255888.000000 0 1 0
-2.713307 -13.102113 -21.594405 25.403656 1.366594 2.586879 0.018210 -0.018172 -322618.000000 0 0 1
-1.629607 -12.237913 -21.685605 24.953709 1.438415 2.624041 0.004963 -0.002087 -383297.000000 0 1 0
-1.669707 -11.306713 -22.948905 25.637510 1.424182 2.679519 0.014202 0.000042 363712.000000 0 0 1
-2.777507 -10.396013 -23.006605 25.398730 1.309724 2.704101 0.019788 -0.007409 494124.000000 0 0 1
-2.860707 -9.720713 -24.263905 26.294733 1.284586 2.745996 0.026705 -0.014854 -781417.000000 0 0 1
-3.937907 -8.681513 -24.244705 26.051516 1.144955 2.766967 0.034950 -0.007394 -1405640.000000 0 0 1
-5.241707 -9.163113 -24.115805 26.325087 1.051186 2.728982 0.032256 -0.014833 -411274.000000 0 0 1
-6.085207 -8.010113 -24.117805 26.131593 0.921122 2.746437 0.037203 -0.014954 -875999.000000 0 0 1
-7.514907 -8.363413 -23.638305 26.176134 0.838785 2.697610 0.017254 -0.022020 817595.000000 0 0 1
-8.488007 -8.686713 -24.670805 27.498252 0.796967 2.684133 0.015728 -0.013249 765693.000000 0 0 1
-8.770807 -7.669013 -25.617595 28.142530 0.718478 2.714757 0.006966 -0.015158 -742957.000000 0 0 1
-9.615507 -8.125413 -26.830045 29.636660 0.701603 2.702880 -0.000388 -0.019544 110165.000000 0 0 1
-10.119707 -7.057013 -27.593935 30.226398 0.608948 2.721150 0.001185 -0.021240 -96337.500000 0 0 1
-10.690607 -7.566313 -28.746995 31.589997 0.615911 2.714088 0.013202 -0.020208 282795.000000 0 0 1
-11.396207 -6.476613 -29.706005 32.469475 0.516794 2.726032 0.014435 -0.021021 484336.000000 0 0 1
-10.465107 -5.634013 -30.335215 32.580452 0.493864 2.768176 -0.018339 -0.007280 -42708.400000 0 0 1
-11.196307 -4.800613 -31.193985 33.488324 0.405057 2.769279 -0.003326 -0.009475 56753.100000 0 0 1
-10.387507 -3.841413 -32.135885 33.990761 0.354214 2.809708 -0.017888 0.004733 17633.700000 0 0 1
-9.506807 -4.436313 -33.066675 34.690997 0.436610 2.834371 -0.012613 0.009137 -27259.900000 0 0 1
-8.997607 -3.406813 -33.900565 35.239348 0.361954 2.865064 -0.011113 0.013992 -1026910.000000 0 0 1
-7.838507 -3.883813 34.285514 35.383932 0.460024 0.249819 -0.013342 0.008220 -1005670.000000 0 0 1
-6.640307 -3.953913 -34.034425 34.900848 0.537061 2.918305 -0.008481 0.000832 107987.000000 0 0 1
-5.566007 -4.338513 34.122110 34.844246 0.662094 0.203945 -0.007124 0.000646 197592.000000 0 0 1
-4.172307 -3.828013 34.453830 34.916017 0.742390 0.162889 0.003964 -0.002230 -440506.000000 0 0 1
-4.120007 -2.428013 34.330325 34.661808 0.532531 0.138410 0.010307 -0.003788 410281.000000 0 0 1
-2.773107 -1.996113 -34.512514 34.681237 0.623899 3.042912 0.015458 -0.004699 587138.000000 0 0 1
-2.635607 -0.541413 -34.046985 34.153137 0.202604 3.062729 0.021256 -0.004001 -328376.000000 0 0 1
-2.925207 -0.449513 -32.659035 32.792857 0.152476 3.051220 0.015011 -0.006559 56309.300000 0 0 1
-3.613907 0.720687 -32.354935 32.564114 -0.196838 3.028186 0.026989 -0.006034 -585196.000000 0 0 1
-4.154207 0.592587 -30.874065 31.157928 -0.141692 3.006505 0.029153 -0.012115 1090950.000000 0 0 1
-5.254507 -0.313913 -30.647555 31.096318 0.059671 2.971497 0.018513 -0.009326 546937.000000 0 0 1
-6.534207 0.147787 -30.999255 31.680775 -0.022614 2.933796 0.026617 -0.009059 -67721.100000 0 0 1
-7.678007 -0.889113 -30.820465 31.774886 0.115286 2.895875 0.017304 -0.009648 170459.000000 0 0 1
-7.902207 -1.145113 -29.448245 30.511560 0.143909 2.876814 0.013606 -0.008610 -32484.200000 0 0 1
-8.666807 -2.310213 -29.242765 30.587415 0.260502 2.843979 -0.011120 -0.002961 -118843.000000 0 0 1
-8.728707 -2.878713 -27.826345 29.304996 0.318566 2.822571 -0.010051 -0.009483 19513.800000 0 0 1
-9.754107 -2.207513 -27.123995 28.908940 0.222567 2.788351 -0.005807 -0.009680 268617.000000 0 0 1
-10.033007 -2.754913 -25.824365 27.841491 0.267980 2.758598 -0.005384 -0.008466 51874.400000 0 0 1
-11.079807 -1.924813 -25.068925 27.475772 0.172006 2.719909 -0.002314 -0.006524 -74107.100000 0 0 1
-10.539307 -0.676113 -24.785305 26.941519 0.064064 2.738792 0.006485 -0.003967 -250204.000000 0 0 1
-11.242007 -0.002813 -23.817405 26.337265 0.000250 2.700588 0.007683 -0.011148 -452914.000000 0 0 1
-10.519907 1.239587 -23.285705 25.581811 -0.117292 2.714671 0.007245 -0.012543 -65644.000000 0 0 1
-10.380107 2.290687 -24.229105 26.458333 -0.217199 2.728156 0.008398 -0.012089 263134.000000 0 0 1
-9.630907 3.385787 -23.691105 25.797023 -0.338059 2.734727 0.015475 -0.008112 -100436.000000 0 0 1
-9.695207 4.663987 -24.585505 26.836484 -0.448382 2.729095 0.021687 -0.009885 1065980.000000 0 0 1
-10.996007 5.303187 -24.704905 27.556638 -0.449374 2.682633 0.009730 -0.006325 660538.000000 0 0 1
-11.789207 4.894187 -25.768165 28.756509 -0.393491 2.681657 0.005299 -0.005678 -380166.000000 0 0 1
-13.128307 5.643287 -25.734695 29.435925 -0.405977 2.634709 -0.006173 0.002240 -193941.000000 0 0 1
-12.945407 7.009687 -26.092295 29.958757 -0.496279 2.627909 -0.001229 0.003298 -175413.000000 0 0 1
-14.118507 7.571487 -26.618065 31.067363 -0.492249 2.599800 -0.001835 -0.003488 -494705.000000 0 0 1
-14.151307 9.051687 -26.882085 31.699196 -0.569055 2.583066 0.001561 0.001588 -559421.000000 0 0 1
-14.054607 9.811187 -25.728675 30.915305 -0.609434 2.553916 0.011717 -0.011937 86321.600000 0 0 1
-14.465607 11.138387 -25.770005 31.581808 -0.656173 2.525212 0.001436 -0.008597 -392142.000000 0 0 1
-14.113007 11.943287 -24.504905 30.697059 -0.702319 2.495233 -0.001796 -0.007575 -158341.000000 0 0 1
-14.739907 11.426887 -23.345605 29.880694 -0.659457 2.467533 0.016627 -0.005840 147084.000000 0 0 1
-14.286607 12.129387 -22.197905 29.051268 -0.703916 2.440432 0.012094 -0.003819 -189633.000000 0 0 1
-15.122407 11.941987 -20.902705 28.429234 -0.668422 2.396838 0.024438 -0.008577 603253.000000 0 0 1
-16.452707 12.469587 -21.021405 29.463225 -0.648541 2.365248 0.018870 -0.002726 530136.000000 0 0 1
-16.907707 13.044287 -19.828305 29.140790 -0.657119 2.319147 0.018916 -0.001067 31426.900000 0 0 1
-18.382807 13.494487 -19.910605 30.273106 -0.633235 2.288557 0.019556 -0.001601 16180.900000 0 0 1
-18.552507 14.590287 -20.771805 31.441054 -0.666413 2.292492 0.007945 0.005882 -29693.400000 0 0 1
-19.887207 15.042887 -20.788005 32.464297 -0.647591 2.265730 -0.014264 0.009997 -30905.100000 0 0 1
-20.243907 16.295487 -21.602505 33.793888 -0.677757 2.264310 -0.020270 0.016202 -276329.000000 0 0 1
-20.070107 16.128787 -23.004005 34.527253 -0.676946 2.299974 -0.007186 0.012192 112800.000000 0 0 1
-20.598507 17.210787 -23.701705 35.808945 -0.696037 2.294138 -0.024269 0.022576 -296123.000000 0 0 1
-20.629407 16.972587 -25.222685 36.739964 -0.688452 2.327487 -0.025614 0.017769 129955.000000 0 0 1
-19.428407 17.396487 -25.833045 36.707587 -0.730276 2.351462 -0.019033 0.006536 185630.000000 0 0 1
-19.175707 16.911487 -27.136765 37.284181 -0.722737 2.385957 -0.020412 -0.005318 -597987.000000 0 0 1
-18.193907 17.756287 -27.894715 37.741477 -0.773226 2.402529 -0.037254 0.006582 -326856.000000 0 0 1
-18.813307 18.935187 -28.398255 38.973616 -0.788627 2.387150 -0.046017 -0.000704 163858.000000 0 0 1
-18.045507 20.016587 -28.037145 38.889402 -0.837138 2.375962 -0.051747 -0.004162 -1353220.000000 0 0 1
-18.773307 21.352887 -28.276685 40.099299 -0.849596 2.353454 -0.014087 -0.000503 858593.000000 0 0 1
-19.867807 21.765787 -27.437545 40.265346 -0.830954 2.320495 -0.001311 0.012989 958609.000000 0 0 1
-20.995707 20.906587 -27.398635 40.355796 -0.783271 2.317096 0.018457 -0.007370 -767138.000000 0 0 1
-22.139107 21.348287 -26.495685 40.594467 -0.767215 2.281929 0.018650 0.013781 -244781.000000 0 0 1
-21.888807 21.008887 -25.113235 39.384867 -0.764889 2.262223 -0.008877 0.020426 128386.000000 0 0 1
-22.804007 21.665587 -24.254005 39.719984 -0.759804 2.227646 -0.006702 0.005411 -82868.600000 0 0 1
-22.625507 21.249987 -22.739605 38.478113 -0.754058 2.203063 -0.009681 0.026487 417571.000000 0 0 1
-21.601707 22.023187 -22.084005 37.938869 -0.795059 2.192098 -0.005491 0.022839 1011940.000000 0 0 1
-20.557207 21.181287 -21.515805 36.526368 -0.800349 2.200677 -0.018033 0.027718 672249.000000 0 0 1
-20.842207 20.557287 -20.082405 35.500741 -0.778516 2.172066 -0.009011 0.020355 -223169.000000 0 0 1
-21.758307 19.428487 -19.959605 35.345097 -0.728891 2.170874 -0.000262 0.022117 821489.000000 0 0 1
-22.192307 19.172487 -18.613505 34.735361 -0.712523 2.136330 -0.004107 0.027275 -185305.000000 0 0 1
-23.231007 20.191987 -18.110205 35.712401 -0.715526 2.102628 -0.003567 0.017845 -613918.000000 0 0 1
-24.432907 20.011387 -18.834105 36.771539 -0.686240 2.108532 -0.004388 0.014933 -226000.000000 0 0 1
-25.345927 21.051687 -18.735305 37.902522 -0.693108 2.087828 0.000713 0.007990 -872934.000000 0 0 1
-26.716917 20.694587 -19.355305 38.944671 -0.659052 2.090929 0.001175 0.011976 564284.000000 0 0 1
-27.511597 19.604687 -18.801905 38.661911 -0.619131 2.078665 -0.002530 0.013934 632602.000000 0 0 1
-27.554257 19.454687 -17.380805 37.944885 -0.614775 2.046601 -0.021864 0.021522 -899016.000000 0 0 1
-28.457947 18.305487 -16.858205 37.804030 -0.571613 2.033017 -0.028516 0.020830 -233514.000000 0 0 1
-28.008867 17.002287 -17.160705 36.987352 -0.545574 2.053258 -0.017634 0.016058 105497.000000 0 0 1
-28.936507 15.986587 -16.840205 37.101010 -0.504739 2.041935 -0.009305 0.012078 117409.000000 0 0 1
-28.243587 14.875387 -16.006705 35.709830 -0.484765 2.035596 0.002592 0.009820 -75937.800000 0 0 1
-27.736367 15.371687 -14.771705 34.982826 -0.506067 2.006729 -0.006528 0.008177 31172.400000 0 0 1
-28.661187 15.626487 -13.737805 35.417200 -0.499161 1.969132 -0.028111 0.012629 205891.000000 0 0 1
-27.891897 16.218387 -12.534705 34.613767 -0.526685 1.941349 -0.028153 0.009002 617723.000000 0 0 1
-27.280377 17.504187 -12.572505 34.766125 -0.570476 1.940813 -0.033790 0.014144 398608.000000 0 0 1
-28.281177 18.498487 -12.462805 36.018613 -0.579246 1.924112 -0.032227 0.015590 5710.550000 0 0 1
-27.850987 19.970887 -12.717605 36.554771 -0.622085 1.926132 -0.009909 0.007662 242606.000000 0 0 1
-26.902627 20.449887 -11.757405 35.779684 -0.649962 1.905623 -0.030874 -0.006550 341208.000000 0 0 1
-26.459997 21.709787 -12.208005 36.338433 -0.687102 1.913413 -0.037911 -0.004835 -336329.000000 0 0 1
-25.580967 22.489587 -11.243605 35.869013 -0.721177 1.889634 -0.008281 0.001786 -257913.000000 0 0 1
-26.199857 23.179987 -10.178305 36.432708 -0.724318 1.853937 -0.012395 -0.009110 18932.300000 0 0 1
-25.468277 24.376787 -10.005205 36.646487 -0.763504 1.847327 0.005603 -0.003506 -289509.000000 0 0 1
-26.098107 25.337787 -8.976105 37.465786 -0.770617 1.812731 0.027970 -0.000611 -21246.900000 0 0 1
-25.915247 24.864587 -7.664805 36.723248 -0.764711 1.781060 0.024992 -0.006522 828241.000000 0 0 1
-27.003907 25.322087 -6.831005 37.644146 -0.753268 1.753270 0.039830 -0.007887 723284.000000 0 0 1
-26.836937 24.610087 -5.451205 36.818382 -0.742141 1.719399 0.040273 -0.010382 -87495.400000 0 0 1
-27.023397 23.202587 -5.542505 36.046406 -0.709472 1.725169 0.041077 -0.014021 -215898.000000 0 0 1
-26.745377 22.556387 -4.384705 35.260905 -0.700635 1.695469 0.046417 -0.013922 -158512.000000 0 0 1
-26.606857 21.036487 -4.678305 34.239527 -0.669008 1.707860 0.038229 -0.008019 842742.000000 0 0 1
-25.575107 20.603287 -5.616305 33.318530 -0.678146 1.740169 0.022218 -0.014162 772847.000000 0 0 1
-25.847957 20.897487 -6.950905 33.957870 -0.679889 1.776945 0.003263 -0.010385 -962411.000000 0 0 1
-26.840337 20.030087 -7.718505 34.368349 -0.641108 1.797310 -0.002382 -0.011351 -279716.000000 0 0 1
-26.435877 18.629787 -7.756005 33.257784 -0.613884 1.806172 -0.014502 -0.003766 463542.000000 0 0 1
-26.961517 18.005787 -8.907105 33.622437 -0.588810 1.838913 -0.025945 0.006057 -395933.000000 0 0 1
-26.433167 16.586687 -9.059105 32.494583 -0.560392 1.853328 -0.017835 0.007416 -407857.000000 0 0 1
-26.955877 15.636687 -8.158205 32.213066 -0.525647 1.826843 -0.027880 0.007394 183390.000000 0 0 1
-26.314417 14.368087 -8.263605 31.099480 -0.499779 1.839742 -0.011345 0.007602 -7137.190000 0 0 1
-26.981197 13.244587 -7.404305 30.955255 -0.456327 1.812332 0.007998 0.001400 234883.000000 0 0 1
-28.284377 12.961987 -7.896805 32.099511 -0.429713 1.819358 -0.003547 -0.002236 53153.000000 0 0 1
-28.912477 12.100887 -6.984905 32.111551 -0.396382 1.790069 -0.005020 0.000512 -27407.000000 0 0 1
-29.840317 11.043487 -7.580605 32.708848 -0.354456 1.804683 -0.001659 -0.002182 313882.000000 0 0 1
-29.016607 9.995687 -8.040405 31.725784 -0.331750 1.827025 0.006557 0.002864 609857.000000 0 0 1
-29.895907 9.017687 -8.545805 32.374600 -0.292957 1.837928 -0.003025 0.002376 8414.490000 0 0 1
-29.132317 7.765687 -9.100605 31.493155 -0.260508 1.863948 0.027755 -0.001104 76807.700000 0 0 1
-28.502417 7.930787 -10.355205 31.345102 -0.271385 1.907483 0.019032 -0.009148 -50506.500000 0 0 1
-27.627467 6.898987 -10.637205 30.397748 -0.244710 1.928297 0.038381 -0.018648 -643911.000000 0 0 1
-27.040817 6.963287 -12.052005 30.412892 -0.252035 1.978257 0.047840 -0.028936 -162175.000000 0 0 1
-26.376037 8.212587 -12.347105 30.258766 -0.301851 1.991114 0.051910 -0.025540 563809.000000 0 0 1
-25.203877 7.871287 -13.059905 29.457660 -0.302707 2.030123 0.052885 -0.026016 -317479.000000 0 0 1
-30.965207 26.106587 -34.311343 53.081694 -0.700471 2.273637 0.025891 -0.006322 -99224.600000 0 0 1
-31.160927 27.484887 -34.309450 53.884699 -0.722798 2.261033 0.019280 -0.015706 287047.000000 0 0 1
-31.129737 27.942287 33.406825 53.533615 -0.731492 0.896901 0.022830 -0.018390 -134924.000000 0 0 1
-31.522497 29.411687 33.428516 54.554384 -0.750771 0.911253 0.029241 -0.018482 -119315.000000 0 0 1
-31.630987 29.856587 32.080188 54.046957 -0.756548 0.935319 0.041650 -0.016627 194076.000000 0 0 1
-31.787597 31.259787 31.888778 54.813500 -0.777027 0.949895 0.042906 -0.017522 -121638.000000 0 0 1
-31.872197 31.692987 30.409368 54.267965 -0.782579 0.975981 0.047492 -0.012311 -1009070.000000 0 0 1
-30.676997 31.658487 29.715438 53.163382 -0.801142 0.977683 0.039190 -0.014615 -700908.000000 0 0 1
-30.735507 32.308987 28.429628 52.884646 -0.810351 1.003234 0.058458 -0.011661 339100.000000 0 0 1
-29.345987 32.375487 27.734968 51.755073 -0.834442 1.005236 0.041480 -0.010232 126529.000000 0 0 1
-28.903247 31.211287 27.043788 50.407426 -0.823773 1.004507 0.039758 -0.011991 547652.000000 0 0 1
-27.569887 31.279287 26.557698 49.434844 -0.848347 1.003651 0.027045 -0.004372 83164.200000 0 0 1
-27.301517 32.098487 25.244608 49.122051 -0.865980 1.031053 0.034712 -0.015072 -634949.000000 0 0 1
-27.321317 33.513487 25.290518 50.092100 -0.886835 1.041553 0.028420 -0.011452 447736.000000 0 0 1
-28.377377 34.180187 24.602978 50.782549 -0.877893 1.065031 0.033217 -0.005626 3935.260000 0 0 1
-28.451487 -33.528577 25.222958 50.693690 0.867131 1.050017 0.031479 -0.008385 -376144.000000 0 0 1
-29.021067 -33.556077 26.494558 51.673922 0.857742 1.032440 0.033809 -0.011179 236712.000000 0 0 1
-28.968487 -32.291077 27.170558 51.187168 0.839583 1.011243 0.025826 -0.004059 -292154.000000 0 0 1
-29.286837 -32.485877 28.690138 52.308461 0.837139 0.990251 0.031116 -0.011515 -319077.000000 0 0 1
-30.654057 -32.728577 28.920108 53.359194 0.818117 0.997994 0.017774 -0.011745 -197333.000000 0 0 1
-30.847927 -32.984277 30.285438 54.376143 0.818854 0.980073 0.010984 -0.007097 -533543.000000 0 0 1
-32.309177 -33.307077 30.533078 55.547396 0.800605 0.988820 0.009567 -0.011807 -463999.000000 0 0 1
-32.630557 -33.803277 31.832998 56.751692 0.803049 0.975303 0.011823 -0.010830 -178082.000000 0 0 1
-34.024877 -34.008877 31.959958 57.755821 0.785163 0.984399 0.005380 -0.011608 5947.700000 0 0 1
-34.430167 34.507887 33.317951 59.045038 -0.786526 0.971235 0.002749 -0.007603 -374427.000000 0 0 1
-34.177914 33.122587 33.495602 58.199578 -0.769719 0.957544 -0.002662 0.001804 121591.000000 0 0 1
-35.207621 32.533487 34.277752 58.931898 -0.745943 0.950040 0.000261 -0.005048 351370.000000 0 0 1
-34.720593 31.237387 -34.020705 57.781505 -0.732638 2.200347 -0.001170 -0.001537 101970.000000 0 0 1
-33.784447 31.388487 -32.990845 56.701163 -0.748652 2.191782 0.003846 -0.009866 -363654.000000 0 0 1
-33.407307 30.033887 -32.597885 55.504096 -0.732274 2.198523 0.009000 -0.011727 136728.000000 0 0 1
-32.665157 30.009387 -31.224645 54.245316 -0.743050 2.184157 0.011695 -0.014667 179401.000000 0 0 1
-33.439507 30.255387 -30.062735 54.197390 -0.735450 2.158786 0.005409 -0.014338 -418344.000000 0 0 1
-33.947457 31.603387 -29.991825 55.233264 -0.749654 2.144805 -0.002981 -0.005323 66963.400000 0 0 1
-34.958494 31.701487 -28.857105 55.315577 -0.736577 2.119617 -0.010160 0.002247 -190249.000000 0 0 1
-34.344814 31.674987 -27.592865 54.260826 -0.744980 2.104265 -0.008076 -0.001148 -383540.000000 0 0 1
-35.224542 31.323087 -26.548705 54.099334 -0.726839 2.083735 -0.016696 -0.001232 -582489.000000 0 0 1
-34.627435 31.123687 -25.164395 52.924379 -0.732160 2.066304 -0.009485 -0.006881 -355011.000000 0 0 1
-34.309026 32.364887 -24.521105 53.159005 -0.756248 2.050232 -0.004229 -0.005074 368239.000000 0 0 1
-33.709547 32.121787 -23.207705 52.026343 -0.761284 2.033173 -0.010470 -0.005070 909418.000000 0 0 1
-34.818760 31.953087 -22.085605 52.164354 -0.742507 2.007975 -0.014155 0.007454 893890.000000 0 0 1
34.788486 33.076987 -21.782905 52.714522 0.760185 1.996788 -0.015567 -0.000182 614751.000000 0 0 1
-35.235818 34.188087 -20.983205 53.391788 -0.770308 1.974693 -0.010576 -0.003845 -249630.000000 0 0 1
-34.928666 33.852487 -19.545605 52.421687 -0.769753 1.952879 -0.008991 0.002991 -28668.700000 0 0 1
-33.828117 33.019987 -19.265905 51.047391 -0.773310 1.957796 -0.000245 0.001544 -25650.200000 0 0 1
-33.647847 32.964387 -17.897605 50.390006 -0.775138 1.933905 0.013256 0.012367 262531.000000 0 0 1
-32.557637 31.976487 -17.375805 48.830462 -0.776393 1.934608 0.009974 0.017134 369692.000000 0 0 1
-32.533487 31.870487 -15.977505 48.264235 -0.775104 1.908204 0.030512 0.010798 427790.000000 0 0 1
-31.395277 31.048687 -15.670505 46.853486 -0.779848 1.911826 0.024431 0.013589 395509.000000 0 0 1
-31.113957 30.899087 -14.166305 46.081624 -0.781933 1.883274 0.024430 0.007096 -771842.000000 0 0 1
-31.975147 29.991187 -13.626505 45.908202 -0.753392 1.872158 0.026027 0.008768 -167724.000000 0 0 1
-31.542837 29.673087 -12.314005 45.023076 -0.754864 1.847831 0.033571 0.001919 225833.000000 0 0 1
-32.495607 28.618587 -11.696605 44.853078 -0.722044 1.834622 0.021925 -0.001808 228816.000000 0 0 1
-31.912247 28.089587 -10.526305 43.797483 -0.721775 1.813513 0.032182 0.001760 252151.000000 0 0 1
-32.646177 26.967287 -10.078005 43.526700 -0.690423 1.804453 0.018476 0.001393 -50484.900000 0 0 1
-31.965657 26.084587 -8.923005 42.211716 -0.684433 1.783790 0.021405 0.001593 240301.000000 0 0 1
-31.740087 26.818687 -7.723905 42.265043 -0.701553 1.754578 0.027038 -0.008448 503606.000000 0 0 1
-30.597847 27.680287 -7.760405 41.983931 -0.735377 1.756708 0.033483 -0.010943 -133659.000000 0 0 1
-30.204747 28.287287 -6.386905 41.872305 -0.752628 1.723927 0.042291 -0.008029 -278127.000000 0 0 1
-29.657607 27.269787 -5.585105 40.674419 -0.743478 1.708544 0.052226 -0.015616 156110.000000 0 0 1
-29.617647 27.708587 -4.250705 40.780379 -0.752109 1.675220 0.041727 -0.014589 -205494.000000 0 0 1
-28.704837 26.827787 -3.397105 39.436508 -0.751610 1.657044 0.043471 -0.012377 -533339.000000 0 0 1
-29.291517 25.602987 -3.118605 39.028600 -0.718306 1.650787 0.038974 -0.010870 -197510.000000 0 0 1
-28.624227 24.824287 -2.164905 37.951000 -0.714422 1.627872 0.027893 -0.004397 -428872.000000 0 0 1
-29.401287 23.580087 -1.777105 37.730814 -0.675965 1.617913 0.036879 -0.009464 -290771.000000 0 0 1
-29.661117 22.744587 -2.886305 37.489050 -0.654176 1.647863 0.023302 -0.009593 -261468.000000 0 0 1
-30.587557 21.756287 -2.594705 37.625353 -0.618256 1.639813 0.023250 -0.004013 -187534.000000 0 0 1
-31.080027 20.804187 -3.730205 37.585858 -0.589875 1.670205 0.017939 -0.005004 498388.000000 0 0 1
-30.041077 19.877087 -4.108305 36.255249 -0.584531 1.684356 0.018518 -0.008836 745073.000000 0 0 1
-30.326027 19.067787 -5.275305 36.208801 -0.561298 1.717008 0.019649 -0.011567 310085.000000 0 0 1
-29.190037 18.025387 -5.600305 34.761132 -0.553201 1.732610 0.024777 -0.002301 416234.000000 0 0 1
-29.023877 17.040987 -4.602205 33.970001 -0.530908 1.706693 0.011931 -0.007024 -38756.100000 0 0 1
-28.427177 15.910087 -5.092605 32.972260 -0.510244 1.725868 -0.009939 0.000049 -604186.000000 0 0 1
-28.155257 14.757987 -4.146605 32.057932 -0.482792 1.700507 -0.018330 0.000581 -471773.000000 0 0 1
-29.258767 13.990087 -3.755505 32.648152 -0.446016 1.686081 -0.005333 -0.002953 38943.500000 0 0 1
-28.845997 12.698287 -3.270105 31.686458 -0.414683 1.674182 -0.009820 -0.006731 86112.600000 0 0 1
-29.992947 11.801887 -2.743805 32.347950 -0.374881 1.655720 0.001713 -0.010151 -576265.000000 0 0 1
-30.998777 11.554387 -3.676105 33.285760 -0.356785 1.681463 0.003881 -0.000075 -379228.000000 0 0 1
-31.940037 10.755687 -3.015905 33.837058 -0.324819 1.660045 -0.005365 0.008902 -1109160.000000 0 0 1
-33.066417 10.388587 -3.927105 34.881698 -0.304409 1.683619 0.001378 0.010355 -1123460.000000 0 0 1
-32.633297 9.445887 -4.854205 34.317928 -0.281755 1.712720 -0.005535 0.002516 1060490.000000 0 0 1
-33.550367 9.248587 -5.971205 35.310321 -0.268982 1.740719 -0.009782 0.009970 449640.000000 0 0 1
-32.901947 8.264887 -6.937605 34.626245 -0.246105 1.772518 -0.007429 -0.000140 -458716.000000 0 0 1
-32.938477 6.931687 -6.573805 34.295867 -0.207417 1.763669 -0.024418 0.006131 261960.000000 0 0 1
-32.520947 6.155287 -7.675505 33.976653 -0.187059 1.798669 -0.004132 0.000711 -359121.000000 0 0 1
-31.470187 5.060987 -7.316805 32.703546 -0.159453 1.796437 0.010939 -0.002231 86031.100000 0 0 1
-30.213827 5.541687 -6.889105 31.480874 -0.181399 1.791416 0.021280 -0.009384 122555.000000 0 0 1
-29.456437 4.458087 -6.373505 30.466011 -0.150205 1.781554 0.010853 -0.008368 238032.000000 0 0 1
-27.949517 4.793787 -6.182605 29.023792 -0.169863 1.785460 0.048937 -0.012541 395894.000000 0 0 1
-27.245157 5.080387 -7.387305 28.682420 -0.184352 1.831287 0.048955 -0.014900 652859.000000 0 0 1
-25.838977 5.044387 -7.149205 27.280207 -0.192799 1.835958 0.077716 -0.023463 529878.000000 0 0 1
-24.926307 5.483687 -8.300205 26.838126 -0.216546 1.885221 0.074461 -0.028309 -130665.000000 0 0 1
-24.983007 4.572887 -9.367505 27.070502 -0.181036 1.924144 0.069965 -0.034074 669487.000000 0 0 1
-24.087507 4.851987 -10.466905 26.707787 -0.198772 1.973497 0.071909 -0.039443 23386.500000 0 0 1
-24.245107 3.914087 -11.721105 27.212674 -0.160057 2.016089 0.072069 -0.046493 -88347.300000 0 0 1
-25.265697 4.397387 -12.577905 28.563896 -0.172320 2.026777 0.060993 -0.031338 182451.000000 0 0 1
-25.463587 3.463287 -13.582705 29.066794 -0.135180 2.057023 0.060072 -0.028038 595676.000000 0 0 1
-26.438577 4.199287 -14.602305 30.493601 -0.157516 2.070157 0.048745 -0.023964 -61048.900000 0 0 1
-25.772467 5.256087 -15.286705 30.422522 -0.201183 2.097261 0.046912 -0.025505 143380.000000 0 0 1
-26.502137 6.144487 -16.104605 31.614495 -0.227824 2.105290 0.068815 -0.026269 -497432.000000 0 0 1
-27.322117 5.590287 -17.298805 32.817649 -0.201821 2.126003 0.020381 -0.003560 997053.000000 0 0 1
-28.455147 4.765587 -16.873505 33.423366 -0.165937 2.099995 0.013797 -0.018723 753941.000000 0 0 1
-29.237807 4.431687 -17.975905 34.606681 -0.150429 2.116985 0.018983 -0.003162 -664170.000000 0 0 1
-30.566087 3.769787 -17.593905 35.468894 -0.122713 2.089826 0.004789 -0.003953 -577759.000000 0 0 1
-30.524897 2.643087 -16.716205 34.902532 -0.086372 2.070243 0.014142 -0.015109 69411.100000 0 0 1
-30.160037 1.475387 -17.322305 34.811878 -0.048880 2.091623 0.042246 -0.018792 -205665.000000 0 0 1
-30.291887 0.282987 -16.385105 34.440531 -0.009342 2.066614 0.045437 -0.014271 -209809.000000 0 0 1
-29.813287 -0.947813 -16.923505 34.294831 0.031781 2.086872 0.040860 -0.007913 392420.000000 0 0 1
-30.062277 -1.949413 -16.002705 34.111982 0.064755 2.059093 0.052363 -0.018962 -55904.100000 0 0 1
-29.804077 -3.368213 -16.566805 34.264952 0.112534 2.075435 0.043880 -0.009754 379984.000000 0 0 1
-30.756617 -3.601013 -17.618405 35.627868 0.116550 2.088070 0.036599 -0.009810 680710.000000 0 0 1
-30.754827 -4.899713 -18.107805 36.024425 0.157988 2.097462 0.017787 -0.003296 101744.000000 0 0 1
-31.604937 -4.889813 -19.413005 37.411858 0.153500 2.116360 0.015381 0.007872 200940.000000 0 0 1
-31.618357 -6.201213 -19.926705 37.884682 0.193669 2.124667 0.019175 0.010571 -38052.800000 0 0 1
-32.520677 -6.216813 -21.006205 39.211017 0.188886 2.136159 0.020380 0.018915 -228733.000000 0 0 1
-32.482587 -7.495213 -21.938905 39.907546 0.226776 2.152853 0.024159 0.014281 58471.800000 0 0 1
-31.338057 -7.456813 -22.773905 39.450331 0.233603 2.186191 0.016984 0.008542 9508.620000 0 0 1
-31.487177 -8.219713 -23.962605 40.413023 0.255351 2.205505 0.017538 0.017440 388036.000000 0 0 1
-30.152177 -8.321213 -24.770605 39.899615 0.269271 2.240589 0.008119 0.010269 312758.000000 0 0 1
-29.726957 -7.047913 -25.289225 39.659929 0.232790 2.262242 0.019988 0.007717 164038.000000 0 0 1
-29.567827 -6.944413 -26.688995 40.432459 0.230683 2.291733 0.023949 0.008775 915059.000000 0 0 1
-30.909857 -7.091813 -27.536545 41.999695 0.225532 2.285822 0.016730 0.010748 774339.000000 0 0 1
-31.535627 -8.328413 -27.533655 42.684428 0.258200 2.271887 0.010570 0.004995 -153677.000000 0 0 1
-32.641257 -8.342513 -28.432785 44.084833 0.250225 2.271762 0.021498 0.004212 549618.000000 0 0 1
-33.619587 -9.531713 -28.182755 44.893183 0.276267 2.249486 0.037130 0.003733 -338749.000000 0 0 1
-33.294187 -10.779813 -28.794975 45.319509 0.313123 2.259293 0.031514 0.005059 -233512.000000 0 0 1
-34.036697 -11.922313 -28.430315 45.922991 0.336923 2.238376 0.009304 0.013742 -55190.400000 0 0 1
35.071015 -12.019213 -29.124035 47.144957 -0.330166 2.236681 0.014271 0.002986 469831.000000 0 0 1
34.108086 -11.177013 -28.484755 45.822139 -0.316667 2.241628 0.004971 0.007046 709173.000000 0 0 1
33.197906 -10.561913 -29.452275 45.618982 -0.308024 2.272624 0.014488 -0.002761 270546.000000 0 0 1
32.482886 -9.368413 -28.836895 44.435026 -0.280791 2.277023 0.010028 0.006812 -377028.000000 0 0 1
31.447926 -9.817713 -28.015105 43.245874 -0.302602 2.275502 -0.014850 0.012035 -275250.000000 0 0 1
30.660926 -8.778213 -27.479315 42.098244 -0.278841 2.281995 -0.027631 0.019632 683712.000000 0 0 1
29.525906 -9.233513 -26.491935 40.729099 -0.303091 2.278963 -0.031478 0.020126 301754.000000 0 0 1
29.979726 -9.449313 -25.177325 40.273703 -0.305334 2.246127 -0.040829 0.026153 -222737.000000 0 0 1
28.955466 -9.980113 -24.406405 39.162409 -0.331920 2.243637 -0.045324 0.023200 -414079.000000 0 0 1
29.272346 -10.056113 -22.861605 38.479198 -0.330905 2.206979 -0.048950 0.022189 -105665.000000 0 0 1
30.319366 -10.947413 -22.581305 39.357657 -0.346502 2.181869 -0.053730 0.025245 76754.200000 0 0 1
30.575816 -11.012913 -21.196505 38.800214 -0.345718 2.148735 -0.037663 0.017434 241563.000000 0 0 1
31.520436 -12.176313 -20.719305 39.636979 -0.368640 2.120843 -0.009547 0.012264 23644.000000 0 0 1
32.838216 -12.150413 -21.201205 40.932531 -0.354387 2.115255 -0.000711 0.017931 -296343.000000 0 0 1
33.483866 -13.299813 -20.727205 41.565266 -0.378091 2.092856 0.015346 0.018219 -875996.000000 0 0 1
34.829634 -13.494213 -21.402205 43.049409 -0.369628 2.091112 0.018713 0.016119 -871979.000000 0 0 1
-34.676747 -12.502713 -21.189805 42.518260 0.346043 2.092513 0.013083 0.018823 374918.000000 0 0 1
-34.693172 -11.340713 -21.980405 42.607114 0.315937 2.112838 -0.001274 0.027686 -580271.000000 0 0 1
-34.167660 -11.460513 -23.479505 43.012318 0.323627 2.148234 0.002842 0.026870 480803.000000 0 0 1
-34.990915 -12.195713 -24.392805 44.363369 0.335373 2.152970 0.002779 0.028369 684475.000000 0 0 1
34.192546 -11.743113 -24.676105 43.771464 -0.330819 2.169714 0.000138 0.031869 353376.000000 0 0 1
33.386446 -12.697213 -25.644975 43.972022 -0.363418 2.193473 0.005129 0.021851 300433.000000 0 0 1
33.008926 -14.023213 -25.174375 43.817678 -0.401727 2.182821 0.020695 0.012017 584240.000000 0 0 1
32.048266 -14.085613 -24.127405 42.516203 -0.414098 2.174247 -0.005613 0.016922 -339793.000000 0 0 1
-29.411577 8.292487 -19.476905 36.237495 -0.274813 2.138241 -0.013546 0.014729 -364426.000000 0 0 1
-28.263697 7.580287 -19.817105 35.341406 -0.262032 2.166068 -0.014410 0.008708 16109.800000 0 0 1
-27.350647 8.401287 -20.562505 35.234303 -0.298021 2.193943 0.000503 0.000769 1558180.000000 0 0 1
-25.912577 7.749787 -20.777805 34.106276 -0.290607 2.225857 0.005502 0.005874 975665.000000 0 0 1
-25.034607 7.792887 -19.669205 32.777100 -0.301777 2.214410 0.019985 -0.005776 -136923.000000 0 0 1
-23.993707 6.919387 -19.962305 31.969822 -0.280766 2.245173 0.054263 -0.014663 -1019680.000000 0 0 1
-22.599107 7.299887 -19.506605 30.732973 -0.312437 2.258433 0.049530 -0.016233 -627745.000000 0 0 1
-22.096707 8.433087 -20.177805 31.088989 -0.364583 2.277110 0.046483 -0.008951 578568.000000 0 0 1
-20.723007 8.572787 -19.760505 29.890019 -0.392247 2.293090 0.039888 -0.008630 633320.000000 0 0 1
-20.011307 9.764987 -20.400905 30.199409 -0.453980 2.312493 0.031804 -0.004138 -437072.000000 0 0 1
-19.854707 9.620887 -21.794705 31.012579 -0.451223 2.350080 0.029188 -0.014690 -160524.000000 0 0 1
-19.079407 10.629487 -22.357005 31.254527 -0.508292 2.367879 0.017198 -0.011111 -142270.000000 0 0 1
-17.950107 10.241387 -23.314005 31.155019 -0.518482 2.416326 0.036718 -0.006209 -102929.000000 0 0 1
-18.434307 9.354487 -24.344905 31.937509 -0.469590 2.437604 0.035145 -0.012877 421517.000000 0 0 1
-17.386607 8.982787 -25.241085 31.938957 -0.476879 2.482081 0.026093 -0.009875 -83995.600000 0 0 1
-17.864907 7.944087 -26.319805 32.787125 -0.418417 2.502686 0.016877 -0.005692 -262977.000000 0 0 1
-18.232407 6.724687 -25.688025 32.210506 -0.353352 2.493944 0.032858 0.002584 415839.000000 0 0 1
-18.764307 5.835387 -26.683435 33.138447 -0.301503 2.506827 0.041725 -0.002547 -356514.000000 0 0 1
-19.315407 4.483487 -26.171275 32.834772 -0.228081 2.493207 0.038443 0.016831 -155695.000000 0 0 1
-18.377307 3.489087 -25.848965 31.907180 -0.187625 2.515170 0.031169 0.011786 28924.200000 0 0 1
-17.327807 3.785287 -24.944505 30.607346 -0.215073 2.523498 0.025291 0.005637 -74353.700000 0 0 1
-16.614307 2.439387 -24.553505 29.746603 -0.145783 2.541746 0.025437 0.006768 52936.900000 0 0 1
-17.224507 1.728287 -23.481405 29.172710 -0.100004 2.506320 0.020250 0.003748 387356.000000 0 0 1
-18.319707 0.901387 -23.837905 30.077731 -0.049163 2.485765 0.021650 0.004621 -58409.200000 0 0 1
-18.996907 0.152687 -22.678605 29.584201 -0.008037 2.444292 0.037007 0.001953 -25475.900000 0 0 1
-18.257507 -0.944013 -22.216205 28.771296 0.051659 2.453039 0.037483 0.001900 -56469.400000 0 0 1
-18.956507 -1.545713 -21.174805 28.462445 0.081360 2.409767 0.036969 0.000910 -133975.000000 0 0 1
-18.361807 -2.901113 -20.705405 27.825999 0.156702 2.409987 0.034112 -0.012221 -83682.800000 0 0 1
-18.485507 -3.936113 -21.686905 28.766800 0.209796 2.424754 0.037198 -0.019100 347928.000000 0 0 1
-18.444507 -5.249213 -21.105605 28.516673 0.277264 2.404037 0.039258 -0.016976 -218672.000000 0 0 1
-18.544107 -6.389313 -22.156205 29.590618 0.331809 2.416982 0.010242 -0.021786 572150.000000 0 0 1
-17.332707 -6.532013 -22.919905 29.468831 0.360401 2.461903 0.007538 -0.013595 664476.000000 0 0 1
-17.415307 -7.563713 -23.816405 30.458559 0.409733 2.468549 0.028526 -0.023121 275118.000000 0 0 1
-16.269507 -7.608213 -24.862905 30.671580 0.437423 2.516001 0.023041 -0.024960 -631986.000000 0 0 1
-16.477607 -8.479413 -25.965115 31.899830 0.475261 2.521729 0.021800 -0.037444 676406.000000 0 0 1
-15.304507 -8.776013 -26.766275 32.057446 0.520651 2.558833 0.025963 -0.044752 542163.000000 0 0 1
-14.262107 -9.686413 -26.098055 31.278471 0.596610 2.557799 0.023904 -0.049666 -1006930.000000 0 0 1
-13.494707 -8.990613 -25.169265 29.940443 0.587702 2.569268 0.020332 -0.028687 -154123.000000 0 0 1
-12.748307 -9.861313 -24.357805 29.207319 0.658397 2.557046 -0.003191 -0.021518 -178690.000000 0 0 1
-11.951507 -9.215013 -23.216005 27.690032 0.656827 2.565183 0.028578 -0.017939 18228.400000 0 0 1
-12.702407 -8.774113 -22.085305 26.946185 0.604487 2.531523 0.024030 -0.005964 306196.000000 0 0 1
-11.862307 -8.377213 -21.013805 25.543532 0.614878 2.536882 0.023186 -0.006617 -332370.000000 0 0 1
-12.602607 -8.327913 -19.625905 24.766025 0.583936 2.485616 0.008765 0.001995 349859.000000 0 1 0
-13.334507 -7.166613 -19.280505 24.513411 0.493156 2.475964 -0.002126 0.002269 350183.000000 0 1 0
-14.578407 -6.941813 -19.909705 25.634256 0.444403 2.460180 -0.002058 -0.001572 -278430.000000 0 0 1
-15.055707 -5.548713 -19.474005 25.232903 0.353100 2.452417 0.001276 -0.001507 -412754.000000 0 0 1
-15.217007 -5.273213 -18.093905 24.222995 0.333584 2.414293 -0.009421 0.008332 342876.000000 0 1 0
-15.126107 -3.864813 -17.795005 23.672729 0.250154 2.421446 -0.000859 0.003341 -281533.000000 0 1 0
-15.037907 -3.598513 -16.267905 22.443990 0.234879 2.381573 0.013159 -0.006836 274122.000000 0 1 0
-16.287607 -3.774813 -15.620105 22.880626 0.227739 2.322218 0.027219 -0.005319 197018.000000 0 1 0
-16.964207 -2.546513 -15.491905 23.114242 0.148998 2.305318 0.014660 -0.009216 -130382.000000 0 1 0
-18.157107 -2.628713 -14.501905 23.385806 0.143777 2.239686 0.027528 -0.014928 -271870.000000 0 1 0
-17.864807 -2.744613 -13.106505 22.326323 0.152440 2.198197 0.035967 -0.032757 502156.000000 0 1 0
-18.507107 -1.770513 -12.293605 22.288572 0.095376 2.155036 0.017774 -0.032471 -220866.000000 0 1 0
-17.601907 -0.563813 -11.910305 21.260301 0.032020 2.165440 -0.003252 -0.022223 -163777.000000 0 1 0
-17.372407 0.346787 -12.954505 21.673486 -0.019959 2.211441 0.017338 -0.021259 541197.000000 0 1 0
-16.525907 1.384687 -12.476805 20.753160 -0.083594 2.215799 0.022389 -0.014594 -1037380.000000 0 1 0
-16.029107 2.245587 -13.612805 21.149076 -0.139188 2.270067 0.025491 -0.005529 -77103.900000 0 1 0
-15.290707 1.555587 -14.602905 21.200717 -0.101385 2.330619 0.018364 -0.017363 -602764.000000 0 1 0
-13.992707 1.224887 -14.266505 20.020723 -0.087315 2.363975 0.016523 -0.016417 -1851870.000000 0 1 0
-13.284007 0.242987 -15.220605 20.203730 -0.018290 2.423947 0.006583 -0.013295 -341825.000000 0 1 0
-12.894207 0.849187 -16.454105 20.921742 -0.065763 2.475852 0.007989 -0.018059 244906.000000 0 1 0
-12.528907 -0.111313 -17.441505 21.475381 0.008884 2.518646 -0.009653 -0.005383 -163149.000000 0 1 0
-12.031107 0.615987 -18.723205 22.263993 -0.051155 2.569858 0.004045 -0.008319 111556.000000 0 1 0
-10.819007 1.341487 -18.544905 21.511950 -0.123364 2.610145 -0.011221 -0.008351 31484.700000 0 1 0
-10.599807 2.166487 -19.675005 22.453405 -0.201612 2.638839 -0.004600 -0.004387 -875147.000000 0 1 0
-9.257507 2.821087 -19.603605 21.862326 -0.295795 2.683018 -0.003913 -0.003701 -2091360.000000 0 1 0
-8.193407 1.936187 -19.733205 21.454140 -0.232053 2.738330 -0.003497 0.001296 72402.100000 0 1 0
-6.920707 2.444187 -19.305405 20.653544 -0.339496 2.778284 0.000981 0.000051 876907.000000 0 1 0
-6.327807 3.521387 -20.240305 21.496773 -0.507815 2.798001 0.005039 -0.000079 -1258550.000000 0 1 0
-6.096307 3.058087 -21.543205 22.597047 -0.464950 2.834988 -0.000632 0.001981 182515.000000 0 1 0
-5.833707 4.084687 -22.482805 23.583751 -0.610852 2.834835 0.002154 -0.004156 -356137.000000 0 1 0
-5.410207 3.484187 -23.878605 24.730501 -0.572147 2.878356 0.016534 -0.007585 -825806.000000 0 1 0
-4.170507 2.883287 -23.778505 24.313037 -0.604898 2.931514 0.029475 -0.016364 -957216.000000 0 1 0
-3.741007 2.515187 -25.012205 25.415186 -0.591912 2.963278 0.028530 -0.012958 -534400.000000 0 0 1
-2.368207 1.870587 -25.173225 25.353476 -0.668536 3.022278 0.023764 -0.014919 329234.000000 0 0 1
-1.211307 2.666387 -24.841905 25.013939 -1.144382 3.024244 0.021771 -0.018774 550965.000000 0 0 1
0.023093 2.016787 -24.843505 24.925242 1.559347 3.060585 0.019554 -0.015580 -259743.000000 0 1 0
0.468893 1.093187 -23.713105 23.742920 1.165608 3.091472 0.024699 -0.020780 -620454.000000 0 1 0
0.093393 -0.280513 -23.874105 23.875935 -1.249404 3.129210 0.020755 -0.020174 -261709.000000 0 1 0
0.695893 -1.077113 -22.915205 22.951058 -0.997187 3.085690 0.027389 -0.014530 -1111490.000000 0 1 0
0.181293 -2.512613 -22.713005 22.852280 -1.498768 3.031132 0.031764 -0.023261 -273107.000000 0 1 0
-1.019707 -2.615613 -21.979905 22.158462 1.199067 3.014557 0.029914 -0.020530 -105330.000000 0 1 0
-2.222907 -2.629213 -22.716005 22.975442 0.868941 2.991171 0.034926 -0.021980 -97280.500000 0 1 0
-2.868107 -1.213813 -22.896905 23.107740 0.400354 3.006405 0.030177 -0.013875 -1787610.000000 0 1 0
-3.431107 -0.791613 -21.649805 21.934293 0.226749 2.980359 0.022085 -0.007103 -170802.000000 0 1 0
-4.313607 0.265387 -21.706405 22.132457 -0.061446 2.945062 0.011667 -0.003641 164138.000000 0 1 0
-5.623707 0.037287 -22.517405 23.209071 -0.006630 2.896845 0.007832 -0.000121 -576817.000000 0 1 0
-6.376907 -1.082513 -22.095405 23.022678 0.168152 2.856813 0.009114 0.010068 1568130.000000 0 1 0
-7.769707 -0.761813 -21.784405 23.141068 0.097737 2.797477 -0.000028 0.002174 1657720.000000 0 1 0
-8.664507 -1.985013 -21.443005 23.212420 0.225211 2.748615 0.004582 0.002724 -139086.000000 0 1 0
-9.080107 -2.886113 -22.416505 24.357292 0.307752 2.739694 0.045316 -0.006823 11908.000000 0 1 0
-9.081907 -4.185513 -21.945505 24.116483 0.431851 2.714031 0.010075 -0.008766 -642471.000000 0 1 0
-9.832107 -5.162613 -22.885405 25.437466 0.483507 2.689817 0.007485 -0.014340 518285.000000 0 0 1
-11.218307 -4.864513 -23.028205 26.073207 0.409151 2.653467 -0.000112 -0.010920 300258.000000 0 0 1
-11.776007 -5.534413 -24.154805 27.436448 0.439339 2.647483 -0.007357 -0.022381 563118.000000 0 0 1
-13.341607 -5.543113 -24.105605 28.103466 0.393776 2.601663 0.028888 -0.022968 496486.000000 0 0 1
-13.789607 -4.191313 -24.263105 28.220890 0.295074 2.605590 0.020357 -0.023380 -181923.000000 0 0 1
-15.188007 -4.080513 -24.110005 28.785734 0.262469 2.563612 0.017797 -0.015808 62337.000000 0 0 1
-15.667107 -2.688013 -24.486305 29.193540 0.169916 2.565794 0.023139 -0.013008 -160262.000000 0 0 1
-15.647007 -2.484113 -25.905065 30.365639 0.157446 2.592703 0.021964 -0.019881 166869.000000 0 0 1
-15.962907 -1.145613 -26.322295 30.805682 0.071644 2.595311 0.014619 -0.007156 -1392520.000000 0 0 1
-17.321007 -0.969113 -26.897865 32.007056 0.055892 2.568767 0.029849 0.003251 -1520080.000000 0 0 1
-17.671307 -1.577613 -28.148535 33.273172 0.089039 2.579202 0.037748 -0.010149 132753.000000 0 0 1
-16.886807 -1.223713 -29.275175 33.818598 0.072339 2.617250 0.025867 -0.004530 -195486.000000 0 0 1
-17.135207 -2.181613 -30.480725 35.034973 0.126636 2.626016 0.014682 0.000646 422180.000000 0 0 1
-18.371607 -1.981713 -31.158235 36.225388 0.107453 2.606304 0.017284 -0.002229 332008.000000 0 0 1
-18.433107 -2.761813 -32.316925 37.306711 0.148723 2.618443 0.013972 -0.002353 232390.000000 0 0 1
-19.887607 -3.255813 -32.639455 38.359500 0.162271 2.588461 -0.008226 0.002065 809875.000000 0 0 1
-20.924507 -2.339313 -32.966635 39.116575 0.111335 2.573222 0.000129 -0.007990 578593.000000 0 0 1
-21.455407 -1.704113 -31.802975 38.401403 0.079259 2.546635 -0.000377 0.003584 -313933.000000 0 0 1
-22.630707 -0.705113 -32.031555 39.225841 0.031147 2.526280 -0.007877 0.004411 -63437.000000 0 0 1
-22.316407 0.496187 -32.778845 39.657545 -0.022231 2.543742 -0.005667 0.004399 -129413.000000 0 0 1
-23.413307 1.282587 -33.132685 40.590674 -0.054726 2.525709 0.000563 0.003640 -422495.000000 0 0 1
-22.939507 2.651187 -33.629485 40.794510 -0.115062 2.539872 0.000234 0.004576 -622412.000000 0 0 1
-22.445307 3.580987 -32.664445 39.794236 -0.158209 2.533665 0.008056 0.005898 580479.000000 0 0 1
-23.406007 4.178187 -31.795025 39.701663 -0.176649 2.499507 0.006016 -0.000942 -416436.000000 0 0 1
-24.505807 5.057487 -32.424225 40.956601 -0.203522 2.484338 0.011704 -0.006039 -384389.000000 0 0 1
-25.449977 4.138787 -32.954245 41.842719 -0.161213 2.477659 0.007042 -0.008169 -298884.000000 0 0 1
-26.469327 4.803687 -33.684075 43.108208 -0.179527 2.467677 0.012475 -0.004597 -516732.000000 0 0 1
-27.539897 3.833187 -34.106158 44.004196 -0.138298 2.457616 0.011420 -0.002928 -839248.000000 0 0 1
-26.955997 2.880387 34.102696 43.565081 -0.106451 0.671645 0.009505 -0.008425 493415.000000 0 0 1
-27.827727 2.372287 33.089086 43.300090 -0.085043 0.701026 0.012797 -0.006297 113199.000000 0 0 1
-27.733087 0.859487 32.969298 43.091037 -0.030981 0.699587 0.010020 0.002644 -287955.000000 0 0 1
-28.039117 0.182387 34.126162 44.168091 -0.006505 0.687803 0.001736 0.007791 126333.000000 0 0 1
-28.259957 -1.111113 33.756488 44.038168 0.039297 0.697379 -0.000680 0.003726 -830215.000000 0 0 1
-28.308307 -2.092513 -34.054015 44.332999 0.073785 2.446730 -0.021678 0.007332 1320520.000000 0 0 1
-27.019877 -2.336013 -33.397955 43.022716 0.086241 2.459550 -0.022298 -0.002087 1793260.000000 0 0 1
-26.355237 -1.187413 -32.841905 42.125992 0.045024 2.464841 -0.034169 0.012306 -710697.000000 0 0 1
-26.734997 -0.791313 -31.406725 41.252498 0.029590 2.436157 -0.013017 0.011377 -78755.300000 0 0 1
-25.853547 -1.325513 -30.396825 39.926556 0.051225 2.436141 -0.014990 0.004203 782768.000000 0 0 1
-26.161977 -0.871813 -29.088825 39.132708 0.033311 2.408843 -0.013544 0.006794 -97070.200000 0 0 1
-25.072277 -1.332413 -28.088025 37.674017 0.053093 2.412162 0.006490 0.005975 19938.700000 0 0 1
-25.099907 -2.699713 -27.743445 37.509899 0.107147 2.403317 -0.003578 0.004485 100154.000000 0 0 1
-24.185607 -2.992513 -26.714005 36.159878 0.123105 2.402047 0.025060 -0.000373 -567496.000000 0 0 1
-24.449507 -4.367213 -26.058375 35.998470 0.176758 2.380198 0.025130 -0.009277 462477.000000 0 0 1
-25.630357 -4.285313 -25.248685 36.232240 0.165664 2.341802 0.023893 -0.004878 498513.000000 0 0 1
-25.845167 -5.395513 -24.426405 35.968507 0.205807 2.317339 0.019651 -0.009514 -1045170.000000 0 0 1
-27.035117 -5.236013 -23.560705 36.241140 0.191306 2.278525 0.026653 -0.010716 -1118370.000000 0 0 1
-27.345327 -6.407513 -22.875005 36.222769 0.230166 2.254294 0.019051 -0.010812 449596.000000 0 0 1
-28.344797 -6.049813 -21.896705 36.324833 0.210281 2.217805 0.015626 -0.004084 343071.000000 0 0 1
-28.709127 -7.219413 -20.958605 36.271160 0.246359 2.186865 0.014767 -0.007819 -290125.000000 0 0 1
-27.626797 -7.545513 -20.103405 34.990307 0.266620 2.182841 0.011584 -0.007504 406702.000000 0 0 1
-27.976697 -8.530813 -19.111305 34.938694 0.295970 2.149567 0.024941 -0.000888 83960.400000 0 0 1
-28.775967 -8.031613 -17.906305 34.831004 0.272182 2.110744 0.018739 -0.005469 -257039.000000 0 0 1
-27.873127 -7.610513 -16.943805 33.495129 0.266544 2.101174 0.038449 -0.018439 23722.700000 0 0 1
-28.502927 -6.902313 -15.915505 33.367081 0.237588 2.068014 0.033167 -0.016057 -235811.000000 0 0 1
-27.486307 -6.302713 -14.931705 31.908887 0.225407 2.057764 0.043876 -0.019947 19503.000000 0 0 1
-26.753037 -5.186013 -15.370005 31.286687 0.191473 2.084336 0.047635 -0.013527 -50512.000000 0 0 1
-26.036957 -4.606213 -14.329205 30.074349 0.175099 2.067419 0.043924 -0.025585 -286671.000000 0 0 1
-14.166407 21.264587 -5.435905 26.123147 -0.983119 1.780416 0.011842 0.006705 399496.000000 0 0 1
-13.772207 20.630487 -6.633405 25.676697 -0.982172 1.832103 0.019882 0.010457 455064.000000 0 0 1
-14.782107 19.635287 -6.857905 25.516388 -0.925484 1.842907 0.013118 0.002525 213525.000000 0 0 1
-14.829907 19.020987 -8.327405 25.516069 -0.908581 1.903246 0.017455 -0.011838 -427846.000000 0 0 1
-13.656107 18.259787 -8.580605 24.362592 -0.928654 1.930721 0.027692 -0.013330 477465.000000 0 1 0
-13.835707 17.321987 -9.615405 24.164727 -0.896826 1.980035 0.017716 -0.018930 -392261.000000 0 1 0
-14.288407 15.890787 -9.216505 23.272723 -0.838444 1.977977 0.018705 -0.037243 887467.000000 0 1 0
-15.682807 15.815087 -8.787605 23.943463 -0.789598 1.946594 0.026020 -0.036162 1607020.000000 0 1 0
-15.794407 14.891587 -7.707305 23.035304 -0.755985 1.911963 0.025894 -0.019462 -1041330.000000 0 1 0
-17.125007 14.940587 -7.040305 23.791866 -0.717380 1.871207 0.040809 -0.025391 -61918.500000 0 1 0
-18.300807 14.822887 -7.874705 24.832408 -0.680784 1.893481 0.041658 -0.023082 426349.000000 0 1 0
-19.453007 15.396187 -7.316105 25.864792 -0.669509 1.857570 0.032614 -0.013126 514332.000000 0 0 1
-20.667607 14.951787 -8.234105 26.804970 -0.626285 1.883031 0.026721 -0.003245 258643.000000 0 0 1
-21.090407 13.636187 -8.010305 26.361257 -0.573952 1.879545 0.040386 -0.011797 -182726.000000 0 0 1
-21.844507 13.320187 -9.164005 27.176991 -0.547574 1.914734 0.032709 -0.009951 -287806.000000 0 0 1
-22.349207 11.876687 -8.953205 26.845905 -0.488462 1.910814 0.036884 -0.002802 306497.000000 0 0 1
-21.376707 10.811687 -8.818105 25.526754 -0.468253 1.923510 0.040798 -0.005690 582404.000000 0 0 1
-21.867707 9.877987 -7.822705 25.238185 -0.424280 1.885942 0.042380 -0.007930 133162.000000 0 0 1
-20.822107 8.800387 -7.401305 23.786262 -0.399875 1.887208 0.042475 -0.002330 -170118.000000 0 1 0
-20.836407 7.604587 -8.182005 23.641718 -0.349945 1.924190 0.044341 -0.003988 467308.000000 0 1 0
-19.878107 6.649387 -7.744305 22.345643 -0.322807 1.924707 0.043041 -0.001694 -100476.000000 0 1 0
-19.684007 5.521687 -8.721605 22.226461 -0.273488 1.974033 0.032349 -0.005515 -51742.700000 0 1 0
-20.738807 4.580187 -8.710005 22.955183 -0.217362 1.959982 0.045643 -0.009939 483920.000000 0 1 0
-20.459707 3.595987 -9.713105 22.931968 -0.173982 2.008170 0.034975 -0.009906 77679.700000 0 1 0
-21.252007 2.262487 -9.619205 23.437060 -0.106060 1.993719 0.030254 -0.009830 -57173.900000 0 1 0
-20.793707 1.555087 -8.501905 22.518413 -0.074647 1.957949 0.024207 -0.016740 570736.000000 0 1 0
-21.646407 0.490487 -8.079205 23.110194 -0.022655 1.927935 0.035534 -0.020155 -657131.000000 0 1 0
-21.580007 -0.882913 -8.894805 23.357949 0.040891 1.961462 0.011122 -0.026246 -415167.000000 0 1 0
-20.488407 -1.704713 -8.588205 22.280892 0.083013 1.966493 0.008542 -0.018910 -49925.000000 0 1 0
-20.419607 -3.034413 -9.198605 22.600495 0.147523 1.989974 -0.010118 -0.017614 228201.000000 0 1 0
-21.477007 -4.081713 -8.660205 23.514280 0.187811 1.947971 0.003760 -0.013149 399431.000000 0 1 0
-21.189507 -4.511613 -7.351505 22.877817 0.209785 1.897938 -0.004397 -0.014134 285792.000000 0 1 0
-22.165507 -5.344613 -6.734805 23.774612 0.236607 1.858006 0.010060 -0.008624 -571135.000000 0 1 0
-22.120007 -6.878613 -7.017005 24.204305 0.301489 1.864926 0.004681 -0.012585 -750631.000000 0 1 0
-21.064507 -7.541513 -6.392805 23.269204 0.343802 1.849108 -0.005345 -0.006162 234902.000000 0 1 0
-21.102707 -8.948413 -6.640805 23.864171 0.401058 1.852794 -0.008128 -0.002852 158399.000000 0 1 0
-19.944807 -9.749213 -5.939605 22.980892 0.454655 1.832222 -0.012368 -0.003195 306803.000000 0 1 0
-18.628307 -9.618613 -6.415905 21.924766 0.476637 1.867775 -0.021235 -0.001209 -106462.000000 0 1 0
-17.693607 -10.347013 -5.687905 21.271499 0.529159 1.841486 -0.012901 0.000185 -796822.000000 0 1 0
-17.264107 -11.603513 -6.370205 21.754779 0.591767 1.867970 -0.006620 0.003088 -112367.000000 0 1 0
-16.189907 -11.574213 -7.340105 21.212087 0.620658 1.924137 -0.009348 0.001448 740188.000000 0 1 0
-16.406707 -10.896913 -8.552005 21.472297 0.586275 1.980438 -0.016334 -0.004550 382679.000000 0 1 0
-15.356307 -11.197813 -9.705905 21.340379 0.630055 2.042960 -0.009297 0.000104 712842.000000 0 1 0
-15.569407 -12.540613 -10.273705 22.477154 0.678064 2.045498 -0.003876 0.004394 279555.000000 0 1 0
-14.739607 -12.853513 -11.395605 22.634678 0.717151 2.098392 0.008465 0.016026 112122.000000 0 1 0
-14.899507 -14.199813 -11.957505 23.803612 0.761358 2.097099 0.021390 0.005554 -461896.000000 0 1 0
-15.888007 -14.229413 -12.937905 24.945828 0.730383 2.116056 0.019777 -0.000918 -194677.000000 0 1 0
-16.031807 -15.473613 -13.599805 26.103759 0.767683 2.118807 0.011790 -0.003895 88528.000000 0 0 1
-16.568807 -15.308013 -15.047305 27.116084 0.745867 2.159065 0.024146 -0.001753 -8727.720000 0 0 1
-16.740007 -16.512013 -15.731905 28.290763 0.778542 2.160457 0.022666 0.004629 282300.000000 0 0 1
-16.945407 -16.414313 -17.167605 29.177100 0.769479 2.199866 0.013292 0.003713 -537172.000000 0 0 1
-17.099707 -17.742913 -17.856005 30.431035 0.803856 2.197860 0.008299 0.001454 -545056.000000 0 0 1
-18.335207 -18.374713 -17.644605 31.386972 0.786474 2.167796 -0.010133 0.006040 -289456.000000 0 0 1
-19.225507 -18.218813 -18.772905 32.464862 0.758520 2.187382 -0.007229 0.001239 1057140.000000 0 0 1
-20.709207 -18.044513 -18.276505 32.992520 0.716747 2.157908 -0.010407 -0.000258 413320.000000 0 0 1
-20.995707 -16.767913 -17.677205 32.163119 0.673908 2.152695 -0.012386 0.004568 158308.000000 0 0 1
-20.610407 -16.778513 -16.325805 31.190372 0.683267 2.121661 -0.025450 0.005656 -704580.000000 0 0 1
-20.643607 -15.388713 -15.646205 30.129300 0.640581 2.116830 -0.012803 -0.000277 -456576.000000 0 0 1
-21.917807 -14.824213 -15.529105 30.680624 0.594680 2.101515 -0.016087 0.000920 -57476.700000 0 0 1
-21.895807 -13.472913 -15.264705 29.899113 0.551608 2.106609 -0.007140 -0.000024 -184673.000000 0 0 1
-23.268507 -12.873513 -14.895605 30.479990 0.505342 2.081397 0.010418 -0.006171 -187930.000000 0 0 1
-23.758207 -13.250913 -13.619705 30.422614 0.508767 2.034969 0.013586 -0.005180 446508.000000 0 0 1
-24.884407 -12.488513 -13.224705 30.823522 0.465135 2.014233 0.021257 -0.012824 -167817.000000 0 0 1
-25.525007 -13.080913 -11.951405 31.072051 0.473577 1.965609 0.017032 -0.011977 376664.000000 0 0 1
-26.560787 -12.219313 -11.414705 31.386024 0.431181 1.943020 0.027387 -0.023536 651002.000000 0 0 1
-27.165987 -12.751013 -10.290905 31.725099 0.438848 1.901150 0.018935 -0.020245 -32471.900000 0 0 1
-27.978137 -11.725113 -9.491905 31.786014 0.396847 1.874042 0.015735 -0.021438 126476.000000 0 0 1
-27.135947 -10.909013 -8.691405 30.510764 0.382241 1.859660 0.026720 -0.030249 535260.000000 0 0 1
-28.010167 -9.979513 -8.073505 30.811388 0.342260 1.835921 0.031705 -0.026757 595165.000000 0 0 1
-27.245187 -8.674913 -7.539705 29.570281 0.308252 1.828619 0.033344 -0.020371 288767.000000 0 0 1
-26.364767 -8.952013 -6.470905 28.585173 0.327330 1.799148 0.010205 -0.020984 101447.000000 0 0 1
-25.581657 -7.879013 -6.000505 27.431845 0.298775 1.791322 0.013173 -0.020773 -156749.000000 0 0 1
-26.357527 -6.649813 -5.432905 27.721034 0.247135 1.768058 0.023788 -0.021139 -73632.100000 0 0 1
-27.139717 -6.925113 -4.230605 28.327009 0.249834 1.720706 0.020232 -0.020432 559226.000000 0 0 1
-26.478037 -7.232113 -3.021605 27.613765 0.266633 1.680440 0.020545 -0.009824 -474244.000000 0 0 1
-25.836577 -6.025913 -2.299005 26.629416 0.229136 1.657237 0.024331 -0.009861 511681.000000 0 0 1
-26.802737 -5.095413 -1.732905 27.337756 0.187866 1.634228 0.024799 -0.008593 697303.000000 0 0 1
-26.228567 -3.985513 -1.099605 26.552423 0.150800 1.612221 0.005562 -0.007184 304692.000000 0 0 1
-27.391197 -3.145113 -0.402405 27.574107 0.114321 1.585390 0.015723 -0.010091 1012380.000000 0 0 1
-28.102887 -3.790613 0.629695 28.364371 0.134074 1.548594 0.011259 -0.000303 464618.000000 0 0 1
-27.371747 -3.779013 1.859995 27.693918 0.137195 1.503583 0.001102 0.006790 158567.000000 0 0 1
-28.354417 -4.081813 3.007495 28.804153 0.142975 1.466194 0.003361 0.010872 211438.000000 0 0 1
-28.691837 -5.483613 2.926295 29.357363 0.188844 1.470952 0.019587 0.011199 38049.500000 0 0 1
-29.724687 -5.766213 3.849295 30.522505 0.191608 1.444346 0.043185 0.005979 153267.000000 0 0 1
-30.391307 -7.186513 3.706795 31.448654 0.232201 1.452654 0.033217 0.006196 18146.600000 0 0 1
-29.512357 -8.250713 4.027595 30.907524 0.272608 1.440114 0.029491 0.010436 195546.000000 0 0 1
-30.010207 -9.526613 3.706295 31.703399 0.307384 1.453623 0.055055 0.005757 -100261.000000 0 0 1
-29.107557 -10.566413 4.385495 31.275095 0.348220 1.430109 0.049796 0.002643 -237722.000000 0 0 1
-29.264367 -10.593313 5.790595 31.656792 0.347313 1.386843 0.014839 0.012988 470100.000000 0 0 1
-28.457127 -11.585113 6.424495 31.389442 0.386619 1.364669 0.003610 0.016588 -187158.000000 0 0 1
-28.852867 -11.802813 7.891395 32.156935 0.388300 1.322861 0.013275 0.000698 -214900.000000 0 0 1
-28.698167 -10.635513 8.679895 31.812569 0.354907 1.294447 0.026461 -0.002242 488722.000000 0 0 1
-28.819417 -11.038913 10.061495 32.459977 0.365798 1.255639 0.035161 -0.004104 -227490.000000 0 0 1
-28.971927 -9.820713 10.957195 32.494293 0.326818 1.226851 0.031192 -0.003525 -2281.510000 0 0 1
-27.794267 -9.039313 11.046495 31.245088 0.314433 1.209440 0.036451 0.003367 312396.000000 0 0 1
-28.083377 -7.911613 11.805195 31.474312 0.274602 1.186320 0.040399 -0.006537 -107117.000000 0 0 1
-27.069627 -6.764613 11.718695 30.263055 0.244882 1.173173 0.043418 -0.005810 -296993.000000 0 0 1
-27.135037 -6.023213 10.586295 29.743217 0.218430 1.206895 0.038048 -0.009704 -151815.000000 0 0 1
-26.302797 -4.919913 10.567595 28.770067 0.184912 1.194679 0.035958 -0.009498 -631746.000000 0 0 1
-26.433137 -4.018413 9.304295 28.309509 0.150867 1.235908 0.039137 -0.009337 -306244.000000 0 0 1
-25.799637 -4.529013 8.161695 27.436226 0.173775 1.268746 0.009561 0.004812 235659.000000 0 0 1
-26.355427 -4.091513 6.901995 27.549711 0.154014 1.317570 0.005874 0.000646 -34347.600000 0 0 1
-25.463857 -4.401613 5.680195 26.458398 0.171166 1.354428 -0.009978 0.011357 -857904.000000 0 0 1
-24.221407 -3.806613 5.655995 25.162614 0.155884 1.344081 0.014003 -0.002966 -359422.000000 0 0 1
-23.383307 -4.310113 4.635095 24.224786 0.182278 1.378272 0.008355 0.002454 -253312.000000 0 1 0
-22.025307 -3.595013 4.627495 22.791489 0.161795 1.366339 0.011450 -0.001113 -396379.000000 0 1 0
-22.056007 -2.233513 4.354795 22.592483 0.100921 1.376828 0.001267 0.002803 148901.000000 0 1 0
-20.886107 -1.638113 4.868195 21.508422 0.078271 1.342479 0.011777 0.000357 -375895.000000 0 1 0
-20.893907 -0.126513 5.118795 21.512169 0.006055 1.330543 0.018751 0.000983 -468032.000000 0 1 0
-20.857507 0.608787 3.947695 21.236538 -0.029180 1.383817 0.020675 -0.001021 356513.000000 0 1 0
-22.021207 0.687287 3.174195 22.259413 -0.031200 1.427708 0.002189 0.005322 -697863.000000 0 1 0
-21.881307 1.836287 2.161095 22.064313 -0.083724 1.472694 0.018157 -0.000686 -335685.000000 0 1 0
-21.595107 3.095687 2.861495 22.002729 -0.142381 1.440375 0.019397 0.004530 371503.000000 0 1 0
-21.610907 4.126087 1.916695 22.084602 -0.188656 1.483898 0.030804 -0.003557 -197789.000000 0 1 0
-20.380507 4.314387 1.014395 20.856846 -0.208612 1.522141 0.019479 -0.000006 -1119500.000000 0 1 0
-20.513007 5.160187 -0.133105 21.152511 -0.246443 1.577089 0.022626 0.006141 318021.000000 0 1 0
-21.463407 4.647287 -1.055005 21.986090 -0.213230 1.618800 0.042320 -0.009770 -47418.700000 0 1 0
-21.063207 3.451887 -1.961105 21.434089 -0.162438 1.662419 0.043608 -0.007648 -410661.000000 0 1 0
-20.958707 2.202287 -1.290705 21.113583 -0.104693 1.631966 0.022110 -0.006964 385509.000000 0 1 0
-20.466107 1.129987 -2.021805 20.596750 -0.055157 1.669116 0.011899 -0.006079 -610404.000000 0 1 0
-19.614307 0.203987 -1.167105 19.650058 -0.010400 1.630226 0.007594 -0.002245 -574073.000000 0 1 0
-20.347107 -0.448813 -0.147305 20.352590 0.022054 1.578034 0.005252 -0.007307 633015.000000 0 1 0
-19.641607 -1.345613 0.739095 19.701514 0.068401 1.533273 0.002636 -0.004638 -676055.000000 0 1 0
-19.170107 -2.679613 0.288095 19.358624 0.138881 1.555914 0.013090 -0.000983 -527786.000000 0 1 0
-18.387107 -3.200013 1.325395 18.710491 0.172310 1.499900 0.010686 0.000942 630123.000000 0 1 0
-17.654607 -4.397713 0.978395 18.220381 0.244129 1.517073 0.003762 0.000292 186099.000000 0 1 0
-18.576607 -5.619613 0.743295 19.422226 0.293758 1.532517 -0.005060 0.004590 -430548.000000 0 1 0
-19.242407 -5.973813 1.876495 20.235561 0.301017 1.477930 0.020088 -0.000679 227258.000000 0 1 0
-20.246707 -6.951013 1.631595 21.468764 0.330708 1.494724 -0.010992 0.002291 -289098.000000 0 1 0
-20.908107 -7.402413 2.881895 22.366269 0.340274 1.441587 -0.008415 0.005899 -683010.000000 0 1 0
-20.098107 -8.161413 3.689095 22.003454 0.385736 1.402341 -0.006366 0.003159 47474.600000 0 1 0
-20.892307 -8.778313 4.664595 23.136675 0.397772 1.367794 0.006346 0.002978 717583.000000 0 1 0
-19.966307 -9.573413 5.692495 22.862812 0.447096 1.319164 -0.002677 0.009133 542456.000000 0 1 0
-19.363607 -10.734613 5.100395 22.719930 0.506193 1.344377 -0.008154 0.002420 155629.000000 0 1 0
-18.549507 -11.314613 6.087395 22.564598 0.547717 1.297636 0.005421 0.002032 -331616.000000 0 1 0
-17.972407 -12.638913 5.606495 22.675589 0.612897 1.320957 0.004920 0.001614 -94586.600000 0 1 0
-18.844607 -13.734313 5.684495 24.001335 0.629807 1.331683 0.013541 0.004625 213540.000000 0 1 0
-18.139107 -14.847813 5.104695 23.990471 0.685952 1.356377 0.006121 0.003074 130179.000000 0 1 0
-18.614407 -16.269113 5.539295 25.335035 0.718267 1.350374 0.010628 0.000832 -42449.600000 0 0 1
-17.739607 -17.341813 5.286895 25.365004 0.774059 1.360824 0.009042 -0.002499 -74457.100000 0 0 1
-18.414107 -18.526513 5.503995 26.694662 0.788441 1.363123 0.017612 -0.002246 266184.000000 0 0 1
-17.518607 -19.778513 5.144095 26.917520 0.845916 1.378508 0.021335 -0.006025 -260452.000000 0 0 1
-17.284507 -20.039113 3.791795 26.733835 0.859068 1.428481 0.021388 -0.009678 145730.000000 0 0 1
-16.519207 -21.230213 3.711495 27.154767 0.909553 1.433688 0.015994 -0.008023 799108.000000 0 0 1
-14.963907 -21.087713 3.881295 26.147172 0.953654 1.421805 0.015867 -0.005179 203490.000000 0 0 1
-14.424307 -22.389713 3.834695 26.908452 0.998482 1.427801 0.018488 -0.006930 920244.000000 0 0 1
-13.008107 -22.323813 4.154895 26.169192 1.043194 1.411351 0.016625 -0.004842 995985.000000 0 0 1
-12.449207 -23.728213 4.352195 27.146868 1.087617 1.409781 0.016341 -0.006812 -942326.000000 0 0 1
-12.353507 -24.519713 3.203695 27.642162 1.104098 1.454636 0.022758 -0.008828 -37945.800000 0 0 1
-12.063007 -25.783413 3.640795 28.697664 1.133190 1.443586 0.025524 -0.007840 -390262.000000 0 0 1
17.764493 19.313887 -24.810305 36.113082 0.827161 2.328172 0.013224 0.000237 -186249.000000 0 0 1
16.936093 19.728787 -25.853885 36.667147 0.861419 2.353356 0.004121 -0.001210 -253380.000000 0 0 1
17.508093 19.430987 -27.083725 37.651357 0.837407 2.373633 0.009078 -0.007821 269518.000000 0 0 1
16.494593 19.645187 -28.272075 38.174798 0.872356 2.404752 0.006762 -0.003070 523248.000000 0 0 1
16.311793 21.029287 -28.648455 39.102934 0.911068 2.392992 0.002667 0.011873 223337.000000 0 0 1
15.316893 21.115587 -29.649045 39.491025 0.943237 2.420037 0.006669 0.006831 -144209.000000 0 0 1
14.993193 22.584987 -29.915335 40.370840 0.984742 2.405375 0.009424 0.003458 -354559.000000 0 0 1
14.246493 23.281787 -28.913625 39.761814 1.021661 2.384988 0.008732 0.000538 420159.000000 0 0 1
14.091993 24.628787 -29.367495 40.836395 1.051087 2.373375 0.013193 0.003441 -53995.400000 0 0 1
13.449893 25.520887 -28.250185 40.376828 1.085771 2.345722 0.014135 0.003925 -449303.000000 0 0 1
12.143293 25.142987 -27.962265 39.516042 1.120866 2.356918 0.022302 -0.004969 -643731.000000 0 0 1
11.585593 25.959087 -26.927375 39.155889 1.151022 2.329108 0.030035 0.000104 1324210.000000 0 0 1
10.012793 25.808587 -26.676735 38.444601 1.200709 2.337688 0.038205 -0.000447 1643790.000000 0 0 1
9.494193 26.727987 -25.785625 38.333059 1.229483 2.308612 0.038153 -0.011151 -6581.260000 0 0 1
9.069793 27.954687 -26.474745 39.555503 1.257065 2.304071 0.056466 -0.015542 -398238.000000 0 0 1
8.599093 29.006187 -25.485965 39.558029 1.282593 2.270862 0.057694 -0.012636 30084.100000 0 0 1
9.631193 29.582387 -24.685305 39.714503 1.256047 2.241540 0.047641 -0.012859 504039.000000 0 0 1
9.027293 30.253587 -23.602705 39.419021 1.280820 2.212754 0.049360 -0.018782 382521.000000 0 0 1
10.093093 30.444587 -22.466505 39.159766 1.250676 2.181829 0.021079 -0.011617 647397.000000 0 0 1
11.102193 31.381787 -22.854405 40.378200 1.230760 2.172452 0.020865 -0.018275 108267.000000 0 0 1
11.838793 31.776187 -21.694905 40.256080 1.214159 2.139954 -0.010383 -0.000700 -732810.000000 0 0 1
13.120393 32.409387 -22.178305 41.405196 1.186130 2.136063 -0.015010 0.013764 -501598.000000 0 0 1
14.141693 31.511087 -22.577905 41.263760 1.148954 2.149765 -0.010384 0.003015 -532696.000000 0 0 1
15.257593 32.154587 -23.068605 42.413113 1.127750 2.145877 -0.016627 0.008567 -350639.000000 0 0 1
16.531193 31.364087 -23.410405 42.485684 1.085725 2.154381 -0.030846 0.012495 664473.000000 0 0 1
17.355093 31.000687 -22.269905 41.930782 1.060438 2.130708 -0.014038 0.011234 42574.300000 0 0 1
18.477493 30.312087 -22.744405 42.160981 1.023366 2.140599 -0.020037 0.017017 -173194.000000 0 0 1
19.431293 29.728587 -21.655505 41.597174 0.991878 2.118350 -0.002634 0.022568 -103355.000000 0 0 1
20.360693 30.646987 -21.127305 42.428276 0.984391 2.092034 0.004269 0.019530 569357.000000 0 0 1
21.148093 29.950087 -20.096605 41.810562 0.955981 2.072202 0.018657 0.000721 627009.000000 0 0 1
21.637193 30.938487 -18.991305 42.261422 0.960499 2.036864 0.026434 -0.004629 -62749.200000 0 0 1
22.666593 31.813687 -19.388305 43.609534 0.951744 2.031511 0.016560 -0.000362 -139696.000000 0 0 1
23.220793 32.523287 -18.355305 43.975978 0.950753 2.001372 0.029165 0.000422 9370.490000 0 0 1
24.427293 33.425787 -18.713705 45.433233 0.939702 1.995329 0.030147 -0.004765 478891.000000 0 0 1
25.566193 32.690787 -19.159005 45.709794 0.907090 2.003299 0.027652 -0.004440 -560824.000000 0 0 1
26.706693 33.433387 -18.839105 46.754151 0.896786 1.985523 0.025871 -0.008082 -36170.100000 0 0 1
28.005593 32.740687 -19.353605 47.231640 0.863190 1.992987 -0.004737 -0.000767 200492.000000 0 0 1
28.138793 31.467087 -18.777805 46.201463 0.841179 1.989343 0.005599 0.005085 11185.000000 0 0 1
29.422293 30.937187 -19.046405 46.749828 0.810491 1.990414 -0.006355 0.011153 68575.500000 0 0 1
29.642293 29.543887 -18.436105 45.731791 0.783736 1.985737 -0.021998 0.008988 -358208.000000 0 0 1
29.733093 29.570287 -17.033405 45.261414 0.782653 1.956632 -0.023632 0.016478 53187.200000 0 0 1
30.291093 28.339887 -16.535805 44.655709 0.752131 1.950123 -0.025238 0.008655 79662.300000 0 0 1
30.732993 28.412787 -15.042605 44.475648 0.746190 1.915822 -0.016240 0.014406 163981.000000 0 0 1
31.886693 29.195287 -14.738505 45.676575 0.741364 1.899346 -0.003762 0.013040 191736.000000 0 0 1
31.642793 30.602887 -14.670905 46.400846 0.768693 1.892494 -0.005695 0.010934 269055.000000 0 0 1
32.929293 31.481387 -14.810605 47.903758 0.762923 1.885121 0.002139 0.005313 511766.000000 0 0 1
33.747993 31.307587 -13.683405 48.024240 0.747903 1.859727 0.002228 -0.000052 278713.000000 0 0 1
35.092793 31.710087 -13.930505 49.306112 0.734804 1.857228 0.019340 -0.001763 444442.000000 0 0 1
-34.493051 32.056387 -12.767205 48.789179 -0.748800 1.835560 0.020789 -0.006444 -416369.000000 0 0 1
-34.998951 33.137187 -11.968805 49.661373 -0.758081 1.814201 0.014485 -0.007941 527543.000000 0 0 1
-34.012151 33.568787 -11.049905 49.048856 -0.778838 1.798030 0.030882 -0.008938 -187357.000000 0 0 1
-34.452151 -34.214677 -10.339205 49.643670 0.781940 1.780600 0.030491 -0.010161 -310798.000000 0 0 1
-33.633051 -33.523177 -9.434205 48.414768 0.783762 1.766913 0.037306 -0.015065 -347897.000000 0 0 1
-33.416251 -34.263177 -8.256105 48.567215 0.797911 1.741619 0.026580 -0.017687 -91101.200000 0 0 1
-33.012451 -33.390877 -7.086605 47.486762 0.791097 1.720589 0.019499 -0.004786 -97975.500000 0 0 1
-34.065351 -32.597777 -6.606005 47.609899 0.763387 1.709998 0.022517 -0.003692 -150434.000000 0 0 1
-33.620151 -31.592377 -5.685705 46.483546 0.754313 1.693420 0.036430 -0.002844 275805.000000 0 0 1
-34.832251 -30.736277 -5.212005 46.745796 0.723011 1.682525 0.031077 0.006853 -2315.100000 0 0 1
34.922493 -31.532577 -4.326905 47.250461 -0.734432 1.662499 0.022523 0.000760 344658.000000 0 0 1
33.542193 -31.158177 -4.272905 45.980087 -0.748568 1.663860 0.012447 0.004859 482575.000000 0 0 1
33.242493 -30.099077 -3.198705 44.958308 -0.735812 1.642005 0.020496 0.011579 -647487.000000 0 0 1
33.776593 -28.836077 -3.433105 44.543953 -0.706655 1.647945 0.041841 0.008701 -220391.000000 0 0 1
33.183093 -27.906177 -2.600105 43.435388 -0.699232 1.630694 0.033735 0.004119 -324368.000000 0 0 1
33.743093 -26.459777 -2.676905 42.963728 -0.665004 1.633143 0.043329 -0.005967 -168187.000000 0 0 1
33.354793 -25.868477 -3.909505 42.391090 -0.659657 1.663152 0.037511 -0.015858 299234.000000 0 0 1
33.446493 -24.458577 -3.850305 41.613876 -0.631409 1.663453 0.031413 -0.025458 19290.100000 0 0 1
32.928893 -23.907377 -5.230005 41.027157 -0.627983 1.698621 0.034726 -0.026015 -305844.000000 0 0 1
33.858793 -24.093777 -6.262505 42.025551 -0.618466 1.720370 0.044216 -0.018413 -289096.000000 0 0 1
33.454793 -23.490277 -7.473905 41.555692 -0.612167 1.751633 0.032306 -0.013782 -159686.000000 0 0 1
34.580193 -23.196677 -8.510305 42.500598 -0.590864 1.772399 0.032755 -0.011582 -18876.200000 0 0 1
35.043193 -24.442277 -9.010705 43.665124 -0.609039 1.778649 0.035700 0.000107 -378438.000000 0 0 1
-34.333751 -24.276677 -9.822605 43.181559 0.615461 1.800277 0.037661 0.004450 -159934.000000 0 0 1
-33.841651 -25.522077 -10.634405 43.700393 0.646159 1.816612 0.028527 0.002332 226539.000000 0 0 1
-33.090751 -26.476477 -9.858005 43.510710 0.674812 1.799346 0.029108 0.005723 553554.000000 0 0 1
-33.943951 -27.337077 -9.120905 44.527503 0.678000 1.777094 0.031476 -0.000358 404200.000000 0 0 1
-33.128451 -28.531377 -8.516605 44.542859 0.710980 1.763181 0.029317 -0.000238 274878.000000 0 0 1
-32.507251 -29.322177 -9.538605 44.805094 0.733930 1.785329 0.022530 -0.006458 49808.400000 0 0 1
-31.780051 -30.375777 -9.013505 44.876528 0.762809 1.773023 0.023562 -0.012853 -531132.000000 0 0 1
-31.293151 -31.404877 -10.031805 45.455084 0.787180 1.793325 0.023499 -0.009594 -237891.000000 0 0 1
-30.098951 -30.944277 -10.634005 44.458713 0.799245 1.812326 0.006820 0.009141 47461.200000 0 0 1
-29.826551 -31.717677 -11.722105 45.089266 0.816116 1.833793 -0.005703 0.009789 -286907.000000 0 0 1
-30.109051 -30.965277 -13.050705 45.119001 0.799417 1.864240 -0.019195 0.015844 -703288.000000 0 0 1
-29.299151 -29.869977 -13.338505 43.915504 0.795045 1.879403 -0.019257 0.023579 -233251.000000 0 0 1
-29.623151 -29.445477 -14.666005 44.268035 0.782390 1.908478 -0.030188 0.031720 71736.400000 0 0 1
-28.661751 -28.427177 -15.320305 43.177681 0.781289 1.933518 -0.023133 0.018912 312162.000000 0 0 1
-27.405751 -28.945777 -15.712505 42.846423 0.812720 1.946274 -0.011410 0.015105 -14511.100000 0 0 1
-26.544951 -27.940677 -16.208405 41.809428 0.811009 1.968903 -0.006398 0.025822 224323.000000 0 0 1
-25.193351 -28.454377 -16.761305 41.536705 0.846109 1.986168 0.014984 0.017022 -226791.000000 0 0 1
-25.167951 -29.329777 -17.948705 42.612411 0.861617 2.005574 0.015434 0.010143 -151561.000000 0 0 1
-25.401451 -28.693677 -19.207005 42.865719 0.846183 2.035406 0.005496 0.010627 255853.000000 0 0 1
-24.216051 -27.835177 -19.765905 41.855767 0.854817 2.062625 0.018481 0.008379 345682.000000 0 0 1
-23.866651 -26.774277 -18.912605 40.548311 0.842752 2.056037 0.011981 0.012941 -901449.000000 0 0 1
-22.535051 -26.441677 -19.116805 39.654042 0.864995 2.073835 0.019614 0.005147 -696641.000000 0 0 1
-22.062551 -25.287277 -18.229905 38.190731 0.853397 2.068420 0.011045 0.006203 -413701.000000 0 0 1
-21.938851 -25.585777 -16.863505 37.687172 0.861986 2.034720 0.013952 0.014339 162767.000000 0 0 1
-21.694351 -24.400177 -16.166205 36.432948 0.844033 2.030547 0.013056 0.012751 -71461.600000 0 0 1
-22.204051 -24.428077 -14.693405 36.133737 0.833055 1.989569 0.000855 0.022305 1578890.000000 0 0 1
-23.649651 -24.499677 -14.498005 37.009895 0.803050 1.973311 -0.023915 0.033197 1497250.000000 0 0 1
-23.962051 -24.294377 -13.133905 36.563590 0.792285 1.938215 -0.035581 0.036891 201741.000000 0 0 1
-25.448051 -24.390977 -12.725405 37.476112 0.764192 1.917246 -0.038586 0.041190 -431650.000000 0 0 1
-26.099151 -25.686377 -12.834805 38.803194 0.777428 1.907912 -0.025565 0.033816 1167450.000000 0 0 1
-27.456851 -25.882477 -12.403805 39.719462 0.755891 1.888394 -0.019862 0.028986 807210.000000 0 0 1
-28.530651 -24.941977 -13.000005 40.063704 0.718386 1.901262 -0.018700 0.022219 -1162460.000000 0 0 1
-28.566251 -23.610077 -12.508605 39.114340 0.690693 1.896310 -0.018633 0.020855 21046.100000 0 0 1
-29.035451 -23.368577 -11.192005 38.915405 0.677679 1.862515 0.002517 0.009006 885986.000000 0 0 1
-30.597451 -23.499877 -10.947805 40.103649 0.654943 1.847294 -0.005608 0.010396 1653860.000000 0 0 1
-31.597951 -22.612977 -11.496605 40.520972 0.621150 1.858468 0.015779 -0.002524 830907.000000 0 0 1
-31.634651 -22.523277 -12.917205 40.925583 0.618722 1.891913 0.018885 0.003199 -632837.000000 0 0 1
-33.065351 -22.273377 -13.438005 42.071377 0.592799 1.895903 0.012249 -0.005790 238289.000000 0 0 1
-33.913851 -23.399577 -13.254305 43.282399 0.603963 1.882025 0.018187 0.000580 726727.000000 0 0 1
-35.243051 -23.165777 -13.738705 44.356261 0.581500 1.885711 0.037495 -0.009590 1072680.000000 0 0 1
34.255693 -24.355777 -13.409805 44.118921 -0.618070 1.879629 0.032856 0.005764 250847.000000 0 0 1
34.517893 -25.630577 -13.969305 45.205673 -0.638703 1.884955 0.021957 0.012194 -57898.700000 0 0 1
33.624493 -26.624577 -13.510605 44.966777 -0.669734 1.875969 0.014444 0.007280 150809.000000 0 0 1
33.464093 -27.817877 -14.562305 45.888348 -0.693523 1.893722 0.005128 0.004550 292406.000000 0 0 1
32.671893 -27.489077 -15.691205 45.489733 -0.699461 1.922971 0.013620 -0.010732 -72816.400000 0 0 1
32.593393 -28.603577 -16.595705 46.431792 -0.720294 1.936302 -0.001848 -0.002098 58391.600000 0 0 1
31.604393 -28.459177 -17.785905 46.098816 -0.733081 1.966894 -0.004237 -0.006904 -485701.000000 0 0 1
30.244793 -28.461577 -17.506805 45.069913 -0.755032 1.969731 0.026944 -0.009837 -726638.000000 0 0 1
29.512693 -28.226577 -18.678305 44.906767 -0.763127 1.999767 0.021750 -0.008791 59584.400000 0 0 1
27.977893 -28.207877 -18.543805 43.844264 -0.789491 2.007492 0.033863 -0.011035 18169.800000 0 0 1
27.398193 -27.424577 -17.567705 42.560459 -0.785879 1.996290 0.028911 -0.013085 -286203.000000 0 0 1
25.986093 -27.481577 -17.618905 41.724572 -0.813361 2.006741 0.037091 -0.012988 240056.000000 0 0 1
25.347493 -26.762277 -16.410605 40.348765 -0.812542 1.989656 0.036632 -0.020624 -76709.800000 0 0 1
25.565493 -25.403777 -16.532005 39.651652 -0.782225 2.000863 0.029246 -0.021509 -13598.400000 0 0 1
25.200093 -24.729377 -15.335605 38.493734 -0.775971 1.980560 0.023368 -0.014906 -46136.800000 0 0 1
25.262993 -23.207777 -15.442605 37.620390 -0.743022 1.993782 0.022236 -0.015156 -606391.000000 0 0 1
24.113293 -22.619077 -15.941105 36.704119 -0.753435 2.020073 0.031806 -0.009091 -603451.000000 0 0 1
24.184593 -21.219477 -16.069505 35.963728 -0.720186 2.034010 0.020894 -0.009881 85481.100000 0 0 1
22.750993 -20.662177 -16.261405 34.770196 -0.737320 2.057463 0.031315 -0.002654 117361.000000 0 0 1
21.891893 -20.813877 -15.170205 33.802479 -0.760161 2.036207 0.030612 -0.008742 957996.000000 0 0 1
20.631293 -20.111877 -15.366305 32.653655 -0.772650 2.060749 0.023655 -0.012523 1144040.000000 0 0 1
20.392693 -18.945277 -14.414105 31.345683 -0.748620 2.048615 0.015207 -0.002330 -257973.000000 0 0 1
19.977793 -19.336477 -13.139405 30.751512 -0.769087 2.012275 0.006966 -0.012329 184207.000000 0 0 1
19.605193 -18.222477 -12.328305 29.468786 -0.748861 2.002426 -0.003168 -0.018604 60118.300000 0 0 1
18.665993 -18.606877 -11.112905 28.603004 -0.783812 1.969824 -0.010656 -0.000173 -4163.230000 0 0 1
19.311293 -19.164777 -10.048405 29.003192 -0.781590 1.924590 -0.004323 -0.021021 -348149.000000 0 0 1
18.396093 -19.290777 -8.999205 28.134250 -0.809134 1.896385 -0.007314 -0.019519 -120749.000000 0 0 1
19.049393 -19.803677 -7.676305 28.530521 -0.804809 1.843209 -0.002761 -0.017537 -81091.100000 0 0 1
19.883393 -18.843277 -7.049505 28.286285 -0.758547 1.822671 -0.008582 -0.015089 197447.000000 0 0 1
20.657893 -19.388177 -5.968905 28.953027 -0.753702 1.778444 0.002836 -0.008812 -337562.000000 0 0 1
21.892993 -18.526077 -5.749005 29.250123 -0.702290 1.768631 0.000912 -0.010628 -677133.000000 0 0 1
22.780993 -18.636977 -6.864405 30.223014 -0.685676 1.799921 -0.003331 -0.024843 756362.000000 0 0 1
23.691093 -17.536077 -6.905905 30.273312 -0.637198 1.800941 0.019613 -0.020101 276040.000000 0 0 1
24.838793 -17.429477 -7.953805 31.369018 -0.611869 1.827151 0.039351 -0.032933 682275.000000 0 0 1
25.913493 -18.362377 -7.922205 32.732970 -0.616476 1.815249 0.052340 -0.041027 571244.000000 0 0 1
25.526193 -19.598077 -8.535905 33.294636 -0.654773 1.830066 0.049537 -0.044170 -434956.000000 0 0 1
26.304093 -20.815077 -8.023405 34.489821 -0.669429 1.805578 0.062020 -0.049981 -313250.000000 0 0 1
27.607993 -20.825677 -8.544105 35.621789 -0.646270 1.813014 0.064406 -0.040075 -479048.000000 0 0 1
28.157893 -22.026777 -8.096905 36.655227 -0.663830 1.793527 0.059499 -0.035489 -167851.000000 0 0 1
-28.892857 30.405387 4.014495 42.135507 -0.810900 1.475376 -0.013532 0.006401 148403.000000 0 0 1
-28.238617 31.426387 3.300295 42.378406 -0.838775 1.492841 -0.025816 0.017689 -881151.000000 0 0 1
-27.252807 31.961087 4.083295 42.200710 -0.864744 1.473886 -0.010703 0.009455 -747114.000000 0 0 1
-26.652007 33.188587 3.316395 42.694382 -0.894200 1.493040 -0.008521 0.001489 -326184.000000 0 0 1
-25.893167 32.806487 2.169395 41.850065 -0.902633 1.518936 -0.012397 0.009291 81840.600000 0 0 1
-25.413747 33.887787 1.434795 42.382771 -0.927335 1.536937 -0.006953 -0.004052 386833.000000 0 0 1
-24.151207 -34.425277 1.994695 42.099398 0.959028 1.523398 -0.003619 -0.007696 833868.000000 0 0 1
-22.986307 33.935587 1.616795 41.019610 -0.975433 1.531371 -0.006890 -0.013854 -82850.000000 0 0 1
-21.818907 34.218887 2.361795 40.651876 -1.003168 1.512666 0.001775 -0.016097 791640.000000 0 0 1
-20.516907 33.830187 1.590895 39.597424 -1.025635 1.530609 0.005105 -0.012990 315007.000000 0 0 1
-20.129507 -34.381877 0.592195 39.845467 1.041130 1.555933 0.001359 -0.022072 16107.700000 0 0 1
-18.807307 34.361587 0.207795 39.172396 -1.070001 1.565492 0.005865 -0.018437 53284.800000 0 0 1
-18.186207 -33.903777 -0.959505 38.485385 1.078449 1.595731 0.010350 -0.014689 14207.100000 0 0 1
-18.113007 -32.452877 -0.795905 37.173966 1.061731 1.592208 0.009914 -0.019776 134943.000000 0 0 1
-17.165507 -32.112477 0.191295 36.412943 1.079898 1.565543 0.011500 -0.017976 -377352.000000 0 0 1
-16.967907 -30.575377 0.393995 34.970256 1.064158 1.559530 0.014880 -0.012810 -315136.000000 0 0 1
-16.443907 -29.983477 -0.776605 34.205469 1.069158 1.593502 0.020637 -0.012043 -109700.000000 0 0 1
-16.339007 -28.580277 -0.708405 32.928669 1.051455 1.592311 0.011258 -0.007968 88124.800000 0 0 1
-15.258907 -28.011677 -1.659405 31.941226 1.072005 1.622772 0.006209 0.002440 -156667.000000 0 0 1
-15.656907 -28.215577 -2.962105 32.404191 1.064197 1.662335 0.014087 0.004648 640168.000000 0 0 1
-14.694007 -27.644377 -3.878805 31.546324 1.082239 1.694064 0.013728 0.013607 788510.000000 0 0 1
-15.367507 -27.614077 -5.302805 32.043990 1.062969 1.737046 0.023652 0.002679 88529.600000 0 0 1
-16.415507 -26.679477 -5.373905 31.782735 1.019213 1.740695 0.029836 0.002202 -355221.000000 0 0 1
-16.914307 -26.608377 -6.708105 32.235046 1.004557 1.780428 0.036662 -0.003915 662976.000000 0 0 1
-17.788007 -25.335977 -7.028405 31.744660 0.958672 1.794051 0.027859 0.000325 666435.000000 0 0 1
-16.971307 -24.168077 -7.081705 30.368928 0.958582 1.806152 0.016725 0.015426 220503.000000 0 0 1
-17.662407 -23.029677 -7.483705 29.972195 0.916541 1.823155 -0.003083 0.014547 -220315.000000 0 0 1
-16.712207 -21.843477 -7.273305 28.448837 0.917708 1.829329 0.001066 0.016113 526650.000000 0 0 1
-15.612207 -21.928677 -8.181105 28.134292 0.952093 1.865846 0.023357 0.001755 195856.000000 0 0 1
-14.476707 -21.235677 -7.640405 26.812401 0.972447 1.859759 0.033433 -0.011177 436123.000000 0 0 1
-13.410007 -21.031977 -8.695305 26.415539 1.003187 1.906225 0.034594 -0.005700 -32163.900000 0 0 1
-13.972307 -20.201577 -9.737205 26.422382 0.965700 1.948214 0.049052 -0.009072 280018.000000 0 0 1
-12.987707 -20.081377 -10.749505 26.220109 0.996707 1.993219 0.045848 -0.007862 301953.000000 0 0 1
-13.460007 -19.372977 -12.045405 26.487277 0.963581 2.042901 0.055581 -0.007419 -475870.000000 0 0 1
-14.592607 -19.894877 -12.690605 27.745302 0.937948 2.045862 0.042568 0.003997 -298060.000000 0 0 1
-14.877907 -19.169277 -13.909705 27.969505 0.910779 2.091300 0.039582 -0.005805 -348167.000000 0 0 1
-16.095907 -19.754477 -14.592705 29.364343 0.887097 2.090881 0.048060 -0.006135 382028.000000 0 0 1
-17.373507 -19.549477 -13.928505 29.631471 0.844263 2.060153 0.041680 -0.004785 108154.000000 0 0 1
-18.282907 -20.147077 -14.760505 30.952252 0.833868 2.067898 0.021398 -0.002049 -290985.000000 0 0 1
-19.749807 -19.715777 -14.409505 31.407015 0.784536 2.047439 -0.001854 0.013937 850050.000000 0 0 1
-20.707107 -20.207177 -15.349005 32.752195 0.773180 2.058548 -0.008089 0.010857 -346671.000000 0 0 1
-22.014707 -19.924777 -14.933005 33.236106 0.735607 2.036779 -0.035741 0.018603 -814361.000000 0 0 1
-22.994607 -20.551077 -15.904305 34.699361 0.729343 2.046929 -0.032416 0.017487 -684632.000000 0 0 1
-23.057107 -19.868677 -17.119505 34.920939 0.711257 2.083157 -0.025007 -0.004312 141558.000000 0 0 1
-23.700607 -20.709477 -18.069605 36.292036 0.718147 2.091966 -0.020084 -0.004719 -83155.300000 0 0 1
-23.938407 -20.143877 -19.485705 36.858050 0.699531 2.127828 -0.014451 -0.010488 -157401.000000 0 0 1
-22.768807 -19.779877 -20.193705 36.296664 0.715266 2.160785 -0.006549 -0.014568 10145.000000 0 0 1
-22.985307 -19.429977 -21.558705 37.021968 0.701772 2.192378 -0.005698 -0.018061 324632.000000 0 0 1
-21.731407 -18.772077 -22.264705 36.336786 0.712464 2.230309 -0.012599 0.000022 1224160.000000 0 0 1
-20.759807 -19.766777 -22.642405 36.529078 0.760900 2.239343 -0.011277 -0.007861 -7263.970000 0 0 1
-19.593807 -19.155177 -23.146705 35.869319 0.774079 2.272221 -0.013129 -0.014645 358013.000000 0 0 1
-18.346407 -20.097777 -23.047805 35.661080 0.830923 2.273524 0.006746 -0.012067 141569.000000 0 0 1
-18.439007 -21.245077 -23.868505 36.892490 0.855991 2.274406 0.003286 -0.012698 104677.000000 0 0 1
-17.199707 -21.938277 -23.843305 36.682709 0.905885 2.278364 0.005666 -0.005083 200616.000000 0 0 1
-17.284407 -23.295277 -24.539705 37.994971 0.932454 2.272955 0.016715 -0.007997 -123373.000000 0 0 1
-17.360207 -23.153677 -25.965725 38.880438 0.927435 2.302093 0.019538 -0.013211 11510.300000 0 0 1
-17.284607 -24.349477 -26.617585 40.001881 0.953487 2.298837 0.019705 -0.014362 -139208.000000 0 0 1
-17.139407 -24.122877 -28.110575 40.815155 0.953055 2.330531 0.028211 -0.009794 -443294.000000 0 0 1
-15.820307 -23.940577 -28.513925 40.453396 0.986855 2.353020 0.013666 -0.007680 -584433.000000 0 0 1
-15.770007 -23.690577 -29.917995 41.291924 0.983487 2.381175 0.038032 -0.015251 -456632.000000 0 0 1
-14.323907 -23.704677 -30.428325 41.145704 1.027247 2.403162 0.004680 -0.016891 -195245.000000 0 0 1
-13.740007 -24.993977 -30.260685 41.583599 1.068158 2.385770 0.018737 -0.012205 -133083.000000 0 0 1
-12.369207 -24.875077 -30.563385 41.302388 1.109349 2.403853 0.043281 -0.017218 -253311.000000 0 0 1
-11.525907 -26.052677 -30.091125 41.437475 1.154274 2.383548 0.028907 -0.010920 -1199760.000000 0 0 1
-11.670307 -27.118777 -30.956245 42.777485 1.164411 2.379883 0.024014 0.001451 -276228.000000 0 0 1
-10.836307 -28.192277 -30.690325 43.059564 1.203835 2.364195 0.018731 0.003539 -380787.000000 0 0 1
-9.490107 -27.974377 -31.416145 43.123104 1.243737 2.386959 0.030773 0.000703 -883884.000000 0 0 1
-8.708907 -26.954377 -30.832005 41.868796 1.258286 2.398524 0.032308 -0.010133 -29358.000000 0 0 1
-7.807807 -26.612677 -31.942875 42.302999 1.285418 2.426599 0.030165 -0.007079 -48426.900000 0 0 1
-6.996607 -25.374277 -31.539765 41.079961 1.301746 2.446142 0.036428 -0.008872 -220220.000000 0 0 1
-7.602207 -24.027877 -31.492595 40.335046 1.264370 2.466702 0.045340 -0.013455 140158.000000 0 0 1
-8.484307 -23.771377 -30.423985 39.530756 1.227976 2.449055 0.034508 -0.017082 -118337.000000 0 0 1
-8.851707 -22.280577 -30.324735 38.657035 1.192634 2.472614 0.042036 -0.025199 -115111.000000 0 0 1
-9.714107 -21.803777 -31.329425 39.386564 1.151671 2.490520 0.044432 -0.026712 33807.300000 0 0 1
-9.907707 -20.360677 -31.249715 38.590990 1.117918 2.514551 0.049573 -0.022400 552687.000000 0 0 1
-10.775307 -19.850877 -32.487545 39.567729 1.073488 2.534065 0.035350 -0.021445 223955.000000 0 0 1
-11.377807 -18.648377 -32.283495 38.980001 1.022967 2.546696 0.031020 -0.022719 -185890.000000 0 0 1
-12.104207 -18.265077 -33.419365 39.962217 0.985547 2.561249 0.033102 -0.019662 -429523.000000 0 0 1
-13.061507 -17.078477 -33.259875 39.604250 0.917894 2.567722 0.046649 -0.019364 -444275.000000 0 0 1
-12.518907 -15.763077 -33.445045 39.035480 0.899607 2.599800 0.045636 -0.019266 210382.000000 0 0 1
-11.591007 -15.372277 -32.422065 37.707408 0.924727 2.605738 0.039933 -0.012566 406861.000000 0 0 1
-11.101807 -13.911977 -32.583075 37.127483 0.897274 2.641629 0.031829 -0.020555 -17794.800000 0 0 1
-10.203007 -13.636377 -33.675785 37.737390 0.928436 2.673370 0.026667 -0.019603 19125.400000 0 0 1
-10.695907 -13.583277 34.021770 38.162661 0.903766 0.470165 0.027159 -0.015402 -165365.000000 0 0 1
-11.448307 -12.301877 33.554929 37.527765 0.821322 0.464298 0.020211 -0.016322 -849312.000000 0 0 1
-12.694407 -12.086577 34.068946 38.313528 0.760875 0.475171 0.013658 -0.007319 -1776100.000000 0 0 1
-13.295807 -11.085777 33.320179 37.548732 0.695002 0.479155 0.003943 -0.016418 -707479.000000 0 0 1
-14.415407 -10.488077 34.094782 38.474120 0.628984 0.481774 0.024570 -0.016720 -859275.000000 0 0 1
-13.960407 -9.707777 -33.842945 37.874514 0.607618 2.675998 0.020248 -0.014998 85748.300000 0 0 1
-14.991007 -9.255777 -32.989715 37.399479 0.553131 2.651077 0.024705 -0.021951 182224.000000 0 0 1
-14.326407 -8.473077 -31.839315 35.927440 0.534095 2.659899 0.023551 -0.027894 -276089.000000 0 0 1
-13.819207 -7.197577 -32.154465 35.730732 0.480179 2.690361 0.013028 -0.022079 86719.600000 0 0 1
-14.781907 -6.165977 -32.260265 36.017340 0.395186 2.680770 0.010516 -0.017928 -448908.000000 0 0 1
-15.061707 -5.398577 -30.929545 34.822929 0.344166 2.664198 0.022670 -0.024759 -228766.000000 0 0 1
-15.733707 -6.205377 -29.980475 34.422160 0.375670 2.627958 0.025255 -0.030055 16970.800000 0 0 1
-16.031607 -5.639577 -28.690765 33.346323 0.338258 2.606826 0.038817 -0.032544 167590.000000 0 0 1
-14.831207 -4.998977 -27.950055 32.033733 0.325099 2.631132 0.026307 -0.033495 198901.000000 0 0 1
-14.432307 -3.780277 -28.531865 32.197039 0.256176 2.659797 0.027669 -0.025809 143862.000000 0 0 1
-13.182607 -3.266277 -28.091235 31.202038 0.242880 2.691258 0.021560 -0.017734 300795.000000 0 0 1
-12.939607 -1.906277 -28.817015 31.646290 0.146269 2.715522 -0.006159 0.005250 -36962.700000 0 0 1
-12.805307 -2.006277 -30.225515 32.887426 0.155412 2.736485 -0.003925 0.000240 196945.000000 0 0 1
-12.731007 -0.709277 -30.757405 33.295639 0.055655 2.748599 -0.010238 0.001540 -19955.700000 0 0 1
-12.805207 -0.714277 -32.328735 34.779744 0.055722 2.763926 -0.017677 0.001421 -128209.000000 0 0 1
-14.000707 -1.268277 -32.845325 35.727352 0.090340 2.737178 -0.008633 -0.001970 277168.000000 0 0 1
-13.941707 -1.352277 -34.280909 37.032156 0.096693 2.753696 -0.024870 0.004724 238926.000000 0 0 1
-15.324707 -1.765277 34.179892 37.499705 0.114686 0.423951 -0.010735 0.001674 196018.000000 0 0 1
-15.318607 -1.842277 32.776528 36.226434 0.119689 0.439961 -0.008726 -0.003513 1099110.000000 0 0 1
-16.649307 -1.906277 32.211888 36.310316 0.113999 0.479712 -0.003971 -0.000402 932872.000000 0 0 1
-16.575607 -2.011277 30.704528 34.950880 0.120749 0.498072 -0.000987 -0.001366 -208566.000000 0 0 1
-16.207007 -0.803277 30.100078 34.195424 0.049523 0.494435 0.001196 0.011044 -91789.900000 0 0 1
-16.348807 -0.829277 28.725958 33.062847 0.050681 0.517964 0.001420 0.000043 -243976.000000 0 0 1
-15.694307 0.345723 27.998768 32.099249 -0.022025 0.510999 -0.007711 -0.000057 -11590.500000 0 0 1
-16.136307 1.679723 28.394558 32.702489 -0.103722 0.519094 -0.012678 0.002107 1375960.000000 0 0 1
-17.506907 2.114723 28.135288 33.204793 -0.120211 0.559866 -0.009822 0.001728 1484440.000000 0 0 1
-17.763507 2.764723 26.741498 32.222563 -0.154402 0.591868 0.000911 -0.003103 -417523.000000 0 0 1
-17.290507 4.102723 26.686448 32.061823 -0.232973 0.587474 -0.010748 0.003014 306242.000000 0 0 1
-17.895807 4.728723 25.550458 31.550699 -0.258332 0.626947 -0.004766 0.007568 -543781.000000 0 0 1
-17.949507 6.261723 25.515848 31.819058 -0.335652 0.640320 -0.010371 0.010739 267257.000000 0 0 1
-16.729407 6.996723 25.485798 31.278636 -0.396122 0.618414 -0.026250 0.009955 166375.000000 0 0 1
-16.043207 6.845723 24.266938 29.885326 -0.403314 0.623223 -0.016079 0.008425 -256901.000000 0 0 1
-14.830607 7.755723 24.003058 29.261663 -0.481842 0.608878 -0.012577 0.006255 372905.000000 0 0 1
-13.588107 7.393723 24.606948 29.065541 -0.498327 0.561228 -0.015684 0.004102 115605.000000 0 0 1
-12.639207 8.282723 24.064768 28.415948 -0.580106 0.560714 0.005094 0.000710 385584.000000 0 0 1
-11.181107 8.127723 24.624748 28.239250 -0.628563 0.511514 0.012132 0.005715 391257.000000 0 0 1
-10.266107 8.925723 23.903058 27.503048 -0.715670 0.517405 0.012707 0.000218 344773.000000 0 0 1
-9.102807 9.183723 24.685458 27.867072 -0.789823 0.482519 0.009611 -0.000526 -9714.860000 0 0 1
-9.161507 10.536723 25.447968 29.026795 -0.855099 0.501825 0.000095 -0.009767 -561467.000000 0 0 1
-10.185207 10.564723 26.447648 30.246155 -0.803686 0.506571 -0.018771 -0.004644 509086.000000 0 0 1
-10.224407 11.804723 27.114738 31.290558 -0.857013 0.522555 -0.013350 -0.003278 -639245.000000 0 0 1
-10.845607 12.968723 26.274028 31.243231 -0.874316 0.571758 -0.023922 -0.007340 -262687.000000 0 0 1
-12.224707 12.899723 25.993178 31.487960 -0.812259 0.599716 -0.021795 -0.007549 41073.700000 0 0 1
-12.571707 11.916723 24.995808 30.411289 -0.758658 0.606013 -0.014204 -0.002835 -450313.000000 0 0 1
-14.094307 11.906723 24.710948 30.839107 -0.701461 0.641355 -0.034694 -0.001961 164261.000000 0 0 1
-14.590307 13.118723 24.106728 31.082347 -0.732340 0.683169 -0.009625 -0.008790 128238.000000 0 0 1
-15.895307 13.059723 23.560958 31.278361 -0.687779 0.717781 0.004964 -0.009547 248860.000000 0 0 1
-16.077507 12.263723 22.211958 30.037580 -0.651635 0.738510 0.005867 -0.002489 -356004.000000 0 0 1
-15.950107 10.841723 22.295458 29.479422 -0.596990 0.713149 -0.003497 0.007521 97216.500000 0 0 1
-15.929507 10.257723 21.014058 28.294182 -0.572107 0.733704 -0.008438 0.002739 -138517.000000 0 0 1
-16.238407 8.749723 20.795358 27.797310 -0.494226 0.725592 -0.003354 -0.001868 1167840.000000 0 0 1
-17.651307 8.466723 20.710258 28.498576 -0.447248 0.757273 -0.003314 0.006814 837250.000000 0 0 1
-18.048907 7.117723 20.872958 28.497463 -0.375633 0.748883 -0.011964 0.015227 -315993.000000 0 0 1
-19.520607 7.034723 21.265358 29.711225 -0.345887 0.773121 -0.016375 0.017758 -585471.000000 0 0 1
-19.767807 7.523723 22.556258 30.921795 -0.363675 0.753262 -0.011479 0.016122 62572.000000 0 0 1
-21.147807 7.760723 22.749058 32.015281 -0.351717 0.780490 -0.009526 0.016561 -186337.000000 0 0 1
-21.427907 8.823723 23.878258 33.274382 -0.390626 0.770422 -0.000932 0.004793 -897297.000000 0 0 1
-20.915607 10.181723 23.749058 33.243764 -0.453032 0.775042 0.003078 0.008585 772875.000000 0 0 1
-19.496207 10.330723 23.691858 32.374837 -0.487268 0.749839 -0.001404 0.002576 608354.000000 0 0 1
-18.720907 9.775723 24.927178 32.671108 -0.481235 0.702896 -0.008280 -0.001259 -1132240.000000 0 0 1
-18.943507 10.531723 26.093128 33.920863 -0.507403 0.693153 -0.001557 0.006869 389860.000000 0 0 1
-18.416407 9.811723 27.203308 34.284893 -0.489519 0.654342 -0.008078 0.008977 -34767.900000 0 0 1
-30.042987 -14.030413 21.024758 39.261610 0.436910 1.005692 0.020725 0.003200 -30227.600000 0 0 1
-29.903237 -15.319613 21.515658 39.897590 0.473444 1.001224 0.024227 0.000465 92925.300000 0 0 1
-30.381907 -16.425113 20.729658 40.281054 0.495614 1.030226 0.013768 0.006588 19757.500000 0 0 1
-29.844657 -16.551713 19.262458 39.188073 0.506365 1.056940 -0.000805 0.003657 -294790.000000 0 0 1
-30.246737 -15.576613 18.381558 38.670113 0.475564 1.075443 0.006188 -0.004110 -312740.000000 0 0 1
-29.644967 -15.675213 17.133758 37.657696 0.486394 1.098439 0.012201 -0.005144 -1086290.000000 0 0 1
-30.051527 -14.490213 16.242158 37.106175 0.449289 1.117734 0.006319 -0.003986 1495420.000000 0 0 1
-31.395117 -14.641613 15.668858 38.020302 0.436380 1.146019 0.019650 -0.002811 1647840.000000 0 0 1
-32.561887 -14.464113 16.428758 39.235076 0.418023 1.138754 0.013823 0.002760 -379925.000000 0 0 1
-32.846237 -13.099013 17.070858 39.266699 0.379470 1.121045 0.009252 0.004359 111358.000000 0 0 1
-34.044467 -13.025913 17.871658 40.596753 0.365430 1.114948 -0.004479 0.009260 704124.000000 0 0 1
-34.389646 -11.653713 18.181758 40.608289 0.326728 1.106566 0.001278 0.013303 231629.000000 0 0 1
34.949093 -11.525113 19.174458 41.496110 -0.318539 1.090459 -0.005701 0.024754 144556.000000 0 0 1
-35.098638 -12.153913 20.356858 42.356034 0.333356 1.069443 -0.015299 0.026156 163866.000000 0 0 1
34.534910 -11.825213 21.430858 42.329391 -0.329900 1.039922 -0.020290 0.021494 -896992.000000 0 0 1
34.969391 -12.411213 22.824158 43.564191 -0.341048 1.019349 -0.014604 0.018884 758945.000000 0 0 1
-34.325604 -11.810013 23.354858 43.164487 0.331372 0.999092 -0.008417 0.014707 529228.000000 0 0 1
-33.198447 -12.419813 22.745558 42.115900 0.357989 1.000275 0.001529 0.008409 -861991.000000 0 0 1
-31.968267 -11.496013 22.919458 40.980849 0.345208 0.977288 0.014277 0.003701 -95418.900000 0 0 1
-32.084277 -10.337713 22.107258 40.311289 0.311702 0.990330 0.015548 0.004092 -99951.200000 0 0 1
-31.000197 -9.509313 22.429758 39.427570 0.297638 0.965647 0.023322 0.001477 -212776.000000 0 0 1
-31.016407 -8.134013 21.671658 38.701944 0.256473 0.976455 0.014899 -0.003023 -42472.600000 0 0 1
-31.042457 -8.204413 20.240158 37.955376 0.258388 1.008344 0.017747 0.003530 139958.000000 0 0 1
-32.294947 -8.456813 19.631758 38.728377 0.256111 1.039201 0.011585 0.003301 -252520.000000 0 0 1
-32.368717 -8.257913 18.099558 37.993697 0.249792 1.074260 0.016816 -0.002726 767045.000000 0 0 1
-33.706637 -8.467413 17.590158 38.951869 0.246116 1.102253 0.004465 0.003472 1000860.000000 0 0 1
-33.801617 -8.359513 16.226558 38.415257 0.242446 1.134706 0.015609 -0.003416 -54670.000000 0 0 1
35.240882 -8.155613 15.766758 39.459149 -0.227421 1.159747 0.003090 -0.000183 -73732.000000 0 0 1
34.517660 -9.343413 15.918458 39.142886 -0.264350 1.151984 -0.004746 0.025797 -225877.000000 0 0 1
33.134496 -9.104213 15.690158 37.775158 -0.268148 1.142462 -0.009670 0.019165 217527.000000 0 0 1
32.292376 -10.411713 15.876458 37.460155 -0.311897 1.133135 -0.015300 0.016511 -180821.000000 0 0 1
32.139926 -10.833913 17.153058 38.007577 -0.325124 1.102568 -0.018025 0.011783 7063.120000 0 0 1
31.053316 -11.727313 17.156558 37.365570 -0.361093 1.093753 -0.018093 0.002387 -91728.200000 0 0 1
30.829636 -12.339213 18.564058 38.044013 -0.380712 1.061042 -0.014796 -0.001584 268099.000000 0 0 1
31.712186 -13.386213 19.014458 39.324332 -0.399425 1.066114 -0.019447 0.011880 192520.000000 0 0 1
31.493756 -13.659913 20.356858 39.910545 -0.409245 1.035539 -0.022919 0.014630 -289168.000000 0 0 1
31.879306 -15.032213 20.880658 40.966565 -0.440618 1.035960 -0.032109 0.030980 -119544.000000 0 0 1
31.698326 -15.111113 22.279158 41.587143 -0.444848 1.005433 -0.026936 0.028745 -107361.000000 0 0 1
32.342536 -16.273813 22.787258 42.780086 -0.466181 1.009055 -0.031284 0.039608 129169.000000 0 0 1
32.532086 -16.288813 24.301388 43.751794 -0.464207 0.981907 -0.027893 0.023310 -204928.000000 0 0 1
33.577826 -15.465513 24.699968 44.460555 -0.431623 0.981775 -0.016955 0.020480 -369916.000000 0 0 1
33.962416 -15.549713 26.087738 45.561051 -0.429363 0.961137 -0.012950 0.019709 589823.000000 0 0 1
35.133230 -14.563013 26.469188 46.336197 -0.392951 0.962778 0.001352 0.010197 1246040.000000 0 0 1
-34.071103 -14.969913 25.985928 45.389501 0.413981 0.961233 0.005716 0.008917 420548.000000 0 0 1
-33.106837 -14.044013 26.376378 44.598322 0.401195 0.937977 0.005387 -0.001599 -487954.000000 0 0 1
-31.667197 -14.534213 26.210018 43.600685 0.430286 0.925872 0.025473 -0.010566 -611415.000000 0 0 1
-31.300117 -14.620613 24.837758 42.548489 0.436992 0.947454 0.019948 -0.004378 1180600.000000 0 0 1
-29.909667 -14.988613 24.628448 41.542835 0.464551 0.936210 0.040278 -0.016521 1440500.000000 0 0 1
-29.457787 -16.472213 24.954768 41.974224 0.509864 0.934120 0.045784 -0.014678 -450407.000000 0 0 1
-29.333327 -16.763213 26.347218 42.844198 0.519180 0.908468 0.046300 -0.017379 12880.200000 0 0 1
-28.915707 -18.081213 26.602748 43.252221 0.558821 0.908333 0.040277 -0.018438 -422201.000000 0 0 1
-28.748317 -18.351313 28.107488 44.195784 0.568137 0.881523 0.034700 -0.020651 476534.000000 0 0 1
-27.645907 -17.568013 28.588128 43.476572 0.566090 0.853231 0.041222 -0.020664 433629.000000 0 0 1
-27.245307 -17.939213 29.885998 44.241327 0.582281 0.829124 0.046856 -0.022237 -697367.000000 0 0 1
-26.024627 -17.241013 30.420918 43.588599 0.585104 0.798321 0.029361 -0.021215 -876745.000000 0 0 1
-26.243397 -15.970813 31.013438 43.653363 0.546694 0.780662 0.037636 -0.030148 -250481.000000 0 0 1
-25.080877 -15.211213 30.827498 42.553097 0.545175 0.760563 0.034116 -0.027642 -491355.000000 0 0 1
-25.104437 -13.796013 31.390978 42.496544 0.502494 0.739699 0.030053 -0.020507 -27288.000000 0 0 1
-24.448607 -13.722013 32.670528 43.051033 0.511447 0.709206 0.028158 -0.020153 341718.000000 0 0 1
-24.424207 -12.422813 33.311838 43.134055 0.470525 0.688364 0.017807 -0.008552 -363992.000000 0 0 1
-23.526207 -12.417513 -34.470606 43.541931 0.485652 2.484325 0.015975 -0.003593 1118950.000000 0 0 1
-22.095107 -12.595713 34.451423 42.822264 0.518120 0.635927 -0.002188 0.002725 1133870.000000 0 0 1
-21.750107 -13.980313 34.433669 43.060351 0.571276 0.644066 0.003078 0.000129 -436381.000000 0 0 1
-21.880707 -14.881113 -33.288885 42.524848 0.597246 2.469966 0.001794 -0.003670 -572810.000000 0 0 1
-20.962207 -14.541513 -32.288905 41.151466 0.606486 2.472904 -0.013012 -0.001844 -102420.000000 0 0 1
-21.120107 -15.366613 -31.204385 40.692817 0.628999 2.444681 -0.007193 -0.006353 42483.400000 0 0 1
-19.921107 -15.302413 -30.222495 39.299027 0.655017 2.448133 -0.010258 -0.002383 206387.000000 0 0 1
-19.793807 -14.093513 -29.452095 38.181773 0.618745 2.451780 0.004495 -0.003771 151616.000000 0 0 1
-20.228707 -14.264513 -28.094545 37.443029 0.614182 2.419354 -0.001981 -0.001025 7463.410000 0 0 1
-19.879607 -13.111413 -27.148345 36.112886 0.583053 2.421528 -0.002808 0.000470 -592219.000000 0 0 1
-18.542807 -13.038613 -26.764225 35.073706 0.612846 2.438870 0.005852 -0.013214 -592194.000000 0 0 1
-18.324307 -11.909813 -25.927985 33.909944 0.576337 2.441237 0.010653 -0.018759 96273.200000 0 0 1
-17.001607 -11.825613 -25.147455 32.577512 0.607739 2.452663 0.016348 -0.024086 -519644.000000 0 0 1
-17.053707 -12.718813 -24.069605 32.123870 0.640814 2.417763 0.015926 -0.017749 150840.000000 0 0 1
-15.829907 -12.911713 -23.400305 31.062398 0.684213 2.423911 0.012166 -0.024650 53967.700000 0 0 1
-14.756407 -13.855313 -24.020505 31.411875 0.753915 2.441364 0.001489 -0.020917 -535070.000000 0 0 1
-14.028607 -13.206313 -24.991505 31.556043 0.755215 2.484829 0.017935 -0.025368 -358091.000000 0 0 1
-13.374207 -14.083013 -25.901205 32.373957 0.811207 2.498197 0.024724 -0.028581 363452.000000 0 0 1
-12.288907 -13.306613 -26.747085 32.303092 0.825138 2.546335 0.033562 -0.021803 33919.100000 0 0 1
-12.829207 -12.252713 -27.509505 32.733628 0.762418 2.568826 0.049095 -0.022068 -684392.000000 0 0 1
-11.851207 -11.551313 -28.166765 32.668802 0.772584 2.610376 0.047565 -0.026582 -894510.000000 0 0 1
-11.980207 -11.628713 -29.677245 34.051302 0.770511 2.629141 0.030620 -0.026494 -318266.000000 0 0 1
-11.333107 -10.560913 -30.271175 34.004650 0.750143 2.668596 0.032043 -0.026003 -101812.000000 0 0 1
-11.286707 -10.548313 -31.665895 35.233302 0.751594 2.687704 0.033839 -0.015182 -55763.500000 0 0 1
-10.780907 -9.244513 -32.378825 35.356432 0.708826 2.728250 0.021762 -0.009973 706096.000000 0 0 1
-9.359507 -9.146913 -32.533995 35.067467 0.773911 2.759146 -0.002508 -0.011181 390921.000000 0 0 1
-9.026607 -7.795613 -32.741475 34.846168 0.712352 2.792257 -0.008426 -0.000337 -484906.000000 0 0 1
-7.510707 -7.538313 -32.822385 34.504287 0.787233 2.828077 0.003126 -0.001383 -99495.100000 0 0 1
-6.832207 -7.414313 -31.575585 33.146171 0.826235 2.832521 -0.005007 -0.008929 -16639.700000 0 0 1
-7.217807 -6.346313 -30.710395 32.179198 0.721236 2.838291 -0.012922 0.005976 -722224.000000 0 0 1
-6.648907 -4.953913 -31.097595 32.183997 0.640340 2.881026 -0.005494 0.006195 -223708.000000 0 0 1
-5.273507 -4.888813 -30.811675 31.639685 0.747561 2.912311 0.012510 0.001145 -117163.000000 0 0 1
-4.785707 -3.592013 -31.132955 31.702783 0.643866 2.951708 0.017359 -0.005295 -330629.000000 0 0 1
-3.353207 -3.295413 -30.670825 31.029071 0.776706 2.989489 0.012887 -0.003737 7013.540000 0 0 1
-2.431707 -4.279113 -31.267055 31.652057 1.054032 2.985462 0.009063 -0.011693 1264230.000000 0 0 1
-1.089807 -4.256313 -30.788675 31.100585 1.320136 2.999847 0.016946 -0.011832 634722.000000 0 0 1
-0.198007 -3.080513 -31.226895 31.379097 1.506607 3.043060 0.007150 -0.003156 -988667.000000 0 0 1
-0.284207 -2.033113 -30.344295 30.413657 1.431907 3.074043 0.001339 -0.015387 213964.000000 0 0 1
0.358293 -0.887413 -30.885145 30.899968 -1.187062 3.110616 0.015595 0.001903 251527.000000 0 0 1
0.866793 0.129687 -29.834595 29.847466 0.148515 3.112224 0.017521 -0.005730 779243.000000 0 0 1
-0.246207 0.896187 -29.355195 29.369904 -1.302683 3.109943 0.012019 -0.002971 399025.000000 0 0 1
0.217593 2.117387 -28.853055 28.931461 1.468391 3.067954 0.024871 -0.007562 -102278.000000 0 0 1
-0.880807 3.104787 -28.352685 28.535772 -1.294366 3.028253 0.017068 -0.002373 638338.000000 0 0 1
-1.742107 3.452387 -29.464845 29.717520 -1.103468 3.011096 0.001646 -0.004747 204609.000000 0 0 1
-2.924907 4.094287 -29.082395 29.514470 -0.950479 2.970272 0.036875 -0.012748 -880854.000000 0 0 1
-4.027607 4.088787 -30.084925 30.627480 -0.792936 2.953087 0.047559 -0.017075 -916831.000000 0 0 1
-3.725507 4.868987 -31.203205 31.799787 -0.917669 2.947585 0.043881 -0.017085 358323.000000 0 0 1
-4.805507 5.130587 -32.101155 32.861832 -0.818104 2.926012 0.060680 -0.016851 -116424.000000 0 0 1
-4.307907 5.815987 -33.402745 34.177875 -0.933273 2.928213 0.054362 -0.013418 179247.000000 0 0 1
-3.823907 5.006687 -34.498051 35.068571 -0.918547 2.960966 0.068608 -0.015649 461672.000000 0 0 1
-2.553307 4.401087 -34.298569 34.673921 -1.045097 2.994319 0.047403 -0.010078 -266651.000000 0 0 1
-2.023307 3.698387 33.522614 33.786646 -1.070199 0.125099 0.031024 -0.011173 -217977.000000 0 0 1
-2.913307 2.702887 33.013544 33.251873 -0.747949 0.119799 0.031614 -0.006707 96667.600000 0 0 1
-2.504707 2.149287 31.792778 31.963631 -0.709177 0.103441 0.039969 -0.007511 -69923.600000 0 0 1
-2.405807 3.084387 30.519328 30.768990 -0.908373 0.127476 0.046153 -0.011720 1223760.000000 0 0 1
-3.693307 3.730387 30.288938 30.740463 -0.790393 0.171607 0.032198 -0.009395 1113260.000000 0 0 1
-3.625407 4.597387 29.219048 29.799871 -0.903058 0.197760 0.039372 -0.015815 1107790.000000 0 0 1
-4.906107 5.525187 28.940408 29.868793 -0.844677 0.249978 0.045107 -0.014633 1155420.000000 0 0 1
-4.876507 6.157587 27.717928 28.809369 -0.900983 0.276140 0.039885 -0.003717 -354365.000000 0 0 1
-6.087407 6.835287 27.493968 28.977508 -0.843207 0.321369 0.029932 -0.000969 -274335.000000 0 0 1
-5.996907 7.507787 26.139668 27.849811 -0.896813 0.352264 0.020943 -0.001566 -45408.600000 0 0 1
-5.107407 8.598487 26.155078 28.001923 -1.034808 0.365218 0.024399 -0.001021 8567.200000 0 0 1
-5.127807 9.178987 24.850778 26.983502 -1.061339 0.400254 0.022462 -0.004019 138673.000000 0 0 1
-4.597407 10.650887 24.969858 27.533095 -1.163310 0.434921 0.034213 -0.005738 -250130.000000 0 0 1
-4.510007 11.339487 23.758758 26.709599 -1.192252 0.474500 0.030371 -0.005212 219775.000000 0 0 1
-4.063607 12.685987 24.006148 27.454368 -1.260801 0.506595 0.016475 0.008373 334830.000000 0 0 1
-2.526707 12.963887 24.091148 27.474170 -1.378306 0.501494 0.004755 0.009612 635484.000000 0 0 1
-1.757807 12.445087 25.205438 28.165301 -1.430479 0.462565 0.012545 0.010683 459709.000000 0 0 1
-2.180207 12.930087 26.513908 29.579178 -1.403753 0.459283 0.026911 0.006077 -432178.000000 0 0 1
-1.237707 12.487987 27.636218 30.351973 -1.472007 0.426245 0.025652 0.003233 -49432.000000 0 0 1
0.031093 13.087487 27.705918 30.641494 1.568421 0.441303 0.017501 0.005963 -414274.000000 0 0 1
0.758493 12.632287 28.835148 31.489931 1.510824 0.413564 0.022527 -0.002475 -269680.000000 0 0 1
2.250893 12.887387 28.604648 31.454366 1.397882 0.428953 0.014929 -0.000777 -425452.000000 0 0 1
2.573893 14.226187 28.703028 32.138344 1.391806 0.466588 0.012725 -0.001012 -616350.000000 0 0 1
3.953693 14.411587 28.631708 32.297062 1.303043 0.481046 0.019430 -0.001587 -700607.000000 0 0 1
4.366693 15.867387 28.763088 33.138455 1.302245 0.519702 0.014455 -0.002778 -398885.000000 0 0 1
4.207693 16.307087 30.122678 34.510889 1.318276 0.509793 0.020430 0.000714 167951.000000 0 0 1
3.070693 17.098587 30.377108 34.993707 1.393103 0.519488 0.008582 0.001230 -325268.000000 0 0 1
3.138493 18.579587 29.835458 35.287473 1.403455 0.563301 0.017718 0.002925 -135752.000000 0 0 1
4.141993 19.310187 30.520768 36.353221 1.359500 0.574321 0.029457 0.004249 73177.100000 0 0 1
5.082793 19.786487 29.583588 35.951753 1.319351 0.604354 0.017790 0.003550 -781096.000000 0 0 1
6.072493 20.746187 30.165818 37.111400 1.286046 0.621776 0.022625 0.002011 -774524.000000 0 0 1
5.563993 21.950987 30.676878 38.129709 1.322551 0.635896 0.016324 -0.002609 442391.000000 0 0 1
6.643093 22.650487 31.315758 39.215455 1.285510 0.645903 0.001574 -0.010766 392356.000000 0 0 1
6.842293 24.052687 30.798458 39.672329 1.293646 0.681988 -0.012736 -0.003756 -95802.800000 0 0 1
7.246693 24.084187 29.425138 38.709190 1.278523 0.707239 -0.026411 0.000130 162274.000000 0 0 1
7.549193 25.383487 28.935018 39.224316 1.281721 0.741168 -0.034509 0.008402 -68515.800000 0 0 1
8.003993 25.452287 27.456118 38.284739 1.266117 0.771084 -0.025758 0.002534 -205799.000000 0 0 1
7.122493 24.845587 26.547598 37.051424 1.291613 0.772015 -0.030759 -0.001890 47916.500000 0 0 1
7.704893 24.918387 25.278088 36.321799 1.270916 0.801057 -0.022319 -0.003732 -716584.000000 0 0 1
28.575836 2.387587 6.973195 29.511090 0.083359 1.332250 0.011882 0.011075 135224.000000 0 0 1
28.959176 3.109887 8.129695 30.239002 0.106979 1.298600 0.005889 0.001127 -21219.300000 0 0 1
28.206006 2.718287 9.234795 29.803512 0.096076 1.255755 0.010942 0.001553 -523805.000000 0 0 1
28.258966 3.783687 10.336195 30.326925 0.133102 1.223001 0.014111 -0.002886 -267918.000000 0 0 1
27.777786 5.062387 10.059595 29.973799 0.180267 1.228540 0.012816 -0.000149 553519.000000 0 0 1
28.777756 5.891987 9.410495 30.845294 0.201950 1.260767 0.023236 -0.010269 453544.000000 0 0 1
28.434266 7.374087 9.058695 30.739951 0.253748 1.271667 0.041327 -0.016962 666870.000000 0 0 1
27.396136 7.547387 8.055595 29.536485 0.268823 1.294563 0.036021 -0.013097 817084.000000 0 0 1
27.759606 8.781987 7.465295 30.057439 0.306396 1.319802 0.054667 -0.020296 328840.000000 0 0 1
26.838826 9.261887 6.317395 29.086331 0.332297 1.351857 0.053202 -0.019705 438944.000000 0 0 1
25.629256 9.946887 6.615595 28.276588 0.370212 1.334647 0.040765 -0.015206 -63192.700000 0 0 1
24.852036 10.093487 5.483995 27.378393 0.385791 1.369128 0.061405 -0.024155 457490.000000 0 0 1
23.396236 10.614287 5.749795 26.326927 0.425906 1.350622 0.024701 -0.022584 618269.000000 0 0 1
23.342136 11.904687 6.301595 26.949712 0.471622 1.334783 0.023992 -0.019538 1119180.000000 0 0 1
22.026136 12.303287 6.793895 26.128118 0.509404 1.307751 0.026919 -0.007346 1070110.000000 0 0 1
22.004736 13.765887 7.248695 26.949056 0.559022 1.298465 0.022167 0.015579 -368469.000000 0 0 1
22.081836 14.478387 6.052195 27.089855 0.580351 1.345483 0.030378 0.013319 298255.000000 0 0 1
21.904536 15.880387 6.231195 27.763703 0.627296 1.344431 0.041441 -0.002296 -133747.000000 0 0 1
21.792836 16.629987 4.941695 27.855063 0.651829 1.392445 0.051492 -0.005351 600747.000000 0 0 1
20.449136 16.562487 4.435895 26.686332 0.680770 1.403798 0.073231 -0.010765 935320.000000 0 0 1
20.098636 17.474887 3.372695 26.845892 0.715682 1.444832 0.071217 -0.008862 -893919.000000 0 0 1
18.648536 17.401187 2.940095 25.675151 0.750811 1.456033 0.067972 -0.011791 -1094700.000000 0 0 1
17.889436 18.029287 3.928295 25.700557 0.789292 1.417346 0.068409 -0.018710 236023.000000 0 0 1
16.516736 18.006087 3.513895 24.685405 0.828512 1.427964 0.049916 -0.027378 35916.100000 0 1 0
15.662436 18.943287 4.346295 24.960976 0.879922 1.395781 0.056402 -0.037498 -121965.000000 0 1 0
14.283436 18.958487 4.004795 24.072373 0.925119 1.403654 0.051369 -0.035636 177527.000000 0 1 0
13.757836 20.243087 4.239995 24.840253 0.973872 1.399266 0.039068 -0.029558 -1155740.000000 0 1 0
12.275236 20.216587 3.959595 23.980621 1.025109 1.404920 0.032913 -0.021114 -1111190.000000 0 1 0
11.588136 19.692187 5.081295 23.406980 1.038903 1.351969 0.017618 -0.017599 -97195.100000 0 1 0
10.212936 19.536587 4.788595 22.559099 1.089107 1.356900 0.022513 -0.009477 360489.000000 0 1 0
9.344836 18.955387 5.948195 21.954810 1.112772 1.296438 0.013834 -0.011064 -177461.000000 0 1 0
9.217536 19.868587 7.008895 22.996703 1.136423 1.261091 0.019099 -0.005187 -219380.000000 0 1 0
8.679836 19.162987 8.091795 22.539671 1.145494 1.203598 0.021095 -0.002231 -807851.000000 0 1 0
7.600536 19.984187 8.774595 23.111240 1.207363 1.181359 0.013378 -0.011557 -1378720.000000 0 1 0
6.429236 20.121987 8.100695 22.624118 1.261535 1.204612 0.022141 -0.021156 -1297640.000000 0 1 0
6.274436 21.376187 7.475295 23.498722 1.285291 1.247056 0.027086 -0.014907 -256479.000000 0 1 0
4.900036 21.586987 6.800195 23.157094 1.347588 1.272748 0.022468 -0.000781 1306470.000000 0 1 0
3.699536 21.686387 7.637295 23.287641 1.401830 1.236658 0.008360 -0.003153 1175150.000000 0 1 0
3.427836 22.916187 8.260495 24.599542 1.422316 1.228343 0.019293 -0.017070 -436312.000000 0 1 0
3.549436 24.226387 7.309995 25.552932 1.425320 1.280671 0.029839 -0.016211 -80873.600000 0 0 1
2.456236 24.251887 6.405895 25.203623 1.469860 1.313811 0.026972 -0.017455 405043.000000 0 0 1
2.654136 25.279487 5.429395 25.991830 1.466188 1.360358 0.028825 -0.007812 -417139.000000 0 0 1
1.418336 25.515987 4.575595 25.961767 1.515267 1.393627 0.032297 -0.010162 -360386.000000 0 0 1
0.387136 26.207887 5.242395 26.729869 1.556026 1.373392 0.043477 -0.012952 739109.000000 0 0 1
-0.821464 26.262987 4.452295 26.650370 -1.539528 1.402946 0.026852 -0.010246 892154.000000 0 0 1
-1.951764 27.142687 5.038095 27.675210 -1.499012 1.387732 0.034975 -0.009286 -156591.000000 0 0 1
-2.825364 27.516287 4.019795 27.951520 -1.468475 1.426483 0.040975 -0.005773 -984250.000000 0 0 1
-4.008964 28.013887 4.533295 28.660084 -1.428655 1.411955 0.029037 -0.009819 -268845.000000 0 0 1
-5.005164 28.393287 3.376495 29.028109 -1.396309 1.454214 0.035743 -0.012778 206369.000000 0 0 1
-4.601164 29.610887 2.876795 30.104008 -1.416642 1.475088 0.040241 -0.013008 232052.000000 0 0 1
-5.448764 30.093587 1.838795 30.638116 -1.391676 1.510744 0.036922 -0.012682 -3942.420000 0 0 1
-4.718164 31.087687 0.857795 31.455384 -1.420176 1.543523 0.031754 -0.003536 -195815.000000 0 0 1
-4.471464 32.440987 1.252295 32.771632 -1.433826 1.532574 0.027346 0.002703 26405.100000 0 0 1
-3.468064 32.545687 2.234395 32.806123 -1.464637 1.502634 0.025247 -0.011510 -626287.000000 0 0 1
-2.694964 33.878487 2.233195 34.058800 -1.491416 1.505180 0.029258 -0.008254 -591706.000000 0 0 1
-1.860064 34.060787 1.141895 34.130646 -1.516240 1.537333 0.020355 -0.001218 -169309.000000 0 0 1
-1.078964 -33.855277 1.215195 33.894257 1.538937 1.534936 0.026748 -0.003489 845268.000000 0 0 1
0.332336 -33.932477 1.900995 33.987310 -1.561003 1.514835 0.034405 -0.003113 349410.000000 0 0 1
0.258036 -33.901077 3.336595 34.065855 -1.563185 1.472694 0.024698 -0.004989 99200.600000 0 0 1
1.475036 -34.335277 3.909195 34.588564 -1.527863 1.457534 0.019608 -0.010267 194486.000000 0 0 1
1.384636 -34.289777 5.462495 34.749747 -1.530438 1.412946 0.015246 -0.014638 318403.000000 0 0 1
0.480336 33.810987 5.946995 34.333370 1.556591 1.396705 0.037194 -0.018903 316630.000000 0 0 1
0.013736 33.959587 7.294895 34.734266 1.570392 1.359201 0.042005 -0.027268 201758.000000 0 0 1
1.118036 33.725187 8.354995 34.762684 1.537657 1.328076 0.028156 -0.018225 91522.800000 0 0 1
1.615536 32.371687 8.302095 33.458345 1.520932 1.320045 0.024136 -0.018216 -201318.000000 0 0 1
2.572036 32.184887 9.291695 33.597886 1.491051 1.290588 0.018847 -0.008842 -335243.000000 0 0 1
3.159436 30.727787 9.320395 32.265286 1.468336 1.277753 0.014114 -0.009810 -351110.000000 0 0 1
2.241536 29.790987 9.786095 31.437160 1.495696 1.254245 0.032485 -0.017758 4178.630000 0 0 1
2.755736 28.500087 9.635095 30.210662 1.474404 1.246196 0.019605 -0.019936 -75801.300000 0 0 1
2.616536 27.721587 11.000095 29.938850 1.476689 1.194564 0.022421 -0.031011 -312014.000000 0 0 1
3.135236 28.369787 12.207195 31.043359 1.460730 1.166654 0.008993 -0.015712 -23368.900000 0 0 1
3.139636 27.490287 13.277595 30.689864 1.457080 1.123380 0.007723 -0.017196 -514595.000000 0 0 1
1.721836 27.108687 13.830795 30.481741 1.507366 1.099838 0.024071 -0.017642 572297.000000 0 0 1
1.008236 28.102287 14.542695 31.658254 1.534934 1.093516 0.023780 -0.016019 17538.500000 0 0 1
0.453736 28.941087 13.564695 31.965502 1.555120 1.132548 0.020482 -0.017818 -1294000.000000 0 0 1
-0.340264 30.165787 14.139595 33.316942 -1.559517 1.132501 0.020214 -0.014328 290998.000000 0 0 1
-1.579064 29.869687 14.751395 33.351091 -1.517980 1.112628 0.015610 -0.006146 -59594.900000 0 0 1
-2.224564 31.067187 15.090995 34.610070 -1.499313 1.119615 0.010902 -0.000048 106605.000000 0 0 1
-3.435764 30.794987 16.038595 34.890862 -1.459687 1.093163 0.011470 0.014157 79095.800000 0 0 1
-4.546664 30.312187 15.339695 34.275459 -1.421912 1.106782 0.005065 0.003062 92075.900000 0 0 1
-5.632964 29.932487 16.189495 34.493243 -1.384783 1.082239 -0.004589 0.011588 562651.000000 0 0 1
-6.770564 29.215287 15.366695 33.697312 -1.343069 1.097277 0.010344 0.002174 -270682.000000 0 0 1
-7.856464 28.783987 16.085895 33.896872 -1.304341 1.076339 0.007668 0.005441 -211462.000000 0 0 1
-8.828464 28.148787 15.232595 33.201324 -1.266877 1.094158 0.000105 0.008882 351909.000000 0 0 1
-10.013364 27.524687 15.997195 33.373434 -1.221885 1.070895 -0.004176 0.015510 -83586.100000 0 0 1
-10.894164 28.489187 16.535295 34.694849 -1.205557 1.074022 -0.011326 0.013037 194538.000000 0 0 1
-10.574264 28.869587 17.874195 35.563393 -1.219695 1.044192 -0.007178 0.011501 -274678.000000 0 0 1
-11.267064 30.180687 18.374995 37.087209 -1.213499 1.052439 -0.008778 0.010946 -959755.000000 0 0 1
-12.654664 30.166187 18.435095 37.549861 -1.173595 1.057617 -0.004364 0.016450 -443756.000000 0 0 1
-13.123764 31.451187 18.869995 38.954936 -1.175488 1.065113 0.009687 0.013781 -66405.500000 0 0 1
-14.131664 31.378687 20.001195 39.804192 -1.147644 1.044320 0.021016 0.004198 -147579.000000 0 0 1
-13.516464 31.178387 21.268195 40.088935 -1.161731 1.011576 0.023680 0.002801 804377.000000 0 0 1
-14.511164 30.720587 22.209695 40.590626 -1.129505 0.991825 0.018835 -0.000047 657571.000000 0 0 1
-13.951664 30.744787 23.626195 41.207863 -1.144795 0.960217 0.006514 -0.002675 -358194.000000 0 0 1
-12.854664 29.926587 23.949595 40.428036 -1.165087 0.936761 0.008521 -0.006787 49412.600000 0 0 1
-12.675664 29.700887 25.329595 41.041485 -1.167421 0.905655 0.011814 0.000294 -119691.000000 0 0 1
-12.218564 30.889787 26.271695 42.351791 -1.194129 0.901645 0.009526 0.001604 -625489.000000 0 0 1
-13.206064 31.813487 26.609295 43.526459 -1.177333 0.913049 0.014670 0.003801 -217144.000000 0 0 1
-12.694164 32.973887 27.207595 44.594532 -1.203308 0.914596 0.010047 0.003880 -552139.000000 0 0 1
-13.787464 33.972587 27.638895 45.914479 -1.185265 0.924837 0.013301 0.007011 -243498.000000 0 0 1
-14.489664 33.586587 28.792095 46.550982 -1.163507 0.903955 -0.009155 0.005074 118042.000000 0 0 1
-13.714564 33.412487 29.978795 46.938382 -1.181303 0.878010 0.005936 0.015775 -163794.000000 0 0 1
-14.451464 32.541187 31.057295 47.247531 -1.152862 0.853524 -0.001152 0.011947 -305241.000000 0 0 1
-15.588464 33.096187 31.625995 48.358674 -1.130613 0.857952 -0.001466 0.012182 -837089.000000 0 0 1
-16.013764 32.330687 32.687995 48.684895 -1.110906 0.834674 -0.004962 0.015465 -944408.000000 0 0 1
-17.349164 32.753687 33.229095 49.779215 -1.083683 0.839910 -0.006516 0.015341 -818569.000000 0 0 1
-17.384964 34.120387 33.649495 50.977704 -1.099563 0.849868 -0.010860 0.012134 464901.000000 0 0 1
-18.757764 -34.531577 33.678295 51.754334 1.073184 0.862246 0.004502 0.005738 984764.000000 0 0 1
-19.031764 -32.986877 33.869095 50.965260 1.047498 0.843901 0.005332 0.009708 -95154.400000 0 0 1
-18.891064 -32.455677 -33.852468 50.559201 1.043674 2.304414 0.007781 0.007965 337585.000000 0 0 1
-19.996764 -32.798577 -32.974168 50.625221 1.023287 2.280144 0.014210 0.007861 890653.000000 0 0 1
-19.823064 -32.080277 -31.627368 49.217765 1.017304 2.268684 0.024800 0.002671 85211.100000 0 0 1
-20.158764 -30.694677 -31.675968 48.496452 0.989690 2.282547 0.026694 -0.004657 -229944.000000 0 0 1
-19.509764 -29.916677 -30.699368 47.096599 0.992920 2.280802 0.029351 -0.003857 -68583.400000 0 0 1
-19.808764 -28.410177 -30.845168 46.378332 0.961924 2.298393 0.036604 -0.010333 -370007.000000 0 0 1
-21.095864 -27.973477 -30.540068 46.478453 0.924652 2.287735 0.039477 -0.010601 -650977.000000 0 0 1
-21.119264 -26.570177 -30.466568 45.609312 0.899204 2.302301 0.039386 -0.012960 414089.000000 0 0 1
-22.387764 -26.107877 -29.697868 45.440033 0.861958 2.283077 0.045917 -0.009843 137762.000000 0 0 1
-22.407764 -26.356977 -28.318068 44.706947 0.866207 2.256755 0.037306 -0.011710 -356729.000000 0 0 1
-21.406664 -25.778677 -27.532068 43.368193 0.877791 2.258604 0.035030 -0.023076 -260865.000000 0 0 1
-21.516864 -26.262777 -26.064768 42.802815 0.884403 2.225532 0.035266 -0.017195 533343.000000 0 0 1
-22.636464 -25.721177 -25.348068 42.620570 0.849101 2.207736 0.027136 -0.014753 308615.000000 0 0 1
-22.558464 -26.076877 -23.982168 42.000383 0.857615 2.178518 0.027197 -0.008263 -458455.000000 0 0 1
-23.883864 -25.905277 -23.230568 42.204047 0.825975 2.153681 0.014697 -0.005063 556445.000000 0 0 1
-24.997864 -26.778277 -23.455268 43.498493 0.819771 2.140307 0.004825 -0.001116 295585.000000 0 0 1
-24.777664 -28.129877 -23.024168 43.992441 0.848673 2.121593 0.014218 -0.002718 -1209410.000000 0 0 1
-25.973064 -29.123877 -23.154668 45.375532 0.842523 2.106318 0.004506 -0.000555 1119200.000000 0 0 1
-27.068464 -28.876377 -22.250868 45.405374 0.817703 2.082943 0.008797 0.007187 215645.000000 0 0 1
-27.955864 -27.896577 -22.672468 45.538886 0.784337 2.091938 0.001785 0.005019 -908649.000000 0 0 1
-28.710864 -27.208677 -21.526968 45.033722 0.758541 2.069194 0.012581 0.002564 -463534.000000 0 0 1
-29.534164 -28.093077 -20.853068 45.785786 0.760396 2.043672 -0.002480 0.011252 -118028.000000 0 0 1
-29.664664 -27.773777 -19.502168 45.074488 0.752490 2.018243 -0.001735 0.014759 -578415.000000 0 0 1
-30.599564 -28.745477 -18.679668 45.951776 0.754166 1.989423 -0.013012 0.019179 1027330.000000 0 0 1
-31.984264 -28.823477 -19.058768 47.085269 0.733465 1.987525 -0.018121 0.014739 1191910.000000 0 0 1
-32.778264 -27.651277 -18.963068 46.889291 0.700758 1.987143 -0.014070 0.021522 -656486.000000 0 0 1
-33.134564 -27.021077 -17.559668 46.220989 0.684118 1.960492 -0.007377 0.015304 -261549.000000 0 0 1
-32.073764 -26.357977 -16.875668 44.813585 0.687888 1.956892 -0.007759 0.019814 656662.000000 0 0 1
-32.593964 -25.708677 -15.722168 44.390192 0.667847 1.932835 -0.009376 0.018373 81207.100000 0 0 1
-32.249564 -26.510577 -14.415768 44.166270 0.688039 1.903286 -0.010592 0.016049 140354.000000 0 0 1
-33.101564 -27.630377 -14.152168 45.380999 0.695553 1.887938 0.005134 0.016751 408241.000000 0 0 1
-32.876664 -28.248677 -12.877268 45.218213 0.709829 1.859574 0.007938 0.016234 -635910.000000 0 0 1
-33.682764 -29.477577 -12.646068 46.512140 0.718917 1.846150 0.015843 0.007968 -442936.000000 0 0 1
-33.309364 -30.539477 -13.561268 47.181367 0.742043 1.862337 0.010142 0.008227 376342.000000 0 0 1
-33.841764 -31.745277 -13.086568 48.210848 0.753444 1.845690 0.014015 -0.002451 -416856.000000 0 0 1
-33.562864 -32.903377 -14.072268 49.062478 0.775476 1.861706 0.005041 0.000377 -703796.000000 0 0 1
-32.210464 -33.241377 -13.929768 48.337786 0.801148 1.863117 0.003862 0.001510 -301584.000000 0 0 1
-31.748064 -33.872177 -15.101568 48.819272 0.817757 1.885291 0.012227 -0.003068 897225.000000 0 0 1
-30.266064 -34.391677 -14.959568 48.193472 0.849119 1.886417 0.011979 -0.001924 1023960.000000 0 0 1
-29.929564 33.960287 -16.092668 48.042209 -0.848403 1.912369 0.018482 0.005803 200006.000000 0 0 1
-28.570964 33.492587 -16.118368 46.881288 -0.864532 1.921770 0.019030 0.005812 704362.000000 0 0 1
9.159093 20.210187 -8.954705 23.927544 1.145291 1.954376 0.011246 -0.005309 362062.000000 0 1 0
7.768093 20.464287 -9.188005 23.739203 1.208005 1.968215 0.019866 0.000270 782986.000000 0 1 0
7.291493 20.531487 -10.539405 24.203035 1.229552 2.021343 0.026196 0.000677 182401.000000 0 1 0
7.238493 19.239587 -11.357605 23.485159 1.210949 2.075568 0.021593 0.002967 -262159.000000 0 1 0
8.485993 18.792087 -11.822705 23.768276 1.146635 2.091413 0.030425 0.004673 -206330.000000 0 1 0
8.298593 17.604087 -12.518305 23.140408 1.130288 2.142388 0.026381 -0.005618 -132230.000000 0 1 0
9.623693 17.117587 -13.132605 23.623983 1.058627 2.160243 0.024391 -0.000260 -90583.700000 0 1 0
9.464793 16.029887 -13.979405 23.280106 1.037431 2.214907 0.026280 -0.010996 692293.000000 0 1 0
10.658193 15.717087 -14.729405 24.032879 0.974901 2.230504 0.032219 -0.006357 447364.000000 0 1 0
10.484093 14.531187 -15.730805 23.843863 0.945793 2.291272 0.035603 -0.007653 -302008.000000 0 1 0
10.334993 13.259387 -15.097405 22.595465 0.908714 2.302530 0.034611 -0.008270 1693180.000000 0 1 0
11.592693 12.763187 -14.524705 22.544545 0.833419 2.270861 0.033797 -0.007436 811200.000000 0 1 0
12.419193 11.911787 -15.494105 23.155870 0.764547 2.303823 0.035967 -0.008383 -868978.000000 0 1 0
13.265993 12.687387 -16.259005 24.521656 0.763108 2.295678 0.037728 -0.006138 -75514.900000 0 1 0
14.151793 11.956387 -17.081605 25.199398 0.701507 2.315641 0.044073 -0.014958 132361.000000 0 0 1
14.704993 12.812587 -18.252605 26.712484 0.716735 2.323067 0.029245 -0.011948 -255506.000000 0 0 1
15.723893 13.687587 -17.884705 27.467317 0.716273 2.279864 0.006885 0.003518 -540130.000000 0 0 1
16.407693 14.165287 -19.008205 28.830185 0.712183 2.290705 0.005379 0.000752 156375.000000 0 0 1
17.681793 14.999787 -18.672505 29.770822 0.703517 2.248760 -0.003866 0.016726 -263494.000000 0 0 1
17.554493 16.326687 -18.078605 30.025937 0.749175 2.216925 -0.013181 0.010417 -2093.500000 0 0 1
16.924093 17.245487 -18.932805 30.696626 0.794804 2.235431 0.003238 0.012924 -270915.000000 0 0 1
16.649293 18.629787 -18.227705 30.927611 0.841477 2.201071 -0.007791 0.016819 -268772.000000 0 0 1
17.707993 19.532287 -18.089705 31.973750 0.834346 2.172160 -0.010217 0.020247 -320928.000000 0 0 1
17.223393 20.710387 -17.482305 32.112246 0.877064 2.146485 -0.018388 0.023897 71908.400000 0 0 1
18.061293 22.003387 -17.727305 33.535305 0.883476 2.127766 -0.009033 0.016876 327301.000000 0 0 1
19.344793 22.061287 -17.130905 33.976305 0.850910 2.099253 0.001704 0.018924 14766.300000 0 0 1
19.350793 23.279687 -16.314705 34.388466 0.877300 2.065106 0.005902 0.008675 -391134.000000 0 0 1
20.695793 23.558187 -15.659905 35.050487 0.849989 2.033961 0.020686 0.006516 -497906.000000 0 0 1
21.102493 22.648387 -14.567505 34.212232 0.820717 2.010640 0.028781 0.000668 69630.200000 0 0 1
21.902193 23.325087 -13.607005 34.769474 0.816849 1.972894 0.025923 -0.002846 753391.000000 0 0 1
23.432493 23.471487 -13.861205 35.946146 0.786230 1.966666 0.026291 0.002027 221583.000000 0 0 1
23.768193 24.351687 -14.888305 37.142876 0.797523 1.983229 0.025268 0.005196 796144.000000 0 0 1
25.169593 24.289887 -15.201905 38.139283 0.767614 1.980774 0.018969 0.008424 696717.000000 0 0 1
25.447893 24.996887 -16.544305 39.321160 0.776458 2.005066 0.008306 0.005053 -249124.000000 0 0 1
25.814893 24.057887 -17.492005 39.384779 0.750183 2.031001 0.011878 0.002520 247556.000000 0 0 1
26.158493 24.700487 -18.726105 40.559189 0.756738 2.050705 0.006061 0.004184 -438852.000000 0 0 1
26.531093 23.761987 -19.879505 40.788793 0.730394 2.079879 0.005616 0.001634 79963.200000 0 0 1
27.831693 23.189187 -19.828005 41.297594 0.694656 2.071593 -0.004187 0.007114 122107.000000 0 0 1
28.000793 22.278787 -20.883305 41.430679 0.672082 2.099083 0.013471 -0.006262 -714848.000000 0 0 1
29.408993 22.142787 -21.402705 42.582481 0.645371 2.097420 0.030407 -0.006050 -762438.000000 0 0 1
29.909293 23.273087 -22.093805 43.867284 0.661258 2.098616 0.010484 0.009437 443861.000000 0 0 1
31.297893 23.506087 -21.845905 44.825637 0.644169 2.079852 0.018136 -0.001820 942031.000000 0 0 1
31.867493 24.906787 -22.337805 46.204574 0.663404 2.075393 0.006647 0.005881 45514.600000 0 0 1
32.094693 25.118787 -23.757105 47.174387 0.664069 2.098559 0.004492 0.005299 260413.000000 0 0 1
30.917493 25.023287 -24.543605 46.738044 0.680420 2.123666 0.008404 -0.005285 -155742.000000 0 0 1
31.027393 25.763087 -25.969525 47.967197 0.692965 2.142900 0.007911 -0.006822 -693381.000000 0 0 1
30.712593 27.148187 -25.943245 48.511229 0.723873 2.135054 0.000571 -0.000078 -675203.000000 0 0 1
29.393293 27.397587 -26.337835 48.044510 0.750271 2.151003 0.008653 0.000247 -290794.000000 0 0 1
28.979193 27.258087 -27.823725 48.548497 0.754803 2.181095 0.007763 -0.001285 -500031.000000 0 0 1
28.895093 25.892987 -28.249335 47.993730 0.730658 2.200128 0.002684 -0.011176 -58281.900000 0 0 1
28.485393 25.713387 -29.585405 48.455052 0.734298 2.227582 0.005509 -0.014265 -40832.200000 0 0 1
27.710293 24.350187 -29.875265 47.469184 0.720945 2.251527 0.011441 -0.025474 -899652.000000 0 0 1
26.430893 24.353787 -29.381705 46.421801 0.744521 2.256127 0.015675 -0.022214 -1162220.000000 0 0 1
25.700493 23.180987 -29.695725 45.603833 0.733901 2.279918 0.022226 -0.030002 -1199600.000000 0 0 1
24.300593 23.225087 -29.198465 44.524980 0.762772 2.286008 0.015769 -0.023657 -1481930.000000 0 0 1
24.125193 23.151087 -27.807125 43.488320 0.764797 2.264535 0.016231 -0.013510 667655.000000 0 0 1
22.780993 23.456087 -27.416855 42.671367 0.799998 2.268568 0.012517 -0.011175 308368.000000 0 0 1
22.694393 23.659587 -25.934665 41.802133 0.806217 2.240068 0.022889 -0.006203 -206486.000000 0 0 1
23.020793 22.555387 -25.089115 40.843189 0.775187 2.232268 0.020219 -0.009408 248921.000000 0 0 1
23.654993 23.095387 -23.936805 40.815759 0.773429 2.197478 0.019951 0.001592 -214780.000000 0 0 1
24.170993 22.024687 -22.959105 39.955528 0.738970 2.182932 0.021499 -0.000682 389906.000000 0 0 1
25.341993 21.365387 -23.441505 40.598036 0.700464 2.186343 0.016701 -0.007558 401239.000000 0 0 1
25.343293 20.084787 -22.810905 39.572952 0.670157 2.185145 0.037478 -0.011319 160763.000000 0 0 1
26.473993 19.206687 -23.398005 40.214870 0.627631 2.191767 0.046960 -0.017043 789845.000000 0 0 1
27.773393 19.433887 -22.830105 40.868704 0.610545 2.163518 0.064857 -0.025363 532984.000000 0 0 1
28.684793 18.531987 -23.466405 41.435782 0.573598 2.172845 0.059155 -0.020197 -181820.000000 0 0 1
29.853593 18.170987 -22.564005 41.599953 0.546770 2.144093 0.058033 -0.019627 -798901.000000 0 0 1
30.639793 19.259587 -22.252105 42.483935 0.561170 2.122075 0.047277 -0.018537 -366703.000000 0 0 1
31.838493 18.773087 -21.663405 42.841820 0.532763 2.100943 0.041791 -0.016705 205101.000000 0 0 1
32.550693 19.849087 -20.843005 43.450716 0.547587 2.071101 0.020835 -0.022549 -217233.000000 0 0 1
32.018393 19.952487 -19.556905 42.494138 0.557273 2.049046 0.036820 -0.022581 25613.700000 0 0 1
32.372093 21.114087 -18.839105 42.996150 0.577942 2.024345 0.018374 -0.009456 -368372.000000 0 0 1
31.760593 21.201487 -17.487205 42.000484 0.588607 2.000231 0.023961 -0.014727 -249438.000000 0 0 1
32.350693 20.219987 -16.636405 41.619529 0.558617 1.982014 0.027755 -0.028093 588322.000000 0 0 1
31.784193 20.313687 -15.322905 40.714521 0.568684 1.956650 0.030129 -0.023940 -260681.000000 0 0 1
32.136493 19.085587 -14.485005 40.085274 0.535916 1.940517 0.024937 -0.020671 -528394.000000 0 0 1
33.518293 19.097387 -14.260405 41.128400 0.517887 1.924878 0.029816 -0.028072 -197738.000000 0 0 1
34.107093 17.940387 -13.737605 40.912994 0.484232 1.913225 0.031661 -0.004466 -40661.400000 0 0 1
34.143893 17.774687 -12.194205 40.378751 0.479977 1.877582 0.033175 -0.015339 -175523.000000 0 0 1
35.059893 18.670387 -11.566405 41.371018 0.489330 1.854150 0.032235 -0.015743 118906.000000 0 0 1
34.845593 18.839987 -10.168605 40.896955 0.495652 1.822072 0.019250 -0.021148 -88102.300000 0 0 1
33.731393 19.890087 -9.913905 40.394405 0.532783 1.818757 0.022465 -0.025571 -32290.500000 0 0 1
32.450293 19.471987 -10.331205 39.228989 0.540461 1.837296 0.031767 -0.029169 -650302.000000 0 0 1
31.518893 20.493387 -10.053005 38.916352 0.576511 1.832083 0.013228 -0.021001 99641.300000 0 0 1
30.087893 19.980987 -10.381505 37.580537 0.586215 1.850683 0.001081 -0.014635 130987.000000 0 0 1
29.909393 19.631487 -11.740905 37.653896 0.580837 1.887895 0.016349 -0.017320 -1547690.000000 0 0 1
28.626393 19.207287 -11.862205 36.456853 0.590972 1.902206 0.018179 -0.017514 -1434500.000000 0 0 1
28.330093 18.543287 -13.237405 36.354869 0.579563 1.943480 0.050599 -0.018592 -225751.000000 0 0 1
28.978793 17.283887 -13.412205 36.309646 0.537792 1.949142 0.055278 -0.024198 482010.000000 0 0 1
28.533493 16.561987 -14.598305 36.077280 0.525913 1.987381 0.060432 -0.028942 191261.000000 0 0 1
29.704293 16.124287 -15.536305 37.198312 0.497319 2.001666 0.046432 -0.027386 138146.000000 0 0 1
30.354293 15.011087 -14.999105 37.036320 0.459261 1.987757 0.036547 -0.017272 346436.000000 0 0 1
31.647193 14.849387 -15.559705 38.264259 0.438719 1.989567 0.036085 -0.016218 377734.000000 0 0 1
32.631893 13.917787 -14.802705 38.440412 0.403148 1.966093 0.026510 -0.017279 -178696.000000 0 0 1
33.018893 14.453687 -13.535105 38.501369 0.412612 1.930021 0.024161 -0.010269 34758.400000 0 0 1
33.780093 13.463887 -12.885705 38.579947 0.379277 1.911341 0.031469 -0.007231 143517.000000 0 0 1
34.746693 13.960687 -11.748505 39.246157 0.382044 1.874812 0.040361 -0.006161 419723.000000 0 0 1
-34.548151 14.498087 -12.240105 39.415599 -0.397329 1.886557 0.018751 -0.008258 -18533.500000 0 0 1
-33.703751 15.002687 -11.207505 38.556862 -0.418800 1.865728 0.023626 -0.004214 -778223.000000 0 0 1
-32.277351 15.288687 -11.673605 37.574518 -0.442359 1.886703 0.023216 -0.010594 -426897.000000 0 0 1
-31.578851 14.185387 -12.259305 36.725190 -0.422193 1.911141 0.008716 -0.009402 392809.000000 0 0 1
-31.158351 13.193787 -11.289305 35.670257 -0.400551 1.892824 0.015986 -0.000133 -929210.000000 0 0 1
-29.913951 12.348887 -11.542305 34.359340 -0.391504 1.913388 0.026836 -0.006483 -288277.000000 0 0 1
-30.114751 11.564787 -12.729405 34.679681 -0.366659 1.946639 0.014319 -0.008989 489829.000000 0 0 1
-29.300751 10.380787 -12.745805 33.596879 -0.340486 1.959917 0.023747 -0.011937 -131692.000000 0 0 1
-29.398951 9.548287 -14.064905 33.960118 -0.314036 1.997815 0.018972 -0.016104 -126421.000000 0 0 1
-30.639151 8.970787 -14.425205 35.033115 -0.284828 1.995180 -0.001037 -0.017257 369637.000000 0 0 1
-30.355051 8.170787 -15.554805 35.073392 -0.262942 2.030289 0.006858 -0.021809 151738.000000 0 0 1
-31.590951 7.688787 -16.372005 36.402585 -0.238744 2.037280 0.006754 -0.022284 -280086.000000 0 0 1
-32.436051 6.909487 -15.605205 36.651887 -0.209882 2.010607 0.021483 -0.027068 -923777.000000 0 0 1
-33.310451 6.172487 -16.331705 37.608647 -0.183224 2.020006 0.014691 -0.023269 -782561.000000 0 0 1
-34.405651 5.604187 -15.404205 38.110960 -0.161468 1.986893 0.010628 -0.012429 -282270.000000 0 0 1
35.037593 4.897387 -15.999005 38.827638 0.138875 1.995501 0.015497 -0.007309 267484.000000 0 0 1
34.036593 4.641787 -15.003305 37.485130 0.135540 1.982583 0.023511 -0.010976 407030.000000 0 0 1
33.062693 3.520387 -15.389005 36.638180 0.106076 2.004271 0.025002 -0.009729 -465131.000000 0 0 1
33.680393 2.269187 -15.341005 37.079165 0.067272 1.997351 0.030345 -0.011442 -290391.000000 0 0 1
32.839693 1.212087 -15.672405 36.407950 0.036892 2.015806 0.017195 0.004307 -602838.000000 0 0 1
32.157693 0.697887 -14.385805 35.235715 0.021699 1.991358 0.020857 0.004719 -258119.000000 0 0 1
33.037893 0.050587 -13.452605 35.671802 0.001531 1.957483 0.040439 -0.000812 383295.000000 0 0 1
32.578393 0.035987 -12.126905 34.762261 0.001105 1.927143 0.048604 0.001727 -277895.000000 0 0 1
32.796693 1.294487 -11.288505 34.709208 0.039450 1.902052 0.049130 -0.011334 -12254.000000 0 0 1
31.810493 2.258987 -11.608505 33.937706 0.070895 1.919897 0.049694 -0.005128 579317.000000 0 0 1
32.226493 3.557987 -11.235005 34.313721 0.109960 1.904368 0.052816 -0.009442 -192693.000000 0 0 1
31.188393 4.595887 -11.672005 33.616569 0.146306 1.925391 0.042193 -0.001826 -140667.000000 0 0 1
31.246293 5.040287 -12.997605 34.215100 0.159931 1.960462 0.042604 -0.006426 -142698.000000 0 0 1
30.119493 5.805187 -13.225705 33.403642 0.190404 1.977883 0.051782 -0.007178 -748320.000000 0 0 1
30.094893 6.637387 -14.513805 34.064762 0.217074 2.010935 0.016914 -0.002693 -335058.000000 0 0 1
30.175293 5.816587 -15.712105 34.514507 0.190424 2.043429 0.006117 0.005904 265680.000000 0 0 1
30.748493 6.461687 -16.860005 35.657860 0.207132 2.063293 0.009537 0.002978 -287336.000000 0 0 1
29.862093 7.547287 -17.616205 35.482909 0.247554 2.090324 0.015490 0.001844 982747.000000 0 0 1
28.739493 7.050987 -18.347005 34.817918 0.240589 2.125794 0.001256 0.008000 1536930.000000 0 0 1
27.621093 6.461787 -17.640905 33.404805 0.229811 2.127152 -0.004036 0.011105 -510459.000000 0 0 1
26.336393 6.312887 -18.398205 32.740679 0.235263 2.167522 -0.010316 0.010707 -925092.000000 0 0 1
26.320893 5.288287 -19.351005 33.094059 0.198276 2.195340 -0.006403 0.015869 396457.000000 0 0 1
25.114793 5.351787 -20.103705 32.612166 0.209953 2.235020 -0.017459 0.021030 271189.000000 0 0 1
24.900393 4.050087 -20.962105 32.800040 0.161240 2.264108 -0.010478 0.022146 -243209.000000 0 0 1
24.511793 3.015187 -20.112805 31.850342 0.122395 2.254255 -0.007317 0.012808 264455.000000 0 0 1
24.219093 1.765787 -20.745305 31.938224 0.072780 2.277782 -0.005569 0.006755 -445907.000000 0 0 1
23.201093 0.968087 -19.893405 30.577368 0.041702 2.279161 -0.003180 -0.000601 -198654.000000 0 0 1
21.895793 1.473787 -20.053305 29.727644 0.067208 2.311175 -0.010545 0.004233 -180048.000000 0 0 1
21.020993 0.875287 -19.120705 28.429731 0.041615 2.308459 -0.006258 0.004572 -3872.180000 0 0 1
19.720393 1.687487 -18.959105 27.407830 0.085363 2.334693 -0.010103 -0.001231 -1132670.000000 0 0 1
18.789193 1.582287 -20.035805 27.513104 0.084014 2.386529 -0.000308 -0.002446 415780.000000 0 0 1
17.575093 2.286387 -19.932105 26.672088 0.129366 2.414789 -0.007742 -0.002669 732962.000000 0 0 1
16.605893 1.816687 -18.782405 25.136323 0.108967 2.414668 0.000479 -0.006817 -917446.000000 0 0 1
17.174193 2.161287 -17.547205 24.648092 0.125187 2.363009 0.010234 -0.005079 256930.000000 0 1 0
16.273893 2.253387 -16.424105 23.230768 0.137591 2.356041 0.005556 0.003018 788305.000000 0 1 0
15.268893 3.487787 -16.245005 22.565547 0.224571 2.374459 0.020072 -0.006417 499956.000000 0 1 0
14.344893 3.464987 -17.282205 22.725683 0.237009 2.434833 0.010408 -0.003308 -339600.000000 0 1 0
13.424993 4.525187 -17.260205 22.329855 0.325111 2.454298 0.023073 -0.003993 -331758.000000 0 1 0
-19.472407 -21.877013 -18.052705 34.404629 0.843486 2.123179 0.006287 -0.002481 72686.200000 0 0 1
-19.394607 -22.545113 -19.253705 35.427928 0.860377 2.145351 0.017653 -0.006418 597462.000000 0 0 1
-20.605607 -22.356213 -19.983105 36.382905 0.826124 2.152256 0.020665 -0.004730 331191.000000 0 0 1
-20.506207 -23.088213 -21.322405 37.526192 0.844557 2.175114 0.026056 -0.006576 108277.000000 0 0 1
-20.385907 -24.502313 -21.110705 38.231014 0.876846 2.155783 0.015286 -0.007362 99518.300000 0 0 1
-19.360907 -25.102393 -21.878005 38.517814 0.913816 2.174867 0.020531 -0.009671 -182441.000000 0 0 1
-19.185007 -26.679233 -21.776205 39.421429 0.947367 2.156031 0.021136 0.001245 -723055.000000 0 0 1
-20.249707 -27.425253 -22.251505 40.710252 0.934787 2.149074 0.027077 0.006672 -613794.000000 0 0 1
-20.187507 -28.764093 -21.745905 41.325451 0.958843 2.124935 0.037507 -0.009655 -89537.700000 0 0 1
-21.500007 -29.554263 -21.926505 42.620141 0.941867 2.111178 0.029857 -0.008421 -246068.000000 0 0 1
-22.111907 -29.694623 -23.185905 43.684016 0.930732 2.130298 0.018783 -0.002542 -146831.000000 0 0 1
-21.420307 -30.427693 -24.195005 44.385497 0.957408 2.147317 0.018322 -0.008429 -473439.000000 0 0 1
-21.837907 -29.947873 -25.578825 45.033827 0.940742 2.174860 0.014790 -0.002505 709813.000000 0 0 1
-23.166007 -30.365303 -25.952975 46.176535 0.919084 2.167644 0.019335 -0.001191 856279.000000 0 0 1
-23.772407 -29.477413 -26.884505 46.441596 0.892128 2.188161 0.016532 -0.001145 -66348.300000 0 0 1
-23.199107 -29.450463 -28.317445 46.983040 0.903580 2.217697 0.021504 -0.009408 -324511.000000 0 0 1
-23.652707 -30.594983 -29.057105 48.371675 0.912680 2.215179 0.014992 -0.003066 108859.000000 0 0 1
-23.299207 -30.525553 -30.390615 48.971950 0.918857 2.240268 0.034285 -0.007175 -356090.000000 0 0 1
-23.775307 -31.760813 -31.175095 50.456922 0.928209 2.236809 0.020180 0.001594 137011.000000 0 0 1
-23.190207 -32.968263 -30.723505 50.681612 0.957785 2.222078 0.017821 -0.000730 -152407.000000 0 0 1
-23.951807 -34.089141 -31.144195 52.016531 0.958312 2.212719 0.029602 -0.007646 -159377.000000 0 0 1
-23.289707 33.621157 -30.998055 51.319315 -0.964980 2.219336 0.043829 -0.012871 391803.000000 0 0 1
-22.276307 33.330534 -31.967015 51.274247 -0.981632 2.243946 0.035176 -0.013533 -19385.800000 0 0 1
-21.802807 32.019021 -31.731175 50.074420 -0.972982 2.257098 0.041435 -0.015399 -206412.000000 0 0 1
-20.544207 31.729161 -32.556175 49.886959 -0.996190 2.281806 0.036710 -0.007381 -222195.000000 0 0 1
-20.773607 31.568351 -33.957765 50.805840 -0.988782 2.302829 0.024817 0.001551 133835.000000 0 0 1
-20.766507 30.234261 -34.379827 50.272566 -0.968948 2.323848 0.012309 0.014691 -90153.000000 0 0 1
-20.763507 30.018931 33.128771 49.292747 -0.965676 0.833779 0.006066 0.013429 284778.000000 0 0 1
-19.611107 30.543891 32.494508 48.717736 -1.000021 0.840627 0.004229 0.007935 571981.000000 0 0 1
-19.924507 30.549061 31.098698 47.930785 -0.992867 0.864757 0.010674 0.002387 439523.000000 0 0 1
-19.286507 31.804741 30.331718 47.995042 -1.025682 0.886696 0.005220 0.000392 249323.000000 0 0 1
-20.145107 32.926411 30.360638 49.109492 -1.021729 0.904316 0.010996 0.004291 199179.000000 0 0 1
-19.547107 34.053886 29.732498 49.252187 -1.049710 0.922689 0.001681 -0.001981 718567.000000 0 0 1
-20.568507 -33.836323 29.748558 49.527133 1.024601 0.926480 0.013190 -0.007763 632062.000000 0 0 1
-20.600207 -33.243473 31.039178 49.929226 1.016034 0.899932 0.007361 -0.003371 158781.000000 0 0 1
-21.704007 -32.342673 31.156908 49.878506 0.979756 0.896105 0.029473 -0.010081 320913.000000 0 0 1
-21.458107 -30.847993 30.711268 48.530722 0.963024 0.885605 0.028481 -0.001891 -191270.000000 0 0 1
-21.285107 -30.765043 29.336068 47.541020 0.965554 0.905784 0.018160 -0.000558 -284648.000000 0 0 1
-21.334707 -29.474163 28.795688 46.401376 0.944246 0.901316 0.030586 -0.009307 613907.000000 0 0 1
-22.677307 -28.814983 28.273738 46.303000 0.904034 0.913948 0.036986 -0.002393 184570.000000 0 0 1
-23.685707 -28.574693 29.261768 47.262849 0.878677 0.903164 0.038147 -0.001962 845654.000000 0 0 1
-24.733307 -29.552343 29.299898 48.410345 0.873938 0.920728 0.030970 -0.004268 773775.000000 0 0 1
-25.790907 -29.490153 28.138338 48.234905 0.852216 0.947936 0.022110 0.001242 -33142.300000 0 0 1
-25.103227 -29.889363 26.959388 47.437903 0.872212 0.966347 0.023694 0.006866 -111607.000000 0 0 1
-25.995837 -30.085883 25.897758 47.451425 0.858199 0.993484 0.015286 0.009363 -74611.200000 0 0 1
-25.335447 -30.339653 24.481428 46.494298 0.875040 1.016263 0.016746 0.004392 -338695.000000 0 0 1
-24.582707 -29.255003 23.976958 45.111631 0.871966 1.010423 0.010593 0.004643 283075.000000 0 0 1
-24.114707 -29.306163 22.649658 44.197028 0.882274 1.032737 0.019362 0.002413 -230063.000000 0 0 1
-22.984907 -30.302973 22.406858 44.143441 0.921875 1.038409 0.023569 -0.000708 -1193410.000000 0 0 1
-23.450707 -31.656683 22.282758 45.261491 0.933221 1.056053 0.020508 -0.004675 731743.000000 0 0 1
-22.427207 -32.621833 22.011458 45.295341 0.968515 1.063342 0.027670 0.002711 405434.000000 0 0 1
-21.432407 -33.066963 23.090458 45.672107 0.995722 1.040754 0.028912 0.000875 -37022.400000 0 0 1
-20.628607 -32.075223 23.709658 44.905537 0.999264 1.014565 0.032799 -0.001961 83438.800000 0 0 1
-19.570507 -32.777173 24.306208 45.256376 1.032529 1.003827 0.021437 0.000157 -507870.000000 0 0 1
-18.990907 -32.099983 25.538358 45.202557 1.036563 0.970392 0.014673 -0.002789 -893444.000000 0 0 1
-18.114807 -31.014023 25.236248 43.896288 1.042162 0.958307 0.022456 -0.006389 302947.000000 0 0 1
-17.598207 -30.365233 26.357358 43.891395 1.045548 0.926654 0.024657 -0.002890 -13178.900000 0 0 1
-16.683907 -31.143103 27.315108 44.658266 1.078985 0.912655 0.005523 -0.006988 -1172880.000000 0 0 1
-17.427207 -32.076093 28.044068 46.033173 1.073105 0.915727 0.000557 -0.002086 94229.700000 0 0 1
-16.732407 -32.580003 29.171948 46.823419 1.096345 0.898198 -0.000356 -0.001474 -149687.000000 0 0 1
-17.288507 -31.795873 30.397988 47.264233 1.072776 0.872192 0.001915 -0.001554 216432.000000 0 0 1
-16.604007 -30.564863 30.562818 46.303237 1.073159 0.849900 0.007890 -0.001038 209835.000000 0 0 1
-17.057807 -29.834993 31.721728 46.769259 1.051417 0.825404 0.014010 0.005085 78528.500000 0 0 1
-16.574307 -28.332283 31.777578 45.686326 1.041481 0.801597 0.018062 -0.000898 -162677.000000 0 0 1
-17.211807 -27.436813 30.882138 44.751888 1.010527 0.809204 0.028719 -0.003580 -59548.300000 0 0 1
-17.228907 -27.598373 29.435208 43.874103 1.012720 0.835372 0.027012 0.000740 955223.000000 0 0 1
-15.815207 -27.452303 28.708358 42.754176 1.048138 0.834599 0.019640 0.007586 1063720.000000 0 0 1
-15.451907 -26.088513 28.899118 41.887122 1.036067 0.809406 0.024023 0.002225 315088.000000 0 0 1
-14.277807 -25.673113 28.192678 40.715987 1.063252 0.805955 0.018539 0.002729 -7664.810000 0 0 1
-14.508507 -24.394913 27.386778 39.441655 1.034257 0.803264 0.024941 0.003790 -512428.000000 0 0 1
-15.483107 -24.529313 26.366658 39.199674 1.007745 0.833047 0.047336 -0.008330 111490.000000 0 0 1
-15.501007 -23.339613 25.505688 37.888770 0.984538 0.832305 0.037365 -0.009979 98727.300000 0 0 1
-16.276807 -22.128513 26.102478 37.893864 0.936602 0.810921 0.039419 -0.006242 -191423.000000 0 0 1
-16.024107 -21.039013 25.228798 36.550025 0.919889 0.808956 0.035780 -0.003321 194178.000000 0 0 1
-16.638107 -19.896813 25.788998 36.575705 0.874357 0.788253 0.034653 0.001939 78502.300000 0 0 1
-16.422107 -18.585913 24.926618 35.163305 0.847128 0.782885 0.031882 -0.001091 -606256.000000 0 0 1
-15.100107 -18.178913 24.981848 34.388644 0.877650 0.757645 0.035213 -0.006444 -936047.000000 0 0 1
-14.760407 -17.163813 24.042068 33.022525 0.860541 0.755322 0.026828 0.003326 405003.000000 0 0 1
-13.303907 -16.608313 24.149448 32.187355 0.895422 0.722315 0.030816 0.001915 99995.000000 0 0 1
-12.349407 -17.555513 23.730658 31.997625 0.957759 0.735287 0.011824 0.000267 124290.000000 0 0 1
-11.040807 -16.988313 23.730058 31.202850 0.994487 0.706699 0.004465 0.002136 195259.000000 0 0 1
-10.565907 -16.289313 22.423658 29.661432 0.995377 0.713636 0.000302 0.013777 -296255.000000 0 0 1
-10.096607 -17.145813 21.406658 29.226108 1.038603 0.748883 0.013421 0.014125 196030.000000 0 0 1
-8.761407 -17.643013 21.531758 29.183125 1.109878 0.740968 0.011157 0.004744 -256131.000000 0 0 1
-8.363707 -18.863913 20.587258 29.148482 1.153469 0.786554 0.013467 0.004629 -121023.000000 0 0 1
-8.142907 -18.405913 19.280758 27.871710 1.154275 0.806862 0.014236 0.006219 -33694.100000 0 0 1
-7.807607 -19.484613 18.394258 27.909812 1.189681 0.851227 0.009580 0.000964 -78890.700000 0 0 1
-7.685207 -19.011613 16.891958 26.567689 1.186642 0.881741 -0.008297 0.005851 -302648.000000 0 0 1
-6.721607 -18.007313 16.703658 25.464790 1.213542 0.855354 -0.006297 0.005977 -184156.000000 0 0 1
-6.478607 -17.838013 15.276058 24.362369 1.222419 0.893055 0.005103 -0.001989 65053.500000 0 1 0
-5.633207 -16.593713 15.005958 23.070828 1.243525 0.862646 -0.008438 -0.002677 13635.100000 0 1 0
-6.296407 -15.431113 15.367858 22.670136 1.183384 0.825908 -0.006315 -0.007559 -458496.000000 0 1 0
-5.327107 -14.444113 15.495058 21.842786 1.217465 0.782164 -0.008288 -0.003692 -743994.000000 0 1 0
-5.295307 -13.513113 16.710258 22.133170 1.197323 0.715162 -0.027208 0.012898 -555025.000000 0 1 0
-4.776007 -14.014513 17.923058 23.247641 1.242350 0.690445 -0.031660 0.017769 373760.000000 0 1 0
-5.619507 -14.773713 18.847458 24.598133 1.207324 0.697866 -0.011313 0.011974 247456.000000 0 1 0
-6.862707 -14.088413 19.468658 24.992174 1.117508 0.677743 0.010229 0.007412 286695.000000 0 1 0
-6.526407 -13.148613 20.459658 25.180898 1.110067 0.622356 0.002422 0.005601 233124.000000 0 0 1
-7.743707 -12.748813 21.078958 25.822852 1.024949 0.615836 0.011347 0.009992 591884.000000 0 0 1
-7.604907 -11.695413 22.186258 26.207772 0.994247 0.561321 0.012511 0.011023 -328670.000000 0 0 1
-7.088607 -10.424813 21.861858 25.236202 0.973637 0.523070 -0.000664 0.013445 11787.000000 0 0 1
-6.777407 -9.635613 22.959558 25.805418 0.957812 0.474068 0.005421 0.009564 -114977.000000 0 0 1
-5.368207 -9.875713 23.536758 26.083066 1.072898 0.445543 0.011606 0.008113 -176910.000000 0 0 1
-5.210107 -11.025713 24.318108 27.204447 1.129356 0.464821 0.021722 0.009954 -1202260.000000 0 0 1
-3.885207 -11.157213 24.661988 27.345784 1.235705 0.446748 0.018612 0.001906 -1235270.000000 0 0 1
-3.740907 -12.454513 25.520388 28.642616 1.279004 0.471267 0.015651 -0.001193 100474.000000 0 0 1
-2.455707 -12.858413 26.012338 29.120628 1.382088 0.466247 0.013328 -0.003531 490844.000000 0 0 1
-2.513907 -14.098713 26.708618 30.305836 1.394343 0.492184 0.018249 -0.007478 13070.200000 0 0 1
-2.630607 -15.367013 25.924948 30.251745 1.401254 0.541428 0.023948 -0.020883 -194473.000000 0 0 1
-1.548907 -15.619313 25.059308 29.569088 1.471953 0.559570 0.032276 -0.016130 -52011.700000 0 0 1
-1.663507 -16.954213 24.579688 29.906080 1.472992 0.606065 0.028281 -0.012214 -25744.700000 0 0 1
-0.303607 -17.738913 24.503518 30.252002 1.553683 0.626678 0.031875 -0.019787 756157.000000 0 0 1
0.270893 -18.235313 25.701348 31.514430 -1.555942 0.617131 0.030607 -0.024755 101747.000000 0 0 1
0.685993 -17.276413 26.664138 31.779259 -1.531110 0.575276 0.053866 -0.022084 -910007.000000 0 0 1
1.309893 -17.805013 27.917138 33.137605 -1.497360 0.568962 0.048754 -0.014641 -738806.000000 0 0 1
2.560893 -18.372913 27.571368 33.231046 -1.432304 0.592250 0.036713 -0.018591 -306346.000000 0 0 1
3.338993 -18.699313 28.665078 34.387496 -1.394096 0.585221 0.032396 -0.011997 -97090.600000 0 0 1
4.135693 -17.541513 29.312038 34.409362 -1.339259 0.551266 0.040054 -0.010162 -800585.000000 0 0 1
3.341293 -16.707313 30.120798 34.605794 -1.373411 0.514787 0.040334 -0.022136 -233651.000000 0 0 1
4.145493 -15.820413 30.849808 34.916776 -1.314524 0.487463 0.037399 -0.027681 -474658.000000 0 0 1
3.416293 -14.759913 31.638668 35.078931 -1.343344 0.446583 0.046857 -0.027530 -419177.000000 0 0 1
2.751393 -15.349013 32.723028 36.248571 -1.393425 0.444700 0.051278 -0.038088 10995.100000 0 0 1
1.811393 -14.436913 33.290967 36.331723 -1.445979 0.412040 0.037266 -0.029946 -68981.500000 0 0 1
1.026893 -14.933513 34.444593 37.556548 -1.502140 0.409953 0.028249 -0.031403 137897.000000 0 0 1
1.698593 -14.571213 -33.391995 36.472329 -1.454748 2.727653 0.051924 -0.017970 -134173.000000 0 0 1
0.964093 -15.162613 -32.362425 35.751376 -1.507298 2.702665 0.040779 -0.028191 -131027.000000 0 0 1
1.584693 -15.226613 -30.979935 34.556003 -1.467096 2.682633 0.048271 -0.014299 -588040.000000 0 0 1
0.945693 -16.168613 -30.191295 34.261242 -1.512373 2.649209 0.049356 -0.016708 -788748.000000 0 0 1
1.470893 -16.245813 -28.894685 33.181211 -1.480503 2.627653 0.034762 -0.006865 -13949.500000 0 0 1
0.947493 -17.498013 -28.185895 33.189198 -1.516701 2.585358 0.041758 -0.008480 -159769.000000 0 0 1
1.520593 -18.635413 -28.747125 34.292682 -1.489380 2.564931 0.057727 -0.009336 154912.000000 0 0 1
1.198093 -19.705713 -27.876475 34.159163 -1.510072 2.525385 0.035857 0.001739 -1059440.000000 0 0 1
1.994193 -21.001813 -28.123595 35.156643 -1.476127 2.498010 0.041931 -0.009262 437089.000000 0 0 1
3.409493 -20.999913 -27.892015 35.079702 -1.409843 2.489976 0.033390 -0.009171 574852.000000 0 0 1
3.730493 -20.813213 -26.524265 33.921130 -1.393443 2.468567 0.037509 -0.012310 -1482380.000000 0 0 1
5.217293 -21.027713 -26.182815 33.984182 -1.327592 2.450329 0.040608 -0.014803 -73190.900000 0 0 1
5.743393 -22.350613 -26.207655 34.919588 -1.319270 2.419636 0.037530 -0.010215 4709.380000 0 0 1
5.754693 -22.876213 -27.551815 36.270375 -1.324352 2.433530 0.027040 -0.010477 -812028.000000 0 0 1
5.010793 -24.240713 -27.680255 37.133768 -1.366957 2.411961 0.003971 -0.007325 27295.500000 0 0 1
5.555893 -25.358803 -27.003875 37.458592 -1.355113 2.375895 0.012626 0.003769 -348253.000000 0 0 1
4.840293 -26.499833 -27.413645 38.434067 -1.390134 2.364941 0.012939 0.000516 66802.200000 0 0 1
4.858593 -27.672143 -26.477445 38.605809 -1.396991 2.326555 0.023790 -0.007462 -99647.400000 0 0 1
6.134493 -28.254653 -26.362185 39.127001 -1.357000 2.310081 0.036972 -0.004417 -281345.000000 0 0 1
6.128993 -29.474333 -25.683735 39.572151 -1.365775 2.277112 0.033791 -0.005082 -241751.000000 0 0 1
7.557593 -30.039333 -25.620155 40.197899 -1.324322 2.261851 0.010578 -0.010950 -165691.000000 0 0 1
7.968193 -30.307253 -26.950165 41.331986 -1.313701 2.281070 0.013390 -0.009429 595702.000000 0 0 1
9.371493 -30.648823 -26.857255 41.814918 -1.274054 2.268277 0.066266 -0.015249 1147450.000000 0 0 1
10.103393 -30.504833 -28.210035 42.760139 -1.250961 2.291252 0.064313 -0.034604 66083.900000 0 0 1
9.739793 -31.475423 -29.155845 43.995785 -1.270701 2.295210 0.065756 -0.035084 -160377.000000 0 0 1
10.022893 -31.080673 -30.491155 44.678598 -1.258845 2.321913 0.050549 -0.018271 83728.900000 0 0 1
-34.027777 -4.785213 -5.342705 34.775457 0.139711 1.725042 0.072688 -0.027069 -418702.000000 0 0 1
-33.568727 -4.024413 -4.273805 34.078157 0.119316 1.696539 0.064783 -0.041397 286761.000000 0 0 1
-32.774157 -2.943513 -4.746605 33.246653 0.089572 1.714055 0.055992 -0.035392 -372286.000000 0 0 1
-33.472017 -1.766513 -5.430505 33.955661 0.052727 1.731415 0.071418 -0.028128 -353695.000000 0 0 1
-34.087702 -0.831213 -4.554205 34.400627 0.024380 1.703573 0.045794 -0.023667 232191.000000 0 0 1
-35.003261 0.025387 -5.175905 35.383880 -0.000725 1.717602 0.046575 -0.023640 -188569.000000 0 0 1
34.671794 0.877687 -4.186905 34.934708 0.025309 1.690935 0.044933 -0.017359 -213949.000000 0 0 1
-35.020513 1.858887 -3.620105 35.256162 -0.053030 1.673658 0.024013 -0.009095 388393.000000 0 0 1
34.793128 2.607687 -2.640205 34.990463 0.074808 1.646323 0.024840 -0.016230 94487.600000 0 0 1
-34.796417 3.825887 -2.360605 35.085617 -0.109511 1.638128 0.004036 -0.016950 -63643.800000 0 0 1
-34.759544 4.658187 -3.536905 35.248182 -0.133218 1.671308 0.011271 -0.021220 153983.000000 0 0 1
-33.490667 5.167387 -3.879805 34.108350 -0.153086 1.684792 -0.007205 -0.004442 -467800.000000 0 0 1
-33.025277 6.442887 -3.139305 33.794008 -0.192670 1.663826 -0.020360 -0.000273 -361397.000000 0 0 1
-32.622927 6.226687 -1.793005 33.260215 -0.188600 1.624731 -0.015465 -0.006863 437152.000000 0 0 1
-32.479957 7.448887 -1.072805 33.340433 -0.225440 1.602979 -0.011904 -0.015089 175325.000000 0 0 1
-31.589567 7.342787 0.252995 32.432719 -0.228388 1.562996 -0.013868 -0.011426 -1146660.000000 0 0 1
-30.269827 7.080387 -0.086905 31.087005 -0.229778 1.573592 -0.006486 -0.010349 -424020.000000 0 0 1
-29.382017 7.298187 1.006095 30.291562 -0.243462 1.537577 -0.008546 -0.008464 8094.530000 0 0 1
-29.036907 8.816587 1.241395 30.371290 -0.294787 1.529911 -0.015503 -0.007802 -739636.000000 0 0 1
-30.159177 9.624287 1.593995 31.697692 -0.308901 1.520488 -0.013042 -0.010621 595433.000000 0 0 1
-29.790747 10.999887 1.658095 31.799928 -0.353710 1.518631 -0.008284 -0.000453 -152727.000000 0 0 1
-31.038557 11.889287 1.561495 33.274396 -0.365809 1.523851 -0.010174 -0.008749 -742524.000000 0 0 1
-31.380707 12.131887 0.208395 33.644835 -0.368904 1.564602 -0.002684 -0.012314 342102.000000 0 0 1
-32.399317 13.098787 0.062295 34.947072 -0.384201 1.569014 -0.000961 -0.012432 1392720.000000 0 0 1
-33.898287 12.600587 0.319295 36.165876 -0.355890 1.561968 0.005391 -0.021636 869115.000000 0 0 1
-34.360435 11.552487 -0.482605 36.253722 -0.324342 1.584109 0.003916 -0.015132 -221122.000000 0 0 1
35.013613 10.907587 0.043295 36.673293 0.301996 1.569616 0.015129 -0.018951 -141877.000000 0 0 1
34.614523 9.660487 -0.754205 35.945223 0.272163 1.591780 0.018409 -0.018982 310990.000000 0 0 1
34.040256 10.031987 -2.054505 35.547163 0.286596 1.628625 0.017529 -0.007580 463200.000000 0 0 1
33.816976 8.906187 -2.834405 35.084782 0.257517 1.651672 0.005349 -0.014997 -291966.000000 0 0 1
33.311356 9.202287 -4.228905 34.816838 0.269529 1.692558 0.016615 -0.004543 -553802.000000 0 0 1
32.037106 9.766687 -4.324505 33.770782 0.295905 1.699204 0.033301 -0.014051 -217610.000000 0 0 1
31.673156 9.877587 -5.621805 33.650561 0.302302 1.738648 0.022406 -0.006787 134609.000000 0 0 1
30.236846 10.404187 -5.914805 32.519208 0.331400 1.753701 0.036568 -0.004244 383433.000000 0 0 1
29.190266 9.472787 -5.705805 31.214765 0.313797 1.754622 0.036659 -0.005197 508945.000000 0 0 1
27.936766 10.015287 -6.038505 30.285845 0.344226 1.771525 0.031745 0.003651 534173.000000 0 0 1
26.664366 9.097787 -5.984105 28.802216 0.328811 1.780086 0.030733 0.011654 397292.000000 0 0 1
26.475346 8.327587 -7.132605 28.656007 0.304743 1.822345 0.023055 0.011077 -342223.000000 0 0 1
25.390636 7.494687 -7.007305 27.385344 0.287025 1.829552 0.021690 0.005101 -810841.000000 0 0 1
25.209936 6.577987 -8.252405 27.329709 0.255237 1.877541 0.006430 0.002214 -409340.000000 0 0 1
26.247956 5.646487 -8.276105 28.095052 0.211892 1.869807 0.024160 0.001308 168134.000000 0 0 1
26.073686 4.672687 -9.278905 28.067226 0.177328 1.907731 0.007886 0.000804 -194324.000000 0 0 1
26.994246 3.428387 -9.196305 28.723078 0.126328 1.896707 0.020342 0.005353 956950.000000 0 0 1
28.405086 3.626387 -9.440405 30.151631 0.126980 1.889249 0.063711 0.001556 1712450.000000 0 0 1
29.335636 2.999687 -8.558105 30.705355 0.101900 1.853254 0.045958 -0.010496 230356.000000 0 0 1
29.388516 1.415287 -8.392305 30.596057 0.048121 1.848651 0.050544 -0.012995 -189491.000000 0 0 1
28.271216 0.867787 -7.679105 29.308418 0.030685 1.835901 0.051457 -0.008227 990735.000000 0 0 1
28.696446 -0.353713 -7.062105 29.554771 -0.012325 1.812080 0.043403 -0.004208 -41859.500000 0 0 1
28.607326 -1.586013 -7.973605 29.740090 -0.055384 1.842227 0.035915 0.004544 -270312.000000 0 0 1
29.559126 -1.658913 -9.017005 30.948349 -0.056063 1.866441 0.051983 -0.002302 357909.000000 0 0 1
29.218646 -2.687713 -9.865305 30.956055 -0.091728 1.895141 0.031166 -0.002910 -90687.900000 0 0 1
30.318136 -2.956513 -10.930505 32.363657 -0.097209 1.915311 0.028628 0.002289 -107062.000000 0 0 1
31.566096 -3.318313 -10.351105 33.385251 -0.104738 1.886042 0.053596 -0.006917 439181.000000 0 0 1
32.313936 -3.905213 -11.420005 34.494314 -0.120269 1.908233 0.024193 -0.000680 -180092.000000 0 0 1
33.814976 -4.110913 -11.142505 35.840028 -0.120977 1.886931 0.044953 -0.010179 -184683.000000 0 0 1
34.063196 -5.265713 -10.324405 35.980862 -0.153373 1.861829 0.032177 -0.013684 308477.000000 0 0 1
-35.111210 -5.274313 -9.831005 36.841066 0.149103 1.840918 0.040132 -0.020426 -139662.000000 0 0 1
-34.741863 -6.597913 -9.105905 36.516394 0.187677 1.822821 0.032486 -0.023012 -162106.000000 0 0 1
35.217345 -6.713413 -7.798105 36.689805 -0.188368 1.784971 0.034091 -0.017493 427307.000000 0 0 1
35.230161 -8.058413 -7.376605 36.885181 -0.224868 1.772142 0.027456 -0.015595 -657684.000000 0 0 1
34.665292 -8.327913 -5.948105 36.144385 -0.235770 1.736113 0.047752 -0.011036 326053.000000 0 0 1
-34.851422 -7.996213 -4.916005 36.093326 0.225534 1.707424 0.040198 -0.015690 1235840.000000 0 0 1
-34.985106 -8.797413 -3.803105 36.274175 0.246354 1.675833 0.054515 -0.021866 -198762.000000 0 0 1
-34.242136 -10.164213 -3.948305 35.936392 0.288549 1.680888 0.059151 -0.027376 -131583.000000 0 0 1
-34.995376 -10.913713 -4.889705 36.982357 0.302303 1.703402 0.047135 -0.023818 228330.000000 0 0 1
-34.231709 -11.826913 -5.586105 36.645468 0.332657 1.723829 0.031718 -0.019434 -526538.000000 0 0 1
-34.992567 -12.433213 -6.788205 37.751083 0.341398 1.751595 0.029857 -0.022337 21327.700000 0 0 1
-35.147208 -11.460413 -7.842005 37.791062 0.315198 1.779825 0.026263 -0.018997 224334.000000 0 0 1
34.800949 -12.112413 -8.957605 37.921700 -0.334935 1.809263 0.033660 -0.019033 -131615.000000 0 0 1
34.898193 -11.273813 -10.220705 38.071585 -0.312466 1.842591 0.017938 -0.021801 111244.000000 0 0 1
33.923726 -10.237313 -10.367105 36.920166 -0.293084 1.855422 0.015532 -0.011699 711017.000000 0 0 1
34.109216 -9.646613 -11.647405 37.311631 -0.275618 1.888268 0.015313 -0.013709 11933.500000 0 0 1
33.027346 -8.570813 -11.946005 36.152060 -0.253906 1.907564 0.018536 -0.005716 -106123.000000 0 0 1
33.334126 -7.983613 -13.209805 36.734194 -0.235075 1.938641 0.020244 -0.004191 408241.000000 0 0 1
32.377396 -7.066113 -13.674005 35.849744 -0.214873 1.962134 0.012460 0.000379 -197087.000000 0 0 1
32.704876 -6.551413 -15.092805 36.610418 -0.197702 1.995723 0.004886 0.000008 443115.000000 0 0 1
33.698596 -5.505213 -15.220405 37.384000 -0.161936 1.990113 0.006101 0.002871 891593.000000 0 0 1
33.126046 -4.226313 -15.527205 36.827853 -0.126897 2.006023 0.008674 0.001829 9857.280000 0 0 1
34.139326 -3.047513 -15.727705 37.711293 -0.089031 2.001000 0.016534 -0.001822 19014.400000 0 0 1
34.870532 -3.249013 -16.956405 38.910535 -0.092905 2.021700 0.014169 -0.003907 1406850.000000 0 0 1
-34.284730 -2.686713 -16.886905 38.312253 0.078205 2.027253 0.030551 -0.000421 1300210.000000 0 0 1
-34.055077 -1.145613 -16.650505 37.924926 0.033627 2.025325 0.033150 0.006196 -753166.000000 0 0 1
-34.418496 -0.289613 -17.680905 38.695364 0.008414 2.045332 0.021423 0.001907 99052.500000 0 0 1
-34.207432 1.052887 -17.315905 38.354890 -0.030770 2.039203 0.033525 -0.004498 -179731.000000 0 0 1
-34.541538 2.098987 -18.405705 39.195581 -0.060692 2.059618 0.020192 -0.006861 -220214.000000 0 0 1
-33.596227 2.189987 -19.458205 38.886042 -0.065093 2.094846 0.019395 -0.008957 372733.000000 0 0 1
-33.524267 3.467887 -20.058705 39.220586 -0.103077 2.107648 0.013660 -0.001391 -298758.000000 0 0 1
-32.630127 3.663687 -21.319105 39.149100 -0.111811 2.146663 0.001516 0.005503 10544.000000 0 0 1
-31.243477 3.678987 -21.021405 37.836349 -0.117212 2.159866 0.009602 0.003753 127365.000000 0 0 1
-30.607857 4.185087 -22.172805 38.026164 -0.135890 2.193328 0.000615 0.008888 -1326750.000000 0 0 1
-29.192547 4.611487 -21.884005 36.774724 -0.156673 2.208165 0.015883 0.001622 -1196990.000000 0 0 1
-28.442697 3.466387 -21.474205 35.807043 -0.121275 2.213948 0.012910 0.008896 257665.000000 0 0 1
-27.116507 3.879387 -21.225205 34.653484 -0.142099 2.230014 0.004877 0.012735 -475766.000000 0 0 1
-26.206207 3.034987 -20.382105 33.337766 -0.115298 2.228602 0.019907 0.008221 -657016.000000 0 0 1
-26.571737 2.803787 -19.039505 32.808858 -0.105129 2.189913 0.027262 0.004718 260431.000000 0 0 1
-25.721827 1.925587 -18.290805 31.620782 -0.074723 2.187614 0.033675 0.006250 -247781.000000 0 0 1
-24.812607 2.479587 -17.198505 30.291953 -0.099602 2.174576 0.046905 -0.009495 -34816.500000 0 0 1
-23.719507 3.242587 -17.707005 29.776961 -0.135863 2.207632 0.045937 -0.008893 225176.000000 0 0 1
-23.157107 3.871787 -16.572905 28.738537 -0.165664 2.185454 0.054538 -0.017241 -65108.300000 0 0 1
-21.893607 4.760487 -16.811505 28.011051 -0.214105 2.214515 0.052257 -0.018310 164199.000000 0 0 1
-20.766807 3.987687 -17.150805 27.227046 -0.189713 2.252244 0.061916 -0.018466 229978.000000 0 0 1
-19.659607 4.888087 -17.316105 26.650348 -0.243695 2.278054 0.052153 -0.017108 -413966.000000 0 0 1
-18.467007 4.249987 -17.983005 26.124341 -0.226201 2.330025 0.054728 -0.016879 -1130880.000000 0 0 1
-17.959107 3.311887 -17.095905 25.015357 -0.182364 2.323229 0.058928 -0.019413 142015.000000 0 0 1
-16.796607 2.676787 -17.605905 24.479769 -0.158036 2.373450 0.039947 -0.017794 -187635.000000 0 1 0
-16.901707 1.208887 -17.187505 24.135854 -0.071403 2.363303 0.042173 -0.017007 714190.000000 0 1 0
-17.899107 0.453787 -17.904205 25.320832 -0.025347 2.356176 0.031792 -0.013506 1109110.000000 0 0 1
-19.221807 0.443387 -17.383505 25.920276 -0.023063 2.305885 0.043992 -0.021311 857516.000000 0 0 1
-20.240307 -0.637613 -17.905305 27.031029 0.031492 2.294812 0.037618 -0.023140 375389.000000 0 0 1
-20.010207 -1.852813 -17.215905 26.461835 0.092330 2.279162 0.020684 -0.021096 422238.000000 0 0 1
-20.991007 -2.804713 -17.555805 27.508091 0.132828 2.262961 0.028905 -0.004013 -142987.000000 0 0 1
-20.985407 -3.946213 -16.510605 26.991850 0.185875 2.228990 0.038110 -0.010024 -136007.000000 0 0 1
-21.501607 -3.490113 -15.269105 26.601608 0.160915 2.182169 0.029189 -0.015887 366532.000000 0 0 1
-21.783207 -4.513113 -14.378805 26.488230 0.204293 2.144608 0.019721 -0.022652 -171158.000000 0 0 1
-22.152307 -3.924413 -12.969005 25.967688 0.175337 2.093735 0.019178 -0.025638 -240416.000000 0 0 1
-23.427707 -3.342513 -12.918405 26.961362 0.141717 2.070477 0.021883 -0.026243 241012.000000 0 0 1
-23.537507 -2.726913 -11.680105 26.417327 0.115340 2.028777 0.024914 -0.028386 -319657.000000 0 0 1
-24.565107 -1.584313 -11.538905 27.186410 0.064405 2.009136 0.057297 -0.031567 -403341.000000 0 0 1
-24.695907 -1.113913 -10.196505 26.741304 0.045075 1.962000 0.051281 -0.032757 673040.000000 0 0 1
-25.209187 0.242987 -10.244105 27.212200 -0.009639 1.956761 0.067406 -0.030276 -308253.000000 0 0 1
-25.720307 0.705087 -8.868705 27.215534 -0.027407 1.902727 0.082675 -0.030093 -288501.000000 0 0 1
-24.697107 0.752587 -7.879805 25.934626 -0.030463 1.879510 0.059142 -0.024873 220140.000000 0 0 1
-25.116197 1.149987 -6.603105 25.995131 -0.045755 1.827624 0.053412 -0.025519 -30893.800000 0 0 1
-23.929007 1.472487 -5.635105 24.627627 -0.061458 1.801654 0.020505 -0.017443 -14827.500000 0 1 0
-23.624707 2.813487 -5.666305 24.457095 -0.118533 1.804604 0.044857 -0.020826 410304.000000 0 1 0
-22.266307 3.038287 -5.336305 23.097528 -0.135615 1.803936 0.033886 -0.013473 -179777.000000 0 1 0
-21.894607 4.502887 -5.446605 23.006854 -0.202834 1.809804 0.042741 -0.021122 -461658.000000 0 1 0
-22.507807 5.398787 -4.517105 23.582886 -0.235415 1.763529 0.046962 -0.018488 624706.000000 0 1 0
-22.030207 6.700987 -4.682805 23.498126 -0.295281 1.771424 0.032824 -0.015243 -352356.000000 0 1 0
-22.717207 7.808287 -3.816305 24.322932 -0.331066 1.728349 0.043063 -0.009780 -331503.000000 0 1 0
-22.376407 7.830787 -2.435205 23.831808 -0.336637 1.673158 0.046469 -0.008149 1181540.000000 0 1 0
-20.988207 8.049187 -2.147605 22.581109 -0.366211 1.666047 0.051181 -0.009323 465315.000000 0 1 0
-20.368507 9.472887 -2.263205 22.577284 -0.435319 1.671208 0.030437 -0.007022 -459182.000000 0 1 0
-20.191807 9.943387 -3.606605 22.794465 -0.457587 1.729687 0.019933 -0.007319 355165.000000 0 1 0
-19.703407 11.270387 -3.631405 22.987670 -0.519578 1.729433 0.026475 -0.002663 -248099.000000 0 1 0
-19.538907 11.824987 -5.072405 23.395053 -0.544236 1.789347 0.030639 -0.004944 -383639.000000 0 1 0
-18.466207 11.242287 -5.740805 22.368430 -0.546867 1.830348 0.026630 -0.002927 -192593.000000 0 1 0
-18.549907 11.619887 -7.097205 23.010675 -0.559614 1.884339 0.035192 -0.005062 -250776.000000 0 1 0
-17.262407 11.339187 -7.902505 22.113739 -0.581191 1.936233 0.027000 -0.003824 -126750.000000 0 1 0
-16.919707 10.000887 -8.322205 21.343695 -0.533834 1.971334 0.014601 -0.001109 417858.000000 0 1 0
-17.775307 9.301687 -9.228405 22.082717 -0.482108 2.001931 0.018864 -0.005877 -430266.000000 0 1 0
-17.843007 9.837887 -10.683105 23.006209 -0.503885 2.053705 0.020164 -0.006763 1024320.000000 0 1 0
-16.561607 9.826787 -11.348305 22.352552 -0.535514 2.103305 0.005924 -0.009432 791992.000000 0 1 0
-16.720607 10.521587 -12.564605 23.412642 -0.561656 2.137269 0.005182 -0.013971 454932.000000 0 1 0
-15.688107 10.199287 -13.716305 23.200845 -0.576466 2.203340 0.005635 -0.005146 67597.800000 0 1 0
-15.732407 8.928287 -14.389305 23.114390 -0.516187 2.242762 0.006299 -0.010093 -70363.200000 0 1 0
-15.673607 7.849087 -13.463205 22.102670 -0.464274 2.225748 0.010396 -0.012156 -510909.000000 0 1 0
-15.623707 6.502287 -14.218205 22.102880 -0.394377 2.269563 0.018494 -0.019516 -712749.000000 0 1 0
-14.571107 6.302487 -15.091305 21.904018 -0.408234 2.330869 0.018443 -0.017614 70819.000000 0 1 0
-14.921907 5.215387 -15.947005 22.453742 -0.336240 2.360601 0.030455 -0.016351 68431.000000 0 1 0
31.220076 -16.179613 28.668928 45.369378 -0.478136 0.886794 -0.016996 0.002566 -681795.000000 0 0 1
30.608646 -14.979013 28.964418 44.723568 -0.455109 0.866324 -0.008711 0.003035 -27040.000000 0 0 1
29.574466 -15.044413 29.957698 44.703994 -0.470580 0.836406 0.008702 -0.005642 450405.000000 0 0 1
30.024426 -15.136313 31.419328 46.018999 -0.466949 0.819281 0.010274 -0.020540 -502425.000000 0 0 1
30.730156 -14.023213 31.807668 46.397422 -0.428109 0.815440 0.013824 -0.027076 -315878.000000 0 0 1
30.692136 -13.813213 33.213551 47.285855 -0.422901 0.792034 0.016787 -0.031308 -392012.000000 0 0 1
31.257826 -12.494513 33.656840 47.601969 -0.380269 0.785482 0.015606 -0.033159 -3278.700000 0 0 1
30.874626 -12.269313 -34.012195 47.545851 -0.378256 2.367929 0.019226 -0.035629 151238.000000 0 0 1
31.054076 -10.925413 -33.682935 47.098412 -0.338294 2.367650 0.030730 -0.026825 -6220.950000 0 0 1
30.526606 -10.646413 -32.254185 45.667847 -0.335568 2.355023 0.025893 -0.022008 612388.000000 0 0 1
29.103906 -10.504913 -32.209975 44.664002 -0.346392 2.376274 0.056610 -0.027585 582810.000000 0 0 1
28.791236 -10.002013 -30.905975 43.406852 -0.334355 2.363148 0.032553 -0.009788 -167787.000000 0 0 1
27.302426 -9.774913 -30.579725 42.143694 -0.343805 2.382711 0.014566 0.007372 14059.100000 0 0 1
27.013456 -9.393613 -29.240985 40.902347 -0.334659 2.367274 0.000086 -0.002428 327318.000000 0 0 1
26.289416 -10.421213 -28.579985 40.206351 -0.377402 2.361478 0.022471 -0.005677 -828822.000000 0 0 1
25.963266 -10.352313 -27.090085 38.924726 -0.379410 2.340553 0.025079 -0.005135 90145.500000 0 0 1
24.972636 -9.386913 -26.625085 37.691403 -0.359549 2.355191 0.017475 -0.009545 1808850.000000 0 0 1
23.657036 -9.345913 -27.214075 37.250602 -0.376239 2.389949 0.024606 -0.015117 1203250.000000 0 0 1
22.752036 -10.652313 -27.086875 36.943548 -0.437879 2.393807 0.026438 -0.009017 -578458.000000 0 0 1
23.246436 -11.705213 -27.870415 38.133566 -0.466465 2.390382 0.025349 -0.006474 -165423.000000 0 0 1
22.587036 -12.903813 -27.684065 37.988025 -0.519044 2.387302 0.029712 -0.010953 200230.000000 0 0 1
23.438136 -14.001213 -28.438405 39.422368 -0.538483 2.376585 0.015625 0.009339 545147.000000 0 0 1
23.447036 -13.837113 -29.817465 40.377103 -0.533140 2.401602 0.026096 -0.001270 -564727.000000 0 0 1
24.353936 -14.621213 -30.452765 41.644507 -0.540687 2.390957 0.015911 0.007769 -840614.000000 0 0 1
24.174836 -14.639713 -31.982125 42.680209 -0.544510 2.417866 0.034540 -0.006494 -377741.000000 0 0 1
23.041336 -15.315213 -32.483295 42.668763 -0.586629 2.436096 0.034839 -0.000484 -105196.000000 0 0 1
23.017936 -15.745913 -33.837615 43.849097 -0.599955 2.452280 0.035588 0.000409 18872.600000 0 0 1
23.243636 -14.745813 34.067246 43.798206 -0.565332 0.679602 0.031063 -0.004718 819438.000000 0 0 1
22.144136 -13.790913 34.058064 42.901093 -0.557001 0.653643 0.029973 -0.002977 781570.000000 0 0 1
22.373036 -12.732613 33.151242 41.972336 -0.517393 0.660256 0.030493 -0.003422 -753889.000000 0 0 1
21.418436 -11.498613 33.229172 41.172143 -0.492696 0.631608 0.037113 -0.002391 836931.000000 0 0 1
20.025236 -11.741813 33.011966 40.356786 -0.530323 0.612866 0.030792 0.001895 774851.000000 0 0 1
19.714236 -12.174613 31.712508 39.275380 -0.553227 0.630997 0.021504 0.010581 -1753180.000000 0 0 1
18.284936 -12.676113 31.615528 38.659596 -0.606184 0.613232 0.021550 0.012205 -498316.000000 0 0 1
17.337136 -11.645013 31.460958 37.762077 -0.591466 0.586042 0.026270 0.004987 123433.000000 0 0 1
16.309936 -11.695113 32.452748 38.157182 -0.622080 0.553858 0.002887 0.011954 370232.000000 0 0 1
15.746836 -10.299213 32.894918 37.896072 -0.579217 0.519576 -0.001846 0.006729 20963.800000 0 0 1
14.908536 -9.755113 31.824818 36.472534 -0.579414 0.510359 0.006135 -0.001767 535097.000000 0 0 1
14.230836 -8.547813 32.052418 36.096250 -0.540900 0.477882 0.008727 0.001696 689045.000000 0 0 1
13.082736 -8.610613 33.144242 36.658443 -0.582094 0.441442 0.013957 -0.001264 -426633.000000 0 0 1
12.154236 -9.622813 32.779818 36.260729 -0.669675 0.441754 0.005396 0.002034 19138.700000 0 0 1
11.027536 -9.732213 33.628026 36.703769 -0.723083 0.412302 -0.004638 0.010887 876882.000000 0 0 1
9.851236 -8.770613 33.116052 35.646085 -0.727433 0.379031 -0.019160 0.013210 87508.300000 0 0 1
10.163636 -7.384613 33.303118 35.593956 -0.628338 0.360729 0.009493 0.003762 600653.000000 0 0 1
9.243136 -6.521113 32.602328 34.509017 -0.614414 0.333971 0.002025 0.005670 316939.000000 0 0 1
9.677436 -5.026913 32.678608 34.450167 -0.479084 0.322089 0.019561 0.003013 -21308.600000 0 0 1
9.589036 -4.408513 33.928631 35.532191 -0.430928 0.301574 0.007247 -0.003729 455314.000000 0 0 1
10.241636 -3.131713 33.834644 35.489180 -0.296753 0.306554 0.006064 -0.004923 -180336.000000 0 0 1
10.034436 -2.283813 -33.903035 35.430516 -0.223785 2.846888 0.000140 -0.005710 1251350.000000 0 0 1
8.670736 -1.831613 -33.668205 34.815004 -0.208180 2.884213 0.004080 0.004291 1285670.000000 0 0 1
8.657736 -0.985013 -32.552365 33.698414 -0.113285 2.880045 0.010454 -0.001544 -674173.000000 0 0 1
7.249036 -0.751413 -32.059435 32.877356 -0.103288 2.918067 0.032918 -0.000315 -613403.000000 0 0 1
6.505736 0.110987 -32.888215 33.525686 0.017058 2.946273 0.035491 -0.000267 -996705.000000 0 0 1
5.211136 0.381787 -32.534605 32.951513 0.073133 2.982351 0.046705 0.001140 -914318.000000 0 0 1
4.595736 1.467687 -33.474035 33.819904 0.309121 2.998454 0.032971 0.008957 -28755.000000 0 0 1
5.112636 2.787887 -33.334705 33.839532 0.499223 2.968645 0.036758 0.006791 -52697.600000 0 0 1
4.595636 3.546987 -34.377087 34.863808 0.657318 2.974301 0.025411 0.008092 52157.600000 0 0 1
5.376336 4.860187 34.461636 35.215490 0.735019 0.207286 0.030921 0.000792 -1602.110000 0 0 1
4.951136 5.648887 33.318419 34.154659 0.851129 0.221741 0.027603 -0.018682 -13589.700000 0 0 1
5.797536 6.730087 33.020996 34.194907 0.859701 0.262786 0.035142 -0.014602 -599464.000000 0 0 1
5.266536 7.697287 31.914608 33.249464 0.970749 0.284318 0.047172 -0.012161 804955.000000 0 0 1
4.073136 8.389887 32.416988 33.731910 1.118831 0.280134 0.044998 -0.010408 900771.000000 0 0 1
3.752336 9.638787 31.830348 33.468751 1.199552 0.314191 0.050903 -0.022881 -146304.000000 0 0 1
3.363536 9.615887 30.313658 31.979626 1.234309 0.324202 0.044941 -0.023511 -16244.400000 0 0 1
2.163636 8.886087 30.100688 31.459423 1.331958 0.294973 0.044747 -0.025314 -19223.800000 0 0 1
2.062936 8.660287 28.710168 30.058776 1.336948 0.300683 0.031216 -0.010816 47111.900000 0 0 1
0.707836 8.129887 28.210728 29.367350 1.483949 0.281588 0.033102 -0.009611 -117245.000000 0 0 1
-0.412564 8.896987 28.519328 29.877728 -1.524458 0.302701 0.039084 -0.010449 -378326.000000 0 0 1
-1.594564 8.503787 27.851498 29.164413 -1.385437 0.301196 0.045466 -0.008212 353224.000000 0 0 1
-2.914264 8.826787 28.560508 30.035108 -1.251903 0.314652 0.035890 -0.009361 -201065.000000 0 0 1
-3.144564 10.208487 28.750538 30.670750 -1.271985 0.355729 0.044512 -0.007316 -267223.000000 0 0 1
-4.324264 10.356487 29.502688 31.565245 -1.175260 0.363502 0.029950 -0.003454 -352386.000000 0 0 1
-4.602764 11.784987 29.993318 32.552580 -1.198453 0.399178 0.013370 -0.001322 -82244.000000 0 0 1
-4.911964 12.780387 28.978718 32.050457 -1.203866 0.441389 0.021086 -0.001477 208332.000000 0 0 1
-6.099664 12.706087 28.218398 31.542488 -1.123229 0.463226 0.018794 -0.004668 -121837.000000 0 0 1
-6.438464 14.036887 27.513368 31.551124 -1.140746 0.511472 0.012216 0.000474 -305330.000000 0 0 1
-5.459064 14.432387 26.602418 30.753598 -1.209179 0.525610 0.021643 0.005335 -225215.000000 0 0 1
-5.444864 15.799187 26.529768 31.354257 -1.238914 0.562115 -0.010403 0.009537 -530348.000000 0 0 1
-4.146064 16.308787 25.935278 30.916096 -1.321847 0.575551 0.012291 0.003687 -512530.000000 0 0 1
-4.018164 16.021587 24.541768 29.582685 -1.325068 0.592407 0.000438 0.014506 -66136.700000 0 0 1
-3.031864 16.876687 23.985018 29.483823 -1.393044 0.620655 0.005353 0.020226 153147.000000 0 0 1
-2.848364 16.799387 22.458158 28.190449 -1.402842 0.649050 0.002667 0.017666 -251458.000000 0 0 1
-2.259564 15.634687 21.989458 27.075548 -1.427268 0.622965 -0.011008 0.016311 -209651.000000 0 0 1
-2.112864 15.614487 20.557458 25.901457 -1.436299 0.653962 -0.015957 0.017791 -119229.000000 0 0 1
-1.294164 14.442287 19.985158 24.691315 -1.481426 0.627666 -0.010106 0.011356 -513256.000000 0 1 0
-1.790964 13.137387 20.035058 24.025029 -1.435306 0.584615 -0.005056 0.010941 -706387.000000 0 1 0
-1.017564 12.208187 19.327758 22.883127 -1.487638 0.564924 0.002405 0.008450 -488495.000000 0 1 0
-1.769364 10.891487 18.992458 21.965168 -1.409749 0.526318 -0.003506 -0.002698 -225607.000000 0 1 0
-1.837664 9.966787 20.101358 22.511740 -1.388465 0.466989 0.004467 -0.005380 684023.000000 0 1 0
-2.794464 10.284987 21.150058 23.683643 -1.305498 0.466776 0.016243 -0.003524 1297170.000000 0 1 0
-4.352764 10.209687 20.970058 23.726095 -1.167794 0.486789 0.019037 -0.002609 553429.000000 0 1 0
-4.743864 8.873287 20.865158 23.164505 -1.079835 0.449330 0.018465 -0.013134 -1343000.000000 0 1 0
-6.112364 8.822087 20.919458 23.511995 -0.964887 0.474031 0.021655 -0.011067 -1031190.000000 0 1 0
-6.837764 7.440387 20.997458 23.302524 -0.827579 0.448541 0.015525 -0.012042 11781.100000 0 1 0
-6.797064 6.811787 22.234958 24.227956 -0.786480 0.408445 0.020782 -0.011909 -125515.000000 0 1 0
-7.606264 5.667087 22.217058 24.157168 -0.640329 0.403511 0.019320 -0.013504 5763.000000 0 1 0
-7.801764 4.969887 23.579358 25.328905 -0.567197 0.373854 0.010631 -0.011408 -57757.800000 0 0 1
-8.603664 5.665587 24.513668 26.590258 -0.582333 0.397829 0.000240 -0.007406 81366.000000 0 0 1
-8.652164 4.958387 25.745058 27.608940 -0.520391 0.369550 0.001295 -0.001049 -164668.000000 0 0 1
-9.684964 5.481687 26.794598 29.013753 -0.515044 0.393654 -0.009989 0.005053 -176604.000000 0 0 1
-9.447164 6.770087 27.216088 29.593892 -0.621798 0.403602 -0.002323 0.001883 -178925.000000 0 0 1
-10.239964 7.099687 28.326058 30.945565 -0.606236 0.414417 -0.015808 0.006531 -147517.000000 0 0 1
-9.724064 8.322387 29.096048 31.786782 -0.707883 0.414419 -0.002328 0.002399 -29258.000000 0 0 1
-8.683664 7.966887 29.974278 32.207680 -0.742376 0.374594 0.003285 -0.003358 -228710.000000 0 0 1
-8.239464 9.111087 30.671068 33.039599 -0.835592 0.380949 0.007741 -0.007674 353663.000000 0 0 1
-7.213364 8.790487 31.818428 33.789312 -0.883627 0.343234 0.027007 -0.013247 -808065.000000 0 0 1
-6.001764 8.291787 31.451158 33.074918 -0.944262 0.314644 0.037762 -0.015087 -1598380.000000 0 0 1
-5.344164 7.795287 32.623368 33.964845 -0.969825 0.281989 0.051677 -0.016185 1174940.000000 0 0 1
-3.799164 7.561187 32.394428 33.481400 -1.105186 0.255508 0.021692 -0.007159 975718.000000 0 0 1
-3.137864 8.761587 32.201308 33.519186 -1.226889 0.281345 0.008703 -0.005823 -1098600.000000 0 0 1
-1.745364 8.688787 32.215158 33.411940 -1.372559 0.268458 0.017487 -0.010628 -298152.000000 0 0 1
-1.099064 10.048887 31.822408 33.389425 -1.461858 0.307582 0.021351 -0.007756 -20974.600000 0 0 1
-1.346764 11.161787 32.677668 34.557622 -1.450718 0.331364 0.020200 -0.015676 63136.300000 0 0 1
-1.463164 12.392687 32.022878 34.368361 -1.453274 0.371581 0.017137 -0.012760 -442056.000000 0 0 1
-1.747964 13.517387 32.979454 35.685004 -1.442198 0.391907 0.007071 -0.019344 -753250.000000 0 0 1
-0.631364 13.900887 33.753339 36.509193 -1.525409 0.391032 0.031993 -0.013714 -472631.000000 0 0 1
-0.916764 14.845987 -34.304633 37.390529 -1.509123 2.732466 0.027944 -0.015532 113450.000000 0 0 1
0.347936 15.434787 -33.620605 36.995929 1.548258 2.711111 0.015702 -0.015121 319848.000000 0 0 1
1.183536 16.223287 -34.479659 38.124043 1.497972 2.700785 0.031896 -0.016775 -377458.000000 0 0 1
2.303236 16.605887 -33.787555 37.718155 1.432976 2.681002 0.041145 -0.016308 -993072.000000 0 0 1
3.337636 17.427987 34.470000 38.769259 1.381577 0.475407 0.050826 -0.012759 -340652.000000 0 0 1
2.961836 18.771287 34.129697 39.063665 1.414301 0.508051 0.038470 -0.007491 46477.000000 0 0 1
4.019636 19.556687 33.579334 39.066522 1.368082 0.536423 0.019942 0.007995 74978.200000 0 0 1
3.836536 21.112087 33.531616 39.809653 1.391036 0.569263 0.023930 0.000365 -254798.000000 0 0 1
4.022336 21.646787 -34.151787 40.633818 1.387075 2.568959 0.039468 -0.006856 -28209.400000 0 0 1
3.560536 22.978387 -34.007535 41.197040 1.417067 2.541857 0.027679 -0.001563 58818.300000 0 0 1
3.773836 23.495887 -32.567285 40.335178 1.411540 2.510556 0.041558 -0.009111 -92947.500000 0 0 1
3.361236 24.847587 -32.400765 40.969624 1.436338 2.482990 0.041949 -0.016656 72283.900000 0 0 1
3.292536 25.166587 -31.033545 40.090882 1.440706 2.456057 0.046298 -0.017211 -299349.000000 0 0 1
2.528336 26.420987 -30.644365 40.540574 1.475393 2.427814 0.033900 -0.018259 -409910.000000 0 0 1
3.125836 27.616887 -31.054765 41.675673 1.458090 2.411561 0.025248 -0.016736 -169763.000000 0 0 1
2.564736 28.785287 -30.434195 41.969165 1.481932 2.382057 0.015524 -0.015447 -500611.000000 0 0 1
3.479436 29.991687 -30.162975 42.678013 1.455299 2.355700 0.012927 -0.013407 -89021.400000 0 0 1
4.517336 29.681687 -29.248795 41.915401 1.419763 2.343125 0.053744 -0.033641 320101.000000 0 0 1
5.190136 30.872687 -28.730265 42.491040 1.404240 2.313319 0.073113 -0.028524 -81071.200000 0 0 1
6.548036 30.620887 -28.056875 42.044069 1.360127 2.301402 0.089894 -0.049876 -307188.000000 0 0 1
7.541236 30.124587 -28.900325 42.421572 1.325502 2.320285 0.093280 -0.047474 -580663.000000 0 0 1
8.635336 30.889887 -29.298785 43.441604 1.298203 2.311003 0.094726 -0.045156 -139118.000000 0 0 1
8.312836 32.140887 -30.140005 44.839266 1.317705 2.307944 0.083584 -0.042418 -824092.000000 0 0 1
7.666736 33.147987 -29.353415 44.935408 1.343505 2.282647 0.073145 -0.038592 268679.000000 0 0 1
7.196136 34.320687 -30.091965 46.208444 1.364117 2.279990 0.068111 -0.028476 820015.000000 0 0 1
6.028936 34.110887 -31.146985 46.583638 1.395858 2.303154 0.030501 -0.009120 671636.000000 0 0 1
6.487436 33.543187 -32.390635 47.078503 1.379750 2.329544 0.030329 -0.010940 -10510.600000 0 0 1
5.329036 33.299587 -33.136125 47.278578 1.412109 2.347412 0.023795 -0.003545 -34389.400000 0 0 1
5.552436 32.781687 34.479550 47.898934 1.403013 0.767225 0.012496 0.007485 -903.949000 0 0 1
6.162536 33.732787 33.633337 48.032063 1.390102 0.795081 0.018801 -0.009338 3871.750000 0 0 1
6.467136 33.264587 32.364318 46.859425 1.378777 0.808384 0.005355 -0.013450 -551626.000000 0 0 1
5.378136 33.527587 31.309878 46.188006 1.411742 0.825923 -0.002629 -0.023599 27509.600000 0 0 1
5.299236 -34.260677 30.761288 46.347953 -1.417338 0.845037 -0.002423 -0.019608 -39352.400000 0 0 1
4.432836 -34.261377 29.642808 45.521292 -1.442128 0.861651 -0.000172 -0.028308 77512.900000 0 0 1
17.419793 -22.419713 29.429558 40.892439 -0.910247 0.767452 0.036262 0.003937 -746421.000000 0 0 1
16.554793 -21.322613 29.199228 39.765687 -0.910615 0.746188 0.021996 0.003110 728029.000000 0 0 1
15.187893 -21.502613 29.585888 39.602515 -0.955836 0.727152 0.018396 0.009100 858768.000000 0 0 1
14.834593 -21.666813 31.095148 40.699191 -0.970434 0.701270 0.000888 0.003295 -714157.000000 0 0 1
15.178193 -22.959913 31.558518 41.874517 -0.986676 0.717206 0.039428 -0.002761 128946.000000 0 0 1
14.624293 -23.239913 32.837798 42.805192 -1.009129 0.696417 0.022929 0.002397 -198365.000000 0 0 1
15.202093 -24.418313 33.622883 44.247665 -1.013947 0.707669 0.053096 -0.008051 -52836.300000 0 0 1
14.951693 -25.731993 33.135433 44.538135 -1.044424 0.731791 0.044350 -0.007613 -61397.300000 0 0 1
15.520893 -26.640403 34.100130 45.972035 -1.043264 0.735108 0.036025 -0.013446 154502.000000 0 0 1
15.278393 -28.224383 33.877851 46.666411 -1.074642 0.758370 0.034678 -0.008980 -413912.000000 0 0 1
16.098193 -28.791253 32.911678 46.596852 -1.060967 0.786529 0.032937 -0.012992 -358081.000000 0 0 1
15.601893 -29.969533 32.326478 46.761022 -1.090811 0.807492 0.036891 -0.005878 -359471.000000 0 0 1
16.514793 -30.528053 31.221668 46.685040 -1.074912 0.838240 0.054771 -0.007999 -34006.000000 0 0 1
17.660493 -31.203383 31.689658 47.851630 -1.055767 0.846981 0.056378 -0.018973 -198483.000000 0 0 1
18.307993 -31.798023 30.584488 47.767225 -1.048392 0.875931 0.038375 -0.008051 114862.000000 0 0 1
19.575493 -32.670313 30.882598 49.033500 -1.030978 0.889467 0.024775 -0.013360 -260446.000000 0 0 1
20.680393 -31.902733 31.170648 49.163730 -0.995665 0.884059 0.024613 -0.012751 -1013150.000000 0 0 1
21.878493 -32.636943 31.169758 50.153687 -0.980241 0.900160 0.027405 -0.012674 -398858.000000 0 0 1
23.019993 -31.616623 31.370778 50.136380 -0.941461 0.894756 0.021604 -0.014468 -367658.000000 0 0 1
23.648693 -31.183493 30.204378 49.436579 -0.921959 0.913508 0.015540 -0.003096 -250463.000000 0 0 1
24.435593 -30.026423 30.353348 49.193597 -0.887695 0.905848 0.007881 0.003166 -15412.400000 0 0 1
25.707993 -30.007443 29.496958 49.309411 -0.862414 0.929542 0.015841 0.008883 170143.000000 0 0 1
26.798193 -30.741723 30.033878 50.648104 -0.853827 0.936028 0.014522 0.007862 761019.000000 0 0 1
27.996293 -30.623553 29.238208 50.758913 -0.830187 0.956943 0.013620 -0.005874 733785.000000 0 0 1
29.162893 -31.447863 29.753198 52.198613 -0.823079 0.964291 0.009107 -0.001598 -317672.000000 0 0 1
28.837593 -32.846903 29.547708 52.759765 -0.850304 0.976359 0.001389 -0.005432 673248.000000 0 0 1
29.879993 -33.820063 29.831188 54.097231 -0.847173 0.986711 0.009600 -0.005488 -518005.000000 0 0 1
29.295893 33.925257 30.136158 54.012595 0.858493 0.978887 0.000287 -0.006510 -485690.000000 0 0 1
28.609293 33.787569 31.397558 54.276128 0.868198 0.953934 0.009585 -0.007525 -29081.200000 0 0 1
27.532193 -34.500778 31.744688 54.369574 -0.897266 0.947311 0.014776 -0.005918 -83587.900000 0 0 1
26.265193 34.431880 30.800828 53.142316 0.919143 0.952569 0.015010 -0.008169 -235915.000000 0 0 1
25.607293 33.234665 31.107438 52.229772 0.914304 0.932799 0.006749 -0.006973 -6155.550000 0 0 1
24.247693 33.308425 30.691698 51.374917 0.941541 0.930533 0.010203 -0.009151 859101.000000 0 0 1
23.455293 31.950851 30.833068 50.216389 0.937546 0.909673 0.030043 -0.015255 -206985.000000 0 0 1
23.554793 31.197011 29.638578 49.056366 0.924081 0.922068 0.024956 -0.016644 148073.000000 0 0 1
22.928393 29.935421 29.721818 48.012780 0.917179 0.903277 0.046146 -0.031484 -227222.000000 0 0 1
22.664593 29.409061 28.292948 46.680483 0.914199 0.919651 0.048490 -0.027758 -631055.000000 0 0 1
21.549693 29.980111 27.680038 46.145214 0.947564 0.927487 0.063696 -0.031519 -288023.000000 0 0 1
21.130593 29.317761 26.480418 44.802294 0.946284 0.938436 0.062070 -0.027774 -242550.000000 0 0 1
19.783293 29.883971 26.034748 44.297161 0.986029 0.942547 0.076142 -0.029524 -218864.000000 0 0 1
19.902493 31.250441 25.609098 45.039152 1.003706 0.965998 0.066090 -0.028229 -86986.400000 0 0 1
18.612793 31.812861 25.669168 44.915480 1.041426 0.962464 0.064385 -0.021323 -205287.000000 0 0 1
18.442793 33.181673 24.991828 45.450539 1.063501 0.988589 0.075790 -0.016494 -115109.000000 0 0 1
18.824893 33.331284 23.664958 45.004237 1.056675 1.017096 0.075393 -0.017365 -29595.100000 0 0 1
20.226993 33.508123 23.594358 45.701414 1.027701 1.028304 0.070417 -0.014788 -191155.000000 0 0 1
20.715793 33.745133 22.159958 45.375564 1.020226 1.060578 0.070525 -0.019749 -113285.000000 0 0 1
20.527693 -34.050090 21.683858 45.287796 -1.028271 1.071507 0.070709 -0.002512 79855.700000 0 0 1
21.097793 -33.895603 20.430058 44.848813 -1.014044 1.097827 0.075388 -0.011067 -128580.000000 0 0 1
20.872593 -32.449003 19.902858 43.413439 -0.999186 1.094547 0.047542 -0.005153 -11819.400000 0 0 1
21.548493 -31.408453 20.628658 43.317087 -0.969479 1.074440 0.043874 -0.001404 298433.000000 0 0 1
21.083193 -30.148583 20.140958 41.941581 -0.960534 1.069897 0.059889 -0.004802 -325400.000000 0 0 1
21.750993 -29.574813 18.891658 41.287649 -0.936668 1.095545 0.045282 -0.007779 -453128.000000 0 0 1
21.292593 -30.149573 17.660358 40.917716 -0.955900 1.124523 0.030094 -0.015961 260152.000000 0 0 1
21.753093 -29.436003 16.560958 40.173880 -0.934375 1.145894 0.020089 -0.009820 -341538.000000 0 0 1
21.263793 -29.997593 15.206558 39.789997 -0.954155 1.178653 0.015719 -0.008712 -134350.000000 0 0 1
21.623793 -31.360553 15.005058 40.941720 -0.967137 1.195554 0.011359 -0.005452 64889.300000 0 0 1
21.898893 -31.586683 13.593958 40.768563 -0.964584 1.230844 0.007570 -0.003620 -16464.600000 0 0 1
20.715193 -31.784293 12.597958 39.975856 -0.993197 1.250193 0.007836 -0.005751 -235360.000000 0 0 1
20.076393 -32.999083 12.783158 40.686732 -1.024229 1.251198 0.010317 -0.000661 -934313.000000 0 0 1
18.833193 -33.077893 12.179358 39.964646 -1.053212 1.261117 0.006395 0.019393 -577710.000000 0 0 1
17.806593 -33.768643 13.118558 40.366974 -1.085539 1.239803 0.013970 0.009610 -161366.000000 0 0 1
17.619293 -32.966293 14.250458 40.003644 -1.079959 1.206567 0.022654 0.008196 116260.000000 0 0 1
18.180493 -33.537803 15.441858 41.155383 -1.074047 1.186174 0.031383 -0.004640 -560218.000000 0 0 1
17.943093 -32.732063 16.739358 40.909029 -1.069351 1.149236 0.027135 -0.002468 174017.000000 0 0 1
16.614393 -32.455943 17.121558 40.281187 -1.097669 1.131778 0.022364 -0.000685 533897.000000 0 0 1
15.605193 -33.445023 17.365558 40.787917 -1.134230 1.131003 0.029645 0.001245 8491.240000 0 0 1
15.907593 -34.312701 18.667758 42.176986 -1.136685 1.112294 0.035615 -0.007104 -103584.000000 0 0 1
16.687793 33.625393 18.396658 41.804145 1.110125 1.115122 0.040514 -0.002765 187532.000000 0 0 1
17.151193 33.002541 19.587458 42.035695 1.091519 1.086063 0.043434 -0.007017 150686.000000 0 0 1
17.960193 31.714391 19.558758 41.363222 1.055517 1.078270 0.054819 -0.012034 52950.300000 0 0 1
17.140293 30.607961 19.234558 40.007563 1.060312 1.069260 0.031766 -0.011112 25104.100000 0 0 1
17.965693 29.567701 18.790458 39.371263 1.024798 1.073259 0.034191 -0.014365 -64071.300000 0 0 1
17.267593 28.214261 18.626558 37.962652 1.021588 1.057955 0.039583 -0.010355 -49432.900000 0 0 1
17.052993 27.541071 19.858958 37.995965 1.016390 1.020829 0.050608 -0.021208 -71540.200000 0 0 1
16.580193 26.253971 19.586158 36.712278 1.007514 1.008058 0.042792 -0.017324 -788283.000000 0 0 1
16.477993 25.372661 20.861658 36.749217 0.994816 0.967116 0.055965 -0.019993 526041.000000 0 0 1
15.323993 25.580961 21.711558 36.886340 1.031084 0.941462 0.055822 -0.019748 324901.000000 0 0 1
14.213593 24.884181 21.206458 35.650562 1.051830 0.933727 0.048235 -0.009700 -1056920.000000 0 0 1
12.961593 25.300481 21.945758 35.912860 1.097352 0.913368 0.035789 -0.017859 -597889.000000 0 0 1
12.257793 26.436391 21.527858 36.229614 1.136632 0.934518 0.037192 -0.017541 668908.000000 0 0 1
10.897993 26.474801 21.995458 36.103760 1.180299 0.915708 0.007351 -0.013785 535914.000000 0 0 1
10.048293 27.517031 21.316158 36.228908 1.220675 0.941750 -0.014209 -0.008223 -480913.000000 0 0 1
10.458693 28.817821 21.677558 37.546872 1.222654 0.955321 -0.006619 -0.005239 -122293.000000 0 0 1
10.332293 29.635921 20.559658 37.519910 1.235333 0.990865 -0.016974 -0.001197 -107947.000000 0 0 1
10.903393 31.080311 20.672658 38.887382 1.233397 1.010304 -0.014024 -0.004530 -149253.000000 0 0 1
10.327693 31.883431 21.731558 39.943398 1.257541 0.995529 -0.011574 -0.002041 -105516.000000 0 0 1
10.981393 31.786221 22.977258 40.729709 1.238157 0.971405 0.003664 0.001049 -505189.000000 0 0 1
10.349493 32.732191 23.962258 41.865238 1.264556 0.961407 -0.001986 0.001975 296850.000000 0 0 1
9.052393 32.317051 24.366978 41.473934 1.297684 0.942799 -0.018567 0.004287 -164220.000000 0 0 1
8.682793 33.116365 25.466338 42.668711 1.314378 0.931241 -0.013209 0.004247 -730015.000000 0 0 1
7.267593 32.950021 26.049298 42.627312 1.353708 0.913354 0.006444 -0.009756 -248704.000000 0 0 1
6.240393 33.622757 25.320948 42.550942 1.387284 0.933439 -0.005210 -0.012932 284472.000000 0 0 1
5.641993 32.993271 24.236468 41.325469 1.401430 0.944093 -0.009716 -0.017020 122796.000000 0 0 1
4.738593 31.742671 24.500218 40.377123 1.422609 0.918787 -0.017364 -0.019137 319198.000000 0 0 1
5.609393 30.681791 24.935888 39.932895 1.389969 0.896376 -0.022139 -0.011368 142908.000000 0 0 1
4.904893 29.480421 25.042268 38.990619 1.405929 0.873348 -0.032920 -0.009758 -589409.000000 0 0 1
5.878493 28.324481 25.368708 38.476022 1.366160 0.850858 -0.039192 0.000367 355970.000000 0 0 1
6.859393 27.940101 24.361648 37.698679 1.330054 0.868175 -0.033592 -0.003889 780838.000000 0 0 1
7.961293 28.810491 24.209698 38.464738 1.301191 0.890016 -0.014890 -0.008109 163869.000000 0 0 1
9.112293 28.497261 25.250798 39.150103 1.261311 0.869807 -0.012717 -0.013904 -186329.000000 0 0 1
8.780593 28.868191 26.565578 40.202005 1.275526 0.848909 -0.010519 -0.010313 96132.700000 0 0 1
9.852793 28.698021 27.468968 40.929184 1.240079 0.835059 0.009512 -0.008674 314891.000000 0 0 1
10.796293 29.903121 27.701438 42.167834 1.224318 0.854053 0.012586 -0.011607 308034.000000 0 0 1
10.100793 30.870311 28.480198 43.198655 1.254575 0.850930 0.012898 -0.003516 579708.000000 0 0 1
10.602693 32.214951 28.273878 44.154641 1.252840 0.875859 0.001762 0.005038 -115882.000000 0 0 1
9.916693 33.170110 29.281698 45.343300 1.280290 0.868755 0.014973 0.006316 -182602.000000 0 0 1
10.154793 33.111891 30.681048 46.269254 1.273221 0.845846 0.027641 -0.007745 -82665.000000 0 0 1
9.650093 31.996501 31.335388 45.812737 1.277874 0.817580 0.029860 0.000444 -561945.000000 0 0 1
10.049293 31.958441 32.822028 46.900061 1.266137 0.795638 0.035723 -0.013609 -259294.000000 0 0 1
9.803193 30.718381 33.355906 46.393297 1.261882 0.768461 0.028826 -0.013252 108908.000000 0 0 1
10.011493 30.621871 -34.270571 47.036167 1.254811 2.387073 0.051569 -0.014872 44161.600000 0 0 1
9.986993 29.111901 -33.860875 45.758077 1.240322 2.403863 0.045846 -0.009526 284027.000000 0 0 1
11.203793 28.482551 -34.253453 45.935604 1.196030 2.412357 0.041894 0.000795 260613.000000 0 0 1
11.153393 27.125601 -33.948865 44.863368 1.180693 2.429073 0.035052 -0.006435 -235994.000000 0 0 1
12.342893 26.290021 -34.439465 45.050959 1.131854 2.440993 0.026114 -0.009124 -159049.000000 0 0 1
12.257693 24.914831 -34.212610 44.062484 1.113582 2.459820 0.024788 -0.009053 -461203.000000 0 0 1
12.672393 24.479281 -32.921375 42.937649 1.093106 2.444521 0.027351 -0.005990 -62584.500000 0 0 1
12.568793 22.903251 -32.877705 41.993773 1.068892 2.470140 0.024844 -0.023567 486439.000000 0 0 1
13.635493 22.342451 -33.671505 42.648353 1.022841 2.480814 0.018340 -0.014291 508814.000000 0 0 1
13.770793 20.928651 -33.599795 41.911686 0.988826 2.500898 0.020651 -0.013511 -268310.000000 0 0 1
15.092093 20.401351 -34.169592 42.562277 0.933881 2.502796 0.025399 -0.019033 -587283.000000 0 0 1
16.179393 20.755151 -33.392415 42.515908 0.908658 2.474154 0.013297 -0.022069 -1088470.000000 0 0 1
17.323893 20.045651 -33.742785 42.901293 0.858103 2.475952 0.022558 -0.021080 -367355.000000 0 0 1
18.503093 20.234251 -32.753385 42.715028 0.830058 2.444619 0.017161 -0.019098 43055.400000 0 0 1
19.081793 21.545151 -32.920445 43.727154 0.845958 2.423194 0.010876 -0.014349 428429.000000 0 0 1
20.106793 21.960351 -32.011555 43.718186 0.829432 2.392380 0.013015 -0.013718 37309.200000 0 0 1
19.638293 22.256151 -30.625655 42.648910 0.847804 2.371847 -0.000716 -0.003119 -116677.000000 0 0 1
18.756693 23.366651 -30.584575 42.816237 0.894404 2.366451 -0.008515 -0.000061 -46135.100000 0 0 1
18.306893 23.747151 -29.314435 41.933347 0.914047 2.344895 -0.007927 0.014035 -528410.000000 0 0 1
19.351493 24.296731 -28.307745 42.025466 0.898215 2.309846 -0.015433 0.021732 -219080.000000 0 0 1
20.072293 25.453261 -28.765445 43.338392 0.903049 2.296605 -0.011947 0.019364 -125617.000000 0 0 1
19.392693 26.683621 -28.814125 43.798926 0.942333 2.288787 -0.015466 0.021183 -958788.000000 0 0 1
20.203593 27.841511 -29.517465 45.327868 0.943053 2.279960 -0.012050 0.022169 -594117.000000 0 0 1
20.383493 27.738971 -30.944995 46.287471 0.937073 2.303039 -0.002319 0.017610 -178139.000000 0 0 1
21.113893 26.657411 -31.444005 46.315650 0.900924 2.317069 0.004499 0.010426 -389381.000000 0 0 1
22.531593 26.329871 -30.951205 46.464092 0.862978 2.299806 0.017497 0.000479 -647655.000000 0 0 1
23.531593 27.253051 -31.275825 47.693206 0.858547 2.286000 0.023853 0.002217 259586.000000 0 0 1
24.828293 26.697141 -30.985335 47.846342 0.821653 2.275228 0.035796 -0.010264 207502.000000 0 0 1
25.896893 27.755701 -31.264755 49.178378 0.820030 2.259766 0.021263 -0.001985 -613977.000000 0 0 1
25.971893 28.857661 -30.345955 49.276574 0.837981 2.234234 0.014041 0.006725 806839.000000 0 0 1
26.981293 29.814901 -30.781035 50.639812 0.835248 2.224137 0.013983 0.003138 926596.000000 0 0 1
26.851393 31.071371 -29.866275 50.778162 0.858125 2.199593 0.010650 0.007523 -148684.000000 0 0 1
27.339093 30.874791 -28.575125 50.171869 0.846060 2.176748 0.018505 0.003609 -35555.000000 0 0 1
26.667293 31.593681 -27.551355 49.682817 0.869755 2.158612 0.010696 0.007747 -291986.000000 0 0 1
27.286793 31.448581 -26.143965 49.163901 0.856137 2.131487 0.015847 0.001455 -312451.000000 0 0 1
27.288393 30.112901 -25.605215 48.031971 0.834565 2.133041 0.011364 0.005065 372996.000000 0 0 1
26.017893 29.565711 -25.253925 46.784856 0.849140 2.140982 0.008427 0.005823 365699.000000 0 0 1
25.550293 29.787871 -23.762505 45.878005 0.861825 2.115249 0.008165 0.006921 -58160.200000 0 0 1
25.280693 31.172631 -23.494005 46.506071 0.889390 2.100389 0.009177 0.003725 -75902.800000 0 0 1
24.723793 31.419171 -22.259305 45.759227 0.904093 2.078812 0.005583 0.009281 71409.600000 0 0 1
2.889593 -26.388923 -19.751505 33.088472 -1.461731 2.210466 0.013280 0.008414 -373108.000000 0 0 1
2.790993 -27.596653 -18.952105 33.593856 -1.470004 2.170204 0.010025 0.007313 18937.300000 0 0 1
2.616993 -27.225583 -17.612905 32.531453 -1.474968 2.142911 0.018943 0.005730 -398218.000000 0 0 1
2.539693 -28.438153 -16.625305 33.039058 -1.481727 2.098096 0.011045 0.005614 412883.000000 0 0 1
3.777593 -28.991523 -16.164905 33.407825 -1.441226 2.075863 0.016518 0.008590 427283.000000 0 0 1
3.589793 -30.006033 -15.176805 33.816919 -1.451727 2.036211 0.010338 0.004007 748047.000000 0 0 1
5.015893 -30.505093 -14.769405 34.261570 -1.407827 2.016483 0.045457 0.003019 460091.000000 0 0 1
5.888193 -29.576813 -14.186005 33.327187 -1.374284 2.010486 0.022404 0.011332 -890124.000000 0 0 1
7.166393 -30.134573 -14.104005 34.034874 -1.337320 1.998078 0.032672 0.009486 -392640.000000 0 0 1
7.580093 -30.921603 -12.848505 34.332017 -1.330398 1.954376 0.021751 0.001014 -612049.000000 0 0 1
7.908193 -30.115463 -11.719105 33.268875 -1.313998 1.930775 0.014672 -0.008406 -75242.000000 0 0 1
7.898493 -30.840843 -10.440405 33.504415 -1.320080 1.887686 0.017952 -0.008587 712155.000000 0 0 1
9.112093 -31.823393 -10.173405 34.630287 -1.291925 1.868967 0.023899 -0.008496 7380.180000 0 0 1
10.282593 -31.179023 -9.821805 34.268514 -1.252236 1.861486 0.028902 -0.007918 -1028450.000000 0 0 1
11.285993 -32.149033 -9.710105 35.429085 -1.233184 1.848420 0.031269 -0.010419 -53762.300000 0 0 1
12.543593 -31.726653 -8.901205 35.258385 -1.194292 1.826014 0.028050 -0.010692 433700.000000 0 0 1
13.448293 -30.849263 -9.577905 34.989568 -1.159700 1.848072 0.024213 -0.016251 221672.000000 0 0 1
14.558593 -30.587983 -8.764005 34.991215 -1.126567 1.823955 0.023705 -0.017241 150815.000000 0 0 1
15.700593 -29.744463 -9.439005 34.933315 -1.085118 1.844398 0.035393 -0.021355 296055.000000 0 0 1
15.476793 -28.383433 -9.698105 33.752091 -1.071588 1.862238 0.025237 -0.022021 -61753.600000 0 0 1
14.745993 -28.122663 -10.877805 33.565684 -1.087863 1.900830 0.012542 -0.016397 -159742.000000 0 0 1
14.486893 -26.662343 -11.122605 32.318152 -1.073076 1.922140 0.010246 -0.010769 -694264.000000 0 0 1
13.518093 -26.140073 -10.226405 31.154801 -1.093530 1.905241 0.008337 -0.015112 260312.000000 0 0 1
13.154493 -24.782613 -10.406705 29.925208 -1.082817 1.925974 0.010801 -0.012908 -133984.000000 0 0 1
12.572193 -24.363813 -11.788105 29.843171 -1.094416 1.976866 0.006292 -0.010287 -682570.000000 0 0 1
13.483893 -24.101513 -12.797605 30.438084 -1.060717 2.004734 0.009152 -0.014452 -281219.000000 0 0 1
12.778793 -23.679813 -13.977105 30.321454 -1.075935 2.049878 0.009487 -0.013999 392601.000000 0 0 1
13.706393 -23.079913 -15.075505 30.786660 -1.034899 2.082515 0.011174 -0.011352 12406.500000 0 0 1
14.467393 -23.947413 -15.822005 32.142182 -1.027344 2.085470 0.014173 -0.012893 -169430.000000 0 0 1
15.110793 -23.309513 -16.925705 32.529201 -0.995640 2.118026 0.020814 -0.014832 -191413.000000 0 0 1
15.870293 -24.369313 -17.869705 34.132916 -0.993549 2.121789 0.017526 -0.010348 1532840.000000 0 0 1
17.166093 -24.787413 -17.381205 34.802254 -0.965100 2.093734 0.027770 -0.010972 907478.000000 0 0 1
18.225393 -23.839613 -17.561305 34.769117 -0.918079 2.100275 0.031257 -0.013880 -233853.000000 0 0 1
19.519193 -24.426313 -16.937905 35.560319 -0.896601 2.067255 0.019124 -0.010971 260262.000000 0 0 1
20.139193 -25.313633 -17.885005 36.962691 -0.898752 2.075864 0.029625 -0.008738 -296568.000000 0 0 1
21.190993 -26.058123 -17.339105 37.798525 -0.888046 2.047355 0.044779 -0.010057 3074.600000 0 0 1
21.911293 -27.084663 -18.258805 39.332781 -0.890596 2.053543 0.052456 -0.012517 117691.000000 0 0 1
22.630893 -26.326003 -19.247005 39.694621 -0.860732 2.077019 0.045691 -0.006283 -15306.000000 0 0 1
23.140493 -27.045793 -20.306805 40.979552 -0.863058 2.089247 0.040475 -0.004719 -626693.000000 0 0 1
24.244993 -26.305423 -21.025505 41.495383 -0.826136 2.102143 0.024156 -0.006832 -514932.000000 0 0 1
23.835893 -25.194243 -21.723805 40.924606 -0.813095 2.130370 0.012704 0.000221 -691003.000000 0 0 1
24.738193 -24.171313 -21.547705 40.749652 -0.773808 2.127962 0.003568 -0.003324 -945476.000000 0 0 1
24.104693 -22.782013 -21.495905 39.523794 -0.757196 2.145841 -0.001159 0.002962 -202731.000000 0 0 1
23.651193 -22.132213 -22.683205 39.544172 -0.752233 2.181711 -0.003090 0.018334 319274.000000 0 0 1
22.696993 -22.798313 -23.488405 39.832420 -0.787625 2.201460 -0.018509 0.017387 -759432.000000 0 0 1
22.103093 -21.884913 -24.610705 39.663370 -0.780438 2.240163 -0.025521 0.015654 -611066.000000 0 0 1
22.933693 -21.390913 -25.619255 40.495329 -0.750606 2.255763 -0.027238 0.018799 -680842.000000 0 0 1
22.278293 -20.418113 -26.383585 40.116271 -0.741858 2.288528 -0.027845 0.017916 -224860.000000 0 0 1
22.920593 -20.041213 -27.716775 41.173091 -0.718476 2.309293 -0.022225 0.018774 105680.000000 0 0 1
22.176593 -19.005513 -28.358265 40.708746 -0.708548 2.341463 -0.017510 0.017893 433464.000000 0 0 1
22.766293 -18.777513 -29.615325 41.808690 -0.689678 2.357959 -0.004753 0.015173 48885.900000 0 0 1
22.006593 -17.700313 -30.433735 41.518712 -0.677369 2.393537 0.027422 0.012270 95793.500000 0 0 1
20.785793 -18.206213 -30.926495 41.472442 -0.719338 2.412399 0.018814 0.003054 144843.000000 0 0 1
19.814993 -17.240913 -31.278515 40.843953 -0.716045 2.443089 0.018689 0.002744 417245.000000 0 0 1
18.499593 -17.867113 -31.795035 40.894901 -0.768008 2.461448 0.008636 0.008187 -7723.180000 0 0 1
18.728893 -18.429313 -33.021215 42.199664 -0.777336 2.469466 0.013084 0.008277 -180595.000000 0 0 1
17.622793 -19.075013 -33.561985 42.436138 -0.824950 2.483046 -0.001392 -0.000175 -860641.000000 0 0 1
17.935693 -19.656913 34.034630 43.202307 -0.831152 0.663573 0.018329 0.000344 -173072.000000 0 0 1
18.848793 -20.723613 34.074942 44.111753 -0.832740 0.688077 0.018246 -0.002254 -14826.700000 0 0 1
18.567393 -21.673713 33.048002 43.665413 -0.862438 0.712322 0.020804 -0.008346 22814.800000 0 0 1
19.285893 -23.006413 33.270465 44.812549 -0.873144 0.734096 0.016891 0.002153 -56962.300000 0 0 1
18.700393 -23.855213 34.253726 45.739410 -0.905942 0.724413 0.017441 -0.003381 237050.000000 0 0 1
18.943793 -23.513213 -33.434955 45.051467 -0.892610 2.407069 0.018123 -0.002076 151729.000000 0 0 1
18.015893 -24.354413 -32.499525 44.428920 -0.933895 2.391308 0.021073 -0.005561 131456.000000 0 0 1
18.405793 -25.688523 -32.458715 45.301673 -0.949083 2.369570 0.023397 -0.013394 360752.000000 0 0 1
19.403093 -26.036433 -31.498475 45.238587 -0.930356 2.340990 0.019299 -0.010261 375428.000000 0 0 1
19.740893 -27.549243 -31.508945 46.276098 -0.949038 2.319774 0.021391 -0.012392 142153.000000 0 0 1
18.654993 -28.294013 -31.004445 45.932946 -0.987893 2.311752 0.024454 -0.018915 -109765.000000 0 0 1
18.997893 -29.639583 -30.994685 46.905174 -1.000800 2.292673 0.021335 -0.012761 -349493.000000 0 0 1
17.993493 -30.633443 -30.357155 46.730402 -1.039707 2.277885 0.028988 -0.014538 764538.000000 0 0 1
16.684493 -30.852893 -30.870395 46.725310 -1.075063 2.292518 0.030437 -0.012995 168639.000000 0 0 1
16.672893 -31.234063 -32.242775 47.886831 -1.080472 2.309476 0.034296 -0.017699 -57010.900000 0 0 1
15.365193 -31.887693 -32.820175 48.270881 -1.121771 2.318445 0.040054 -0.025089 309685.000000 0 0 1
14.353393 -31.027333 -33.183285 47.642897 -1.137510 2.341305 0.046824 -0.023450 -1045360.000000 0 0 1
13.127393 -31.664923 -33.417935 47.872269 -1.177791 2.343487 0.014741 -0.014366 -131800.000000 0 0 1
12.178993 -30.783983 -34.232327 47.621777 -1.194065 2.372925 0.006939 -0.009463 -62236.200000 0 0 1
11.680193 -29.660343 -33.475535 46.225256 -1.195648 2.380645 0.012543 -0.013781 256812.000000 0 0 1
10.785493 -28.878153 -34.277916 46.100435 -1.213356 2.409158 -0.010245 0.000469 196356.000000 0 0 1
9.941793 -27.867323 -33.461295 44.666377 -1.228117 2.417557 -0.004787 0.000492 71021.200000 0 0 1
8.928693 -28.553713 -32.781455 44.380850 -1.267731 2.401846 0.007124 -0.008377 -804010.000000 0 0 1
8.042593 -27.794293 -32.029195 43.163357 -1.289128 2.406914 0.000314 -0.012017 -645193.000000 0 0 1
7.070093 -28.556033 -31.146975 42.843521 -1.328090 2.384730 0.003919 -0.003956 -377726.000000 0 0 1
6.140293 -29.333163 -31.889085 43.761300 -1.364447 2.387226 -0.013994 0.007714 -367883.000000 0 0 1
6.577893 -30.404713 -32.711775 45.141726 -1.357735 2.381317 0.003500 0.006094 -241330.000000 0 0 1
5.434793 -31.264533 -33.371295 46.050530 -1.398684 2.381347 0.027482 0.004160 344373.000000 0 0 1
4.576993 -31.882373 -32.473815 45.738203 -1.428212 2.360285 0.023199 -0.002947 -640420.000000 0 0 1
3.367493 -32.217553 -33.085595 46.302995 -1.466651 2.366771 0.030347 -0.004070 -213989.000000 0 0 1
2.237193 -32.629833 -32.124925 45.844540 -1.502341 2.347225 0.004623 0.009770 -13264.700000 0 0 1
1.509093 -31.555893 -31.565215 44.658869 -1.523010 2.355771 -0.015168 0.018808 305236.000000 0 0 1
0.180193 -32.001193 -31.278325 44.748658 -1.565166 2.344764 -0.022833 0.034638 392335.000000 0 0 1
-0.646907 -30.807323 -30.788265 43.559464 1.549801 2.355775 -0.025450 0.027591 -127158.000000 0 0 1
-1.498907 -31.012063 -29.660635 42.938887 1.522501 2.333341 -0.024346 0.027940 196740.000000 0 0 1
-2.007507 -29.727083 -29.220595 41.732154 1.503367 2.346465 -0.020550 0.026560 -61766.600000 0 0 1
-2.745007 -29.828303 -27.897355 40.933179 1.479028 2.320653 -0.012546 0.023961 -608837.000000 0 0 1
-1.928007 -30.182463 -26.813805 40.418788 1.507005 2.296149 -0.019529 0.028649 -404825.000000 0 0 1
-2.580207 -30.181723 -25.569015 39.640489 1.485515 2.271849 -0.002957 0.015662 230915.000000 0 0 1
-1.546407 -30.334263 -24.387705 38.952780 1.519862 2.247317 -0.014454 0.021664 276097.000000 0 0 1
-1.975807 -30.495133 -23.063305 38.285415 1.506096 2.217306 0.016342 0.007991 -635036.000000 0 0 1
-1.016607 -31.140093 -22.270205 38.297531 1.538162 2.191374 0.017785 0.011850 151397.000000 0 0 1
-1.546307 -31.260123 -20.796505 37.577666 1.521371 2.157270 -0.003542 0.020533 257149.000000 0 0 1
-1.734307 -30.036213 -20.088005 36.176095 1.513120 2.159501 -0.008794 0.016466 588223.000000 0 0 1
-0.472507 -29.489673 -19.681705 35.457490 1.554775 2.159254 0.008637 0.006469 329906.000000 0 0 1
-0.612607 -28.091703 -19.072905 33.960194 1.548992 2.167145 0.002427 0.003613 -187529.000000 0 0 1
-1.312007 -27.941503 -17.830505 33.171914 1.523875 2.138287 0.002617 -0.000826 258961.000000 0 0 1
-1.273307 -26.629823 -17.304405 31.783820 1.523018 2.146518 0.000489 -0.000890 -95149.200000 0 0 1
-2.137207 -26.392703 -16.044405 30.960707 1.489995 2.115563 -0.002049 0.000044 -132998.000000 0 0 1
-2.243507 -25.034363 -15.571105 29.567076 1.481418 2.125436 0.000490 0.000961 97387.600000 0 0 1
-3.087707 -24.997993 -14.438105 29.032610 1.447901 2.091288 -0.001827 0.005030 -27372.600000 0 0 1
-2.973307 -23.693413 -13.551905 27.456739 1.445958 2.086990 0.003522 0.003409 -961079.000000 0 0 1
-1.763907 -23.805113 -12.907305 27.136567 1.496834 2.066491 -0.002584 0.005723 -981044.000000 0 0 1
-1.507107 -22.639313 -12.205605 25.764057 1.504324 2.064335 0.004099 0.003100 -793920.000000 0 0 1
-0.164607 -22.709413 -11.530905 25.469713 1.563548 2.040621 -0.001707 0.006926 -636669.000000 0 0 1
0.222293 -21.403713 -10.983105 24.058199 -1.560411 2.044879 0.000935 0.003523 -111231.000000 0 1 0
1.397393 -21.524313 -10.215205 23.866277 -1.505966 2.013095 -0.006762 0.004647 123795.000000 0 1 0
1.923093 -20.153613 -9.696405 22.447420 -1.475663 2.017462 0.007296 0.004291 -1190280.000000 0 1 0
2.479593 -19.318413 -10.735205 22.239471 -1.443140 2.074542 0.007482 0.009494 195732.000000 0 1 0
3.341593 -18.286413 -10.320205 21.261838 -1.390054 2.077601 0.007615 0.008006 -369924.000000 0 1 0
4.667293 -18.798813 -9.782905 21.699867 -1.327441 2.038489 0.016512 0.001152 -1403230.000000 0 1 0
4.481093 -19.280713 -8.478805 21.534071 -1.342437 1.975492 0.010280 -0.001544 -189466.000000 0 1 0
5.538793 -20.153513 -8.138805 22.429500 -1.302588 1.942133 0.016077 -0.001203 -79294.200000 0 1 0
5.084793 -21.229813 -7.095005 22.954284 -1.335713 1.885035 0.019904 -0.002595 -232578.000000 0 1 0
4.266093 -22.145813 -7.760405 23.850796 -1.380491 1.902202 0.010369 -0.003040 -290852.000000 0 1 0
3.860893 -23.132813 -6.862205 24.436108 -1.405420 1.855447 0.009583 -0.002673 -17629.400000 0 1 0
2.778093 -24.070913 -7.436705 25.346227 -1.455892 1.868583 -0.001396 -0.002541 29417.500000 0 0 1
3.260393 -24.878413 -8.520305 26.498324 -1.440486 1.898153 0.002755 -0.000492 -600339.000000 0 0 1
2.295393 -25.591273 -9.197705 27.290655 -1.481341 1.914554 -0.011765 0.003263 -478531.000000 0 0 1
2.851693 -26.354053 -10.435505 28.488033 -1.463009 1.945839 -0.007988 0.003461 -195360.000000 0 0 1
3.502693 -27.527293 -10.086205 29.525451 -1.444232 1.919426 -0.007730 0.003663 -336753.000000 0 0 1
3.950593 -28.151273 -11.255405 30.574262 -1.431372 1.947797 0.002440 0.006540 116119.000000 0 0 1
4.163993 -29.621763 -11.185105 31.935783 -1.431139 1.928621 0.010763 0.001962 -12927.600000 0 0 1
2.941293 -30.311063 -11.244905 32.463204 -1.474062 1.924516 0.019916 0.006490 61950.800000 0 0 1
3.181593 -31.701713 -11.192705 33.769776 -1.470771 1.908627 0.026822 0.001226 464923.000000 0 0 1
1.891393 -32.495533 -11.570705 34.545886 -1.512657 1.912335 0.019328 -0.007063 272487.000000 0 0 1
1.416093 -32.320373 -12.865805 34.815812 -1.527010 1.949309 0.022161 -0.009507 135815.000000 0 0 1
0.764593 -33.498103 -13.279805 36.042485 -1.547975 1.948136 0.029283 -0.007929 -310479.000000 0 0 1
0.491393 -33.400333 -14.787605 36.530767 -1.556085 1.987555 0.036825 -0.005111 18708.400000 0 0 1
-0.438507 -32.383663 -15.102405 35.734809 1.557256 2.007136 0.025452 -0.002993 72750.600000 0 0 1
-0.843907 -32.457803 -16.457705 36.401610 1.544802 2.039931 0.009698 -0.001716 445916.000000 0 0 1
-1.998707 -31.457073 -16.802605 35.719320 1.507344 2.060548 0.006147 0.004337 -361866.000000 0 0 1
-3.184907 -31.696263 -16.159905 35.720292 1.470650 2.040252 0.007737 0.000517 -1183110.000000 0 0 1
-4.260307 -31.070163 -16.804105 35.579252 1.434527 2.062695 0.006010 0.006546 702590.000000 0 0 1
-5.675607 -31.305493 -16.182205 35.694680 1.391447 2.041317 0.007687 -0.003402 635055.000000 0 0 1
-6.097307 -30.268303 -15.241505 34.433280 1.372015 2.029336 -0.007082 -0.004842 912645.000000 0 0 1
-7.408507 -30.436063 -14.658305 34.584763 1.332028 2.008474 0.018344 -0.008746 928002.000000 0 0 1
-7.662407 -31.579753 -13.636505 35.241276 1.332760 1.968115 -0.000059 -0.011415 -168995.000000 0 0 1
-7.805307 -32.883473 -14.238405 36.673939 1.337747 1.969521 0.007355 -0.011025 106145.000000 0 0 1
-8.573707 -33.748383 -13.394505 37.307835 1.322011 1.938021 0.009421 -0.006037 359772.000000 0 0 1
-8.888607 34.084006 -14.216705 37.984754 -1.315693 1.954410 0.032374 -0.007683 -363991.000000 0 0 1
-7.794007 33.242773 -14.311805 37.022375 -1.340499 1.967708 0.019137 -0.006863 -452168.000000 0 0 1
-8.165807 32.082371 -15.040105 36.361569 -1.321562 1.997230 0.031128 -0.004772 -105370.000000 0 0 1
-7.682707 -22.000113 -3.307605 23.536551 1.234824 1.711794 0.039672 -0.011387 179086.000000 0 1 0
-7.478507 -20.904913 -4.122305 22.581782 1.227244 1.754376 0.031387 -0.017590 -142504.000000 0 1 0
-6.215307 -21.064613 -4.726505 22.465258 1.283879 1.782772 0.020999 -0.012143 -4604.830000 0 1 0
-6.043507 -20.040113 -5.855005 21.735022 1.277899 1.843547 0.014020 -0.015640 204883.000000 0 1 0
-6.799507 -20.329713 -7.026205 22.558770 1.248031 1.887528 0.015912 -0.009849 -153816.000000 0 1 0
-7.014207 -19.256913 -7.876205 21.955920 1.221489 1.937701 0.008803 -0.011699 -320109.000000 0 1 0
-7.981807 -19.546513 -9.025405 22.961563 1.183113 1.974760 0.015196 -0.015872 99309.800000 0 1 0
-7.331007 -20.202513 -10.097305 23.745331 1.222697 2.010016 0.017765 -0.004441 232049.000000 0 1 0
-8.257707 -20.460213 -11.150105 24.721142 1.187192 2.038721 0.024052 -0.002367 428578.000000 0 1 0
-7.624707 -21.379513 -12.252905 25.794445 1.228222 2.065784 0.025208 -0.000164 328545.000000 0 0 1
-6.727707 -20.663113 -13.106205 25.377133 1.256031 2.113505 0.030782 0.000660 -116894.000000 0 0 1
-6.362607 -21.490913 -14.191005 26.527848 1.282958 2.135242 0.020142 0.002079 -310785.000000 0 0 1
-5.374807 -20.819113 -15.144405 26.299753 1.318146 2.184425 0.015042 0.006714 -605358.000000 0 0 1
-4.088207 -20.721613 -14.568705 25.658251 1.376006 2.174625 0.011069 0.001160 -550298.000000 0 0 1
-3.192507 -20.168013 -15.469305 25.617187 1.413803 2.219137 0.014622 0.007683 -473806.000000 0 0 1
-3.092607 -18.604113 -15.544005 24.439585 1.406070 2.260123 0.026837 0.005717 -429810.000000 0 1 0
-4.237807 -18.037513 -16.159805 24.585569 1.340037 2.288011 0.023637 0.003730 -834.627000 0 1 0
-4.271007 -18.178413 -17.584705 25.649913 1.340032 2.326177 0.023565 0.006241 -702604.000000 0 0 1
-5.641507 -17.889313 -18.215005 26.146520 1.265311 2.341515 0.028651 0.008487 623544.000000 0 0 1
-6.597607 -18.927713 -17.861105 26.847827 1.235397 2.298654 0.028060 0.014158 679514.000000 0 0 1
-7.904907 -18.714513 -18.360605 27.383067 1.171135 2.305692 0.026112 0.010063 -178962.000000 0 0 1
-8.958607 -19.660613 -17.869305 28.037625 1.143243 2.261829 0.016644 0.000151 -384473.000000 0 0 1
-8.501307 -20.991613 -18.146105 29.020702 1.185999 2.246288 0.011572 0.004277 -56902.400000 0 0 1
-9.266007 -21.929613 -17.534005 29.567011 1.171016 2.205608 0.016983 -0.004773 -344321.000000 0 0 1
-8.713507 -23.351713 -17.867205 30.666997 1.213655 2.192745 0.013420 -0.003020 -755890.000000 0 0 1
-8.794007 -23.695313 -19.244305 31.767054 1.215424 2.221560 0.003731 -0.006409 302769.000000 0 0 1
-7.911807 -24.716613 -19.725005 32.597292 1.261002 2.220703 0.010551 -0.010089 -941871.000000 0 0 1
-6.437607 -24.400213 -19.654305 31.986011 1.312840 2.232505 0.019393 -0.002180 -1929080.000000 0 0 1
-6.021607 -23.379613 -20.497005 31.670069 1.318717 2.274708 0.025453 -0.000054 -99798.100000 0 0 1
-5.821207 -22.057113 -20.016005 30.348693 1.312764 2.290995 0.021463 0.000538 -500447.000000 0 0 1
-4.720907 -21.946013 -18.969105 29.389478 1.358911 2.272394 0.027604 0.009698 389170.000000 0 0 1
-3.459107 -22.490213 -19.421405 29.915984 1.418187 2.277326 0.019236 0.005657 856670.000000 0 0 1
-2.541807 -22.628713 -18.335505 29.235427 1.458939 2.248707 0.005220 0.005989 -175828.000000 0 0 1
-1.186407 -23.209613 -18.691005 29.823604 1.519724 2.248131 0.016349 -0.001982 -300105.000000 0 0 1
-0.435707 -22.450713 -19.615805 29.816173 1.551391 2.288812 0.018492 0.003971 -164972.000000 0 0 1
0.792093 -23.099813 -19.895905 30.497144 -1.536520 2.281525 0.010021 0.000844 73797.600000 0 0 1
1.679793 -22.416113 -20.934205 30.717174 -1.495999 2.320627 0.020392 0.001944 -92840.500000 0 0 1
1.247593 -22.469213 -22.281505 31.668399 -1.515329 2.351230 0.018394 -0.006693 -268849.000000 0 0 1
0.879493 -21.202313 -22.783605 31.135257 -1.529339 2.391700 0.022013 0.000325 3079.330000 0 0 1
0.310893 -21.291513 -24.207305 32.240018 -1.556196 2.420139 0.026128 -0.000488 249672.000000 0 0 1
-0.168007 -20.160313 -24.943905 32.072805 1.562463 2.461839 0.026140 0.002516 -67289.700000 0 0 1
-1.543407 -19.895913 -24.782805 31.818499 1.493377 2.463675 0.029520 0.001958 85226.200000 0 0 1
-2.143107 -18.667313 -25.510455 31.683510 1.456491 2.506750 0.014594 0.006107 39483.000000 0 0 1
-1.617607 -17.463513 -25.000005 30.538356 1.478432 2.529840 0.036515 0.008554 -36581.000000 0 0 1
-2.077907 -16.289913 -25.641895 30.449725 1.443924 2.571973 0.026872 0.004593 115423.000000 0 0 1
-1.321107 -14.950113 -25.240095 29.365177 1.482658 2.605135 0.025725 0.006442 54363.900000 0 0 1
-0.046907 -14.751113 -25.811015 29.728875 1.567616 2.622387 0.023741 -0.003019 -268572.000000 0 0 1
0.610493 -13.616913 -25.303045 28.740861 -1.525993 2.647471 0.022226 -0.006845 142837.000000 0 0 1
0.181793 -12.258913 -25.942065 28.693287 -1.555968 2.700103 0.016571 -0.004699 -268695.000000 0 0 1
0.958793 -11.198013 -25.466975 27.836695 -1.485383 2.725984 0.012755 -0.002309 59272.400000 0 0 1
0.588793 -10.001513 -26.161465 28.014268 -1.511994 2.775861 0.016983 -0.001781 -154086.000000 0 0 1
1.613093 -8.841713 -25.979785 27.490493 -1.390340 2.808532 0.029069 -0.010805 1193590.000000 0 0 1
2.960693 -8.977013 -26.476585 28.113378 -1.252222 2.798679 0.025693 -0.009713 819013.000000 0 0 1
3.049493 -9.054313 -27.901445 29.491874 -1.245929 2.811685 0.028830 -0.007712 -64912.400000 0 0 1
4.514693 -8.723113 -28.317305 29.972402 -1.093203 2.807717 0.010595 -0.003695 -153596.000000 0 0 1
4.733393 -7.347913 -28.358625 29.675047 -0.998522 2.842617 0.007668 -0.013447 566033.000000 0 0 1
5.987793 -6.853613 -28.854055 30.255283 -0.852720 2.836059 0.019260 -0.009532 626049.000000 0 0 1
7.200193 -6.963113 -27.869175 29.614500 -0.768661 2.796562 0.019250 -0.011378 -139596.000000 0 0 1
7.664293 -8.252713 -27.480635 29.699056 -0.822349 2.752631 0.009067 -0.011546 343245.000000 0 0 1
8.433393 -8.947613 -28.448725 30.992125 -0.814975 2.733637 0.007647 -0.010924 -396368.000000 0 0 1
8.874793 -10.386013 -28.187625 31.323688 -0.863699 2.690295 0.013482 -0.006336 119773.000000 0 0 1
7.789393 -11.287913 -28.238425 31.392678 -0.966769 2.689472 0.014295 -0.009462 28455.900000 0 0 1
7.943693 -12.326913 -27.272185 30.964934 -0.998355 2.648228 0.021926 -0.005745 109649.000000 0 0 1
8.921393 -13.454713 -27.687615 32.050344 -0.985289 2.613717 0.028481 -0.010556 -145544.000000 0 0 1
8.410793 -14.231313 -28.765935 33.177563 -1.037016 2.620006 0.038338 -0.018876 -79549.600000 0 0 1
9.333693 -15.208913 -29.226905 34.243844 -1.020365 2.593450 0.022583 -0.021075 -59105.600000 0 0 1
8.772693 -16.158613 -30.267005 35.414016 -1.073412 2.595695 0.023693 -0.025213 -217159.000000 0 0 1
8.771693 -15.560513 -31.543555 36.250076 -1.057484 2.626334 0.020192 -0.016545 405958.000000 0 0 1
7.757493 -16.128213 -32.359915 36.979211 -1.122473 2.636406 0.029776 -0.021171 157739.000000 0 0 1
6.590693 -15.204513 -32.782075 36.732532 -1.161774 2.673551 0.025310 -0.010675 162854.000000 0 0 1
6.935093 -14.305713 -33.763815 37.319487 -1.119400 2.701526 0.015704 -0.005648 639619.000000 0 0 1
5.717593 -13.745313 -34.260199 37.354862 -1.176602 2.731678 -0.005543 -0.012303 862231.000000 0 0 1
6.093293 -12.568313 33.874808 36.641415 -1.119371 0.391087 0.016752 -0.001823 152317.000000 0 0 1
6.736493 -12.945913 32.646948 35.760316 -1.090996 0.420370 0.005218 0.003263 124869.000000 0 0 1
7.052893 -11.782213 31.969918 34.794245 -1.031403 0.405696 0.006656 -0.006909 -475503.000000 0 0 1
7.729193 -11.913213 30.609588 33.743324 -0.995271 0.434382 -0.005532 -0.000149 -662706.000000 0 0 1
6.933293 -12.290713 29.568498 32.763215 -1.057186 0.445279 -0.001401 0.002841 -578459.000000 0 0 1
7.440793 -11.887213 28.352928 31.631626 -1.011515 0.459335 -0.017127 -0.003341 -222201.000000 0 0 1
6.672393 -12.489413 27.151568 30.622115 -1.080130 0.480713 -0.005480 -0.006971 -46784.400000 0 0 1
6.917093 -13.910913 26.987408 31.139683 -1.109357 0.522335 0.001644 -0.006783 6041.600000 0 0 1
6.425193 -14.489513 25.786778 30.268581 -1.153413 0.551132 0.005700 -0.005992 384472.000000 0 0 1
4.931993 -14.961813 25.785378 30.216984 -1.252375 0.548437 0.000730 -0.016036 649544.000000 0 0 1
4.023793 -13.872313 25.619428 29.410662 -1.288484 0.513372 -0.011403 -0.017485 -657837.000000 0 0 1
2.804893 -14.361013 25.172758 29.116556 -1.377912 0.526539 -0.003739 -0.014835 -377101.000000 0 0 1
1.742393 -13.272813 24.856738 28.232267 -1.440267 0.494013 0.008043 -0.012073 -349410.000000 0 0 1
1.938693 -12.509813 23.682958 26.853984 -1.417046 0.490885 0.004334 -0.007538 416112.000000 0 0 1
0.907993 -11.528213 23.454258 26.150074 -1.492196 0.458065 -0.001261 0.002721 138668.000000 0 0 1
-0.529407 -11.917313 23.201658 26.088686 1.526402 0.474901 -0.000563 0.007299 -1288990.000000 0 0 1
-0.735907 -12.532213 21.933858 25.272357 1.512142 0.519839 -0.000084 0.002055 129329.000000 0 0 1
-1.980207 -13.222013 21.863858 25.627546 1.422135 0.548823 0.003190 0.008002 404432.000000 0 0 1
-2.349607 -13.851513 20.465358 24.823697 1.402768 0.601605 0.004086 0.006087 144511.000000 0 1 0
-1.504807 -14.931013 20.046458 25.041167 1.470351 0.642600 0.006487 -0.006083 -249974.000000 0 0 1
-1.940407 -15.558913 18.860558 24.526834 1.446723 0.693558 -0.001054 -0.006826 -84881.800000 0 1 0
-2.577407 -16.961213 19.050158 25.636581 1.419991 0.733128 -0.012498 -0.004696 -2291.130000 0 0 1
-2.347307 -17.790813 17.892258 25.340793 1.439615 0.786870 -0.021548 -0.002922 -142323.000000 0 0 1
-3.209407 -18.906613 17.867458 26.210806 1.402649 0.820736 -0.020884 0.009558 -383449.000000 0 0 1
-2.858507 -19.979013 16.834358 26.281698 1.428685 0.875601 -0.014957 0.001485 971439.000000 0 0 1
-1.591307 -20.667413 16.957658 26.781269 1.493952 0.885127 -0.009892 0.002128 621736.000000 0 0 1
-1.419707 -21.415413 18.201958 28.141549 1.504599 0.867415 -0.014663 0.012771 -524451.000000 0 0 1
-0.093507 -22.172313 18.259558 28.723364 1.566579 0.881876 -0.000417 -0.001662 -585651.000000 0 0 1
-0.062907 -23.386413 17.470858 29.191765 1.568106 0.929187 -0.003569 0.005376 116186.000000 0 0 1
1.211393 -24.033513 17.437758 29.717884 -1.520435 0.943724 0.014444 0.013261 1568810.000000 0 0 1
2.394893 -23.373113 16.602558 28.769478 -1.468689 0.955636 0.021748 -0.010909 621428.000000 0 0 1
2.922793 -22.219613 17.228558 28.267952 -1.440006 0.915400 0.025144 -0.014649 -312194.000000 0 0 1
3.865293 -21.601013 16.373758 27.379631 -1.393730 0.929759 0.033379 -0.032498 298546.000000 0 0 1
4.572393 -20.375613 17.008058 26.932256 -1.350048 0.887294 0.037918 -0.026973 -388098.000000 0 0 1
5.465193 -20.676913 18.079058 28.004560 -1.312392 0.869020 0.034904 -0.019848 401994.000000 0 0 1
6.256393 -19.584713 18.589858 27.717977 -1.261590 0.835673 0.050435 -0.015011 531507.000000 0 0 1
7.363593 -19.067713 17.665358 27.016015 -1.202259 0.858089 0.048711 -0.018173 -1211210.000000 0 0 1
6.860793 -18.285513 16.677058 25.681797 -1.211847 0.864037 0.040787 -0.022343 -452418.000000 0 0 1
7.843393 -17.655413 15.903058 25.022783 -1.152736 0.882085 0.051541 -0.020006 -202753.000000 0 0 1
7.242193 -16.651113 14.888558 23.481441 -1.160539 0.884009 0.040391 -0.015186 -27709.300000 0 1 0
6.443293 -17.212813 13.884458 23.034216 -1.212612 0.923821 0.035014 -0.014721 4667.660000 0 1 0
5.934993 -16.260713 12.960358 21.624195 -1.220831 0.928113 0.030623 -0.020301 -15931.400000 0 1 0
6.303093 -16.559713 11.523858 21.136518 -1.207101 0.994156 0.032739 -0.010976 -583031.000000 0 1 0
7.657093 -16.296213 11.347258 21.282807 -1.131542 1.008459 0.036647 -0.001315 -781187.000000 0 1 0
8.165893 -16.763013 10.123358 21.217040 -1.117492 1.073406 0.038648 0.004196 320608.000000 0 1 0
9.570793 -16.146313 9.897758 21.219545 -1.035722 1.085528 0.042242 0.002097 339005.000000 0 1 0
10.271593 -16.811713 8.846158 21.596153 -1.022344 1.148762 0.044908 0.006776 211995.000000 0 1 0
11.641193 -16.403713 8.888558 21.991035 -0.953611 1.154703 0.049725 0.011255 922789.000000 0 1 0
12.564393 -17.380813 8.072758 22.915629 -0.944873 1.210788 0.052805 0.005976 325808.000000 0 1 0
12.970593 -18.633013 8.597258 24.276291 -0.962687 1.208800 0.058745 -0.003825 -82624.600000 0 1 0
13.553293 -19.445313 7.642758 24.904291 -0.962090 1.258878 0.047088 -0.007172 -114307.000000 0 1 0
14.073293 -20.767113 8.244158 26.406376 -0.975213 1.253285 0.042658 -0.011299 -179222.000000 0 0 1
13.057893 -21.638313 8.685058 26.723686 -1.027835 1.239790 0.039036 -0.009335 -356348.000000 0 0 1
13.548993 -22.744913 9.313158 28.064946 -1.033550 1.232540 0.035081 -0.004273 279218.000000 0 0 1
12.422593 -23.587913 9.996358 28.471699 -1.086056 1.212053 0.046570 -0.003702 373123.000000 0 0 1
12.143793 -22.985713 11.253658 28.327716 -1.084751 1.162260 0.048315 -0.011153 -35685.200000 0 0 1
10.998593 -23.454313 11.962858 28.533906 -1.132307 1.138177 0.051954 -0.007156 23903.200000 0 0 1
11.120793 -24.911813 12.483458 30.001786 -1.150935 1.141655 0.045896 -0.010939 86289.900000 0 0 1
12.248793 -25.094353 13.327958 30.941783 -1.116706 1.125480 0.037848 -0.016762 34851.500000 0 0 1
12.335493 -26.374163 13.801258 32.221663 -1.133312 1.128161 0.028983 -0.018488 251534.000000 0 0 1
13.635193 -26.591153 14.619958 33.267868 -1.096984 1.115797 0.035703 -0.012421 55637.000000 0 0 1
13.567093 -25.960293 15.834358 33.297593 -1.089225 1.075218 0.027897 -0.015146 29209.200000 0 0 1
14.401893 -26.525373 16.821558 34.553940 -1.073384 1.062351 0.034030 -0.010390 -328042.000000 0 0 1
14.007093 -26.082123 18.264558 34.786058 -1.077959 1.018018 0.024142 -0.015121 -145827.000000 0 0 1
14.429693 -24.736613 18.552758 34.122146 -1.042722 0.995938 0.015678 -0.007979 728788.000000 0 0 1
15.802793 -24.733913 18.977458 34.951947 -1.002255 0.996840 0.022306 -0.007930 727513.000000 0 0 1
16.367593 -23.408413 19.561058 34.619169 -0.960595 0.970320 0.017465 -0.005613 -43593.800000 0 0 1
16.414893 -22.386713 18.556458 33.390953 -0.938106 0.981552 0.013254 -0.014994 671051.000000 0 0 1
15.156893 -21.760913 18.242358 32.187767 -0.962410 0.968243 0.024059 -0.017467 234071.000000 0 0 1
15.294793 -20.658813 17.178958 30.916562 -0.933499 0.981645 0.025439 -0.018613 127680.000000 0 0 1
16.144093 -19.552813 17.405258 30.755280 -0.880600 0.969239 0.023248 -0.020317 1559920.000000 0 0 1
17.538993 -19.692013 16.992958 31.371201 -0.843163 0.998369 0.023356 -0.020475 1361800.000000 0 0 1
18.370293 -18.421913 17.238258 31.208846 -0.786801 0.985614 0.029914 -0.021609 -431064.000000 0 0 1
18.747493 -18.231613 18.571258 32.074161 -0.771448 0.953282 0.022446 -0.023655 73541.400000 0 0 1
19.417693 -17.011113 18.707458 31.880931 -0.719431 0.943706 0.031538 -0.020155 -506206.000000 0 0 1
19.548993 -16.669813 20.186958 32.673522 -0.706071 0.904806 0.033883 -0.011676 -351649.000000 0 0 1
20.585493 -17.355313 20.808158 34.028647 -0.700466 0.912855 0.034833 -0.012438 -438144.000000 0 0 1
20.851693 -16.819313 22.092458 34.724042 -0.678762 0.881195 0.035177 -0.007059 153683.000000 0 0 1
32.635686 -0.263413 -7.594305 33.508669 -0.008071 1.799420 0.076685 -0.023055 -796298.000000 0 0 1
33.914326 -0.243413 -8.154605 34.881777 -0.007177 1.806758 0.054586 -0.022656 -244785.000000 0 0 1
34.396406 -1.574713 -8.347205 35.429766 -0.045749 1.808631 0.059173 -0.024938 -943744.000000 0 0 1
-34.690673 -1.489913 -8.842205 35.830814 0.042922 1.820149 0.035468 -0.019291 -819197.000000 0 0 1
-33.849377 -2.636513 -8.728005 35.055807 0.077733 1.822418 0.056722 -0.018558 -86201.200000 0 0 1
-32.561157 -2.367913 -9.201705 33.919130 0.072594 1.845523 0.096495 -0.023793 -761066.000000 0 0 1
-31.674027 -3.587413 -9.220305 33.183242 0.112780 1.852362 0.089731 -0.017497 -760414.000000 0 0 1
-31.304827 -3.873613 -7.873105 32.511273 0.123113 1.815393 0.067660 -0.021631 16486.700000 0 0 1
-30.223187 -4.752313 -7.812805 31.576343 0.155964 1.820819 0.056025 -0.021678 -402367.000000 0 0 1
-29.643267 -4.986513 -6.413605 30.736346 0.166657 1.781006 0.040217 -0.029391 -161731.000000 0 0 1
-29.134247 -3.768913 -5.924905 29.968543 0.128649 1.769812 0.040805 -0.020909 298663.000000 0 0 1
-28.842877 -3.771513 -4.532005 29.439344 0.130023 1.725355 0.042914 -0.019862 -276351.000000 0 0 1
-28.847457 -2.360813 -3.878605 29.202616 0.081656 1.704007 0.039159 -0.016259 128127.000000 0 0 1
-27.577247 -1.716013 -3.815505 27.892783 0.062146 1.708018 0.034601 -0.014720 674856.000000 0 0 1
-27.705077 -0.365013 -3.354805 27.909842 0.013174 1.691289 0.047819 -0.025592 -935227.000000 0 0 1
-26.317417 0.169087 -3.136005 26.504143 -0.006425 1.689395 0.066232 -0.014124 -655610.000000 0 0 1
-25.739137 -0.307213 -1.873205 25.809038 0.011935 1.643440 0.038573 -0.012555 619695.000000 0 0 1
-24.400007 0.068787 -1.634105 24.454762 -0.002819 1.637668 0.039893 -0.012525 -137915.000000 0 1 0
-23.820107 -0.515413 -0.342505 23.828145 0.021634 1.585171 0.015029 -0.006666 -298041.000000 0 1 0
-23.733707 -1.917813 -0.444505 23.815215 0.080630 1.589462 0.002940 -0.009308 455829.000000 0 1 0
-23.038507 -2.441413 0.681195 23.177518 0.105577 1.541402 -0.011452 -0.005293 -583792.000000 0 1 0
-22.920407 -3.963413 0.772595 23.273389 0.171227 1.537594 -0.020148 0.006013 -68624.400000 0 1 0
-24.047907 -4.681913 1.283295 24.533019 0.192286 1.518464 -0.029546 0.005256 393692.000000 0 1 0
-24.011007 -6.118913 1.093895 24.802544 0.249527 1.526678 -0.042023 0.009197 -374072.000000 0 1 0
-25.237947 -6.869213 1.637295 26.207266 0.265741 1.508281 -0.022495 0.014266 -100423.000000 0 0 1
-25.202477 -6.909613 3.031795 26.307782 0.267589 1.455296 -0.024724 0.017606 -89402.300000 0 0 1
-26.301677 -7.654413 3.470795 27.611858 0.283202 1.444763 0.002444 0.020273 -528496.000000 0 0 1
-26.340557 -7.901713 5.012195 27.953249 0.291441 1.390515 -0.012197 0.007896 -252131.000000 0 0 1
-25.505437 -8.890713 5.576395 27.580216 0.335410 1.367205 -0.019282 0.021207 -136420.000000 0 0 1
-25.705297 -9.049513 6.945195 28.122797 0.338499 1.321255 -0.009535 0.012363 -250429.000000 0 0 1
-25.168647 -7.981613 7.919195 27.565932 0.307093 1.279408 0.005501 0.015179 -1672530.000000 0 0 1
-23.815907 -7.887113 7.877295 26.295547 0.319802 1.266557 0.000466 0.004052 -1625800.000000 0 0 1
-23.316207 -6.583713 8.059795 25.533333 0.275202 1.249647 0.002810 0.002343 -464084.000000 0 0 1
-21.868107 -6.326313 7.651895 24.016408 0.281606 1.246532 -0.004258 0.003508 -131700.000000 0 1 0
-20.898607 -7.035613 8.410395 23.600559 0.324737 1.206423 -0.000584 -0.005472 662510.000000 0 1 0
-19.590807 -6.649513 7.979495 22.174041 0.327219 1.202681 -0.004664 -0.007424 703929.000000 0 1 0
-18.472407 -6.857613 9.048595 21.682568 0.355466 1.140301 -0.000662 -0.007465 -39984.700000 0 1 0
-18.487107 -5.874813 10.073195 21.857626 0.307687 1.091838 0.001562 -0.005554 117967.000000 0 1 0
-17.495207 -6.157213 11.024595 21.576266 0.338400 1.034496 -0.001150 -0.003336 -334015.000000 0 1 0
-17.208307 -4.969613 11.915995 21.513108 0.281142 0.983762 -0.012564 0.001120 24780.000000 0 1 0
-18.224507 -4.742313 12.905395 22.829179 0.254571 0.969996 -0.006923 -0.001006 569836.000000 0 1 0
-18.200607 -3.490913 13.537395 22.950156 0.189501 0.939910 -0.007610 0.009338 -215679.000000 0 1 0
-19.441607 -3.400113 14.441995 24.456248 0.173137 0.939089 -0.001427 0.004094 -4912.650000 0 1 0
-19.286007 -4.076613 15.658495 25.174537 0.208310 0.899505 0.010521 0.004594 249510.000000 0 0 1
-20.498907 -4.144713 16.388495 26.570032 0.199502 0.906121 0.010679 0.007212 45867.100000 0 0 1
-20.371807 -5.171313 17.546195 27.379225 0.248596 0.875181 0.014408 0.017537 149348.000000 0 0 1
-21.361007 -4.971113 18.553495 28.726935 0.228649 0.868651 0.014624 0.014274 678784.000000 0 0 1
-20.963107 -5.693513 19.704395 29.327992 0.265200 0.834075 0.019417 0.015121 -224802.000000 0 0 1
-21.838607 -5.476913 20.946295 30.751726 0.245722 0.821475 0.022698 0.011118 -200026.000000 0 0 1
-21.701707 -4.175213 21.382395 30.750664 0.190069 0.801893 0.019810 0.009092 665841.000000 0 0 1
-22.651907 -3.808213 22.397195 32.081860 0.166561 0.798019 0.023922 0.004799 273933.000000 0 0 1
-22.446707 -2.373513 22.887695 32.145526 0.105348 0.778450 0.017935 0.012228 -638.580000 0 0 1
-23.381107 -1.520813 22.239795 32.304760 0.064953 0.811464 0.018976 0.014417 23919.500000 0 0 1
-23.284007 -0.185913 22.641595 32.478014 0.007984 0.799401 0.012273 0.007942 -217021.000000 0 0 1
-24.468107 0.741087 22.282895 33.102340 -0.030279 0.832334 0.007996 0.009798 -5296.980000 0 0 1
-25.589477 0.508687 23.095995 34.474702 -0.019876 0.836668 0.011854 0.010839 -69755.900000 0 0 1
-26.674287 1.360487 22.758795 35.090330 -0.050960 0.865082 0.006456 0.010465 333672.000000 0 0 1
-27.704217 1.619087 23.873095 36.606963 -0.058375 0.860384 0.010324 0.007089 -160997.000000 0 0 1
-27.137667 2.367987 24.975195 36.957012 -0.087038 0.828760 0.011736 0.005288 57186.100000 0 0 1
-28.063127 2.464287 26.011395 38.343246 -0.087588 0.825237 0.018299 0.000642 -257812.000000 0 0 1
-27.525307 3.268987 27.256995 38.875090 -0.118209 0.793797 0.030250 -0.002768 250571.000000 0 0 1
-26.350187 2.679287 27.795095 38.393727 -0.101332 0.761287 0.026545 -0.004927 339681.000000 0 0 1
-25.920217 3.463887 28.849995 38.938135 -0.132849 0.736359 0.021594 -0.001050 -918870.000000 0 0 1
-24.744207 2.935987 29.628395 38.713533 -0.118101 0.699252 0.020957 0.001738 -893430.000000 0 0 1
-24.999007 1.967887 30.620395 39.578170 -0.078557 0.686185 0.022484 0.003519 -250159.000000 0 0 1
-23.871007 1.706287 31.386895 39.469907 -0.071358 0.651441 0.004645 -0.002568 -643642.000000 0 0 1
-24.073807 0.547987 32.401395 40.369529 -0.022759 0.639121 0.014976 -0.005116 -246296.000000 0 0 1
-24.183507 -0.674313 31.667995 39.851708 0.027876 0.652372 0.018540 -0.008624 158081.000000 0 0 1
-24.622007 -1.722613 32.526295 40.830999 0.069849 0.649134 0.013536 -0.004577 -785917.000000 0 0 1
-25.285667 -2.867813 31.810895 40.737236 0.112934 0.674723 0.000666 -0.006175 208973.000000 0 0 1
-26.650077 -2.730213 31.425695 41.294733 0.102091 0.705928 0.012343 -0.002634 471156.000000 0 0 1
-26.798377 -2.080113 30.192295 40.423441 0.077466 0.727408 0.015367 -0.002065 -72042.900000 0 0 1
-28.231087 -1.902813 29.595195 40.944970 0.067300 0.762945 0.029808 -0.008160 545271.000000 0 0 1
-29.112287 -1.318613 30.535695 42.210102 0.045263 0.762051 0.029502 -0.003078 -94325.400000 0 0 1
-30.309087 -0.847313 29.914795 42.594057 0.027948 0.792140 0.023628 -0.008619 289231.000000 0 0 1
-31.284247 -0.347713 30.997295 44.041541 0.011114 0.790036 0.023627 -0.011129 -407275.000000 0 0 1
-31.704377 -1.344213 31.887395 44.986447 0.042373 0.782969 0.019592 -0.004755 -104317.000000 0 0 1
-32.188017 -0.866013 33.124395 46.195714 0.026898 0.771243 0.032400 -0.000323 -78887.900000 0 0 1
-32.431627 -2.092413 34.102395 47.107982 0.064428 0.761329 0.035301 -0.002613 -359586.000000 0 0 1
-33.325097 -3.025713 33.592195 47.414688 0.090546 0.783459 0.033047 -0.009988 -280608.000000 0 0 1
-33.320197 -4.220113 34.365595 48.052461 0.125983 0.773932 0.019581 -0.007885 351375.000000 0 0 1
-34.521219 -5.165513 34.047695 48.761077 0.148531 0.797839 0.020583 -0.010515 573538.000000 0 0 1
34.722911 -4.766613 -34.499668 49.179551 -0.136423 2.348302 0.037268 -0.017225 -628774.000000 0 0 1
33.634026 -5.424013 33.968395 48.109453 -0.159889 0.786871 0.031691 -0.020978 -912536.000000 0 0 1
32.375576 -5.039713 -34.286768 47.425300 -0.154425 2.378879 0.052819 -0.018269 -931943.000000 0 0 1
32.093596 -5.926613 -33.218968 46.568482 -0.182609 2.365043 0.052667 -0.014867 259871.000000 0 0 1
31.546716 -7.226713 -33.506568 46.584448 -0.225194 2.373540 0.062989 -0.025165 334114.000000 0 0 1
30.137236 -7.344813 -34.162668 46.144200 -0.239052 2.404381 0.065453 -0.036938 260422.000000 0 0 1
29.098726 -6.824313 -33.387968 44.811422 -0.230360 2.411447 0.068499 -0.038519 -783731.000000 0 0 1
27.821816 -7.014813 -33.920768 44.428364 -0.246986 2.439502 0.052449 -0.032483 -51639.600000 0 0 1
26.758746 -6.677213 -32.816968 42.866876 -0.244540 2.442700 0.047578 -0.033652 -1020350.000000 0 0 1
25.477566 -7.101613 -33.023668 42.309596 -0.271840 2.466300 0.052272 -0.031375 -1264590.000000 0 0 1
24.623836 -6.670113 -31.984568 40.912544 -0.264532 2.468310 0.053504 -0.034665 21620.800000 0 0 1
23.166936 -7.101613 -32.295468 40.374956 -0.297447 2.497906 0.039694 -0.036233 31644.500000 0 0 1
22.805036 -8.488013 -32.303568 40.443003 -0.356313 2.496000 0.042896 -0.037830 204082.000000 0 0 1
22.609136 -9.133113 -31.056168 39.485090 -0.383913 2.475964 0.043283 -0.034687 -412872.000000 0 0 1
22.384736 -10.656213 -31.148368 39.810201 -0.444303 2.469342 0.041195 -0.020366 -276820.000000 0 0 1
21.327936 -10.991813 -32.009668 40.003995 -0.475869 2.498361 0.046844 -0.022438 -83107.000000 0 0 1
21.099136 -12.415613 -32.000368 40.290750 -0.531877 2.488546 0.037519 -0.003779 -418587.000000 0 0 1
19.913036 -12.866513 -32.930668 40.577149 -0.573653 2.517608 0.030157 0.000664 -277006.000000 0 0 1
18.644836 -12.605413 -32.446168 39.487722 -0.594492 2.535144 0.021704 0.002051 -953064.000000 0 0 1
18.238336 -11.328913 -32.749368 39.159957 -0.555833 2.561291 0.022983 -0.008640 -896386.000000 0 0 1
16.839936 -10.966913 -32.229268 37.981342 -0.577249 2.584045 0.013387 -0.007046 607441.000000 0 0 1
15.718036 -11.474413 -32.953868 38.271088 -0.630588 2.608155 0.001612 0.007022 1097300.000000 0 0 1
14.435836 -11.052413 -32.455068 37.200546 -0.653425 2.630960 0.002421 0.003006 892079.000000 0 0 1
13.244836 -11.485013 -33.313368 37.644544 -0.714356 2.657173 -0.007689 0.010346 -1251110.000000 0 0 1
13.104336 -12.903013 -33.292468 38.034192 -0.777657 2.636914 -0.003294 0.008595 1395720.000000 0 0 1
11.767536 -13.321713 -33.702968 38.102926 -0.847265 2.656270 -0.014569 0.004647 1636440.000000 0 0 1
10.676436 -13.201913 -32.612568 36.767599 -0.890771 2.661586 -0.018768 0.011064 -558408.000000 0 0 1
10.368236 -11.856313 -32.481968 36.099179 -0.852255 2.690103 0.008473 0.010147 348167.000000 0 0 1
9.399036 -11.641413 -31.399968 34.782501 -0.891572 2.696921 0.009991 -0.001745 794324.000000 0 0 1
8.224936 -10.734613 -31.793968 34.550512 -0.917003 2.739431 0.004909 0.004963 -270996.000000 0 0 1
8.614036 -9.403313 -31.874968 34.331290 -0.829177 2.761021 0.002805 -0.000982 -853.643000 0 0 1
7.625836 -8.573613 -32.426468 34.396744 -0.843838 2.801486 0.001324 0.002016 -396479.000000 0 0 1
8.124736 -7.148813 -32.769968 34.510689 -0.721589 2.822626 0.013733 0.012323 -14381.000000 0 0 1
8.507636 -6.412713 -31.610868 33.357903 -0.645903 2.816520 0.024218 -0.001069 311990.000000 0 0 1
8.759336 -5.059613 -31.861368 33.428617 -0.523805 2.834170 0.021409 -0.009182 -81829.700000 0 0 1
9.042436 -4.266813 -30.590768 32.183325 -0.440888 2.825689 0.021989 -0.002190 -579681.000000 0 0 1
7.915236 -4.154313 -29.774868 31.087812 -0.483330 2.849928 0.045898 -0.003431 -306189.000000 0 0 1
8.087336 -3.111613 -28.822168 30.096586 -0.367292 2.849543 0.036222 -0.009757 470480.000000 0 0 1
6.736436 -2.502813 -28.334868 29.231975 -0.355728 2.893208 0.036346 -0.010517 81964.800000 0 0 1
5.987736 -1.844613 -29.351368 30.012637 -0.298840 2.931286 0.042918 -0.004458 902953.000000 0 0 1
4.615436 -1.526813 -29.109668 29.512814 -0.319474 2.976116 0.050976 -0.013619 1007680.000000 0 0 1
3.606036 -2.706713 -29.179968 29.526265 -0.643889 2.988286 0.035781 -0.016677 -300863.000000 0 0 1
3.775936 -3.638013 -28.119168 28.603853 -0.766797 2.957241 0.045804 -0.021776 -73273.400000 0 0 1
2.699636 -4.547113 -28.082768 28.576321 -1.035020 2.955467 0.045850 -0.018981 150192.000000 0 0 1
2.858436 -5.469613 -26.855868 27.555852 -1.089230 2.915714 0.027718 -0.029306 -165296.000000 0 0 1
2.584136 -4.880713 -25.651368 26.239127 -1.083860 2.929535 0.030709 -0.032809 -192899.000000 0 0 1
3.004236 -5.748313 -24.683368 25.521308 -1.089210 2.884633 0.025159 -0.036448 -338957.000000 0 0 1
2.868136 -5.177213 -23.231968 23.974029 -1.064893 2.892138 0.023569 -0.031606 -483988.000000 0 1 0
3.827536 -4.223613 -22.931968 23.629729 -0.834554 2.897972 0.017423 -0.032529 -391648.000000 0 1 0
3.707536 -3.860713 -21.580768 22.234668 -0.805635 2.898470 0.025555 -0.028022 -73765.500000 0 1 0
4.515136 -2.595813 -21.182568 21.813433 -0.521769 2.900506 0.033133 -0.030577 533936.000000 0 1 0
5.914136 -2.815313 -21.013168 22.010366 -0.444289 2.839427 0.026720 -0.022040 315083.000000 0 1 0
6.569536 -1.686313 -20.417768 21.514825 -0.251262 2.820874 0.032778 -0.020926 104564.000000 0 1 0
8.029936 -2.083813 -20.106168 21.750405 -0.253905 2.750267 0.023151 -0.013678 -469668.000000 0 1 0
8.708936 -2.250313 -21.375368 23.190856 -0.252861 2.743276 0.026928 -0.014916 654214.000000 0 1 0
9.905236 -3.045813 -21.375668 23.755207 -0.298319 2.690178 0.017816 -0.012439 970183.000000 0 1 0
11.196536 -2.397313 -20.837768 23.776503 -0.210927 2.639135 0.009323 -0.008561 -633308.000000 0 1 0
11.104036 -2.321013 -19.419168 22.489793 -0.206057 2.612897 0.020791 -0.000836 436666.000000 0 1 0
12.184536 -1.757113 -18.653268 22.349380 -0.143221 2.558241 0.014004 -0.009074 160046.000000 0 1 0
12.447136 -0.237213 -18.762768 22.517303 -0.019055 2.555774 0.011494 -0.003067 -153919.000000 0 1 0
12.966236 0.268887 -19.983068 23.822648 0.020735 2.565920 0.004242 -0.000308 273361.000000 0 1 0
12.840236 1.689887 -19.951168 23.786056 0.130857 2.565827 0.015655 -0.007145 -126881.000000 0 1 0
13.201136 2.512887 -21.196768 25.097561 0.188103 2.576567 0.005324 -0.003723 -692691.000000 0 0 1
14.569736 2.619687 -21.426368 26.042834 0.177902 2.537003 -0.001025 0.002922 -556317.000000 0 0 1
14.750736 3.519887 -22.518168 27.148512 0.234244 2.548908 0.004847 -0.005246 -4446.750000 0 0 1
16.168436 3.658187 -23.145068 28.469191 0.222508 2.520059 0.000451 -0.003479 363003.000000 0 0 1
16.544136 2.725987 -24.153768 29.403128 0.163303 2.534779 -0.006196 0.001414 371512.000000 0 0 1
17.046036 1.453287 -23.622468 29.166768 0.085051 2.514796 -0.012111 0.009104 -263845.000000 0 0 1
9.014193 26.989387 2.723895 28.585001 1.248455 1.475360 -0.008408 0.003422 57948.300000 0 0 1
9.050293 27.354187 4.115995 29.104995 1.251277 1.428902 -0.001726 0.005313 791454.000000 0 0 1
10.400593 27.614787 4.509695 29.851066 1.210596 1.419143 0.000300 -0.004441 312868.000000 0 0 1
10.433693 28.371587 5.877895 30.795431 1.218396 1.378749 -0.005783 0.000690 -46498.600000 0 0 1
10.108793 27.594587 7.025495 30.215997 1.219646 1.336140 -0.006674 -0.000670 187731.000000 0 0 1
10.259693 28.465087 8.176395 31.342877 1.224859 1.306874 -0.005328 -0.001154 -453550.000000 0 0 1
10.133093 27.733587 9.562995 31.036789 1.220493 1.257582 0.003040 -0.007883 1022280.000000 0 0 1
11.280593 26.941487 10.025595 30.880545 1.174268 1.240147 0.000988 -0.000080 1499020.000000 0 0 1
11.846893 25.916287 9.115395 29.918109 1.142036 1.261196 0.005690 -0.003718 945590.000000 0 0 1
13.097493 25.134087 9.708595 29.958696 1.090408 1.240772 0.004418 -0.006211 474198.000000 0 0 1
14.236593 25.936587 9.771395 31.158743 1.068798 1.251814 0.007994 -0.001870 -332610.000000 0 0 1
15.375893 25.150687 10.124095 31.168453 1.022072 1.239976 0.002245 0.008459 841897.000000 0 0 1
16.605493 26.043387 10.492095 32.620307 1.003181 1.243332 -0.000478 0.004249 -754601.000000 0 0 1
17.404693 26.529287 9.501395 33.121034 0.990176 1.279840 -0.004818 0.000810 470973.000000 0 0 1
18.800793 26.549587 9.836595 33.986894 0.954629 1.277172 0.005941 -0.019092 855077.000000 0 0 1
19.285293 27.582087 10.920695 35.382985 0.960610 1.257031 0.006992 -0.012537 -869368.000000 0 0 1
19.322893 28.948987 10.500395 36.354867 0.982230 1.277791 -0.005707 -0.014943 523427.000000 0 0 1
18.082593 29.602387 10.774695 36.323209 1.022438 1.269630 -0.007072 0.002661 450032.000000 0 0 1
18.277793 31.139987 11.049595 37.760694 1.040023 1.273829 -0.002723 0.022103 -725326.000000 0 0 1
18.567093 32.004687 9.953695 38.315962 1.045110 1.308003 0.005295 -0.006443 -165600.000000 0 0 1
17.639793 32.292987 8.926695 37.864035 1.070843 1.332799 0.006830 -0.011649 986386.000000 0 0 1
16.313093 33.067587 9.400695 38.052009 1.112502 1.321163 0.011205 -0.005896 982124.000000 0 0 1
16.474293 34.429887 9.795795 39.405292 1.124506 1.319571 0.010891 -0.006429 -1048990.000000 0 0 1
15.348193 -33.897777 9.697495 38.453449 -1.145634 1.315856 0.026720 -0.004256 -876869.000000 0 0 1
15.692293 -32.399177 9.899495 37.335703 -1.119753 1.302439 0.046106 0.002984 -270157.000000 0 0 1
16.406793 -31.837777 8.849695 36.893685 -1.094964 1.328564 0.033317 0.004306 -278217.000000 0 0 1
16.760393 -30.529177 8.908195 35.948538 -1.068724 1.320383 -0.003676 -0.007682 194169.000000 0 0 1
17.318493 -30.002177 7.561395 35.457517 -1.047279 1.355894 0.023320 -0.007389 993742.000000 0 0 1
16.264293 -30.168477 6.583195 34.899895 -1.076348 1.381029 0.028819 -0.002711 658249.000000 0 0 1
16.753093 -29.962977 5.275395 34.731483 -1.060973 1.418315 0.008854 0.004139 444148.000000 0 0 1
15.739493 -30.328877 4.095495 34.414321 -1.092096 1.451508 0.021867 -0.007842 567738.000000 0 0 1
15.786493 -31.668077 3.656095 35.573129 -1.108351 1.467838 0.026784 -0.011713 -56841.700000 0 0 1
15.852293 -31.781177 2.235595 35.585619 -1.108113 1.507932 0.024074 -0.013367 -124415.000000 0 0 1
16.476793 -33.089177 1.738895 37.005433 -1.108789 1.523789 0.018604 -0.010951 -464075.000000 0 0 1
17.861093 -33.288977 1.769995 37.819407 -1.078341 1.523978 0.011637 0.000405 -259817.000000 0 0 1
18.131193 34.542487 1.215395 39.030767 1.087431 1.539652 0.036563 -0.001370 -1033060.000000 0 0 1
19.553693 34.144887 1.489395 39.375608 1.050716 1.532962 0.051037 -0.003933 -1099810.000000 0 0 1
19.756793 33.746287 2.836595 39.207002 1.041143 1.498384 0.047092 -0.023387 -969571.000000 0 0 1
20.961793 33.103687 2.922695 39.291131 1.006310 1.496342 0.032714 -0.016122 -1171780.000000 0 0 1
21.383693 33.027887 4.450395 39.596839 0.996220 1.458166 0.028285 -0.013102 -346336.000000 0 0 1
20.535593 32.189987 5.185695 38.533067 1.002939 1.435809 0.025258 -0.018960 515891.000000 0 0 1
21.357393 31.377987 6.050295 38.435951 0.973176 1.412726 0.006195 -0.018254 583511.000000 0 0 1
20.442193 30.471287 6.857895 37.328452 0.979891 1.386029 0.004199 -0.021935 -16211.000000 0 0 1
19.789593 29.441987 6.129795 36.000458 0.979003 1.399693 0.018133 -0.018079 -453055.000000 0 0 1
18.714593 28.880587 6.816795 35.082659 0.995829 1.375246 0.016545 -0.021234 8542.400000 0 0 1
17.352593 29.037887 6.072795 34.368448 1.032155 1.393167 0.023474 -0.021701 -247738.000000 0 0 1
16.853793 30.358087 5.947695 35.228381 1.063995 1.401151 0.022010 -0.031040 -297665.000000 0 0 1
17.410393 31.134487 4.919395 36.009422 1.060918 1.433754 0.034057 -0.026476 -685769.000000 0 0 1
17.299893 32.696987 5.062795 37.336459 1.084143 1.434778 0.038536 -0.023473 19847.800000 0 0 1
15.946293 33.095287 5.128695 37.092934 1.121790 1.432086 0.032277 -0.016915 -2590.610000 0 0 1
15.961293 34.532887 5.063995 38.378734 1.137839 1.438462 0.031341 -0.022618 -210017.000000 0 0 1
14.525493 -34.038077 5.196695 37.370928 -1.167451 1.431287 0.035278 -0.024593 -56469.400000 0 0 1
13.729793 -34.141577 4.020195 37.017786 -1.188444 1.461980 0.035778 -0.019045 -108333.000000 0 0 1
12.637993 -33.246477 4.111795 35.804385 -1.207535 1.455702 0.037388 -0.019298 309919.000000 0 0 1
11.893293 -33.009977 2.744895 35.194367 -1.224981 1.492725 0.039239 -0.010154 445474.000000 0 0 1
10.819293 -32.080077 2.790095 33.970179 -1.245517 1.488570 0.034194 -0.015103 48588.800000 0 0 1
10.190593 -31.919677 1.550795 33.542793 -1.261767 1.524547 0.034329 -0.010930 -1167170.000000 0 0 1
9.273293 -30.670577 1.687095 32.086205 -1.277184 1.518192 0.035375 -0.010399 -93947.900000 0 0 1
8.660193 -30.079977 0.571195 31.307032 -1.290472 1.552550 0.045126 -0.002148 -489303.000000 0 0 1
7.728293 -30.971477 0.018995 31.921141 -1.326261 1.570201 0.038403 -0.008884 -1519790.000000 0 0 1
8.083593 -31.697977 -1.350805 32.740356 -1.321099 1.612066 0.050374 -0.009768 -130253.000000 0 0 1
9.269793 -32.475077 -1.299105 33.797150 -1.292747 1.609244 0.040522 -0.010284 -107812.000000 0 0 1
9.263793 -33.418177 -2.313605 34.755506 -1.300378 1.637414 0.040296 -0.005038 -771981.000000 0 0 1
10.520393 -34.248977 -2.462505 35.912881 -1.272771 1.639419 0.030542 -0.006331 -609833.000000 0 0 1
10.695793 33.932087 -1.372205 35.604346 1.265443 1.609346 0.030392 -0.003281 367366.000000 0 0 1
11.853993 33.105787 -1.468305 35.194690 1.226956 1.612528 0.039385 -0.007841 289705.000000 0 0 1
11.879293 32.132087 -0.294105 34.258942 1.216679 1.579381 0.036567 -0.008366 -221301.000000 0 0 1
12.131293 32.577587 1.067595 34.779408 1.214323 1.540095 0.033475 -0.005343 630412.000000 0 0 1
13.374093 33.224487 1.395395 35.842433 1.188105 1.531855 0.037628 -0.009337 906944.000000 0 0 1
14.666493 32.355487 1.457495 35.554294 1.145208 1.529791 0.041700 -0.012536 82518.800000 0 0 1
15.150293 31.875187 0.241595 35.293304 1.127103 1.563951 0.048816 -0.013897 -251569.000000 0 0 1
16.103193 30.856487 0.306895 34.807036 1.089803 1.561979 0.056645 -0.012675 -19207.200000 0 0 1
16.705193 30.451687 -1.078705 34.749566 1.069044 1.601844 0.046682 -0.007885 363583.000000 0 0 1
17.710493 31.265387 -1.658805 35.971344 1.055406 1.616927 0.033440 -0.001812 255469.000000 0 0 1
17.199293 32.419487 -2.278105 36.769941 1.083029 1.632792 0.038140 -0.007449 -478581.000000 0 0 1
18.311993 33.225487 -2.931605 38.050708 1.067076 1.647917 0.016242 0.006592 69381.100000 0 0 1
19.199493 33.740087 -1.947405 38.869093 1.053452 1.620919 0.007719 0.009709 -261130.000000 0 0 1
20.315193 34.394387 -2.454205 40.021295 1.037277 1.632157 0.000323 0.014706 -1116650.000000 0 0 1
21.317093 -34.096077 -1.421305 40.236563 -1.012048 1.606127 0.005574 0.012282 -351221.000000 0 0 1
22.242593 34.164487 -0.709205 40.773129 0.993687 1.588191 0.002251 0.012032 1091090.000000 0 0 1
23.094193 33.272087 -1.471105 40.528233 0.964040 1.607103 0.006053 0.017261 88059.300000 0 0 1
23.918593 33.896887 -2.635505 41.569748 0.956303 1.634238 -0.009526 0.008722 -871802.000000 0 0 1
23.124793 34.473187 -3.711305 41.676497 0.979934 1.659965 -0.010858 0.008491 229998.000000 0 0 1
23.976393 -34.036677 -4.678405 41.895707 -0.957105 1.682698 -0.002758 0.006277 279412.000000 0 0 1
23.118893 -33.475977 -5.837005 41.099816 -0.966399 1.713298 -0.002058 -0.003878 104333.000000 0 0 1
22.246093 -32.408577 -5.529705 39.696123 -0.969239 1.710552 -0.001700 0.001751 228486.000000 0 0 1
21.728493 -31.880377 -6.754405 39.167689 -0.972551 1.744111 0.004521 -0.006950 238648.000000 0 0 1
20.646393 -30.750977 -6.632505 37.628264 -0.979520 1.747986 0.012443 -0.006871 274485.000000 0 0 1
19.429693 -31.084577 -6.005605 37.146079 -1.012155 1.733184 0.020887 -0.001944 241168.000000 0 0 1
18.548693 -29.944177 -6.071205 35.743073 -1.016203 1.741481 0.029225 -0.009432 190893.000000 0 0 1
17.406393 -29.834577 -5.078405 34.912386 -1.042650 1.716776 0.016975 -0.003213 -389955.000000 0 0 1
16.390493 -30.742377 -5.337005 35.245221 -1.080977 1.722806 0.015659 -0.011648 -327964.000000 0 0 1
15.231593 -30.584977 -4.525805 34.466290 -1.108743 1.702488 0.012324 -0.007982 88531.200000 0 0 1
14.028593 -31.408877 -4.976805 34.757554 -1.150737 1.714476 0.022600 -0.011651 -309117.000000 0 0 1
14.245793 -32.816177 -4.946505 36.115260 -1.161236 1.708193 0.025006 -0.006716 -420066.000000 0 0 1
13.174093 -33.511077 -5.515205 36.427551 -1.196229 1.722783 0.026351 -0.002607 -338786.000000 0 0 1
13.414193 34.055387 -5.719505 37.046224 1.195565 1.725805 0.026101 -0.003916 -147309.000000 0 0 1
13.731693 33.384887 -4.518105 36.380260 1.180574 1.695309 0.033913 -0.009589 -148387.000000 0 0 1
14.019093 31.973087 -4.702105 35.226738 1.157576 1.704677 0.034800 -0.009204 -31942.200000 0 0 1
12.958893 30.940087 -5.198805 33.944800 1.174156 1.724556 0.029191 -0.007480 250291.000000 0 0 1
11.943993 30.506787 -4.280305 33.040037 1.197622 1.700710 0.031405 -0.004574 124044.000000 0 0 1
12.324993 29.720387 -3.155405 32.328987 1.177684 1.668555 0.043549 -0.008777 -595323.000000 0 0 1
11.236293 28.929687 -2.378205 31.126145 1.200330 1.647276 0.036814 -0.003018 269654.000000 0 0 1
10.247393 29.759887 -1.773505 31.524677 1.239177 1.627084 0.018540 -0.005544 -18163.900000 0 0 1
9.394593 28.894687 -1.041605 30.401419 1.256445 1.605065 0.013131 -0.000983 18699.200000 0 0 1
8.167093 29.599387 -0.431805 30.708493 1.301574 1.584858 0.007768 0.008669 275602.000000 0 0 1
7.268493 28.786687 0.307095 29.691727 1.323471 1.560453 0.000188 0.004089 236255.000000 0 0 1
6.162293 29.558487 0.761695 30.203612 1.365262 1.545575 0.008605 0.007942 -332933.000000 0 0 1
5.178793 28.785787 1.595395 29.291410 1.392793 1.516303 0.012688 0.002631 -546252.000000 0 0 1
4.556693 27.803987 0.773395 28.185515 1.408354 1.543353 0.015956 -0.003359 -14816.700000 0 0 1
3.318393 27.435087 1.358095 27.668396 1.450427 1.521692 0.022987 -0.002500 -59271.700000 0 0 1
2.757993 26.266587 0.580995 26.417374 1.466180 1.548802 0.022661 -0.006481 -386821.000000 0 0 1
1.601293 25.722887 1.171395 25.799287 1.508625 1.525377 0.025905 -0.003105 -233691.000000 0 0 1
1.100793 24.765587 0.288595 24.791719 1.526377 1.559155 0.014447 -0.005080 -1278550.000000 0 1 0
-0.162207 24.135987 0.748595 24.148138 -1.564076 1.539791 0.015373 -0.004441 -1135560.000000 0 1 0
-1.246307 25.040787 0.803095 25.084642 -1.521066 1.538775 0.017664 -0.003103 -364126.000000 0 0 1
-2.366607 24.304387 1.243395 24.450973 -1.473729 1.519922 0.008408 -0.003159 -335957.000000 0 1 0
-3.645907 25.136887 1.507195 25.444594 -1.426759 1.511527 0.016061 -0.005575 -585670.000000 0 0 1
-4.598507 24.257587 2.102395 24.778960 -1.383450 1.485848 0.009345 -0.013993 210864.000000 0 1 0
-5.728507 24.953287 2.590395 25.733101 -1.345137 1.469962 -0.000845 -0.007809 798090.000000 0 0 1
-6.854007 25.457287 1.581795 26.411228 -1.307797 1.510869 0.004439 -0.006506 -49560.900000 0 0 1
-6.562407 26.650987 0.923595 27.462580 -1.329364 1.537159 0.013803 -0.007676 62732.500000 0 0 1
-7.236607 26.770687 -0.321405 27.733400 -1.306788 1.582386 0.008366 -0.001372 -254273.000000 0 0 1
-6.774607 28.040587 -1.091405 28.867992 -1.333739 1.608612 0.011420 0.000526 76565.900000 0 0 1
-7.289007 29.306487 -0.717605 30.207859 -1.327026 1.594554 0.018584 -0.009731 -58968.800000 0 0 1
-7.219207 30.207087 -1.782805 31.108897 -1.336206 1.628136 0.019184 -0.006072 -110516.000000 0 0 1
-7.457507 31.647887 -1.309305 32.541012 -1.339378 1.611043 0.016135 -0.008874 -736015.000000 0 0 1
-7.543107 32.655787 -2.327405 33.596364 -1.343789 1.640127 0.008530 -0.001817 1304360.000000 0 0 1
-6.320107 32.915587 -3.102905 33.660179 -1.381096 1.663111 0.002678 0.006371 846103.000000 0 0 1
-5.234707 33.629987 -2.319905 34.113929 -1.416380 1.638853 0.004017 -0.004335 -948260.000000 0 0 1
-5.241607 -34.045777 -2.425505 34.532195 1.418038 1.641093 0.003593 0.000124 170049.000000 0 0 1
-4.273007 -33.575377 -1.509305 33.879825 1.444211 1.615360 0.009129 0.003656 189926.000000 0 0 1
-4.153507 -32.064477 -1.588205 32.371356 1.441978 1.619878 0.015346 -0.004221 198258.000000 0 0 1
-5.385207 -31.491777 -1.205205 31.971628 1.401431 1.608501 0.006598 -0.009788 45359.000000 0 0 1
-5.381807 -30.186577 -1.635005 30.706132 1.394365 1.624068 0.009867 -0.003693 43241.600000 0 0 1
-6.748607 -29.508677 -1.398905 30.302849 1.345964 1.616977 0.025280 -0.009907 12851.000000 0 0 1
-7.070607 -29.483577 -0.022005 30.319553 1.335426 1.571522 0.017740 -0.010425 140065.000000 0 0 1
-8.313807 -28.846277 0.235295 30.021367 1.290190 1.562959 0.011509 -0.012447 266142.000000 0 0 1
-8.343307 -28.296277 1.680895 29.548528 1.284066 1.513880 0.014805 -0.011222 488120.000000 0 0 1
-7.464307 -27.164777 1.540395 28.213717 1.302636 1.516172 0.023322 -0.008617 149630.000000 0 0 1
-7.076807 -26.557577 2.756295 27.622152 1.310377 1.470844 0.019969 -0.005990 117415.000000 0 0 1
-8.121107 -25.546877 3.337195 27.013556 1.263008 1.446942 0.010866 -0.007444 388170.000000 0 0 1
-8.280607 -24.392077 2.558995 25.886103 1.243525 1.471779 0.013477 -0.013403 -543382.000000 0 0 1
-9.221507 -23.518777 3.101495 25.451686 1.197126 1.448635 0.012497 -0.014215 -775616.000000 0 0 1
-8.576807 -22.166177 3.489295 24.022411 1.201606 1.425029 0.006228 0.013958 642944.000000 0 1 0
-7.672007 -22.275677 4.613095 24.007210 1.239108 1.377439 -0.002617 0.008409 472941.000000 0 1 0
-6.870407 -21.124877 4.922395 22.752866 1.256358 1.352730 -0.001579 0.012069 -130557.000000 0 1 0
-7.570107 -19.925377 5.502595 22.013762 1.207717 1.318156 0.003088 0.000309 -332365.000000 0 1 0
-8.112807 -20.278977 6.761495 22.864216 1.190238 1.270583 0.010498 -0.001613 252837.000000 0 1 0
-8.733907 -19.148377 7.395895 22.307863 1.142867 1.232863 0.006633 -0.004988 -339315.000000 0 1 0
-26.302897 28.784887 -5.907405 39.437413 -0.830423 1.721154 0.055216 -0.011499 -47423.600000 0 0 1
-25.991627 29.676187 -4.785605 39.738429 -0.851490 1.691517 0.037032 -0.013099 -416266.000000 0 0 1
-24.876107 29.096187 -4.177505 38.507926 -0.863429 1.679495 0.022980 -0.008619 -473106.000000 0 0 1
-24.069507 30.078487 -3.312905 38.665642 -0.895919 1.656582 0.013134 -0.006451 -164285.000000 0 0 1
-24.790007 30.459487 -2.135805 39.330478 -0.887656 1.625127 0.012039 -0.013848 313301.000000 0 0 1
-24.167807 31.530287 -1.430705 39.752847 -0.916822 1.606794 0.010530 -0.018107 789914.000000 0 0 1
-22.933907 31.110587 -0.518305 38.653607 -0.935555 1.584206 0.002535 -0.020967 1097670.000000 0 0 1
-21.819307 30.664787 -1.285205 37.657178 -0.952365 1.604932 0.009351 -0.019635 -647490.000000 0 0 1
-20.651507 30.839787 -0.563805 37.120009 -0.980739 1.585986 0.010175 -0.020306 -750034.000000 0 0 1
-19.397107 30.311987 -1.288805 36.010073 -1.001543 1.606594 0.003983 -0.015217 -688373.000000 0 0 1
-18.220107 30.592287 -0.598005 35.612048 -1.033634 1.587589 0.008856 -0.020690 -826039.000000 0 0 1
-17.188407 29.970887 -1.309305 34.574697 -1.050087 1.608674 0.012871 -0.022538 242013.000000 0 0 1
-15.730607 30.268387 -0.832005 34.122126 -1.091510 1.595182 0.019060 -0.020733 512111.000000 0 0 1
-15.396307 29.541887 0.324595 33.314782 -1.090358 1.561053 0.020417 -0.012579 289949.000000 0 0 1
-14.303207 30.120887 1.029095 33.360285 -1.127462 1.539944 0.021474 -0.012189 -44444.100000 0 0 1
-13.709707 29.285187 2.124495 32.405119 -1.132956 1.505189 0.023324 -0.013541 -570340.000000 0 0 1
-14.514007 29.129587 3.285695 32.710626 -1.108544 1.470179 0.010859 -0.013258 -188348.000000 0 0 1
-13.922107 28.473287 4.396995 31.998230 -1.116025 1.432946 0.014511 -0.016888 -240787.000000 0 0 1
-12.794107 29.160087 5.167195 32.259878 -1.157334 1.409929 0.021751 -0.016044 -484321.000000 0 0 1
-13.093607 30.424487 5.771095 33.621385 -1.164391 1.398293 0.009598 -0.018567 -359100.000000 0 0 1
-13.072407 31.558787 4.908695 34.510001 -1.178088 1.428072 0.016401 -0.016489 -141453.000000 0 0 1
-12.823607 32.913287 5.622995 35.767967 -1.199272 1.412934 0.011200 -0.013217 -729409.000000 0 0 1
-13.836107 33.458187 6.380495 36.764097 -1.178677 1.396361 0.004680 -0.007881 -636998.000000 0 0 1
-13.430207 -34.477477 7.105095 37.676906 1.199343 1.381081 0.016641 -0.017923 -304215.000000 0 0 1
-14.515807 -33.933077 8.011295 37.766960 1.166575 1.357048 0.000630 -0.011125 -267478.000000 0 0 1
-14.635507 34.359687 9.224095 38.469080 -1.168121 1.328658 -0.008754 -0.009752 23760.300000 0 0 1
-15.926307 34.495087 9.779095 39.232499 -1.138257 1.318880 0.002977 -0.014071 -713445.000000 0 0 1
-16.101407 33.737287 11.134095 39.005486 -1.125507 1.281321 0.001083 -0.009645 -9710.240000 0 0 1
-15.385607 34.099687 12.289395 39.376831 -1.146949 1.253397 0.003424 -0.005042 -382888.000000 0 0 1
-14.016307 33.778387 12.254095 38.569407 -1.177470 1.247477 0.000593 0.002023 -483905.000000 0 0 1
-13.390207 34.031587 13.654895 39.037197 -1.195937 1.213447 0.011808 0.006183 -213010.000000 0 0 1
-13.814407 33.207687 14.752695 38.874546 -1.176573 1.181546 0.014666 0.008223 -200974.000000 0 0 1
-12.995807 32.099787 14.955595 37.722104 -1.186110 1.163130 -0.000811 0.018129 -444863.000000 0 0 1
-13.610607 30.703487 14.522195 36.590257 -1.153535 1.162674 -0.006003 0.010087 58012.900000 0 0 1
-13.588307 30.585687 13.128195 35.951020 -1.152718 1.196982 -0.005611 0.005818 -221286.000000 0 0 1
-14.760907 29.989187 12.695095 35.754736 -1.113402 1.207818 -0.011897 0.007225 -647158.000000 0 0 1
-14.931207 30.055687 11.171695 35.370779 -1.109724 1.249449 -0.012654 0.004414 51818.700000 0 0 1
-14.061507 29.193587 10.483195 34.057142 -1.121925 1.257904 -0.014101 0.012158 353959.000000 0 0 1
-14.646907 28.919287 9.204395 33.698337 -1.101982 1.294140 -0.010126 0.005954 80667.700000 0 0 1
-14.081407 27.603487 8.606995 32.160828 -1.099076 1.299871 -0.005372 0.009583 109750.000000 0 0 1
-12.734407 27.727587 8.200595 31.594841 -1.140262 1.308235 0.009294 0.005673 -32925.500000 0 0 1
-12.139007 26.445687 8.197495 30.231255 -1.140470 1.296199 0.003198 0.004060 165533.000000 0 0 1
-10.771707 26.389487 7.470495 29.465963 -1.183257 1.314469 0.015855 0.000120 28815.200000 0 0 1
-10.933307 26.714287 6.133095 29.509409 -1.182326 1.361435 0.026462 -0.005967 -312405.000000 0 0 1
-9.800907 26.516987 5.343095 28.770767 -1.216761 1.383999 0.034973 -0.006638 -649022.000000 0 0 1
-9.936807 26.857187 3.825095 28.890829 -1.216428 1.438008 0.025409 -0.008079 -146627.000000 0 0 1
-9.731007 28.226487 3.519695 30.063521 -1.238809 1.453452 0.028287 -0.011473 144814.000000 0 0 1
-9.960707 28.498087 2.113995 30.262611 -1.234547 1.500884 0.025787 -0.012409 -38917.700000 0 0 1
-9.632507 29.978687 1.718495 31.535061 -1.259904 1.516275 0.031942 -0.018367 -241108.000000 0 0 1
-10.513207 30.954287 2.171495 32.762949 -1.243384 1.504469 0.024290 -0.025123 -312612.000000 0 0 1
-10.144407 32.239087 1.721895 33.841286 -1.265943 1.519893 0.020708 -0.017769 195303.000000 0 0 1
-10.914407 33.436287 2.424395 35.256025 -1.255277 1.501977 0.020564 -0.012775 -371807.000000 0 0 1
-12.210107 33.688687 2.009495 35.889447 -1.223083 1.514776 0.017479 -0.013110 -901001.000000 0 0 1
-12.250207 -34.416977 0.956895 36.544651 1.228844 1.544609 0.014734 -0.012028 272985.000000 0 0 1
-13.737007 -34.109177 0.622195 36.776738 1.187933 1.553877 0.022392 -0.012171 396627.000000 0 0 1
-14.437107 33.973787 -0.094505 36.914187 -1.168969 1.573356 0.020981 -0.009862 -74415.300000 0 0 1
-14.484307 34.179187 -1.476905 37.150952 -1.169963 1.610561 0.016954 -0.010071 139843.000000 0 0 1
-13.266607 33.714787 -2.352405 36.307348 -1.195910 1.635633 0.014866 -0.011501 321134.000000 0 0 1
-13.023807 32.337287 -2.263305 34.934828 -1.187922 1.635628 0.019230 -0.010808 -37425.800000 0 0 1
-11.650407 32.009887 -2.190905 34.134512 -1.221737 1.635025 0.016859 -0.002926 113110.000000 0 0 1
-11.278207 30.484687 -2.229005 32.580402 -1.216449 1.639265 0.016005 -0.005712 -31126.400000 0 0 1
-11.388407 29.941187 -3.535005 32.228353 -1.207335 1.680704 0.017311 -0.003898 -685141.000000 0 0 1
-10.249807 30.048687 -4.327205 32.042266 -1.242066 1.706257 0.008343 0.003472 -544379.000000 0 0 1
-10.441407 29.548587 -5.787005 31.868972 -1.231128 1.753397 0.009757 0.002883 -230831.000000 0 0 1
-10.634007 28.130987 -5.754605 30.619439 -1.209383 1.759860 0.020062 0.009621 94910.100000 0 0 1
-10.445207 27.432987 -6.954705 30.166854 -1.206991 1.803430 0.017451 0.007161 -216511.000000 0 0 1
-10.983407 25.976387 -6.975705 29.052855 -1.170771 1.813269 0.034770 0.006140 -134561.000000 0 0 1
-10.342207 24.923787 -6.256305 27.700140 -1.177466 1.798620 0.023471 0.007553 -166395.000000 0 0 1
-10.848007 23.653987 -6.474005 26.816098 -1.140804 1.814628 0.034200 0.001934 -227882.000000 0 0 1
-10.248007 22.668087 -5.436005 25.463974 -1.146206 1.785930 0.027810 -0.002294 405547.000000 0 0 1
-8.845707 22.431587 -5.549005 24.742960 -1.195177 1.796986 0.031016 -0.008759 619268.000000 0 1 0
-8.247807 21.372487 -4.796705 23.405510 -1.202497 1.777198 0.028610 -0.007964 -331416.000000 0 1 0
-8.384107 21.402987 -3.254205 23.215748 -1.197443 1.711432 0.020669 -0.008146 -445683.000000 0 1 0
-9.684107 21.215387 -2.768105 23.484825 -1.142578 1.688939 0.027442 -0.005697 -32607.100000 0 1 0
-10.329207 19.946387 -3.009905 22.662974 -1.092972 1.704001 0.032901 -0.008045 489749.000000 0 1 0
-11.709007 19.784087 -2.277305 23.101884 -1.036399 1.669533 0.036347 -0.004257 338796.000000 0 1 0
-11.645807 19.582887 -0.854205 22.800087 -1.034288 1.608270 0.037694 -0.015919 292419.000000 0 1 0
-11.220807 18.245987 -0.438605 21.424634 -1.019439 1.591270 0.030564 -0.019871 -227516.000000 0 1 0
-11.088907 18.124687 1.068595 21.274634 -1.021737 1.520547 0.028464 -0.027187 -152799.000000 0 1 0
-12.277107 18.052687 1.827295 21.908124 -0.973571 1.487292 0.040290 -0.029035 -141723.000000 0 1 0
-11.975107 18.127287 3.229295 21.964291 -0.986997 1.423237 0.034245 -0.028843 237139.000000 0 1 0
-13.185607 18.151287 4.236195 22.831443 -0.942553 1.384173 0.031461 -0.019678 615296.000000 0 1 0
-13.859807 16.906587 4.279195 22.276410 -0.884106 1.377499 0.028295 -0.018994 -220252.000000 0 1 0
-15.035507 16.912287 5.018895 23.179328 -0.844076 1.352543 0.037989 -0.021667 -555752.000000 0 1 0
-15.355207 15.569987 5.734295 22.607278 -0.792343 1.314346 0.021588 -0.018560 -341458.000000 0 1 0
-14.506907 15.227387 6.817195 22.108773 -0.809624 1.257340 0.024216 -0.011128 146205.000000 0 1 0
-14.931807 15.748787 8.036695 23.142421 -0.812020 1.216137 0.014561 -0.009657 518222.000000 0 1 0
-13.715307 15.702387 9.092295 22.745207 -0.852843 1.159557 -0.000963 -0.004798 1906900.000000 0 1 0
-12.631707 16.586487 8.821395 22.638211 -0.919934 1.170525 0.005233 -0.013141 289855.000000 0 1 0
-11.755707 16.306787 7.743895 21.542420 -0.946175 1.203094 0.007982 -0.009823 -166425.000000 0 1 0
-10.606807 17.353887 7.593895 21.710113 -1.022178 1.213454 0.013935 -0.015912 654914.000000 0 1 0
-9.658607 17.254087 8.665095 21.588795 -1.060470 1.157784 0.020897 -0.014055 488083.000000 0 1 0
-8.843007 18.460387 8.766595 22.267417 -1.124068 1.166147 0.014696 -0.017102 701069.000000 0 1 0
-7.591007 18.216287 9.658295 21.971326 -1.175964 1.115658 0.016203 -0.020707 -281586.000000 0 1 0
-6.597907 17.374687 9.101995 20.694406 -1.207874 1.115388 0.005478 -0.017190 331795.000000 0 1 0
-5.313707 17.600087 9.690395 20.782259 -1.277585 1.085713 0.002558 -0.018677 827492.000000 0 1 0
-4.517107 18.761387 9.005595 21.295414 -1.334527 1.134165 0.002754 -0.021682 -1360210.000000 0 1 0
-4.797507 20.028187 9.529695 22.692718 -1.335688 1.137412 0.004154 -0.026272 -119270.000000 0 1 0
-4.426107 21.144887 8.740295 23.304279 -1.364453 1.186344 0.012770 -0.020735 408382.000000 0 1 0
-2.991707 21.819587 8.782095 23.710122 -1.434535 1.191363 0.007599 -0.014510 421725.000000 0 1 0
-2.032307 20.919787 8.340595 22.612680 -1.473953 1.193029 -0.000753 -0.007027 -1312080.000000 0 1 0
-0.851707 21.616787 8.118095 23.106587 -1.531416 1.211802 0.004403 -0.008938 -1020860.000000 0 1 0
0.372593 20.741587 7.905695 22.200276 1.552835 1.206697 0.007209 -0.006772 -179673.000000 0 1 0
0.877293 20.268987 9.171795 22.264845 1.527541 1.146214 0.004417 -0.007162 565494.000000 0 1 0
2.037593 19.391487 9.142895 21.535415 1.466104 1.132330 -0.002819 -0.019665 724518.000000 0 1 0
2.816493 19.316087 10.433395 22.133675 1.426006 1.079940 -0.002412 -0.025662 -1297300.000000 0 1 0
3.542493 18.129187 10.515795 21.255555 1.377825 1.053270 0.006924 -0.019863 -393346.000000 0 1 0
4.229093 18.031087 11.726395 21.920622 1.340416 1.006350 -0.001036 -0.013866 -255869.000000 0 1 0
5.586993 18.764987 11.822395 22.871560 1.281419 1.027566 0.013827 -0.007882 484980.000000 0 1 0
6.682193 18.063287 11.159995 22.259369 1.216476 1.045624 0.004907 -0.001300 779720.000000 0 1 0
7.487993 17.309987 12.044095 22.377800 1.162521 1.002477 0.004649 0.003935 -533941.000000 0 1 0
8.613493 16.550887 11.341695 21.834793 1.090943 1.024610 0.000155 0.004897 -141081.000000 0 1 0
9.625993 17.375587 10.836295 22.627330 1.064891 1.071392 0.009343 -0.009823 -622902.000000 0 1 0
10.655893 16.746087 10.176995 22.305845 1.004097 1.097022 0.007038 -0.009808 -817060.000000 0 1 0
11.651393 17.682587 9.532895 23.222940 0.988177 1.147800 0.011136 -0.001638 -193114.000000 0 1 0
12.660193 16.982187 8.803895 22.938695 0.930182 1.176887 0.013141 -0.002325 182324.000000 0 1 0
13.504693 17.904987 8.132895 23.856011 0.924586 1.222905 0.030990 -0.004816 282859.000000 0 1 0
14.653793 17.292287 7.292295 23.810384 0.867803 1.259529 0.029981 -0.019286 36573.900000 0 1 0
15.827193 16.921387 7.965295 24.500598 0.818798 1.239672 0.045507 -0.015559 30720.600000 0 1 0
16.779293 16.354787 7.065295 24.473294 0.772587 1.277934 0.067386 -0.014223 -451502.000000 0 1 0
18.106893 16.161287 7.788795 25.489451 0.728683 1.260260 0.046147 -0.010537 -707439.000000 0 0 1
18.271293 15.092487 8.699195 25.244787 0.690408 1.218990 0.044668 -0.004439 290249.000000 0 0 1
19.323593 15.498087 9.569695 26.555056 0.675977 1.202130 0.042794 0.000391 30693.100000 0 0 1
19.733293 14.334087 10.488495 26.549528 0.628219 1.164670 0.035848 -0.000281 -101972.000000 0 0 1
20.294993 13.210587 9.865195 26.148201 0.577028 1.183939 0.025274 0.001091 185545.000000 0 0 1
20.544393 12.165787 10.771295 26.193496 0.534643 1.147004 0.035771 -0.000291 -701216.000000 0 0 1
21.410693 10.989387 10.358995 26.201015 0.474204 1.164330 0.025407 0.006052 -1518470.000000 0 0 1
22.735493 11.454487 10.292195 27.459737 0.466695 1.186604 0.012025 0.005075 -403351.000000 0 0 1
23.530393 10.688887 9.473995 27.526138 0.426390 1.219429 0.026306 0.003652 -763276.000000 0 0 1
23.837693 9.163687 9.895995 27.388674 0.367004 1.201116 0.039698 -0.004303 -922156.000000 0 0 1
22.791993 8.263087 9.590295 26.071580 0.347805 1.194106 0.038759 -0.004700 229189.000000 0 0 1
22.859593 6.921887 10.091495 25.928976 0.294024 1.171036 0.037808 -0.008027 -478075.000000 0 0 1
23.922693 6.065287 9.432895 26.420871 0.248305 1.205716 0.052826 -0.011409 2102.560000 0 0 1
23.493093 5.700387 8.141195 25.508800 0.238041 1.245961 0.051154 -0.007175 963831.000000 0 0 1
24.629693 5.350287 7.321695 26.246039 0.213906 1.288081 0.052864 -0.008999 661152.000000 0 0 1
24.254693 5.174387 5.849495 25.480993 0.210185 1.339168 0.052923 -0.014344 -566286.000000 0 0 1
23.407193 4.081887 5.728995 24.441355 0.172650 1.334197 0.058460 -0.015021 212518.000000 0 1 0
23.233893 3.699387 4.376095 23.930095 0.157898 1.386891 0.057393 -0.018470 -478669.000000 0 1 0
22.239893 2.546087 4.330695 22.800226 0.113987 1.379694 0.056451 -0.012306 -388251.000000 0 1 0
22.820993 1.280487 4.580795 23.311393 0.056051 1.373005 0.060441 -0.011633 303276.000000 0 1 0
21.921393 0.285787 4.212295 22.324260 0.013036 1.380971 0.038927 -0.013351 -334508.000000 0 1 0
22.491793 -1.149813 4.424495 22.951666 -0.051077 1.376807 0.040501 -0.009767 -341083.000000 0 1 0
22.567793 -1.415613 5.803295 23.344967 -0.062645 1.319573 0.049666 -0.012536 628894.000000 0 1 0
22.595893 -2.788913 5.940995 23.529722 -0.122805 1.315545 0.039550 -0.012235 -496041.000000 0 1 0
22.230593 -3.220513 7.328595 23.627934 -0.143868 1.255428 0.048274 -0.011556 -326987.000000 0 1 0
22.392893 -4.604113 7.544895 24.074155 -0.202780 1.252023 0.047028 -0.016179 616241.000000 0 1 0
22.193693 -4.851713 8.887395 24.394362 -0.215222 1.197892 0.055600 -0.019111 -289273.000000 0 1 0
22.149293 -6.360813 9.265695 24.837557 -0.279653 1.188500 0.075304 -0.029471 -20071.600000 0 1 0
20.985493 -6.955313 8.731395 23.769824 -0.320040 1.194658 0.086225 -0.029010 443828.000000 0 1 0
20.728193 -8.197413 9.321095 24.160678 -0.376597 1.174726 0.079651 -0.024295 -82626.900000 0 1 0
-25.582907 -32.871977 5.603695 42.029197 0.909453 1.437069 -0.008619 -0.018605 -428828.000000 0 0 1
-26.260817 -34.012477 6.030895 43.391829 0.913305 1.431358 -0.002917 -0.009476 -157210.000000 0 0 1
-26.230317 -34.165177 7.399595 43.704037 0.916032 1.400665 0.005132 -0.008208 -156459.000000 0 0 1
-26.910867 33.607087 7.888395 43.770513 -0.895598 1.389585 0.012181 -0.006711 1127150.000000 0 0 1
-28.351007 33.701487 7.954995 44.753232 -0.871410 1.392094 0.001764 -0.001264 766751.000000 0 0 1
-28.884777 32.427187 8.144495 44.183545 -0.843111 1.385403 0.006059 -0.000154 489431.000000 0 0 1
-30.448837 32.461487 8.108295 45.239632 -0.817380 1.390593 -0.008223 0.000146 802242.000000 0 0 1
-31.008607 32.686787 6.809095 45.566693 -0.811739 1.420803 -0.019834 0.009305 597843.000000 0 0 1
-32.434017 32.651087 6.854295 46.529994 -0.788733 1.422949 -0.016236 0.006447 581185.000000 0 0 1
-33.111707 32.713087 5.439995 46.862829 -0.779342 1.454451 -0.005119 0.009537 -252148.000000 0 0 1
-33.031047 31.397887 4.837395 45.828788 -0.760055 1.465046 -0.005284 0.008742 418938.000000 0 0 1
-33.661147 31.475987 3.560895 46.222187 -0.751864 1.493681 0.014760 0.008523 -59383.300000 0 0 1
-33.256097 30.324887 2.670595 45.085462 -0.739329 1.511528 0.019547 0.006213 -22869.000000 0 0 1
-33.482197 29.153387 3.412195 44.526628 -0.716397 1.494088 0.030426 0.003308 216533.000000 0 0 1
-33.034827 28.110787 2.615695 43.455242 -0.705042 1.510567 0.021741 0.007059 -266992.000000 0 0 1
-33.497867 26.715187 3.117595 42.959606 -0.673226 1.498162 0.027293 0.007522 -206564.000000 0 0 1
-34.899118 26.559687 2.997295 43.958494 -0.650530 1.502559 0.041898 0.006442 -102782.000000 0 0 1
-35.172220 25.512487 3.998795 43.634418 -0.627543 1.479024 0.039484 0.002001 212159.000000 0 0 1
33.836686 25.096287 4.039795 42.320975 0.638161 1.475195 0.032183 -0.002208 49593.100000 0 0 1
33.262996 24.312587 2.984095 41.309002 0.631178 1.498495 0.017558 0.005373 378386.000000 0 0 1
33.741366 22.986087 2.901295 40.929910 0.598026 1.499852 0.006944 0.005379 -245171.000000 0 0 1
32.764366 22.163287 1.982695 39.606137 0.594742 1.520715 0.008275 -0.004508 1413290.000000 0 0 1
31.432016 21.854787 2.464195 38.362425 0.607567 1.506517 0.007363 -0.009569 1442320.000000 0 0 1
31.362286 20.975787 3.593095 37.901015 0.589493 1.475852 -0.017241 0.008189 -292925.000000 0 0 1
32.029056 19.575787 3.450195 37.695832 0.548606 1.479141 -0.019060 -0.008495 -98843.500000 0 0 1
31.226176 18.901787 2.515995 36.588002 0.544321 1.501976 -0.031558 -0.007218 556997.000000 0 0 1
31.729256 17.652587 2.082795 36.368909 0.507706 1.513496 -0.029679 -0.013370 -523647.000000 0 0 1
31.479186 16.470487 2.998595 35.654000 0.482049 1.486594 -0.017631 -0.009066 600400.000000 0 0 1
30.072366 16.175487 2.916595 34.270981 0.493495 1.485589 -0.004677 -0.001888 1035520.000000 0 0 1
29.810636 14.948687 3.616195 33.544212 0.464811 1.462783 0.028595 -0.007981 -268874.000000 0 0 1
28.323766 14.691887 3.880495 32.142581 0.478505 1.449774 0.027780 -0.008370 92514.700000 0 0 1
27.531106 14.409587 2.721395 31.193012 0.482186 1.483442 0.023264 -0.024356 103662.000000 0 0 1
26.162116 14.692487 2.859895 30.141408 0.511701 1.475771 0.013911 -0.020007 -287052.000000 0 0 1
25.350536 14.219687 1.661395 29.113732 0.511190 1.513700 0.030744 -0.023364 -716129.000000 0 0 1
25.676056 14.822687 0.410595 29.650304 0.523558 1.556948 0.034529 -0.021667 -421035.000000 0 0 1
26.900536 14.504187 -0.152405 30.561962 0.494497 1.575783 0.037501 -0.014269 -1127080.000000 0 0 1
27.292306 15.402887 -1.362405 31.368377 0.513807 1.614242 0.036637 -0.018482 -86212.800000 0 0 1
27.475566 16.782287 -1.194505 32.217677 0.548328 1.607881 0.016886 -0.024526 876190.000000 0 0 1
28.550826 17.145487 -0.301205 33.304776 0.540805 1.579840 -0.009238 -0.018359 9620.860000 0 0 1
29.173746 18.511687 -0.646405 34.557313 0.565425 1.589503 -0.008060 -0.013618 -496550.000000 0 0 1
29.836756 18.417187 -1.885905 35.113835 0.553018 1.624530 -0.036293 -0.010861 -98493.800000 0 0 1
30.624906 19.567987 -2.038605 36.399820 0.568573 1.626832 -0.043343 -0.001606 -213646.000000 0 0 1
29.962376 20.724987 -2.796605 36.538884 0.605134 1.647409 -0.027972 -0.000618 -657645.000000 0 0 1
30.869596 21.775787 -2.824705 37.882659 0.614349 1.645430 -0.058843 0.006586 184187.000000 0 0 1
30.305166 22.857187 -3.542205 38.123501 0.646205 1.663844 -0.030487 0.004815 -380682.000000 0 0 1
31.352696 23.983787 -3.744405 39.651408 0.653012 1.665370 -0.035563 0.014128 66821.500000 0 0 1
31.487966 24.795887 -2.617705 40.164417 0.667055 1.636017 -0.023262 0.020034 300025.000000 0 0 1
32.302766 24.209287 -1.615405 40.400097 0.643149 1.610792 -0.015748 0.022755 -602503.000000 0 0 1
32.198566 25.070687 -0.349105 40.809422 0.661572 1.579351 -0.003435 0.008868 -57554.300000 0 0 1
32.741716 26.357687 -0.471305 42.035340 0.677794 1.582009 0.019446 0.013261 659237.000000 0 0 1
33.967486 26.482087 0.290895 43.071750 0.662196 1.564043 0.024778 0.008057 951688.000000 0 0 1
34.743707 27.778687 -0.139105 44.483705 0.674455 1.573923 0.021570 0.003921 -344506.000000 0 0 1
35.109293 27.700687 -1.513505 44.746857 0.667988 1.604626 0.021338 -0.006095 -464139.000000 0 0 1
34.263336 28.166987 -2.509105 44.425792 0.688056 1.627305 0.007635 0.000103 -412784.000000 0 0 1
34.728881 27.727787 -3.943405 44.614749 0.673769 1.659300 0.004418 0.006194 -33823.600000 0 0 1
-34.630910 28.325687 -4.493305 44.964812 -0.685579 1.670893 0.001861 0.008105 -211391.000000 0 0 1
-34.166328 27.765387 -5.677805 44.390226 -0.682409 1.699054 0.004401 0.003282 27878.400000 0 0 1
-35.139124 27.931087 -6.917105 45.417508 -0.671606 1.723692 -0.009230 0.007446 -79306.200000 0 0 1
34.333496 27.008487 -6.714905 44.196575 0.666548 1.723320 -0.016441 0.013737 -1513910.000000 0 0 1
33.436746 27.033687 -7.745905 43.690219 0.679904 1.749030 -0.021956 0.006815 -822247.000000 0 0 1
32.211756 26.214287 -7.296505 42.166635 0.683106 1.744711 -0.024280 0.009339 -737291.000000 0 0 1
32.168316 24.794687 -7.438205 41.290483 0.656668 1.751928 -0.031708 0.012410 -718301.000000 0 0 1
33.255446 24.127287 -6.894305 41.660318 0.627645 1.737050 -0.029895 0.010624 -664114.000000 0 0 1
33.180906 22.541887 -7.114605 40.739745 0.596741 1.746332 -0.035127 0.008552 61652.400000 0 0 1
32.218086 21.824887 -6.333905 39.426503 0.595404 1.732146 -0.039040 0.004110 497481.000000 0 0 1
32.371626 20.407987 -6.534805 38.821538 0.562493 1.739931 -0.021905 -0.013869 864655.000000 0 0 1
31.137656 19.598787 -5.915005 37.264640 0.561774 1.730200 -0.018855 -0.009765 652734.000000 0 0 1
29.943526 19.709187 -6.652105 36.459804 0.582126 1.754274 -0.016021 -0.014145 -459979.000000 0 0 1
29.030186 18.858787 -6.015305 35.136725 0.576113 1.742841 0.011202 -0.020235 -1050000.000000 0 0 1
27.723506 18.658287 -6.754105 34.093143 0.592384 1.770223 0.014104 -0.025391 -662647.000000 0 0 1
27.901666 17.885287 -7.911805 34.073202 0.570030 1.805135 0.012371 -0.027168 638855.000000 0 0 1
26.689966 17.933687 -8.663505 33.302068 0.591635 1.833973 0.021581 -0.024536 123019.000000 0 0 1
26.660736 16.851887 -9.753505 33.013812 0.563679 1.870709 0.021881 -0.014744 -315382.000000 0 0 1
25.569946 16.958887 -10.620905 32.468902 0.585623 1.904040 0.024527 -0.011967 -41278.500000 0 0 1
25.751776 16.051187 -11.682405 32.515737 0.557379 1.938298 0.026493 -0.012267 -206000.000000 0 0 1
24.859636 16.252887 -12.915805 32.387897 0.579032 1.980988 0.020549 0.000230 -409759.000000 0 0 1
23.500536 15.913787 -12.697905 31.092774 0.595237 1.991483 0.022571 -0.002463 -108880.000000 0 0 1
22.844336 16.112787 -13.899605 31.219939 0.614294 2.032211 0.018150 -0.000031 -765878.000000 0 0 1
22.682136 14.847787 -14.789905 30.881667 0.579604 2.070222 0.016271 -0.001800 -221677.000000 0 0 1
23.852936 14.184087 -15.280705 31.680449 0.536474 2.074119 0.020594 -0.005537 450577.000000 0 0 1
24.393536 14.813587 -16.400405 32.915957 0.545752 2.092377 0.041271 -0.013381 -754615.000000 0 0 1
25.790506 14.426687 -16.930105 34.057422 0.510016 2.091055 0.049351 -0.010762 55628.600000 0 0 1
25.852676 13.118787 -17.415105 33.819363 0.469585 2.111740 0.045292 -0.009997 489048.000000 0 0 1
27.201856 12.710587 -17.655405 34.831212 0.437122 2.102363 0.036443 0.001071 738700.000000 0 0 1
27.417316 11.298187 -18.225905 34.807210 0.390878 2.121896 0.012788 0.009634 61295.100000 0 0 1
26.781916 11.179887 -19.512805 34.971567 0.395451 2.162724 0.017017 0.003473 207326.000000 0 0 1
26.861916 9.860387 -20.067905 34.950116 0.351806 2.182407 0.010525 0.018701 866059.000000 0 0 1
28.269846 9.544687 -20.722605 36.327835 0.325611 2.177830 0.012872 0.014221 269720.000000 0 0 1
28.519336 10.342387 -21.898505 37.414730 0.347895 2.196035 0.025455 0.005798 473603.000000 0 0 1
29.068416 9.584687 -23.030905 38.304851 0.318503 2.215865 0.023106 0.000251 722588.000000 0 0 1
30.502186 8.968387 -22.824405 39.137818 0.285966 2.193435 0.017111 -0.000276 18587.700000 0 0 1
31.509046 9.921887 -22.644605 40.050493 0.305061 2.171716 0.019896 -0.005223 145588.000000 0 0 1
32.795536 9.304387 -22.674405 40.942001 0.276445 2.157739 -0.000005 -0.001375 575756.000000 0 0 1
33.959616 10.332387 -22.666305 42.116210 0.295356 2.139078 0.013035 -0.006611 -25713.600000 0 0 1
34.081846 10.910587 -21.365305 41.678405 0.309820 2.109033 0.011105 -0.012623 497291.000000 0 0 1
34.965065 12.039687 -21.249505 42.650338 0.331619 2.092348 -0.010258 -0.004217 169477.000000 0 0 1
34.676988 12.918687 -20.004505 42.066212 0.356615 2.066383 -0.011896 -0.004889 -277990.000000 0 0 1
34.897594 12.043487 -18.893405 41.471055 0.332311 2.043821 -0.017299 -0.005172 224167.000000 0 0 1
34.787947 12.728687 -17.609305 41.015953 0.350763 2.014545 -0.010812 -0.001015 -279353.000000 0 0 1
-35.246031 11.853287 -16.401605 40.642291 -0.324419 1.986201 -0.026377 -0.006774 -366613.000000 0 0 1
34.447082 10.729387 -16.229005 39.561368 0.301950 1.993496 -0.022214 -0.004932 16924.900000 0 0 1
35.037321 9.898087 -15.276405 39.483599 0.275327 1.968069 -0.022356 -0.013789 225078.000000 0 0 1
34.163376 8.625687 -15.060605 38.319193 0.247315 1.974721 0.025417 -0.006601 288880.000000 0 0 1
33.111426 8.675287 -14.112805 37.024295 0.256243 1.961865 0.043259 -0.011000 659965.000000 0 0 1
33.570236 8.269387 -12.874005 36.892866 0.241522 1.927254 0.035398 -0.004959 -555692.000000 0 0 1
32.696836 8.713487 -11.728005 35.812764 0.260441 1.904433 0.041329 -0.005811 -512516.000000 0 0 1
32.878166 10.105187 -11.513205 36.271787 0.298188 1.893798 0.031387 -0.005051 246807.000000 0 0 1
31.753936 10.683987 -10.896605 35.230612 0.324564 1.885247 0.022233 -0.000331 -163843.000000 0 0 1
31.665446 10.498487 -9.392505 34.657436 0.320139 1.845238 0.022547 0.003688 136352.000000 0 0 1
32.656486 11.120587 -8.552505 35.542353 0.328216 1.813810 0.018423 0.008591 620044.000000 0 0 1
32.445086 12.557587 -8.426205 35.796334 0.369285 1.808419 0.024294 -0.001676 -293367.000000 0 0 1
32.441726 13.051087 -6.959405 35.654310 0.382482 1.767249 0.024030 -0.008654 -10707.500000 0 0 1
33.734896 13.014187 -6.358605 36.712997 0.368186 1.744872 0.029263 -0.009472 618487.000000 0 0 1
33.624186 13.356587 -4.973505 36.520132 0.378117 1.707406 0.021383 -0.009147 -105091.000000 0 0 1
34.944500 13.252287 -4.190805 37.607234 0.362481 1.682464 0.021972 -0.011856 461943.000000 0 0 1
-34.683618 14.391787 -4.374305 37.804913 -0.393323 1.686763 0.025102 -0.016673 -390067.000000 0 0 1
-33.422207 14.185687 -3.853105 36.511972 -0.401395 1.676523 0.019330 -0.013539 -286552.000000 0 0 1
-32.608387 15.516387 -3.610605 36.291895 -0.444134 1.670449 0.033373 -0.016947 207755.000000 0 0 1
-33.047377 16.216287 -2.488105 36.895634 -0.456178 1.638284 0.029922 -0.013536 72674.800000 0 0 1
-32.422487 17.455087 -2.325205 36.895858 -0.493865 1.633859 0.039183 -0.009772 -201236.000000 0 0 1
-32.959177 18.254587 -1.118405 37.693343 -0.505798 1.600472 0.026765 -0.005174 235049.000000 0 0 1
-34.279305 18.726987 -1.325405 39.083596 -0.500003 1.604715 0.010935 -0.003961 265461.000000 0 0 1
-34.867342 19.354187 -0.226005 39.879408 -0.506736 1.576464 -0.008304 -0.000096 -70526.400000 0 0 1
34.394096 20.210587 -0.556905 39.896514 0.531265 1.584756 -0.013257 0.000918 -64743.200000 0 0 1
34.667925 21.375187 -1.355805 40.750483 0.552514 1.604073 0.013816 0.003129 89661.000000 0 0 1
34.688510 21.103987 -2.729905 40.695496 0.546563 1.637928 -0.011032 0.012727 -106052.000000 0 0 1
35.020640 22.297887 -3.643605 41.676335 0.566974 1.658334 0.020765 -0.017370 -588833.000000 0 0 1
-34.153637 22.706787 -3.715005 41.180947 -0.586739 1.661131 0.028276 -0.007715 -642234.000000 0 0 1
-34.077650 23.830987 -4.587505 41.835958 -0.610266 1.680672 0.030581 -0.010189 599272.000000 0 0 1
-32.645287 24.270187 -5.043405 40.990154 -0.639297 1.694148 0.023992 -0.015073 673881.000000 0 0 1
-31.974177 23.374987 -5.889805 40.042825 -0.631268 1.718420 0.008109 -0.010250 -766987.000000 0 0 1
-30.708037 23.875287 -6.193105 39.387402 -0.660866 1.728687 0.016354 0.000552 -466892.000000 0 0 1
-29.897697 22.943487 -7.131705 38.355405 -0.654544 1.757822 0.018518 -0.017161 35289.200000 0 0 1
-30.478157 22.765387 -8.443905 38.967685 -0.641541 1.789219 0.023237 -0.025064 -107854.000000 0 0 1
-29.453557 22.690587 -9.378105 38.344799 -0.656421 1.817876 0.004799 -0.027020 -284763.000000 0 0 1
-30.000527 22.504787 -10.769105 39.018851 -0.643595 1.850424 0.005396 -0.003969 -147820.000000 0 0 1
-30.611437 23.687587 -11.227105 40.301486 -0.658569 1.853109 -0.003728 0.003127 239317.000000 0 0 1
-31.358217 23.525187 -12.430405 41.125262 -0.643634 1.877856 -0.025979 0.009381 249950.000000 0 0 1
-32.082617 24.824587 -12.984005 42.592709 -0.658542 1.880568 0.018032 0.006469 215544.000000 0 0 1
-31.222557 25.853287 -13.380905 42.688279 -0.691602 1.889627 0.018843 0.001201 347785.000000 0 0 1
-30.338817 25.686687 -14.526405 42.323352 -0.702552 1.921144 0.013716 0.001668 987308.000000 0 0 1
-29.021277 26.549787 -14.433105 41.897974 -0.740953 1.922483 0.009461 0.010625 1340870.000000 0 0 1
-27.986947 26.055487 -13.528805 40.560895 -0.749674 1.910856 0.008859 0.000409 659823.000000 0 0 1
-28.301987 25.973987 -12.158705 40.292488 -0.742533 1.877336 0.019267 0.002220 -871725.000000 0 0 1
-28.566427 27.251587 -11.335205 41.075256 -0.761847 1.850387 0.025283 0.009479 532318.000000 0 0 1
-27.386397 28.062787 -11.199805 40.779534 -0.797596 1.849015 0.021818 0.008141 396139.000000 0 0 1
-27.595497 29.181487 -10.418105 41.492259 -0.813325 1.824598 0.022478 0.001310 529266.000000 0 0 1
-26.317637 29.999887 -10.007605 41.143206 -0.850689 1.816499 0.025200 -0.000676 642404.000000 0 0 1
-26.684467 31.231087 -9.421105 42.144974 -0.863742 1.796242 0.032993 -0.008902 466115.000000 0 0 1
-25.565397 31.907487 -8.823505 41.827401 -0.895303 1.783343 0.036240 -0.002382 394296.000000 0 0 1
33.456236 -25.143063 34.288877 54.103793 -0.644474 0.884391 0.007826 -0.004806 -109911.000000 0 0 1
32.995956 -23.814813 34.422362 53.298944 -0.625174 0.868679 0.007864 -0.008414 161120.000000 0 0 1
32.236746 -23.692313 -33.414705 52.125579 -0.633798 2.266652 0.011157 -0.006881 260951.000000 0 0 1
31.793716 -22.220813 -33.115355 51.002271 -0.609991 2.277449 0.009113 -0.005541 431712.000000 0 0 1
30.933336 -21.634713 -34.100503 50.870192 -0.610322 2.305468 0.006465 -0.011060 368299.000000 0 0 1
30.699226 -20.191413 -33.904645 49.996606 -0.581781 2.316024 0.010787 -0.012054 -102999.000000 0 0 1
30.466356 -19.461913 33.787001 49.482586 -0.568462 0.819200 -0.004015 -0.010940 375865.000000 0 0 1
31.644716 -19.006413 33.114924 49.590624 -0.540874 0.839593 -0.003736 -0.011296 569883.000000 0 0 1
31.288616 -18.605813 31.815898 48.346718 -0.536477 0.852533 -0.012477 -0.008116 456707.000000 0 0 1
32.566116 -18.572813 30.913088 48.591360 -0.518303 0.881253 -0.009013 -0.008245 609800.000000 0 0 1
33.538556 -17.589513 31.220778 49.081185 -0.483021 0.881357 -0.014022 -0.013218 509335.000000 0 0 1
34.497604 -17.456113 30.161948 49.036147 -0.468444 0.908288 0.000704 -0.010601 -62626.300000 0 0 1
-34.916128 -16.433513 30.460628 49.163464 0.439899 0.902591 0.003181 -0.015776 -634359.000000 0 0 1
-33.838727 -16.406113 29.534808 47.817621 0.451440 0.905038 0.018958 -0.010812 450532.000000 0 0 1
-32.885707 -15.385513 29.843658 46.998167 0.437597 0.882793 0.017622 -0.015626 1254600.000000 0 0 1
-31.732487 -15.987013 30.791958 47.017869 0.466688 0.856747 0.028344 -0.023325 365047.000000 0 0 1
-30.818277 -15.038813 31.281918 46.416489 0.453988 0.831268 0.017297 -0.021970 340114.000000 0 0 1
-29.652647 -15.605313 31.874458 46.247014 0.484442 0.810382 0.022562 -0.025108 569426.000000 0 0 1
-28.699917 -14.526913 32.485578 45.716837 0.468568 0.780471 0.024014 -0.026334 -162167.000000 0 0 1
-29.153897 -13.830713 33.642905 46.616343 0.442962 0.764545 0.017904 -0.023340 530120.000000 0 0 1
-28.173427 -12.890313 34.115733 46.084546 0.429102 0.737301 0.011072 -0.019359 72818.300000 0 0 1
-28.402337 -12.291313 -33.532415 45.631042 0.408423 2.396256 0.011130 -0.019310 -413079.000000 0 0 1
-28.210027 -13.244213 -32.555005 45.067096 0.438940 2.378016 0.008274 -0.017725 199235.000000 0 0 1
-28.339587 -12.694713 -31.265835 44.066318 0.421148 2.359610 0.016029 -0.009318 -498846.000000 0 0 1
-28.615017 -13.679313 -30.085115 43.715637 0.445931 2.329802 0.016975 -0.008469 367933.000000 0 0 1
-29.765537 -14.534913 -30.158815 44.797377 0.454255 2.309361 0.014957 -0.009375 357372.000000 0 0 1
-29.951597 -15.251213 -28.925045 44.343612 0.470977 2.281403 0.021136 -0.003414 834959.000000 0 0 1
-31.269847 -16.089813 -29.033065 45.602679 0.475218 2.260946 0.020018 -0.010224 553793.000000 0 0 1
-30.988547 -17.300413 -29.687575 46.270363 0.509181 2.267393 0.012647 -0.013245 133078.000000 0 0 1
-32.137377 -18.128913 -29.779295 47.415977 0.513609 2.249833 0.008427 -0.010795 -129396.000000 0 0 1
-31.993267 -19.412713 -30.669375 48.384224 0.545386 2.257345 -0.001796 -0.003933 -80295.900000 0 0 1
-33.083877 -20.315913 -30.612075 49.440655 0.550703 2.238479 -0.013809 -0.003716 8497.300000 0 0 1
-32.787317 -21.527213 -31.301955 50.182083 0.580981 2.244350 -0.017735 -0.002653 -1241520.000000 0 0 1
-33.982997 -22.370713 -31.451575 51.424648 0.582182 2.228884 -0.011397 0.000090 -1265340.000000 0 0 1
-34.643651 -22.704713 -30.257625 51.295326 0.580147 2.201695 -0.003548 -0.002463 293808.000000 0 0 1
34.729922 -23.591213 -30.405055 51.838019 -0.596682 2.197576 0.012890 -0.003533 578510.000000 0 0 1
35.014227 -25.120373 -30.664395 52.889832 -0.622331 2.189253 0.001287 -0.005699 20933.400000 0 0 1
-34.997301 -25.331913 -31.989085 53.757032 0.626537 2.208146 0.006308 -0.002420 -14911.800000 0 0 1
-34.224624 -26.546333 -32.059445 53.887296 0.659716 2.207981 -0.005070 0.000138 -35070.600000 0 0 1
-34.462759 -27.521983 -33.231385 55.221973 0.673887 2.216522 0.004361 -0.001182 1265470.000000 0 0 1
34.696009 -28.089943 -33.155705 55.607182 -0.680568 2.209616 0.011743 -0.002214 853437.000000 0 0 1
34.517415 -29.276523 -34.023255 56.622863 -0.703429 2.215391 0.012283 -0.002331 -8154.310000 0 0 1
35.119124 -30.550123 -33.396215 57.288481 -0.715934 2.193149 0.004167 -0.008743 -153261.000000 0 0 1
34.409056 -30.900113 -32.231475 56.370809 -0.731722 2.179465 0.009800 -0.011523 217792.000000 0 0 1
-35.191761 -31.437473 -31.255675 56.601166 0.729112 2.155808 -0.004566 -0.015287 285570.000000 0 0 1
34.564342 -31.882913 -29.978075 55.766467 -0.745066 2.138342 -0.011094 -0.005684 32696.700000 0 0 1
33.789146 -33.042143 -30.183655 56.076222 -0.774221 2.139169 0.006748 -0.002446 -24392.900000 0 0 1
33.297136 -33.566453 -28.946605 55.437460 -0.789426 2.120165 0.021232 -0.007058 -130242.000000 0 0 1
32.314576 34.380873 -29.232645 55.505169 0.816369 2.125469 0.018321 -0.013449 18551.100000 0 0 1
31.098136 -34.330124 -29.822775 55.091282 -0.834755 2.142819 0.023814 -0.011733 -318404.000000 0 0 1
30.040956 33.863781 -29.571505 54.071144 0.845148 2.149453 0.013568 -0.015419 151878.000000 0 0 1
28.745396 34.310092 -30.261695 54.030088 0.873421 2.165290 0.001987 -0.003477 -66973.500000 0 0 1
28.726816 33.846969 -31.604725 54.495008 0.867042 2.189471 0.008706 0.001946 -54778.400000 0 0 1
27.487046 34.132402 -32.213145 54.389753 0.892828 2.204663 0.011253 0.008161 90805.200000 0 0 1
27.451276 33.604333 -33.620495 54.892271 0.885837 2.229992 0.015523 -0.000154 101580.000000 0 0 1
27.289886 32.215941 -33.663745 53.998634 0.867993 2.243903 0.007808 0.006839 -168075.000000 0 0 1
27.059386 31.788881 34.081392 53.891415 0.865593 0.886138 0.019604 0.000756 20479.200000 0 0 1
27.130906 30.284481 33.885607 52.928917 0.840269 0.876025 0.018630 -0.005926 646093.000000 0 0 1
28.396736 29.708541 34.240552 53.491938 0.807971 0.876159 0.007351 0.003015 213503.000000 0 0 1
28.208946 28.338911 -34.513666 52.820750 0.787696 2.282878 -0.000659 0.000504 55031.900000 0 0 1
29.523896 27.615521 -34.217269 52.963185 0.752012 2.273204 0.004591 -0.010044 -23626.000000 0 0 1
30.092986 27.850411 -32.910635 52.577021 0.746715 2.247147 0.003846 -0.003532 -454394.000000 0 0 1
31.165786 26.958981 -32.740315 52.630990 0.713149 2.242184 0.001527 -0.005601 -306841.000000 0 0 1
31.788116 27.232631 -31.404355 52.329094 0.708366 2.214462 0.006372 -0.011837 -407083.000000 0 0 1
32.608426 28.418201 -31.230725 53.350368 0.716844 2.196156 -0.002890 -0.007526 134561.000000 0 0 1
32.053656 29.749291 -31.330215 53.796278 0.748130 2.192457 0.002198 -0.000698 55378.100000 0 0 1
31.012966 30.083931 -30.223975 52.728888 0.770193 2.181197 0.005126 0.001115 466509.000000 0 0 1
31.617236 30.408781 -28.949805 52.558870 0.765918 2.154127 -0.010396 0.003433 280009.000000 0 0 1
30.641826 30.513751 -27.937555 51.483177 0.783304 2.144390 0.006032 -0.001677 30723.800000 0 0 1
31.311426 31.096421 -26.691825 51.573698 0.781953 2.114778 0.015062 -0.003791 90375.900000 0 0 1
31.664506 32.470731 -26.702385 52.630853 0.797968 2.102906 0.011629 -0.008855 958.291000 0 0 1
32.165196 32.877591 -25.445995 52.564575 0.796350 2.076119 0.003436 -0.011685 -104151.000000 0 0 1
32.436186 34.426117 -25.364955 53.671637 0.815151 2.063030 0.010012 -0.012927 143197.000000 0 0 1
31.245536 -33.928703 -25.479835 52.694045 -0.826544 2.075494 0.022251 -0.006144 5699.760000 0 0 1
31.519936 -32.524983 -25.183135 51.822497 -0.801090 2.078246 0.020391 -0.013707 -44383.300000 0 0 1
32.171826 -31.651313 -26.292285 52.231372 -0.777243 2.098304 0.018614 -0.018033 341649.000000 0 0 1
33.565526 -31.798053 -26.434685 53.259302 -0.758364 2.090173 0.025975 -0.019761 79546.100000 0 0 1
34.447063 -30.825923 -25.814965 52.945728 -0.729978 2.080105 0.029907 -0.010056 197270.000000 0 0 1
-34.613632 -31.136683 -26.258085 53.451694 0.732566 2.084319 -0.005363 -0.007789 -510293.000000 0 0 1
-34.105405 -32.462853 -26.093655 53.832094 0.760728 2.076843 -0.008398 -0.014443 -240481.000000 0 0 1
-33.959447 -32.977203 -24.769505 53.425353 0.770725 2.052882 -0.007438 -0.005600 926224.000000 0 0 1
-32.579307 -32.611573 -24.057105 51.996829 0.785893 2.051795 -0.005743 -0.003220 1077480.000000 0 0 1
-32.434247 -31.196623 -23.983405 50.994249 0.765951 2.060445 -0.015484 -0.000948 -285235.000000 0 0 1
-32.474787 -30.769143 -22.635205 50.136857 0.758435 2.039207 -0.019296 -0.004849 -304741.000000 0 0 1
-32.397547 -29.253783 -22.301005 49.017545 0.734450 2.043123 -0.024824 0.006676 131315.000000 0 0 1
-33.620867 -28.611763 -22.598405 49.595197 0.705081 2.043907 -0.025707 0.005080 -445272.000000 0 0 1
-33.679527 -28.323723 -23.980305 50.115854 0.699233 2.069739 -0.014962 0.004529 81510.800000 0 0 1
-34.813402 -27.321403 -24.347805 50.509877 0.665401 2.073778 -0.009184 -0.004816 172798.000000 0 0 1
-34.809637 -26.040803 -23.668605 49.497850 0.642279 2.069371 -0.009415 -0.005268 -126034.000000 0 0 1
34.850244 -25.049483 -24.267905 49.304638 -0.623216 2.085415 -0.001241 -0.002825 39530.300000 0 0 1
-35.240945 -24.465213 -25.647515 49.982656 0.606841 2.109622 0.001643 0.003790 -901530.000000 0 0 1
-34.118722 -23.637613 -25.611905 48.772878 0.605881 2.123659 -0.007831 -0.003155 -437492.000000 0 0 1
-34.070847 -22.941813 -26.817665 49.054425 0.592619 2.149205 -0.001048 -0.003775 -154615.000000 0 0 1
-32.887887 -21.989513 -27.057355 47.929660 0.589354 2.170651 0.002579 -0.011428 -484853.000000 0 0 1
-32.864857 -20.787513 -26.340095 46.968289 0.563985 2.166155 0.008313 -0.002227 -119678.000000 0 0 1
-33.830557 -19.764913 -26.541965 47.324775 0.528745 2.166205 0.018162 0.001062 532624.000000 0 0 1
-35.038693 -19.915613 -25.534675 47.711228 0.516852 2.135532 0.025643 -0.001961 450256.000000 0 0 1
-34.755946 -19.366713 -24.245905 46.593018 0.508370 2.118088 0.033389 -0.007585 -477511.000000 0 0 1
-34.034517 -20.170713 -23.357005 45.942961 0.535001 2.104112 0.018247 -0.003936 -231216.000000 0 0 1
-34.649778 -21.459913 -22.669005 46.637097 0.554517 2.078386 0.022312 -0.008024 431421.000000 0 0 1
34.801691 -21.171813 -21.727805 46.168180 -0.546541 2.060793 0.031060 -0.007333 430130.000000 0 0 1
34.206016 -22.378713 -21.253205 46.071217 -0.579345 2.050270 0.021587 -0.005576 -58894.500000 0 0 1
33.098496 -22.114613 -20.208005 44.642245 -0.589026 2.040549 0.032159 -0.014103 -466361.000000 0 0 1
31.912076 -21.800713 -20.873305 43.924328 -0.599327 2.066000 0.030337 -0.006861 -772867.000000 0 0 1
30.873026 -21.697213 -19.919505 42.669655 -0.612595 2.056500 0.018071 -0.002829 185609.000000 0 0 1
29.530086 -21.200113 -20.503905 41.735847 -0.622649 2.084353 0.009638 0.004920 -6846.680000 0 0 1
28.926386 -22.093013 -21.479105 42.263329 -0.652254 2.103914 0.009470 0.007178 923465.000000 0 0 1
27.762356 -21.520213 -22.129605 41.516110 -0.659409 2.132982 0.007521 0.014598 525613.000000 0 0 1
27.868406 -20.252713 -23.062605 41.457257 -0.628439 2.160721 0.011064 0.011509 -733201.000000 0 0 1
28.103386 -19.105113 -22.267305 40.628051 -0.597050 2.150860 0.000370 0.017487 87034.900000 0 0 1
28.291316 -17.882313 -22.972505 40.594478 -0.563673 2.172323 -0.003723 0.021642 -399624.000000 0 0 1
29.010186 -16.868613 -22.054705 40.156581 -0.526685 2.152224 -0.004094 0.018106 -574556.000000 0 0 1
28.315976 -16.480313 -20.904805 38.863943 -0.527090 2.138737 -0.014994 0.015990 -657809.000000 0 0 1
29.005826 -15.826513 -19.915305 38.580252 -0.499484 2.113210 -0.015320 0.005814 -615775.000000 0 0 1
29.948476 -16.733213 -19.066405 39.248432 -0.509524 2.078060 0.010813 -0.003192 22722.400000 0 0 1
31.120836 -16.968513 -19.807505 40.605100 -0.499186 2.080374 0.014078 -0.001876 -78360.700000 0 0 1
32.070796 -17.754913 -19.068505 41.320465 -0.505615 2.050457 0.028526 -0.011692 770617.000000 0 0 1
33.245836 -18.273213 -19.982405 42.877645 -0.502566 2.055598 0.033613 -0.013097 207710.000000 0 0 1
34.091746 -17.212813 -20.308305 43.254541 -0.467557 2.059529 0.026640 -0.013211 -291993.000000 0 0 1
35.114921 -17.703413 -21.141105 44.647675 -0.466967 2.064068 0.028272 -0.008253 255484.000000 0 0 1
-34.197243 -16.754813 -21.473005 43.718019 0.455572 2.084229 0.028148 -0.004948 1044160.000000 0 0 1
-33.185087 -16.525913 -20.444405 42.335913 0.462040 2.074770 0.031164 -0.016833 718402.000000 0 0 1
-32.492877 -15.313913 -20.774005 41.495328 0.440426 2.095128 0.029214 -0.006618 44364.200000 0 0 1
-31.263397 -15.074813 -19.802505 39.959845 0.449296 2.089276 0.023697 -0.006577 876778.000000 0 0 1
-30.114657 -15.862413 -20.100405 39.528914 0.484805 2.104237 0.017223 -0.008097 497118.000000 0 0 1
-30.311657 -17.126913 -19.543805 39.926032 0.514307 2.082313 0.023042 -0.011808 -381206.000000 0 0 1
-29.056267 -18.037113 -19.642605 39.439017 0.555548 2.092145 0.018156 -0.022054 185409.000000 0 0 1
-29.471877 -19.352413 -19.402705 40.243911 0.581029 2.073878 0.013601 -0.021155 285926.000000 0 0 1
-28.446227 -20.328213 -19.405405 39.987421 0.620470 2.077489 0.005680 -0.019380 -60303.700000 0 0 1
-29.027937 -21.716913 -19.081105 40.967475 0.642309 2.055292 -0.001038 -0.000378 5598.410000 0 0 1
-29.807907 -22.262813 -20.127405 42.299605 0.641499 2.066703 0.016743 -0.005899 300638.000000 0 0 1
-30.273407 -23.576713 -19.776505 43.167705 0.661675 2.046689 0.007641 0.005143 723673.000000 0 0 1
-31.268097 -24.200513 -20.860105 44.704616 0.658665 2.056263 0.005657 0.004688 587747.000000 0 0 1
-30.592087 -24.476413 -22.046005 44.955499 0.674796 2.083341 0.003918 -0.002834 481984.000000 0 0 1
-31.538647 -25.011853 -22.996705 46.358683 0.670491 2.089852 0.000743 -0.003129 286819.000000 0 0 1
-31.122287 -25.101653 -24.462805 46.873431 0.678722 2.119862 -0.000890 0.001570 -722270.000000 0 0 1
-30.141007 -26.050283 -24.674305 46.860633 0.712726 2.125330 0.006090 -0.005078 -530583.000000 0 0 1
-30.015467 -26.129513 -26.067155 47.572852 0.716296 2.150698 0.003169 -0.001222 289184.000000 0 0 1
-28.556677 -26.497143 -26.461925 47.093693 0.748006 2.167477 0.010190 -0.005237 374991.000000 0 0 1
-27.682757 -25.385313 -26.458205 45.943289 0.742133 2.184487 0.019399 -0.007801 -928423.000000 0 0 1
-26.366077 -25.791763 -26.273735 45.284591 0.774388 2.189760 0.015524 -0.002725 -313616.000000 0 0 1
-25.377667 -24.625113 -26.518865 44.200366 0.770349 2.214259 0.023507 -0.002178 -13555.500000 0 0 1
-25.487367 -24.296713 -27.889995 44.919795 0.761486 2.240667 0.026610 -0.009022 -241526.000000 0 0 1
-24.611707 -23.230513 -28.064695 43.966123 0.756536 2.263117 0.038426 -0.007146 -88698.400000 0 0 1
-24.541307 -22.733913 -29.503335 44.604409 0.747185 2.293539 0.022366 -0.008919 -2542.910000 0 0 1
-23.988407 -23.591213 -30.518715 45.424454 0.777050 2.307509 0.030645 -0.012008 191624.000000 0 0 1
-23.700107 -22.909113 -31.713285 45.741174 0.768429 2.336883 0.032616 -0.004756 -93144.400000 0 0 1
-23.096607 -23.806513 -32.860235 46.690453 0.800533 2.351514 0.035937 -0.011209 165082.000000 0 0 1
-23.978207 -24.809513 -33.366455 47.997778 0.802436 2.339448 0.023799 -0.011053 -39794.600000 0 0 1
-23.365707 -25.652603 -34.304635 48.793650 0.832018 2.350481 0.032614 -0.008104 67437.600000 0 0 1
-19.507707 -14.020313 -12.023205 26.864052 0.623171 2.034828 -0.022712 0.027804 190426.000000 0 0 1
-19.581607 -13.669813 -10.625305 26.138099 0.609446 1.989423 -0.024521 0.031652 248558.000000 0 0 1
-18.717207 -14.558413 -9.933105 25.708905 0.661063 1.967487 -0.022022 0.015510 94675.900000 0 0 1
-18.960007 -14.322213 -8.448005 25.218573 0.646942 1.912392 -0.012243 0.007719 -297877.000000 0 0 1
-20.202907 -14.732613 -7.913005 26.226380 0.630077 1.877292 0.003476 0.001787 221073.000000 0 0 1
-20.501307 -14.156113 -6.611305 25.776122 0.604320 1.830185 -0.005094 -0.005847 661453.000000 0 0 1
-21.830607 -14.654813 -5.929305 26.953583 0.591201 1.792592 0.001126 -0.013448 106536.000000 0 0 1
-21.755707 -15.994513 -5.416805 27.540462 0.633953 1.768772 -0.011392 -0.008589 626389.000000 0 0 1
-20.941007 -16.090913 -4.218005 26.743875 0.655169 1.729176 -0.007463 -0.007801 150083.000000 0 0 1
-20.658807 -17.471913 -3.587105 27.293248 0.702014 1.702606 -0.021734 -0.002136 -387530.000000 0 0 1
-21.798707 -17.989613 -2.990005 28.420942 0.689955 1.676196 -0.012075 -0.003558 -256536.000000 0 0 1
-21.466507 -19.159013 -2.282505 28.863273 0.728660 1.649959 -0.018436 0.002191 452307.000000 0 0 1
-22.768807 -19.991713 -2.062305 30.370056 0.720544 1.638754 -0.015287 -0.005890 324925.000000 0 0 1
-23.186507 -20.792813 -3.123705 31.300363 0.731024 1.670760 -0.032511 -0.003408 -217643.000000 0 0 1
-24.135707 -21.701513 -2.622705 32.563271 0.732343 1.651425 -0.015252 -0.000797 -379512.000000 0 0 1
-24.314807 -22.892613 -3.576105 33.586755 0.755281 1.677472 -0.009433 -0.000513 -333255.000000 0 0 1
-23.227307 -23.781613 -3.559405 33.432653 0.797189 1.677463 -0.009728 -0.000328 -434666.000000 0 0 1
-23.203907 -24.565313 -4.710405 34.118380 0.813890 1.709299 -0.010941 -0.005747 36666.600000 0 0 1
-21.818907 -24.629013 -5.414305 33.346180 0.845825 1.733885 0.000754 0.003566 419678.000000 0 0 1
-21.450707 -23.419113 -6.059005 32.331088 0.829239 1.759316 -0.012730 0.010698 32565.400000 0 0 1
-20.915407 -22.352513 -5.296705 31.066770 0.818600 1.742128 -0.018799 0.011264 -488317.000000 0 0 1
-20.914007 -20.994313 -5.989305 30.232907 0.787314 1.770221 -0.018746 0.016750 -278864.000000 0 0 1
-20.055207 -20.851113 -7.092705 29.787358 0.804852 1.811217 -0.026414 0.016323 -128544.000000 0 0 1
-20.174307 -19.571813 -7.669905 29.135648 0.770241 1.837184 -0.030620 0.016246 -822312.000000 0 0 1
-19.079707 -19.149313 -8.612305 28.370816 0.787219 1.879225 -0.016329 0.010090 -1060530.000000 0 0 1
-18.947107 -20.012013 -9.738005 29.228450 0.812725 1.910459 -0.032957 0.015104 -594951.000000 0 0 1
-17.760807 -19.908313 -10.458105 28.655875 0.842346 1.944381 0.011372 0.009344 -376608.000000 0 0 1
-17.395107 -18.509213 -11.075705 27.710142 0.816418 1.981984 0.011593 0.006431 -284178.000000 0 0 1
-17.065507 -17.361813 -10.236205 26.409165 0.794005 1.968823 0.008776 0.010431 661429.000000 0 0 1
-15.759507 -17.500713 -9.659505 25.454726 0.837701 1.960028 0.030232 0.006209 232535.000000 0 0 1
-15.429907 -16.325713 -8.700905 24.089763 0.813600 1.940337 0.010431 0.008963 97790.300000 0 1 0
-16.160207 -16.473613 -7.476405 24.257553 0.795002 1.884107 -0.004203 0.010274 316099.000000 0 1 0
-16.186507 -15.309213 -6.698905 23.264788 0.757551 1.862873 -0.005392 0.008444 -119400.000000 0 1 0
-16.983607 -15.528913 -5.350505 23.626637 0.740685 1.799239 0.003775 0.002654 202013.000000 0 1 0
-16.911807 -14.423313 -4.498205 22.677633 0.706149 1.770475 -0.025189 0.009916 -126575.000000 0 1 0
-17.376107 -14.797013 -3.233205 23.050690 0.705406 1.711525 -0.020752 0.006355 -213906.000000 0 1 0
-18.108307 -13.594613 -2.552705 22.786851 0.643974 1.683057 -0.021963 0.004283 654800.000000 0 1 0
-19.478007 -13.546113 -2.965705 23.909943 0.607670 1.695153 -0.014466 -0.003011 765155.000000 0 1 0
-20.244407 -12.615813 -2.214805 23.956213 0.557286 1.663381 -0.017765 0.001315 1105120.000000 0 1 0
-21.750007 -12.431213 -2.665605 25.193319 0.519238 1.676801 -0.017352 -0.000246 1015090.000000 0 0 1
-21.901207 -11.861613 -3.943605 25.217311 0.496368 1.727826 -0.009783 -0.008518 103011.000000 0 0 1
-23.299907 -11.799813 -4.098605 26.437092 0.468780 1.726457 -0.005488 -0.010422 -271381.000000 0 0 1
-23.750307 -11.103413 -5.407805 26.769521 0.437316 1.774210 0.000798 -0.015428 -253002.000000 0 0 1
-23.468907 -11.855713 -6.557205 27.098791 0.467773 1.815196 0.012308 -0.023373 94499.000000 0 0 1
-24.172807 -11.320413 -7.643405 27.765050 0.437977 1.849686 0.016679 -0.024073 -510430.000000 0 0 1
-23.498107 -11.498513 -9.029305 27.674992 0.455082 1.903143 0.033035 -0.024477 136949.000000 0 0 1
-22.374107 -10.620013 -9.043105 26.365946 0.443168 1.920888 0.024615 -0.017668 70255.400000 0 0 1
-21.509607 -11.007013 -10.086705 26.183185 0.472984 1.966260 0.006521 -0.010488 -140953.000000 0 0 1
-20.195807 -10.183813 -10.071805 24.759280 0.467045 1.989733 0.008328 -0.011874 -286584.000000 0 1 0
-20.324207 -8.848313 -10.433105 24.499300 0.410611 2.010701 0.012629 -0.017784 331443.000000 0 1 0
-19.191007 -8.073913 -10.104805 23.142816 0.398234 2.022644 0.007487 -0.013751 -104548.000000 0 1 0
-19.155007 -6.806313 -10.959405 23.094345 0.341414 2.065248 -0.003569 -0.019443 -170614.000000 0 1 0
-18.875507 -7.120313 -12.277905 23.616320 0.360720 2.117519 0.021257 -0.010465 508595.000000 0 1 0
-18.471207 -5.962013 -13.026505 23.375648 0.312217 2.161888 0.010327 -0.010742 -168192.000000 0 1 0
-17.899507 -6.316513 -14.458405 23.860766 0.339245 2.221754 0.015903 0.000927 613444.000000 0 1 0
-18.852807 -6.770613 -15.448805 25.296939 0.344785 2.227739 0.025562 -0.008230 889192.000000 0 0 1
-18.212207 -6.657413 -16.704605 25.593934 0.350457 2.281910 0.027295 -0.009271 232060.000000 0 0 1
-18.913407 -7.459013 -17.873605 27.070641 0.375650 2.291958 0.024576 -0.008732 425087.000000 0 0 1
-20.237307 -6.980113 -18.119305 28.046030 0.332136 2.273202 0.037295 -0.024640 488892.000000 0 0 1
-20.818807 -7.807913 -19.072205 29.293946 0.358807 2.279780 0.041454 -0.024967 -1034840.000000 0 0 1
-22.176907 -7.305113 -19.506605 30.425113 0.318208 2.266773 0.047002 -0.027593 -1515620.000000 0 0 1
-22.235507 -6.127113 -20.277705 30.710660 0.268882 2.291991 0.046492 -0.026196 1947100.000000 0 0 1
-23.501007 -5.879013 -21.012005 32.068123 0.245129 2.285284 0.048511 -0.026880 2048350.000000 0 0 1
-24.779707 -5.616713 -20.166505 32.438700 0.222899 2.241683 0.054462 -0.023989 -286986.000000 0 0 1
-24.793207 -4.414013 -19.416805 31.799355 0.176187 2.227619 0.047949 -0.023076 356647.000000 0 0 1
-26.028547 -4.302413 -18.722305 32.349973 0.163815 2.187982 0.072160 -0.015655 140940.000000 0 0 1
-26.284167 -2.895413 -18.110605 32.050505 0.109716 2.171308 0.057877 -0.007470 -43841.700000 0 0 1
-26.259267 -1.805313 -18.994805 32.459373 0.068642 2.195907 0.052045 -0.010730 -198057.000000 0 0 1
-27.484757 -1.581513 -19.630305 33.812157 0.057478 2.190224 0.050445 -0.012518 -366622.000000 0 0 1
-27.488297 -0.296413 -20.565205 34.331065 0.010783 2.213081 0.048699 0.002753 -478587.000000 0 0 1
-26.937447 -0.448013 -21.862805 34.695951 0.016630 2.252511 0.037756 -0.000722 40612.800000 0 0 1
-27.507947 -1.337013 -22.777605 35.739251 0.048566 2.261821 0.036215 0.003081 -351752.000000 0 0 1
-26.701747 -1.250313 -24.096405 35.988655 0.046791 2.304407 0.040628 0.002088 -393592.000000 0 0 1
-26.869927 -0.031213 -24.880505 36.620124 0.001162 2.317770 0.018791 0.009934 197746.000000 0 0 1
-26.409287 1.210787 -24.319905 35.921779 -0.045815 2.314508 0.024264 0.008723 1427270.000000 0 0 1
-24.880607 1.295187 -23.826205 34.473325 -0.052009 2.333874 0.032535 -0.000325 1389930.000000 0 0 1
-24.044707 0.968487 -24.947505 34.662140 -0.040257 2.374215 0.030410 0.009130 695697.000000 0 0 1
-22.678107 1.101987 -24.495105 33.399418 -0.048554 2.394105 0.034612 0.007147 838349.000000 0 0 1
-21.668207 0.624387 -25.572765 33.524131 -0.028808 2.438454 0.029085 0.005942 -204925.000000 0 0 1
-21.619907 1.357887 -26.801285 34.461183 -0.062725 2.461833 0.014914 0.008907 310005.000000 0 0 1
-20.763107 0.691687 -27.730105 34.648864 -0.033301 2.498622 0.011466 0.007095 214812.000000 0 0 1
-20.686207 1.467187 -29.037235 35.682388 -0.070807 2.521405 0.015857 0.012323 -338160.000000 0 0 1
-19.901807 2.610987 -28.876525 35.167497 -0.130448 2.534156 0.018427 0.013713 4309.300000 0 0 1
-19.830307 3.547887 -30.000085 36.136321 -0.177039 2.550248 0.010602 0.006058 -48691.900000 0 0 1
-19.194307 3.012687 -31.353495 36.885490 -0.155687 2.586824 0.006374 0.012092 845914.000000 0 0 1
-17.770807 2.842887 -31.304585 36.109010 -0.158631 2.619839 -0.008137 0.017189 633682.000000 0 0 1
-17.346807 2.075287 -32.399785 36.809844 -0.119069 2.647066 -0.014947 0.017407 -454222.000000 0 0 1
-15.837907 1.943887 -32.562735 36.262235 -0.122126 2.685952 -0.020040 0.009656 -201918.000000 0 0 1
-15.128407 3.174587 -32.835345 36.291963 -0.206842 2.701601 -0.025784 0.019438 -396957.000000 0 0 1
-13.854507 2.875487 -33.307135 36.188134 -0.204643 2.739869 -0.022986 0.011132 -462853.000000 0 0 1
-13.075707 4.124087 -33.795005 36.470325 -0.305525 2.756181 -0.015664 0.012624 -226045.000000 0 0 1
-13.000407 5.000787 -32.713705 35.555660 -0.367216 2.739056 -0.000772 0.003254 166852.000000 0 0 1
-12.454707 6.187187 -33.245345 36.036842 -0.461064 2.745402 0.007895 0.003748 -120033.000000 0 0 1
-12.205407 7.307387 -32.215635 35.216715 -0.539464 2.725766 0.008255 0.002930 776054.000000 0 0 1
-11.089007 7.028487 -31.308085 33.949402 -0.564920 2.744524 0.033711 -0.009019 1154120.000000 0 0 1
-11.392307 6.174187 -30.218655 32.879665 -0.496650 2.736506 0.030260 -0.015000 -424350.000000 0 0 1
-10.083507 5.592487 -29.650235 31.813353 -0.506381 2.770705 0.049007 -0.013955 437685.000000 0 0 1
-9.358707 4.667187 -30.562645 32.302373 -0.462607 2.811902 0.044290 -0.015512 849597.000000 0 0 1
-9.952007 3.377187 -30.766275 32.511713 -0.327153 2.812431 0.039688 -0.017632 -44812.400000 0 0 1
-9.509007 2.847687 -32.202495 33.697644 -0.290973 2.842589 0.035254 -0.007123 107255.000000 0 0 1
-10.021007 1.574887 -32.539935 34.084428 -0.155884 2.839400 0.027303 -0.003822 158647.000000 0 0 1
-9.610107 1.043487 -33.773365 35.129520 -0.108159 2.862826 0.015416 0.000406 -645948.000000 0 0 1
-10.095007 1.690087 33.915141 35.426012 -0.165880 0.293105 0.018095 -0.002657 -548941.000000 0 0 1
-11.457907 1.432687 33.702756 35.626001 -0.124394 0.330082 -0.003048 0.001903 -569483.000000 0 0 1
-11.771607 1.377487 32.335738 34.439340 -0.116488 0.351322 -0.019550 0.008994 -1389800.000000 0 0 1
-13.221707 1.288887 32.044188 34.688683 -0.097176 0.392999 -0.015984 0.013735 -1215490.000000 0 0 1
-14.091707 2.378687 32.324688 35.342889 -0.167224 0.416273 -0.027922 0.019146 112265.000000 0 0 1
-15.393907 1.967987 31.964488 35.532715 -0.127152 0.451991 -0.027070 0.021879 77154.000000 0 0 1
-16.409407 3.089287 31.646438 35.781411 -0.186085 0.485508 -0.023642 0.023457 -98537.700000 0 0 1
-16.834507 3.811987 32.766708 37.034970 -0.222684 0.484838 -0.022068 0.016519 -44216.900000 0 0 1
-16.018407 4.905487 32.974398 36.985999 -0.297172 0.470068 -0.022197 0.017007 -711742.000000 0 0 1
-16.517207 5.638887 34.227423 38.420459 -0.328988 0.471552 -0.022546 0.019333 -687526.000000 0 0 1
-17.798407 6.142187 34.030847 38.892265 -0.332301 0.505354 -0.022164 0.019173 -912129.000000 0 0 1
-18.555107 5.635387 -33.916235 39.068665 -0.294858 2.622196 -0.020634 0.021399 -325287.000000 0 0 1
-20.010207 6.122287 -33.768125 39.726277 -0.296914 2.586819 -0.014496 0.015309 -5858.290000 0 0 1
-20.216007 7.491387 -33.428025 39.777389 -0.354879 2.568776 -0.007582 0.001416 88842.400000 0 0 1
-19.885707 8.349187 34.478799 40.668635 -0.397508 0.558977 -0.004541 -0.004036 -288839.000000 0 0 1
-19.845607 9.820487 -34.121880 40.676686 -0.459515 2.565974 0.001468 -0.000174 364325.000000 0 0 1
-18.809507 10.059787 -33.116485 39.391604 -0.491118 2.569369 -0.004039 -0.007494 1015970.000000 0 0 1
-18.542407 11.435287 -32.735215 39.321508 -0.552616 2.554404 -0.002582 -0.009011 -30301.600000 0 0 1
-17.718207 12.201487 -33.796735 40.062831 -0.603062 2.574736 -0.023725 -0.015236 -821852.000000 0 0 1
-18.421407 12.322087 34.026633 40.607805 -0.589547 0.577311 -0.012570 -0.010211 -265890.000000 0 0 1
-17.745407 12.781987 32.908338 39.512496 -0.624219 0.586543 -0.014256 -0.006807 -595771.000000 0 0 1
-18.494707 12.420987 31.625078 38.684372 -0.591408 0.613713 -0.007850 -0.010146 -391168.000000 0 0 1
-18.531207 11.040787 31.276158 37.993456 -0.537321 0.603774 -0.006628 0.001118 855825.000000 0 0 1
-17.281707 10.429287 30.885508 36.896369 -0.542980 0.578858 -0.017302 0.005400 735128.000000 0 0 1
-17.307107 8.895387 30.991118 36.593896 -0.474763 0.560681 -0.015423 0.016555 -1873.030000 0 0 1
-17.970907 8.158887 29.981698 35.894612 -0.426180 0.582172 -0.003648 0.006166 37617.100000 0 0 1
-18.054907 6.806487 30.236028 35.868166 -0.360513 0.568003 -0.014671 0.008751 -62398.200000 0 0 1
-18.846107 6.071887 29.105878 35.202212 -0.311682 0.597367 -0.007887 0.009187 548291.000000 0 0 1
-20.254607 6.268287 29.153398 36.048039 -0.300126 0.628794 0.006328 0.000772 262672.000000 0 0 1
-20.962407 5.197587 28.572218 35.816324 -0.243046 0.647254 0.007439 -0.005183 118190.000000 0 0 1
-22.421207 5.601687 28.260198 36.506550 -0.244827 0.685483 0.013868 0.004916 -140755.000000 0 0 1
-22.636307 6.379687 27.042768 35.838724 -0.274709 0.715800 0.015478 0.002237 1075240.000000 0 0 1
-24.041607 6.681687 26.995278 36.761241 -0.271081 0.746101 0.017313 0.003527 361202.000000 0 0 1
-24.565607 7.370087 25.732788 36.331303 -0.291472 0.783736 0.017122 -0.002949 -258600.000000 0 0 1
-24.590407 6.599187 24.500138 35.334037 -0.262187 0.804618 0.012590 -0.004404 918711.000000 0 0 1
-25.561087 5.521487 24.536038 35.859074 -0.212743 0.817242 0.007027 0.002855 213633.000000 0 0 1
-25.794697 4.797187 23.208658 35.028863 -0.183875 0.846567 0.000626 0.008706 -172894.000000 0 0 1
-26.383697 5.495387 22.138358 34.877007 -0.205351 0.883105 0.008239 -0.001605 37594.100000 0 0 1
-26.344017 4.732587 20.949858 33.989722 -0.177750 0.906686 0.005700 0.013172 -512200.000000 0 0 1
-27.139477 5.426587 19.842258 34.054578 -0.197349 0.948798 0.022500 0.004638 113460.000000 0 0 1
-28.530127 5.322187 20.093058 35.299077 -0.184426 0.965235 0.025570 -0.002423 449707.000000 0 0 1
-29.326337 5.870087 18.989558 35.427324 -0.197554 1.005087 0.025420 -0.000354 -42922.900000 0 0 1
-30.801647 5.881687 19.362158 36.854157 -0.188682 1.017644 0.025856 0.001495 -606768.000000 0 0 1
-31.076387 6.871587 20.322358 37.761869 -0.217618 1.002530 0.033553 -0.014991 130939.000000 0 0 1
-32.458277 6.791887 20.626858 39.052999 -0.206274 1.014345 0.028673 -0.009222 175848.000000 0 0 1
-32.942437 7.975687 21.474658 40.124515 -0.237539 1.006051 0.031528 -0.009308 170614.000000 0 0 1
-32.272267 8.051987 22.741158 40.292605 -0.244510 0.971090 0.026478 -0.007747 718186.000000 0 0 1
-33.051017 8.824587 23.670958 41.599968 -0.260913 0.965490 0.028238 -0.009813 203146.000000 0 0 1
-0.267907 33.080387 11.866595 35.145410 -1.562698 1.226385 0.022827 -0.014003 -198127.000000 0 0 1
-0.620207 33.339287 13.200195 35.862764 -1.552196 1.193858 0.010132 -0.007837 120068.000000 0 0 1
-0.944807 -34.370977 13.453995 36.922442 1.543315 1.197824 0.016872 -0.006839 -517666.000000 0 0 1
-0.896607 -33.951577 14.928095 37.099347 1.544394 1.156679 -0.005328 0.001183 467383.000000 0 0 1
-1.978907 -34.417777 15.733095 37.894983 1.513363 1.142660 -0.013039 0.010879 -72767.300000 0 0 1
-1.581307 34.501887 17.058495 38.521072 -1.524996 1.112038 -0.012551 0.002842 -109466.000000 0 0 1
-2.636307 -34.440777 18.171495 39.029738 1.494399 1.086506 -0.011833 0.007962 29808.800000 0 0 1
-3.512807 33.527587 18.317395 38.366207 -1.466404 1.073062 -0.008606 0.007618 88933.700000 0 0 1
-4.349507 33.763887 19.430595 39.197784 -1.442681 1.052148 -0.009739 0.004689 -350723.000000 0 0 1
-5.411807 32.641787 19.582995 38.448246 -1.406497 1.036386 -0.017067 0.013168 -79195.900000 0 0 1
-6.318707 32.851687 18.508795 38.232642 -1.380776 1.065451 -0.013913 0.018547 28204.000000 0 0 1
-7.478307 32.057187 18.695495 37.856437 -1.341615 1.054282 -0.007533 0.009433 72133.700000 0 0 1
-8.587607 32.247487 17.643295 37.748288 -1.310533 1.084457 -0.014969 0.005507 -161155.000000 0 0 1
-9.365707 33.446287 17.755195 39.007916 -1.297767 1.098234 -0.000409 0.010731 -6796.970000 0 0 1
-9.992007 33.749387 16.551895 38.895071 -1.282954 1.131224 -0.010082 0.010797 -713625.000000 0 0 1
-10.931307 -34.185177 16.622895 39.553008 1.261304 1.137055 0.007445 0.009103 113098.000000 0 0 1
-12.038207 -34.433777 17.496795 40.456659 1.234474 1.123552 0.011096 0.006643 712289.000000 0 0 1
-13.146607 -33.537677 17.382595 39.997046 1.197210 1.121206 0.005811 0.001244 440978.000000 0 0 1
-14.225107 -33.833277 18.410195 41.060682 1.172788 1.105860 0.022785 0.004170 -275957.000000 0 0 1
-13.835607 -33.441477 19.715595 41.212390 1.178514 1.071976 0.013858 0.001206 -369.591000 0 0 1
-14.755007 -33.836977 20.708895 42.326228 1.159594 1.059545 0.014730 -0.002562 -91371.500000 0 0 1
-14.420907 -33.334977 22.107595 42.519749 1.162501 1.024019 0.013211 -0.002095 -217430.000000 0 0 1
-14.505007 -31.934577 22.223595 41.522291 1.144447 1.006027 0.028153 0.000116 151894.000000 0 0 1
-14.570607 -31.592877 23.542795 42.008043 1.138668 0.975885 0.010476 -0.005245 15439.600000 0 0 1
-14.529907 -30.082477 23.724795 40.974865 1.120839 0.953284 0.019045 -0.009577 34510.400000 0 0 1
-14.253907 -29.653577 25.065195 41.361486 1.122723 0.919770 0.016322 -0.018521 -56527.700000 0 0 1
-14.153107 -28.231377 25.273895 40.448620 1.106089 0.895870 0.022201 -0.006684 134715.000000 0 0 1
-15.297807 -27.271577 24.786695 39.901655 1.059590 0.900530 0.031743 -0.008325 614844.000000 0 0 1
-16.534207 -27.523777 25.443895 40.967427 1.029844 0.900681 0.030127 -0.002433 689134.000000 0 0 1
-17.509407 -26.545277 25.009695 40.456346 0.987698 0.904359 0.036889 -0.006534 -148949.000000 0 0 1
-18.723607 -26.282577 25.942895 41.405086 0.951799 0.893661 0.039223 -0.003988 341253.000000 0 0 1
-19.447907 -27.482477 26.201695 42.661885 0.954956 0.909461 0.049124 -0.005975 63858.500000 0 0 1
-20.256507 -27.980377 25.167695 42.739215 0.944174 0.941141 0.043451 -0.003104 -524816.000000 0 0 1
-21.695707 -27.433277 24.994595 42.988582 0.901657 0.950318 0.040273 0.001770 -126140.000000 0 0 1
-21.786907 -26.076977 24.556695 41.925044 0.874790 0.945018 0.048521 -0.000780 -560576.000000 0 0 1
-23.021807 -25.894477 23.952295 42.121728 0.844057 0.965939 0.031862 0.008178 -727477.000000 0 0 1
-23.312007 -24.403977 23.502595 41.126339 0.808279 0.962497 0.030538 0.018631 -209174.000000 0 0 1
-23.612507 -23.622577 24.622295 41.494988 0.785611 0.935545 0.018660 0.020790 65546.600000 0 0 1
-23.953307 -22.342977 24.138095 40.689276 0.750629 0.935731 0.009738 0.020778 -188617.000000 0 0 1
-24.523907 -21.530377 25.299595 41.292235 0.720489 0.911329 0.010129 0.021319 -48576.400000 0 0 1
-25.650057 -22.135177 25.895995 42.643805 0.711975 0.918186 0.005673 0.021933 38396.800000 0 0 1
-25.941867 -21.500877 27.132895 43.260400 0.692063 0.892844 0.008176 0.013219 -568580.000000 0 0 1
-27.004747 -22.204477 27.999395 44.791308 0.688158 0.895527 0.018203 0.005802 77374.000000 0 0 1
-28.375477 -22.132877 27.693895 45.409072 0.662426 0.914892 0.022982 0.004102 276245.000000 0 0 1
-28.793047 -22.762777 26.473795 45.255336 0.668961 0.945932 -0.000009 0.013704 -1758110.000000 0 0 1
-30.271387 -23.025777 26.549695 46.383506 0.650279 0.961372 0.025352 0.006913 -697668.000000 0 0 1
-31.003847 -23.531577 25.388695 46.471061 0.649229 0.992816 0.014724 0.009569 657324.000000 0 0 1
-30.668637 -24.828277 24.972395 46.697207 0.680547 1.006558 0.006279 0.010287 -679243.000000 0 0 1
-31.150297 -25.136277 23.554095 46.443179 0.678956 1.038911 0.002313 0.013220 -415893.000000 0 0 1
-32.525057 -25.391477 23.467495 47.469251 0.662845 1.053683 0.003793 0.008942 -293552.000000 0 0 1
-32.800147 -26.033677 22.204695 47.398845 0.670891 1.083244 -0.001586 0.016162 25986.700000 0 0 1
-34.069811 -26.921277 22.212995 48.774218 0.668724 1.097947 0.012103 0.007477 -231515.000000 0 0 1
-33.995857 -28.287877 22.748695 49.733544 0.694009 1.095714 0.006033 0.006522 -156500.000000 0 0 1
-32.986717 -29.153277 22.289795 49.344423 0.723786 1.102106 -0.004385 0.001759 -752073.000000 0 0 1
-33.457877 -30.367177 21.400995 49.995976 0.737011 1.128458 0.003245 0.003598 -128701.000000 0 0 1
-33.657557 -29.954777 20.057695 49.319681 0.727255 1.151971 0.000715 0.011067 388400.000000 0 0 1
-34.152802 -31.057277 19.305295 50.036614 0.737964 1.174696 0.000373 0.011483 -534770.000000 0 0 1
-34.469859 -30.710477 17.868595 49.503447 0.727785 1.201503 0.002397 0.016514 -551340.000000 0 0 1
-33.346467 -30.286577 17.108095 48.186622 0.737349 1.207841 0.005317 0.013815 331619.000000 0 0 1
-33.590917 -29.863377 15.753495 47.627131 0.726722 1.233680 0.009326 0.015312 -42891.400000 0 0 1
-34.154265 -30.879177 14.724795 48.341049 0.735081 1.261275 0.001735 0.007100 1160030.000000 0 0 1
-33.105737 -31.777777 14.209695 48.038863 0.764934 1.270508 0.004375 0.001052 978733.000000 0 0 1
-33.518607 -32.483077 13.037995 48.462735 0.769710 1.298409 0.016198 -0.001704 146347.000000 0 0 1
-33.486917 -31.733277 11.667395 47.586790 0.758517 1.323090 -0.003579 -0.000943 654365.000000 0 0 1
-34.690696 -30.954877 11.573295 47.912316 0.728551 1.326832 -0.002500 -0.000320 631852.000000 0 0 1
-34.742428 -30.110177 10.432495 47.143356 0.714092 1.347656 0.011674 0.000572 -414572.000000 0 0 1
34.567768 -29.167077 10.295795 46.385907 -0.700863 1.346973 0.040718 0.002970 -435039.000000 0 0 1
34.732978 -28.135777 9.325095 45.661353 -0.680845 1.365126 0.049614 -0.030919 -375125.000000 0 0 1
33.510496 -27.499977 9.147595 44.304408 -0.687199 1.362829 0.055939 -0.026335 -491413.000000 0 0 1
33.576406 -26.345377 8.067895 43.434374 -0.665304 1.383962 0.056735 -0.023096 277209.000000 0 0 1
34.214506 -25.171577 8.553495 43.329009 -0.634285 1.372083 0.061606 -0.027622 6500.710000 0 0 1
34.452974 -24.211877 7.530995 42.777778 -0.612570 1.393825 0.062884 -0.025868 74229.800000 0 0 1
34.888784 -22.765977 7.946195 42.410600 -0.578152 1.382319 0.068305 -0.028704 659680.000000 0 0 1
33.855916 -21.945277 8.553695 41.242987 -0.575106 1.361882 0.056207 -0.029215 297715.000000 0 0 1
34.172356 -20.577977 8.399295 40.764583 -0.542022 1.363266 0.061336 -0.022976 227747.000000 0 0 1
33.213466 -19.606177 9.152795 39.639755 -0.533263 1.337794 0.075490 -0.012775 156100.000000 0 0 1
33.383576 -19.627477 10.560695 40.140121 -0.531503 1.304567 0.062009 -0.025405 -236068.000000 0 0 1
32.807966 -18.500377 11.139395 39.277382 -0.513452 1.283241 0.039211 -0.009690 -433404.000000 0 0 1
33.133676 -18.252777 12.655995 39.889580 -0.503521 1.247941 0.022864 -0.020416 -243237.000000 0 0 1
34.445243 -17.788877 12.868095 40.847360 -0.476712 1.250309 -0.002295 -0.012136 -181779.000000 0 0 1
34.860934 -18.203677 14.145195 41.794080 -0.481234 1.225527 0.002005 -0.005453 291972.000000 0 0 1
-34.293645 -17.607677 14.658095 41.242504 0.474341 1.207441 0.009292 -0.005586 845836.000000 0 0 1
-33.111367 -18.144777 14.058195 40.289309 0.501301 1.214366 0.009615 -0.010686 445611.000000 0 0 1
-31.972237 -17.630377 14.725795 39.368810 0.503939 1.187427 0.002904 -0.008665 224975.000000 0 0 1
-30.662087 -17.595877 13.901395 37.987199 0.520980 1.196143 0.026464 -0.012018 22461.700000 0 0 1
-30.099687 -18.859577 13.680495 38.063510 0.559728 1.203158 0.010793 -0.011354 -190428.000000 0 0 1
-29.027607 -18.842477 12.778495 36.890796 0.575758 1.217079 -0.030236 0.003375 -440378.000000 0 0 1
-28.238417 -20.139177 12.563395 36.889478 0.619519 1.223275 -0.049042 -0.001870 -347696.000000 0 0 1
-28.900977 -21.145277 11.821095 37.711106 0.631651 1.251957 -0.033632 -0.000268 198875.000000 0 0 1
-28.004827 -21.714477 10.815595 37.050856 0.659550 1.274571 -0.041472 0.011677 57244.600000 0 0 1
-28.455047 -22.902377 9.890395 37.842153 0.677698 1.306366 -0.021736 0.005204 70599.800000 0 0 1
-28.919827 -23.970577 10.673495 39.049564 0.692094 1.293941 -0.020124 0.005451 1454250.000000 0 0 1
-30.297537 -23.890777 11.158095 40.164824 0.667713 1.289285 -0.006624 -0.001241 1143400.000000 0 0 1
-31.111077 -25.186877 11.086395 41.535359 0.680555 1.300606 -0.008856 -0.004576 -60159.900000 0 0 1
-31.497287 -25.616777 9.811295 41.767929 0.682799 1.333680 -0.002809 -0.001688 206939.000000 0 0 1
-32.182877 -26.887477 9.941595 43.098832 0.695992 1.338030 0.006252 0.000155 411856.000000 0 0 1
-32.397287 -27.523277 8.517895 43.355156 0.704236 1.373042 0.004676 -0.002270 -444108.000000 0 0 1
-31.232927 -28.049477 8.014595 42.737602 0.731750 1.382149 -0.012365 -0.003789 -575045.000000 0 0 1
-31.557987 -28.552977 6.709195 43.083551 0.735449 1.414435 -0.006687 -0.003118 168988.000000 0 0 1
-30.266687 -28.924577 5.963195 42.287861 0.762728 1.429310 -0.006861 0.000430 199545.000000 0 0 1
-29.707847 -27.840177 5.220295 41.047328 0.752955 1.443274 -0.007446 0.004778 -532832.000000 0 0 1
-28.568317 -28.180877 4.499995 40.380200 0.778571 1.459124 -0.011890 -0.000241 -135895.000000 0 0 1
-27.900597 -26.906477 3.851995 38.951761 0.767262 1.471743 -0.016332 0.003569 26579.900000 0 0 1
-28.442397 -26.533777 2.606495 38.984678 0.750695 1.503887 -0.000731 0.000016 -245617.000000 0 0 1
-27.873087 -25.308777 2.178995 37.711951 0.737218 1.512984 -0.007412 -0.005049 -516921.000000 0 0 1
-28.307907 -24.726777 0.803895 37.595177 0.717976 1.549412 0.004924 -0.001922 -432863.000000 0 0 1
-27.837967 -25.539977 -0.194805 37.779370 0.742373 1.575953 0.007441 -0.006526 -240248.000000 0 0 1
-27.858327 -24.934577 -1.504905 37.417700 0.730073 1.611026 0.013022 -0.011471 393760.000000 0 0 1
-29.256537 -24.751177 -2.175805 38.383589 0.702170 1.627513 0.034444 -0.010456 95164.400000 0 0 1
-30.001927 -23.638777 -1.842105 38.240041 0.667325 1.618987 0.030535 -0.003901 -985738.000000 0 0 1
-31.283347 -23.817577 -2.360105 39.389020 0.650726 1.630750 0.054875 -0.014407 -605604.000000 0 0 1
-32.213037 -22.652877 -2.034005 39.433105 0.612884 1.622400 0.056281 -0.012809 -227500.000000 0 0 1
-32.326617 -22.300377 -0.650505 39.277731 0.603878 1.587359 0.061388 -0.018822 145674.000000 0 0 1
-33.295237 -21.308177 -0.392805 39.531829 0.569297 1.580733 0.047711 -0.013754 -15357.800000 0 0 1
-33.355727 -20.815477 1.055695 39.331961 0.557912 1.543952 0.053202 -0.018111 -249491.000000 0 0 1
-33.754127 -21.857577 1.836995 40.255054 0.574653 1.525147 0.051497 -0.019564 -9991.810000 0 0 1
-33.694197 -21.410477 3.145195 40.044971 0.566068 1.492174 0.053206 -0.016368 -671546.000000 0 0 1
-34.818572 -22.058777 4.017895 41.413357 0.564713 1.473624 0.065979 -0.007299 120895.000000 0 0 1
34.425566 -21.843877 3.445495 40.916329 -0.565419 1.486488 0.061246 -0.010574 -542851.000000 0 0 1
33.795796 -20.628977 3.839395 39.780039 -0.548032 1.474130 0.062712 -0.021847 -600319.000000 0 0 1
32.567026 -20.306577 2.979495 38.494748 -0.557543 1.493319 0.046780 -0.012179 323214.000000 0 0 1
31.484736 -21.225177 3.153495 38.101723 -0.593160 1.487936 0.047610 -0.008094 406156.000000 0 0 1
30.280366 -20.719377 2.575595 36.780795 -0.600078 1.500713 0.038052 -0.015453 1138610.000000 0 0 1
29.043806 -21.651077 2.870095 36.339362 -0.640591 1.491734 0.024932 -0.000962 397550.000000 0 0 1
28.884806 -22.639977 1.900495 36.749319 -0.664786 1.519058 0.021898 -0.005785 -429054.000000 0 0 1
27.828346 -23.372677 2.453195 36.424127 -0.698594 1.503394 0.013027 0.007063 -365891.000000 0 0 1
27.334326 -24.538677 1.646295 36.769857 -0.731556 1.526008 0.013476 0.002625 -39845.700000 0 0 1
26.840836 -24.121977 0.377495 36.089372 -0.732099 1.560336 0.009230 -0.004535 93479.500000 0 0 1
26.309866 -25.204977 -0.354105 36.436593 -0.763953 1.580515 0.004120 -0.001966 -132615.000000 0 0 1
25.450036 -24.726277 -1.539005 35.517062 -0.770975 1.614141 0.006418 -0.006645 -227635.000000 0 0 1
26.171816 -24.541377 -2.760605 35.984220 -0.753259 1.647589 0.001913 -0.019097 207219.000000 0 0 1
26.376056 -25.594577 -3.669805 36.935703 -0.770362 1.670317 0.006764 -0.017452 -760845.000000 0 0 1
25.181136 -26.141377 -4.471005 36.571179 -0.804106 1.693358 0.005542 -0.022661 -101688.000000 0 0 1
24.769136 -25.323477 -5.594205 35.862010 -0.796464 1.727429 0.004027 -0.031444 316472.000000 0 0 1
23.895936 -24.278977 -5.211805 34.462261 -0.793349 1.722611 0.009797 -0.026653 -572753.000000 0 0 1
23.430036 -23.285077 -6.307805 33.629597 -0.782295 1.759481 0.014155 -0.034674 -423609.000000 0 0 1
22.627636 -23.864877 -7.274205 33.681691 -0.812003 1.788481 0.017582 -0.035781 11367.200000 0 0 1
21.590736 -22.990077 -7.753405 32.477974 -0.816777 1.811852 0.014127 -0.030938 43100.300000 0 0 1
21.869536 -21.713877 -8.605405 31.997220 -0.781827 1.843091 0.009814 -0.026654 -1041680.000000 0 0 1
22.661936 -21.838977 -9.736505 32.943949 -0.766907 1.870825 0.016030 -0.030701 -212898.000000 0 0 1
22.481036 -20.744877 -10.597805 32.373761 -0.745255 1.904302 0.004350 -0.024791 -366260.000000 0 0 1
23.184336 -20.749577 -11.952805 33.330586 -0.730036 1.937579 0.009137 -0.017683 -92052.700000 0 0 1
24.572336 -20.570577 -11.774605 34.140733 -0.696983 1.922912 0.024247 -0.026625 -33841.900000 0 0 1
25.184536 -20.014777 -12.946505 34.676565 -0.671516 1.953414 0.024700 -0.027782 222539.000000 0 0 1
26.724586 -20.155777 -13.006605 35.911428 -0.646186 1.941408 0.026537 -0.025447 129492.000000 0 0 1
27.307976 -21.430477 -13.162005 37.124511 -0.665385 1.933215 0.022555 -0.026636 322640.000000 0 0 1
27.487026 -22.259777 -11.984905 37.345311 -0.680705 1.897498 0.032264 -0.023106 -253165.000000 0 0 1
27.725796 -23.711777 -12.373505 38.523652 -0.707519 1.897785 0.020942 -0.016769 -1133910.000000 0 0 1
28.834866 -23.878777 -13.157905 39.683447 -0.691655 1.908765 0.019022 -0.016356 -606866.000000 0 0 1
29.077936 -25.223477 -13.601405 40.825830 -0.714534 1.910446 0.026230 -0.008314 -274381.000000 0 0 1
-4.175907 -8.492913 -27.934985 29.494595 1.113816 2.814941 0.038609 -0.008203 -113398.000000 0 0 1
-4.092307 -7.277813 -27.264385 28.514211 1.058560 2.844420 0.021102 -0.006872 255459.000000 0 0 1
-4.819907 -6.280413 -27.943555 29.043370 0.916220 2.865515 0.015294 -0.007299 -152385.000000 0 0 1
-4.776507 -4.934013 -27.146255 28.001405 0.801617 2.893818 0.003491 -0.013011 427838.000000 0 0 1
-5.435407 -5.119813 -25.853415 26.910132 0.755508 2.860423 0.005193 -0.005528 622696.000000 0 0 1
-5.126207 -4.029813 -25.043005 25.877973 0.666220 2.886875 0.008442 -0.015016 7022.190000 0 0 1
-5.680907 -4.093613 -23.606905 24.623492 0.624412 2.853244 0.007389 -0.013927 -117046.000000 0 1 0
-5.074307 -5.167113 -22.864005 23.983544 0.794460 2.834845 0.015856 -0.013255 729539.000000 0 1 0
-5.477507 -5.149713 -21.514505 22.790273 0.754563 2.805412 0.016711 -0.012672 -349482.000000 0 1 0
-4.823207 -6.268513 -20.724805 22.182766 0.914973 2.777017 0.019463 -0.008663 -168008.000000 0 1 0
-5.359607 -7.582913 -21.064405 23.020320 0.955521 2.726392 0.019207 0.000880 549946.000000 0 1 0
-4.528007 -8.581013 -20.501505 22.681454 1.085253 2.699570 0.028065 -0.005572 -1100080.000000 0 1 0
-5.222307 -9.955813 -20.296405 23.202042 1.087703 2.635753 0.035065 -0.004726 224167.000000 0 1 0
-6.310707 -9.941313 -19.391805 22.686931 1.005184 2.595878 0.036132 -0.009151 50652.500000 0 1 0
-7.476007 -9.343513 -19.915405 23.233925 0.895977 2.600544 0.024149 -0.005673 -1496350.000000 0 1 0
-8.654807 -9.325613 -18.946505 22.821981 0.822688 2.550239 0.019029 0.004948 -556387.000000 0 1 0
-9.182307 -10.599613 -18.732905 23.400604 0.856922 2.498977 0.035493 -0.002637 -24391.100000 0 1 0
-9.992307 -10.616713 -17.566605 22.828631 0.815687 2.448852 0.027277 -0.002210 -236957.000000 0 1 0
-10.942207 -11.816313 -17.577705 23.839733 0.823787 2.399903 0.026879 -0.001087 99953.800000 0 1 0
-12.130907 -11.770713 -18.359005 24.955193 0.770329 2.397465 0.027258 -0.003606 478822.000000 0 1 0
-11.895407 -11.961013 -19.752305 25.975375 0.788148 2.434762 0.025191 -0.012943 -878973.000000 0 0 1
-13.187807 -11.884513 -20.629905 27.216776 0.733464 2.431015 0.006242 -0.008757 419797.000000 0 0 1
-13.897707 -13.115313 -20.702605 28.173668 0.756443 2.396199 -0.001296 -0.004493 28314.300000 0 0 1
-14.515907 -13.549313 -19.484805 27.820012 0.750971 2.346737 -0.001570 0.003077 -763452.000000 0 0 1
-15.601707 -14.604213 -19.810605 29.140288 0.752387 2.318335 -0.015537 0.004799 -310182.000000 0 0 1
-15.041107 -15.814513 -20.162905 29.713237 0.810458 2.316628 0.002163 0.003568 -524271.000000 0 0 1
-15.864007 -16.544513 -20.990105 31.080092 0.806393 2.312243 0.006252 -0.004118 -375147.000000 0 0 1
-15.272707 -17.903613 -21.381205 31.795454 0.864533 2.308325 0.004136 -0.006049 -342996.000000 0 0 1
-15.404107 -18.953913 -20.405205 31.826243 0.888351 2.266784 0.012702 -0.004754 86509.700000 0 0 1
-15.178707 -20.144413 -21.140105 32.910402 0.925062 2.268361 0.015216 -0.004206 -303119.000000 0 0 1
-15.907607 -21.238513 -20.384505 33.461238 0.927937 2.225845 0.020161 -0.006104 -233036.000000 0 0 1
-15.642907 -22.522113 -20.970105 34.520884 0.963732 2.223657 0.017439 -0.004827 35342.400000 0 0 1
-16.123907 -23.605413 -20.181205 34.992527 0.971530 2.185515 0.027715 -0.000432 70865.500000 0 0 1
-15.512107 -24.921113 -20.663305 35.897904 1.014034 2.184150 0.027701 -0.003033 -246544.000000 0 0 1
-15.882707 -25.199483 -21.993205 37.026685 1.008410 2.206797 0.019354 -0.003599 -151561.000000 0 0 1
-15.312607 -26.370113 -22.478505 37.883268 1.044704 2.206026 0.025789 -0.004499 -434312.000000 0 0 1
-15.523007 -26.718773 -23.974505 39.110529 1.044481 2.230640 0.036095 -0.011452 -507559.000000 0 0 1
-16.736707 -27.281833 -24.385405 40.237591 1.020528 2.221863 0.041006 -0.008375 -568725.000000 0 0 1
-16.891507 -28.618493 -24.113605 41.058581 1.037591 2.198512 0.047779 -0.006064 4053.970000 0 0 1
-17.932807 -29.245893 -25.095545 42.505226 1.020747 2.202364 0.045352 -0.007424 73379.900000 0 0 1
-17.543407 -29.301823 -26.483645 43.217490 1.031323 2.230394 0.042693 -0.011866 201791.000000 0 0 1
-17.963307 -28.166983 -27.238985 43.104775 1.003086 2.254831 0.048579 -0.016162 -335307.000000 0 0 1
-16.825107 -27.706563 -28.122035 42.913712 1.025055 2.285397 0.048652 -0.016098 -478282.000000 0 0 1
-16.753507 -28.201623 -29.403785 44.052175 1.034755 2.301611 0.047503 -0.012626 -836300.000000 0 0 1
-15.647507 -27.759923 -30.098945 43.833826 1.057517 2.327681 0.031763 -0.004909 -734844.000000 0 0 1
-15.602307 -27.957793 -31.627845 45.004342 1.061781 2.350085 0.029235 0.001207 -137643.000000 0 0 1
-15.459807 -29.345783 -31.965425 46.064835 1.085927 2.337719 0.011626 0.007936 -179473.000000 0 0 1
-16.317307 -29.827423 -32.958845 47.352034 1.070215 2.340662 0.014424 0.013902 -357475.000000 0 0 1
-16.116607 -31.391173 -33.034185 48.336406 1.096477 2.323237 0.006772 0.012482 208357.000000 0 0 1
-14.968407 -31.747393 -33.803355 48.730042 1.130220 2.337391 0.012099 0.015912 -18439.800000 0 0 1
-15.221207 -32.896643 34.481388 50.028396 1.137433 0.810362 0.004765 0.014990 568912.000000 0 0 1
-13.959307 -33.448643 33.691432 49.485216 1.175435 0.821890 -0.003271 0.010258 1503590.000000 0 0 1
-13.055907 -34.291326 34.442434 50.325272 1.207007 0.817021 0.009126 0.012228 474817.000000 0 0 1
-12.095007 34.167125 33.596269 49.420552 -1.230567 0.823302 0.002441 0.012341 487400.000000 0 0 1
-11.100107 33.278755 34.404126 49.135850 -1.248851 0.795141 0.018679 0.007531 841714.000000 0 0 1
-10.103107 34.046274 -33.918775 49.109112 -1.282327 2.333228 0.017288 0.014272 353640.000000 0 0 1
-9.448907 33.366308 -32.882265 47.789494 -1.294835 2.329615 0.020773 0.005481 -131044.000000 0 0 1
-8.684007 34.285081 -31.972485 47.677233 -1.322725 2.305817 0.009963 0.008059 -118450.000000 0 0 1
-9.543007 -34.167373 -31.056255 47.148376 1.298435 2.289875 0.015872 0.007786 -35825.100000 0 0 1
-8.873507 -33.078803 -30.450795 45.827909 1.308713 2.297567 0.007294 0.007660 -161156.000000 0 0 1
-9.799307 -32.176713 -29.598565 44.804490 1.275174 2.292435 0.018451 0.007663 173657.000000 0 0 1
-9.934507 -32.520103 -28.230055 44.194881 1.274312 2.263686 0.021637 0.010426 -40182.900000 0 0 1
-10.549807 -33.783293 -27.939865 45.091522 1.268113 2.239062 0.026774 0.006602 -234442.000000 0 0 1
-10.897107 -33.968963 -26.476225 44.425532 1.260371 2.209268 0.033819 0.004851 -363981.000000 0 0 1
-9.815607 -33.861813 -25.602625 43.571354 1.288657 2.198889 0.018996 -0.002513 -815883.000000 0 0 1
-10.163807 -34.124560 -24.258505 43.084378 1.281318 2.168864 0.026241 -0.017814 450008.000000 0 0 1
-8.987807 -34.244506 -23.218405 42.338649 1.314126 2.151243 0.019797 -0.015765 612753.000000 0 0 1
-8.253207 33.634310 -23.325505 41.754777 -1.330170 2.163530 0.013096 -0.018775 97068.600000 0 0 1
-7.438607 33.361064 -22.190705 40.751943 -1.351412 2.146626 0.025550 -0.012883 165969.000000 0 0 1
-6.595607 32.042401 -22.293705 39.588215 -1.367792 2.168977 0.029450 -0.022083 -160673.000000 0 0 1
-5.459007 32.092211 -23.116205 39.925802 -1.402305 2.188272 0.010637 -0.017606 -375092.000000 0 0 1
-4.692807 30.926291 -22.860505 38.743523 -1.420203 2.201914 0.001606 -0.014564 1179070.000000 0 0 1
-3.142307 31.109521 -23.165405 38.914167 -1.470130 2.208429 0.005996 -0.016788 1196980.000000 0 0 1
-2.724407 31.268961 -24.574505 39.863224 -1.483888 2.235049 -0.003132 -0.017021 -88841.500000 0 0 1
-3.315807 32.298831 -25.311165 41.168728 -1.468494 2.232948 0.002380 -0.011316 -544255.000000 0 0 1
-2.545607 32.585351 -26.651825 42.173511 -1.492833 2.254871 -0.012444 0.005184 -189508.000000 0 0 1
-1.476807 33.478056 -26.742055 42.873053 -1.526712 2.244327 -0.006373 0.003261 -163260.000000 0 0 1
-1.903107 -34.289590 -26.411605 43.324020 1.515352 2.226390 -0.007153 0.002053 -468173.000000 0 0 1
-0.863507 -33.324533 -26.928485 42.853395 1.544890 2.250273 -0.030354 0.018061 -456866.000000 0 0 1
0.281993 -33.216223 -26.139535 42.269046 -1.562307 2.237512 -0.015791 0.017496 -611669.000000 0 0 1
1.133693 -32.178153 -26.511545 41.708282 -1.535579 2.259636 -0.027811 0.020819 461166.000000 0 0 1
2.294793 -31.789573 -25.527775 40.835160 -1.498734 2.246110 -0.021361 0.022212 316033.000000 0 0 1
1.930893 -31.129913 -24.324705 39.553648 -1.508849 2.233157 -0.010448 0.018833 254400.000000 0 0 1
3.081993 -30.537163 -23.759205 38.813874 -1.470211 2.229550 -0.020201 0.021910 -75476.900000 0 0 1
2.827793 -30.040563 -22.315905 37.529075 -1.476940 2.207601 -0.008976 0.015164 -207706.000000 0 0 1
2.786693 -31.128933 -21.447105 37.904544 -1.481513 2.172222 -0.001822 0.019765 345101.000000 0 0 1
2.884093 -30.636753 -20.149305 36.782103 -1.476935 2.150531 0.008819 0.010738 -611367.000000 0 0 1
2.822193 -31.747903 -19.030405 37.122102 -1.482136 2.109057 0.012338 0.018797 -565447.000000 0 0 1
1.593893 -32.396233 -18.875205 37.527720 -1.521636 2.097825 0.028699 0.018654 -236660.000000 0 0 1
1.527993 -33.673633 -19.498005 38.941244 -1.525451 2.095207 0.036537 0.027584 -464028.000000 0 0 1
2.386293 34.270581 -18.917705 39.217938 1.501278 2.074159 0.028798 0.007281 70528.200000 0 0 1
3.753293 34.289152 -19.273005 39.513060 1.461770 2.080322 0.020207 0.010509 -216639.000000 0 0 1
4.425893 33.472327 -18.313105 38.410350 1.439334 2.067779 0.039591 -0.015452 -182063.000000 0 0 1
5.712993 32.869221 -18.844305 38.316208 1.398706 2.084964 0.041653 -0.006288 200056.000000 0 0 1
6.803993 33.774528 -19.140105 39.412646 1.372004 2.077884 0.084378 -0.002336 -72580.100000 0 0 1
7.726993 33.072521 -19.909405 39.368547 1.341276 2.101011 0.042948 -0.004410 -774764.000000 0 0 1
9.049593 33.844252 -20.020605 40.350380 1.309519 2.089977 0.016549 -0.010660 -551129.000000 0 0 1
9.660293 33.878732 -18.767105 39.916087 1.293025 2.060273 -0.000676 -0.001346 -410229.000000 0 0 1
10.821593 -34.418666 -18.842405 40.703657 -1.266172 2.052079 -0.003250 0.005807 27425.000000 0 0 1
11.692893 -34.495069 -17.565905 40.437539 -1.243979 2.020164 -0.026815 0.011016 -313589.000000 0 0 1
12.545793 33.507670 -17.340105 39.759780 1.212538 2.022081 -0.030538 0.005221 -126979.000000 0 0 1
13.054193 33.697238 -16.042505 39.538308 1.201202 1.988591 -0.034889 0.005436 -387712.000000 0 0 1
14.094393 32.692101 -15.570705 38.857074 1.163749 1.983096 -0.022771 0.007296 -234252.000000 0 0 1
13.571493 31.379711 -15.293805 37.453600 1.162597 1.991431 -0.016023 -0.000873 370766.000000 0 0 1
14.509093 30.314301 -15.577605 37.042305 1.124397 2.004832 -0.006855 -0.004382 189116.000000 0 0 1
14.185193 29.086111 -14.689205 35.538631 1.117040 1.996905 -0.003590 -0.005113 -29842.500000 0 0 1
14.577093 29.241671 -13.319305 35.284144 1.108346 1.957877 0.005798 -0.008168 133160.000000 0 0 1
13.426193 29.317671 -12.497605 34.582924 1.141346 1.940545 0.012645 -0.011143 225360.000000 0 0 1
12.853493 27.935101 -12.042805 33.024405 1.139559 1.944068 0.004315 -0.009190 -347375.000000 0 0 1
12.106493 27.256481 -13.053905 32.555911 1.152802 1.983370 -0.006529 -0.007571 138875.000000 0 0 1
11.662493 25.901901 -12.766005 31.143107 1.147729 1.993156 0.017028 -0.006531 519974.000000 0 0 1
10.790593 25.572841 -11.509505 30.047892 1.171507 1.963880 0.021978 -0.009260 34908.700000 0 0 1
9.570293 26.283391 -11.471305 30.232400 1.221599 1.959985 0.014789 -0.004324 94272.700000 0 0 1
9.172493 26.650991 -10.132305 29.951186 1.239324 1.915900 0.010839 0.009018 238146.000000 0 0 1
8.040393 27.712161 -10.203205 30.605836 1.288410 1.910677 0.008492 0.002187 355994.000000 0 0 1
8.502793 28.972331 -10.618805 32.007069 1.285332 1.908970 0.010505 -0.003069 -611652.000000 0 0 1
7.427893 29.832131 -10.646705 32.534320 1.326769 1.904183 0.016143 -0.006937 -541656.000000 0 0 1
7.742093 31.273951 -11.134905 34.087918 1.328118 1.903556 0.032599 -0.013514 46658.700000 0 0 1
8.502693 31.965101 -10.170805 34.605039 1.310817 1.869112 0.025681 -0.007758 -306403.000000 0 0 1
8.805993 33.345890 -10.413505 36.026865 1.312610 1.864029 0.036257 -0.013775 -309806.000000 0 0 1
9.812893 33.781351 -11.537505 37.021434 1.288094 1.887719 0.018228 -0.001993 -22640.800000 0 0 1
11.097193 33.457611 -11.026505 36.934310 1.250535 1.873963 0.015506 -0.002478 -386545.000000 0 0 1
12.025993 33.800147 -12.040205 37.842317 1.228966 1.894593 0.006351 0.000764 134442.000000 0 0 1
13.488393 33.374196 -11.729905 37.859799 1.186712 1.885805 0.007020 -0.007114 336013.000000 0 0 1
13.942393 34.180109 -10.655905 38.421589 1.183490 1.851822 0.008466 -0.002829 1278040.000000 0 0 1
15.361793 33.919604 -10.420705 38.666721 1.145543 1.843671 0.011434 -0.006845 1575050.000000 0 0 1
16.022893 -34.097634 -9.563205 38.869482 -1.131507 1.819382 0.027409 -0.015195 -122159.000000 0 0 1
15.842393 -34.244920 -8.141305 38.600218 -1.137497 1.783306 0.024902 -0.020379 -112733.000000 0 0 1
16.638293 -33.368413 -7.404305 38.014570 -1.108250 1.766825 0.022729 -0.015512 -981161.000000 0 0 1
17.092993 -33.976293 -6.020405 38.507196 -1.104683 1.727785 0.016886 -0.005997 -40158.000000 0 0 1
17.988293 34.031656 -6.085105 38.971282 1.084551 1.727581 0.006411 -0.013702 -766175.000000 0 0 1
19.288593 34.474316 -6.356405 40.011650 1.060684 1.730336 0.002125 -0.007122 -1485090.000000 0 0 1
19.990193 33.393129 -7.231205 39.585341 1.031383 1.754502 -0.004604 -0.004576 -57788.100000 0 0 1
20.174893 32.184471 -6.487705 38.535137 1.010867 1.739960 0.001430 0.006978 -199067.000000 0 0 1
21.327293 32.242261 -5.673105 39.071741 0.986400 1.716509 -0.002805 0.009847 -738361.000000 0 0 1
21.639493 30.874711 -5.071805 38.042590 0.959479 1.704514 -0.012181 0.010125 -463126.000000 0 0 1
22.017193 29.896211 -6.014205 37.612642 0.936021 1.731384 -0.009615 0.010121 -55947.600000 0 0 1
22.217293 28.688741 -5.407205 36.686371 0.911845 1.718725 -0.002317 0.017641 -831432.000000 0 0 1
23.132293 27.858641 -6.293705 36.753470 0.877824 1.742886 0.000477 0.022317 200650.000000 0 0 1
24.430693 28.477261 -6.367705 38.057336 0.861733 1.738906 0.011433 0.016975 593985.000000 0 0 1
25.346993 27.758071 -7.177905 38.268824 0.830769 1.759479 -0.004964 0.016911 456891.000000 0 0 1
26.306293 26.761291 -6.454705 38.076908 0.793972 1.741136 0.001395 0.020874 46427.400000 0 0 1
27.262693 27.446101 -5.642005 39.094438 0.788751 1.715619 -0.001190 0.010469 -67896.400000 0 0 1
27.987193 26.536631 -4.880905 38.875429 0.758800 1.696681 0.002158 0.023436 468058.000000 0 0 1
29.197793 27.135351 -4.079705 40.068471 0.748803 1.672791 0.006687 0.016400 382925.000000 0 0 1
28.749293 27.958031 -3.059005 40.218539 0.771446 1.646929 0.012835 0.006713 230037.000000 0 0 1
29.671193 28.127231 -1.960305 40.931206 0.758692 1.618707 0.010450 0.007299 405528.000000 0 0 1
29.653893 29.517751 -1.429705 41.865201 0.783097 1.604953 0.041936 0.001591 -3108.160000 0 0 1
30.246193 30.441081 -2.338905 42.976297 0.788610 1.625246 0.034048 -0.005210 125090.000000 0 0 1
30.234693 31.751121 -1.914505 43.885483 0.809857 1.614435 0.046925 -0.006385 -162404.000000 0 0 1
32.317696 22.906187 19.694258 44.237887 0.616595 1.109410 0.020921 0.000097 -220151.000000 0 0 1
32.494636 22.939887 21.093858 45.023223 0.614714 1.083192 0.014724 -0.012792 53393.900000 0 0 1
33.545036 23.757387 21.548058 46.411224 0.616224 1.087969 0.010778 -0.009475 -126587.000000 0 0 1
33.566856 23.911187 23.049158 47.220148 0.618963 1.060860 0.016090 -0.008899 -85811.400000 0 0 1
32.494166 24.648187 23.586258 47.113857 0.648946 1.046479 -0.000667 0.002062 96769.800000 0 0 1
32.392996 24.388087 24.986468 47.627813 0.645343 1.018529 -0.008124 -0.003870 130578.000000 0 0 1
31.020936 24.845787 25.547888 47.247288 0.675311 0.999495 0.004160 -0.005106 173462.000000 0 0 1
30.944576 26.276187 25.594618 47.990512 0.703993 1.008268 -0.009207 -0.007948 1231220.000000 0 0 1
29.551186 26.656087 25.561948 47.299395 0.733936 0.999850 -0.007664 -0.009064 1075210.000000 0 0 1
29.412536 28.202687 25.785458 48.222180 0.764402 1.006618 -0.011416 0.004320 -156965.000000 0 0 1
29.648226 29.089987 24.727588 48.339407 0.775895 1.033819 -0.011279 -0.005001 270265.000000 0 0 1
29.205706 30.385487 25.080058 49.043454 0.805193 1.034001 -0.006247 -0.000789 -145465.000000 0 0 1
29.199026 31.384387 23.909858 49.084052 0.821454 1.062007 -0.003103 0.000582 -886935.000000 0 0 1
30.443666 31.927187 23.684158 50.070964 0.809179 1.078090 -0.014246 -0.001744 -905131.000000 0 0 1
30.490206 32.678287 22.504958 50.039946 0.820023 1.104322 -0.013982 0.005936 -483409.000000 0 0 1
31.956166 32.873387 22.148958 50.915935 0.799545 1.120747 -0.019121 -0.008248 -559047.000000 0 0 1
32.478366 33.932187 22.883658 52.248439 0.807286 1.117448 -0.011567 0.010453 -212753.000000 0 0 1
33.863886 34.062487 22.632458 53.096553 0.788322 1.130452 -0.008958 0.008794 132755.000000 0 0 1
34.455680 -33.798677 23.378358 53.629209 -0.775773 1.119730 -0.000924 0.014024 -307282.000000 0 0 1
34.048766 -32.541077 22.864358 52.354742 -0.762761 1.118847 -0.003447 0.015845 240812.000000 0 0 1
34.302376 -31.497477 23.817858 52.307116 -0.742796 1.098035 -0.005049 0.015042 -476304.000000 0 0 1
33.395686 -30.245477 23.576058 50.851659 -0.735939 1.088715 -0.002188 0.011579 1310540.000000 0 0 1
32.009446 -30.347777 23.960158 50.196428 -0.758757 1.073185 0.002554 0.014768 1512060.000000 0 0 1
31.175216 -31.002877 22.956358 49.599061 -0.782626 1.089602 0.005591 0.016317 288502.000000 0 0 1
30.477636 -32.349877 23.349758 50.205697 -0.815189 1.087069 -0.000386 0.018345 498014.000000 0 0 1
29.480976 -32.339777 24.382858 50.095039 -0.831609 1.062452 0.006519 0.006993 509839.000000 0 0 1
28.833766 -33.608077 24.419988 50.569010 -0.861710 1.066828 0.009207 0.009464 285584.000000 0 0 1
27.765746 -33.678377 25.563278 50.583109 -0.881331 1.040984 0.010189 0.005299 146242.000000 0 0 1
27.688586 34.025187 25.890618 50.938151 0.887717 1.037615 0.011262 0.000134 49333.400000 0 0 1
27.070186 33.750587 27.133308 51.069693 0.894797 1.010662 0.014448 0.004385 -1153620.000000 0 0 1
26.819046 32.262387 27.305208 50.056940 0.877272 0.993831 0.011861 -0.011822 610605.000000 0 0 1
25.903726 31.627187 26.389568 48.658928 0.884557 0.997579 0.000530 -0.001017 537084.000000 0 0 1
24.594736 32.180087 26.412738 48.353819 0.918216 0.992929 0.003064 -0.007177 -367624.000000 0 0 1
23.691236 31.912187 25.170468 47.044817 0.932184 1.006251 0.031056 -0.014910 149286.000000 0 0 1
23.822536 32.794487 24.026298 47.119578 0.942559 1.035727 0.034850 -0.020318 128916.000000 0 0 1
25.109836 32.847187 23.438858 47.527062 0.918115 1.055068 0.012400 -0.011338 23411.500000 0 0 1
25.174236 33.496587 22.048758 47.348825 0.926306 1.086409 0.014832 -0.000946 450895.000000 0 0 1
26.518996 33.531687 21.570558 47.884446 0.901651 1.103503 0.018690 0.005872 596784.000000 0 0 1
26.639826 33.858987 20.185958 47.577140 0.904164 1.132631 0.014020 0.004704 -1200520.000000 0 0 1
27.909946 34.479087 19.715458 48.543504 0.890305 1.152570 0.026959 0.005700 -908610.000000 0 0 1
28.830146 33.540887 19.191358 48.212827 0.860783 1.161401 0.034789 -0.002420 118355.000000 0 0 1
30.021456 34.176887 18.765558 49.208674 0.850036 1.179544 0.025970 0.001281 191760.000000 0 0 1
31.100286 33.307687 18.084158 49.027202 0.819657 1.193014 0.006944 0.012191 -299800.000000 0 0 1
31.807796 32.461287 18.924858 49.230288 0.795566 1.176222 -0.005194 0.003259 -162806.000000 0 0 1
32.609076 31.536887 18.200358 48.879240 0.768685 1.189253 0.004006 -0.001265 221668.000000 0 0 1
33.622266 30.804587 19.131858 49.451060 0.741691 1.173546 0.003729 -0.013710 -387942.000000 0 0 1
34.595099 31.676987 19.630658 50.848944 0.741394 1.174442 0.008061 -0.010728 -716320.000000 0 0 1
-35.190295 30.844087 20.494358 51.085549 -0.719676 1.157995 0.008975 -0.010465 -605065.000000 0 0 1
-33.988377 31.590687 21.093358 50.971669 -0.748853 1.144144 0.028485 -0.012205 -624292.000000 0 0 1
-33.178297 32.137387 20.082658 50.367889 -0.769463 1.160676 0.033046 -0.017523 681042.000000 0 0 1
-31.968477 32.703287 20.650558 50.179020 -0.796760 1.146656 0.021323 -0.012699 846572.000000 0 0 1
-32.089137 34.145587 21.269758 51.459075 -0.816436 1.144684 0.010193 -0.004542 -401150.000000 0 0 1
-32.299227 34.130087 22.636858 52.158703 -0.812952 1.121869 0.011504 -0.000751 250872.000000 0 0 1
-32.177257 -33.694877 23.224358 52.058538 0.808433 1.108371 0.004592 0.008002 -181784.000000 0 0 1
-32.208117 -33.847277 24.792688 52.893084 0.810208 1.082941 0.008307 0.000623 -319.079000 0 0 1
-33.458187 -34.263677 25.325278 54.173975 0.797292 1.084358 0.001880 0.003415 53628.100000 0 0 1
-33.350707 34.404687 26.680728 54.843536 -0.800953 1.062731 0.002943 0.007236 -458497.000000 0 0 1
-34.685094 34.136487 27.354028 55.826502 -0.777427 1.058726 -0.012223 0.006206 -425668.000000 0 0 1
-34.607157 33.430687 28.597658 55.974031 -0.768108 1.034554 0.001213 -0.002266 498777.000000 0 0 1
34.577093 33.239387 29.161908 56.132425 0.765675 1.024507 0.000999 -0.004646 678715.000000 0 0 1
34.480230 32.257387 30.364848 56.137771 0.752103 0.999291 0.003653 -0.003503 -136200.000000 0 0 1
34.395376 30.833587 30.092308 55.129838 0.730848 0.993400 -0.007233 -0.002184 248893.000000 0 0 1
-34.961786 30.290387 29.440738 54.832391 -0.713930 1.004012 0.002757 0.002705 -389760.000000 0 0 1
-35.212846 28.896787 28.992398 53.995629 -0.687195 1.003991 0.002820 -0.002189 40785.300000 0 0 1
34.261616 28.820387 27.957448 52.783444 0.699355 1.012593 -0.003384 0.005398 670616.000000 0 0 1
34.142916 27.515487 27.366928 51.689356 0.678323 1.012844 0.005135 -0.001621 14998.000000 0 0 1
33.649246 26.370587 28.248058 51.240925 0.664717 0.986900 0.006276 -0.007284 531707.000000 0 0 1
34.696380 25.876987 29.133798 52.175046 0.640816 0.978358 0.002651 -0.004609 869120.000000 0 0 1
34.238256 24.692487 29.765628 51.652393 0.624810 0.956641 0.009185 -0.008896 52386.200000 0 0 1
34.757218 23.417187 29.168238 51.060895 0.592881 0.962775 0.006711 -0.009270 -407273.000000 0 0 1
34.194506 23.281187 27.904448 49.899260 0.597755 0.977357 0.004003 -0.016113 -36296.400000 0 0 1
34.814123 22.389287 27.000348 49.419856 0.571516 0.992801 0.004720 -0.018799 -874535.000000 0 0 1
34.480853 20.902787 27.240598 48.661134 0.544976 0.976650 0.002456 -0.017429 -89285.100000 0 0 1
33.125026 20.497787 27.050078 47.425029 0.554129 0.963833 0.020486 -0.010366 740570.000000 0 0 1
32.730156 19.243887 27.668238 46.980014 0.531516 0.941054 0.021104 -0.010728 -380244.000000 0 0 1
32.648416 19.280287 29.223938 47.871569 0.533437 0.914148 0.014265 -0.027663 188320.000000 0 0 1
31.517336 19.975787 29.786368 47.745180 0.564905 0.897123 0.017172 -0.029868 872388.000000 0 0 1
31.476656 21.370287 29.472518 48.125860 0.596441 0.911697 0.011707 -0.028865 -1093750.000000 0 0 1
30.376526 22.164087 30.211088 48.235774 0.630346 0.893971 0.016922 -0.029667 81698.100000 0 0 1
29.049466 21.867487 29.780028 46.999027 0.645270 0.884559 0.023970 -0.032614 331694.000000 0 0 1
28.587636 22.531687 28.643048 46.317967 0.667481 0.904091 0.025713 -0.024395 -501180.000000 0 0 1
28.429776 24.082887 28.719968 47.043322 0.702809 0.914104 0.029933 -0.018328 -500503.000000 0 0 1
29.659736 24.785787 28.740448 48.166882 0.696116 0.931433 0.012178 -0.020553 22015.300000 0 0 1
29.600246 26.058287 29.370838 49.171689 0.721847 0.930651 -0.000648 -0.011303 -71581.300000 0 0 1
29.806206 26.060987 30.922548 50.237326 0.718460 0.907739 -0.001447 -0.014491 241695.000000 0 0 1
31.166246 25.739187 31.217318 51.072121 0.690316 0.913170 -0.005689 -0.015316 547340.000000 0 0 1
31.632916 25.472687 32.529678 52.035364 0.677939 0.895478 0.004148 -0.015427 -13439.900000 0 0 1
30.971896 24.247487 33.191609 51.467289 0.664219 0.869895 0.005197 -0.015315 -477332.000000 0 0 1
31.460806 23.955487 34.491336 52.471897 0.650782 0.853526 -0.009831 -0.014529 8173.690000 0 0 1
30.839556 22.868587 -33.915705 51.228171 0.638061 2.294350 -0.012889 -0.024595 -382333.000000 0 0 1
31.375836 22.563287 -32.467925 50.474857 0.623449 2.269531 -0.017285 -0.018909 -505058.000000 0 0 1
30.730586 23.389487 -31.552525 49.869819 0.650576 2.255828 -0.034452 -0.020633 69181.800000 0 0 1
31.152076 23.264787 -30.223255 49.245785 0.641459 2.231563 0.007819 -0.029351 -448888.000000 0 0 1
32.429746 23.931287 -29.660255 50.041240 0.635740 2.205223 0.000620 -0.002503 206236.000000 0 0 1
32.951206 23.444387 -28.418205 49.426872 0.618394 2.183345 0.010161 -0.010519 -176935.000000 0 0 1
33.973476 24.291087 -27.906635 50.229815 0.620723 2.159856 0.013123 0.000083 -172688.000000 0 0 1
34.758616 23.437587 -26.943495 49.834063 0.593266 2.142023 0.017308 0.002773 -900810.000000 0 0 1
-34.773544 22.543187 -27.396785 49.678753 -0.575169 2.154932 0.023860 -0.003415 -156031.000000 0 0 1
-34.868963 21.355087 -26.594655 48.776634 -0.549515 2.147464 0.012953 -0.005777 -404724.000000 0 0 1
-33.927997 20.212387 -26.947715 47.810343 -0.537284 2.169579 0.032866 -0.001671 859565.000000 0 0 1
-32.553337 20.608387 -26.675065 46.861332 -0.564378 2.176370 0.039349 -0.008088 810816.000000 0 0 1
-31.804847 19.402087 -26.579745 45.765403 -0.547766 2.190486 0.028630 -0.013177 555624.000000 0 0 1
-30.416997 19.689187 -25.907035 44.542477 -0.574481 2.191522 0.024852 -0.013000 452001.000000 0 0 1
-30.492017 20.159387 -24.603005 44.062136 -0.584164 2.163217 0.018607 -0.000521 143295.000000 0 0 1
-29.238057 20.506087 -24.048305 43.054437 -0.611631 2.163440 0.015701 -0.002319 190756.000000 0 0 1
-29.378247 20.875087 -22.550805 42.513403 -0.617780 2.129916 0.004543 -0.007972 116946.000000 0 0 1
-30.120687 19.871887 -21.895605 42.208592 -0.583193 2.116182 -0.007846 0.008035 192510.000000 0 0 1
-30.506577 20.320287 -20.626505 42.059696 -0.587607 2.083357 -0.004347 0.011046 -1020560.000000 0 0 1
-31.284197 19.327687 -19.748605 41.740483 -0.553412 2.063635 -0.014772 0.012609 258903.000000 0 0 1
-32.128877 19.820187 -18.736405 42.144483 -0.552751 2.031497 -0.010504 0.008814 110356.000000 0 0 1
-33.163517 20.686987 -19.175405 43.536955 -0.557727 2.026885 -0.015642 0.007247 -1015260.000000 0 0 1
-34.368729 20.645687 -18.227505 44.041979 -0.540942 1.997494 0.002098 -0.003494 -458676.000000 0 0 1
-34.125658 21.389087 -17.030105 43.727315 -0.559874 1.970843 0.001493 -0.013648 47252.100000 0 0 1
-35.079877 21.118687 -16.027005 43.971145 -0.541901 1.943880 0.006960 -0.002697 -980107.000000 0 0 1
-34.822151 21.878087 -14.693005 43.670554 -0.560955 1.913942 0.011366 -0.001248 -164385.000000 0 0 1
-35.191694 23.228387 -14.780705 44.682016 -0.583410 1.907945 0.015099 -0.005475 -4530.120000 0 0 1
33.936856 23.484387 -14.952205 43.895274 0.605338 1.918387 0.024080 -0.003554 -525116.000000 0 0 1
33.663076 24.977087 -15.092305 44.551490 0.638344 1.916396 0.014420 -0.002220 -545145.000000 0 0 1
33.836076 25.629187 -13.862005 44.653001 0.648253 1.886450 0.013446 -0.005041 120884.000000 0 0 1
34.069656 27.001387 -13.948205 45.654888 0.670172 1.881274 0.004816 0.003254 252020.000000 0 0 1
-35.094513 27.439287 -14.665705 46.900131 -0.663587 1.888831 0.016470 0.016856 290421.000000 0 0 1
-35.053239 27.434687 -16.080705 47.328434 -0.664077 1.917467 0.018490 0.017534 360253.000000 0 0 1
-33.951407 28.209787 -16.569705 47.149181 -0.693293 1.929896 0.028355 0.010104 -19126.200000 0 0 1
-33.831897 28.232787 -18.161305 47.660471 -0.695428 1.961734 0.021882 0.013065 -234967.000000 0 0 1
-33.502097 26.997787 -18.779805 46.946268 -0.678300 1.982343 0.016891 0.003853 917394.000000 0 0 1
-32.166607 26.552687 -18.467605 45.615658 -0.690082 1.987614 0.013004 0.013073 521201.000000 0 0 1
-31.753267 25.321587 -19.214105 44.929217 -0.673183 2.012691 0.005994 0.015999 -504171.000000 0 0 1
-31.398017 25.447787 -20.559205 45.344308 -0.681105 2.041375 0.001772 0.012092 235842.000000 0 0 1
-31.032117 24.179487 -21.100605 44.641633 -0.661914 2.063111 0.004586 0.010342 -242803.000000 0 0 1
-30.831007 24.239887 -22.633205 45.281178 -0.666280 2.094207 0.003635 0.004758 -74336.800000 0 0 1
-32.011257 24.535587 -23.349005 46.603558 -0.653957 2.095566 0.013424 0.002482 161218.000000 0 0 1
-31.881407 24.074087 -24.654205 46.944815 -0.646766 2.123716 0.013501 0.002774 -269321.000000 0 0 1
-32.759807 24.848287 -25.596565 48.433733 -0.648918 2.127613 0.007462 0.006850 -659308.000000 0 0 1
-32.254387 26.116387 -25.887055 48.913707 -0.680628 2.128500 0.001928 0.009191 -92006.300000 0 0 1
-33.088857 26.815287 -26.805465 50.323603 -0.681052 2.132539 0.005458 0.002170 -193361.000000 0 0 1
-32.654237 28.261787 -27.061025 50.963976 -0.713416 2.130557 0.003848 0.002348 428522.000000 0 0 1
-31.428207 28.330687 -27.789895 50.622508 -0.733611 2.151920 0.008536 0.002796 -206580.000000 0 0 1
-30.826197 29.580387 -27.683925 50.908285 -0.764777 2.145755 0.009314 -0.004000 -32946.200000 0 0 1
-29.450927 29.602087 -28.358615 50.476249 -0.787958 2.167382 0.024229 -0.005543 -1013980.000000 0 0 1
-28.469697 28.862887 -27.737635 49.121953 -0.792256 2.170828 0.004771 -0.001662 -468441.000000 0 0 1
-27.183797 28.923387 -28.318565 48.759228 -0.816393 2.190487 0.022563 -0.003498 523177.000000 0 0 1
-26.291227 30.155987 -28.042255 48.856732 -0.853758 2.182141 0.026753 -0.012218 -399320.000000 0 0 1
-25.826817 30.399087 -26.649825 47.972306 -0.866539 2.159791 0.022883 -0.009321 84132.400000 0 0 1
-26.810917 30.653787 -25.690665 48.150703 -0.852172 2.133585 0.007061 -0.003716 -359886.000000 0 0 1
-26.156067 30.896487 -24.306305 47.217891 -0.868296 2.111534 -0.004146 -0.005059 222365.000000 0 0 1
-25.381067 32.075587 -24.400705 47.628104 -0.901389 2.108677 0.007138 -0.000200 41104.700000 0 0 1
-24.785307 32.535987 -23.161805 47.003948 -0.919798 2.086058 0.025387 0.001392 559818.000000 0 0 1
-24.087707 33.943687 -23.240705 47.670975 -0.953632 2.080047 0.019676 0.005279 200079.000000 0 0 1
-25.064407 -34.137477 -23.447605 48.408491 0.937471 2.076439 -0.003326 0.000723 -25157.500000 0 0 1
-24.659507 -32.804277 -23.446405 47.264636 0.926198 2.089859 0.008692 0.002547 -301408.000000 0 0 1
16.345093 9.060687 -25.778275 31.839874 0.506167 2.514305 0.014500 -0.016493 -31022.600000 0 0 1
15.227693 8.315287 -25.328255 30.700930 0.499816 2.540998 0.020928 -0.019424 239139.000000 0 0 1
15.284593 6.982587 -25.695435 30.702291 0.428526 2.562432 0.015457 -0.022118 894591.000000 0 0 1
13.838493 6.354587 -25.614185 29.798844 0.430475 2.605223 0.020064 -0.026291 1029570.000000 0 0 1
13.417593 6.172187 -24.261705 28.403486 0.431145 2.594769 0.039211 -0.031231 26994.500000 0 0 1
12.009493 6.049387 -24.224605 27.706578 0.466617 2.634843 0.027129 -0.025222 -117907.000000 0 0 1
11.473793 6.377387 -22.869205 26.368912 0.507302 2.620507 0.035644 -0.032727 -387198.000000 0 0 1
11.464193 5.183587 -22.005805 25.348624 0.424644 2.622211 0.036027 -0.017273 400714.000000 0 0 1
10.928993 5.366787 -20.673605 23.992566 0.456470 2.609342 0.040742 -0.015958 -994183.000000 0 1 0
11.884193 6.209487 -19.875905 23.975891 0.481485 2.548105 0.060168 -0.025834 -439805.000000 0 1 0
11.350693 6.619787 -18.609205 22.780744 0.527979 2.526783 0.043847 -0.012110 -101404.000000 0 1 0
11.604893 7.940487 -18.210705 23.007708 0.600068 2.484063 0.047728 -0.013898 514619.000000 0 1 0
13.034593 8.421187 -17.789905 23.607154 0.573604 2.424289 0.047019 -0.014995 505362.000000 0 1 0
13.247793 8.026387 -16.420405 22.573360 0.544722 2.385357 0.041134 -0.017268 -294527.000000 0 1 0
14.618993 7.939987 -16.202205 23.222183 0.497552 2.342984 0.034281 -0.021303 -978741.000000 0 1 0
15.055693 7.984487 -14.731505 22.526499 0.487616 2.283608 0.028514 -0.013280 121446.000000 0 1 0
16.461593 7.803787 -14.557405 23.319545 0.442681 2.244977 0.029142 -0.018603 1043220.000000 0 1 0
17.009493 8.129887 -13.241705 23.038243 0.445862 2.183120 0.035836 -0.018778 297906.000000 0 1 0
17.269393 9.675387 -13.109605 23.742510 0.510688 2.155746 0.025965 -0.016516 -590312.000000 0 1 0
16.060193 10.386787 -12.970405 23.109447 0.574081 2.166704 0.028222 -0.016622 407116.000000 0 1 0
16.297893 11.783987 -13.118505 24.012056 0.626021 2.148772 0.020677 -0.009248 -169795.000000 0 1 0
15.013993 12.607987 -12.970405 23.507716 0.698513 2.155259 0.020182 -0.004038 -226454.000000 0 1 0
14.435293 12.756287 -11.667405 22.521742 0.723729 2.115367 0.025641 0.002091 416010.000000 0 1 0
15.095693 13.672487 -10.780105 23.044034 0.735967 2.057602 0.030728 0.000162 -146599.000000 0 1 0
14.747393 15.174887 -10.939805 23.821044 0.799684 2.047947 0.031002 0.001233 -322388.000000 0 1 0
13.592293 15.579887 -10.258205 23.080599 0.853426 2.031358 0.048207 -0.000027 -94782.000000 0 1 0
13.310093 16.979787 -10.399305 23.950308 0.905963 2.019950 0.036597 -0.002843 -116047.000000 0 1 0
12.094893 17.363387 -9.557705 23.219030 0.962373 1.995041 0.028731 -0.000174 -16777.200000 0 1 0
12.447093 17.119487 -8.209605 22.702523 0.942132 1.940797 0.038696 -0.003991 -120553.000000 0 1 0
11.512693 17.708387 -7.413905 22.385152 0.994332 1.908369 0.042846 0.005002 -517844.000000 0 1 0
11.897393 17.388887 -5.952005 21.894011 0.970757 1.846117 0.041838 0.000733 856339.000000 0 1 0
13.123393 17.996787 -5.516705 22.946499 0.940736 1.813591 0.063040 -0.005223 915939.000000 0 1 0
13.318193 17.740487 -4.115805 22.561892 0.926833 1.754246 0.047339 -0.010366 -647242.000000 0 1 0
14.289093 18.671787 -3.455005 23.764487 0.917589 1.716699 0.043333 -0.022290 -389544.000000 0 1 0
15.623593 18.526787 -3.921705 24.550321 0.870206 1.731225 0.047152 -0.030745 547032.000000 0 1 0
16.242393 19.797487 -3.959205 25.911988 0.883723 1.724192 0.041789 -0.027776 490878.000000 0 0 1
17.567493 19.906787 -4.829905 26.985643 0.847741 1.750746 0.037988 -0.026587 1029690.000000 0 0 1
18.684693 19.234287 -4.254705 27.151023 0.799891 1.728150 0.051765 -0.040313 232832.000000 0 0 1
18.811193 17.974787 -4.858105 26.468002 0.762665 1.755389 0.042956 -0.033108 -199830.000000 0 0 1
19.953693 17.205087 -4.124605 26.667906 0.711563 1.726085 0.057926 -0.034216 557304.000000 0 0 1
21.262893 17.554387 -4.580905 27.950882 0.690150 1.735430 0.046547 -0.041232 502611.000000 0 0 1
22.157793 16.641887 -3.946405 27.990968 0.644181 1.712256 0.053731 -0.038532 -1141200.000000 0 0 1
23.594393 16.799887 -4.380605 29.293707 0.618753 1.720900 0.039586 -0.036335 -975051.000000 0 0 1
24.122593 18.035987 -3.937705 30.376007 0.642015 1.700794 0.040120 -0.034570 -722943.000000 0 0 1
25.495993 17.882787 -3.852505 31.379635 0.611662 1.693878 0.025780 -0.027386 -822146.000000 0 0 1
26.319793 19.055687 -3.237805 32.654771 0.626656 1.670112 0.024264 -0.020941 -204891.000000 0 0 1
26.536993 20.136587 -4.112005 33.564903 0.649117 1.693614 0.023678 -0.019616 241784.000000 0 0 1
26.415893 21.338187 -3.366605 34.124062 0.679466 1.669615 0.026036 0.007237 -472857.000000 0 0 1
26.218993 22.640787 -4.219205 34.897600 0.712294 1.691995 0.015420 0.006054 559689.000000 0 0 1
27.331193 23.045687 -5.052905 36.105812 0.700534 1.711204 0.013120 0.013876 772485.000000 0 0 1
27.641093 22.257787 -6.178705 36.022430 0.677930 1.743173 0.029956 -0.000175 300284.000000 0 0 1
28.629293 22.992387 -7.158905 37.410375 0.676633 1.763345 0.012098 0.005715 177230.000000 0 0 1
27.993293 24.067087 -7.804405 37.732716 0.710124 1.779134 0.008929 0.006335 325381.000000 0 0 1
28.879793 24.995887 -8.439805 39.116072 0.713433 1.788270 -0.009699 0.006701 276522.000000 0 0 1
29.819093 24.426187 -9.569305 39.716351 0.686307 1.814132 -0.007532 0.002017 215016.000000 0 0 1
29.117793 24.001387 -10.736805 39.232530 0.689375 1.848004 -0.001379 -0.003022 -164408.000000 0 0 1
30.039993 23.527387 -11.667705 39.900807 0.664414 1.867550 -0.011268 -0.012592 -418716.000000 0 0 1
29.515193 22.761587 -12.867005 39.430905 0.656920 1.903202 -0.007431 -0.011063 -231674.000000 0 0 1
29.268493 23.634487 -13.997605 40.139340 0.679301 1.927007 -0.010104 0.005782 80114.900000 0 0 1
29.017593 22.950187 -15.201905 39.997871 0.669171 1.960666 -0.008284 0.004056 -126926.000000 0 0 1
29.128393 23.774287 -16.504205 41.061768 0.684535 1.984427 -0.015214 0.003388 -386101.000000 0 0 1
30.425493 24.092887 -16.924605 42.339344 0.669761 1.982026 -0.021302 0.006424 -389717.000000 0 0 1
30.337793 24.923887 -18.119105 43.242153 0.687741 2.003156 -0.018040 0.006406 -674786.000000 0 0 1
31.668293 25.549287 -18.430405 44.669079 0.678860 1.996101 -0.018490 0.003758 -589970.000000 0 0 1
32.690193 24.599887 -18.641205 44.958844 0.645109 1.998331 -0.005218 0.008666 -591369.000000 0 0 1
33.932193 25.174787 -18.912605 46.290930 0.638306 1.991672 0.015583 0.003160 -696223.000000 0 0 1
35.068093 24.184287 -19.072605 46.673495 0.603738 1.991759 0.016205 -0.013026 -735426.000000 0 0 1
34.952193 23.343787 -20.159305 46.615295 0.588840 2.018017 0.007898 0.000953 -1521.600000 0 0 1
-34.756351 23.664387 -21.261005 47.117274 -0.597768 2.038946 0.003194 -0.000185 -527754.000000 0 0 1
-34.817751 22.529787 -22.336505 47.103997 -0.574318 2.064846 0.008625 0.000544 93147.300000 0 0 1
-34.304351 21.242987 -21.951305 45.933787 -0.554454 2.069048 0.000796 -0.003110 208847.000000 0 0 1
-34.015951 20.521787 -23.085205 45.947310 -0.542842 2.097201 0.004769 -0.001415 136093.000000 0 0 1
-33.629751 19.047287 -22.797405 44.871828 -0.515334 2.103723 -0.002451 0.002406 220862.000000 0 0 1
-34.762251 18.332287 -22.337905 45.204743 -0.485297 2.087653 -0.004079 -0.009939 497580.000000 0 0 1
-34.446651 16.939287 -22.326705 44.407127 -0.457029 2.097600 -0.008807 -0.003718 747850.000000 0 0 1
34.763893 16.030187 -22.198605 44.252381 0.432059 2.096286 0.002654 -0.007959 513994.000000 0 0 1
34.167793 15.808487 -23.426005 44.340997 0.433342 2.127411 0.042750 -0.012258 -553977.000000 0 0 1
33.077393 14.960187 -23.315105 43.145280 0.424747 2.141692 0.059888 -0.015201 -720777.000000 0 0 1
33.321193 13.577687 -24.035605 43.270842 0.386937 2.159723 0.028383 -0.019744 -178019.000000 0 0 1
33.294293 13.801387 -25.406115 44.096019 0.392967 2.184812 0.031526 -0.009310 269794.000000 0 0 1
33.752793 12.588487 -26.041485 44.450871 0.356982 2.196723 0.021253 -0.004137 -247384.000000 0 0 1
33.569593 12.436387 -27.571505 45.185940 0.354790 2.227083 0.035418 -0.009070 -1018930.000000 0 0 1
32.264693 12.304287 -28.020645 44.469792 0.364330 2.252485 0.036366 -0.011475 -405708.000000 0 0 1
31.612293 13.499787 -28.437535 44.612495 0.403599 2.261960 0.037408 -0.004532 -66169.800000 0 0 1
31.860893 13.839087 -29.871825 45.814438 0.409772 2.281039 0.039010 -0.009889 27172.200000 0 0 1
33.223193 14.183287 -30.108425 47.026199 0.403487 2.265617 0.040810 -0.004880 113685.000000 0 0 1
33.454293 14.326387 -31.516545 48.142784 0.404610 2.284512 0.037500 -0.008765 410268.000000 0 0 1
34.986993 14.646087 -31.763745 49.472548 0.396450 2.267963 0.050268 -0.015476 1608910.000000 0 0 1
-34.518351 13.652987 -31.468745 48.664181 -0.376646 2.273982 0.033088 -0.010124 398740.000000 0 0 1
-34.463351 13.269687 -30.146825 47.672195 -0.367542 2.255415 0.016900 -0.015619 -1904810.000000 0 0 1
-33.318751 12.409887 -29.661935 46.303076 -0.356542 2.266081 0.016693 -0.010972 -412128.000000 0 0 1
-33.522151 11.060087 -30.015185 46.335423 -0.318688 2.275464 0.019259 -0.018207 -226962.000000 0 0 1
-32.349451 10.363987 -29.784765 45.177776 -0.310044 2.290656 0.020104 -0.024437 -498801.000000 0 0 1
-32.566951 8.958387 -30.135285 45.265819 -0.268437 2.299282 0.026942 -0.015342 -384894.000000 0 0 1
-32.757151 8.852787 -31.553055 46.335710 -0.263950 2.319878 0.015734 -0.012012 106528.000000 0 0 1
-33.175351 7.580187 -32.009145 46.718824 -0.224632 2.325598 0.012892 -0.004406 669625.000000 0 0 1
-34.601351 7.022787 -31.596285 47.380357 -0.200243 2.300790 0.009612 0.009788 545150.000000 0 0 1
-34.660251 6.451787 -30.321155 46.500871 -0.184037 2.281089 0.015668 -0.002450 -62597.600000 0 0 1
34.632493 5.761387 -30.185495 46.300834 0.164848 2.280940 0.024495 0.005985 -538773.000000 0 0 1
34.609493 4.832987 -28.894755 45.344036 0.138746 2.261700 0.029035 -0.001201 84311.500000 0 0 1
-35.005251 3.722787 -28.974295 45.593163 -0.105951 2.259448 0.032327 0.005439 477116.000000 0 0 1
-35.201851 2.903887 -27.865695 44.989997 -0.082306 2.238743 0.033724 0.010893 -695820.000000 0 0 1
-34.377151 1.674087 -27.862625 44.282242 -0.048659 2.251327 0.038664 0.010767 -555265.000000 0 0 1
-33.094651 1.897687 -27.319305 42.955809 -0.057278 2.260082 0.031753 0.010898 -113407.000000 0 0 1
-32.298651 0.718087 -27.341075 42.323195 -0.022229 2.273138 0.041469 0.007661 -276893.000000 0 0 1
-31.134851 0.899187 -26.398035 40.829447 -0.028872 2.273842 0.026596 0.004305 -541388.000000 0 0 1
-31.584551 0.794787 -25.045005 40.317091 -0.025158 2.241070 0.037741 0.008323 287450.000000 0 0 1
-30.542751 0.949387 -24.098905 38.916811 -0.031074 2.238573 0.052541 0.009165 -89928.100000 0 0 1
-30.941151 0.700987 -22.628705 38.339333 -0.022652 2.202130 0.039790 0.009652 -502211.000000 0 0 1
-30.979851 -0.672313 -22.338005 38.199341 0.021698 2.195399 0.039751 0.001823 311719.000000 0 0 1
-31.410951 -0.963613 -21.008205 37.801072 0.030668 2.160069 0.038442 0.001296 -95109.800000 0 0 1
-32.894851 -0.788313 -20.590305 38.815632 0.023960 2.129944 0.029611 0.006273 -569126.000000 0 0 1
-33.623351 -1.879213 -21.073405 39.725931 0.055832 2.129951 0.019827 0.001861 1309290.000000 0 0 1
-35.004151 -1.714113 -20.623605 40.664012 0.048930 2.102695 0.015936 0.006524 1595390.000000 0 0 1
34.621093 -2.971313 -20.312105 40.249601 -0.085614 2.099777 0.001120 0.006116 -157498.000000 0 0 1
34.130093 -3.769413 -21.380305 40.449835 -0.109997 2.127704 -0.007097 0.006252 -445468.000000 0 0 1
35.041393 -4.281013 -22.297205 41.753941 -0.121568 2.134138 -0.015880 0.015765 -848949.000000 0 0 1
34.455493 -5.389113 -23.216305 41.895350 -0.155151 2.158138 -0.014112 0.017723 -812667.000000 0 0 1
34.035593 -6.557313 -22.481805 41.314059 -0.190328 2.146194 -0.015065 0.024237 409389.000000 0 0 1
33.422293 -7.613813 -23.232705 41.409883 -0.223984 2.166441 -0.010338 0.024643 756552.000000 0 0 1
31.970893 -7.248013 -23.691405 40.446932 -0.222938 2.196590 -0.019412 0.015878 -305978.000000 0 0 1
31.915093 -6.251213 -24.690805 40.832422 -0.193421 2.220168 -0.008156 0.013623 330001.000000 0 0 1
30.599693 -5.830713 -25.077455 39.990213 -0.188291 2.248608 -0.021352 0.003280 486775.000000 0 0 1
30.583593 -4.633713 -26.031645 40.428628 -0.150366 2.270370 0.002509 -0.016419 4074.360000 0 0 1
30.974693 -4.919513 -27.372075 41.627679 -0.157508 2.288352 0.018817 -0.011993 199475.000000 0 0 1
30.602193 -3.866913 -28.209295 41.799660 -0.125694 2.311584 0.027968 -0.019177 -141761.000000 0 0 1
30.443293 -4.372813 -29.638835 42.712716 -0.142662 2.337703 0.048037 -0.018796 -33733.800000 0 0 1
30.012393 -3.403213 -30.546115 42.958011 -0.112911 2.361814 0.039234 -0.021047 -30106.200000 0 0 1
29.351093 -3.870513 -31.696065 43.371742 -0.131113 2.390289 0.045080 -0.025807 -658531.000000 0 0 1
28.934393 -2.736413 -32.713845 43.759373 -0.094293 2.415215 0.050239 -0.019223 -583655.000000 0 0 1
28.044493 -1.806113 -32.130135 42.686077 -0.064313 2.422961 0.041170 -0.022459 -273687.000000 0 0 1
26.745193 -2.195413 -31.798065 41.608198 -0.081903 2.440637 0.054491 -0.029154 -796607.000000 0 0 1
25.801493 -2.410713 -33.010365 41.966805 -0.093163 2.476051 0.060969 -0.030053 -1356270.000000 0 0 1
26.134193 -3.545813 -33.800475 42.872379 -0.134854 2.478996 0.065803 -0.035382 86227.100000 0 0 1
25.521493 -3.519313 33.935709 42.607095 -0.137032 0.649345 0.063912 -0.032468 -265338.000000 0 0 1
25.814793 -4.808613 33.110716 42.259269 -0.184163 0.670496 0.052100 -0.032870 522099.000000 0 0 1
27.161093 -4.979613 32.636908 42.751483 -0.181323 0.702220 0.056427 -0.027524 543908.000000 0 0 1
27.447793 -4.310313 31.406488 41.932417 -0.155765 0.724277 0.057867 -0.028067 -219234.000000 0 0 1
28.104593 -2.881013 31.491608 42.307088 -0.102154 0.731224 0.047538 -0.025726 -843401.000000 0 0 1
29.395193 -2.982913 31.985578 43.543683 -0.101130 0.745774 0.048565 -0.025720 -732224.000000 0 0 1
29.929993 -1.689213 32.299188 44.066943 -0.056379 0.748137 0.043590 -0.019451 -790508.000000 0 0 1
31.324593 -1.763413 32.856318 45.429917 -0.056235 0.762327 0.030340 -0.018086 -819109.000000 0 0 1
32.316093 -2.010013 31.897518 45.451311 -0.062118 0.792882 0.033093 -0.014242 463371.000000 0 0 1
33.651093 -1.905913 32.418028 46.764913 -0.056577 0.804859 0.034627 -0.009575 947243.000000 0 0 1
34.776693 -2.502113 31.564798 47.032068 -0.071824 0.835060 0.021040 -0.003961 -73574.500000 0 0 1
35.052193 -1.797613 30.340338 46.394221 -0.051239 0.857979 0.006404 0.001838 786828.000000 0 0 1
-34.182051 -2.136513 29.735908 45.356383 0.062423 0.855812 0.008976 -0.002045 668686.000000 0 0 1
-34.047951 -1.399613 28.365648 44.337702 0.041084 0.876606 0.009159 0.006353 -184155.000000 0 0 1
-34.862051 -1.919013 27.364698 44.360702 0.054990 0.906039 0.023989 -0.006806 -318641.000000 0 0 1
-34.616251 -1.141813 26.263358 43.466683 0.032973 0.922012 0.006756 -0.001677 -244843.000000 0 0 1
-26.236567 15.262687 12.891695 32.977309 -0.526880 1.169159 0.061573 -0.010853 68821.200000 0 0 1
-27.399937 14.698587 13.436495 33.872473 -0.492378 1.162900 0.024893 -0.003029 -130148.000000 0 0 1
-28.374457 15.587987 13.894495 35.229989 -0.502357 1.165388 0.023817 -0.002382 257408.000000 0 0 1
-29.758907 14.899187 14.116495 36.150432 -0.464178 1.169629 0.022763 0.006340 570016.000000 0 0 1
-30.678677 15.831287 14.681995 37.514955 -0.476394 1.168683 0.001762 0.003755 -180911.000000 0 0 1
-31.934737 15.230787 14.918395 38.397433 -0.445026 1.171765 -0.006419 0.007234 -1874.610000 0 0 1
-32.729417 15.945287 16.055095 39.789861 -0.453343 1.155461 0.013292 0.010590 -365717.000000 0 0 1
-32.055917 16.023887 17.285895 39.788804 -0.463546 1.121379 0.014703 0.016157 -241989.000000 0 0 1
-32.671137 16.742987 18.355395 41.044505 -0.473574 1.107156 -0.000516 0.015846 -100942.000000 0 0 1
-31.728947 16.966187 19.576295 40.961066 -0.491038 1.072506 0.006440 0.012825 74617.000000 0 0 1
-31.363387 15.792187 20.317695 40.569249 -0.466462 1.046256 0.009082 0.011303 -391285.000000 0 0 1
-30.309107 16.051787 21.194095 40.317385 -0.487048 1.017281 0.017713 0.003091 -291889.000000 0 0 1
-30.576587 16.612587 22.610995 41.498950 -0.497693 0.994578 0.022933 -0.009909 -321536.000000 0 0 1
-31.161887 17.927187 22.589795 42.458758 -0.522054 1.009787 0.019902 -0.012198 274735.000000 0 0 1
-31.207947 18.557987 23.900495 43.469167 -0.536481 0.988640 0.021423 -0.013210 -585011.000000 0 0 1
-32.195817 17.911187 24.908295 44.472513 -0.507683 0.976310 0.009293 -0.010757 92411.100000 0 0 1
-33.523047 17.639987 24.504795 45.115949 -0.484391 0.996610 0.020431 -0.007413 240495.000000 0 0 1
-34.419009 18.724387 24.336795 46.125378 -0.498235 1.014997 0.020531 -0.009473 -969176.000000 0 0 1
34.689589 18.159687 24.097595 45.976471 0.482263 1.019104 -0.002849 -0.015738 -645220.000000 0 0 1
34.088046 17.539687 25.219595 45.887509 0.475212 0.988916 0.004648 -0.007497 -100791.000000 0 0 1
33.033606 16.678487 24.865095 44.583226 0.467556 0.979156 0.016014 -0.000923 206763.000000 0 0 1
32.525226 15.675487 26.001695 44.493813 0.449102 0.946669 0.014202 -0.000574 -604035.000000 0 0 1
31.645536 16.141187 26.928695 44.577264 0.471665 0.922172 0.022463 -0.006890 -414129.000000 0 0 1
31.465786 15.439687 28.159695 44.960517 0.456165 0.893972 0.022104 -0.002391 -4554.160000 0 0 1
30.723866 14.073887 28.191995 44.009304 0.429550 0.875528 0.023310 0.008235 7535.850000 0 0 1
31.486386 12.941087 27.834995 43.973301 0.389958 0.885377 0.015802 0.009641 771151.000000 0 0 1
30.546536 11.845187 27.690895 42.897378 0.369923 0.869099 0.016937 0.010166 860308.000000 0 0 1
31.231766 10.514387 27.209895 42.735863 0.324739 0.880586 0.018790 0.009132 -24921.800000 0 0 1
32.163986 10.057487 28.163695 43.918889 0.303062 0.874649 0.018692 0.009168 -210218.000000 0 0 1
32.681496 8.807887 27.888495 43.856895 0.263252 0.881625 0.016963 0.013703 -336887.000000 0 0 1
33.750196 8.399887 28.919495 45.232411 0.243928 0.877139 0.019434 0.010423 -1025480.000000 0 0 1
35.014407 8.830087 28.579495 46.051783 0.247034 0.901295 0.019619 0.007646 -1456630.000000 0 0 1
-34.524823 8.172387 29.346295 46.042984 -0.232432 0.879719 0.022911 0.008408 -647136.000000 0 0 1
-33.240957 8.991687 29.447395 45.309610 -0.264178 0.863324 0.023011 0.005071 -469860.000000 0 0 1
-32.517137 9.042287 28.233295 44.002797 -0.271225 0.874181 0.028911 0.003001 44029.900000 0 0 1
-31.464087 9.972787 28.375795 43.527359 -0.306941 0.860700 0.034358 0.004192 -88389.800000 0 0 1
-30.943937 10.502787 27.033195 42.410251 -0.327213 0.879650 0.028812 -0.002515 -35452.200000 0 0 1
-30.339887 9.472187 26.268695 41.234396 -0.302614 0.880121 0.025957 -0.009814 607191.000000 0 0 1
-29.486427 9.975787 25.234195 40.071565 -0.326230 0.889593 0.023052 -0.007011 -93221.700000 0 0 1
-28.653087 8.910887 24.545795 38.767246 -0.301511 0.885170 0.016933 -0.008608 -133643.000000 0 0 1
-27.877377 9.598087 23.562995 37.742366 -0.331585 0.896546 0.015527 -0.013772 424735.000000 0 0 1
-26.935927 8.710087 22.904195 36.414447 -0.312751 0.890547 -0.003356 -0.007525 438977.000000 0 0 1
-26.078777 9.419687 21.851895 35.303519 -0.346619 0.903363 0.004271 0.001835 -771413.000000 0 0 1
-25.038907 10.204187 22.423795 35.126897 -0.386984 0.878424 0.008761 -0.002307 480169.000000 0 0 1
-24.185707 10.806687 21.461295 34.092816 -0.420207 0.889892 0.011621 -0.003004 255271.000000 0 0 1
-23.399007 10.058087 20.384395 32.622112 -0.405972 0.895839 0.016217 -0.007880 -1195890.000000 0 0 1
-24.184507 9.732287 19.288095 32.428975 -0.382589 0.933805 0.014700 -0.006893 -287362.000000 0 0 1
-23.769007 8.727287 18.401995 31.301193 -0.351889 0.942335 0.012631 -0.003279 -711803.000000 0 0 1
-23.658407 7.224787 18.890295 31.124926 -0.296385 0.918619 0.005821 0.005722 -713538.000000 0 0 1
-22.636707 6.809187 19.749695 30.803182 -0.292193 0.874791 -0.010700 0.012416 -4396.700000 0 0 1
-22.779907 5.496287 20.358795 31.042131 -0.236753 0.855496 0.002138 0.013438 -651252.000000 0 0 1
-22.777207 4.252487 19.392495 30.215123 -0.184574 0.873935 -0.008021 0.011860 -40909.000000 0 0 1
-23.942307 4.065587 18.568195 30.570262 -0.168203 0.918020 0.002249 0.015505 793122.000000 0 0 1
-23.878407 3.123687 17.533095 29.788340 -0.130078 0.941484 0.005012 0.014001 -221495.000000 0 0 1
-23.982707 1.627787 18.018695 30.041526 -0.067769 0.927554 0.008114 0.018510 -903231.000000 0 0 1
-22.740307 1.146387 18.377395 29.260288 -0.050369 0.891731 -0.000063 0.017209 -433666.000000 0 0 1
-22.840007 -0.167413 18.829895 29.601671 0.007330 0.881351 0.013670 0.015338 -665829.000000 0 0 1
-21.551207 -0.929813 19.087395 28.803606 0.043118 0.846413 0.007821 0.020439 -846577.000000 0 0 1
-20.746707 -0.492213 20.139995 28.918637 0.023720 0.800377 0.010820 0.018492 -82572.300000 0 0 1
-19.743707 -1.432913 20.418595 28.439167 0.072449 0.769908 0.017941 0.015367 -185279.000000 0 0 1
-18.603707 -1.041813 21.351195 28.338257 0.055942 0.717517 0.012099 0.010279 212066.000000 0 0 1
-18.969207 -1.333313 22.718095 29.626346 0.070173 0.696923 0.017703 0.008893 -554961.000000 0 0 1
-17.950607 -0.916013 23.554995 29.629397 0.050985 0.651810 0.022003 -0.002665 -1040710.000000 0 0 1
-18.179707 -0.941213 25.142495 31.040823 0.051727 0.626676 0.022268 0.002162 32465.900000 0 0 1
-18.899507 0.127187 25.724595 31.921190 -0.006730 0.633639 0.006761 -0.002675 364059.000000 0 0 1
-20.288607 0.170687 25.384295 32.496448 -0.008413 0.674306 0.025357 0.002431 326281.000000 0 0 1
-21.070707 1.360487 25.962495 33.464560 -0.064478 0.682782 0.010753 -0.000956 -622930.000000 0 0 1
-20.656807 2.487387 25.322895 32.774072 -0.119838 0.687791 0.009570 -0.002336 346884.000000 0 0 1
-21.715107 3.412387 25.051995 33.328557 -0.155869 0.720210 -0.001910 0.000689 5825.850000 0 0 1
-21.333807 4.390587 23.910895 32.344080 -0.202970 0.738816 -0.003176 0.009238 -108396.000000 0 0 1
-21.115307 3.796887 22.633495 31.185696 -0.177915 0.758650 0.001837 0.011509 500428.000000 0 0 1
-19.875407 3.128087 22.483895 30.171879 -0.156104 0.729971 0.000653 0.007239 -369272.000000 0 0 1
-19.712107 2.581787 21.093695 28.985803 -0.130233 0.755797 0.011182 0.005098 -190642.000000 0 0 1
-19.152507 3.515687 20.169195 28.035246 -0.181542 0.767825 -0.003932 0.008623 283069.000000 0 0 1
-18.957307 2.775187 18.987195 26.973964 -0.145359 0.789911 0.004413 0.006917 -60141.900000 0 0 1
-18.557907 3.670087 17.796795 25.972897 -0.195245 0.815909 -0.002464 0.007027 -303852.000000 0 0 1
-17.224407 4.138387 17.767795 25.089858 -0.235794 0.783898 0.002979 0.000351 129289.000000 0 0 1
-16.919307 4.759987 16.537195 24.132950 -0.274246 0.815844 0.010284 0.000679 -431214.000000 0 1 0
-15.449607 5.179387 16.473895 23.171224 -0.323469 0.779929 0.021231 -0.004929 -483625.000000 0 1 0
-14.937107 6.274887 17.264695 23.676171 -0.397702 0.753642 0.013681 -0.013239 98613.700000 0 1 0
-15.610907 7.540587 17.320895 24.506617 -0.449982 0.785854 0.014596 -0.020610 -667727.000000 0 1 0
-15.164107 8.506287 16.204295 23.767336 -0.511210 0.820592 0.016075 -0.018407 260000.000000 0 1 0
-15.756707 8.346787 14.899995 23.236879 -0.487147 0.874707 0.017990 -0.007771 1053660.000000 0 1 0
-17.191807 8.390087 14.839195 24.210607 -0.454024 0.911044 0.009404 -0.010687 73618.400000 0 1 0
-17.734007 7.642887 13.577495 23.606294 -0.406919 0.957991 0.016311 -0.006787 -228899.000000 0 1 0
-17.525107 6.258987 13.549395 23.019349 -0.343025 0.941459 0.023204 -0.007227 70452.300000 0 1 0
-17.909007 5.644787 12.417395 22.511949 -0.305336 0.986526 0.021924 -0.007411 46121.300000 0 1 0
-17.458507 4.157087 12.629495 21.945045 -0.233759 0.957574 0.004411 0.004310 774028.000000 0 1 0
-18.265507 3.499887 13.648895 23.068817 -0.189317 0.937680 0.000897 0.008598 824180.000000 0 1 0
-17.810307 2.166687 13.715695 22.583664 -0.121059 0.918103 0.007119 0.004109 143463.000000 0 1 0
-18.579507 1.430287 14.867895 23.839004 -0.076830 0.897355 0.005918 0.011112 748475.000000 0 1 0
-19.886807 1.079287 14.398995 24.576025 -0.054218 0.944811 0.010365 0.014477 455009.000000 0 1 0
-20.646007 0.441487 15.414795 25.769525 -0.021380 0.929569 -0.000293 0.010659 -109703.000000 0 0 1
-22.047407 0.139887 14.852895 26.584135 -0.006345 0.977963 0.000777 0.005826 -323434.000000 0 0 1
-21.972207 -0.869513 13.836495 25.980426 0.039553 1.009158 0.010850 0.000545 1088110.000000 0 0 1
-23.269007 -1.363113 13.452195 26.912197 0.058514 1.047365 0.026487 -0.005925 638908.000000 0 0 1
-23.105707 -2.511613 12.444495 26.363751 0.108276 1.079204 0.026478 -0.010505 -439049.000000 0 0 1
-22.507907 -3.646213 13.061595 26.277481 0.160602 1.050584 0.020661 -0.009940 311101.000000 0 0 1
-22.471107 -4.739113 12.092295 25.954450 0.207852 1.086140 0.025773 -0.012867 -115656.000000 0 0 1
-22.427807 -6.188913 12.673795 26.494042 0.269248 1.072006 0.031421 -0.012900 158135.000000 0 0 1
-23.514507 -6.446713 13.546895 27.892840 0.267584 1.063659 0.035804 -0.014723 339355.000000 0 0 1
-23.584107 -7.841413 13.842195 28.448273 0.320989 1.062632 0.044025 -0.018292 13754.700000 0 0 1
-24.528407 -8.258513 15.011295 29.919639 0.324770 1.045210 0.051911 -0.005534 123180.000000 0 0 1
-25.872907 -7.909313 14.767595 30.822823 0.296677 1.071153 0.048400 -0.012163 -40919.900000 0 0 1
-26.651017 -8.093513 15.920895 32.082029 0.294834 1.051516 0.045447 -0.009420 71759.800000 0 0 1
-28.138187 -7.664813 15.809695 33.173082 0.265946 1.074034 0.039190 -0.015469 724776.000000 0 0 1
-29.148477 -8.328213 15.044195 33.842587 0.278302 1.110142 0.035609 -0.013414 885432.000000 0 0 1
-29.434347 -9.738513 15.159495 34.511299 0.319519 1.116020 0.034655 -0.016662 -283662.000000 0 0 1
-29.720917 -10.424013 16.481595 35.547657 0.337325 1.088688 0.028120 -0.011805 -912148.000000 0 0 1
-28.576247 -10.367313 17.253595 34.953821 0.348027 1.054559 0.030876 -0.004531 -479162.000000 0 0 1
-28.765327 -10.726213 18.657395 35.924839 0.356917 1.024712 0.026545 0.004533 -163044.000000 0 0 1
-27.434847 -10.887513 19.410695 35.326815 0.377788 0.989078 0.035807 0.004102 -288337.000000 0 0 1
-26.760907 -12.035613 19.034095 34.975690 0.422643 0.995350 0.045143 -0.001203 -978610.000000 0 0 1
-25.515927 -12.047713 19.648095 34.383973 0.441132 0.962547 0.052233 -0.007416 -459887.000000 0 0 1
-24.545507 -13.122013 19.093895 33.752718 0.490942 0.969515 0.057842 -0.005764 36693.000000 0 0 1
-24.133907 -12.927513 17.772895 32.641107 0.491765 0.995010 0.051798 -0.010234 -871069.000000 0 0 1
-22.925907 -13.550413 17.557995 31.898183 0.533814 0.987907 0.043446 -0.009254 -986062.000000 0 0 1
-22.429107 -13.516713 16.087995 30.734182 0.542360 1.019894 0.041767 -0.010490 -83781.900000 0 0 1
-21.842407 -12.247613 15.821595 29.621236 0.511041 1.007318 0.037770 -0.016999 -198062.000000 0 0 1
-21.492007 -12.216513 14.451795 28.635711 0.516876 1.041788 0.053137 -0.012236 330922.000000 0 0 1
-20.253907 -11.345713 14.126095 27.175219 0.510621 1.024162 0.029465 -0.010666 -48096.200000 0 0 1
-20.576007 -9.951413 13.974595 26.789774 0.450475 1.022025 0.019348 -0.006752 297885.000000 0 0 1
-19.479607 -9.107213 13.631595 25.460102 0.437332 1.005803 0.014521 -0.008293 -291768.000000 0 0 1
-19.018607 -9.261313 12.173995 24.406669 0.453162 1.048585 0.009168 0.002673 -167199.000000 0 1 0
-18.399407 -10.495513 11.762195 24.228975 0.518391 1.063907 0.001536 -0.005643 259290.000000 0 1 0
-18.473807 -10.611213 10.400595 23.707631 0.521377 1.116642 0.017584 -0.001541 -714295.000000 0 1 0
-17.714207 -11.859613 9.914195 23.510313 0.589960 1.135482 0.006113 -0.004820 474631.000000 0 1 0
-16.304307 -11.975713 9.958395 22.548121 0.633515 1.113359 0.012966 -0.012110 931075.000000 0 1 0
-15.590807 -11.722813 11.209095 22.497587 0.644719 1.049234 0.016589 -0.013853 -790782.000000 0 1 0
-14.108607 -12.058613 11.119395 21.635709 0.707216 1.031028 0.020845 -0.013836 -674707.000000 0 1 0
-13.863007 -13.428113 11.199695 22.314353 0.769464 1.044996 0.016654 -0.011930 551362.000000 0 1 0
-12.474607 -13.715513 11.047295 21.581794 0.832743 1.033424 0.023874 -0.009511 412148.000000 0 1 0
-12.269907 -15.284713 10.975495 22.464073 0.894377 1.060335 0.033196 -0.011559 -321633.000000 0 1 0
-12.585507 -15.830213 9.744595 22.448781 0.899093 1.121778 0.020099 -0.017023 188616.000000 0 1 0
-12.436307 -17.269813 9.793695 23.427007 0.946695 1.139497 0.011595 -0.010156 141408.000000 0 1 0
-12.879307 -17.872013 8.434095 23.588543 0.946351 1.205153 -0.000830 -0.006480 337801.000000 0 1 0
-11.985607 -17.615813 7.335695 22.534065 0.973354 1.239216 0.010101 -0.017808 147394.000000 0 1 0
-12.338007 -18.403513 6.296695 23.033977 0.980203 1.293906 0.001922 -0.006057 -484533.000000 0 1 0
-11.465107 -18.217713 5.067595 22.113667 1.009083 1.339580 0.007586 -0.006691 -506281.000000 0 1 0
-11.743907 -19.014513 3.917195 22.689546 1.017515 1.397284 0.009603 -0.009336 153148.000000 0 1 0
-10.797507 -18.921013 2.857795 21.971752 1.052228 1.440360 0.008066 -0.012028 129102.000000 0 1 0
-11.190807 -19.719213 1.578695 22.728260 1.054611 1.501281 0.014588 -0.012774 107801.000000 0 1 0
-11.201507 -21.160213 1.678395 24.000946 1.083932 1.500809 0.013825 -0.018647 109539.000000 0 1 0
-11.855207 -21.852513 0.614295 24.868768 1.073722 1.546092 0.029039 -0.021367 955103.000000 0 1 0
-10.849607 -22.101113 -0.640205 24.628907 1.114449 1.596793 0.034506 -0.015472 858568.000000 0 1 0
-10.684407 -21.045113 -1.560205 23.653490 1.101015 1.636805 0.028114 -0.032813 -382981.000000 0 1 0
-11.754107 -20.905713 -2.444705 24.107768 1.058602 1.672378 0.040066 -0.023919 -97530.300000 0 1 0
-12.727007 -19.723513 -2.213905 23.577427 0.997753 1.664834 0.041646 -0.028376 115326.000000 0 1 0
-13.604907 -19.893513 -1.110705 24.126314 0.970967 1.616850 0.033940 -0.017648 -309691.000000 0 1 0
-14.470907 -18.817813 -1.103105 23.764134 0.915245 1.617232 0.032964 -0.016435 -488283.000000 0 1 0
24.999793 -20.068013 -4.474805 32.368791 -0.676402 1.709485 0.019457 -0.010479 439763.000000 0 0 1
23.847193 -20.551513 -3.771505 31.706112 -0.711305 1.690031 0.005955 -0.004443 315008.000000 0 0 1
24.123993 -21.651113 -2.943305 32.548437 -0.731428 1.661348 0.008801 -0.002992 -644542.000000 0 0 1
22.996893 -22.101813 -2.036005 31.960797 -0.765554 1.634543 0.016232 0.005225 -803302.000000 0 0 1
21.963393 -22.590613 -2.823005 31.633776 -0.799475 1.660155 0.021951 -0.003106 221447.000000 0 0 1
20.794893 -23.063313 -2.105005 31.125151 -0.837074 1.638478 0.016390 0.000603 1071710.000000 0 0 1
19.718993 -23.633113 -3.057205 30.930716 -0.875441 1.669798 0.012541 -0.009318 78404.800000 0 0 1
19.056993 -22.668113 -3.873405 29.866630 -0.871729 1.700853 0.009005 -0.011469 -655306.000000 0 0 1
18.083793 -23.281113 -4.636405 29.841750 -0.910389 1.726795 0.005624 -0.012130 -542691.000000 0 0 1
17.128493 -22.287713 -5.297605 28.604056 -0.915549 1.757076 -0.001468 -0.009201 -769953.000000 0 0 1
16.217993 -21.542213 -4.542205 27.344503 -0.925476 1.737680 -0.005004 -0.004454 -199942.000000 0 0 1
16.695593 -20.647813 -3.604405 26.796767 -0.890840 1.705714 -0.005880 -0.002990 -679897.000000 0 0 1
15.684493 -20.286113 -2.498905 25.763816 -0.912634 1.667942 -0.005913 0.007748 -167220.000000 0 0 1
15.304493 -21.292313 -1.590905 26.270155 -0.947577 1.631393 -0.002399 0.003065 -99714.000000 0 0 1
14.537893 -20.630513 -0.619705 25.245840 -0.956937 1.595346 -0.003024 0.008441 -272164.000000 0 0 1
14.165393 -21.478213 0.600895 25.735832 -0.987755 1.547446 0.001299 0.005148 -104123.000000 0 0 1
13.185193 -22.466113 0.357395 26.051934 -1.040070 1.557077 -0.002405 -0.001716 -472695.000000 0 0 1
12.456793 -22.667413 1.512095 25.908874 -1.068302 1.512401 0.005854 -0.001026 -21631.500000 0 0 1
11.590293 -23.969913 1.482795 26.666276 -1.120407 1.515162 0.009148 -0.005445 339582.000000 0 0 1
12.316993 -25.095333 1.895995 28.019258 -1.114529 1.503077 0.008869 -0.009927 28219.000000 0 0 1
11.741593 -26.212053 1.282395 28.750326 -1.149652 1.526177 0.010216 -0.006900 112305.000000 0 0 1
12.222893 -27.556783 1.863395 30.203438 -1.153317 1.509062 0.013260 -0.008551 172532.000000 0 0 1
11.477493 -27.990673 2.983195 30.399179 -1.181659 1.472504 0.029440 -0.009779 223984.000000 0 0 1
12.173493 -29.012793 3.642095 31.673347 -1.173516 1.455552 0.036374 -0.015387 104869.000000 0 0 1
11.636893 -29.241513 5.076695 31.878773 -1.192052 1.410865 0.040202 -0.005927 -20054.000000 0 0 1
12.509193 -30.093053 5.760095 33.094568 -1.176843 1.395856 0.040612 -0.014958 -484228.000000 0 0 1
12.108693 -30.362093 7.065095 33.442379 -1.191317 1.357931 0.035345 -0.010003 78855.700000 0 0 1
12.993993 -31.342993 7.891895 34.835457 -1.177790 1.342264 0.038208 -0.004037 -50995.400000 0 0 1
12.436393 -31.777973 9.126495 35.324161 -1.197767 1.309468 0.034323 -0.004890 -289666.000000 0 0 1
11.427593 -32.762483 8.976695 35.840636 -1.235190 1.317640 0.022813 -0.006194 253107.000000 0 0 1
10.893393 -33.136273 10.404295 36.399560 -1.253181 1.280918 0.027153 -0.003269 494017.000000 0 0 1
11.932293 -33.763893 11.189495 37.517794 -1.231092 1.267943 0.023888 -0.002284 634704.000000 0 0 1
11.650893 -33.837783 12.554395 37.925607 -1.239194 1.233405 0.022145 0.000408 -412220.000000 0 0 1
10.591793 34.265794 13.002995 38.149818 1.271006 1.222986 0.020400 -0.008805 -138679.000000 0 0 1
11.006693 32.897781 12.859495 36.996998 1.247931 1.215805 0.013275 -0.001721 274192.000000 0 0 1
9.878993 32.063681 13.036295 35.994710 1.271920 1.200199 0.009902 0.001769 -6771.770000 0 0 1
9.914493 30.858701 12.042595 34.577170 1.259927 1.215059 0.008668 0.006973 -363569.000000 0 0 1
9.717393 31.125551 10.648595 34.301898 1.268185 1.255143 0.003964 0.001387 -149254.000000 0 0 1
10.632393 31.946631 9.969295 35.114411 1.249510 1.282928 0.004511 -0.002239 -323824.000000 0 0 1
10.259393 32.308081 8.512695 34.950439 1.263318 1.324757 0.002263 0.003744 -466128.000000 0 0 1
9.025193 32.964411 8.453395 35.207476 1.303559 1.328325 0.005648 0.001822 -461838.000000 0 0 1
8.577493 32.946631 7.137995 34.785124 1.316105 1.364126 -0.001204 -0.000748 -141158.000000 0 0 1
8.995693 34.193530 6.290295 35.912223 1.313544 1.394731 0.009522 -0.001053 189843.000000 0 0 1
8.314493 -33.688663 6.679195 35.336503 -1.328828 1.380635 0.003877 -0.000279 353710.000000 0 0 1
8.898993 -32.585013 6.016495 34.309960 -1.304197 1.394528 0.026912 -0.011831 -239119.000000 0 0 1
8.100193 -31.315233 6.155495 32.926389 -1.317678 1.382743 0.012824 -0.008522 -350327.000000 0 0 1
8.022293 -30.827763 7.442395 32.712343 -1.316213 1.341276 0.030291 -0.004973 237944.000000 0 0 1
7.239193 -29.640343 7.506895 31.421479 -1.331251 1.329553 0.018407 0.000545 144456.000000 0 0 1
8.029393 -28.336583 7.150895 30.307893 -1.294677 1.332609 0.032923 -0.002729 234887.000000 0 0 1
8.776293 -27.867493 8.283395 30.368324 -1.265700 1.294531 0.037417 0.000446 106730.000000 0 0 1
9.710593 -26.840773 8.082195 29.665545 -1.223661 1.294864 0.033120 -0.005008 106265.000000 0 0 1
9.171493 -25.501843 7.457795 28.108344 -1.225559 1.302257 0.026925 -0.004574 -211380.000000 0 0 1
9.138893 -25.586723 6.045995 27.834400 -1.227745 1.351838 0.037161 -0.008986 -81004.700000 0 0 1
8.225893 -24.606913 5.539295 26.530158 -1.248183 1.360456 0.029509 -0.009970 377014.000000 0 0 1
7.974393 -24.854113 4.013395 26.408809 -1.260324 1.418233 0.030226 -0.008795 442993.000000 0 0 1
7.122693 -25.971413 3.722095 27.186413 -1.303126 1.433455 0.021436 -0.007360 -291581.000000 0 0 1
7.780693 -27.216503 3.803395 28.561215 -1.292342 1.437233 0.032095 -0.009044 -283988.000000 0 0 1
7.009893 -28.499643 3.508195 29.558005 -1.329620 1.451827 0.033656 -0.010388 108120.000000 0 0 1
5.979393 -28.814333 4.448095 29.762468 -1.366186 1.420781 0.032071 -0.010647 1053670.000000 0 0 1
4.882493 -29.578253 3.852295 30.225022 -1.407201 1.442995 0.021329 -0.005794 1211030.000000 0 0 1
4.798493 -31.064173 4.203695 31.712449 -1.417537 1.437848 0.018482 -0.009356 504121.000000 0 0 1
5.757293 -31.718933 3.321695 32.407882 -1.391241 1.468119 0.023919 -0.007303 646405.000000 0 0 1
5.778593 -33.104783 3.490195 33.786096 -1.397983 1.467309 0.010747 -0.001850 37825.200000 0 0 1
6.888793 -33.937103 2.784895 34.741014 -1.370530 1.490549 0.012875 -0.002603 2738.260000 0 0 1
6.698193 -34.214581 1.408095 34.892493 -1.377471 1.530430 0.018171 -0.006301 53599.200000 0 0 1
7.629993 33.910224 0.947995 34.770947 1.349476 1.543529 0.008543 -0.002904 -443481.000000 0 0 1
7.154293 33.327433 -0.377605 34.088771 1.359339 1.581874 0.028020 0.000289 70548.600000 0 0 1
6.063893 32.456421 -0.319905 33.019576 1.386094 1.580485 0.013147 0.001036 434266.000000 0 0 1
4.791793 33.138075 -0.223205 33.483475 1.427191 1.577462 0.013988 -0.002367 628875.000000 0 0 1
3.547793 32.250241 0.084595 32.444908 1.461229 1.568189 0.024069 0.000929 433114.000000 0 0 1
3.298093 31.326691 -0.973605 31.514868 1.465902 1.601695 0.026543 0.002749 238713.000000 0 0 1
2.163993 30.497001 -0.734505 30.582502 1.499958 1.594816 0.023749 -0.005174 299113.000000 0 0 1
2.001493 29.465041 -1.853605 29.591054 1.502973 1.633478 0.014899 -0.001550 -156492.000000 0 0 1
1.696393 30.034241 -3.104305 30.241860 1.514374 1.673627 0.023893 -0.005248 31769.500000 0 0 1
1.774993 29.008101 -4.045205 29.342532 1.509683 1.709098 0.026071 -0.011463 -7648.500000 0 0 1
1.450893 29.526731 -5.460805 30.062490 1.521698 1.753459 0.022426 -0.014989 58949.200000 0 0 1
0.118893 29.962821 -5.685105 30.497626 1.566828 1.758305 0.019007 -0.005378 187510.000000 0 0 1
-0.052707 30.763061 -6.888505 31.524914 -1.569083 1.791084 0.011134 -0.007036 -128341.000000 0 0 1
-0.155207 30.059761 -8.255605 31.173199 -1.565633 1.838824 0.013781 -0.015100 202826.000000 0 0 1
-1.475607 29.524861 -8.458105 30.747917 -1.520859 1.849468 0.008194 -0.011334 761122.000000 0 0 1
-1.677107 29.141951 -9.824805 30.799234 -1.513310 1.895465 0.016726 -0.015025 156087.000000 0 0 1
-1.848207 30.384971 -10.799805 32.300126 -1.510045 1.911720 0.016725 -0.020080 -565594.000000 0 0 1
-0.572207 30.919381 -11.030305 32.832959 -1.552292 1.913412 0.016570 -0.022128 -147724.000000 0 0 1
-0.625407 32.250351 -11.538405 34.258007 -1.551406 1.914322 0.013295 -0.022048 -133550.000000 0 0 1
-0.878507 33.336763 -10.477105 34.955418 -1.544450 1.875203 0.002132 -0.013629 -13859.100000 0 0 1
0.248593 33.558579 -9.672205 34.925515 1.563389 1.851402 0.014427 -0.021213 -82283.800000 0 0 1
-0.119007 34.525231 -8.699005 35.604472 -1.567349 1.817618 0.011483 -0.009871 -95767.500000 0 0 1
0.999293 -34.203013 -7.693105 35.071763 -1.541588 1.791948 0.021167 -0.012622 -313921.000000 0 0 1
1.987093 -33.396633 -8.258305 34.459879 -1.511367 1.812802 0.019202 -0.009823 -876983.000000 0 0 1
2.846193 -32.961273 -7.265505 33.872318 -1.484660 1.786973 0.021904 -0.009834 -2201460.000000 0 0 1
4.071693 -32.321043 -7.807805 33.499109 -1.445480 1.806035 0.004926 -0.005586 -1184120.000000 0 0 1
4.968393 -33.150193 -8.466905 34.573237 -1.422028 1.818210 0.017492 -0.010069 26761.500000 0 0 1
5.784293 -33.973483 -7.637305 35.298499 -1.402154 1.788884 0.037635 -0.001231 -1327060.000000 0 0 1
6.237493 33.780968 -8.282205 35.336313 1.388208 1.807379 0.035841 -0.008298 -104321.000000 0 0 1
5.255893 32.779891 -8.568005 34.286388 1.411811 1.823368 0.030156 -0.009502 467905.000000 0 0 1
4.083593 33.159534 -9.300305 34.680342 1.448263 1.842292 0.035558 -0.021500 695132.000000 0 0 1
3.123793 31.993531 -9.702605 33.578038 1.473467 1.863933 0.042735 -0.025867 190592.000000 0 0 1
3.732793 31.020761 -10.512305 32.965587 1.451040 1.895352 0.043844 -0.020685 128020.000000 0 0 1
2.968193 29.818321 -10.435405 31.730744 1.471581 1.905907 0.025901 -0.022177 208386.000000 0 0 1
3.643293 28.705071 -11.227505 31.037261 1.444550 1.940933 0.020184 -0.021182 23812.300000 0 0 1
3.664393 28.992241 -12.607005 31.826316 1.445071 1.978082 0.031687 -0.017729 -38418.000000 0 0 1
4.942093 28.726751 -13.134205 31.971203 1.400426 1.994143 0.032536 -0.014819 -158118.000000 0 0 1
5.112993 29.358851 -14.515105 33.147747 1.398371 2.024048 0.035772 -0.014289 -24900.500000 0 0 1
4.323293 28.721051 -15.518605 32.930483 1.421391 2.061508 0.047701 -0.014008 136630.000000 0 0 1
4.344293 29.339481 -16.777205 34.075690 1.423795 2.085585 0.049442 -0.011960 494868.000000 0 0 1
3.325993 28.650171 -17.753705 33.868696 1.455224 2.122563 0.040464 -0.011264 670557.000000 0 0 1
3.807093 27.377201 -18.200405 33.094710 1.432622 2.153100 0.043353 -0.005671 -141981.000000 0 0 1
2.849593 26.816201 -19.058605 33.022102 1.464930 2.186027 0.049410 -0.015233 -10088.600000 0 0 1
3.300493 25.599351 -19.851405 32.562222 1.442575 2.226409 0.044499 -0.013183 67635.800000 0 0 1
3.346493 24.411921 -19.070505 31.158066 1.434561 2.229455 0.049917 -0.020315 -273165.000000 0 0 1
4.286893 23.521951 -19.591005 30.910631 1.390524 2.257246 0.034704 -0.010774 -607963.000000 0 0 1
4.541193 22.229651 -18.755005 29.436882 1.369284 2.261560 0.027867 0.003046 -229043.000000 0 0 1
3.586293 21.210751 -18.811305 28.576610 1.403301 2.289323 0.047270 0.002052 -301495.000000 0 0 1
4.168793 20.150651 -18.040205 27.365609 1.366793 2.290589 0.030830 0.007217 -183346.000000 0 0 1
3.237693 19.031151 -17.612505 26.131737 1.402284 2.310392 0.032439 -0.004160 -212952.000000 0 0 1
2.399893 19.335651 -16.489705 25.525228 1.447310 2.273150 0.027415 -0.004891 298199.000000 0 0 1
1.534993 18.232951 -16.157405 24.410212 1.486807 2.294163 0.017163 0.000593 572506.000000 0 1 0
2.241893 16.946451 -15.510405 23.082048 1.439267 2.307660 0.014421 -0.000905 1193190.000000 0 1 0
3.225393 16.223351 -16.338205 23.249456 1.374544 2.350031 0.021339 -0.005971 611555.000000 0 1 0
2.690493 15.263951 -17.187505 23.143839 1.396324 2.407798 0.026905 -0.009109 -499712.000000 0 1 0
2.670893 15.549251 -18.697905 24.464761 1.400687 2.440719 0.024015 -0.005687 1033030.000000 0 1 0
3.971093 15.732851 -19.341505 25.246505 1.323553 2.443557 0.029290 0.000410 1189100.000000 0 0 1
3.698193 16.125251 -20.685405 26.487475 1.345353 2.466982 0.021615 0.004145 -70397.600000 0 0 1
4.020593 15.090651 -21.802905 26.819015 1.310415 2.520021 0.026735 -0.009549 60795.100000 0 0 1
3.140093 14.001851 -21.919005 26.198374 1.350184 2.561944 0.037737 -0.005344 -534854.000000 0 0 1
1.931093 14.281951 -22.553505 26.764974 1.436399 2.572982 0.042575 -0.007698 -544952.000000 0 0 1
1.042693 13.071251 -22.835905 26.332933 1.491195 2.620347 0.045260 -0.012886 177860.000000 0 0 1
0.347893 12.535051 -21.679305 25.044776 1.543050 2.617187 0.043670 -0.008776 488488.000000 0 0 1
-0.406907 11.397551 -22.060905 24.834518 -1.535110 2.664462 0.032914 -0.016495 -71398.400000 0 1 0
-0.928207 10.540251 -20.900305 23.426080 -1.482960 2.672948 0.028195 -0.021943 -535225.000000 0 1 0
-2.061507 11.078251 -20.229705 23.156390 -1.386815 2.633373 0.026375 -0.018058 245822.000000 0 1 0
-2.619407 10.144551 -19.312305 21.971307 -1.318107 2.644512 0.022799 -0.016876 187443.000000 0 1 0
-3.472807 8.999151 -19.944005 22.154197 -1.202501 2.691107 0.032809 -0.017116 -894130.000000 0 1 0
-2.730807 8.123551 -20.685505 22.390612 -1.246505 2.748809 0.025191 -0.018007 -448888.000000 0 1 0
-3.639107 7.359451 -21.457105 22.974159 -1.111574 2.776154 0.020136 -0.002513 -81186.200000 0 1 0
-2.917607 6.264151 -22.220705 23.270405 -1.134912 2.840090 0.016998 -0.005584 -167212.000000 0 1 0
-2.430307 5.343051 -21.245605 22.041559 -1.143913 2.872034 0.025267 -0.007635 45534.200000 0 1 0
-1.873407 4.237451 -21.949705 22.433350 -1.154525 2.933568 0.024830 -0.014499 -46986.700000 0 1 0
-1.099007 3.267451 -20.954905 21.236574 -1.246333 2.978542 0.029229 -0.019558 565270.000000 0 1 0
0.307993 3.491651 -20.918605 21.210246 1.482816 2.975571 0.027784 -0.017064 -131931.000000 0 1 0
0.893493 2.568051 -20.084705 20.267920 1.235970 3.007032 0.028824 -0.009316 601701.000000 0 1 0
2.441093 2.450951 -20.319805 20.612146 0.787413 2.972971 0.022189 -0.004298 706847.000000 0 1 0
2.911893 1.883751 -21.497505 21.775453 0.574204 2.981646 0.035287 -0.004480 1257840.000000 0 1 0
4.349693 1.671451 -21.368805 21.870972 0.366872 2.926889 0.049683 -0.002703 1498480.000000 0 1 0
4.997193 1.118851 -22.679705 23.250651 0.220263 2.919524 0.046061 0.000085 557434.000000 0 1 0
6.420493 1.167751 -22.549505 23.474807 0.179912 2.859889 0.036292 -0.002244 462563.000000 0 1 0
7.025793 0.425151 -23.576505 24.604758 0.060439 2.851471 0.030840 -0.009632 -243558.000000 0 1 0
8.542593 0.629451 -23.695405 25.196117 0.073551 2.794715 0.033819 -0.012833 -120238.000000 0 0 1
8.748293 1.956451 -24.192205 25.799673 0.220018 2.786730 0.031770 -0.010980 367800.000000 0 0 1
10.105793 2.358951 -24.016005 26.162190 0.229319 2.733719 0.012223 -0.011525 125542.000000 0 0 1
13.753793 -21.280713 22.012358 33.564557 -0.997024 0.855526 0.019813 0.012265 -119161.000000 0 0 1
12.700793 -22.192013 22.291758 33.922235 -1.050983 0.853774 0.017221 0.018507 1155200.000000 0 0 1
11.355393 -21.671413 22.174658 33.019851 -1.088149 0.834490 0.007569 0.008053 1394440.000000 0 0 1
10.775293 -21.490413 20.769958 31.770048 -1.106029 0.858255 0.021295 -0.013174 -553263.000000 0 0 1
11.280793 -20.312213 20.179558 30.774289 -1.063840 0.855650 0.018619 -0.015326 -103677.000000 0 0 1
10.944793 -20.264713 18.833858 29.751660 -1.075592 0.885328 0.041802 -0.029011 80352.900000 0 0 1
11.266093 -18.872413 18.284458 28.590457 -1.032614 0.876909 0.052328 -0.025466 -61832.700000 0 0 1
10.368893 -17.866913 18.703258 27.866689 -1.044958 0.835012 0.056109 -0.025272 -406914.000000 0 0 1
10.719193 -16.555513 18.320958 26.919205 -0.996202 0.822228 0.056489 -0.023685 3631.450000 0 0 1
9.771493 -15.490513 18.922758 26.334556 -1.008034 0.769078 0.050892 -0.013925 199254.000000 0 0 1
8.450693 -15.543413 18.458458 25.568077 -1.072816 0.764203 0.046806 -0.018636 -571613.000000 0 0 1
7.516693 -14.692113 19.090958 25.235363 -1.097901 0.712827 0.025811 -0.008623 633152.000000 0 0 1
6.091493 -15.063813 18.572158 24.676908 -1.186520 0.718775 0.002076 -0.000678 39063.400000 0 1 0
5.827793 -14.716013 17.217658 23.387431 -1.193728 0.743369 0.011913 -0.015260 668466.000000 0 1 0
4.423893 -14.731113 16.899358 22.850926 -1.279056 0.738398 -0.003461 -0.014071 904379.000000 0 1 0
3.842593 -16.150813 16.639858 23.505300 -1.337220 0.784248 -0.011905 -0.019415 -1631820.000000 0 1 0
2.549193 -16.213213 16.208858 23.067157 -1.414844 0.791637 -0.006230 -0.015143 -1780220.000000 0 1 0
1.976593 -17.421713 16.557358 24.115744 -1.457824 0.814023 -0.005593 -0.010516 -930601.000000 0 1 0
0.507493 -17.327013 16.232958 23.748513 -1.541516 0.818201 -0.006156 -0.004396 -1009890.000000 0 1 0
0.290693 -17.388613 14.853958 22.871127 -1.554080 0.863918 -0.005857 -0.006333 388924.000000 0 1 0
-1.122707 -17.462813 14.630458 22.809222 1.506593 0.874439 -0.010546 -0.002053 574462.000000 0 1 0
-1.690907 -17.756013 13.232258 22.208733 1.475853 0.932518 -0.011586 -0.015068 -76148.400000 0 1 0
-3.061207 -18.087113 13.242058 22.624472 1.403137 0.945549 -0.014729 -0.005110 -274766.000000 0 1 0
-3.277007 -19.239313 12.487158 23.169356 1.402087 1.001605 -0.000863 -0.014293 -559070.000000 0 1 0
-4.744307 -19.622013 12.377358 23.679756 1.333564 1.020784 0.003369 -0.010491 -589387.000000 0 1 0
-5.219307 -20.135213 13.606958 24.855930 1.317166 0.991503 -0.009169 -0.007149 -215040.000000 0 1 0
-5.588707 -21.507513 13.433758 25.966760 1.316570 1.027051 -0.021607 0.004123 239504.000000 0 0 1
-6.310207 -22.252913 14.590758 27.347780 1.294482 1.008032 -0.023560 0.016136 -575616.000000 0 0 1
-7.600607 -21.871113 14.907658 27.538211 1.236334 0.998761 -0.011551 0.016693 -773212.000000 0 0 1
-8.219607 -22.850213 15.766258 28.952877 1.225491 0.994945 -0.009907 0.010742 -166325.000000 0 0 1
-9.721207 -22.596113 15.898958 29.289299 1.164516 0.996999 0.004925 0.011112 -348736.000000 0 0 1
-9.854607 -21.390513 16.692258 28.866915 1.139080 0.954216 -0.005451 0.002872 -522289.000000 0 0 1
-11.076607 -20.752013 16.426858 28.691095 1.080506 0.961193 0.023427 -0.001937 -337569.000000 0 0 1
-11.313907 -19.521913 17.269358 28.413734 1.045550 0.917532 0.018729 0.000926 -507583.000000 0 0 1
-11.717407 -19.898213 18.606658 29.655425 1.038603 0.892550 0.018160 -0.001643 -79531.400000 0 0 1
-11.960507 -18.781113 19.364158 29.508550 1.003730 0.854995 0.014219 0.003983 -230638.000000 0 0 1
-12.471007 -19.169913 20.782758 30.902016 0.994034 0.833164 0.025140 -0.004519 864173.000000 0 0 1
-13.796907 -19.745213 20.725258 31.776790 0.960912 0.860295 0.037015 -0.005788 926641.000000 0 0 1
-14.279207 -20.274913 21.932958 33.106231 0.957204 0.846642 0.036344 -0.001828 170617.000000 0 0 1
-15.698307 -20.856213 21.759258 33.983581 0.925574 0.875924 0.043620 -0.011635 -278541.000000 0 0 1
-15.544607 -22.075013 21.058058 34.240076 0.957276 0.908395 0.047019 -0.018121 777944.000000 0 0 1
-16.779907 -22.614413 20.585358 34.881713 0.932435 0.939555 0.042573 -0.006113 956114.000000 0 0 1
-17.831207 -23.177713 21.596158 36.353162 0.915041 0.934693 0.042271 -0.012431 -113364.000000 0 0 1
-18.691807 -22.258813 22.220358 36.586647 0.872284 0.918094 0.058848 -0.007384 216512.000000 0 0 1
-19.578407 -22.967013 23.107858 38.010141 0.864877 0.917334 0.035108 0.002667 209540.000000 0 0 1
-19.955007 -21.972213 24.205338 38.299854 0.833473 0.886671 0.036936 0.007063 -324339.000000 0 0 1
-20.775007 -20.958313 23.707558 37.853667 0.789790 0.894005 0.033154 0.012107 -213311.000000 0 0 1
-20.851407 -19.818413 24.550288 37.818875 0.760004 0.864324 0.031658 0.007021 292912.000000 0 0 1
-21.778507 -18.693713 23.970558 37.394464 0.709325 0.874971 0.030450 0.004867 207429.000000 0 0 1
-21.266707 -18.078013 22.807558 36.045417 0.704530 0.885703 0.034999 0.006672 -481050.000000 0 0 1
-22.278107 -17.381813 22.140458 35.897651 0.662563 0.906169 0.039997 -0.001133 -260476.000000 0 0 1
-21.895107 -16.797413 20.758358 34.531988 0.654404 0.925877 0.046049 0.006642 383729.000000 0 0 1
-20.859707 -15.811213 20.741058 33.396307 0.648588 0.900704 0.042696 0.009842 33558.000000 0 0 1
-20.344407 -15.757513 19.416758 32.236697 0.659021 0.924394 0.042785 0.005185 108293.000000 0 0 1
-19.438007 -14.520913 19.178258 30.927312 0.641602 0.901917 0.042053 -0.008094 99824.600000 0 0 1
-19.059307 -14.516413 17.822758 29.860243 0.650912 0.931199 0.045493 -0.002683 -116915.000000 0 0 1
-18.103707 -13.494313 17.641558 28.654236 0.640544 0.907560 0.039036 -0.015198 -361157.000000 0 0 1
-17.591507 -13.449313 16.186858 27.429173 0.652738 0.939573 0.024240 -0.019643 -38689.200000 0 0 1
-17.382707 -12.157413 15.693458 26.386470 0.610321 0.933837 0.018073 -0.013946 -74960.400000 0 0 1
-16.205707 -11.511913 16.120458 25.593324 0.617646 0.889411 0.000034 -0.012699 -396945.000000 0 0 1
-15.924707 -10.232713 15.277358 24.324933 0.571133 0.891747 0.004045 -0.016202 -174637.000000 0 1 0
-16.714307 -9.111113 15.554758 24.583143 0.499080 0.885709 0.008701 -0.006587 -96683.400000 0 1 0
-16.350607 -8.010513 14.785358 23.454583 0.455552 0.888751 -0.001660 -0.001888 -900663.000000 0 1 0
-16.653907 -6.640013 15.548258 23.731640 0.379390 0.856389 0.003791 0.009359 168094.000000 0 1 0
-15.958307 -6.368713 16.738358 23.987511 0.379717 0.798482 0.011780 0.013166 559232.000000 0 1 0
-14.532307 -6.320013 16.611858 22.958317 0.410221 0.761842 0.007245 0.006335 44520.200000 0 1 0
-13.798807 -6.400613 17.956358 23.533077 0.434314 0.702814 0.007710 0.016465 -216772.000000 0 1 0
-13.687407 -7.618513 18.612858 24.327461 0.507902 0.699605 0.004219 0.006296 204284.000000 0 1 0
-12.960807 -8.666013 17.951558 23.776895 0.589362 0.715142 -0.005431 0.012351 -482399.000000 0 1 0
-12.859907 -10.001513 18.715458 24.812816 0.661012 0.716261 -0.001288 0.011359 -345103.000000 0 1 0
-14.066007 -10.640413 18.997858 25.922761 0.647625 0.748274 0.007788 0.011662 -489671.000000 0 0 1
-14.825407 -10.087513 20.041558 26.892651 0.597464 0.729897 0.007397 0.011139 -593543.000000 0 0 1
-16.226207 -10.723113 20.280458 28.099323 0.583966 0.764481 0.009517 0.011770 1062120.000000 0 0 1
-17.282207 -10.509713 19.329358 27.977720 0.546371 0.808085 0.022427 0.002501 722212.000000 0 0 1
-17.659307 -9.161213 19.058958 27.550369 0.478555 0.806837 0.017574 0.005061 -1022410.000000 0 0 1
-18.816607 -8.949213 18.085258 27.590391 0.443939 0.855963 0.026912 -0.000633 -32838.600000 0 0 1
-20.088107 -9.139313 18.718658 28.938681 0.426972 0.867365 0.029043 -0.004398 159337.000000 0 0 1
-21.023307 -8.991613 17.650858 28.885660 0.404153 0.913398 0.039858 -0.013098 -873405.000000 0 0 1
-22.421407 -9.274013 18.149658 30.300774 0.392195 0.928565 0.043456 -0.006480 -662877.000000 0 0 1
-23.063507 -8.252013 18.956758 30.973856 0.343602 0.912178 0.044898 0.000716 610940.000000 0 0 1
-24.460407 -8.461413 19.039558 32.131166 0.333038 0.936566 0.042014 0.000953 311521.000000 0 0 1
-25.130007 -7.372513 20.012358 32.960062 0.285368 0.918302 0.041629 0.000213 170460.000000 0 0 1
-24.958907 -7.700513 21.406358 33.770951 0.299262 0.884251 0.042478 -0.003977 614465.000000 0 0 1
-25.732277 -6.797213 22.247458 34.688638 0.258252 0.874544 0.038925 -0.007644 -171584.000000 0 0 1
-25.620537 -7.080313 23.749858 35.645456 0.269624 0.841587 0.038628 -0.002499 217982.000000 0 0 1
-24.435407 -6.607413 24.367828 35.135994 0.264088 0.804420 0.029046 -0.004243 691806.000000 0 0 1
-23.208307 -7.311913 24.100558 34.248014 0.305212 0.790195 0.030657 -0.003656 12764.900000 0 0 1
-22.216007 -6.919613 25.194138 34.295431 0.301946 0.745689 0.029205 0.000391 -481027.000000 0 0 1
-21.862607 -5.568913 25.167358 33.799146 0.249419 0.730838 0.018504 0.000288 465067.000000 0 0 1
-20.886307 -5.235613 26.163618 33.884869 0.245611 0.688606 0.021451 -0.003017 338032.000000 0 0 1
-20.415707 -3.792713 26.143038 33.386288 0.183680 0.671246 0.025020 -0.005853 230772.000000 0 0 1
-19.334007 -3.450113 27.018178 33.401932 0.176589 0.628550 0.011465 -0.003391 114749.000000 0 0 1
-19.644907 -3.310113 28.384638 34.678046 0.166929 0.611968 0.004439 -0.003596 -37490.900000 0 0 1
-20.322907 -1.945713 28.758628 35.268471 0.095449 0.617341 0.004395 -0.006557 699764.000000 0 0 1
-21.619207 -1.854013 28.171238 35.559051 0.085548 0.656328 0.011167 -0.003369 -110133.000000 0 0 1
-22.414207 -0.868313 28.830488 36.528724 0.038720 0.661201 0.011147 -0.011222 -267174.000000 0 0 1
-23.728107 -0.737913 28.085048 36.774142 0.031089 0.701744 0.012891 -0.001875 -1110550.000000 0 0 1
-23.586007 -0.204913 26.768618 35.677733 0.008688 0.722297 0.007421 0.001565 48880.600000 0 0 1
-24.783707 -0.151213 26.002918 35.922232 0.006101 0.761406 0.010834 -0.001281 194823.000000 0 0 1
-25.537247 -1.461913 25.602898 36.191112 0.057184 0.784932 0.012125 -0.000548 -76928.800000 0 0 1
-26.358187 -1.980313 26.622878 37.516041 0.074990 0.781809 0.011900 -0.000208 -283485.000000 0 0 1
-26.806087 -3.320113 26.451308 37.805570 0.123229 0.795865 0.006900 0.005500 94088.200000 0 0 1
-25.762067 -4.480413 26.470818 37.208365 0.172193 0.779278 0.015815 -0.003914 122786.000000 0 0 1
-25.272507 -4.767213 27.741908 37.829081 0.186442 0.747562 0.008885 -0.000468 -255508.000000 0 0 1
-24.518207 -5.931013 27.854488 37.579142 0.237343 0.735907 0.015598 -0.004755 -363516.000000 0 0 1
-24.099607 -6.264313 29.263538 38.423786 0.254306 0.705019 0.011764 -0.006770 -646116.000000 0 0 1
-25.133427 -6.872213 29.938028 39.688814 0.266905 0.716180 0.014496 -0.002796 -434365.000000 0 0 1
-24.769907 -7.384113 31.203928 40.518620 0.289720 0.691778 0.019589 -0.001933 -292437.000000 0 0 1
-25.941117 -7.977813 32.022278 41.976343 0.298356 0.703064 0.010848 -0.007314 -93401.900000 0 0 1
-26.564417 -9.074413 31.425988 42.137940 0.329172 0.729079 0.020868 -0.016197 -275211.000000 0 0 1
-27.904157 -9.093913 31.845318 43.306645 0.315044 0.744621 0.013345 -0.009677 -80248.600000 0 0 1
-28.924827 -9.716613 30.855418 43.394873 0.324082 0.779823 0.014478 -0.013690 -77318.000000 0 0 1
-28.721947 -11.085813 30.523198 43.353329 0.368353 0.789703 0.024808 -0.020398 -23251.200000 0 0 1
-29.762997 -11.583213 29.742368 43.641898 0.371146 0.820973 0.016920 -0.015839 -497476.000000 0 0 1
-29.288797 -12.905713 29.190998 43.318650 0.415040 0.831366 0.029106 -0.017370 -7400.220000 0 0 1
-28.180827 -12.729713 28.354908 41.954802 0.424280 0.828687 0.029914 -0.019738 -314549.000000 0 0 1
-27.441177 -13.896713 28.009598 41.601375 0.468769 0.832153 0.042766 -0.022496 270219.000000 0 0 1
-26.115637 -13.476213 27.300658 40.111853 0.476382 0.822197 0.043655 -0.020009 1020410.000000 0 0 1
-25.043707 -12.895913 28.100128 39.788303 0.475525 0.786622 0.038457 -0.023221 705793.000000 0 0 1
-25.339747 -11.592513 28.660918 39.974209 0.429060 0.771328 0.041187 -0.029516 -821646.000000 0 0 1
-25.308627 -10.304613 27.829418 39.002412 0.386662 0.776272 0.039597 -0.023846 42928.800000 0 0 1
-24.077507 -9.970913 27.216278 37.681179 0.392617 0.763706 0.023863 -0.010096 157619.000000 0 0 1
-23.593907 -10.739113 26.041938 36.744844 0.427141 0.783109 0.023279 -0.017947 -232713.000000 0 0 1
-24.277207 -10.536613 24.698148 36.199468 0.409480 0.819921 0.033427 -0.010101 145968.000000 0 0 1
-25.534087 -11.210713 24.566178 37.164052 0.413710 0.848619 0.040913 -0.013561 140686.000000 0 0 1
-26.039357 -11.053813 23.250858 36.617445 0.401451 0.882831 0.048649 -0.006764 368566.000000 0 0 1
-27.482987 -11.658413 23.122958 37.761149 0.401197 0.911769 0.053624 -0.015173 1186150.000000 0 0 1
-28.568877 -11.046113 23.834658 38.810930 0.368944 0.909523 0.047912 -0.016234 246046.000000 0 0 1
-28.519637 -10.985013 25.219678 39.624139 0.367660 0.880880 0.051167 -0.017358 -254149.000000 0 0 1
-29.918437 -10.852013 25.934928 41.054836 0.347961 0.887034 0.029951 -0.012653 719029.000000 0 0 1
-30.411077 -9.495413 25.887768 41.050859 0.302644 0.888436 0.030004 -0.017407 -365940.000000 0 0 1
-31.754767 -9.308013 26.248338 42.237183 0.285135 0.900203 0.018913 -0.004111 -9120.940000 0 0 1
-32.206197 -9.483813 27.732528 43.546239 0.286377 0.880388 0.006000 0.002765 -319608.000000 0 0 1
-32.701037 -10.745813 28.118548 44.446407 0.317491 0.885840 0.006857 -0.006811 -2207.470000 0 0 1
-33.329797 -10.599213 29.341218 45.652226 0.307897 0.872764 -0.002465 -0.005690 -1025910.000000 0 0 1
-33.908687 -11.936113 29.844598 46.722263 0.338462 0.877903 0.001405 -0.012922 171781.000000 0 0 1
-35.042377 -12.458913 29.161678 47.260937 0.341600 0.905826 -0.010520 -0.000988 162173.000000 0 0 1
34.238176 -11.958713 29.637638 46.836451 -0.336033 0.885645 -0.011257 -0.000825 -557087.000000 0 0 1
33.002566 -12.428613 28.856798 45.567034 -0.360169 0.885009 -0.009471 -0.003894 -278605.000000 0 0 1
32.889806 -11.996013 27.531368 44.537848 -0.349740 0.904401 -0.009624 0.008171 -63362.100000 0 0 1
31.774886 -12.490113 26.808278 43.408871 -0.374528 0.905139 -0.008376 0.015460 168893.000000 0 0 1
31.818716 -11.890913 25.404708 42.417257 -0.357638 0.928640 -0.005487 0.010107 69432.500000 0 0 1
31.509156 -10.534613 25.421148 41.833477 -0.322652 0.917667 0.002824 -0.003889 -119670.000000 0 0 1
31.895316 -9.923113 24.227398 41.264345 -0.301623 0.943292 -0.006976 0.004980 -639641.000000 0 0 1
31.315476 -8.502013 24.084508 40.410479 -0.265105 0.932290 0.012421 0.007664 -60771.500000 0 0 1
29.919656 -8.556313 23.905258 39.241020 -0.278542 0.915757 0.019024 -0.000186 -703592.000000 0 0 1
29.406626 -7.273213 23.861558 38.561940 -0.242466 0.903601 0.027779 0.001010 974564.000000 0 0 1
27.826476 -7.321413 23.900558 37.405247 -0.257279 0.877647 0.035969 0.012721 811380.000000 0 0 1
27.375786 -7.869313 22.689158 36.416447 -0.279908 0.898164 0.031143 0.014520 -371251.000000 0 0 1
25.983016 -8.065913 22.737858 35.456823 -0.300998 0.874627 0.035527 -0.000084 -222483.000000 0 0 1
14.424793 -17.620613 25.937338 34.515303 -0.884797 0.720504 -0.008217 0.025093 116709.000000 0 0 1
13.424893 -18.623113 25.841518 34.566344 -0.946199 0.726368 -0.023610 0.029085 289447.000000 0 0 1
13.977493 -19.914413 25.578808 35.301977 -0.958811 0.760384 0.000510 0.018147 -738987.000000 0 0 1
13.022093 -21.055613 25.782238 35.744056 -1.016912 0.765117 -0.033847 0.010147 -364616.000000 0 0 1
12.605293 -21.313213 27.125788 36.728120 -1.036701 0.739870 -0.020502 0.011443 282982.000000 0 0 1
11.439293 -20.585913 27.502538 36.208104 -1.063599 0.708147 -0.022393 0.014465 -47132.300000 0 0 1
10.989893 -20.833413 29.006068 37.365235 -1.085381 0.682046 -0.032974 0.012519 -494014.000000 0 0 1
11.754093 -20.372913 30.123738 38.218502 -1.047500 0.662921 -0.030889 0.022506 -444998.000000 0 0 1
11.382693 -19.317013 30.912948 38.187996 -1.038313 0.627507 -0.026471 0.033036 -625938.000000 0 0 1
11.288893 -17.902913 30.227368 36.900504 -1.008208 0.610854 -0.030544 0.027785 272655.000000 0 0 1
12.549093 -17.267913 29.992988 36.813583 -0.942356 0.618540 -0.032635 0.036090 353741.000000 0 0 1
12.344193 -16.021613 29.366858 35.657868 -0.914322 0.603115 -0.035966 0.029861 318661.000000 0 0 1
12.882693 -14.812213 30.168738 35.993307 -0.854956 0.576865 -0.034248 0.024656 -94709.600000 0 0 1
12.374693 -13.647313 29.641428 34.899805 -0.834265 0.556083 -0.020434 0.016317 -120635.000000 0 0 1
12.744593 -12.446113 30.390208 35.226341 -0.773550 0.530187 -0.013583 0.019505 -131733.000000 0 0 1
12.219793 -11.124613 29.779808 34.057559 -0.738519 0.506606 -0.010976 0.015341 -70321.900000 0 0 1
12.655793 -10.805213 28.460038 32.968098 -0.706682 0.529104 -0.002793 0.007410 -19455.000000 0 0 1
14.039793 -10.667113 28.220608 33.276205 -0.649729 0.558461 0.007603 0.001464 -568103.000000 0 0 1
14.338693 -9.745313 27.027688 32.110203 -0.596938 0.570342 0.010718 -0.001797 5798.080000 0 0 1
14.493093 -8.405213 27.195218 31.941779 -0.525543 0.552148 0.017393 -0.005646 -512838.000000 0 0 1
15.612193 -8.058613 27.935858 33.001424 -0.476503 0.561411 0.017295 -0.008808 -1149920.000000 0 0 1
15.906993 -6.542013 28.117878 32.961271 -0.390181 0.548978 0.019499 -0.012589 -30989.300000 0 0 1
17.283993 -6.316513 28.353728 33.801903 -0.350376 0.575683 0.025197 -0.013779 -29658.500000 0 0 1
17.663293 -5.013713 28.025738 33.504794 -0.276575 0.579988 0.029898 -0.011466 -343746.000000 0 0 1
19.187293 -4.873313 27.941298 34.243503 -0.248727 0.616410 0.032590 -0.009393 -508604.000000 0 0 1
19.747593 -5.715813 26.883378 33.843078 -0.281744 0.652853 0.031054 -0.002837 -64303.500000 0 0 1
21.056293 -5.510913 26.444278 34.249634 -0.255981 0.688651 0.037558 0.000814 481341.000000 0 0 1
22.263393 -5.735013 27.429818 35.790277 -0.252117 0.697572 0.043865 -0.006115 -10286.800000 0 0 1
22.370693 -4.678213 28.381068 36.439245 -0.206152 0.677950 0.050085 -0.012331 317887.000000 0 0 1
23.390593 -4.992713 29.352628 37.863225 -0.210294 0.683721 0.063120 -0.022215 341973.000000 0 0 1
24.055593 -3.670613 29.805738 38.477616 -0.151421 0.684674 0.066801 -0.025314 -502630.000000 0 0 1
24.987293 -3.172013 28.881148 38.321628 -0.126270 0.717196 0.064187 -0.014812 -48419.400000 0 0 1
25.222193 -1.799913 29.123588 38.569185 -0.071242 0.714990 0.056753 -0.021733 -751462.000000 0 0 1
26.197993 -1.149713 28.149178 38.471195 -0.043857 0.749991 0.053991 -0.018860 772635.000000 0 0 1
27.572893 -1.301013 28.558218 39.718117 -0.047150 0.768402 0.058779 -0.012623 869800.000000 0 0 1
28.477893 -0.739813 27.609348 39.671322 -0.025973 0.801051 0.044859 0.002921 -312122.000000 0 0 1
29.941193 -0.875313 27.981358 40.990213 -0.029226 0.819434 0.030303 0.000100 -602631.000000 0 0 1
30.214493 0.102887 28.984378 41.869085 0.003405 0.806177 0.024602 0.011485 560963.000000 0 0 1
31.614493 0.203387 29.253178 43.072798 0.006433 0.824183 0.023715 0.003582 615054.000000 0 0 1
31.903093 1.299687 30.325568 44.035628 0.040716 0.811157 0.017571 0.001704 -287032.000000 0 0 1
31.890293 2.613887 29.759578 43.697319 0.081782 0.821616 0.013149 0.011535 148469.000000 0 0 1
32.231393 3.608287 30.716288 44.669595 0.111485 0.812572 0.019116 0.008676 -113532.000000 0 0 1
32.669893 4.951987 30.077558 44.682251 0.150431 0.832345 0.010611 0.016780 -80991.600000 0 0 1
32.560493 6.159487 30.833898 45.264271 0.186961 0.821400 0.013032 0.018793 830093.000000 0 0 1
31.244393 6.485487 31.324168 44.715513 0.204666 0.794669 0.013656 0.011223 648130.000000 0 0 1
31.323793 7.384187 32.619968 45.823231 0.231511 0.778646 0.029015 0.005707 -75884.000000 0 0 1
31.741693 6.623587 33.732654 46.789944 0.205719 0.765641 0.018594 0.008609 135844.000000 0 0 1
31.585993 7.275287 -34.062930 47.020080 0.226384 2.381009 0.015003 -0.002382 -155451.000000 0 0 1
31.785893 6.416187 -32.771075 46.102644 0.199180 2.361472 0.019685 0.003887 79927.000000 0 0 1
30.662193 5.734387 -32.222255 44.847820 0.184882 2.372411 0.021862 0.003305 161801.000000 0 0 1
30.532793 4.364587 -32.627615 44.898355 0.141986 2.384302 0.021619 0.001437 -274323.000000 0 0 1
31.562093 3.431387 -31.982895 45.064905 0.108293 2.359879 0.015025 0.001649 -336038.000000 0 0 1
31.284193 2.079087 -32.298935 45.013826 0.066360 2.371051 0.019107 0.003911 168468.000000 0 0 1
31.863493 1.032987 -31.504215 44.820361 0.032408 2.350262 0.024240 -0.003473 -120022.000000 0 0 1
31.939693 -0.288713 -32.285775 45.415841 -0.009039 2.361563 0.032695 -0.023553 -172401.000000 0 0 1
33.090093 -0.369213 -33.115685 46.816014 -0.011157 2.356550 0.034022 -0.011014 1037060.000000 0 0 1
34.025993 -1.482813 -32.901975 47.355114 -0.043551 2.338928 0.047482 -0.004293 1068290.000000 0 0 1
34.782493 -1.611313 -31.552285 46.988986 -0.046292 2.307004 0.050241 0.001613 -638672.000000 0 0 1
33.982193 -1.679813 -30.367155 45.604553 -0.049392 2.299469 0.046873 -0.003151 -286307.000000 0 0 1
34.685693 -1.662913 -29.148655 45.337696 -0.047906 2.269105 0.041993 0.000589 -294179.000000 0 0 1
33.785393 -1.474413 -27.907465 43.845789 -0.043613 2.260737 0.047886 -0.004436 -88788.600000 0 0 1
33.263193 -0.166813 -27.793055 43.346531 -0.005015 2.266835 0.026747 0.003386 234730.000000 0 0 1
32.409093 -0.086913 -26.664765 41.968637 -0.002682 2.259258 0.028857 -0.000505 -95805.900000 0 0 1
31.826693 1.345387 -26.463105 41.413094 0.042247 2.263998 0.019725 0.003198 -79624.300000 0 0 1
30.889293 1.603587 -27.475245 41.371596 0.051867 2.297098 0.017423 -0.008146 40085.100000 0 0 1
30.095893 2.745487 -27.254235 40.695132 0.090973 2.304624 0.001314 0.002763 77197.500000 0 0 1
29.431993 3.184287 -28.583085 41.150633 0.107772 2.338655 0.011983 -0.000818 -126361.000000 0 0 1
28.560793 4.267687 -28.382935 40.491024 0.148327 2.347551 0.002620 -0.003715 -33030.700000 0 0 1
27.943293 4.668587 -29.574865 40.954804 0.165545 2.377679 0.008318 -0.008045 -79437.300000 0 0 1
26.903893 5.818987 -29.307095 40.206789 0.213007 2.387523 0.019429 -0.013106 -159550.000000 0 0 1
25.722893 5.256387 -28.810075 38.978420 0.201572 2.402572 0.010797 -0.010191 -476036.000000 0 0 1
24.809693 6.248487 -28.462255 38.270934 0.246725 2.409391 0.001139 -0.006737 -333791.000000 0 0 1
23.419893 5.758687 -28.003625 36.957501 0.241105 2.430616 0.003937 -0.001079 -197058.000000 0 0 1
22.629793 5.283587 -29.081825 37.226017 0.229370 2.467419 0.021909 -0.008556 703825.000000 0 0 1
21.288993 4.938887 -28.728535 36.096295 0.227960 2.491266 0.021827 -0.007883 825227.000000 0 0 1
20.352493 4.564387 -29.944855 36.493176 0.220616 2.533187 0.019114 -0.005352 282882.000000 0 0 1
20.641993 3.274687 -30.546095 37.011881 0.157331 2.541539 0.033560 -0.006513 131331.000000 0 0 1
19.779793 3.002187 -31.647235 37.440630 0.150631 2.577856 0.020165 -0.010873 111439.000000 0 0 1
20.127993 3.609387 -33.085755 38.895128 0.177436 2.587998 0.021207 -0.009475 -1742860.000000 0 0 1
21.330393 3.161087 -33.495435 39.836193 0.147126 2.569610 0.052240 -0.012176 -1666830.000000 0 0 1
21.684793 3.609587 34.263424 40.709232 0.164945 0.570442 0.049179 -0.020588 59463.200000 0 0 1
23.133193 3.357987 33.776861 41.076721 0.144152 0.605378 0.062543 -0.016996 140577.000000 0 0 1
23.335893 1.958787 33.681295 41.022315 0.083742 0.607552 0.066419 -0.025364 -275175.000000 0 0 1
24.706193 1.789387 33.406543 41.588399 0.072300 0.638038 0.056412 -0.026365 -272726.000000 0 0 1
24.995093 0.309087 32.965598 41.371256 0.012365 0.648776 0.048466 -0.029381 -141212.000000 0 0 1
24.437993 -0.296413 31.734858 40.055019 -0.012129 0.656257 0.056465 -0.031420 1250450.000000 0 0 1
23.013493 -0.381113 31.547268 39.051200 -0.016559 0.630312 0.067454 -0.033369 706750.000000 0 0 1
22.216593 -1.279013 32.495928 39.385253 -0.057507 0.600455 0.062548 -0.037249 -419997.000000 0 0 1
22.485493 -2.668413 32.248408 39.404030 -0.118120 0.612169 0.071263 -0.045842 279602.000000 0 0 1
21.589793 -3.409013 33.048911 39.622860 -0.156606 0.584321 0.061859 -0.035346 -95877.500000 0 0 1
21.414393 -4.886213 32.682878 39.377935 -0.224334 0.591725 0.060637 -0.030414 -341257.000000 0 0 1
22.580693 -5.622213 32.923518 40.316932 -0.244021 0.615270 0.064497 -0.023131 -431608.000000 0 0 1
22.406993 -6.975513 32.759108 40.297522 -0.301800 0.621629 0.057018 -0.019217 176385.000000 0 0 1
23.733393 -7.766713 32.501058 40.986760 -0.316264 0.655136 0.057837 -0.024895 256623.000000 0 0 1
24.363293 -7.402413 31.331198 40.373379 -0.294971 0.682440 0.065597 -0.023278 -882129.000000 0 0 1
25.497293 -8.178013 31.118058 41.052714 -0.310374 0.710551 0.057858 -0.021608 -402820.000000 0 0 1
26.061293 -7.913013 29.695018 40.293931 -0.294785 0.742234 0.052066 -0.022166 -228558.000000 0 0 1
25.186293 -8.314613 28.670848 39.057645 -0.318860 0.746508 0.040725 -0.012397 -284092.000000 0 0 1
25.705593 -8.293913 27.312728 38.412909 -0.312105 0.779834 0.047566 -0.001368 629248.000000 0 0 1
24.827593 -9.160013 26.314258 37.319638 -0.353452 0.788225 0.028918 0.002787 173691.000000 0 0 1
23.727293 -8.580813 25.692218 36.009788 -0.347009 0.776346 0.031873 0.006909 -362627.000000 0 0 1
23.110193 -9.532513 24.787048 35.204368 -0.391219 0.789655 0.038904 -0.001167 -291351.000000 0 0 1
21.797093 -9.078313 24.162218 33.783750 -0.394642 0.773883 0.023539 0.008548 108103.000000 0 0 1
20.716393 -9.257713 25.085298 33.825232 -0.420255 0.735322 0.022795 0.013480 420706.000000 0 0 1
19.490893 -8.702813 24.649268 32.607058 -0.419945 0.713694 0.019318 0.015607 829660.000000 0 0 1
18.317393 -8.681313 25.680958 32.717024 -0.442582 0.668194 0.012296 0.010531 280106.000000 0 0 1
17.766093 -9.844913 26.292908 33.224590 -0.506017 0.657751 0.011029 0.006022 38360.700000 0 0 1
18.642493 -10.604513 27.105658 34.564648 -0.517189 0.669388 0.015110 0.010478 83192.700000 0 0 1
17.910193 -11.751113 27.917058 35.188432 -0.580661 0.654489 0.011341 0.005801 280862.000000 0 0 1
17.138393 -12.606913 27.111578 34.462972 -0.634218 0.665372 0.005827 0.006458 464493.000000 0 0 1
16.222593 -13.442113 27.817568 34.895272 -0.691941 0.648198 0.002097 0.008037 361950.000000 0 0 1
16.913693 -14.682413 28.399648 36.168857 -0.714896 0.667783 0.007913 0.015580 402402.000000 0 0 1
15.900893 -15.451713 29.064018 36.555587 -0.771072 0.651684 -0.005298 0.017753 496793.000000 0 0 1
16.435193 -16.577013 29.701188 37.776626 -0.789694 0.666109 0.004271 0.015205 -203124.000000 0 0 1
16.746693 -17.844913 28.887248 37.859817 -0.817136 0.702846 0.004056 0.015431 422989.000000 0 0 1
17.893793 -17.691613 28.046818 37.680300 -0.779717 0.731256 0.015083 0.010347 525686.000000 0 0 1
18.160893 -18.941013 27.418528 37.952018 -0.806421 0.763454 0.011265 0.011551 509216.000000 0 0 1
19.375193 -18.866213 26.411078 37.800491 -0.772089 0.797222 0.030852 0.005951 91973.500000 0 0 1
20.582793 -18.455413 26.997528 38.640913 -0.730957 0.797249 0.048439 -0.006382 -723664.000000 0 0 1
21.348993 -18.045313 25.903338 38.110310 -0.701732 0.823451 0.033904 -0.001083 -442390.000000 0 0 1
22.790793 -17.657913 26.287348 39.015981 -0.659174 0.831513 0.027013 -0.003529 106702.000000 0 0 1
23.545093 -18.827413 26.688758 40.263292 -0.674517 0.846170 0.013620 -0.005716 -634247.000000 0 0 1
24.875993 -18.479013 26.855298 41.006048 -0.638906 0.856732 0.006257 -0.005518 -635264.000000 0 0 1
25.776493 -19.711613 27.085898 42.268441 -0.652851 0.875248 -0.006767 0.002457 46149.200000 0 0 1
25.402393 -20.359813 28.298498 43.134772 -0.675650 0.855225 -0.004812 -0.000150 -510064.000000 0 0 1
26.294293 -21.326713 28.641858 44.346077 -0.681459 0.868632 -0.000809 0.007787 -802827.000000 0 0 1
25.650593 -22.394213 29.560258 45.091712 -0.717724 0.855874 0.008759 0.010460 40626.100000 0 0 1
25.406093 -21.944513 30.847438 45.591618 -0.712423 0.827656 0.014327 0.002088 -27714.100000 0 0 1
24.911493 -23.061213 31.579758 46.364675 -0.746848 0.821509 0.014347 0.007519 -804731.000000 0 0 1
24.382993 -22.879613 33.028976 46.999152 -0.753600 0.791531 0.023556 0.001156 34460.200000 0 0 1
23.759093 -24.054413 33.490205 47.588897 -0.791575 0.790148 0.020852 0.005985 31998.900000 0 0 1
23.736293 -24.147013 -34.121464 48.070408 -0.793975 2.360043 0.020657 0.004442 -333660.000000 0 0 1
23.679193 -25.625853 -33.639345 48.466422 -0.824860 2.337931 0.019753 0.004810 275114.000000 0 0 1
22.471393 -26.352373 -33.805195 48.396304 -0.864721 2.344106 0.038370 0.000330 -38273.000000 0 0 1
22.080293 -26.595223 33.849808 48.380313 -0.877889 0.795874 0.025841 -0.001631 -592758.000000 0 0 1
20.794893 -27.395243 33.727932 48.171571 -0.921516 0.795171 0.045359 -0.006019 -333841.000000 0 0 1
20.924293 -28.803313 33.817911 49.103034 -0.942535 0.811084 0.054277 -0.010726 -564977.000000 0 0 1
19.669893 -29.388073 33.811213 48.926083 -0.980962 0.807832 0.056830 -0.014237 -414454.000000 0 0 1
19.849293 -30.909683 34.092238 50.116700 -0.999945 0.822683 0.046519 -0.014307 -103874.000000 0 0 1
20.337893 -31.248793 -33.708905 50.263378 -0.993832 2.305875 0.031544 -0.015797 68569.100000 0 0 1
21.234593 -32.333023 -33.865365 51.412015 -0.989693 2.289893 0.011020 -0.004402 131049.000000 0 0 1
21.829293 -32.875893 -32.495355 51.120353 -0.984648 2.259664 -0.001270 -0.000873 -250149.000000 0 0 1
22.985093 -33.653313 -32.741735 52.276966 -0.971574 2.247611 -0.002993 0.004960 65800.100000 0 0 1
23.569193 -34.238307 -31.570425 52.196362 -0.967907 2.220361 -0.008509 0.015147 147470.000000 0 0 1
24.354893 -33.380063 -30.585565 51.408814 -0.940464 2.207997 -0.008658 0.003080 -491225.000000 0 0 1
24.673693 -34.032931 -29.325695 51.254540 -0.943492 2.179931 -0.002861 0.007438 -266719.000000 0 0 1
25.188293 -33.100543 -28.420015 50.376515 -0.920316 2.170202 0.011477 -0.002856 -700100.000000 0 0 1
25.496693 -33.562723 -26.968935 50.038597 -0.921133 2.140001 0.013233 -0.004048 -249620.000000 0 0 1
26.489993 -34.463511 -26.608655 50.965418 -0.915473 2.120099 0.010456 0.016487 -779538.000000 0 0 1
27.788793 -33.939793 -26.681415 51.342229 -0.884716 2.117270 0.014904 -0.001359 -335778.000000 0 0 1
-26.543387 -30.831577 8.764195 41.616687 0.859999 1.358615 0.004013 -0.019411 -246170.000000 0 0 1
-26.342017 -31.836077 9.716695 42.448225 0.879554 1.339842 0.010588 -0.021407 -516122.000000 0 0 1
-25.096587 -31.811077 10.342495 41.818065 0.902844 1.320882 0.011680 -0.024272 -823091.000000 0 0 1
-24.892107 -32.989077 11.321395 42.849390 0.924386 1.303408 0.006070 -0.024863 131270.000000 0 0 1
-25.189987 -34.223077 10.738695 43.830059 0.936281 1.323269 0.007918 -0.021342 75790.400000 0 0 1
-25.239627 33.811787 11.639095 43.769216 -0.929556 1.301639 0.006339 -0.014604 10961.600000 0 0 1
-25.139087 32.325487 11.007895 42.403827 -0.909810 1.308192 0.011564 -0.010996 -422685.000000 0 0 1
-26.320927 31.834687 10.461795 42.610887 -0.879926 1.322741 0.022274 -0.014896 -503611.000000 0 0 1
-26.248757 30.465287 10.121595 41.467791 -0.859609 1.324222 0.028077 -0.013474 -208238.000000 0 0 1
-25.689247 30.167487 8.704095 40.568164 -0.865401 1.354560 0.022259 -0.012785 -676240.000000 0 0 1
-24.296907 30.173787 8.660195 39.696298 -0.892873 1.350866 0.014747 -0.005316 -880885.000000 0 0 1
-23.958507 30.099387 7.286595 39.154535 -0.898511 1.383607 0.025968 -0.003281 650335.000000 0 0 1
-22.476607 29.646987 6.998495 37.856580 -0.922105 1.384858 0.009859 -0.002571 837416.000000 0 0 1
-22.127707 28.304487 7.133795 36.628820 -0.907268 1.374785 0.025597 0.000445 59518.100000 0 0 1
-22.767807 27.539787 6.159395 36.259496 -0.879971 1.400099 0.017930 -0.007263 -665067.000000 0 0 1
-22.938907 26.030287 6.453395 35.290447 -0.848444 1.386896 0.025779 -0.012304 -834407.000000 0 0 1
-23.790207 25.703887 7.505995 35.819041 -0.824044 1.359678 0.025836 -0.009287 27759.000000 0 0 1
-24.012507 24.303487 7.607895 35.002001 -0.791421 1.351691 0.034070 -0.018738 -142049.000000 0 0 1
-24.604207 23.470287 6.439595 34.607655 -0.761816 1.383631 0.020398 -0.023645 -320139.000000 0 0 1
-25.961337 23.772687 6.126695 35.730492 -0.741419 1.398475 0.017271 -0.017356 654868.000000 0 0 1
-26.515787 22.983487 5.031795 35.449212 -0.714158 1.428372 0.012671 -0.015934 164091.000000 0 0 1
-26.308727 23.574687 3.620895 35.510926 -0.730644 1.468653 -0.004357 -0.009734 -1019580.000000 0 0 1
-24.978807 23.912187 3.409195 34.747030 -0.763585 1.472524 0.000071 -0.012135 -497272.000000 0 0 1
-24.720307 24.696987 2.290695 35.018310 -0.784926 1.505335 -0.007621 -0.009511 -320097.000000 0 0 1
-23.286707 25.240387 2.290795 34.417955 -0.825636 1.504189 0.012660 -0.008014 -328766.000000 0 0 1
-22.946407 25.830587 1.091895 34.568035 -0.844459 1.539204 0.000872 -0.008159 -213012.000000 0 0 1
-21.675307 26.450987 1.157195 34.217141 -0.884307 1.536971 0.018677 -0.013021 -912263.000000 0 0 1
-21.220707 27.248187 -0.083405 34.536778 -0.909121 1.573211 0.022985 -0.014207 213306.000000 0 0 1
-20.621607 26.514987 -1.169205 33.610449 -0.909780 1.605590 0.012514 -0.012867 1240560.000000 0 0 1
-19.440907 25.736687 -0.809705 32.264246 -0.923863 1.595895 0.025535 -0.014371 92942.800000 0 0 1
-18.974007 24.739587 -1.879405 31.234473 -0.916536 1.631004 0.020115 -0.007279 -192451.000000 0 0 1
-19.885007 23.743687 -2.375305 31.061524 -0.873612 1.647342 0.011274 -0.004104 148637.000000 0 0 1
-19.346507 22.748787 -3.237905 30.037954 -0.866046 1.678800 0.016466 0.003852 -656891.000000 0 0 1
-20.443107 21.983987 -3.966105 30.281121 -0.821701 1.702150 0.004060 0.009402 -277371.000000 0 0 1
-21.069807 22.804487 -4.936705 31.438073 -0.824915 1.728478 -0.000805 0.004770 -216306.000000 0 0 1
-22.183907 22.106287 -5.445805 31.787898 -0.783646 1.742963 0.012111 0.004634 247087.000000 0 0 1
-22.866807 22.815787 -6.645005 32.978889 -0.784281 1.773678 0.006705 0.014702 426467.000000 0 0 1
-21.963107 22.726587 -7.764505 32.544790 -0.802481 1.811699 0.002385 0.011820 620921.000000 0 0 1
-22.220107 23.728887 -8.764405 33.669096 -0.818222 1.834140 0.002906 0.007654 -299731.000000 0 0 1
-21.668307 23.416987 -10.175605 33.487516 -0.824165 1.879541 -0.008850 0.010586 -9218.820000 0 0 1
-22.295607 22.259687 -10.751605 33.289409 -0.784592 1.899666 -0.021857 0.010844 -27150.300000 0 0 1
-21.499607 21.700487 -11.756605 32.731667 -0.790048 1.938187 -0.022281 0.006435 -229314.000000 0 0 1
-21.895207 21.934587 -13.213505 33.691585 -0.786297 1.973808 -0.015136 0.014793 -252651.000000 0 0 1
-23.107807 21.313587 -13.576705 34.242761 -0.745029 1.978480 -0.023743 0.010623 -99359.100000 0 0 1
-22.858807 20.082387 -14.274905 33.609526 -0.720832 2.009458 -0.000320 0.014194 -741451.000000 0 0 1
-24.079307 19.259387 -14.640205 34.133160 -0.674638 2.014087 -0.003801 0.008720 -799451.000000 0 0 1
-23.866907 18.062487 -15.282705 33.607198 -0.647839 2.042882 -0.005377 0.010085 -888612.000000 0 0 1
-25.035407 17.400587 -15.556105 34.227831 -0.607389 2.042593 0.009324 0.011676 -1093620.000000 0 0 1
-24.726107 16.363487 -16.654805 34.007743 -0.584619 2.082583 0.017880 0.012447 368488.000000 0 0 1
-23.806607 15.319387 -16.295805 32.664835 -0.571787 2.093101 0.029334 0.009946 335345.000000 0 0 1
-23.525607 14.558487 -17.434405 32.701104 -0.554154 2.133109 0.030119 -0.005546 -294253.000000 0 0 1
-22.649107 13.321087 -17.303805 31.461962 -0.531661 2.153150 0.034892 -0.012285 -385902.000000 0 0 1
-21.303607 13.622587 -17.041605 30.493194 -0.568923 2.163814 0.036530 -0.018827 -610402.000000 0 0 1
-20.526307 12.477187 -17.073305 29.470447 -0.546181 2.188711 0.050476 -0.019893 -618626.000000 0 0 1
-19.315507 12.601187 -16.156305 28.158568 -0.578051 2.181888 0.047853 -0.023506 -978821.000000 0 0 1
-18.313307 13.449587 -16.577905 28.126421 -0.633453 2.201121 0.033648 -0.011839 -423038.000000 0 0 1
-17.381207 13.673787 -15.517405 27.016082 -0.666578 2.182639 0.029732 -0.007553 -252614.000000 0 0 1
-16.604507 14.929987 -15.833905 27.373833 -0.732347 2.187602 0.008953 0.000119 -707039.000000 0 0 1
-15.850707 14.781187 -16.997105 27.543238 -0.750497 2.235856 0.012411 0.002929 -179379.000000 0 0 1
-14.865507 15.807287 -17.028105 27.582784 -0.816093 2.236160 -0.000006 0.004393 352138.000000 0 0 1
-13.929407 15.771887 -18.270505 27.867403 -0.847352 2.285803 -0.004245 0.005922 214084.000000 0 0 1
-13.094207 14.630187 -18.355305 26.877832 -0.840743 2.322544 -0.006375 0.006999 7638.170000 0 0 1
-12.417907 14.571487 -19.618005 27.411654 -0.865023 2.368395 -0.000158 0.004834 533181.000000 0 0 1
-11.341207 13.457787 -19.639305 26.371145 -0.870541 2.410922 -0.003141 -0.000344 313223.000000 0 0 1
-11.982507 12.192087 -19.803105 26.160857 -0.794067 2.429467 0.011062 -0.005944 309186.000000 0 0 1
-11.051507 11.121487 -19.763805 25.227589 -0.788554 2.470947 -0.003495 0.005860 15150.000000 0 0 1
-11.509207 9.883887 -20.621305 25.600611 -0.709570 2.507316 0.006201 -0.004013 77065.000000 0 0 1
-11.099407 10.038187 -21.954405 26.569869 -0.735235 2.543284 0.005849 -0.000374 -136113.000000 0 0 1
-11.489207 8.959887 -22.738805 27.006198 -0.662335 2.571748 0.001725 0.004918 -74928.500000 0 0 1
-11.223807 9.079687 -24.243405 28.216259 -0.680185 2.604500 0.001891 0.000505 689964.000000 0 0 1
-9.834507 8.869087 -24.569205 27.911003 -0.733827 2.647226 -0.006287 0.005396 627619.000000 0 0 1
-9.594407 8.213687 -25.839745 28.761254 -0.708020 2.686959 -0.019442 -0.000217 -275645.000000 0 0 1
-9.736007 9.045487 -27.122855 30.203641 -0.748649 2.685998 0.010564 0.000422 163178.000000 0 0 1
-8.604607 9.848887 -27.453395 30.409353 -0.852724 2.697020 0.002976 -0.009573 319364.000000 0 0 1
-8.470107 11.032487 -26.715715 30.119560 -0.916036 2.661580 -0.006973 -0.004696 1342000.000000 0 0 1
-6.942207 11.498087 -26.736205 29.920309 -1.027609 2.676055 0.005503 -0.006302 1462320.000000 0 0 1
-6.477407 12.033887 -27.982385 31.141373 -1.077008 2.687273 0.000395 -0.008817 498264.000000 0 0 1
-5.085507 12.301887 -27.867135 30.883264 -1.178798 2.695959 0.016663 -0.014100 213922.000000 0 0 1
-4.458807 12.901087 -29.167765 32.203688 -1.238033 2.703889 0.013532 -0.011092 744358.000000 0 0 1
-3.026407 12.988987 -29.067215 31.980868 -1.341882 2.711420 0.027058 -0.017252 794978.000000 0 0 1
-2.490507 13.087787 -30.385135 33.177541 -1.382752 2.728377 0.021467 -0.017146 956323.000000 0 0 1
-0.939207 12.857687 -30.486735 33.100502 -1.497879 2.741527 0.038639 -0.025280 523078.000000 0 0 1
-0.524507 11.579187 -29.935225 32.100940 -1.525530 2.772165 0.022517 -0.013220 -411770.000000 0 0 1
0.843593 11.318787 -30.023055 32.096891 1.496404 2.780152 0.040136 -0.015493 -287623.000000 0 0 1
1.349793 10.863987 -31.418995 33.271630 1.447185 2.806312 0.040904 -0.011805 -480359.000000 0 0 1
1.226093 11.826787 -32.456245 34.565648 1.467495 2.790432 0.044183 -0.024566 260101.000000 0 0 1
1.705993 11.247987 -33.655275 35.526119 1.420273 2.815618 0.037191 -0.022824 -27841.100000 0 0 1
1.768693 12.112787 34.065316 36.197978 1.425802 0.344977 0.040312 -0.023027 -1102210.000000 0 0 1
2.990693 12.748387 33.942836 36.381063 1.340369 0.368189 0.040462 -0.021896 -811863.000000 0 0 1
3.043793 13.462187 32.734208 35.524970 1.348436 0.399020 0.041947 -0.014924 911565.000000 0 0 1
4.516593 13.678887 32.213758 35.287926 1.251880 0.420504 0.051011 -0.017950 800068.000000 0 0 1
5.080593 12.484187 31.715788 34.460971 1.184302 0.401849 0.052094 -0.017007 240790.000000 0 0 1
6.476093 12.612587 31.486598 34.531478 1.096437 0.423094 0.051907 -0.010534 217031.000000 0 0 1
7.161993 11.294587 31.135758 33.886535 1.005674 0.405706 0.034576 -0.003549 -364477.000000 0 0 1
6.746993 10.673687 30.003048 32.551995 1.007097 0.398366 0.024139 -0.007000 155648.000000 0 0 1
7.721593 9.718387 29.552208 32.053128 0.899397 0.397644 0.022379 0.000493 518130.000000 0 0 1
7.186893 8.713287 28.480948 30.638818 0.881103 0.377550 0.008435 -0.001022 357223.000000 0 0 1
6.209493 7.762587 28.923138 30.583712 0.896101 0.331043 0.008894 -0.004049 206264.000000 0 0 1
5.675193 7.002987 27.896618 29.316735 0.889748 0.312527 0.019130 -0.006894 -302521.000000 0 0 1
4.845893 5.755987 28.294858 29.278201 0.871031 0.259907 0.027554 -0.018346 -127097.000000 0 0 1
5.602593 4.637887 28.741218 29.647203 0.691470 0.247854 0.017481 -0.013294 86204.100000 0 0 1
5.107293 4.137687 29.992508 30.704322 0.680901 0.215745 0.016128 -0.015273 -365577.000000 0 0 1
6.008893 3.127387 30.734618 31.472275 0.479881 0.216935 0.030071 -0.010412 -131468.000000 0 0 1
5.983693 1.869587 30.139768 30.784826 0.302837 0.205073 0.029594 -0.001623 875109.000000 0 0 1
7.112293 1.711387 29.217428 30.119290 0.236135 0.245331 0.024798 -0.002836 708448.000000 0 0 1
7.014793 0.379587 28.418868 29.274280 0.054060 0.242339 0.016489 -0.004898 47532.500000 0 0 1
7.358593 -0.728913 29.247498 30.167803 -0.098734 0.247639 0.003125 -0.001331 -44546.400000 0 0 1
7.424893 -1.944813 28.536988 29.551159 -0.256176 0.262744 0.008972 0.001319 -522195.000000 0 0 1
7.828893 -3.111213 29.495798 30.675288 -0.378264 0.278208 -0.000576 0.001293 812702.000000 0 0 1
9.214593 -3.129513 29.868878 31.414208 -0.327403 0.314963 -0.005014 -0.008074 574853.000000 0 0 1
10.044093 -3.857913 29.005258 30.936585 -0.366723 0.355216 -0.000957 -0.002382 91967.100000 0 0 1
11.495993 -4.085913 29.512958 31.935360 -0.341496 0.392000 -0.000175 -0.007553 564037.000000 0 0 1
12.332393 -4.977213 28.759878 31.685819 -0.383596 0.433127 0.007999 -0.007125 485363.000000 0 0 1
12.538193 -6.114813 29.621858 32.742200 -0.453755 0.440122 0.015549 -0.006386 -385447.000000 0 0 1
11.836893 -7.463313 29.247768 32.422908 -0.562554 0.446252 0.011068 -0.003463 -522532.000000 0 0 1
10.446693 -7.381713 29.280628 31.952750 -0.615147 0.411873 0.004550 0.001926 -899655.000000 0 0 1
9.841793 -8.623313 29.086068 31.893914 -0.719505 0.422753 0.002029 0.004561 1263630.000000 0 0 1
8.284093 -8.519413 28.731788 31.092157 -0.799401 0.392162 0.000070 0.005150 1802190.000000 0 0 1
7.549093 -8.106713 29.875648 31.863175 -0.821001 0.355067 0.001190 0.008065 396521.000000 0 0 1
6.216093 -7.678213 29.608478 31.213086 -0.890244 0.322040 -0.007667 0.012967 572788.000000 0 0 1
5.547693 -6.897413 30.772728 32.020493 -0.893430 0.280084 -0.010892 0.007097 104872.000000 0 0 1
5.315093 -7.624513 31.929258 33.254487 -0.962015 0.283262 -0.014201 0.006837 -193482.000000 0 0 1
4.754393 -6.913713 33.003414 34.053326 -0.968390 0.248962 -0.009397 0.006790 35791.400000 0 0 1
5.584393 -5.745613 33.646145 34.587000 -0.799627 0.233781 0.010918 0.007646 112905.000000 0 0 1
5.577493 -4.536113 32.835458 33.613272 -0.682792 0.215545 0.009307 0.004713 -45308.800000 0 0 1
6.091993 -3.469813 33.637556 34.360401 -0.517744 0.205482 0.014272 0.005979 -113554.000000 0 0 1
6.131793 -2.108813 32.961058 33.592816 -0.331243 0.194245 0.016439 0.005805 820223.000000 0 0 1
4.847193 -1.565313 32.575998 32.971823 -0.312360 0.155107 0.013567 0.004564 729042.000000 0 0 1
4.956993 -0.193413 32.252778 32.632053 -0.038998 0.152613 0.014975 0.006077 -107041.000000 0 0 1
3.601593 0.467187 31.929358 32.135240 0.128996 0.113257 0.009069 -0.002718 293011.000000 0 0 1
2.754193 0.537587 33.083013 33.201812 0.192765 0.084619 0.015821 -0.004823 -686425.000000 0 0 1
1.421393 0.737987 32.754128 32.793260 0.478889 0.048857 0.022930 0.000028 -515178.000000 0 0 1
0.614993 0.926887 34.056063 34.074225 0.984987 0.032651 0.026999 -0.002136 -337471.000000 0 0 1
1.069393 2.075987 -34.310992 34.390369 1.095122 3.073637 0.024209 0.002258 -302710.000000 0 0 1
0.361393 2.322687 -33.166995 33.250188 1.416441 3.070838 0.013114 0.010418 -519455.000000 0 0 1
0.997993 3.379687 -32.221385 32.413514 1.283665 3.032659 0.013856 0.013976 753240.000000 0 0 1
2.192293 2.946387 -31.546295 31.759346 0.931107 3.025698 0.008923 0.016409 660514.000000 0 0 1
2.767893 4.006987 -30.759355 31.142497 0.966294 2.984569 0.005388 0.024128 179700.000000 0 0 1
3.851293 3.493087 -29.772105 30.222712 0.736664 2.968695 0.020171 0.021911 86430.200000 0 0 1
3.345693 2.716887 -28.721995 29.043556 0.682049 2.992649 0.027114 -0.005455 761995.000000 0 0 1
4.463093 2.137387 -28.021085 28.454680 0.446628 2.966796 0.041517 -0.011804 565402.000000 0 0 1
4.079293 1.463687 -26.672205 27.022019 0.344501 2.980512 0.037692 -0.016163 108627.000000 0 0 1
3.388193 0.242687 -26.924655 27.138087 0.071505 3.016094 0.040981 -0.012489 -9741.010000 0 0 1
3.009393 -0.428313 -25.756525 25.935275 -0.141376 3.024119 0.034240 -0.008894 -463261.000000 0 0 1
3.674293 -1.789113 -25.467745 25.793553 -0.453135 2.982482 0.043793 -0.022243 -916160.000000 0 0 1
5.046893 -1.684613 -25.314575 25.867678 -0.322163 2.934428 0.037533 -0.025248 -1260740.000000 0 0 1
5.484593 -2.924813 -25.013305 25.774032 -0.489914 2.898029 0.029944 -0.031152 -422363.000000 0 0 1
6.963293 -2.918013 -24.543605 25.678606 -0.396826 2.843164 0.027054 -0.027907 525737.000000 0 0 1
7.856193 -2.656713 -25.623875 26.932524 -0.326095 2.828580 0.017665 -0.021893 683305.000000 0 0 1
9.235393 -2.844013 -25.233705 27.020747 -0.298732 2.775866 0.010149 -0.011464 1178670.000000 0 0 1
-28.582697 -4.303613 17.894658 33.995742 0.149444 1.016460 0.037644 -0.004821 -533082.000000 0 0 1
-29.944037 -4.048913 18.072758 35.208857 0.134401 1.031769 0.030843 -0.000805 -649385.000000 0 0 1
-30.469827 -4.976313 18.987058 36.244757 0.161890 1.019424 0.025537 -0.004967 -42997.000000 0 0 1
-31.939397 -4.699513 19.329558 37.627680 0.146090 1.031298 0.022825 -0.004417 -323028.000000 0 0 1
-32.895127 -4.934013 18.334258 37.981297 0.148882 1.067041 0.020377 -0.005721 66323.200000 0 0 1
-34.194845 -4.775713 18.870058 39.346842 0.138764 1.070617 0.008700 -0.001996 304536.000000 0 0 1
35.190640 -4.749713 17.789358 39.716523 -0.134160 1.106372 0.000146 -0.003834 1013170.000000 0 0 1
33.825926 -4.761813 18.235558 38.722135 -0.139855 1.080447 -0.003000 -0.001198 845092.000000 0 0 1
32.921406 -4.890313 17.129958 37.432200 -0.147467 1.095473 0.002975 -0.001716 -611723.000000 0 0 1
31.564976 -5.302013 17.623958 36.538513 -0.166418 1.067473 0.005588 0.003904 -1183330.000000 0 0 1
31.017326 -4.362413 18.541458 36.399050 -0.139728 1.036316 0.009622 -0.007315 798767.000000 0 0 1
29.810946 -4.922513 19.091858 35.741050 -0.163648 1.007269 0.013027 -0.008814 626524.000000 0 0 1
29.230306 -4.320713 20.411958 35.912775 -0.146754 0.966266 0.018642 -0.005398 -137377.000000 0 0 1
28.445246 -3.156413 20.353958 35.119490 -0.110512 0.952604 0.017766 -0.005208 -140634.000000 0 0 1
29.075826 -1.997013 19.900758 35.290677 -0.068575 0.971684 0.014023 -0.005335 -613531.000000 0 0 1
28.337926 -0.762213 20.303858 34.869265 -0.026891 0.949260 0.008540 0.001069 -335674.000000 0 0 1
28.791716 0.367487 19.631858 34.849789 0.012763 0.972388 0.008239 -0.001520 565359.000000 0 0 1
27.856826 1.422887 19.934458 34.284253 0.051034 0.950291 0.010660 -0.001863 626504.000000 0 0 1
28.287156 2.810487 19.262158 34.337920 0.099031 0.975253 0.001425 0.006339 24520.600000 0 0 1
28.025166 2.688587 17.884358 33.353991 0.095642 1.004869 0.002689 -0.000934 83224.000000 0 0 1
27.968496 3.926187 17.210358 33.073375 0.139468 1.023513 0.000874 0.002169 119207.000000 0 0 1
27.725376 3.756787 15.703958 32.084642 0.134680 1.059333 0.002287 -0.001941 -292305.000000 0 0 1
27.724386 4.976287 14.907858 31.869252 0.177600 1.084017 -0.004041 -0.002488 76654.600000 0 0 1
26.911626 4.829887 13.774458 30.615341 0.177582 1.104120 -0.000886 -0.002737 -442614.000000 0 0 1
26.395606 6.097587 13.174058 30.124150 0.227025 1.118174 0.013161 0.003998 -171133.000000 0 0 1
25.444456 6.736187 13.983858 29.805114 0.258804 1.082438 0.010410 0.007735 -268401.000000 0 0 1
24.908536 7.902187 13.426458 29.379406 0.307205 1.096174 0.021821 -0.000479 183341.000000 0 0 1
23.730936 8.475887 14.304558 28.976169 0.343045 1.054496 0.021500 0.008471 1525680.000000 0 0 1
22.396836 7.935687 14.302258 27.733517 0.340520 1.028968 0.028253 0.009502 1193860.000000 0 0 1
22.293436 6.572187 14.670058 27.484569 0.286683 1.007760 0.035289 0.002425 337248.000000 0 0 1
20.910336 5.884487 14.298958 26.006337 0.274321 0.988641 0.044478 0.000271 854642.000000 0 0 1
20.691336 5.683287 12.937658 25.056220 0.268059 1.028219 0.047310 -0.004297 1055320.000000 0 0 1
19.557636 4.850787 12.586358 23.758108 0.243119 1.012466 0.041231 -0.004090 567582.000000 0 1 0
19.250736 4.882087 11.081358 22.742518 0.248369 1.061855 0.044575 -0.005216 117995.000000 0 1 0
20.307936 4.259387 10.367758 23.195798 0.206743 1.107424 0.046828 -0.004694 592837.000000 0 1 0
19.990336 4.072687 8.988158 22.293212 0.200982 1.155808 0.054251 -0.009203 -456837.000000 0 1 0
21.102236 3.333387 8.268758 22.908256 0.156669 1.201509 0.054859 -0.007501 -1034240.000000 0 1 0
21.375736 2.000087 8.766558 23.189976 0.093296 1.183126 0.058077 -0.010768 347956.000000 0 1 0
22.188236 1.273587 7.884758 23.581969 0.057336 1.229875 0.047395 -0.010388 -246146.000000 0 1 0
23.713536 1.560087 7.862458 25.031658 0.065694 1.251287 0.045133 -0.012479 88339.900000 0 0 1
24.472936 1.099787 9.005658 26.100498 0.044909 1.218517 0.031860 -0.003461 756416.000000 0 0 1
24.357636 1.991687 10.132458 26.456152 0.081587 1.177765 0.035702 -0.003664 -468310.000000 0 0 1
25.015436 1.413187 11.399258 27.526573 0.056433 1.143822 0.017482 -0.003460 -924894.000000 0 0 1
26.373876 1.182387 11.334358 28.730594 0.044802 1.165267 0.013979 -0.010196 -849761.000000 0 0 1
26.849326 0.569587 12.531158 29.635126 0.021211 1.134210 0.005091 -0.013276 29286.100000 0 0 1
28.394426 0.584787 12.578858 31.061440 0.020592 1.153854 0.008016 -0.013803 1411.440000 0 0 1
28.886416 1.785387 13.095958 31.766598 0.061729 1.145868 0.000782 -0.011400 -517729.000000 0 0 1
30.282186 1.744087 13.141258 33.056698 0.057531 1.161965 -0.001865 -0.006187 -294006.000000 0 0 1
30.910626 3.151187 13.446658 33.855714 0.101594 1.162359 0.001855 -0.010115 -397717.000000 0 0 1
30.732346 4.075187 12.384858 33.383663 0.131833 1.190726 0.002485 -0.008601 218872.000000 0 0 1
31.572786 5.212387 12.551858 34.373812 0.163615 1.196994 -0.000810 -0.010590 -52030.600000 0 0 1
32.987736 5.093187 11.967858 35.459285 0.153187 1.226526 -0.001527 -0.008727 -464924.000000 0 0 1
33.740716 4.282187 12.858758 36.360978 0.126240 1.209335 -0.002982 -0.008247 780538.000000 0 0 1
35.137932 4.270687 12.499258 37.538573 0.120947 1.231344 0.011374 -0.006044 957937.000000 0 0 1
-34.483495 3.303287 13.311358 37.110853 -0.095502 1.203930 0.027861 -0.002229 -599582.000000 0 0 1
-34.449532 1.977487 12.904158 36.840169 -0.057340 1.212933 0.025805 -0.002114 679451.000000 0 0 1
34.928072 1.111487 13.202658 37.356603 0.031811 1.209569 0.021409 0.004406 647738.000000 0 0 1
34.602761 0.738287 14.676658 37.593888 0.021333 1.169730 0.022813 0.000779 -287866.000000 0 0 1
-34.889300 -0.038413 15.291058 38.093060 0.001101 1.157737 0.025755 0.002273 387828.000000 0 0 1
35.165448 -0.773113 16.445058 38.828422 -0.021981 1.133456 0.032674 0.000162 -127870.000000 0 0 1
-34.102943 -1.479313 17.052058 38.157198 0.043351 1.107511 0.028470 -0.009155 517430.000000 0 0 1
-33.102877 -0.550913 17.509758 37.452578 0.016641 1.084315 0.030819 0.000926 770979.000000 0 0 1
-32.021317 -1.090513 18.263558 36.879690 0.034043 1.052708 0.028650 0.000136 455988.000000 0 0 1
-32.271747 -1.001413 19.796758 37.873211 0.031021 1.020768 0.017630 -0.005210 179742.000000 0 0 1
-33.230457 -1.872813 20.392658 39.033719 0.056299 1.021090 0.015316 -0.013674 216104.000000 0 0 1
-33.306147 -1.644713 21.769558 39.823588 0.049342 0.992438 0.010336 -0.010838 135114.000000 0 0 1
-34.075864 -2.644313 22.626058 40.988967 0.077446 0.986031 0.008414 -0.004168 477767.000000 0 0 1
-33.321657 -3.890613 22.638958 40.472115 0.116233 0.977169 0.012906 -0.004252 695807.000000 0 0 1
-33.957137 -4.898013 23.443758 41.553429 0.143253 0.971352 0.008254 -0.002991 -45191.300000 0 0 1
-33.796647 -4.757513 24.951848 42.278150 0.139850 0.939511 0.010012 -0.006393 -373962.000000 0 0 1
-32.464047 -4.495713 25.296158 41.400742 0.137608 0.913464 0.014455 -0.013085 -670880.000000 0 0 1
-32.311077 -4.209413 26.662458 42.102393 0.129548 0.885017 0.015897 -0.011453 -153111.000000 0 0 1
-31.019677 -3.482113 27.062868 41.312762 0.111787 0.856517 0.026830 -0.006488 -121113.000000 0 0 1
-30.810147 -2.099813 26.730188 40.843327 0.068048 0.857333 0.020028 -0.007074 -122507.000000 0 0 1
-30.547497 -1.814713 25.367188 39.748421 0.059337 0.878647 0.023918 -0.002711 -234397.000000 0 0 1
-30.644897 -0.273713 25.213708 39.685208 0.008932 0.882344 0.015022 0.002788 -115723.000000 0 0 1
-31.926977 0.256787 25.458158 40.835225 -0.008043 0.897666 0.017770 -0.000540 -273178.000000 0 0 1
-31.959587 1.644787 25.308978 40.800305 -0.051419 0.901654 0.012512 0.000705 192645.000000 0 0 1
-33.319787 2.317687 24.936858 41.682452 -0.069447 0.929471 0.014369 0.002292 305060.000000 0 0 1
-33.807007 1.850087 23.696758 41.326419 -0.054670 0.960141 0.011407 0.008593 -188647.000000 0 0 1
-34.937951 2.554687 23.211858 42.023532 -0.072991 0.985611 0.009062 0.017349 244470.000000 0 0 1
-34.621334 3.918287 22.521558 41.487472 -0.112696 0.996967 0.014106 0.021877 -208826.000000 0 0 1
-33.941507 3.760687 21.283458 40.238716 -0.110349 1.013457 0.014539 0.006484 -338527.000000 0 0 1
-34.752880 3.491487 20.171658 40.334216 -0.100130 1.047067 0.018098 0.001880 -387005.000000 0 0 1
-34.101661 2.638387 19.064458 39.157859 -0.077214 1.062303 0.021807 0.001315 -446003.000000 0 0 1
-33.133067 3.315487 18.332958 38.011708 -0.099734 1.067521 0.021579 0.003002 -245694.000000 0 0 1
-32.812827 2.524187 17.198458 37.132736 -0.076776 1.089237 0.033451 0.005307 -510221.000000 0 0 1
-31.809527 3.158187 16.312258 35.887462 -0.098960 1.098942 0.024947 0.005750 -152113.000000 0 0 1
-32.517307 4.203187 15.655558 36.333711 -0.128547 1.125326 0.018694 0.001987 247522.000000 0 0 1
-31.590757 5.036787 15.070158 35.361771 -0.158108 1.130541 0.031920 -0.001498 -380194.000000 0 0 1
-32.250617 6.398887 14.713458 36.021298 -0.195868 1.150024 0.022270 -0.006894 310316.000000 0 0 1
-31.422977 7.187487 13.890058 35.099817 -0.224865 1.163934 0.036467 -0.006631 217670.000000 0 0 1
-32.058647 8.412087 13.694758 35.861769 -0.256612 1.178971 0.005087 -0.005216 70602.000000 0 0 1
-31.333967 9.152987 12.520158 34.962108 -0.284203 1.204557 0.018289 -0.002023 133861.000000 0 0 1
-31.716907 10.515187 12.375758 35.632720 -0.320129 1.216091 0.005839 0.002072 116130.000000 0 0 1
-30.909797 11.174687 11.399058 34.788327 -0.346906 1.236961 0.000130 0.000934 10513.000000 0 0 1
-31.161137 12.663087 11.308958 35.486093 -0.385989 1.246452 -0.011751 0.006355 -207131.000000 0 0 1
-30.512997 13.280087 10.222358 34.812359 -0.410501 1.272762 -0.003574 0.005426 -53158.000000 0 0 1
-30.655277 14.737687 10.265658 35.529272 -0.448134 1.277682 -0.013481 0.008287 -176223.000000 0 0 1
-29.751797 15.415087 9.218858 34.753154 -0.478041 1.302316 0.002276 0.000733 211978.000000 0 0 1
-28.385667 15.478287 9.620658 33.732485 -0.499216 1.281577 0.008240 0.006926 485173.000000 0 0 1
-27.632257 16.301487 8.719058 33.246084 -0.532993 1.305435 0.012472 -0.004612 49701.500000 0 0 1
-26.217257 16.574087 9.269258 32.372273 -0.563747 1.280399 0.032698 -0.010702 -223035.000000 0 0 1
-26.133717 17.274187 10.489958 33.036464 -0.584064 1.247676 0.032007 -0.013426 159780.000000 0 0 1
-26.188287 18.696487 10.402758 33.817191 -0.620011 1.258108 0.036298 -0.018911 -98344.600000 0 0 1
-26.144447 19.390387 11.752558 34.606962 -0.638144 1.224304 0.047306 -0.004227 -354180.000000 0 0 1
-24.880007 19.295087 12.351058 33.821055 -0.659638 1.196961 0.051176 -0.005407 -121826.000000 0 0 1
-24.842407 19.771887 13.698258 34.579112 -0.672231 1.163484 0.054215 -0.012795 -17705.800000 0 0 1
-25.245147 18.738387 14.806258 34.751545 -0.638527 1.130663 0.048265 -0.011252 -216069.000000 0 0 1
-24.247207 17.813787 15.098058 33.663176 -0.633620 1.105706 0.059746 -0.013001 514.707000 0 0 1
-24.731707 16.928487 16.105958 34.024005 -0.600237 1.077683 0.057571 -0.009101 -7428.840000 0 0 1
-23.694307 15.829687 16.366958 32.861474 -0.588980 1.049437 0.061109 -0.016982 -73553.100000 0 0 1
-22.450707 16.317687 16.853558 32.470657 -0.628502 1.025069 0.052803 -0.021238 257466.000000 0 0 1
-21.585007 15.251787 17.259158 31.565932 -0.615136 0.992300 0.038908 -0.024982 -91963.100000 0 0 1
-22.030607 14.374587 18.449758 32.130515 -0.578118 0.959154 0.033344 -0.017915 -826496.000000 0 0 1
-21.961707 14.932987 19.776758 33.112397 -0.597146 0.930714 0.028878 -0.012324 140142.000000 0 0 1
-22.340307 13.941787 20.730558 33.514456 -0.557926 0.903893 0.016838 -0.003214 -505339.000000 0 0 1
-21.921307 14.375887 22.159858 34.325925 -0.580438 0.869024 0.022386 -0.003445 1593140.000000 0 0 1
-20.505107 14.510287 22.516358 33.734170 -0.615837 0.839998 0.029053 -0.010515 1514450.000000 0 0 1
-20.034907 15.787487 22.105058 33.753160 -0.667380 0.856742 0.025637 0.000004 -1772220.000000 0 0 1
-18.571407 15.913687 22.394458 33.161037 -0.708482 0.829392 0.043895 -0.017637 -400385.000000 0 0 1
-17.701807 15.105687 21.534158 31.705768 -0.706431 0.824141 0.023890 -0.010984 434585.000000 0 0 1
-17.203707 15.768887 20.420158 31.009808 -0.741910 0.851964 0.020870 -0.022062 -1403210.000000 0 0 1
-16.044407 15.007987 19.675058 29.491873 -0.752034 0.840440 0.024287 -0.011502 1351220.000000 0 0 1
-14.886707 14.687287 20.476558 29.268069 -0.778655 0.795929 0.028886 -0.008834 710200.000000 0 0 1
-14.270007 15.877087 21.068258 29.993107 -0.838656 0.791981 0.019614 -0.019730 -2094780.000000 0 0 1
-13.168407 15.406987 21.975958 29.895232 -0.863578 0.744984 -0.010626 -0.008238 -1044140.000000 0 0 1
-12.168907 14.752087 21.236358 28.577776 -0.881059 0.733094 0.006299 -0.009596 -540122.000000 0 0 1
-11.298807 14.125787 22.178358 28.619582 -0.896134 0.684182 0.003756 -0.001768 458106.000000 0 0 1
-10.098507 13.414187 21.478058 27.262194 -0.925491 0.663514 0.003773 0.001466 -1044480.000000 0 0 1
-9.651907 12.309287 22.212158 27.167220 -0.905816 0.613551 0.008445 0.005865 1666390.000000 0 0 1
-8.425307 11.738987 21.612358 25.997762 -0.948276 0.589325 0.010836 -0.002279 2441790.000000 0 0 1
-7.075307 12.541487 21.770558 26.101840 -1.057153 0.584366 0.002606 -0.000997 -199222.000000 0 0 1
-7.093407 13.753087 20.947558 26.043502 -1.094614 0.636250 -0.004553 0.002306 -279018.000000 0 0 1
-6.192907 14.727687 21.464358 26.757719 -1.172748 0.639868 -0.016715 0.012496 133831.000000 0 0 1
-6.778207 15.740087 22.490758 28.275937 -1.164164 0.651125 -0.015297 0.003131 -433068.000000 0 0 1
-7.693107 16.622987 21.952558 28.590600 -1.137350 0.695358 -0.032916 0.007140 -890922.000000 0 0 1
-7.172307 17.830787 21.466958 28.813352 -1.188358 0.730209 -0.029225 0.023863 -1125120.000000 0 0 1
-7.838507 18.360087 20.139858 28.357519 -1.167290 0.780997 -0.023496 0.024862 363428.000000 0 0 1
-9.159607 18.838987 20.153258 29.068189 -1.118246 0.804725 -0.013909 0.007166 782726.000000 0 0 1
-10.221207 17.898287 20.572858 29.121542 -1.051919 0.786329 -0.014812 -0.002550 167503.000000 0 0 1
-11.505607 18.671587 20.823958 30.243088 -1.018543 0.811305 -0.018650 -0.007794 -812276.000000 0 0 1
-12.353707 18.816687 19.735858 29.936364 -0.989845 0.850962 -0.013238 -0.005801 -255233.000000 0 0 1
-13.529507 19.504887 20.159558 31.143153 -0.964347 0.866734 -0.008128 -0.013357 426998.000000 0 0 1
-14.527407 19.737887 18.995258 31.007250 -0.936305 0.911442 0.005654 -0.011351 141257.000000 0 0 1
-15.261607 18.581687 18.566558 30.379480 -0.883187 0.913278 0.026210 -0.015255 311300.000000 0 0 1
-16.025207 18.865887 17.406158 30.260590 -0.866635 0.957937 0.033475 -0.020865 -650598.000000 0 0 1
-16.747407 17.623387 16.821958 29.564128 -0.810879 0.965508 0.036355 -0.025958 306071.000000 0 0 1
-17.793007 17.018987 17.551858 30.237472 -0.763168 0.951494 0.032440 -0.028510 -272672.000000 0 0 1
-19.004207 17.726287 17.456358 31.306638 -0.750620 0.979313 0.038827 -0.026028 -651695.000000 0 0 1
33.330776 -9.686313 11.906195 36.694997 -0.282822 1.240352 -0.003939 0.002516 -795355.000000 0 0 1
31.986676 -9.997913 11.708095 35.499087 -0.302944 1.234690 -0.018940 0.008065 -425978.000000 0 0 1
31.757096 -11.252813 12.358795 35.887028 -0.340536 1.219217 -0.007767 0.006612 -992491.000000 0 0 1
30.331126 -11.703713 12.165895 34.712579 -0.368262 1.212718 -0.018732 0.015158 -834630.000000 0 0 1
29.381496 -10.807713 12.739095 33.798869 -0.352479 1.184340 -0.014494 0.014336 466757.000000 0 0 1
28.038966 -11.251813 12.772195 32.801157 -0.381620 1.170835 -0.006667 0.009681 356364.000000 0 0 1
27.613406 -12.177613 13.949295 33.247215 -0.415347 1.137833 -0.016565 0.006011 -615410.000000 0 0 1
27.698056 -11.452213 15.155495 33.586076 -0.392061 1.102638 -0.008451 -0.000239 228258.000000 0 0 1
27.085816 -12.071413 16.283895 33.830839 -0.419250 1.068622 -0.001092 -0.004155 -492521.000000 0 0 1
25.664986 -11.573313 16.495595 32.630319 -0.423634 1.040801 0.027270 -0.020601 -731545.000000 0 0 1
25.496536 -10.236313 16.986695 32.301753 -0.381780 1.017052 0.023123 -0.015394 -28099.000000 0 0 1
24.911536 -9.408913 15.983895 31.057965 -0.361130 1.030200 0.037090 -0.016315 5110.650000 0 0 1
24.719236 -7.923813 16.304595 30.653993 -0.310204 1.009964 0.042463 -0.022585 1208070.000000 0 0 1
25.926056 -7.091513 16.392695 31.482859 -0.266998 1.023142 0.027259 -0.021767 1172140.000000 0 0 1
25.646266 -5.746313 16.848595 31.219004 -0.220420 1.000727 0.014704 -0.005737 282373.000000 0 0 1
26.840996 -4.781113 16.601495 31.920335 -0.176278 1.023838 0.018477 -0.002854 206617.000000 0 0 1
27.101196 -4.573313 15.258395 31.435786 -0.167175 1.063995 0.022889 -0.005811 29578.600000 0 0 1
28.286396 -3.830413 15.121395 32.302459 -0.134597 1.083635 0.017431 -0.004062 -344575.000000 0 0 1
28.479836 -3.171613 13.700095 31.762443 -0.110906 1.124830 0.006861 -0.006906 -341641.000000 0 0 1
28.902236 -4.051913 12.658495 31.811865 -0.139286 1.161551 -0.012578 0.004721 412921.000000 0 0 1
28.992276 -3.440713 11.404795 31.344217 -0.118124 1.198392 -0.007757 -0.000214 -441228.000000 0 0 1
29.490216 -4.412013 10.355695 31.565474 -0.148508 1.236536 0.001617 0.004065 -120214.000000 0 0 1
30.879206 -4.696413 10.386595 32.916000 -0.150933 1.249762 -0.002210 0.006395 331668.000000 0 0 1
31.172366 -5.543013 9.253195 32.985800 -0.175979 1.286460 0.000829 0.009647 -519824.000000 0 0 1
32.556046 -6.177913 9.257495 34.405871 -0.187533 1.298372 0.006311 0.004357 -400482.000000 0 0 1
33.592376 -5.279113 8.886195 35.146568 -0.155877 1.315190 0.015298 0.007819 -328370.000000 0 0 1
34.785935 -5.956713 8.678395 36.343614 -0.169594 1.329679 0.031855 0.000698 -1048860.000000 0 0 1
-34.595128 -5.153613 8.075795 35.897090 0.147882 1.343883 0.037550 -0.000995 -543011.000000 0 0 1
-34.664505 -5.042813 6.689495 35.662406 0.144461 1.382100 0.050468 0.002488 477664.000000 0 0 1
-33.627557 -4.169613 6.235795 34.454077 0.123364 1.388805 0.044015 0.020325 -52713.800000 0 0 1
-33.855897 -3.420613 4.941595 34.385196 0.100693 1.426584 0.049637 0.005611 -272705.000000 0 0 1
-33.542117 -4.229113 3.839395 34.024991 0.125422 1.457715 0.051281 -0.000463 119329.000000 0 0 1
-33.277937 -3.383813 2.678995 33.556643 0.101335 1.490876 0.046737 0.009513 -124206.000000 0 0 1
-32.583317 -4.169813 1.558995 32.886021 0.127282 1.523373 0.064906 -0.005287 26914.500000 0 0 1
-33.256507 -5.360513 1.126095 33.704576 0.159812 1.537379 0.067709 -0.008561 -467537.000000 0 0 1
-34.304765 -5.149213 0.248095 34.689953 0.148990 1.563644 0.059095 -0.013073 -826087.000000 0 0 1
-33.842387 -5.162813 -1.247405 34.256647 0.151387 1.607218 0.066102 -0.014392 -1063760.000000 0 0 1
-33.589907 -6.524013 -1.655105 34.257612 0.191837 1.619129 0.070674 -0.023286 285505.000000 0 0 1
-32.534927 -6.676913 -2.572405 33.312459 0.202413 1.648094 0.055846 -0.020310 35759.300000 0 0 1
-31.108437 -6.219313 -2.146905 31.796602 0.197322 1.638368 0.052768 -0.023151 -462945.000000 0 0 1
-30.652437 -7.043413 -1.089005 31.470105 0.225862 1.605408 0.055875 -0.024340 -462638.000000 0 0 1
-29.418387 -6.644813 -0.560805 30.164707 0.222145 1.589389 0.048829 -0.020863 -313399.000000 0 0 1
-28.754457 -7.725613 0.337895 29.776133 0.262477 1.559448 0.023982 -0.015562 -105795.000000 0 0 1
-28.100677 -8.802813 -0.328305 29.449030 0.303577 1.581945 0.015222 -0.012629 547078.000000 0 0 1
-27.839657 -9.864913 0.578095 29.541449 0.340543 1.551226 0.033369 -0.008150 -205386.000000 0 0 1
-27.484127 -11.184713 -0.092705 29.672945 0.386485 1.573921 0.010454 -0.009197 624116.000000 0 0 1
-26.290707 -11.025513 -0.914105 28.523654 0.397092 1.602849 0.000638 -0.011057 1265330.000000 0 0 1
-25.815807 -12.258313 -1.511305 28.618284 0.443316 1.623630 -0.011930 0.001230 -306757.000000 0 0 1
-26.720597 -13.027013 -2.522105 29.833780 0.453620 1.655436 0.006603 -0.004679 -146807.000000 0 0 1
-27.633207 -13.838013 -1.771605 30.955183 0.464267 1.628059 0.015428 -0.006343 326764.000000 0 0 1
-27.992187 -14.960213 -2.508605 31.838084 0.490820 1.649671 0.023590 -0.018914 -1049210.000000 0 0 1
-28.834547 -15.955613 -1.803705 33.004031 0.505412 1.625475 0.037795 -0.012391 -595701.000000 0 0 1
-28.176967 -16.568313 -0.707305 32.694812 0.531556 1.592432 0.016801 -0.000589 309848.000000 0 0 1
-29.082327 -17.219313 0.197695 33.798307 0.534582 1.564947 0.012842 0.004566 174664.000000 0 0 1
-29.314137 -18.706613 -0.097805 34.774496 0.567995 1.573609 0.020308 0.000566 377081.000000 0 0 1
-28.200517 -19.594013 0.123095 34.339623 0.607235 1.567212 0.017308 -0.005293 548819.000000 0 0 1
-28.523107 -20.958813 0.071495 35.395545 0.633703 1.568776 0.026103 -0.006903 299519.000000 0 0 1
-29.530187 -21.555713 1.104095 36.577312 0.630549 1.540606 0.021649 -0.003467 60454.900000 0 0 1
-28.969797 -21.596613 2.381195 36.212331 0.640607 1.504992 0.009724 -0.004114 237329.000000 0 0 1
-29.887277 -22.130913 3.340495 37.338794 0.637380 1.481212 0.000794 0.008411 311482.000000 0 0 1
-29.171657 -22.255013 4.730295 36.995228 0.651705 1.442583 -0.012186 0.012138 -733095.000000 0 0 1
-28.709747 -21.030613 5.202595 35.966697 0.632223 1.425637 -0.025956 0.012056 20898.000000 0 0 1
-28.081217 -21.181613 6.454295 35.761340 0.646246 1.389319 -0.036341 0.010152 -263316.000000 0 0 1
-27.517007 -19.833413 6.993495 34.633206 0.624529 1.367468 -0.034528 0.020134 17897.400000 0 0 1
-26.626577 -20.068513 8.057595 34.302255 0.645866 1.333681 -0.028209 0.015123 -366557.000000 0 0 1
-26.182697 -18.855013 8.583395 33.387420 0.624110 1.310792 -0.013029 0.006951 498035.000000 0 0 1
-24.984107 -19.111813 9.548695 32.873159 0.653006 1.276077 -0.005214 0.010701 123011.000000 0 0 1
-25.504797 -19.464613 10.826595 33.861202 0.651880 1.245347 -0.009293 0.008388 349805.000000 0 0 1
-24.609007 -20.141113 11.743995 33.899692 0.685887 1.217030 0.002054 0.013265 -120254.000000 0 0 1
-24.109707 -19.187913 12.816995 33.372584 0.672210 1.176609 0.007263 -0.000321 -692041.000000 0 0 1
-23.293207 -18.192613 12.288595 32.008659 0.663064 1.176764 0.004476 -0.003967 -368445.000000 0 0 1
-23.040707 -17.039513 13.104995 31.511269 0.636773 1.141883 0.013405 -0.008903 530263.000000 0 0 1
-22.267407 -17.297813 14.451495 31.684341 0.660447 1.097179 0.034208 -0.016075 -107664.000000 0 0 1
-23.187107 -17.528513 15.511095 32.946696 0.647304 1.080606 0.024052 -0.016275 -179854.000000 0 0 1
-22.521307 -17.795613 16.717595 33.217030 0.668717 1.043402 0.040963 -0.010210 -269627.000000 0 0 1
-23.402507 -18.419313 17.791495 34.691292 0.666804 1.032293 0.032514 0.004072 435172.000000 0 0 1
-24.317107 -17.448113 18.388595 35.126895 0.622391 1.019854 0.041550 0.000660 308679.000000 0 0 1
-25.285657 -18.125013 19.139695 36.526819 0.621919 1.019267 0.029434 0.013341 -251393.000000 0 0 1
-26.250367 -17.128413 19.819895 37.084937 0.578132 1.006944 0.034236 0.005504 -190099.000000 0 0 1
-25.694397 -16.786313 21.097795 37.243782 0.578696 0.968570 0.043072 -0.002349 266642.000000 0 0 1
-26.219917 -15.608513 21.605495 37.388597 0.536951 0.954688 0.047660 -0.007292 -437519.000000 0 0 1
-25.368237 -15.020713 22.720595 37.220891 0.534596 0.914198 0.048293 -0.007654 -1099630.000000 0 0 1
-24.260107 -14.393013 22.217695 35.907347 0.535463 0.903645 0.051314 -0.009567 -571534.000000 0 0 1
-23.415807 -13.916813 23.298995 35.844398 0.536243 0.863207 0.048952 -0.012918 -369965.000000 0 0 1
-22.222607 -13.196913 22.758695 34.437784 0.535886 0.848827 0.045782 -0.004587 -834682.000000 0 0 1
-22.645607 -12.041513 22.059395 33.829550 0.488714 0.860479 0.055111 -0.009997 1206880.000000 0 0 1
-21.510807 -11.395213 21.422995 32.427002 0.487158 0.849108 0.044648 -0.003720 604484.000000 0 0 1
-21.261107 -9.967713 21.891695 32.103525 0.438397 0.820426 0.046730 -0.001093 -22385.200000 0 0 1
-20.723307 -9.735413 23.169095 32.573620 0.439181 0.779473 0.043011 -0.001087 271611.000000 0 0 1
-19.309807 -9.761613 23.234995 31.749374 0.468059 0.749800 0.032011 0.005523 322670.000000 0 0 1
-18.651307 -9.705213 24.669195 32.413448 0.479795 0.705821 0.024158 0.003745 317547.000000 0 0 1
-18.739707 -10.980413 25.330995 33.367730 0.530020 0.708795 0.022861 0.006871 29289.900000 0 0 1
-18.204707 -10.907813 26.660295 34.075843 0.539813 0.672316 0.021355 0.001775 -574095.000000 0 0 1
-18.542907 -12.263913 27.392395 35.278694 0.584334 0.681772 0.025775 -0.013439 572701.000000 0 0 1
-19.817207 -12.371013 28.011695 36.474905 0.558064 0.695128 0.029015 -0.010122 -95642.700000 0 0 1
-20.797807 -12.951413 27.166895 36.583167 0.556965 0.733843 0.026358 -0.005530 290738.000000 0 0 1
-21.980107 -13.564313 28.001395 38.094538 0.552911 0.745056 0.026435 -0.012089 -5595.380000 0 0 1
-21.828107 -14.721813 28.827595 39.041366 0.593367 0.740123 0.024158 -0.011699 -156899.000000 0 0 1
-21.078807 -14.503013 30.053695 39.469964 0.602652 0.705277 0.025116 -0.010130 418853.000000 0 0 1
-21.406707 -15.470313 31.168895 40.854348 0.625789 0.702967 0.024068 -0.011867 -408300.000000 0 0 1
-20.956107 -16.793313 31.025895 41.033888 0.675568 0.713457 0.031743 -0.008529 -177919.000000 0 0 1
-21.311507 -17.562913 32.162095 42.391469 0.689267 0.709492 0.033743 -0.005619 1111510.000000 0 0 1
-22.794807 -18.015713 32.539395 43.623175 0.668825 0.728881 0.032674 -0.006257 1260090.000000 0 0 1
-23.453607 -17.089313 33.375495 44.227141 0.629692 0.715694 0.034744 -0.012199 -746282.000000 0 0 1
-24.691707 -17.608913 33.760395 45.381918 0.619498 0.731883 0.028362 -0.009943 -114715.000000 0 0 1
-25.631967 -16.598213 -34.514368 46.084054 0.574657 2.417263 0.020987 -0.016462 345368.000000 0 0 1
-25.208577 -16.394013 -33.160768 44.764635 0.576610 2.405028 0.020314 -0.014799 -21042.500000 0 0 1
-25.731547 -15.196413 -32.686068 44.287950 0.533461 2.400950 0.004590 -0.011584 -564154.000000 0 0 1
-25.091907 -14.865113 -31.381168 42.841021 0.534832 2.392787 -0.005329 -0.002997 -397566.000000 0 0 1
-25.458077 -15.738813 -30.350468 42.625988 0.553712 2.363164 -0.000723 0.006320 77876.100000 0 0 1
-24.753007 -15.391313 -29.183868 41.246843 0.556292 2.356810 0.012769 0.007328 -309185.000000 0 0 1
-25.324627 -16.130213 -27.929368 41.006952 0.567138 2.320045 0.003469 0.005044 611245.000000 0 0 1
-26.594517 -15.718913 -27.411068 41.300354 0.533819 2.296552 0.010119 -0.001667 592866.000000 0 0 1
-26.669757 -14.345313 -26.970968 40.552399 0.493496 2.298410 0.014921 0.002582 -539500.000000 0 0 1
-25.911887 -13.888513 -25.653968 39.018492 0.492023 2.288269 0.014898 0.002651 1667860.000000 0 0 1
-24.477207 -13.872213 -25.942368 38.269811 0.515605 2.315672 -0.000739 -0.007402 1837490.000000 0 0 1
-23.563807 -13.988913 -24.871968 37.007533 0.535745 2.307809 0.006398 -0.011764 70462.200000 0 0 1
-23.128107 -15.445213 -24.616568 37.140804 0.588795 2.295335 0.004928 -0.012525 -632544.000000 0 0 1
-22.267007 -15.826713 -25.666368 37.484222 0.617917 2.325022 0.000006 -0.003877 -8216.910000 0 0 1
-21.982907 -17.201313 -25.541568 37.835236 0.663970 2.311861 0.004896 -0.004563 308141.000000 0 0 1
-21.040407 -17.678513 -26.723668 38.332532 0.698787 2.342216 -0.000424 -0.003018 458759.000000 0 0 1
-21.644307 -17.608813 -28.031668 39.551495 0.682951 2.358505 0.009654 -0.005697 279163.000000 0 0 1
-22.379007 -18.810513 -28.235168 40.643327 0.698978 2.338808 0.014677 -0.012575 -269130.000000 0 0 1
-23.254407 -18.776113 -29.456768 41.964402 0.679250 2.348923 0.007826 -0.005977 -494373.000000 0 0 1
-22.426607 -18.951213 -30.557968 42.377949 0.701603 2.376159 0.023692 -0.005955 44962.400000 0 0 1
-23.071007 -18.533913 -31.723868 43.384111 0.676776 2.390923 0.012616 -0.005788 -907399.000000 0 0 1
-22.496307 -19.202313 -32.969368 44.292120 0.706567 2.410375 0.030790 -0.014753 67158.700000 0 0 1
-21.292007 -18.524313 -33.377168 43.709668 0.715998 2.439683 0.022362 -0.006640 428010.000000 0 0 1
-20.107507 -19.060713 -32.821168 42.951737 0.758679 2.440504 0.025270 -0.008116 -461633.000000 0 0 1
-19.536707 -20.181913 -33.699768 43.871026 0.801641 2.446752 0.033603 -0.002545 -768458.000000 0 0 1
-18.998507 -19.702813 34.100695 43.726440 0.803595 0.676347 0.022265 -0.008760 -614.050000 0 0 1
-18.623407 -20.761913 33.258595 43.405328 0.839642 0.697838 0.029013 -0.012971 754011.000000 0 0 1
-19.824907 -21.474113 32.480395 43.693713 0.825310 0.732709 0.044330 -0.013017 1070770.000000 0 0 1
-20.697207 -22.200613 33.380995 45.116875 0.820430 0.737907 0.044120 -0.009871 -89158.300000 0 0 1
-21.879607 -22.683313 32.809295 45.493953 0.803432 0.765293 0.035587 -0.000925 -326191.000000 0 0 1
-21.719507 -23.768513 31.714195 45.193687 0.830413 0.792960 0.046154 0.000800 -658354.000000 0 0 1
-21.099907 -24.939513 32.198395 45.868530 0.868604 0.792635 0.037441 0.007347 -212867.000000 0 0 1
-20.987107 -25.997893 31.255495 45.752105 0.891643 0.818731 0.046541 0.010735 118805.000000 0 0 1
-20.417907 -27.256053 31.942195 46.691404 0.927862 0.817409 0.028407 0.001936 471957.000000 0 0 1
-21.397607 -27.733513 32.858995 48.028314 0.913649 0.817347 0.032115 -0.000553 164118.000000 0 0 1
-20.757707 -28.691103 33.643295 48.846014 0.944479 0.811016 0.032117 -0.007730 -861290.000000 0 0 1
-21.642307 -29.458833 -34.362768 50.169833 0.937184 2.325302 0.037566 -0.012101 56086.200000 0 0 1
-22.727107 -30.191203 34.103595 50.902705 0.925523 0.836620 0.038002 -0.012887 313662.000000 0 0 1
-23.807707 -29.387073 33.696395 50.654260 0.889902 0.843003 0.040245 -0.012657 -827570.000000 0 0 1
-24.955207 -29.211203 -34.290668 51.496666 0.863810 2.299471 0.032625 -0.008290 250294.000000 0 0 1
-25.970017 -28.309403 34.278195 51.486491 0.828470 0.842270 0.024851 -0.005911 120849.000000 0 0 1
-26.993417 -28.253693 -33.796968 51.663825 0.808206 2.283882 0.012419 0.004412 -901384.000000 0 0 1
-28.128227 -27.356083 -34.163468 52.025907 0.771483 2.287181 0.007667 -0.001505 -548620.000000 0 0 1
-28.996647 -27.896993 33.860195 52.588597 0.766072 0.871251 0.007391 -0.001884 504171.000000 0 0 1
-30.188567 -27.117613 33.799795 52.812316 0.731861 0.876300 -0.003360 -0.005051 216008.000000 0 0 1
